p cnf 1272 4776
1 2 -2 -3 0
4 2 -5 -6 0
7 2 -8 -9 0
10 2 -11 -12 0
13 2 -14 -15 0
16 2 -17 -18 0
19 2 -20 -21 0
22 2 -23 -24 0
25 5 -2 -26 0
27 5 -5 -28 0
29 5 -8 -30 0
31 5 -11 -32 0
33 5 -14 -34 0
35 5 -17 -36 0
37 5 -20 -38 0
39 5 -23 -40 0
41 8 -2 -42 0
43 8 -5 -44 0
45 8 -8 -46 0
47 8 -11 -48 0
49 8 -14 -50 0
51 8 -17 -52 0
53 8 -20 -54 0
55 8 -23 -56 0
57 11 -2 -58 0
59 11 -5 -60 0
61 11 -8 -62 0
63 11 -11 -64 0
65 11 -14 -66 0
67 11 -17 -68 0
69 11 -20 -70 0
71 11 -23 -72 0
73 14 -2 -74 0
75 14 -5 -76 0
77 14 -8 -78 0
79 14 -11 -80 0
81 14 -14 -82 0
83 14 -17 -84 0
85 14 -20 -86 0
87 14 -23 -88 0
89 17 -2 -90 0
91 17 -5 -92 0
93 17 -8 -94 0
95 17 -11 -96 0
97 17 -14 -98 0
99 17 -17 -100 0
101 17 -20 -102 0
103 17 -23 -104 0
105 20 -2 -106 0
107 20 -5 -108 0
109 20 -8 -110 0
111 20 -11 -112 0
113 20 -14 -114 0
115 20 -17 -116 0
117 20 -20 -118 0
119 20 -23 -120 0
121 23 -2 -122 0
123 23 -5 -124 0
125 23 -8 -126 0
127 23 -11 -128 0
129 23 -14 -130 0
131 23 -17 -132 0
133 23 -20 -134 0
135 23 -23 -136 0
3 -1 0
6 -4 0
9 -7 0
12 -10 0
15 -13 0
18 -16 0
21 -19 0
24 -22 0
26 -25 0
28 -27 0
30 -29 0
32 -31 0
34 -33 0
36 -35 0
38 -37 0
40 -39 0
42 -41 0
44 -43 0
46 -45 0
48 -47 0
50 -49 0
52 -51 0
54 -53 0
56 -55 0
58 -57 0
60 -59 0
62 -61 0
64 -63 0
66 -65 0
68 -67 0
70 -69 0
72 -71 0
74 -73 0
76 -75 0
78 -77 0
80 -79 0
82 -81 0
84 -83 0
86 -85 0
88 -87 0
90 -89 0
92 -91 0
94 -93 0
96 -95 0
98 -97 0
100 -99 0
102 -101 0
104 -103 0
106 -105 0
108 -107 0
110 -109 0
112 -111 0
114 -113 0
116 -115 0
118 -117 0
120 -119 0
122 -121 0
124 -123 0
126 -125 0
128 -127 0
130 -129 0
132 -131 0
134 -133 0
136 -135 0
3 -2 0
6 -2 0
9 -2 0
12 -2 0
15 -2 0
18 -2 0
21 -2 0
24 -2 0
26 -5 0
28 -5 0
30 -5 0
32 -5 0
34 -5 0
36 -5 0
38 -5 0
40 -5 0
42 -8 0
44 -8 0
46 -8 0
48 -8 0
50 -8 0
52 -8 0
54 -8 0
56 -8 0
58 -11 0
60 -11 0
62 -11 0
64 -11 0
66 -11 0
68 -11 0
70 -11 0
72 -11 0
74 -14 0
76 -14 0
78 -14 0
80 -14 0
82 -14 0
84 -14 0
86 -14 0
88 -14 0
90 -17 0
92 -17 0
94 -17 0
96 -17 0
98 -17 0
100 -17 0
102 -17 0
104 -17 0
106 -20 0
108 -20 0
110 -20 0
112 -20 0
114 -20 0
116 -20 0
118 -20 0
120 -20 0
122 -23 0
124 -23 0
126 -23 0
128 -23 0
130 -23 0
132 -23 0
134 -23 0
136 -23 0
3 2 0
6 5 0
9 8 0
12 11 0
15 14 0
18 17 0
21 20 0
24 23 0
26 2 0
28 5 0
30 8 0
32 11 0
34 14 0
36 17 0
38 20 0
40 23 0
42 2 0
44 5 0
46 8 0
48 11 0
50 14 0
52 17 0
54 20 0
56 23 0
58 2 0
60 5 0
62 8 0
64 11 0
66 14 0
68 17 0
70 20 0
72 23 0
74 2 0
76 5 0
78 8 0
80 11 0
82 14 0
84 17 0
86 20 0
88 23 0
90 2 0
92 5 0
94 8 0
96 11 0
98 14 0
100 17 0
102 20 0
104 23 0
106 2 0
108 5 0
110 8 0
112 11 0
114 14 0
116 17 0
118 20 0
120 23 0
122 2 0
124 5 0
126 8 0
128 11 0
130 14 0
132 17 0
134 20 0
136 23 0
137 137 -138 -139 0
140 141 -142 -143 0
144 145 -146 -147 0
148 149 -150 -151 0
152 153 -154 -155 0
156 157 -158 -159 0
160 161 -162 -163 0
164 165 -166 -167 0
141 140 -168 -169 0
170 170 -171 -172 0
173 174 -175 -176 0
177 178 -179 -180 0
181 182 -183 -184 0
185 186 -187 -188 0
189 190 -191 -192 0
193 194 -195 -196 0
145 144 -197 -198 0
174 173 -199 -200 0
201 201 -202 -203 0
204 205 -206 -207 0
208 209 -210 -211 0
212 213 -214 -215 0
216 217 -218 -219 0
220 221 -222 -223 0
149 148 -224 -225 0
178 177 -226 -227 0
205 204 -228 -229 0
230 230 -231 -232 0
233 234 -235 -236 0
237 238 -239 -240 0
241 242 -243 -244 0
245 246 -247 -248 0
153 152 -249 -250 0
182 181 -251 -252 0
209 208 -253 -254 0
234 233 -255 -256 0
257 257 -258 -259 0
260 261 -262 -263 0
264 265 -266 -267 0
268 269 -270 -271 0
157 156 -272 -273 0
186 185 -274 -275 0
213 212 -276 -277 0
238 237 -278 -279 0
261 260 -280 -281 0
282 282 -283 -284 0
285 286 -287 -288 0
289 290 -291 -292 0
161 160 -293 -294 0
190 189 -295 -296 0
217 216 -297 -298 0
242 241 -299 -300 0
265 264 -301 -302 0
286 285 -303 -304 0
305 305 -306 -307 0
308 309 -310 -311 0
165 164 -312 -313 0
194 193 -314 -315 0
221 220 -316 -317 0
246 245 -318 -319 0
269 268 -320 -321 0
290 289 -322 -323 0
309 308 -324 -325 0
326 326 -327 -328 0
139 -137 0
143 -140 0
147 -144 0
151 -148 0
155 -152 0
159 -156 0
163 -160 0
167 -164 0
169 -141 0
172 -170 0
176 -173 0
180 -177 0
184 -181 0
188 -185 0
192 -189 0
196 -193 0
198 -145 0
200 -174 0
203 -201 0
207 -204 0
211 -208 0
215 -212 0
219 -216 0
223 -220 0
225 -149 0
227 -178 0
229 -205 0
232 -230 0
236 -233 0
240 -237 0
244 -241 0
248 -245 0
250 -153 0
252 -182 0
254 -209 0
256 -234 0
259 -257 0
263 -260 0
267 -264 0
271 -268 0
273 -157 0
275 -186 0
277 -213 0
279 -238 0
281 -261 0
284 -282 0
288 -285 0
292 -289 0
294 -161 0
296 -190 0
298 -217 0
300 -242 0
302 -265 0
304 -286 0
307 -305 0
311 -308 0
313 -165 0
315 -194 0
317 -221 0
319 -246 0
321 -269 0
323 -290 0
325 -309 0
328 -326 0
139 -137 0
143 -141 0
147 -145 0
151 -149 0
155 -153 0
159 -157 0
163 -161 0
167 -165 0
169 -140 0
172 -170 0
176 -174 0
180 -178 0
184 -182 0
188 -186 0
192 -190 0
196 -194 0
198 -144 0
200 -173 0
203 -201 0
207 -205 0
211 -209 0
215 -213 0
219 -217 0
223 -221 0
225 -148 0
227 -177 0
229 -204 0
232 -230 0
236 -234 0
240 -238 0
244 -242 0
248 -246 0
250 -152 0
252 -181 0
254 -208 0
256 -233 0
259 -257 0
263 -261 0
267 -265 0
271 -269 0
273 -156 0
275 -185 0
277 -212 0
279 -237 0
281 -260 0
284 -282 0
288 -286 0
292 -290 0
294 -160 0
296 -189 0
298 -216 0
300 -241 0
302 -264 0
304 -285 0
307 -305 0
311 -309 0
313 -164 0
315 -193 0
317 -220 0
319 -245 0
321 -268 0
323 -289 0
325 -308 0
328 -326 0
139 138 0
143 142 0
147 146 0
151 150 0
155 154 0
159 158 0
163 162 0
167 166 0
169 168 0
172 171 0
176 175 0
180 179 0
184 183 0
188 187 0
192 191 0
196 195 0
198 197 0
200 199 0
203 202 0
207 206 0
211 210 0
215 214 0
219 218 0
223 222 0
225 224 0
227 226 0
229 228 0
232 231 0
236 235 0
240 239 0
244 243 0
248 247 0
250 249 0
252 251 0
254 253 0
256 255 0
259 258 0
263 262 0
267 266 0
271 270 0
273 272 0
275 274 0
277 276 0
279 278 0
281 280 0
284 283 0
288 287 0
292 291 0
294 293 0
296 295 0
298 297 0
300 299 0
302 301 0
304 303 0
307 306 0
311 310 0
313 312 0
315 314 0
317 316 0
319 318 0
321 320 0
323 322 0
325 324 0
328 327 0
137 137 329 0
140 141 330 0
144 145 331 0
148 149 332 0
152 153 333 0
156 157 334 0
160 161 335 0
164 165 336 0
141 140 337 0
170 170 338 0
173 174 339 0
177 178 340 0
181 182 341 0
185 186 342 0
189 190 343 0
193 194 344 0
145 144 345 0
174 173 346 0
201 201 347 0
204 205 348 0
208 209 349 0
212 213 350 0
216 217 351 0
220 221 352 0
149 148 353 0
178 177 354 0
205 204 355 0
230 230 356 0
233 234 357 0
237 238 358 0
241 242 359 0
245 246 360 0
153 152 361 0
182 181 362 0
209 208 363 0
234 233 364 0
257 257 365 0
260 261 366 0
264 265 367 0
268 269 368 0
157 156 369 0
186 185 370 0
213 212 371 0
238 237 372 0
261 260 373 0
282 282 374 0
285 286 375 0
289 290 376 0
161 160 377 0
190 189 378 0
217 216 379 0
242 241 380 0
265 264 381 0
286 285 382 0
305 305 383 0
308 309 384 0
165 164 385 0
194 193 386 0
221 220 387 0
246 245 388 0
269 268 389 0
290 289 390 0
309 308 391 0
326 326 392 0
-329 -137 0
-330 -140 0
-331 -144 0
-332 -148 0
-333 -152 0
-334 -156 0
-335 -160 0
-336 -164 0
-337 -141 0
-338 -170 0
-339 -173 0
-340 -177 0
-341 -181 0
-342 -185 0
-343 -189 0
-344 -193 0
-345 -145 0
-346 -174 0
-347 -201 0
-348 -204 0
-349 -208 0
-350 -212 0
-351 -216 0
-352 -220 0
-353 -149 0
-354 -178 0
-355 -205 0
-356 -230 0
-357 -233 0
-358 -237 0
-359 -241 0
-360 -245 0
-361 -153 0
-362 -182 0
-363 -209 0
-364 -234 0
-365 -257 0
-366 -260 0
-367 -264 0
-368 -268 0
-369 -157 0
-370 -186 0
-371 -213 0
-372 -238 0
-373 -261 0
-374 -282 0
-375 -285 0
-376 -289 0
-377 -161 0
-378 -190 0
-379 -217 0
-380 -242 0
-381 -265 0
-382 -286 0
-383 -305 0
-384 -308 0
-385 -165 0
-386 -194 0
-387 -221 0
-388 -246 0
-389 -269 0
-390 -290 0
-391 -309 0
-392 -326 0
-329 -137 0
-330 -141 0
-331 -145 0
-332 -149 0
-333 -153 0
-334 -157 0
-335 -161 0
-336 -165 0
-337 -140 0
-338 -170 0
-339 -174 0
-340 -178 0
-341 -182 0
-342 -186 0
-343 -190 0
-344 -194 0
-345 -144 0
-346 -173 0
-347 -201 0
-348 -205 0
-349 -209 0
-350 -213 0
-351 -217 0
-352 -221 0
-353 -148 0
-354 -177 0
-355 -204 0
-356 -230 0
-357 -234 0
-358 -238 0
-359 -242 0
-360 -246 0
-361 -152 0
-362 -181 0
-363 -208 0
-364 -233 0
-365 -257 0
-366 -261 0
-367 -265 0
-368 -269 0
-369 -156 0
-370 -185 0
-371 -212 0
-372 -237 0
-373 -260 0
-374 -282 0
-375 -286 0
-376 -290 0
-377 -160 0
-378 -189 0
-379 -216 0
-380 -241 0
-381 -264 0
-382 -285 0
-383 -305 0
-384 -309 0
-385 -164 0
-386 -193 0
-387 -220 0
-388 -245 0
-389 -268 0
-390 -289 0
-391 -308 0
-392 -326 0
138 329 -393 0
142 330 -394 0
146 331 -395 0
150 332 -396 0
154 333 -397 0
158 334 -398 0
162 335 -399 0
166 336 -400 0
168 337 -401 0
171 338 -402 0
175 339 -403 0
179 340 -404 0
183 341 -405 0
187 342 -406 0
191 343 -407 0
195 344 -408 0
197 345 -409 0
199 346 -410 0
202 347 -411 0
206 348 -412 0
210 349 -413 0
214 350 -414 0
218 351 -415 0
222 352 -416 0
224 353 -417 0
226 354 -418 0
228 355 -419 0
231 356 -420 0
235 357 -421 0
239 358 -422 0
243 359 -423 0
247 360 -424 0
249 361 -425 0
251 362 -426 0
253 363 -427 0
255 364 -428 0
258 365 -429 0
262 366 -430 0
266 367 -431 0
270 368 -432 0
272 369 -433 0
274 370 -434 0
276 371 -435 0
278 372 -436 0
280 373 -437 0
283 374 -438 0
287 375 -439 0
291 376 -440 0
293 377 -441 0
295 378 -442 0
297 379 -443 0
299 380 -444 0
301 381 -445 0
303 382 -446 0
306 383 -447 0
310 384 -448 0
312 385 -449 0
314 386 -450 0
316 387 -451 0
318 388 -452 0
320 389 -453 0
322 390 -454 0
324 391 -455 0
327 392 -456 0
393 -138 0
394 -142 0
395 -146 0
396 -150 0
397 -154 0
398 -158 0
399 -162 0
400 -166 0
401 -168 0
402 -171 0
403 -175 0
404 -179 0
405 -183 0
406 -187 0
407 -191 0
408 -195 0
409 -197 0
410 -199 0
411 -202 0
412 -206 0
413 -210 0
414 -214 0
415 -218 0
416 -222 0
417 -224 0
418 -226 0
419 -228 0
420 -231 0
421 -235 0
422 -239 0
423 -243 0
424 -247 0
425 -249 0
426 -251 0
427 -253 0
428 -255 0
429 -258 0
430 -262 0
431 -266 0
432 -270 0
433 -272 0
434 -274 0
435 -276 0
436 -278 0
437 -280 0
438 -283 0
439 -287 0
440 -291 0
441 -293 0
442 -295 0
443 -297 0
444 -299 0
445 -301 0
446 -303 0
447 -306 0
448 -310 0
449 -312 0
450 -314 0
451 -316 0
452 -318 0
453 -320 0
454 -322 0
455 -324 0
456 -327 0
393 -329 0
394 -330 0
395 -331 0
396 -332 0
397 -333 0
398 -334 0
399 -335 0
400 -336 0
401 -337 0
402 -338 0
403 -339 0
404 -340 0
405 -341 0
406 -342 0
407 -343 0
408 -344 0
409 -345 0
410 -346 0
411 -347 0
412 -348 0
413 -349 0
414 -350 0
415 -351 0
416 -352 0
417 -353 0
418 -354 0
419 -355 0
420 -356 0
421 -357 0
422 -358 0
423 -359 0
424 -360 0
425 -361 0
426 -362 0
427 -363 0
428 -364 0
429 -365 0
430 -366 0
431 -367 0
432 -368 0
433 -369 0
434 -370 0
435 -371 0
436 -372 0
437 -373 0
438 -374 0
439 -375 0
440 -376 0
441 -377 0
442 -378 0
443 -379 0
444 -380 0
445 -381 0
446 -382 0
447 -383 0
448 -384 0
449 -385 0
450 -386 0
451 -387 0
452 -388 0
453 -389 0
454 -390 0
455 -391 0
456 -392 0
-457 -2 -2 458 0
-459 -5 -2 460 0
-461 -8 -2 462 0
-463 -11 -2 464 0
-465 -14 -2 466 0
-467 -17 -2 468 0
-469 -20 -2 470 0
-471 -23 -2 472 0
-473 -2 -5 474 0
-475 -5 -5 476 0
-477 -8 -5 478 0
-479 -11 -5 480 0
-481 -14 -5 482 0
-483 -17 -5 484 0
-485 -20 -5 486 0
-487 -23 -5 488 0
-489 -2 -8 490 0
-491 -5 -8 492 0
-493 -8 -8 494 0
-495 -11 -8 496 0
-497 -14 -8 498 0
-499 -17 -8 500 0
-501 -20 -8 502 0
-503 -23 -8 504 0
-505 -2 -11 506 0
-507 -5 -11 508 0
-509 -8 -11 510 0
-511 -11 -11 512 0
-513 -14 -11 514 0
-515 -17 -11 516 0
-517 -20 -11 518 0
-519 -23 -11 520 0
-521 -2 -14 522 0
-523 -5 -14 524 0
-525 -8 -14 526 0
-527 -11 -14 528 0
-529 -14 -14 530 0
-531 -17 -14 532 0
-533 -20 -14 534 0
-535 -23 -14 536 0
-537 -2 -17 538 0
-539 -5 -17 540 0
-541 -8 -17 542 0
-543 -11 -17 544 0
-545 -14 -17 546 0
-547 -17 -17 548 0
-549 -20 -17 550 0
-551 -23 -17 552 0
-553 -2 -20 554 0
-555 -5 -20 556 0
-557 -8 -20 558 0
-559 -11 -20 560 0
-561 -14 -20 562 0
-563 -17 -20 564 0
-565 -20 -20 566 0
-567 -23 -20 568 0
-569 -2 -23 570 0
-571 -5 -23 572 0
-573 -8 -23 574 0
-575 -11 -23 576 0
-577 -14 -23 578 0
-579 -17 -23 580 0
-581 -20 -23 582 0
-583 -23 -23 584 0
-458 457 0
-460 459 0
-462 461 0
-464 463 0
-466 465 0
-468 467 0
-470 469 0
-472 471 0
-474 473 0
-476 475 0
-478 477 0
-480 479 0
-482 481 0
-484 483 0
-486 485 0
-488 487 0
-490 489 0
-492 491 0
-494 493 0
-496 495 0
-498 497 0
-500 499 0
-502 501 0
-504 503 0
-506 505 0
-508 507 0
-510 509 0
-512 511 0
-514 513 0
-516 515 0
-518 517 0
-520 519 0
-522 521 0
-524 523 0
-526 525 0
-528 527 0
-530 529 0
-532 531 0
-534 533 0
-536 535 0
-538 537 0
-540 539 0
-542 541 0
-544 543 0
-546 545 0
-548 547 0
-550 549 0
-552 551 0
-554 553 0
-556 555 0
-558 557 0
-560 559 0
-562 561 0
-564 563 0
-566 565 0
-568 567 0
-570 569 0
-572 571 0
-574 573 0
-576 575 0
-578 577 0
-580 579 0
-582 581 0
-584 583 0
-458 2 0
-460 5 0
-462 8 0
-464 11 0
-466 14 0
-468 17 0
-470 20 0
-472 23 0
-474 2 0
-476 5 0
-478 8 0
-480 11 0
-482 14 0
-484 17 0
-486 20 0
-488 23 0
-490 2 0
-492 5 0
-494 8 0
-496 11 0
-498 14 0
-500 17 0
-502 20 0
-504 23 0
-506 2 0
-508 5 0
-510 8 0
-512 11 0
-514 14 0
-516 17 0
-518 20 0
-520 23 0
-522 2 0
-524 5 0
-526 8 0
-528 11 0
-530 14 0
-532 17 0
-534 20 0
-536 23 0
-538 2 0
-540 5 0
-542 8 0
-544 11 0
-546 14 0
-548 17 0
-550 20 0
-552 23 0
-554 2 0
-556 5 0
-558 8 0
-560 11 0
-562 14 0
-564 17 0
-566 20 0
-568 23 0
-570 2 0
-572 5 0
-574 8 0
-576 11 0
-578 14 0
-580 17 0
-582 20 0
-584 23 0
-458 2 0
-460 2 0
-462 2 0
-464 2 0
-466 2 0
-468 2 0
-470 2 0
-472 2 0
-474 5 0
-476 5 0
-478 5 0
-480 5 0
-482 5 0
-484 5 0
-486 5 0
-488 5 0
-490 8 0
-492 8 0
-494 8 0
-496 8 0
-498 8 0
-500 8 0
-502 8 0
-504 8 0
-506 11 0
-508 11 0
-510 11 0
-512 11 0
-514 11 0
-516 11 0
-518 11 0
-520 11 0
-522 14 0
-524 14 0
-526 14 0
-528 14 0
-530 14 0
-532 14 0
-534 14 0
-536 14 0
-538 17 0
-540 17 0
-542 17 0
-544 17 0
-546 17 0
-548 17 0
-550 17 0
-552 17 0
-554 20 0
-556 20 0
-558 20 0
-560 20 0
-562 20 0
-564 20 0
-566 20 0
-568 20 0
-570 23 0
-572 23 0
-574 23 0
-576 23 0
-578 23 0
-580 23 0
-582 23 0
-584 23 0
-137 458 -585 0
-140 460 -586 0
-144 462 -587 0
-148 464 -588 0
-152 466 -589 0
-156 468 -590 0
-160 470 -591 0
-164 472 -592 0
-141 474 -593 0
-170 476 -594 0
-173 478 -595 0
-177 480 -596 0
-181 482 -597 0
-185 484 -598 0
-189 486 -599 0
-193 488 -600 0
-145 490 -601 0
-174 492 -602 0
-201 494 -603 0
-204 496 -604 0
-208 498 -605 0
-212 500 -606 0
-216 502 -607 0
-220 504 -608 0
-149 506 -609 0
-178 508 -610 0
-205 510 -611 0
-230 512 -612 0
-233 514 -613 0
-237 516 -614 0
-241 518 -615 0
-245 520 -616 0
-153 522 -617 0
-182 524 -618 0
-209 526 -619 0
-234 528 -620 0
-257 530 -621 0
-260 532 -622 0
-264 534 -623 0
-268 536 -624 0
-157 538 -625 0
-186 540 -626 0
-213 542 -627 0
-238 544 -628 0
-261 546 -629 0
-282 548 -630 0
-285 550 -631 0
-289 552 -632 0
-161 554 -633 0
-190 556 -634 0
-217 558 -635 0
-242 560 -636 0
-265 562 -637 0
-286 564 -638 0
-305 566 -639 0
-308 568 -640 0
-165 570 -641 0
-194 572 -642 0
-221 574 -643 0
-246 576 -644 0
-269 578 -645 0
-290 580 -646 0
-309 582 -647 0
-326 584 -648 0
585 137 0
586 140 0
587 144 0
588 148 0
589 152 0
590 156 0
591 160 0
592 164 0
593 141 0
594 170 0
595 173 0
596 177 0
597 181 0
598 185 0
599 189 0
600 193 0
601 145 0
602 174 0
603 201 0
604 204 0
605 208 0
606 212 0
607 216 0
608 220 0
609 149 0
610 178 0
611 205 0
612 230 0
613 233 0
614 237 0
615 241 0
616 245 0
617 153 0
618 182 0
619 209 0
620 234 0
621 257 0
622 260 0
623 264 0
624 268 0
625 157 0
626 186 0
627 213 0
628 238 0
629 261 0
630 282 0
631 285 0
632 289 0
633 161 0
634 190 0
635 217 0
636 242 0
637 265 0
638 286 0
639 305 0
640 308 0
641 165 0
642 194 0
643 221 0
644 246 0
645 269 0
646 290 0
647 309 0
648 326 0
585 -458 0
586 -460 0
587 -462 0
588 -464 0
589 -466 0
590 -468 0
591 -470 0
592 -472 0
593 -474 0
594 -476 0
595 -478 0
596 -480 0
597 -482 0
598 -484 0
599 -486 0
600 -488 0
601 -490 0
602 -492 0
603 -494 0
604 -496 0
605 -498 0
606 -500 0
607 -502 0
608 -504 0
609 -506 0
610 -508 0
611 -510 0
612 -512 0
613 -514 0
614 -516 0
615 -518 0
616 -520 0
617 -522 0
618 -524 0
619 -526 0
620 -528 0
621 -530 0
622 -532 0
623 -534 0
624 -536 0
625 -538 0
626 -540 0
627 -542 0
628 -544 0
629 -546 0
630 -548 0
631 -550 0
632 -552 0
633 -554 0
634 -556 0
635 -558 0
636 -560 0
637 -562 0
638 -564 0
639 -566 0
640 -568 0
641 -570 0
642 -572 0
643 -574 0
644 -576 0
645 -578 0
646 -580 0
647 -582 0
648 -584 0
-649 -650 -138 -651 0
-652 -650 -142 -653 0
-654 -650 -146 -655 0
-656 -650 -150 -657 0
-658 -650 -154 -659 0
-660 -650 -158 -661 0
-662 -650 -162 -663 0
-664 -650 -166 -665 0
-649 -666 -168 -667 0
-652 -666 -171 -668 0
-654 -666 -175 -669 0
-656 -666 -179 -670 0
-658 -666 -183 -671 0
-660 -666 -187 -672 0
-662 -666 -191 -673 0
-664 -666 -195 -674 0
-649 -675 -197 -676 0
-652 -675 -199 -677 0
-654 -675 -202 -678 0
-656 -675 -206 -679 0
-658 -675 -210 -680 0
-660 -675 -214 -681 0
-662 -675 -218 -682 0
-664 -675 -222 -683 0
-649 -684 -224 -685 0
-652 -684 -226 -686 0
-654 -684 -228 -687 0
-656 -684 -231 -688 0
-658 -684 -235 -689 0
-660 -684 -239 -690 0
-662 -684 -243 -691 0
-664 -684 -247 -692 0
-649 -693 -249 -694 0
-652 -693 -251 -695 0
-654 -693 -253 -696 0
-656 -693 -255 -697 0
-658 -693 -258 -698 0
-660 -693 -262 -699 0
-662 -693 -266 -700 0
-664 -693 -270 -701 0
-649 -702 -272 -703 0
-652 -702 -274 -704 0
-654 -702 -276 -705 0
-656 -702 -278 -706 0
-658 -702 -280 -707 0
-660 -702 -283 -708 0
-662 -702 -287 -709 0
-664 -702 -291 -710 0
-649 -711 -293 -712 0
-652 -711 -295 -713 0
-654 -711 -297 -714 0
-656 -711 -299 -715 0
-658 -711 -301 -716 0
-660 -711 -303 -717 0
-662 -711 -306 -718 0
-664 -711 -310 -719 0
-649 -720 -312 -721 0
-652 -720 -314 -722 0
-654 -720 -316 -723 0
-656 -720 -318 -724 0
-658 -720 -320 -725 0
-660 -720 -322 -726 0
-662 -720 -324 -727 0
-664 -720 -327 -728 0
651 649 0
653 652 0
655 654 0
657 656 0
659 658 0
661 660 0
663 662 0
665 664 0
667 649 0
668 652 0
669 654 0
670 656 0
671 658 0
672 660 0
673 662 0
674 664 0
676 649 0
677 652 0
678 654 0
679 656 0
680 658 0
681 660 0
682 662 0
683 664 0
685 649 0
686 652 0
687 654 0
688 656 0
689 658 0
690 660 0
691 662 0
692 664 0
694 649 0
695 652 0
696 654 0
697 656 0
698 658 0
699 660 0
700 662 0
701 664 0
703 649 0
704 652 0
705 654 0
706 656 0
707 658 0
708 660 0
709 662 0
710 664 0
712 649 0
713 652 0
714 654 0
715 656 0
716 658 0
717 660 0
718 662 0
719 664 0
721 649 0
722 652 0
723 654 0
724 656 0
725 658 0
726 660 0
727 662 0
728 664 0
651 650 0
653 650 0
655 650 0
657 650 0
659 650 0
661 650 0
663 650 0
665 650 0
667 666 0
668 666 0
669 666 0
670 666 0
671 666 0
672 666 0
673 666 0
674 666 0
676 675 0
677 675 0
678 675 0
679 675 0
680 675 0
681 675 0
682 675 0
683 675 0
685 684 0
686 684 0
687 684 0
688 684 0
689 684 0
690 684 0
691 684 0
692 684 0
694 693 0
695 693 0
696 693 0
697 693 0
698 693 0
699 693 0
700 693 0
701 693 0
703 702 0
704 702 0
705 702 0
706 702 0
707 702 0
708 702 0
709 702 0
710 702 0
712 711 0
713 711 0
714 711 0
715 711 0
716 711 0
717 711 0
718 711 0
719 711 0
721 720 0
722 720 0
723 720 0
724 720 0
725 720 0
726 720 0
727 720 0
728 720 0
651 138 0
653 142 0
655 146 0
657 150 0
659 154 0
661 158 0
663 162 0
665 166 0
667 168 0
668 171 0
669 175 0
670 179 0
671 183 0
672 187 0
673 191 0
674 195 0
676 197 0
677 199 0
678 202 0
679 206 0
680 210 0
681 214 0
682 218 0
683 222 0
685 224 0
686 226 0
687 228 0
688 231 0
689 235 0
690 239 0
691 243 0
692 247 0
694 249 0
695 251 0
696 253 0
697 255 0
698 258 0
699 262 0
700 266 0
701 270 0
703 272 0
704 274 0
705 276 0
706 278 0
707 280 0
708 283 0
709 287 0
710 291 0
712 293 0
713 295 0
714 297 0
715 299 0
716 301 0
717 303 0
718 306 0
719 310 0
721 312 0
722 314 0
723 316 0
724 318 0
725 320 0
726 322 0
727 324 0
728 327 0
137 -457 -2 -2 -729 0
140 -459 -5 -2 -730 0
144 -461 -8 -2 -731 0
148 -463 -11 -2 -732 0
152 -465 -14 -2 -733 0
156 -467 -17 -2 -734 0
160 -469 -20 -2 -735 0
164 -471 -23 -2 -736 0
141 -473 -2 -5 -737 0
170 -475 -5 -5 -738 0
173 -477 -8 -5 -739 0
177 -479 -11 -5 -740 0
181 -481 -14 -5 -741 0
185 -483 -17 -5 -742 0
189 -485 -20 -5 -743 0
193 -487 -23 -5 -744 0
145 -489 -2 -8 -745 0
174 -491 -5 -8 -746 0
201 -493 -8 -8 -747 0
204 -495 -11 -8 -748 0
208 -497 -14 -8 -749 0
212 -499 -17 -8 -750 0
216 -501 -20 -8 -751 0
220 -503 -23 -8 -752 0
149 -505 -2 -11 -753 0
178 -507 -5 -11 -754 0
205 -509 -8 -11 -755 0
230 -511 -11 -11 -756 0
233 -513 -14 -11 -757 0
237 -515 -17 -11 -758 0
241 -517 -20 -11 -759 0
245 -519 -23 -11 -760 0
153 -521 -2 -14 -761 0
182 -523 -5 -14 -762 0
209 -525 -8 -14 -763 0
234 -527 -11 -14 -764 0
257 -529 -14 -14 -765 0
260 -531 -17 -14 -766 0
264 -533 -20 -14 -767 0
268 -535 -23 -14 -768 0
157 -537 -2 -17 -769 0
186 -539 -5 -17 -770 0
213 -541 -8 -17 -771 0
238 -543 -11 -17 -772 0
261 -545 -14 -17 -773 0
282 -547 -17 -17 -774 0
285 -549 -20 -17 -775 0
289 -551 -23 -17 -776 0
161 -553 -2 -20 -777 0
190 -555 -5 -20 -778 0
217 -557 -8 -20 -779 0
242 -559 -11 -20 -780 0
265 -561 -14 -20 -781 0
286 -563 -17 -20 -782 0
305 -565 -20 -20 -783 0
308 -567 -23 -20 -784 0
165 -569 -2 -23 -785 0
194 -571 -5 -23 -786 0
221 -573 -8 -23 -787 0
246 -575 -11 -23 -788 0
269 -577 -14 -23 -789 0
290 -579 -17 -23 -790 0
309 -581 -20 -23 -791 0
326 -583 -23 -23 -792 0
729 -137 0
730 -140 0
731 -144 0
732 -148 0
733 -152 0
734 -156 0
735 -160 0
736 -164 0
737 -141 0
738 -170 0
739 -173 0
740 -177 0
741 -181 0
742 -185 0
743 -189 0
744 -193 0
745 -145 0
746 -174 0
747 -201 0
748 -204 0
749 -208 0
750 -212 0
751 -216 0
752 -220 0
753 -149 0
754 -178 0
755 -205 0
756 -230 0
757 -233 0
758 -237 0
759 -241 0
760 -245 0
761 -153 0
762 -182 0
763 -209 0
764 -234 0
765 -257 0
766 -260 0
767 -264 0
768 -268 0
769 -157 0
770 -186 0
771 -213 0
772 -238 0
773 -261 0
774 -282 0
775 -285 0
776 -289 0
777 -161 0
778 -190 0
779 -217 0
780 -242 0
781 -265 0
782 -286 0
783 -305 0
784 -308 0
785 -165 0
786 -194 0
787 -221 0
788 -246 0
789 -269 0
790 -290 0
791 -309 0
792 -326 0
729 457 0
730 459 0
731 461 0
732 463 0
733 465 0
734 467 0
735 469 0
736 471 0
737 473 0
738 475 0
739 477 0
740 479 0
741 481 0
742 483 0
743 485 0
744 487 0
745 489 0
746 491 0
747 493 0
748 495 0
749 497 0
750 499 0
751 501 0
752 503 0
753 505 0
754 507 0
755 509 0
756 511 0
757 513 0
758 515 0
759 517 0
760 519 0
761 521 0
762 523 0
763 525 0
764 527 0
765 529 0
766 531 0
767 533 0
768 535 0
769 537 0
770 539 0
771 541 0
772 543 0
773 545 0
774 547 0
775 549 0
776 551 0
777 553 0
778 555 0
779 557 0
780 559 0
781 561 0
782 563 0
783 565 0
784 567 0
785 569 0
786 571 0
787 573 0
788 575 0
789 577 0
790 579 0
791 581 0
792 583 0
729 2 0
730 5 0
731 8 0
732 11 0
733 14 0
734 17 0
735 20 0
736 23 0
737 2 0
738 5 0
739 8 0
740 11 0
741 14 0
742 17 0
743 20 0
744 23 0
745 2 0
746 5 0
747 8 0
748 11 0
749 14 0
750 17 0
751 20 0
752 23 0
753 2 0
754 5 0
755 8 0
756 11 0
757 14 0
758 17 0
759 20 0
760 23 0
761 2 0
762 5 0
763 8 0
764 11 0
765 14 0
766 17 0
767 20 0
768 23 0
769 2 0
770 5 0
771 8 0
772 11 0
773 14 0
774 17 0
775 20 0
776 23 0
777 2 0
778 5 0
779 8 0
780 11 0
781 14 0
782 17 0
783 20 0
784 23 0
785 2 0
786 5 0
787 8 0
788 11 0
789 14 0
790 17 0
791 20 0
792 23 0
729 2 0
730 2 0
731 2 0
732 2 0
733 2 0
734 2 0
735 2 0
736 2 0
737 5 0
738 5 0
739 5 0
740 5 0
741 5 0
742 5 0
743 5 0
744 5 0
745 8 0
746 8 0
747 8 0
748 8 0
749 8 0
750 8 0
751 8 0
752 8 0
753 11 0
754 11 0
755 11 0
756 11 0
757 11 0
758 11 0
759 11 0
760 11 0
761 14 0
762 14 0
763 14 0
764 14 0
765 14 0
766 14 0
767 14 0
768 14 0
769 17 0
770 17 0
771 17 0
772 17 0
773 17 0
774 17 0
775 17 0
776 17 0
777 20 0
778 20 0
779 20 0
780 20 0
781 20 0
782 20 0
783 20 0
784 20 0
785 23 0
786 23 0
787 23 0
788 23 0
789 23 0
790 23 0
791 23 0
792 23 0
-3 -139 -393 -585 -651 -729 793 0
-6 -143 -394 -586 -653 -730 794 0
-9 -147 -395 -587 -655 -731 795 0
-12 -151 -396 -588 -657 -732 796 0
-15 -155 -397 -589 -659 -733 797 0
-18 -159 -398 -590 -661 -734 798 0
-21 -163 -399 -591 -663 -735 799 0
-24 -167 -400 -592 -665 -736 800 0
-26 -169 -401 -593 -667 -737 801 0
-28 -172 -402 -594 -668 -738 802 0
-30 -176 -403 -595 -669 -739 803 0
-32 -180 -404 -596 -670 -740 804 0
-34 -184 -405 -597 -671 -741 805 0
-36 -188 -406 -598 -672 -742 806 0
-38 -192 -407 -599 -673 -743 807 0
-40 -196 -408 -600 -674 -744 808 0
-42 -198 -409 -601 -676 -745 809 0
-44 -200 -410 -602 -677 -746 810 0
-46 -203 -411 -603 -678 -747 811 0
-48 -207 -412 -604 -679 -748 812 0
-50 -211 -413 -605 -680 -749 813 0
-52 -215 -414 -606 -681 -750 814 0
-54 -219 -415 -607 -682 -751 815 0
-56 -223 -416 -608 -683 -752 816 0
-58 -225 -417 -609 -685 -753 817 0
-60 -227 -418 -610 -686 -754 818 0
-62 -229 -419 -611 -687 -755 819 0
-64 -232 -420 -612 -688 -756 820 0
-66 -236 -421 -613 -689 -757 821 0
-68 -240 -422 -614 -690 -758 822 0
-70 -244 -423 -615 -691 -759 823 0
-72 -248 -424 -616 -692 -760 824 0
-74 -250 -425 -617 -694 -761 825 0
-76 -252 -426 -618 -695 -762 826 0
-78 -254 -427 -619 -696 -763 827 0
-80 -256 -428 -620 -697 -764 828 0
-82 -259 -429 -621 -698 -765 829 0
-84 -263 -430 -622 -699 -766 830 0
-86 -267 -431 -623 -700 -767 831 0
-88 -271 -432 -624 -701 -768 832 0
-90 -273 -433 -625 -703 -769 833 0
-92 -275 -434 -626 -704 -770 834 0
-94 -277 -435 -627 -705 -771 835 0
-96 -279 -436 -628 -706 -772 836 0
-98 -281 -437 -629 -707 -773 837 0
-100 -284 -438 -630 -708 -774 838 0
-102 -288 -439 -631 -709 -775 839 0
-104 -292 -440 -632 -710 -776 840 0
-106 -294 -441 -633 -712 -777 841 0
-108 -296 -442 -634 -713 -778 842 0
-110 -298 -443 -635 -714 -779 843 0
-112 -300 -444 -636 -715 -780 844 0
-114 -302 -445 -637 -716 -781 845 0
-116 -304 -446 -638 -717 -782 846 0
-118 -307 -447 -639 -718 -783 847 0
-120 -311 -448 -640 -719 -784 848 0
-122 -313 -449 -641 -721 -785 849 0
-124 -315 -450 -642 -722 -786 850 0
-126 -317 -451 -643 -723 -787 851 0
-128 -319 -452 -644 -724 -788 852 0
-130 -321 -453 -645 -725 -789 853 0
-132 -323 -454 -646 -726 -790 854 0
-134 -325 -455 -647 -727 -791 855 0
-136 -328 -456 -648 -728 -792 856 0
-793 3 0
-794 6 0
-795 9 0
-796 12 0
-797 15 0
-798 18 0
-799 21 0
-800 24 0
-801 26 0
-802 28 0
-803 30 0
-804 32 0
-805 34 0
-806 36 0
-807 38 0
-808 40 0
-809 42 0
-810 44 0
-811 46 0
-812 48 0
-813 50 0
-814 52 0
-815 54 0
-816 56 0
-817 58 0
-818 60 0
-819 62 0
-820 64 0
-821 66 0
-822 68 0
-823 70 0
-824 72 0
-825 74 0
-826 76 0
-827 78 0
-828 80 0
-829 82 0
-830 84 0
-831 86 0
-832 88 0
-833 90 0
-834 92 0
-835 94 0
-836 96 0
-837 98 0
-838 100 0
-839 102 0
-840 104 0
-841 106 0
-842 108 0
-843 110 0
-844 112 0
-845 114 0
-846 116 0
-847 118 0
-848 120 0
-849 122 0
-850 124 0
-851 126 0
-852 128 0
-853 130 0
-854 132 0
-855 134 0
-856 136 0
-793 139 0
-794 143 0
-795 147 0
-796 151 0
-797 155 0
-798 159 0
-799 163 0
-800 167 0
-801 169 0
-802 172 0
-803 176 0
-804 180 0
-805 184 0
-806 188 0
-807 192 0
-808 196 0
-809 198 0
-810 200 0
-811 203 0
-812 207 0
-813 211 0
-814 215 0
-815 219 0
-816 223 0
-817 225 0
-818 227 0
-819 229 0
-820 232 0
-821 236 0
-822 240 0
-823 244 0
-824 248 0
-825 250 0
-826 252 0
-827 254 0
-828 256 0
-829 259 0
-830 263 0
-831 267 0
-832 271 0
-833 273 0
-834 275 0
-835 277 0
-836 279 0
-837 281 0
-838 284 0
-839 288 0
-840 292 0
-841 294 0
-842 296 0
-843 298 0
-844 300 0
-845 302 0
-846 304 0
-847 307 0
-848 311 0
-849 313 0
-850 315 0
-851 317 0
-852 319 0
-853 321 0
-854 323 0
-855 325 0
-856 328 0
-793 393 0
-794 394 0
-795 395 0
-796 396 0
-797 397 0
-798 398 0
-799 399 0
-800 400 0
-801 401 0
-802 402 0
-803 403 0
-804 404 0
-805 405 0
-806 406 0
-807 407 0
-808 408 0
-809 409 0
-810 410 0
-811 411 0
-812 412 0
-813 413 0
-814 414 0
-815 415 0
-816 416 0
-817 417 0
-818 418 0
-819 419 0
-820 420 0
-821 421 0
-822 422 0
-823 423 0
-824 424 0
-825 425 0
-826 426 0
-827 427 0
-828 428 0
-829 429 0
-830 430 0
-831 431 0
-832 432 0
-833 433 0
-834 434 0
-835 435 0
-836 436 0
-837 437 0
-838 438 0
-839 439 0
-840 440 0
-841 441 0
-842 442 0
-843 443 0
-844 444 0
-845 445 0
-846 446 0
-847 447 0
-848 448 0
-849 449 0
-850 450 0
-851 451 0
-852 452 0
-853 453 0
-854 454 0
-855 455 0
-856 456 0
-793 585 0
-794 586 0
-795 587 0
-796 588 0
-797 589 0
-798 590 0
-799 591 0
-800 592 0
-801 593 0
-802 594 0
-803 595 0
-804 596 0
-805 597 0
-806 598 0
-807 599 0
-808 600 0
-809 601 0
-810 602 0
-811 603 0
-812 604 0
-813 605 0
-814 606 0
-815 607 0
-816 608 0
-817 609 0
-818 610 0
-819 611 0
-820 612 0
-821 613 0
-822 614 0
-823 615 0
-824 616 0
-825 617 0
-826 618 0
-827 619 0
-828 620 0
-829 621 0
-830 622 0
-831 623 0
-832 624 0
-833 625 0
-834 626 0
-835 627 0
-836 628 0
-837 629 0
-838 630 0
-839 631 0
-840 632 0
-841 633 0
-842 634 0
-843 635 0
-844 636 0
-845 637 0
-846 638 0
-847 639 0
-848 640 0
-849 641 0
-850 642 0
-851 643 0
-852 644 0
-853 645 0
-854 646 0
-855 647 0
-856 648 0
-793 651 0
-794 653 0
-795 655 0
-796 657 0
-797 659 0
-798 661 0
-799 663 0
-800 665 0
-801 667 0
-802 668 0
-803 669 0
-804 670 0
-805 671 0
-806 672 0
-807 673 0
-808 674 0
-809 676 0
-810 677 0
-811 678 0
-812 679 0
-813 680 0
-814 681 0
-815 682 0
-816 683 0
-817 685 0
-818 686 0
-819 687 0
-820 688 0
-821 689 0
-822 690 0
-823 691 0
-824 692 0
-825 694 0
-826 695 0
-827 696 0
-828 697 0
-829 698 0
-830 699 0
-831 700 0
-832 701 0
-833 703 0
-834 704 0
-835 705 0
-836 706 0
-837 707 0
-838 708 0
-839 709 0
-840 710 0
-841 712 0
-842 713 0
-843 714 0
-844 715 0
-845 716 0
-846 717 0
-847 718 0
-848 719 0
-849 721 0
-850 722 0
-851 723 0
-852 724 0
-853 725 0
-854 726 0
-855 727 0
-856 728 0
-793 729 0
-794 730 0
-795 731 0
-796 732 0
-797 733 0
-798 734 0
-799 735 0
-800 736 0
-801 737 0
-802 738 0
-803 739 0
-804 740 0
-805 741 0
-806 742 0
-807 743 0
-808 744 0
-809 745 0
-810 746 0
-811 747 0
-812 748 0
-813 749 0
-814 750 0
-815 751 0
-816 752 0
-817 753 0
-818 754 0
-819 755 0
-820 756 0
-821 757 0
-822 758 0
-823 759 0
-824 760 0
-825 761 0
-826 762 0
-827 763 0
-828 764 0
-829 765 0
-830 766 0
-831 767 0
-832 768 0
-833 769 0
-834 770 0
-835 771 0
-836 772 0
-837 773 0
-838 774 0
-839 775 0
-840 776 0
-841 777 0
-842 778 0
-843 779 0
-844 780 0
-845 781 0
-846 782 0
-847 783 0
-848 784 0
-849 785 0
-850 786 0
-851 787 0
-852 788 0
-853 789 0
-854 790 0
-855 791 0
-856 792 0
793 0
794 0
795 0
796 0
797 0
798 0
799 0
800 0
801 0
802 0
803 0
804 0
805 0
806 0
807 0
808 0
809 0
810 0
811 0
812 0
813 0
814 0
815 0
816 0
817 0
818 0
819 0
820 0
821 0
822 0
823 0
824 0
825 0
826 0
827 0
828 0
829 0
830 0
831 0
832 0
833 0
834 0
835 0
836 0
837 0
838 0
839 0
840 0
841 0
842 0
843 0
844 0
845 0
846 0
847 0
848 0
849 0
850 0
851 0
852 0
853 0
854 0
855 0
856 0
-656 0
-684 0
14 0
649 0
-664 0
-720 0
-652 0
5 0
8 0
23 0
-702 0
17 0
-654 0
-650 0
-675 0
-660 0
2 0
20 0
-662 0
-711 0
666 0
-658 0
-693 0
11 0
1 0
25 4 0
-25 -4 0
-25 -43 41 0
-25 -59 57 0
-25 -75 73 0
-25 -91 89 0
-25 -107 105 0
-25 -123 121 0
41 7 0
-41 -7 0
-41 -29 25 0
-41 -61 57 0
-41 -77 73 0
-41 -93 89 0
-41 -109 105 0
-41 -125 121 0
57 10 0
-57 -10 0
-57 -31 25 0
-57 -47 41 0
-57 -79 73 0
-57 -95 89 0
-57 -111 105 0
-57 -127 121 0
73 13 0
-73 -13 0
-73 -33 25 0
-73 -49 41 0
-73 -65 57 0
-73 -97 89 0
-73 -113 105 0
-73 -129 121 0
89 16 0
-89 -16 0
-89 -35 25 0
-89 -51 41 0
-89 -67 57 0
-89 -83 73 0
-89 -115 105 0
-89 -131 121 0
105 19 0
-105 -19 0
-105 -37 25 0
-105 -53 41 0
-105 -69 57 0
-105 -85 73 0
-105 -101 89 0
-105 -133 121 0
121 22 0
-121 -22 0
-121 -39 25 0
-121 -55 41 0
-121 -71 57 0
-121 -87 73 0
-121 -103 89 0
-121 -119 105 0
27 0
4 25 0
-4 -25 0
-4 -41 43 0
-4 -57 59 0
-4 -73 75 0
-4 -89 91 0
-4 -105 107 0
-4 -121 123 0
43 29 0
-43 -29 0
-43 -7 4 0
-43 -61 59 0
-43 -77 75 0
-43 -93 91 0
-43 -109 107 0
-43 -125 123 0
59 31 0
-59 -31 0
-59 -10 4 0
-59 -47 43 0
-59 -79 75 0
-59 -95 91 0
-59 -111 107 0
-59 -127 123 0
75 33 0
-75 -33 0
-75 -13 4 0
-75 -49 43 0
-75 -65 59 0
-75 -97 91 0
-75 -113 107 0
-75 -129 123 0
91 35 0
-91 -35 0
-91 -16 4 0
-91 -51 43 0
-91 -67 59 0
-91 -83 75 0
-91 -115 107 0
-91 -131 123 0
107 37 0
-107 -37 0
-107 -19 4 0
-107 -53 43 0
-107 -69 59 0
-107 -85 75 0
-107 -101 91 0
-107 -133 123 0
123 39 0
-123 -39 0
-123 -22 4 0
-123 -55 43 0
-123 -71 59 0
-123 -87 75 0
-123 -103 91 0
-123 -119 107 0
45 0
7 41 0
-7 -41 0
-7 -25 29 0
-7 -57 61 0
-7 -73 77 0
-7 -89 93 0
-7 -105 109 0
-7 -121 125 0
29 43 0
-29 -43 0
-29 -4 7 0
-29 -59 61 0
-29 -75 77 0
-29 -91 93 0
-29 -107 109 0
-29 -123 125 0
61 47 0
-61 -47 0
-61 -10 7 0
-61 -31 29 0
-61 -79 77 0
-61 -95 93 0
-61 -111 109 0
-61 -127 125 0
77 49 0
-77 -49 0
-77 -13 7 0
-77 -33 29 0
-77 -65 61 0
-77 -97 93 0
-77 -113 109 0
-77 -129 125 0
93 51 0
-93 -51 0
-93 -16 7 0
-93 -35 29 0
-93 -67 61 0
-93 -83 77 0
-93 -115 109 0
-93 -131 125 0
109 53 0
-109 -53 0
-109 -19 7 0
-109 -37 29 0
-109 -69 61 0
-109 -85 77 0
-109 -101 93 0
-109 -133 125 0
125 55 0
-125 -55 0
-125 -22 7 0
-125 -39 29 0
-125 -71 61 0
-125 -87 77 0
-125 -103 93 0
-125 -119 109 0
63 0
10 57 0
-10 -57 0
-10 -25 31 0
-10 -41 47 0
-10 -73 79 0
-10 -89 95 0
-10 -105 111 0
-10 -121 127 0
31 59 0
-31 -59 0
-31 -4 10 0
-31 -43 47 0
-31 -75 79 0
-31 -91 95 0
-31 -107 111 0
-31 -123 127 0
47 61 0
-47 -61 0
-47 -7 10 0
-47 -29 31 0
-47 -77 79 0
-47 -93 95 0
-47 -109 111 0
-47 -125 127 0
79 65 0
-79 -65 0
-79 -13 10 0
-79 -33 31 0
-79 -49 47 0
-79 -97 95 0
-79 -113 111 0
-79 -129 127 0
95 67 0
-95 -67 0
-95 -16 10 0
-95 -35 31 0
-95 -51 47 0
-95 -83 79 0
-95 -115 111 0
-95 -131 127 0
111 69 0
-111 -69 0
-111 -19 10 0
-111 -37 31 0
-111 -53 47 0
-111 -85 79 0
-111 -101 95 0
-111 -133 127 0
127 71 0
-127 -71 0
-127 -22 10 0
-127 -39 31 0
-127 -55 47 0
-127 -87 79 0
-127 -103 95 0
-127 -119 111 0
81 0
13 73 0
-13 -73 0
-13 -25 33 0
-13 -41 49 0
-13 -57 65 0
-13 -89 97 0
-13 -105 113 0
-13 -121 129 0
33 75 0
-33 -75 0
-33 -4 13 0
-33 -43 49 0
-33 -59 65 0
-33 -91 97 0
-33 -107 113 0
-33 -123 129 0
49 77 0
-49 -77 0
-49 -7 13 0
-49 -29 33 0
-49 -61 65 0
-49 -93 97 0
-49 -109 113 0
-49 -125 129 0
65 79 0
-65 -79 0
-65 -10 13 0
-65 -31 33 0
-65 -47 49 0
-65 -95 97 0
-65 -111 113 0
-65 -127 129 0
97 83 0
-97 -83 0
-97 -16 13 0
-97 -35 33 0
-97 -51 49 0
-97 -67 65 0
-97 -115 113 0
-97 -131 129 0
113 85 0
-113 -85 0
-113 -19 13 0
-113 -37 33 0
-113 -53 49 0
-113 -69 65 0
-113 -101 97 0
-113 -133 129 0
129 87 0
-129 -87 0
-129 -22 13 0
-129 -39 33 0
-129 -55 49 0
-129 -71 65 0
-129 -103 97 0
-129 -119 113 0
99 0
16 89 0
-16 -89 0
-16 -25 35 0
-16 -41 51 0
-16 -57 67 0
-16 -73 83 0
-16 -105 115 0
-16 -121 131 0
35 91 0
-35 -91 0
-35 -4 16 0
-35 -43 51 0
-35 -59 67 0
-35 -75 83 0
-35 -107 115 0
-35 -123 131 0
51 93 0
-51 -93 0
-51 -7 16 0
-51 -29 35 0
-51 -61 67 0
-51 -77 83 0
-51 -109 115 0
-51 -125 131 0
67 95 0
-67 -95 0
-67 -10 16 0
-67 -31 35 0
-67 -47 51 0
-67 -79 83 0
-67 -111 115 0
-67 -127 131 0
83 97 0
-83 -97 0
-83 -13 16 0
-83 -33 35 0
-83 -49 51 0
-83 -65 67 0
-83 -113 115 0
-83 -129 131 0
115 101 0
-115 -101 0
-115 -19 16 0
-115 -37 35 0
-115 -53 51 0
-115 -69 67 0
-115 -85 83 0
-115 -133 131 0
131 103 0
-131 -103 0
-131 -22 16 0
-131 -39 35 0
-131 -55 51 0
-131 -71 67 0
-131 -87 83 0
-131 -119 115 0
117 0
19 105 0
-19 -105 0
-19 -25 37 0
-19 -41 53 0
-19 -57 69 0
-19 -73 85 0
-19 -89 101 0
-19 -121 133 0
37 107 0
-37 -107 0
-37 -4 19 0
-37 -43 53 0
-37 -59 69 0
-37 -75 85 0
-37 -91 101 0
-37 -123 133 0
53 109 0
-53 -109 0
-53 -7 19 0
-53 -29 37 0
-53 -61 69 0
-53 -77 85 0
-53 -93 101 0
-53 -125 133 0
69 111 0
-69 -111 0
-69 -10 19 0
-69 -31 37 0
-69 -47 53 0
-69 -79 85 0
-69 -95 101 0
-69 -127 133 0
85 113 0
-85 -113 0
-85 -13 19 0
-85 -33 37 0
-85 -49 53 0
-85 -65 69 0
-85 -97 101 0
-85 -129 133 0
101 115 0
-101 -115 0
-101 -16 19 0
-101 -35 37 0
-101 -51 53 0
-101 -67 69 0
-101 -83 85 0
-101 -131 133 0
133 119 0
-133 -119 0
-133 -22 19 0
-133 -39 37 0
-133 -55 53 0
-133 -71 69 0
-133 -87 85 0
-133 -103 101 0
135 0
22 121 0
-22 -121 0
-22 -25 39 0
-22 -41 55 0
-22 -57 71 0
-22 -73 87 0
-22 -89 103 0
-22 -105 119 0
39 123 0
-39 -123 0
-39 -4 22 0
-39 -43 55 0
-39 -59 71 0
-39 -75 87 0
-39 -91 103 0
-39 -107 119 0
55 125 0
-55 -125 0
-55 -7 22 0
-55 -29 39 0
-55 -61 71 0
-55 -77 87 0
-55 -93 103 0
-55 -109 119 0
71 127 0
-71 -127 0
-71 -10 22 0
-71 -31 39 0
-71 -47 55 0
-71 -79 87 0
-71 -95 103 0
-71 -111 119 0
87 129 0
-87 -129 0
-87 -13 22 0
-87 -33 39 0
-87 -49 55 0
-87 -65 71 0
-87 -97 103 0
-87 -113 119 0
103 131 0
-103 -131 0
-103 -16 22 0
-103 -35 39 0
-103 -51 55 0
-103 -67 71 0
-103 -83 87 0
-103 -115 119 0
119 133 0
-119 -133 0
-119 -19 22 0
-119 -37 39 0
-119 -53 55 0
-119 -69 71 0
-119 -85 87 0
-119 -101 103 0
-857 0
-858 25 0
-859 41 0
-859 29 0
-41 -29 859 0
-860 57 0
-860 31 0
-57 -31 860 0
-861 73 0
-861 33 0
-73 -33 861 0
-862 89 0
-862 35 0
-89 -35 862 0
-863 105 0
-863 37 0
-105 -37 863 0
-864 121 0
-864 39 0
-121 -39 864 0
-858 -859 0
-858 -860 0
-858 -861 0
-858 -862 0
-858 -863 0
-858 -864 0
-25 858 859 860 861 862 863 864 0
-865 41 0
-866 25 0
-866 43 0
-25 -43 866 0
-867 57 0
-867 47 0
-57 -47 867 0
-868 73 0
-868 49 0
-73 -49 868 0
-869 89 0
-869 51 0
-89 -51 869 0
-870 105 0
-870 53 0
-105 -53 870 0
-871 121 0
-871 55 0
-121 -55 871 0
-865 -866 0
-865 -867 0
-865 -868 0
-865 -869 0
-865 -870 0
-865 -871 0
-41 865 866 867 868 869 870 871 0
-872 57 0
-873 25 0
-873 59 0
-25 -59 873 0
-874 41 0
-874 61 0
-41 -61 874 0
-875 73 0
-875 65 0
-73 -65 875 0
-876 89 0
-876 67 0
-89 -67 876 0
-877 105 0
-877 69 0
-105 -69 877 0
-878 121 0
-878 71 0
-121 -71 878 0
-872 -873 0
-872 -874 0
-872 -875 0
-872 -876 0
-872 -877 0
-872 -878 0
-57 872 873 874 875 876 877 878 0
-879 73 0
-880 25 0
-880 75 0
-25 -75 880 0
-881 41 0
-881 77 0
-41 -77 881 0
-882 57 0
-882 79 0
-57 -79 882 0
-883 89 0
-883 83 0
-89 -83 883 0
-884 105 0
-884 85 0
-105 -85 884 0
-885 121 0
-885 87 0
-121 -87 885 0
-879 -880 0
-879 -881 0
-879 -882 0
-879 -883 0
-879 -884 0
-879 -885 0
-73 879 880 881 882 883 884 885 0
-886 89 0
-887 25 0
-887 91 0
-25 -91 887 0
-888 41 0
-888 93 0
-41 -93 888 0
-889 57 0
-889 95 0
-57 -95 889 0
-890 73 0
-890 97 0
-73 -97 890 0
-891 105 0
-891 101 0
-105 -101 891 0
-892 121 0
-892 103 0
-121 -103 892 0
-886 -887 0
-886 -888 0
-886 -889 0
-886 -890 0
-886 -891 0
-886 -892 0
-89 886 887 888 889 890 891 892 0
-893 105 0
-894 25 0
-894 107 0
-25 -107 894 0
-895 41 0
-895 109 0
-41 -109 895 0
-896 57 0
-896 111 0
-57 -111 896 0
-897 73 0
-897 113 0
-73 -113 897 0
-898 89 0
-898 115 0
-89 -115 898 0
-899 121 0
-899 119 0
-121 -119 899 0
-893 -894 0
-893 -895 0
-893 -896 0
-893 -897 0
-893 -898 0
-893 -899 0
-105 893 894 895 896 897 898 899 0
-900 121 0
-901 25 0
-901 123 0
-25 -123 901 0
-902 41 0
-902 125 0
-41 -125 902 0
-903 57 0
-903 127 0
-57 -127 903 0
-904 73 0
-904 129 0
-73 -129 904 0
-905 89 0
-905 131 0
-89 -131 905 0
-906 105 0
-906 133 0
-105 -133 906 0
-900 -901 0
-900 -902 0
-900 -903 0
-900 -904 0
-900 -905 0
-900 -906 0
-121 900 901 902 903 904 905 906 0
-907 4 0
-908 43 0
-908 7 0
-43 -7 908 0
-909 59 0
-909 10 0
-59 -10 909 0
-910 75 0
-910 13 0
-75 -13 910 0
-911 91 0
-911 16 0
-91 -16 911 0
-912 107 0
-912 19 0
-107 -19 912 0
-913 123 0
-913 22 0
-123 -22 913 0
-907 -908 0
-907 -909 0
-907 -910 0
-907 -911 0
-907 -912 0
-907 -913 0
-4 907 908 909 910 911 912 913 0
-914 0
-915 43 0
-916 4 0
-916 41 0
-4 -41 916 0
-917 59 0
-917 47 0
-59 -47 917 0
-918 75 0
-918 49 0
-75 -49 918 0
-919 91 0
-919 51 0
-91 -51 919 0
-920 107 0
-920 53 0
-107 -53 920 0
-921 123 0
-921 55 0
-123 -55 921 0
-915 -916 0
-915 -917 0
-915 -918 0
-915 -919 0
-915 -920 0
-915 -921 0
-43 915 916 917 918 919 920 921 0
-922 59 0
-923 4 0
-923 57 0
-4 -57 923 0
-924 43 0
-924 61 0
-43 -61 924 0
-925 75 0
-925 65 0
-75 -65 925 0
-926 91 0
-926 67 0
-91 -67 926 0
-927 107 0
-927 69 0
-107 -69 927 0
-928 123 0
-928 71 0
-123 -71 928 0
-922 -923 0
-922 -924 0
-922 -925 0
-922 -926 0
-922 -927 0
-922 -928 0
-59 922 923 924 925 926 927 928 0
-929 75 0
-930 4 0
-930 73 0
-4 -73 930 0
-931 43 0
-931 77 0
-43 -77 931 0
-932 59 0
-932 79 0
-59 -79 932 0
-933 91 0
-933 83 0
-91 -83 933 0
-934 107 0
-934 85 0
-107 -85 934 0
-935 123 0
-935 87 0
-123 -87 935 0
-929 -930 0
-929 -931 0
-929 -932 0
-929 -933 0
-929 -934 0
-929 -935 0
-75 929 930 931 932 933 934 935 0
-936 91 0
-937 4 0
-937 89 0
-4 -89 937 0
-938 43 0
-938 93 0
-43 -93 938 0
-939 59 0
-939 95 0
-59 -95 939 0
-940 75 0
-940 97 0
-75 -97 940 0
-941 107 0
-941 101 0
-107 -101 941 0
-942 123 0
-942 103 0
-123 -103 942 0
-936 -937 0
-936 -938 0
-936 -939 0
-936 -940 0
-936 -941 0
-936 -942 0
-91 936 937 938 939 940 941 942 0
-943 107 0
-944 4 0
-944 105 0
-4 -105 944 0
-945 43 0
-945 109 0
-43 -109 945 0
-946 59 0
-946 111 0
-59 -111 946 0
-947 75 0
-947 113 0
-75 -113 947 0
-948 91 0
-948 115 0
-91 -115 948 0
-949 123 0
-949 119 0
-123 -119 949 0
-943 -944 0
-943 -945 0
-943 -946 0
-943 -947 0
-943 -948 0
-943 -949 0
-107 943 944 945 946 947 948 949 0
-950 123 0
-951 4 0
-951 121 0
-4 -121 951 0
-952 43 0
-952 125 0
-43 -125 952 0
-953 59 0
-953 127 0
-59 -127 953 0
-954 75 0
-954 129 0
-75 -129 954 0
-955 91 0
-955 131 0
-91 -131 955 0
-956 107 0
-956 133 0
-107 -133 956 0
-950 -951 0
-950 -952 0
-950 -953 0
-950 -954 0
-950 -955 0
-950 -956 0
-123 950 951 952 953 954 955 956 0
-957 7 0
-958 29 0
-958 4 0
-29 -4 958 0
-959 61 0
-959 10 0
-61 -10 959 0
-960 77 0
-960 13 0
-77 -13 960 0
-961 93 0
-961 16 0
-93 -16 961 0
-962 109 0
-962 19 0
-109 -19 962 0
-963 125 0
-963 22 0
-125 -22 963 0
-957 -958 0
-957 -959 0
-957 -960 0
-957 -961 0
-957 -962 0
-957 -963 0
-7 957 958 959 960 961 962 963 0
-964 29 0
-965 7 0
-965 25 0
-7 -25 965 0
-966 61 0
-966 31 0
-61 -31 966 0
-967 77 0
-967 33 0
-77 -33 967 0
-968 93 0
-968 35 0
-93 -35 968 0
-969 109 0
-969 37 0
-109 -37 969 0
-970 125 0
-970 39 0
-125 -39 970 0
-964 -965 0
-964 -966 0
-964 -967 0
-964 -968 0
-964 -969 0
-964 -970 0
-29 964 965 966 967 968 969 970 0
-971 0
-972 61 0
-973 7 0
-973 57 0
-7 -57 973 0
-974 29 0
-974 59 0
-29 -59 974 0
-975 77 0
-975 65 0
-77 -65 975 0
-976 93 0
-976 67 0
-93 -67 976 0
-977 109 0
-977 69 0
-109 -69 977 0
-978 125 0
-978 71 0
-125 -71 978 0
-972 -973 0
-972 -974 0
-972 -975 0
-972 -976 0
-972 -977 0
-972 -978 0
-61 972 973 974 975 976 977 978 0
-979 77 0
-980 7 0
-980 73 0
-7 -73 980 0
-981 29 0
-981 75 0
-29 -75 981 0
-982 61 0
-982 79 0
-61 -79 982 0
-983 93 0
-983 83 0
-93 -83 983 0
-984 109 0
-984 85 0
-109 -85 984 0
-985 125 0
-985 87 0
-125 -87 985 0
-979 -980 0
-979 -981 0
-979 -982 0
-979 -983 0
-979 -984 0
-979 -985 0
-77 979 980 981 982 983 984 985 0
-986 93 0
-987 7 0
-987 89 0
-7 -89 987 0
-988 29 0
-988 91 0
-29 -91 988 0
-989 61 0
-989 95 0
-61 -95 989 0
-990 77 0
-990 97 0
-77 -97 990 0
-991 109 0
-991 101 0
-109 -101 991 0
-992 125 0
-992 103 0
-125 -103 992 0
-986 -987 0
-986 -988 0
-986 -989 0
-986 -990 0
-986 -991 0
-986 -992 0
-93 986 987 988 989 990 991 992 0
-993 109 0
-994 7 0
-994 105 0
-7 -105 994 0
-995 29 0
-995 107 0
-29 -107 995 0
-996 61 0
-996 111 0
-61 -111 996 0
-997 77 0
-997 113 0
-77 -113 997 0
-998 93 0
-998 115 0
-93 -115 998 0
-999 125 0
-999 119 0
-125 -119 999 0
-993 -994 0
-993 -995 0
-993 -996 0
-993 -997 0
-993 -998 0
-993 -999 0
-109 993 994 995 996 997 998 999 0
-1000 125 0
-1001 7 0
-1001 121 0
-7 -121 1001 0
-1002 29 0
-1002 123 0
-29 -123 1002 0
-1003 61 0
-1003 127 0
-61 -127 1003 0
-1004 77 0
-1004 129 0
-77 -129 1004 0
-1005 93 0
-1005 131 0
-93 -131 1005 0
-1006 109 0
-1006 133 0
-109 -133 1006 0
-1000 -1001 0
-1000 -1002 0
-1000 -1003 0
-1000 -1004 0
-1000 -1005 0
-1000 -1006 0
-125 1000 1001 1002 1003 1004 1005 1006 0
-1007 10 0
-1008 31 0
-1008 4 0
-31 -4 1008 0
-1009 47 0
-1009 7 0
-47 -7 1009 0
-1010 79 0
-1010 13 0
-79 -13 1010 0
-1011 95 0
-1011 16 0
-95 -16 1011 0
-1012 111 0
-1012 19 0
-111 -19 1012 0
-1013 127 0
-1013 22 0
-127 -22 1013 0
-1007 -1008 0
-1007 -1009 0
-1007 -1010 0
-1007 -1011 0
-1007 -1012 0
-1007 -1013 0
-10 1007 1008 1009 1010 1011 1012 1013 0
-1014 31 0
-1015 10 0
-1015 25 0
-10 -25 1015 0
-1016 47 0
-1016 29 0
-47 -29 1016 0
-1017 79 0
-1017 33 0
-79 -33 1017 0
-1018 95 0
-1018 35 0
-95 -35 1018 0
-1019 111 0
-1019 37 0
-111 -37 1019 0
-1020 127 0
-1020 39 0
-127 -39 1020 0
-1014 -1015 0
-1014 -1016 0
-1014 -1017 0
-1014 -1018 0
-1014 -1019 0
-1014 -1020 0
-31 1014 1015 1016 1017 1018 1019 1020 0
-1021 47 0
-1022 10 0
-1022 41 0
-10 -41 1022 0
-1023 31 0
-1023 43 0
-31 -43 1023 0
-1024 79 0
-1024 49 0
-79 -49 1024 0
-1025 95 0
-1025 51 0
-95 -51 1025 0
-1026 111 0
-1026 53 0
-111 -53 1026 0
-1027 127 0
-1027 55 0
-127 -55 1027 0
-1021 -1022 0
-1021 -1023 0
-1021 -1024 0
-1021 -1025 0
-1021 -1026 0
-1021 -1027 0
-47 1021 1022 1023 1024 1025 1026 1027 0
-1028 0
-1029 79 0
-1030 10 0
-1030 73 0
-10 -73 1030 0
-1031 31 0
-1031 75 0
-31 -75 1031 0
-1032 47 0
-1032 77 0
-47 -77 1032 0
-1033 95 0
-1033 83 0
-95 -83 1033 0
-1034 111 0
-1034 85 0
-111 -85 1034 0
-1035 127 0
-1035 87 0
-127 -87 1035 0
-1029 -1030 0
-1029 -1031 0
-1029 -1032 0
-1029 -1033 0
-1029 -1034 0
-1029 -1035 0
-79 1029 1030 1031 1032 1033 1034 1035 0
-1036 95 0
-1037 10 0
-1037 89 0
-10 -89 1037 0
-1038 31 0
-1038 91 0
-31 -91 1038 0
-1039 47 0
-1039 93 0
-47 -93 1039 0
-1040 79 0
-1040 97 0
-79 -97 1040 0
-1041 111 0
-1041 101 0
-111 -101 1041 0
-1042 127 0
-1042 103 0
-127 -103 1042 0
-1036 -1037 0
-1036 -1038 0
-1036 -1039 0
-1036 -1040 0
-1036 -1041 0
-1036 -1042 0
-95 1036 1037 1038 1039 1040 1041 1042 0
-1043 111 0
-1044 10 0
-1044 105 0
-10 -105 1044 0
-1045 31 0
-1045 107 0
-31 -107 1045 0
-1046 47 0
-1046 109 0
-47 -109 1046 0
-1047 79 0
-1047 113 0
-79 -113 1047 0
-1048 95 0
-1048 115 0
-95 -115 1048 0
-1049 127 0
-1049 119 0
-127 -119 1049 0
-1043 -1044 0
-1043 -1045 0
-1043 -1046 0
-1043 -1047 0
-1043 -1048 0
-1043 -1049 0
-111 1043 1044 1045 1046 1047 1048 1049 0
-1050 127 0
-1051 10 0
-1051 121 0
-10 -121 1051 0
-1052 31 0
-1052 123 0
-31 -123 1052 0
-1053 47 0
-1053 125 0
-47 -125 1053 0
-1054 79 0
-1054 129 0
-79 -129 1054 0
-1055 95 0
-1055 131 0
-95 -131 1055 0
-1056 111 0
-1056 133 0
-111 -133 1056 0
-1050 -1051 0
-1050 -1052 0
-1050 -1053 0
-1050 -1054 0
-1050 -1055 0
-1050 -1056 0
-127 1050 1051 1052 1053 1054 1055 1056 0
-1057 13 0
-1058 33 0
-1058 4 0
-33 -4 1058 0
-1059 49 0
-1059 7 0
-49 -7 1059 0
-1060 65 0
-1060 10 0
-65 -10 1060 0
-1061 97 0
-1061 16 0
-97 -16 1061 0
-1062 113 0
-1062 19 0
-113 -19 1062 0
-1063 129 0
-1063 22 0
-129 -22 1063 0
-1057 -1058 0
-1057 -1059 0
-1057 -1060 0
-1057 -1061 0
-1057 -1062 0
-1057 -1063 0
-13 1057 1058 1059 1060 1061 1062 1063 0
-1064 33 0
-1065 13 0
-1065 25 0
-13 -25 1065 0
-1066 49 0
-1066 29 0
-49 -29 1066 0
-1067 65 0
-1067 31 0
-65 -31 1067 0
-1068 97 0
-1068 35 0
-97 -35 1068 0
-1069 113 0
-1069 37 0
-113 -37 1069 0
-1070 129 0
-1070 39 0
-129 -39 1070 0
-1064 -1065 0
-1064 -1066 0
-1064 -1067 0
-1064 -1068 0
-1064 -1069 0
-1064 -1070 0
-33 1064 1065 1066 1067 1068 1069 1070 0
-1071 49 0
-1072 13 0
-1072 41 0
-13 -41 1072 0
-1073 33 0
-1073 43 0
-33 -43 1073 0
-1074 65 0
-1074 47 0
-65 -47 1074 0
-1075 97 0
-1075 51 0
-97 -51 1075 0
-1076 113 0
-1076 53 0
-113 -53 1076 0
-1077 129 0
-1077 55 0
-129 -55 1077 0
-1071 -1072 0
-1071 -1073 0
-1071 -1074 0
-1071 -1075 0
-1071 -1076 0
-1071 -1077 0
-49 1071 1072 1073 1074 1075 1076 1077 0
-1078 65 0
-1079 13 0
-1079 57 0
-13 -57 1079 0
-1080 33 0
-1080 59 0
-33 -59 1080 0
-1081 49 0
-1081 61 0
-49 -61 1081 0
-1082 97 0
-1082 67 0
-97 -67 1082 0
-1083 113 0
-1083 69 0
-113 -69 1083 0
-1084 129 0
-1084 71 0
-129 -71 1084 0
-1078 -1079 0
-1078 -1080 0
-1078 -1081 0
-1078 -1082 0
-1078 -1083 0
-1078 -1084 0
-65 1078 1079 1080 1081 1082 1083 1084 0
-1085 0
-1086 97 0
-1087 13 0
-1087 89 0
-13 -89 1087 0
-1088 33 0
-1088 91 0
-33 -91 1088 0
-1089 49 0
-1089 93 0
-49 -93 1089 0
-1090 65 0
-1090 95 0
-65 -95 1090 0
-1091 113 0
-1091 101 0
-113 -101 1091 0
-1092 129 0
-1092 103 0
-129 -103 1092 0
-1086 -1087 0
-1086 -1088 0
-1086 -1089 0
-1086 -1090 0
-1086 -1091 0
-1086 -1092 0
-97 1086 1087 1088 1089 1090 1091 1092 0
-1093 113 0
-1094 13 0
-1094 105 0
-13 -105 1094 0
-1095 33 0
-1095 107 0
-33 -107 1095 0
-1096 49 0
-1096 109 0
-49 -109 1096 0
-1097 65 0
-1097 111 0
-65 -111 1097 0
-1098 97 0
-1098 115 0
-97 -115 1098 0
-1099 129 0
-1099 119 0
-129 -119 1099 0
-1093 -1094 0
-1093 -1095 0
-1093 -1096 0
-1093 -1097 0
-1093 -1098 0
-1093 -1099 0
-113 1093 1094 1095 1096 1097 1098 1099 0
-1100 129 0
-1101 13 0
-1101 121 0
-13 -121 1101 0
-1102 33 0
-1102 123 0
-33 -123 1102 0
-1103 49 0
-1103 125 0
-49 -125 1103 0
-1104 65 0
-1104 127 0
-65 -127 1104 0
-1105 97 0
-1105 131 0
-97 -131 1105 0
-1106 113 0
-1106 133 0
-113 -133 1106 0
-1100 -1101 0
-1100 -1102 0
-1100 -1103 0
-1100 -1104 0
-1100 -1105 0
-1100 -1106 0
-129 1100 1101 1102 1103 1104 1105 1106 0
-1107 16 0
-1108 35 0
-1108 4 0
-35 -4 1108 0
-1109 51 0
-1109 7 0
-51 -7 1109 0
-1110 67 0
-1110 10 0
-67 -10 1110 0
-1111 83 0
-1111 13 0
-83 -13 1111 0
-1112 115 0
-1112 19 0
-115 -19 1112 0
-1113 131 0
-1113 22 0
-131 -22 1113 0
-1107 -1108 0
-1107 -1109 0
-1107 -1110 0
-1107 -1111 0
-1107 -1112 0
-1107 -1113 0
-16 1107 1108 1109 1110 1111 1112 1113 0
-1114 35 0
-1115 16 0
-1115 25 0
-16 -25 1115 0
-1116 51 0
-1116 29 0
-51 -29 1116 0
-1117 67 0
-1117 31 0
-67 -31 1117 0
-1118 83 0
-1118 33 0
-83 -33 1118 0
-1119 115 0
-1119 37 0
-115 -37 1119 0
-1120 131 0
-1120 39 0
-131 -39 1120 0
-1114 -1115 0
-1114 -1116 0
-1114 -1117 0
-1114 -1118 0
-1114 -1119 0
-1114 -1120 0
-35 1114 1115 1116 1117 1118 1119 1120 0
-1121 51 0
-1122 16 0
-1122 41 0
-16 -41 1122 0
-1123 35 0
-1123 43 0
-35 -43 1123 0
-1124 67 0
-1124 47 0
-67 -47 1124 0
-1125 83 0
-1125 49 0
-83 -49 1125 0
-1126 115 0
-1126 53 0
-115 -53 1126 0
-1127 131 0
-1127 55 0
-131 -55 1127 0
-1121 -1122 0
-1121 -1123 0
-1121 -1124 0
-1121 -1125 0
-1121 -1126 0
-1121 -1127 0
-51 1121 1122 1123 1124 1125 1126 1127 0
-1128 67 0
-1129 16 0
-1129 57 0
-16 -57 1129 0
-1130 35 0
-1130 59 0
-35 -59 1130 0
-1131 51 0
-1131 61 0
-51 -61 1131 0
-1132 83 0
-1132 65 0
-83 -65 1132 0
-1133 115 0
-1133 69 0
-115 -69 1133 0
-1134 131 0
-1134 71 0
-131 -71 1134 0
-1128 -1129 0
-1128 -1130 0
-1128 -1131 0
-1128 -1132 0
-1128 -1133 0
-1128 -1134 0
-67 1128 1129 1130 1131 1132 1133 1134 0
-1135 83 0
-1136 16 0
-1136 73 0
-16 -73 1136 0
-1137 35 0
-1137 75 0
-35 -75 1137 0
-1138 51 0
-1138 77 0
-51 -77 1138 0
-1139 67 0
-1139 79 0
-67 -79 1139 0
-1140 115 0
-1140 85 0
-115 -85 1140 0
-1141 131 0
-1141 87 0
-131 -87 1141 0
-1135 -1136 0
-1135 -1137 0
-1135 -1138 0
-1135 -1139 0
-1135 -1140 0
-1135 -1141 0
-83 1135 1136 1137 1138 1139 1140 1141 0
-1142 0
-1143 115 0
-1144 16 0
-1144 105 0
-16 -105 1144 0
-1145 35 0
-1145 107 0
-35 -107 1145 0
-1146 51 0
-1146 109 0
-51 -109 1146 0
-1147 67 0
-1147 111 0
-67 -111 1147 0
-1148 83 0
-1148 113 0
-83 -113 1148 0
-1149 131 0
-1149 119 0
-131 -119 1149 0
-1143 -1144 0
-1143 -1145 0
-1143 -1146 0
-1143 -1147 0
-1143 -1148 0
-1143 -1149 0
-115 1143 1144 1145 1146 1147 1148 1149 0
-1150 131 0
-1151 16 0
-1151 121 0
-16 -121 1151 0
-1152 35 0
-1152 123 0
-35 -123 1152 0
-1153 51 0
-1153 125 0
-51 -125 1153 0
-1154 67 0
-1154 127 0
-67 -127 1154 0
-1155 83 0
-1155 129 0
-83 -129 1155 0
-1156 115 0
-1156 133 0
-115 -133 1156 0
-1150 -1151 0
-1150 -1152 0
-1150 -1153 0
-1150 -1154 0
-1150 -1155 0
-1150 -1156 0
-131 1150 1151 1152 1153 1154 1155 1156 0
-1157 19 0
-1158 37 0
-1158 4 0
-37 -4 1158 0
-1159 53 0
-1159 7 0
-53 -7 1159 0
-1160 69 0
-1160 10 0
-69 -10 1160 0
-1161 85 0
-1161 13 0
-85 -13 1161 0
-1162 101 0
-1162 16 0
-101 -16 1162 0
-1163 133 0
-1163 22 0
-133 -22 1163 0
-1157 -1158 0
-1157 -1159 0
-1157 -1160 0
-1157 -1161 0
-1157 -1162 0
-1157 -1163 0
-19 1157 1158 1159 1160 1161 1162 1163 0
-1164 37 0
-1165 19 0
-1165 25 0
-19 -25 1165 0
-1166 53 0
-1166 29 0
-53 -29 1166 0
-1167 69 0
-1167 31 0
-69 -31 1167 0
-1168 85 0
-1168 33 0
-85 -33 1168 0
-1169 101 0
-1169 35 0
-101 -35 1169 0
-1170 133 0
-1170 39 0
-133 -39 1170 0
-1164 -1165 0
-1164 -1166 0
-1164 -1167 0
-1164 -1168 0
-1164 -1169 0
-1164 -1170 0
-37 1164 1165 1166 1167 1168 1169 1170 0
-1171 53 0
-1172 19 0
-1172 41 0
-19 -41 1172 0
-1173 37 0
-1173 43 0
-37 -43 1173 0
-1174 69 0
-1174 47 0
-69 -47 1174 0
-1175 85 0
-1175 49 0
-85 -49 1175 0
-1176 101 0
-1176 51 0
-101 -51 1176 0
-1177 133 0
-1177 55 0
-133 -55 1177 0
-1171 -1172 0
-1171 -1173 0
-1171 -1174 0
-1171 -1175 0
-1171 -1176 0
-1171 -1177 0
-53 1171 1172 1173 1174 1175 1176 1177 0
-1178 69 0
-1179 19 0
-1179 57 0
-19 -57 1179 0
-1180 37 0
-1180 59 0
-37 -59 1180 0
-1181 53 0
-1181 61 0
-53 -61 1181 0
-1182 85 0
-1182 65 0
-85 -65 1182 0
-1183 101 0
-1183 67 0
-101 -67 1183 0
-1184 133 0
-1184 71 0
-133 -71 1184 0
-1178 -1179 0
-1178 -1180 0
-1178 -1181 0
-1178 -1182 0
-1178 -1183 0
-1178 -1184 0
-69 1178 1179 1180 1181 1182 1183 1184 0
-1185 85 0
-1186 19 0
-1186 73 0
-19 -73 1186 0
-1187 37 0
-1187 75 0
-37 -75 1187 0
-1188 53 0
-1188 77 0
-53 -77 1188 0
-1189 69 0
-1189 79 0
-69 -79 1189 0
-1190 101 0
-1190 83 0
-101 -83 1190 0
-1191 133 0
-1191 87 0
-133 -87 1191 0
-1185 -1186 0
-1185 -1187 0
-1185 -1188 0
-1185 -1189 0
-1185 -1190 0
-1185 -1191 0
-85 1185 1186 1187 1188 1189 1190 1191 0
-1192 101 0
-1193 19 0
-1193 89 0
-19 -89 1193 0
-1194 37 0
-1194 91 0
-37 -91 1194 0
-1195 53 0
-1195 93 0
-53 -93 1195 0
-1196 69 0
-1196 95 0
-69 -95 1196 0
-1197 85 0
-1197 97 0
-85 -97 1197 0
-1198 133 0
-1198 103 0
-133 -103 1198 0
-1192 -1193 0
-1192 -1194 0
-1192 -1195 0
-1192 -1196 0
-1192 -1197 0
-1192 -1198 0
-101 1192 1193 1194 1195 1196 1197 1198 0
-1199 0
-1200 133 0
-1201 19 0
-1201 121 0
-19 -121 1201 0
-1202 37 0
-1202 123 0
-37 -123 1202 0
-1203 53 0
-1203 125 0
-53 -125 1203 0
-1204 69 0
-1204 127 0
-69 -127 1204 0
-1205 85 0
-1205 129 0
-85 -129 1205 0
-1206 101 0
-1206 131 0
-101 -131 1206 0
-1200 -1201 0
-1200 -1202 0
-1200 -1203 0
-1200 -1204 0
-1200 -1205 0
-1200 -1206 0
-133 1200 1201 1202 1203 1204 1205 1206 0
-1207 22 0
-1208 39 0
-1208 4 0
-39 -4 1208 0
-1209 55 0
-1209 7 0
-55 -7 1209 0
-1210 71 0
-1210 10 0
-71 -10 1210 0
-1211 87 0
-1211 13 0
-87 -13 1211 0
-1212 103 0
-1212 16 0
-103 -16 1212 0
-1213 119 0
-1213 19 0
-119 -19 1213 0
-1207 -1208 0
-1207 -1209 0
-1207 -1210 0
-1207 -1211 0
-1207 -1212 0
-1207 -1213 0
-22 1207 1208 1209 1210 1211 1212 1213 0
-1214 39 0
-1215 22 0
-1215 25 0
-22 -25 1215 0
-1216 55 0
-1216 29 0
-55 -29 1216 0
-1217 71 0
-1217 31 0
-71 -31 1217 0
-1218 87 0
-1218 33 0
-87 -33 1218 0
-1219 103 0
-1219 35 0
-103 -35 1219 0
-1220 119 0
-1220 37 0
-119 -37 1220 0
-1214 -1215 0
-1214 -1216 0
-1214 -1217 0
-1214 -1218 0
-1214 -1219 0
-1214 -1220 0
-39 1214 1215 1216 1217 1218 1219 1220 0
-1221 55 0
-1222 22 0
-1222 41 0
-22 -41 1222 0
-1223 39 0
-1223 43 0
-39 -43 1223 0
-1224 71 0
-1224 47 0
-71 -47 1224 0
-1225 87 0
-1225 49 0
-87 -49 1225 0
-1226 103 0
-1226 51 0
-103 -51 1226 0
-1227 119 0
-1227 53 0
-119 -53 1227 0
-1221 -1222 0
-1221 -1223 0
-1221 -1224 0
-1221 -1225 0
-1221 -1226 0
-1221 -1227 0
-55 1221 1222 1223 1224 1225 1226 1227 0
-1228 71 0
-1229 22 0
-1229 57 0
-22 -57 1229 0
-1230 39 0
-1230 59 0
-39 -59 1230 0
-1231 55 0
-1231 61 0
-55 -61 1231 0
-1232 87 0
-1232 65 0
-87 -65 1232 0
-1233 103 0
-1233 67 0
-103 -67 1233 0
-1234 119 0
-1234 69 0
-119 -69 1234 0
-1228 -1229 0
-1228 -1230 0
-1228 -1231 0
-1228 -1232 0
-1228 -1233 0
-1228 -1234 0
-71 1228 1229 1230 1231 1232 1233 1234 0
-1235 87 0
-1236 22 0
-1236 73 0
-22 -73 1236 0
-1237 39 0
-1237 75 0
-39 -75 1237 0
-1238 55 0
-1238 77 0
-55 -77 1238 0
-1239 71 0
-1239 79 0
-71 -79 1239 0
-1240 103 0
-1240 83 0
-103 -83 1240 0
-1241 119 0
-1241 85 0
-119 -85 1241 0
-1235 -1236 0
-1235 -1237 0
-1235 -1238 0
-1235 -1239 0
-1235 -1240 0
-1235 -1241 0
-87 1235 1236 1237 1238 1239 1240 1241 0
-1242 103 0
-1243 22 0
-1243 89 0
-22 -89 1243 0
-1244 39 0
-1244 91 0
-39 -91 1244 0
-1245 55 0
-1245 93 0
-55 -93 1245 0
-1246 71 0
-1246 95 0
-71 -95 1246 0
-1247 87 0
-1247 97 0
-87 -97 1247 0
-1248 119 0
-1248 101 0
-119 -101 1248 0
-1242 -1243 0
-1242 -1244 0
-1242 -1245 0
-1242 -1246 0
-1242 -1247 0
-1242 -1248 0
-103 1242 1243 1244 1245 1246 1247 1248 0
-1249 119 0
-1250 22 0
-1250 105 0
-22 -105 1250 0
-1251 39 0
-1251 107 0
-39 -107 1251 0
-1252 55 0
-1252 109 0
-55 -109 1252 0
-1253 71 0
-1253 111 0
-71 -111 1253 0
-1254 87 0
-1254 113 0
-87 -113 1254 0
-1255 103 0
-1255 115 0
-103 -115 1255 0
-1249 -1250 0
-1249 -1251 0
-1249 -1252 0
-1249 -1253 0
-1249 -1254 0
-1249 -1255 0
-119 1249 1250 1251 1252 1253 1254 1255 0
-1256 0
-1257 1 0
-1257 25 0
-1257 41 0
-1257 57 0
-1257 73 0
-1257 89 0
-1257 105 0
-1257 121 0
-1 -25 -41 -57 -73 -89 -105 -121 1257 0
-1258 1 0
-1258 4 0
-1258 7 0
-1258 10 0
-1258 13 0
-1258 16 0
-1258 19 0
-1258 22 0
-1 -4 -7 -10 -13 -16 -19 -22 1258 0
-1259 4 0
-1259 27 0
-1259 43 0
-1259 59 0
-1259 75 0
-1259 91 0
-1259 107 0
-1259 123 0
-4 -27 -43 -59 -75 -91 -107 -123 1259 0
-1260 25 0
-1260 27 0
-1260 29 0
-1260 31 0
-1260 33 0
-1260 35 0
-1260 37 0
-1260 39 0
-25 -27 -29 -31 -33 -35 -37 -39 1260 0
-1261 7 0
-1261 29 0
-1261 45 0
-1261 61 0
-1261 77 0
-1261 93 0
-1261 109 0
-1261 125 0
-7 -29 -45 -61 -77 -93 -109 -125 1261 0
-1262 41 0
-1262 43 0
-1262 45 0
-1262 47 0
-1262 49 0
-1262 51 0
-1262 53 0
-1262 55 0
-41 -43 -45 -47 -49 -51 -53 -55 1262 0
-1263 10 0
-1263 31 0
-1263 47 0
-1263 63 0
-1263 79 0
-1263 95 0
-1263 111 0
-1263 127 0
-10 -31 -47 -63 -79 -95 -111 -127 1263 0
-1264 57 0
-1264 59 0
-1264 61 0
-1264 63 0
-1264 65 0
-1264 67 0
-1264 69 0
-1264 71 0
-57 -59 -61 -63 -65 -67 -69 -71 1264 0
-1265 13 0
-1265 33 0
-1265 49 0
-1265 65 0
-1265 81 0
-1265 97 0
-1265 113 0
-1265 129 0
-13 -33 -49 -65 -81 -97 -113 -129 1265 0
-1266 73 0
-1266 75 0
-1266 77 0
-1266 79 0
-1266 81 0
-1266 83 0
-1266 85 0
-1266 87 0
-73 -75 -77 -79 -81 -83 -85 -87 1266 0
-1267 16 0
-1267 35 0
-1267 51 0
-1267 67 0
-1267 83 0
-1267 99 0
-1267 115 0
-1267 131 0
-16 -35 -51 -67 -83 -99 -115 -131 1267 0
-1268 89 0
-1268 91 0
-1268 93 0
-1268 95 0
-1268 97 0
-1268 99 0
-1268 101 0
-1268 103 0
-89 -91 -93 -95 -97 -99 -101 -103 1268 0
-1269 19 0
-1269 37 0
-1269 53 0
-1269 69 0
-1269 85 0
-1269 101 0
-1269 117 0
-1269 133 0
-19 -37 -53 -69 -85 -101 -117 -133 1269 0
-1270 105 0
-1270 107 0
-1270 109 0
-1270 111 0
-1270 113 0
-1270 115 0
-1270 117 0
-1270 119 0
-105 -107 -109 -111 -113 -115 -117 -119 1270 0
-1271 22 0
-1271 39 0
-1271 55 0
-1271 71 0
-1271 87 0
-1271 103 0
-1271 119 0
-1271 135 0
-22 -39 -55 -71 -87 -103 -119 -135 1271 0
-1272 121 0
-1272 123 0
-1272 125 0
-1272 127 0
-1272 129 0
-1272 131 0
-1272 133 0
-1272 135 0
-121 -123 -125 -127 -129 -131 -133 -135 1272 0
-857 457 0
-1258 -1257 457 0
-457 857 1258 0
-457 857 1257 0
-858 473 0
-1258 -1259 473 0
-473 858 1258 0
-473 858 1259 0
-865 489 0
-1258 -1261 489 0
-489 865 1258 0
-489 865 1261 0
-872 505 0
-1258 -1263 505 0
-505 872 1258 0
-505 872 1263 0
-879 521 0
-1258 -1265 521 0
-521 879 1258 0
-521 879 1265 0
-886 537 0
-1258 -1267 537 0
-537 886 1258 0
-537 886 1267 0
-893 553 0
-1258 -1269 553 0
-553 893 1258 0
-553 893 1269 0
-900 569 0
-1258 -1271 569 0
-569 900 1258 0
-569 900 1271 0
-907 459 0
-1260 -1257 459 0
-459 907 1260 0
-459 907 1257 0
-914 475 0
-1260 -1259 475 0
-475 914 1260 0
-475 914 1259 0
-915 491 0
-1260 -1261 491 0
-491 915 1260 0
-491 915 1261 0
-922 507 0
-1260 -1263 507 0
-507 922 1260 0
-507 922 1263 0
-929 523 0
-1260 -1265 523 0
-523 929 1260 0
-523 929 1265 0
-936 539 0
-1260 -1267 539 0
-539 936 1260 0
-539 936 1267 0
-943 555 0
-1260 -1269 555 0
-555 943 1260 0
-555 943 1269 0
-950 571 0
-1260 -1271 571 0
-571 950 1260 0
-571 950 1271 0
-957 461 0
-1262 -1257 461 0
-461 957 1262 0
-461 957 1257 0
-964 477 0
-1262 -1259 477 0
-477 964 1262 0
-477 964 1259 0
-971 493 0
-1262 -1261 493 0
-493 971 1262 0
-493 971 1261 0
-972 509 0
-1262 -1263 509 0
-509 972 1262 0
-509 972 1263 0
-979 525 0
-1262 -1265 525 0
-525 979 1262 0
-525 979 1265 0
-986 541 0
-1262 -1267 541 0
-541 986 1262 0
-541 986 1267 0
-993 557 0
-1262 -1269 557 0
-557 993 1262 0
-557 993 1269 0
-1000 573 0
-1262 -1271 573 0
-573 1000 1262 0
-573 1000 1271 0
-1007 463 0
-1264 -1257 463 0
-463 1007 1264 0
-463 1007 1257 0
-1014 479 0
-1264 -1259 479 0
-479 1014 1264 0
-479 1014 1259 0
-1021 495 0
-1264 -1261 495 0
-495 1021 1264 0
-495 1021 1261 0
-1028 511 0
-1264 -1263 511 0
-511 1028 1264 0
-511 1028 1263 0
-1029 527 0
-1264 -1265 527 0
-527 1029 1264 0
-527 1029 1265 0
-1036 543 0
-1264 -1267 543 0
-543 1036 1264 0
-543 1036 1267 0
-1043 559 0
-1264 -1269 559 0
-559 1043 1264 0
-559 1043 1269 0
-1050 575 0
-1264 -1271 575 0
-575 1050 1264 0
-575 1050 1271 0
-1057 465 0
-1266 -1257 465 0
-465 1057 1266 0
-465 1057 1257 0
-1064 481 0
-1266 -1259 481 0
-481 1064 1266 0
-481 1064 1259 0
-1071 497 0
-1266 -1261 497 0
-497 1071 1266 0
-497 1071 1261 0
-1078 513 0
-1266 -1263 513 0
-513 1078 1266 0
-513 1078 1263 0
-1085 529 0
-1266 -1265 529 0
-529 1085 1266 0
-529 1085 1265 0
-1086 545 0
-1266 -1267 545 0
-545 1086 1266 0
-545 1086 1267 0
-1093 561 0
-1266 -1269 561 0
-561 1093 1266 0
-561 1093 1269 0
-1100 577 0
-1266 -1271 577 0
-577 1100 1266 0
-577 1100 1271 0
-1107 467 0
-1268 -1257 467 0
-467 1107 1268 0
-467 1107 1257 0
-1114 483 0
-1268 -1259 483 0
-483 1114 1268 0
-483 1114 1259 0
-1121 499 0
-1268 -1261 499 0
-499 1121 1268 0
-499 1121 1261 0
-1128 515 0
-1268 -1263 515 0
-515 1128 1268 0
-515 1128 1263 0
-1135 531 0
-1268 -1265 531 0
-531 1135 1268 0
-531 1135 1265 0
-1142 547 0
-1268 -1267 547 0
-547 1142 1268 0
-547 1142 1267 0
-1143 563 0
-1268 -1269 563 0
-563 1143 1268 0
-563 1143 1269 0
-1150 579 0
-1268 -1271 579 0
-579 1150 1268 0
-579 1150 1271 0
-1157 469 0
-1270 -1257 469 0
-469 1157 1270 0
-469 1157 1257 0
-1164 485 0
-1270 -1259 485 0
-485 1164 1270 0
-485 1164 1259 0
-1171 501 0
-1270 -1261 501 0
-501 1171 1270 0
-501 1171 1261 0
-1178 517 0
-1270 -1263 517 0
-517 1178 1270 0
-517 1178 1263 0
-1185 533 0
-1270 -1265 533 0
-533 1185 1270 0
-533 1185 1265 0
-1192 549 0
-1270 -1267 549 0
-549 1192 1270 0
-549 1192 1267 0
-1199 565 0
-1270 -1269 565 0
-565 1199 1270 0
-565 1199 1269 0
-1200 581 0
-1270 -1271 581 0
-581 1200 1270 0
-581 1200 1271 0
-1207 471 0
-1272 -1257 471 0
-471 1207 1272 0
-471 1207 1257 0
-1214 487 0
-1272 -1259 487 0
-487 1214 1272 0
-487 1214 1259 0
-1221 503 0
-1272 -1261 503 0
-503 1221 1272 0
-503 1221 1261 0
-1228 519 0
-1272 -1263 519 0
-519 1228 1272 0
-519 1228 1263 0
-1235 535 0
-1272 -1265 535 0
-535 1235 1272 0
-535 1235 1265 0
-1242 551 0
-1272 -1267 551 0
-551 1242 1272 0
-551 1242 1267 0
-1249 567 0
-1272 -1269 567 0
-567 1249 1272 0
-567 1249 1269 0
-1256 583 0
-1272 -1271 583 0
-583 1256 1272 0
-583 1256 1271 0
