p cnf 868 3115
1 2 -2 -3 0
4 2 -5 -6 0
7 2 -8 -9 0
10 2 -11 -12 0
13 2 -14 -15 0
16 2 -17 -18 0
19 2 -20 -21 0
22 5 -2 -23 0
24 5 -5 -25 0
26 5 -8 -27 0
28 5 -11 -29 0
30 5 -14 -31 0
32 5 -17 -33 0
34 5 -20 -35 0
36 8 -2 -37 0
38 8 -5 -39 0
40 8 -8 -41 0
42 8 -11 -43 0
44 8 -14 -45 0
46 8 -17 -47 0
48 8 -20 -49 0
50 11 -2 -51 0
52 11 -5 -53 0
54 11 -8 -55 0
56 11 -11 -57 0
58 11 -14 -59 0
60 11 -17 -61 0
62 11 -20 -63 0
64 14 -2 -65 0
66 14 -5 -67 0
68 14 -8 -69 0
70 14 -11 -71 0
72 14 -14 -73 0
74 14 -17 -75 0
76 14 -20 -77 0
78 17 -2 -79 0
80 17 -5 -81 0
82 17 -8 -83 0
84 17 -11 -85 0
86 17 -14 -87 0
88 17 -17 -89 0
90 17 -20 -91 0
92 20 -2 -93 0
94 20 -5 -95 0
96 20 -8 -97 0
98 20 -11 -99 0
100 20 -14 -101 0
102 20 -17 -103 0
104 20 -20 -105 0
3 -1 0
6 -4 0
9 -7 0
12 -10 0
15 -13 0
18 -16 0
21 -19 0
23 -22 0
25 -24 0
27 -26 0
29 -28 0
31 -30 0
33 -32 0
35 -34 0
37 -36 0
39 -38 0
41 -40 0
43 -42 0
45 -44 0
47 -46 0
49 -48 0
51 -50 0
53 -52 0
55 -54 0
57 -56 0
59 -58 0
61 -60 0
63 -62 0
65 -64 0
67 -66 0
69 -68 0
71 -70 0
73 -72 0
75 -74 0
77 -76 0
79 -78 0
81 -80 0
83 -82 0
85 -84 0
87 -86 0
89 -88 0
91 -90 0
93 -92 0
95 -94 0
97 -96 0
99 -98 0
101 -100 0
103 -102 0
105 -104 0
3 -2 0
6 -2 0
9 -2 0
12 -2 0
15 -2 0
18 -2 0
21 -2 0
23 -5 0
25 -5 0
27 -5 0
29 -5 0
31 -5 0
33 -5 0
35 -5 0
37 -8 0
39 -8 0
41 -8 0
43 -8 0
45 -8 0
47 -8 0
49 -8 0
51 -11 0
53 -11 0
55 -11 0
57 -11 0
59 -11 0
61 -11 0
63 -11 0
65 -14 0
67 -14 0
69 -14 0
71 -14 0
73 -14 0
75 -14 0
77 -14 0
79 -17 0
81 -17 0
83 -17 0
85 -17 0
87 -17 0
89 -17 0
91 -17 0
93 -20 0
95 -20 0
97 -20 0
99 -20 0
101 -20 0
103 -20 0
105 -20 0
3 2 0
6 5 0
9 8 0
12 11 0
15 14 0
18 17 0
21 20 0
23 2 0
25 5 0
27 8 0
29 11 0
31 14 0
33 17 0
35 20 0
37 2 0
39 5 0
41 8 0
43 11 0
45 14 0
47 17 0
49 20 0
51 2 0
53 5 0
55 8 0
57 11 0
59 14 0
61 17 0
63 20 0
65 2 0
67 5 0
69 8 0
71 11 0
73 14 0
75 17 0
77 20 0
79 2 0
81 5 0
83 8 0
85 11 0
87 14 0
89 17 0
91 20 0
93 2 0
95 5 0
97 8 0
99 11 0
101 14 0
103 17 0
105 20 0
106 106 -107 -108 0
109 110 -111 -112 0
113 114 -115 -116 0
117 118 -119 -120 0
121 122 -123 -124 0
125 126 -127 -128 0
129 130 -131 -132 0
110 109 -133 -134 0
135 135 -136 -137 0
138 139 -140 -141 0
142 143 -144 -145 0
146 147 -148 -149 0
150 151 -152 -153 0
154 155 -156 -157 0
114 113 -158 -159 0
139 138 -160 -161 0
162 162 -163 -164 0
165 166 -167 -168 0
169 170 -171 -172 0
173 174 -175 -176 0
177 178 -179 -180 0
118 117 -181 -182 0
143 142 -183 -184 0
166 165 -185 -186 0
187 187 -188 -189 0
190 191 -192 -193 0
194 195 -196 -197 0
198 199 -200 -201 0
122 121 -202 -203 0
147 146 -204 -205 0
170 169 -206 -207 0
191 190 -208 -209 0
210 210 -211 -212 0
213 214 -215 -216 0
217 218 -219 -220 0
126 125 -221 -222 0
151 150 -223 -224 0
174 173 -225 -226 0
195 194 -227 -228 0
214 213 -229 -230 0
231 231 -232 -233 0
234 235 -236 -237 0
130 129 -238 -239 0
155 154 -240 -241 0
178 177 -242 -243 0
199 198 -244 -245 0
218 217 -246 -247 0
235 234 -248 -249 0
250 250 -251 -252 0
108 -106 0
112 -109 0
116 -113 0
120 -117 0
124 -121 0
128 -125 0
132 -129 0
134 -110 0
137 -135 0
141 -138 0
145 -142 0
149 -146 0
153 -150 0
157 -154 0
159 -114 0
161 -139 0
164 -162 0
168 -165 0
172 -169 0
176 -173 0
180 -177 0
182 -118 0
184 -143 0
186 -166 0
189 -187 0
193 -190 0
197 -194 0
201 -198 0
203 -122 0
205 -147 0
207 -170 0
209 -191 0
212 -210 0
216 -213 0
220 -217 0
222 -126 0
224 -151 0
226 -174 0
228 -195 0
230 -214 0
233 -231 0
237 -234 0
239 -130 0
241 -155 0
243 -178 0
245 -199 0
247 -218 0
249 -235 0
252 -250 0
108 -106 0
112 -110 0
116 -114 0
120 -118 0
124 -122 0
128 -126 0
132 -130 0
134 -109 0
137 -135 0
141 -139 0
145 -143 0
149 -147 0
153 -151 0
157 -155 0
159 -113 0
161 -138 0
164 -162 0
168 -166 0
172 -170 0
176 -174 0
180 -178 0
182 -117 0
184 -142 0
186 -165 0
189 -187 0
193 -191 0
197 -195 0
201 -199 0
203 -121 0
205 -146 0
207 -169 0
209 -190 0
212 -210 0
216 -214 0
220 -218 0
222 -125 0
224 -150 0
226 -173 0
228 -194 0
230 -213 0
233 -231 0
237 -235 0
239 -129 0
241 -154 0
243 -177 0
245 -198 0
247 -217 0
249 -234 0
252 -250 0
108 107 0
112 111 0
116 115 0
120 119 0
124 123 0
128 127 0
132 131 0
134 133 0
137 136 0
141 140 0
145 144 0
149 148 0
153 152 0
157 156 0
159 158 0
161 160 0
164 163 0
168 167 0
172 171 0
176 175 0
180 179 0
182 181 0
184 183 0
186 185 0
189 188 0
193 192 0
197 196 0
201 200 0
203 202 0
205 204 0
207 206 0
209 208 0
212 211 0
216 215 0
220 219 0
222 221 0
224 223 0
226 225 0
228 227 0
230 229 0
233 232 0
237 236 0
239 238 0
241 240 0
243 242 0
245 244 0
247 246 0
249 248 0
252 251 0
106 106 253 0
109 110 254 0
113 114 255 0
117 118 256 0
121 122 257 0
125 126 258 0
129 130 259 0
110 109 260 0
135 135 261 0
138 139 262 0
142 143 263 0
146 147 264 0
150 151 265 0
154 155 266 0
114 113 267 0
139 138 268 0
162 162 269 0
165 166 270 0
169 170 271 0
173 174 272 0
177 178 273 0
118 117 274 0
143 142 275 0
166 165 276 0
187 187 277 0
190 191 278 0
194 195 279 0
198 199 280 0
122 121 281 0
147 146 282 0
170 169 283 0
191 190 284 0
210 210 285 0
213 214 286 0
217 218 287 0
126 125 288 0
151 150 289 0
174 173 290 0
195 194 291 0
214 213 292 0
231 231 293 0
234 235 294 0
130 129 295 0
155 154 296 0
178 177 297 0
199 198 298 0
218 217 299 0
235 234 300 0
250 250 301 0
-253 -106 0
-254 -109 0
-255 -113 0
-256 -117 0
-257 -121 0
-258 -125 0
-259 -129 0
-260 -110 0
-261 -135 0
-262 -138 0
-263 -142 0
-264 -146 0
-265 -150 0
-266 -154 0
-267 -114 0
-268 -139 0
-269 -162 0
-270 -165 0
-271 -169 0
-272 -173 0
-273 -177 0
-274 -118 0
-275 -143 0
-276 -166 0
-277 -187 0
-278 -190 0
-279 -194 0
-280 -198 0
-281 -122 0
-282 -147 0
-283 -170 0
-284 -191 0
-285 -210 0
-286 -213 0
-287 -217 0
-288 -126 0
-289 -151 0
-290 -174 0
-291 -195 0
-292 -214 0
-293 -231 0
-294 -234 0
-295 -130 0
-296 -155 0
-297 -178 0
-298 -199 0
-299 -218 0
-300 -235 0
-301 -250 0
-253 -106 0
-254 -110 0
-255 -114 0
-256 -118 0
-257 -122 0
-258 -126 0
-259 -130 0
-260 -109 0
-261 -135 0
-262 -139 0
-263 -143 0
-264 -147 0
-265 -151 0
-266 -155 0
-267 -113 0
-268 -138 0
-269 -162 0
-270 -166 0
-271 -170 0
-272 -174 0
-273 -178 0
-274 -117 0
-275 -142 0
-276 -165 0
-277 -187 0
-278 -191 0
-279 -195 0
-280 -199 0
-281 -121 0
-282 -146 0
-283 -169 0
-284 -190 0
-285 -210 0
-286 -214 0
-287 -218 0
-288 -125 0
-289 -150 0
-290 -173 0
-291 -194 0
-292 -213 0
-293 -231 0
-294 -235 0
-295 -129 0
-296 -154 0
-297 -177 0
-298 -198 0
-299 -217 0
-300 -234 0
-301 -250 0
107 253 -302 0
111 254 -303 0
115 255 -304 0
119 256 -305 0
123 257 -306 0
127 258 -307 0
131 259 -308 0
133 260 -309 0
136 261 -310 0
140 262 -311 0
144 263 -312 0
148 264 -313 0
152 265 -314 0
156 266 -315 0
158 267 -316 0
160 268 -317 0
163 269 -318 0
167 270 -319 0
171 271 -320 0
175 272 -321 0
179 273 -322 0
181 274 -323 0
183 275 -324 0
185 276 -325 0
188 277 -326 0
192 278 -327 0
196 279 -328 0
200 280 -329 0
202 281 -330 0
204 282 -331 0
206 283 -332 0
208 284 -333 0
211 285 -334 0
215 286 -335 0
219 287 -336 0
221 288 -337 0
223 289 -338 0
225 290 -339 0
227 291 -340 0
229 292 -341 0
232 293 -342 0
236 294 -343 0
238 295 -344 0
240 296 -345 0
242 297 -346 0
244 298 -347 0
246 299 -348 0
248 300 -349 0
251 301 -350 0
302 -107 0
303 -111 0
304 -115 0
305 -119 0
306 -123 0
307 -127 0
308 -131 0
309 -133 0
310 -136 0
311 -140 0
312 -144 0
313 -148 0
314 -152 0
315 -156 0
316 -158 0
317 -160 0
318 -163 0
319 -167 0
320 -171 0
321 -175 0
322 -179 0
323 -181 0
324 -183 0
325 -185 0
326 -188 0
327 -192 0
328 -196 0
329 -200 0
330 -202 0
331 -204 0
332 -206 0
333 -208 0
334 -211 0
335 -215 0
336 -219 0
337 -221 0
338 -223 0
339 -225 0
340 -227 0
341 -229 0
342 -232 0
343 -236 0
344 -238 0
345 -240 0
346 -242 0
347 -244 0
348 -246 0
349 -248 0
350 -251 0
302 -253 0
303 -254 0
304 -255 0
305 -256 0
306 -257 0
307 -258 0
308 -259 0
309 -260 0
310 -261 0
311 -262 0
312 -263 0
313 -264 0
314 -265 0
315 -266 0
316 -267 0
317 -268 0
318 -269 0
319 -270 0
320 -271 0
321 -272 0
322 -273 0
323 -274 0
324 -275 0
325 -276 0
326 -277 0
327 -278 0
328 -279 0
329 -280 0
330 -281 0
331 -282 0
332 -283 0
333 -284 0
334 -285 0
335 -286 0
336 -287 0
337 -288 0
338 -289 0
339 -290 0
340 -291 0
341 -292 0
342 -293 0
343 -294 0
344 -295 0
345 -296 0
346 -297 0
347 -298 0
348 -299 0
349 -300 0
350 -301 0
-351 -2 -2 352 0
-353 -5 -2 354 0
-355 -8 -2 356 0
-357 -11 -2 358 0
-359 -14 -2 360 0
-361 -17 -2 362 0
-363 -20 -2 364 0
-365 -2 -5 366 0
-367 -5 -5 368 0
-369 -8 -5 370 0
-371 -11 -5 372 0
-373 -14 -5 374 0
-375 -17 -5 376 0
-377 -20 -5 378 0
-379 -2 -8 380 0
-381 -5 -8 382 0
-383 -8 -8 384 0
-385 -11 -8 386 0
-387 -14 -8 388 0
-389 -17 -8 390 0
-391 -20 -8 392 0
-393 -2 -11 394 0
-395 -5 -11 396 0
-397 -8 -11 398 0
-399 -11 -11 400 0
-401 -14 -11 402 0
-403 -17 -11 404 0
-405 -20 -11 406 0
-407 -2 -14 408 0
-409 -5 -14 410 0
-411 -8 -14 412 0
-413 -11 -14 414 0
-415 -14 -14 416 0
-417 -17 -14 418 0
-419 -20 -14 420 0
-421 -2 -17 422 0
-423 -5 -17 424 0
-425 -8 -17 426 0
-427 -11 -17 428 0
-429 -14 -17 430 0
-431 -17 -17 432 0
-433 -20 -17 434 0
-435 -2 -20 436 0
-437 -5 -20 438 0
-439 -8 -20 440 0
-441 -11 -20 442 0
-443 -14 -20 444 0
-445 -17 -20 446 0
-447 -20 -20 448 0
-352 351 0
-354 353 0
-356 355 0
-358 357 0
-360 359 0
-362 361 0
-364 363 0
-366 365 0
-368 367 0
-370 369 0
-372 371 0
-374 373 0
-376 375 0
-378 377 0
-380 379 0
-382 381 0
-384 383 0
-386 385 0
-388 387 0
-390 389 0
-392 391 0
-394 393 0
-396 395 0
-398 397 0
-400 399 0
-402 401 0
-404 403 0
-406 405 0
-408 407 0
-410 409 0
-412 411 0
-414 413 0
-416 415 0
-418 417 0
-420 419 0
-422 421 0
-424 423 0
-426 425 0
-428 427 0
-430 429 0
-432 431 0
-434 433 0
-436 435 0
-438 437 0
-440 439 0
-442 441 0
-444 443 0
-446 445 0
-448 447 0
-352 2 0
-354 5 0
-356 8 0
-358 11 0
-360 14 0
-362 17 0
-364 20 0
-366 2 0
-368 5 0
-370 8 0
-372 11 0
-374 14 0
-376 17 0
-378 20 0
-380 2 0
-382 5 0
-384 8 0
-386 11 0
-388 14 0
-390 17 0
-392 20 0
-394 2 0
-396 5 0
-398 8 0
-400 11 0
-402 14 0
-404 17 0
-406 20 0
-408 2 0
-410 5 0
-412 8 0
-414 11 0
-416 14 0
-418 17 0
-420 20 0
-422 2 0
-424 5 0
-426 8 0
-428 11 0
-430 14 0
-432 17 0
-434 20 0
-436 2 0
-438 5 0
-440 8 0
-442 11 0
-444 14 0
-446 17 0
-448 20 0
-352 2 0
-354 2 0
-356 2 0
-358 2 0
-360 2 0
-362 2 0
-364 2 0
-366 5 0
-368 5 0
-370 5 0
-372 5 0
-374 5 0
-376 5 0
-378 5 0
-380 8 0
-382 8 0
-384 8 0
-386 8 0
-388 8 0
-390 8 0
-392 8 0
-394 11 0
-396 11 0
-398 11 0
-400 11 0
-402 11 0
-404 11 0
-406 11 0
-408 14 0
-410 14 0
-412 14 0
-414 14 0
-416 14 0
-418 14 0
-420 14 0
-422 17 0
-424 17 0
-426 17 0
-428 17 0
-430 17 0
-432 17 0
-434 17 0
-436 20 0
-438 20 0
-440 20 0
-442 20 0
-444 20 0
-446 20 0
-448 20 0
-106 352 -449 0
-109 354 -450 0
-113 356 -451 0
-117 358 -452 0
-121 360 -453 0
-125 362 -454 0
-129 364 -455 0
-110 366 -456 0
-135 368 -457 0
-138 370 -458 0
-142 372 -459 0
-146 374 -460 0
-150 376 -461 0
-154 378 -462 0
-114 380 -463 0
-139 382 -464 0
-162 384 -465 0
-165 386 -466 0
-169 388 -467 0
-173 390 -468 0
-177 392 -469 0
-118 394 -470 0
-143 396 -471 0
-166 398 -472 0
-187 400 -473 0
-190 402 -474 0
-194 404 -475 0
-198 406 -476 0
-122 408 -477 0
-147 410 -478 0
-170 412 -479 0
-191 414 -480 0
-210 416 -481 0
-213 418 -482 0
-217 420 -483 0
-126 422 -484 0
-151 424 -485 0
-174 426 -486 0
-195 428 -487 0
-214 430 -488 0
-231 432 -489 0
-234 434 -490 0
-130 436 -491 0
-155 438 -492 0
-178 440 -493 0
-199 442 -494 0
-218 444 -495 0
-235 446 -496 0
-250 448 -497 0
449 106 0
450 109 0
451 113 0
452 117 0
453 121 0
454 125 0
455 129 0
456 110 0
457 135 0
458 138 0
459 142 0
460 146 0
461 150 0
462 154 0
463 114 0
464 139 0
465 162 0
466 165 0
467 169 0
468 173 0
469 177 0
470 118 0
471 143 0
472 166 0
473 187 0
474 190 0
475 194 0
476 198 0
477 122 0
478 147 0
479 170 0
480 191 0
481 210 0
482 213 0
483 217 0
484 126 0
485 151 0
486 174 0
487 195 0
488 214 0
489 231 0
490 234 0
491 130 0
492 155 0
493 178 0
494 199 0
495 218 0
496 235 0
497 250 0
449 -352 0
450 -354 0
451 -356 0
452 -358 0
453 -360 0
454 -362 0
455 -364 0
456 -366 0
457 -368 0
458 -370 0
459 -372 0
460 -374 0
461 -376 0
462 -378 0
463 -380 0
464 -382 0
465 -384 0
466 -386 0
467 -388 0
468 -390 0
469 -392 0
470 -394 0
471 -396 0
472 -398 0
473 -400 0
474 -402 0
475 -404 0
476 -406 0
477 -408 0
478 -410 0
479 -412 0
480 -414 0
481 -416 0
482 -418 0
483 -420 0
484 -422 0
485 -424 0
486 -426 0
487 -428 0
488 -430 0
489 -432 0
490 -434 0
491 -436 0
492 -438 0
493 -440 0
494 -442 0
495 -444 0
496 -446 0
497 -448 0
-498 -499 -107 -500 0
-498 -501 -111 -502 0
-498 -503 -115 -504 0
-498 -505 -119 -506 0
-498 -507 -123 -508 0
-498 -509 -127 -510 0
-498 -511 -131 -512 0
-513 -499 -133 -514 0
-513 -501 -136 -515 0
-513 -503 -140 -516 0
-513 -505 -144 -517 0
-513 -507 -148 -518 0
-513 -509 -152 -519 0
-513 -511 -156 -520 0
-521 -499 -158 -522 0
-521 -501 -160 -523 0
-521 -503 -163 -524 0
-521 -505 -167 -525 0
-521 -507 -171 -526 0
-521 -509 -175 -527 0
-521 -511 -179 -528 0
-529 -499 -181 -530 0
-529 -501 -183 -531 0
-529 -503 -185 -532 0
-529 -505 -188 -533 0
-529 -507 -192 -534 0
-529 -509 -196 -535 0
-529 -511 -200 -536 0
-537 -499 -202 -538 0
-537 -501 -204 -539 0
-537 -503 -206 -540 0
-537 -505 -208 -541 0
-537 -507 -211 -542 0
-537 -509 -215 -543 0
-537 -511 -219 -544 0
-545 -499 -221 -546 0
-545 -501 -223 -547 0
-545 -503 -225 -548 0
-545 -505 -227 -549 0
-545 -507 -229 -550 0
-545 -509 -232 -551 0
-545 -511 -236 -552 0
-553 -499 -238 -554 0
-553 -501 -240 -555 0
-553 -503 -242 -556 0
-553 -505 -244 -557 0
-553 -507 -246 -558 0
-553 -509 -248 -559 0
-553 -511 -251 -560 0
500 498 0
502 498 0
504 498 0
506 498 0
508 498 0
510 498 0
512 498 0
514 513 0
515 513 0
516 513 0
517 513 0
518 513 0
519 513 0
520 513 0
522 521 0
523 521 0
524 521 0
525 521 0
526 521 0
527 521 0
528 521 0
530 529 0
531 529 0
532 529 0
533 529 0
534 529 0
535 529 0
536 529 0
538 537 0
539 537 0
540 537 0
541 537 0
542 537 0
543 537 0
544 537 0
546 545 0
547 545 0
548 545 0
549 545 0
550 545 0
551 545 0
552 545 0
554 553 0
555 553 0
556 553 0
557 553 0
558 553 0
559 553 0
560 553 0
500 499 0
502 501 0
504 503 0
506 505 0
508 507 0
510 509 0
512 511 0
514 499 0
515 501 0
516 503 0
517 505 0
518 507 0
519 509 0
520 511 0
522 499 0
523 501 0
524 503 0
525 505 0
526 507 0
527 509 0
528 511 0
530 499 0
531 501 0
532 503 0
533 505 0
534 507 0
535 509 0
536 511 0
538 499 0
539 501 0
540 503 0
541 505 0
542 507 0
543 509 0
544 511 0
546 499 0
547 501 0
548 503 0
549 505 0
550 507 0
551 509 0
552 511 0
554 499 0
555 501 0
556 503 0
557 505 0
558 507 0
559 509 0
560 511 0
500 107 0
502 111 0
504 115 0
506 119 0
508 123 0
510 127 0
512 131 0
514 133 0
515 136 0
516 140 0
517 144 0
518 148 0
519 152 0
520 156 0
522 158 0
523 160 0
524 163 0
525 167 0
526 171 0
527 175 0
528 179 0
530 181 0
531 183 0
532 185 0
533 188 0
534 192 0
535 196 0
536 200 0
538 202 0
539 204 0
540 206 0
541 208 0
542 211 0
543 215 0
544 219 0
546 221 0
547 223 0
548 225 0
549 227 0
550 229 0
551 232 0
552 236 0
554 238 0
555 240 0
556 242 0
557 244 0
558 246 0
559 248 0
560 251 0
106 -351 -2 -2 -561 0
109 -353 -5 -2 -562 0
113 -355 -8 -2 -563 0
117 -357 -11 -2 -564 0
121 -359 -14 -2 -565 0
125 -361 -17 -2 -566 0
129 -363 -20 -2 -567 0
110 -365 -2 -5 -568 0
135 -367 -5 -5 -569 0
138 -369 -8 -5 -570 0
142 -371 -11 -5 -571 0
146 -373 -14 -5 -572 0
150 -375 -17 -5 -573 0
154 -377 -20 -5 -574 0
114 -379 -2 -8 -575 0
139 -381 -5 -8 -576 0
162 -383 -8 -8 -577 0
165 -385 -11 -8 -578 0
169 -387 -14 -8 -579 0
173 -389 -17 -8 -580 0
177 -391 -20 -8 -581 0
118 -393 -2 -11 -582 0
143 -395 -5 -11 -583 0
166 -397 -8 -11 -584 0
187 -399 -11 -11 -585 0
190 -401 -14 -11 -586 0
194 -403 -17 -11 -587 0
198 -405 -20 -11 -588 0
122 -407 -2 -14 -589 0
147 -409 -5 -14 -590 0
170 -411 -8 -14 -591 0
191 -413 -11 -14 -592 0
210 -415 -14 -14 -593 0
213 -417 -17 -14 -594 0
217 -419 -20 -14 -595 0
126 -421 -2 -17 -596 0
151 -423 -5 -17 -597 0
174 -425 -8 -17 -598 0
195 -427 -11 -17 -599 0
214 -429 -14 -17 -600 0
231 -431 -17 -17 -601 0
234 -433 -20 -17 -602 0
130 -435 -2 -20 -603 0
155 -437 -5 -20 -604 0
178 -439 -8 -20 -605 0
199 -441 -11 -20 -606 0
218 -443 -14 -20 -607 0
235 -445 -17 -20 -608 0
250 -447 -20 -20 -609 0
561 -106 0
562 -109 0
563 -113 0
564 -117 0
565 -121 0
566 -125 0
567 -129 0
568 -110 0
569 -135 0
570 -138 0
571 -142 0
572 -146 0
573 -150 0
574 -154 0
575 -114 0
576 -139 0
577 -162 0
578 -165 0
579 -169 0
580 -173 0
581 -177 0
582 -118 0
583 -143 0
584 -166 0
585 -187 0
586 -190 0
587 -194 0
588 -198 0
589 -122 0
590 -147 0
591 -170 0
592 -191 0
593 -210 0
594 -213 0
595 -217 0
596 -126 0
597 -151 0
598 -174 0
599 -195 0
600 -214 0
601 -231 0
602 -234 0
603 -130 0
604 -155 0
605 -178 0
606 -199 0
607 -218 0
608 -235 0
609 -250 0
561 351 0
562 353 0
563 355 0
564 357 0
565 359 0
566 361 0
567 363 0
568 365 0
569 367 0
570 369 0
571 371 0
572 373 0
573 375 0
574 377 0
575 379 0
576 381 0
577 383 0
578 385 0
579 387 0
580 389 0
581 391 0
582 393 0
583 395 0
584 397 0
585 399 0
586 401 0
587 403 0
588 405 0
589 407 0
590 409 0
591 411 0
592 413 0
593 415 0
594 417 0
595 419 0
596 421 0
597 423 0
598 425 0
599 427 0
600 429 0
601 431 0
602 433 0
603 435 0
604 437 0
605 439 0
606 441 0
607 443 0
608 445 0
609 447 0
561 2 0
562 5 0
563 8 0
564 11 0
565 14 0
566 17 0
567 20 0
568 2 0
569 5 0
570 8 0
571 11 0
572 14 0
573 17 0
574 20 0
575 2 0
576 5 0
577 8 0
578 11 0
579 14 0
580 17 0
581 20 0
582 2 0
583 5 0
584 8 0
585 11 0
586 14 0
587 17 0
588 20 0
589 2 0
590 5 0
591 8 0
592 11 0
593 14 0
594 17 0
595 20 0
596 2 0
597 5 0
598 8 0
599 11 0
600 14 0
601 17 0
602 20 0
603 2 0
604 5 0
605 8 0
606 11 0
607 14 0
608 17 0
609 20 0
561 2 0
562 2 0
563 2 0
564 2 0
565 2 0
566 2 0
567 2 0
568 5 0
569 5 0
570 5 0
571 5 0
572 5 0
573 5 0
574 5 0
575 8 0
576 8 0
577 8 0
578 8 0
579 8 0
580 8 0
581 8 0
582 11 0
583 11 0
584 11 0
585 11 0
586 11 0
587 11 0
588 11 0
589 14 0
590 14 0
591 14 0
592 14 0
593 14 0
594 14 0
595 14 0
596 17 0
597 17 0
598 17 0
599 17 0
600 17 0
601 17 0
602 17 0
603 20 0
604 20 0
605 20 0
606 20 0
607 20 0
608 20 0
609 20 0
-3 -108 -302 -449 -500 -561 610 0
-6 -112 -303 -450 -502 -562 611 0
-9 -116 -304 -451 -504 -563 612 0
-12 -120 -305 -452 -506 -564 613 0
-15 -124 -306 -453 -508 -565 614 0
-18 -128 -307 -454 -510 -566 615 0
-21 -132 -308 -455 -512 -567 616 0
-23 -134 -309 -456 -514 -568 617 0
-25 -137 -310 -457 -515 -569 618 0
-27 -141 -311 -458 -516 -570 619 0
-29 -145 -312 -459 -517 -571 620 0
-31 -149 -313 -460 -518 -572 621 0
-33 -153 -314 -461 -519 -573 622 0
-35 -157 -315 -462 -520 -574 623 0
-37 -159 -316 -463 -522 -575 624 0
-39 -161 -317 -464 -523 -576 625 0
-41 -164 -318 -465 -524 -577 626 0
-43 -168 -319 -466 -525 -578 627 0
-45 -172 -320 -467 -526 -579 628 0
-47 -176 -321 -468 -527 -580 629 0
-49 -180 -322 -469 -528 -581 630 0
-51 -182 -323 -470 -530 -582 631 0
-53 -184 -324 -471 -531 -583 632 0
-55 -186 -325 -472 -532 -584 633 0
-57 -189 -326 -473 -533 -585 634 0
-59 -193 -327 -474 -534 -586 635 0
-61 -197 -328 -475 -535 -587 636 0
-63 -201 -329 -476 -536 -588 637 0
-65 -203 -330 -477 -538 -589 638 0
-67 -205 -331 -478 -539 -590 639 0
-69 -207 -332 -479 -540 -591 640 0
-71 -209 -333 -480 -541 -592 641 0
-73 -212 -334 -481 -542 -593 642 0
-75 -216 -335 -482 -543 -594 643 0
-77 -220 -336 -483 -544 -595 644 0
-79 -222 -337 -484 -546 -596 645 0
-81 -224 -338 -485 -547 -597 646 0
-83 -226 -339 -486 -548 -598 647 0
-85 -228 -340 -487 -549 -599 648 0
-87 -230 -341 -488 -550 -600 649 0
-89 -233 -342 -489 -551 -601 650 0
-91 -237 -343 -490 -552 -602 651 0
-93 -239 -344 -491 -554 -603 652 0
-95 -241 -345 -492 -555 -604 653 0
-97 -243 -346 -493 -556 -605 654 0
-99 -245 -347 -494 -557 -606 655 0
-101 -247 -348 -495 -558 -607 656 0
-103 -249 -349 -496 -559 -608 657 0
-105 -252 -350 -497 -560 -609 658 0
-610 3 0
-611 6 0
-612 9 0
-613 12 0
-614 15 0
-615 18 0
-616 21 0
-617 23 0
-618 25 0
-619 27 0
-620 29 0
-621 31 0
-622 33 0
-623 35 0
-624 37 0
-625 39 0
-626 41 0
-627 43 0
-628 45 0
-629 47 0
-630 49 0
-631 51 0
-632 53 0
-633 55 0
-634 57 0
-635 59 0
-636 61 0
-637 63 0
-638 65 0
-639 67 0
-640 69 0
-641 71 0
-642 73 0
-643 75 0
-644 77 0
-645 79 0
-646 81 0
-647 83 0
-648 85 0
-649 87 0
-650 89 0
-651 91 0
-652 93 0
-653 95 0
-654 97 0
-655 99 0
-656 101 0
-657 103 0
-658 105 0
-610 108 0
-611 112 0
-612 116 0
-613 120 0
-614 124 0
-615 128 0
-616 132 0
-617 134 0
-618 137 0
-619 141 0
-620 145 0
-621 149 0
-622 153 0
-623 157 0
-624 159 0
-625 161 0
-626 164 0
-627 168 0
-628 172 0
-629 176 0
-630 180 0
-631 182 0
-632 184 0
-633 186 0
-634 189 0
-635 193 0
-636 197 0
-637 201 0
-638 203 0
-639 205 0
-640 207 0
-641 209 0
-642 212 0
-643 216 0
-644 220 0
-645 222 0
-646 224 0
-647 226 0
-648 228 0
-649 230 0
-650 233 0
-651 237 0
-652 239 0
-653 241 0
-654 243 0
-655 245 0
-656 247 0
-657 249 0
-658 252 0
-610 302 0
-611 303 0
-612 304 0
-613 305 0
-614 306 0
-615 307 0
-616 308 0
-617 309 0
-618 310 0
-619 311 0
-620 312 0
-621 313 0
-622 314 0
-623 315 0
-624 316 0
-625 317 0
-626 318 0
-627 319 0
-628 320 0
-629 321 0
-630 322 0
-631 323 0
-632 324 0
-633 325 0
-634 326 0
-635 327 0
-636 328 0
-637 329 0
-638 330 0
-639 331 0
-640 332 0
-641 333 0
-642 334 0
-643 335 0
-644 336 0
-645 337 0
-646 338 0
-647 339 0
-648 340 0
-649 341 0
-650 342 0
-651 343 0
-652 344 0
-653 345 0
-654 346 0
-655 347 0
-656 348 0
-657 349 0
-658 350 0
-610 449 0
-611 450 0
-612 451 0
-613 452 0
-614 453 0
-615 454 0
-616 455 0
-617 456 0
-618 457 0
-619 458 0
-620 459 0
-621 460 0
-622 461 0
-623 462 0
-624 463 0
-625 464 0
-626 465 0
-627 466 0
-628 467 0
-629 468 0
-630 469 0
-631 470 0
-632 471 0
-633 472 0
-634 473 0
-635 474 0
-636 475 0
-637 476 0
-638 477 0
-639 478 0
-640 479 0
-641 480 0
-642 481 0
-643 482 0
-644 483 0
-645 484 0
-646 485 0
-647 486 0
-648 487 0
-649 488 0
-650 489 0
-651 490 0
-652 491 0
-653 492 0
-654 493 0
-655 494 0
-656 495 0
-657 496 0
-658 497 0
-610 500 0
-611 502 0
-612 504 0
-613 506 0
-614 508 0
-615 510 0
-616 512 0
-617 514 0
-618 515 0
-619 516 0
-620 517 0
-621 518 0
-622 519 0
-623 520 0
-624 522 0
-625 523 0
-626 524 0
-627 525 0
-628 526 0
-629 527 0
-630 528 0
-631 530 0
-632 531 0
-633 532 0
-634 533 0
-635 534 0
-636 535 0
-637 536 0
-638 538 0
-639 539 0
-640 540 0
-641 541 0
-642 542 0
-643 543 0
-644 544 0
-645 546 0
-646 547 0
-647 548 0
-648 549 0
-649 550 0
-650 551 0
-651 552 0
-652 554 0
-653 555 0
-654 556 0
-655 557 0
-656 558 0
-657 559 0
-658 560 0
-610 561 0
-611 562 0
-612 563 0
-613 564 0
-614 565 0
-615 566 0
-616 567 0
-617 568 0
-618 569 0
-619 570 0
-620 571 0
-621 572 0
-622 573 0
-623 574 0
-624 575 0
-625 576 0
-626 577 0
-627 578 0
-628 579 0
-629 580 0
-630 581 0
-631 582 0
-632 583 0
-633 584 0
-634 585 0
-635 586 0
-636 587 0
-637 588 0
-638 589 0
-639 590 0
-640 591 0
-641 592 0
-642 593 0
-643 594 0
-644 595 0
-645 596 0
-646 597 0
-647 598 0
-648 599 0
-649 600 0
-650 601 0
-651 602 0
-652 603 0
-653 604 0
-654 605 0
-655 606 0
-656 607 0
-657 608 0
-658 609 0
610 0
611 0
612 0
613 0
614 0
615 0
616 0
617 0
618 0
619 0
620 0
621 0
622 0
623 0
624 0
625 0
626 0
627 0
628 0
629 0
630 0
631 0
632 0
633 0
634 0
635 0
636 0
637 0
638 0
639 0
640 0
641 0
642 0
643 0
644 0
645 0
646 0
647 0
648 0
649 0
650 0
651 0
652 0
653 0
654 0
655 0
656 0
657 0
658 0
-505 0
-529 0
14 0
-537 0
-499 0
8 0
17 0
-503 0
-509 0
-521 0
20 0
-545 0
-511 0
501 0
-553 0
5 0
498 0
-513 0
11 0
2 0
-507 0
1 0
22 4 0
-22 -4 0
-22 -38 36 0
-22 -52 50 0
-22 -66 64 0
-22 -80 78 0
-22 -94 92 0
36 7 0
-36 -7 0
-36 -26 22 0
-36 -54 50 0
-36 -68 64 0
-36 -82 78 0
-36 -96 92 0
50 10 0
-50 -10 0
-50 -28 22 0
-50 -42 36 0
-50 -70 64 0
-50 -84 78 0
-50 -98 92 0
64 13 0
-64 -13 0
-64 -30 22 0
-64 -44 36 0
-64 -58 50 0
-64 -86 78 0
-64 -100 92 0
78 16 0
-78 -16 0
-78 -32 22 0
-78 -46 36 0
-78 -60 50 0
-78 -74 64 0
-78 -102 92 0
92 19 0
-92 -19 0
-92 -34 22 0
-92 -48 36 0
-92 -62 50 0
-92 -76 64 0
-92 -90 78 0
24 0
4 22 0
-4 -22 0
-4 -36 38 0
-4 -50 52 0
-4 -64 66 0
-4 -78 80 0
-4 -92 94 0
38 26 0
-38 -26 0
-38 -7 4 0
-38 -54 52 0
-38 -68 66 0
-38 -82 80 0
-38 -96 94 0
52 28 0
-52 -28 0
-52 -10 4 0
-52 -42 38 0
-52 -70 66 0
-52 -84 80 0
-52 -98 94 0
66 30 0
-66 -30 0
-66 -13 4 0
-66 -44 38 0
-66 -58 52 0
-66 -86 80 0
-66 -100 94 0
80 32 0
-80 -32 0
-80 -16 4 0
-80 -46 38 0
-80 -60 52 0
-80 -74 66 0
-80 -102 94 0
94 34 0
-94 -34 0
-94 -19 4 0
-94 -48 38 0
-94 -62 52 0
-94 -76 66 0
-94 -90 80 0
40 0
7 36 0
-7 -36 0
-7 -22 26 0
-7 -50 54 0
-7 -64 68 0
-7 -78 82 0
-7 -92 96 0
26 38 0
-26 -38 0
-26 -4 7 0
-26 -52 54 0
-26 -66 68 0
-26 -80 82 0
-26 -94 96 0
54 42 0
-54 -42 0
-54 -10 7 0
-54 -28 26 0
-54 -70 68 0
-54 -84 82 0
-54 -98 96 0
68 44 0
-68 -44 0
-68 -13 7 0
-68 -30 26 0
-68 -58 54 0
-68 -86 82 0
-68 -100 96 0
82 46 0
-82 -46 0
-82 -16 7 0
-82 -32 26 0
-82 -60 54 0
-82 -74 68 0
-82 -102 96 0
96 48 0
-96 -48 0
-96 -19 7 0
-96 -34 26 0
-96 -62 54 0
-96 -76 68 0
-96 -90 82 0
56 0
10 50 0
-10 -50 0
-10 -22 28 0
-10 -36 42 0
-10 -64 70 0
-10 -78 84 0
-10 -92 98 0
28 52 0
-28 -52 0
-28 -4 10 0
-28 -38 42 0
-28 -66 70 0
-28 -80 84 0
-28 -94 98 0
42 54 0
-42 -54 0
-42 -7 10 0
-42 -26 28 0
-42 -68 70 0
-42 -82 84 0
-42 -96 98 0
70 58 0
-70 -58 0
-70 -13 10 0
-70 -30 28 0
-70 -44 42 0
-70 -86 84 0
-70 -100 98 0
84 60 0
-84 -60 0
-84 -16 10 0
-84 -32 28 0
-84 -46 42 0
-84 -74 70 0
-84 -102 98 0
98 62 0
-98 -62 0
-98 -19 10 0
-98 -34 28 0
-98 -48 42 0
-98 -76 70 0
-98 -90 84 0
72 0
13 64 0
-13 -64 0
-13 -22 30 0
-13 -36 44 0
-13 -50 58 0
-13 -78 86 0
-13 -92 100 0
30 66 0
-30 -66 0
-30 -4 13 0
-30 -38 44 0
-30 -52 58 0
-30 -80 86 0
-30 -94 100 0
44 68 0
-44 -68 0
-44 -7 13 0
-44 -26 30 0
-44 -54 58 0
-44 -82 86 0
-44 -96 100 0
58 70 0
-58 -70 0
-58 -10 13 0
-58 -28 30 0
-58 -42 44 0
-58 -84 86 0
-58 -98 100 0
86 74 0
-86 -74 0
-86 -16 13 0
-86 -32 30 0
-86 -46 44 0
-86 -60 58 0
-86 -102 100 0
100 76 0
-100 -76 0
-100 -19 13 0
-100 -34 30 0
-100 -48 44 0
-100 -62 58 0
-100 -90 86 0
88 0
16 78 0
-16 -78 0
-16 -22 32 0
-16 -36 46 0
-16 -50 60 0
-16 -64 74 0
-16 -92 102 0
32 80 0
-32 -80 0
-32 -4 16 0
-32 -38 46 0
-32 -52 60 0
-32 -66 74 0
-32 -94 102 0
46 82 0
-46 -82 0
-46 -7 16 0
-46 -26 32 0
-46 -54 60 0
-46 -68 74 0
-46 -96 102 0
60 84 0
-60 -84 0
-60 -10 16 0
-60 -28 32 0
-60 -42 46 0
-60 -70 74 0
-60 -98 102 0
74 86 0
-74 -86 0
-74 -13 16 0
-74 -30 32 0
-74 -44 46 0
-74 -58 60 0
-74 -100 102 0
102 90 0
-102 -90 0
-102 -19 16 0
-102 -34 32 0
-102 -48 46 0
-102 -62 60 0
-102 -76 74 0
104 0
19 92 0
-19 -92 0
-19 -22 34 0
-19 -36 48 0
-19 -50 62 0
-19 -64 76 0
-19 -78 90 0
34 94 0
-34 -94 0
-34 -4 19 0
-34 -38 48 0
-34 -52 62 0
-34 -66 76 0
-34 -80 90 0
48 96 0
-48 -96 0
-48 -7 19 0
-48 -26 34 0
-48 -54 62 0
-48 -68 76 0
-48 -82 90 0
62 98 0
-62 -98 0
-62 -10 19 0
-62 -28 34 0
-62 -42 48 0
-62 -70 76 0
-62 -84 90 0
76 100 0
-76 -100 0
-76 -13 19 0
-76 -30 34 0
-76 -44 48 0
-76 -58 62 0
-76 -86 90 0
90 102 0
-90 -102 0
-90 -16 19 0
-90 -32 34 0
-90 -46 48 0
-90 -60 62 0
-90 -74 76 0
-351 0
-365 22 0
-659 36 0
-659 26 0
-36 -26 659 0
-660 50 0
-660 28 0
-50 -28 660 0
-661 64 0
-661 30 0
-64 -30 661 0
-662 78 0
-662 32 0
-78 -32 662 0
-663 92 0
-663 34 0
-92 -34 663 0
-365 -659 0
-365 -660 0
-365 -661 0
-365 -662 0
-365 -663 0
-22 365 659 660 661 662 663 0
-379 36 0
-664 22 0
-664 38 0
-22 -38 664 0
-665 50 0
-665 42 0
-50 -42 665 0
-666 64 0
-666 44 0
-64 -44 666 0
-667 78 0
-667 46 0
-78 -46 667 0
-668 92 0
-668 48 0
-92 -48 668 0
-379 -664 0
-379 -665 0
-379 -666 0
-379 -667 0
-379 -668 0
-36 379 664 665 666 667 668 0
-393 50 0
-669 22 0
-669 52 0
-22 -52 669 0
-670 36 0
-670 54 0
-36 -54 670 0
-671 64 0
-671 58 0
-64 -58 671 0
-672 78 0
-672 60 0
-78 -60 672 0
-673 92 0
-673 62 0
-92 -62 673 0
-393 -669 0
-393 -670 0
-393 -671 0
-393 -672 0
-393 -673 0
-50 393 669 670 671 672 673 0
-407 64 0
-674 22 0
-674 66 0
-22 -66 674 0
-675 36 0
-675 68 0
-36 -68 675 0
-676 50 0
-676 70 0
-50 -70 676 0
-677 78 0
-677 74 0
-78 -74 677 0
-678 92 0
-678 76 0
-92 -76 678 0
-407 -674 0
-407 -675 0
-407 -676 0
-407 -677 0
-407 -678 0
-64 407 674 675 676 677 678 0
-421 78 0
-679 22 0
-679 80 0
-22 -80 679 0
-680 36 0
-680 82 0
-36 -82 680 0
-681 50 0
-681 84 0
-50 -84 681 0
-682 64 0
-682 86 0
-64 -86 682 0
-683 92 0
-683 90 0
-92 -90 683 0
-421 -679 0
-421 -680 0
-421 -681 0
-421 -682 0
-421 -683 0
-78 421 679 680 681 682 683 0
-435 92 0
-684 22 0
-684 94 0
-22 -94 684 0
-685 36 0
-685 96 0
-36 -96 685 0
-686 50 0
-686 98 0
-50 -98 686 0
-687 64 0
-687 100 0
-64 -100 687 0
-688 78 0
-688 102 0
-78 -102 688 0
-435 -684 0
-435 -685 0
-435 -686 0
-435 -687 0
-435 -688 0
-92 435 684 685 686 687 688 0
-353 4 0
-689 38 0
-689 7 0
-38 -7 689 0
-690 52 0
-690 10 0
-52 -10 690 0
-691 66 0
-691 13 0
-66 -13 691 0
-692 80 0
-692 16 0
-80 -16 692 0
-693 94 0
-693 19 0
-94 -19 693 0
-353 -689 0
-353 -690 0
-353 -691 0
-353 -692 0
-353 -693 0
-4 353 689 690 691 692 693 0
-367 0
-381 38 0
-694 4 0
-694 36 0
-4 -36 694 0
-695 52 0
-695 42 0
-52 -42 695 0
-696 66 0
-696 44 0
-66 -44 696 0
-697 80 0
-697 46 0
-80 -46 697 0
-698 94 0
-698 48 0
-94 -48 698 0
-381 -694 0
-381 -695 0
-381 -696 0
-381 -697 0
-381 -698 0
-38 381 694 695 696 697 698 0
-395 52 0
-699 4 0
-699 50 0
-4 -50 699 0
-700 38 0
-700 54 0
-38 -54 700 0
-701 66 0
-701 58 0
-66 -58 701 0
-702 80 0
-702 60 0
-80 -60 702 0
-703 94 0
-703 62 0
-94 -62 703 0
-395 -699 0
-395 -700 0
-395 -701 0
-395 -702 0
-395 -703 0
-52 395 699 700 701 702 703 0
-409 66 0
-704 4 0
-704 64 0
-4 -64 704 0
-705 38 0
-705 68 0
-38 -68 705 0
-706 52 0
-706 70 0
-52 -70 706 0
-707 80 0
-707 74 0
-80 -74 707 0
-708 94 0
-708 76 0
-94 -76 708 0
-409 -704 0
-409 -705 0
-409 -706 0
-409 -707 0
-409 -708 0
-66 409 704 705 706 707 708 0
-423 80 0
-709 4 0
-709 78 0
-4 -78 709 0
-710 38 0
-710 82 0
-38 -82 710 0
-711 52 0
-711 84 0
-52 -84 711 0
-712 66 0
-712 86 0
-66 -86 712 0
-713 94 0
-713 90 0
-94 -90 713 0
-423 -709 0
-423 -710 0
-423 -711 0
-423 -712 0
-423 -713 0
-80 423 709 710 711 712 713 0
-437 94 0
-714 4 0
-714 92 0
-4 -92 714 0
-715 38 0
-715 96 0
-38 -96 715 0
-716 52 0
-716 98 0
-52 -98 716 0
-717 66 0
-717 100 0
-66 -100 717 0
-718 80 0
-718 102 0
-80 -102 718 0
-437 -714 0
-437 -715 0
-437 -716 0
-437 -717 0
-437 -718 0
-94 437 714 715 716 717 718 0
-355 7 0
-719 26 0
-719 4 0
-26 -4 719 0
-720 54 0
-720 10 0
-54 -10 720 0
-721 68 0
-721 13 0
-68 -13 721 0
-722 82 0
-722 16 0
-82 -16 722 0
-723 96 0
-723 19 0
-96 -19 723 0
-355 -719 0
-355 -720 0
-355 -721 0
-355 -722 0
-355 -723 0
-7 355 719 720 721 722 723 0
-369 26 0
-724 7 0
-724 22 0
-7 -22 724 0
-725 54 0
-725 28 0
-54 -28 725 0
-726 68 0
-726 30 0
-68 -30 726 0
-727 82 0
-727 32 0
-82 -32 727 0
-728 96 0
-728 34 0
-96 -34 728 0
-369 -724 0
-369 -725 0
-369 -726 0
-369 -727 0
-369 -728 0
-26 369 724 725 726 727 728 0
-383 0
-397 54 0
-729 7 0
-729 50 0
-7 -50 729 0
-730 26 0
-730 52 0
-26 -52 730 0
-731 68 0
-731 58 0
-68 -58 731 0
-732 82 0
-732 60 0
-82 -60 732 0
-733 96 0
-733 62 0
-96 -62 733 0
-397 -729 0
-397 -730 0
-397 -731 0
-397 -732 0
-397 -733 0
-54 397 729 730 731 732 733 0
-411 68 0
-734 7 0
-734 64 0
-7 -64 734 0
-735 26 0
-735 66 0
-26 -66 735 0
-736 54 0
-736 70 0
-54 -70 736 0
-737 82 0
-737 74 0
-82 -74 737 0
-738 96 0
-738 76 0
-96 -76 738 0
-411 -734 0
-411 -735 0
-411 -736 0
-411 -737 0
-411 -738 0
-68 411 734 735 736 737 738 0
-425 82 0
-739 7 0
-739 78 0
-7 -78 739 0
-740 26 0
-740 80 0
-26 -80 740 0
-741 54 0
-741 84 0
-54 -84 741 0
-742 68 0
-742 86 0
-68 -86 742 0
-743 96 0
-743 90 0
-96 -90 743 0
-425 -739 0
-425 -740 0
-425 -741 0
-425 -742 0
-425 -743 0
-82 425 739 740 741 742 743 0
-439 96 0
-744 7 0
-744 92 0
-7 -92 744 0
-745 26 0
-745 94 0
-26 -94 745 0
-746 54 0
-746 98 0
-54 -98 746 0
-747 68 0
-747 100 0
-68 -100 747 0
-748 82 0
-748 102 0
-82 -102 748 0
-439 -744 0
-439 -745 0
-439 -746 0
-439 -747 0
-439 -748 0
-96 439 744 745 746 747 748 0
-357 10 0
-749 28 0
-749 4 0
-28 -4 749 0
-750 42 0
-750 7 0
-42 -7 750 0
-751 70 0
-751 13 0
-70 -13 751 0
-752 84 0
-752 16 0
-84 -16 752 0
-753 98 0
-753 19 0
-98 -19 753 0
-357 -749 0
-357 -750 0
-357 -751 0
-357 -752 0
-357 -753 0
-10 357 749 750 751 752 753 0
-371 28 0
-754 10 0
-754 22 0
-10 -22 754 0
-755 42 0
-755 26 0
-42 -26 755 0
-756 70 0
-756 30 0
-70 -30 756 0
-757 84 0
-757 32 0
-84 -32 757 0
-758 98 0
-758 34 0
-98 -34 758 0
-371 -754 0
-371 -755 0
-371 -756 0
-371 -757 0
-371 -758 0
-28 371 754 755 756 757 758 0
-385 42 0
-759 10 0
-759 36 0
-10 -36 759 0
-760 28 0
-760 38 0
-28 -38 760 0
-761 70 0
-761 44 0
-70 -44 761 0
-762 84 0
-762 46 0
-84 -46 762 0
-763 98 0
-763 48 0
-98 -48 763 0
-385 -759 0
-385 -760 0
-385 -761 0
-385 -762 0
-385 -763 0
-42 385 759 760 761 762 763 0
-399 0
-413 70 0
-764 10 0
-764 64 0
-10 -64 764 0
-765 28 0
-765 66 0
-28 -66 765 0
-766 42 0
-766 68 0
-42 -68 766 0
-767 84 0
-767 74 0
-84 -74 767 0
-768 98 0
-768 76 0
-98 -76 768 0
-413 -764 0
-413 -765 0
-413 -766 0
-413 -767 0
-413 -768 0
-70 413 764 765 766 767 768 0
-427 84 0
-769 10 0
-769 78 0
-10 -78 769 0
-770 28 0
-770 80 0
-28 -80 770 0
-771 42 0
-771 82 0
-42 -82 771 0
-772 70 0
-772 86 0
-70 -86 772 0
-773 98 0
-773 90 0
-98 -90 773 0
-427 -769 0
-427 -770 0
-427 -771 0
-427 -772 0
-427 -773 0
-84 427 769 770 771 772 773 0
-441 98 0
-774 10 0
-774 92 0
-10 -92 774 0
-775 28 0
-775 94 0
-28 -94 775 0
-776 42 0
-776 96 0
-42 -96 776 0
-777 70 0
-777 100 0
-70 -100 777 0
-778 84 0
-778 102 0
-84 -102 778 0
-441 -774 0
-441 -775 0
-441 -776 0
-441 -777 0
-441 -778 0
-98 441 774 775 776 777 778 0
-359 13 0
-779 30 0
-779 4 0
-30 -4 779 0
-780 44 0
-780 7 0
-44 -7 780 0
-781 58 0
-781 10 0
-58 -10 781 0
-782 86 0
-782 16 0
-86 -16 782 0
-783 100 0
-783 19 0
-100 -19 783 0
-359 -779 0
-359 -780 0
-359 -781 0
-359 -782 0
-359 -783 0
-13 359 779 780 781 782 783 0
-373 30 0
-784 13 0
-784 22 0
-13 -22 784 0
-785 44 0
-785 26 0
-44 -26 785 0
-786 58 0
-786 28 0
-58 -28 786 0
-787 86 0
-787 32 0
-86 -32 787 0
-788 100 0
-788 34 0
-100 -34 788 0
-373 -784 0
-373 -785 0
-373 -786 0
-373 -787 0
-373 -788 0
-30 373 784 785 786 787 788 0
-387 44 0
-789 13 0
-789 36 0
-13 -36 789 0
-790 30 0
-790 38 0
-30 -38 790 0
-791 58 0
-791 42 0
-58 -42 791 0
-792 86 0
-792 46 0
-86 -46 792 0
-793 100 0
-793 48 0
-100 -48 793 0
-387 -789 0
-387 -790 0
-387 -791 0
-387 -792 0
-387 -793 0
-44 387 789 790 791 792 793 0
-401 58 0
-794 13 0
-794 50 0
-13 -50 794 0
-795 30 0
-795 52 0
-30 -52 795 0
-796 44 0
-796 54 0
-44 -54 796 0
-797 86 0
-797 60 0
-86 -60 797 0
-798 100 0
-798 62 0
-100 -62 798 0
-401 -794 0
-401 -795 0
-401 -796 0
-401 -797 0
-401 -798 0
-58 401 794 795 796 797 798 0
-415 0
-429 86 0
-799 13 0
-799 78 0
-13 -78 799 0
-800 30 0
-800 80 0
-30 -80 800 0
-801 44 0
-801 82 0
-44 -82 801 0
-802 58 0
-802 84 0
-58 -84 802 0
-803 100 0
-803 90 0
-100 -90 803 0
-429 -799 0
-429 -800 0
-429 -801 0
-429 -802 0
-429 -803 0
-86 429 799 800 801 802 803 0
-443 100 0
-804 13 0
-804 92 0
-13 -92 804 0
-805 30 0
-805 94 0
-30 -94 805 0
-806 44 0
-806 96 0
-44 -96 806 0
-807 58 0
-807 98 0
-58 -98 807 0
-808 86 0
-808 102 0
-86 -102 808 0
-443 -804 0
-443 -805 0
-443 -806 0
-443 -807 0
-443 -808 0
-100 443 804 805 806 807 808 0
-361 16 0
-809 32 0
-809 4 0
-32 -4 809 0
-810 46 0
-810 7 0
-46 -7 810 0
-811 60 0
-811 10 0
-60 -10 811 0
-812 74 0
-812 13 0
-74 -13 812 0
-813 102 0
-813 19 0
-102 -19 813 0
-361 -809 0
-361 -810 0
-361 -811 0
-361 -812 0
-361 -813 0
-16 361 809 810 811 812 813 0
-375 32 0
-814 16 0
-814 22 0
-16 -22 814 0
-815 46 0
-815 26 0
-46 -26 815 0
-816 60 0
-816 28 0
-60 -28 816 0
-817 74 0
-817 30 0
-74 -30 817 0
-818 102 0
-818 34 0
-102 -34 818 0
-375 -814 0
-375 -815 0
-375 -816 0
-375 -817 0
-375 -818 0
-32 375 814 815 816 817 818 0
-389 46 0
-819 16 0
-819 36 0
-16 -36 819 0
-820 32 0
-820 38 0
-32 -38 820 0
-821 60 0
-821 42 0
-60 -42 821 0
-822 74 0
-822 44 0
-74 -44 822 0
-823 102 0
-823 48 0
-102 -48 823 0
-389 -819 0
-389 -820 0
-389 -821 0
-389 -822 0
-389 -823 0
-46 389 819 820 821 822 823 0
-403 60 0
-824 16 0
-824 50 0
-16 -50 824 0
-825 32 0
-825 52 0
-32 -52 825 0
-826 46 0
-826 54 0
-46 -54 826 0
-827 74 0
-827 58 0
-74 -58 827 0
-828 102 0
-828 62 0
-102 -62 828 0
-403 -824 0
-403 -825 0
-403 -826 0
-403 -827 0
-403 -828 0
-60 403 824 825 826 827 828 0
-417 74 0
-829 16 0
-829 64 0
-16 -64 829 0
-830 32 0
-830 66 0
-32 -66 830 0
-831 46 0
-831 68 0
-46 -68 831 0
-832 60 0
-832 70 0
-60 -70 832 0
-833 102 0
-833 76 0
-102 -76 833 0
-417 -829 0
-417 -830 0
-417 -831 0
-417 -832 0
-417 -833 0
-74 417 829 830 831 832 833 0
-431 0
-445 102 0
-834 16 0
-834 92 0
-16 -92 834 0
-835 32 0
-835 94 0
-32 -94 835 0
-836 46 0
-836 96 0
-46 -96 836 0
-837 60 0
-837 98 0
-60 -98 837 0
-838 74 0
-838 100 0
-74 -100 838 0
-445 -834 0
-445 -835 0
-445 -836 0
-445 -837 0
-445 -838 0
-102 445 834 835 836 837 838 0
-363 19 0
-839 34 0
-839 4 0
-34 -4 839 0
-840 48 0
-840 7 0
-48 -7 840 0
-841 62 0
-841 10 0
-62 -10 841 0
-842 76 0
-842 13 0
-76 -13 842 0
-843 90 0
-843 16 0
-90 -16 843 0
-363 -839 0
-363 -840 0
-363 -841 0
-363 -842 0
-363 -843 0
-19 363 839 840 841 842 843 0
-377 34 0
-844 19 0
-844 22 0
-19 -22 844 0
-845 48 0
-845 26 0
-48 -26 845 0
-846 62 0
-846 28 0
-62 -28 846 0
-847 76 0
-847 30 0
-76 -30 847 0
-848 90 0
-848 32 0
-90 -32 848 0
-377 -844 0
-377 -845 0
-377 -846 0
-377 -847 0
-377 -848 0
-34 377 844 845 846 847 848 0
-391 48 0
-849 19 0
-849 36 0
-19 -36 849 0
-850 34 0
-850 38 0
-34 -38 850 0
-851 62 0
-851 42 0
-62 -42 851 0
-852 76 0
-852 44 0
-76 -44 852 0
-853 90 0
-853 46 0
-90 -46 853 0
-391 -849 0
-391 -850 0
-391 -851 0
-391 -852 0
-391 -853 0
-48 391 849 850 851 852 853 0
-405 62 0
-854 19 0
-854 50 0
-19 -50 854 0
-855 34 0
-855 52 0
-34 -52 855 0
-856 48 0
-856 54 0
-48 -54 856 0
-857 76 0
-857 58 0
-76 -58 857 0
-858 90 0
-858 60 0
-90 -60 858 0
-405 -854 0
-405 -855 0
-405 -856 0
-405 -857 0
-405 -858 0
-62 405 854 855 856 857 858 0
-419 76 0
-859 19 0
-859 64 0
-19 -64 859 0
-860 34 0
-860 66 0
-34 -66 860 0
-861 48 0
-861 68 0
-48 -68 861 0
-862 62 0
-862 70 0
-62 -70 862 0
-863 90 0
-863 74 0
-90 -74 863 0
-419 -859 0
-419 -860 0
-419 -861 0
-419 -862 0
-419 -863 0
-76 419 859 860 861 862 863 0
-433 90 0
-864 19 0
-864 78 0
-19 -78 864 0
-865 34 0
-865 80 0
-34 -80 865 0
-866 48 0
-866 82 0
-48 -82 866 0
-867 62 0
-867 84 0
-62 -84 867 0
-868 76 0
-868 86 0
-76 -86 868 0
-433 -864 0
-433 -865 0
-433 -866 0
-433 -867 0
-433 -868 0
-90 433 864 865 866 867 868 0
-447 0
