p cnf 1341 5364
1 2 -2 -3 0
4 2 -5 -6 0
7 2 -8 -9 0
10 2 -11 -12 0
13 2 -14 -15 0
16 2 -17 -18 0
19 2 -20 -21 0
22 2 -23 -24 0
25 2 -26 -27 0
28 5 -2 -29 0
30 5 -5 -31 0
32 5 -8 -33 0
34 5 -11 -35 0
36 5 -14 -37 0
38 5 -17 -39 0
40 5 -20 -41 0
42 5 -23 -43 0
44 5 -26 -45 0
46 8 -2 -47 0
48 8 -5 -49 0
50 8 -8 -51 0
52 8 -11 -53 0
54 8 -14 -55 0
56 8 -17 -57 0
58 8 -20 -59 0
60 8 -23 -61 0
62 8 -26 -63 0
64 11 -2 -65 0
66 11 -5 -67 0
68 11 -8 -69 0
70 11 -11 -71 0
72 11 -14 -73 0
74 11 -17 -75 0
76 11 -20 -77 0
78 11 -23 -79 0
80 11 -26 -81 0
82 14 -2 -83 0
84 14 -5 -85 0
86 14 -8 -87 0
88 14 -11 -89 0
90 14 -14 -91 0
92 14 -17 -93 0
94 14 -20 -95 0
96 14 -23 -97 0
98 14 -26 -99 0
100 17 -2 -101 0
102 17 -5 -103 0
104 17 -8 -105 0
106 17 -11 -107 0
108 17 -14 -109 0
110 17 -17 -111 0
112 17 -20 -113 0
114 17 -23 -115 0
116 17 -26 -117 0
118 20 -2 -119 0
120 20 -5 -121 0
122 20 -8 -123 0
124 20 -11 -125 0
126 20 -14 -127 0
128 20 -17 -129 0
130 20 -20 -131 0
132 20 -23 -133 0
134 20 -26 -135 0
136 23 -2 -137 0
138 23 -5 -139 0
140 23 -8 -141 0
142 23 -11 -143 0
144 23 -14 -145 0
146 23 -17 -147 0
148 23 -20 -149 0
150 23 -23 -151 0
152 23 -26 -153 0
154 26 -2 -155 0
156 26 -5 -157 0
158 26 -8 -159 0
160 26 -11 -161 0
162 26 -14 -163 0
164 26 -17 -165 0
166 26 -20 -167 0
168 26 -23 -169 0
170 26 -26 -171 0
3 -1 0
6 -4 0
9 -7 0
12 -10 0
15 -13 0
18 -16 0
21 -19 0
24 -22 0
27 -25 0
29 -28 0
31 -30 0
33 -32 0
35 -34 0
37 -36 0
39 -38 0
41 -40 0
43 -42 0
45 -44 0
47 -46 0
49 -48 0
51 -50 0
53 -52 0
55 -54 0
57 -56 0
59 -58 0
61 -60 0
63 -62 0
65 -64 0
67 -66 0
69 -68 0
71 -70 0
73 -72 0
75 -74 0
77 -76 0
79 -78 0
81 -80 0
83 -82 0
85 -84 0
87 -86 0
89 -88 0
91 -90 0
93 -92 0
95 -94 0
97 -96 0
99 -98 0
101 -100 0
103 -102 0
105 -104 0
107 -106 0
109 -108 0
111 -110 0
113 -112 0
115 -114 0
117 -116 0
119 -118 0
121 -120 0
123 -122 0
125 -124 0
127 -126 0
129 -128 0
131 -130 0
133 -132 0
135 -134 0
137 -136 0
139 -138 0
141 -140 0
143 -142 0
145 -144 0
147 -146 0
149 -148 0
151 -150 0
153 -152 0
155 -154 0
157 -156 0
159 -158 0
161 -160 0
163 -162 0
165 -164 0
167 -166 0
169 -168 0
171 -170 0
3 -2 0
6 -2 0
9 -2 0
12 -2 0
15 -2 0
18 -2 0
21 -2 0
24 -2 0
27 -2 0
29 -5 0
31 -5 0
33 -5 0
35 -5 0
37 -5 0
39 -5 0
41 -5 0
43 -5 0
45 -5 0
47 -8 0
49 -8 0
51 -8 0
53 -8 0
55 -8 0
57 -8 0
59 -8 0
61 -8 0
63 -8 0
65 -11 0
67 -11 0
69 -11 0
71 -11 0
73 -11 0
75 -11 0
77 -11 0
79 -11 0
81 -11 0
83 -14 0
85 -14 0
87 -14 0
89 -14 0
91 -14 0
93 -14 0
95 -14 0
97 -14 0
99 -14 0
101 -17 0
103 -17 0
105 -17 0
107 -17 0
109 -17 0
111 -17 0
113 -17 0
115 -17 0
117 -17 0
119 -20 0
121 -20 0
123 -20 0
125 -20 0
127 -20 0
129 -20 0
131 -20 0
133 -20 0
135 -20 0
137 -23 0
139 -23 0
141 -23 0
143 -23 0
145 -23 0
147 -23 0
149 -23 0
151 -23 0
153 -23 0
155 -26 0
157 -26 0
159 -26 0
161 -26 0
163 -26 0
165 -26 0
167 -26 0
169 -26 0
171 -26 0
3 2 0
6 5 0
9 8 0
12 11 0
15 14 0
18 17 0
21 20 0
24 23 0
27 26 0
29 2 0
31 5 0
33 8 0
35 11 0
37 14 0
39 17 0
41 20 0
43 23 0
45 26 0
47 2 0
49 5 0
51 8 0
53 11 0
55 14 0
57 17 0
59 20 0
61 23 0
63 26 0
65 2 0
67 5 0
69 8 0
71 11 0
73 14 0
75 17 0
77 20 0
79 23 0
81 26 0
83 2 0
85 5 0
87 8 0
89 11 0
91 14 0
93 17 0
95 20 0
97 23 0
99 26 0
101 2 0
103 5 0
105 8 0
107 11 0
109 14 0
111 17 0
113 20 0
115 23 0
117 26 0
119 2 0
121 5 0
123 8 0
125 11 0
127 14 0
129 17 0
131 20 0
133 23 0
135 26 0
137 2 0
139 5 0
141 8 0
143 11 0
145 14 0
147 17 0
149 20 0
151 23 0
153 26 0
155 2 0
157 5 0
159 8 0
161 11 0
163 14 0
165 17 0
167 20 0
169 23 0
171 26 0
-172 -2 -2 173 0
-174 -5 -2 175 0
-176 -8 -2 177 0
-178 -11 -2 179 0
-180 -14 -2 181 0
-182 -17 -2 183 0
-184 -20 -2 185 0
-186 -23 -2 187 0
-188 -26 -2 189 0
-190 -2 -5 191 0
-192 -5 -5 193 0
-194 -8 -5 195 0
-196 -11 -5 197 0
-198 -14 -5 199 0
-200 -17 -5 201 0
-202 -20 -5 203 0
-204 -23 -5 205 0
-206 -26 -5 207 0
-208 -2 -8 209 0
-210 -5 -8 211 0
-212 -8 -8 213 0
-214 -11 -8 215 0
-216 -14 -8 217 0
-218 -17 -8 219 0
-220 -20 -8 221 0
-222 -23 -8 223 0
-224 -26 -8 225 0
-226 -2 -11 227 0
-228 -5 -11 229 0
-230 -8 -11 231 0
-232 -11 -11 233 0
-234 -14 -11 235 0
-236 -17 -11 237 0
-238 -20 -11 239 0
-240 -23 -11 241 0
-242 -26 -11 243 0
-244 -2 -14 245 0
-246 -5 -14 247 0
-248 -8 -14 249 0
-250 -11 -14 251 0
-252 -14 -14 253 0
-254 -17 -14 255 0
-256 -20 -14 257 0
-258 -23 -14 259 0
-260 -26 -14 261 0
-262 -2 -17 263 0
-264 -5 -17 265 0
-266 -8 -17 267 0
-268 -11 -17 269 0
-270 -14 -17 271 0
-272 -17 -17 273 0
-274 -20 -17 275 0
-276 -23 -17 277 0
-278 -26 -17 279 0
-280 -2 -20 281 0
-282 -5 -20 283 0
-284 -8 -20 285 0
-286 -11 -20 287 0
-288 -14 -20 289 0
-290 -17 -20 291 0
-292 -20 -20 293 0
-294 -23 -20 295 0
-296 -26 -20 297 0
-298 -2 -23 299 0
-300 -5 -23 301 0
-302 -8 -23 303 0
-304 -11 -23 305 0
-306 -14 -23 307 0
-308 -17 -23 309 0
-310 -20 -23 311 0
-312 -23 -23 313 0
-314 -26 -23 315 0
-316 -2 -26 317 0
-318 -5 -26 319 0
-320 -8 -26 321 0
-322 -11 -26 323 0
-324 -14 -26 325 0
-326 -17 -26 327 0
-328 -20 -26 329 0
-330 -23 -26 331 0
-332 -26 -26 333 0
-173 172 0
-175 174 0
-177 176 0
-179 178 0
-181 180 0
-183 182 0
-185 184 0
-187 186 0
-189 188 0
-191 190 0
-193 192 0
-195 194 0
-197 196 0
-199 198 0
-201 200 0
-203 202 0
-205 204 0
-207 206 0
-209 208 0
-211 210 0
-213 212 0
-215 214 0
-217 216 0
-219 218 0
-221 220 0
-223 222 0
-225 224 0
-227 226 0
-229 228 0
-231 230 0
-233 232 0
-235 234 0
-237 236 0
-239 238 0
-241 240 0
-243 242 0
-245 244 0
-247 246 0
-249 248 0
-251 250 0
-253 252 0
-255 254 0
-257 256 0
-259 258 0
-261 260 0
-263 262 0
-265 264 0
-267 266 0
-269 268 0
-271 270 0
-273 272 0
-275 274 0
-277 276 0
-279 278 0
-281 280 0
-283 282 0
-285 284 0
-287 286 0
-289 288 0
-291 290 0
-293 292 0
-295 294 0
-297 296 0
-299 298 0
-301 300 0
-303 302 0
-305 304 0
-307 306 0
-309 308 0
-311 310 0
-313 312 0
-315 314 0
-317 316 0
-319 318 0
-321 320 0
-323 322 0
-325 324 0
-327 326 0
-329 328 0
-331 330 0
-333 332 0
-173 2 0
-175 5 0
-177 8 0
-179 11 0
-181 14 0
-183 17 0
-185 20 0
-187 23 0
-189 26 0
-191 2 0
-193 5 0
-195 8 0
-197 11 0
-199 14 0
-201 17 0
-203 20 0
-205 23 0
-207 26 0
-209 2 0
-211 5 0
-213 8 0
-215 11 0
-217 14 0
-219 17 0
-221 20 0
-223 23 0
-225 26 0
-227 2 0
-229 5 0
-231 8 0
-233 11 0
-235 14 0
-237 17 0
-239 20 0
-241 23 0
-243 26 0
-245 2 0
-247 5 0
-249 8 0
-251 11 0
-253 14 0
-255 17 0
-257 20 0
-259 23 0
-261 26 0
-263 2 0
-265 5 0
-267 8 0
-269 11 0
-271 14 0
-273 17 0
-275 20 0
-277 23 0
-279 26 0
-281 2 0
-283 5 0
-285 8 0
-287 11 0
-289 14 0
-291 17 0
-293 20 0
-295 23 0
-297 26 0
-299 2 0
-301 5 0
-303 8 0
-305 11 0
-307 14 0
-309 17 0
-311 20 0
-313 23 0
-315 26 0
-317 2 0
-319 5 0
-321 8 0
-323 11 0
-325 14 0
-327 17 0
-329 20 0
-331 23 0
-333 26 0
-173 2 0
-175 2 0
-177 2 0
-179 2 0
-181 2 0
-183 2 0
-185 2 0
-187 2 0
-189 2 0
-191 5 0
-193 5 0
-195 5 0
-197 5 0
-199 5 0
-201 5 0
-203 5 0
-205 5 0
-207 5 0
-209 8 0
-211 8 0
-213 8 0
-215 8 0
-217 8 0
-219 8 0
-221 8 0
-223 8 0
-225 8 0
-227 11 0
-229 11 0
-231 11 0
-233 11 0
-235 11 0
-237 11 0
-239 11 0
-241 11 0
-243 11 0
-245 14 0
-247 14 0
-249 14 0
-251 14 0
-253 14 0
-255 14 0
-257 14 0
-259 14 0
-261 14 0
-263 17 0
-265 17 0
-267 17 0
-269 17 0
-271 17 0
-273 17 0
-275 17 0
-277 17 0
-279 17 0
-281 20 0
-283 20 0
-285 20 0
-287 20 0
-289 20 0
-291 20 0
-293 20 0
-295 20 0
-297 20 0
-299 23 0
-301 23 0
-303 23 0
-305 23 0
-307 23 0
-309 23 0
-311 23 0
-313 23 0
-315 23 0
-317 26 0
-319 26 0
-321 26 0
-323 26 0
-325 26 0
-327 26 0
-329 26 0
-331 26 0
-333 26 0
-334 173 -335 0
-336 175 -337 0
-338 177 -339 0
-340 179 -341 0
-342 181 -343 0
-344 183 -345 0
-346 185 -347 0
-348 187 -349 0
-350 189 -351 0
-352 191 -353 0
-354 193 -355 0
-356 195 -357 0
-358 197 -359 0
-360 199 -361 0
-362 201 -363 0
-364 203 -365 0
-366 205 -367 0
-368 207 -369 0
-370 209 -371 0
-372 211 -373 0
-374 213 -375 0
-376 215 -377 0
-378 217 -379 0
-380 219 -381 0
-382 221 -383 0
-384 223 -385 0
-386 225 -387 0
-388 227 -389 0
-390 229 -391 0
-392 231 -393 0
-394 233 -395 0
-396 235 -397 0
-398 237 -399 0
-400 239 -401 0
-402 241 -403 0
-404 243 -405 0
-406 245 -407 0
-408 247 -409 0
-410 249 -411 0
-412 251 -413 0
-414 253 -415 0
-416 255 -417 0
-418 257 -419 0
-420 259 -421 0
-422 261 -423 0
-424 263 -425 0
-426 265 -427 0
-428 267 -429 0
-430 269 -431 0
-432 271 -433 0
-434 273 -435 0
-436 275 -437 0
-438 277 -439 0
-440 279 -441 0
-442 281 -443 0
-444 283 -445 0
-446 285 -447 0
-448 287 -449 0
-450 289 -451 0
-452 291 -453 0
-454 293 -455 0
-456 295 -457 0
-458 297 -459 0
-460 299 -461 0
-462 301 -463 0
-464 303 -465 0
-466 305 -467 0
-468 307 -469 0
-470 309 -471 0
-472 311 -473 0
-474 313 -475 0
-476 315 -477 0
-478 317 -479 0
-480 319 -481 0
-482 321 -483 0
-484 323 -485 0
-486 325 -487 0
-488 327 -489 0
-490 329 -491 0
-492 331 -493 0
-494 333 -495 0
335 334 0
337 336 0
339 338 0
341 340 0
343 342 0
345 344 0
347 346 0
349 348 0
351 350 0
353 352 0
355 354 0
357 356 0
359 358 0
361 360 0
363 362 0
365 364 0
367 366 0
369 368 0
371 370 0
373 372 0
375 374 0
377 376 0
379 378 0
381 380 0
383 382 0
385 384 0
387 386 0
389 388 0
391 390 0
393 392 0
395 394 0
397 396 0
399 398 0
401 400 0
403 402 0
405 404 0
407 406 0
409 408 0
411 410 0
413 412 0
415 414 0
417 416 0
419 418 0
421 420 0
423 422 0
425 424 0
427 426 0
429 428 0
431 430 0
433 432 0
435 434 0
437 436 0
439 438 0
441 440 0
443 442 0
445 444 0
447 446 0
449 448 0
451 450 0
453 452 0
455 454 0
457 456 0
459 458 0
461 460 0
463 462 0
465 464 0
467 466 0
469 468 0
471 470 0
473 472 0
475 474 0
477 476 0
479 478 0
481 480 0
483 482 0
485 484 0
487 486 0
489 488 0
491 490 0
493 492 0
495 494 0
335 -173 0
337 -175 0
339 -177 0
341 -179 0
343 -181 0
345 -183 0
347 -185 0
349 -187 0
351 -189 0
353 -191 0
355 -193 0
357 -195 0
359 -197 0
361 -199 0
363 -201 0
365 -203 0
367 -205 0
369 -207 0
371 -209 0
373 -211 0
375 -213 0
377 -215 0
379 -217 0
381 -219 0
383 -221 0
385 -223 0
387 -225 0
389 -227 0
391 -229 0
393 -231 0
395 -233 0
397 -235 0
399 -237 0
401 -239 0
403 -241 0
405 -243 0
407 -245 0
409 -247 0
411 -249 0
413 -251 0
415 -253 0
417 -255 0
419 -257 0
421 -259 0
423 -261 0
425 -263 0
427 -265 0
429 -267 0
431 -269 0
433 -271 0
435 -273 0
437 -275 0
439 -277 0
441 -279 0
443 -281 0
445 -283 0
447 -285 0
449 -287 0
451 -289 0
453 -291 0
455 -293 0
457 -295 0
459 -297 0
461 -299 0
463 -301 0
465 -303 0
467 -305 0
469 -307 0
471 -309 0
473 -311 0
475 -313 0
477 -315 0
479 -317 0
481 -319 0
483 -321 0
485 -323 0
487 -325 0
489 -327 0
491 -329 0
493 -331 0
495 -333 0
-334 -496 -496 -497 0
-336 -498 -496 -499 0
-338 -500 -496 -501 0
-340 -502 -496 -503 0
-342 -504 -496 -505 0
-344 -506 -496 -507 0
-346 -508 -496 -509 0
-348 -510 -496 -511 0
-350 -512 -496 -513 0
-352 -496 -498 -514 0
-354 -498 -498 -515 0
-356 -500 -498 -516 0
-358 -502 -498 -517 0
-360 -504 -498 -518 0
-362 -506 -498 -519 0
-364 -508 -498 -520 0
-366 -510 -498 -521 0
-368 -512 -498 -522 0
-370 -496 -500 -523 0
-372 -498 -500 -524 0
-374 -500 -500 -525 0
-376 -502 -500 -526 0
-378 -504 -500 -527 0
-380 -506 -500 -528 0
-382 -508 -500 -529 0
-384 -510 -500 -530 0
-386 -512 -500 -531 0
-388 -496 -502 -532 0
-390 -498 -502 -533 0
-392 -500 -502 -534 0
-394 -502 -502 -535 0
-396 -504 -502 -536 0
-398 -506 -502 -537 0
-400 -508 -502 -538 0
-402 -510 -502 -539 0
-404 -512 -502 -540 0
-406 -496 -504 -541 0
-408 -498 -504 -542 0
-410 -500 -504 -543 0
-412 -502 -504 -544 0
-414 -504 -504 -545 0
-416 -506 -504 -546 0
-418 -508 -504 -547 0
-420 -510 -504 -548 0
-422 -512 -504 -549 0
-424 -496 -506 -550 0
-426 -498 -506 -551 0
-428 -500 -506 -552 0
-430 -502 -506 -553 0
-432 -504 -506 -554 0
-434 -506 -506 -555 0
-436 -508 -506 -556 0
-438 -510 -506 -557 0
-440 -512 -506 -558 0
-442 -496 -508 -559 0
-444 -498 -508 -560 0
-446 -500 -508 -561 0
-448 -502 -508 -562 0
-450 -504 -508 -563 0
-452 -506 -508 -564 0
-454 -508 -508 -565 0
-456 -510 -508 -566 0
-458 -512 -508 -567 0
-460 -496 -510 -568 0
-462 -498 -510 -569 0
-464 -500 -510 -570 0
-466 -502 -510 -571 0
-468 -504 -510 -572 0
-470 -506 -510 -573 0
-472 -508 -510 -574 0
-474 -510 -510 -575 0
-476 -512 -510 -576 0
-478 -496 -512 -577 0
-480 -498 -512 -578 0
-482 -500 -512 -579 0
-484 -502 -512 -580 0
-486 -504 -512 -581 0
-488 -506 -512 -582 0
-490 -508 -512 -583 0
-492 -510 -512 -584 0
-494 -512 -512 -585 0
497 334 0
499 336 0
501 338 0
503 340 0
505 342 0
507 344 0
509 346 0
511 348 0
513 350 0
514 352 0
515 354 0
516 356 0
517 358 0
518 360 0
519 362 0
520 364 0
521 366 0
522 368 0
523 370 0
524 372 0
525 374 0
526 376 0
527 378 0
528 380 0
529 382 0
530 384 0
531 386 0
532 388 0
533 390 0
534 392 0
535 394 0
536 396 0
537 398 0
538 400 0
539 402 0
540 404 0
541 406 0
542 408 0
543 410 0
544 412 0
545 414 0
546 416 0
547 418 0
548 420 0
549 422 0
550 424 0
551 426 0
552 428 0
553 430 0
554 432 0
555 434 0
556 436 0
557 438 0
558 440 0
559 442 0
560 444 0
561 446 0
562 448 0
563 450 0
564 452 0
565 454 0
566 456 0
567 458 0
568 460 0
569 462 0
570 464 0
571 466 0
572 468 0
573 470 0
574 472 0
575 474 0
576 476 0
577 478 0
578 480 0
579 482 0
580 484 0
581 486 0
582 488 0
583 490 0
584 492 0
585 494 0
497 496 0
499 498 0
501 500 0
503 502 0
505 504 0
507 506 0
509 508 0
511 510 0
513 512 0
514 496 0
515 498 0
516 500 0
517 502 0
518 504 0
519 506 0
520 508 0
521 510 0
522 512 0
523 496 0
524 498 0
525 500 0
526 502 0
527 504 0
528 506 0
529 508 0
530 510 0
531 512 0
532 496 0
533 498 0
534 500 0
535 502 0
536 504 0
537 506 0
538 508 0
539 510 0
540 512 0
541 496 0
542 498 0
543 500 0
544 502 0
545 504 0
546 506 0
547 508 0
548 510 0
549 512 0
550 496 0
551 498 0
552 500 0
553 502 0
554 504 0
555 506 0
556 508 0
557 510 0
558 512 0
559 496 0
560 498 0
561 500 0
562 502 0
563 504 0
564 506 0
565 508 0
566 510 0
567 512 0
568 496 0
569 498 0
570 500 0
571 502 0
572 504 0
573 506 0
574 508 0
575 510 0
576 512 0
577 496 0
578 498 0
579 500 0
580 502 0
581 504 0
582 506 0
583 508 0
584 510 0
585 512 0
497 496 0
499 496 0
501 496 0
503 496 0
505 496 0
507 496 0
509 496 0
511 496 0
513 496 0
514 498 0
515 498 0
516 498 0
517 498 0
518 498 0
519 498 0
520 498 0
521 498 0
522 498 0
523 500 0
524 500 0
525 500 0
526 500 0
527 500 0
528 500 0
529 500 0
530 500 0
531 500 0
532 502 0
533 502 0
534 502 0
535 502 0
536 502 0
537 502 0
538 502 0
539 502 0
540 502 0
541 504 0
542 504 0
543 504 0
544 504 0
545 504 0
546 504 0
547 504 0
548 504 0
549 504 0
550 506 0
551 506 0
552 506 0
553 506 0
554 506 0
555 506 0
556 506 0
557 506 0
558 506 0
559 508 0
560 508 0
561 508 0
562 508 0
563 508 0
564 508 0
565 508 0
566 508 0
567 508 0
568 510 0
569 510 0
570 510 0
571 510 0
572 510 0
573 510 0
574 510 0
575 510 0
576 510 0
577 512 0
578 512 0
579 512 0
580 512 0
581 512 0
582 512 0
583 512 0
584 512 0
585 512 0
-334 -586 -586 -587 0
-336 -588 -586 -589 0
-338 -590 -586 -591 0
-340 -592 -586 -593 0
-342 -594 -586 -595 0
-344 -596 -586 -597 0
-346 -598 -586 -599 0
-348 -600 -586 -601 0
-350 -602 -586 -603 0
-352 -586 -588 -604 0
-354 -588 -588 -605 0
-356 -590 -588 -606 0
-358 -592 -588 -607 0
-360 -594 -588 -608 0
-362 -596 -588 -609 0
-364 -598 -588 -610 0
-366 -600 -588 -611 0
-368 -602 -588 -612 0
-370 -586 -590 -613 0
-372 -588 -590 -614 0
-374 -590 -590 -615 0
-376 -592 -590 -616 0
-378 -594 -590 -617 0
-380 -596 -590 -618 0
-382 -598 -590 -619 0
-384 -600 -590 -620 0
-386 -602 -590 -621 0
-388 -586 -592 -622 0
-390 -588 -592 -623 0
-392 -590 -592 -624 0
-394 -592 -592 -625 0
-396 -594 -592 -626 0
-398 -596 -592 -627 0
-400 -598 -592 -628 0
-402 -600 -592 -629 0
-404 -602 -592 -630 0
-406 -586 -594 -631 0
-408 -588 -594 -632 0
-410 -590 -594 -633 0
-412 -592 -594 -634 0
-414 -594 -594 -635 0
-416 -596 -594 -636 0
-418 -598 -594 -637 0
-420 -600 -594 -638 0
-422 -602 -594 -639 0
-424 -586 -596 -640 0
-426 -588 -596 -641 0
-428 -590 -596 -642 0
-430 -592 -596 -643 0
-432 -594 -596 -644 0
-434 -596 -596 -645 0
-436 -598 -596 -646 0
-438 -600 -596 -647 0
-440 -602 -596 -648 0
-442 -586 -598 -649 0
-444 -588 -598 -650 0
-446 -590 -598 -651 0
-448 -592 -598 -652 0
-450 -594 -598 -653 0
-452 -596 -598 -654 0
-454 -598 -598 -655 0
-456 -600 -598 -656 0
-458 -602 -598 -657 0
-460 -586 -600 -658 0
-462 -588 -600 -659 0
-464 -590 -600 -660 0
-466 -592 -600 -661 0
-468 -594 -600 -662 0
-470 -596 -600 -663 0
-472 -598 -600 -664 0
-474 -600 -600 -665 0
-476 -602 -600 -666 0
-478 -586 -602 -667 0
-480 -588 -602 -668 0
-482 -590 -602 -669 0
-484 -592 -602 -670 0
-486 -594 -602 -671 0
-488 -596 -602 -672 0
-490 -598 -602 -673 0
-492 -600 -602 -674 0
-494 -602 -602 -675 0
587 334 0
589 336 0
591 338 0
593 340 0
595 342 0
597 344 0
599 346 0
601 348 0
603 350 0
604 352 0
605 354 0
606 356 0
607 358 0
608 360 0
609 362 0
610 364 0
611 366 0
612 368 0
613 370 0
614 372 0
615 374 0
616 376 0
617 378 0
618 380 0
619 382 0
620 384 0
621 386 0
622 388 0
623 390 0
624 392 0
625 394 0
626 396 0
627 398 0
628 400 0
629 402 0
630 404 0
631 406 0
632 408 0
633 410 0
634 412 0
635 414 0
636 416 0
637 418 0
638 420 0
639 422 0
640 424 0
641 426 0
642 428 0
643 430 0
644 432 0
645 434 0
646 436 0
647 438 0
648 440 0
649 442 0
650 444 0
651 446 0
652 448 0
653 450 0
654 452 0
655 454 0
656 456 0
657 458 0
658 460 0
659 462 0
660 464 0
661 466 0
662 468 0
663 470 0
664 472 0
665 474 0
666 476 0
667 478 0
668 480 0
669 482 0
670 484 0
671 486 0
672 488 0
673 490 0
674 492 0
675 494 0
587 586 0
589 588 0
591 590 0
593 592 0
595 594 0
597 596 0
599 598 0
601 600 0
603 602 0
604 586 0
605 588 0
606 590 0
607 592 0
608 594 0
609 596 0
610 598 0
611 600 0
612 602 0
613 586 0
614 588 0
615 590 0
616 592 0
617 594 0
618 596 0
619 598 0
620 600 0
621 602 0
622 586 0
623 588 0
624 590 0
625 592 0
626 594 0
627 596 0
628 598 0
629 600 0
630 602 0
631 586 0
632 588 0
633 590 0
634 592 0
635 594 0
636 596 0
637 598 0
638 600 0
639 602 0
640 586 0
641 588 0
642 590 0
643 592 0
644 594 0
645 596 0
646 598 0
647 600 0
648 602 0
649 586 0
650 588 0
651 590 0
652 592 0
653 594 0
654 596 0
655 598 0
656 600 0
657 602 0
658 586 0
659 588 0
660 590 0
661 592 0
662 594 0
663 596 0
664 598 0
665 600 0
666 602 0
667 586 0
668 588 0
669 590 0
670 592 0
671 594 0
672 596 0
673 598 0
674 600 0
675 602 0
587 586 0
589 586 0
591 586 0
593 586 0
595 586 0
597 586 0
599 586 0
601 586 0
603 586 0
604 588 0
605 588 0
606 588 0
607 588 0
608 588 0
609 588 0
610 588 0
611 588 0
612 588 0
613 590 0
614 590 0
615 590 0
616 590 0
617 590 0
618 590 0
619 590 0
620 590 0
621 590 0
622 592 0
623 592 0
624 592 0
625 592 0
626 592 0
627 592 0
628 592 0
629 592 0
630 592 0
631 594 0
632 594 0
633 594 0
634 594 0
635 594 0
636 594 0
637 594 0
638 594 0
639 594 0
640 596 0
641 596 0
642 596 0
643 596 0
644 596 0
645 596 0
646 596 0
647 596 0
648 596 0
649 598 0
650 598 0
651 598 0
652 598 0
653 598 0
654 598 0
655 598 0
656 598 0
657 598 0
658 600 0
659 600 0
660 600 0
661 600 0
662 600 0
663 600 0
664 600 0
665 600 0
666 600 0
667 602 0
668 602 0
669 602 0
670 602 0
671 602 0
672 602 0
673 602 0
674 602 0
675 602 0
334 -172 -2 -2 -676 0
336 -174 -5 -2 -677 0
338 -176 -8 -2 -678 0
340 -178 -11 -2 -679 0
342 -180 -14 -2 -680 0
344 -182 -17 -2 -681 0
346 -184 -20 -2 -682 0
348 -186 -23 -2 -683 0
350 -188 -26 -2 -684 0
352 -190 -2 -5 -685 0
354 -192 -5 -5 -686 0
356 -194 -8 -5 -687 0
358 -196 -11 -5 -688 0
360 -198 -14 -5 -689 0
362 -200 -17 -5 -690 0
364 -202 -20 -5 -691 0
366 -204 -23 -5 -692 0
368 -206 -26 -5 -693 0
370 -208 -2 -8 -694 0
372 -210 -5 -8 -695 0
374 -212 -8 -8 -696 0
376 -214 -11 -8 -697 0
378 -216 -14 -8 -698 0
380 -218 -17 -8 -699 0
382 -220 -20 -8 -700 0
384 -222 -23 -8 -701 0
386 -224 -26 -8 -702 0
388 -226 -2 -11 -703 0
390 -228 -5 -11 -704 0
392 -230 -8 -11 -705 0
394 -232 -11 -11 -706 0
396 -234 -14 -11 -707 0
398 -236 -17 -11 -708 0
400 -238 -20 -11 -709 0
402 -240 -23 -11 -710 0
404 -242 -26 -11 -711 0
406 -244 -2 -14 -712 0
408 -246 -5 -14 -713 0
410 -248 -8 -14 -714 0
412 -250 -11 -14 -715 0
414 -252 -14 -14 -716 0
416 -254 -17 -14 -717 0
418 -256 -20 -14 -718 0
420 -258 -23 -14 -719 0
422 -260 -26 -14 -720 0
424 -262 -2 -17 -721 0
426 -264 -5 -17 -722 0
428 -266 -8 -17 -723 0
430 -268 -11 -17 -724 0
432 -270 -14 -17 -725 0
434 -272 -17 -17 -726 0
436 -274 -20 -17 -727 0
438 -276 -23 -17 -728 0
440 -278 -26 -17 -729 0
442 -280 -2 -20 -730 0
444 -282 -5 -20 -731 0
446 -284 -8 -20 -732 0
448 -286 -11 -20 -733 0
450 -288 -14 -20 -734 0
452 -290 -17 -20 -735 0
454 -292 -20 -20 -736 0
456 -294 -23 -20 -737 0
458 -296 -26 -20 -738 0
460 -298 -2 -23 -739 0
462 -300 -5 -23 -740 0
464 -302 -8 -23 -741 0
466 -304 -11 -23 -742 0
468 -306 -14 -23 -743 0
470 -308 -17 -23 -744 0
472 -310 -20 -23 -745 0
474 -312 -23 -23 -746 0
476 -314 -26 -23 -747 0
478 -316 -2 -26 -748 0
480 -318 -5 -26 -749 0
482 -320 -8 -26 -750 0
484 -322 -11 -26 -751 0
486 -324 -14 -26 -752 0
488 -326 -17 -26 -753 0
490 -328 -20 -26 -754 0
492 -330 -23 -26 -755 0
494 -332 -26 -26 -756 0
676 -334 0
677 -336 0
678 -338 0
679 -340 0
680 -342 0
681 -344 0
682 -346 0
683 -348 0
684 -350 0
685 -352 0
686 -354 0
687 -356 0
688 -358 0
689 -360 0
690 -362 0
691 -364 0
692 -366 0
693 -368 0
694 -370 0
695 -372 0
696 -374 0
697 -376 0
698 -378 0
699 -380 0
700 -382 0
701 -384 0
702 -386 0
703 -388 0
704 -390 0
705 -392 0
706 -394 0
707 -396 0
708 -398 0
709 -400 0
710 -402 0
711 -404 0
712 -406 0
713 -408 0
714 -410 0
715 -412 0
716 -414 0
717 -416 0
718 -418 0
719 -420 0
720 -422 0
721 -424 0
722 -426 0
723 -428 0
724 -430 0
725 -432 0
726 -434 0
727 -436 0
728 -438 0
729 -440 0
730 -442 0
731 -444 0
732 -446 0
733 -448 0
734 -450 0
735 -452 0
736 -454 0
737 -456 0
738 -458 0
739 -460 0
740 -462 0
741 -464 0
742 -466 0
743 -468 0
744 -470 0
745 -472 0
746 -474 0
747 -476 0
748 -478 0
749 -480 0
750 -482 0
751 -484 0
752 -486 0
753 -488 0
754 -490 0
755 -492 0
756 -494 0
676 172 0
677 174 0
678 176 0
679 178 0
680 180 0
681 182 0
682 184 0
683 186 0
684 188 0
685 190 0
686 192 0
687 194 0
688 196 0
689 198 0
690 200 0
691 202 0
692 204 0
693 206 0
694 208 0
695 210 0
696 212 0
697 214 0
698 216 0
699 218 0
700 220 0
701 222 0
702 224 0
703 226 0
704 228 0
705 230 0
706 232 0
707 234 0
708 236 0
709 238 0
710 240 0
711 242 0
712 244 0
713 246 0
714 248 0
715 250 0
716 252 0
717 254 0
718 256 0
719 258 0
720 260 0
721 262 0
722 264 0
723 266 0
724 268 0
725 270 0
726 272 0
727 274 0
728 276 0
729 278 0
730 280 0
731 282 0
732 284 0
733 286 0
734 288 0
735 290 0
736 292 0
737 294 0
738 296 0
739 298 0
740 300 0
741 302 0
742 304 0
743 306 0
744 308 0
745 310 0
746 312 0
747 314 0
748 316 0
749 318 0
750 320 0
751 322 0
752 324 0
753 326 0
754 328 0
755 330 0
756 332 0
676 2 0
677 5 0
678 8 0
679 11 0
680 14 0
681 17 0
682 20 0
683 23 0
684 26 0
685 2 0
686 5 0
687 8 0
688 11 0
689 14 0
690 17 0
691 20 0
692 23 0
693 26 0
694 2 0
695 5 0
696 8 0
697 11 0
698 14 0
699 17 0
700 20 0
701 23 0
702 26 0
703 2 0
704 5 0
705 8 0
706 11 0
707 14 0
708 17 0
709 20 0
710 23 0
711 26 0
712 2 0
713 5 0
714 8 0
715 11 0
716 14 0
717 17 0
718 20 0
719 23 0
720 26 0
721 2 0
722 5 0
723 8 0
724 11 0
725 14 0
726 17 0
727 20 0
728 23 0
729 26 0
730 2 0
731 5 0
732 8 0
733 11 0
734 14 0
735 17 0
736 20 0
737 23 0
738 26 0
739 2 0
740 5 0
741 8 0
742 11 0
743 14 0
744 17 0
745 20 0
746 23 0
747 26 0
748 2 0
749 5 0
750 8 0
751 11 0
752 14 0
753 17 0
754 20 0
755 23 0
756 26 0
676 2 0
677 2 0
678 2 0
679 2 0
680 2 0
681 2 0
682 2 0
683 2 0
684 2 0
685 5 0
686 5 0
687 5 0
688 5 0
689 5 0
690 5 0
691 5 0
692 5 0
693 5 0
694 8 0
695 8 0
696 8 0
697 8 0
698 8 0
699 8 0
700 8 0
701 8 0
702 8 0
703 11 0
704 11 0
705 11 0
706 11 0
707 11 0
708 11 0
709 11 0
710 11 0
711 11 0
712 14 0
713 14 0
714 14 0
715 14 0
716 14 0
717 14 0
718 14 0
719 14 0
720 14 0
721 17 0
722 17 0
723 17 0
724 17 0
725 17 0
726 17 0
727 17 0
728 17 0
729 17 0
730 20 0
731 20 0
732 20 0
733 20 0
734 20 0
735 20 0
736 20 0
737 20 0
738 20 0
739 23 0
740 23 0
741 23 0
742 23 0
743 23 0
744 23 0
745 23 0
746 23 0
747 23 0
748 26 0
749 26 0
750 26 0
751 26 0
752 26 0
753 26 0
754 26 0
755 26 0
756 26 0
-3 -335 -497 -587 -676 757 0
-6 -337 -499 -589 -677 758 0
-9 -339 -501 -591 -678 759 0
-12 -341 -503 -593 -679 760 0
-15 -343 -505 -595 -680 761 0
-18 -345 -507 -597 -681 762 0
-21 -347 -509 -599 -682 763 0
-24 -349 -511 -601 -683 764 0
-27 -351 -513 -603 -684 765 0
-29 -353 -514 -604 -685 766 0
-31 -355 -515 -605 -686 767 0
-33 -357 -516 -606 -687 768 0
-35 -359 -517 -607 -688 769 0
-37 -361 -518 -608 -689 770 0
-39 -363 -519 -609 -690 771 0
-41 -365 -520 -610 -691 772 0
-43 -367 -521 -611 -692 773 0
-45 -369 -522 -612 -693 774 0
-47 -371 -523 -613 -694 775 0
-49 -373 -524 -614 -695 776 0
-51 -375 -525 -615 -696 777 0
-53 -377 -526 -616 -697 778 0
-55 -379 -527 -617 -698 779 0
-57 -381 -528 -618 -699 780 0
-59 -383 -529 -619 -700 781 0
-61 -385 -530 -620 -701 782 0
-63 -387 -531 -621 -702 783 0
-65 -389 -532 -622 -703 784 0
-67 -391 -533 -623 -704 785 0
-69 -393 -534 -624 -705 786 0
-71 -395 -535 -625 -706 787 0
-73 -397 -536 -626 -707 788 0
-75 -399 -537 -627 -708 789 0
-77 -401 -538 -628 -709 790 0
-79 -403 -539 -629 -710 791 0
-81 -405 -540 -630 -711 792 0
-83 -407 -541 -631 -712 793 0
-85 -409 -542 -632 -713 794 0
-87 -411 -543 -633 -714 795 0
-89 -413 -544 -634 -715 796 0
-91 -415 -545 -635 -716 797 0
-93 -417 -546 -636 -717 798 0
-95 -419 -547 -637 -718 799 0
-97 -421 -548 -638 -719 800 0
-99 -423 -549 -639 -720 801 0
-101 -425 -550 -640 -721 802 0
-103 -427 -551 -641 -722 803 0
-105 -429 -552 -642 -723 804 0
-107 -431 -553 -643 -724 805 0
-109 -433 -554 -644 -725 806 0
-111 -435 -555 -645 -726 807 0
-113 -437 -556 -646 -727 808 0
-115 -439 -557 -647 -728 809 0
-117 -441 -558 -648 -729 810 0
-119 -443 -559 -649 -730 811 0
-121 -445 -560 -650 -731 812 0
-123 -447 -561 -651 -732 813 0
-125 -449 -562 -652 -733 814 0
-127 -451 -563 -653 -734 815 0
-129 -453 -564 -654 -735 816 0
-131 -455 -565 -655 -736 817 0
-133 -457 -566 -656 -737 818 0
-135 -459 -567 -657 -738 819 0
-137 -461 -568 -658 -739 820 0
-139 -463 -569 -659 -740 821 0
-141 -465 -570 -660 -741 822 0
-143 -467 -571 -661 -742 823 0
-145 -469 -572 -662 -743 824 0
-147 -471 -573 -663 -744 825 0
-149 -473 -574 -664 -745 826 0
-151 -475 -575 -665 -746 827 0
-153 -477 -576 -666 -747 828 0
-155 -479 -577 -667 -748 829 0
-157 -481 -578 -668 -749 830 0
-159 -483 -579 -669 -750 831 0
-161 -485 -580 -670 -751 832 0
-163 -487 -581 -671 -752 833 0
-165 -489 -582 -672 -753 834 0
-167 -491 -583 -673 -754 835 0
-169 -493 -584 -674 -755 836 0
-171 -495 -585 -675 -756 837 0
-757 3 0
-758 6 0
-759 9 0
-760 12 0
-761 15 0
-762 18 0
-763 21 0
-764 24 0
-765 27 0
-766 29 0
-767 31 0
-768 33 0
-769 35 0
-770 37 0
-771 39 0
-772 41 0
-773 43 0
-774 45 0
-775 47 0
-776 49 0
-777 51 0
-778 53 0
-779 55 0
-780 57 0
-781 59 0
-782 61 0
-783 63 0
-784 65 0
-785 67 0
-786 69 0
-787 71 0
-788 73 0
-789 75 0
-790 77 0
-791 79 0
-792 81 0
-793 83 0
-794 85 0
-795 87 0
-796 89 0
-797 91 0
-798 93 0
-799 95 0
-800 97 0
-801 99 0
-802 101 0
-803 103 0
-804 105 0
-805 107 0
-806 109 0
-807 111 0
-808 113 0
-809 115 0
-810 117 0
-811 119 0
-812 121 0
-813 123 0
-814 125 0
-815 127 0
-816 129 0
-817 131 0
-818 133 0
-819 135 0
-820 137 0
-821 139 0
-822 141 0
-823 143 0
-824 145 0
-825 147 0
-826 149 0
-827 151 0
-828 153 0
-829 155 0
-830 157 0
-831 159 0
-832 161 0
-833 163 0
-834 165 0
-835 167 0
-836 169 0
-837 171 0
-757 335 0
-758 337 0
-759 339 0
-760 341 0
-761 343 0
-762 345 0
-763 347 0
-764 349 0
-765 351 0
-766 353 0
-767 355 0
-768 357 0
-769 359 0
-770 361 0
-771 363 0
-772 365 0
-773 367 0
-774 369 0
-775 371 0
-776 373 0
-777 375 0
-778 377 0
-779 379 0
-780 381 0
-781 383 0
-782 385 0
-783 387 0
-784 389 0
-785 391 0
-786 393 0
-787 395 0
-788 397 0
-789 399 0
-790 401 0
-791 403 0
-792 405 0
-793 407 0
-794 409 0
-795 411 0
-796 413 0
-797 415 0
-798 417 0
-799 419 0
-800 421 0
-801 423 0
-802 425 0
-803 427 0
-804 429 0
-805 431 0
-806 433 0
-807 435 0
-808 437 0
-809 439 0
-810 441 0
-811 443 0
-812 445 0
-813 447 0
-814 449 0
-815 451 0
-816 453 0
-817 455 0
-818 457 0
-819 459 0
-820 461 0
-821 463 0
-822 465 0
-823 467 0
-824 469 0
-825 471 0
-826 473 0
-827 475 0
-828 477 0
-829 479 0
-830 481 0
-831 483 0
-832 485 0
-833 487 0
-834 489 0
-835 491 0
-836 493 0
-837 495 0
-757 497 0
-758 499 0
-759 501 0
-760 503 0
-761 505 0
-762 507 0
-763 509 0
-764 511 0
-765 513 0
-766 514 0
-767 515 0
-768 516 0
-769 517 0
-770 518 0
-771 519 0
-772 520 0
-773 521 0
-774 522 0
-775 523 0
-776 524 0
-777 525 0
-778 526 0
-779 527 0
-780 528 0
-781 529 0
-782 530 0
-783 531 0
-784 532 0
-785 533 0
-786 534 0
-787 535 0
-788 536 0
-789 537 0
-790 538 0
-791 539 0
-792 540 0
-793 541 0
-794 542 0
-795 543 0
-796 544 0
-797 545 0
-798 546 0
-799 547 0
-800 548 0
-801 549 0
-802 550 0
-803 551 0
-804 552 0
-805 553 0
-806 554 0
-807 555 0
-808 556 0
-809 557 0
-810 558 0
-811 559 0
-812 560 0
-813 561 0
-814 562 0
-815 563 0
-816 564 0
-817 565 0
-818 566 0
-819 567 0
-820 568 0
-821 569 0
-822 570 0
-823 571 0
-824 572 0
-825 573 0
-826 574 0
-827 575 0
-828 576 0
-829 577 0
-830 578 0
-831 579 0
-832 580 0
-833 581 0
-834 582 0
-835 583 0
-836 584 0
-837 585 0
-757 587 0
-758 589 0
-759 591 0
-760 593 0
-761 595 0
-762 597 0
-763 599 0
-764 601 0
-765 603 0
-766 604 0
-767 605 0
-768 606 0
-769 607 0
-770 608 0
-771 609 0
-772 610 0
-773 611 0
-774 612 0
-775 613 0
-776 614 0
-777 615 0
-778 616 0
-779 617 0
-780 618 0
-781 619 0
-782 620 0
-783 621 0
-784 622 0
-785 623 0
-786 624 0
-787 625 0
-788 626 0
-789 627 0
-790 628 0
-791 629 0
-792 630 0
-793 631 0
-794 632 0
-795 633 0
-796 634 0
-797 635 0
-798 636 0
-799 637 0
-800 638 0
-801 639 0
-802 640 0
-803 641 0
-804 642 0
-805 643 0
-806 644 0
-807 645 0
-808 646 0
-809 647 0
-810 648 0
-811 649 0
-812 650 0
-813 651 0
-814 652 0
-815 653 0
-816 654 0
-817 655 0
-818 656 0
-819 657 0
-820 658 0
-821 659 0
-822 660 0
-823 661 0
-824 662 0
-825 663 0
-826 664 0
-827 665 0
-828 666 0
-829 667 0
-830 668 0
-831 669 0
-832 670 0
-833 671 0
-834 672 0
-835 673 0
-836 674 0
-837 675 0
-757 676 0
-758 677 0
-759 678 0
-760 679 0
-761 680 0
-762 681 0
-763 682 0
-764 683 0
-765 684 0
-766 685 0
-767 686 0
-768 687 0
-769 688 0
-770 689 0
-771 690 0
-772 691 0
-773 692 0
-774 693 0
-775 694 0
-776 695 0
-777 696 0
-778 697 0
-779 698 0
-780 699 0
-781 700 0
-782 701 0
-783 702 0
-784 703 0
-785 704 0
-786 705 0
-787 706 0
-788 707 0
-789 708 0
-790 709 0
-791 710 0
-792 711 0
-793 712 0
-794 713 0
-795 714 0
-796 715 0
-797 716 0
-798 717 0
-799 718 0
-800 719 0
-801 720 0
-802 721 0
-803 722 0
-804 723 0
-805 724 0
-806 725 0
-807 726 0
-808 727 0
-809 728 0
-810 729 0
-811 730 0
-812 731 0
-813 732 0
-814 733 0
-815 734 0
-816 735 0
-817 736 0
-818 737 0
-819 738 0
-820 739 0
-821 740 0
-822 741 0
-823 742 0
-824 743 0
-825 744 0
-826 745 0
-827 746 0
-828 747 0
-829 748 0
-830 749 0
-831 750 0
-832 751 0
-833 752 0
-834 753 0
-835 754 0
-836 755 0
-837 756 0
757 0
758 0
759 0
760 0
761 0
762 0
763 0
764 0
765 0
766 0
767 0
768 0
769 0
770 0
771 0
772 0
773 0
774 0
775 0
776 0
777 0
778 0
779 0
780 0
781 0
782 0
783 0
784 0
785 0
786 0
787 0
788 0
789 0
790 0
791 0
792 0
793 0
794 0
795 0
796 0
797 0
798 0
799 0
800 0
801 0
802 0
803 0
804 0
805 0
806 0
807 0
808 0
809 0
810 0
811 0
812 0
813 0
814 0
815 0
816 0
817 0
818 0
819 0
820 0
821 0
822 0
823 0
824 0
825 0
826 0
827 0
828 0
829 0
830 0
831 0
832 0
833 0
834 0
835 0
836 0
837 0
594 0
598 0
-496 0
26 0
5 0
11 0
-596 0
-600 0
590 0
602 0
-504 0
-508 0
498 0
-500 0
17 0
2 0
502 0
23 0
506 0
-512 0
-588 0
586 0
14 0
20 0
-592 0
8 0
510 0
1 0
28 4 0
-28 -4 0
-28 -48 46 0
-28 -66 64 0
-28 -84 82 0
-28 -102 100 0
-28 -120 118 0
-28 -138 136 0
-28 -156 154 0
46 7 0
-46 -7 0
-46 -32 28 0
-46 -68 64 0
-46 -86 82 0
-46 -104 100 0
-46 -122 118 0
-46 -140 136 0
-46 -158 154 0
64 10 0
-64 -10 0
-64 -34 28 0
-64 -52 46 0
-64 -88 82 0
-64 -106 100 0
-64 -124 118 0
-64 -142 136 0
-64 -160 154 0
82 13 0
-82 -13 0
-82 -36 28 0
-82 -54 46 0
-82 -72 64 0
-82 -108 100 0
-82 -126 118 0
-82 -144 136 0
-82 -162 154 0
100 16 0
-100 -16 0
-100 -38 28 0
-100 -56 46 0
-100 -74 64 0
-100 -92 82 0
-100 -128 118 0
-100 -146 136 0
-100 -164 154 0
118 19 0
-118 -19 0
-118 -40 28 0
-118 -58 46 0
-118 -76 64 0
-118 -94 82 0
-118 -112 100 0
-118 -148 136 0
-118 -166 154 0
136 22 0
-136 -22 0
-136 -42 28 0
-136 -60 46 0
-136 -78 64 0
-136 -96 82 0
-136 -114 100 0
-136 -132 118 0
-136 -168 154 0
154 25 0
-154 -25 0
-154 -44 28 0
-154 -62 46 0
-154 -80 64 0
-154 -98 82 0
-154 -116 100 0
-154 -134 118 0
-154 -152 136 0
30 0
4 28 0
-4 -28 0
-4 -46 48 0
-4 -64 66 0
-4 -82 84 0
-4 -100 102 0
-4 -118 120 0
-4 -136 138 0
-4 -154 156 0
48 32 0
-48 -32 0
-48 -7 4 0
-48 -68 66 0
-48 -86 84 0
-48 -104 102 0
-48 -122 120 0
-48 -140 138 0
-48 -158 156 0
66 34 0
-66 -34 0
-66 -10 4 0
-66 -52 48 0
-66 -88 84 0
-66 -106 102 0
-66 -124 120 0
-66 -142 138 0
-66 -160 156 0
84 36 0
-84 -36 0
-84 -13 4 0
-84 -54 48 0
-84 -72 66 0
-84 -108 102 0
-84 -126 120 0
-84 -144 138 0
-84 -162 156 0
102 38 0
-102 -38 0
-102 -16 4 0
-102 -56 48 0
-102 -74 66 0
-102 -92 84 0
-102 -128 120 0
-102 -146 138 0
-102 -164 156 0
120 40 0
-120 -40 0
-120 -19 4 0
-120 -58 48 0
-120 -76 66 0
-120 -94 84 0
-120 -112 102 0
-120 -148 138 0
-120 -166 156 0
138 42 0
-138 -42 0
-138 -22 4 0
-138 -60 48 0
-138 -78 66 0
-138 -96 84 0
-138 -114 102 0
-138 -132 120 0
-138 -168 156 0
156 44 0
-156 -44 0
-156 -25 4 0
-156 -62 48 0
-156 -80 66 0
-156 -98 84 0
-156 -116 102 0
-156 -134 120 0
-156 -152 138 0
50 0
7 46 0
-7 -46 0
-7 -28 32 0
-7 -64 68 0
-7 -82 86 0
-7 -100 104 0
-7 -118 122 0
-7 -136 140 0
-7 -154 158 0
32 48 0
-32 -48 0
-32 -4 7 0
-32 -66 68 0
-32 -84 86 0
-32 -102 104 0
-32 -120 122 0
-32 -138 140 0
-32 -156 158 0
68 52 0
-68 -52 0
-68 -10 7 0
-68 -34 32 0
-68 -88 86 0
-68 -106 104 0
-68 -124 122 0
-68 -142 140 0
-68 -160 158 0
86 54 0
-86 -54 0
-86 -13 7 0
-86 -36 32 0
-86 -72 68 0
-86 -108 104 0
-86 -126 122 0
-86 -144 140 0
-86 -162 158 0
104 56 0
-104 -56 0
-104 -16 7 0
-104 -38 32 0
-104 -74 68 0
-104 -92 86 0
-104 -128 122 0
-104 -146 140 0
-104 -164 158 0
122 58 0
-122 -58 0
-122 -19 7 0
-122 -40 32 0
-122 -76 68 0
-122 -94 86 0
-122 -112 104 0
-122 -148 140 0
-122 -166 158 0
140 60 0
-140 -60 0
-140 -22 7 0
-140 -42 32 0
-140 -78 68 0
-140 -96 86 0
-140 -114 104 0
-140 -132 122 0
-140 -168 158 0
158 62 0
-158 -62 0
-158 -25 7 0
-158 -44 32 0
-158 -80 68 0
-158 -98 86 0
-158 -116 104 0
-158 -134 122 0
-158 -152 140 0
70 0
10 64 0
-10 -64 0
-10 -28 34 0
-10 -46 52 0
-10 -82 88 0
-10 -100 106 0
-10 -118 124 0
-10 -136 142 0
-10 -154 160 0
34 66 0
-34 -66 0
-34 -4 10 0
-34 -48 52 0
-34 -84 88 0
-34 -102 106 0
-34 -120 124 0
-34 -138 142 0
-34 -156 160 0
52 68 0
-52 -68 0
-52 -7 10 0
-52 -32 34 0
-52 -86 88 0
-52 -104 106 0
-52 -122 124 0
-52 -140 142 0
-52 -158 160 0
88 72 0
-88 -72 0
-88 -13 10 0
-88 -36 34 0
-88 -54 52 0
-88 -108 106 0
-88 -126 124 0
-88 -144 142 0
-88 -162 160 0
106 74 0
-106 -74 0
-106 -16 10 0
-106 -38 34 0
-106 -56 52 0
-106 -92 88 0
-106 -128 124 0
-106 -146 142 0
-106 -164 160 0
124 76 0
-124 -76 0
-124 -19 10 0
-124 -40 34 0
-124 -58 52 0
-124 -94 88 0
-124 -112 106 0
-124 -148 142 0
-124 -166 160 0
142 78 0
-142 -78 0
-142 -22 10 0
-142 -42 34 0
-142 -60 52 0
-142 -96 88 0
-142 -114 106 0
-142 -132 124 0
-142 -168 160 0
160 80 0
-160 -80 0
-160 -25 10 0
-160 -44 34 0
-160 -62 52 0
-160 -98 88 0
-160 -116 106 0
-160 -134 124 0
-160 -152 142 0
90 0
13 82 0
-13 -82 0
-13 -28 36 0
-13 -46 54 0
-13 -64 72 0
-13 -100 108 0
-13 -118 126 0
-13 -136 144 0
-13 -154 162 0
36 84 0
-36 -84 0
-36 -4 13 0
-36 -48 54 0
-36 -66 72 0
-36 -102 108 0
-36 -120 126 0
-36 -138 144 0
-36 -156 162 0
54 86 0
-54 -86 0
-54 -7 13 0
-54 -32 36 0
-54 -68 72 0
-54 -104 108 0
-54 -122 126 0
-54 -140 144 0
-54 -158 162 0
72 88 0
-72 -88 0
-72 -10 13 0
-72 -34 36 0
-72 -52 54 0
-72 -106 108 0
-72 -124 126 0
-72 -142 144 0
-72 -160 162 0
108 92 0
-108 -92 0
-108 -16 13 0
-108 -38 36 0
-108 -56 54 0
-108 -74 72 0
-108 -128 126 0
-108 -146 144 0
-108 -164 162 0
126 94 0
-126 -94 0
-126 -19 13 0
-126 -40 36 0
-126 -58 54 0
-126 -76 72 0
-126 -112 108 0
-126 -148 144 0
-126 -166 162 0
144 96 0
-144 -96 0
-144 -22 13 0
-144 -42 36 0
-144 -60 54 0
-144 -78 72 0
-144 -114 108 0
-144 -132 126 0
-144 -168 162 0
162 98 0
-162 -98 0
-162 -25 13 0
-162 -44 36 0
-162 -62 54 0
-162 -80 72 0
-162 -116 108 0
-162 -134 126 0
-162 -152 144 0
110 0
16 100 0
-16 -100 0
-16 -28 38 0
-16 -46 56 0
-16 -64 74 0
-16 -82 92 0
-16 -118 128 0
-16 -136 146 0
-16 -154 164 0
38 102 0
-38 -102 0
-38 -4 16 0
-38 -48 56 0
-38 -66 74 0
-38 -84 92 0
-38 -120 128 0
-38 -138 146 0
-38 -156 164 0
56 104 0
-56 -104 0
-56 -7 16 0
-56 -32 38 0
-56 -68 74 0
-56 -86 92 0
-56 -122 128 0
-56 -140 146 0
-56 -158 164 0
74 106 0
-74 -106 0
-74 -10 16 0
-74 -34 38 0
-74 -52 56 0
-74 -88 92 0
-74 -124 128 0
-74 -142 146 0
-74 -160 164 0
92 108 0
-92 -108 0
-92 -13 16 0
-92 -36 38 0
-92 -54 56 0
-92 -72 74 0
-92 -126 128 0
-92 -144 146 0
-92 -162 164 0
128 112 0
-128 -112 0
-128 -19 16 0
-128 -40 38 0
-128 -58 56 0
-128 -76 74 0
-128 -94 92 0
-128 -148 146 0
-128 -166 164 0
146 114 0
-146 -114 0
-146 -22 16 0
-146 -42 38 0
-146 -60 56 0
-146 -78 74 0
-146 -96 92 0
-146 -132 128 0
-146 -168 164 0
164 116 0
-164 -116 0
-164 -25 16 0
-164 -44 38 0
-164 -62 56 0
-164 -80 74 0
-164 -98 92 0
-164 -134 128 0
-164 -152 146 0
130 0
19 118 0
-19 -118 0
-19 -28 40 0
-19 -46 58 0
-19 -64 76 0
-19 -82 94 0
-19 -100 112 0
-19 -136 148 0
-19 -154 166 0
40 120 0
-40 -120 0
-40 -4 19 0
-40 -48 58 0
-40 -66 76 0
-40 -84 94 0
-40 -102 112 0
-40 -138 148 0
-40 -156 166 0
58 122 0
-58 -122 0
-58 -7 19 0
-58 -32 40 0
-58 -68 76 0
-58 -86 94 0
-58 -104 112 0
-58 -140 148 0
-58 -158 166 0
76 124 0
-76 -124 0
-76 -10 19 0
-76 -34 40 0
-76 -52 58 0
-76 -88 94 0
-76 -106 112 0
-76 -142 148 0
-76 -160 166 0
94 126 0
-94 -126 0
-94 -13 19 0
-94 -36 40 0
-94 -54 58 0
-94 -72 76 0
-94 -108 112 0
-94 -144 148 0
-94 -162 166 0
112 128 0
-112 -128 0
-112 -16 19 0
-112 -38 40 0
-112 -56 58 0
-112 -74 76 0
-112 -92 94 0
-112 -146 148 0
-112 -164 166 0
148 132 0
-148 -132 0
-148 -22 19 0
-148 -42 40 0
-148 -60 58 0
-148 -78 76 0
-148 -96 94 0
-148 -114 112 0
-148 -168 166 0
166 134 0
-166 -134 0
-166 -25 19 0
-166 -44 40 0
-166 -62 58 0
-166 -80 76 0
-166 -98 94 0
-166 -116 112 0
-166 -152 148 0
150 0
22 136 0
-22 -136 0
-22 -28 42 0
-22 -46 60 0
-22 -64 78 0
-22 -82 96 0
-22 -100 114 0
-22 -118 132 0
-22 -154 168 0
42 138 0
-42 -138 0
-42 -4 22 0
-42 -48 60 0
-42 -66 78 0
-42 -84 96 0
-42 -102 114 0
-42 -120 132 0
-42 -156 168 0
60 140 0
-60 -140 0
-60 -7 22 0
-60 -32 42 0
-60 -68 78 0
-60 -86 96 0
-60 -104 114 0
-60 -122 132 0
-60 -158 168 0
78 142 0
-78 -142 0
-78 -10 22 0
-78 -34 42 0
-78 -52 60 0
-78 -88 96 0
-78 -106 114 0
-78 -124 132 0
-78 -160 168 0
96 144 0
-96 -144 0
-96 -13 22 0
-96 -36 42 0
-96 -54 60 0
-96 -72 78 0
-96 -108 114 0
-96 -126 132 0
-96 -162 168 0
114 146 0
-114 -146 0
-114 -16 22 0
-114 -38 42 0
-114 -56 60 0
-114 -74 78 0
-114 -92 96 0
-114 -128 132 0
-114 -164 168 0
132 148 0
-132 -148 0
-132 -19 22 0
-132 -40 42 0
-132 -58 60 0
-132 -76 78 0
-132 -94 96 0
-132 -112 114 0
-132 -166 168 0
168 152 0
-168 -152 0
-168 -25 22 0
-168 -44 42 0
-168 -62 60 0
-168 -80 78 0
-168 -98 96 0
-168 -116 114 0
-168 -134 132 0
170 0
25 154 0
-25 -154 0
-25 -28 44 0
-25 -46 62 0
-25 -64 80 0
-25 -82 98 0
-25 -100 116 0
-25 -118 134 0
-25 -136 152 0
44 156 0
-44 -156 0
-44 -4 25 0
-44 -48 62 0
-44 -66 80 0
-44 -84 98 0
-44 -102 116 0
-44 -120 134 0
-44 -138 152 0
62 158 0
-62 -158 0
-62 -7 25 0
-62 -32 44 0
-62 -68 80 0
-62 -86 98 0
-62 -104 116 0
-62 -122 134 0
-62 -140 152 0
80 160 0
-80 -160 0
-80 -10 25 0
-80 -34 44 0
-80 -52 62 0
-80 -88 98 0
-80 -106 116 0
-80 -124 134 0
-80 -142 152 0
98 162 0
-98 -162 0
-98 -13 25 0
-98 -36 44 0
-98 -54 62 0
-98 -72 80 0
-98 -108 116 0
-98 -126 134 0
-98 -144 152 0
116 164 0
-116 -164 0
-116 -16 25 0
-116 -38 44 0
-116 -56 62 0
-116 -74 80 0
-116 -92 98 0
-116 -128 134 0
-116 -146 152 0
134 166 0
-134 -166 0
-134 -19 25 0
-134 -40 44 0
-134 -58 62 0
-134 -76 80 0
-134 -94 98 0
-134 -112 116 0
-134 -148 152 0
152 168 0
-152 -168 0
-152 -22 25 0
-152 -42 44 0
-152 -60 62 0
-152 -78 80 0
-152 -96 98 0
-152 -114 116 0
-152 -132 134 0
-172 0
-190 28 0
-838 46 0
-838 32 0
-46 -32 838 0
-839 64 0
-839 34 0
-64 -34 839 0
-840 82 0
-840 36 0
-82 -36 840 0
-841 100 0
-841 38 0
-100 -38 841 0
-842 118 0
-842 40 0
-118 -40 842 0
-843 136 0
-843 42 0
-136 -42 843 0
-844 154 0
-844 44 0
-154 -44 844 0
-190 -838 0
-190 -839 0
-190 -840 0
-190 -841 0
-190 -842 0
-190 -843 0
-190 -844 0
-28 190 838 839 840 841 842 843 844 0
-208 46 0
-845 28 0
-845 48 0
-28 -48 845 0
-846 64 0
-846 52 0
-64 -52 846 0
-847 82 0
-847 54 0
-82 -54 847 0
-848 100 0
-848 56 0
-100 -56 848 0
-849 118 0
-849 58 0
-118 -58 849 0
-850 136 0
-850 60 0
-136 -60 850 0
-851 154 0
-851 62 0
-154 -62 851 0
-208 -845 0
-208 -846 0
-208 -847 0
-208 -848 0
-208 -849 0
-208 -850 0
-208 -851 0
-46 208 845 846 847 848 849 850 851 0
-226 64 0
-852 28 0
-852 66 0
-28 -66 852 0
-853 46 0
-853 68 0
-46 -68 853 0
-854 82 0
-854 72 0
-82 -72 854 0
-855 100 0
-855 74 0
-100 -74 855 0
-856 118 0
-856 76 0
-118 -76 856 0
-857 136 0
-857 78 0
-136 -78 857 0
-858 154 0
-858 80 0
-154 -80 858 0
-226 -852 0
-226 -853 0
-226 -854 0
-226 -855 0
-226 -856 0
-226 -857 0
-226 -858 0
-64 226 852 853 854 855 856 857 858 0
-244 82 0
-859 28 0
-859 84 0
-28 -84 859 0
-860 46 0
-860 86 0
-46 -86 860 0
-861 64 0
-861 88 0
-64 -88 861 0
-862 100 0
-862 92 0
-100 -92 862 0
-863 118 0
-863 94 0
-118 -94 863 0
-864 136 0
-864 96 0
-136 -96 864 0
-865 154 0
-865 98 0
-154 -98 865 0
-244 -859 0
-244 -860 0
-244 -861 0
-244 -862 0
-244 -863 0
-244 -864 0
-244 -865 0
-82 244 859 860 861 862 863 864 865 0
-262 100 0
-866 28 0
-866 102 0
-28 -102 866 0
-867 46 0
-867 104 0
-46 -104 867 0
-868 64 0
-868 106 0
-64 -106 868 0
-869 82 0
-869 108 0
-82 -108 869 0
-870 118 0
-870 112 0
-118 -112 870 0
-871 136 0
-871 114 0
-136 -114 871 0
-872 154 0
-872 116 0
-154 -116 872 0
-262 -866 0
-262 -867 0
-262 -868 0
-262 -869 0
-262 -870 0
-262 -871 0
-262 -872 0
-100 262 866 867 868 869 870 871 872 0
-280 118 0
-873 28 0
-873 120 0
-28 -120 873 0
-874 46 0
-874 122 0
-46 -122 874 0
-875 64 0
-875 124 0
-64 -124 875 0
-876 82 0
-876 126 0
-82 -126 876 0
-877 100 0
-877 128 0
-100 -128 877 0
-878 136 0
-878 132 0
-136 -132 878 0
-879 154 0
-879 134 0
-154 -134 879 0
-280 -873 0
-280 -874 0
-280 -875 0
-280 -876 0
-280 -877 0
-280 -878 0
-280 -879 0
-118 280 873 874 875 876 877 878 879 0
-298 136 0
-880 28 0
-880 138 0
-28 -138 880 0
-881 46 0
-881 140 0
-46 -140 881 0
-882 64 0
-882 142 0
-64 -142 882 0
-883 82 0
-883 144 0
-82 -144 883 0
-884 100 0
-884 146 0
-100 -146 884 0
-885 118 0
-885 148 0
-118 -148 885 0
-886 154 0
-886 152 0
-154 -152 886 0
-298 -880 0
-298 -881 0
-298 -882 0
-298 -883 0
-298 -884 0
-298 -885 0
-298 -886 0
-136 298 880 881 882 883 884 885 886 0
-316 154 0
-887 28 0
-887 156 0
-28 -156 887 0
-888 46 0
-888 158 0
-46 -158 888 0
-889 64 0
-889 160 0
-64 -160 889 0
-890 82 0
-890 162 0
-82 -162 890 0
-891 100 0
-891 164 0
-100 -164 891 0
-892 118 0
-892 166 0
-118 -166 892 0
-893 136 0
-893 168 0
-136 -168 893 0
-316 -887 0
-316 -888 0
-316 -889 0
-316 -890 0
-316 -891 0
-316 -892 0
-316 -893 0
-154 316 887 888 889 890 891 892 893 0
-174 4 0
-894 48 0
-894 7 0
-48 -7 894 0
-895 66 0
-895 10 0
-66 -10 895 0
-896 84 0
-896 13 0
-84 -13 896 0
-897 102 0
-897 16 0
-102 -16 897 0
-898 120 0
-898 19 0
-120 -19 898 0
-899 138 0
-899 22 0
-138 -22 899 0
-900 156 0
-900 25 0
-156 -25 900 0
-174 -894 0
-174 -895 0
-174 -896 0
-174 -897 0
-174 -898 0
-174 -899 0
-174 -900 0
-4 174 894 895 896 897 898 899 900 0
-192 0
-210 48 0
-901 4 0
-901 46 0
-4 -46 901 0
-902 66 0
-902 52 0
-66 -52 902 0
-903 84 0
-903 54 0
-84 -54 903 0
-904 102 0
-904 56 0
-102 -56 904 0
-905 120 0
-905 58 0
-120 -58 905 0
-906 138 0
-906 60 0
-138 -60 906 0
-907 156 0
-907 62 0
-156 -62 907 0
-210 -901 0
-210 -902 0
-210 -903 0
-210 -904 0
-210 -905 0
-210 -906 0
-210 -907 0
-48 210 901 902 903 904 905 906 907 0
-228 66 0
-908 4 0
-908 64 0
-4 -64 908 0
-909 48 0
-909 68 0
-48 -68 909 0
-910 84 0
-910 72 0
-84 -72 910 0
-911 102 0
-911 74 0
-102 -74 911 0
-912 120 0
-912 76 0
-120 -76 912 0
-913 138 0
-913 78 0
-138 -78 913 0
-914 156 0
-914 80 0
-156 -80 914 0
-228 -908 0
-228 -909 0
-228 -910 0
-228 -911 0
-228 -912 0
-228 -913 0
-228 -914 0
-66 228 908 909 910 911 912 913 914 0
-246 84 0
-915 4 0
-915 82 0
-4 -82 915 0
-916 48 0
-916 86 0
-48 -86 916 0
-917 66 0
-917 88 0
-66 -88 917 0
-918 102 0
-918 92 0
-102 -92 918 0
-919 120 0
-919 94 0
-120 -94 919 0
-920 138 0
-920 96 0
-138 -96 920 0
-921 156 0
-921 98 0
-156 -98 921 0
-246 -915 0
-246 -916 0
-246 -917 0
-246 -918 0
-246 -919 0
-246 -920 0
-246 -921 0
-84 246 915 916 917 918 919 920 921 0
-264 102 0
-922 4 0
-922 100 0
-4 -100 922 0
-923 48 0
-923 104 0
-48 -104 923 0
-924 66 0
-924 106 0
-66 -106 924 0
-925 84 0
-925 108 0
-84 -108 925 0
-926 120 0
-926 112 0
-120 -112 926 0
-927 138 0
-927 114 0
-138 -114 927 0
-928 156 0
-928 116 0
-156 -116 928 0
-264 -922 0
-264 -923 0
-264 -924 0
-264 -925 0
-264 -926 0
-264 -927 0
-264 -928 0
-102 264 922 923 924 925 926 927 928 0
-282 120 0
-929 4 0
-929 118 0
-4 -118 929 0
-930 48 0
-930 122 0
-48 -122 930 0
-931 66 0
-931 124 0
-66 -124 931 0
-932 84 0
-932 126 0
-84 -126 932 0
-933 102 0
-933 128 0
-102 -128 933 0
-934 138 0
-934 132 0
-138 -132 934 0
-935 156 0
-935 134 0
-156 -134 935 0
-282 -929 0
-282 -930 0
-282 -931 0
-282 -932 0
-282 -933 0
-282 -934 0
-282 -935 0
-120 282 929 930 931 932 933 934 935 0
-300 138 0
-936 4 0
-936 136 0
-4 -136 936 0
-937 48 0
-937 140 0
-48 -140 937 0
-938 66 0
-938 142 0
-66 -142 938 0
-939 84 0
-939 144 0
-84 -144 939 0
-940 102 0
-940 146 0
-102 -146 940 0
-941 120 0
-941 148 0
-120 -148 941 0
-942 156 0
-942 152 0
-156 -152 942 0
-300 -936 0
-300 -937 0
-300 -938 0
-300 -939 0
-300 -940 0
-300 -941 0
-300 -942 0
-138 300 936 937 938 939 940 941 942 0
-318 156 0
-943 4 0
-943 154 0
-4 -154 943 0
-944 48 0
-944 158 0
-48 -158 944 0
-945 66 0
-945 160 0
-66 -160 945 0
-946 84 0
-946 162 0
-84 -162 946 0
-947 102 0
-947 164 0
-102 -164 947 0
-948 120 0
-948 166 0
-120 -166 948 0
-949 138 0
-949 168 0
-138 -168 949 0
-318 -943 0
-318 -944 0
-318 -945 0
-318 -946 0
-318 -947 0
-318 -948 0
-318 -949 0
-156 318 943 944 945 946 947 948 949 0
-176 7 0
-950 32 0
-950 4 0
-32 -4 950 0
-951 68 0
-951 10 0
-68 -10 951 0
-952 86 0
-952 13 0
-86 -13 952 0
-953 104 0
-953 16 0
-104 -16 953 0
-954 122 0
-954 19 0
-122 -19 954 0
-955 140 0
-955 22 0
-140 -22 955 0
-956 158 0
-956 25 0
-158 -25 956 0
-176 -950 0
-176 -951 0
-176 -952 0
-176 -953 0
-176 -954 0
-176 -955 0
-176 -956 0
-7 176 950 951 952 953 954 955 956 0
-194 32 0
-957 7 0
-957 28 0
-7 -28 957 0
-958 68 0
-958 34 0
-68 -34 958 0
-959 86 0
-959 36 0
-86 -36 959 0
-960 104 0
-960 38 0
-104 -38 960 0
-961 122 0
-961 40 0
-122 -40 961 0
-962 140 0
-962 42 0
-140 -42 962 0
-963 158 0
-963 44 0
-158 -44 963 0
-194 -957 0
-194 -958 0
-194 -959 0
-194 -960 0
-194 -961 0
-194 -962 0
-194 -963 0
-32 194 957 958 959 960 961 962 963 0
-212 0
-230 68 0
-964 7 0
-964 64 0
-7 -64 964 0
-965 32 0
-965 66 0
-32 -66 965 0
-966 86 0
-966 72 0
-86 -72 966 0
-967 104 0
-967 74 0
-104 -74 967 0
-968 122 0
-968 76 0
-122 -76 968 0
-969 140 0
-969 78 0
-140 -78 969 0
-970 158 0
-970 80 0
-158 -80 970 0
-230 -964 0
-230 -965 0
-230 -966 0
-230 -967 0
-230 -968 0
-230 -969 0
-230 -970 0
-68 230 964 965 966 967 968 969 970 0
-248 86 0
-971 7 0
-971 82 0
-7 -82 971 0
-972 32 0
-972 84 0
-32 -84 972 0
-973 68 0
-973 88 0
-68 -88 973 0
-974 104 0
-974 92 0
-104 -92 974 0
-975 122 0
-975 94 0
-122 -94 975 0
-976 140 0
-976 96 0
-140 -96 976 0
-977 158 0
-977 98 0
-158 -98 977 0
-248 -971 0
-248 -972 0
-248 -973 0
-248 -974 0
-248 -975 0
-248 -976 0
-248 -977 0
-86 248 971 972 973 974 975 976 977 0
-266 104 0
-978 7 0
-978 100 0
-7 -100 978 0
-979 32 0
-979 102 0
-32 -102 979 0
-980 68 0
-980 106 0
-68 -106 980 0
-981 86 0
-981 108 0
-86 -108 981 0
-982 122 0
-982 112 0
-122 -112 982 0
-983 140 0
-983 114 0
-140 -114 983 0
-984 158 0
-984 116 0
-158 -116 984 0
-266 -978 0
-266 -979 0
-266 -980 0
-266 -981 0
-266 -982 0
-266 -983 0
-266 -984 0
-104 266 978 979 980 981 982 983 984 0
-284 122 0
-985 7 0
-985 118 0
-7 -118 985 0
-986 32 0
-986 120 0
-32 -120 986 0
-987 68 0
-987 124 0
-68 -124 987 0
-988 86 0
-988 126 0
-86 -126 988 0
-989 104 0
-989 128 0
-104 -128 989 0
-990 140 0
-990 132 0
-140 -132 990 0
-991 158 0
-991 134 0
-158 -134 991 0
-284 -985 0
-284 -986 0
-284 -987 0
-284 -988 0
-284 -989 0
-284 -990 0
-284 -991 0
-122 284 985 986 987 988 989 990 991 0
-302 140 0
-992 7 0
-992 136 0
-7 -136 992 0
-993 32 0
-993 138 0
-32 -138 993 0
-994 68 0
-994 142 0
-68 -142 994 0
-995 86 0
-995 144 0
-86 -144 995 0
-996 104 0
-996 146 0
-104 -146 996 0
-997 122 0
-997 148 0
-122 -148 997 0
-998 158 0
-998 152 0
-158 -152 998 0
-302 -992 0
-302 -993 0
-302 -994 0
-302 -995 0
-302 -996 0
-302 -997 0
-302 -998 0
-140 302 992 993 994 995 996 997 998 0
-320 158 0
-999 7 0
-999 154 0
-7 -154 999 0
-1000 32 0
-1000 156 0
-32 -156 1000 0
-1001 68 0
-1001 160 0
-68 -160 1001 0
-1002 86 0
-1002 162 0
-86 -162 1002 0
-1003 104 0
-1003 164 0
-104 -164 1003 0
-1004 122 0
-1004 166 0
-122 -166 1004 0
-1005 140 0
-1005 168 0
-140 -168 1005 0
-320 -999 0
-320 -1000 0
-320 -1001 0
-320 -1002 0
-320 -1003 0
-320 -1004 0
-320 -1005 0
-158 320 999 1000 1001 1002 1003 1004 1005 0
-178 10 0
-1006 34 0
-1006 4 0
-34 -4 1006 0
-1007 52 0
-1007 7 0
-52 -7 1007 0
-1008 88 0
-1008 13 0
-88 -13 1008 0
-1009 106 0
-1009 16 0
-106 -16 1009 0
-1010 124 0
-1010 19 0
-124 -19 1010 0
-1011 142 0
-1011 22 0
-142 -22 1011 0
-1012 160 0
-1012 25 0
-160 -25 1012 0
-178 -1006 0
-178 -1007 0
-178 -1008 0
-178 -1009 0
-178 -1010 0
-178 -1011 0
-178 -1012 0
-10 178 1006 1007 1008 1009 1010 1011 1012 0
-196 34 0
-1013 10 0
-1013 28 0
-10 -28 1013 0
-1014 52 0
-1014 32 0
-52 -32 1014 0
-1015 88 0
-1015 36 0
-88 -36 1015 0
-1016 106 0
-1016 38 0
-106 -38 1016 0
-1017 124 0
-1017 40 0
-124 -40 1017 0
-1018 142 0
-1018 42 0
-142 -42 1018 0
-1019 160 0
-1019 44 0
-160 -44 1019 0
-196 -1013 0
-196 -1014 0
-196 -1015 0
-196 -1016 0
-196 -1017 0
-196 -1018 0
-196 -1019 0
-34 196 1013 1014 1015 1016 1017 1018 1019 0
-214 52 0
-1020 10 0
-1020 46 0
-10 -46 1020 0
-1021 34 0
-1021 48 0
-34 -48 1021 0
-1022 88 0
-1022 54 0
-88 -54 1022 0
-1023 106 0
-1023 56 0
-106 -56 1023 0
-1024 124 0
-1024 58 0
-124 -58 1024 0
-1025 142 0
-1025 60 0
-142 -60 1025 0
-1026 160 0
-1026 62 0
-160 -62 1026 0
-214 -1020 0
-214 -1021 0
-214 -1022 0
-214 -1023 0
-214 -1024 0
-214 -1025 0
-214 -1026 0
-52 214 1020 1021 1022 1023 1024 1025 1026 0
-232 0
-250 88 0
-1027 10 0
-1027 82 0
-10 -82 1027 0
-1028 34 0
-1028 84 0
-34 -84 1028 0
-1029 52 0
-1029 86 0
-52 -86 1029 0
-1030 106 0
-1030 92 0
-106 -92 1030 0
-1031 124 0
-1031 94 0
-124 -94 1031 0
-1032 142 0
-1032 96 0
-142 -96 1032 0
-1033 160 0
-1033 98 0
-160 -98 1033 0
-250 -1027 0
-250 -1028 0
-250 -1029 0
-250 -1030 0
-250 -1031 0
-250 -1032 0
-250 -1033 0
-88 250 1027 1028 1029 1030 1031 1032 1033 0
-268 106 0
-1034 10 0
-1034 100 0
-10 -100 1034 0
-1035 34 0
-1035 102 0
-34 -102 1035 0
-1036 52 0
-1036 104 0
-52 -104 1036 0
-1037 88 0
-1037 108 0
-88 -108 1037 0
-1038 124 0
-1038 112 0
-124 -112 1038 0
-1039 142 0
-1039 114 0
-142 -114 1039 0
-1040 160 0
-1040 116 0
-160 -116 1040 0
-268 -1034 0
-268 -1035 0
-268 -1036 0
-268 -1037 0
-268 -1038 0
-268 -1039 0
-268 -1040 0
-106 268 1034 1035 1036 1037 1038 1039 1040 0
-286 124 0
-1041 10 0
-1041 118 0
-10 -118 1041 0
-1042 34 0
-1042 120 0
-34 -120 1042 0
-1043 52 0
-1043 122 0
-52 -122 1043 0
-1044 88 0
-1044 126 0
-88 -126 1044 0
-1045 106 0
-1045 128 0
-106 -128 1045 0
-1046 142 0
-1046 132 0
-142 -132 1046 0
-1047 160 0
-1047 134 0
-160 -134 1047 0
-286 -1041 0
-286 -1042 0
-286 -1043 0
-286 -1044 0
-286 -1045 0
-286 -1046 0
-286 -1047 0
-124 286 1041 1042 1043 1044 1045 1046 1047 0
-304 142 0
-1048 10 0
-1048 136 0
-10 -136 1048 0
-1049 34 0
-1049 138 0
-34 -138 1049 0
-1050 52 0
-1050 140 0
-52 -140 1050 0
-1051 88 0
-1051 144 0
-88 -144 1051 0
-1052 106 0
-1052 146 0
-106 -146 1052 0
-1053 124 0
-1053 148 0
-124 -148 1053 0
-1054 160 0
-1054 152 0
-160 -152 1054 0
-304 -1048 0
-304 -1049 0
-304 -1050 0
-304 -1051 0
-304 -1052 0
-304 -1053 0
-304 -1054 0
-142 304 1048 1049 1050 1051 1052 1053 1054 0
-322 160 0
-1055 10 0
-1055 154 0
-10 -154 1055 0
-1056 34 0
-1056 156 0
-34 -156 1056 0
-1057 52 0
-1057 158 0
-52 -158 1057 0
-1058 88 0
-1058 162 0
-88 -162 1058 0
-1059 106 0
-1059 164 0
-106 -164 1059 0
-1060 124 0
-1060 166 0
-124 -166 1060 0
-1061 142 0
-1061 168 0
-142 -168 1061 0
-322 -1055 0
-322 -1056 0
-322 -1057 0
-322 -1058 0
-322 -1059 0
-322 -1060 0
-322 -1061 0
-160 322 1055 1056 1057 1058 1059 1060 1061 0
-180 13 0
-1062 36 0
-1062 4 0
-36 -4 1062 0
-1063 54 0
-1063 7 0
-54 -7 1063 0
-1064 72 0
-1064 10 0
-72 -10 1064 0
-1065 108 0
-1065 16 0
-108 -16 1065 0
-1066 126 0
-1066 19 0
-126 -19 1066 0
-1067 144 0
-1067 22 0
-144 -22 1067 0
-1068 162 0
-1068 25 0
-162 -25 1068 0
-180 -1062 0
-180 -1063 0
-180 -1064 0
-180 -1065 0
-180 -1066 0
-180 -1067 0
-180 -1068 0
-13 180 1062 1063 1064 1065 1066 1067 1068 0
-198 36 0
-1069 13 0
-1069 28 0
-13 -28 1069 0
-1070 54 0
-1070 32 0
-54 -32 1070 0
-1071 72 0
-1071 34 0
-72 -34 1071 0
-1072 108 0
-1072 38 0
-108 -38 1072 0
-1073 126 0
-1073 40 0
-126 -40 1073 0
-1074 144 0
-1074 42 0
-144 -42 1074 0
-1075 162 0
-1075 44 0
-162 -44 1075 0
-198 -1069 0
-198 -1070 0
-198 -1071 0
-198 -1072 0
-198 -1073 0
-198 -1074 0
-198 -1075 0
-36 198 1069 1070 1071 1072 1073 1074 1075 0
-216 54 0
-1076 13 0
-1076 46 0
-13 -46 1076 0
-1077 36 0
-1077 48 0
-36 -48 1077 0
-1078 72 0
-1078 52 0
-72 -52 1078 0
-1079 108 0
-1079 56 0
-108 -56 1079 0
-1080 126 0
-1080 58 0
-126 -58 1080 0
-1081 144 0
-1081 60 0
-144 -60 1081 0
-1082 162 0
-1082 62 0
-162 -62 1082 0
-216 -1076 0
-216 -1077 0
-216 -1078 0
-216 -1079 0
-216 -1080 0
-216 -1081 0
-216 -1082 0
-54 216 1076 1077 1078 1079 1080 1081 1082 0
-234 72 0
-1083 13 0
-1083 64 0
-13 -64 1083 0
-1084 36 0
-1084 66 0
-36 -66 1084 0
-1085 54 0
-1085 68 0
-54 -68 1085 0
-1086 108 0
-1086 74 0
-108 -74 1086 0
-1087 126 0
-1087 76 0
-126 -76 1087 0
-1088 144 0
-1088 78 0
-144 -78 1088 0
-1089 162 0
-1089 80 0
-162 -80 1089 0
-234 -1083 0
-234 -1084 0
-234 -1085 0
-234 -1086 0
-234 -1087 0
-234 -1088 0
-234 -1089 0
-72 234 1083 1084 1085 1086 1087 1088 1089 0
-252 0
-270 108 0
-1090 13 0
-1090 100 0
-13 -100 1090 0
-1091 36 0
-1091 102 0
-36 -102 1091 0
-1092 54 0
-1092 104 0
-54 -104 1092 0
-1093 72 0
-1093 106 0
-72 -106 1093 0
-1094 126 0
-1094 112 0
-126 -112 1094 0
-1095 144 0
-1095 114 0
-144 -114 1095 0
-1096 162 0
-1096 116 0
-162 -116 1096 0
-270 -1090 0
-270 -1091 0
-270 -1092 0
-270 -1093 0
-270 -1094 0
-270 -1095 0
-270 -1096 0
-108 270 1090 1091 1092 1093 1094 1095 1096 0
-288 126 0
-1097 13 0
-1097 118 0
-13 -118 1097 0
-1098 36 0
-1098 120 0
-36 -120 1098 0
-1099 54 0
-1099 122 0
-54 -122 1099 0
-1100 72 0
-1100 124 0
-72 -124 1100 0
-1101 108 0
-1101 128 0
-108 -128 1101 0
-1102 144 0
-1102 132 0
-144 -132 1102 0
-1103 162 0
-1103 134 0
-162 -134 1103 0
-288 -1097 0
-288 -1098 0
-288 -1099 0
-288 -1100 0
-288 -1101 0
-288 -1102 0
-288 -1103 0
-126 288 1097 1098 1099 1100 1101 1102 1103 0
-306 144 0
-1104 13 0
-1104 136 0
-13 -136 1104 0
-1105 36 0
-1105 138 0
-36 -138 1105 0
-1106 54 0
-1106 140 0
-54 -140 1106 0
-1107 72 0
-1107 142 0
-72 -142 1107 0
-1108 108 0
-1108 146 0
-108 -146 1108 0
-1109 126 0
-1109 148 0
-126 -148 1109 0
-1110 162 0
-1110 152 0
-162 -152 1110 0
-306 -1104 0
-306 -1105 0
-306 -1106 0
-306 -1107 0
-306 -1108 0
-306 -1109 0
-306 -1110 0
-144 306 1104 1105 1106 1107 1108 1109 1110 0
-324 162 0
-1111 13 0
-1111 154 0
-13 -154 1111 0
-1112 36 0
-1112 156 0
-36 -156 1112 0
-1113 54 0
-1113 158 0
-54 -158 1113 0
-1114 72 0
-1114 160 0
-72 -160 1114 0
-1115 108 0
-1115 164 0
-108 -164 1115 0
-1116 126 0
-1116 166 0
-126 -166 1116 0
-1117 144 0
-1117 168 0
-144 -168 1117 0
-324 -1111 0
-324 -1112 0
-324 -1113 0
-324 -1114 0
-324 -1115 0
-324 -1116 0
-324 -1117 0
-162 324 1111 1112 1113 1114 1115 1116 1117 0
-182 16 0
-1118 38 0
-1118 4 0
-38 -4 1118 0
-1119 56 0
-1119 7 0
-56 -7 1119 0
-1120 74 0
-1120 10 0
-74 -10 1120 0
-1121 92 0
-1121 13 0
-92 -13 1121 0
-1122 128 0
-1122 19 0
-128 -19 1122 0
-1123 146 0
-1123 22 0
-146 -22 1123 0
-1124 164 0
-1124 25 0
-164 -25 1124 0
-182 -1118 0
-182 -1119 0
-182 -1120 0
-182 -1121 0
-182 -1122 0
-182 -1123 0
-182 -1124 0
-16 182 1118 1119 1120 1121 1122 1123 1124 0
-200 38 0
-1125 16 0
-1125 28 0
-16 -28 1125 0
-1126 56 0
-1126 32 0
-56 -32 1126 0
-1127 74 0
-1127 34 0
-74 -34 1127 0
-1128 92 0
-1128 36 0
-92 -36 1128 0
-1129 128 0
-1129 40 0
-128 -40 1129 0
-1130 146 0
-1130 42 0
-146 -42 1130 0
-1131 164 0
-1131 44 0
-164 -44 1131 0
-200 -1125 0
-200 -1126 0
-200 -1127 0
-200 -1128 0
-200 -1129 0
-200 -1130 0
-200 -1131 0
-38 200 1125 1126 1127 1128 1129 1130 1131 0
-218 56 0
-1132 16 0
-1132 46 0
-16 -46 1132 0
-1133 38 0
-1133 48 0
-38 -48 1133 0
-1134 74 0
-1134 52 0
-74 -52 1134 0
-1135 92 0
-1135 54 0
-92 -54 1135 0
-1136 128 0
-1136 58 0
-128 -58 1136 0
-1137 146 0
-1137 60 0
-146 -60 1137 0
-1138 164 0
-1138 62 0
-164 -62 1138 0
-218 -1132 0
-218 -1133 0
-218 -1134 0
-218 -1135 0
-218 -1136 0
-218 -1137 0
-218 -1138 0
-56 218 1132 1133 1134 1135 1136 1137 1138 0
-236 74 0
-1139 16 0
-1139 64 0
-16 -64 1139 0
-1140 38 0
-1140 66 0
-38 -66 1140 0
-1141 56 0
-1141 68 0
-56 -68 1141 0
-1142 92 0
-1142 72 0
-92 -72 1142 0
-1143 128 0
-1143 76 0
-128 -76 1143 0
-1144 146 0
-1144 78 0
-146 -78 1144 0
-1145 164 0
-1145 80 0
-164 -80 1145 0
-236 -1139 0
-236 -1140 0
-236 -1141 0
-236 -1142 0
-236 -1143 0
-236 -1144 0
-236 -1145 0
-74 236 1139 1140 1141 1142 1143 1144 1145 0
-254 92 0
-1146 16 0
-1146 82 0
-16 -82 1146 0
-1147 38 0
-1147 84 0
-38 -84 1147 0
-1148 56 0
-1148 86 0
-56 -86 1148 0
-1149 74 0
-1149 88 0
-74 -88 1149 0
-1150 128 0
-1150 94 0
-128 -94 1150 0
-1151 146 0
-1151 96 0
-146 -96 1151 0
-1152 164 0
-1152 98 0
-164 -98 1152 0
-254 -1146 0
-254 -1147 0
-254 -1148 0
-254 -1149 0
-254 -1150 0
-254 -1151 0
-254 -1152 0
-92 254 1146 1147 1148 1149 1150 1151 1152 0
-272 0
-290 128 0
-1153 16 0
-1153 118 0
-16 -118 1153 0
-1154 38 0
-1154 120 0
-38 -120 1154 0
-1155 56 0
-1155 122 0
-56 -122 1155 0
-1156 74 0
-1156 124 0
-74 -124 1156 0
-1157 92 0
-1157 126 0
-92 -126 1157 0
-1158 146 0
-1158 132 0
-146 -132 1158 0
-1159 164 0
-1159 134 0
-164 -134 1159 0
-290 -1153 0
-290 -1154 0
-290 -1155 0
-290 -1156 0
-290 -1157 0
-290 -1158 0
-290 -1159 0
-128 290 1153 1154 1155 1156 1157 1158 1159 0
-308 146 0
-1160 16 0
-1160 136 0
-16 -136 1160 0
-1161 38 0
-1161 138 0
-38 -138 1161 0
-1162 56 0
-1162 140 0
-56 -140 1162 0
-1163 74 0
-1163 142 0
-74 -142 1163 0
-1164 92 0
-1164 144 0
-92 -144 1164 0
-1165 128 0
-1165 148 0
-128 -148 1165 0
-1166 164 0
-1166 152 0
-164 -152 1166 0
-308 -1160 0
-308 -1161 0
-308 -1162 0
-308 -1163 0
-308 -1164 0
-308 -1165 0
-308 -1166 0
-146 308 1160 1161 1162 1163 1164 1165 1166 0
-326 164 0
-1167 16 0
-1167 154 0
-16 -154 1167 0
-1168 38 0
-1168 156 0
-38 -156 1168 0
-1169 56 0
-1169 158 0
-56 -158 1169 0
-1170 74 0
-1170 160 0
-74 -160 1170 0
-1171 92 0
-1171 162 0
-92 -162 1171 0
-1172 128 0
-1172 166 0
-128 -166 1172 0
-1173 146 0
-1173 168 0
-146 -168 1173 0
-326 -1167 0
-326 -1168 0
-326 -1169 0
-326 -1170 0
-326 -1171 0
-326 -1172 0
-326 -1173 0
-164 326 1167 1168 1169 1170 1171 1172 1173 0
-184 19 0
-1174 40 0
-1174 4 0
-40 -4 1174 0
-1175 58 0
-1175 7 0
-58 -7 1175 0
-1176 76 0
-1176 10 0
-76 -10 1176 0
-1177 94 0
-1177 13 0
-94 -13 1177 0
-1178 112 0
-1178 16 0
-112 -16 1178 0
-1179 148 0
-1179 22 0
-148 -22 1179 0
-1180 166 0
-1180 25 0
-166 -25 1180 0
-184 -1174 0
-184 -1175 0
-184 -1176 0
-184 -1177 0
-184 -1178 0
-184 -1179 0
-184 -1180 0
-19 184 1174 1175 1176 1177 1178 1179 1180 0
-202 40 0
-1181 19 0
-1181 28 0
-19 -28 1181 0
-1182 58 0
-1182 32 0
-58 -32 1182 0
-1183 76 0
-1183 34 0
-76 -34 1183 0
-1184 94 0
-1184 36 0
-94 -36 1184 0
-1185 112 0
-1185 38 0
-112 -38 1185 0
-1186 148 0
-1186 42 0
-148 -42 1186 0
-1187 166 0
-1187 44 0
-166 -44 1187 0
-202 -1181 0
-202 -1182 0
-202 -1183 0
-202 -1184 0
-202 -1185 0
-202 -1186 0
-202 -1187 0
-40 202 1181 1182 1183 1184 1185 1186 1187 0
-220 58 0
-1188 19 0
-1188 46 0
-19 -46 1188 0
-1189 40 0
-1189 48 0
-40 -48 1189 0
-1190 76 0
-1190 52 0
-76 -52 1190 0
-1191 94 0
-1191 54 0
-94 -54 1191 0
-1192 112 0
-1192 56 0
-112 -56 1192 0
-1193 148 0
-1193 60 0
-148 -60 1193 0
-1194 166 0
-1194 62 0
-166 -62 1194 0
-220 -1188 0
-220 -1189 0
-220 -1190 0
-220 -1191 0
-220 -1192 0
-220 -1193 0
-220 -1194 0
-58 220 1188 1189 1190 1191 1192 1193 1194 0
-238 76 0
-1195 19 0
-1195 64 0
-19 -64 1195 0
-1196 40 0
-1196 66 0
-40 -66 1196 0
-1197 58 0
-1197 68 0
-58 -68 1197 0
-1198 94 0
-1198 72 0
-94 -72 1198 0
-1199 112 0
-1199 74 0
-112 -74 1199 0
-1200 148 0
-1200 78 0
-148 -78 1200 0
-1201 166 0
-1201 80 0
-166 -80 1201 0
-238 -1195 0
-238 -1196 0
-238 -1197 0
-238 -1198 0
-238 -1199 0
-238 -1200 0
-238 -1201 0
-76 238 1195 1196 1197 1198 1199 1200 1201 0
-256 94 0
-1202 19 0
-1202 82 0
-19 -82 1202 0
-1203 40 0
-1203 84 0
-40 -84 1203 0
-1204 58 0
-1204 86 0
-58 -86 1204 0
-1205 76 0
-1205 88 0
-76 -88 1205 0
-1206 112 0
-1206 92 0
-112 -92 1206 0
-1207 148 0
-1207 96 0
-148 -96 1207 0
-1208 166 0
-1208 98 0
-166 -98 1208 0
-256 -1202 0
-256 -1203 0
-256 -1204 0
-256 -1205 0
-256 -1206 0
-256 -1207 0
-256 -1208 0
-94 256 1202 1203 1204 1205 1206 1207 1208 0
-274 112 0
-1209 19 0
-1209 100 0
-19 -100 1209 0
-1210 40 0
-1210 102 0
-40 -102 1210 0
-1211 58 0
-1211 104 0
-58 -104 1211 0
-1212 76 0
-1212 106 0
-76 -106 1212 0
-1213 94 0
-1213 108 0
-94 -108 1213 0
-1214 148 0
-1214 114 0
-148 -114 1214 0
-1215 166 0
-1215 116 0
-166 -116 1215 0
-274 -1209 0
-274 -1210 0
-274 -1211 0
-274 -1212 0
-274 -1213 0
-274 -1214 0
-274 -1215 0
-112 274 1209 1210 1211 1212 1213 1214 1215 0
-292 0
-310 148 0
-1216 19 0
-1216 136 0
-19 -136 1216 0
-1217 40 0
-1217 138 0
-40 -138 1217 0
-1218 58 0
-1218 140 0
-58 -140 1218 0
-1219 76 0
-1219 142 0
-76 -142 1219 0
-1220 94 0
-1220 144 0
-94 -144 1220 0
-1221 112 0
-1221 146 0
-112 -146 1221 0
-1222 166 0
-1222 152 0
-166 -152 1222 0
-310 -1216 0
-310 -1217 0
-310 -1218 0
-310 -1219 0
-310 -1220 0
-310 -1221 0
-310 -1222 0
-148 310 1216 1217 1218 1219 1220 1221 1222 0
-328 166 0
-1223 19 0
-1223 154 0
-19 -154 1223 0
-1224 40 0
-1224 156 0
-40 -156 1224 0
-1225 58 0
-1225 158 0
-58 -158 1225 0
-1226 76 0
-1226 160 0
-76 -160 1226 0
-1227 94 0
-1227 162 0
-94 -162 1227 0
-1228 112 0
-1228 164 0
-112 -164 1228 0
-1229 148 0
-1229 168 0
-148 -168 1229 0
-328 -1223 0
-328 -1224 0
-328 -1225 0
-328 -1226 0
-328 -1227 0
-328 -1228 0
-328 -1229 0
-166 328 1223 1224 1225 1226 1227 1228 1229 0
-186 22 0
-1230 42 0
-1230 4 0
-42 -4 1230 0
-1231 60 0
-1231 7 0
-60 -7 1231 0
-1232 78 0
-1232 10 0
-78 -10 1232 0
-1233 96 0
-1233 13 0
-96 -13 1233 0
-1234 114 0
-1234 16 0
-114 -16 1234 0
-1235 132 0
-1235 19 0
-132 -19 1235 0
-1236 168 0
-1236 25 0
-168 -25 1236 0
-186 -1230 0
-186 -1231 0
-186 -1232 0
-186 -1233 0
-186 -1234 0
-186 -1235 0
-186 -1236 0
-22 186 1230 1231 1232 1233 1234 1235 1236 0
-204 42 0
-1237 22 0
-1237 28 0
-22 -28 1237 0
-1238 60 0
-1238 32 0
-60 -32 1238 0
-1239 78 0
-1239 34 0
-78 -34 1239 0
-1240 96 0
-1240 36 0
-96 -36 1240 0
-1241 114 0
-1241 38 0
-114 -38 1241 0
-1242 132 0
-1242 40 0
-132 -40 1242 0
-1243 168 0
-1243 44 0
-168 -44 1243 0
-204 -1237 0
-204 -1238 0
-204 -1239 0
-204 -1240 0
-204 -1241 0
-204 -1242 0
-204 -1243 0
-42 204 1237 1238 1239 1240 1241 1242 1243 0
-222 60 0
-1244 22 0
-1244 46 0
-22 -46 1244 0
-1245 42 0
-1245 48 0
-42 -48 1245 0
-1246 78 0
-1246 52 0
-78 -52 1246 0
-1247 96 0
-1247 54 0
-96 -54 1247 0
-1248 114 0
-1248 56 0
-114 -56 1248 0
-1249 132 0
-1249 58 0
-132 -58 1249 0
-1250 168 0
-1250 62 0
-168 -62 1250 0
-222 -1244 0
-222 -1245 0
-222 -1246 0
-222 -1247 0
-222 -1248 0
-222 -1249 0
-222 -1250 0
-60 222 1244 1245 1246 1247 1248 1249 1250 0
-240 78 0
-1251 22 0
-1251 64 0
-22 -64 1251 0
-1252 42 0
-1252 66 0
-42 -66 1252 0
-1253 60 0
-1253 68 0
-60 -68 1253 0
-1254 96 0
-1254 72 0
-96 -72 1254 0
-1255 114 0
-1255 74 0
-114 -74 1255 0
-1256 132 0
-1256 76 0
-132 -76 1256 0
-1257 168 0
-1257 80 0
-168 -80 1257 0
-240 -1251 0
-240 -1252 0
-240 -1253 0
-240 -1254 0
-240 -1255 0
-240 -1256 0
-240 -1257 0
-78 240 1251 1252 1253 1254 1255 1256 1257 0
-258 96 0
-1258 22 0
-1258 82 0
-22 -82 1258 0
-1259 42 0
-1259 84 0
-42 -84 1259 0
-1260 60 0
-1260 86 0
-60 -86 1260 0
-1261 78 0
-1261 88 0
-78 -88 1261 0
-1262 114 0
-1262 92 0
-114 -92 1262 0
-1263 132 0
-1263 94 0
-132 -94 1263 0
-1264 168 0
-1264 98 0
-168 -98 1264 0
-258 -1258 0
-258 -1259 0
-258 -1260 0
-258 -1261 0
-258 -1262 0
-258 -1263 0
-258 -1264 0
-96 258 1258 1259 1260 1261 1262 1263 1264 0
-276 114 0
-1265 22 0
-1265 100 0
-22 -100 1265 0
-1266 42 0
-1266 102 0
-42 -102 1266 0
-1267 60 0
-1267 104 0
-60 -104 1267 0
-1268 78 0
-1268 106 0
-78 -106 1268 0
-1269 96 0
-1269 108 0
-96 -108 1269 0
-1270 132 0
-1270 112 0
-132 -112 1270 0
-1271 168 0
-1271 116 0
-168 -116 1271 0
-276 -1265 0
-276 -1266 0
-276 -1267 0
-276 -1268 0
-276 -1269 0
-276 -1270 0
-276 -1271 0
-114 276 1265 1266 1267 1268 1269 1270 1271 0
-294 132 0
-1272 22 0
-1272 118 0
-22 -118 1272 0
-1273 42 0
-1273 120 0
-42 -120 1273 0
-1274 60 0
-1274 122 0
-60 -122 1274 0
-1275 78 0
-1275 124 0
-78 -124 1275 0
-1276 96 0
-1276 126 0
-96 -126 1276 0
-1277 114 0
-1277 128 0
-114 -128 1277 0
-1278 168 0
-1278 134 0
-168 -134 1278 0
-294 -1272 0
-294 -1273 0
-294 -1274 0
-294 -1275 0
-294 -1276 0
-294 -1277 0
-294 -1278 0
-132 294 1272 1273 1274 1275 1276 1277 1278 0
-312 0
-330 168 0
-1279 22 0
-1279 154 0
-22 -154 1279 0
-1280 42 0
-1280 156 0
-42 -156 1280 0
-1281 60 0
-1281 158 0
-60 -158 1281 0
-1282 78 0
-1282 160 0
-78 -160 1282 0
-1283 96 0
-1283 162 0
-96 -162 1283 0
-1284 114 0
-1284 164 0
-114 -164 1284 0
-1285 132 0
-1285 166 0
-132 -166 1285 0
-330 -1279 0
-330 -1280 0
-330 -1281 0
-330 -1282 0
-330 -1283 0
-330 -1284 0
-330 -1285 0
-168 330 1279 1280 1281 1282 1283 1284 1285 0
-188 25 0
-1286 44 0
-1286 4 0
-44 -4 1286 0
-1287 62 0
-1287 7 0
-62 -7 1287 0
-1288 80 0
-1288 10 0
-80 -10 1288 0
-1289 98 0
-1289 13 0
-98 -13 1289 0
-1290 116 0
-1290 16 0
-116 -16 1290 0
-1291 134 0
-1291 19 0
-134 -19 1291 0
-1292 152 0
-1292 22 0
-152 -22 1292 0
-188 -1286 0
-188 -1287 0
-188 -1288 0
-188 -1289 0
-188 -1290 0
-188 -1291 0
-188 -1292 0
-25 188 1286 1287 1288 1289 1290 1291 1292 0
-206 44 0
-1293 25 0
-1293 28 0
-25 -28 1293 0
-1294 62 0
-1294 32 0
-62 -32 1294 0
-1295 80 0
-1295 34 0
-80 -34 1295 0
-1296 98 0
-1296 36 0
-98 -36 1296 0
-1297 116 0
-1297 38 0
-116 -38 1297 0
-1298 134 0
-1298 40 0
-134 -40 1298 0
-1299 152 0
-1299 42 0
-152 -42 1299 0
-206 -1293 0
-206 -1294 0
-206 -1295 0
-206 -1296 0
-206 -1297 0
-206 -1298 0
-206 -1299 0
-44 206 1293 1294 1295 1296 1297 1298 1299 0
-224 62 0
-1300 25 0
-1300 46 0
-25 -46 1300 0
-1301 44 0
-1301 48 0
-44 -48 1301 0
-1302 80 0
-1302 52 0
-80 -52 1302 0
-1303 98 0
-1303 54 0
-98 -54 1303 0
-1304 116 0
-1304 56 0
-116 -56 1304 0
-1305 134 0
-1305 58 0
-134 -58 1305 0
-1306 152 0
-1306 60 0
-152 -60 1306 0
-224 -1300 0
-224 -1301 0
-224 -1302 0
-224 -1303 0
-224 -1304 0
-224 -1305 0
-224 -1306 0
-62 224 1300 1301 1302 1303 1304 1305 1306 0
-242 80 0
-1307 25 0
-1307 64 0
-25 -64 1307 0
-1308 44 0
-1308 66 0
-44 -66 1308 0
-1309 62 0
-1309 68 0
-62 -68 1309 0
-1310 98 0
-1310 72 0
-98 -72 1310 0
-1311 116 0
-1311 74 0
-116 -74 1311 0
-1312 134 0
-1312 76 0
-134 -76 1312 0
-1313 152 0
-1313 78 0
-152 -78 1313 0
-242 -1307 0
-242 -1308 0
-242 -1309 0
-242 -1310 0
-242 -1311 0
-242 -1312 0
-242 -1313 0
-80 242 1307 1308 1309 1310 1311 1312 1313 0
-260 98 0
-1314 25 0
-1314 82 0
-25 -82 1314 0
-1315 44 0
-1315 84 0
-44 -84 1315 0
-1316 62 0
-1316 86 0
-62 -86 1316 0
-1317 80 0
-1317 88 0
-80 -88 1317 0
-1318 116 0
-1318 92 0
-116 -92 1318 0
-1319 134 0
-1319 94 0
-134 -94 1319 0
-1320 152 0
-1320 96 0
-152 -96 1320 0
-260 -1314 0
-260 -1315 0
-260 -1316 0
-260 -1317 0
-260 -1318 0
-260 -1319 0
-260 -1320 0
-98 260 1314 1315 1316 1317 1318 1319 1320 0
-278 116 0
-1321 25 0
-1321 100 0
-25 -100 1321 0
-1322 44 0
-1322 102 0
-44 -102 1322 0
-1323 62 0
-1323 104 0
-62 -104 1323 0
-1324 80 0
-1324 106 0
-80 -106 1324 0
-1325 98 0
-1325 108 0
-98 -108 1325 0
-1326 134 0
-1326 112 0
-134 -112 1326 0
-1327 152 0
-1327 114 0
-152 -114 1327 0
-278 -1321 0
-278 -1322 0
-278 -1323 0
-278 -1324 0
-278 -1325 0
-278 -1326 0
-278 -1327 0
-116 278 1321 1322 1323 1324 1325 1326 1327 0
-296 134 0
-1328 25 0
-1328 118 0
-25 -118 1328 0
-1329 44 0
-1329 120 0
-44 -120 1329 0
-1330 62 0
-1330 122 0
-62 -122 1330 0
-1331 80 0
-1331 124 0
-80 -124 1331 0
-1332 98 0
-1332 126 0
-98 -126 1332 0
-1333 116 0
-1333 128 0
-116 -128 1333 0
-1334 152 0
-1334 132 0
-152 -132 1334 0
-296 -1328 0
-296 -1329 0
-296 -1330 0
-296 -1331 0
-296 -1332 0
-296 -1333 0
-296 -1334 0
-134 296 1328 1329 1330 1331 1332 1333 1334 0
-314 152 0
-1335 25 0
-1335 136 0
-25 -136 1335 0
-1336 44 0
-1336 138 0
-44 -138 1336 0
-1337 62 0
-1337 140 0
-62 -140 1337 0
-1338 80 0
-1338 142 0
-80 -142 1338 0
-1339 98 0
-1339 144 0
-98 -144 1339 0
-1340 116 0
-1340 146 0
-116 -146 1340 0
-1341 134 0
-1341 148 0
-134 -148 1341 0
-314 -1335 0
-314 -1336 0
-314 -1337 0
-314 -1338 0
-314 -1339 0
-314 -1340 0
-314 -1341 0
-152 314 1335 1336 1337 1338 1339 1340 1341 0
-332 0
