p cnf 1204 4396
c ind 1 2 3 4 5 6 7 8 9 10 11 12 13 14 15 16 17 18 19 20 21 22 23 24 25 26 27 28 29 30 31 32 33 34 35 36 37 38 39 40 41 42 43 44 45 46 47 48 49 50 0
c ind 51 52 53 54 55 56 57 58 59 60 61 62 63 64 65 66 67 68 69 70 71 72 73 74 75 76 77 78 79 80 81 82 83 84 85 86 87 88 89 90 91 92 93 94 95 96 97 98 99 100 0
c ind 101 102 103 104 105 106 107 108 109 110 111 112 113 114 115 116 117 118 119 120 121 122 123 124 125 126 127 128 129 130 131 132 133 134 135 136 137 138 139 140 141 142 143 144 145 146 147 148 149 150 0
c ind 151 152 153 154 155 156 157 158 159 160 161 162 163 164 165 166 167 168 169 170 171 172 173 174 175 176 177 178 179 180 181 182 183 184 185 186 187 188 189 190 191 192 193 194 195 196 197 198 199 200 0
c ind 201 202 203 204 205 206 207 208 209 210 211 212 213 214 215 216 217 218 219 220 221 222 223 224 225 226 227 228 229 230 231 232 233 234 235 236 237 238 239 240 241 242 243 244 245 246 247 248 249 250 0
c ind 251 252 253 254 255 256 257 258 259 260 261 262 263 264 265 266 267 268 269 270 271 272 273 274 275 276 277 278 279 280 281 282 283 284 285 286 287 288 289 290 291 292 293 294 295 296 297 298 299 300 0
c ind 301 302 303 304 305 306 307 308 309 310 311 312 313 314 315 316 317 318 319 320 321 322 323 324 325 326 327 328 329 330 331 332 333 334 335 336 337 338 339 340 341 342 343 344 345 346 347 348 349 350 0
c ind 351 352 353 354 355 356 357 358 359 360 361 362 363 364 365 366 367 368 369 370 371 372 373 374 375 376 377 378 379 380 381 382 383 384 385 386 387 388 389 390 391 392 393 394 395 396 397 398 399 400 0
c ind 401 402 403 404 405 406 407 408 409 410 411 412 413 414 415 416 417 418 419 420 421 422 423 424 425 426 427 428 429 430 431 432 433 434 435 436 437 438 439 440 441 442 443 444 445 446 447 448 449 450 0
c ind 451 452 453 454 455 456 457 458 459 460 461 462 463 464 465 466 467 468 469 470 471 472 473 474 475 476 477 478 479 480 481 482 483 484 485 486 487 488 489 490 491 492 493 494 495 496 497 498 499 500 0
c ind 501 502 503 504 505 506 507 508 509 510 511 512 513 514 515 516 517 518 519 520 521 522 523 524 525 526 527 528 529 530 531 532 533 534 535 536 537 538 539 540 541 542 543 544 545 546 547 548 549 550 0
c ind 551 552 553 554 555 556 557 558 559 560 561 562 563 564 565 566 567 568 569 570 571 572 573 574 575 576 577 578 579 580 581 582 583 584 585 586 587 588 589 590 591 592 593 594 595 596 597 598 599 600 0
c ind 601 602 603 604 605 606 607 608 609 610 611 612 613 614 615 616 617 618 619 620 621 622 623 624 625 626 627 628 629 630 631 632 633 634 635 636 637 638 639 640 641 642 643 644 645 646 647 648 649 650 0
c ind 651 652 653 654 655 656 657 658 659 660 661 662 663 664 665 666 667 668 669 670 671 672 673 674 675 676 677 678 679 680 681 682 683 684 685 686 687 688 689 690 691 692 693 694 695 696 697 698 699 700 0
c ind 701 702 703 704 705 706 707 708 709 710 711 712 713 714 715 716 717 718 719 720 721 722 723 724 725 726 727 728 729 730 731 732 733 734 735 736 737 738 739 740 741 742 743 744 745 746 747 748 749 750 0
c ind 751 752 753 754 755 756 757 758 759 760 761 762 763 764 765 766 767 768 769 770 771 772 773 774 775 776 777 778 779 780 781 782 783 784 785 786 787 788 789 790 791 792 793 794 795 796 797 798 799 800 0
c ind 801 802 803 804 805 806 807 808 809 810 811 812 813 814 815 816 817 818 819 820 821 822 823 824 825 826 827 828 829 830 831 832 833 834 835 836 837 838 839 840 841 842 843 844 845 846 847 848 849 850 0
c ind 851 852 853 854 855 856 869 870 871 872 873 874 875 876 877 878 879 880 881 882 883 884 885 886 887 888 889 890 891 892 893 894 895 896 897 898 899 900 901 902 903 904 905 906 907 908 909 910 911 912 0
c ind 913 914 915 916 917 918 919 920 921 922 923 924 925 926 927 928 929 930 931 932 933 934 935 936 937 938 939 940 941 942 943 944 945 946 947 948 949 950 951 952 953 954 955 956 957 958 959 960 961 962 0
c ind 963 964 965 966 967 968 969 970 971 972 973 974 975 976 977 978 979 980 981 982 983 984 985 986 987 988 989 990 991 992 993 994 995 996 997 998 999 1000 1001 1002 1003 1004 1005 1006 1007 1008 1009 1010 1011 1012 0
c ind 1013 1014 1015 1016 1017 1018 1019 1020 1021 1022 1023 1024 1025 1026 1027 1028 1029 1030 1031 1032 1033 1034 1035 1036 1037 1038 1039 1040 1041 1042 1043 1044 1045 1046 1047 1048 1049 1050 1051 1052 1053 1054 1055 1056 1057 1058 1059 1060 1061 1062 0
c ind 1063 1064 1065 1066 1067 1068 1069 1070 1071 1072 1073 1074 1075 1076 1077 1078 1079 1080 1081 1082 1083 1084 1085 1086 1087 1088 1089 1090 1091 1092 1093 1094 1095 1096 1097 1098 1099 1100 1101 1102 1103 1104 1105 1106 1107 1108 1109 1110 1111 1112 0
c ind 1113 1114 1115 1116 1117 1118 1119 1120 1121 1122 1123 1124 1125 1126 1127 1128 1129 1130 1131 1132 1133 1134 1135 1136 1137 1138 1139 1140 1141 1142 1143 1144 1145 1146 1147 1148 1149 1150 1151 1152 1153 1154 1155 1156 1157 1158 1159 1160 1161 1162 0
c ind 1163 1164 1165 1166 1167 1168 1169 1170 1171 1172 1173 1174 1175 1176 1177 1178 1179 1180 1181 1182 1183 1184 1185 1186 1187 1188 1189 1190 1191 1192 1193 1194 1195 1196 1197 1198 1199 1200 1201 1202 1203 1204 0
1 2 3 4 5 6 7 8 0
9 10 11 12 13 14 15 16 0
17 18 19 20 21 22 23 24 0
25 26 27 28 29 30 31 32 0
33 34 35 36 37 38 39 40 0
41 42 43 44 45 46 47 48 0
49 50 51 52 53 54 55 56 0
57 58 59 60 61 62 63 64 0
65 66 -66 -67 0
68 66 -69 -70 0
71 66 -72 -73 0
74 66 -75 -76 0
77 66 -78 -79 0
80 66 -81 -82 0
83 66 -84 -85 0
86 66 -87 -88 0
89 69 -66 -90 0
91 69 -69 -92 0
93 69 -72 -94 0
95 69 -75 -96 0
97 69 -78 -98 0
99 69 -81 -100 0
101 69 -84 -102 0
103 69 -87 -104 0
105 72 -66 -106 0
107 72 -69 -108 0
109 72 -72 -110 0
111 72 -75 -112 0
113 72 -78 -114 0
115 72 -81 -116 0
117 72 -84 -118 0
119 72 -87 -120 0
121 75 -66 -122 0
123 75 -69 -124 0
125 75 -72 -126 0
127 75 -75 -128 0
129 75 -78 -130 0
131 75 -81 -132 0
133 75 -84 -134 0
135 75 -87 -136 0
137 78 -66 -138 0
139 78 -69 -140 0
141 78 -72 -142 0
143 78 -75 -144 0
145 78 -78 -146 0
147 78 -81 -148 0
149 78 -84 -150 0
151 78 -87 -152 0
153 81 -66 -154 0
155 81 -69 -156 0
157 81 -72 -158 0
159 81 -75 -160 0
161 81 -78 -162 0
163 81 -81 -164 0
165 81 -84 -166 0
167 81 -87 -168 0
169 84 -66 -170 0
171 84 -69 -172 0
173 84 -72 -174 0
175 84 -75 -176 0
177 84 -78 -178 0
179 84 -81 -180 0
181 84 -84 -182 0
183 84 -87 -184 0
185 87 -66 -186 0
187 87 -69 -188 0
189 87 -72 -190 0
191 87 -75 -192 0
193 87 -78 -194 0
195 87 -81 -196 0
197 87 -84 -198 0
199 87 -87 -200 0
67 -65 0
70 -68 0
73 -71 0
76 -74 0
79 -77 0
82 -80 0
85 -83 0
88 -86 0
90 -89 0
92 -91 0
94 -93 0
96 -95 0
98 -97 0
100 -99 0
102 -101 0
104 -103 0
106 -105 0
108 -107 0
110 -109 0
112 -111 0
114 -113 0
116 -115 0
118 -117 0
120 -119 0
122 -121 0
124 -123 0
126 -125 0
128 -127 0
130 -129 0
132 -131 0
134 -133 0
136 -135 0
138 -137 0
140 -139 0
142 -141 0
144 -143 0
146 -145 0
148 -147 0
150 -149 0
152 -151 0
154 -153 0
156 -155 0
158 -157 0
160 -159 0
162 -161 0
164 -163 0
166 -165 0
168 -167 0
170 -169 0
172 -171 0
174 -173 0
176 -175 0
178 -177 0
180 -179 0
182 -181 0
184 -183 0
186 -185 0
188 -187 0
190 -189 0
192 -191 0
194 -193 0
196 -195 0
198 -197 0
200 -199 0
67 -66 0
70 -66 0
73 -66 0
76 -66 0
79 -66 0
82 -66 0
85 -66 0
88 -66 0
90 -69 0
92 -69 0
94 -69 0
96 -69 0
98 -69 0
100 -69 0
102 -69 0
104 -69 0
106 -72 0
108 -72 0
110 -72 0
112 -72 0
114 -72 0
116 -72 0
118 -72 0
120 -72 0
122 -75 0
124 -75 0
126 -75 0
128 -75 0
130 -75 0
132 -75 0
134 -75 0
136 -75 0
138 -78 0
140 -78 0
142 -78 0
144 -78 0
146 -78 0
148 -78 0
150 -78 0
152 -78 0
154 -81 0
156 -81 0
158 -81 0
160 -81 0
162 -81 0
164 -81 0
166 -81 0
168 -81 0
170 -84 0
172 -84 0
174 -84 0
176 -84 0
178 -84 0
180 -84 0
182 -84 0
184 -84 0
186 -87 0
188 -87 0
190 -87 0
192 -87 0
194 -87 0
196 -87 0
198 -87 0
200 -87 0
67 66 0
70 69 0
73 72 0
76 75 0
79 78 0
82 81 0
85 84 0
88 87 0
90 66 0
92 69 0
94 72 0
96 75 0
98 78 0
100 81 0
102 84 0
104 87 0
106 66 0
108 69 0
110 72 0
112 75 0
114 78 0
116 81 0
118 84 0
120 87 0
122 66 0
124 69 0
126 72 0
128 75 0
130 78 0
132 81 0
134 84 0
136 87 0
138 66 0
140 69 0
142 72 0
144 75 0
146 78 0
148 81 0
150 84 0
152 87 0
154 66 0
156 69 0
158 72 0
160 75 0
162 78 0
164 81 0
166 84 0
168 87 0
170 66 0
172 69 0
174 72 0
176 75 0
178 78 0
180 81 0
182 84 0
184 87 0
186 66 0
188 69 0
190 72 0
192 75 0
194 78 0
196 81 0
198 84 0
200 87 0
-201 -66 -66 202 0
-203 -69 -66 204 0
-205 -72 -66 206 0
-207 -75 -66 208 0
-209 -78 -66 210 0
-211 -81 -66 212 0
-213 -84 -66 214 0
-215 -87 -66 216 0
-217 -66 -69 218 0
-219 -69 -69 220 0
-221 -72 -69 222 0
-223 -75 -69 224 0
-225 -78 -69 226 0
-227 -81 -69 228 0
-229 -84 -69 230 0
-231 -87 -69 232 0
-233 -66 -72 234 0
-235 -69 -72 236 0
-237 -72 -72 238 0
-239 -75 -72 240 0
-241 -78 -72 242 0
-243 -81 -72 244 0
-245 -84 -72 246 0
-247 -87 -72 248 0
-249 -66 -75 250 0
-251 -69 -75 252 0
-253 -72 -75 254 0
-255 -75 -75 256 0
-257 -78 -75 258 0
-259 -81 -75 260 0
-261 -84 -75 262 0
-263 -87 -75 264 0
-265 -66 -78 266 0
-267 -69 -78 268 0
-269 -72 -78 270 0
-271 -75 -78 272 0
-273 -78 -78 274 0
-275 -81 -78 276 0
-277 -84 -78 278 0
-279 -87 -78 280 0
-281 -66 -81 282 0
-283 -69 -81 284 0
-285 -72 -81 286 0
-287 -75 -81 288 0
-289 -78 -81 290 0
-291 -81 -81 292 0
-293 -84 -81 294 0
-295 -87 -81 296 0
-297 -66 -84 298 0
-299 -69 -84 300 0
-301 -72 -84 302 0
-303 -75 -84 304 0
-305 -78 -84 306 0
-307 -81 -84 308 0
-309 -84 -84 310 0
-311 -87 -84 312 0
-313 -66 -87 314 0
-315 -69 -87 316 0
-317 -72 -87 318 0
-319 -75 -87 320 0
-321 -78 -87 322 0
-323 -81 -87 324 0
-325 -84 -87 326 0
-327 -87 -87 328 0
-202 201 0
-204 203 0
-206 205 0
-208 207 0
-210 209 0
-212 211 0
-214 213 0
-216 215 0
-218 217 0
-220 219 0
-222 221 0
-224 223 0
-226 225 0
-228 227 0
-230 229 0
-232 231 0
-234 233 0
-236 235 0
-238 237 0
-240 239 0
-242 241 0
-244 243 0
-246 245 0
-248 247 0
-250 249 0
-252 251 0
-254 253 0
-256 255 0
-258 257 0
-260 259 0
-262 261 0
-264 263 0
-266 265 0
-268 267 0
-270 269 0
-272 271 0
-274 273 0
-276 275 0
-278 277 0
-280 279 0
-282 281 0
-284 283 0
-286 285 0
-288 287 0
-290 289 0
-292 291 0
-294 293 0
-296 295 0
-298 297 0
-300 299 0
-302 301 0
-304 303 0
-306 305 0
-308 307 0
-310 309 0
-312 311 0
-314 313 0
-316 315 0
-318 317 0
-320 319 0
-322 321 0
-324 323 0
-326 325 0
-328 327 0
-202 66 0
-204 69 0
-206 72 0
-208 75 0
-210 78 0
-212 81 0
-214 84 0
-216 87 0
-218 66 0
-220 69 0
-222 72 0
-224 75 0
-226 78 0
-228 81 0
-230 84 0
-232 87 0
-234 66 0
-236 69 0
-238 72 0
-240 75 0
-242 78 0
-244 81 0
-246 84 0
-248 87 0
-250 66 0
-252 69 0
-254 72 0
-256 75 0
-258 78 0
-260 81 0
-262 84 0
-264 87 0
-266 66 0
-268 69 0
-270 72 0
-272 75 0
-274 78 0
-276 81 0
-278 84 0
-280 87 0
-282 66 0
-284 69 0
-286 72 0
-288 75 0
-290 78 0
-292 81 0
-294 84 0
-296 87 0
-298 66 0
-300 69 0
-302 72 0
-304 75 0
-306 78 0
-308 81 0
-310 84 0
-312 87 0
-314 66 0
-316 69 0
-318 72 0
-320 75 0
-322 78 0
-324 81 0
-326 84 0
-328 87 0
-202 66 0
-204 66 0
-206 66 0
-208 66 0
-210 66 0
-212 66 0
-214 66 0
-216 66 0
-218 69 0
-220 69 0
-222 69 0
-224 69 0
-226 69 0
-228 69 0
-230 69 0
-232 69 0
-234 72 0
-236 72 0
-238 72 0
-240 72 0
-242 72 0
-244 72 0
-246 72 0
-248 72 0
-250 75 0
-252 75 0
-254 75 0
-256 75 0
-258 75 0
-260 75 0
-262 75 0
-264 75 0
-266 78 0
-268 78 0
-270 78 0
-272 78 0
-274 78 0
-276 78 0
-278 78 0
-280 78 0
-282 81 0
-284 81 0
-286 81 0
-288 81 0
-290 81 0
-292 81 0
-294 81 0
-296 81 0
-298 84 0
-300 84 0
-302 84 0
-304 84 0
-306 84 0
-308 84 0
-310 84 0
-312 84 0
-314 87 0
-316 87 0
-318 87 0
-320 87 0
-322 87 0
-324 87 0
-326 87 0
-328 87 0
-329 202 -330 0
-331 204 -332 0
-333 206 -334 0
-335 208 -336 0
-337 210 -338 0
-339 212 -340 0
-341 214 -342 0
-343 216 -344 0
-345 218 -346 0
-347 220 -348 0
-349 222 -350 0
-351 224 -352 0
-353 226 -354 0
-355 228 -356 0
-357 230 -358 0
-359 232 -360 0
-361 234 -362 0
-363 236 -364 0
-365 238 -366 0
-367 240 -368 0
-369 242 -370 0
-371 244 -372 0
-373 246 -374 0
-375 248 -376 0
-377 250 -378 0
-379 252 -380 0
-381 254 -382 0
-383 256 -384 0
-385 258 -386 0
-387 260 -388 0
-389 262 -390 0
-391 264 -392 0
-393 266 -394 0
-395 268 -396 0
-397 270 -398 0
-399 272 -400 0
-401 274 -402 0
-403 276 -404 0
-405 278 -406 0
-407 280 -408 0
-409 282 -410 0
-411 284 -412 0
-413 286 -414 0
-415 288 -416 0
-417 290 -418 0
-419 292 -420 0
-421 294 -422 0
-423 296 -424 0
-425 298 -426 0
-427 300 -428 0
-429 302 -430 0
-431 304 -432 0
-433 306 -434 0
-435 308 -436 0
-437 310 -438 0
-439 312 -440 0
-441 314 -442 0
-443 316 -444 0
-445 318 -446 0
-447 320 -448 0
-449 322 -450 0
-451 324 -452 0
-453 326 -454 0
-455 328 -456 0
330 329 0
332 331 0
334 333 0
336 335 0
338 337 0
340 339 0
342 341 0
344 343 0
346 345 0
348 347 0
350 349 0
352 351 0
354 353 0
356 355 0
358 357 0
360 359 0
362 361 0
364 363 0
366 365 0
368 367 0
370 369 0
372 371 0
374 373 0
376 375 0
378 377 0
380 379 0
382 381 0
384 383 0
386 385 0
388 387 0
390 389 0
392 391 0
394 393 0
396 395 0
398 397 0
400 399 0
402 401 0
404 403 0
406 405 0
408 407 0
410 409 0
412 411 0
414 413 0
416 415 0
418 417 0
420 419 0
422 421 0
424 423 0
426 425 0
428 427 0
430 429 0
432 431 0
434 433 0
436 435 0
438 437 0
440 439 0
442 441 0
444 443 0
446 445 0
448 447 0
450 449 0
452 451 0
454 453 0
456 455 0
330 -202 0
332 -204 0
334 -206 0
336 -208 0
338 -210 0
340 -212 0
342 -214 0
344 -216 0
346 -218 0
348 -220 0
350 -222 0
352 -224 0
354 -226 0
356 -228 0
358 -230 0
360 -232 0
362 -234 0
364 -236 0
366 -238 0
368 -240 0
370 -242 0
372 -244 0
374 -246 0
376 -248 0
378 -250 0
380 -252 0
382 -254 0
384 -256 0
386 -258 0
388 -260 0
390 -262 0
392 -264 0
394 -266 0
396 -268 0
398 -270 0
400 -272 0
402 -274 0
404 -276 0
406 -278 0
408 -280 0
410 -282 0
412 -284 0
414 -286 0
416 -288 0
418 -290 0
420 -292 0
422 -294 0
424 -296 0
426 -298 0
428 -300 0
430 -302 0
432 -304 0
434 -306 0
436 -308 0
438 -310 0
440 -312 0
442 -314 0
444 -316 0
446 -318 0
448 -320 0
450 -322 0
452 -324 0
454 -326 0
456 -328 0
329 -201 -66 -66 -457 0
331 -203 -69 -66 -458 0
333 -205 -72 -66 -459 0
335 -207 -75 -66 -460 0
337 -209 -78 -66 -461 0
339 -211 -81 -66 -462 0
341 -213 -84 -66 -463 0
343 -215 -87 -66 -464 0
345 -217 -66 -69 -465 0
347 -219 -69 -69 -466 0
349 -221 -72 -69 -467 0
351 -223 -75 -69 -468 0
353 -225 -78 -69 -469 0
355 -227 -81 -69 -470 0
357 -229 -84 -69 -471 0
359 -231 -87 -69 -472 0
361 -233 -66 -72 -473 0
363 -235 -69 -72 -474 0
365 -237 -72 -72 -475 0
367 -239 -75 -72 -476 0
369 -241 -78 -72 -477 0
371 -243 -81 -72 -478 0
373 -245 -84 -72 -479 0
375 -247 -87 -72 -480 0
377 -249 -66 -75 -481 0
379 -251 -69 -75 -482 0
381 -253 -72 -75 -483 0
383 -255 -75 -75 -484 0
385 -257 -78 -75 -485 0
387 -259 -81 -75 -486 0
389 -261 -84 -75 -487 0
391 -263 -87 -75 -488 0
393 -265 -66 -78 -489 0
395 -267 -69 -78 -490 0
397 -269 -72 -78 -491 0
399 -271 -75 -78 -492 0
401 -273 -78 -78 -493 0
403 -275 -81 -78 -494 0
405 -277 -84 -78 -495 0
407 -279 -87 -78 -496 0
409 -281 -66 -81 -497 0
411 -283 -69 -81 -498 0
413 -285 -72 -81 -499 0
415 -287 -75 -81 -500 0
417 -289 -78 -81 -501 0
419 -291 -81 -81 -502 0
421 -293 -84 -81 -503 0
423 -295 -87 -81 -504 0
425 -297 -66 -84 -505 0
427 -299 -69 -84 -506 0
429 -301 -72 -84 -507 0
431 -303 -75 -84 -508 0
433 -305 -78 -84 -509 0
435 -307 -81 -84 -510 0
437 -309 -84 -84 -511 0
439 -311 -87 -84 -512 0
441 -313 -66 -87 -513 0
443 -315 -69 -87 -514 0
445 -317 -72 -87 -515 0
447 -319 -75 -87 -516 0
449 -321 -78 -87 -517 0
451 -323 -81 -87 -518 0
453 -325 -84 -87 -519 0
455 -327 -87 -87 -520 0
457 -329 0
458 -331 0
459 -333 0
460 -335 0
461 -337 0
462 -339 0
463 -341 0
464 -343 0
465 -345 0
466 -347 0
467 -349 0
468 -351 0
469 -353 0
470 -355 0
471 -357 0
472 -359 0
473 -361 0
474 -363 0
475 -365 0
476 -367 0
477 -369 0
478 -371 0
479 -373 0
480 -375 0
481 -377 0
482 -379 0
483 -381 0
484 -383 0
485 -385 0
486 -387 0
487 -389 0
488 -391 0
489 -393 0
490 -395 0
491 -397 0
492 -399 0
493 -401 0
494 -403 0
495 -405 0
496 -407 0
497 -409 0
498 -411 0
499 -413 0
500 -415 0
501 -417 0
502 -419 0
503 -421 0
504 -423 0
505 -425 0
506 -427 0
507 -429 0
508 -431 0
509 -433 0
510 -435 0
511 -437 0
512 -439 0
513 -441 0
514 -443 0
515 -445 0
516 -447 0
517 -449 0
518 -451 0
519 -453 0
520 -455 0
457 201 0
458 203 0
459 205 0
460 207 0
461 209 0
462 211 0
463 213 0
464 215 0
465 217 0
466 219 0
467 221 0
468 223 0
469 225 0
470 227 0
471 229 0
472 231 0
473 233 0
474 235 0
475 237 0
476 239 0
477 241 0
478 243 0
479 245 0
480 247 0
481 249 0
482 251 0
483 253 0
484 255 0
485 257 0
486 259 0
487 261 0
488 263 0
489 265 0
490 267 0
491 269 0
492 271 0
493 273 0
494 275 0
495 277 0
496 279 0
497 281 0
498 283 0
499 285 0
500 287 0
501 289 0
502 291 0
503 293 0
504 295 0
505 297 0
506 299 0
507 301 0
508 303 0
509 305 0
510 307 0
511 309 0
512 311 0
513 313 0
514 315 0
515 317 0
516 319 0
517 321 0
518 323 0
519 325 0
520 327 0
457 66 0
458 69 0
459 72 0
460 75 0
461 78 0
462 81 0
463 84 0
464 87 0
465 66 0
466 69 0
467 72 0
468 75 0
469 78 0
470 81 0
471 84 0
472 87 0
473 66 0
474 69 0
475 72 0
476 75 0
477 78 0
478 81 0
479 84 0
480 87 0
481 66 0
482 69 0
483 72 0
484 75 0
485 78 0
486 81 0
487 84 0
488 87 0
489 66 0
490 69 0
491 72 0
492 75 0
493 78 0
494 81 0
495 84 0
496 87 0
497 66 0
498 69 0
499 72 0
500 75 0
501 78 0
502 81 0
503 84 0
504 87 0
505 66 0
506 69 0
507 72 0
508 75 0
509 78 0
510 81 0
511 84 0
512 87 0
513 66 0
514 69 0
515 72 0
516 75 0
517 78 0
518 81 0
519 84 0
520 87 0
457 66 0
458 66 0
459 66 0
460 66 0
461 66 0
462 66 0
463 66 0
464 66 0
465 69 0
466 69 0
467 69 0
468 69 0
469 69 0
470 69 0
471 69 0
472 69 0
473 72 0
474 72 0
475 72 0
476 72 0
477 72 0
478 72 0
479 72 0
480 72 0
481 75 0
482 75 0
483 75 0
484 75 0
485 75 0
486 75 0
487 75 0
488 75 0
489 78 0
490 78 0
491 78 0
492 78 0
493 78 0
494 78 0
495 78 0
496 78 0
497 81 0
498 81 0
499 81 0
500 81 0
501 81 0
502 81 0
503 81 0
504 81 0
505 84 0
506 84 0
507 84 0
508 84 0
509 84 0
510 84 0
511 84 0
512 84 0
513 87 0
514 87 0
515 87 0
516 87 0
517 87 0
518 87 0
519 87 0
520 87 0
-329 -521 -522 0
-345 -521 -523 0
-361 -521 -524 0
-377 -521 -525 0
-393 -521 -526 0
-409 -521 -527 0
-425 -521 -528 0
-441 -521 -529 0
-331 -530 -531 0
-347 -530 -532 0
-363 -530 -533 0
-379 -530 -534 0
-395 -530 -535 0
-411 -530 -536 0
-427 -530 -537 0
-443 -530 -538 0
-333 -539 -540 0
-349 -539 -541 0
-365 -539 -542 0
-381 -539 -543 0
-397 -539 -544 0
-413 -539 -545 0
-429 -539 -546 0
-445 -539 -547 0
-335 -548 -549 0
-351 -548 -550 0
-367 -548 -551 0
-383 -548 -552 0
-399 -548 -553 0
-415 -548 -554 0
-431 -548 -555 0
-447 -548 -556 0
-337 -557 -558 0
-353 -557 -559 0
-369 -557 -560 0
-385 -557 -561 0
-401 -557 -562 0
-417 -557 -563 0
-433 -557 -564 0
-449 -557 -565 0
-339 -566 -567 0
-355 -566 -568 0
-371 -566 -569 0
-387 -566 -570 0
-403 -566 -571 0
-419 -566 -572 0
-435 -566 -573 0
-451 -566 -574 0
-341 -575 -576 0
-357 -575 -577 0
-373 -575 -578 0
-389 -575 -579 0
-405 -575 -580 0
-421 -575 -581 0
-437 -575 -582 0
-453 -575 -583 0
-343 -584 -585 0
-359 -584 -586 0
-375 -584 -587 0
-391 -584 -588 0
-407 -584 -589 0
-423 -584 -590 0
-439 -584 -591 0
-455 -584 -592 0
522 329 0
523 345 0
524 361 0
525 377 0
526 393 0
527 409 0
528 425 0
529 441 0
531 331 0
532 347 0
533 363 0
534 379 0
535 395 0
536 411 0
537 427 0
538 443 0
540 333 0
541 349 0
542 365 0
543 381 0
544 397 0
545 413 0
546 429 0
547 445 0
549 335 0
550 351 0
551 367 0
552 383 0
553 399 0
554 415 0
555 431 0
556 447 0
558 337 0
559 353 0
560 369 0
561 385 0
562 401 0
563 417 0
564 433 0
565 449 0
567 339 0
568 355 0
569 371 0
570 387 0
571 403 0
572 419 0
573 435 0
574 451 0
576 341 0
577 357 0
578 373 0
579 389 0
580 405 0
581 421 0
582 437 0
583 453 0
585 343 0
586 359 0
587 375 0
588 391 0
589 407 0
590 423 0
591 439 0
592 455 0
522 521 0
523 521 0
524 521 0
525 521 0
526 521 0
527 521 0
528 521 0
529 521 0
531 530 0
532 530 0
533 530 0
534 530 0
535 530 0
536 530 0
537 530 0
538 530 0
540 539 0
541 539 0
542 539 0
543 539 0
544 539 0
545 539 0
546 539 0
547 539 0
549 548 0
550 548 0
551 548 0
552 548 0
553 548 0
554 548 0
555 548 0
556 548 0
558 557 0
559 557 0
560 557 0
561 557 0
562 557 0
563 557 0
564 557 0
565 557 0
567 566 0
568 566 0
569 566 0
570 566 0
571 566 0
572 566 0
573 566 0
574 566 0
576 575 0
577 575 0
578 575 0
579 575 0
580 575 0
581 575 0
582 575 0
583 575 0
585 584 0
586 584 0
587 584 0
588 584 0
589 584 0
590 584 0
591 584 0
592 584 0
-521 -522 593 0
-530 -523 594 0
-539 -524 595 0
-548 -525 596 0
-557 -526 597 0
-566 -527 598 0
-575 -528 599 0
-584 -529 600 0
-521 -531 601 0
-530 -532 602 0
-539 -533 603 0
-548 -534 604 0
-557 -535 605 0
-566 -536 606 0
-575 -537 607 0
-584 -538 608 0
-521 -540 609 0
-530 -541 610 0
-539 -542 611 0
-548 -543 612 0
-557 -544 613 0
-566 -545 614 0
-575 -546 615 0
-584 -547 616 0
-521 -549 617 0
-530 -550 618 0
-539 -551 619 0
-548 -552 620 0
-557 -553 621 0
-566 -554 622 0
-575 -555 623 0
-584 -556 624 0
-521 -558 625 0
-530 -559 626 0
-539 -560 627 0
-548 -561 628 0
-557 -562 629 0
-566 -563 630 0
-575 -564 631 0
-584 -565 632 0
-521 -567 633 0
-530 -568 634 0
-539 -569 635 0
-548 -570 636 0
-557 -571 637 0
-566 -572 638 0
-575 -573 639 0
-584 -574 640 0
-521 -576 641 0
-530 -577 642 0
-539 -578 643 0
-548 -579 644 0
-557 -580 645 0
-566 -581 646 0
-575 -582 647 0
-584 -583 648 0
-521 -585 649 0
-530 -586 650 0
-539 -587 651 0
-548 -588 652 0
-557 -589 653 0
-566 -590 654 0
-575 -591 655 0
-584 -592 656 0
-593 521 0
-594 530 0
-595 539 0
-596 548 0
-597 557 0
-598 566 0
-599 575 0
-600 584 0
-601 521 0
-602 530 0
-603 539 0
-604 548 0
-605 557 0
-606 566 0
-607 575 0
-608 584 0
-609 521 0
-610 530 0
-611 539 0
-612 548 0
-613 557 0
-614 566 0
-615 575 0
-616 584 0
-617 521 0
-618 530 0
-619 539 0
-620 548 0
-621 557 0
-622 566 0
-623 575 0
-624 584 0
-625 521 0
-626 530 0
-627 539 0
-628 548 0
-629 557 0
-630 566 0
-631 575 0
-632 584 0
-633 521 0
-634 530 0
-635 539 0
-636 548 0
-637 557 0
-638 566 0
-639 575 0
-640 584 0
-641 521 0
-642 530 0
-643 539 0
-644 548 0
-645 557 0
-646 566 0
-647 575 0
-648 584 0
-649 521 0
-650 530 0
-651 539 0
-652 548 0
-653 557 0
-654 566 0
-655 575 0
-656 584 0
-593 522 0
-594 523 0
-595 524 0
-596 525 0
-597 526 0
-598 527 0
-599 528 0
-600 529 0
-601 531 0
-602 532 0
-603 533 0
-604 534 0
-605 535 0
-606 536 0
-607 537 0
-608 538 0
-609 540 0
-610 541 0
-611 542 0
-612 543 0
-613 544 0
-614 545 0
-615 546 0
-616 547 0
-617 549 0
-618 550 0
-619 551 0
-620 552 0
-621 553 0
-622 554 0
-623 555 0
-624 556 0
-625 558 0
-626 559 0
-627 560 0
-628 561 0
-629 562 0
-630 563 0
-631 564 0
-632 565 0
-633 567 0
-634 568 0
-635 569 0
-636 570 0
-637 571 0
-638 572 0
-639 573 0
-640 574 0
-641 576 0
-642 577 0
-643 578 0
-644 579 0
-645 580 0
-646 581 0
-647 582 0
-648 583 0
-649 585 0
-650 586 0
-651 587 0
-652 588 0
-653 589 0
-654 590 0
-655 591 0
-656 592 0
-657 593 -658 0
-659 594 -660 0
-661 595 -662 0
-663 596 -664 0
-665 597 -666 0
-667 598 -668 0
-669 599 -670 0
-671 600 -672 0
-657 601 -673 0
-659 602 -674 0
-661 603 -675 0
-663 604 -676 0
-665 605 -677 0
-667 606 -678 0
-669 607 -679 0
-671 608 -680 0
-657 609 -681 0
-659 610 -682 0
-661 611 -683 0
-663 612 -684 0
-665 613 -685 0
-667 614 -686 0
-669 615 -687 0
-671 616 -688 0
-657 617 -689 0
-659 618 -690 0
-661 619 -691 0
-663 620 -692 0
-665 621 -693 0
-667 622 -694 0
-669 623 -695 0
-671 624 -696 0
-657 625 -697 0
-659 626 -698 0
-661 627 -699 0
-663 628 -700 0
-665 629 -701 0
-667 630 -702 0
-669 631 -703 0
-671 632 -704 0
-657 633 -705 0
-659 634 -706 0
-661 635 -707 0
-663 636 -708 0
-665 637 -709 0
-667 638 -710 0
-669 639 -711 0
-671 640 -712 0
-657 641 -713 0
-659 642 -714 0
-661 643 -715 0
-663 644 -716 0
-665 645 -717 0
-667 646 -718 0
-669 647 -719 0
-671 648 -720 0
-657 649 -721 0
-659 650 -722 0
-661 651 -723 0
-663 652 -724 0
-665 653 -725 0
-667 654 -726 0
-669 655 -727 0
-671 656 -728 0
658 657 0
660 659 0
662 661 0
664 663 0
666 665 0
668 667 0
670 669 0
672 671 0
673 657 0
674 659 0
675 661 0
676 663 0
677 665 0
678 667 0
679 669 0
680 671 0
681 657 0
682 659 0
683 661 0
684 663 0
685 665 0
686 667 0
687 669 0
688 671 0
689 657 0
690 659 0
691 661 0
692 663 0
693 665 0
694 667 0
695 669 0
696 671 0
697 657 0
698 659 0
699 661 0
700 663 0
701 665 0
702 667 0
703 669 0
704 671 0
705 657 0
706 659 0
707 661 0
708 663 0
709 665 0
710 667 0
711 669 0
712 671 0
713 657 0
714 659 0
715 661 0
716 663 0
717 665 0
718 667 0
719 669 0
720 671 0
721 657 0
722 659 0
723 661 0
724 663 0
725 665 0
726 667 0
727 669 0
728 671 0
658 -593 0
660 -594 0
662 -595 0
664 -596 0
666 -597 0
668 -598 0
670 -599 0
672 -600 0
673 -601 0
674 -602 0
675 -603 0
676 -604 0
677 -605 0
678 -606 0
679 -607 0
680 -608 0
681 -609 0
682 -610 0
683 -611 0
684 -612 0
685 -613 0
686 -614 0
687 -615 0
688 -616 0
689 -617 0
690 -618 0
691 -619 0
692 -620 0
693 -621 0
694 -622 0
695 -623 0
696 -624 0
697 -625 0
698 -626 0
699 -627 0
700 -628 0
701 -629 0
702 -630 0
703 -631 0
704 -632 0
705 -633 0
706 -634 0
707 -635 0
708 -636 0
709 -637 0
710 -638 0
711 -639 0
712 -640 0
713 -641 0
714 -642 0
715 -643 0
716 -644 0
717 -645 0
718 -646 0
719 -647 0
720 -648 0
721 -649 0
722 -650 0
723 -651 0
724 -652 0
725 -653 0
726 -654 0
727 -655 0
728 -656 0
-67 -330 -457 -658 729 0
-70 -332 -458 -660 730 0
-73 -334 -459 -662 731 0
-76 -336 -460 -664 732 0
-79 -338 -461 -666 733 0
-82 -340 -462 -668 734 0
-85 -342 -463 -670 735 0
-88 -344 -464 -672 736 0
-90 -346 -465 -673 737 0
-92 -348 -466 -674 738 0
-94 -350 -467 -675 739 0
-96 -352 -468 -676 740 0
-98 -354 -469 -677 741 0
-100 -356 -470 -678 742 0
-102 -358 -471 -679 743 0
-104 -360 -472 -680 744 0
-106 -362 -473 -681 745 0
-108 -364 -474 -682 746 0
-110 -366 -475 -683 747 0
-112 -368 -476 -684 748 0
-114 -370 -477 -685 749 0
-116 -372 -478 -686 750 0
-118 -374 -479 -687 751 0
-120 -376 -480 -688 752 0
-122 -378 -481 -689 753 0
-124 -380 -482 -690 754 0
-126 -382 -483 -691 755 0
-128 -384 -484 -692 756 0
-130 -386 -485 -693 757 0
-132 -388 -486 -694 758 0
-134 -390 -487 -695 759 0
-136 -392 -488 -696 760 0
-138 -394 -489 -697 761 0
-140 -396 -490 -698 762 0
-142 -398 -491 -699 763 0
-144 -400 -492 -700 764 0
-146 -402 -493 -701 765 0
-148 -404 -494 -702 766 0
-150 -406 -495 -703 767 0
-152 -408 -496 -704 768 0
-154 -410 -497 -705 769 0
-156 -412 -498 -706 770 0
-158 -414 -499 -707 771 0
-160 -416 -500 -708 772 0
-162 -418 -501 -709 773 0
-164 -420 -502 -710 774 0
-166 -422 -503 -711 775 0
-168 -424 -504 -712 776 0
-170 -426 -505 -713 777 0
-172 -428 -506 -714 778 0
-174 -430 -507 -715 779 0
-176 -432 -508 -716 780 0
-178 -434 -509 -717 781 0
-180 -436 -510 -718 782 0
-182 -438 -511 -719 783 0
-184 -440 -512 -720 784 0
-186 -442 -513 -721 785 0
-188 -444 -514 -722 786 0
-190 -446 -515 -723 787 0
-192 -448 -516 -724 788 0
-194 -450 -517 -725 789 0
-196 -452 -518 -726 790 0
-198 -454 -519 -727 791 0
-200 -456 -520 -728 792 0
-729 67 0
-730 70 0
-731 73 0
-732 76 0
-733 79 0
-734 82 0
-735 85 0
-736 88 0
-737 90 0
-738 92 0
-739 94 0
-740 96 0
-741 98 0
-742 100 0
-743 102 0
-744 104 0
-745 106 0
-746 108 0
-747 110 0
-748 112 0
-749 114 0
-750 116 0
-751 118 0
-752 120 0
-753 122 0
-754 124 0
-755 126 0
-756 128 0
-757 130 0
-758 132 0
-759 134 0
-760 136 0
-761 138 0
-762 140 0
-763 142 0
-764 144 0
-765 146 0
-766 148 0
-767 150 0
-768 152 0
-769 154 0
-770 156 0
-771 158 0
-772 160 0
-773 162 0
-774 164 0
-775 166 0
-776 168 0
-777 170 0
-778 172 0
-779 174 0
-780 176 0
-781 178 0
-782 180 0
-783 182 0
-784 184 0
-785 186 0
-786 188 0
-787 190 0
-788 192 0
-789 194 0
-790 196 0
-791 198 0
-792 200 0
-729 330 0
-730 332 0
-731 334 0
-732 336 0
-733 338 0
-734 340 0
-735 342 0
-736 344 0
-737 346 0
-738 348 0
-739 350 0
-740 352 0
-741 354 0
-742 356 0
-743 358 0
-744 360 0
-745 362 0
-746 364 0
-747 366 0
-748 368 0
-749 370 0
-750 372 0
-751 374 0
-752 376 0
-753 378 0
-754 380 0
-755 382 0
-756 384 0
-757 386 0
-758 388 0
-759 390 0
-760 392 0
-761 394 0
-762 396 0
-763 398 0
-764 400 0
-765 402 0
-766 404 0
-767 406 0
-768 408 0
-769 410 0
-770 412 0
-771 414 0
-772 416 0
-773 418 0
-774 420 0
-775 422 0
-776 424 0
-777 426 0
-778 428 0
-779 430 0
-780 432 0
-781 434 0
-782 436 0
-783 438 0
-784 440 0
-785 442 0
-786 444 0
-787 446 0
-788 448 0
-789 450 0
-790 452 0
-791 454 0
-792 456 0
-729 457 0
-730 458 0
-731 459 0
-732 460 0
-733 461 0
-734 462 0
-735 463 0
-736 464 0
-737 465 0
-738 466 0
-739 467 0
-740 468 0
-741 469 0
-742 470 0
-743 471 0
-744 472 0
-745 473 0
-746 474 0
-747 475 0
-748 476 0
-749 477 0
-750 478 0
-751 479 0
-752 480 0
-753 481 0
-754 482 0
-755 483 0
-756 484 0
-757 485 0
-758 486 0
-759 487 0
-760 488 0
-761 489 0
-762 490 0
-763 491 0
-764 492 0
-765 493 0
-766 494 0
-767 495 0
-768 496 0
-769 497 0
-770 498 0
-771 499 0
-772 500 0
-773 501 0
-774 502 0
-775 503 0
-776 504 0
-777 505 0
-778 506 0
-779 507 0
-780 508 0
-781 509 0
-782 510 0
-783 511 0
-784 512 0
-785 513 0
-786 514 0
-787 515 0
-788 516 0
-789 517 0
-790 518 0
-791 519 0
-792 520 0
-729 658 0
-730 660 0
-731 662 0
-732 664 0
-733 666 0
-734 668 0
-735 670 0
-736 672 0
-737 673 0
-738 674 0
-739 675 0
-740 676 0
-741 677 0
-742 678 0
-743 679 0
-744 680 0
-745 681 0
-746 682 0
-747 683 0
-748 684 0
-749 685 0
-750 686 0
-751 687 0
-752 688 0
-753 689 0
-754 690 0
-755 691 0
-756 692 0
-757 693 0
-758 694 0
-759 695 0
-760 696 0
-761 697 0
-762 698 0
-763 699 0
-764 700 0
-765 701 0
-766 702 0
-767 703 0
-768 704 0
-769 705 0
-770 706 0
-771 707 0
-772 708 0
-773 709 0
-774 710 0
-775 711 0
-776 712 0
-777 713 0
-778 714 0
-779 715 0
-780 716 0
-781 717 0
-782 718 0
-783 719 0
-784 720 0
-785 721 0
-786 722 0
-787 723 0
-788 724 0
-789 725 0
-790 726 0
-791 727 0
-792 728 0
729 0
730 0
731 0
732 0
733 0
734 0
735 0
736 0
737 0
738 0
739 0
740 0
741 0
742 0
743 0
744 0
745 0
746 0
747 0
748 0
749 0
750 0
751 0
752 0
753 0
754 0
755 0
756 0
757 0
758 0
759 0
760 0
761 0
762 0
763 0
764 0
765 0
766 0
767 0
768 0
769 0
770 0
771 0
772 0
773 0
774 0
775 0
776 0
777 0
778 0
779 0
780 0
781 0
782 0
783 0
784 0
785 0
786 0
787 0
788 0
789 0
790 0
791 0
792 0
-329 -521 793 0
-345 -521 794 0
-361 -521 795 0
-377 -521 796 0
-393 -521 797 0
-409 -521 798 0
-425 -521 799 0
-441 -521 800 0
-331 -530 801 0
-347 -530 802 0
-363 -530 803 0
-379 -530 804 0
-395 -530 805 0
-411 -530 806 0
-427 -530 807 0
-443 -530 808 0
-333 -539 809 0
-349 -539 810 0
-365 -539 811 0
-381 -539 812 0
-397 -539 813 0
-413 -539 814 0
-429 -539 815 0
-445 -539 816 0
-335 -548 817 0
-351 -548 818 0
-367 -548 819 0
-383 -548 820 0
-399 -548 821 0
-415 -548 822 0
-431 -548 823 0
-447 -548 824 0
-337 -557 825 0
-353 -557 826 0
-369 -557 827 0
-385 -557 828 0
-401 -557 829 0
-417 -557 830 0
-433 -557 831 0
-449 -557 832 0
-339 -566 833 0
-355 -566 834 0
-371 -566 835 0
-387 -566 836 0
-403 -566 837 0
-419 -566 838 0
-435 -566 839 0
-451 -566 840 0
-341 -575 841 0
-357 -575 842 0
-373 -575 843 0
-389 -575 844 0
-405 -575 845 0
-421 -575 846 0
-437 -575 847 0
-453 -575 848 0
-343 -584 849 0
-359 -584 850 0
-375 -584 851 0
-391 -584 852 0
-407 -584 853 0
-423 -584 854 0
-439 -584 855 0
-455 -584 856 0
-793 329 0
-794 345 0
-795 361 0
-796 377 0
-797 393 0
-798 409 0
-799 425 0
-800 441 0
-801 331 0
-802 347 0
-803 363 0
-804 379 0
-805 395 0
-806 411 0
-807 427 0
-808 443 0
-809 333 0
-810 349 0
-811 365 0
-812 381 0
-813 397 0
-814 413 0
-815 429 0
-816 445 0
-817 335 0
-818 351 0
-819 367 0
-820 383 0
-821 399 0
-822 415 0
-823 431 0
-824 447 0
-825 337 0
-826 353 0
-827 369 0
-828 385 0
-829 401 0
-830 417 0
-831 433 0
-832 449 0
-833 339 0
-834 355 0
-835 371 0
-836 387 0
-837 403 0
-838 419 0
-839 435 0
-840 451 0
-841 341 0
-842 357 0
-843 373 0
-844 389 0
-845 405 0
-846 421 0
-847 437 0
-848 453 0
-849 343 0
-850 359 0
-851 375 0
-852 391 0
-853 407 0
-854 423 0
-855 439 0
-856 455 0
-793 521 0
-794 521 0
-795 521 0
-796 521 0
-797 521 0
-798 521 0
-799 521 0
-800 521 0
-801 530 0
-802 530 0
-803 530 0
-804 530 0
-805 530 0
-806 530 0
-807 530 0
-808 530 0
-809 539 0
-810 539 0
-811 539 0
-812 539 0
-813 539 0
-814 539 0
-815 539 0
-816 539 0
-817 548 0
-818 548 0
-819 548 0
-820 548 0
-821 548 0
-822 548 0
-823 548 0
-824 548 0
-825 557 0
-826 557 0
-827 557 0
-828 557 0
-829 557 0
-830 557 0
-831 557 0
-832 557 0
-833 566 0
-834 566 0
-835 566 0
-836 566 0
-837 566 0
-838 566 0
-839 566 0
-840 566 0
-841 575 0
-842 575 0
-843 575 0
-844 575 0
-845 575 0
-846 575 0
-847 575 0
-848 575 0
-849 584 0
-850 584 0
-851 584 0
-852 584 0
-853 584 0
-854 584 0
-855 584 0
-856 584 0
657 -521 793 -1 0
659 -530 794 -9 0
661 -539 795 -17 0
663 -548 796 -25 0
665 -557 797 -33 0
667 -566 798 -41 0
669 -575 799 -49 0
671 -584 800 -57 0
657 -521 801 -2 0
659 -530 802 -10 0
661 -539 803 -18 0
663 -548 804 -26 0
665 -557 805 -34 0
667 -566 806 -42 0
669 -575 807 -50 0
671 -584 808 -58 0
657 -521 809 -3 0
659 -530 810 -11 0
661 -539 811 -19 0
663 -548 812 -27 0
665 -557 813 -35 0
667 -566 814 -43 0
669 -575 815 -51 0
671 -584 816 -59 0
657 -521 817 -4 0
659 -530 818 -12 0
661 -539 819 -20 0
663 -548 820 -28 0
665 -557 821 -36 0
667 -566 822 -44 0
669 -575 823 -52 0
671 -584 824 -60 0
657 -521 825 -5 0
659 -530 826 -13 0
661 -539 827 -21 0
663 -548 828 -29 0
665 -557 829 -37 0
667 -566 830 -45 0
669 -575 831 -53 0
671 -584 832 -61 0
657 -521 833 -6 0
659 -530 834 -14 0
661 -539 835 -22 0
663 -548 836 -30 0
665 -557 837 -38 0
667 -566 838 -46 0
669 -575 839 -54 0
671 -584 840 -62 0
657 -521 841 -7 0
659 -530 842 -15 0
661 -539 843 -23 0
663 -548 844 -31 0
665 -557 845 -39 0
667 -566 846 -47 0
669 -575 847 -55 0
671 -584 848 -63 0
657 -521 849 -8 0
659 -530 850 -16 0
661 -539 851 -24 0
663 -548 852 -32 0
665 -557 853 -40 0
667 -566 854 -48 0
669 -575 855 -56 0
671 -584 856 -64 0
1 -657 0
9 -659 0
17 -661 0
25 -663 0
33 -665 0
41 -667 0
49 -669 0
57 -671 0
2 -657 0
10 -659 0
18 -661 0
26 -663 0
34 -665 0
42 -667 0
50 -669 0
58 -671 0
3 -657 0
11 -659 0
19 -661 0
27 -663 0
35 -665 0
43 -667 0
51 -669 0
59 -671 0
4 -657 0
12 -659 0
20 -661 0
28 -663 0
36 -665 0
44 -667 0
52 -669 0
60 -671 0
5 -657 0
13 -659 0
21 -661 0
29 -663 0
37 -665 0
45 -667 0
53 -669 0
61 -671 0
6 -657 0
14 -659 0
22 -661 0
30 -663 0
38 -665 0
46 -667 0
54 -669 0
62 -671 0
7 -657 0
15 -659 0
23 -661 0
31 -663 0
39 -665 0
47 -667 0
55 -669 0
63 -671 0
8 -657 0
16 -659 0
24 -661 0
32 -663 0
40 -665 0
48 -667 0
56 -669 0
64 -671 0
1 521 0
9 530 0
17 539 0
25 548 0
33 557 0
41 566 0
49 575 0
57 584 0
2 521 0
10 530 0
18 539 0
26 548 0
34 557 0
42 566 0
50 575 0
58 584 0
3 521 0
11 530 0
19 539 0
27 548 0
35 557 0
43 566 0
51 575 0
59 584 0
4 521 0
12 530 0
20 539 0
28 548 0
36 557 0
44 566 0
52 575 0
60 584 0
5 521 0
13 530 0
21 539 0
29 548 0
37 557 0
45 566 0
53 575 0
61 584 0
6 521 0
14 530 0
22 539 0
30 548 0
38 557 0
46 566 0
54 575 0
62 584 0
7 521 0
15 530 0
23 539 0
31 548 0
39 557 0
47 566 0
55 575 0
63 584 0
8 521 0
16 530 0
24 539 0
32 548 0
40 557 0
48 566 0
56 575 0
64 584 0
1 -793 0
9 -794 0
17 -795 0
25 -796 0
33 -797 0
41 -798 0
49 -799 0
57 -800 0
2 -801 0
10 -802 0
18 -803 0
26 -804 0
34 -805 0
42 -806 0
50 -807 0
58 -808 0
3 -809 0
11 -810 0
19 -811 0
27 -812 0
35 -813 0
43 -814 0
51 -815 0
59 -816 0
4 -817 0
12 -818 0
20 -819 0
28 -820 0
36 -821 0
44 -822 0
52 -823 0
60 -824 0
5 -825 0
13 -826 0
21 -827 0
29 -828 0
37 -829 0
45 -830 0
53 -831 0
61 -832 0
6 -833 0
14 -834 0
22 -835 0
30 -836 0
38 -837 0
46 -838 0
54 -839 0
62 -840 0
7 -841 0
15 -842 0
23 -843 0
31 -844 0
39 -845 0
47 -846 0
55 -847 0
63 -848 0
8 -849 0
16 -850 0
24 -851 0
32 -852 0
40 -853 0
48 -854 0
56 -855 0
64 -856 0
-575 0
-566 0
72 0
66 0
84 0
539 0
81 0
530 0
-557 0
87 0
-584 0
78 0
69 0
521 0
75 0
-548 0
657 857 0
-857 858 0
659 -857 859 0
-859 860 0
661 -859 861 0
-861 862 0
663 -861 863 0
-863 864 0
665 -863 865 0
-865 866 0
667 -865 867 0
-867 868 0
669 -867 0
659 858 0
661 -858 860 0
663 -860 862 0
665 -862 864 0
667 -864 866 0
669 -866 868 0
671 -868 0
65 0
89 68 0
-89 -68 0
-89 -107 105 0
-89 -123 121 0
-89 -139 137 0
-89 -155 153 0
-89 -171 169 0
-89 -187 185 0
105 71 0
-105 -71 0
-105 -93 89 0
-105 -125 121 0
-105 -141 137 0
-105 -157 153 0
-105 -173 169 0
-105 -189 185 0
121 74 0
-121 -74 0
-121 -95 89 0
-121 -111 105 0
-121 -143 137 0
-121 -159 153 0
-121 -175 169 0
-121 -191 185 0
137 77 0
-137 -77 0
-137 -97 89 0
-137 -113 105 0
-137 -129 121 0
-137 -161 153 0
-137 -177 169 0
-137 -193 185 0
153 80 0
-153 -80 0
-153 -99 89 0
-153 -115 105 0
-153 -131 121 0
-153 -147 137 0
-153 -179 169 0
-153 -195 185 0
169 83 0
-169 -83 0
-169 -101 89 0
-169 -117 105 0
-169 -133 121 0
-169 -149 137 0
-169 -165 153 0
-169 -197 185 0
185 86 0
-185 -86 0
-185 -103 89 0
-185 -119 105 0
-185 -135 121 0
-185 -151 137 0
-185 -167 153 0
-185 -183 169 0
91 0
68 89 0
-68 -89 0
-68 -105 107 0
-68 -121 123 0
-68 -137 139 0
-68 -153 155 0
-68 -169 171 0
-68 -185 187 0
107 93 0
-107 -93 0
-107 -71 68 0
-107 -125 123 0
-107 -141 139 0
-107 -157 155 0
-107 -173 171 0
-107 -189 187 0
123 95 0
-123 -95 0
-123 -74 68 0
-123 -111 107 0
-123 -143 139 0
-123 -159 155 0
-123 -175 171 0
-123 -191 187 0
139 97 0
-139 -97 0
-139 -77 68 0
-139 -113 107 0
-139 -129 123 0
-139 -161 155 0
-139 -177 171 0
-139 -193 187 0
155 99 0
-155 -99 0
-155 -80 68 0
-155 -115 107 0
-155 -131 123 0
-155 -147 139 0
-155 -179 171 0
-155 -195 187 0
171 101 0
-171 -101 0
-171 -83 68 0
-171 -117 107 0
-171 -133 123 0
-171 -149 139 0
-171 -165 155 0
-171 -197 187 0
187 103 0
-187 -103 0
-187 -86 68 0
-187 -119 107 0
-187 -135 123 0
-187 -151 139 0
-187 -167 155 0
-187 -183 171 0
109 0
71 105 0
-71 -105 0
-71 -89 93 0
-71 -121 125 0
-71 -137 141 0
-71 -153 157 0
-71 -169 173 0
-71 -185 189 0
93 107 0
-93 -107 0
-93 -68 71 0
-93 -123 125 0
-93 -139 141 0
-93 -155 157 0
-93 -171 173 0
-93 -187 189 0
125 111 0
-125 -111 0
-125 -74 71 0
-125 -95 93 0
-125 -143 141 0
-125 -159 157 0
-125 -175 173 0
-125 -191 189 0
141 113 0
-141 -113 0
-141 -77 71 0
-141 -97 93 0
-141 -129 125 0
-141 -161 157 0
-141 -177 173 0
-141 -193 189 0
157 115 0
-157 -115 0
-157 -80 71 0
-157 -99 93 0
-157 -131 125 0
-157 -147 141 0
-157 -179 173 0
-157 -195 189 0
173 117 0
-173 -117 0
-173 -83 71 0
-173 -101 93 0
-173 -133 125 0
-173 -149 141 0
-173 -165 157 0
-173 -197 189 0
189 119 0
-189 -119 0
-189 -86 71 0
-189 -103 93 0
-189 -135 125 0
-189 -151 141 0
-189 -167 157 0
-189 -183 173 0
127 0
74 121 0
-74 -121 0
-74 -89 95 0
-74 -105 111 0
-74 -137 143 0
-74 -153 159 0
-74 -169 175 0
-74 -185 191 0
95 123 0
-95 -123 0
-95 -68 74 0
-95 -107 111 0
-95 -139 143 0
-95 -155 159 0
-95 -171 175 0
-95 -187 191 0
111 125 0
-111 -125 0
-111 -71 74 0
-111 -93 95 0
-111 -141 143 0
-111 -157 159 0
-111 -173 175 0
-111 -189 191 0
143 129 0
-143 -129 0
-143 -77 74 0
-143 -97 95 0
-143 -113 111 0
-143 -161 159 0
-143 -177 175 0
-143 -193 191 0
159 131 0
-159 -131 0
-159 -80 74 0
-159 -99 95 0
-159 -115 111 0
-159 -147 143 0
-159 -179 175 0
-159 -195 191 0
175 133 0
-175 -133 0
-175 -83 74 0
-175 -101 95 0
-175 -117 111 0
-175 -149 143 0
-175 -165 159 0
-175 -197 191 0
191 135 0
-191 -135 0
-191 -86 74 0
-191 -103 95 0
-191 -119 111 0
-191 -151 143 0
-191 -167 159 0
-191 -183 175 0
145 0
77 137 0
-77 -137 0
-77 -89 97 0
-77 -105 113 0
-77 -121 129 0
-77 -153 161 0
-77 -169 177 0
-77 -185 193 0
97 139 0
-97 -139 0
-97 -68 77 0
-97 -107 113 0
-97 -123 129 0
-97 -155 161 0
-97 -171 177 0
-97 -187 193 0
113 141 0
-113 -141 0
-113 -71 77 0
-113 -93 97 0
-113 -125 129 0
-113 -157 161 0
-113 -173 177 0
-113 -189 193 0
129 143 0
-129 -143 0
-129 -74 77 0
-129 -95 97 0
-129 -111 113 0
-129 -159 161 0
-129 -175 177 0
-129 -191 193 0
161 147 0
-161 -147 0
-161 -80 77 0
-161 -99 97 0
-161 -115 113 0
-161 -131 129 0
-161 -179 177 0
-161 -195 193 0
177 149 0
-177 -149 0
-177 -83 77 0
-177 -101 97 0
-177 -117 113 0
-177 -133 129 0
-177 -165 161 0
-177 -197 193 0
193 151 0
-193 -151 0
-193 -86 77 0
-193 -103 97 0
-193 -119 113 0
-193 -135 129 0
-193 -167 161 0
-193 -183 177 0
163 0
80 153 0
-80 -153 0
-80 -89 99 0
-80 -105 115 0
-80 -121 131 0
-80 -137 147 0
-80 -169 179 0
-80 -185 195 0
99 155 0
-99 -155 0
-99 -68 80 0
-99 -107 115 0
-99 -123 131 0
-99 -139 147 0
-99 -171 179 0
-99 -187 195 0
115 157 0
-115 -157 0
-115 -71 80 0
-115 -93 99 0
-115 -125 131 0
-115 -141 147 0
-115 -173 179 0
-115 -189 195 0
131 159 0
-131 -159 0
-131 -74 80 0
-131 -95 99 0
-131 -111 115 0
-131 -143 147 0
-131 -175 179 0
-131 -191 195 0
147 161 0
-147 -161 0
-147 -77 80 0
-147 -97 99 0
-147 -113 115 0
-147 -129 131 0
-147 -177 179 0
-147 -193 195 0
179 165 0
-179 -165 0
-179 -83 80 0
-179 -101 99 0
-179 -117 115 0
-179 -133 131 0
-179 -149 147 0
-179 -197 195 0
195 167 0
-195 -167 0
-195 -86 80 0
-195 -103 99 0
-195 -119 115 0
-195 -135 131 0
-195 -151 147 0
-195 -183 179 0
181 0
83 169 0
-83 -169 0
-83 -89 101 0
-83 -105 117 0
-83 -121 133 0
-83 -137 149 0
-83 -153 165 0
-83 -185 197 0
101 171 0
-101 -171 0
-101 -68 83 0
-101 -107 117 0
-101 -123 133 0
-101 -139 149 0
-101 -155 165 0
-101 -187 197 0
117 173 0
-117 -173 0
-117 -71 83 0
-117 -93 101 0
-117 -125 133 0
-117 -141 149 0
-117 -157 165 0
-117 -189 197 0
133 175 0
-133 -175 0
-133 -74 83 0
-133 -95 101 0
-133 -111 117 0
-133 -143 149 0
-133 -159 165 0
-133 -191 197 0
149 177 0
-149 -177 0
-149 -77 83 0
-149 -97 101 0
-149 -113 117 0
-149 -129 133 0
-149 -161 165 0
-149 -193 197 0
165 179 0
-165 -179 0
-165 -80 83 0
-165 -99 101 0
-165 -115 117 0
-165 -131 133 0
-165 -147 149 0
-165 -195 197 0
197 183 0
-197 -183 0
-197 -86 83 0
-197 -103 101 0
-197 -119 117 0
-197 -135 133 0
-197 -151 149 0
-197 -167 165 0
199 0
86 185 0
-86 -185 0
-86 -89 103 0
-86 -105 119 0
-86 -121 135 0
-86 -137 151 0
-86 -153 167 0
-86 -169 183 0
103 187 0
-103 -187 0
-103 -68 86 0
-103 -107 119 0
-103 -123 135 0
-103 -139 151 0
-103 -155 167 0
-103 -171 183 0
119 189 0
-119 -189 0
-119 -71 86 0
-119 -93 103 0
-119 -125 135 0
-119 -141 151 0
-119 -157 167 0
-119 -173 183 0
135 191 0
-135 -191 0
-135 -74 86 0
-135 -95 103 0
-135 -111 119 0
-135 -143 151 0
-135 -159 167 0
-135 -175 183 0
151 193 0
-151 -193 0
-151 -77 86 0
-151 -97 103 0
-151 -113 119 0
-151 -129 135 0
-151 -161 167 0
-151 -177 183 0
167 195 0
-167 -195 0
-167 -80 86 0
-167 -99 103 0
-167 -115 119 0
-167 -131 135 0
-167 -147 151 0
-167 -179 183 0
183 197 0
-183 -197 0
-183 -83 86 0
-183 -101 103 0
-183 -117 119 0
-183 -133 135 0
-183 -149 151 0
-183 -165 167 0
-201 0
-217 89 0
-869 105 0
-869 93 0
-105 -93 869 0
-870 121 0
-870 95 0
-121 -95 870 0
-871 137 0
-871 97 0
-137 -97 871 0
-872 153 0
-872 99 0
-153 -99 872 0
-873 169 0
-873 101 0
-169 -101 873 0
-874 185 0
-874 103 0
-185 -103 874 0
-217 -869 0
-217 -870 0
-217 -871 0
-217 -872 0
-217 -873 0
-217 -874 0
-89 217 869 870 871 872 873 874 0
-233 105 0
-875 89 0
-875 107 0
-89 -107 875 0
-876 121 0
-876 111 0
-121 -111 876 0
-877 137 0
-877 113 0
-137 -113 877 0
-878 153 0
-878 115 0
-153 -115 878 0
-879 169 0
-879 117 0
-169 -117 879 0
-880 185 0
-880 119 0
-185 -119 880 0
-233 -875 0
-233 -876 0
-233 -877 0
-233 -878 0
-233 -879 0
-233 -880 0
-105 233 875 876 877 878 879 880 0
-249 121 0
-881 89 0
-881 123 0
-89 -123 881 0
-882 105 0
-882 125 0
-105 -125 882 0
-883 137 0
-883 129 0
-137 -129 883 0
-884 153 0
-884 131 0
-153 -131 884 0
-885 169 0
-885 133 0
-169 -133 885 0
-886 185 0
-886 135 0
-185 -135 886 0
-249 -881 0
-249 -882 0
-249 -883 0
-249 -884 0
-249 -885 0
-249 -886 0
-121 249 881 882 883 884 885 886 0
-265 137 0
-887 89 0
-887 139 0
-89 -139 887 0
-888 105 0
-888 141 0
-105 -141 888 0
-889 121 0
-889 143 0
-121 -143 889 0
-890 153 0
-890 147 0
-153 -147 890 0
-891 169 0
-891 149 0
-169 -149 891 0
-892 185 0
-892 151 0
-185 -151 892 0
-265 -887 0
-265 -888 0
-265 -889 0
-265 -890 0
-265 -891 0
-265 -892 0
-137 265 887 888 889 890 891 892 0
-281 153 0
-893 89 0
-893 155 0
-89 -155 893 0
-894 105 0
-894 157 0
-105 -157 894 0
-895 121 0
-895 159 0
-121 -159 895 0
-896 137 0
-896 161 0
-137 -161 896 0
-897 169 0
-897 165 0
-169 -165 897 0
-898 185 0
-898 167 0
-185 -167 898 0
-281 -893 0
-281 -894 0
-281 -895 0
-281 -896 0
-281 -897 0
-281 -898 0
-153 281 893 894 895 896 897 898 0
-297 169 0
-899 89 0
-899 171 0
-89 -171 899 0
-900 105 0
-900 173 0
-105 -173 900 0
-901 121 0
-901 175 0
-121 -175 901 0
-902 137 0
-902 177 0
-137 -177 902 0
-903 153 0
-903 179 0
-153 -179 903 0
-904 185 0
-904 183 0
-185 -183 904 0
-297 -899 0
-297 -900 0
-297 -901 0
-297 -902 0
-297 -903 0
-297 -904 0
-169 297 899 900 901 902 903 904 0
-313 185 0
-905 89 0
-905 187 0
-89 -187 905 0
-906 105 0
-906 189 0
-105 -189 906 0
-907 121 0
-907 191 0
-121 -191 907 0
-908 137 0
-908 193 0
-137 -193 908 0
-909 153 0
-909 195 0
-153 -195 909 0
-910 169 0
-910 197 0
-169 -197 910 0
-313 -905 0
-313 -906 0
-313 -907 0
-313 -908 0
-313 -909 0
-313 -910 0
-185 313 905 906 907 908 909 910 0
-203 68 0
-911 107 0
-911 71 0
-107 -71 911 0
-912 123 0
-912 74 0
-123 -74 912 0
-913 139 0
-913 77 0
-139 -77 913 0
-914 155 0
-914 80 0
-155 -80 914 0
-915 171 0
-915 83 0
-171 -83 915 0
-916 187 0
-916 86 0
-187 -86 916 0
-203 -911 0
-203 -912 0
-203 -913 0
-203 -914 0
-203 -915 0
-203 -916 0
-68 203 911 912 913 914 915 916 0
-219 0
-235 107 0
-917 68 0
-917 105 0
-68 -105 917 0
-918 123 0
-918 111 0
-123 -111 918 0
-919 139 0
-919 113 0
-139 -113 919 0
-920 155 0
-920 115 0
-155 -115 920 0
-921 171 0
-921 117 0
-171 -117 921 0
-922 187 0
-922 119 0
-187 -119 922 0
-235 -917 0
-235 -918 0
-235 -919 0
-235 -920 0
-235 -921 0
-235 -922 0
-107 235 917 918 919 920 921 922 0
-251 123 0
-923 68 0
-923 121 0
-68 -121 923 0
-924 107 0
-924 125 0
-107 -125 924 0
-925 139 0
-925 129 0
-139 -129 925 0
-926 155 0
-926 131 0
-155 -131 926 0
-927 171 0
-927 133 0
-171 -133 927 0
-928 187 0
-928 135 0
-187 -135 928 0
-251 -923 0
-251 -924 0
-251 -925 0
-251 -926 0
-251 -927 0
-251 -928 0
-123 251 923 924 925 926 927 928 0
-267 139 0
-929 68 0
-929 137 0
-68 -137 929 0
-930 107 0
-930 141 0
-107 -141 930 0
-931 123 0
-931 143 0
-123 -143 931 0
-932 155 0
-932 147 0
-155 -147 932 0
-933 171 0
-933 149 0
-171 -149 933 0
-934 187 0
-934 151 0
-187 -151 934 0
-267 -929 0
-267 -930 0
-267 -931 0
-267 -932 0
-267 -933 0
-267 -934 0
-139 267 929 930 931 932 933 934 0
-283 155 0
-935 68 0
-935 153 0
-68 -153 935 0
-936 107 0
-936 157 0
-107 -157 936 0
-937 123 0
-937 159 0
-123 -159 937 0
-938 139 0
-938 161 0
-139 -161 938 0
-939 171 0
-939 165 0
-171 -165 939 0
-940 187 0
-940 167 0
-187 -167 940 0
-283 -935 0
-283 -936 0
-283 -937 0
-283 -938 0
-283 -939 0
-283 -940 0
-155 283 935 936 937 938 939 940 0
-299 171 0
-941 68 0
-941 169 0
-68 -169 941 0
-942 107 0
-942 173 0
-107 -173 942 0
-943 123 0
-943 175 0
-123 -175 943 0
-944 139 0
-944 177 0
-139 -177 944 0
-945 155 0
-945 179 0
-155 -179 945 0
-946 187 0
-946 183 0
-187 -183 946 0
-299 -941 0
-299 -942 0
-299 -943 0
-299 -944 0
-299 -945 0
-299 -946 0
-171 299 941 942 943 944 945 946 0
-315 187 0
-947 68 0
-947 185 0
-68 -185 947 0
-948 107 0
-948 189 0
-107 -189 948 0
-949 123 0
-949 191 0
-123 -191 949 0
-950 139 0
-950 193 0
-139 -193 950 0
-951 155 0
-951 195 0
-155 -195 951 0
-952 171 0
-952 197 0
-171 -197 952 0
-315 -947 0
-315 -948 0
-315 -949 0
-315 -950 0
-315 -951 0
-315 -952 0
-187 315 947 948 949 950 951 952 0
-205 71 0
-953 93 0
-953 68 0
-93 -68 953 0
-954 125 0
-954 74 0
-125 -74 954 0
-955 141 0
-955 77 0
-141 -77 955 0
-956 157 0
-956 80 0
-157 -80 956 0
-957 173 0
-957 83 0
-173 -83 957 0
-958 189 0
-958 86 0
-189 -86 958 0
-205 -953 0
-205 -954 0
-205 -955 0
-205 -956 0
-205 -957 0
-205 -958 0
-71 205 953 954 955 956 957 958 0
-221 93 0
-959 71 0
-959 89 0
-71 -89 959 0
-960 125 0
-960 95 0
-125 -95 960 0
-961 141 0
-961 97 0
-141 -97 961 0
-962 157 0
-962 99 0
-157 -99 962 0
-963 173 0
-963 101 0
-173 -101 963 0
-964 189 0
-964 103 0
-189 -103 964 0
-221 -959 0
-221 -960 0
-221 -961 0
-221 -962 0
-221 -963 0
-221 -964 0
-93 221 959 960 961 962 963 964 0
-237 0
-253 125 0
-965 71 0
-965 121 0
-71 -121 965 0
-966 93 0
-966 123 0
-93 -123 966 0
-967 141 0
-967 129 0
-141 -129 967 0
-968 157 0
-968 131 0
-157 -131 968 0
-969 173 0
-969 133 0
-173 -133 969 0
-970 189 0
-970 135 0
-189 -135 970 0
-253 -965 0
-253 -966 0
-253 -967 0
-253 -968 0
-253 -969 0
-253 -970 0
-125 253 965 966 967 968 969 970 0
-269 141 0
-971 71 0
-971 137 0
-71 -137 971 0
-972 93 0
-972 139 0
-93 -139 972 0
-973 125 0
-973 143 0
-125 -143 973 0
-974 157 0
-974 147 0
-157 -147 974 0
-975 173 0
-975 149 0
-173 -149 975 0
-976 189 0
-976 151 0
-189 -151 976 0
-269 -971 0
-269 -972 0
-269 -973 0
-269 -974 0
-269 -975 0
-269 -976 0
-141 269 971 972 973 974 975 976 0
-285 157 0
-977 71 0
-977 153 0
-71 -153 977 0
-978 93 0
-978 155 0
-93 -155 978 0
-979 125 0
-979 159 0
-125 -159 979 0
-980 141 0
-980 161 0
-141 -161 980 0
-981 173 0
-981 165 0
-173 -165 981 0
-982 189 0
-982 167 0
-189 -167 982 0
-285 -977 0
-285 -978 0
-285 -979 0
-285 -980 0
-285 -981 0
-285 -982 0
-157 285 977 978 979 980 981 982 0
-301 173 0
-983 71 0
-983 169 0
-71 -169 983 0
-984 93 0
-984 171 0
-93 -171 984 0
-985 125 0
-985 175 0
-125 -175 985 0
-986 141 0
-986 177 0
-141 -177 986 0
-987 157 0
-987 179 0
-157 -179 987 0
-988 189 0
-988 183 0
-189 -183 988 0
-301 -983 0
-301 -984 0
-301 -985 0
-301 -986 0
-301 -987 0
-301 -988 0
-173 301 983 984 985 986 987 988 0
-317 189 0
-989 71 0
-989 185 0
-71 -185 989 0
-990 93 0
-990 187 0
-93 -187 990 0
-991 125 0
-991 191 0
-125 -191 991 0
-992 141 0
-992 193 0
-141 -193 992 0
-993 157 0
-993 195 0
-157 -195 993 0
-994 173 0
-994 197 0
-173 -197 994 0
-317 -989 0
-317 -990 0
-317 -991 0
-317 -992 0
-317 -993 0
-317 -994 0
-189 317 989 990 991 992 993 994 0
-207 74 0
-995 95 0
-995 68 0
-95 -68 995 0
-996 111 0
-996 71 0
-111 -71 996 0
-997 143 0
-997 77 0
-143 -77 997 0
-998 159 0
-998 80 0
-159 -80 998 0
-999 175 0
-999 83 0
-175 -83 999 0
-1000 191 0
-1000 86 0
-191 -86 1000 0
-207 -995 0
-207 -996 0
-207 -997 0
-207 -998 0
-207 -999 0
-207 -1000 0
-74 207 995 996 997 998 999 1000 0
-223 95 0
-1001 74 0
-1001 89 0
-74 -89 1001 0
-1002 111 0
-1002 93 0
-111 -93 1002 0
-1003 143 0
-1003 97 0
-143 -97 1003 0
-1004 159 0
-1004 99 0
-159 -99 1004 0
-1005 175 0
-1005 101 0
-175 -101 1005 0
-1006 191 0
-1006 103 0
-191 -103 1006 0
-223 -1001 0
-223 -1002 0
-223 -1003 0
-223 -1004 0
-223 -1005 0
-223 -1006 0
-95 223 1001 1002 1003 1004 1005 1006 0
-239 111 0
-1007 74 0
-1007 105 0
-74 -105 1007 0
-1008 95 0
-1008 107 0
-95 -107 1008 0
-1009 143 0
-1009 113 0
-143 -113 1009 0
-1010 159 0
-1010 115 0
-159 -115 1010 0
-1011 175 0
-1011 117 0
-175 -117 1011 0
-1012 191 0
-1012 119 0
-191 -119 1012 0
-239 -1007 0
-239 -1008 0
-239 -1009 0
-239 -1010 0
-239 -1011 0
-239 -1012 0
-111 239 1007 1008 1009 1010 1011 1012 0
-255 0
-271 143 0
-1013 74 0
-1013 137 0
-74 -137 1013 0
-1014 95 0
-1014 139 0
-95 -139 1014 0
-1015 111 0
-1015 141 0
-111 -141 1015 0
-1016 159 0
-1016 147 0
-159 -147 1016 0
-1017 175 0
-1017 149 0
-175 -149 1017 0
-1018 191 0
-1018 151 0
-191 -151 1018 0
-271 -1013 0
-271 -1014 0
-271 -1015 0
-271 -1016 0
-271 -1017 0
-271 -1018 0
-143 271 1013 1014 1015 1016 1017 1018 0
-287 159 0
-1019 74 0
-1019 153 0
-74 -153 1019 0
-1020 95 0
-1020 155 0
-95 -155 1020 0
-1021 111 0
-1021 157 0
-111 -157 1021 0
-1022 143 0
-1022 161 0
-143 -161 1022 0
-1023 175 0
-1023 165 0
-175 -165 1023 0
-1024 191 0
-1024 167 0
-191 -167 1024 0
-287 -1019 0
-287 -1020 0
-287 -1021 0
-287 -1022 0
-287 -1023 0
-287 -1024 0
-159 287 1019 1020 1021 1022 1023 1024 0
-303 175 0
-1025 74 0
-1025 169 0
-74 -169 1025 0
-1026 95 0
-1026 171 0
-95 -171 1026 0
-1027 111 0
-1027 173 0
-111 -173 1027 0
-1028 143 0
-1028 177 0
-143 -177 1028 0
-1029 159 0
-1029 179 0
-159 -179 1029 0
-1030 191 0
-1030 183 0
-191 -183 1030 0
-303 -1025 0
-303 -1026 0
-303 -1027 0
-303 -1028 0
-303 -1029 0
-303 -1030 0
-175 303 1025 1026 1027 1028 1029 1030 0
-319 191 0
-1031 74 0
-1031 185 0
-74 -185 1031 0
-1032 95 0
-1032 187 0
-95 -187 1032 0
-1033 111 0
-1033 189 0
-111 -189 1033 0
-1034 143 0
-1034 193 0
-143 -193 1034 0
-1035 159 0
-1035 195 0
-159 -195 1035 0
-1036 175 0
-1036 197 0
-175 -197 1036 0
-319 -1031 0
-319 -1032 0
-319 -1033 0
-319 -1034 0
-319 -1035 0
-319 -1036 0
-191 319 1031 1032 1033 1034 1035 1036 0
-209 77 0
-1037 97 0
-1037 68 0
-97 -68 1037 0
-1038 113 0
-1038 71 0
-113 -71 1038 0
-1039 129 0
-1039 74 0
-129 -74 1039 0
-1040 161 0
-1040 80 0
-161 -80 1040 0
-1041 177 0
-1041 83 0
-177 -83 1041 0
-1042 193 0
-1042 86 0
-193 -86 1042 0
-209 -1037 0
-209 -1038 0
-209 -1039 0
-209 -1040 0
-209 -1041 0
-209 -1042 0
-77 209 1037 1038 1039 1040 1041 1042 0
-225 97 0
-1043 77 0
-1043 89 0
-77 -89 1043 0
-1044 113 0
-1044 93 0
-113 -93 1044 0
-1045 129 0
-1045 95 0
-129 -95 1045 0
-1046 161 0
-1046 99 0
-161 -99 1046 0
-1047 177 0
-1047 101 0
-177 -101 1047 0
-1048 193 0
-1048 103 0
-193 -103 1048 0
-225 -1043 0
-225 -1044 0
-225 -1045 0
-225 -1046 0
-225 -1047 0
-225 -1048 0
-97 225 1043 1044 1045 1046 1047 1048 0
-241 113 0
-1049 77 0
-1049 105 0
-77 -105 1049 0
-1050 97 0
-1050 107 0
-97 -107 1050 0
-1051 129 0
-1051 111 0
-129 -111 1051 0
-1052 161 0
-1052 115 0
-161 -115 1052 0
-1053 177 0
-1053 117 0
-177 -117 1053 0
-1054 193 0
-1054 119 0
-193 -119 1054 0
-241 -1049 0
-241 -1050 0
-241 -1051 0
-241 -1052 0
-241 -1053 0
-241 -1054 0
-113 241 1049 1050 1051 1052 1053 1054 0
-257 129 0
-1055 77 0
-1055 121 0
-77 -121 1055 0
-1056 97 0
-1056 123 0
-97 -123 1056 0
-1057 113 0
-1057 125 0
-113 -125 1057 0
-1058 161 0
-1058 131 0
-161 -131 1058 0
-1059 177 0
-1059 133 0
-177 -133 1059 0
-1060 193 0
-1060 135 0
-193 -135 1060 0
-257 -1055 0
-257 -1056 0
-257 -1057 0
-257 -1058 0
-257 -1059 0
-257 -1060 0
-129 257 1055 1056 1057 1058 1059 1060 0
-273 0
-289 161 0
-1061 77 0
-1061 153 0
-77 -153 1061 0
-1062 97 0
-1062 155 0
-97 -155 1062 0
-1063 113 0
-1063 157 0
-113 -157 1063 0
-1064 129 0
-1064 159 0
-129 -159 1064 0
-1065 177 0
-1065 165 0
-177 -165 1065 0
-1066 193 0
-1066 167 0
-193 -167 1066 0
-289 -1061 0
-289 -1062 0
-289 -1063 0
-289 -1064 0
-289 -1065 0
-289 -1066 0
-161 289 1061 1062 1063 1064 1065 1066 0
-305 177 0
-1067 77 0
-1067 169 0
-77 -169 1067 0
-1068 97 0
-1068 171 0
-97 -171 1068 0
-1069 113 0
-1069 173 0
-113 -173 1069 0
-1070 129 0
-1070 175 0
-129 -175 1070 0
-1071 161 0
-1071 179 0
-161 -179 1071 0
-1072 193 0
-1072 183 0
-193 -183 1072 0
-305 -1067 0
-305 -1068 0
-305 -1069 0
-305 -1070 0
-305 -1071 0
-305 -1072 0
-177 305 1067 1068 1069 1070 1071 1072 0
-321 193 0
-1073 77 0
-1073 185 0
-77 -185 1073 0
-1074 97 0
-1074 187 0
-97 -187 1074 0
-1075 113 0
-1075 189 0
-113 -189 1075 0
-1076 129 0
-1076 191 0
-129 -191 1076 0
-1077 161 0
-1077 195 0
-161 -195 1077 0
-1078 177 0
-1078 197 0
-177 -197 1078 0
-321 -1073 0
-321 -1074 0
-321 -1075 0
-321 -1076 0
-321 -1077 0
-321 -1078 0
-193 321 1073 1074 1075 1076 1077 1078 0
-211 80 0
-1079 99 0
-1079 68 0
-99 -68 1079 0
-1080 115 0
-1080 71 0
-115 -71 1080 0
-1081 131 0
-1081 74 0
-131 -74 1081 0
-1082 147 0
-1082 77 0
-147 -77 1082 0
-1083 179 0
-1083 83 0
-179 -83 1083 0
-1084 195 0
-1084 86 0
-195 -86 1084 0
-211 -1079 0
-211 -1080 0
-211 -1081 0
-211 -1082 0
-211 -1083 0
-211 -1084 0
-80 211 1079 1080 1081 1082 1083 1084 0
-227 99 0
-1085 80 0
-1085 89 0
-80 -89 1085 0
-1086 115 0
-1086 93 0
-115 -93 1086 0
-1087 131 0
-1087 95 0
-131 -95 1087 0
-1088 147 0
-1088 97 0
-147 -97 1088 0
-1089 179 0
-1089 101 0
-179 -101 1089 0
-1090 195 0
-1090 103 0
-195 -103 1090 0
-227 -1085 0
-227 -1086 0
-227 -1087 0
-227 -1088 0
-227 -1089 0
-227 -1090 0
-99 227 1085 1086 1087 1088 1089 1090 0
-243 115 0
-1091 80 0
-1091 105 0
-80 -105 1091 0
-1092 99 0
-1092 107 0
-99 -107 1092 0
-1093 131 0
-1093 111 0
-131 -111 1093 0
-1094 147 0
-1094 113 0
-147 -113 1094 0
-1095 179 0
-1095 117 0
-179 -117 1095 0
-1096 195 0
-1096 119 0
-195 -119 1096 0
-243 -1091 0
-243 -1092 0
-243 -1093 0
-243 -1094 0
-243 -1095 0
-243 -1096 0
-115 243 1091 1092 1093 1094 1095 1096 0
-259 131 0
-1097 80 0
-1097 121 0
-80 -121 1097 0
-1098 99 0
-1098 123 0
-99 -123 1098 0
-1099 115 0
-1099 125 0
-115 -125 1099 0
-1100 147 0
-1100 129 0
-147 -129 1100 0
-1101 179 0
-1101 133 0
-179 -133 1101 0
-1102 195 0
-1102 135 0
-195 -135 1102 0
-259 -1097 0
-259 -1098 0
-259 -1099 0
-259 -1100 0
-259 -1101 0
-259 -1102 0
-131 259 1097 1098 1099 1100 1101 1102 0
-275 147 0
-1103 80 0
-1103 137 0
-80 -137 1103 0
-1104 99 0
-1104 139 0
-99 -139 1104 0
-1105 115 0
-1105 141 0
-115 -141 1105 0
-1106 131 0
-1106 143 0
-131 -143 1106 0
-1107 179 0
-1107 149 0
-179 -149 1107 0
-1108 195 0
-1108 151 0
-195 -151 1108 0
-275 -1103 0
-275 -1104 0
-275 -1105 0
-275 -1106 0
-275 -1107 0
-275 -1108 0
-147 275 1103 1104 1105 1106 1107 1108 0
-291 0
-307 179 0
-1109 80 0
-1109 169 0
-80 -169 1109 0
-1110 99 0
-1110 171 0
-99 -171 1110 0
-1111 115 0
-1111 173 0
-115 -173 1111 0
-1112 131 0
-1112 175 0
-131 -175 1112 0
-1113 147 0
-1113 177 0
-147 -177 1113 0
-1114 195 0
-1114 183 0
-195 -183 1114 0
-307 -1109 0
-307 -1110 0
-307 -1111 0
-307 -1112 0
-307 -1113 0
-307 -1114 0
-179 307 1109 1110 1111 1112 1113 1114 0
-323 195 0
-1115 80 0
-1115 185 0
-80 -185 1115 0
-1116 99 0
-1116 187 0
-99 -187 1116 0
-1117 115 0
-1117 189 0
-115 -189 1117 0
-1118 131 0
-1118 191 0
-131 -191 1118 0
-1119 147 0
-1119 193 0
-147 -193 1119 0
-1120 179 0
-1120 197 0
-179 -197 1120 0
-323 -1115 0
-323 -1116 0
-323 -1117 0
-323 -1118 0
-323 -1119 0
-323 -1120 0
-195 323 1115 1116 1117 1118 1119 1120 0
-213 83 0
-1121 101 0
-1121 68 0
-101 -68 1121 0
-1122 117 0
-1122 71 0
-117 -71 1122 0
-1123 133 0
-1123 74 0
-133 -74 1123 0
-1124 149 0
-1124 77 0
-149 -77 1124 0
-1125 165 0
-1125 80 0
-165 -80 1125 0
-1126 197 0
-1126 86 0
-197 -86 1126 0
-213 -1121 0
-213 -1122 0
-213 -1123 0
-213 -1124 0
-213 -1125 0
-213 -1126 0
-83 213 1121 1122 1123 1124 1125 1126 0
-229 101 0
-1127 83 0
-1127 89 0
-83 -89 1127 0
-1128 117 0
-1128 93 0
-117 -93 1128 0
-1129 133 0
-1129 95 0
-133 -95 1129 0
-1130 149 0
-1130 97 0
-149 -97 1130 0
-1131 165 0
-1131 99 0
-165 -99 1131 0
-1132 197 0
-1132 103 0
-197 -103 1132 0
-229 -1127 0
-229 -1128 0
-229 -1129 0
-229 -1130 0
-229 -1131 0
-229 -1132 0
-101 229 1127 1128 1129 1130 1131 1132 0
-245 117 0
-1133 83 0
-1133 105 0
-83 -105 1133 0
-1134 101 0
-1134 107 0
-101 -107 1134 0
-1135 133 0
-1135 111 0
-133 -111 1135 0
-1136 149 0
-1136 113 0
-149 -113 1136 0
-1137 165 0
-1137 115 0
-165 -115 1137 0
-1138 197 0
-1138 119 0
-197 -119 1138 0
-245 -1133 0
-245 -1134 0
-245 -1135 0
-245 -1136 0
-245 -1137 0
-245 -1138 0
-117 245 1133 1134 1135 1136 1137 1138 0
-261 133 0
-1139 83 0
-1139 121 0
-83 -121 1139 0
-1140 101 0
-1140 123 0
-101 -123 1140 0
-1141 117 0
-1141 125 0
-117 -125 1141 0
-1142 149 0
-1142 129 0
-149 -129 1142 0
-1143 165 0
-1143 131 0
-165 -131 1143 0
-1144 197 0
-1144 135 0
-197 -135 1144 0
-261 -1139 0
-261 -1140 0
-261 -1141 0
-261 -1142 0
-261 -1143 0
-261 -1144 0
-133 261 1139 1140 1141 1142 1143 1144 0
-277 149 0
-1145 83 0
-1145 137 0
-83 -137 1145 0
-1146 101 0
-1146 139 0
-101 -139 1146 0
-1147 117 0
-1147 141 0
-117 -141 1147 0
-1148 133 0
-1148 143 0
-133 -143 1148 0
-1149 165 0
-1149 147 0
-165 -147 1149 0
-1150 197 0
-1150 151 0
-197 -151 1150 0
-277 -1145 0
-277 -1146 0
-277 -1147 0
-277 -1148 0
-277 -1149 0
-277 -1150 0
-149 277 1145 1146 1147 1148 1149 1150 0
-293 165 0
-1151 83 0
-1151 153 0
-83 -153 1151 0
-1152 101 0
-1152 155 0
-101 -155 1152 0
-1153 117 0
-1153 157 0
-117 -157 1153 0
-1154 133 0
-1154 159 0
-133 -159 1154 0
-1155 149 0
-1155 161 0
-149 -161 1155 0
-1156 197 0
-1156 167 0
-197 -167 1156 0
-293 -1151 0
-293 -1152 0
-293 -1153 0
-293 -1154 0
-293 -1155 0
-293 -1156 0
-165 293 1151 1152 1153 1154 1155 1156 0
-309 0
-325 197 0
-1157 83 0
-1157 185 0
-83 -185 1157 0
-1158 101 0
-1158 187 0
-101 -187 1158 0
-1159 117 0
-1159 189 0
-117 -189 1159 0
-1160 133 0
-1160 191 0
-133 -191 1160 0
-1161 149 0
-1161 193 0
-149 -193 1161 0
-1162 165 0
-1162 195 0
-165 -195 1162 0
-325 -1157 0
-325 -1158 0
-325 -1159 0
-325 -1160 0
-325 -1161 0
-325 -1162 0
-197 325 1157 1158 1159 1160 1161 1162 0
-215 86 0
-1163 103 0
-1163 68 0
-103 -68 1163 0
-1164 119 0
-1164 71 0
-119 -71 1164 0
-1165 135 0
-1165 74 0
-135 -74 1165 0
-1166 151 0
-1166 77 0
-151 -77 1166 0
-1167 167 0
-1167 80 0
-167 -80 1167 0
-1168 183 0
-1168 83 0
-183 -83 1168 0
-215 -1163 0
-215 -1164 0
-215 -1165 0
-215 -1166 0
-215 -1167 0
-215 -1168 0
-86 215 1163 1164 1165 1166 1167 1168 0
-231 103 0
-1169 86 0
-1169 89 0
-86 -89 1169 0
-1170 119 0
-1170 93 0
-119 -93 1170 0
-1171 135 0
-1171 95 0
-135 -95 1171 0
-1172 151 0
-1172 97 0
-151 -97 1172 0
-1173 167 0
-1173 99 0
-167 -99 1173 0
-1174 183 0
-1174 101 0
-183 -101 1174 0
-231 -1169 0
-231 -1170 0
-231 -1171 0
-231 -1172 0
-231 -1173 0
-231 -1174 0
-103 231 1169 1170 1171 1172 1173 1174 0
-247 119 0
-1175 86 0
-1175 105 0
-86 -105 1175 0
-1176 103 0
-1176 107 0
-103 -107 1176 0
-1177 135 0
-1177 111 0
-135 -111 1177 0
-1178 151 0
-1178 113 0
-151 -113 1178 0
-1179 167 0
-1179 115 0
-167 -115 1179 0
-1180 183 0
-1180 117 0
-183 -117 1180 0
-247 -1175 0
-247 -1176 0
-247 -1177 0
-247 -1178 0
-247 -1179 0
-247 -1180 0
-119 247 1175 1176 1177 1178 1179 1180 0
-263 135 0
-1181 86 0
-1181 121 0
-86 -121 1181 0
-1182 103 0
-1182 123 0
-103 -123 1182 0
-1183 119 0
-1183 125 0
-119 -125 1183 0
-1184 151 0
-1184 129 0
-151 -129 1184 0
-1185 167 0
-1185 131 0
-167 -131 1185 0
-1186 183 0
-1186 133 0
-183 -133 1186 0
-263 -1181 0
-263 -1182 0
-263 -1183 0
-263 -1184 0
-263 -1185 0
-263 -1186 0
-135 263 1181 1182 1183 1184 1185 1186 0
-279 151 0
-1187 86 0
-1187 137 0
-86 -137 1187 0
-1188 103 0
-1188 139 0
-103 -139 1188 0
-1189 119 0
-1189 141 0
-119 -141 1189 0
-1190 135 0
-1190 143 0
-135 -143 1190 0
-1191 167 0
-1191 147 0
-167 -147 1191 0
-1192 183 0
-1192 149 0
-183 -149 1192 0
-279 -1187 0
-279 -1188 0
-279 -1189 0
-279 -1190 0
-279 -1191 0
-279 -1192 0
-151 279 1187 1188 1189 1190 1191 1192 0
-295 167 0
-1193 86 0
-1193 153 0
-86 -153 1193 0
-1194 103 0
-1194 155 0
-103 -155 1194 0
-1195 119 0
-1195 157 0
-119 -157 1195 0
-1196 135 0
-1196 159 0
-135 -159 1196 0
-1197 151 0
-1197 161 0
-151 -161 1197 0
-1198 183 0
-1198 165 0
-183 -165 1198 0
-295 -1193 0
-295 -1194 0
-295 -1195 0
-295 -1196 0
-295 -1197 0
-295 -1198 0
-167 295 1193 1194 1195 1196 1197 1198 0
-311 183 0
-1199 86 0
-1199 169 0
-86 -169 1199 0
-1200 103 0
-1200 171 0
-103 -171 1200 0
-1201 119 0
-1201 173 0
-119 -173 1201 0
-1202 135 0
-1202 175 0
-135 -175 1202 0
-1203 151 0
-1203 177 0
-151 -177 1203 0
-1204 167 0
-1204 179 0
-167 -179 1204 0
-311 -1199 0
-311 -1200 0
-311 -1201 0
-311 -1202 0
-311 -1203 0
-311 -1204 0
-183 311 1199 1200 1201 1202 1203 1204 0
-327 0
