p cnf 2553 9294
c ind 1 2 3 4 5 6 7 8 9 10 11 12 13 14 15 16 17 18 19 20 21 22 23 24 25 26 27 28 29 30 31 32 33 34 35 36 37 38 39 40 41 42 43 44 45 46 47 48 49 50 0
c ind 51 52 53 54 55 56 57 58 59 60 61 62 63 64 65 66 67 68 69 70 71 72 73 74 75 76 77 78 79 80 81 82 83 84 85 86 87 88 89 90 91 92 93 94 95 96 97 98 99 100 0
c ind 101 102 103 104 105 106 107 108 109 110 111 112 113 114 115 116 117 118 119 120 121 122 123 124 125 126 127 128 129 130 131 132 133 134 135 136 137 138 139 140 141 142 143 144 145 146 147 148 149 150 0
c ind 151 152 153 154 155 156 157 158 159 160 161 162 163 164 165 166 167 168 169 170 171 172 173 174 175 176 177 178 179 180 181 182 183 184 185 186 187 188 189 190 191 192 193 194 195 196 197 198 199 200 0
c ind 201 202 203 204 205 206 207 208 209 210 211 212 213 214 215 216 217 218 219 220 221 222 223 224 225 226 227 228 229 230 231 232 233 234 235 236 237 238 239 240 241 242 243 244 245 246 247 248 249 250 0
c ind 251 252 253 254 255 256 257 258 259 260 261 262 263 264 265 266 267 268 269 270 271 272 273 274 275 276 277 278 279 280 281 282 283 284 285 286 287 288 289 290 291 292 293 294 295 296 297 298 299 300 0
c ind 301 302 303 304 305 306 307 308 309 310 311 312 313 314 315 316 317 318 319 320 321 322 323 324 325 326 327 328 329 330 331 332 333 334 335 336 337 338 339 340 341 342 343 344 345 346 347 348 349 350 0
c ind 351 352 353 354 355 356 357 358 359 360 361 362 363 364 365 366 367 368 369 370 371 372 373 374 375 376 377 378 379 380 381 382 383 384 385 386 387 388 389 390 391 392 393 394 395 396 397 398 399 400 0
c ind 401 402 403 404 405 406 407 408 409 410 411 412 413 414 415 416 417 418 419 420 421 422 423 424 425 426 427 428 429 430 431 432 433 434 435 436 437 438 439 440 441 442 443 444 445 446 447 448 449 450 0
c ind 451 452 453 454 455 456 457 458 459 460 461 462 463 464 465 466 467 468 469 470 471 472 473 474 475 476 477 478 479 480 481 482 483 484 485 486 487 488 489 490 491 492 493 494 495 496 497 498 499 500 0
c ind 501 502 503 504 505 506 507 508 509 510 511 512 513 514 515 516 517 518 519 520 521 522 523 524 525 526 527 528 529 530 531 532 533 534 535 536 537 538 539 540 541 542 543 544 545 546 547 548 549 550 0
c ind 551 552 553 554 555 556 557 558 559 560 561 562 563 564 565 566 567 568 569 570 571 572 573 574 575 576 577 578 579 580 581 582 583 584 585 586 587 588 589 590 591 592 593 594 595 596 597 598 599 600 0
c ind 601 602 603 604 605 606 607 608 609 610 611 612 613 614 615 616 617 618 619 620 621 622 623 624 625 626 627 628 629 630 631 632 633 634 635 636 637 638 639 640 641 642 643 644 645 646 647 648 649 650 0
c ind 651 652 653 654 655 656 657 658 659 660 661 662 663 664 665 666 667 668 669 670 671 672 673 674 675 676 677 678 679 680 681 682 683 684 685 686 687 688 689 690 691 692 693 694 695 696 697 698 699 700 0
c ind 701 702 703 704 705 706 707 708 709 710 711 712 713 714 715 716 717 718 719 720 721 722 723 724 725 726 727 728 729 730 731 732 733 734 735 736 737 738 739 740 741 742 743 744 745 746 747 748 749 750 0
c ind 751 752 753 754 755 756 757 758 759 760 761 762 763 764 765 766 767 768 769 770 771 772 773 774 775 776 777 778 779 780 781 782 783 784 785 786 787 788 789 790 791 792 793 794 795 796 797 798 799 800 0
c ind 801 802 803 804 805 806 807 808 809 810 811 812 813 814 815 816 817 818 819 820 821 822 823 824 825 826 827 828 829 830 831 832 833 834 835 836 837 838 839 840 841 842 843 844 845 846 847 848 849 850 0
c ind 851 852 853 854 855 856 857 858 859 860 861 862 863 864 865 866 867 868 869 870 871 872 873 874 875 876 877 878 879 880 881 882 883 884 885 886 887 888 889 890 891 892 893 894 895 896 897 898 899 900 0
c ind 901 902 903 904 905 906 907 908 909 910 911 912 913 914 915 916 917 918 919 920 921 922 923 924 925 926 927 928 929 930 931 932 933 934 935 936 937 938 939 940 941 942 943 944 945 946 947 948 949 950 0
c ind 951 952 953 954 955 956 957 958 959 960 961 962 963 964 965 966 967 968 969 970 971 972 973 974 975 976 977 978 979 980 981 982 983 984 985 986 987 988 989 990 991 992 993 994 995 996 997 998 999 1000 0
c ind 1001 1002 1003 1004 1005 1006 1007 1008 1009 1010 1011 1012 1013 1014 1015 1016 1017 1018 1019 1020 1021 1022 1023 1024 1025 1026 1027 1028 1029 1030 1031 1032 1033 1034 1035 1036 1037 1038 1039 1040 1041 1042 1043 1044 1045 1046 1047 1048 1049 1050 0
c ind 1051 1052 1053 1054 1055 1056 1057 1058 1059 1060 1061 1062 1063 1064 1065 1066 1067 1068 1069 1070 1071 1072 1073 1074 1075 1076 1077 1078 1079 1080 1081 1082 1083 1084 1085 1086 1087 1088 1089 1090 1091 1092 1093 1094 1095 1096 1097 1098 1099 1100 0
c ind 1101 1102 1103 1104 1105 1106 1107 1108 1109 1110 1111 1112 1113 1114 1115 1116 1117 1118 1119 1120 1121 1122 1123 1124 1125 1126 1127 1128 1129 1130 1131 1132 1133 1134 1135 1136 1137 1138 1139 1140 1141 1142 1143 1144 1145 1146 1147 1148 1149 1150 0
c ind 1151 1152 1153 1154 1155 1156 1157 1158 1159 1160 1161 1162 1163 1164 1165 1166 1167 1168 1169 1170 1171 1172 1173 1174 1175 1176 1177 1178 1179 1180 1181 1182 1183 1184 1185 1186 1187 1188 1189 1190 1191 1192 1193 1194 1195 1196 1197 1198 1199 1200 0
c ind 1201 1202 1203 1204 1205 1206 1207 1208 1209 1210 1211 1212 1213 1214 1215 1216 1217 1218 1219 1220 1221 1222 1223 1224 1225 1226 1227 1228 1229 1230 1231 1232 1233 1234 1235 1236 1237 1238 1239 1240 1241 1242 1243 1244 1245 1246 1247 1248 1249 1250 0
c ind 1251 1252 1253 1254 1255 1256 1257 1258 1259 1260 1261 1262 1263 1264 1265 1266 1267 1268 1269 1270 1271 1272 1273 1274 1275 1276 1277 1278 1279 1280 1281 1282 1283 1284 1285 1286 1287 1288 1289 1290 1291 1292 1293 1294 1295 1296 1297 1298 1299 1300 0
c ind 1301 1302 1303 1304 1305 1306 1307 1308 1309 1310 1311 1312 1313 1314 1315 1316 1317 1318 1319 1320 1321 1322 1323 1324 1325 1326 1327 1328 1329 1330 1331 1332 1333 1334 1335 1336 1337 1338 1339 1340 1341 1342 1343 1344 1345 1346 1347 1348 1349 1350 0
c ind 1351 1352 1353 1354 1355 1356 1357 1358 1359 1360 1361 1362 1363 1364 1365 1366 1367 1368 1369 1370 1371 1372 1373 1374 1375 1376 1377 1378 1379 1380 1381 1382 1383 1384 1385 1386 1387 1388 1389 1390 1391 1392 1393 1394 1395 1396 1397 1398 1399 1400 0
c ind 1401 1402 1403 1404 1405 1406 1407 1408 1409 1410 1411 1412 1413 1414 1415 1416 1417 1418 1419 1420 1421 1422 1423 1424 1425 1426 1427 1428 1429 1430 1431 1432 1433 1434 1435 1436 1437 1438 1439 1440 1441 1442 1443 1444 1445 1446 1447 1448 1449 1450 0
c ind 1451 1452 1453 1454 1455 1456 1457 1458 1459 1460 1461 1462 1463 1464 1465 1466 1467 1468 1469 1470 1471 1472 1473 1474 1475 1476 1477 1478 1479 1480 1481 1482 1483 1484 1485 1486 1487 1488 1489 1490 1491 1492 1493 1494 1495 1496 1497 1498 1499 1500 0
c ind 1501 1502 1503 1504 1505 1506 1507 1508 1509 1510 1511 1512 1513 1514 1515 1516 1517 1518 1519 1520 1521 1522 1523 1524 1525 1526 1527 1528 1529 1530 1531 1532 1533 1534 1535 1536 1537 1538 1539 1540 1541 1542 1543 1544 1545 1546 1547 1548 1549 1550 0
c ind 1551 1552 1553 1554 1555 1556 1557 1558 1559 1560 1561 1562 1563 1564 1565 1566 1567 1568 1569 1570 1571 1572 1573 1574 1575 1576 1577 1578 1579 1580 1581 1582 1583 1584 1585 1586 1587 1588 1589 1590 1591 1592 1593 1594 1595 1596 1597 1598 1599 1600 0
c ind 1601 1602 1603 1604 1605 1606 1607 1608 1609 1610 1611 1612 1613 1614 1615 1616 1617 1618 1619 1620 1621 1622 1623 1624 1625 1626 1627 1628 1629 1630 1631 1632 1633 1634 1635 1636 1637 1638 1639 1640 1641 1642 1643 1644 1645 1646 1647 1648 1649 1650 0
c ind 1651 1652 1653 1654 1655 1656 1657 1658 1659 1660 1661 1662 1663 1664 1665 1666 1667 1668 1669 1670 1671 1672 1673 1674 1675 1676 1677 1678 1679 1680 1681 1682 1683 1684 1685 1686 1687 1688 1689 1690 1691 1692 1693 1694 1695 1696 1697 1698 1699 1700 0
c ind 1701 1702 1703 1704 1705 1706 1707 1708 1709 1710 1711 1712 1713 1714 1715 1716 1717 1718 1719 1720 1721 1722 1723 1724 1725 1726 1727 1728 1729 1730 1731 1732 1733 1734 1735 1736 1737 1738 1739 1740 1741 1742 1743 1744 1745 1746 1747 1748 1749 1750 0
c ind 1751 1752 1753 1754 1755 1756 1757 1758 1759 1760 1761 1762 1763 1764 1765 1766 1767 1768 1769 1770 1771 1772 1773 1774 1775 1776 1777 1778 1779 1780 1781 1782 1783 1784 1785 1786 1787 1788 1789 1790 1791 1792 1793 1794 1795 1796 1797 1798 1799 1800 0
c ind 1801 1802 1803 1804 1805 1806 1807 1808 1809 1810 1811 1812 1813 1814 1815 1816 1817 1818 1819 1820 1821 1822 1823 1824 1825 1826 1827 1828 1829 1830 1831 1832 1833 1834 1835 1836 1837 1838 1839 1840 1841 1842 1843 1844 1845 1846 1847 1848 1849 1850 0
c ind 1851 1852 1853 1854 1855 1856 1857 1858 1859 1860 1861 1862 1863 1864 1865 1866 1867 1868 1869 1870 1871 1872 1873 1874 1875 1876 1877 1878 1879 1880 1881 1882 1883 1884 1885 1886 1887 1888 1889 1890 1891 1892 1893 1894 1895 1896 1897 1898 1899 1900 0
c ind 1901 1902 1903 1904 1905 1906 1907 1908 1909 1910 1911 1912 1913 1914 1915 1916 1917 1918 1919 1920 1921 1922 1923 1924 1925 1926 1951 1952 1953 1954 1955 1956 1957 1958 1959 1960 1961 1962 1963 1964 1965 1966 1967 1968 1969 1970 1971 1972 1973 1974 0
c ind 1975 1976 1977 1978 1979 1980 1981 1982 1983 1984 1985 1986 1987 1988 1989 1990 1991 1992 1993 1994 1995 1996 1997 1998 1999 2000 2001 2002 2003 2004 2005 2006 2007 2008 2009 2010 2011 2012 2013 2014 2015 2016 2017 2018 2019 2020 2021 2022 2023 2024 0
c ind 2025 2026 2027 2028 2029 2030 2031 2032 2033 2034 2035 2036 2037 2038 2039 2040 2041 2042 2043 2044 2045 2046 2047 2048 2049 2050 2051 2052 2053 2054 2055 2056 2057 2058 2059 2060 2061 2062 2063 2064 2065 2066 2067 2068 2069 2070 2071 2072 2073 2074 0
c ind 2075 2076 2077 2078 2079 2080 2081 2082 2083 2084 2085 2086 2087 2088 2089 2090 2091 2092 2093 2094 2095 2096 2097 2098 2099 2100 2101 2102 2103 2104 2105 2106 2107 2108 2109 2110 2111 2112 2113 2114 2115 2116 2117 2118 2119 2120 2121 2122 2123 2124 0
c ind 2125 2126 2127 2128 2129 2130 2131 2132 2133 2134 2135 2136 2137 2138 2139 2140 2141 2142 2143 2144 2145 2146 2147 2148 2149 2150 2151 2152 2153 2154 2155 2156 2157 2158 2159 2160 2161 2162 2163 2164 2165 2166 2167 2168 2169 2170 2171 2172 2173 2174 0
c ind 2175 2176 2177 2178 2179 2180 2181 2182 2183 2184 2185 2186 2187 2188 2189 2190 2191 2192 2193 2194 2195 2196 2197 2198 2199 2200 2201 2202 2203 2204 2205 2206 2207 2208 2209 2210 2211 2212 2213 2214 2215 2216 2217 2218 2219 2220 2221 2222 2223 2224 0
c ind 2225 2226 2227 2228 2229 2230 2231 2232 2233 2234 2235 2236 2237 2238 2239 2240 2241 2242 2243 2244 2245 2246 2247 2248 2249 2250 2251 2252 2253 2254 2255 2256 2257 2258 2259 2260 2261 2262 2263 2264 2265 2266 2267 2268 2269 2270 2271 2272 2273 2274 0
c ind 2275 2276 2277 2278 2279 2280 2281 2282 2283 2284 2285 2286 2287 2288 2289 2290 2291 2292 2293 2294 2295 2296 2297 2298 2299 2300 2301 2302 2303 2304 2305 2306 2307 2308 2309 2310 2311 2312 2313 2314 2315 2316 2317 2318 2319 2320 2321 2322 2323 2324 0
c ind 2325 2326 2327 2328 2329 2330 2331 2332 2333 2334 2335 2336 2337 2338 2339 2340 2341 2342 2343 2344 2345 2346 2347 2348 2349 2350 2351 2352 2353 2354 2355 2356 2357 2358 2359 2360 2361 2362 2363 2364 2365 2366 2367 2368 2369 2370 2371 2372 2373 2374 0
c ind 2375 2376 2377 2378 2379 2380 2381 2382 2383 2384 2385 2386 2387 2388 2389 2390 2391 2392 2393 2394 2395 2396 2397 2398 2399 2400 2401 2402 2403 2404 2405 2406 2407 2408 2409 2410 2411 2412 2413 2414 2415 2416 2417 2418 2419 2420 2421 2422 2423 2424 0
c ind 2425 2426 2427 2428 2429 2430 2431 2432 2433 2434 2435 2436 2437 2438 2439 2440 2441 2442 2443 2444 2445 2446 2447 2448 2449 2450 2451 2452 2453 2454 2455 2456 2457 2458 2459 2460 2461 2462 2463 2464 2465 2466 2467 2468 2469 2470 2471 2472 2473 2474 0
c ind 2475 2476 2477 2478 2479 2480 2481 2482 2483 2484 2485 2486 2487 2488 2489 2490 2491 2492 2493 2494 2495 2496 2497 2498 2499 2500 2501 2502 2503 2504 2505 2506 2507 2508 2509 2510 2511 2512 2513 2514 2515 2516 2517 2518 2519 2520 2521 2522 2523 2524 0
c ind 2525 2526 2527 2528 2529 2530 2531 2532 2533 2534 2535 2536 2537 2538 2539 2540 2541 2542 2543 2544 2545 2546 2547 2548 2549 2550 2551 2552 2553 0
1 2 3 4 5 6 7 8 9 0
10 11 12 13 14 15 16 17 18 0
19 20 21 22 23 24 25 26 27 0
28 29 30 31 32 33 34 35 36 0
37 38 39 40 41 42 43 44 45 0
46 47 48 49 50 51 52 53 54 0
55 56 57 58 59 60 61 62 63 0
64 65 66 67 68 69 70 71 72 0
73 74 75 76 77 78 79 80 81 0
82 83 84 85 86 87 88 89 90 0
91 92 93 94 95 96 97 98 99 0
100 101 102 103 104 105 106 107 108 0
109 110 111 112 113 114 115 116 117 0
118 119 120 121 122 123 124 125 126 0
127 128 129 130 131 132 133 134 135 0
136 137 138 139 140 141 142 143 144 0
145 146 147 148 149 150 151 152 153 0
154 155 156 157 158 159 160 161 162 0
163 164 165 166 167 168 169 170 171 0
172 173 174 175 176 177 178 179 180 0
181 182 183 184 185 186 187 188 189 0
190 191 192 193 194 195 196 197 198 0
199 200 201 202 203 204 205 206 207 0
208 209 210 211 212 213 214 215 216 0
217 218 219 220 221 222 223 224 225 0
226 227 228 229 230 231 232 233 234 0
235 236 237 238 239 240 241 242 243 0
244 245 -245 -246 0
247 245 -248 -249 0
250 245 -251 -252 0
253 245 -254 -255 0
256 245 -257 -258 0
259 245 -260 -261 0
262 245 -263 -264 0
265 245 -266 -267 0
268 245 -269 -270 0
271 248 -245 -272 0
273 248 -248 -274 0
275 248 -251 -276 0
277 248 -254 -278 0
279 248 -257 -280 0
281 248 -260 -282 0
283 248 -263 -284 0
285 248 -266 -286 0
287 248 -269 -288 0
289 251 -245 -290 0
291 251 -248 -292 0
293 251 -251 -294 0
295 251 -254 -296 0
297 251 -257 -298 0
299 251 -260 -300 0
301 251 -263 -302 0
303 251 -266 -304 0
305 251 -269 -306 0
307 254 -245 -308 0
309 254 -248 -310 0
311 254 -251 -312 0
313 254 -254 -314 0
315 254 -257 -316 0
317 254 -260 -318 0
319 254 -263 -320 0
321 254 -266 -322 0
323 254 -269 -324 0
325 257 -245 -326 0
327 257 -248 -328 0
329 257 -251 -330 0
331 257 -254 -332 0
333 257 -257 -334 0
335 257 -260 -336 0
337 257 -263 -338 0
339 257 -266 -340 0
341 257 -269 -342 0
343 260 -245 -344 0
345 260 -248 -346 0
347 260 -251 -348 0
349 260 -254 -350 0
351 260 -257 -352 0
353 260 -260 -354 0
355 260 -263 -356 0
357 260 -266 -358 0
359 260 -269 -360 0
361 263 -245 -362 0
363 263 -248 -364 0
365 263 -251 -366 0
367 263 -254 -368 0
369 263 -257 -370 0
371 263 -260 -372 0
373 263 -263 -374 0
375 263 -266 -376 0
377 263 -269 -378 0
379 266 -245 -380 0
381 266 -248 -382 0
383 266 -251 -384 0
385 266 -254 -386 0
387 266 -257 -388 0
389 266 -260 -390 0
391 266 -263 -392 0
393 266 -266 -394 0
395 266 -269 -396 0
397 269 -245 -398 0
399 269 -248 -400 0
401 269 -251 -402 0
403 269 -254 -404 0
405 269 -257 -406 0
407 269 -260 -408 0
409 269 -263 -410 0
411 269 -266 -412 0
413 269 -269 -414 0
246 -244 0
249 -247 0
252 -250 0
255 -253 0
258 -256 0
261 -259 0
264 -262 0
267 -265 0
270 -268 0
272 -271 0
274 -273 0
276 -275 0
278 -277 0
280 -279 0
282 -281 0
284 -283 0
286 -285 0
288 -287 0
290 -289 0
292 -291 0
294 -293 0
296 -295 0
298 -297 0
300 -299 0
302 -301 0
304 -303 0
306 -305 0
308 -307 0
310 -309 0
312 -311 0
314 -313 0
316 -315 0
318 -317 0
320 -319 0
322 -321 0
324 -323 0
326 -325 0
328 -327 0
330 -329 0
332 -331 0
334 -333 0
336 -335 0
338 -337 0
340 -339 0
342 -341 0
344 -343 0
346 -345 0
348 -347 0
350 -349 0
352 -351 0
354 -353 0
356 -355 0
358 -357 0
360 -359 0
362 -361 0
364 -363 0
366 -365 0
368 -367 0
370 -369 0
372 -371 0
374 -373 0
376 -375 0
378 -377 0
380 -379 0
382 -381 0
384 -383 0
386 -385 0
388 -387 0
390 -389 0
392 -391 0
394 -393 0
396 -395 0
398 -397 0
400 -399 0
402 -401 0
404 -403 0
406 -405 0
408 -407 0
410 -409 0
412 -411 0
414 -413 0
246 -245 0
249 -245 0
252 -245 0
255 -245 0
258 -245 0
261 -245 0
264 -245 0
267 -245 0
270 -245 0
272 -248 0
274 -248 0
276 -248 0
278 -248 0
280 -248 0
282 -248 0
284 -248 0
286 -248 0
288 -248 0
290 -251 0
292 -251 0
294 -251 0
296 -251 0
298 -251 0
300 -251 0
302 -251 0
304 -251 0
306 -251 0
308 -254 0
310 -254 0
312 -254 0
314 -254 0
316 -254 0
318 -254 0
320 -254 0
322 -254 0
324 -254 0
326 -257 0
328 -257 0
330 -257 0
332 -257 0
334 -257 0
336 -257 0
338 -257 0
340 -257 0
342 -257 0
344 -260 0
346 -260 0
348 -260 0
350 -260 0
352 -260 0
354 -260 0
356 -260 0
358 -260 0
360 -260 0
362 -263 0
364 -263 0
366 -263 0
368 -263 0
370 -263 0
372 -263 0
374 -263 0
376 -263 0
378 -263 0
380 -266 0
382 -266 0
384 -266 0
386 -266 0
388 -266 0
390 -266 0
392 -266 0
394 -266 0
396 -266 0
398 -269 0
400 -269 0
402 -269 0
404 -269 0
406 -269 0
408 -269 0
410 -269 0
412 -269 0
414 -269 0
246 245 0
249 248 0
252 251 0
255 254 0
258 257 0
261 260 0
264 263 0
267 266 0
270 269 0
272 245 0
274 248 0
276 251 0
278 254 0
280 257 0
282 260 0
284 263 0
286 266 0
288 269 0
290 245 0
292 248 0
294 251 0
296 254 0
298 257 0
300 260 0
302 263 0
304 266 0
306 269 0
308 245 0
310 248 0
312 251 0
314 254 0
316 257 0
318 260 0
320 263 0
322 266 0
324 269 0
326 245 0
328 248 0
330 251 0
332 254 0
334 257 0
336 260 0
338 263 0
340 266 0
342 269 0
344 245 0
346 248 0
348 251 0
350 254 0
352 257 0
354 260 0
356 263 0
358 266 0
360 269 0
362 245 0
364 248 0
366 251 0
368 254 0
370 257 0
372 260 0
374 263 0
376 266 0
378 269 0
380 245 0
382 248 0
384 251 0
386 254 0
388 257 0
390 260 0
392 263 0
394 266 0
396 269 0
398 245 0
400 248 0
402 251 0
404 254 0
406 257 0
408 260 0
410 263 0
412 266 0
414 269 0
-415 -245 -245 416 0
-417 -248 -245 418 0
-419 -251 -245 420 0
-421 -254 -245 422 0
-423 -257 -245 424 0
-425 -260 -245 426 0
-427 -263 -245 428 0
-429 -266 -245 430 0
-431 -269 -245 432 0
-433 -245 -248 434 0
-435 -248 -248 436 0
-437 -251 -248 438 0
-439 -254 -248 440 0
-441 -257 -248 442 0
-443 -260 -248 444 0
-445 -263 -248 446 0
-447 -266 -248 448 0
-449 -269 -248 450 0
-451 -245 -251 452 0
-453 -248 -251 454 0
-455 -251 -251 456 0
-457 -254 -251 458 0
-459 -257 -251 460 0
-461 -260 -251 462 0
-463 -263 -251 464 0
-465 -266 -251 466 0
-467 -269 -251 468 0
-469 -245 -254 470 0
-471 -248 -254 472 0
-473 -251 -254 474 0
-475 -254 -254 476 0
-477 -257 -254 478 0
-479 -260 -254 480 0
-481 -263 -254 482 0
-483 -266 -254 484 0
-485 -269 -254 486 0
-487 -245 -257 488 0
-489 -248 -257 490 0
-491 -251 -257 492 0
-493 -254 -257 494 0
-495 -257 -257 496 0
-497 -260 -257 498 0
-499 -263 -257 500 0
-501 -266 -257 502 0
-503 -269 -257 504 0
-505 -245 -260 506 0
-507 -248 -260 508 0
-509 -251 -260 510 0
-511 -254 -260 512 0
-513 -257 -260 514 0
-515 -260 -260 516 0
-517 -263 -260 518 0
-519 -266 -260 520 0
-521 -269 -260 522 0
-523 -245 -263 524 0
-525 -248 -263 526 0
-527 -251 -263 528 0
-529 -254 -263 530 0
-531 -257 -263 532 0
-533 -260 -263 534 0
-535 -263 -263 536 0
-537 -266 -263 538 0
-539 -269 -263 540 0
-541 -245 -266 542 0
-543 -248 -266 544 0
-545 -251 -266 546 0
-547 -254 -266 548 0
-549 -257 -266 550 0
-551 -260 -266 552 0
-553 -263 -266 554 0
-555 -266 -266 556 0
-557 -269 -266 558 0
-559 -245 -269 560 0
-561 -248 -269 562 0
-563 -251 -269 564 0
-565 -254 -269 566 0
-567 -257 -269 568 0
-569 -260 -269 570 0
-571 -263 -269 572 0
-573 -266 -269 574 0
-575 -269 -269 576 0
-416 415 0
-418 417 0
-420 419 0
-422 421 0
-424 423 0
-426 425 0
-428 427 0
-430 429 0
-432 431 0
-434 433 0
-436 435 0
-438 437 0
-440 439 0
-442 441 0
-444 443 0
-446 445 0
-448 447 0
-450 449 0
-452 451 0
-454 453 0
-456 455 0
-458 457 0
-460 459 0
-462 461 0
-464 463 0
-466 465 0
-468 467 0
-470 469 0
-472 471 0
-474 473 0
-476 475 0
-478 477 0
-480 479 0
-482 481 0
-484 483 0
-486 485 0
-488 487 0
-490 489 0
-492 491 0
-494 493 0
-496 495 0
-498 497 0
-500 499 0
-502 501 0
-504 503 0
-506 505 0
-508 507 0
-510 509 0
-512 511 0
-514 513 0
-516 515 0
-518 517 0
-520 519 0
-522 521 0
-524 523 0
-526 525 0
-528 527 0
-530 529 0
-532 531 0
-534 533 0
-536 535 0
-538 537 0
-540 539 0
-542 541 0
-544 543 0
-546 545 0
-548 547 0
-550 549 0
-552 551 0
-554 553 0
-556 555 0
-558 557 0
-560 559 0
-562 561 0
-564 563 0
-566 565 0
-568 567 0
-570 569 0
-572 571 0
-574 573 0
-576 575 0
-416 245 0
-418 248 0
-420 251 0
-422 254 0
-424 257 0
-426 260 0
-428 263 0
-430 266 0
-432 269 0
-434 245 0
-436 248 0
-438 251 0
-440 254 0
-442 257 0
-444 260 0
-446 263 0
-448 266 0
-450 269 0
-452 245 0
-454 248 0
-456 251 0
-458 254 0
-460 257 0
-462 260 0
-464 263 0
-466 266 0
-468 269 0
-470 245 0
-472 248 0
-474 251 0
-476 254 0
-478 257 0
-480 260 0
-482 263 0
-484 266 0
-486 269 0
-488 245 0
-490 248 0
-492 251 0
-494 254 0
-496 257 0
-498 260 0
-500 263 0
-502 266 0
-504 269 0
-506 245 0
-508 248 0
-510 251 0
-512 254 0
-514 257 0
-516 260 0
-518 263 0
-520 266 0
-522 269 0
-524 245 0
-526 248 0
-528 251 0
-530 254 0
-532 257 0
-534 260 0
-536 263 0
-538 266 0
-540 269 0
-542 245 0
-544 248 0
-546 251 0
-548 254 0
-550 257 0
-552 260 0
-554 263 0
-556 266 0
-558 269 0
-560 245 0
-562 248 0
-564 251 0
-566 254 0
-568 257 0
-570 260 0
-572 263 0
-574 266 0
-576 269 0
-416 245 0
-418 245 0
-420 245 0
-422 245 0
-424 245 0
-426 245 0
-428 245 0
-430 245 0
-432 245 0
-434 248 0
-436 248 0
-438 248 0
-440 248 0
-442 248 0
-444 248 0
-446 248 0
-448 248 0
-450 248 0
-452 251 0
-454 251 0
-456 251 0
-458 251 0
-460 251 0
-462 251 0
-464 251 0
-466 251 0
-468 251 0
-470 254 0
-472 254 0
-474 254 0
-476 254 0
-478 254 0
-480 254 0
-482 254 0
-484 254 0
-486 254 0
-488 257 0
-490 257 0
-492 257 0
-494 257 0
-496 257 0
-498 257 0
-500 257 0
-502 257 0
-504 257 0
-506 260 0
-508 260 0
-510 260 0
-512 260 0
-514 260 0
-516 260 0
-518 260 0
-520 260 0
-522 260 0
-524 263 0
-526 263 0
-528 263 0
-530 263 0
-532 263 0
-534 263 0
-536 263 0
-538 263 0
-540 263 0
-542 266 0
-544 266 0
-546 266 0
-548 266 0
-550 266 0
-552 266 0
-554 266 0
-556 266 0
-558 266 0
-560 269 0
-562 269 0
-564 269 0
-566 269 0
-568 269 0
-570 269 0
-572 269 0
-574 269 0
-576 269 0
-577 416 -578 0
-579 418 -580 0
-581 420 -582 0
-583 422 -584 0
-585 424 -586 0
-587 426 -588 0
-589 428 -590 0
-591 430 -592 0
-593 432 -594 0
-595 434 -596 0
-597 436 -598 0
-599 438 -600 0
-601 440 -602 0
-603 442 -604 0
-605 444 -606 0
-607 446 -608 0
-609 448 -610 0
-611 450 -612 0
-613 452 -614 0
-615 454 -616 0
-617 456 -618 0
-619 458 -620 0
-621 460 -622 0
-623 462 -624 0
-625 464 -626 0
-627 466 -628 0
-629 468 -630 0
-631 470 -632 0
-633 472 -634 0
-635 474 -636 0
-637 476 -638 0
-639 478 -640 0
-641 480 -642 0
-643 482 -644 0
-645 484 -646 0
-647 486 -648 0
-649 488 -650 0
-651 490 -652 0
-653 492 -654 0
-655 494 -656 0
-657 496 -658 0
-659 498 -660 0
-661 500 -662 0
-663 502 -664 0
-665 504 -666 0
-667 506 -668 0
-669 508 -670 0
-671 510 -672 0
-673 512 -674 0
-675 514 -676 0
-677 516 -678 0
-679 518 -680 0
-681 520 -682 0
-683 522 -684 0
-685 524 -686 0
-687 526 -688 0
-689 528 -690 0
-691 530 -692 0
-693 532 -694 0
-695 534 -696 0
-697 536 -698 0
-699 538 -700 0
-701 540 -702 0
-703 542 -704 0
-705 544 -706 0
-707 546 -708 0
-709 548 -710 0
-711 550 -712 0
-713 552 -714 0
-715 554 -716 0
-717 556 -718 0
-719 558 -720 0
-721 560 -722 0
-723 562 -724 0
-725 564 -726 0
-727 566 -728 0
-729 568 -730 0
-731 570 -732 0
-733 572 -734 0
-735 574 -736 0
-737 576 -738 0
578 577 0
580 579 0
582 581 0
584 583 0
586 585 0
588 587 0
590 589 0
592 591 0
594 593 0
596 595 0
598 597 0
600 599 0
602 601 0
604 603 0
606 605 0
608 607 0
610 609 0
612 611 0
614 613 0
616 615 0
618 617 0
620 619 0
622 621 0
624 623 0
626 625 0
628 627 0
630 629 0
632 631 0
634 633 0
636 635 0
638 637 0
640 639 0
642 641 0
644 643 0
646 645 0
648 647 0
650 649 0
652 651 0
654 653 0
656 655 0
658 657 0
660 659 0
662 661 0
664 663 0
666 665 0
668 667 0
670 669 0
672 671 0
674 673 0
676 675 0
678 677 0
680 679 0
682 681 0
684 683 0
686 685 0
688 687 0
690 689 0
692 691 0
694 693 0
696 695 0
698 697 0
700 699 0
702 701 0
704 703 0
706 705 0
708 707 0
710 709 0
712 711 0
714 713 0
716 715 0
718 717 0
720 719 0
722 721 0
724 723 0
726 725 0
728 727 0
730 729 0
732 731 0
734 733 0
736 735 0
738 737 0
578 -416 0
580 -418 0
582 -420 0
584 -422 0
586 -424 0
588 -426 0
590 -428 0
592 -430 0
594 -432 0
596 -434 0
598 -436 0
600 -438 0
602 -440 0
604 -442 0
606 -444 0
608 -446 0
610 -448 0
612 -450 0
614 -452 0
616 -454 0
618 -456 0
620 -458 0
622 -460 0
624 -462 0
626 -464 0
628 -466 0
630 -468 0
632 -470 0
634 -472 0
636 -474 0
638 -476 0
640 -478 0
642 -480 0
644 -482 0
646 -484 0
648 -486 0
650 -488 0
652 -490 0
654 -492 0
656 -494 0
658 -496 0
660 -498 0
662 -500 0
664 -502 0
666 -504 0
668 -506 0
670 -508 0
672 -510 0
674 -512 0
676 -514 0
678 -516 0
680 -518 0
682 -520 0
684 -522 0
686 -524 0
688 -526 0
690 -528 0
692 -530 0
694 -532 0
696 -534 0
698 -536 0
700 -538 0
702 -540 0
704 -542 0
706 -544 0
708 -546 0
710 -548 0
712 -550 0
714 -552 0
716 -554 0
718 -556 0
720 -558 0
722 -560 0
724 -562 0
726 -564 0
728 -566 0
730 -568 0
732 -570 0
734 -572 0
736 -574 0
738 -576 0
577 -415 -245 -245 -739 0
579 -417 -248 -245 -740 0
581 -419 -251 -245 -741 0
583 -421 -254 -245 -742 0
585 -423 -257 -245 -743 0
587 -425 -260 -245 -744 0
589 -427 -263 -245 -745 0
591 -429 -266 -245 -746 0
593 -431 -269 -245 -747 0
595 -433 -245 -248 -748 0
597 -435 -248 -248 -749 0
599 -437 -251 -248 -750 0
601 -439 -254 -248 -751 0
603 -441 -257 -248 -752 0
605 -443 -260 -248 -753 0
607 -445 -263 -248 -754 0
609 -447 -266 -248 -755 0
611 -449 -269 -248 -756 0
613 -451 -245 -251 -757 0
615 -453 -248 -251 -758 0
617 -455 -251 -251 -759 0
619 -457 -254 -251 -760 0
621 -459 -257 -251 -761 0
623 -461 -260 -251 -762 0
625 -463 -263 -251 -763 0
627 -465 -266 -251 -764 0
629 -467 -269 -251 -765 0
631 -469 -245 -254 -766 0
633 -471 -248 -254 -767 0
635 -473 -251 -254 -768 0
637 -475 -254 -254 -769 0
639 -477 -257 -254 -770 0
641 -479 -260 -254 -771 0
643 -481 -263 -254 -772 0
645 -483 -266 -254 -773 0
647 -485 -269 -254 -774 0
649 -487 -245 -257 -775 0
651 -489 -248 -257 -776 0
653 -491 -251 -257 -777 0
655 -493 -254 -257 -778 0
657 -495 -257 -257 -779 0
659 -497 -260 -257 -780 0
661 -499 -263 -257 -781 0
663 -501 -266 -257 -782 0
665 -503 -269 -257 -783 0
667 -505 -245 -260 -784 0
669 -507 -248 -260 -785 0
671 -509 -251 -260 -786 0
673 -511 -254 -260 -787 0
675 -513 -257 -260 -788 0
677 -515 -260 -260 -789 0
679 -517 -263 -260 -790 0
681 -519 -266 -260 -791 0
683 -521 -269 -260 -792 0
685 -523 -245 -263 -793 0
687 -525 -248 -263 -794 0
689 -527 -251 -263 -795 0
691 -529 -254 -263 -796 0
693 -531 -257 -263 -797 0
695 -533 -260 -263 -798 0
697 -535 -263 -263 -799 0
699 -537 -266 -263 -800 0
701 -539 -269 -263 -801 0
703 -541 -245 -266 -802 0
705 -543 -248 -266 -803 0
707 -545 -251 -266 -804 0
709 -547 -254 -266 -805 0
711 -549 -257 -266 -806 0
713 -551 -260 -266 -807 0
715 -553 -263 -266 -808 0
717 -555 -266 -266 -809 0
719 -557 -269 -266 -810 0
721 -559 -245 -269 -811 0
723 -561 -248 -269 -812 0
725 -563 -251 -269 -813 0
727 -565 -254 -269 -814 0
729 -567 -257 -269 -815 0
731 -569 -260 -269 -816 0
733 -571 -263 -269 -817 0
735 -573 -266 -269 -818 0
737 -575 -269 -269 -819 0
739 -577 0
740 -579 0
741 -581 0
742 -583 0
743 -585 0
744 -587 0
745 -589 0
746 -591 0
747 -593 0
748 -595 0
749 -597 0
750 -599 0
751 -601 0
752 -603 0
753 -605 0
754 -607 0
755 -609 0
756 -611 0
757 -613 0
758 -615 0
759 -617 0
760 -619 0
761 -621 0
762 -623 0
763 -625 0
764 -627 0
765 -629 0
766 -631 0
767 -633 0
768 -635 0
769 -637 0
770 -639 0
771 -641 0
772 -643 0
773 -645 0
774 -647 0
775 -649 0
776 -651 0
777 -653 0
778 -655 0
779 -657 0
780 -659 0
781 -661 0
782 -663 0
783 -665 0
784 -667 0
785 -669 0
786 -671 0
787 -673 0
788 -675 0
789 -677 0
790 -679 0
791 -681 0
792 -683 0
793 -685 0
794 -687 0
795 -689 0
796 -691 0
797 -693 0
798 -695 0
799 -697 0
800 -699 0
801 -701 0
802 -703 0
803 -705 0
804 -707 0
805 -709 0
806 -711 0
807 -713 0
808 -715 0
809 -717 0
810 -719 0
811 -721 0
812 -723 0
813 -725 0
814 -727 0
815 -729 0
816 -731 0
817 -733 0
818 -735 0
819 -737 0
739 415 0
740 417 0
741 419 0
742 421 0
743 423 0
744 425 0
745 427 0
746 429 0
747 431 0
748 433 0
749 435 0
750 437 0
751 439 0
752 441 0
753 443 0
754 445 0
755 447 0
756 449 0
757 451 0
758 453 0
759 455 0
760 457 0
761 459 0
762 461 0
763 463 0
764 465 0
765 467 0
766 469 0
767 471 0
768 473 0
769 475 0
770 477 0
771 479 0
772 481 0
773 483 0
774 485 0
775 487 0
776 489 0
777 491 0
778 493 0
779 495 0
780 497 0
781 499 0
782 501 0
783 503 0
784 505 0
785 507 0
786 509 0
787 511 0
788 513 0
789 515 0
790 517 0
791 519 0
792 521 0
793 523 0
794 525 0
795 527 0
796 529 0
797 531 0
798 533 0
799 535 0
800 537 0
801 539 0
802 541 0
803 543 0
804 545 0
805 547 0
806 549 0
807 551 0
808 553 0
809 555 0
810 557 0
811 559 0
812 561 0
813 563 0
814 565 0
815 567 0
816 569 0
817 571 0
818 573 0
819 575 0
739 245 0
740 248 0
741 251 0
742 254 0
743 257 0
744 260 0
745 263 0
746 266 0
747 269 0
748 245 0
749 248 0
750 251 0
751 254 0
752 257 0
753 260 0
754 263 0
755 266 0
756 269 0
757 245 0
758 248 0
759 251 0
760 254 0
761 257 0
762 260 0
763 263 0
764 266 0
765 269 0
766 245 0
767 248 0
768 251 0
769 254 0
770 257 0
771 260 0
772 263 0
773 266 0
774 269 0
775 245 0
776 248 0
777 251 0
778 254 0
779 257 0
780 260 0
781 263 0
782 266 0
783 269 0
784 245 0
785 248 0
786 251 0
787 254 0
788 257 0
789 260 0
790 263 0
791 266 0
792 269 0
793 245 0
794 248 0
795 251 0
796 254 0
797 257 0
798 260 0
799 263 0
800 266 0
801 269 0
802 245 0
803 248 0
804 251 0
805 254 0
806 257 0
807 260 0
808 263 0
809 266 0
810 269 0
811 245 0
812 248 0
813 251 0
814 254 0
815 257 0
816 260 0
817 263 0
818 266 0
819 269 0
739 245 0
740 245 0
741 245 0
742 245 0
743 245 0
744 245 0
745 245 0
746 245 0
747 245 0
748 248 0
749 248 0
750 248 0
751 248 0
752 248 0
753 248 0
754 248 0
755 248 0
756 248 0
757 251 0
758 251 0
759 251 0
760 251 0
761 251 0
762 251 0
763 251 0
764 251 0
765 251 0
766 254 0
767 254 0
768 254 0
769 254 0
770 254 0
771 254 0
772 254 0
773 254 0
774 254 0
775 257 0
776 257 0
777 257 0
778 257 0
779 257 0
780 257 0
781 257 0
782 257 0
783 257 0
784 260 0
785 260 0
786 260 0
787 260 0
788 260 0
789 260 0
790 260 0
791 260 0
792 260 0
793 263 0
794 263 0
795 263 0
796 263 0
797 263 0
798 263 0
799 263 0
800 263 0
801 263 0
802 266 0
803 266 0
804 266 0
805 266 0
806 266 0
807 266 0
808 266 0
809 266 0
810 266 0
811 269 0
812 269 0
813 269 0
814 269 0
815 269 0
816 269 0
817 269 0
818 269 0
819 269 0
-820 -577 -821 0
-820 -595 -822 0
-820 -613 -823 0
-820 -631 -824 0
-820 -649 -825 0
-820 -667 -826 0
-820 -685 -827 0
-820 -703 -828 0
-820 -721 -829 0
-830 -579 -831 0
-830 -597 -832 0
-830 -615 -833 0
-830 -633 -834 0
-830 -651 -835 0
-830 -669 -836 0
-830 -687 -837 0
-830 -705 -838 0
-830 -723 -839 0
-840 -581 -841 0
-840 -599 -842 0
-840 -617 -843 0
-840 -635 -844 0
-840 -653 -845 0
-840 -671 -846 0
-840 -689 -847 0
-840 -707 -848 0
-840 -725 -849 0
-850 -583 -851 0
-850 -601 -852 0
-850 -619 -853 0
-850 -637 -854 0
-850 -655 -855 0
-850 -673 -856 0
-850 -691 -857 0
-850 -709 -858 0
-850 -727 -859 0
-860 -585 -861 0
-860 -603 -862 0
-860 -621 -863 0
-860 -639 -864 0
-860 -657 -865 0
-860 -675 -866 0
-860 -693 -867 0
-860 -711 -868 0
-860 -729 -869 0
-870 -587 -871 0
-870 -605 -872 0
-870 -623 -873 0
-870 -641 -874 0
-870 -659 -875 0
-870 -677 -876 0
-870 -695 -877 0
-870 -713 -878 0
-870 -731 -879 0
-880 -589 -881 0
-880 -607 -882 0
-880 -625 -883 0
-880 -643 -884 0
-880 -661 -885 0
-880 -679 -886 0
-880 -697 -887 0
-880 -715 -888 0
-880 -733 -889 0
-890 -591 -891 0
-890 -609 -892 0
-890 -627 -893 0
-890 -645 -894 0
-890 -663 -895 0
-890 -681 -896 0
-890 -699 -897 0
-890 -717 -898 0
-890 -735 -899 0
-900 -593 -901 0
-900 -611 -902 0
-900 -629 -903 0
-900 -647 -904 0
-900 -665 -905 0
-900 -683 -906 0
-900 -701 -907 0
-900 -719 -908 0
-900 -737 -909 0
821 820 0
822 820 0
823 820 0
824 820 0
825 820 0
826 820 0
827 820 0
828 820 0
829 820 0
831 830 0
832 830 0
833 830 0
834 830 0
835 830 0
836 830 0
837 830 0
838 830 0
839 830 0
841 840 0
842 840 0
843 840 0
844 840 0
845 840 0
846 840 0
847 840 0
848 840 0
849 840 0
851 850 0
852 850 0
853 850 0
854 850 0
855 850 0
856 850 0
857 850 0
858 850 0
859 850 0
861 860 0
862 860 0
863 860 0
864 860 0
865 860 0
866 860 0
867 860 0
868 860 0
869 860 0
871 870 0
872 870 0
873 870 0
874 870 0
875 870 0
876 870 0
877 870 0
878 870 0
879 870 0
881 880 0
882 880 0
883 880 0
884 880 0
885 880 0
886 880 0
887 880 0
888 880 0
889 880 0
891 890 0
892 890 0
893 890 0
894 890 0
895 890 0
896 890 0
897 890 0
898 890 0
899 890 0
901 900 0
902 900 0
903 900 0
904 900 0
905 900 0
906 900 0
907 900 0
908 900 0
909 900 0
821 577 0
822 595 0
823 613 0
824 631 0
825 649 0
826 667 0
827 685 0
828 703 0
829 721 0
831 579 0
832 597 0
833 615 0
834 633 0
835 651 0
836 669 0
837 687 0
838 705 0
839 723 0
841 581 0
842 599 0
843 617 0
844 635 0
845 653 0
846 671 0
847 689 0
848 707 0
849 725 0
851 583 0
852 601 0
853 619 0
854 637 0
855 655 0
856 673 0
857 691 0
858 709 0
859 727 0
861 585 0
862 603 0
863 621 0
864 639 0
865 657 0
866 675 0
867 693 0
868 711 0
869 729 0
871 587 0
872 605 0
873 623 0
874 641 0
875 659 0
876 677 0
877 695 0
878 713 0
879 731 0
881 589 0
882 607 0
883 625 0
884 643 0
885 661 0
886 679 0
887 697 0
888 715 0
889 733 0
891 591 0
892 609 0
893 627 0
894 645 0
895 663 0
896 681 0
897 699 0
898 717 0
899 735 0
901 593 0
902 611 0
903 629 0
904 647 0
905 665 0
906 683 0
907 701 0
908 719 0
909 737 0
-820 -821 910 0
-830 -822 911 0
-840 -823 912 0
-850 -824 913 0
-860 -825 914 0
-870 -826 915 0
-880 -827 916 0
-890 -828 917 0
-900 -829 918 0
-820 -831 919 0
-830 -832 920 0
-840 -833 921 0
-850 -834 922 0
-860 -835 923 0
-870 -836 924 0
-880 -837 925 0
-890 -838 926 0
-900 -839 927 0
-820 -841 928 0
-830 -842 929 0
-840 -843 930 0
-850 -844 931 0
-860 -845 932 0
-870 -846 933 0
-880 -847 934 0
-890 -848 935 0
-900 -849 936 0
-820 -851 937 0
-830 -852 938 0
-840 -853 939 0
-850 -854 940 0
-860 -855 941 0
-870 -856 942 0
-880 -857 943 0
-890 -858 944 0
-900 -859 945 0
-820 -861 946 0
-830 -862 947 0
-840 -863 948 0
-850 -864 949 0
-860 -865 950 0
-870 -866 951 0
-880 -867 952 0
-890 -868 953 0
-900 -869 954 0
-820 -871 955 0
-830 -872 956 0
-840 -873 957 0
-850 -874 958 0
-860 -875 959 0
-870 -876 960 0
-880 -877 961 0
-890 -878 962 0
-900 -879 963 0
-820 -881 964 0
-830 -882 965 0
-840 -883 966 0
-850 -884 967 0
-860 -885 968 0
-870 -886 969 0
-880 -887 970 0
-890 -888 971 0
-900 -889 972 0
-820 -891 973 0
-830 -892 974 0
-840 -893 975 0
-850 -894 976 0
-860 -895 977 0
-870 -896 978 0
-880 -897 979 0
-890 -898 980 0
-900 -899 981 0
-820 -901 982 0
-830 -902 983 0
-840 -903 984 0
-850 -904 985 0
-860 -905 986 0
-870 -906 987 0
-880 -907 988 0
-890 -908 989 0
-900 -909 990 0
-910 820 0
-911 830 0
-912 840 0
-913 850 0
-914 860 0
-915 870 0
-916 880 0
-917 890 0
-918 900 0
-919 820 0
-920 830 0
-921 840 0
-922 850 0
-923 860 0
-924 870 0
-925 880 0
-926 890 0
-927 900 0
-928 820 0
-929 830 0
-930 840 0
-931 850 0
-932 860 0
-933 870 0
-934 880 0
-935 890 0
-936 900 0
-937 820 0
-938 830 0
-939 840 0
-940 850 0
-941 860 0
-942 870 0
-943 880 0
-944 890 0
-945 900 0
-946 820 0
-947 830 0
-948 840 0
-949 850 0
-950 860 0
-951 870 0
-952 880 0
-953 890 0
-954 900 0
-955 820 0
-956 830 0
-957 840 0
-958 850 0
-959 860 0
-960 870 0
-961 880 0
-962 890 0
-963 900 0
-964 820 0
-965 830 0
-966 840 0
-967 850 0
-968 860 0
-969 870 0
-970 880 0
-971 890 0
-972 900 0
-973 820 0
-974 830 0
-975 840 0
-976 850 0
-977 860 0
-978 870 0
-979 880 0
-980 890 0
-981 900 0
-982 820 0
-983 830 0
-984 840 0
-985 850 0
-986 860 0
-987 870 0
-988 880 0
-989 890 0
-990 900 0
-910 821 0
-911 822 0
-912 823 0
-913 824 0
-914 825 0
-915 826 0
-916 827 0
-917 828 0
-918 829 0
-919 831 0
-920 832 0
-921 833 0
-922 834 0
-923 835 0
-924 836 0
-925 837 0
-926 838 0
-927 839 0
-928 841 0
-929 842 0
-930 843 0
-931 844 0
-932 845 0
-933 846 0
-934 847 0
-935 848 0
-936 849 0
-937 851 0
-938 852 0
-939 853 0
-940 854 0
-941 855 0
-942 856 0
-943 857 0
-944 858 0
-945 859 0
-946 861 0
-947 862 0
-948 863 0
-949 864 0
-950 865 0
-951 866 0
-952 867 0
-953 868 0
-954 869 0
-955 871 0
-956 872 0
-957 873 0
-958 874 0
-959 875 0
-960 876 0
-961 877 0
-962 878 0
-963 879 0
-964 881 0
-965 882 0
-966 883 0
-967 884 0
-968 885 0
-969 886 0
-970 887 0
-971 888 0
-972 889 0
-973 891 0
-974 892 0
-975 893 0
-976 894 0
-977 895 0
-978 896 0
-979 897 0
-980 898 0
-981 899 0
-982 901 0
-983 902 0
-984 903 0
-985 904 0
-986 905 0
-987 906 0
-988 907 0
-989 908 0
-990 909 0
-991 910 -992 0
-993 911 -994 0
-995 912 -996 0
-997 913 -998 0
-999 914 -1000 0
-1001 915 -1002 0
-1003 916 -1004 0
-1005 917 -1006 0
-1007 918 -1008 0
-991 919 -1009 0
-993 920 -1010 0
-995 921 -1011 0
-997 922 -1012 0
-999 923 -1013 0
-1001 924 -1014 0
-1003 925 -1015 0
-1005 926 -1016 0
-1007 927 -1017 0
-991 928 -1018 0
-993 929 -1019 0
-995 930 -1020 0
-997 931 -1021 0
-999 932 -1022 0
-1001 933 -1023 0
-1003 934 -1024 0
-1005 935 -1025 0
-1007 936 -1026 0
-991 937 -1027 0
-993 938 -1028 0
-995 939 -1029 0
-997 940 -1030 0
-999 941 -1031 0
-1001 942 -1032 0
-1003 943 -1033 0
-1005 944 -1034 0
-1007 945 -1035 0
-991 946 -1036 0
-993 947 -1037 0
-995 948 -1038 0
-997 949 -1039 0
-999 950 -1040 0
-1001 951 -1041 0
-1003 952 -1042 0
-1005 953 -1043 0
-1007 954 -1044 0
-991 955 -1045 0
-993 956 -1046 0
-995 957 -1047 0
-997 958 -1048 0
-999 959 -1049 0
-1001 960 -1050 0
-1003 961 -1051 0
-1005 962 -1052 0
-1007 963 -1053 0
-991 964 -1054 0
-993 965 -1055 0
-995 966 -1056 0
-997 967 -1057 0
-999 968 -1058 0
-1001 969 -1059 0
-1003 970 -1060 0
-1005 971 -1061 0
-1007 972 -1062 0
-991 973 -1063 0
-993 974 -1064 0
-995 975 -1065 0
-997 976 -1066 0
-999 977 -1067 0
-1001 978 -1068 0
-1003 979 -1069 0
-1005 980 -1070 0
-1007 981 -1071 0
-991 982 -1072 0
-993 983 -1073 0
-995 984 -1074 0
-997 985 -1075 0
-999 986 -1076 0
-1001 987 -1077 0
-1003 988 -1078 0
-1005 989 -1079 0
-1007 990 -1080 0
992 991 0
994 993 0
996 995 0
998 997 0
1000 999 0
1002 1001 0
1004 1003 0
1006 1005 0
1008 1007 0
1009 991 0
1010 993 0
1011 995 0
1012 997 0
1013 999 0
1014 1001 0
1015 1003 0
1016 1005 0
1017 1007 0
1018 991 0
1019 993 0
1020 995 0
1021 997 0
1022 999 0
1023 1001 0
1024 1003 0
1025 1005 0
1026 1007 0
1027 991 0
1028 993 0
1029 995 0
1030 997 0
1031 999 0
1032 1001 0
1033 1003 0
1034 1005 0
1035 1007 0
1036 991 0
1037 993 0
1038 995 0
1039 997 0
1040 999 0
1041 1001 0
1042 1003 0
1043 1005 0
1044 1007 0
1045 991 0
1046 993 0
1047 995 0
1048 997 0
1049 999 0
1050 1001 0
1051 1003 0
1052 1005 0
1053 1007 0
1054 991 0
1055 993 0
1056 995 0
1057 997 0
1058 999 0
1059 1001 0
1060 1003 0
1061 1005 0
1062 1007 0
1063 991 0
1064 993 0
1065 995 0
1066 997 0
1067 999 0
1068 1001 0
1069 1003 0
1070 1005 0
1071 1007 0
1072 991 0
1073 993 0
1074 995 0
1075 997 0
1076 999 0
1077 1001 0
1078 1003 0
1079 1005 0
1080 1007 0
992 -910 0
994 -911 0
996 -912 0
998 -913 0
1000 -914 0
1002 -915 0
1004 -916 0
1006 -917 0
1008 -918 0
1009 -919 0
1010 -920 0
1011 -921 0
1012 -922 0
1013 -923 0
1014 -924 0
1015 -925 0
1016 -926 0
1017 -927 0
1018 -928 0
1019 -929 0
1020 -930 0
1021 -931 0
1022 -932 0
1023 -933 0
1024 -934 0
1025 -935 0
1026 -936 0
1027 -937 0
1028 -938 0
1029 -939 0
1030 -940 0
1031 -941 0
1032 -942 0
1033 -943 0
1034 -944 0
1035 -945 0
1036 -946 0
1037 -947 0
1038 -948 0
1039 -949 0
1040 -950 0
1041 -951 0
1042 -952 0
1043 -953 0
1044 -954 0
1045 -955 0
1046 -956 0
1047 -957 0
1048 -958 0
1049 -959 0
1050 -960 0
1051 -961 0
1052 -962 0
1053 -963 0
1054 -964 0
1055 -965 0
1056 -966 0
1057 -967 0
1058 -968 0
1059 -969 0
1060 -970 0
1061 -971 0
1062 -972 0
1063 -973 0
1064 -974 0
1065 -975 0
1066 -976 0
1067 -977 0
1068 -978 0
1069 -979 0
1070 -980 0
1071 -981 0
1072 -982 0
1073 -983 0
1074 -984 0
1075 -985 0
1076 -986 0
1077 -987 0
1078 -988 0
1079 -989 0
1080 -990 0
-1081 -577 -1082 0
-1081 -595 -1083 0
-1081 -613 -1084 0
-1081 -631 -1085 0
-1081 -649 -1086 0
-1081 -667 -1087 0
-1081 -685 -1088 0
-1081 -703 -1089 0
-1081 -721 -1090 0
-1091 -579 -1092 0
-1091 -597 -1093 0
-1091 -615 -1094 0
-1091 -633 -1095 0
-1091 -651 -1096 0
-1091 -669 -1097 0
-1091 -687 -1098 0
-1091 -705 -1099 0
-1091 -723 -1100 0
-1101 -581 -1102 0
-1101 -599 -1103 0
-1101 -617 -1104 0
-1101 -635 -1105 0
-1101 -653 -1106 0
-1101 -671 -1107 0
-1101 -689 -1108 0
-1101 -707 -1109 0
-1101 -725 -1110 0
-1111 -583 -1112 0
-1111 -601 -1113 0
-1111 -619 -1114 0
-1111 -637 -1115 0
-1111 -655 -1116 0
-1111 -673 -1117 0
-1111 -691 -1118 0
-1111 -709 -1119 0
-1111 -727 -1120 0
-1121 -585 -1122 0
-1121 -603 -1123 0
-1121 -621 -1124 0
-1121 -639 -1125 0
-1121 -657 -1126 0
-1121 -675 -1127 0
-1121 -693 -1128 0
-1121 -711 -1129 0
-1121 -729 -1130 0
-1131 -587 -1132 0
-1131 -605 -1133 0
-1131 -623 -1134 0
-1131 -641 -1135 0
-1131 -659 -1136 0
-1131 -677 -1137 0
-1131 -695 -1138 0
-1131 -713 -1139 0
-1131 -731 -1140 0
-1141 -589 -1142 0
-1141 -607 -1143 0
-1141 -625 -1144 0
-1141 -643 -1145 0
-1141 -661 -1146 0
-1141 -679 -1147 0
-1141 -697 -1148 0
-1141 -715 -1149 0
-1141 -733 -1150 0
-1151 -591 -1152 0
-1151 -609 -1153 0
-1151 -627 -1154 0
-1151 -645 -1155 0
-1151 -663 -1156 0
-1151 -681 -1157 0
-1151 -699 -1158 0
-1151 -717 -1159 0
-1151 -735 -1160 0
-1161 -593 -1162 0
-1161 -611 -1163 0
-1161 -629 -1164 0
-1161 -647 -1165 0
-1161 -665 -1166 0
-1161 -683 -1167 0
-1161 -701 -1168 0
-1161 -719 -1169 0
-1161 -737 -1170 0
1082 1081 0
1083 1081 0
1084 1081 0
1085 1081 0
1086 1081 0
1087 1081 0
1088 1081 0
1089 1081 0
1090 1081 0
1092 1091 0
1093 1091 0
1094 1091 0
1095 1091 0
1096 1091 0
1097 1091 0
1098 1091 0
1099 1091 0
1100 1091 0
1102 1101 0
1103 1101 0
1104 1101 0
1105 1101 0
1106 1101 0
1107 1101 0
1108 1101 0
1109 1101 0
1110 1101 0
1112 1111 0
1113 1111 0
1114 1111 0
1115 1111 0
1116 1111 0
1117 1111 0
1118 1111 0
1119 1111 0
1120 1111 0
1122 1121 0
1123 1121 0
1124 1121 0
1125 1121 0
1126 1121 0
1127 1121 0
1128 1121 0
1129 1121 0
1130 1121 0
1132 1131 0
1133 1131 0
1134 1131 0
1135 1131 0
1136 1131 0
1137 1131 0
1138 1131 0
1139 1131 0
1140 1131 0
1142 1141 0
1143 1141 0
1144 1141 0
1145 1141 0
1146 1141 0
1147 1141 0
1148 1141 0
1149 1141 0
1150 1141 0
1152 1151 0
1153 1151 0
1154 1151 0
1155 1151 0
1156 1151 0
1157 1151 0
1158 1151 0
1159 1151 0
1160 1151 0
1162 1161 0
1163 1161 0
1164 1161 0
1165 1161 0
1166 1161 0
1167 1161 0
1168 1161 0
1169 1161 0
1170 1161 0
1082 577 0
1083 595 0
1084 613 0
1085 631 0
1086 649 0
1087 667 0
1088 685 0
1089 703 0
1090 721 0
1092 579 0
1093 597 0
1094 615 0
1095 633 0
1096 651 0
1097 669 0
1098 687 0
1099 705 0
1100 723 0
1102 581 0
1103 599 0
1104 617 0
1105 635 0
1106 653 0
1107 671 0
1108 689 0
1109 707 0
1110 725 0
1112 583 0
1113 601 0
1114 619 0
1115 637 0
1116 655 0
1117 673 0
1118 691 0
1119 709 0
1120 727 0
1122 585 0
1123 603 0
1124 621 0
1125 639 0
1126 657 0
1127 675 0
1128 693 0
1129 711 0
1130 729 0
1132 587 0
1133 605 0
1134 623 0
1135 641 0
1136 659 0
1137 677 0
1138 695 0
1139 713 0
1140 731 0
1142 589 0
1143 607 0
1144 625 0
1145 643 0
1146 661 0
1147 679 0
1148 697 0
1149 715 0
1150 733 0
1152 591 0
1153 609 0
1154 627 0
1155 645 0
1156 663 0
1157 681 0
1158 699 0
1159 717 0
1160 735 0
1162 593 0
1163 611 0
1164 629 0
1165 647 0
1166 665 0
1167 683 0
1168 701 0
1169 719 0
1170 737 0
-1081 -1082 1171 0
-1091 -1083 1172 0
-1101 -1084 1173 0
-1111 -1085 1174 0
-1121 -1086 1175 0
-1131 -1087 1176 0
-1141 -1088 1177 0
-1151 -1089 1178 0
-1161 -1090 1179 0
-1081 -1092 1180 0
-1091 -1093 1181 0
-1101 -1094 1182 0
-1111 -1095 1183 0
-1121 -1096 1184 0
-1131 -1097 1185 0
-1141 -1098 1186 0
-1151 -1099 1187 0
-1161 -1100 1188 0
-1081 -1102 1189 0
-1091 -1103 1190 0
-1101 -1104 1191 0
-1111 -1105 1192 0
-1121 -1106 1193 0
-1131 -1107 1194 0
-1141 -1108 1195 0
-1151 -1109 1196 0
-1161 -1110 1197 0
-1081 -1112 1198 0
-1091 -1113 1199 0
-1101 -1114 1200 0
-1111 -1115 1201 0
-1121 -1116 1202 0
-1131 -1117 1203 0
-1141 -1118 1204 0
-1151 -1119 1205 0
-1161 -1120 1206 0
-1081 -1122 1207 0
-1091 -1123 1208 0
-1101 -1124 1209 0
-1111 -1125 1210 0
-1121 -1126 1211 0
-1131 -1127 1212 0
-1141 -1128 1213 0
-1151 -1129 1214 0
-1161 -1130 1215 0
-1081 -1132 1216 0
-1091 -1133 1217 0
-1101 -1134 1218 0
-1111 -1135 1219 0
-1121 -1136 1220 0
-1131 -1137 1221 0
-1141 -1138 1222 0
-1151 -1139 1223 0
-1161 -1140 1224 0
-1081 -1142 1225 0
-1091 -1143 1226 0
-1101 -1144 1227 0
-1111 -1145 1228 0
-1121 -1146 1229 0
-1131 -1147 1230 0
-1141 -1148 1231 0
-1151 -1149 1232 0
-1161 -1150 1233 0
-1081 -1152 1234 0
-1091 -1153 1235 0
-1101 -1154 1236 0
-1111 -1155 1237 0
-1121 -1156 1238 0
-1131 -1157 1239 0
-1141 -1158 1240 0
-1151 -1159 1241 0
-1161 -1160 1242 0
-1081 -1162 1243 0
-1091 -1163 1244 0
-1101 -1164 1245 0
-1111 -1165 1246 0
-1121 -1166 1247 0
-1131 -1167 1248 0
-1141 -1168 1249 0
-1151 -1169 1250 0
-1161 -1170 1251 0
-1171 1081 0
-1172 1091 0
-1173 1101 0
-1174 1111 0
-1175 1121 0
-1176 1131 0
-1177 1141 0
-1178 1151 0
-1179 1161 0
-1180 1081 0
-1181 1091 0
-1182 1101 0
-1183 1111 0
-1184 1121 0
-1185 1131 0
-1186 1141 0
-1187 1151 0
-1188 1161 0
-1189 1081 0
-1190 1091 0
-1191 1101 0
-1192 1111 0
-1193 1121 0
-1194 1131 0
-1195 1141 0
-1196 1151 0
-1197 1161 0
-1198 1081 0
-1199 1091 0
-1200 1101 0
-1201 1111 0
-1202 1121 0
-1203 1131 0
-1204 1141 0
-1205 1151 0
-1206 1161 0
-1207 1081 0
-1208 1091 0
-1209 1101 0
-1210 1111 0
-1211 1121 0
-1212 1131 0
-1213 1141 0
-1214 1151 0
-1215 1161 0
-1216 1081 0
-1217 1091 0
-1218 1101 0
-1219 1111 0
-1220 1121 0
-1221 1131 0
-1222 1141 0
-1223 1151 0
-1224 1161 0
-1225 1081 0
-1226 1091 0
-1227 1101 0
-1228 1111 0
-1229 1121 0
-1230 1131 0
-1231 1141 0
-1232 1151 0
-1233 1161 0
-1234 1081 0
-1235 1091 0
-1236 1101 0
-1237 1111 0
-1238 1121 0
-1239 1131 0
-1240 1141 0
-1241 1151 0
-1242 1161 0
-1243 1081 0
-1244 1091 0
-1245 1101 0
-1246 1111 0
-1247 1121 0
-1248 1131 0
-1249 1141 0
-1250 1151 0
-1251 1161 0
-1171 1082 0
-1172 1083 0
-1173 1084 0
-1174 1085 0
-1175 1086 0
-1176 1087 0
-1177 1088 0
-1178 1089 0
-1179 1090 0
-1180 1092 0
-1181 1093 0
-1182 1094 0
-1183 1095 0
-1184 1096 0
-1185 1097 0
-1186 1098 0
-1187 1099 0
-1188 1100 0
-1189 1102 0
-1190 1103 0
-1191 1104 0
-1192 1105 0
-1193 1106 0
-1194 1107 0
-1195 1108 0
-1196 1109 0
-1197 1110 0
-1198 1112 0
-1199 1113 0
-1200 1114 0
-1201 1115 0
-1202 1116 0
-1203 1117 0
-1204 1118 0
-1205 1119 0
-1206 1120 0
-1207 1122 0
-1208 1123 0
-1209 1124 0
-1210 1125 0
-1211 1126 0
-1212 1127 0
-1213 1128 0
-1214 1129 0
-1215 1130 0
-1216 1132 0
-1217 1133 0
-1218 1134 0
-1219 1135 0
-1220 1136 0
-1221 1137 0
-1222 1138 0
-1223 1139 0
-1224 1140 0
-1225 1142 0
-1226 1143 0
-1227 1144 0
-1228 1145 0
-1229 1146 0
-1230 1147 0
-1231 1148 0
-1232 1149 0
-1233 1150 0
-1234 1152 0
-1235 1153 0
-1236 1154 0
-1237 1155 0
-1238 1156 0
-1239 1157 0
-1240 1158 0
-1241 1159 0
-1242 1160 0
-1243 1162 0
-1244 1163 0
-1245 1164 0
-1246 1165 0
-1247 1166 0
-1248 1167 0
-1249 1168 0
-1250 1169 0
-1251 1170 0
-1252 1171 -1253 0
-1254 1172 -1255 0
-1256 1173 -1257 0
-1258 1174 -1259 0
-1260 1175 -1261 0
-1262 1176 -1263 0
-1264 1177 -1265 0
-1266 1178 -1267 0
-1268 1179 -1269 0
-1252 1180 -1270 0
-1254 1181 -1271 0
-1256 1182 -1272 0
-1258 1183 -1273 0
-1260 1184 -1274 0
-1262 1185 -1275 0
-1264 1186 -1276 0
-1266 1187 -1277 0
-1268 1188 -1278 0
-1252 1189 -1279 0
-1254 1190 -1280 0
-1256 1191 -1281 0
-1258 1192 -1282 0
-1260 1193 -1283 0
-1262 1194 -1284 0
-1264 1195 -1285 0
-1266 1196 -1286 0
-1268 1197 -1287 0
-1252 1198 -1288 0
-1254 1199 -1289 0
-1256 1200 -1290 0
-1258 1201 -1291 0
-1260 1202 -1292 0
-1262 1203 -1293 0
-1264 1204 -1294 0
-1266 1205 -1295 0
-1268 1206 -1296 0
-1252 1207 -1297 0
-1254 1208 -1298 0
-1256 1209 -1299 0
-1258 1210 -1300 0
-1260 1211 -1301 0
-1262 1212 -1302 0
-1264 1213 -1303 0
-1266 1214 -1304 0
-1268 1215 -1305 0
-1252 1216 -1306 0
-1254 1217 -1307 0
-1256 1218 -1308 0
-1258 1219 -1309 0
-1260 1220 -1310 0
-1262 1221 -1311 0
-1264 1222 -1312 0
-1266 1223 -1313 0
-1268 1224 -1314 0
-1252 1225 -1315 0
-1254 1226 -1316 0
-1256 1227 -1317 0
-1258 1228 -1318 0
-1260 1229 -1319 0
-1262 1230 -1320 0
-1264 1231 -1321 0
-1266 1232 -1322 0
-1268 1233 -1323 0
-1252 1234 -1324 0
-1254 1235 -1325 0
-1256 1236 -1326 0
-1258 1237 -1327 0
-1260 1238 -1328 0
-1262 1239 -1329 0
-1264 1240 -1330 0
-1266 1241 -1331 0
-1268 1242 -1332 0
-1252 1243 -1333 0
-1254 1244 -1334 0
-1256 1245 -1335 0
-1258 1246 -1336 0
-1260 1247 -1337 0
-1262 1248 -1338 0
-1264 1249 -1339 0
-1266 1250 -1340 0
-1268 1251 -1341 0
1253 1252 0
1255 1254 0
1257 1256 0
1259 1258 0
1261 1260 0
1263 1262 0
1265 1264 0
1267 1266 0
1269 1268 0
1270 1252 0
1271 1254 0
1272 1256 0
1273 1258 0
1274 1260 0
1275 1262 0
1276 1264 0
1277 1266 0
1278 1268 0
1279 1252 0
1280 1254 0
1281 1256 0
1282 1258 0
1283 1260 0
1284 1262 0
1285 1264 0
1286 1266 0
1287 1268 0
1288 1252 0
1289 1254 0
1290 1256 0
1291 1258 0
1292 1260 0
1293 1262 0
1294 1264 0
1295 1266 0
1296 1268 0
1297 1252 0
1298 1254 0
1299 1256 0
1300 1258 0
1301 1260 0
1302 1262 0
1303 1264 0
1304 1266 0
1305 1268 0
1306 1252 0
1307 1254 0
1308 1256 0
1309 1258 0
1310 1260 0
1311 1262 0
1312 1264 0
1313 1266 0
1314 1268 0
1315 1252 0
1316 1254 0
1317 1256 0
1318 1258 0
1319 1260 0
1320 1262 0
1321 1264 0
1322 1266 0
1323 1268 0
1324 1252 0
1325 1254 0
1326 1256 0
1327 1258 0
1328 1260 0
1329 1262 0
1330 1264 0
1331 1266 0
1332 1268 0
1333 1252 0
1334 1254 0
1335 1256 0
1336 1258 0
1337 1260 0
1338 1262 0
1339 1264 0
1340 1266 0
1341 1268 0
1253 -1171 0
1255 -1172 0
1257 -1173 0
1259 -1174 0
1261 -1175 0
1263 -1176 0
1265 -1177 0
1267 -1178 0
1269 -1179 0
1270 -1180 0
1271 -1181 0
1272 -1182 0
1273 -1183 0
1274 -1184 0
1275 -1185 0
1276 -1186 0
1277 -1187 0
1278 -1188 0
1279 -1189 0
1280 -1190 0
1281 -1191 0
1282 -1192 0
1283 -1193 0
1284 -1194 0
1285 -1195 0
1286 -1196 0
1287 -1197 0
1288 -1198 0
1289 -1199 0
1290 -1200 0
1291 -1201 0
1292 -1202 0
1293 -1203 0
1294 -1204 0
1295 -1205 0
1296 -1206 0
1297 -1207 0
1298 -1208 0
1299 -1209 0
1300 -1210 0
1301 -1211 0
1302 -1212 0
1303 -1213 0
1304 -1214 0
1305 -1215 0
1306 -1216 0
1307 -1217 0
1308 -1218 0
1309 -1219 0
1310 -1220 0
1311 -1221 0
1312 -1222 0
1313 -1223 0
1314 -1224 0
1315 -1225 0
1316 -1226 0
1317 -1227 0
1318 -1228 0
1319 -1229 0
1320 -1230 0
1321 -1231 0
1322 -1232 0
1323 -1233 0
1324 -1234 0
1325 -1235 0
1326 -1236 0
1327 -1237 0
1328 -1238 0
1329 -1239 0
1330 -1240 0
1331 -1241 0
1332 -1242 0
1333 -1243 0
1334 -1244 0
1335 -1245 0
1336 -1246 0
1337 -1247 0
1338 -1248 0
1339 -1249 0
1340 -1250 0
1341 -1251 0
-1342 -577 -1343 0
-1342 -595 -1344 0
-1342 -613 -1345 0
-1342 -631 -1346 0
-1342 -649 -1347 0
-1342 -667 -1348 0
-1342 -685 -1349 0
-1342 -703 -1350 0
-1342 -721 -1351 0
-1352 -579 -1353 0
-1352 -597 -1354 0
-1352 -615 -1355 0
-1352 -633 -1356 0
-1352 -651 -1357 0
-1352 -669 -1358 0
-1352 -687 -1359 0
-1352 -705 -1360 0
-1352 -723 -1361 0
-1362 -581 -1363 0
-1362 -599 -1364 0
-1362 -617 -1365 0
-1362 -635 -1366 0
-1362 -653 -1367 0
-1362 -671 -1368 0
-1362 -689 -1369 0
-1362 -707 -1370 0
-1362 -725 -1371 0
-1372 -583 -1373 0
-1372 -601 -1374 0
-1372 -619 -1375 0
-1372 -637 -1376 0
-1372 -655 -1377 0
-1372 -673 -1378 0
-1372 -691 -1379 0
-1372 -709 -1380 0
-1372 -727 -1381 0
-1382 -585 -1383 0
-1382 -603 -1384 0
-1382 -621 -1385 0
-1382 -639 -1386 0
-1382 -657 -1387 0
-1382 -675 -1388 0
-1382 -693 -1389 0
-1382 -711 -1390 0
-1382 -729 -1391 0
-1392 -587 -1393 0
-1392 -605 -1394 0
-1392 -623 -1395 0
-1392 -641 -1396 0
-1392 -659 -1397 0
-1392 -677 -1398 0
-1392 -695 -1399 0
-1392 -713 -1400 0
-1392 -731 -1401 0
-1402 -589 -1403 0
-1402 -607 -1404 0
-1402 -625 -1405 0
-1402 -643 -1406 0
-1402 -661 -1407 0
-1402 -679 -1408 0
-1402 -697 -1409 0
-1402 -715 -1410 0
-1402 -733 -1411 0
-1412 -591 -1413 0
-1412 -609 -1414 0
-1412 -627 -1415 0
-1412 -645 -1416 0
-1412 -663 -1417 0
-1412 -681 -1418 0
-1412 -699 -1419 0
-1412 -717 -1420 0
-1412 -735 -1421 0
-1422 -593 -1423 0
-1422 -611 -1424 0
-1422 -629 -1425 0
-1422 -647 -1426 0
-1422 -665 -1427 0
-1422 -683 -1428 0
-1422 -701 -1429 0
-1422 -719 -1430 0
-1422 -737 -1431 0
1343 1342 0
1344 1342 0
1345 1342 0
1346 1342 0
1347 1342 0
1348 1342 0
1349 1342 0
1350 1342 0
1351 1342 0
1353 1352 0
1354 1352 0
1355 1352 0
1356 1352 0
1357 1352 0
1358 1352 0
1359 1352 0
1360 1352 0
1361 1352 0
1363 1362 0
1364 1362 0
1365 1362 0
1366 1362 0
1367 1362 0
1368 1362 0
1369 1362 0
1370 1362 0
1371 1362 0
1373 1372 0
1374 1372 0
1375 1372 0
1376 1372 0
1377 1372 0
1378 1372 0
1379 1372 0
1380 1372 0
1381 1372 0
1383 1382 0
1384 1382 0
1385 1382 0
1386 1382 0
1387 1382 0
1388 1382 0
1389 1382 0
1390 1382 0
1391 1382 0
1393 1392 0
1394 1392 0
1395 1392 0
1396 1392 0
1397 1392 0
1398 1392 0
1399 1392 0
1400 1392 0
1401 1392 0
1403 1402 0
1404 1402 0
1405 1402 0
1406 1402 0
1407 1402 0
1408 1402 0
1409 1402 0
1410 1402 0
1411 1402 0
1413 1412 0
1414 1412 0
1415 1412 0
1416 1412 0
1417 1412 0
1418 1412 0
1419 1412 0
1420 1412 0
1421 1412 0
1423 1422 0
1424 1422 0
1425 1422 0
1426 1422 0
1427 1422 0
1428 1422 0
1429 1422 0
1430 1422 0
1431 1422 0
1343 577 0
1344 595 0
1345 613 0
1346 631 0
1347 649 0
1348 667 0
1349 685 0
1350 703 0
1351 721 0
1353 579 0
1354 597 0
1355 615 0
1356 633 0
1357 651 0
1358 669 0
1359 687 0
1360 705 0
1361 723 0
1363 581 0
1364 599 0
1365 617 0
1366 635 0
1367 653 0
1368 671 0
1369 689 0
1370 707 0
1371 725 0
1373 583 0
1374 601 0
1375 619 0
1376 637 0
1377 655 0
1378 673 0
1379 691 0
1380 709 0
1381 727 0
1383 585 0
1384 603 0
1385 621 0
1386 639 0
1387 657 0
1388 675 0
1389 693 0
1390 711 0
1391 729 0
1393 587 0
1394 605 0
1395 623 0
1396 641 0
1397 659 0
1398 677 0
1399 695 0
1400 713 0
1401 731 0
1403 589 0
1404 607 0
1405 625 0
1406 643 0
1407 661 0
1408 679 0
1409 697 0
1410 715 0
1411 733 0
1413 591 0
1414 609 0
1415 627 0
1416 645 0
1417 663 0
1418 681 0
1419 699 0
1420 717 0
1421 735 0
1423 593 0
1424 611 0
1425 629 0
1426 647 0
1427 665 0
1428 683 0
1429 701 0
1430 719 0
1431 737 0
-1342 -1343 1432 0
-1352 -1344 1433 0
-1362 -1345 1434 0
-1372 -1346 1435 0
-1382 -1347 1436 0
-1392 -1348 1437 0
-1402 -1349 1438 0
-1412 -1350 1439 0
-1422 -1351 1440 0
-1342 -1353 1441 0
-1352 -1354 1442 0
-1362 -1355 1443 0
-1372 -1356 1444 0
-1382 -1357 1445 0
-1392 -1358 1446 0
-1402 -1359 1447 0
-1412 -1360 1448 0
-1422 -1361 1449 0
-1342 -1363 1450 0
-1352 -1364 1451 0
-1362 -1365 1452 0
-1372 -1366 1453 0
-1382 -1367 1454 0
-1392 -1368 1455 0
-1402 -1369 1456 0
-1412 -1370 1457 0
-1422 -1371 1458 0
-1342 -1373 1459 0
-1352 -1374 1460 0
-1362 -1375 1461 0
-1372 -1376 1462 0
-1382 -1377 1463 0
-1392 -1378 1464 0
-1402 -1379 1465 0
-1412 -1380 1466 0
-1422 -1381 1467 0
-1342 -1383 1468 0
-1352 -1384 1469 0
-1362 -1385 1470 0
-1372 -1386 1471 0
-1382 -1387 1472 0
-1392 -1388 1473 0
-1402 -1389 1474 0
-1412 -1390 1475 0
-1422 -1391 1476 0
-1342 -1393 1477 0
-1352 -1394 1478 0
-1362 -1395 1479 0
-1372 -1396 1480 0
-1382 -1397 1481 0
-1392 -1398 1482 0
-1402 -1399 1483 0
-1412 -1400 1484 0
-1422 -1401 1485 0
-1342 -1403 1486 0
-1352 -1404 1487 0
-1362 -1405 1488 0
-1372 -1406 1489 0
-1382 -1407 1490 0
-1392 -1408 1491 0
-1402 -1409 1492 0
-1412 -1410 1493 0
-1422 -1411 1494 0
-1342 -1413 1495 0
-1352 -1414 1496 0
-1362 -1415 1497 0
-1372 -1416 1498 0
-1382 -1417 1499 0
-1392 -1418 1500 0
-1402 -1419 1501 0
-1412 -1420 1502 0
-1422 -1421 1503 0
-1342 -1423 1504 0
-1352 -1424 1505 0
-1362 -1425 1506 0
-1372 -1426 1507 0
-1382 -1427 1508 0
-1392 -1428 1509 0
-1402 -1429 1510 0
-1412 -1430 1511 0
-1422 -1431 1512 0
-1432 1342 0
-1433 1352 0
-1434 1362 0
-1435 1372 0
-1436 1382 0
-1437 1392 0
-1438 1402 0
-1439 1412 0
-1440 1422 0
-1441 1342 0
-1442 1352 0
-1443 1362 0
-1444 1372 0
-1445 1382 0
-1446 1392 0
-1447 1402 0
-1448 1412 0
-1449 1422 0
-1450 1342 0
-1451 1352 0
-1452 1362 0
-1453 1372 0
-1454 1382 0
-1455 1392 0
-1456 1402 0
-1457 1412 0
-1458 1422 0
-1459 1342 0
-1460 1352 0
-1461 1362 0
-1462 1372 0
-1463 1382 0
-1464 1392 0
-1465 1402 0
-1466 1412 0
-1467 1422 0
-1468 1342 0
-1469 1352 0
-1470 1362 0
-1471 1372 0
-1472 1382 0
-1473 1392 0
-1474 1402 0
-1475 1412 0
-1476 1422 0
-1477 1342 0
-1478 1352 0
-1479 1362 0
-1480 1372 0
-1481 1382 0
-1482 1392 0
-1483 1402 0
-1484 1412 0
-1485 1422 0
-1486 1342 0
-1487 1352 0
-1488 1362 0
-1489 1372 0
-1490 1382 0
-1491 1392 0
-1492 1402 0
-1493 1412 0
-1494 1422 0
-1495 1342 0
-1496 1352 0
-1497 1362 0
-1498 1372 0
-1499 1382 0
-1500 1392 0
-1501 1402 0
-1502 1412 0
-1503 1422 0
-1504 1342 0
-1505 1352 0
-1506 1362 0
-1507 1372 0
-1508 1382 0
-1509 1392 0
-1510 1402 0
-1511 1412 0
-1512 1422 0
-1432 1343 0
-1433 1344 0
-1434 1345 0
-1435 1346 0
-1436 1347 0
-1437 1348 0
-1438 1349 0
-1439 1350 0
-1440 1351 0
-1441 1353 0
-1442 1354 0
-1443 1355 0
-1444 1356 0
-1445 1357 0
-1446 1358 0
-1447 1359 0
-1448 1360 0
-1449 1361 0
-1450 1363 0
-1451 1364 0
-1452 1365 0
-1453 1366 0
-1454 1367 0
-1455 1368 0
-1456 1369 0
-1457 1370 0
-1458 1371 0
-1459 1373 0
-1460 1374 0
-1461 1375 0
-1462 1376 0
-1463 1377 0
-1464 1378 0
-1465 1379 0
-1466 1380 0
-1467 1381 0
-1468 1383 0
-1469 1384 0
-1470 1385 0
-1471 1386 0
-1472 1387 0
-1473 1388 0
-1474 1389 0
-1475 1390 0
-1476 1391 0
-1477 1393 0
-1478 1394 0
-1479 1395 0
-1480 1396 0
-1481 1397 0
-1482 1398 0
-1483 1399 0
-1484 1400 0
-1485 1401 0
-1486 1403 0
-1487 1404 0
-1488 1405 0
-1489 1406 0
-1490 1407 0
-1491 1408 0
-1492 1409 0
-1493 1410 0
-1494 1411 0
-1495 1413 0
-1496 1414 0
-1497 1415 0
-1498 1416 0
-1499 1417 0
-1500 1418 0
-1501 1419 0
-1502 1420 0
-1503 1421 0
-1504 1423 0
-1505 1424 0
-1506 1425 0
-1507 1426 0
-1508 1427 0
-1509 1428 0
-1510 1429 0
-1511 1430 0
-1512 1431 0
-1513 1432 -1514 0
-1515 1433 -1516 0
-1517 1434 -1518 0
-1519 1435 -1520 0
-1521 1436 -1522 0
-1523 1437 -1524 0
-1525 1438 -1526 0
-1527 1439 -1528 0
-1529 1440 -1530 0
-1513 1441 -1531 0
-1515 1442 -1532 0
-1517 1443 -1533 0
-1519 1444 -1534 0
-1521 1445 -1535 0
-1523 1446 -1536 0
-1525 1447 -1537 0
-1527 1448 -1538 0
-1529 1449 -1539 0
-1513 1450 -1540 0
-1515 1451 -1541 0
-1517 1452 -1542 0
-1519 1453 -1543 0
-1521 1454 -1544 0
-1523 1455 -1545 0
-1525 1456 -1546 0
-1527 1457 -1547 0
-1529 1458 -1548 0
-1513 1459 -1549 0
-1515 1460 -1550 0
-1517 1461 -1551 0
-1519 1462 -1552 0
-1521 1463 -1553 0
-1523 1464 -1554 0
-1525 1465 -1555 0
-1527 1466 -1556 0
-1529 1467 -1557 0
-1513 1468 -1558 0
-1515 1469 -1559 0
-1517 1470 -1560 0
-1519 1471 -1561 0
-1521 1472 -1562 0
-1523 1473 -1563 0
-1525 1474 -1564 0
-1527 1475 -1565 0
-1529 1476 -1566 0
-1513 1477 -1567 0
-1515 1478 -1568 0
-1517 1479 -1569 0
-1519 1480 -1570 0
-1521 1481 -1571 0
-1523 1482 -1572 0
-1525 1483 -1573 0
-1527 1484 -1574 0
-1529 1485 -1575 0
-1513 1486 -1576 0
-1515 1487 -1577 0
-1517 1488 -1578 0
-1519 1489 -1579 0
-1521 1490 -1580 0
-1523 1491 -1581 0
-1525 1492 -1582 0
-1527 1493 -1583 0
-1529 1494 -1584 0
-1513 1495 -1585 0
-1515 1496 -1586 0
-1517 1497 -1587 0
-1519 1498 -1588 0
-1521 1499 -1589 0
-1523 1500 -1590 0
-1525 1501 -1591 0
-1527 1502 -1592 0
-1529 1503 -1593 0
-1513 1504 -1594 0
-1515 1505 -1595 0
-1517 1506 -1596 0
-1519 1507 -1597 0
-1521 1508 -1598 0
-1523 1509 -1599 0
-1525 1510 -1600 0
-1527 1511 -1601 0
-1529 1512 -1602 0
1514 1513 0
1516 1515 0
1518 1517 0
1520 1519 0
1522 1521 0
1524 1523 0
1526 1525 0
1528 1527 0
1530 1529 0
1531 1513 0
1532 1515 0
1533 1517 0
1534 1519 0
1535 1521 0
1536 1523 0
1537 1525 0
1538 1527 0
1539 1529 0
1540 1513 0
1541 1515 0
1542 1517 0
1543 1519 0
1544 1521 0
1545 1523 0
1546 1525 0
1547 1527 0
1548 1529 0
1549 1513 0
1550 1515 0
1551 1517 0
1552 1519 0
1553 1521 0
1554 1523 0
1555 1525 0
1556 1527 0
1557 1529 0
1558 1513 0
1559 1515 0
1560 1517 0
1561 1519 0
1562 1521 0
1563 1523 0
1564 1525 0
1565 1527 0
1566 1529 0
1567 1513 0
1568 1515 0
1569 1517 0
1570 1519 0
1571 1521 0
1572 1523 0
1573 1525 0
1574 1527 0
1575 1529 0
1576 1513 0
1577 1515 0
1578 1517 0
1579 1519 0
1580 1521 0
1581 1523 0
1582 1525 0
1583 1527 0
1584 1529 0
1585 1513 0
1586 1515 0
1587 1517 0
1588 1519 0
1589 1521 0
1590 1523 0
1591 1525 0
1592 1527 0
1593 1529 0
1594 1513 0
1595 1515 0
1596 1517 0
1597 1519 0
1598 1521 0
1599 1523 0
1600 1525 0
1601 1527 0
1602 1529 0
1514 -1432 0
1516 -1433 0
1518 -1434 0
1520 -1435 0
1522 -1436 0
1524 -1437 0
1526 -1438 0
1528 -1439 0
1530 -1440 0
1531 -1441 0
1532 -1442 0
1533 -1443 0
1534 -1444 0
1535 -1445 0
1536 -1446 0
1537 -1447 0
1538 -1448 0
1539 -1449 0
1540 -1450 0
1541 -1451 0
1542 -1452 0
1543 -1453 0
1544 -1454 0
1545 -1455 0
1546 -1456 0
1547 -1457 0
1548 -1458 0
1549 -1459 0
1550 -1460 0
1551 -1461 0
1552 -1462 0
1553 -1463 0
1554 -1464 0
1555 -1465 0
1556 -1466 0
1557 -1467 0
1558 -1468 0
1559 -1469 0
1560 -1470 0
1561 -1471 0
1562 -1472 0
1563 -1473 0
1564 -1474 0
1565 -1475 0
1566 -1476 0
1567 -1477 0
1568 -1478 0
1569 -1479 0
1570 -1480 0
1571 -1481 0
1572 -1482 0
1573 -1483 0
1574 -1484 0
1575 -1485 0
1576 -1486 0
1577 -1487 0
1578 -1488 0
1579 -1489 0
1580 -1490 0
1581 -1491 0
1582 -1492 0
1583 -1493 0
1584 -1494 0
1585 -1495 0
1586 -1496 0
1587 -1497 0
1588 -1498 0
1589 -1499 0
1590 -1500 0
1591 -1501 0
1592 -1502 0
1593 -1503 0
1594 -1504 0
1595 -1505 0
1596 -1506 0
1597 -1507 0
1598 -1508 0
1599 -1509 0
1600 -1510 0
1601 -1511 0
1602 -1512 0
-246 -578 -739 -992 -1253 -1514 1603 0
-249 -580 -740 -994 -1255 -1516 1604 0
-252 -582 -741 -996 -1257 -1518 1605 0
-255 -584 -742 -998 -1259 -1520 1606 0
-258 -586 -743 -1000 -1261 -1522 1607 0
-261 -588 -744 -1002 -1263 -1524 1608 0
-264 -590 -745 -1004 -1265 -1526 1609 0
-267 -592 -746 -1006 -1267 -1528 1610 0
-270 -594 -747 -1008 -1269 -1530 1611 0
-272 -596 -748 -1009 -1270 -1531 1612 0
-274 -598 -749 -1010 -1271 -1532 1613 0
-276 -600 -750 -1011 -1272 -1533 1614 0
-278 -602 -751 -1012 -1273 -1534 1615 0
-280 -604 -752 -1013 -1274 -1535 1616 0
-282 -606 -753 -1014 -1275 -1536 1617 0
-284 -608 -754 -1015 -1276 -1537 1618 0
-286 -610 -755 -1016 -1277 -1538 1619 0
-288 -612 -756 -1017 -1278 -1539 1620 0
-290 -614 -757 -1018 -1279 -1540 1621 0
-292 -616 -758 -1019 -1280 -1541 1622 0
-294 -618 -759 -1020 -1281 -1542 1623 0
-296 -620 -760 -1021 -1282 -1543 1624 0
-298 -622 -761 -1022 -1283 -1544 1625 0
-300 -624 -762 -1023 -1284 -1545 1626 0
-302 -626 -763 -1024 -1285 -1546 1627 0
-304 -628 -764 -1025 -1286 -1547 1628 0
-306 -630 -765 -1026 -1287 -1548 1629 0
-308 -632 -766 -1027 -1288 -1549 1630 0
-310 -634 -767 -1028 -1289 -1550 1631 0
-312 -636 -768 -1029 -1290 -1551 1632 0
-314 -638 -769 -1030 -1291 -1552 1633 0
-316 -640 -770 -1031 -1292 -1553 1634 0
-318 -642 -771 -1032 -1293 -1554 1635 0
-320 -644 -772 -1033 -1294 -1555 1636 0
-322 -646 -773 -1034 -1295 -1556 1637 0
-324 -648 -774 -1035 -1296 -1557 1638 0
-326 -650 -775 -1036 -1297 -1558 1639 0
-328 -652 -776 -1037 -1298 -1559 1640 0
-330 -654 -777 -1038 -1299 -1560 1641 0
-332 -656 -778 -1039 -1300 -1561 1642 0
-334 -658 -779 -1040 -1301 -1562 1643 0
-336 -660 -780 -1041 -1302 -1563 1644 0
-338 -662 -781 -1042 -1303 -1564 1645 0
-340 -664 -782 -1043 -1304 -1565 1646 0
-342 -666 -783 -1044 -1305 -1566 1647 0
-344 -668 -784 -1045 -1306 -1567 1648 0
-346 -670 -785 -1046 -1307 -1568 1649 0
-348 -672 -786 -1047 -1308 -1569 1650 0
-350 -674 -787 -1048 -1309 -1570 1651 0
-352 -676 -788 -1049 -1310 -1571 1652 0
-354 -678 -789 -1050 -1311 -1572 1653 0
-356 -680 -790 -1051 -1312 -1573 1654 0
-358 -682 -791 -1052 -1313 -1574 1655 0
-360 -684 -792 -1053 -1314 -1575 1656 0
-362 -686 -793 -1054 -1315 -1576 1657 0
-364 -688 -794 -1055 -1316 -1577 1658 0
-366 -690 -795 -1056 -1317 -1578 1659 0
-368 -692 -796 -1057 -1318 -1579 1660 0
-370 -694 -797 -1058 -1319 -1580 1661 0
-372 -696 -798 -1059 -1320 -1581 1662 0
-374 -698 -799 -1060 -1321 -1582 1663 0
-376 -700 -800 -1061 -1322 -1583 1664 0
-378 -702 -801 -1062 -1323 -1584 1665 0
-380 -704 -802 -1063 -1324 -1585 1666 0
-382 -706 -803 -1064 -1325 -1586 1667 0
-384 -708 -804 -1065 -1326 -1587 1668 0
-386 -710 -805 -1066 -1327 -1588 1669 0
-388 -712 -806 -1067 -1328 -1589 1670 0
-390 -714 -807 -1068 -1329 -1590 1671 0
-392 -716 -808 -1069 -1330 -1591 1672 0
-394 -718 -809 -1070 -1331 -1592 1673 0
-396 -720 -810 -1071 -1332 -1593 1674 0
-398 -722 -811 -1072 -1333 -1594 1675 0
-400 -724 -812 -1073 -1334 -1595 1676 0
-402 -726 -813 -1074 -1335 -1596 1677 0
-404 -728 -814 -1075 -1336 -1597 1678 0
-406 -730 -815 -1076 -1337 -1598 1679 0
-408 -732 -816 -1077 -1338 -1599 1680 0
-410 -734 -817 -1078 -1339 -1600 1681 0
-412 -736 -818 -1079 -1340 -1601 1682 0
-414 -738 -819 -1080 -1341 -1602 1683 0
-1603 246 0
-1604 249 0
-1605 252 0
-1606 255 0
-1607 258 0
-1608 261 0
-1609 264 0
-1610 267 0
-1611 270 0
-1612 272 0
-1613 274 0
-1614 276 0
-1615 278 0
-1616 280 0
-1617 282 0
-1618 284 0
-1619 286 0
-1620 288 0
-1621 290 0
-1622 292 0
-1623 294 0
-1624 296 0
-1625 298 0
-1626 300 0
-1627 302 0
-1628 304 0
-1629 306 0
-1630 308 0
-1631 310 0
-1632 312 0
-1633 314 0
-1634 316 0
-1635 318 0
-1636 320 0
-1637 322 0
-1638 324 0
-1639 326 0
-1640 328 0
-1641 330 0
-1642 332 0
-1643 334 0
-1644 336 0
-1645 338 0
-1646 340 0
-1647 342 0
-1648 344 0
-1649 346 0
-1650 348 0
-1651 350 0
-1652 352 0
-1653 354 0
-1654 356 0
-1655 358 0
-1656 360 0
-1657 362 0
-1658 364 0
-1659 366 0
-1660 368 0
-1661 370 0
-1662 372 0
-1663 374 0
-1664 376 0
-1665 378 0
-1666 380 0
-1667 382 0
-1668 384 0
-1669 386 0
-1670 388 0
-1671 390 0
-1672 392 0
-1673 394 0
-1674 396 0
-1675 398 0
-1676 400 0
-1677 402 0
-1678 404 0
-1679 406 0
-1680 408 0
-1681 410 0
-1682 412 0
-1683 414 0
-1603 578 0
-1604 580 0
-1605 582 0
-1606 584 0
-1607 586 0
-1608 588 0
-1609 590 0
-1610 592 0
-1611 594 0
-1612 596 0
-1613 598 0
-1614 600 0
-1615 602 0
-1616 604 0
-1617 606 0
-1618 608 0
-1619 610 0
-1620 612 0
-1621 614 0
-1622 616 0
-1623 618 0
-1624 620 0
-1625 622 0
-1626 624 0
-1627 626 0
-1628 628 0
-1629 630 0
-1630 632 0
-1631 634 0
-1632 636 0
-1633 638 0
-1634 640 0
-1635 642 0
-1636 644 0
-1637 646 0
-1638 648 0
-1639 650 0
-1640 652 0
-1641 654 0
-1642 656 0
-1643 658 0
-1644 660 0
-1645 662 0
-1646 664 0
-1647 666 0
-1648 668 0
-1649 670 0
-1650 672 0
-1651 674 0
-1652 676 0
-1653 678 0
-1654 680 0
-1655 682 0
-1656 684 0
-1657 686 0
-1658 688 0
-1659 690 0
-1660 692 0
-1661 694 0
-1662 696 0
-1663 698 0
-1664 700 0
-1665 702 0
-1666 704 0
-1667 706 0
-1668 708 0
-1669 710 0
-1670 712 0
-1671 714 0
-1672 716 0
-1673 718 0
-1674 720 0
-1675 722 0
-1676 724 0
-1677 726 0
-1678 728 0
-1679 730 0
-1680 732 0
-1681 734 0
-1682 736 0
-1683 738 0
-1603 739 0
-1604 740 0
-1605 741 0
-1606 742 0
-1607 743 0
-1608 744 0
-1609 745 0
-1610 746 0
-1611 747 0
-1612 748 0
-1613 749 0
-1614 750 0
-1615 751 0
-1616 752 0
-1617 753 0
-1618 754 0
-1619 755 0
-1620 756 0
-1621 757 0
-1622 758 0
-1623 759 0
-1624 760 0
-1625 761 0
-1626 762 0
-1627 763 0
-1628 764 0
-1629 765 0
-1630 766 0
-1631 767 0
-1632 768 0
-1633 769 0
-1634 770 0
-1635 771 0
-1636 772 0
-1637 773 0
-1638 774 0
-1639 775 0
-1640 776 0
-1641 777 0
-1642 778 0
-1643 779 0
-1644 780 0
-1645 781 0
-1646 782 0
-1647 783 0
-1648 784 0
-1649 785 0
-1650 786 0
-1651 787 0
-1652 788 0
-1653 789 0
-1654 790 0
-1655 791 0
-1656 792 0
-1657 793 0
-1658 794 0
-1659 795 0
-1660 796 0
-1661 797 0
-1662 798 0
-1663 799 0
-1664 800 0
-1665 801 0
-1666 802 0
-1667 803 0
-1668 804 0
-1669 805 0
-1670 806 0
-1671 807 0
-1672 808 0
-1673 809 0
-1674 810 0
-1675 811 0
-1676 812 0
-1677 813 0
-1678 814 0
-1679 815 0
-1680 816 0
-1681 817 0
-1682 818 0
-1683 819 0
-1603 992 0
-1604 994 0
-1605 996 0
-1606 998 0
-1607 1000 0
-1608 1002 0
-1609 1004 0
-1610 1006 0
-1611 1008 0
-1612 1009 0
-1613 1010 0
-1614 1011 0
-1615 1012 0
-1616 1013 0
-1617 1014 0
-1618 1015 0
-1619 1016 0
-1620 1017 0
-1621 1018 0
-1622 1019 0
-1623 1020 0
-1624 1021 0
-1625 1022 0
-1626 1023 0
-1627 1024 0
-1628 1025 0
-1629 1026 0
-1630 1027 0
-1631 1028 0
-1632 1029 0
-1633 1030 0
-1634 1031 0
-1635 1032 0
-1636 1033 0
-1637 1034 0
-1638 1035 0
-1639 1036 0
-1640 1037 0
-1641 1038 0
-1642 1039 0
-1643 1040 0
-1644 1041 0
-1645 1042 0
-1646 1043 0
-1647 1044 0
-1648 1045 0
-1649 1046 0
-1650 1047 0
-1651 1048 0
-1652 1049 0
-1653 1050 0
-1654 1051 0
-1655 1052 0
-1656 1053 0
-1657 1054 0
-1658 1055 0
-1659 1056 0
-1660 1057 0
-1661 1058 0
-1662 1059 0
-1663 1060 0
-1664 1061 0
-1665 1062 0
-1666 1063 0
-1667 1064 0
-1668 1065 0
-1669 1066 0
-1670 1067 0
-1671 1068 0
-1672 1069 0
-1673 1070 0
-1674 1071 0
-1675 1072 0
-1676 1073 0
-1677 1074 0
-1678 1075 0
-1679 1076 0
-1680 1077 0
-1681 1078 0
-1682 1079 0
-1683 1080 0
-1603 1253 0
-1604 1255 0
-1605 1257 0
-1606 1259 0
-1607 1261 0
-1608 1263 0
-1609 1265 0
-1610 1267 0
-1611 1269 0
-1612 1270 0
-1613 1271 0
-1614 1272 0
-1615 1273 0
-1616 1274 0
-1617 1275 0
-1618 1276 0
-1619 1277 0
-1620 1278 0
-1621 1279 0
-1622 1280 0
-1623 1281 0
-1624 1282 0
-1625 1283 0
-1626 1284 0
-1627 1285 0
-1628 1286 0
-1629 1287 0
-1630 1288 0
-1631 1289 0
-1632 1290 0
-1633 1291 0
-1634 1292 0
-1635 1293 0
-1636 1294 0
-1637 1295 0
-1638 1296 0
-1639 1297 0
-1640 1298 0
-1641 1299 0
-1642 1300 0
-1643 1301 0
-1644 1302 0
-1645 1303 0
-1646 1304 0
-1647 1305 0
-1648 1306 0
-1649 1307 0
-1650 1308 0
-1651 1309 0
-1652 1310 0
-1653 1311 0
-1654 1312 0
-1655 1313 0
-1656 1314 0
-1657 1315 0
-1658 1316 0
-1659 1317 0
-1660 1318 0
-1661 1319 0
-1662 1320 0
-1663 1321 0
-1664 1322 0
-1665 1323 0
-1666 1324 0
-1667 1325 0
-1668 1326 0
-1669 1327 0
-1670 1328 0
-1671 1329 0
-1672 1330 0
-1673 1331 0
-1674 1332 0
-1675 1333 0
-1676 1334 0
-1677 1335 0
-1678 1336 0
-1679 1337 0
-1680 1338 0
-1681 1339 0
-1682 1340 0
-1683 1341 0
-1603 1514 0
-1604 1516 0
-1605 1518 0
-1606 1520 0
-1607 1522 0
-1608 1524 0
-1609 1526 0
-1610 1528 0
-1611 1530 0
-1612 1531 0
-1613 1532 0
-1614 1533 0
-1615 1534 0
-1616 1535 0
-1617 1536 0
-1618 1537 0
-1619 1538 0
-1620 1539 0
-1621 1540 0
-1622 1541 0
-1623 1542 0
-1624 1543 0
-1625 1544 0
-1626 1545 0
-1627 1546 0
-1628 1547 0
-1629 1548 0
-1630 1549 0
-1631 1550 0
-1632 1551 0
-1633 1552 0
-1634 1553 0
-1635 1554 0
-1636 1555 0
-1637 1556 0
-1638 1557 0
-1639 1558 0
-1640 1559 0
-1641 1560 0
-1642 1561 0
-1643 1562 0
-1644 1563 0
-1645 1564 0
-1646 1565 0
-1647 1566 0
-1648 1567 0
-1649 1568 0
-1650 1569 0
-1651 1570 0
-1652 1571 0
-1653 1572 0
-1654 1573 0
-1655 1574 0
-1656 1575 0
-1657 1576 0
-1658 1577 0
-1659 1578 0
-1660 1579 0
-1661 1580 0
-1662 1581 0
-1663 1582 0
-1664 1583 0
-1665 1584 0
-1666 1585 0
-1667 1586 0
-1668 1587 0
-1669 1588 0
-1670 1589 0
-1671 1590 0
-1672 1591 0
-1673 1592 0
-1674 1593 0
-1675 1594 0
-1676 1595 0
-1677 1596 0
-1678 1597 0
-1679 1598 0
-1680 1599 0
-1681 1600 0
-1682 1601 0
-1683 1602 0
1603 0
1604 0
1605 0
1606 0
1607 0
1608 0
1609 0
1610 0
1611 0
1612 0
1613 0
1614 0
1615 0
1616 0
1617 0
1618 0
1619 0
1620 0
1621 0
1622 0
1623 0
1624 0
1625 0
1626 0
1627 0
1628 0
1629 0
1630 0
1631 0
1632 0
1633 0
1634 0
1635 0
1636 0
1637 0
1638 0
1639 0
1640 0
1641 0
1642 0
1643 0
1644 0
1645 0
1646 0
1647 0
1648 0
1649 0
1650 0
1651 0
1652 0
1653 0
1654 0
1655 0
1656 0
1657 0
1658 0
1659 0
1660 0
1661 0
1662 0
1663 0
1664 0
1665 0
1666 0
1667 0
1668 0
1669 0
1670 0
1671 0
1672 0
1673 0
1674 0
1675 0
1676 0
1677 0
1678 0
1679 0
1680 0
1681 0
1682 0
1683 0
-1342 -577 1684 0
-1342 -595 1685 0
-1342 -613 1686 0
-1342 -631 1687 0
-1342 -649 1688 0
-1342 -667 1689 0
-1342 -685 1690 0
-1342 -703 1691 0
-1342 -721 1692 0
-1352 -579 1693 0
-1352 -597 1694 0
-1352 -615 1695 0
-1352 -633 1696 0
-1352 -651 1697 0
-1352 -669 1698 0
-1352 -687 1699 0
-1352 -705 1700 0
-1352 -723 1701 0
-1362 -581 1702 0
-1362 -599 1703 0
-1362 -617 1704 0
-1362 -635 1705 0
-1362 -653 1706 0
-1362 -671 1707 0
-1362 -689 1708 0
-1362 -707 1709 0
-1362 -725 1710 0
-1372 -583 1711 0
-1372 -601 1712 0
-1372 -619 1713 0
-1372 -637 1714 0
-1372 -655 1715 0
-1372 -673 1716 0
-1372 -691 1717 0
-1372 -709 1718 0
-1372 -727 1719 0
-1382 -585 1720 0
-1382 -603 1721 0
-1382 -621 1722 0
-1382 -639 1723 0
-1382 -657 1724 0
-1382 -675 1725 0
-1382 -693 1726 0
-1382 -711 1727 0
-1382 -729 1728 0
-1392 -587 1729 0
-1392 -605 1730 0
-1392 -623 1731 0
-1392 -641 1732 0
-1392 -659 1733 0
-1392 -677 1734 0
-1392 -695 1735 0
-1392 -713 1736 0
-1392 -731 1737 0
-1402 -589 1738 0
-1402 -607 1739 0
-1402 -625 1740 0
-1402 -643 1741 0
-1402 -661 1742 0
-1402 -679 1743 0
-1402 -697 1744 0
-1402 -715 1745 0
-1402 -733 1746 0
-1412 -591 1747 0
-1412 -609 1748 0
-1412 -627 1749 0
-1412 -645 1750 0
-1412 -663 1751 0
-1412 -681 1752 0
-1412 -699 1753 0
-1412 -717 1754 0
-1412 -735 1755 0
-1422 -593 1756 0
-1422 -611 1757 0
-1422 -629 1758 0
-1422 -647 1759 0
-1422 -665 1760 0
-1422 -683 1761 0
-1422 -701 1762 0
-1422 -719 1763 0
-1422 -737 1764 0
-1684 1342 0
-1685 1342 0
-1686 1342 0
-1687 1342 0
-1688 1342 0
-1689 1342 0
-1690 1342 0
-1691 1342 0
-1692 1342 0
-1693 1352 0
-1694 1352 0
-1695 1352 0
-1696 1352 0
-1697 1352 0
-1698 1352 0
-1699 1352 0
-1700 1352 0
-1701 1352 0
-1702 1362 0
-1703 1362 0
-1704 1362 0
-1705 1362 0
-1706 1362 0
-1707 1362 0
-1708 1362 0
-1709 1362 0
-1710 1362 0
-1711 1372 0
-1712 1372 0
-1713 1372 0
-1714 1372 0
-1715 1372 0
-1716 1372 0
-1717 1372 0
-1718 1372 0
-1719 1372 0
-1720 1382 0
-1721 1382 0
-1722 1382 0
-1723 1382 0
-1724 1382 0
-1725 1382 0
-1726 1382 0
-1727 1382 0
-1728 1382 0
-1729 1392 0
-1730 1392 0
-1731 1392 0
-1732 1392 0
-1733 1392 0
-1734 1392 0
-1735 1392 0
-1736 1392 0
-1737 1392 0
-1738 1402 0
-1739 1402 0
-1740 1402 0
-1741 1402 0
-1742 1402 0
-1743 1402 0
-1744 1402 0
-1745 1402 0
-1746 1402 0
-1747 1412 0
-1748 1412 0
-1749 1412 0
-1750 1412 0
-1751 1412 0
-1752 1412 0
-1753 1412 0
-1754 1412 0
-1755 1412 0
-1756 1422 0
-1757 1422 0
-1758 1422 0
-1759 1422 0
-1760 1422 0
-1761 1422 0
-1762 1422 0
-1763 1422 0
-1764 1422 0
-1684 577 0
-1685 595 0
-1686 613 0
-1687 631 0
-1688 649 0
-1689 667 0
-1690 685 0
-1691 703 0
-1692 721 0
-1693 579 0
-1694 597 0
-1695 615 0
-1696 633 0
-1697 651 0
-1698 669 0
-1699 687 0
-1700 705 0
-1701 723 0
-1702 581 0
-1703 599 0
-1704 617 0
-1705 635 0
-1706 653 0
-1707 671 0
-1708 689 0
-1709 707 0
-1710 725 0
-1711 583 0
-1712 601 0
-1713 619 0
-1714 637 0
-1715 655 0
-1716 673 0
-1717 691 0
-1718 709 0
-1719 727 0
-1720 585 0
-1721 603 0
-1722 621 0
-1723 639 0
-1724 657 0
-1725 675 0
-1726 693 0
-1727 711 0
-1728 729 0
-1729 587 0
-1730 605 0
-1731 623 0
-1732 641 0
-1733 659 0
-1734 677 0
-1735 695 0
-1736 713 0
-1737 731 0
-1738 589 0
-1739 607 0
-1740 625 0
-1741 643 0
-1742 661 0
-1743 679 0
-1744 697 0
-1745 715 0
-1746 733 0
-1747 591 0
-1748 609 0
-1749 627 0
-1750 645 0
-1751 663 0
-1752 681 0
-1753 699 0
-1754 717 0
-1755 735 0
-1756 593 0
-1757 611 0
-1758 629 0
-1759 647 0
-1760 665 0
-1761 683 0
-1762 701 0
-1763 719 0
-1764 737 0
1513 -1342 1684 -1 0
1515 -1352 1685 -10 0
1517 -1362 1686 -19 0
1519 -1372 1687 -28 0
1521 -1382 1688 -37 0
1523 -1392 1689 -46 0
1525 -1402 1690 -55 0
1527 -1412 1691 -64 0
1529 -1422 1692 -73 0
1513 -1342 1693 -2 0
1515 -1352 1694 -11 0
1517 -1362 1695 -20 0
1519 -1372 1696 -29 0
1521 -1382 1697 -38 0
1523 -1392 1698 -47 0
1525 -1402 1699 -56 0
1527 -1412 1700 -65 0
1529 -1422 1701 -74 0
1513 -1342 1702 -3 0
1515 -1352 1703 -12 0
1517 -1362 1704 -21 0
1519 -1372 1705 -30 0
1521 -1382 1706 -39 0
1523 -1392 1707 -48 0
1525 -1402 1708 -57 0
1527 -1412 1709 -66 0
1529 -1422 1710 -75 0
1513 -1342 1711 -4 0
1515 -1352 1712 -13 0
1517 -1362 1713 -22 0
1519 -1372 1714 -31 0
1521 -1382 1715 -40 0
1523 -1392 1716 -49 0
1525 -1402 1717 -58 0
1527 -1412 1718 -67 0
1529 -1422 1719 -76 0
1513 -1342 1720 -5 0
1515 -1352 1721 -14 0
1517 -1362 1722 -23 0
1519 -1372 1723 -32 0
1521 -1382 1724 -41 0
1523 -1392 1725 -50 0
1525 -1402 1726 -59 0
1527 -1412 1727 -68 0
1529 -1422 1728 -77 0
1513 -1342 1729 -6 0
1515 -1352 1730 -15 0
1517 -1362 1731 -24 0
1519 -1372 1732 -33 0
1521 -1382 1733 -42 0
1523 -1392 1734 -51 0
1525 -1402 1735 -60 0
1527 -1412 1736 -69 0
1529 -1422 1737 -78 0
1513 -1342 1738 -7 0
1515 -1352 1739 -16 0
1517 -1362 1740 -25 0
1519 -1372 1741 -34 0
1521 -1382 1742 -43 0
1523 -1392 1743 -52 0
1525 -1402 1744 -61 0
1527 -1412 1745 -70 0
1529 -1422 1746 -79 0
1513 -1342 1747 -8 0
1515 -1352 1748 -17 0
1517 -1362 1749 -26 0
1519 -1372 1750 -35 0
1521 -1382 1751 -44 0
1523 -1392 1752 -53 0
1525 -1402 1753 -62 0
1527 -1412 1754 -71 0
1529 -1422 1755 -80 0
1513 -1342 1756 -9 0
1515 -1352 1757 -18 0
1517 -1362 1758 -27 0
1519 -1372 1759 -36 0
1521 -1382 1760 -45 0
1523 -1392 1761 -54 0
1525 -1402 1762 -63 0
1527 -1412 1763 -72 0
1529 -1422 1764 -81 0
1 -1513 0
10 -1515 0
19 -1517 0
28 -1519 0
37 -1521 0
46 -1523 0
55 -1525 0
64 -1527 0
73 -1529 0
2 -1513 0
11 -1515 0
20 -1517 0
29 -1519 0
38 -1521 0
47 -1523 0
56 -1525 0
65 -1527 0
74 -1529 0
3 -1513 0
12 -1515 0
21 -1517 0
30 -1519 0
39 -1521 0
48 -1523 0
57 -1525 0
66 -1527 0
75 -1529 0
4 -1513 0
13 -1515 0
22 -1517 0
31 -1519 0
40 -1521 0
49 -1523 0
58 -1525 0
67 -1527 0
76 -1529 0
5 -1513 0
14 -1515 0
23 -1517 0
32 -1519 0
41 -1521 0
50 -1523 0
59 -1525 0
68 -1527 0
77 -1529 0
6 -1513 0
15 -1515 0
24 -1517 0
33 -1519 0
42 -1521 0
51 -1523 0
60 -1525 0
69 -1527 0
78 -1529 0
7 -1513 0
16 -1515 0
25 -1517 0
34 -1519 0
43 -1521 0
52 -1523 0
61 -1525 0
70 -1527 0
79 -1529 0
8 -1513 0
17 -1515 0
26 -1517 0
35 -1519 0
44 -1521 0
53 -1523 0
62 -1525 0
71 -1527 0
80 -1529 0
9 -1513 0
18 -1515 0
27 -1517 0
36 -1519 0
45 -1521 0
54 -1523 0
63 -1525 0
72 -1527 0
81 -1529 0
1 1342 0
10 1352 0
19 1362 0
28 1372 0
37 1382 0
46 1392 0
55 1402 0
64 1412 0
73 1422 0
2 1342 0
11 1352 0
20 1362 0
29 1372 0
38 1382 0
47 1392 0
56 1402 0
65 1412 0
74 1422 0
3 1342 0
12 1352 0
21 1362 0
30 1372 0
39 1382 0
48 1392 0
57 1402 0
66 1412 0
75 1422 0
4 1342 0
13 1352 0
22 1362 0
31 1372 0
40 1382 0
49 1392 0
58 1402 0
67 1412 0
76 1422 0
5 1342 0
14 1352 0
23 1362 0
32 1372 0
41 1382 0
50 1392 0
59 1402 0
68 1412 0
77 1422 0
6 1342 0
15 1352 0
24 1362 0
33 1372 0
42 1382 0
51 1392 0
60 1402 0
69 1412 0
78 1422 0
7 1342 0
16 1352 0
25 1362 0
34 1372 0
43 1382 0
52 1392 0
61 1402 0
70 1412 0
79 1422 0
8 1342 0
17 1352 0
26 1362 0
35 1372 0
44 1382 0
53 1392 0
62 1402 0
71 1412 0
80 1422 0
9 1342 0
18 1352 0
27 1362 0
36 1372 0
45 1382 0
54 1392 0
63 1402 0
72 1412 0
81 1422 0
1 -1684 0
10 -1685 0
19 -1686 0
28 -1687 0
37 -1688 0
46 -1689 0
55 -1690 0
64 -1691 0
73 -1692 0
2 -1693 0
11 -1694 0
20 -1695 0
29 -1696 0
38 -1697 0
47 -1698 0
56 -1699 0
65 -1700 0
74 -1701 0
3 -1702 0
12 -1703 0
21 -1704 0
30 -1705 0
39 -1706 0
48 -1707 0
57 -1708 0
66 -1709 0
75 -1710 0
4 -1711 0
13 -1712 0
22 -1713 0
31 -1714 0
40 -1715 0
49 -1716 0
58 -1717 0
67 -1718 0
76 -1719 0
5 -1720 0
14 -1721 0
23 -1722 0
32 -1723 0
41 -1724 0
50 -1725 0
59 -1726 0
68 -1727 0
77 -1728 0
6 -1729 0
15 -1730 0
24 -1731 0
33 -1732 0
42 -1733 0
51 -1734 0
60 -1735 0
69 -1736 0
78 -1737 0
7 -1738 0
16 -1739 0
25 -1740 0
34 -1741 0
43 -1742 0
52 -1743 0
61 -1744 0
70 -1745 0
79 -1746 0
8 -1747 0
17 -1748 0
26 -1749 0
35 -1750 0
44 -1751 0
53 -1752 0
62 -1753 0
71 -1754 0
80 -1755 0
9 -1756 0
18 -1757 0
27 -1758 0
36 -1759 0
45 -1760 0
54 -1761 0
63 -1762 0
72 -1763 0
81 -1764 0
-820 -577 1765 0
-820 -595 1766 0
-820 -613 1767 0
-820 -631 1768 0
-820 -649 1769 0
-820 -667 1770 0
-820 -685 1771 0
-820 -703 1772 0
-820 -721 1773 0
-830 -579 1774 0
-830 -597 1775 0
-830 -615 1776 0
-830 -633 1777 0
-830 -651 1778 0
-830 -669 1779 0
-830 -687 1780 0
-830 -705 1781 0
-830 -723 1782 0
-840 -581 1783 0
-840 -599 1784 0
-840 -617 1785 0
-840 -635 1786 0
-840 -653 1787 0
-840 -671 1788 0
-840 -689 1789 0
-840 -707 1790 0
-840 -725 1791 0
-850 -583 1792 0
-850 -601 1793 0
-850 -619 1794 0
-850 -637 1795 0
-850 -655 1796 0
-850 -673 1797 0
-850 -691 1798 0
-850 -709 1799 0
-850 -727 1800 0
-860 -585 1801 0
-860 -603 1802 0
-860 -621 1803 0
-860 -639 1804 0
-860 -657 1805 0
-860 -675 1806 0
-860 -693 1807 0
-860 -711 1808 0
-860 -729 1809 0
-870 -587 1810 0
-870 -605 1811 0
-870 -623 1812 0
-870 -641 1813 0
-870 -659 1814 0
-870 -677 1815 0
-870 -695 1816 0
-870 -713 1817 0
-870 -731 1818 0
-880 -589 1819 0
-880 -607 1820 0
-880 -625 1821 0
-880 -643 1822 0
-880 -661 1823 0
-880 -679 1824 0
-880 -697 1825 0
-880 -715 1826 0
-880 -733 1827 0
-890 -591 1828 0
-890 -609 1829 0
-890 -627 1830 0
-890 -645 1831 0
-890 -663 1832 0
-890 -681 1833 0
-890 -699 1834 0
-890 -717 1835 0
-890 -735 1836 0
-900 -593 1837 0
-900 -611 1838 0
-900 -629 1839 0
-900 -647 1840 0
-900 -665 1841 0
-900 -683 1842 0
-900 -701 1843 0
-900 -719 1844 0
-900 -737 1845 0
-1765 820 0
-1766 820 0
-1767 820 0
-1768 820 0
-1769 820 0
-1770 820 0
-1771 820 0
-1772 820 0
-1773 820 0
-1774 830 0
-1775 830 0
-1776 830 0
-1777 830 0
-1778 830 0
-1779 830 0
-1780 830 0
-1781 830 0
-1782 830 0
-1783 840 0
-1784 840 0
-1785 840 0
-1786 840 0
-1787 840 0
-1788 840 0
-1789 840 0
-1790 840 0
-1791 840 0
-1792 850 0
-1793 850 0
-1794 850 0
-1795 850 0
-1796 850 0
-1797 850 0
-1798 850 0
-1799 850 0
-1800 850 0
-1801 860 0
-1802 860 0
-1803 860 0
-1804 860 0
-1805 860 0
-1806 860 0
-1807 860 0
-1808 860 0
-1809 860 0
-1810 870 0
-1811 870 0
-1812 870 0
-1813 870 0
-1814 870 0
-1815 870 0
-1816 870 0
-1817 870 0
-1818 870 0
-1819 880 0
-1820 880 0
-1821 880 0
-1822 880 0
-1823 880 0
-1824 880 0
-1825 880 0
-1826 880 0
-1827 880 0
-1828 890 0
-1829 890 0
-1830 890 0
-1831 890 0
-1832 890 0
-1833 890 0
-1834 890 0
-1835 890 0
-1836 890 0
-1837 900 0
-1838 900 0
-1839 900 0
-1840 900 0
-1841 900 0
-1842 900 0
-1843 900 0
-1844 900 0
-1845 900 0
-1765 577 0
-1766 595 0
-1767 613 0
-1768 631 0
-1769 649 0
-1770 667 0
-1771 685 0
-1772 703 0
-1773 721 0
-1774 579 0
-1775 597 0
-1776 615 0
-1777 633 0
-1778 651 0
-1779 669 0
-1780 687 0
-1781 705 0
-1782 723 0
-1783 581 0
-1784 599 0
-1785 617 0
-1786 635 0
-1787 653 0
-1788 671 0
-1789 689 0
-1790 707 0
-1791 725 0
-1792 583 0
-1793 601 0
-1794 619 0
-1795 637 0
-1796 655 0
-1797 673 0
-1798 691 0
-1799 709 0
-1800 727 0
-1801 585 0
-1802 603 0
-1803 621 0
-1804 639 0
-1805 657 0
-1806 675 0
-1807 693 0
-1808 711 0
-1809 729 0
-1810 587 0
-1811 605 0
-1812 623 0
-1813 641 0
-1814 659 0
-1815 677 0
-1816 695 0
-1817 713 0
-1818 731 0
-1819 589 0
-1820 607 0
-1821 625 0
-1822 643 0
-1823 661 0
-1824 679 0
-1825 697 0
-1826 715 0
-1827 733 0
-1828 591 0
-1829 609 0
-1830 627 0
-1831 645 0
-1832 663 0
-1833 681 0
-1834 699 0
-1835 717 0
-1836 735 0
-1837 593 0
-1838 611 0
-1839 629 0
-1840 647 0
-1841 665 0
-1842 683 0
-1843 701 0
-1844 719 0
-1845 737 0
991 -820 1765 -82 0
993 -830 1766 -91 0
995 -840 1767 -100 0
997 -850 1768 -109 0
999 -860 1769 -118 0
1001 -870 1770 -127 0
1003 -880 1771 -136 0
1005 -890 1772 -145 0
1007 -900 1773 -154 0
991 -820 1774 -83 0
993 -830 1775 -92 0
995 -840 1776 -101 0
997 -850 1777 -110 0
999 -860 1778 -119 0
1001 -870 1779 -128 0
1003 -880 1780 -137 0
1005 -890 1781 -146 0
1007 -900 1782 -155 0
991 -820 1783 -84 0
993 -830 1784 -93 0
995 -840 1785 -102 0
997 -850 1786 -111 0
999 -860 1787 -120 0
1001 -870 1788 -129 0
1003 -880 1789 -138 0
1005 -890 1790 -147 0
1007 -900 1791 -156 0
991 -820 1792 -85 0
993 -830 1793 -94 0
995 -840 1794 -103 0
997 -850 1795 -112 0
999 -860 1796 -121 0
1001 -870 1797 -130 0
1003 -880 1798 -139 0
1005 -890 1799 -148 0
1007 -900 1800 -157 0
991 -820 1801 -86 0
993 -830 1802 -95 0
995 -840 1803 -104 0
997 -850 1804 -113 0
999 -860 1805 -122 0
1001 -870 1806 -131 0
1003 -880 1807 -140 0
1005 -890 1808 -149 0
1007 -900 1809 -158 0
991 -820 1810 -87 0
993 -830 1811 -96 0
995 -840 1812 -105 0
997 -850 1813 -114 0
999 -860 1814 -123 0
1001 -870 1815 -132 0
1003 -880 1816 -141 0
1005 -890 1817 -150 0
1007 -900 1818 -159 0
991 -820 1819 -88 0
993 -830 1820 -97 0
995 -840 1821 -106 0
997 -850 1822 -115 0
999 -860 1823 -124 0
1001 -870 1824 -133 0
1003 -880 1825 -142 0
1005 -890 1826 -151 0
1007 -900 1827 -160 0
991 -820 1828 -89 0
993 -830 1829 -98 0
995 -840 1830 -107 0
997 -850 1831 -116 0
999 -860 1832 -125 0
1001 -870 1833 -134 0
1003 -880 1834 -143 0
1005 -890 1835 -152 0
1007 -900 1836 -161 0
991 -820 1837 -90 0
993 -830 1838 -99 0
995 -840 1839 -108 0
997 -850 1840 -117 0
999 -860 1841 -126 0
1001 -870 1842 -135 0
1003 -880 1843 -144 0
1005 -890 1844 -153 0
1007 -900 1845 -162 0
82 -991 0
91 -993 0
100 -995 0
109 -997 0
118 -999 0
127 -1001 0
136 -1003 0
145 -1005 0
154 -1007 0
83 -991 0
92 -993 0
101 -995 0
110 -997 0
119 -999 0
128 -1001 0
137 -1003 0
146 -1005 0
155 -1007 0
84 -991 0
93 -993 0
102 -995 0
111 -997 0
120 -999 0
129 -1001 0
138 -1003 0
147 -1005 0
156 -1007 0
85 -991 0
94 -993 0
103 -995 0
112 -997 0
121 -999 0
130 -1001 0
139 -1003 0
148 -1005 0
157 -1007 0
86 -991 0
95 -993 0
104 -995 0
113 -997 0
122 -999 0
131 -1001 0
140 -1003 0
149 -1005 0
158 -1007 0
87 -991 0
96 -993 0
105 -995 0
114 -997 0
123 -999 0
132 -1001 0
141 -1003 0
150 -1005 0
159 -1007 0
88 -991 0
97 -993 0
106 -995 0
115 -997 0
124 -999 0
133 -1001 0
142 -1003 0
151 -1005 0
160 -1007 0
89 -991 0
98 -993 0
107 -995 0
116 -997 0
125 -999 0
134 -1001 0
143 -1003 0
152 -1005 0
161 -1007 0
90 -991 0
99 -993 0
108 -995 0
117 -997 0
126 -999 0
135 -1001 0
144 -1003 0
153 -1005 0
162 -1007 0
82 820 0
91 830 0
100 840 0
109 850 0
118 860 0
127 870 0
136 880 0
145 890 0
154 900 0
83 820 0
92 830 0
101 840 0
110 850 0
119 860 0
128 870 0
137 880 0
146 890 0
155 900 0
84 820 0
93 830 0
102 840 0
111 850 0
120 860 0
129 870 0
138 880 0
147 890 0
156 900 0
85 820 0
94 830 0
103 840 0
112 850 0
121 860 0
130 870 0
139 880 0
148 890 0
157 900 0
86 820 0
95 830 0
104 840 0
113 850 0
122 860 0
131 870 0
140 880 0
149 890 0
158 900 0
87 820 0
96 830 0
105 840 0
114 850 0
123 860 0
132 870 0
141 880 0
150 890 0
159 900 0
88 820 0
97 830 0
106 840 0
115 850 0
124 860 0
133 870 0
142 880 0
151 890 0
160 900 0
89 820 0
98 830 0
107 840 0
116 850 0
125 860 0
134 870 0
143 880 0
152 890 0
161 900 0
90 820 0
99 830 0
108 840 0
117 850 0
126 860 0
135 870 0
144 880 0
153 890 0
162 900 0
82 -1765 0
91 -1766 0
100 -1767 0
109 -1768 0
118 -1769 0
127 -1770 0
136 -1771 0
145 -1772 0
154 -1773 0
83 -1774 0
92 -1775 0
101 -1776 0
110 -1777 0
119 -1778 0
128 -1779 0
137 -1780 0
146 -1781 0
155 -1782 0
84 -1783 0
93 -1784 0
102 -1785 0
111 -1786 0
120 -1787 0
129 -1788 0
138 -1789 0
147 -1790 0
156 -1791 0
85 -1792 0
94 -1793 0
103 -1794 0
112 -1795 0
121 -1796 0
130 -1797 0
139 -1798 0
148 -1799 0
157 -1800 0
86 -1801 0
95 -1802 0
104 -1803 0
113 -1804 0
122 -1805 0
131 -1806 0
140 -1807 0
149 -1808 0
158 -1809 0
87 -1810 0
96 -1811 0
105 -1812 0
114 -1813 0
123 -1814 0
132 -1815 0
141 -1816 0
150 -1817 0
159 -1818 0
88 -1819 0
97 -1820 0
106 -1821 0
115 -1822 0
124 -1823 0
133 -1824 0
142 -1825 0
151 -1826 0
160 -1827 0
89 -1828 0
98 -1829 0
107 -1830 0
116 -1831 0
125 -1832 0
134 -1833 0
143 -1834 0
152 -1835 0
161 -1836 0
90 -1837 0
99 -1838 0
108 -1839 0
117 -1840 0
126 -1841 0
135 -1842 0
144 -1843 0
153 -1844 0
162 -1845 0
-1081 -577 1846 0
-1081 -595 1847 0
-1081 -613 1848 0
-1081 -631 1849 0
-1081 -649 1850 0
-1081 -667 1851 0
-1081 -685 1852 0
-1081 -703 1853 0
-1081 -721 1854 0
-1091 -579 1855 0
-1091 -597 1856 0
-1091 -615 1857 0
-1091 -633 1858 0
-1091 -651 1859 0
-1091 -669 1860 0
-1091 -687 1861 0
-1091 -705 1862 0
-1091 -723 1863 0
-1101 -581 1864 0
-1101 -599 1865 0
-1101 -617 1866 0
-1101 -635 1867 0
-1101 -653 1868 0
-1101 -671 1869 0
-1101 -689 1870 0
-1101 -707 1871 0
-1101 -725 1872 0
-1111 -583 1873 0
-1111 -601 1874 0
-1111 -619 1875 0
-1111 -637 1876 0
-1111 -655 1877 0
-1111 -673 1878 0
-1111 -691 1879 0
-1111 -709 1880 0
-1111 -727 1881 0
-1121 -585 1882 0
-1121 -603 1883 0
-1121 -621 1884 0
-1121 -639 1885 0
-1121 -657 1886 0
-1121 -675 1887 0
-1121 -693 1888 0
-1121 -711 1889 0
-1121 -729 1890 0
-1131 -587 1891 0
-1131 -605 1892 0
-1131 -623 1893 0
-1131 -641 1894 0
-1131 -659 1895 0
-1131 -677 1896 0
-1131 -695 1897 0
-1131 -713 1898 0
-1131 -731 1899 0
-1141 -589 1900 0
-1141 -607 1901 0
-1141 -625 1902 0
-1141 -643 1903 0
-1141 -661 1904 0
-1141 -679 1905 0
-1141 -697 1906 0
-1141 -715 1907 0
-1141 -733 1908 0
-1151 -591 1909 0
-1151 -609 1910 0
-1151 -627 1911 0
-1151 -645 1912 0
-1151 -663 1913 0
-1151 -681 1914 0
-1151 -699 1915 0
-1151 -717 1916 0
-1151 -735 1917 0
-1161 -593 1918 0
-1161 -611 1919 0
-1161 -629 1920 0
-1161 -647 1921 0
-1161 -665 1922 0
-1161 -683 1923 0
-1161 -701 1924 0
-1161 -719 1925 0
-1161 -737 1926 0
-1846 1081 0
-1847 1081 0
-1848 1081 0
-1849 1081 0
-1850 1081 0
-1851 1081 0
-1852 1081 0
-1853 1081 0
-1854 1081 0
-1855 1091 0
-1856 1091 0
-1857 1091 0
-1858 1091 0
-1859 1091 0
-1860 1091 0
-1861 1091 0
-1862 1091 0
-1863 1091 0
-1864 1101 0
-1865 1101 0
-1866 1101 0
-1867 1101 0
-1868 1101 0
-1869 1101 0
-1870 1101 0
-1871 1101 0
-1872 1101 0
-1873 1111 0
-1874 1111 0
-1875 1111 0
-1876 1111 0
-1877 1111 0
-1878 1111 0
-1879 1111 0
-1880 1111 0
-1881 1111 0
-1882 1121 0
-1883 1121 0
-1884 1121 0
-1885 1121 0
-1886 1121 0
-1887 1121 0
-1888 1121 0
-1889 1121 0
-1890 1121 0
-1891 1131 0
-1892 1131 0
-1893 1131 0
-1894 1131 0
-1895 1131 0
-1896 1131 0
-1897 1131 0
-1898 1131 0
-1899 1131 0
-1900 1141 0
-1901 1141 0
-1902 1141 0
-1903 1141 0
-1904 1141 0
-1905 1141 0
-1906 1141 0
-1907 1141 0
-1908 1141 0
-1909 1151 0
-1910 1151 0
-1911 1151 0
-1912 1151 0
-1913 1151 0
-1914 1151 0
-1915 1151 0
-1916 1151 0
-1917 1151 0
-1918 1161 0
-1919 1161 0
-1920 1161 0
-1921 1161 0
-1922 1161 0
-1923 1161 0
-1924 1161 0
-1925 1161 0
-1926 1161 0
-1846 577 0
-1847 595 0
-1848 613 0
-1849 631 0
-1850 649 0
-1851 667 0
-1852 685 0
-1853 703 0
-1854 721 0
-1855 579 0
-1856 597 0
-1857 615 0
-1858 633 0
-1859 651 0
-1860 669 0
-1861 687 0
-1862 705 0
-1863 723 0
-1864 581 0
-1865 599 0
-1866 617 0
-1867 635 0
-1868 653 0
-1869 671 0
-1870 689 0
-1871 707 0
-1872 725 0
-1873 583 0
-1874 601 0
-1875 619 0
-1876 637 0
-1877 655 0
-1878 673 0
-1879 691 0
-1880 709 0
-1881 727 0
-1882 585 0
-1883 603 0
-1884 621 0
-1885 639 0
-1886 657 0
-1887 675 0
-1888 693 0
-1889 711 0
-1890 729 0
-1891 587 0
-1892 605 0
-1893 623 0
-1894 641 0
-1895 659 0
-1896 677 0
-1897 695 0
-1898 713 0
-1899 731 0
-1900 589 0
-1901 607 0
-1902 625 0
-1903 643 0
-1904 661 0
-1905 679 0
-1906 697 0
-1907 715 0
-1908 733 0
-1909 591 0
-1910 609 0
-1911 627 0
-1912 645 0
-1913 663 0
-1914 681 0
-1915 699 0
-1916 717 0
-1917 735 0
-1918 593 0
-1919 611 0
-1920 629 0
-1921 647 0
-1922 665 0
-1923 683 0
-1924 701 0
-1925 719 0
-1926 737 0
1252 -1081 1846 -163 0
1254 -1091 1847 -172 0
1256 -1101 1848 -181 0
1258 -1111 1849 -190 0
1260 -1121 1850 -199 0
1262 -1131 1851 -208 0
1264 -1141 1852 -217 0
1266 -1151 1853 -226 0
1268 -1161 1854 -235 0
1252 -1081 1855 -164 0
1254 -1091 1856 -173 0
1256 -1101 1857 -182 0
1258 -1111 1858 -191 0
1260 -1121 1859 -200 0
1262 -1131 1860 -209 0
1264 -1141 1861 -218 0
1266 -1151 1862 -227 0
1268 -1161 1863 -236 0
1252 -1081 1864 -165 0
1254 -1091 1865 -174 0
1256 -1101 1866 -183 0
1258 -1111 1867 -192 0
1260 -1121 1868 -201 0
1262 -1131 1869 -210 0
1264 -1141 1870 -219 0
1266 -1151 1871 -228 0
1268 -1161 1872 -237 0
1252 -1081 1873 -166 0
1254 -1091 1874 -175 0
1256 -1101 1875 -184 0
1258 -1111 1876 -193 0
1260 -1121 1877 -202 0
1262 -1131 1878 -211 0
1264 -1141 1879 -220 0
1266 -1151 1880 -229 0
1268 -1161 1881 -238 0
1252 -1081 1882 -167 0
1254 -1091 1883 -176 0
1256 -1101 1884 -185 0
1258 -1111 1885 -194 0
1260 -1121 1886 -203 0
1262 -1131 1887 -212 0
1264 -1141 1888 -221 0
1266 -1151 1889 -230 0
1268 -1161 1890 -239 0
1252 -1081 1891 -168 0
1254 -1091 1892 -177 0
1256 -1101 1893 -186 0
1258 -1111 1894 -195 0
1260 -1121 1895 -204 0
1262 -1131 1896 -213 0
1264 -1141 1897 -222 0
1266 -1151 1898 -231 0
1268 -1161 1899 -240 0
1252 -1081 1900 -169 0
1254 -1091 1901 -178 0
1256 -1101 1902 -187 0
1258 -1111 1903 -196 0
1260 -1121 1904 -205 0
1262 -1131 1905 -214 0
1264 -1141 1906 -223 0
1266 -1151 1907 -232 0
1268 -1161 1908 -241 0
1252 -1081 1909 -170 0
1254 -1091 1910 -179 0
1256 -1101 1911 -188 0
1258 -1111 1912 -197 0
1260 -1121 1913 -206 0
1262 -1131 1914 -215 0
1264 -1141 1915 -224 0
1266 -1151 1916 -233 0
1268 -1161 1917 -242 0
1252 -1081 1918 -171 0
1254 -1091 1919 -180 0
1256 -1101 1920 -189 0
1258 -1111 1921 -198 0
1260 -1121 1922 -207 0
1262 -1131 1923 -216 0
1264 -1141 1924 -225 0
1266 -1151 1925 -234 0
1268 -1161 1926 -243 0
163 -1252 0
172 -1254 0
181 -1256 0
190 -1258 0
199 -1260 0
208 -1262 0
217 -1264 0
226 -1266 0
235 -1268 0
164 -1252 0
173 -1254 0
182 -1256 0
191 -1258 0
200 -1260 0
209 -1262 0
218 -1264 0
227 -1266 0
236 -1268 0
165 -1252 0
174 -1254 0
183 -1256 0
192 -1258 0
201 -1260 0
210 -1262 0
219 -1264 0
228 -1266 0
237 -1268 0
166 -1252 0
175 -1254 0
184 -1256 0
193 -1258 0
202 -1260 0
211 -1262 0
220 -1264 0
229 -1266 0
238 -1268 0
167 -1252 0
176 -1254 0
185 -1256 0
194 -1258 0
203 -1260 0
212 -1262 0
221 -1264 0
230 -1266 0
239 -1268 0
168 -1252 0
177 -1254 0
186 -1256 0
195 -1258 0
204 -1260 0
213 -1262 0
222 -1264 0
231 -1266 0
240 -1268 0
169 -1252 0
178 -1254 0
187 -1256 0
196 -1258 0
205 -1260 0
214 -1262 0
223 -1264 0
232 -1266 0
241 -1268 0
170 -1252 0
179 -1254 0
188 -1256 0
197 -1258 0
206 -1260 0
215 -1262 0
224 -1264 0
233 -1266 0
242 -1268 0
171 -1252 0
180 -1254 0
189 -1256 0
198 -1258 0
207 -1260 0
216 -1262 0
225 -1264 0
234 -1266 0
243 -1268 0
163 1081 0
172 1091 0
181 1101 0
190 1111 0
199 1121 0
208 1131 0
217 1141 0
226 1151 0
235 1161 0
164 1081 0
173 1091 0
182 1101 0
191 1111 0
200 1121 0
209 1131 0
218 1141 0
227 1151 0
236 1161 0
165 1081 0
174 1091 0
183 1101 0
192 1111 0
201 1121 0
210 1131 0
219 1141 0
228 1151 0
237 1161 0
166 1081 0
175 1091 0
184 1101 0
193 1111 0
202 1121 0
211 1131 0
220 1141 0
229 1151 0
238 1161 0
167 1081 0
176 1091 0
185 1101 0
194 1111 0
203 1121 0
212 1131 0
221 1141 0
230 1151 0
239 1161 0
168 1081 0
177 1091 0
186 1101 0
195 1111 0
204 1121 0
213 1131 0
222 1141 0
231 1151 0
240 1161 0
169 1081 0
178 1091 0
187 1101 0
196 1111 0
205 1121 0
214 1131 0
223 1141 0
232 1151 0
241 1161 0
170 1081 0
179 1091 0
188 1101 0
197 1111 0
206 1121 0
215 1131 0
224 1141 0
233 1151 0
242 1161 0
171 1081 0
180 1091 0
189 1101 0
198 1111 0
207 1121 0
216 1131 0
225 1141 0
234 1151 0
243 1161 0
163 -1846 0
172 -1847 0
181 -1848 0
190 -1849 0
199 -1850 0
208 -1851 0
217 -1852 0
226 -1853 0
235 -1854 0
164 -1855 0
173 -1856 0
182 -1857 0
191 -1858 0
200 -1859 0
209 -1860 0
218 -1861 0
227 -1862 0
236 -1863 0
165 -1864 0
174 -1865 0
183 -1866 0
192 -1867 0
201 -1868 0
210 -1869 0
219 -1870 0
228 -1871 0
237 -1872 0
166 -1873 0
175 -1874 0
184 -1875 0
193 -1876 0
202 -1877 0
211 -1878 0
220 -1879 0
229 -1880 0
238 -1881 0
167 -1882 0
176 -1883 0
185 -1884 0
194 -1885 0
203 -1886 0
212 -1887 0
221 -1888 0
230 -1889 0
239 -1890 0
168 -1891 0
177 -1892 0
186 -1893 0
195 -1894 0
204 -1895 0
213 -1896 0
222 -1897 0
231 -1898 0
240 -1899 0
169 -1900 0
178 -1901 0
187 -1902 0
196 -1903 0
205 -1904 0
214 -1905 0
223 -1906 0
232 -1907 0
241 -1908 0
170 -1909 0
179 -1910 0
188 -1911 0
197 -1912 0
206 -1913 0
215 -1914 0
224 -1915 0
233 -1916 0
242 -1917 0
171 -1918 0
180 -1919 0
189 -1920 0
198 -1921 0
207 -1922 0
216 -1923 0
225 -1924 0
234 -1925 0
243 -1926 0
1402 0
-900 0
1412 0
1422 0
257 0
-1131 0
266 0
-860 0
-870 0
-1101 0
-1141 0
820 0
-1151 0
251 0
-1161 0
-880 0
-1372 0
245 0
-1081 0
-890 0
-1362 0
-1382 0
-1342 0
269 0
1111 0
830 0
-1091 0
248 0
254 0
-850 0
840 0
1121 0
1392 0
260 0
-1352 0
263 0
-1513 1927 0
-1927 1928 0
-1515 -1927 0
-1515 1928 0
-1928 1929 0
-1517 -1928 0
-1517 1929 0
-1929 1930 0
-1519 -1929 0
-1519 1930 0
-1930 1931 0
-1521 -1930 0
-1521 1931 0
-1931 1932 0
-1523 -1931 0
-1523 1932 0
-1932 1933 0
-1525 -1932 0
-1525 1933 0
-1933 1934 0
-1527 -1933 0
-1527 1934 0
-1529 -1934 0
-991 1935 0
-1935 1936 0
-993 -1935 0
-993 1936 0
-1936 1937 0
-995 -1936 0
-995 1937 0
-1937 1938 0
-997 -1937 0
-997 1938 0
-1938 1939 0
-999 -1938 0
-999 1939 0
-1939 1940 0
-1001 -1939 0
-1001 1940 0
-1940 1941 0
-1003 -1940 0
-1003 1941 0
-1941 1942 0
-1005 -1941 0
-1005 1942 0
-1007 -1942 0
-1252 1943 0
-1943 1944 0
-1254 -1943 0
-1254 1944 0
-1944 1945 0
-1256 -1944 0
-1256 1945 0
-1945 1946 0
-1258 -1945 0
-1258 1946 0
-1946 1947 0
-1260 -1946 0
-1260 1947 0
-1947 1948 0
-1262 -1947 0
-1262 1948 0
-1948 1949 0
-1264 -1948 0
-1264 1949 0
-1949 1950 0
-1266 -1949 0
-1266 1950 0
-1268 -1950 0
244 0
271 247 0
-271 -247 0
-271 -291 289 0
-271 -309 307 0
-271 -327 325 0
-271 -345 343 0
-271 -363 361 0
-271 -381 379 0
-271 -399 397 0
289 250 0
-289 -250 0
-289 -275 271 0
-289 -311 307 0
-289 -329 325 0
-289 -347 343 0
-289 -365 361 0
-289 -383 379 0
-289 -401 397 0
307 253 0
-307 -253 0
-307 -277 271 0
-307 -295 289 0
-307 -331 325 0
-307 -349 343 0
-307 -367 361 0
-307 -385 379 0
-307 -403 397 0
325 256 0
-325 -256 0
-325 -279 271 0
-325 -297 289 0
-325 -315 307 0
-325 -351 343 0
-325 -369 361 0
-325 -387 379 0
-325 -405 397 0
343 259 0
-343 -259 0
-343 -281 271 0
-343 -299 289 0
-343 -317 307 0
-343 -335 325 0
-343 -371 361 0
-343 -389 379 0
-343 -407 397 0
361 262 0
-361 -262 0
-361 -283 271 0
-361 -301 289 0
-361 -319 307 0
-361 -337 325 0
-361 -355 343 0
-361 -391 379 0
-361 -409 397 0
379 265 0
-379 -265 0
-379 -285 271 0
-379 -303 289 0
-379 -321 307 0
-379 -339 325 0
-379 -357 343 0
-379 -375 361 0
-379 -411 397 0
397 268 0
-397 -268 0
-397 -287 271 0
-397 -305 289 0
-397 -323 307 0
-397 -341 325 0
-397 -359 343 0
-397 -377 361 0
-397 -395 379 0
273 0
247 271 0
-247 -271 0
-247 -289 291 0
-247 -307 309 0
-247 -325 327 0
-247 -343 345 0
-247 -361 363 0
-247 -379 381 0
-247 -397 399 0
291 275 0
-291 -275 0
-291 -250 247 0
-291 -311 309 0
-291 -329 327 0
-291 -347 345 0
-291 -365 363 0
-291 -383 381 0
-291 -401 399 0
309 277 0
-309 -277 0
-309 -253 247 0
-309 -295 291 0
-309 -331 327 0
-309 -349 345 0
-309 -367 363 0
-309 -385 381 0
-309 -403 399 0
327 279 0
-327 -279 0
-327 -256 247 0
-327 -297 291 0
-327 -315 309 0
-327 -351 345 0
-327 -369 363 0
-327 -387 381 0
-327 -405 399 0
345 281 0
-345 -281 0
-345 -259 247 0
-345 -299 291 0
-345 -317 309 0
-345 -335 327 0
-345 -371 363 0
-345 -389 381 0
-345 -407 399 0
363 283 0
-363 -283 0
-363 -262 247 0
-363 -301 291 0
-363 -319 309 0
-363 -337 327 0
-363 -355 345 0
-363 -391 381 0
-363 -409 399 0
381 285 0
-381 -285 0
-381 -265 247 0
-381 -303 291 0
-381 -321 309 0
-381 -339 327 0
-381 -357 345 0
-381 -375 363 0
-381 -411 399 0
399 287 0
-399 -287 0
-399 -268 247 0
-399 -305 291 0
-399 -323 309 0
-399 -341 327 0
-399 -359 345 0
-399 -377 363 0
-399 -395 381 0
293 0
250 289 0
-250 -289 0
-250 -271 275 0
-250 -307 311 0
-250 -325 329 0
-250 -343 347 0
-250 -361 365 0
-250 -379 383 0
-250 -397 401 0
275 291 0
-275 -291 0
-275 -247 250 0
-275 -309 311 0
-275 -327 329 0
-275 -345 347 0
-275 -363 365 0
-275 -381 383 0
-275 -399 401 0
311 295 0
-311 -295 0
-311 -253 250 0
-311 -277 275 0
-311 -331 329 0
-311 -349 347 0
-311 -367 365 0
-311 -385 383 0
-311 -403 401 0
329 297 0
-329 -297 0
-329 -256 250 0
-329 -279 275 0
-329 -315 311 0
-329 -351 347 0
-329 -369 365 0
-329 -387 383 0
-329 -405 401 0
347 299 0
-347 -299 0
-347 -259 250 0
-347 -281 275 0
-347 -317 311 0
-347 -335 329 0
-347 -371 365 0
-347 -389 383 0
-347 -407 401 0
365 301 0
-365 -301 0
-365 -262 250 0
-365 -283 275 0
-365 -319 311 0
-365 -337 329 0
-365 -355 347 0
-365 -391 383 0
-365 -409 401 0
383 303 0
-383 -303 0
-383 -265 250 0
-383 -285 275 0
-383 -321 311 0
-383 -339 329 0
-383 -357 347 0
-383 -375 365 0
-383 -411 401 0
401 305 0
-401 -305 0
-401 -268 250 0
-401 -287 275 0
-401 -323 311 0
-401 -341 329 0
-401 -359 347 0
-401 -377 365 0
-401 -395 383 0
313 0
253 307 0
-253 -307 0
-253 -271 277 0
-253 -289 295 0
-253 -325 331 0
-253 -343 349 0
-253 -361 367 0
-253 -379 385 0
-253 -397 403 0
277 309 0
-277 -309 0
-277 -247 253 0
-277 -291 295 0
-277 -327 331 0
-277 -345 349 0
-277 -363 367 0
-277 -381 385 0
-277 -399 403 0
295 311 0
-295 -311 0
-295 -250 253 0
-295 -275 277 0
-295 -329 331 0
-295 -347 349 0
-295 -365 367 0
-295 -383 385 0
-295 -401 403 0
331 315 0
-331 -315 0
-331 -256 253 0
-331 -279 277 0
-331 -297 295 0
-331 -351 349 0
-331 -369 367 0
-331 -387 385 0
-331 -405 403 0
349 317 0
-349 -317 0
-349 -259 253 0
-349 -281 277 0
-349 -299 295 0
-349 -335 331 0
-349 -371 367 0
-349 -389 385 0
-349 -407 403 0
367 319 0
-367 -319 0
-367 -262 253 0
-367 -283 277 0
-367 -301 295 0
-367 -337 331 0
-367 -355 349 0
-367 -391 385 0
-367 -409 403 0
385 321 0
-385 -321 0
-385 -265 253 0
-385 -285 277 0
-385 -303 295 0
-385 -339 331 0
-385 -357 349 0
-385 -375 367 0
-385 -411 403 0
403 323 0
-403 -323 0
-403 -268 253 0
-403 -287 277 0
-403 -305 295 0
-403 -341 331 0
-403 -359 349 0
-403 -377 367 0
-403 -395 385 0
333 0
256 325 0
-256 -325 0
-256 -271 279 0
-256 -289 297 0
-256 -307 315 0
-256 -343 351 0
-256 -361 369 0
-256 -379 387 0
-256 -397 405 0
279 327 0
-279 -327 0
-279 -247 256 0
-279 -291 297 0
-279 -309 315 0
-279 -345 351 0
-279 -363 369 0
-279 -381 387 0
-279 -399 405 0
297 329 0
-297 -329 0
-297 -250 256 0
-297 -275 279 0
-297 -311 315 0
-297 -347 351 0
-297 -365 369 0
-297 -383 387 0
-297 -401 405 0
315 331 0
-315 -331 0
-315 -253 256 0
-315 -277 279 0
-315 -295 297 0
-315 -349 351 0
-315 -367 369 0
-315 -385 387 0
-315 -403 405 0
351 335 0
-351 -335 0
-351 -259 256 0
-351 -281 279 0
-351 -299 297 0
-351 -317 315 0
-351 -371 369 0
-351 -389 387 0
-351 -407 405 0
369 337 0
-369 -337 0
-369 -262 256 0
-369 -283 279 0
-369 -301 297 0
-369 -319 315 0
-369 -355 351 0
-369 -391 387 0
-369 -409 405 0
387 339 0
-387 -339 0
-387 -265 256 0
-387 -285 279 0
-387 -303 297 0
-387 -321 315 0
-387 -357 351 0
-387 -375 369 0
-387 -411 405 0
405 341 0
-405 -341 0
-405 -268 256 0
-405 -287 279 0
-405 -305 297 0
-405 -323 315 0
-405 -359 351 0
-405 -377 369 0
-405 -395 387 0
353 0
259 343 0
-259 -343 0
-259 -271 281 0
-259 -289 299 0
-259 -307 317 0
-259 -325 335 0
-259 -361 371 0
-259 -379 389 0
-259 -397 407 0
281 345 0
-281 -345 0
-281 -247 259 0
-281 -291 299 0
-281 -309 317 0
-281 -327 335 0
-281 -363 371 0
-281 -381 389 0
-281 -399 407 0
299 347 0
-299 -347 0
-299 -250 259 0
-299 -275 281 0
-299 -311 317 0
-299 -329 335 0
-299 -365 371 0
-299 -383 389 0
-299 -401 407 0
317 349 0
-317 -349 0
-317 -253 259 0
-317 -277 281 0
-317 -295 299 0
-317 -331 335 0
-317 -367 371 0
-317 -385 389 0
-317 -403 407 0
335 351 0
-335 -351 0
-335 -256 259 0
-335 -279 281 0
-335 -297 299 0
-335 -315 317 0
-335 -369 371 0
-335 -387 389 0
-335 -405 407 0
371 355 0
-371 -355 0
-371 -262 259 0
-371 -283 281 0
-371 -301 299 0
-371 -319 317 0
-371 -337 335 0
-371 -391 389 0
-371 -409 407 0
389 357 0
-389 -357 0
-389 -265 259 0
-389 -285 281 0
-389 -303 299 0
-389 -321 317 0
-389 -339 335 0
-389 -375 371 0
-389 -411 407 0
407 359 0
-407 -359 0
-407 -268 259 0
-407 -287 281 0
-407 -305 299 0
-407 -323 317 0
-407 -341 335 0
-407 -377 371 0
-407 -395 389 0
373 0
262 361 0
-262 -361 0
-262 -271 283 0
-262 -289 301 0
-262 -307 319 0
-262 -325 337 0
-262 -343 355 0
-262 -379 391 0
-262 -397 409 0
283 363 0
-283 -363 0
-283 -247 262 0
-283 -291 301 0
-283 -309 319 0
-283 -327 337 0
-283 -345 355 0
-283 -381 391 0
-283 -399 409 0
301 365 0
-301 -365 0
-301 -250 262 0
-301 -275 283 0
-301 -311 319 0
-301 -329 337 0
-301 -347 355 0
-301 -383 391 0
-301 -401 409 0
319 367 0
-319 -367 0
-319 -253 262 0
-319 -277 283 0
-319 -295 301 0
-319 -331 337 0
-319 -349 355 0
-319 -385 391 0
-319 -403 409 0
337 369 0
-337 -369 0
-337 -256 262 0
-337 -279 283 0
-337 -297 301 0
-337 -315 319 0
-337 -351 355 0
-337 -387 391 0
-337 -405 409 0
355 371 0
-355 -371 0
-355 -259 262 0
-355 -281 283 0
-355 -299 301 0
-355 -317 319 0
-355 -335 337 0
-355 -389 391 0
-355 -407 409 0
391 375 0
-391 -375 0
-391 -265 262 0
-391 -285 283 0
-391 -303 301 0
-391 -321 319 0
-391 -339 337 0
-391 -357 355 0
-391 -411 409 0
409 377 0
-409 -377 0
-409 -268 262 0
-409 -287 283 0
-409 -305 301 0
-409 -323 319 0
-409 -341 337 0
-409 -359 355 0
-409 -395 391 0
393 0
265 379 0
-265 -379 0
-265 -271 285 0
-265 -289 303 0
-265 -307 321 0
-265 -325 339 0
-265 -343 357 0
-265 -361 375 0
-265 -397 411 0
285 381 0
-285 -381 0
-285 -247 265 0
-285 -291 303 0
-285 -309 321 0
-285 -327 339 0
-285 -345 357 0
-285 -363 375 0
-285 -399 411 0
303 383 0
-303 -383 0
-303 -250 265 0
-303 -275 285 0
-303 -311 321 0
-303 -329 339 0
-303 -347 357 0
-303 -365 375 0
-303 -401 411 0
321 385 0
-321 -385 0
-321 -253 265 0
-321 -277 285 0
-321 -295 303 0
-321 -331 339 0
-321 -349 357 0
-321 -367 375 0
-321 -403 411 0
339 387 0
-339 -387 0
-339 -256 265 0
-339 -279 285 0
-339 -297 303 0
-339 -315 321 0
-339 -351 357 0
-339 -369 375 0
-339 -405 411 0
357 389 0
-357 -389 0
-357 -259 265 0
-357 -281 285 0
-357 -299 303 0
-357 -317 321 0
-357 -335 339 0
-357 -371 375 0
-357 -407 411 0
375 391 0
-375 -391 0
-375 -262 265 0
-375 -283 285 0
-375 -301 303 0
-375 -319 321 0
-375 -337 339 0
-375 -355 357 0
-375 -409 411 0
411 395 0
-411 -395 0
-411 -268 265 0
-411 -287 285 0
-411 -305 303 0
-411 -323 321 0
-411 -341 339 0
-411 -359 357 0
-411 -377 375 0
413 0
268 397 0
-268 -397 0
-268 -271 287 0
-268 -289 305 0
-268 -307 323 0
-268 -325 341 0
-268 -343 359 0
-268 -361 377 0
-268 -379 395 0
287 399 0
-287 -399 0
-287 -247 268 0
-287 -291 305 0
-287 -309 323 0
-287 -327 341 0
-287 -345 359 0
-287 -363 377 0
-287 -381 395 0
305 401 0
-305 -401 0
-305 -250 268 0
-305 -275 287 0
-305 -311 323 0
-305 -329 341 0
-305 -347 359 0
-305 -365 377 0
-305 -383 395 0
323 403 0
-323 -403 0
-323 -253 268 0
-323 -277 287 0
-323 -295 305 0
-323 -331 341 0
-323 -349 359 0
-323 -367 377 0
-323 -385 395 0
341 405 0
-341 -405 0
-341 -256 268 0
-341 -279 287 0
-341 -297 305 0
-341 -315 323 0
-341 -351 359 0
-341 -369 377 0
-341 -387 395 0
359 407 0
-359 -407 0
-359 -259 268 0
-359 -281 287 0
-359 -299 305 0
-359 -317 323 0
-359 -335 341 0
-359 -371 377 0
-359 -389 395 0
377 409 0
-377 -409 0
-377 -262 268 0
-377 -283 287 0
-377 -301 305 0
-377 -319 323 0
-377 -337 341 0
-377 -355 359 0
-377 -391 395 0
395 411 0
-395 -411 0
-395 -265 268 0
-395 -285 287 0
-395 -303 305 0
-395 -321 323 0
-395 -339 341 0
-395 -357 359 0
-395 -375 377 0
-1951 0
-1952 271 0
-1953 289 0
-1953 275 0
-289 -275 1953 0
-1954 307 0
-1954 277 0
-307 -277 1954 0
-1955 325 0
-1955 279 0
-325 -279 1955 0
-1956 343 0
-1956 281 0
-343 -281 1956 0
-1957 361 0
-1957 283 0
-361 -283 1957 0
-1958 379 0
-1958 285 0
-379 -285 1958 0
-1959 397 0
-1959 287 0
-397 -287 1959 0
-1952 -1953 0
-1952 -1954 0
-1952 -1955 0
-1952 -1956 0
-1952 -1957 0
-1952 -1958 0
-1952 -1959 0
-271 1952 1953 1954 1955 1956 1957 1958 1959 0
-1960 289 0
-1961 271 0
-1961 291 0
-271 -291 1961 0
-1962 307 0
-1962 295 0
-307 -295 1962 0
-1963 325 0
-1963 297 0
-325 -297 1963 0
-1964 343 0
-1964 299 0
-343 -299 1964 0
-1965 361 0
-1965 301 0
-361 -301 1965 0
-1966 379 0
-1966 303 0
-379 -303 1966 0
-1967 397 0
-1967 305 0
-397 -305 1967 0
-1960 -1961 0
-1960 -1962 0
-1960 -1963 0
-1960 -1964 0
-1960 -1965 0
-1960 -1966 0
-1960 -1967 0
-289 1960 1961 1962 1963 1964 1965 1966 1967 0
-1968 307 0
-1969 271 0
-1969 309 0
-271 -309 1969 0
-1970 289 0
-1970 311 0
-289 -311 1970 0
-1971 325 0
-1971 315 0
-325 -315 1971 0
-1972 343 0
-1972 317 0
-343 -317 1972 0
-1973 361 0
-1973 319 0
-361 -319 1973 0
-1974 379 0
-1974 321 0
-379 -321 1974 0
-1975 397 0
-1975 323 0
-397 -323 1975 0
-1968 -1969 0
-1968 -1970 0
-1968 -1971 0
-1968 -1972 0
-1968 -1973 0
-1968 -1974 0
-1968 -1975 0
-307 1968 1969 1970 1971 1972 1973 1974 1975 0
-1976 325 0
-1977 271 0
-1977 327 0
-271 -327 1977 0
-1978 289 0
-1978 329 0
-289 -329 1978 0
-1979 307 0
-1979 331 0
-307 -331 1979 0
-1980 343 0
-1980 335 0
-343 -335 1980 0
-1981 361 0
-1981 337 0
-361 -337 1981 0
-1982 379 0
-1982 339 0
-379 -339 1982 0
-1983 397 0
-1983 341 0
-397 -341 1983 0
-1976 -1977 0
-1976 -1978 0
-1976 -1979 0
-1976 -1980 0
-1976 -1981 0
-1976 -1982 0
-1976 -1983 0
-325 1976 1977 1978 1979 1980 1981 1982 1983 0
-1984 343 0
-1985 271 0
-1985 345 0
-271 -345 1985 0
-1986 289 0
-1986 347 0
-289 -347 1986 0
-1987 307 0
-1987 349 0
-307 -349 1987 0
-1988 325 0
-1988 351 0
-325 -351 1988 0
-1989 361 0
-1989 355 0
-361 -355 1989 0
-1990 379 0
-1990 357 0
-379 -357 1990 0
-1991 397 0
-1991 359 0
-397 -359 1991 0
-1984 -1985 0
-1984 -1986 0
-1984 -1987 0
-1984 -1988 0
-1984 -1989 0
-1984 -1990 0
-1984 -1991 0
-343 1984 1985 1986 1987 1988 1989 1990 1991 0
-1992 361 0
-1993 271 0
-1993 363 0
-271 -363 1993 0
-1994 289 0
-1994 365 0
-289 -365 1994 0
-1995 307 0
-1995 367 0
-307 -367 1995 0
-1996 325 0
-1996 369 0
-325 -369 1996 0
-1997 343 0
-1997 371 0
-343 -371 1997 0
-1998 379 0
-1998 375 0
-379 -375 1998 0
-1999 397 0
-1999 377 0
-397 -377 1999 0
-1992 -1993 0
-1992 -1994 0
-1992 -1995 0
-1992 -1996 0
-1992 -1997 0
-1992 -1998 0
-1992 -1999 0
-361 1992 1993 1994 1995 1996 1997 1998 1999 0
-2000 379 0
-2001 271 0
-2001 381 0
-271 -381 2001 0
-2002 289 0
-2002 383 0
-289 -383 2002 0
-2003 307 0
-2003 385 0
-307 -385 2003 0
-2004 325 0
-2004 387 0
-325 -387 2004 0
-2005 343 0
-2005 389 0
-343 -389 2005 0
-2006 361 0
-2006 391 0
-361 -391 2006 0
-2007 397 0
-2007 395 0
-397 -395 2007 0
-2000 -2001 0
-2000 -2002 0
-2000 -2003 0
-2000 -2004 0
-2000 -2005 0
-2000 -2006 0
-2000 -2007 0
-379 2000 2001 2002 2003 2004 2005 2006 2007 0
-2008 397 0
-2009 271 0
-2009 399 0
-271 -399 2009 0
-2010 289 0
-2010 401 0
-289 -401 2010 0
-2011 307 0
-2011 403 0
-307 -403 2011 0
-2012 325 0
-2012 405 0
-325 -405 2012 0
-2013 343 0
-2013 407 0
-343 -407 2013 0
-2014 361 0
-2014 409 0
-361 -409 2014 0
-2015 379 0
-2015 411 0
-379 -411 2015 0
-2008 -2009 0
-2008 -2010 0
-2008 -2011 0
-2008 -2012 0
-2008 -2013 0
-2008 -2014 0
-2008 -2015 0
-397 2008 2009 2010 2011 2012 2013 2014 2015 0
-2016 247 0
-2017 291 0
-2017 250 0
-291 -250 2017 0
-2018 309 0
-2018 253 0
-309 -253 2018 0
-2019 327 0
-2019 256 0
-327 -256 2019 0
-2020 345 0
-2020 259 0
-345 -259 2020 0
-2021 363 0
-2021 262 0
-363 -262 2021 0
-2022 381 0
-2022 265 0
-381 -265 2022 0
-2023 399 0
-2023 268 0
-399 -268 2023 0
-2016 -2017 0
-2016 -2018 0
-2016 -2019 0
-2016 -2020 0
-2016 -2021 0
-2016 -2022 0
-2016 -2023 0
-247 2016 2017 2018 2019 2020 2021 2022 2023 0
-2024 0
-2025 291 0
-2026 247 0
-2026 289 0
-247 -289 2026 0
-2027 309 0
-2027 295 0
-309 -295 2027 0
-2028 327 0
-2028 297 0
-327 -297 2028 0
-2029 345 0
-2029 299 0
-345 -299 2029 0
-2030 363 0
-2030 301 0
-363 -301 2030 0
-2031 381 0
-2031 303 0
-381 -303 2031 0
-2032 399 0
-2032 305 0
-399 -305 2032 0
-2025 -2026 0
-2025 -2027 0
-2025 -2028 0
-2025 -2029 0
-2025 -2030 0
-2025 -2031 0
-2025 -2032 0
-291 2025 2026 2027 2028 2029 2030 2031 2032 0
-2033 309 0
-2034 247 0
-2034 307 0
-247 -307 2034 0
-2035 291 0
-2035 311 0
-291 -311 2035 0
-2036 327 0
-2036 315 0
-327 -315 2036 0
-2037 345 0
-2037 317 0
-345 -317 2037 0
-2038 363 0
-2038 319 0
-363 -319 2038 0
-2039 381 0
-2039 321 0
-381 -321 2039 0
-2040 399 0
-2040 323 0
-399 -323 2040 0
-2033 -2034 0
-2033 -2035 0
-2033 -2036 0
-2033 -2037 0
-2033 -2038 0
-2033 -2039 0
-2033 -2040 0
-309 2033 2034 2035 2036 2037 2038 2039 2040 0
-2041 327 0
-2042 247 0
-2042 325 0
-247 -325 2042 0
-2043 291 0
-2043 329 0
-291 -329 2043 0
-2044 309 0
-2044 331 0
-309 -331 2044 0
-2045 345 0
-2045 335 0
-345 -335 2045 0
-2046 363 0
-2046 337 0
-363 -337 2046 0
-2047 381 0
-2047 339 0
-381 -339 2047 0
-2048 399 0
-2048 341 0
-399 -341 2048 0
-2041 -2042 0
-2041 -2043 0
-2041 -2044 0
-2041 -2045 0
-2041 -2046 0
-2041 -2047 0
-2041 -2048 0
-327 2041 2042 2043 2044 2045 2046 2047 2048 0
-2049 345 0
-2050 247 0
-2050 343 0
-247 -343 2050 0
-2051 291 0
-2051 347 0
-291 -347 2051 0
-2052 309 0
-2052 349 0
-309 -349 2052 0
-2053 327 0
-2053 351 0
-327 -351 2053 0
-2054 363 0
-2054 355 0
-363 -355 2054 0
-2055 381 0
-2055 357 0
-381 -357 2055 0
-2056 399 0
-2056 359 0
-399 -359 2056 0
-2049 -2050 0
-2049 -2051 0
-2049 -2052 0
-2049 -2053 0
-2049 -2054 0
-2049 -2055 0
-2049 -2056 0
-345 2049 2050 2051 2052 2053 2054 2055 2056 0
-2057 363 0
-2058 247 0
-2058 361 0
-247 -361 2058 0
-2059 291 0
-2059 365 0
-291 -365 2059 0
-2060 309 0
-2060 367 0
-309 -367 2060 0
-2061 327 0
-2061 369 0
-327 -369 2061 0
-2062 345 0
-2062 371 0
-345 -371 2062 0
-2063 381 0
-2063 375 0
-381 -375 2063 0
-2064 399 0
-2064 377 0
-399 -377 2064 0
-2057 -2058 0
-2057 -2059 0
-2057 -2060 0
-2057 -2061 0
-2057 -2062 0
-2057 -2063 0
-2057 -2064 0
-363 2057 2058 2059 2060 2061 2062 2063 2064 0
-2065 381 0
-2066 247 0
-2066 379 0
-247 -379 2066 0
-2067 291 0
-2067 383 0
-291 -383 2067 0
-2068 309 0
-2068 385 0
-309 -385 2068 0
-2069 327 0
-2069 387 0
-327 -387 2069 0
-2070 345 0
-2070 389 0
-345 -389 2070 0
-2071 363 0
-2071 391 0
-363 -391 2071 0
-2072 399 0
-2072 395 0
-399 -395 2072 0
-2065 -2066 0
-2065 -2067 0
-2065 -2068 0
-2065 -2069 0
-2065 -2070 0
-2065 -2071 0
-2065 -2072 0
-381 2065 2066 2067 2068 2069 2070 2071 2072 0
-2073 399 0
-2074 247 0
-2074 397 0
-247 -397 2074 0
-2075 291 0
-2075 401 0
-291 -401 2075 0
-2076 309 0
-2076 403 0
-309 -403 2076 0
-2077 327 0
-2077 405 0
-327 -405 2077 0
-2078 345 0
-2078 407 0
-345 -407 2078 0
-2079 363 0
-2079 409 0
-363 -409 2079 0
-2080 381 0
-2080 411 0
-381 -411 2080 0
-2073 -2074 0
-2073 -2075 0
-2073 -2076 0
-2073 -2077 0
-2073 -2078 0
-2073 -2079 0
-2073 -2080 0
-399 2073 2074 2075 2076 2077 2078 2079 2080 0
-2081 250 0
-2082 275 0
-2082 247 0
-275 -247 2082 0
-2083 311 0
-2083 253 0
-311 -253 2083 0
-2084 329 0
-2084 256 0
-329 -256 2084 0
-2085 347 0
-2085 259 0
-347 -259 2085 0
-2086 365 0
-2086 262 0
-365 -262 2086 0
-2087 383 0
-2087 265 0
-383 -265 2087 0
-2088 401 0
-2088 268 0
-401 -268 2088 0
-2081 -2082 0
-2081 -2083 0
-2081 -2084 0
-2081 -2085 0
-2081 -2086 0
-2081 -2087 0
-2081 -2088 0
-250 2081 2082 2083 2084 2085 2086 2087 2088 0
-2089 275 0
-2090 250 0
-2090 271 0
-250 -271 2090 0
-2091 311 0
-2091 277 0
-311 -277 2091 0
-2092 329 0
-2092 279 0
-329 -279 2092 0
-2093 347 0
-2093 281 0
-347 -281 2093 0
-2094 365 0
-2094 283 0
-365 -283 2094 0
-2095 383 0
-2095 285 0
-383 -285 2095 0
-2096 401 0
-2096 287 0
-401 -287 2096 0
-2089 -2090 0
-2089 -2091 0
-2089 -2092 0
-2089 -2093 0
-2089 -2094 0
-2089 -2095 0
-2089 -2096 0
-275 2089 2090 2091 2092 2093 2094 2095 2096 0
-2097 0
-2098 311 0
-2099 250 0
-2099 307 0
-250 -307 2099 0
-2100 275 0
-2100 309 0
-275 -309 2100 0
-2101 329 0
-2101 315 0
-329 -315 2101 0
-2102 347 0
-2102 317 0
-347 -317 2102 0
-2103 365 0
-2103 319 0
-365 -319 2103 0
-2104 383 0
-2104 321 0
-383 -321 2104 0
-2105 401 0
-2105 323 0
-401 -323 2105 0
-2098 -2099 0
-2098 -2100 0
-2098 -2101 0
-2098 -2102 0
-2098 -2103 0
-2098 -2104 0
-2098 -2105 0
-311 2098 2099 2100 2101 2102 2103 2104 2105 0
-2106 329 0
-2107 250 0
-2107 325 0
-250 -325 2107 0
-2108 275 0
-2108 327 0
-275 -327 2108 0
-2109 311 0
-2109 331 0
-311 -331 2109 0
-2110 347 0
-2110 335 0
-347 -335 2110 0
-2111 365 0
-2111 337 0
-365 -337 2111 0
-2112 383 0
-2112 339 0
-383 -339 2112 0
-2113 401 0
-2113 341 0
-401 -341 2113 0
-2106 -2107 0
-2106 -2108 0
-2106 -2109 0
-2106 -2110 0
-2106 -2111 0
-2106 -2112 0
-2106 -2113 0
-329 2106 2107 2108 2109 2110 2111 2112 2113 0
-2114 347 0
-2115 250 0
-2115 343 0
-250 -343 2115 0
-2116 275 0
-2116 345 0
-275 -345 2116 0
-2117 311 0
-2117 349 0
-311 -349 2117 0
-2118 329 0
-2118 351 0
-329 -351 2118 0
-2119 365 0
-2119 355 0
-365 -355 2119 0
-2120 383 0
-2120 357 0
-383 -357 2120 0
-2121 401 0
-2121 359 0
-401 -359 2121 0
-2114 -2115 0
-2114 -2116 0
-2114 -2117 0
-2114 -2118 0
-2114 -2119 0
-2114 -2120 0
-2114 -2121 0
-347 2114 2115 2116 2117 2118 2119 2120 2121 0
-2122 365 0
-2123 250 0
-2123 361 0
-250 -361 2123 0
-2124 275 0
-2124 363 0
-275 -363 2124 0
-2125 311 0
-2125 367 0
-311 -367 2125 0
-2126 329 0
-2126 369 0
-329 -369 2126 0
-2127 347 0
-2127 371 0
-347 -371 2127 0
-2128 383 0
-2128 375 0
-383 -375 2128 0
-2129 401 0
-2129 377 0
-401 -377 2129 0
-2122 -2123 0
-2122 -2124 0
-2122 -2125 0
-2122 -2126 0
-2122 -2127 0
-2122 -2128 0
-2122 -2129 0
-365 2122 2123 2124 2125 2126 2127 2128 2129 0
-2130 383 0
-2131 250 0
-2131 379 0
-250 -379 2131 0
-2132 275 0
-2132 381 0
-275 -381 2132 0
-2133 311 0
-2133 385 0
-311 -385 2133 0
-2134 329 0
-2134 387 0
-329 -387 2134 0
-2135 347 0
-2135 389 0
-347 -389 2135 0
-2136 365 0
-2136 391 0
-365 -391 2136 0
-2137 401 0
-2137 395 0
-401 -395 2137 0
-2130 -2131 0
-2130 -2132 0
-2130 -2133 0
-2130 -2134 0
-2130 -2135 0
-2130 -2136 0
-2130 -2137 0
-383 2130 2131 2132 2133 2134 2135 2136 2137 0
-2138 401 0
-2139 250 0
-2139 397 0
-250 -397 2139 0
-2140 275 0
-2140 399 0
-275 -399 2140 0
-2141 311 0
-2141 403 0
-311 -403 2141 0
-2142 329 0
-2142 405 0
-329 -405 2142 0
-2143 347 0
-2143 407 0
-347 -407 2143 0
-2144 365 0
-2144 409 0
-365 -409 2144 0
-2145 383 0
-2145 411 0
-383 -411 2145 0
-2138 -2139 0
-2138 -2140 0
-2138 -2141 0
-2138 -2142 0
-2138 -2143 0
-2138 -2144 0
-2138 -2145 0
-401 2138 2139 2140 2141 2142 2143 2144 2145 0
-2146 253 0
-2147 277 0
-2147 247 0
-277 -247 2147 0
-2148 295 0
-2148 250 0
-295 -250 2148 0
-2149 331 0
-2149 256 0
-331 -256 2149 0
-2150 349 0
-2150 259 0
-349 -259 2150 0
-2151 367 0
-2151 262 0
-367 -262 2151 0
-2152 385 0
-2152 265 0
-385 -265 2152 0
-2153 403 0
-2153 268 0
-403 -268 2153 0
-2146 -2147 0
-2146 -2148 0
-2146 -2149 0
-2146 -2150 0
-2146 -2151 0
-2146 -2152 0
-2146 -2153 0
-253 2146 2147 2148 2149 2150 2151 2152 2153 0
-2154 277 0
-2155 253 0
-2155 271 0
-253 -271 2155 0
-2156 295 0
-2156 275 0
-295 -275 2156 0
-2157 331 0
-2157 279 0
-331 -279 2157 0
-2158 349 0
-2158 281 0
-349 -281 2158 0
-2159 367 0
-2159 283 0
-367 -283 2159 0
-2160 385 0
-2160 285 0
-385 -285 2160 0
-2161 403 0
-2161 287 0
-403 -287 2161 0
-2154 -2155 0
-2154 -2156 0
-2154 -2157 0
-2154 -2158 0
-2154 -2159 0
-2154 -2160 0
-2154 -2161 0
-277 2154 2155 2156 2157 2158 2159 2160 2161 0
-2162 295 0
-2163 253 0
-2163 289 0
-253 -289 2163 0
-2164 277 0
-2164 291 0
-277 -291 2164 0
-2165 331 0
-2165 297 0
-331 -297 2165 0
-2166 349 0
-2166 299 0
-349 -299 2166 0
-2167 367 0
-2167 301 0
-367 -301 2167 0
-2168 385 0
-2168 303 0
-385 -303 2168 0
-2169 403 0
-2169 305 0
-403 -305 2169 0
-2162 -2163 0
-2162 -2164 0
-2162 -2165 0
-2162 -2166 0
-2162 -2167 0
-2162 -2168 0
-2162 -2169 0
-295 2162 2163 2164 2165 2166 2167 2168 2169 0
-2170 0
-2171 331 0
-2172 253 0
-2172 325 0
-253 -325 2172 0
-2173 277 0
-2173 327 0
-277 -327 2173 0
-2174 295 0
-2174 329 0
-295 -329 2174 0
-2175 349 0
-2175 335 0
-349 -335 2175 0
-2176 367 0
-2176 337 0
-367 -337 2176 0
-2177 385 0
-2177 339 0
-385 -339 2177 0
-2178 403 0
-2178 341 0
-403 -341 2178 0
-2171 -2172 0
-2171 -2173 0
-2171 -2174 0
-2171 -2175 0
-2171 -2176 0
-2171 -2177 0
-2171 -2178 0
-331 2171 2172 2173 2174 2175 2176 2177 2178 0
-2179 349 0
-2180 253 0
-2180 343 0
-253 -343 2180 0
-2181 277 0
-2181 345 0
-277 -345 2181 0
-2182 295 0
-2182 347 0
-295 -347 2182 0
-2183 331 0
-2183 351 0
-331 -351 2183 0
-2184 367 0
-2184 355 0
-367 -355 2184 0
-2185 385 0
-2185 357 0
-385 -357 2185 0
-2186 403 0
-2186 359 0
-403 -359 2186 0
-2179 -2180 0
-2179 -2181 0
-2179 -2182 0
-2179 -2183 0
-2179 -2184 0
-2179 -2185 0
-2179 -2186 0
-349 2179 2180 2181 2182 2183 2184 2185 2186 0
-2187 367 0
-2188 253 0
-2188 361 0
-253 -361 2188 0
-2189 277 0
-2189 363 0
-277 -363 2189 0
-2190 295 0
-2190 365 0
-295 -365 2190 0
-2191 331 0
-2191 369 0
-331 -369 2191 0
-2192 349 0
-2192 371 0
-349 -371 2192 0
-2193 385 0
-2193 375 0
-385 -375 2193 0
-2194 403 0
-2194 377 0
-403 -377 2194 0
-2187 -2188 0
-2187 -2189 0
-2187 -2190 0
-2187 -2191 0
-2187 -2192 0
-2187 -2193 0
-2187 -2194 0
-367 2187 2188 2189 2190 2191 2192 2193 2194 0
-2195 385 0
-2196 253 0
-2196 379 0
-253 -379 2196 0
-2197 277 0
-2197 381 0
-277 -381 2197 0
-2198 295 0
-2198 383 0
-295 -383 2198 0
-2199 331 0
-2199 387 0
-331 -387 2199 0
-2200 349 0
-2200 389 0
-349 -389 2200 0
-2201 367 0
-2201 391 0
-367 -391 2201 0
-2202 403 0
-2202 395 0
-403 -395 2202 0
-2195 -2196 0
-2195 -2197 0
-2195 -2198 0
-2195 -2199 0
-2195 -2200 0
-2195 -2201 0
-2195 -2202 0
-385 2195 2196 2197 2198 2199 2200 2201 2202 0
-2203 403 0
-2204 253 0
-2204 397 0
-253 -397 2204 0
-2205 277 0
-2205 399 0
-277 -399 2205 0
-2206 295 0
-2206 401 0
-295 -401 2206 0
-2207 331 0
-2207 405 0
-331 -405 2207 0
-2208 349 0
-2208 407 0
-349 -407 2208 0
-2209 367 0
-2209 409 0
-367 -409 2209 0
-2210 385 0
-2210 411 0
-385 -411 2210 0
-2203 -2204 0
-2203 -2205 0
-2203 -2206 0
-2203 -2207 0
-2203 -2208 0
-2203 -2209 0
-2203 -2210 0
-403 2203 2204 2205 2206 2207 2208 2209 2210 0
-2211 256 0
-2212 279 0
-2212 247 0
-279 -247 2212 0
-2213 297 0
-2213 250 0
-297 -250 2213 0
-2214 315 0
-2214 253 0
-315 -253 2214 0
-2215 351 0
-2215 259 0
-351 -259 2215 0
-2216 369 0
-2216 262 0
-369 -262 2216 0
-2217 387 0
-2217 265 0
-387 -265 2217 0
-2218 405 0
-2218 268 0
-405 -268 2218 0
-2211 -2212 0
-2211 -2213 0
-2211 -2214 0
-2211 -2215 0
-2211 -2216 0
-2211 -2217 0
-2211 -2218 0
-256 2211 2212 2213 2214 2215 2216 2217 2218 0
-2219 279 0
-2220 256 0
-2220 271 0
-256 -271 2220 0
-2221 297 0
-2221 275 0
-297 -275 2221 0
-2222 315 0
-2222 277 0
-315 -277 2222 0
-2223 351 0
-2223 281 0
-351 -281 2223 0
-2224 369 0
-2224 283 0
-369 -283 2224 0
-2225 387 0
-2225 285 0
-387 -285 2225 0
-2226 405 0
-2226 287 0
-405 -287 2226 0
-2219 -2220 0
-2219 -2221 0
-2219 -2222 0
-2219 -2223 0
-2219 -2224 0
-2219 -2225 0
-2219 -2226 0
-279 2219 2220 2221 2222 2223 2224 2225 2226 0
-2227 297 0
-2228 256 0
-2228 289 0
-256 -289 2228 0
-2229 279 0
-2229 291 0
-279 -291 2229 0
-2230 315 0
-2230 295 0
-315 -295 2230 0
-2231 351 0
-2231 299 0
-351 -299 2231 0
-2232 369 0
-2232 301 0
-369 -301 2232 0
-2233 387 0
-2233 303 0
-387 -303 2233 0
-2234 405 0
-2234 305 0
-405 -305 2234 0
-2227 -2228 0
-2227 -2229 0
-2227 -2230 0
-2227 -2231 0
-2227 -2232 0
-2227 -2233 0
-2227 -2234 0
-297 2227 2228 2229 2230 2231 2232 2233 2234 0
-2235 315 0
-2236 256 0
-2236 307 0
-256 -307 2236 0
-2237 279 0
-2237 309 0
-279 -309 2237 0
-2238 297 0
-2238 311 0
-297 -311 2238 0
-2239 351 0
-2239 317 0
-351 -317 2239 0
-2240 369 0
-2240 319 0
-369 -319 2240 0
-2241 387 0
-2241 321 0
-387 -321 2241 0
-2242 405 0
-2242 323 0
-405 -323 2242 0
-2235 -2236 0
-2235 -2237 0
-2235 -2238 0
-2235 -2239 0
-2235 -2240 0
-2235 -2241 0
-2235 -2242 0
-315 2235 2236 2237 2238 2239 2240 2241 2242 0
-2243 0
-2244 351 0
-2245 256 0
-2245 343 0
-256 -343 2245 0
-2246 279 0
-2246 345 0
-279 -345 2246 0
-2247 297 0
-2247 347 0
-297 -347 2247 0
-2248 315 0
-2248 349 0
-315 -349 2248 0
-2249 369 0
-2249 355 0
-369 -355 2249 0
-2250 387 0
-2250 357 0
-387 -357 2250 0
-2251 405 0
-2251 359 0
-405 -359 2251 0
-2244 -2245 0
-2244 -2246 0
-2244 -2247 0
-2244 -2248 0
-2244 -2249 0
-2244 -2250 0
-2244 -2251 0
-351 2244 2245 2246 2247 2248 2249 2250 2251 0
-2252 369 0
-2253 256 0
-2253 361 0
-256 -361 2253 0
-2254 279 0
-2254 363 0
-279 -363 2254 0
-2255 297 0
-2255 365 0
-297 -365 2255 0
-2256 315 0
-2256 367 0
-315 -367 2256 0
-2257 351 0
-2257 371 0
-351 -371 2257 0
-2258 387 0
-2258 375 0
-387 -375 2258 0
-2259 405 0
-2259 377 0
-405 -377 2259 0
-2252 -2253 0
-2252 -2254 0
-2252 -2255 0
-2252 -2256 0
-2252 -2257 0
-2252 -2258 0
-2252 -2259 0
-369 2252 2253 2254 2255 2256 2257 2258 2259 0
-2260 387 0
-2261 256 0
-2261 379 0
-256 -379 2261 0
-2262 279 0
-2262 381 0
-279 -381 2262 0
-2263 297 0
-2263 383 0
-297 -383 2263 0
-2264 315 0
-2264 385 0
-315 -385 2264 0
-2265 351 0
-2265 389 0
-351 -389 2265 0
-2266 369 0
-2266 391 0
-369 -391 2266 0
-2267 405 0
-2267 395 0
-405 -395 2267 0
-2260 -2261 0
-2260 -2262 0
-2260 -2263 0
-2260 -2264 0
-2260 -2265 0
-2260 -2266 0
-2260 -2267 0
-387 2260 2261 2262 2263 2264 2265 2266 2267 0
-2268 405 0
-2269 256 0
-2269 397 0
-256 -397 2269 0
-2270 279 0
-2270 399 0
-279 -399 2270 0
-2271 297 0
-2271 401 0
-297 -401 2271 0
-2272 315 0
-2272 403 0
-315 -403 2272 0
-2273 351 0
-2273 407 0
-351 -407 2273 0
-2274 369 0
-2274 409 0
-369 -409 2274 0
-2275 387 0
-2275 411 0
-387 -411 2275 0
-2268 -2269 0
-2268 -2270 0
-2268 -2271 0
-2268 -2272 0
-2268 -2273 0
-2268 -2274 0
-2268 -2275 0
-405 2268 2269 2270 2271 2272 2273 2274 2275 0
-2276 259 0
-2277 281 0
-2277 247 0
-281 -247 2277 0
-2278 299 0
-2278 250 0
-299 -250 2278 0
-2279 317 0
-2279 253 0
-317 -253 2279 0
-2280 335 0
-2280 256 0
-335 -256 2280 0
-2281 371 0
-2281 262 0
-371 -262 2281 0
-2282 389 0
-2282 265 0
-389 -265 2282 0
-2283 407 0
-2283 268 0
-407 -268 2283 0
-2276 -2277 0
-2276 -2278 0
-2276 -2279 0
-2276 -2280 0
-2276 -2281 0
-2276 -2282 0
-2276 -2283 0
-259 2276 2277 2278 2279 2280 2281 2282 2283 0
-2284 281 0
-2285 259 0
-2285 271 0
-259 -271 2285 0
-2286 299 0
-2286 275 0
-299 -275 2286 0
-2287 317 0
-2287 277 0
-317 -277 2287 0
-2288 335 0
-2288 279 0
-335 -279 2288 0
-2289 371 0
-2289 283 0
-371 -283 2289 0
-2290 389 0
-2290 285 0
-389 -285 2290 0
-2291 407 0
-2291 287 0
-407 -287 2291 0
-2284 -2285 0
-2284 -2286 0
-2284 -2287 0
-2284 -2288 0
-2284 -2289 0
-2284 -2290 0
-2284 -2291 0
-281 2284 2285 2286 2287 2288 2289 2290 2291 0
-2292 299 0
-2293 259 0
-2293 289 0
-259 -289 2293 0
-2294 281 0
-2294 291 0
-281 -291 2294 0
-2295 317 0
-2295 295 0
-317 -295 2295 0
-2296 335 0
-2296 297 0
-335 -297 2296 0
-2297 371 0
-2297 301 0
-371 -301 2297 0
-2298 389 0
-2298 303 0
-389 -303 2298 0
-2299 407 0
-2299 305 0
-407 -305 2299 0
-2292 -2293 0
-2292 -2294 0
-2292 -2295 0
-2292 -2296 0
-2292 -2297 0
-2292 -2298 0
-2292 -2299 0
-299 2292 2293 2294 2295 2296 2297 2298 2299 0
-2300 317 0
-2301 259 0
-2301 307 0
-259 -307 2301 0
-2302 281 0
-2302 309 0
-281 -309 2302 0
-2303 299 0
-2303 311 0
-299 -311 2303 0
-2304 335 0
-2304 315 0
-335 -315 2304 0
-2305 371 0
-2305 319 0
-371 -319 2305 0
-2306 389 0
-2306 321 0
-389 -321 2306 0
-2307 407 0
-2307 323 0
-407 -323 2307 0
-2300 -2301 0
-2300 -2302 0
-2300 -2303 0
-2300 -2304 0
-2300 -2305 0
-2300 -2306 0
-2300 -2307 0
-317 2300 2301 2302 2303 2304 2305 2306 2307 0
-2308 335 0
-2309 259 0
-2309 325 0
-259 -325 2309 0
-2310 281 0
-2310 327 0
-281 -327 2310 0
-2311 299 0
-2311 329 0
-299 -329 2311 0
-2312 317 0
-2312 331 0
-317 -331 2312 0
-2313 371 0
-2313 337 0
-371 -337 2313 0
-2314 389 0
-2314 339 0
-389 -339 2314 0
-2315 407 0
-2315 341 0
-407 -341 2315 0
-2308 -2309 0
-2308 -2310 0
-2308 -2311 0
-2308 -2312 0
-2308 -2313 0
-2308 -2314 0
-2308 -2315 0
-335 2308 2309 2310 2311 2312 2313 2314 2315 0
-2316 0
-2317 371 0
-2318 259 0
-2318 361 0
-259 -361 2318 0
-2319 281 0
-2319 363 0
-281 -363 2319 0
-2320 299 0
-2320 365 0
-299 -365 2320 0
-2321 317 0
-2321 367 0
-317 -367 2321 0
-2322 335 0
-2322 369 0
-335 -369 2322 0
-2323 389 0
-2323 375 0
-389 -375 2323 0
-2324 407 0
-2324 377 0
-407 -377 2324 0
-2317 -2318 0
-2317 -2319 0
-2317 -2320 0
-2317 -2321 0
-2317 -2322 0
-2317 -2323 0
-2317 -2324 0
-371 2317 2318 2319 2320 2321 2322 2323 2324 0
-2325 389 0
-2326 259 0
-2326 379 0
-259 -379 2326 0
-2327 281 0
-2327 381 0
-281 -381 2327 0
-2328 299 0
-2328 383 0
-299 -383 2328 0
-2329 317 0
-2329 385 0
-317 -385 2329 0
-2330 335 0
-2330 387 0
-335 -387 2330 0
-2331 371 0
-2331 391 0
-371 -391 2331 0
-2332 407 0
-2332 395 0
-407 -395 2332 0
-2325 -2326 0
-2325 -2327 0
-2325 -2328 0
-2325 -2329 0
-2325 -2330 0
-2325 -2331 0
-2325 -2332 0
-389 2325 2326 2327 2328 2329 2330 2331 2332 0
-2333 407 0
-2334 259 0
-2334 397 0
-259 -397 2334 0
-2335 281 0
-2335 399 0
-281 -399 2335 0
-2336 299 0
-2336 401 0
-299 -401 2336 0
-2337 317 0
-2337 403 0
-317 -403 2337 0
-2338 335 0
-2338 405 0
-335 -405 2338 0
-2339 371 0
-2339 409 0
-371 -409 2339 0
-2340 389 0
-2340 411 0
-389 -411 2340 0
-2333 -2334 0
-2333 -2335 0
-2333 -2336 0
-2333 -2337 0
-2333 -2338 0
-2333 -2339 0
-2333 -2340 0
-407 2333 2334 2335 2336 2337 2338 2339 2340 0
-2341 262 0
-2342 283 0
-2342 247 0
-283 -247 2342 0
-2343 301 0
-2343 250 0
-301 -250 2343 0
-2344 319 0
-2344 253 0
-319 -253 2344 0
-2345 337 0
-2345 256 0
-337 -256 2345 0
-2346 355 0
-2346 259 0
-355 -259 2346 0
-2347 391 0
-2347 265 0
-391 -265 2347 0
-2348 409 0
-2348 268 0
-409 -268 2348 0
-2341 -2342 0
-2341 -2343 0
-2341 -2344 0
-2341 -2345 0
-2341 -2346 0
-2341 -2347 0
-2341 -2348 0
-262 2341 2342 2343 2344 2345 2346 2347 2348 0
-2349 283 0
-2350 262 0
-2350 271 0
-262 -271 2350 0
-2351 301 0
-2351 275 0
-301 -275 2351 0
-2352 319 0
-2352 277 0
-319 -277 2352 0
-2353 337 0
-2353 279 0
-337 -279 2353 0
-2354 355 0
-2354 281 0
-355 -281 2354 0
-2355 391 0
-2355 285 0
-391 -285 2355 0
-2356 409 0
-2356 287 0
-409 -287 2356 0
-2349 -2350 0
-2349 -2351 0
-2349 -2352 0
-2349 -2353 0
-2349 -2354 0
-2349 -2355 0
-2349 -2356 0
-283 2349 2350 2351 2352 2353 2354 2355 2356 0
-2357 301 0
-2358 262 0
-2358 289 0
-262 -289 2358 0
-2359 283 0
-2359 291 0
-283 -291 2359 0
-2360 319 0
-2360 295 0
-319 -295 2360 0
-2361 337 0
-2361 297 0
-337 -297 2361 0
-2362 355 0
-2362 299 0
-355 -299 2362 0
-2363 391 0
-2363 303 0
-391 -303 2363 0
-2364 409 0
-2364 305 0
-409 -305 2364 0
-2357 -2358 0
-2357 -2359 0
-2357 -2360 0
-2357 -2361 0
-2357 -2362 0
-2357 -2363 0
-2357 -2364 0
-301 2357 2358 2359 2360 2361 2362 2363 2364 0
-2365 319 0
-2366 262 0
-2366 307 0
-262 -307 2366 0
-2367 283 0
-2367 309 0
-283 -309 2367 0
-2368 301 0
-2368 311 0
-301 -311 2368 0
-2369 337 0
-2369 315 0
-337 -315 2369 0
-2370 355 0
-2370 317 0
-355 -317 2370 0
-2371 391 0
-2371 321 0
-391 -321 2371 0
-2372 409 0
-2372 323 0
-409 -323 2372 0
-2365 -2366 0
-2365 -2367 0
-2365 -2368 0
-2365 -2369 0
-2365 -2370 0
-2365 -2371 0
-2365 -2372 0
-319 2365 2366 2367 2368 2369 2370 2371 2372 0
-2373 337 0
-2374 262 0
-2374 325 0
-262 -325 2374 0
-2375 283 0
-2375 327 0
-283 -327 2375 0
-2376 301 0
-2376 329 0
-301 -329 2376 0
-2377 319 0
-2377 331 0
-319 -331 2377 0
-2378 355 0
-2378 335 0
-355 -335 2378 0
-2379 391 0
-2379 339 0
-391 -339 2379 0
-2380 409 0
-2380 341 0
-409 -341 2380 0
-2373 -2374 0
-2373 -2375 0
-2373 -2376 0
-2373 -2377 0
-2373 -2378 0
-2373 -2379 0
-2373 -2380 0
-337 2373 2374 2375 2376 2377 2378 2379 2380 0
-2381 355 0
-2382 262 0
-2382 343 0
-262 -343 2382 0
-2383 283 0
-2383 345 0
-283 -345 2383 0
-2384 301 0
-2384 347 0
-301 -347 2384 0
-2385 319 0
-2385 349 0
-319 -349 2385 0
-2386 337 0
-2386 351 0
-337 -351 2386 0
-2387 391 0
-2387 357 0
-391 -357 2387 0
-2388 409 0
-2388 359 0
-409 -359 2388 0
-2381 -2382 0
-2381 -2383 0
-2381 -2384 0
-2381 -2385 0
-2381 -2386 0
-2381 -2387 0
-2381 -2388 0
-355 2381 2382 2383 2384 2385 2386 2387 2388 0
-2389 0
-2390 391 0
-2391 262 0
-2391 379 0
-262 -379 2391 0
-2392 283 0
-2392 381 0
-283 -381 2392 0
-2393 301 0
-2393 383 0
-301 -383 2393 0
-2394 319 0
-2394 385 0
-319 -385 2394 0
-2395 337 0
-2395 387 0
-337 -387 2395 0
-2396 355 0
-2396 389 0
-355 -389 2396 0
-2397 409 0
-2397 395 0
-409 -395 2397 0
-2390 -2391 0
-2390 -2392 0
-2390 -2393 0
-2390 -2394 0
-2390 -2395 0
-2390 -2396 0
-2390 -2397 0
-391 2390 2391 2392 2393 2394 2395 2396 2397 0
-2398 409 0
-2399 262 0
-2399 397 0
-262 -397 2399 0
-2400 283 0
-2400 399 0
-283 -399 2400 0
-2401 301 0
-2401 401 0
-301 -401 2401 0
-2402 319 0
-2402 403 0
-319 -403 2402 0
-2403 337 0
-2403 405 0
-337 -405 2403 0
-2404 355 0
-2404 407 0
-355 -407 2404 0
-2405 391 0
-2405 411 0
-391 -411 2405 0
-2398 -2399 0
-2398 -2400 0
-2398 -2401 0
-2398 -2402 0
-2398 -2403 0
-2398 -2404 0
-2398 -2405 0
-409 2398 2399 2400 2401 2402 2403 2404 2405 0
-2406 265 0
-2407 285 0
-2407 247 0
-285 -247 2407 0
-2408 303 0
-2408 250 0
-303 -250 2408 0
-2409 321 0
-2409 253 0
-321 -253 2409 0
-2410 339 0
-2410 256 0
-339 -256 2410 0
-2411 357 0
-2411 259 0
-357 -259 2411 0
-2412 375 0
-2412 262 0
-375 -262 2412 0
-2413 411 0
-2413 268 0
-411 -268 2413 0
-2406 -2407 0
-2406 -2408 0
-2406 -2409 0
-2406 -2410 0
-2406 -2411 0
-2406 -2412 0
-2406 -2413 0
-265 2406 2407 2408 2409 2410 2411 2412 2413 0
-2414 285 0
-2415 265 0
-2415 271 0
-265 -271 2415 0
-2416 303 0
-2416 275 0
-303 -275 2416 0
-2417 321 0
-2417 277 0
-321 -277 2417 0
-2418 339 0
-2418 279 0
-339 -279 2418 0
-2419 357 0
-2419 281 0
-357 -281 2419 0
-2420 375 0
-2420 283 0
-375 -283 2420 0
-2421 411 0
-2421 287 0
-411 -287 2421 0
-2414 -2415 0
-2414 -2416 0
-2414 -2417 0
-2414 -2418 0
-2414 -2419 0
-2414 -2420 0
-2414 -2421 0
-285 2414 2415 2416 2417 2418 2419 2420 2421 0
-2422 303 0
-2423 265 0
-2423 289 0
-265 -289 2423 0
-2424 285 0
-2424 291 0
-285 -291 2424 0
-2425 321 0
-2425 295 0
-321 -295 2425 0
-2426 339 0
-2426 297 0
-339 -297 2426 0
-2427 357 0
-2427 299 0
-357 -299 2427 0
-2428 375 0
-2428 301 0
-375 -301 2428 0
-2429 411 0
-2429 305 0
-411 -305 2429 0
-2422 -2423 0
-2422 -2424 0
-2422 -2425 0
-2422 -2426 0
-2422 -2427 0
-2422 -2428 0
-2422 -2429 0
-303 2422 2423 2424 2425 2426 2427 2428 2429 0
-2430 321 0
-2431 265 0
-2431 307 0
-265 -307 2431 0
-2432 285 0
-2432 309 0
-285 -309 2432 0
-2433 303 0
-2433 311 0
-303 -311 2433 0
-2434 339 0
-2434 315 0
-339 -315 2434 0
-2435 357 0
-2435 317 0
-357 -317 2435 0
-2436 375 0
-2436 319 0
-375 -319 2436 0
-2437 411 0
-2437 323 0
-411 -323 2437 0
-2430 -2431 0
-2430 -2432 0
-2430 -2433 0
-2430 -2434 0
-2430 -2435 0
-2430 -2436 0
-2430 -2437 0
-321 2430 2431 2432 2433 2434 2435 2436 2437 0
-2438 339 0
-2439 265 0
-2439 325 0
-265 -325 2439 0
-2440 285 0
-2440 327 0
-285 -327 2440 0
-2441 303 0
-2441 329 0
-303 -329 2441 0
-2442 321 0
-2442 331 0
-321 -331 2442 0
-2443 357 0
-2443 335 0
-357 -335 2443 0
-2444 375 0
-2444 337 0
-375 -337 2444 0
-2445 411 0
-2445 341 0
-411 -341 2445 0
-2438 -2439 0
-2438 -2440 0
-2438 -2441 0
-2438 -2442 0
-2438 -2443 0
-2438 -2444 0
-2438 -2445 0
-339 2438 2439 2440 2441 2442 2443 2444 2445 0
-2446 357 0
-2447 265 0
-2447 343 0
-265 -343 2447 0
-2448 285 0
-2448 345 0
-285 -345 2448 0
-2449 303 0
-2449 347 0
-303 -347 2449 0
-2450 321 0
-2450 349 0
-321 -349 2450 0
-2451 339 0
-2451 351 0
-339 -351 2451 0
-2452 375 0
-2452 355 0
-375 -355 2452 0
-2453 411 0
-2453 359 0
-411 -359 2453 0
-2446 -2447 0
-2446 -2448 0
-2446 -2449 0
-2446 -2450 0
-2446 -2451 0
-2446 -2452 0
-2446 -2453 0
-357 2446 2447 2448 2449 2450 2451 2452 2453 0
-2454 375 0
-2455 265 0
-2455 361 0
-265 -361 2455 0
-2456 285 0
-2456 363 0
-285 -363 2456 0
-2457 303 0
-2457 365 0
-303 -365 2457 0
-2458 321 0
-2458 367 0
-321 -367 2458 0
-2459 339 0
-2459 369 0
-339 -369 2459 0
-2460 357 0
-2460 371 0
-357 -371 2460 0
-2461 411 0
-2461 377 0
-411 -377 2461 0
-2454 -2455 0
-2454 -2456 0
-2454 -2457 0
-2454 -2458 0
-2454 -2459 0
-2454 -2460 0
-2454 -2461 0
-375 2454 2455 2456 2457 2458 2459 2460 2461 0
-2462 0
-2463 411 0
-2464 265 0
-2464 397 0
-265 -397 2464 0
-2465 285 0
-2465 399 0
-285 -399 2465 0
-2466 303 0
-2466 401 0
-303 -401 2466 0
-2467 321 0
-2467 403 0
-321 -403 2467 0
-2468 339 0
-2468 405 0
-339 -405 2468 0
-2469 357 0
-2469 407 0
-357 -407 2469 0
-2470 375 0
-2470 409 0
-375 -409 2470 0
-2463 -2464 0
-2463 -2465 0
-2463 -2466 0
-2463 -2467 0
-2463 -2468 0
-2463 -2469 0
-2463 -2470 0
-411 2463 2464 2465 2466 2467 2468 2469 2470 0
-2471 268 0
-2472 287 0
-2472 247 0
-287 -247 2472 0
-2473 305 0
-2473 250 0
-305 -250 2473 0
-2474 323 0
-2474 253 0
-323 -253 2474 0
-2475 341 0
-2475 256 0
-341 -256 2475 0
-2476 359 0
-2476 259 0
-359 -259 2476 0
-2477 377 0
-2477 262 0
-377 -262 2477 0
-2478 395 0
-2478 265 0
-395 -265 2478 0
-2471 -2472 0
-2471 -2473 0
-2471 -2474 0
-2471 -2475 0
-2471 -2476 0
-2471 -2477 0
-2471 -2478 0
-268 2471 2472 2473 2474 2475 2476 2477 2478 0
-2479 287 0
-2480 268 0
-2480 271 0
-268 -271 2480 0
-2481 305 0
-2481 275 0
-305 -275 2481 0
-2482 323 0
-2482 277 0
-323 -277 2482 0
-2483 341 0
-2483 279 0
-341 -279 2483 0
-2484 359 0
-2484 281 0
-359 -281 2484 0
-2485 377 0
-2485 283 0
-377 -283 2485 0
-2486 395 0
-2486 285 0
-395 -285 2486 0
-2479 -2480 0
-2479 -2481 0
-2479 -2482 0
-2479 -2483 0
-2479 -2484 0
-2479 -2485 0
-2479 -2486 0
-287 2479 2480 2481 2482 2483 2484 2485 2486 0
-2487 305 0
-2488 268 0
-2488 289 0
-268 -289 2488 0
-2489 287 0
-2489 291 0
-287 -291 2489 0
-2490 323 0
-2490 295 0
-323 -295 2490 0
-2491 341 0
-2491 297 0
-341 -297 2491 0
-2492 359 0
-2492 299 0
-359 -299 2492 0
-2493 377 0
-2493 301 0
-377 -301 2493 0
-2494 395 0
-2494 303 0
-395 -303 2494 0
-2487 -2488 0
-2487 -2489 0
-2487 -2490 0
-2487 -2491 0
-2487 -2492 0
-2487 -2493 0
-2487 -2494 0
-305 2487 2488 2489 2490 2491 2492 2493 2494 0
-2495 323 0
-2496 268 0
-2496 307 0
-268 -307 2496 0
-2497 287 0
-2497 309 0
-287 -309 2497 0
-2498 305 0
-2498 311 0
-305 -311 2498 0
-2499 341 0
-2499 315 0
-341 -315 2499 0
-2500 359 0
-2500 317 0
-359 -317 2500 0
-2501 377 0
-2501 319 0
-377 -319 2501 0
-2502 395 0
-2502 321 0
-395 -321 2502 0
-2495 -2496 0
-2495 -2497 0
-2495 -2498 0
-2495 -2499 0
-2495 -2500 0
-2495 -2501 0
-2495 -2502 0
-323 2495 2496 2497 2498 2499 2500 2501 2502 0
-2503 341 0
-2504 268 0
-2504 325 0
-268 -325 2504 0
-2505 287 0
-2505 327 0
-287 -327 2505 0
-2506 305 0
-2506 329 0
-305 -329 2506 0
-2507 323 0
-2507 331 0
-323 -331 2507 0
-2508 359 0
-2508 335 0
-359 -335 2508 0
-2509 377 0
-2509 337 0
-377 -337 2509 0
-2510 395 0
-2510 339 0
-395 -339 2510 0
-2503 -2504 0
-2503 -2505 0
-2503 -2506 0
-2503 -2507 0
-2503 -2508 0
-2503 -2509 0
-2503 -2510 0
-341 2503 2504 2505 2506 2507 2508 2509 2510 0
-2511 359 0
-2512 268 0
-2512 343 0
-268 -343 2512 0
-2513 287 0
-2513 345 0
-287 -345 2513 0
-2514 305 0
-2514 347 0
-305 -347 2514 0
-2515 323 0
-2515 349 0
-323 -349 2515 0
-2516 341 0
-2516 351 0
-341 -351 2516 0
-2517 377 0
-2517 355 0
-377 -355 2517 0
-2518 395 0
-2518 357 0
-395 -357 2518 0
-2511 -2512 0
-2511 -2513 0
-2511 -2514 0
-2511 -2515 0
-2511 -2516 0
-2511 -2517 0
-2511 -2518 0
-359 2511 2512 2513 2514 2515 2516 2517 2518 0
-2519 377 0
-2520 268 0
-2520 361 0
-268 -361 2520 0
-2521 287 0
-2521 363 0
-287 -363 2521 0
-2522 305 0
-2522 365 0
-305 -365 2522 0
-2523 323 0
-2523 367 0
-323 -367 2523 0
-2524 341 0
-2524 369 0
-341 -369 2524 0
-2525 359 0
-2525 371 0
-359 -371 2525 0
-2526 395 0
-2526 375 0
-395 -375 2526 0
-2519 -2520 0
-2519 -2521 0
-2519 -2522 0
-2519 -2523 0
-2519 -2524 0
-2519 -2525 0
-2519 -2526 0
-377 2519 2520 2521 2522 2523 2524 2525 2526 0
-2527 395 0
-2528 268 0
-2528 379 0
-268 -379 2528 0
-2529 287 0
-2529 381 0
-287 -381 2529 0
-2530 305 0
-2530 383 0
-305 -383 2530 0
-2531 323 0
-2531 385 0
-323 -385 2531 0
-2532 341 0
-2532 387 0
-341 -387 2532 0
-2533 359 0
-2533 389 0
-359 -389 2533 0
-2534 377 0
-2534 391 0
-377 -391 2534 0
-2527 -2528 0
-2527 -2529 0
-2527 -2530 0
-2527 -2531 0
-2527 -2532 0
-2527 -2533 0
-2527 -2534 0
-395 2527 2528 2529 2530 2531 2532 2533 2534 0
-2535 0
-2536 244 0
-2536 271 0
-2536 289 0
-2536 307 0
-2536 325 0
-2536 343 0
-2536 361 0
-2536 379 0
-2536 397 0
-244 -271 -289 -307 -325 -343 -361 -379 -397 2536 0
-2537 244 0
-2537 247 0
-2537 250 0
-2537 253 0
-2537 256 0
-2537 259 0
-2537 262 0
-2537 265 0
-2537 268 0
-244 -247 -250 -253 -256 -259 -262 -265 -268 2537 0
-2538 247 0
-2538 273 0
-2538 291 0
-2538 309 0
-2538 327 0
-2538 345 0
-2538 363 0
-2538 381 0
-2538 399 0
-247 -273 -291 -309 -327 -345 -363 -381 -399 2538 0
-2539 271 0
-2539 273 0
-2539 275 0
-2539 277 0
-2539 279 0
-2539 281 0
-2539 283 0
-2539 285 0
-2539 287 0
-271 -273 -275 -277 -279 -281 -283 -285 -287 2539 0
-2540 250 0
-2540 275 0
-2540 293 0
-2540 311 0
-2540 329 0
-2540 347 0
-2540 365 0
-2540 383 0
-2540 401 0
-250 -275 -293 -311 -329 -347 -365 -383 -401 2540 0
-2541 289 0
-2541 291 0
-2541 293 0
-2541 295 0
-2541 297 0
-2541 299 0
-2541 301 0
-2541 303 0
-2541 305 0
-289 -291 -293 -295 -297 -299 -301 -303 -305 2541 0
-2542 253 0
-2542 277 0
-2542 295 0
-2542 313 0
-2542 331 0
-2542 349 0
-2542 367 0
-2542 385 0
-2542 403 0
-253 -277 -295 -313 -331 -349 -367 -385 -403 2542 0
-2543 307 0
-2543 309 0
-2543 311 0
-2543 313 0
-2543 315 0
-2543 317 0
-2543 319 0
-2543 321 0
-2543 323 0
-307 -309 -311 -313 -315 -317 -319 -321 -323 2543 0
-2544 256 0
-2544 279 0
-2544 297 0
-2544 315 0
-2544 333 0
-2544 351 0
-2544 369 0
-2544 387 0
-2544 405 0
-256 -279 -297 -315 -333 -351 -369 -387 -405 2544 0
-2545 325 0
-2545 327 0
-2545 329 0
-2545 331 0
-2545 333 0
-2545 335 0
-2545 337 0
-2545 339 0
-2545 341 0
-325 -327 -329 -331 -333 -335 -337 -339 -341 2545 0
-2546 259 0
-2546 281 0
-2546 299 0
-2546 317 0
-2546 335 0
-2546 353 0
-2546 371 0
-2546 389 0
-2546 407 0
-259 -281 -299 -317 -335 -353 -371 -389 -407 2546 0
-2547 343 0
-2547 345 0
-2547 347 0
-2547 349 0
-2547 351 0
-2547 353 0
-2547 355 0
-2547 357 0
-2547 359 0
-343 -345 -347 -349 -351 -353 -355 -357 -359 2547 0
-2548 262 0
-2548 283 0
-2548 301 0
-2548 319 0
-2548 337 0
-2548 355 0
-2548 373 0
-2548 391 0
-2548 409 0
-262 -283 -301 -319 -337 -355 -373 -391 -409 2548 0
-2549 361 0
-2549 363 0
-2549 365 0
-2549 367 0
-2549 369 0
-2549 371 0
-2549 373 0
-2549 375 0
-2549 377 0
-361 -363 -365 -367 -369 -371 -373 -375 -377 2549 0
-2550 265 0
-2550 285 0
-2550 303 0
-2550 321 0
-2550 339 0
-2550 357 0
-2550 375 0
-2550 393 0
-2550 411 0
-265 -285 -303 -321 -339 -357 -375 -393 -411 2550 0
-2551 379 0
-2551 381 0
-2551 383 0
-2551 385 0
-2551 387 0
-2551 389 0
-2551 391 0
-2551 393 0
-2551 395 0
-379 -381 -383 -385 -387 -389 -391 -393 -395 2551 0
-2552 268 0
-2552 287 0
-2552 305 0
-2552 323 0
-2552 341 0
-2552 359 0
-2552 377 0
-2552 395 0
-2552 413 0
-268 -287 -305 -323 -341 -359 -377 -395 -413 2552 0
-2553 397 0
-2553 399 0
-2553 401 0
-2553 403 0
-2553 405 0
-2553 407 0
-2553 409 0
-2553 411 0
-2553 413 0
-397 -399 -401 -403 -405 -407 -409 -411 -413 2553 0
-1951 415 0
-2537 -2536 415 0
-415 1951 2537 0
-415 1951 2536 0
-1952 433 0
-2537 -2538 433 0
-433 1952 2537 0
-433 1952 2538 0
-1960 451 0
-2537 -2540 451 0
-451 1960 2537 0
-451 1960 2540 0
-1968 469 0
-2537 -2542 469 0
-469 1968 2537 0
-469 1968 2542 0
-1976 487 0
-2537 -2544 487 0
-487 1976 2537 0
-487 1976 2544 0
-1984 505 0
-2537 -2546 505 0
-505 1984 2537 0
-505 1984 2546 0
-1992 523 0
-2537 -2548 523 0
-523 1992 2537 0
-523 1992 2548 0
-2000 541 0
-2537 -2550 541 0
-541 2000 2537 0
-541 2000 2550 0
-2008 559 0
-2537 -2552 559 0
-559 2008 2537 0
-559 2008 2552 0
-2016 417 0
-2539 -2536 417 0
-417 2016 2539 0
-417 2016 2536 0
-2024 435 0
-2539 -2538 435 0
-435 2024 2539 0
-435 2024 2538 0
-2025 453 0
-2539 -2540 453 0
-453 2025 2539 0
-453 2025 2540 0
-2033 471 0
-2539 -2542 471 0
-471 2033 2539 0
-471 2033 2542 0
-2041 489 0
-2539 -2544 489 0
-489 2041 2539 0
-489 2041 2544 0
-2049 507 0
-2539 -2546 507 0
-507 2049 2539 0
-507 2049 2546 0
-2057 525 0
-2539 -2548 525 0
-525 2057 2539 0
-525 2057 2548 0
-2065 543 0
-2539 -2550 543 0
-543 2065 2539 0
-543 2065 2550 0
-2073 561 0
-2539 -2552 561 0
-561 2073 2539 0
-561 2073 2552 0
-2081 419 0
-2541 -2536 419 0
-419 2081 2541 0
-419 2081 2536 0
-2089 437 0
-2541 -2538 437 0
-437 2089 2541 0
-437 2089 2538 0
-2097 455 0
-2541 -2540 455 0
-455 2097 2541 0
-455 2097 2540 0
-2098 473 0
-2541 -2542 473 0
-473 2098 2541 0
-473 2098 2542 0
-2106 491 0
-2541 -2544 491 0
-491 2106 2541 0
-491 2106 2544 0
-2114 509 0
-2541 -2546 509 0
-509 2114 2541 0
-509 2114 2546 0
-2122 527 0
-2541 -2548 527 0
-527 2122 2541 0
-527 2122 2548 0
-2130 545 0
-2541 -2550 545 0
-545 2130 2541 0
-545 2130 2550 0
-2138 563 0
-2541 -2552 563 0
-563 2138 2541 0
-563 2138 2552 0
-2146 421 0
-2543 -2536 421 0
-421 2146 2543 0
-421 2146 2536 0
-2154 439 0
-2543 -2538 439 0
-439 2154 2543 0
-439 2154 2538 0
-2162 457 0
-2543 -2540 457 0
-457 2162 2543 0
-457 2162 2540 0
-2170 475 0
-2543 -2542 475 0
-475 2170 2543 0
-475 2170 2542 0
-2171 493 0
-2543 -2544 493 0
-493 2171 2543 0
-493 2171 2544 0
-2179 511 0
-2543 -2546 511 0
-511 2179 2543 0
-511 2179 2546 0
-2187 529 0
-2543 -2548 529 0
-529 2187 2543 0
-529 2187 2548 0
-2195 547 0
-2543 -2550 547 0
-547 2195 2543 0
-547 2195 2550 0
-2203 565 0
-2543 -2552 565 0
-565 2203 2543 0
-565 2203 2552 0
-2211 423 0
-2545 -2536 423 0
-423 2211 2545 0
-423 2211 2536 0
-2219 441 0
-2545 -2538 441 0
-441 2219 2545 0
-441 2219 2538 0
-2227 459 0
-2545 -2540 459 0
-459 2227 2545 0
-459 2227 2540 0
-2235 477 0
-2545 -2542 477 0
-477 2235 2545 0
-477 2235 2542 0
-2243 495 0
-2545 -2544 495 0
-495 2243 2545 0
-495 2243 2544 0
-2244 513 0
-2545 -2546 513 0
-513 2244 2545 0
-513 2244 2546 0
-2252 531 0
-2545 -2548 531 0
-531 2252 2545 0
-531 2252 2548 0
-2260 549 0
-2545 -2550 549 0
-549 2260 2545 0
-549 2260 2550 0
-2268 567 0
-2545 -2552 567 0
-567 2268 2545 0
-567 2268 2552 0
-2276 425 0
-2547 -2536 425 0
-425 2276 2547 0
-425 2276 2536 0
-2284 443 0
-2547 -2538 443 0
-443 2284 2547 0
-443 2284 2538 0
-2292 461 0
-2547 -2540 461 0
-461 2292 2547 0
-461 2292 2540 0
-2300 479 0
-2547 -2542 479 0
-479 2300 2547 0
-479 2300 2542 0
-2308 497 0
-2547 -2544 497 0
-497 2308 2547 0
-497 2308 2544 0
-2316 515 0
-2547 -2546 515 0
-515 2316 2547 0
-515 2316 2546 0
-2317 533 0
-2547 -2548 533 0
-533 2317 2547 0
-533 2317 2548 0
-2325 551 0
-2547 -2550 551 0
-551 2325 2547 0
-551 2325 2550 0
-2333 569 0
-2547 -2552 569 0
-569 2333 2547 0
-569 2333 2552 0
-2341 427 0
-2549 -2536 427 0
-427 2341 2549 0
-427 2341 2536 0
-2349 445 0
-2549 -2538 445 0
-445 2349 2549 0
-445 2349 2538 0
-2357 463 0
-2549 -2540 463 0
-463 2357 2549 0
-463 2357 2540 0
-2365 481 0
-2549 -2542 481 0
-481 2365 2549 0
-481 2365 2542 0
-2373 499 0
-2549 -2544 499 0
-499 2373 2549 0
-499 2373 2544 0
-2381 517 0
-2549 -2546 517 0
-517 2381 2549 0
-517 2381 2546 0
-2389 535 0
-2549 -2548 535 0
-535 2389 2549 0
-535 2389 2548 0
-2390 553 0
-2549 -2550 553 0
-553 2390 2549 0
-553 2390 2550 0
-2398 571 0
-2549 -2552 571 0
-571 2398 2549 0
-571 2398 2552 0
-2406 429 0
-2551 -2536 429 0
-429 2406 2551 0
-429 2406 2536 0
-2414 447 0
-2551 -2538 447 0
-447 2414 2551 0
-447 2414 2538 0
-2422 465 0
-2551 -2540 465 0
-465 2422 2551 0
-465 2422 2540 0
-2430 483 0
-2551 -2542 483 0
-483 2430 2551 0
-483 2430 2542 0
-2438 501 0
-2551 -2544 501 0
-501 2438 2551 0
-501 2438 2544 0
-2446 519 0
-2551 -2546 519 0
-519 2446 2551 0
-519 2446 2546 0
-2454 537 0
-2551 -2548 537 0
-537 2454 2551 0
-537 2454 2548 0
-2462 555 0
-2551 -2550 555 0
-555 2462 2551 0
-555 2462 2550 0
-2463 573 0
-2551 -2552 573 0
-573 2463 2551 0
-573 2463 2552 0
-2471 431 0
-2553 -2536 431 0
-431 2471 2553 0
-431 2471 2536 0
-2479 449 0
-2553 -2538 449 0
-449 2479 2553 0
-449 2479 2538 0
-2487 467 0
-2553 -2540 467 0
-467 2487 2553 0
-467 2487 2540 0
-2495 485 0
-2553 -2542 485 0
-485 2495 2553 0
-485 2495 2542 0
-2503 503 0
-2553 -2544 503 0
-503 2503 2553 0
-503 2503 2544 0
-2511 521 0
-2553 -2546 521 0
-521 2511 2553 0
-521 2511 2546 0
-2519 539 0
-2553 -2548 539 0
-539 2519 2553 0
-539 2519 2548 0
-2527 557 0
-2553 -2550 557 0
-557 2527 2553 0
-557 2527 2550 0
-2535 575 0
-2553 -2552 575 0
-575 2535 2553 0
-575 2535 2552 0
