p cnf 812 2962
1 2 -2 -3 0
4 2 -5 -6 0
7 2 -8 -9 0
10 2 -11 -12 0
13 2 -14 -15 0
16 2 -17 -18 0
19 2 -20 -21 0
22 5 -2 -23 0
24 5 -5 -25 0
26 5 -8 -27 0
28 5 -11 -29 0
30 5 -14 -31 0
32 5 -17 -33 0
34 5 -20 -35 0
36 8 -2 -37 0
38 8 -5 -39 0
40 8 -8 -41 0
42 8 -11 -43 0
44 8 -14 -45 0
46 8 -17 -47 0
48 8 -20 -49 0
50 11 -2 -51 0
52 11 -5 -53 0
54 11 -8 -55 0
56 11 -11 -57 0
58 11 -14 -59 0
60 11 -17 -61 0
62 11 -20 -63 0
64 14 -2 -65 0
66 14 -5 -67 0
68 14 -8 -69 0
70 14 -11 -71 0
72 14 -14 -73 0
74 14 -17 -75 0
76 14 -20 -77 0
78 17 -2 -79 0
80 17 -5 -81 0
82 17 -8 -83 0
84 17 -11 -85 0
86 17 -14 -87 0
88 17 -17 -89 0
90 17 -20 -91 0
92 20 -2 -93 0
94 20 -5 -95 0
96 20 -8 -97 0
98 20 -11 -99 0
100 20 -14 -101 0
102 20 -17 -103 0
104 20 -20 -105 0
3 -1 0
6 -4 0
9 -7 0
12 -10 0
15 -13 0
18 -16 0
21 -19 0
23 -22 0
25 -24 0
27 -26 0
29 -28 0
31 -30 0
33 -32 0
35 -34 0
37 -36 0
39 -38 0
41 -40 0
43 -42 0
45 -44 0
47 -46 0
49 -48 0
51 -50 0
53 -52 0
55 -54 0
57 -56 0
59 -58 0
61 -60 0
63 -62 0
65 -64 0
67 -66 0
69 -68 0
71 -70 0
73 -72 0
75 -74 0
77 -76 0
79 -78 0
81 -80 0
83 -82 0
85 -84 0
87 -86 0
89 -88 0
91 -90 0
93 -92 0
95 -94 0
97 -96 0
99 -98 0
101 -100 0
103 -102 0
105 -104 0
3 -2 0
6 -2 0
9 -2 0
12 -2 0
15 -2 0
18 -2 0
21 -2 0
23 -5 0
25 -5 0
27 -5 0
29 -5 0
31 -5 0
33 -5 0
35 -5 0
37 -8 0
39 -8 0
41 -8 0
43 -8 0
45 -8 0
47 -8 0
49 -8 0
51 -11 0
53 -11 0
55 -11 0
57 -11 0
59 -11 0
61 -11 0
63 -11 0
65 -14 0
67 -14 0
69 -14 0
71 -14 0
73 -14 0
75 -14 0
77 -14 0
79 -17 0
81 -17 0
83 -17 0
85 -17 0
87 -17 0
89 -17 0
91 -17 0
93 -20 0
95 -20 0
97 -20 0
99 -20 0
101 -20 0
103 -20 0
105 -20 0
3 2 0
6 5 0
9 8 0
12 11 0
15 14 0
18 17 0
21 20 0
23 2 0
25 5 0
27 8 0
29 11 0
31 14 0
33 17 0
35 20 0
37 2 0
39 5 0
41 8 0
43 11 0
45 14 0
47 17 0
49 20 0
51 2 0
53 5 0
55 8 0
57 11 0
59 14 0
61 17 0
63 20 0
65 2 0
67 5 0
69 8 0
71 11 0
73 14 0
75 17 0
77 20 0
79 2 0
81 5 0
83 8 0
85 11 0
87 14 0
89 17 0
91 20 0
93 2 0
95 5 0
97 8 0
99 11 0
101 14 0
103 17 0
105 20 0
-106 -2 -2 107 0
-108 -5 -2 109 0
-110 -8 -2 111 0
-112 -11 -2 113 0
-114 -14 -2 115 0
-116 -17 -2 117 0
-118 -20 -2 119 0
-120 -2 -5 121 0
-122 -5 -5 123 0
-124 -8 -5 125 0
-126 -11 -5 127 0
-128 -14 -5 129 0
-130 -17 -5 131 0
-132 -20 -5 133 0
-134 -2 -8 135 0
-136 -5 -8 137 0
-138 -8 -8 139 0
-140 -11 -8 141 0
-142 -14 -8 143 0
-144 -17 -8 145 0
-146 -20 -8 147 0
-148 -2 -11 149 0
-150 -5 -11 151 0
-152 -8 -11 153 0
-154 -11 -11 155 0
-156 -14 -11 157 0
-158 -17 -11 159 0
-160 -20 -11 161 0
-162 -2 -14 163 0
-164 -5 -14 165 0
-166 -8 -14 167 0
-168 -11 -14 169 0
-170 -14 -14 171 0
-172 -17 -14 173 0
-174 -20 -14 175 0
-176 -2 -17 177 0
-178 -5 -17 179 0
-180 -8 -17 181 0
-182 -11 -17 183 0
-184 -14 -17 185 0
-186 -17 -17 187 0
-188 -20 -17 189 0
-190 -2 -20 191 0
-192 -5 -20 193 0
-194 -8 -20 195 0
-196 -11 -20 197 0
-198 -14 -20 199 0
-200 -17 -20 201 0
-202 -20 -20 203 0
-107 106 0
-109 108 0
-111 110 0
-113 112 0
-115 114 0
-117 116 0
-119 118 0
-121 120 0
-123 122 0
-125 124 0
-127 126 0
-129 128 0
-131 130 0
-133 132 0
-135 134 0
-137 136 0
-139 138 0
-141 140 0
-143 142 0
-145 144 0
-147 146 0
-149 148 0
-151 150 0
-153 152 0
-155 154 0
-157 156 0
-159 158 0
-161 160 0
-163 162 0
-165 164 0
-167 166 0
-169 168 0
-171 170 0
-173 172 0
-175 174 0
-177 176 0
-179 178 0
-181 180 0
-183 182 0
-185 184 0
-187 186 0
-189 188 0
-191 190 0
-193 192 0
-195 194 0
-197 196 0
-199 198 0
-201 200 0
-203 202 0
-107 2 0
-109 5 0
-111 8 0
-113 11 0
-115 14 0
-117 17 0
-119 20 0
-121 2 0
-123 5 0
-125 8 0
-127 11 0
-129 14 0
-131 17 0
-133 20 0
-135 2 0
-137 5 0
-139 8 0
-141 11 0
-143 14 0
-145 17 0
-147 20 0
-149 2 0
-151 5 0
-153 8 0
-155 11 0
-157 14 0
-159 17 0
-161 20 0
-163 2 0
-165 5 0
-167 8 0
-169 11 0
-171 14 0
-173 17 0
-175 20 0
-177 2 0
-179 5 0
-181 8 0
-183 11 0
-185 14 0
-187 17 0
-189 20 0
-191 2 0
-193 5 0
-195 8 0
-197 11 0
-199 14 0
-201 17 0
-203 20 0
-107 2 0
-109 2 0
-111 2 0
-113 2 0
-115 2 0
-117 2 0
-119 2 0
-121 5 0
-123 5 0
-125 5 0
-127 5 0
-129 5 0
-131 5 0
-133 5 0
-135 8 0
-137 8 0
-139 8 0
-141 8 0
-143 8 0
-145 8 0
-147 8 0
-149 11 0
-151 11 0
-153 11 0
-155 11 0
-157 11 0
-159 11 0
-161 11 0
-163 14 0
-165 14 0
-167 14 0
-169 14 0
-171 14 0
-173 14 0
-175 14 0
-177 17 0
-179 17 0
-181 17 0
-183 17 0
-185 17 0
-187 17 0
-189 17 0
-191 20 0
-193 20 0
-195 20 0
-197 20 0
-199 20 0
-201 20 0
-203 20 0
-204 107 -205 0
-206 109 -207 0
-208 111 -209 0
-210 113 -211 0
-212 115 -213 0
-214 117 -215 0
-216 119 -217 0
-218 121 -219 0
-220 123 -221 0
-222 125 -223 0
-224 127 -225 0
-226 129 -227 0
-228 131 -229 0
-230 133 -231 0
-232 135 -233 0
-234 137 -235 0
-236 139 -237 0
-238 141 -239 0
-240 143 -241 0
-242 145 -243 0
-244 147 -245 0
-246 149 -247 0
-248 151 -249 0
-250 153 -251 0
-252 155 -253 0
-254 157 -255 0
-256 159 -257 0
-258 161 -259 0
-260 163 -261 0
-262 165 -263 0
-264 167 -265 0
-266 169 -267 0
-268 171 -269 0
-270 173 -271 0
-272 175 -273 0
-274 177 -275 0
-276 179 -277 0
-278 181 -279 0
-280 183 -281 0
-282 185 -283 0
-284 187 -285 0
-286 189 -287 0
-288 191 -289 0
-290 193 -291 0
-292 195 -293 0
-294 197 -295 0
-296 199 -297 0
-298 201 -299 0
-300 203 -301 0
205 204 0
207 206 0
209 208 0
211 210 0
213 212 0
215 214 0
217 216 0
219 218 0
221 220 0
223 222 0
225 224 0
227 226 0
229 228 0
231 230 0
233 232 0
235 234 0
237 236 0
239 238 0
241 240 0
243 242 0
245 244 0
247 246 0
249 248 0
251 250 0
253 252 0
255 254 0
257 256 0
259 258 0
261 260 0
263 262 0
265 264 0
267 266 0
269 268 0
271 270 0
273 272 0
275 274 0
277 276 0
279 278 0
281 280 0
283 282 0
285 284 0
287 286 0
289 288 0
291 290 0
293 292 0
295 294 0
297 296 0
299 298 0
301 300 0
205 -107 0
207 -109 0
209 -111 0
211 -113 0
213 -115 0
215 -117 0
217 -119 0
219 -121 0
221 -123 0
223 -125 0
225 -127 0
227 -129 0
229 -131 0
231 -133 0
233 -135 0
235 -137 0
237 -139 0
239 -141 0
241 -143 0
243 -145 0
245 -147 0
247 -149 0
249 -151 0
251 -153 0
253 -155 0
255 -157 0
257 -159 0
259 -161 0
261 -163 0
263 -165 0
265 -167 0
267 -169 0
269 -171 0
271 -173 0
273 -175 0
275 -177 0
277 -179 0
279 -181 0
281 -183 0
283 -185 0
285 -187 0
287 -189 0
289 -191 0
291 -193 0
293 -195 0
295 -197 0
297 -199 0
299 -201 0
301 -203 0
-204 -302 -302 303 0
-206 -304 -302 305 0
-208 -306 -302 307 0
-210 -308 -302 309 0
-212 -310 -302 311 0
-214 -312 -302 313 0
-216 -314 -302 315 0
-218 -302 -304 316 0
-220 -304 -304 317 0
-222 -306 -304 318 0
-224 -308 -304 319 0
-226 -310 -304 320 0
-228 -312 -304 321 0
-230 -314 -304 322 0
-232 -302 -306 323 0
-234 -304 -306 324 0
-236 -306 -306 325 0
-238 -308 -306 326 0
-240 -310 -306 327 0
-242 -312 -306 328 0
-244 -314 -306 329 0
-246 -302 -308 330 0
-248 -304 -308 331 0
-250 -306 -308 332 0
-252 -308 -308 333 0
-254 -310 -308 334 0
-256 -312 -308 335 0
-258 -314 -308 336 0
-260 -302 -310 337 0
-262 -304 -310 338 0
-264 -306 -310 339 0
-266 -308 -310 340 0
-268 -310 -310 341 0
-270 -312 -310 342 0
-272 -314 -310 343 0
-274 -302 -312 344 0
-276 -304 -312 345 0
-278 -306 -312 346 0
-280 -308 -312 347 0
-282 -310 -312 348 0
-284 -312 -312 349 0
-286 -314 -312 350 0
-288 -302 -314 351 0
-290 -304 -314 352 0
-292 -306 -314 353 0
-294 -308 -314 354 0
-296 -310 -314 355 0
-298 -312 -314 356 0
-300 -314 -314 357 0
-303 204 0
-305 206 0
-307 208 0
-309 210 0
-311 212 0
-313 214 0
-315 216 0
-316 218 0
-317 220 0
-318 222 0
-319 224 0
-320 226 0
-321 228 0
-322 230 0
-323 232 0
-324 234 0
-325 236 0
-326 238 0
-327 240 0
-328 242 0
-329 244 0
-330 246 0
-331 248 0
-332 250 0
-333 252 0
-334 254 0
-335 256 0
-336 258 0
-337 260 0
-338 262 0
-339 264 0
-340 266 0
-341 268 0
-342 270 0
-343 272 0
-344 274 0
-345 276 0
-346 278 0
-347 280 0
-348 282 0
-349 284 0
-350 286 0
-351 288 0
-352 290 0
-353 292 0
-354 294 0
-355 296 0
-356 298 0
-357 300 0
-303 302 0
-305 304 0
-307 306 0
-309 308 0
-311 310 0
-313 312 0
-315 314 0
-316 302 0
-317 304 0
-318 306 0
-319 308 0
-320 310 0
-321 312 0
-322 314 0
-323 302 0
-324 304 0
-325 306 0
-326 308 0
-327 310 0
-328 312 0
-329 314 0
-330 302 0
-331 304 0
-332 306 0
-333 308 0
-334 310 0
-335 312 0
-336 314 0
-337 302 0
-338 304 0
-339 306 0
-340 308 0
-341 310 0
-342 312 0
-343 314 0
-344 302 0
-345 304 0
-346 306 0
-347 308 0
-348 310 0
-349 312 0
-350 314 0
-351 302 0
-352 304 0
-353 306 0
-354 308 0
-355 310 0
-356 312 0
-357 314 0
-303 302 0
-305 302 0
-307 302 0
-309 302 0
-311 302 0
-313 302 0
-315 302 0
-316 304 0
-317 304 0
-318 304 0
-319 304 0
-320 304 0
-321 304 0
-322 304 0
-323 306 0
-324 306 0
-325 306 0
-326 306 0
-327 306 0
-328 306 0
-329 306 0
-330 308 0
-331 308 0
-332 308 0
-333 308 0
-334 308 0
-335 308 0
-336 308 0
-337 310 0
-338 310 0
-339 310 0
-340 310 0
-341 310 0
-342 310 0
-343 310 0
-344 312 0
-345 312 0
-346 312 0
-347 312 0
-348 312 0
-349 312 0
-350 312 0
-351 314 0
-352 314 0
-353 314 0
-354 314 0
-355 314 0
-356 314 0
-357 314 0
-358 303 -359 0
-360 305 -361 0
-362 307 -363 0
-364 309 -365 0
-366 311 -367 0
-368 313 -369 0
-370 315 -371 0
-372 316 -373 0
-374 317 -375 0
-376 318 -377 0
-378 319 -379 0
-380 320 -381 0
-382 321 -383 0
-384 322 -385 0
-386 323 -387 0
-388 324 -389 0
-390 325 -391 0
-392 326 -393 0
-394 327 -395 0
-396 328 -397 0
-398 329 -399 0
-400 330 -401 0
-402 331 -403 0
-404 332 -405 0
-406 333 -407 0
-408 334 -409 0
-410 335 -411 0
-412 336 -413 0
-414 337 -415 0
-416 338 -417 0
-418 339 -419 0
-420 340 -421 0
-422 341 -423 0
-424 342 -425 0
-426 343 -427 0
-428 344 -429 0
-430 345 -431 0
-432 346 -433 0
-434 347 -435 0
-436 348 -437 0
-438 349 -439 0
-440 350 -441 0
-442 351 -443 0
-444 352 -445 0
-446 353 -447 0
-448 354 -449 0
-450 355 -451 0
-452 356 -453 0
-454 357 -455 0
359 358 0
361 360 0
363 362 0
365 364 0
367 366 0
369 368 0
371 370 0
373 372 0
375 374 0
377 376 0
379 378 0
381 380 0
383 382 0
385 384 0
387 386 0
389 388 0
391 390 0
393 392 0
395 394 0
397 396 0
399 398 0
401 400 0
403 402 0
405 404 0
407 406 0
409 408 0
411 410 0
413 412 0
415 414 0
417 416 0
419 418 0
421 420 0
423 422 0
425 424 0
427 426 0
429 428 0
431 430 0
433 432 0
435 434 0
437 436 0
439 438 0
441 440 0
443 442 0
445 444 0
447 446 0
449 448 0
451 450 0
453 452 0
455 454 0
359 -303 0
361 -305 0
363 -307 0
365 -309 0
367 -311 0
369 -313 0
371 -315 0
373 -316 0
375 -317 0
377 -318 0
379 -319 0
381 -320 0
383 -321 0
385 -322 0
387 -323 0
389 -324 0
391 -325 0
393 -326 0
395 -327 0
397 -328 0
399 -329 0
401 -330 0
403 -331 0
405 -332 0
407 -333 0
409 -334 0
411 -335 0
413 -336 0
415 -337 0
417 -338 0
419 -339 0
421 -340 0
423 -341 0
425 -342 0
427 -343 0
429 -344 0
431 -345 0
433 -346 0
435 -347 0
437 -348 0
439 -349 0
441 -350 0
443 -351 0
445 -352 0
447 -353 0
449 -354 0
451 -355 0
453 -356 0
455 -357 0
204 -106 -2 -2 -456 0
206 -108 -5 -2 -457 0
208 -110 -8 -2 -458 0
210 -112 -11 -2 -459 0
212 -114 -14 -2 -460 0
214 -116 -17 -2 -461 0
216 -118 -20 -2 -462 0
218 -120 -2 -5 -463 0
220 -122 -5 -5 -464 0
222 -124 -8 -5 -465 0
224 -126 -11 -5 -466 0
226 -128 -14 -5 -467 0
228 -130 -17 -5 -468 0
230 -132 -20 -5 -469 0
232 -134 -2 -8 -470 0
234 -136 -5 -8 -471 0
236 -138 -8 -8 -472 0
238 -140 -11 -8 -473 0
240 -142 -14 -8 -474 0
242 -144 -17 -8 -475 0
244 -146 -20 -8 -476 0
246 -148 -2 -11 -477 0
248 -150 -5 -11 -478 0
250 -152 -8 -11 -479 0
252 -154 -11 -11 -480 0
254 -156 -14 -11 -481 0
256 -158 -17 -11 -482 0
258 -160 -20 -11 -483 0
260 -162 -2 -14 -484 0
262 -164 -5 -14 -485 0
264 -166 -8 -14 -486 0
266 -168 -11 -14 -487 0
268 -170 -14 -14 -488 0
270 -172 -17 -14 -489 0
272 -174 -20 -14 -490 0
274 -176 -2 -17 -491 0
276 -178 -5 -17 -492 0
278 -180 -8 -17 -493 0
280 -182 -11 -17 -494 0
282 -184 -14 -17 -495 0
284 -186 -17 -17 -496 0
286 -188 -20 -17 -497 0
288 -190 -2 -20 -498 0
290 -192 -5 -20 -499 0
292 -194 -8 -20 -500 0
294 -196 -11 -20 -501 0
296 -198 -14 -20 -502 0
298 -200 -17 -20 -503 0
300 -202 -20 -20 -504 0
456 -204 0
457 -206 0
458 -208 0
459 -210 0
460 -212 0
461 -214 0
462 -216 0
463 -218 0
464 -220 0
465 -222 0
466 -224 0
467 -226 0
468 -228 0
469 -230 0
470 -232 0
471 -234 0
472 -236 0
473 -238 0
474 -240 0
475 -242 0
476 -244 0
477 -246 0
478 -248 0
479 -250 0
480 -252 0
481 -254 0
482 -256 0
483 -258 0
484 -260 0
485 -262 0
486 -264 0
487 -266 0
488 -268 0
489 -270 0
490 -272 0
491 -274 0
492 -276 0
493 -278 0
494 -280 0
495 -282 0
496 -284 0
497 -286 0
498 -288 0
499 -290 0
500 -292 0
501 -294 0
502 -296 0
503 -298 0
504 -300 0
456 106 0
457 108 0
458 110 0
459 112 0
460 114 0
461 116 0
462 118 0
463 120 0
464 122 0
465 124 0
466 126 0
467 128 0
468 130 0
469 132 0
470 134 0
471 136 0
472 138 0
473 140 0
474 142 0
475 144 0
476 146 0
477 148 0
478 150 0
479 152 0
480 154 0
481 156 0
482 158 0
483 160 0
484 162 0
485 164 0
486 166 0
487 168 0
488 170 0
489 172 0
490 174 0
491 176 0
492 178 0
493 180 0
494 182 0
495 184 0
496 186 0
497 188 0
498 190 0
499 192 0
500 194 0
501 196 0
502 198 0
503 200 0
504 202 0
456 2 0
457 5 0
458 8 0
459 11 0
460 14 0
461 17 0
462 20 0
463 2 0
464 5 0
465 8 0
466 11 0
467 14 0
468 17 0
469 20 0
470 2 0
471 5 0
472 8 0
473 11 0
474 14 0
475 17 0
476 20 0
477 2 0
478 5 0
479 8 0
480 11 0
481 14 0
482 17 0
483 20 0
484 2 0
485 5 0
486 8 0
487 11 0
488 14 0
489 17 0
490 20 0
491 2 0
492 5 0
493 8 0
494 11 0
495 14 0
496 17 0
497 20 0
498 2 0
499 5 0
500 8 0
501 11 0
502 14 0
503 17 0
504 20 0
456 2 0
457 2 0
458 2 0
459 2 0
460 2 0
461 2 0
462 2 0
463 5 0
464 5 0
465 5 0
466 5 0
467 5 0
468 5 0
469 5 0
470 8 0
471 8 0
472 8 0
473 8 0
474 8 0
475 8 0
476 8 0
477 11 0
478 11 0
479 11 0
480 11 0
481 11 0
482 11 0
483 11 0
484 14 0
485 14 0
486 14 0
487 14 0
488 14 0
489 14 0
490 14 0
491 17 0
492 17 0
493 17 0
494 17 0
495 17 0
496 17 0
497 17 0
498 20 0
499 20 0
500 20 0
501 20 0
502 20 0
503 20 0
504 20 0
358 -204 -302 -302 -505 0
360 -206 -304 -302 -506 0
362 -208 -306 -302 -507 0
364 -210 -308 -302 -508 0
366 -212 -310 -302 -509 0
368 -214 -312 -302 -510 0
370 -216 -314 -302 -511 0
372 -218 -302 -304 -512 0
374 -220 -304 -304 -513 0
376 -222 -306 -304 -514 0
378 -224 -308 -304 -515 0
380 -226 -310 -304 -516 0
382 -228 -312 -304 -517 0
384 -230 -314 -304 -518 0
386 -232 -302 -306 -519 0
388 -234 -304 -306 -520 0
390 -236 -306 -306 -521 0
392 -238 -308 -306 -522 0
394 -240 -310 -306 -523 0
396 -242 -312 -306 -524 0
398 -244 -314 -306 -525 0
400 -246 -302 -308 -526 0
402 -248 -304 -308 -527 0
404 -250 -306 -308 -528 0
406 -252 -308 -308 -529 0
408 -254 -310 -308 -530 0
410 -256 -312 -308 -531 0
412 -258 -314 -308 -532 0
414 -260 -302 -310 -533 0
416 -262 -304 -310 -534 0
418 -264 -306 -310 -535 0
420 -266 -308 -310 -536 0
422 -268 -310 -310 -537 0
424 -270 -312 -310 -538 0
426 -272 -314 -310 -539 0
428 -274 -302 -312 -540 0
430 -276 -304 -312 -541 0
432 -278 -306 -312 -542 0
434 -280 -308 -312 -543 0
436 -282 -310 -312 -544 0
438 -284 -312 -312 -545 0
440 -286 -314 -312 -546 0
442 -288 -302 -314 -547 0
444 -290 -304 -314 -548 0
446 -292 -306 -314 -549 0
448 -294 -308 -314 -550 0
450 -296 -310 -314 -551 0
452 -298 -312 -314 -552 0
454 -300 -314 -314 -553 0
505 -358 0
506 -360 0
507 -362 0
508 -364 0
509 -366 0
510 -368 0
511 -370 0
512 -372 0
513 -374 0
514 -376 0
515 -378 0
516 -380 0
517 -382 0
518 -384 0
519 -386 0
520 -388 0
521 -390 0
522 -392 0
523 -394 0
524 -396 0
525 -398 0
526 -400 0
527 -402 0
528 -404 0
529 -406 0
530 -408 0
531 -410 0
532 -412 0
533 -414 0
534 -416 0
535 -418 0
536 -420 0
537 -422 0
538 -424 0
539 -426 0
540 -428 0
541 -430 0
542 -432 0
543 -434 0
544 -436 0
545 -438 0
546 -440 0
547 -442 0
548 -444 0
549 -446 0
550 -448 0
551 -450 0
552 -452 0
553 -454 0
505 204 0
506 206 0
507 208 0
508 210 0
509 212 0
510 214 0
511 216 0
512 218 0
513 220 0
514 222 0
515 224 0
516 226 0
517 228 0
518 230 0
519 232 0
520 234 0
521 236 0
522 238 0
523 240 0
524 242 0
525 244 0
526 246 0
527 248 0
528 250 0
529 252 0
530 254 0
531 256 0
532 258 0
533 260 0
534 262 0
535 264 0
536 266 0
537 268 0
538 270 0
539 272 0
540 274 0
541 276 0
542 278 0
543 280 0
544 282 0
545 284 0
546 286 0
547 288 0
548 290 0
549 292 0
550 294 0
551 296 0
552 298 0
553 300 0
505 302 0
506 304 0
507 306 0
508 308 0
509 310 0
510 312 0
511 314 0
512 302 0
513 304 0
514 306 0
515 308 0
516 310 0
517 312 0
518 314 0
519 302 0
520 304 0
521 306 0
522 308 0
523 310 0
524 312 0
525 314 0
526 302 0
527 304 0
528 306 0
529 308 0
530 310 0
531 312 0
532 314 0
533 302 0
534 304 0
535 306 0
536 308 0
537 310 0
538 312 0
539 314 0
540 302 0
541 304 0
542 306 0
543 308 0
544 310 0
545 312 0
546 314 0
547 302 0
548 304 0
549 306 0
550 308 0
551 310 0
552 312 0
553 314 0
505 302 0
506 302 0
507 302 0
508 302 0
509 302 0
510 302 0
511 302 0
512 304 0
513 304 0
514 304 0
515 304 0
516 304 0
517 304 0
518 304 0
519 306 0
520 306 0
521 306 0
522 306 0
523 306 0
524 306 0
525 306 0
526 308 0
527 308 0
528 308 0
529 308 0
530 308 0
531 308 0
532 308 0
533 310 0
534 310 0
535 310 0
536 310 0
537 310 0
538 310 0
539 310 0
540 312 0
541 312 0
542 312 0
543 312 0
544 312 0
545 312 0
546 312 0
547 314 0
548 314 0
549 314 0
550 314 0
551 314 0
552 314 0
553 314 0
-3 -205 -359 -456 -505 554 0
-6 -207 -361 -457 -506 555 0
-9 -209 -363 -458 -507 556 0
-12 -211 -365 -459 -508 557 0
-15 -213 -367 -460 -509 558 0
-18 -215 -369 -461 -510 559 0
-21 -217 -371 -462 -511 560 0
-23 -219 -373 -463 -512 561 0
-25 -221 -375 -464 -513 562 0
-27 -223 -377 -465 -514 563 0
-29 -225 -379 -466 -515 564 0
-31 -227 -381 -467 -516 565 0
-33 -229 -383 -468 -517 566 0
-35 -231 -385 -469 -518 567 0
-37 -233 -387 -470 -519 568 0
-39 -235 -389 -471 -520 569 0
-41 -237 -391 -472 -521 570 0
-43 -239 -393 -473 -522 571 0
-45 -241 -395 -474 -523 572 0
-47 -243 -397 -475 -524 573 0
-49 -245 -399 -476 -525 574 0
-51 -247 -401 -477 -526 575 0
-53 -249 -403 -478 -527 576 0
-55 -251 -405 -479 -528 577 0
-57 -253 -407 -480 -529 578 0
-59 -255 -409 -481 -530 579 0
-61 -257 -411 -482 -531 580 0
-63 -259 -413 -483 -532 581 0
-65 -261 -415 -484 -533 582 0
-67 -263 -417 -485 -534 583 0
-69 -265 -419 -486 -535 584 0
-71 -267 -421 -487 -536 585 0
-73 -269 -423 -488 -537 586 0
-75 -271 -425 -489 -538 587 0
-77 -273 -427 -490 -539 588 0
-79 -275 -429 -491 -540 589 0
-81 -277 -431 -492 -541 590 0
-83 -279 -433 -493 -542 591 0
-85 -281 -435 -494 -543 592 0
-87 -283 -437 -495 -544 593 0
-89 -285 -439 -496 -545 594 0
-91 -287 -441 -497 -546 595 0
-93 -289 -443 -498 -547 596 0
-95 -291 -445 -499 -548 597 0
-97 -293 -447 -500 -549 598 0
-99 -295 -449 -501 -550 599 0
-101 -297 -451 -502 -551 600 0
-103 -299 -453 -503 -552 601 0
-105 -301 -455 -504 -553 602 0
-554 3 0
-555 6 0
-556 9 0
-557 12 0
-558 15 0
-559 18 0
-560 21 0
-561 23 0
-562 25 0
-563 27 0
-564 29 0
-565 31 0
-566 33 0
-567 35 0
-568 37 0
-569 39 0
-570 41 0
-571 43 0
-572 45 0
-573 47 0
-574 49 0
-575 51 0
-576 53 0
-577 55 0
-578 57 0
-579 59 0
-580 61 0
-581 63 0
-582 65 0
-583 67 0
-584 69 0
-585 71 0
-586 73 0
-587 75 0
-588 77 0
-589 79 0
-590 81 0
-591 83 0
-592 85 0
-593 87 0
-594 89 0
-595 91 0
-596 93 0
-597 95 0
-598 97 0
-599 99 0
-600 101 0
-601 103 0
-602 105 0
-554 205 0
-555 207 0
-556 209 0
-557 211 0
-558 213 0
-559 215 0
-560 217 0
-561 219 0
-562 221 0
-563 223 0
-564 225 0
-565 227 0
-566 229 0
-567 231 0
-568 233 0
-569 235 0
-570 237 0
-571 239 0
-572 241 0
-573 243 0
-574 245 0
-575 247 0
-576 249 0
-577 251 0
-578 253 0
-579 255 0
-580 257 0
-581 259 0
-582 261 0
-583 263 0
-584 265 0
-585 267 0
-586 269 0
-587 271 0
-588 273 0
-589 275 0
-590 277 0
-591 279 0
-592 281 0
-593 283 0
-594 285 0
-595 287 0
-596 289 0
-597 291 0
-598 293 0
-599 295 0
-600 297 0
-601 299 0
-602 301 0
-554 359 0
-555 361 0
-556 363 0
-557 365 0
-558 367 0
-559 369 0
-560 371 0
-561 373 0
-562 375 0
-563 377 0
-564 379 0
-565 381 0
-566 383 0
-567 385 0
-568 387 0
-569 389 0
-570 391 0
-571 393 0
-572 395 0
-573 397 0
-574 399 0
-575 401 0
-576 403 0
-577 405 0
-578 407 0
-579 409 0
-580 411 0
-581 413 0
-582 415 0
-583 417 0
-584 419 0
-585 421 0
-586 423 0
-587 425 0
-588 427 0
-589 429 0
-590 431 0
-591 433 0
-592 435 0
-593 437 0
-594 439 0
-595 441 0
-596 443 0
-597 445 0
-598 447 0
-599 449 0
-600 451 0
-601 453 0
-602 455 0
-554 456 0
-555 457 0
-556 458 0
-557 459 0
-558 460 0
-559 461 0
-560 462 0
-561 463 0
-562 464 0
-563 465 0
-564 466 0
-565 467 0
-566 468 0
-567 469 0
-568 470 0
-569 471 0
-570 472 0
-571 473 0
-572 474 0
-573 475 0
-574 476 0
-575 477 0
-576 478 0
-577 479 0
-578 480 0
-579 481 0
-580 482 0
-581 483 0
-582 484 0
-583 485 0
-584 486 0
-585 487 0
-586 488 0
-587 489 0
-588 490 0
-589 491 0
-590 492 0
-591 493 0
-592 494 0
-593 495 0
-594 496 0
-595 497 0
-596 498 0
-597 499 0
-598 500 0
-599 501 0
-600 502 0
-601 503 0
-602 504 0
-554 505 0
-555 506 0
-556 507 0
-557 508 0
-558 509 0
-559 510 0
-560 511 0
-561 512 0
-562 513 0
-563 514 0
-564 515 0
-565 516 0
-566 517 0
-567 518 0
-568 519 0
-569 520 0
-570 521 0
-571 522 0
-572 523 0
-573 524 0
-574 525 0
-575 526 0
-576 527 0
-577 528 0
-578 529 0
-579 530 0
-580 531 0
-581 532 0
-582 533 0
-583 534 0
-584 535 0
-585 536 0
-586 537 0
-587 538 0
-588 539 0
-589 540 0
-590 541 0
-591 542 0
-592 543 0
-593 544 0
-594 545 0
-595 546 0
-596 547 0
-597 548 0
-598 549 0
-599 550 0
-600 551 0
-601 552 0
-602 553 0
554 0
555 0
556 0
557 0
558 0
559 0
560 0
561 0
562 0
563 0
564 0
565 0
566 0
567 0
568 0
569 0
570 0
571 0
572 0
573 0
574 0
575 0
576 0
577 0
578 0
579 0
580 0
581 0
582 0
583 0
584 0
585 0
586 0
587 0
588 0
589 0
590 0
591 0
592 0
593 0
594 0
595 0
596 0
597 0
598 0
599 0
600 0
601 0
602 0
-302 0
-306 0
314 0
308 0
312 0
5 0
8 0
14 0
-304 0
2 0
17 0
310 0
20 0
11 0
358 372 386 400 414 428 442 360 374 388 402 416 430 444 362 376 390 404 418 432 446 364 378 392 406 420 434 448 366 380 394 408 422 436 450 368 382 396 410 424 438 452 370 384 398 412 426 440 454 0
1 0
22 4 0
-22 -4 0
-22 -38 36 0
-22 -52 50 0
-22 -66 64 0
-22 -80 78 0
-22 -94 92 0
36 7 0
-36 -7 0
-36 -26 22 0
-36 -54 50 0
-36 -68 64 0
-36 -82 78 0
-36 -96 92 0
50 10 0
-50 -10 0
-50 -28 22 0
-50 -42 36 0
-50 -70 64 0
-50 -84 78 0
-50 -98 92 0
64 13 0
-64 -13 0
-64 -30 22 0
-64 -44 36 0
-64 -58 50 0
-64 -86 78 0
-64 -100 92 0
78 16 0
-78 -16 0
-78 -32 22 0
-78 -46 36 0
-78 -60 50 0
-78 -74 64 0
-78 -102 92 0
92 19 0
-92 -19 0
-92 -34 22 0
-92 -48 36 0
-92 -62 50 0
-92 -76 64 0
-92 -90 78 0
24 0
4 22 0
-4 -22 0
-4 -36 38 0
-4 -50 52 0
-4 -64 66 0
-4 -78 80 0
-4 -92 94 0
38 26 0
-38 -26 0
-38 -7 4 0
-38 -54 52 0
-38 -68 66 0
-38 -82 80 0
-38 -96 94 0
52 28 0
-52 -28 0
-52 -10 4 0
-52 -42 38 0
-52 -70 66 0
-52 -84 80 0
-52 -98 94 0
66 30 0
-66 -30 0
-66 -13 4 0
-66 -44 38 0
-66 -58 52 0
-66 -86 80 0
-66 -100 94 0
80 32 0
-80 -32 0
-80 -16 4 0
-80 -46 38 0
-80 -60 52 0
-80 -74 66 0
-80 -102 94 0
94 34 0
-94 -34 0
-94 -19 4 0
-94 -48 38 0
-94 -62 52 0
-94 -76 66 0
-94 -90 80 0
40 0
7 36 0
-7 -36 0
-7 -22 26 0
-7 -50 54 0
-7 -64 68 0
-7 -78 82 0
-7 -92 96 0
26 38 0
-26 -38 0
-26 -4 7 0
-26 -52 54 0
-26 -66 68 0
-26 -80 82 0
-26 -94 96 0
54 42 0
-54 -42 0
-54 -10 7 0
-54 -28 26 0
-54 -70 68 0
-54 -84 82 0
-54 -98 96 0
68 44 0
-68 -44 0
-68 -13 7 0
-68 -30 26 0
-68 -58 54 0
-68 -86 82 0
-68 -100 96 0
82 46 0
-82 -46 0
-82 -16 7 0
-82 -32 26 0
-82 -60 54 0
-82 -74 68 0
-82 -102 96 0
96 48 0
-96 -48 0
-96 -19 7 0
-96 -34 26 0
-96 -62 54 0
-96 -76 68 0
-96 -90 82 0
56 0
10 50 0
-10 -50 0
-10 -22 28 0
-10 -36 42 0
-10 -64 70 0
-10 -78 84 0
-10 -92 98 0
28 52 0
-28 -52 0
-28 -4 10 0
-28 -38 42 0
-28 -66 70 0
-28 -80 84 0
-28 -94 98 0
42 54 0
-42 -54 0
-42 -7 10 0
-42 -26 28 0
-42 -68 70 0
-42 -82 84 0
-42 -96 98 0
70 58 0
-70 -58 0
-70 -13 10 0
-70 -30 28 0
-70 -44 42 0
-70 -86 84 0
-70 -100 98 0
84 60 0
-84 -60 0
-84 -16 10 0
-84 -32 28 0
-84 -46 42 0
-84 -74 70 0
-84 -102 98 0
98 62 0
-98 -62 0
-98 -19 10 0
-98 -34 28 0
-98 -48 42 0
-98 -76 70 0
-98 -90 84 0
72 0
13 64 0
-13 -64 0
-13 -22 30 0
-13 -36 44 0
-13 -50 58 0
-13 -78 86 0
-13 -92 100 0
30 66 0
-30 -66 0
-30 -4 13 0
-30 -38 44 0
-30 -52 58 0
-30 -80 86 0
-30 -94 100 0
44 68 0
-44 -68 0
-44 -7 13 0
-44 -26 30 0
-44 -54 58 0
-44 -82 86 0
-44 -96 100 0
58 70 0
-58 -70 0
-58 -10 13 0
-58 -28 30 0
-58 -42 44 0
-58 -84 86 0
-58 -98 100 0
86 74 0
-86 -74 0
-86 -16 13 0
-86 -32 30 0
-86 -46 44 0
-86 -60 58 0
-86 -102 100 0
100 76 0
-100 -76 0
-100 -19 13 0
-100 -34 30 0
-100 -48 44 0
-100 -62 58 0
-100 -90 86 0
88 0
16 78 0
-16 -78 0
-16 -22 32 0
-16 -36 46 0
-16 -50 60 0
-16 -64 74 0
-16 -92 102 0
32 80 0
-32 -80 0
-32 -4 16 0
-32 -38 46 0
-32 -52 60 0
-32 -66 74 0
-32 -94 102 0
46 82 0
-46 -82 0
-46 -7 16 0
-46 -26 32 0
-46 -54 60 0
-46 -68 74 0
-46 -96 102 0
60 84 0
-60 -84 0
-60 -10 16 0
-60 -28 32 0
-60 -42 46 0
-60 -70 74 0
-60 -98 102 0
74 86 0
-74 -86 0
-74 -13 16 0
-74 -30 32 0
-74 -44 46 0
-74 -58 60 0
-74 -100 102 0
102 90 0
-102 -90 0
-102 -19 16 0
-102 -34 32 0
-102 -48 46 0
-102 -62 60 0
-102 -76 74 0
104 0
19 92 0
-19 -92 0
-19 -22 34 0
-19 -36 48 0
-19 -50 62 0
-19 -64 76 0
-19 -78 90 0
34 94 0
-34 -94 0
-34 -4 19 0
-34 -38 48 0
-34 -52 62 0
-34 -66 76 0
-34 -80 90 0
48 96 0
-48 -96 0
-48 -7 19 0
-48 -26 34 0
-48 -54 62 0
-48 -68 76 0
-48 -82 90 0
62 98 0
-62 -98 0
-62 -10 19 0
-62 -28 34 0
-62 -42 48 0
-62 -70 76 0
-62 -84 90 0
76 100 0
-76 -100 0
-76 -13 19 0
-76 -30 34 0
-76 -44 48 0
-76 -58 62 0
-76 -86 90 0
90 102 0
-90 -102 0
-90 -16 19 0
-90 -32 34 0
-90 -46 48 0
-90 -60 62 0
-90 -74 76 0
-106 0
-120 22 0
-603 36 0
-603 26 0
-36 -26 603 0
-604 50 0
-604 28 0
-50 -28 604 0
-605 64 0
-605 30 0
-64 -30 605 0
-606 78 0
-606 32 0
-78 -32 606 0
-607 92 0
-607 34 0
-92 -34 607 0
-120 -603 0
-120 -604 0
-120 -605 0
-120 -606 0
-120 -607 0
-22 120 603 604 605 606 607 0
-134 36 0
-608 22 0
-608 38 0
-22 -38 608 0
-609 50 0
-609 42 0
-50 -42 609 0
-610 64 0
-610 44 0
-64 -44 610 0
-611 78 0
-611 46 0
-78 -46 611 0
-612 92 0
-612 48 0
-92 -48 612 0
-134 -608 0
-134 -609 0
-134 -610 0
-134 -611 0
-134 -612 0
-36 134 608 609 610 611 612 0
-148 50 0
-613 22 0
-613 52 0
-22 -52 613 0
-614 36 0
-614 54 0
-36 -54 614 0
-615 64 0
-615 58 0
-64 -58 615 0
-616 78 0
-616 60 0
-78 -60 616 0
-617 92 0
-617 62 0
-92 -62 617 0
-148 -613 0
-148 -614 0
-148 -615 0
-148 -616 0
-148 -617 0
-50 148 613 614 615 616 617 0
-162 64 0
-618 22 0
-618 66 0
-22 -66 618 0
-619 36 0
-619 68 0
-36 -68 619 0
-620 50 0
-620 70 0
-50 -70 620 0
-621 78 0
-621 74 0
-78 -74 621 0
-622 92 0
-622 76 0
-92 -76 622 0
-162 -618 0
-162 -619 0
-162 -620 0
-162 -621 0
-162 -622 0
-64 162 618 619 620 621 622 0
-176 78 0
-623 22 0
-623 80 0
-22 -80 623 0
-624 36 0
-624 82 0
-36 -82 624 0
-625 50 0
-625 84 0
-50 -84 625 0
-626 64 0
-626 86 0
-64 -86 626 0
-627 92 0
-627 90 0
-92 -90 627 0
-176 -623 0
-176 -624 0
-176 -625 0
-176 -626 0
-176 -627 0
-78 176 623 624 625 626 627 0
-190 92 0
-628 22 0
-628 94 0
-22 -94 628 0
-629 36 0
-629 96 0
-36 -96 629 0
-630 50 0
-630 98 0
-50 -98 630 0
-631 64 0
-631 100 0
-64 -100 631 0
-632 78 0
-632 102 0
-78 -102 632 0
-190 -628 0
-190 -629 0
-190 -630 0
-190 -631 0
-190 -632 0
-92 190 628 629 630 631 632 0
-108 4 0
-633 38 0
-633 7 0
-38 -7 633 0
-634 52 0
-634 10 0
-52 -10 634 0
-635 66 0
-635 13 0
-66 -13 635 0
-636 80 0
-636 16 0
-80 -16 636 0
-637 94 0
-637 19 0
-94 -19 637 0
-108 -633 0
-108 -634 0
-108 -635 0
-108 -636 0
-108 -637 0
-4 108 633 634 635 636 637 0
-122 0
-136 38 0
-638 4 0
-638 36 0
-4 -36 638 0
-639 52 0
-639 42 0
-52 -42 639 0
-640 66 0
-640 44 0
-66 -44 640 0
-641 80 0
-641 46 0
-80 -46 641 0
-642 94 0
-642 48 0
-94 -48 642 0
-136 -638 0
-136 -639 0
-136 -640 0
-136 -641 0
-136 -642 0
-38 136 638 639 640 641 642 0
-150 52 0
-643 4 0
-643 50 0
-4 -50 643 0
-644 38 0
-644 54 0
-38 -54 644 0
-645 66 0
-645 58 0
-66 -58 645 0
-646 80 0
-646 60 0
-80 -60 646 0
-647 94 0
-647 62 0
-94 -62 647 0
-150 -643 0
-150 -644 0
-150 -645 0
-150 -646 0
-150 -647 0
-52 150 643 644 645 646 647 0
-164 66 0
-648 4 0
-648 64 0
-4 -64 648 0
-649 38 0
-649 68 0
-38 -68 649 0
-650 52 0
-650 70 0
-52 -70 650 0
-651 80 0
-651 74 0
-80 -74 651 0
-652 94 0
-652 76 0
-94 -76 652 0
-164 -648 0
-164 -649 0
-164 -650 0
-164 -651 0
-164 -652 0
-66 164 648 649 650 651 652 0
-178 80 0
-653 4 0
-653 78 0
-4 -78 653 0
-654 38 0
-654 82 0
-38 -82 654 0
-655 52 0
-655 84 0
-52 -84 655 0
-656 66 0
-656 86 0
-66 -86 656 0
-657 94 0
-657 90 0
-94 -90 657 0
-178 -653 0
-178 -654 0
-178 -655 0
-178 -656 0
-178 -657 0
-80 178 653 654 655 656 657 0
-192 94 0
-658 4 0
-658 92 0
-4 -92 658 0
-659 38 0
-659 96 0
-38 -96 659 0
-660 52 0
-660 98 0
-52 -98 660 0
-661 66 0
-661 100 0
-66 -100 661 0
-662 80 0
-662 102 0
-80 -102 662 0
-192 -658 0
-192 -659 0
-192 -660 0
-192 -661 0
-192 -662 0
-94 192 658 659 660 661 662 0
-110 7 0
-663 26 0
-663 4 0
-26 -4 663 0
-664 54 0
-664 10 0
-54 -10 664 0
-665 68 0
-665 13 0
-68 -13 665 0
-666 82 0
-666 16 0
-82 -16 666 0
-667 96 0
-667 19 0
-96 -19 667 0
-110 -663 0
-110 -664 0
-110 -665 0
-110 -666 0
-110 -667 0
-7 110 663 664 665 666 667 0
-124 26 0
-668 7 0
-668 22 0
-7 -22 668 0
-669 54 0
-669 28 0
-54 -28 669 0
-670 68 0
-670 30 0
-68 -30 670 0
-671 82 0
-671 32 0
-82 -32 671 0
-672 96 0
-672 34 0
-96 -34 672 0
-124 -668 0
-124 -669 0
-124 -670 0
-124 -671 0
-124 -672 0
-26 124 668 669 670 671 672 0
-138 0
-152 54 0
-673 7 0
-673 50 0
-7 -50 673 0
-674 26 0
-674 52 0
-26 -52 674 0
-675 68 0
-675 58 0
-68 -58 675 0
-676 82 0
-676 60 0
-82 -60 676 0
-677 96 0
-677 62 0
-96 -62 677 0
-152 -673 0
-152 -674 0
-152 -675 0
-152 -676 0
-152 -677 0
-54 152 673 674 675 676 677 0
-166 68 0
-678 7 0
-678 64 0
-7 -64 678 0
-679 26 0
-679 66 0
-26 -66 679 0
-680 54 0
-680 70 0
-54 -70 680 0
-681 82 0
-681 74 0
-82 -74 681 0
-682 96 0
-682 76 0
-96 -76 682 0
-166 -678 0
-166 -679 0
-166 -680 0
-166 -681 0
-166 -682 0
-68 166 678 679 680 681 682 0
-180 82 0
-683 7 0
-683 78 0
-7 -78 683 0
-684 26 0
-684 80 0
-26 -80 684 0
-685 54 0
-685 84 0
-54 -84 685 0
-686 68 0
-686 86 0
-68 -86 686 0
-687 96 0
-687 90 0
-96 -90 687 0
-180 -683 0
-180 -684 0
-180 -685 0
-180 -686 0
-180 -687 0
-82 180 683 684 685 686 687 0
-194 96 0
-688 7 0
-688 92 0
-7 -92 688 0
-689 26 0
-689 94 0
-26 -94 689 0
-690 54 0
-690 98 0
-54 -98 690 0
-691 68 0
-691 100 0
-68 -100 691 0
-692 82 0
-692 102 0
-82 -102 692 0
-194 -688 0
-194 -689 0
-194 -690 0
-194 -691 0
-194 -692 0
-96 194 688 689 690 691 692 0
-112 10 0
-693 28 0
-693 4 0
-28 -4 693 0
-694 42 0
-694 7 0
-42 -7 694 0
-695 70 0
-695 13 0
-70 -13 695 0
-696 84 0
-696 16 0
-84 -16 696 0
-697 98 0
-697 19 0
-98 -19 697 0
-112 -693 0
-112 -694 0
-112 -695 0
-112 -696 0
-112 -697 0
-10 112 693 694 695 696 697 0
-126 28 0
-698 10 0
-698 22 0
-10 -22 698 0
-699 42 0
-699 26 0
-42 -26 699 0
-700 70 0
-700 30 0
-70 -30 700 0
-701 84 0
-701 32 0
-84 -32 701 0
-702 98 0
-702 34 0
-98 -34 702 0
-126 -698 0
-126 -699 0
-126 -700 0
-126 -701 0
-126 -702 0
-28 126 698 699 700 701 702 0
-140 42 0
-703 10 0
-703 36 0
-10 -36 703 0
-704 28 0
-704 38 0
-28 -38 704 0
-705 70 0
-705 44 0
-70 -44 705 0
-706 84 0
-706 46 0
-84 -46 706 0
-707 98 0
-707 48 0
-98 -48 707 0
-140 -703 0
-140 -704 0
-140 -705 0
-140 -706 0
-140 -707 0
-42 140 703 704 705 706 707 0
-154 0
-168 70 0
-708 10 0
-708 64 0
-10 -64 708 0
-709 28 0
-709 66 0
-28 -66 709 0
-710 42 0
-710 68 0
-42 -68 710 0
-711 84 0
-711 74 0
-84 -74 711 0
-712 98 0
-712 76 0
-98 -76 712 0
-168 -708 0
-168 -709 0
-168 -710 0
-168 -711 0
-168 -712 0
-70 168 708 709 710 711 712 0
-182 84 0
-713 10 0
-713 78 0
-10 -78 713 0
-714 28 0
-714 80 0
-28 -80 714 0
-715 42 0
-715 82 0
-42 -82 715 0
-716 70 0
-716 86 0
-70 -86 716 0
-717 98 0
-717 90 0
-98 -90 717 0
-182 -713 0
-182 -714 0
-182 -715 0
-182 -716 0
-182 -717 0
-84 182 713 714 715 716 717 0
-196 98 0
-718 10 0
-718 92 0
-10 -92 718 0
-719 28 0
-719 94 0
-28 -94 719 0
-720 42 0
-720 96 0
-42 -96 720 0
-721 70 0
-721 100 0
-70 -100 721 0
-722 84 0
-722 102 0
-84 -102 722 0
-196 -718 0
-196 -719 0
-196 -720 0
-196 -721 0
-196 -722 0
-98 196 718 719 720 721 722 0
-114 13 0
-723 30 0
-723 4 0
-30 -4 723 0
-724 44 0
-724 7 0
-44 -7 724 0
-725 58 0
-725 10 0
-58 -10 725 0
-726 86 0
-726 16 0
-86 -16 726 0
-727 100 0
-727 19 0
-100 -19 727 0
-114 -723 0
-114 -724 0
-114 -725 0
-114 -726 0
-114 -727 0
-13 114 723 724 725 726 727 0
-128 30 0
-728 13 0
-728 22 0
-13 -22 728 0
-729 44 0
-729 26 0
-44 -26 729 0
-730 58 0
-730 28 0
-58 -28 730 0
-731 86 0
-731 32 0
-86 -32 731 0
-732 100 0
-732 34 0
-100 -34 732 0
-128 -728 0
-128 -729 0
-128 -730 0
-128 -731 0
-128 -732 0
-30 128 728 729 730 731 732 0
-142 44 0
-733 13 0
-733 36 0
-13 -36 733 0
-734 30 0
-734 38 0
-30 -38 734 0
-735 58 0
-735 42 0
-58 -42 735 0
-736 86 0
-736 46 0
-86 -46 736 0
-737 100 0
-737 48 0
-100 -48 737 0
-142 -733 0
-142 -734 0
-142 -735 0
-142 -736 0
-142 -737 0
-44 142 733 734 735 736 737 0
-156 58 0
-738 13 0
-738 50 0
-13 -50 738 0
-739 30 0
-739 52 0
-30 -52 739 0
-740 44 0
-740 54 0
-44 -54 740 0
-741 86 0
-741 60 0
-86 -60 741 0
-742 100 0
-742 62 0
-100 -62 742 0
-156 -738 0
-156 -739 0
-156 -740 0
-156 -741 0
-156 -742 0
-58 156 738 739 740 741 742 0
-170 0
-184 86 0
-743 13 0
-743 78 0
-13 -78 743 0
-744 30 0
-744 80 0
-30 -80 744 0
-745 44 0
-745 82 0
-44 -82 745 0
-746 58 0
-746 84 0
-58 -84 746 0
-747 100 0
-747 90 0
-100 -90 747 0
-184 -743 0
-184 -744 0
-184 -745 0
-184 -746 0
-184 -747 0
-86 184 743 744 745 746 747 0
-198 100 0
-748 13 0
-748 92 0
-13 -92 748 0
-749 30 0
-749 94 0
-30 -94 749 0
-750 44 0
-750 96 0
-44 -96 750 0
-751 58 0
-751 98 0
-58 -98 751 0
-752 86 0
-752 102 0
-86 -102 752 0
-198 -748 0
-198 -749 0
-198 -750 0
-198 -751 0
-198 -752 0
-100 198 748 749 750 751 752 0
-116 16 0
-753 32 0
-753 4 0
-32 -4 753 0
-754 46 0
-754 7 0
-46 -7 754 0
-755 60 0
-755 10 0
-60 -10 755 0
-756 74 0
-756 13 0
-74 -13 756 0
-757 102 0
-757 19 0
-102 -19 757 0
-116 -753 0
-116 -754 0
-116 -755 0
-116 -756 0
-116 -757 0
-16 116 753 754 755 756 757 0
-130 32 0
-758 16 0
-758 22 0
-16 -22 758 0
-759 46 0
-759 26 0
-46 -26 759 0
-760 60 0
-760 28 0
-60 -28 760 0
-761 74 0
-761 30 0
-74 -30 761 0
-762 102 0
-762 34 0
-102 -34 762 0
-130 -758 0
-130 -759 0
-130 -760 0
-130 -761 0
-130 -762 0
-32 130 758 759 760 761 762 0
-144 46 0
-763 16 0
-763 36 0
-16 -36 763 0
-764 32 0
-764 38 0
-32 -38 764 0
-765 60 0
-765 42 0
-60 -42 765 0
-766 74 0
-766 44 0
-74 -44 766 0
-767 102 0
-767 48 0
-102 -48 767 0
-144 -763 0
-144 -764 0
-144 -765 0
-144 -766 0
-144 -767 0
-46 144 763 764 765 766 767 0
-158 60 0
-768 16 0
-768 50 0
-16 -50 768 0
-769 32 0
-769 52 0
-32 -52 769 0
-770 46 0
-770 54 0
-46 -54 770 0
-771 74 0
-771 58 0
-74 -58 771 0
-772 102 0
-772 62 0
-102 -62 772 0
-158 -768 0
-158 -769 0
-158 -770 0
-158 -771 0
-158 -772 0
-60 158 768 769 770 771 772 0
-172 74 0
-773 16 0
-773 64 0
-16 -64 773 0
-774 32 0
-774 66 0
-32 -66 774 0
-775 46 0
-775 68 0
-46 -68 775 0
-776 60 0
-776 70 0
-60 -70 776 0
-777 102 0
-777 76 0
-102 -76 777 0
-172 -773 0
-172 -774 0
-172 -775 0
-172 -776 0
-172 -777 0
-74 172 773 774 775 776 777 0
-186 0
-200 102 0
-778 16 0
-778 92 0
-16 -92 778 0
-779 32 0
-779 94 0
-32 -94 779 0
-780 46 0
-780 96 0
-46 -96 780 0
-781 60 0
-781 98 0
-60 -98 781 0
-782 74 0
-782 100 0
-74 -100 782 0
-200 -778 0
-200 -779 0
-200 -780 0
-200 -781 0
-200 -782 0
-102 200 778 779 780 781 782 0
-118 19 0
-783 34 0
-783 4 0
-34 -4 783 0
-784 48 0
-784 7 0
-48 -7 784 0
-785 62 0
-785 10 0
-62 -10 785 0
-786 76 0
-786 13 0
-76 -13 786 0
-787 90 0
-787 16 0
-90 -16 787 0
-118 -783 0
-118 -784 0
-118 -785 0
-118 -786 0
-118 -787 0
-19 118 783 784 785 786 787 0
-132 34 0
-788 19 0
-788 22 0
-19 -22 788 0
-789 48 0
-789 26 0
-48 -26 789 0
-790 62 0
-790 28 0
-62 -28 790 0
-791 76 0
-791 30 0
-76 -30 791 0
-792 90 0
-792 32 0
-90 -32 792 0
-132 -788 0
-132 -789 0
-132 -790 0
-132 -791 0
-132 -792 0
-34 132 788 789 790 791 792 0
-146 48 0
-793 19 0
-793 36 0
-19 -36 793 0
-794 34 0
-794 38 0
-34 -38 794 0
-795 62 0
-795 42 0
-62 -42 795 0
-796 76 0
-796 44 0
-76 -44 796 0
-797 90 0
-797 46 0
-90 -46 797 0
-146 -793 0
-146 -794 0
-146 -795 0
-146 -796 0
-146 -797 0
-48 146 793 794 795 796 797 0
-160 62 0
-798 19 0
-798 50 0
-19 -50 798 0
-799 34 0
-799 52 0
-34 -52 799 0
-800 48 0
-800 54 0
-48 -54 800 0
-801 76 0
-801 58 0
-76 -58 801 0
-802 90 0
-802 60 0
-90 -60 802 0
-160 -798 0
-160 -799 0
-160 -800 0
-160 -801 0
-160 -802 0
-62 160 798 799 800 801 802 0
-174 76 0
-803 19 0
-803 64 0
-19 -64 803 0
-804 34 0
-804 66 0
-34 -66 804 0
-805 48 0
-805 68 0
-48 -68 805 0
-806 62 0
-806 70 0
-62 -70 806 0
-807 90 0
-807 74 0
-90 -74 807 0
-174 -803 0
-174 -804 0
-174 -805 0
-174 -806 0
-174 -807 0
-76 174 803 804 805 806 807 0
-188 90 0
-808 19 0
-808 78 0
-19 -78 808 0
-809 34 0
-809 80 0
-34 -80 809 0
-810 48 0
-810 82 0
-48 -82 810 0
-811 62 0
-811 84 0
-62 -84 811 0
-812 76 0
-812 86 0
-76 -86 812 0
-188 -808 0
-188 -809 0
-188 -810 0
-188 -811 0
-188 -812 0
-90 188 808 809 810 811 812 0
-202 0
