p cnf 1344 5104
1 2 -2 -3 0
4 2 -5 -6 0
7 2 -8 -9 0
10 2 -11 -12 0
13 2 -14 -15 0
16 2 -17 -18 0
19 2 -20 -21 0
22 2 -23 -24 0
25 5 -2 -26 0
27 5 -5 -28 0
29 5 -8 -30 0
31 5 -11 -32 0
33 5 -14 -34 0
35 5 -17 -36 0
37 5 -20 -38 0
39 5 -23 -40 0
41 8 -2 -42 0
43 8 -5 -44 0
45 8 -8 -46 0
47 8 -11 -48 0
49 8 -14 -50 0
51 8 -17 -52 0
53 8 -20 -54 0
55 8 -23 -56 0
57 11 -2 -58 0
59 11 -5 -60 0
61 11 -8 -62 0
63 11 -11 -64 0
65 11 -14 -66 0
67 11 -17 -68 0
69 11 -20 -70 0
71 11 -23 -72 0
73 14 -2 -74 0
75 14 -5 -76 0
77 14 -8 -78 0
79 14 -11 -80 0
81 14 -14 -82 0
83 14 -17 -84 0
85 14 -20 -86 0
87 14 -23 -88 0
89 17 -2 -90 0
91 17 -5 -92 0
93 17 -8 -94 0
95 17 -11 -96 0
97 17 -14 -98 0
99 17 -17 -100 0
101 17 -20 -102 0
103 17 -23 -104 0
105 20 -2 -106 0
107 20 -5 -108 0
109 20 -8 -110 0
111 20 -11 -112 0
113 20 -14 -114 0
115 20 -17 -116 0
117 20 -20 -118 0
119 20 -23 -120 0
121 23 -2 -122 0
123 23 -5 -124 0
125 23 -8 -126 0
127 23 -11 -128 0
129 23 -14 -130 0
131 23 -17 -132 0
133 23 -20 -134 0
135 23 -23 -136 0
3 -1 0
6 -4 0
9 -7 0
12 -10 0
15 -13 0
18 -16 0
21 -19 0
24 -22 0
26 -25 0
28 -27 0
30 -29 0
32 -31 0
34 -33 0
36 -35 0
38 -37 0
40 -39 0
42 -41 0
44 -43 0
46 -45 0
48 -47 0
50 -49 0
52 -51 0
54 -53 0
56 -55 0
58 -57 0
60 -59 0
62 -61 0
64 -63 0
66 -65 0
68 -67 0
70 -69 0
72 -71 0
74 -73 0
76 -75 0
78 -77 0
80 -79 0
82 -81 0
84 -83 0
86 -85 0
88 -87 0
90 -89 0
92 -91 0
94 -93 0
96 -95 0
98 -97 0
100 -99 0
102 -101 0
104 -103 0
106 -105 0
108 -107 0
110 -109 0
112 -111 0
114 -113 0
116 -115 0
118 -117 0
120 -119 0
122 -121 0
124 -123 0
126 -125 0
128 -127 0
130 -129 0
132 -131 0
134 -133 0
136 -135 0
3 -2 0
6 -2 0
9 -2 0
12 -2 0
15 -2 0
18 -2 0
21 -2 0
24 -2 0
26 -5 0
28 -5 0
30 -5 0
32 -5 0
34 -5 0
36 -5 0
38 -5 0
40 -5 0
42 -8 0
44 -8 0
46 -8 0
48 -8 0
50 -8 0
52 -8 0
54 -8 0
56 -8 0
58 -11 0
60 -11 0
62 -11 0
64 -11 0
66 -11 0
68 -11 0
70 -11 0
72 -11 0
74 -14 0
76 -14 0
78 -14 0
80 -14 0
82 -14 0
84 -14 0
86 -14 0
88 -14 0
90 -17 0
92 -17 0
94 -17 0
96 -17 0
98 -17 0
100 -17 0
102 -17 0
104 -17 0
106 -20 0
108 -20 0
110 -20 0
112 -20 0
114 -20 0
116 -20 0
118 -20 0
120 -20 0
122 -23 0
124 -23 0
126 -23 0
128 -23 0
130 -23 0
132 -23 0
134 -23 0
136 -23 0
3 2 0
6 5 0
9 8 0
12 11 0
15 14 0
18 17 0
21 20 0
24 23 0
26 2 0
28 5 0
30 8 0
32 11 0
34 14 0
36 17 0
38 20 0
40 23 0
42 2 0
44 5 0
46 8 0
48 11 0
50 14 0
52 17 0
54 20 0
56 23 0
58 2 0
60 5 0
62 8 0
64 11 0
66 14 0
68 17 0
70 20 0
72 23 0
74 2 0
76 5 0
78 8 0
80 11 0
82 14 0
84 17 0
86 20 0
88 23 0
90 2 0
92 5 0
94 8 0
96 11 0
98 14 0
100 17 0
102 20 0
104 23 0
106 2 0
108 5 0
110 8 0
112 11 0
114 14 0
116 17 0
118 20 0
120 23 0
122 2 0
124 5 0
126 8 0
128 11 0
130 14 0
132 17 0
134 20 0
136 23 0
137 137 -138 -139 0
140 141 -142 -143 0
144 145 -146 -147 0
148 149 -150 -151 0
152 153 -154 -155 0
156 157 -158 -159 0
160 161 -162 -163 0
164 165 -166 -167 0
141 140 -168 -169 0
170 170 -171 -172 0
173 174 -175 -176 0
177 178 -179 -180 0
181 182 -183 -184 0
185 186 -187 -188 0
189 190 -191 -192 0
193 194 -195 -196 0
145 144 -197 -198 0
174 173 -199 -200 0
201 201 -202 -203 0
204 205 -206 -207 0
208 209 -210 -211 0
212 213 -214 -215 0
216 217 -218 -219 0
220 221 -222 -223 0
149 148 -224 -225 0
178 177 -226 -227 0
205 204 -228 -229 0
230 230 -231 -232 0
233 234 -235 -236 0
237 238 -239 -240 0
241 242 -243 -244 0
245 246 -247 -248 0
153 152 -249 -250 0
182 181 -251 -252 0
209 208 -253 -254 0
234 233 -255 -256 0
257 257 -258 -259 0
260 261 -262 -263 0
264 265 -266 -267 0
268 269 -270 -271 0
157 156 -272 -273 0
186 185 -274 -275 0
213 212 -276 -277 0
238 237 -278 -279 0
261 260 -280 -281 0
282 282 -283 -284 0
285 286 -287 -288 0
289 290 -291 -292 0
161 160 -293 -294 0
190 189 -295 -296 0
217 216 -297 -298 0
242 241 -299 -300 0
265 264 -301 -302 0
286 285 -303 -304 0
305 305 -306 -307 0
308 309 -310 -311 0
165 164 -312 -313 0
194 193 -314 -315 0
221 220 -316 -317 0
246 245 -318 -319 0
269 268 -320 -321 0
290 289 -322 -323 0
309 308 -324 -325 0
326 326 -327 -328 0
139 -137 0
143 -140 0
147 -144 0
151 -148 0
155 -152 0
159 -156 0
163 -160 0
167 -164 0
169 -141 0
172 -170 0
176 -173 0
180 -177 0
184 -181 0
188 -185 0
192 -189 0
196 -193 0
198 -145 0
200 -174 0
203 -201 0
207 -204 0
211 -208 0
215 -212 0
219 -216 0
223 -220 0
225 -149 0
227 -178 0
229 -205 0
232 -230 0
236 -233 0
240 -237 0
244 -241 0
248 -245 0
250 -153 0
252 -182 0
254 -209 0
256 -234 0
259 -257 0
263 -260 0
267 -264 0
271 -268 0
273 -157 0
275 -186 0
277 -213 0
279 -238 0
281 -261 0
284 -282 0
288 -285 0
292 -289 0
294 -161 0
296 -190 0
298 -217 0
300 -242 0
302 -265 0
304 -286 0
307 -305 0
311 -308 0
313 -165 0
315 -194 0
317 -221 0
319 -246 0
321 -269 0
323 -290 0
325 -309 0
328 -326 0
139 -137 0
143 -141 0
147 -145 0
151 -149 0
155 -153 0
159 -157 0
163 -161 0
167 -165 0
169 -140 0
172 -170 0
176 -174 0
180 -178 0
184 -182 0
188 -186 0
192 -190 0
196 -194 0
198 -144 0
200 -173 0
203 -201 0
207 -205 0
211 -209 0
215 -213 0
219 -217 0
223 -221 0
225 -148 0
227 -177 0
229 -204 0
232 -230 0
236 -234 0
240 -238 0
244 -242 0
248 -246 0
250 -152 0
252 -181 0
254 -208 0
256 -233 0
259 -257 0
263 -261 0
267 -265 0
271 -269 0
273 -156 0
275 -185 0
277 -212 0
279 -237 0
281 -260 0
284 -282 0
288 -286 0
292 -290 0
294 -160 0
296 -189 0
298 -216 0
300 -241 0
302 -264 0
304 -285 0
307 -305 0
311 -309 0
313 -164 0
315 -193 0
317 -220 0
319 -245 0
321 -268 0
323 -289 0
325 -308 0
328 -326 0
139 138 0
143 142 0
147 146 0
151 150 0
155 154 0
159 158 0
163 162 0
167 166 0
169 168 0
172 171 0
176 175 0
180 179 0
184 183 0
188 187 0
192 191 0
196 195 0
198 197 0
200 199 0
203 202 0
207 206 0
211 210 0
215 214 0
219 218 0
223 222 0
225 224 0
227 226 0
229 228 0
232 231 0
236 235 0
240 239 0
244 243 0
248 247 0
250 249 0
252 251 0
254 253 0
256 255 0
259 258 0
263 262 0
267 266 0
271 270 0
273 272 0
275 274 0
277 276 0
279 278 0
281 280 0
284 283 0
288 287 0
292 291 0
294 293 0
296 295 0
298 297 0
300 299 0
302 301 0
304 303 0
307 306 0
311 310 0
313 312 0
315 314 0
317 316 0
319 318 0
321 320 0
323 322 0
325 324 0
328 327 0
138 -329 -330 -331 0
142 -332 -330 -333 0
146 -334 -330 -335 0
150 -336 -330 -337 0
154 -338 -330 -339 0
158 -340 -330 -341 0
162 -342 -330 -343 0
166 -344 -330 -345 0
168 -329 -346 -347 0
171 -332 -346 -348 0
175 -334 -346 -349 0
179 -336 -346 -350 0
183 -338 -346 -351 0
187 -340 -346 -352 0
191 -342 -346 -353 0
195 -344 -346 -354 0
197 -329 -355 -356 0
199 -332 -355 -357 0
202 -334 -355 -358 0
206 -336 -355 -359 0
210 -338 -355 -360 0
214 -340 -355 -361 0
218 -342 -355 -362 0
222 -344 -355 -363 0
224 -329 -364 -365 0
226 -332 -364 -366 0
228 -334 -364 -367 0
231 -336 -364 -368 0
235 -338 -364 -369 0
239 -340 -364 -370 0
243 -342 -364 -371 0
247 -344 -364 -372 0
249 -329 -373 -374 0
251 -332 -373 -375 0
253 -334 -373 -376 0
255 -336 -373 -377 0
258 -338 -373 -378 0
262 -340 -373 -379 0
266 -342 -373 -380 0
270 -344 -373 -381 0
272 -329 -382 -383 0
274 -332 -382 -384 0
276 -334 -382 -385 0
278 -336 -382 -386 0
280 -338 -382 -387 0
283 -340 -382 -388 0
287 -342 -382 -389 0
291 -344 -382 -390 0
293 -329 -391 -392 0
295 -332 -391 -393 0
297 -334 -391 -394 0
299 -336 -391 -395 0
301 -338 -391 -396 0
303 -340 -391 -397 0
306 -342 -391 -398 0
310 -344 -391 -399 0
312 -329 -400 -401 0
314 -332 -400 -402 0
316 -334 -400 -403 0
318 -336 -400 -404 0
320 -338 -400 -405 0
322 -340 -400 -406 0
324 -342 -400 -407 0
327 -344 -400 -408 0
331 -138 0
333 -142 0
335 -146 0
337 -150 0
339 -154 0
341 -158 0
343 -162 0
345 -166 0
347 -168 0
348 -171 0
349 -175 0
350 -179 0
351 -183 0
352 -187 0
353 -191 0
354 -195 0
356 -197 0
357 -199 0
358 -202 0
359 -206 0
360 -210 0
361 -214 0
362 -218 0
363 -222 0
365 -224 0
366 -226 0
367 -228 0
368 -231 0
369 -235 0
370 -239 0
371 -243 0
372 -247 0
374 -249 0
375 -251 0
376 -253 0
377 -255 0
378 -258 0
379 -262 0
380 -266 0
381 -270 0
383 -272 0
384 -274 0
385 -276 0
386 -278 0
387 -280 0
388 -283 0
389 -287 0
390 -291 0
392 -293 0
393 -295 0
394 -297 0
395 -299 0
396 -301 0
397 -303 0
398 -306 0
399 -310 0
401 -312 0
402 -314 0
403 -316 0
404 -318 0
405 -320 0
406 -322 0
407 -324 0
408 -327 0
331 329 0
333 332 0
335 334 0
337 336 0
339 338 0
341 340 0
343 342 0
345 344 0
347 329 0
348 332 0
349 334 0
350 336 0
351 338 0
352 340 0
353 342 0
354 344 0
356 329 0
357 332 0
358 334 0
359 336 0
360 338 0
361 340 0
362 342 0
363 344 0
365 329 0
366 332 0
367 334 0
368 336 0
369 338 0
370 340 0
371 342 0
372 344 0
374 329 0
375 332 0
376 334 0
377 336 0
378 338 0
379 340 0
380 342 0
381 344 0
383 329 0
384 332 0
385 334 0
386 336 0
387 338 0
388 340 0
389 342 0
390 344 0
392 329 0
393 332 0
394 334 0
395 336 0
396 338 0
397 340 0
398 342 0
399 344 0
401 329 0
402 332 0
403 334 0
404 336 0
405 338 0
406 340 0
407 342 0
408 344 0
331 330 0
333 330 0
335 330 0
337 330 0
339 330 0
341 330 0
343 330 0
345 330 0
347 346 0
348 346 0
349 346 0
350 346 0
351 346 0
352 346 0
353 346 0
354 346 0
356 355 0
357 355 0
358 355 0
359 355 0
360 355 0
361 355 0
362 355 0
363 355 0
365 364 0
366 364 0
367 364 0
368 364 0
369 364 0
370 364 0
371 364 0
372 364 0
374 373 0
375 373 0
376 373 0
377 373 0
378 373 0
379 373 0
380 373 0
381 373 0
383 382 0
384 382 0
385 382 0
386 382 0
387 382 0
388 382 0
389 382 0
390 382 0
392 391 0
393 391 0
394 391 0
395 391 0
396 391 0
397 391 0
398 391 0
399 391 0
401 400 0
402 400 0
403 400 0
404 400 0
405 400 0
406 400 0
407 400 0
408 400 0
138 -329 -409 -410 0
142 -329 -411 -412 0
146 -329 -413 -414 0
150 -329 -415 -416 0
154 -329 -417 -418 0
158 -329 -419 -420 0
162 -329 -421 -422 0
166 -329 -423 -424 0
168 -332 -409 -425 0
171 -332 -411 -426 0
175 -332 -413 -427 0
179 -332 -415 -428 0
183 -332 -417 -429 0
187 -332 -419 -430 0
191 -332 -421 -431 0
195 -332 -423 -432 0
197 -334 -409 -433 0
199 -334 -411 -434 0
202 -334 -413 -435 0
206 -334 -415 -436 0
210 -334 -417 -437 0
214 -334 -419 -438 0
218 -334 -421 -439 0
222 -334 -423 -440 0
224 -336 -409 -441 0
226 -336 -411 -442 0
228 -336 -413 -443 0
231 -336 -415 -444 0
235 -336 -417 -445 0
239 -336 -419 -446 0
243 -336 -421 -447 0
247 -336 -423 -448 0
249 -338 -409 -449 0
251 -338 -411 -450 0
253 -338 -413 -451 0
255 -338 -415 -452 0
258 -338 -417 -453 0
262 -338 -419 -454 0
266 -338 -421 -455 0
270 -338 -423 -456 0
272 -340 -409 -457 0
274 -340 -411 -458 0
276 -340 -413 -459 0
278 -340 -415 -460 0
280 -340 -417 -461 0
283 -340 -419 -462 0
287 -340 -421 -463 0
291 -340 -423 -464 0
293 -342 -409 -465 0
295 -342 -411 -466 0
297 -342 -413 -467 0
299 -342 -415 -468 0
301 -342 -417 -469 0
303 -342 -419 -470 0
306 -342 -421 -471 0
310 -342 -423 -472 0
312 -344 -409 -473 0
314 -344 -411 -474 0
316 -344 -413 -475 0
318 -344 -415 -476 0
320 -344 -417 -477 0
322 -344 -419 -478 0
324 -344 -421 -479 0
327 -344 -423 -480 0
410 -138 0
412 -142 0
414 -146 0
416 -150 0
418 -154 0
420 -158 0
422 -162 0
424 -166 0
425 -168 0
426 -171 0
427 -175 0
428 -179 0
429 -183 0
430 -187 0
431 -191 0
432 -195 0
433 -197 0
434 -199 0
435 -202 0
436 -206 0
437 -210 0
438 -214 0
439 -218 0
440 -222 0
441 -224 0
442 -226 0
443 -228 0
444 -231 0
445 -235 0
446 -239 0
447 -243 0
448 -247 0
449 -249 0
450 -251 0
451 -253 0
452 -255 0
453 -258 0
454 -262 0
455 -266 0
456 -270 0
457 -272 0
458 -274 0
459 -276 0
460 -278 0
461 -280 0
462 -283 0
463 -287 0
464 -291 0
465 -293 0
466 -295 0
467 -297 0
468 -299 0
469 -301 0
470 -303 0
471 -306 0
472 -310 0
473 -312 0
474 -314 0
475 -316 0
476 -318 0
477 -320 0
478 -322 0
479 -324 0
480 -327 0
410 329 0
412 329 0
414 329 0
416 329 0
418 329 0
420 329 0
422 329 0
424 329 0
425 332 0
426 332 0
427 332 0
428 332 0
429 332 0
430 332 0
431 332 0
432 332 0
433 334 0
434 334 0
435 334 0
436 334 0
437 334 0
438 334 0
439 334 0
440 334 0
441 336 0
442 336 0
443 336 0
444 336 0
445 336 0
446 336 0
447 336 0
448 336 0
449 338 0
450 338 0
451 338 0
452 338 0
453 338 0
454 338 0
455 338 0
456 338 0
457 340 0
458 340 0
459 340 0
460 340 0
461 340 0
462 340 0
463 340 0
464 340 0
465 342 0
466 342 0
467 342 0
468 342 0
469 342 0
470 342 0
471 342 0
472 342 0
473 344 0
474 344 0
475 344 0
476 344 0
477 344 0
478 344 0
479 344 0
480 344 0
410 409 0
412 411 0
414 413 0
416 415 0
418 417 0
420 419 0
422 421 0
424 423 0
425 409 0
426 411 0
427 413 0
428 415 0
429 417 0
430 419 0
431 421 0
432 423 0
433 409 0
434 411 0
435 413 0
436 415 0
437 417 0
438 419 0
439 421 0
440 423 0
441 409 0
442 411 0
443 413 0
444 415 0
445 417 0
446 419 0
447 421 0
448 423 0
449 409 0
450 411 0
451 413 0
452 415 0
453 417 0
454 419 0
455 421 0
456 423 0
457 409 0
458 411 0
459 413 0
460 415 0
461 417 0
462 419 0
463 421 0
464 423 0
465 409 0
466 411 0
467 413 0
468 415 0
469 417 0
470 419 0
471 421 0
472 423 0
473 409 0
474 411 0
475 413 0
476 415 0
477 417 0
478 419 0
479 421 0
480 423 0
137 137 481 0
140 141 482 0
144 145 483 0
148 149 484 0
152 153 485 0
156 157 486 0
160 161 487 0
164 165 488 0
141 140 489 0
170 170 490 0
173 174 491 0
177 178 492 0
181 182 493 0
185 186 494 0
189 190 495 0
193 194 496 0
145 144 497 0
174 173 498 0
201 201 499 0
204 205 500 0
208 209 501 0
212 213 502 0
216 217 503 0
220 221 504 0
149 148 505 0
178 177 506 0
205 204 507 0
230 230 508 0
233 234 509 0
237 238 510 0
241 242 511 0
245 246 512 0
153 152 513 0
182 181 514 0
209 208 515 0
234 233 516 0
257 257 517 0
260 261 518 0
264 265 519 0
268 269 520 0
157 156 521 0
186 185 522 0
213 212 523 0
238 237 524 0
261 260 525 0
282 282 526 0
285 286 527 0
289 290 528 0
161 160 529 0
190 189 530 0
217 216 531 0
242 241 532 0
265 264 533 0
286 285 534 0
305 305 535 0
308 309 536 0
165 164 537 0
194 193 538 0
221 220 539 0
246 245 540 0
269 268 541 0
290 289 542 0
309 308 543 0
326 326 544 0
-481 -137 0
-482 -140 0
-483 -144 0
-484 -148 0
-485 -152 0
-486 -156 0
-487 -160 0
-488 -164 0
-489 -141 0
-490 -170 0
-491 -173 0
-492 -177 0
-493 -181 0
-494 -185 0
-495 -189 0
-496 -193 0
-497 -145 0
-498 -174 0
-499 -201 0
-500 -204 0
-501 -208 0
-502 -212 0
-503 -216 0
-504 -220 0
-505 -149 0
-506 -178 0
-507 -205 0
-508 -230 0
-509 -233 0
-510 -237 0
-511 -241 0
-512 -245 0
-513 -153 0
-514 -182 0
-515 -209 0
-516 -234 0
-517 -257 0
-518 -260 0
-519 -264 0
-520 -268 0
-521 -157 0
-522 -186 0
-523 -213 0
-524 -238 0
-525 -261 0
-526 -282 0
-527 -285 0
-528 -289 0
-529 -161 0
-530 -190 0
-531 -217 0
-532 -242 0
-533 -265 0
-534 -286 0
-535 -305 0
-536 -308 0
-537 -165 0
-538 -194 0
-539 -221 0
-540 -246 0
-541 -269 0
-542 -290 0
-543 -309 0
-544 -326 0
-481 -137 0
-482 -141 0
-483 -145 0
-484 -149 0
-485 -153 0
-486 -157 0
-487 -161 0
-488 -165 0
-489 -140 0
-490 -170 0
-491 -174 0
-492 -178 0
-493 -182 0
-494 -186 0
-495 -190 0
-496 -194 0
-497 -144 0
-498 -173 0
-499 -201 0
-500 -205 0
-501 -209 0
-502 -213 0
-503 -217 0
-504 -221 0
-505 -148 0
-506 -177 0
-507 -204 0
-508 -230 0
-509 -234 0
-510 -238 0
-511 -242 0
-512 -246 0
-513 -152 0
-514 -181 0
-515 -208 0
-516 -233 0
-517 -257 0
-518 -261 0
-519 -265 0
-520 -269 0
-521 -156 0
-522 -185 0
-523 -212 0
-524 -237 0
-525 -260 0
-526 -282 0
-527 -286 0
-528 -290 0
-529 -160 0
-530 -189 0
-531 -216 0
-532 -241 0
-533 -264 0
-534 -285 0
-535 -305 0
-536 -309 0
-537 -164 0
-538 -193 0
-539 -220 0
-540 -245 0
-541 -268 0
-542 -289 0
-543 -308 0
-544 -326 0
138 481 -545 0
142 482 -546 0
146 483 -547 0
150 484 -548 0
154 485 -549 0
158 486 -550 0
162 487 -551 0
166 488 -552 0
168 489 -553 0
171 490 -554 0
175 491 -555 0
179 492 -556 0
183 493 -557 0
187 494 -558 0
191 495 -559 0
195 496 -560 0
197 497 -561 0
199 498 -562 0
202 499 -563 0
206 500 -564 0
210 501 -565 0
214 502 -566 0
218 503 -567 0
222 504 -568 0
224 505 -569 0
226 506 -570 0
228 507 -571 0
231 508 -572 0
235 509 -573 0
239 510 -574 0
243 511 -575 0
247 512 -576 0
249 513 -577 0
251 514 -578 0
253 515 -579 0
255 516 -580 0
258 517 -581 0
262 518 -582 0
266 519 -583 0
270 520 -584 0
272 521 -585 0
274 522 -586 0
276 523 -587 0
278 524 -588 0
280 525 -589 0
283 526 -590 0
287 527 -591 0
291 528 -592 0
293 529 -593 0
295 530 -594 0
297 531 -595 0
299 532 -596 0
301 533 -597 0
303 534 -598 0
306 535 -599 0
310 536 -600 0
312 537 -601 0
314 538 -602 0
316 539 -603 0
318 540 -604 0
320 541 -605 0
322 542 -606 0
324 543 -607 0
327 544 -608 0
545 -138 0
546 -142 0
547 -146 0
548 -150 0
549 -154 0
550 -158 0
551 -162 0
552 -166 0
553 -168 0
554 -171 0
555 -175 0
556 -179 0
557 -183 0
558 -187 0
559 -191 0
560 -195 0
561 -197 0
562 -199 0
563 -202 0
564 -206 0
565 -210 0
566 -214 0
567 -218 0
568 -222 0
569 -224 0
570 -226 0
571 -228 0
572 -231 0
573 -235 0
574 -239 0
575 -243 0
576 -247 0
577 -249 0
578 -251 0
579 -253 0
580 -255 0
581 -258 0
582 -262 0
583 -266 0
584 -270 0
585 -272 0
586 -274 0
587 -276 0
588 -278 0
589 -280 0
590 -283 0
591 -287 0
592 -291 0
593 -293 0
594 -295 0
595 -297 0
596 -299 0
597 -301 0
598 -303 0
599 -306 0
600 -310 0
601 -312 0
602 -314 0
603 -316 0
604 -318 0
605 -320 0
606 -322 0
607 -324 0
608 -327 0
545 -481 0
546 -482 0
547 -483 0
548 -484 0
549 -485 0
550 -486 0
551 -487 0
552 -488 0
553 -489 0
554 -490 0
555 -491 0
556 -492 0
557 -493 0
558 -494 0
559 -495 0
560 -496 0
561 -497 0
562 -498 0
563 -499 0
564 -500 0
565 -501 0
566 -502 0
567 -503 0
568 -504 0
569 -505 0
570 -506 0
571 -507 0
572 -508 0
573 -509 0
574 -510 0
575 -511 0
576 -512 0
577 -513 0
578 -514 0
579 -515 0
580 -516 0
581 -517 0
582 -518 0
583 -519 0
584 -520 0
585 -521 0
586 -522 0
587 -523 0
588 -524 0
589 -525 0
590 -526 0
591 -527 0
592 -528 0
593 -529 0
594 -530 0
595 -531 0
596 -532 0
597 -533 0
598 -534 0
599 -535 0
600 -536 0
601 -537 0
602 -538 0
603 -539 0
604 -540 0
605 -541 0
606 -542 0
607 -543 0
608 -544 0
-609 -2 -2 610 0
-611 -5 -2 612 0
-613 -8 -2 614 0
-615 -11 -2 616 0
-617 -14 -2 618 0
-619 -17 -2 620 0
-621 -20 -2 622 0
-623 -23 -2 624 0
-625 -2 -5 626 0
-627 -5 -5 628 0
-629 -8 -5 630 0
-631 -11 -5 632 0
-633 -14 -5 634 0
-635 -17 -5 636 0
-637 -20 -5 638 0
-639 -23 -5 640 0
-641 -2 -8 642 0
-643 -5 -8 644 0
-645 -8 -8 646 0
-647 -11 -8 648 0
-649 -14 -8 650 0
-651 -17 -8 652 0
-653 -20 -8 654 0
-655 -23 -8 656 0
-657 -2 -11 658 0
-659 -5 -11 660 0
-661 -8 -11 662 0
-663 -11 -11 664 0
-665 -14 -11 666 0
-667 -17 -11 668 0
-669 -20 -11 670 0
-671 -23 -11 672 0
-673 -2 -14 674 0
-675 -5 -14 676 0
-677 -8 -14 678 0
-679 -11 -14 680 0
-681 -14 -14 682 0
-683 -17 -14 684 0
-685 -20 -14 686 0
-687 -23 -14 688 0
-689 -2 -17 690 0
-691 -5 -17 692 0
-693 -8 -17 694 0
-695 -11 -17 696 0
-697 -14 -17 698 0
-699 -17 -17 700 0
-701 -20 -17 702 0
-703 -23 -17 704 0
-705 -2 -20 706 0
-707 -5 -20 708 0
-709 -8 -20 710 0
-711 -11 -20 712 0
-713 -14 -20 714 0
-715 -17 -20 716 0
-717 -20 -20 718 0
-719 -23 -20 720 0
-721 -2 -23 722 0
-723 -5 -23 724 0
-725 -8 -23 726 0
-727 -11 -23 728 0
-729 -14 -23 730 0
-731 -17 -23 732 0
-733 -20 -23 734 0
-735 -23 -23 736 0
-610 609 0
-612 611 0
-614 613 0
-616 615 0
-618 617 0
-620 619 0
-622 621 0
-624 623 0
-626 625 0
-628 627 0
-630 629 0
-632 631 0
-634 633 0
-636 635 0
-638 637 0
-640 639 0
-642 641 0
-644 643 0
-646 645 0
-648 647 0
-650 649 0
-652 651 0
-654 653 0
-656 655 0
-658 657 0
-660 659 0
-662 661 0
-664 663 0
-666 665 0
-668 667 0
-670 669 0
-672 671 0
-674 673 0
-676 675 0
-678 677 0
-680 679 0
-682 681 0
-684 683 0
-686 685 0
-688 687 0
-690 689 0
-692 691 0
-694 693 0
-696 695 0
-698 697 0
-700 699 0
-702 701 0
-704 703 0
-706 705 0
-708 707 0
-710 709 0
-712 711 0
-714 713 0
-716 715 0
-718 717 0
-720 719 0
-722 721 0
-724 723 0
-726 725 0
-728 727 0
-730 729 0
-732 731 0
-734 733 0
-736 735 0
-610 2 0
-612 5 0
-614 8 0
-616 11 0
-618 14 0
-620 17 0
-622 20 0
-624 23 0
-626 2 0
-628 5 0
-630 8 0
-632 11 0
-634 14 0
-636 17 0
-638 20 0
-640 23 0
-642 2 0
-644 5 0
-646 8 0
-648 11 0
-650 14 0
-652 17 0
-654 20 0
-656 23 0
-658 2 0
-660 5 0
-662 8 0
-664 11 0
-666 14 0
-668 17 0
-670 20 0
-672 23 0
-674 2 0
-676 5 0
-678 8 0
-680 11 0
-682 14 0
-684 17 0
-686 20 0
-688 23 0
-690 2 0
-692 5 0
-694 8 0
-696 11 0
-698 14 0
-700 17 0
-702 20 0
-704 23 0
-706 2 0
-708 5 0
-710 8 0
-712 11 0
-714 14 0
-716 17 0
-718 20 0
-720 23 0
-722 2 0
-724 5 0
-726 8 0
-728 11 0
-730 14 0
-732 17 0
-734 20 0
-736 23 0
-610 2 0
-612 2 0
-614 2 0
-616 2 0
-618 2 0
-620 2 0
-622 2 0
-624 2 0
-626 5 0
-628 5 0
-630 5 0
-632 5 0
-634 5 0
-636 5 0
-638 5 0
-640 5 0
-642 8 0
-644 8 0
-646 8 0
-648 8 0
-650 8 0
-652 8 0
-654 8 0
-656 8 0
-658 11 0
-660 11 0
-662 11 0
-664 11 0
-666 11 0
-668 11 0
-670 11 0
-672 11 0
-674 14 0
-676 14 0
-678 14 0
-680 14 0
-682 14 0
-684 14 0
-686 14 0
-688 14 0
-690 17 0
-692 17 0
-694 17 0
-696 17 0
-698 17 0
-700 17 0
-702 17 0
-704 17 0
-706 20 0
-708 20 0
-710 20 0
-712 20 0
-714 20 0
-716 20 0
-718 20 0
-720 20 0
-722 23 0
-724 23 0
-726 23 0
-728 23 0
-730 23 0
-732 23 0
-734 23 0
-736 23 0
-137 610 -737 0
-140 612 -738 0
-144 614 -739 0
-148 616 -740 0
-152 618 -741 0
-156 620 -742 0
-160 622 -743 0
-164 624 -744 0
-141 626 -745 0
-170 628 -746 0
-173 630 -747 0
-177 632 -748 0
-181 634 -749 0
-185 636 -750 0
-189 638 -751 0
-193 640 -752 0
-145 642 -753 0
-174 644 -754 0
-201 646 -755 0
-204 648 -756 0
-208 650 -757 0
-212 652 -758 0
-216 654 -759 0
-220 656 -760 0
-149 658 -761 0
-178 660 -762 0
-205 662 -763 0
-230 664 -764 0
-233 666 -765 0
-237 668 -766 0
-241 670 -767 0
-245 672 -768 0
-153 674 -769 0
-182 676 -770 0
-209 678 -771 0
-234 680 -772 0
-257 682 -773 0
-260 684 -774 0
-264 686 -775 0
-268 688 -776 0
-157 690 -777 0
-186 692 -778 0
-213 694 -779 0
-238 696 -780 0
-261 698 -781 0
-282 700 -782 0
-285 702 -783 0
-289 704 -784 0
-161 706 -785 0
-190 708 -786 0
-217 710 -787 0
-242 712 -788 0
-265 714 -789 0
-286 716 -790 0
-305 718 -791 0
-308 720 -792 0
-165 722 -793 0
-194 724 -794 0
-221 726 -795 0
-246 728 -796 0
-269 730 -797 0
-290 732 -798 0
-309 734 -799 0
-326 736 -800 0
737 137 0
738 140 0
739 144 0
740 148 0
741 152 0
742 156 0
743 160 0
744 164 0
745 141 0
746 170 0
747 173 0
748 177 0
749 181 0
750 185 0
751 189 0
752 193 0
753 145 0
754 174 0
755 201 0
756 204 0
757 208 0
758 212 0
759 216 0
760 220 0
761 149 0
762 178 0
763 205 0
764 230 0
765 233 0
766 237 0
767 241 0
768 245 0
769 153 0
770 182 0
771 209 0
772 234 0
773 257 0
774 260 0
775 264 0
776 268 0
777 157 0
778 186 0
779 213 0
780 238 0
781 261 0
782 282 0
783 285 0
784 289 0
785 161 0
786 190 0
787 217 0
788 242 0
789 265 0
790 286 0
791 305 0
792 308 0
793 165 0
794 194 0
795 221 0
796 246 0
797 269 0
798 290 0
799 309 0
800 326 0
737 -610 0
738 -612 0
739 -614 0
740 -616 0
741 -618 0
742 -620 0
743 -622 0
744 -624 0
745 -626 0
746 -628 0
747 -630 0
748 -632 0
749 -634 0
750 -636 0
751 -638 0
752 -640 0
753 -642 0
754 -644 0
755 -646 0
756 -648 0
757 -650 0
758 -652 0
759 -654 0
760 -656 0
761 -658 0
762 -660 0
763 -662 0
764 -664 0
765 -666 0
766 -668 0
767 -670 0
768 -672 0
769 -674 0
770 -676 0
771 -678 0
772 -680 0
773 -682 0
774 -684 0
775 -686 0
776 -688 0
777 -690 0
778 -692 0
779 -694 0
780 -696 0
781 -698 0
782 -700 0
783 -702 0
784 -704 0
785 -706 0
786 -708 0
787 -710 0
788 -712 0
789 -714 0
790 -716 0
791 -718 0
792 -720 0
793 -722 0
794 -724 0
795 -726 0
796 -728 0
797 -730 0
798 -732 0
799 -734 0
800 -736 0
137 -609 -2 -2 -801 0
140 -611 -5 -2 -802 0
144 -613 -8 -2 -803 0
148 -615 -11 -2 -804 0
152 -617 -14 -2 -805 0
156 -619 -17 -2 -806 0
160 -621 -20 -2 -807 0
164 -623 -23 -2 -808 0
141 -625 -2 -5 -809 0
170 -627 -5 -5 -810 0
173 -629 -8 -5 -811 0
177 -631 -11 -5 -812 0
181 -633 -14 -5 -813 0
185 -635 -17 -5 -814 0
189 -637 -20 -5 -815 0
193 -639 -23 -5 -816 0
145 -641 -2 -8 -817 0
174 -643 -5 -8 -818 0
201 -645 -8 -8 -819 0
204 -647 -11 -8 -820 0
208 -649 -14 -8 -821 0
212 -651 -17 -8 -822 0
216 -653 -20 -8 -823 0
220 -655 -23 -8 -824 0
149 -657 -2 -11 -825 0
178 -659 -5 -11 -826 0
205 -661 -8 -11 -827 0
230 -663 -11 -11 -828 0
233 -665 -14 -11 -829 0
237 -667 -17 -11 -830 0
241 -669 -20 -11 -831 0
245 -671 -23 -11 -832 0
153 -673 -2 -14 -833 0
182 -675 -5 -14 -834 0
209 -677 -8 -14 -835 0
234 -679 -11 -14 -836 0
257 -681 -14 -14 -837 0
260 -683 -17 -14 -838 0
264 -685 -20 -14 -839 0
268 -687 -23 -14 -840 0
157 -689 -2 -17 -841 0
186 -691 -5 -17 -842 0
213 -693 -8 -17 -843 0
238 -695 -11 -17 -844 0
261 -697 -14 -17 -845 0
282 -699 -17 -17 -846 0
285 -701 -20 -17 -847 0
289 -703 -23 -17 -848 0
161 -705 -2 -20 -849 0
190 -707 -5 -20 -850 0
217 -709 -8 -20 -851 0
242 -711 -11 -20 -852 0
265 -713 -14 -20 -853 0
286 -715 -17 -20 -854 0
305 -717 -20 -20 -855 0
308 -719 -23 -20 -856 0
165 -721 -2 -23 -857 0
194 -723 -5 -23 -858 0
221 -725 -8 -23 -859 0
246 -727 -11 -23 -860 0
269 -729 -14 -23 -861 0
290 -731 -17 -23 -862 0
309 -733 -20 -23 -863 0
326 -735 -23 -23 -864 0
801 -137 0
802 -140 0
803 -144 0
804 -148 0
805 -152 0
806 -156 0
807 -160 0
808 -164 0
809 -141 0
810 -170 0
811 -173 0
812 -177 0
813 -181 0
814 -185 0
815 -189 0
816 -193 0
817 -145 0
818 -174 0
819 -201 0
820 -204 0
821 -208 0
822 -212 0
823 -216 0
824 -220 0
825 -149 0
826 -178 0
827 -205 0
828 -230 0
829 -233 0
830 -237 0
831 -241 0
832 -245 0
833 -153 0
834 -182 0
835 -209 0
836 -234 0
837 -257 0
838 -260 0
839 -264 0
840 -268 0
841 -157 0
842 -186 0
843 -213 0
844 -238 0
845 -261 0
846 -282 0
847 -285 0
848 -289 0
849 -161 0
850 -190 0
851 -217 0
852 -242 0
853 -265 0
854 -286 0
855 -305 0
856 -308 0
857 -165 0
858 -194 0
859 -221 0
860 -246 0
861 -269 0
862 -290 0
863 -309 0
864 -326 0
801 609 0
802 611 0
803 613 0
804 615 0
805 617 0
806 619 0
807 621 0
808 623 0
809 625 0
810 627 0
811 629 0
812 631 0
813 633 0
814 635 0
815 637 0
816 639 0
817 641 0
818 643 0
819 645 0
820 647 0
821 649 0
822 651 0
823 653 0
824 655 0
825 657 0
826 659 0
827 661 0
828 663 0
829 665 0
830 667 0
831 669 0
832 671 0
833 673 0
834 675 0
835 677 0
836 679 0
837 681 0
838 683 0
839 685 0
840 687 0
841 689 0
842 691 0
843 693 0
844 695 0
845 697 0
846 699 0
847 701 0
848 703 0
849 705 0
850 707 0
851 709 0
852 711 0
853 713 0
854 715 0
855 717 0
856 719 0
857 721 0
858 723 0
859 725 0
860 727 0
861 729 0
862 731 0
863 733 0
864 735 0
801 2 0
802 5 0
803 8 0
804 11 0
805 14 0
806 17 0
807 20 0
808 23 0
809 2 0
810 5 0
811 8 0
812 11 0
813 14 0
814 17 0
815 20 0
816 23 0
817 2 0
818 5 0
819 8 0
820 11 0
821 14 0
822 17 0
823 20 0
824 23 0
825 2 0
826 5 0
827 8 0
828 11 0
829 14 0
830 17 0
831 20 0
832 23 0
833 2 0
834 5 0
835 8 0
836 11 0
837 14 0
838 17 0
839 20 0
840 23 0
841 2 0
842 5 0
843 8 0
844 11 0
845 14 0
846 17 0
847 20 0
848 23 0
849 2 0
850 5 0
851 8 0
852 11 0
853 14 0
854 17 0
855 20 0
856 23 0
857 2 0
858 5 0
859 8 0
860 11 0
861 14 0
862 17 0
863 20 0
864 23 0
801 2 0
802 2 0
803 2 0
804 2 0
805 2 0
806 2 0
807 2 0
808 2 0
809 5 0
810 5 0
811 5 0
812 5 0
813 5 0
814 5 0
815 5 0
816 5 0
817 8 0
818 8 0
819 8 0
820 8 0
821 8 0
822 8 0
823 8 0
824 8 0
825 11 0
826 11 0
827 11 0
828 11 0
829 11 0
830 11 0
831 11 0
832 11 0
833 14 0
834 14 0
835 14 0
836 14 0
837 14 0
838 14 0
839 14 0
840 14 0
841 17 0
842 17 0
843 17 0
844 17 0
845 17 0
846 17 0
847 17 0
848 17 0
849 20 0
850 20 0
851 20 0
852 20 0
853 20 0
854 20 0
855 20 0
856 20 0
857 23 0
858 23 0
859 23 0
860 23 0
861 23 0
862 23 0
863 23 0
864 23 0
-3 -139 -331 -410 -545 -737 -801 865 0
-6 -143 -333 -412 -546 -738 -802 866 0
-9 -147 -335 -414 -547 -739 -803 867 0
-12 -151 -337 -416 -548 -740 -804 868 0
-15 -155 -339 -418 -549 -741 -805 869 0
-18 -159 -341 -420 -550 -742 -806 870 0
-21 -163 -343 -422 -551 -743 -807 871 0
-24 -167 -345 -424 -552 -744 -808 872 0
-26 -169 -347 -425 -553 -745 -809 873 0
-28 -172 -348 -426 -554 -746 -810 874 0
-30 -176 -349 -427 -555 -747 -811 875 0
-32 -180 -350 -428 -556 -748 -812 876 0
-34 -184 -351 -429 -557 -749 -813 877 0
-36 -188 -352 -430 -558 -750 -814 878 0
-38 -192 -353 -431 -559 -751 -815 879 0
-40 -196 -354 -432 -560 -752 -816 880 0
-42 -198 -356 -433 -561 -753 -817 881 0
-44 -200 -357 -434 -562 -754 -818 882 0
-46 -203 -358 -435 -563 -755 -819 883 0
-48 -207 -359 -436 -564 -756 -820 884 0
-50 -211 -360 -437 -565 -757 -821 885 0
-52 -215 -361 -438 -566 -758 -822 886 0
-54 -219 -362 -439 -567 -759 -823 887 0
-56 -223 -363 -440 -568 -760 -824 888 0
-58 -225 -365 -441 -569 -761 -825 889 0
-60 -227 -366 -442 -570 -762 -826 890 0
-62 -229 -367 -443 -571 -763 -827 891 0
-64 -232 -368 -444 -572 -764 -828 892 0
-66 -236 -369 -445 -573 -765 -829 893 0
-68 -240 -370 -446 -574 -766 -830 894 0
-70 -244 -371 -447 -575 -767 -831 895 0
-72 -248 -372 -448 -576 -768 -832 896 0
-74 -250 -374 -449 -577 -769 -833 897 0
-76 -252 -375 -450 -578 -770 -834 898 0
-78 -254 -376 -451 -579 -771 -835 899 0
-80 -256 -377 -452 -580 -772 -836 900 0
-82 -259 -378 -453 -581 -773 -837 901 0
-84 -263 -379 -454 -582 -774 -838 902 0
-86 -267 -380 -455 -583 -775 -839 903 0
-88 -271 -381 -456 -584 -776 -840 904 0
-90 -273 -383 -457 -585 -777 -841 905 0
-92 -275 -384 -458 -586 -778 -842 906 0
-94 -277 -385 -459 -587 -779 -843 907 0
-96 -279 -386 -460 -588 -780 -844 908 0
-98 -281 -387 -461 -589 -781 -845 909 0
-100 -284 -388 -462 -590 -782 -846 910 0
-102 -288 -389 -463 -591 -783 -847 911 0
-104 -292 -390 -464 -592 -784 -848 912 0
-106 -294 -392 -465 -593 -785 -849 913 0
-108 -296 -393 -466 -594 -786 -850 914 0
-110 -298 -394 -467 -595 -787 -851 915 0
-112 -300 -395 -468 -596 -788 -852 916 0
-114 -302 -396 -469 -597 -789 -853 917 0
-116 -304 -397 -470 -598 -790 -854 918 0
-118 -307 -398 -471 -599 -791 -855 919 0
-120 -311 -399 -472 -600 -792 -856 920 0
-122 -313 -401 -473 -601 -793 -857 921 0
-124 -315 -402 -474 -602 -794 -858 922 0
-126 -317 -403 -475 -603 -795 -859 923 0
-128 -319 -404 -476 -604 -796 -860 924 0
-130 -321 -405 -477 -605 -797 -861 925 0
-132 -323 -406 -478 -606 -798 -862 926 0
-134 -325 -407 -479 -607 -799 -863 927 0
-136 -328 -408 -480 -608 -800 -864 928 0
-865 3 0
-866 6 0
-867 9 0
-868 12 0
-869 15 0
-870 18 0
-871 21 0
-872 24 0
-873 26 0
-874 28 0
-875 30 0
-876 32 0
-877 34 0
-878 36 0
-879 38 0
-880 40 0
-881 42 0
-882 44 0
-883 46 0
-884 48 0
-885 50 0
-886 52 0
-887 54 0
-888 56 0
-889 58 0
-890 60 0
-891 62 0
-892 64 0
-893 66 0
-894 68 0
-895 70 0
-896 72 0
-897 74 0
-898 76 0
-899 78 0
-900 80 0
-901 82 0
-902 84 0
-903 86 0
-904 88 0
-905 90 0
-906 92 0
-907 94 0
-908 96 0
-909 98 0
-910 100 0
-911 102 0
-912 104 0
-913 106 0
-914 108 0
-915 110 0
-916 112 0
-917 114 0
-918 116 0
-919 118 0
-920 120 0
-921 122 0
-922 124 0
-923 126 0
-924 128 0
-925 130 0
-926 132 0
-927 134 0
-928 136 0
-865 139 0
-866 143 0
-867 147 0
-868 151 0
-869 155 0
-870 159 0
-871 163 0
-872 167 0
-873 169 0
-874 172 0
-875 176 0
-876 180 0
-877 184 0
-878 188 0
-879 192 0
-880 196 0
-881 198 0
-882 200 0
-883 203 0
-884 207 0
-885 211 0
-886 215 0
-887 219 0
-888 223 0
-889 225 0
-890 227 0
-891 229 0
-892 232 0
-893 236 0
-894 240 0
-895 244 0
-896 248 0
-897 250 0
-898 252 0
-899 254 0
-900 256 0
-901 259 0
-902 263 0
-903 267 0
-904 271 0
-905 273 0
-906 275 0
-907 277 0
-908 279 0
-909 281 0
-910 284 0
-911 288 0
-912 292 0
-913 294 0
-914 296 0
-915 298 0
-916 300 0
-917 302 0
-918 304 0
-919 307 0
-920 311 0
-921 313 0
-922 315 0
-923 317 0
-924 319 0
-925 321 0
-926 323 0
-927 325 0
-928 328 0
-865 331 0
-866 333 0
-867 335 0
-868 337 0
-869 339 0
-870 341 0
-871 343 0
-872 345 0
-873 347 0
-874 348 0
-875 349 0
-876 350 0
-877 351 0
-878 352 0
-879 353 0
-880 354 0
-881 356 0
-882 357 0
-883 358 0
-884 359 0
-885 360 0
-886 361 0
-887 362 0
-888 363 0
-889 365 0
-890 366 0
-891 367 0
-892 368 0
-893 369 0
-894 370 0
-895 371 0
-896 372 0
-897 374 0
-898 375 0
-899 376 0
-900 377 0
-901 378 0
-902 379 0
-903 380 0
-904 381 0
-905 383 0
-906 384 0
-907 385 0
-908 386 0
-909 387 0
-910 388 0
-911 389 0
-912 390 0
-913 392 0
-914 393 0
-915 394 0
-916 395 0
-917 396 0
-918 397 0
-919 398 0
-920 399 0
-921 401 0
-922 402 0
-923 403 0
-924 404 0
-925 405 0
-926 406 0
-927 407 0
-928 408 0
-865 410 0
-866 412 0
-867 414 0
-868 416 0
-869 418 0
-870 420 0
-871 422 0
-872 424 0
-873 425 0
-874 426 0
-875 427 0
-876 428 0
-877 429 0
-878 430 0
-879 431 0
-880 432 0
-881 433 0
-882 434 0
-883 435 0
-884 436 0
-885 437 0
-886 438 0
-887 439 0
-888 440 0
-889 441 0
-890 442 0
-891 443 0
-892 444 0
-893 445 0
-894 446 0
-895 447 0
-896 448 0
-897 449 0
-898 450 0
-899 451 0
-900 452 0
-901 453 0
-902 454 0
-903 455 0
-904 456 0
-905 457 0
-906 458 0
-907 459 0
-908 460 0
-909 461 0
-910 462 0
-911 463 0
-912 464 0
-913 465 0
-914 466 0
-915 467 0
-916 468 0
-917 469 0
-918 470 0
-919 471 0
-920 472 0
-921 473 0
-922 474 0
-923 475 0
-924 476 0
-925 477 0
-926 478 0
-927 479 0
-928 480 0
-865 545 0
-866 546 0
-867 547 0
-868 548 0
-869 549 0
-870 550 0
-871 551 0
-872 552 0
-873 553 0
-874 554 0
-875 555 0
-876 556 0
-877 557 0
-878 558 0
-879 559 0
-880 560 0
-881 561 0
-882 562 0
-883 563 0
-884 564 0
-885 565 0
-886 566 0
-887 567 0
-888 568 0
-889 569 0
-890 570 0
-891 571 0
-892 572 0
-893 573 0
-894 574 0
-895 575 0
-896 576 0
-897 577 0
-898 578 0
-899 579 0
-900 580 0
-901 581 0
-902 582 0
-903 583 0
-904 584 0
-905 585 0
-906 586 0
-907 587 0
-908 588 0
-909 589 0
-910 590 0
-911 591 0
-912 592 0
-913 593 0
-914 594 0
-915 595 0
-916 596 0
-917 597 0
-918 598 0
-919 599 0
-920 600 0
-921 601 0
-922 602 0
-923 603 0
-924 604 0
-925 605 0
-926 606 0
-927 607 0
-928 608 0
-865 737 0
-866 738 0
-867 739 0
-868 740 0
-869 741 0
-870 742 0
-871 743 0
-872 744 0
-873 745 0
-874 746 0
-875 747 0
-876 748 0
-877 749 0
-878 750 0
-879 751 0
-880 752 0
-881 753 0
-882 754 0
-883 755 0
-884 756 0
-885 757 0
-886 758 0
-887 759 0
-888 760 0
-889 761 0
-890 762 0
-891 763 0
-892 764 0
-893 765 0
-894 766 0
-895 767 0
-896 768 0
-897 769 0
-898 770 0
-899 771 0
-900 772 0
-901 773 0
-902 774 0
-903 775 0
-904 776 0
-905 777 0
-906 778 0
-907 779 0
-908 780 0
-909 781 0
-910 782 0
-911 783 0
-912 784 0
-913 785 0
-914 786 0
-915 787 0
-916 788 0
-917 789 0
-918 790 0
-919 791 0
-920 792 0
-921 793 0
-922 794 0
-923 795 0
-924 796 0
-925 797 0
-926 798 0
-927 799 0
-928 800 0
-865 801 0
-866 802 0
-867 803 0
-868 804 0
-869 805 0
-870 806 0
-871 807 0
-872 808 0
-873 809 0
-874 810 0
-875 811 0
-876 812 0
-877 813 0
-878 814 0
-879 815 0
-880 816 0
-881 817 0
-882 818 0
-883 819 0
-884 820 0
-885 821 0
-886 822 0
-887 823 0
-888 824 0
-889 825 0
-890 826 0
-891 827 0
-892 828 0
-893 829 0
-894 830 0
-895 831 0
-896 832 0
-897 833 0
-898 834 0
-899 835 0
-900 836 0
-901 837 0
-902 838 0
-903 839 0
-904 840 0
-905 841 0
-906 842 0
-907 843 0
-908 844 0
-909 845 0
-910 846 0
-911 847 0
-912 848 0
-913 849 0
-914 850 0
-915 851 0
-916 852 0
-917 853 0
-918 854 0
-919 855 0
-920 856 0
-921 857 0
-922 858 0
-923 859 0
-924 860 0
-925 861 0
-926 862 0
-927 863 0
-928 864 0
865 0
866 0
867 0
868 0
869 0
870 0
871 0
872 0
873 0
874 0
875 0
876 0
877 0
878 0
879 0
880 0
881 0
882 0
883 0
884 0
885 0
886 0
887 0
888 0
889 0
890 0
891 0
892 0
893 0
894 0
895 0
896 0
897 0
898 0
899 0
900 0
901 0
902 0
903 0
904 0
905 0
906 0
907 0
908 0
909 0
910 0
911 0
912 0
913 0
914 0
915 0
916 0
917 0
918 0
919 0
920 0
921 0
922 0
923 0
924 0
925 0
926 0
927 0
928 0
-423 0
-417 0
-415 0
20 0
2 0
-355 0
-344 0
-382 0
-336 0
-338 0
-413 0
-391 0
-419 0
-332 0
14 0
-330 0
400 0
-409 0
329 0
11 0
23 0
5 0
-334 0
-340 0
-421 0
411 0
-364 0
8 0
17 0
-346 0
-342 0
-373 0
1 0
25 4 0
-25 -4 0
-25 -43 41 0
-25 -59 57 0
-25 -75 73 0
-25 -91 89 0
-25 -107 105 0
-25 -123 121 0
41 7 0
-41 -7 0
-41 -29 25 0
-41 -61 57 0
-41 -77 73 0
-41 -93 89 0
-41 -109 105 0
-41 -125 121 0
57 10 0
-57 -10 0
-57 -31 25 0
-57 -47 41 0
-57 -79 73 0
-57 -95 89 0
-57 -111 105 0
-57 -127 121 0
73 13 0
-73 -13 0
-73 -33 25 0
-73 -49 41 0
-73 -65 57 0
-73 -97 89 0
-73 -113 105 0
-73 -129 121 0
89 16 0
-89 -16 0
-89 -35 25 0
-89 -51 41 0
-89 -67 57 0
-89 -83 73 0
-89 -115 105 0
-89 -131 121 0
105 19 0
-105 -19 0
-105 -37 25 0
-105 -53 41 0
-105 -69 57 0
-105 -85 73 0
-105 -101 89 0
-105 -133 121 0
121 22 0
-121 -22 0
-121 -39 25 0
-121 -55 41 0
-121 -71 57 0
-121 -87 73 0
-121 -103 89 0
-121 -119 105 0
27 0
4 25 0
-4 -25 0
-4 -41 43 0
-4 -57 59 0
-4 -73 75 0
-4 -89 91 0
-4 -105 107 0
-4 -121 123 0
43 29 0
-43 -29 0
-43 -7 4 0
-43 -61 59 0
-43 -77 75 0
-43 -93 91 0
-43 -109 107 0
-43 -125 123 0
59 31 0
-59 -31 0
-59 -10 4 0
-59 -47 43 0
-59 -79 75 0
-59 -95 91 0
-59 -111 107 0
-59 -127 123 0
75 33 0
-75 -33 0
-75 -13 4 0
-75 -49 43 0
-75 -65 59 0
-75 -97 91 0
-75 -113 107 0
-75 -129 123 0
91 35 0
-91 -35 0
-91 -16 4 0
-91 -51 43 0
-91 -67 59 0
-91 -83 75 0
-91 -115 107 0
-91 -131 123 0
107 37 0
-107 -37 0
-107 -19 4 0
-107 -53 43 0
-107 -69 59 0
-107 -85 75 0
-107 -101 91 0
-107 -133 123 0
123 39 0
-123 -39 0
-123 -22 4 0
-123 -55 43 0
-123 -71 59 0
-123 -87 75 0
-123 -103 91 0
-123 -119 107 0
45 0
7 41 0
-7 -41 0
-7 -25 29 0
-7 -57 61 0
-7 -73 77 0
-7 -89 93 0
-7 -105 109 0
-7 -121 125 0
29 43 0
-29 -43 0
-29 -4 7 0
-29 -59 61 0
-29 -75 77 0
-29 -91 93 0
-29 -107 109 0
-29 -123 125 0
61 47 0
-61 -47 0
-61 -10 7 0
-61 -31 29 0
-61 -79 77 0
-61 -95 93 0
-61 -111 109 0
-61 -127 125 0
77 49 0
-77 -49 0
-77 -13 7 0
-77 -33 29 0
-77 -65 61 0
-77 -97 93 0
-77 -113 109 0
-77 -129 125 0
93 51 0
-93 -51 0
-93 -16 7 0
-93 -35 29 0
-93 -67 61 0
-93 -83 77 0
-93 -115 109 0
-93 -131 125 0
109 53 0
-109 -53 0
-109 -19 7 0
-109 -37 29 0
-109 -69 61 0
-109 -85 77 0
-109 -101 93 0
-109 -133 125 0
125 55 0
-125 -55 0
-125 -22 7 0
-125 -39 29 0
-125 -71 61 0
-125 -87 77 0
-125 -103 93 0
-125 -119 109 0
63 0
10 57 0
-10 -57 0
-10 -25 31 0
-10 -41 47 0
-10 -73 79 0
-10 -89 95 0
-10 -105 111 0
-10 -121 127 0
31 59 0
-31 -59 0
-31 -4 10 0
-31 -43 47 0
-31 -75 79 0
-31 -91 95 0
-31 -107 111 0
-31 -123 127 0
47 61 0
-47 -61 0
-47 -7 10 0
-47 -29 31 0
-47 -77 79 0
-47 -93 95 0
-47 -109 111 0
-47 -125 127 0
79 65 0
-79 -65 0
-79 -13 10 0
-79 -33 31 0
-79 -49 47 0
-79 -97 95 0
-79 -113 111 0
-79 -129 127 0
95 67 0
-95 -67 0
-95 -16 10 0
-95 -35 31 0
-95 -51 47 0
-95 -83 79 0
-95 -115 111 0
-95 -131 127 0
111 69 0
-111 -69 0
-111 -19 10 0
-111 -37 31 0
-111 -53 47 0
-111 -85 79 0
-111 -101 95 0
-111 -133 127 0
127 71 0
-127 -71 0
-127 -22 10 0
-127 -39 31 0
-127 -55 47 0
-127 -87 79 0
-127 -103 95 0
-127 -119 111 0
81 0
13 73 0
-13 -73 0
-13 -25 33 0
-13 -41 49 0
-13 -57 65 0
-13 -89 97 0
-13 -105 113 0
-13 -121 129 0
33 75 0
-33 -75 0
-33 -4 13 0
-33 -43 49 0
-33 -59 65 0
-33 -91 97 0
-33 -107 113 0
-33 -123 129 0
49 77 0
-49 -77 0
-49 -7 13 0
-49 -29 33 0
-49 -61 65 0
-49 -93 97 0
-49 -109 113 0
-49 -125 129 0
65 79 0
-65 -79 0
-65 -10 13 0
-65 -31 33 0
-65 -47 49 0
-65 -95 97 0
-65 -111 113 0
-65 -127 129 0
97 83 0
-97 -83 0
-97 -16 13 0
-97 -35 33 0
-97 -51 49 0
-97 -67 65 0
-97 -115 113 0
-97 -131 129 0
113 85 0
-113 -85 0
-113 -19 13 0
-113 -37 33 0
-113 -53 49 0
-113 -69 65 0
-113 -101 97 0
-113 -133 129 0
129 87 0
-129 -87 0
-129 -22 13 0
-129 -39 33 0
-129 -55 49 0
-129 -71 65 0
-129 -103 97 0
-129 -119 113 0
99 0
16 89 0
-16 -89 0
-16 -25 35 0
-16 -41 51 0
-16 -57 67 0
-16 -73 83 0
-16 -105 115 0
-16 -121 131 0
35 91 0
-35 -91 0
-35 -4 16 0
-35 -43 51 0
-35 -59 67 0
-35 -75 83 0
-35 -107 115 0
-35 -123 131 0
51 93 0
-51 -93 0
-51 -7 16 0
-51 -29 35 0
-51 -61 67 0
-51 -77 83 0
-51 -109 115 0
-51 -125 131 0
67 95 0
-67 -95 0
-67 -10 16 0
-67 -31 35 0
-67 -47 51 0
-67 -79 83 0
-67 -111 115 0
-67 -127 131 0
83 97 0
-83 -97 0
-83 -13 16 0
-83 -33 35 0
-83 -49 51 0
-83 -65 67 0
-83 -113 115 0
-83 -129 131 0
115 101 0
-115 -101 0
-115 -19 16 0
-115 -37 35 0
-115 -53 51 0
-115 -69 67 0
-115 -85 83 0
-115 -133 131 0
131 103 0
-131 -103 0
-131 -22 16 0
-131 -39 35 0
-131 -55 51 0
-131 -71 67 0
-131 -87 83 0
-131 -119 115 0
117 0
19 105 0
-19 -105 0
-19 -25 37 0
-19 -41 53 0
-19 -57 69 0
-19 -73 85 0
-19 -89 101 0
-19 -121 133 0
37 107 0
-37 -107 0
-37 -4 19 0
-37 -43 53 0
-37 -59 69 0
-37 -75 85 0
-37 -91 101 0
-37 -123 133 0
53 109 0
-53 -109 0
-53 -7 19 0
-53 -29 37 0
-53 -61 69 0
-53 -77 85 0
-53 -93 101 0
-53 -125 133 0
69 111 0
-69 -111 0
-69 -10 19 0
-69 -31 37 0
-69 -47 53 0
-69 -79 85 0
-69 -95 101 0
-69 -127 133 0
85 113 0
-85 -113 0
-85 -13 19 0
-85 -33 37 0
-85 -49 53 0
-85 -65 69 0
-85 -97 101 0
-85 -129 133 0
101 115 0
-101 -115 0
-101 -16 19 0
-101 -35 37 0
-101 -51 53 0
-101 -67 69 0
-101 -83 85 0
-101 -131 133 0
133 119 0
-133 -119 0
-133 -22 19 0
-133 -39 37 0
-133 -55 53 0
-133 -71 69 0
-133 -87 85 0
-133 -103 101 0
135 0
22 121 0
-22 -121 0
-22 -25 39 0
-22 -41 55 0
-22 -57 71 0
-22 -73 87 0
-22 -89 103 0
-22 -105 119 0
39 123 0
-39 -123 0
-39 -4 22 0
-39 -43 55 0
-39 -59 71 0
-39 -75 87 0
-39 -91 103 0
-39 -107 119 0
55 125 0
-55 -125 0
-55 -7 22 0
-55 -29 39 0
-55 -61 71 0
-55 -77 87 0
-55 -93 103 0
-55 -109 119 0
71 127 0
-71 -127 0
-71 -10 22 0
-71 -31 39 0
-71 -47 55 0
-71 -79 87 0
-71 -95 103 0
-71 -111 119 0
87 129 0
-87 -129 0
-87 -13 22 0
-87 -33 39 0
-87 -49 55 0
-87 -65 71 0
-87 -97 103 0
-87 -113 119 0
103 131 0
-103 -131 0
-103 -16 22 0
-103 -35 39 0
-103 -51 55 0
-103 -67 71 0
-103 -83 87 0
-103 -115 119 0
119 133 0
-119 -133 0
-119 -19 22 0
-119 -37 39 0
-119 -53 55 0
-119 -69 71 0
-119 -85 87 0
-119 -101 103 0
-929 0
-930 25 0
-931 41 0
-931 29 0
-41 -29 931 0
-932 57 0
-932 31 0
-57 -31 932 0
-933 73 0
-933 33 0
-73 -33 933 0
-934 89 0
-934 35 0
-89 -35 934 0
-935 105 0
-935 37 0
-105 -37 935 0
-936 121 0
-936 39 0
-121 -39 936 0
-930 -931 0
-930 -932 0
-930 -933 0
-930 -934 0
-930 -935 0
-930 -936 0
-25 930 931 932 933 934 935 936 0
-937 41 0
-938 25 0
-938 43 0
-25 -43 938 0
-939 57 0
-939 47 0
-57 -47 939 0
-940 73 0
-940 49 0
-73 -49 940 0
-941 89 0
-941 51 0
-89 -51 941 0
-942 105 0
-942 53 0
-105 -53 942 0
-943 121 0
-943 55 0
-121 -55 943 0
-937 -938 0
-937 -939 0
-937 -940 0
-937 -941 0
-937 -942 0
-937 -943 0
-41 937 938 939 940 941 942 943 0
-944 57 0
-945 25 0
-945 59 0
-25 -59 945 0
-946 41 0
-946 61 0
-41 -61 946 0
-947 73 0
-947 65 0
-73 -65 947 0
-948 89 0
-948 67 0
-89 -67 948 0
-949 105 0
-949 69 0
-105 -69 949 0
-950 121 0
-950 71 0
-121 -71 950 0
-944 -945 0
-944 -946 0
-944 -947 0
-944 -948 0
-944 -949 0
-944 -950 0
-57 944 945 946 947 948 949 950 0
-951 73 0
-952 25 0
-952 75 0
-25 -75 952 0
-953 41 0
-953 77 0
-41 -77 953 0
-954 57 0
-954 79 0
-57 -79 954 0
-955 89 0
-955 83 0
-89 -83 955 0
-956 105 0
-956 85 0
-105 -85 956 0
-957 121 0
-957 87 0
-121 -87 957 0
-951 -952 0
-951 -953 0
-951 -954 0
-951 -955 0
-951 -956 0
-951 -957 0
-73 951 952 953 954 955 956 957 0
-958 89 0
-959 25 0
-959 91 0
-25 -91 959 0
-960 41 0
-960 93 0
-41 -93 960 0
-961 57 0
-961 95 0
-57 -95 961 0
-962 73 0
-962 97 0
-73 -97 962 0
-963 105 0
-963 101 0
-105 -101 963 0
-964 121 0
-964 103 0
-121 -103 964 0
-958 -959 0
-958 -960 0
-958 -961 0
-958 -962 0
-958 -963 0
-958 -964 0
-89 958 959 960 961 962 963 964 0
-965 105 0
-966 25 0
-966 107 0
-25 -107 966 0
-967 41 0
-967 109 0
-41 -109 967 0
-968 57 0
-968 111 0
-57 -111 968 0
-969 73 0
-969 113 0
-73 -113 969 0
-970 89 0
-970 115 0
-89 -115 970 0
-971 121 0
-971 119 0
-121 -119 971 0
-965 -966 0
-965 -967 0
-965 -968 0
-965 -969 0
-965 -970 0
-965 -971 0
-105 965 966 967 968 969 970 971 0
-972 121 0
-973 25 0
-973 123 0
-25 -123 973 0
-974 41 0
-974 125 0
-41 -125 974 0
-975 57 0
-975 127 0
-57 -127 975 0
-976 73 0
-976 129 0
-73 -129 976 0
-977 89 0
-977 131 0
-89 -131 977 0
-978 105 0
-978 133 0
-105 -133 978 0
-972 -973 0
-972 -974 0
-972 -975 0
-972 -976 0
-972 -977 0
-972 -978 0
-121 972 973 974 975 976 977 978 0
-979 4 0
-980 43 0
-980 7 0
-43 -7 980 0
-981 59 0
-981 10 0
-59 -10 981 0
-982 75 0
-982 13 0
-75 -13 982 0
-983 91 0
-983 16 0
-91 -16 983 0
-984 107 0
-984 19 0
-107 -19 984 0
-985 123 0
-985 22 0
-123 -22 985 0
-979 -980 0
-979 -981 0
-979 -982 0
-979 -983 0
-979 -984 0
-979 -985 0
-4 979 980 981 982 983 984 985 0
-986 0
-987 43 0
-988 4 0
-988 41 0
-4 -41 988 0
-989 59 0
-989 47 0
-59 -47 989 0
-990 75 0
-990 49 0
-75 -49 990 0
-991 91 0
-991 51 0
-91 -51 991 0
-992 107 0
-992 53 0
-107 -53 992 0
-993 123 0
-993 55 0
-123 -55 993 0
-987 -988 0
-987 -989 0
-987 -990 0
-987 -991 0
-987 -992 0
-987 -993 0
-43 987 988 989 990 991 992 993 0
-994 59 0
-995 4 0
-995 57 0
-4 -57 995 0
-996 43 0
-996 61 0
-43 -61 996 0
-997 75 0
-997 65 0
-75 -65 997 0
-998 91 0
-998 67 0
-91 -67 998 0
-999 107 0
-999 69 0
-107 -69 999 0
-1000 123 0
-1000 71 0
-123 -71 1000 0
-994 -995 0
-994 -996 0
-994 -997 0
-994 -998 0
-994 -999 0
-994 -1000 0
-59 994 995 996 997 998 999 1000 0
-1001 75 0
-1002 4 0
-1002 73 0
-4 -73 1002 0
-1003 43 0
-1003 77 0
-43 -77 1003 0
-1004 59 0
-1004 79 0
-59 -79 1004 0
-1005 91 0
-1005 83 0
-91 -83 1005 0
-1006 107 0
-1006 85 0
-107 -85 1006 0
-1007 123 0
-1007 87 0
-123 -87 1007 0
-1001 -1002 0
-1001 -1003 0
-1001 -1004 0
-1001 -1005 0
-1001 -1006 0
-1001 -1007 0
-75 1001 1002 1003 1004 1005 1006 1007 0
-1008 91 0
-1009 4 0
-1009 89 0
-4 -89 1009 0
-1010 43 0
-1010 93 0
-43 -93 1010 0
-1011 59 0
-1011 95 0
-59 -95 1011 0
-1012 75 0
-1012 97 0
-75 -97 1012 0
-1013 107 0
-1013 101 0
-107 -101 1013 0
-1014 123 0
-1014 103 0
-123 -103 1014 0
-1008 -1009 0
-1008 -1010 0
-1008 -1011 0
-1008 -1012 0
-1008 -1013 0
-1008 -1014 0
-91 1008 1009 1010 1011 1012 1013 1014 0
-1015 107 0
-1016 4 0
-1016 105 0
-4 -105 1016 0
-1017 43 0
-1017 109 0
-43 -109 1017 0
-1018 59 0
-1018 111 0
-59 -111 1018 0
-1019 75 0
-1019 113 0
-75 -113 1019 0
-1020 91 0
-1020 115 0
-91 -115 1020 0
-1021 123 0
-1021 119 0
-123 -119 1021 0
-1015 -1016 0
-1015 -1017 0
-1015 -1018 0
-1015 -1019 0
-1015 -1020 0
-1015 -1021 0
-107 1015 1016 1017 1018 1019 1020 1021 0
-1022 123 0
-1023 4 0
-1023 121 0
-4 -121 1023 0
-1024 43 0
-1024 125 0
-43 -125 1024 0
-1025 59 0
-1025 127 0
-59 -127 1025 0
-1026 75 0
-1026 129 0
-75 -129 1026 0
-1027 91 0
-1027 131 0
-91 -131 1027 0
-1028 107 0
-1028 133 0
-107 -133 1028 0
-1022 -1023 0
-1022 -1024 0
-1022 -1025 0
-1022 -1026 0
-1022 -1027 0
-1022 -1028 0
-123 1022 1023 1024 1025 1026 1027 1028 0
-1029 7 0
-1030 29 0
-1030 4 0
-29 -4 1030 0
-1031 61 0
-1031 10 0
-61 -10 1031 0
-1032 77 0
-1032 13 0
-77 -13 1032 0
-1033 93 0
-1033 16 0
-93 -16 1033 0
-1034 109 0
-1034 19 0
-109 -19 1034 0
-1035 125 0
-1035 22 0
-125 -22 1035 0
-1029 -1030 0
-1029 -1031 0
-1029 -1032 0
-1029 -1033 0
-1029 -1034 0
-1029 -1035 0
-7 1029 1030 1031 1032 1033 1034 1035 0
-1036 29 0
-1037 7 0
-1037 25 0
-7 -25 1037 0
-1038 61 0
-1038 31 0
-61 -31 1038 0
-1039 77 0
-1039 33 0
-77 -33 1039 0
-1040 93 0
-1040 35 0
-93 -35 1040 0
-1041 109 0
-1041 37 0
-109 -37 1041 0
-1042 125 0
-1042 39 0
-125 -39 1042 0
-1036 -1037 0
-1036 -1038 0
-1036 -1039 0
-1036 -1040 0
-1036 -1041 0
-1036 -1042 0
-29 1036 1037 1038 1039 1040 1041 1042 0
-1043 0
-1044 61 0
-1045 7 0
-1045 57 0
-7 -57 1045 0
-1046 29 0
-1046 59 0
-29 -59 1046 0
-1047 77 0
-1047 65 0
-77 -65 1047 0
-1048 93 0
-1048 67 0
-93 -67 1048 0
-1049 109 0
-1049 69 0
-109 -69 1049 0
-1050 125 0
-1050 71 0
-125 -71 1050 0
-1044 -1045 0
-1044 -1046 0
-1044 -1047 0
-1044 -1048 0
-1044 -1049 0
-1044 -1050 0
-61 1044 1045 1046 1047 1048 1049 1050 0
-1051 77 0
-1052 7 0
-1052 73 0
-7 -73 1052 0
-1053 29 0
-1053 75 0
-29 -75 1053 0
-1054 61 0
-1054 79 0
-61 -79 1054 0
-1055 93 0
-1055 83 0
-93 -83 1055 0
-1056 109 0
-1056 85 0
-109 -85 1056 0
-1057 125 0
-1057 87 0
-125 -87 1057 0
-1051 -1052 0
-1051 -1053 0
-1051 -1054 0
-1051 -1055 0
-1051 -1056 0
-1051 -1057 0
-77 1051 1052 1053 1054 1055 1056 1057 0
-1058 93 0
-1059 7 0
-1059 89 0
-7 -89 1059 0
-1060 29 0
-1060 91 0
-29 -91 1060 0
-1061 61 0
-1061 95 0
-61 -95 1061 0
-1062 77 0
-1062 97 0
-77 -97 1062 0
-1063 109 0
-1063 101 0
-109 -101 1063 0
-1064 125 0
-1064 103 0
-125 -103 1064 0
-1058 -1059 0
-1058 -1060 0
-1058 -1061 0
-1058 -1062 0
-1058 -1063 0
-1058 -1064 0
-93 1058 1059 1060 1061 1062 1063 1064 0
-1065 109 0
-1066 7 0
-1066 105 0
-7 -105 1066 0
-1067 29 0
-1067 107 0
-29 -107 1067 0
-1068 61 0
-1068 111 0
-61 -111 1068 0
-1069 77 0
-1069 113 0
-77 -113 1069 0
-1070 93 0
-1070 115 0
-93 -115 1070 0
-1071 125 0
-1071 119 0
-125 -119 1071 0
-1065 -1066 0
-1065 -1067 0
-1065 -1068 0
-1065 -1069 0
-1065 -1070 0
-1065 -1071 0
-109 1065 1066 1067 1068 1069 1070 1071 0
-1072 125 0
-1073 7 0
-1073 121 0
-7 -121 1073 0
-1074 29 0
-1074 123 0
-29 -123 1074 0
-1075 61 0
-1075 127 0
-61 -127 1075 0
-1076 77 0
-1076 129 0
-77 -129 1076 0
-1077 93 0
-1077 131 0
-93 -131 1077 0
-1078 109 0
-1078 133 0
-109 -133 1078 0
-1072 -1073 0
-1072 -1074 0
-1072 -1075 0
-1072 -1076 0
-1072 -1077 0
-1072 -1078 0
-125 1072 1073 1074 1075 1076 1077 1078 0
-1079 10 0
-1080 31 0
-1080 4 0
-31 -4 1080 0
-1081 47 0
-1081 7 0
-47 -7 1081 0
-1082 79 0
-1082 13 0
-79 -13 1082 0
-1083 95 0
-1083 16 0
-95 -16 1083 0
-1084 111 0
-1084 19 0
-111 -19 1084 0
-1085 127 0
-1085 22 0
-127 -22 1085 0
-1079 -1080 0
-1079 -1081 0
-1079 -1082 0
-1079 -1083 0
-1079 -1084 0
-1079 -1085 0
-10 1079 1080 1081 1082 1083 1084 1085 0
-1086 31 0
-1087 10 0
-1087 25 0
-10 -25 1087 0
-1088 47 0
-1088 29 0
-47 -29 1088 0
-1089 79 0
-1089 33 0
-79 -33 1089 0
-1090 95 0
-1090 35 0
-95 -35 1090 0
-1091 111 0
-1091 37 0
-111 -37 1091 0
-1092 127 0
-1092 39 0
-127 -39 1092 0
-1086 -1087 0
-1086 -1088 0
-1086 -1089 0
-1086 -1090 0
-1086 -1091 0
-1086 -1092 0
-31 1086 1087 1088 1089 1090 1091 1092 0
-1093 47 0
-1094 10 0
-1094 41 0
-10 -41 1094 0
-1095 31 0
-1095 43 0
-31 -43 1095 0
-1096 79 0
-1096 49 0
-79 -49 1096 0
-1097 95 0
-1097 51 0
-95 -51 1097 0
-1098 111 0
-1098 53 0
-111 -53 1098 0
-1099 127 0
-1099 55 0
-127 -55 1099 0
-1093 -1094 0
-1093 -1095 0
-1093 -1096 0
-1093 -1097 0
-1093 -1098 0
-1093 -1099 0
-47 1093 1094 1095 1096 1097 1098 1099 0
-1100 0
-1101 79 0
-1102 10 0
-1102 73 0
-10 -73 1102 0
-1103 31 0
-1103 75 0
-31 -75 1103 0
-1104 47 0
-1104 77 0
-47 -77 1104 0
-1105 95 0
-1105 83 0
-95 -83 1105 0
-1106 111 0
-1106 85 0
-111 -85 1106 0
-1107 127 0
-1107 87 0
-127 -87 1107 0
-1101 -1102 0
-1101 -1103 0
-1101 -1104 0
-1101 -1105 0
-1101 -1106 0
-1101 -1107 0
-79 1101 1102 1103 1104 1105 1106 1107 0
-1108 95 0
-1109 10 0
-1109 89 0
-10 -89 1109 0
-1110 31 0
-1110 91 0
-31 -91 1110 0
-1111 47 0
-1111 93 0
-47 -93 1111 0
-1112 79 0
-1112 97 0
-79 -97 1112 0
-1113 111 0
-1113 101 0
-111 -101 1113 0
-1114 127 0
-1114 103 0
-127 -103 1114 0
-1108 -1109 0
-1108 -1110 0
-1108 -1111 0
-1108 -1112 0
-1108 -1113 0
-1108 -1114 0
-95 1108 1109 1110 1111 1112 1113 1114 0
-1115 111 0
-1116 10 0
-1116 105 0
-10 -105 1116 0
-1117 31 0
-1117 107 0
-31 -107 1117 0
-1118 47 0
-1118 109 0
-47 -109 1118 0
-1119 79 0
-1119 113 0
-79 -113 1119 0
-1120 95 0
-1120 115 0
-95 -115 1120 0
-1121 127 0
-1121 119 0
-127 -119 1121 0
-1115 -1116 0
-1115 -1117 0
-1115 -1118 0
-1115 -1119 0
-1115 -1120 0
-1115 -1121 0
-111 1115 1116 1117 1118 1119 1120 1121 0
-1122 127 0
-1123 10 0
-1123 121 0
-10 -121 1123 0
-1124 31 0
-1124 123 0
-31 -123 1124 0
-1125 47 0
-1125 125 0
-47 -125 1125 0
-1126 79 0
-1126 129 0
-79 -129 1126 0
-1127 95 0
-1127 131 0
-95 -131 1127 0
-1128 111 0
-1128 133 0
-111 -133 1128 0
-1122 -1123 0
-1122 -1124 0
-1122 -1125 0
-1122 -1126 0
-1122 -1127 0
-1122 -1128 0
-127 1122 1123 1124 1125 1126 1127 1128 0
-1129 13 0
-1130 33 0
-1130 4 0
-33 -4 1130 0
-1131 49 0
-1131 7 0
-49 -7 1131 0
-1132 65 0
-1132 10 0
-65 -10 1132 0
-1133 97 0
-1133 16 0
-97 -16 1133 0
-1134 113 0
-1134 19 0
-113 -19 1134 0
-1135 129 0
-1135 22 0
-129 -22 1135 0
-1129 -1130 0
-1129 -1131 0
-1129 -1132 0
-1129 -1133 0
-1129 -1134 0
-1129 -1135 0
-13 1129 1130 1131 1132 1133 1134 1135 0
-1136 33 0
-1137 13 0
-1137 25 0
-13 -25 1137 0
-1138 49 0
-1138 29 0
-49 -29 1138 0
-1139 65 0
-1139 31 0
-65 -31 1139 0
-1140 97 0
-1140 35 0
-97 -35 1140 0
-1141 113 0
-1141 37 0
-113 -37 1141 0
-1142 129 0
-1142 39 0
-129 -39 1142 0
-1136 -1137 0
-1136 -1138 0
-1136 -1139 0
-1136 -1140 0
-1136 -1141 0
-1136 -1142 0
-33 1136 1137 1138 1139 1140 1141 1142 0
-1143 49 0
-1144 13 0
-1144 41 0
-13 -41 1144 0
-1145 33 0
-1145 43 0
-33 -43 1145 0
-1146 65 0
-1146 47 0
-65 -47 1146 0
-1147 97 0
-1147 51 0
-97 -51 1147 0
-1148 113 0
-1148 53 0
-113 -53 1148 0
-1149 129 0
-1149 55 0
-129 -55 1149 0
-1143 -1144 0
-1143 -1145 0
-1143 -1146 0
-1143 -1147 0
-1143 -1148 0
-1143 -1149 0
-49 1143 1144 1145 1146 1147 1148 1149 0
-1150 65 0
-1151 13 0
-1151 57 0
-13 -57 1151 0
-1152 33 0
-1152 59 0
-33 -59 1152 0
-1153 49 0
-1153 61 0
-49 -61 1153 0
-1154 97 0
-1154 67 0
-97 -67 1154 0
-1155 113 0
-1155 69 0
-113 -69 1155 0
-1156 129 0
-1156 71 0
-129 -71 1156 0
-1150 -1151 0
-1150 -1152 0
-1150 -1153 0
-1150 -1154 0
-1150 -1155 0
-1150 -1156 0
-65 1150 1151 1152 1153 1154 1155 1156 0
-1157 0
-1158 97 0
-1159 13 0
-1159 89 0
-13 -89 1159 0
-1160 33 0
-1160 91 0
-33 -91 1160 0
-1161 49 0
-1161 93 0
-49 -93 1161 0
-1162 65 0
-1162 95 0
-65 -95 1162 0
-1163 113 0
-1163 101 0
-113 -101 1163 0
-1164 129 0
-1164 103 0
-129 -103 1164 0
-1158 -1159 0
-1158 -1160 0
-1158 -1161 0
-1158 -1162 0
-1158 -1163 0
-1158 -1164 0
-97 1158 1159 1160 1161 1162 1163 1164 0
-1165 113 0
-1166 13 0
-1166 105 0
-13 -105 1166 0
-1167 33 0
-1167 107 0
-33 -107 1167 0
-1168 49 0
-1168 109 0
-49 -109 1168 0
-1169 65 0
-1169 111 0
-65 -111 1169 0
-1170 97 0
-1170 115 0
-97 -115 1170 0
-1171 129 0
-1171 119 0
-129 -119 1171 0
-1165 -1166 0
-1165 -1167 0
-1165 -1168 0
-1165 -1169 0
-1165 -1170 0
-1165 -1171 0
-113 1165 1166 1167 1168 1169 1170 1171 0
-1172 129 0
-1173 13 0
-1173 121 0
-13 -121 1173 0
-1174 33 0
-1174 123 0
-33 -123 1174 0
-1175 49 0
-1175 125 0
-49 -125 1175 0
-1176 65 0
-1176 127 0
-65 -127 1176 0
-1177 97 0
-1177 131 0
-97 -131 1177 0
-1178 113 0
-1178 133 0
-113 -133 1178 0
-1172 -1173 0
-1172 -1174 0
-1172 -1175 0
-1172 -1176 0
-1172 -1177 0
-1172 -1178 0
-129 1172 1173 1174 1175 1176 1177 1178 0
-1179 16 0
-1180 35 0
-1180 4 0
-35 -4 1180 0
-1181 51 0
-1181 7 0
-51 -7 1181 0
-1182 67 0
-1182 10 0
-67 -10 1182 0
-1183 83 0
-1183 13 0
-83 -13 1183 0
-1184 115 0
-1184 19 0
-115 -19 1184 0
-1185 131 0
-1185 22 0
-131 -22 1185 0
-1179 -1180 0
-1179 -1181 0
-1179 -1182 0
-1179 -1183 0
-1179 -1184 0
-1179 -1185 0
-16 1179 1180 1181 1182 1183 1184 1185 0
-1186 35 0
-1187 16 0
-1187 25 0
-16 -25 1187 0
-1188 51 0
-1188 29 0
-51 -29 1188 0
-1189 67 0
-1189 31 0
-67 -31 1189 0
-1190 83 0
-1190 33 0
-83 -33 1190 0
-1191 115 0
-1191 37 0
-115 -37 1191 0
-1192 131 0
-1192 39 0
-131 -39 1192 0
-1186 -1187 0
-1186 -1188 0
-1186 -1189 0
-1186 -1190 0
-1186 -1191 0
-1186 -1192 0
-35 1186 1187 1188 1189 1190 1191 1192 0
-1193 51 0
-1194 16 0
-1194 41 0
-16 -41 1194 0
-1195 35 0
-1195 43 0
-35 -43 1195 0
-1196 67 0
-1196 47 0
-67 -47 1196 0
-1197 83 0
-1197 49 0
-83 -49 1197 0
-1198 115 0
-1198 53 0
-115 -53 1198 0
-1199 131 0
-1199 55 0
-131 -55 1199 0
-1193 -1194 0
-1193 -1195 0
-1193 -1196 0
-1193 -1197 0
-1193 -1198 0
-1193 -1199 0
-51 1193 1194 1195 1196 1197 1198 1199 0
-1200 67 0
-1201 16 0
-1201 57 0
-16 -57 1201 0
-1202 35 0
-1202 59 0
-35 -59 1202 0
-1203 51 0
-1203 61 0
-51 -61 1203 0
-1204 83 0
-1204 65 0
-83 -65 1204 0
-1205 115 0
-1205 69 0
-115 -69 1205 0
-1206 131 0
-1206 71 0
-131 -71 1206 0
-1200 -1201 0
-1200 -1202 0
-1200 -1203 0
-1200 -1204 0
-1200 -1205 0
-1200 -1206 0
-67 1200 1201 1202 1203 1204 1205 1206 0
-1207 83 0
-1208 16 0
-1208 73 0
-16 -73 1208 0
-1209 35 0
-1209 75 0
-35 -75 1209 0
-1210 51 0
-1210 77 0
-51 -77 1210 0
-1211 67 0
-1211 79 0
-67 -79 1211 0
-1212 115 0
-1212 85 0
-115 -85 1212 0
-1213 131 0
-1213 87 0
-131 -87 1213 0
-1207 -1208 0
-1207 -1209 0
-1207 -1210 0
-1207 -1211 0
-1207 -1212 0
-1207 -1213 0
-83 1207 1208 1209 1210 1211 1212 1213 0
-1214 0
-1215 115 0
-1216 16 0
-1216 105 0
-16 -105 1216 0
-1217 35 0
-1217 107 0
-35 -107 1217 0
-1218 51 0
-1218 109 0
-51 -109 1218 0
-1219 67 0
-1219 111 0
-67 -111 1219 0
-1220 83 0
-1220 113 0
-83 -113 1220 0
-1221 131 0
-1221 119 0
-131 -119 1221 0
-1215 -1216 0
-1215 -1217 0
-1215 -1218 0
-1215 -1219 0
-1215 -1220 0
-1215 -1221 0
-115 1215 1216 1217 1218 1219 1220 1221 0
-1222 131 0
-1223 16 0
-1223 121 0
-16 -121 1223 0
-1224 35 0
-1224 123 0
-35 -123 1224 0
-1225 51 0
-1225 125 0
-51 -125 1225 0
-1226 67 0
-1226 127 0
-67 -127 1226 0
-1227 83 0
-1227 129 0
-83 -129 1227 0
-1228 115 0
-1228 133 0
-115 -133 1228 0
-1222 -1223 0
-1222 -1224 0
-1222 -1225 0
-1222 -1226 0
-1222 -1227 0
-1222 -1228 0
-131 1222 1223 1224 1225 1226 1227 1228 0
-1229 19 0
-1230 37 0
-1230 4 0
-37 -4 1230 0
-1231 53 0
-1231 7 0
-53 -7 1231 0
-1232 69 0
-1232 10 0
-69 -10 1232 0
-1233 85 0
-1233 13 0
-85 -13 1233 0
-1234 101 0
-1234 16 0
-101 -16 1234 0
-1235 133 0
-1235 22 0
-133 -22 1235 0
-1229 -1230 0
-1229 -1231 0
-1229 -1232 0
-1229 -1233 0
-1229 -1234 0
-1229 -1235 0
-19 1229 1230 1231 1232 1233 1234 1235 0
-1236 37 0
-1237 19 0
-1237 25 0
-19 -25 1237 0
-1238 53 0
-1238 29 0
-53 -29 1238 0
-1239 69 0
-1239 31 0
-69 -31 1239 0
-1240 85 0
-1240 33 0
-85 -33 1240 0
-1241 101 0
-1241 35 0
-101 -35 1241 0
-1242 133 0
-1242 39 0
-133 -39 1242 0
-1236 -1237 0
-1236 -1238 0
-1236 -1239 0
-1236 -1240 0
-1236 -1241 0
-1236 -1242 0
-37 1236 1237 1238 1239 1240 1241 1242 0
-1243 53 0
-1244 19 0
-1244 41 0
-19 -41 1244 0
-1245 37 0
-1245 43 0
-37 -43 1245 0
-1246 69 0
-1246 47 0
-69 -47 1246 0
-1247 85 0
-1247 49 0
-85 -49 1247 0
-1248 101 0
-1248 51 0
-101 -51 1248 0
-1249 133 0
-1249 55 0
-133 -55 1249 0
-1243 -1244 0
-1243 -1245 0
-1243 -1246 0
-1243 -1247 0
-1243 -1248 0
-1243 -1249 0
-53 1243 1244 1245 1246 1247 1248 1249 0
-1250 69 0
-1251 19 0
-1251 57 0
-19 -57 1251 0
-1252 37 0
-1252 59 0
-37 -59 1252 0
-1253 53 0
-1253 61 0
-53 -61 1253 0
-1254 85 0
-1254 65 0
-85 -65 1254 0
-1255 101 0
-1255 67 0
-101 -67 1255 0
-1256 133 0
-1256 71 0
-133 -71 1256 0
-1250 -1251 0
-1250 -1252 0
-1250 -1253 0
-1250 -1254 0
-1250 -1255 0
-1250 -1256 0
-69 1250 1251 1252 1253 1254 1255 1256 0
-1257 85 0
-1258 19 0
-1258 73 0
-19 -73 1258 0
-1259 37 0
-1259 75 0
-37 -75 1259 0
-1260 53 0
-1260 77 0
-53 -77 1260 0
-1261 69 0
-1261 79 0
-69 -79 1261 0
-1262 101 0
-1262 83 0
-101 -83 1262 0
-1263 133 0
-1263 87 0
-133 -87 1263 0
-1257 -1258 0
-1257 -1259 0
-1257 -1260 0
-1257 -1261 0
-1257 -1262 0
-1257 -1263 0
-85 1257 1258 1259 1260 1261 1262 1263 0
-1264 101 0
-1265 19 0
-1265 89 0
-19 -89 1265 0
-1266 37 0
-1266 91 0
-37 -91 1266 0
-1267 53 0
-1267 93 0
-53 -93 1267 0
-1268 69 0
-1268 95 0
-69 -95 1268 0
-1269 85 0
-1269 97 0
-85 -97 1269 0
-1270 133 0
-1270 103 0
-133 -103 1270 0
-1264 -1265 0
-1264 -1266 0
-1264 -1267 0
-1264 -1268 0
-1264 -1269 0
-1264 -1270 0
-101 1264 1265 1266 1267 1268 1269 1270 0
-1271 0
-1272 133 0
-1273 19 0
-1273 121 0
-19 -121 1273 0
-1274 37 0
-1274 123 0
-37 -123 1274 0
-1275 53 0
-1275 125 0
-53 -125 1275 0
-1276 69 0
-1276 127 0
-69 -127 1276 0
-1277 85 0
-1277 129 0
-85 -129 1277 0
-1278 101 0
-1278 131 0
-101 -131 1278 0
-1272 -1273 0
-1272 -1274 0
-1272 -1275 0
-1272 -1276 0
-1272 -1277 0
-1272 -1278 0
-133 1272 1273 1274 1275 1276 1277 1278 0
-1279 22 0
-1280 39 0
-1280 4 0
-39 -4 1280 0
-1281 55 0
-1281 7 0
-55 -7 1281 0
-1282 71 0
-1282 10 0
-71 -10 1282 0
-1283 87 0
-1283 13 0
-87 -13 1283 0
-1284 103 0
-1284 16 0
-103 -16 1284 0
-1285 119 0
-1285 19 0
-119 -19 1285 0
-1279 -1280 0
-1279 -1281 0
-1279 -1282 0
-1279 -1283 0
-1279 -1284 0
-1279 -1285 0
-22 1279 1280 1281 1282 1283 1284 1285 0
-1286 39 0
-1287 22 0
-1287 25 0
-22 -25 1287 0
-1288 55 0
-1288 29 0
-55 -29 1288 0
-1289 71 0
-1289 31 0
-71 -31 1289 0
-1290 87 0
-1290 33 0
-87 -33 1290 0
-1291 103 0
-1291 35 0
-103 -35 1291 0
-1292 119 0
-1292 37 0
-119 -37 1292 0
-1286 -1287 0
-1286 -1288 0
-1286 -1289 0
-1286 -1290 0
-1286 -1291 0
-1286 -1292 0
-39 1286 1287 1288 1289 1290 1291 1292 0
-1293 55 0
-1294 22 0
-1294 41 0
-22 -41 1294 0
-1295 39 0
-1295 43 0
-39 -43 1295 0
-1296 71 0
-1296 47 0
-71 -47 1296 0
-1297 87 0
-1297 49 0
-87 -49 1297 0
-1298 103 0
-1298 51 0
-103 -51 1298 0
-1299 119 0
-1299 53 0
-119 -53 1299 0
-1293 -1294 0
-1293 -1295 0
-1293 -1296 0
-1293 -1297 0
-1293 -1298 0
-1293 -1299 0
-55 1293 1294 1295 1296 1297 1298 1299 0
-1300 71 0
-1301 22 0
-1301 57 0
-22 -57 1301 0
-1302 39 0
-1302 59 0
-39 -59 1302 0
-1303 55 0
-1303 61 0
-55 -61 1303 0
-1304 87 0
-1304 65 0
-87 -65 1304 0
-1305 103 0
-1305 67 0
-103 -67 1305 0
-1306 119 0
-1306 69 0
-119 -69 1306 0
-1300 -1301 0
-1300 -1302 0
-1300 -1303 0
-1300 -1304 0
-1300 -1305 0
-1300 -1306 0
-71 1300 1301 1302 1303 1304 1305 1306 0
-1307 87 0
-1308 22 0
-1308 73 0
-22 -73 1308 0
-1309 39 0
-1309 75 0
-39 -75 1309 0
-1310 55 0
-1310 77 0
-55 -77 1310 0
-1311 71 0
-1311 79 0
-71 -79 1311 0
-1312 103 0
-1312 83 0
-103 -83 1312 0
-1313 119 0
-1313 85 0
-119 -85 1313 0
-1307 -1308 0
-1307 -1309 0
-1307 -1310 0
-1307 -1311 0
-1307 -1312 0
-1307 -1313 0
-87 1307 1308 1309 1310 1311 1312 1313 0
-1314 103 0
-1315 22 0
-1315 89 0
-22 -89 1315 0
-1316 39 0
-1316 91 0
-39 -91 1316 0
-1317 55 0
-1317 93 0
-55 -93 1317 0
-1318 71 0
-1318 95 0
-71 -95 1318 0
-1319 87 0
-1319 97 0
-87 -97 1319 0
-1320 119 0
-1320 101 0
-119 -101 1320 0
-1314 -1315 0
-1314 -1316 0
-1314 -1317 0
-1314 -1318 0
-1314 -1319 0
-1314 -1320 0
-103 1314 1315 1316 1317 1318 1319 1320 0
-1321 119 0
-1322 22 0
-1322 105 0
-22 -105 1322 0
-1323 39 0
-1323 107 0
-39 -107 1323 0
-1324 55 0
-1324 109 0
-55 -109 1324 0
-1325 71 0
-1325 111 0
-71 -111 1325 0
-1326 87 0
-1326 113 0
-87 -113 1326 0
-1327 103 0
-1327 115 0
-103 -115 1327 0
-1321 -1322 0
-1321 -1323 0
-1321 -1324 0
-1321 -1325 0
-1321 -1326 0
-1321 -1327 0
-119 1321 1322 1323 1324 1325 1326 1327 0
-1328 0
-1329 1 0
-1329 25 0
-1329 41 0
-1329 57 0
-1329 73 0
-1329 89 0
-1329 105 0
-1329 121 0
-1 -25 -41 -57 -73 -89 -105 -121 1329 0
-1330 1 0
-1330 4 0
-1330 7 0
-1330 10 0
-1330 13 0
-1330 16 0
-1330 19 0
-1330 22 0
-1 -4 -7 -10 -13 -16 -19 -22 1330 0
-1331 4 0
-1331 27 0
-1331 43 0
-1331 59 0
-1331 75 0
-1331 91 0
-1331 107 0
-1331 123 0
-4 -27 -43 -59 -75 -91 -107 -123 1331 0
-1332 25 0
-1332 27 0
-1332 29 0
-1332 31 0
-1332 33 0
-1332 35 0
-1332 37 0
-1332 39 0
-25 -27 -29 -31 -33 -35 -37 -39 1332 0
-1333 7 0
-1333 29 0
-1333 45 0
-1333 61 0
-1333 77 0
-1333 93 0
-1333 109 0
-1333 125 0
-7 -29 -45 -61 -77 -93 -109 -125 1333 0
-1334 41 0
-1334 43 0
-1334 45 0
-1334 47 0
-1334 49 0
-1334 51 0
-1334 53 0
-1334 55 0
-41 -43 -45 -47 -49 -51 -53 -55 1334 0
-1335 10 0
-1335 31 0
-1335 47 0
-1335 63 0
-1335 79 0
-1335 95 0
-1335 111 0
-1335 127 0
-10 -31 -47 -63 -79 -95 -111 -127 1335 0
-1336 57 0
-1336 59 0
-1336 61 0
-1336 63 0
-1336 65 0
-1336 67 0
-1336 69 0
-1336 71 0
-57 -59 -61 -63 -65 -67 -69 -71 1336 0
-1337 13 0
-1337 33 0
-1337 49 0
-1337 65 0
-1337 81 0
-1337 97 0
-1337 113 0
-1337 129 0
-13 -33 -49 -65 -81 -97 -113 -129 1337 0
-1338 73 0
-1338 75 0
-1338 77 0
-1338 79 0
-1338 81 0
-1338 83 0
-1338 85 0
-1338 87 0
-73 -75 -77 -79 -81 -83 -85 -87 1338 0
-1339 16 0
-1339 35 0
-1339 51 0
-1339 67 0
-1339 83 0
-1339 99 0
-1339 115 0
-1339 131 0
-16 -35 -51 -67 -83 -99 -115 -131 1339 0
-1340 89 0
-1340 91 0
-1340 93 0
-1340 95 0
-1340 97 0
-1340 99 0
-1340 101 0
-1340 103 0
-89 -91 -93 -95 -97 -99 -101 -103 1340 0
-1341 19 0
-1341 37 0
-1341 53 0
-1341 69 0
-1341 85 0
-1341 101 0
-1341 117 0
-1341 133 0
-19 -37 -53 -69 -85 -101 -117 -133 1341 0
-1342 105 0
-1342 107 0
-1342 109 0
-1342 111 0
-1342 113 0
-1342 115 0
-1342 117 0
-1342 119 0
-105 -107 -109 -111 -113 -115 -117 -119 1342 0
-1343 22 0
-1343 39 0
-1343 55 0
-1343 71 0
-1343 87 0
-1343 103 0
-1343 119 0
-1343 135 0
-22 -39 -55 -71 -87 -103 -119 -135 1343 0
-1344 121 0
-1344 123 0
-1344 125 0
-1344 127 0
-1344 129 0
-1344 131 0
-1344 133 0
-1344 135 0
-121 -123 -125 -127 -129 -131 -133 -135 1344 0
-929 609 0
-1330 -1329 609 0
-609 929 1330 0
-609 929 1329 0
-930 625 0
-1330 -1331 625 0
-625 930 1330 0
-625 930 1331 0
-937 641 0
-1330 -1333 641 0
-641 937 1330 0
-641 937 1333 0
-944 657 0
-1330 -1335 657 0
-657 944 1330 0
-657 944 1335 0
-951 673 0
-1330 -1337 673 0
-673 951 1330 0
-673 951 1337 0
-958 689 0
-1330 -1339 689 0
-689 958 1330 0
-689 958 1339 0
-965 705 0
-1330 -1341 705 0
-705 965 1330 0
-705 965 1341 0
-972 721 0
-1330 -1343 721 0
-721 972 1330 0
-721 972 1343 0
-979 611 0
-1332 -1329 611 0
-611 979 1332 0
-611 979 1329 0
-986 627 0
-1332 -1331 627 0
-627 986 1332 0
-627 986 1331 0
-987 643 0
-1332 -1333 643 0
-643 987 1332 0
-643 987 1333 0
-994 659 0
-1332 -1335 659 0
-659 994 1332 0
-659 994 1335 0
-1001 675 0
-1332 -1337 675 0
-675 1001 1332 0
-675 1001 1337 0
-1008 691 0
-1332 -1339 691 0
-691 1008 1332 0
-691 1008 1339 0
-1015 707 0
-1332 -1341 707 0
-707 1015 1332 0
-707 1015 1341 0
-1022 723 0
-1332 -1343 723 0
-723 1022 1332 0
-723 1022 1343 0
-1029 613 0
-1334 -1329 613 0
-613 1029 1334 0
-613 1029 1329 0
-1036 629 0
-1334 -1331 629 0
-629 1036 1334 0
-629 1036 1331 0
-1043 645 0
-1334 -1333 645 0
-645 1043 1334 0
-645 1043 1333 0
-1044 661 0
-1334 -1335 661 0
-661 1044 1334 0
-661 1044 1335 0
-1051 677 0
-1334 -1337 677 0
-677 1051 1334 0
-677 1051 1337 0
-1058 693 0
-1334 -1339 693 0
-693 1058 1334 0
-693 1058 1339 0
-1065 709 0
-1334 -1341 709 0
-709 1065 1334 0
-709 1065 1341 0
-1072 725 0
-1334 -1343 725 0
-725 1072 1334 0
-725 1072 1343 0
-1079 615 0
-1336 -1329 615 0
-615 1079 1336 0
-615 1079 1329 0
-1086 631 0
-1336 -1331 631 0
-631 1086 1336 0
-631 1086 1331 0
-1093 647 0
-1336 -1333 647 0
-647 1093 1336 0
-647 1093 1333 0
-1100 663 0
-1336 -1335 663 0
-663 1100 1336 0
-663 1100 1335 0
-1101 679 0
-1336 -1337 679 0
-679 1101 1336 0
-679 1101 1337 0
-1108 695 0
-1336 -1339 695 0
-695 1108 1336 0
-695 1108 1339 0
-1115 711 0
-1336 -1341 711 0
-711 1115 1336 0
-711 1115 1341 0
-1122 727 0
-1336 -1343 727 0
-727 1122 1336 0
-727 1122 1343 0
-1129 617 0
-1338 -1329 617 0
-617 1129 1338 0
-617 1129 1329 0
-1136 633 0
-1338 -1331 633 0
-633 1136 1338 0
-633 1136 1331 0
-1143 649 0
-1338 -1333 649 0
-649 1143 1338 0
-649 1143 1333 0
-1150 665 0
-1338 -1335 665 0
-665 1150 1338 0
-665 1150 1335 0
-1157 681 0
-1338 -1337 681 0
-681 1157 1338 0
-681 1157 1337 0
-1158 697 0
-1338 -1339 697 0
-697 1158 1338 0
-697 1158 1339 0
-1165 713 0
-1338 -1341 713 0
-713 1165 1338 0
-713 1165 1341 0
-1172 729 0
-1338 -1343 729 0
-729 1172 1338 0
-729 1172 1343 0
-1179 619 0
-1340 -1329 619 0
-619 1179 1340 0
-619 1179 1329 0
-1186 635 0
-1340 -1331 635 0
-635 1186 1340 0
-635 1186 1331 0
-1193 651 0
-1340 -1333 651 0
-651 1193 1340 0
-651 1193 1333 0
-1200 667 0
-1340 -1335 667 0
-667 1200 1340 0
-667 1200 1335 0
-1207 683 0
-1340 -1337 683 0
-683 1207 1340 0
-683 1207 1337 0
-1214 699 0
-1340 -1339 699 0
-699 1214 1340 0
-699 1214 1339 0
-1215 715 0
-1340 -1341 715 0
-715 1215 1340 0
-715 1215 1341 0
-1222 731 0
-1340 -1343 731 0
-731 1222 1340 0
-731 1222 1343 0
-1229 621 0
-1342 -1329 621 0
-621 1229 1342 0
-621 1229 1329 0
-1236 637 0
-1342 -1331 637 0
-637 1236 1342 0
-637 1236 1331 0
-1243 653 0
-1342 -1333 653 0
-653 1243 1342 0
-653 1243 1333 0
-1250 669 0
-1342 -1335 669 0
-669 1250 1342 0
-669 1250 1335 0
-1257 685 0
-1342 -1337 685 0
-685 1257 1342 0
-685 1257 1337 0
-1264 701 0
-1342 -1339 701 0
-701 1264 1342 0
-701 1264 1339 0
-1271 717 0
-1342 -1341 717 0
-717 1271 1342 0
-717 1271 1341 0
-1272 733 0
-1342 -1343 733 0
-733 1272 1342 0
-733 1272 1343 0
-1279 623 0
-1344 -1329 623 0
-623 1279 1344 0
-623 1279 1329 0
-1286 639 0
-1344 -1331 639 0
-639 1286 1344 0
-639 1286 1331 0
-1293 655 0
-1344 -1333 655 0
-655 1293 1344 0
-655 1293 1333 0
-1300 671 0
-1344 -1335 671 0
-671 1300 1344 0
-671 1300 1335 0
-1307 687 0
-1344 -1337 687 0
-687 1307 1344 0
-687 1307 1337 0
-1314 703 0
-1344 -1339 703 0
-703 1314 1344 0
-703 1314 1339 0
-1321 719 0
-1344 -1341 719 0
-719 1321 1344 0
-719 1321 1341 0
-1328 735 0
-1344 -1343 735 0
-735 1328 1344 0
-735 1328 1343 0
