p cnf 1264 4768
1 2 -2 -3 0
4 2 -5 -6 0
7 2 -8 -9 0
10 2 -11 -12 0
13 2 -14 -15 0
16 2 -17 -18 0
19 2 -20 -21 0
22 2 -23 -24 0
25 5 -2 -26 0
27 5 -5 -28 0
29 5 -8 -30 0
31 5 -11 -32 0
33 5 -14 -34 0
35 5 -17 -36 0
37 5 -20 -38 0
39 5 -23 -40 0
41 8 -2 -42 0
43 8 -5 -44 0
45 8 -8 -46 0
47 8 -11 -48 0
49 8 -14 -50 0
51 8 -17 -52 0
53 8 -20 -54 0
55 8 -23 -56 0
57 11 -2 -58 0
59 11 -5 -60 0
61 11 -8 -62 0
63 11 -11 -64 0
65 11 -14 -66 0
67 11 -17 -68 0
69 11 -20 -70 0
71 11 -23 -72 0
73 14 -2 -74 0
75 14 -5 -76 0
77 14 -8 -78 0
79 14 -11 -80 0
81 14 -14 -82 0
83 14 -17 -84 0
85 14 -20 -86 0
87 14 -23 -88 0
89 17 -2 -90 0
91 17 -5 -92 0
93 17 -8 -94 0
95 17 -11 -96 0
97 17 -14 -98 0
99 17 -17 -100 0
101 17 -20 -102 0
103 17 -23 -104 0
105 20 -2 -106 0
107 20 -5 -108 0
109 20 -8 -110 0
111 20 -11 -112 0
113 20 -14 -114 0
115 20 -17 -116 0
117 20 -20 -118 0
119 20 -23 -120 0
121 23 -2 -122 0
123 23 -5 -124 0
125 23 -8 -126 0
127 23 -11 -128 0
129 23 -14 -130 0
131 23 -17 -132 0
133 23 -20 -134 0
135 23 -23 -136 0
3 -1 0
6 -4 0
9 -7 0
12 -10 0
15 -13 0
18 -16 0
21 -19 0
24 -22 0
26 -25 0
28 -27 0
30 -29 0
32 -31 0
34 -33 0
36 -35 0
38 -37 0
40 -39 0
42 -41 0
44 -43 0
46 -45 0
48 -47 0
50 -49 0
52 -51 0
54 -53 0
56 -55 0
58 -57 0
60 -59 0
62 -61 0
64 -63 0
66 -65 0
68 -67 0
70 -69 0
72 -71 0
74 -73 0
76 -75 0
78 -77 0
80 -79 0
82 -81 0
84 -83 0
86 -85 0
88 -87 0
90 -89 0
92 -91 0
94 -93 0
96 -95 0
98 -97 0
100 -99 0
102 -101 0
104 -103 0
106 -105 0
108 -107 0
110 -109 0
112 -111 0
114 -113 0
116 -115 0
118 -117 0
120 -119 0
122 -121 0
124 -123 0
126 -125 0
128 -127 0
130 -129 0
132 -131 0
134 -133 0
136 -135 0
3 -2 0
6 -2 0
9 -2 0
12 -2 0
15 -2 0
18 -2 0
21 -2 0
24 -2 0
26 -5 0
28 -5 0
30 -5 0
32 -5 0
34 -5 0
36 -5 0
38 -5 0
40 -5 0
42 -8 0
44 -8 0
46 -8 0
48 -8 0
50 -8 0
52 -8 0
54 -8 0
56 -8 0
58 -11 0
60 -11 0
62 -11 0
64 -11 0
66 -11 0
68 -11 0
70 -11 0
72 -11 0
74 -14 0
76 -14 0
78 -14 0
80 -14 0
82 -14 0
84 -14 0
86 -14 0
88 -14 0
90 -17 0
92 -17 0
94 -17 0
96 -17 0
98 -17 0
100 -17 0
102 -17 0
104 -17 0
106 -20 0
108 -20 0
110 -20 0
112 -20 0
114 -20 0
116 -20 0
118 -20 0
120 -20 0
122 -23 0
124 -23 0
126 -23 0
128 -23 0
130 -23 0
132 -23 0
134 -23 0
136 -23 0
3 2 0
6 5 0
9 8 0
12 11 0
15 14 0
18 17 0
21 20 0
24 23 0
26 2 0
28 5 0
30 8 0
32 11 0
34 14 0
36 17 0
38 20 0
40 23 0
42 2 0
44 5 0
46 8 0
48 11 0
50 14 0
52 17 0
54 20 0
56 23 0
58 2 0
60 5 0
62 8 0
64 11 0
66 14 0
68 17 0
70 20 0
72 23 0
74 2 0
76 5 0
78 8 0
80 11 0
82 14 0
84 17 0
86 20 0
88 23 0
90 2 0
92 5 0
94 8 0
96 11 0
98 14 0
100 17 0
102 20 0
104 23 0
106 2 0
108 5 0
110 8 0
112 11 0
114 14 0
116 17 0
118 20 0
120 23 0
122 2 0
124 5 0
126 8 0
128 11 0
130 14 0
132 17 0
134 20 0
136 23 0
137 137 -138 -139 0
140 141 -142 -143 0
144 145 -146 -147 0
148 149 -150 -151 0
152 153 -154 -155 0
156 157 -158 -159 0
160 161 -162 -163 0
164 165 -166 -167 0
141 140 -168 -169 0
170 170 -171 -172 0
173 174 -175 -176 0
177 178 -179 -180 0
181 182 -183 -184 0
185 186 -187 -188 0
189 190 -191 -192 0
193 194 -195 -196 0
145 144 -197 -198 0
174 173 -199 -200 0
201 201 -202 -203 0
204 205 -206 -207 0
208 209 -210 -211 0
212 213 -214 -215 0
216 217 -218 -219 0
220 221 -222 -223 0
149 148 -224 -225 0
178 177 -226 -227 0
205 204 -228 -229 0
230 230 -231 -232 0
233 234 -235 -236 0
237 238 -239 -240 0
241 242 -243 -244 0
245 246 -247 -248 0
153 152 -249 -250 0
182 181 -251 -252 0
209 208 -253 -254 0
234 233 -255 -256 0
257 257 -258 -259 0
260 261 -262 -263 0
264 265 -266 -267 0
268 269 -270 -271 0
157 156 -272 -273 0
186 185 -274 -275 0
213 212 -276 -277 0
238 237 -278 -279 0
261 260 -280 -281 0
282 282 -283 -284 0
285 286 -287 -288 0
289 290 -291 -292 0
161 160 -293 -294 0
190 189 -295 -296 0
217 216 -297 -298 0
242 241 -299 -300 0
265 264 -301 -302 0
286 285 -303 -304 0
305 305 -306 -307 0
308 309 -310 -311 0
165 164 -312 -313 0
194 193 -314 -315 0
221 220 -316 -317 0
246 245 -318 -319 0
269 268 -320 -321 0
290 289 -322 -323 0
309 308 -324 -325 0
326 326 -327 -328 0
139 -137 0
143 -140 0
147 -144 0
151 -148 0
155 -152 0
159 -156 0
163 -160 0
167 -164 0
169 -141 0
172 -170 0
176 -173 0
180 -177 0
184 -181 0
188 -185 0
192 -189 0
196 -193 0
198 -145 0
200 -174 0
203 -201 0
207 -204 0
211 -208 0
215 -212 0
219 -216 0
223 -220 0
225 -149 0
227 -178 0
229 -205 0
232 -230 0
236 -233 0
240 -237 0
244 -241 0
248 -245 0
250 -153 0
252 -182 0
254 -209 0
256 -234 0
259 -257 0
263 -260 0
267 -264 0
271 -268 0
273 -157 0
275 -186 0
277 -213 0
279 -238 0
281 -261 0
284 -282 0
288 -285 0
292 -289 0
294 -161 0
296 -190 0
298 -217 0
300 -242 0
302 -265 0
304 -286 0
307 -305 0
311 -308 0
313 -165 0
315 -194 0
317 -221 0
319 -246 0
321 -269 0
323 -290 0
325 -309 0
328 -326 0
139 -137 0
143 -141 0
147 -145 0
151 -149 0
155 -153 0
159 -157 0
163 -161 0
167 -165 0
169 -140 0
172 -170 0
176 -174 0
180 -178 0
184 -182 0
188 -186 0
192 -190 0
196 -194 0
198 -144 0
200 -173 0
203 -201 0
207 -205 0
211 -209 0
215 -213 0
219 -217 0
223 -221 0
225 -148 0
227 -177 0
229 -204 0
232 -230 0
236 -234 0
240 -238 0
244 -242 0
248 -246 0
250 -152 0
252 -181 0
254 -208 0
256 -233 0
259 -257 0
263 -261 0
267 -265 0
271 -269 0
273 -156 0
275 -185 0
277 -212 0
279 -237 0
281 -260 0
284 -282 0
288 -286 0
292 -290 0
294 -160 0
296 -189 0
298 -216 0
300 -241 0
302 -264 0
304 -285 0
307 -305 0
311 -309 0
313 -164 0
315 -193 0
317 -220 0
319 -245 0
321 -268 0
323 -289 0
325 -308 0
328 -326 0
139 138 0
143 142 0
147 146 0
151 150 0
155 154 0
159 158 0
163 162 0
167 166 0
169 168 0
172 171 0
176 175 0
180 179 0
184 183 0
188 187 0
192 191 0
196 195 0
198 197 0
200 199 0
203 202 0
207 206 0
211 210 0
215 214 0
219 218 0
223 222 0
225 224 0
227 226 0
229 228 0
232 231 0
236 235 0
240 239 0
244 243 0
248 247 0
250 249 0
252 251 0
254 253 0
256 255 0
259 258 0
263 262 0
267 266 0
271 270 0
273 272 0
275 274 0
277 276 0
279 278 0
281 280 0
284 283 0
288 287 0
292 291 0
294 293 0
296 295 0
298 297 0
300 299 0
302 301 0
304 303 0
307 306 0
311 310 0
313 312 0
315 314 0
317 316 0
319 318 0
321 320 0
323 322 0
325 324 0
328 327 0
137 137 329 0
140 141 330 0
144 145 331 0
148 149 332 0
152 153 333 0
156 157 334 0
160 161 335 0
164 165 336 0
141 140 337 0
170 170 338 0
173 174 339 0
177 178 340 0
181 182 341 0
185 186 342 0
189 190 343 0
193 194 344 0
145 144 345 0
174 173 346 0
201 201 347 0
204 205 348 0
208 209 349 0
212 213 350 0
216 217 351 0
220 221 352 0
149 148 353 0
178 177 354 0
205 204 355 0
230 230 356 0
233 234 357 0
237 238 358 0
241 242 359 0
245 246 360 0
153 152 361 0
182 181 362 0
209 208 363 0
234 233 364 0
257 257 365 0
260 261 366 0
264 265 367 0
268 269 368 0
157 156 369 0
186 185 370 0
213 212 371 0
238 237 372 0
261 260 373 0
282 282 374 0
285 286 375 0
289 290 376 0
161 160 377 0
190 189 378 0
217 216 379 0
242 241 380 0
265 264 381 0
286 285 382 0
305 305 383 0
308 309 384 0
165 164 385 0
194 193 386 0
221 220 387 0
246 245 388 0
269 268 389 0
290 289 390 0
309 308 391 0
326 326 392 0
-329 -137 0
-330 -140 0
-331 -144 0
-332 -148 0
-333 -152 0
-334 -156 0
-335 -160 0
-336 -164 0
-337 -141 0
-338 -170 0
-339 -173 0
-340 -177 0
-341 -181 0
-342 -185 0
-343 -189 0
-344 -193 0
-345 -145 0
-346 -174 0
-347 -201 0
-348 -204 0
-349 -208 0
-350 -212 0
-351 -216 0
-352 -220 0
-353 -149 0
-354 -178 0
-355 -205 0
-356 -230 0
-357 -233 0
-358 -237 0
-359 -241 0
-360 -245 0
-361 -153 0
-362 -182 0
-363 -209 0
-364 -234 0
-365 -257 0
-366 -260 0
-367 -264 0
-368 -268 0
-369 -157 0
-370 -186 0
-371 -213 0
-372 -238 0
-373 -261 0
-374 -282 0
-375 -285 0
-376 -289 0
-377 -161 0
-378 -190 0
-379 -217 0
-380 -242 0
-381 -265 0
-382 -286 0
-383 -305 0
-384 -308 0
-385 -165 0
-386 -194 0
-387 -221 0
-388 -246 0
-389 -269 0
-390 -290 0
-391 -309 0
-392 -326 0
-329 -137 0
-330 -141 0
-331 -145 0
-332 -149 0
-333 -153 0
-334 -157 0
-335 -161 0
-336 -165 0
-337 -140 0
-338 -170 0
-339 -174 0
-340 -178 0
-341 -182 0
-342 -186 0
-343 -190 0
-344 -194 0
-345 -144 0
-346 -173 0
-347 -201 0
-348 -205 0
-349 -209 0
-350 -213 0
-351 -217 0
-352 -221 0
-353 -148 0
-354 -177 0
-355 -204 0
-356 -230 0
-357 -234 0
-358 -238 0
-359 -242 0
-360 -246 0
-361 -152 0
-362 -181 0
-363 -208 0
-364 -233 0
-365 -257 0
-366 -261 0
-367 -265 0
-368 -269 0
-369 -156 0
-370 -185 0
-371 -212 0
-372 -237 0
-373 -260 0
-374 -282 0
-375 -286 0
-376 -290 0
-377 -160 0
-378 -189 0
-379 -216 0
-380 -241 0
-381 -264 0
-382 -285 0
-383 -305 0
-384 -309 0
-385 -164 0
-386 -193 0
-387 -220 0
-388 -245 0
-389 -268 0
-390 -289 0
-391 -308 0
-392 -326 0
138 329 -393 0
142 330 -394 0
146 331 -395 0
150 332 -396 0
154 333 -397 0
158 334 -398 0
162 335 -399 0
166 336 -400 0
168 337 -401 0
171 338 -402 0
175 339 -403 0
179 340 -404 0
183 341 -405 0
187 342 -406 0
191 343 -407 0
195 344 -408 0
197 345 -409 0
199 346 -410 0
202 347 -411 0
206 348 -412 0
210 349 -413 0
214 350 -414 0
218 351 -415 0
222 352 -416 0
224 353 -417 0
226 354 -418 0
228 355 -419 0
231 356 -420 0
235 357 -421 0
239 358 -422 0
243 359 -423 0
247 360 -424 0
249 361 -425 0
251 362 -426 0
253 363 -427 0
255 364 -428 0
258 365 -429 0
262 366 -430 0
266 367 -431 0
270 368 -432 0
272 369 -433 0
274 370 -434 0
276 371 -435 0
278 372 -436 0
280 373 -437 0
283 374 -438 0
287 375 -439 0
291 376 -440 0
293 377 -441 0
295 378 -442 0
297 379 -443 0
299 380 -444 0
301 381 -445 0
303 382 -446 0
306 383 -447 0
310 384 -448 0
312 385 -449 0
314 386 -450 0
316 387 -451 0
318 388 -452 0
320 389 -453 0
322 390 -454 0
324 391 -455 0
327 392 -456 0
393 -138 0
394 -142 0
395 -146 0
396 -150 0
397 -154 0
398 -158 0
399 -162 0
400 -166 0
401 -168 0
402 -171 0
403 -175 0
404 -179 0
405 -183 0
406 -187 0
407 -191 0
408 -195 0
409 -197 0
410 -199 0
411 -202 0
412 -206 0
413 -210 0
414 -214 0
415 -218 0
416 -222 0
417 -224 0
418 -226 0
419 -228 0
420 -231 0
421 -235 0
422 -239 0
423 -243 0
424 -247 0
425 -249 0
426 -251 0
427 -253 0
428 -255 0
429 -258 0
430 -262 0
431 -266 0
432 -270 0
433 -272 0
434 -274 0
435 -276 0
436 -278 0
437 -280 0
438 -283 0
439 -287 0
440 -291 0
441 -293 0
442 -295 0
443 -297 0
444 -299 0
445 -301 0
446 -303 0
447 -306 0
448 -310 0
449 -312 0
450 -314 0
451 -316 0
452 -318 0
453 -320 0
454 -322 0
455 -324 0
456 -327 0
393 -329 0
394 -330 0
395 -331 0
396 -332 0
397 -333 0
398 -334 0
399 -335 0
400 -336 0
401 -337 0
402 -338 0
403 -339 0
404 -340 0
405 -341 0
406 -342 0
407 -343 0
408 -344 0
409 -345 0
410 -346 0
411 -347 0
412 -348 0
413 -349 0
414 -350 0
415 -351 0
416 -352 0
417 -353 0
418 -354 0
419 -355 0
420 -356 0
421 -357 0
422 -358 0
423 -359 0
424 -360 0
425 -361 0
426 -362 0
427 -363 0
428 -364 0
429 -365 0
430 -366 0
431 -367 0
432 -368 0
433 -369 0
434 -370 0
435 -371 0
436 -372 0
437 -373 0
438 -374 0
439 -375 0
440 -376 0
441 -377 0
442 -378 0
443 -379 0
444 -380 0
445 -381 0
446 -382 0
447 -383 0
448 -384 0
449 -385 0
450 -386 0
451 -387 0
452 -388 0
453 -389 0
454 -390 0
455 -391 0
456 -392 0
-457 -2 -2 458 0
-459 -5 -2 460 0
-461 -8 -2 462 0
-463 -11 -2 464 0
-465 -14 -2 466 0
-467 -17 -2 468 0
-469 -20 -2 470 0
-471 -23 -2 472 0
-473 -2 -5 474 0
-475 -5 -5 476 0
-477 -8 -5 478 0
-479 -11 -5 480 0
-481 -14 -5 482 0
-483 -17 -5 484 0
-485 -20 -5 486 0
-487 -23 -5 488 0
-489 -2 -8 490 0
-491 -5 -8 492 0
-493 -8 -8 494 0
-495 -11 -8 496 0
-497 -14 -8 498 0
-499 -17 -8 500 0
-501 -20 -8 502 0
-503 -23 -8 504 0
-505 -2 -11 506 0
-507 -5 -11 508 0
-509 -8 -11 510 0
-511 -11 -11 512 0
-513 -14 -11 514 0
-515 -17 -11 516 0
-517 -20 -11 518 0
-519 -23 -11 520 0
-521 -2 -14 522 0
-523 -5 -14 524 0
-525 -8 -14 526 0
-527 -11 -14 528 0
-529 -14 -14 530 0
-531 -17 -14 532 0
-533 -20 -14 534 0
-535 -23 -14 536 0
-537 -2 -17 538 0
-539 -5 -17 540 0
-541 -8 -17 542 0
-543 -11 -17 544 0
-545 -14 -17 546 0
-547 -17 -17 548 0
-549 -20 -17 550 0
-551 -23 -17 552 0
-553 -2 -20 554 0
-555 -5 -20 556 0
-557 -8 -20 558 0
-559 -11 -20 560 0
-561 -14 -20 562 0
-563 -17 -20 564 0
-565 -20 -20 566 0
-567 -23 -20 568 0
-569 -2 -23 570 0
-571 -5 -23 572 0
-573 -8 -23 574 0
-575 -11 -23 576 0
-577 -14 -23 578 0
-579 -17 -23 580 0
-581 -20 -23 582 0
-583 -23 -23 584 0
-458 457 0
-460 459 0
-462 461 0
-464 463 0
-466 465 0
-468 467 0
-470 469 0
-472 471 0
-474 473 0
-476 475 0
-478 477 0
-480 479 0
-482 481 0
-484 483 0
-486 485 0
-488 487 0
-490 489 0
-492 491 0
-494 493 0
-496 495 0
-498 497 0
-500 499 0
-502 501 0
-504 503 0
-506 505 0
-508 507 0
-510 509 0
-512 511 0
-514 513 0
-516 515 0
-518 517 0
-520 519 0
-522 521 0
-524 523 0
-526 525 0
-528 527 0
-530 529 0
-532 531 0
-534 533 0
-536 535 0
-538 537 0
-540 539 0
-542 541 0
-544 543 0
-546 545 0
-548 547 0
-550 549 0
-552 551 0
-554 553 0
-556 555 0
-558 557 0
-560 559 0
-562 561 0
-564 563 0
-566 565 0
-568 567 0
-570 569 0
-572 571 0
-574 573 0
-576 575 0
-578 577 0
-580 579 0
-582 581 0
-584 583 0
-458 2 0
-460 5 0
-462 8 0
-464 11 0
-466 14 0
-468 17 0
-470 20 0
-472 23 0
-474 2 0
-476 5 0
-478 8 0
-480 11 0
-482 14 0
-484 17 0
-486 20 0
-488 23 0
-490 2 0
-492 5 0
-494 8 0
-496 11 0
-498 14 0
-500 17 0
-502 20 0
-504 23 0
-506 2 0
-508 5 0
-510 8 0
-512 11 0
-514 14 0
-516 17 0
-518 20 0
-520 23 0
-522 2 0
-524 5 0
-526 8 0
-528 11 0
-530 14 0
-532 17 0
-534 20 0
-536 23 0
-538 2 0
-540 5 0
-542 8 0
-544 11 0
-546 14 0
-548 17 0
-550 20 0
-552 23 0
-554 2 0
-556 5 0
-558 8 0
-560 11 0
-562 14 0
-564 17 0
-566 20 0
-568 23 0
-570 2 0
-572 5 0
-574 8 0
-576 11 0
-578 14 0
-580 17 0
-582 20 0
-584 23 0
-458 2 0
-460 2 0
-462 2 0
-464 2 0
-466 2 0
-468 2 0
-470 2 0
-472 2 0
-474 5 0
-476 5 0
-478 5 0
-480 5 0
-482 5 0
-484 5 0
-486 5 0
-488 5 0
-490 8 0
-492 8 0
-494 8 0
-496 8 0
-498 8 0
-500 8 0
-502 8 0
-504 8 0
-506 11 0
-508 11 0
-510 11 0
-512 11 0
-514 11 0
-516 11 0
-518 11 0
-520 11 0
-522 14 0
-524 14 0
-526 14 0
-528 14 0
-530 14 0
-532 14 0
-534 14 0
-536 14 0
-538 17 0
-540 17 0
-542 17 0
-544 17 0
-546 17 0
-548 17 0
-550 17 0
-552 17 0
-554 20 0
-556 20 0
-558 20 0
-560 20 0
-562 20 0
-564 20 0
-566 20 0
-568 20 0
-570 23 0
-572 23 0
-574 23 0
-576 23 0
-578 23 0
-580 23 0
-582 23 0
-584 23 0
-137 458 -585 0
-140 460 -586 0
-144 462 -587 0
-148 464 -588 0
-152 466 -589 0
-156 468 -590 0
-160 470 -591 0
-164 472 -592 0
-141 474 -593 0
-170 476 -594 0
-173 478 -595 0
-177 480 -596 0
-181 482 -597 0
-185 484 -598 0
-189 486 -599 0
-193 488 -600 0
-145 490 -601 0
-174 492 -602 0
-201 494 -603 0
-204 496 -604 0
-208 498 -605 0
-212 500 -606 0
-216 502 -607 0
-220 504 -608 0
-149 506 -609 0
-178 508 -610 0
-205 510 -611 0
-230 512 -612 0
-233 514 -613 0
-237 516 -614 0
-241 518 -615 0
-245 520 -616 0
-153 522 -617 0
-182 524 -618 0
-209 526 -619 0
-234 528 -620 0
-257 530 -621 0
-260 532 -622 0
-264 534 -623 0
-268 536 -624 0
-157 538 -625 0
-186 540 -626 0
-213 542 -627 0
-238 544 -628 0
-261 546 -629 0
-282 548 -630 0
-285 550 -631 0
-289 552 -632 0
-161 554 -633 0
-190 556 -634 0
-217 558 -635 0
-242 560 -636 0
-265 562 -637 0
-286 564 -638 0
-305 566 -639 0
-308 568 -640 0
-165 570 -641 0
-194 572 -642 0
-221 574 -643 0
-246 576 -644 0
-269 578 -645 0
-290 580 -646 0
-309 582 -647 0
-326 584 -648 0
585 137 0
586 140 0
587 144 0
588 148 0
589 152 0
590 156 0
591 160 0
592 164 0
593 141 0
594 170 0
595 173 0
596 177 0
597 181 0
598 185 0
599 189 0
600 193 0
601 145 0
602 174 0
603 201 0
604 204 0
605 208 0
606 212 0
607 216 0
608 220 0
609 149 0
610 178 0
611 205 0
612 230 0
613 233 0
614 237 0
615 241 0
616 245 0
617 153 0
618 182 0
619 209 0
620 234 0
621 257 0
622 260 0
623 264 0
624 268 0
625 157 0
626 186 0
627 213 0
628 238 0
629 261 0
630 282 0
631 285 0
632 289 0
633 161 0
634 190 0
635 217 0
636 242 0
637 265 0
638 286 0
639 305 0
640 308 0
641 165 0
642 194 0
643 221 0
644 246 0
645 269 0
646 290 0
647 309 0
648 326 0
585 -458 0
586 -460 0
587 -462 0
588 -464 0
589 -466 0
590 -468 0
591 -470 0
592 -472 0
593 -474 0
594 -476 0
595 -478 0
596 -480 0
597 -482 0
598 -484 0
599 -486 0
600 -488 0
601 -490 0
602 -492 0
603 -494 0
604 -496 0
605 -498 0
606 -500 0
607 -502 0
608 -504 0
609 -506 0
610 -508 0
611 -510 0
612 -512 0
613 -514 0
614 -516 0
615 -518 0
616 -520 0
617 -522 0
618 -524 0
619 -526 0
620 -528 0
621 -530 0
622 -532 0
623 -534 0
624 -536 0
625 -538 0
626 -540 0
627 -542 0
628 -544 0
629 -546 0
630 -548 0
631 -550 0
632 -552 0
633 -554 0
634 -556 0
635 -558 0
636 -560 0
637 -562 0
638 -564 0
639 -566 0
640 -568 0
641 -570 0
642 -572 0
643 -574 0
644 -576 0
645 -578 0
646 -580 0
647 -582 0
648 -584 0
-138 -649 -649 -650 0
-142 -651 -649 -652 0
-146 -653 -649 -654 0
-150 -655 -649 -656 0
-154 -657 -649 -658 0
-158 -659 -649 -660 0
-162 -661 -649 -662 0
-166 -663 -649 -664 0
-168 -649 -651 -665 0
-171 -651 -651 -666 0
-175 -653 -651 -667 0
-179 -655 -651 -668 0
-183 -657 -651 -669 0
-187 -659 -651 -670 0
-191 -661 -651 -671 0
-195 -663 -651 -672 0
-197 -649 -653 -673 0
-199 -651 -653 -674 0
-202 -653 -653 -675 0
-206 -655 -653 -676 0
-210 -657 -653 -677 0
-214 -659 -653 -678 0
-218 -661 -653 -679 0
-222 -663 -653 -680 0
-224 -649 -655 -681 0
-226 -651 -655 -682 0
-228 -653 -655 -683 0
-231 -655 -655 -684 0
-235 -657 -655 -685 0
-239 -659 -655 -686 0
-243 -661 -655 -687 0
-247 -663 -655 -688 0
-249 -649 -657 -689 0
-251 -651 -657 -690 0
-253 -653 -657 -691 0
-255 -655 -657 -692 0
-258 -657 -657 -693 0
-262 -659 -657 -694 0
-266 -661 -657 -695 0
-270 -663 -657 -696 0
-272 -649 -659 -697 0
-274 -651 -659 -698 0
-276 -653 -659 -699 0
-278 -655 -659 -700 0
-280 -657 -659 -701 0
-283 -659 -659 -702 0
-287 -661 -659 -703 0
-291 -663 -659 -704 0
-293 -649 -661 -705 0
-295 -651 -661 -706 0
-297 -653 -661 -707 0
-299 -655 -661 -708 0
-301 -657 -661 -709 0
-303 -659 -661 -710 0
-306 -661 -661 -711 0
-310 -663 -661 -712 0
-312 -649 -663 -713 0
-314 -651 -663 -714 0
-316 -653 -663 -715 0
-318 -655 -663 -716 0
-320 -657 -663 -717 0
-322 -659 -663 -718 0
-324 -661 -663 -719 0
-327 -663 -663 -720 0
650 138 0
652 142 0
654 146 0
656 150 0
658 154 0
660 158 0
662 162 0
664 166 0
665 168 0
666 171 0
667 175 0
668 179 0
669 183 0
670 187 0
671 191 0
672 195 0
673 197 0
674 199 0
675 202 0
676 206 0
677 210 0
678 214 0
679 218 0
680 222 0
681 224 0
682 226 0
683 228 0
684 231 0
685 235 0
686 239 0
687 243 0
688 247 0
689 249 0
690 251 0
691 253 0
692 255 0
693 258 0
694 262 0
695 266 0
696 270 0
697 272 0
698 274 0
699 276 0
700 278 0
701 280 0
702 283 0
703 287 0
704 291 0
705 293 0
706 295 0
707 297 0
708 299 0
709 301 0
710 303 0
711 306 0
712 310 0
713 312 0
714 314 0
715 316 0
716 318 0
717 320 0
718 322 0
719 324 0
720 327 0
650 649 0
652 651 0
654 653 0
656 655 0
658 657 0
660 659 0
662 661 0
664 663 0
665 649 0
666 651 0
667 653 0
668 655 0
669 657 0
670 659 0
671 661 0
672 663 0
673 649 0
674 651 0
675 653 0
676 655 0
677 657 0
678 659 0
679 661 0
680 663 0
681 649 0
682 651 0
683 653 0
684 655 0
685 657 0
686 659 0
687 661 0
688 663 0
689 649 0
690 651 0
691 653 0
692 655 0
693 657 0
694 659 0
695 661 0
696 663 0
697 649 0
698 651 0
699 653 0
700 655 0
701 657 0
702 659 0
703 661 0
704 663 0
705 649 0
706 651 0
707 653 0
708 655 0
709 657 0
710 659 0
711 661 0
712 663 0
713 649 0
714 651 0
715 653 0
716 655 0
717 657 0
718 659 0
719 661 0
720 663 0
650 649 0
652 649 0
654 649 0
656 649 0
658 649 0
660 649 0
662 649 0
664 649 0
665 651 0
666 651 0
667 651 0
668 651 0
669 651 0
670 651 0
671 651 0
672 651 0
673 653 0
674 653 0
675 653 0
676 653 0
677 653 0
678 653 0
679 653 0
680 653 0
681 655 0
682 655 0
683 655 0
684 655 0
685 655 0
686 655 0
687 655 0
688 655 0
689 657 0
690 657 0
691 657 0
692 657 0
693 657 0
694 657 0
695 657 0
696 657 0
697 659 0
698 659 0
699 659 0
700 659 0
701 659 0
702 659 0
703 659 0
704 659 0
705 661 0
706 661 0
707 661 0
708 661 0
709 661 0
710 661 0
711 661 0
712 661 0
713 663 0
714 663 0
715 663 0
716 663 0
717 663 0
718 663 0
719 663 0
720 663 0
137 -457 -2 -2 -721 0
140 -459 -5 -2 -722 0
144 -461 -8 -2 -723 0
148 -463 -11 -2 -724 0
152 -465 -14 -2 -725 0
156 -467 -17 -2 -726 0
160 -469 -20 -2 -727 0
164 -471 -23 -2 -728 0
141 -473 -2 -5 -729 0
170 -475 -5 -5 -730 0
173 -477 -8 -5 -731 0
177 -479 -11 -5 -732 0
181 -481 -14 -5 -733 0
185 -483 -17 -5 -734 0
189 -485 -20 -5 -735 0
193 -487 -23 -5 -736 0
145 -489 -2 -8 -737 0
174 -491 -5 -8 -738 0
201 -493 -8 -8 -739 0
204 -495 -11 -8 -740 0
208 -497 -14 -8 -741 0
212 -499 -17 -8 -742 0
216 -501 -20 -8 -743 0
220 -503 -23 -8 -744 0
149 -505 -2 -11 -745 0
178 -507 -5 -11 -746 0
205 -509 -8 -11 -747 0
230 -511 -11 -11 -748 0
233 -513 -14 -11 -749 0
237 -515 -17 -11 -750 0
241 -517 -20 -11 -751 0
245 -519 -23 -11 -752 0
153 -521 -2 -14 -753 0
182 -523 -5 -14 -754 0
209 -525 -8 -14 -755 0
234 -527 -11 -14 -756 0
257 -529 -14 -14 -757 0
260 -531 -17 -14 -758 0
264 -533 -20 -14 -759 0
268 -535 -23 -14 -760 0
157 -537 -2 -17 -761 0
186 -539 -5 -17 -762 0
213 -541 -8 -17 -763 0
238 -543 -11 -17 -764 0
261 -545 -14 -17 -765 0
282 -547 -17 -17 -766 0
285 -549 -20 -17 -767 0
289 -551 -23 -17 -768 0
161 -553 -2 -20 -769 0
190 -555 -5 -20 -770 0
217 -557 -8 -20 -771 0
242 -559 -11 -20 -772 0
265 -561 -14 -20 -773 0
286 -563 -17 -20 -774 0
305 -565 -20 -20 -775 0
308 -567 -23 -20 -776 0
165 -569 -2 -23 -777 0
194 -571 -5 -23 -778 0
221 -573 -8 -23 -779 0
246 -575 -11 -23 -780 0
269 -577 -14 -23 -781 0
290 -579 -17 -23 -782 0
309 -581 -20 -23 -783 0
326 -583 -23 -23 -784 0
721 -137 0
722 -140 0
723 -144 0
724 -148 0
725 -152 0
726 -156 0
727 -160 0
728 -164 0
729 -141 0
730 -170 0
731 -173 0
732 -177 0
733 -181 0
734 -185 0
735 -189 0
736 -193 0
737 -145 0
738 -174 0
739 -201 0
740 -204 0
741 -208 0
742 -212 0
743 -216 0
744 -220 0
745 -149 0
746 -178 0
747 -205 0
748 -230 0
749 -233 0
750 -237 0
751 -241 0
752 -245 0
753 -153 0
754 -182 0
755 -209 0
756 -234 0
757 -257 0
758 -260 0
759 -264 0
760 -268 0
761 -157 0
762 -186 0
763 -213 0
764 -238 0
765 -261 0
766 -282 0
767 -285 0
768 -289 0
769 -161 0
770 -190 0
771 -217 0
772 -242 0
773 -265 0
774 -286 0
775 -305 0
776 -308 0
777 -165 0
778 -194 0
779 -221 0
780 -246 0
781 -269 0
782 -290 0
783 -309 0
784 -326 0
721 457 0
722 459 0
723 461 0
724 463 0
725 465 0
726 467 0
727 469 0
728 471 0
729 473 0
730 475 0
731 477 0
732 479 0
733 481 0
734 483 0
735 485 0
736 487 0
737 489 0
738 491 0
739 493 0
740 495 0
741 497 0
742 499 0
743 501 0
744 503 0
745 505 0
746 507 0
747 509 0
748 511 0
749 513 0
750 515 0
751 517 0
752 519 0
753 521 0
754 523 0
755 525 0
756 527 0
757 529 0
758 531 0
759 533 0
760 535 0
761 537 0
762 539 0
763 541 0
764 543 0
765 545 0
766 547 0
767 549 0
768 551 0
769 553 0
770 555 0
771 557 0
772 559 0
773 561 0
774 563 0
775 565 0
776 567 0
777 569 0
778 571 0
779 573 0
780 575 0
781 577 0
782 579 0
783 581 0
784 583 0
721 2 0
722 5 0
723 8 0
724 11 0
725 14 0
726 17 0
727 20 0
728 23 0
729 2 0
730 5 0
731 8 0
732 11 0
733 14 0
734 17 0
735 20 0
736 23 0
737 2 0
738 5 0
739 8 0
740 11 0
741 14 0
742 17 0
743 20 0
744 23 0
745 2 0
746 5 0
747 8 0
748 11 0
749 14 0
750 17 0
751 20 0
752 23 0
753 2 0
754 5 0
755 8 0
756 11 0
757 14 0
758 17 0
759 20 0
760 23 0
761 2 0
762 5 0
763 8 0
764 11 0
765 14 0
766 17 0
767 20 0
768 23 0
769 2 0
770 5 0
771 8 0
772 11 0
773 14 0
774 17 0
775 20 0
776 23 0
777 2 0
778 5 0
779 8 0
780 11 0
781 14 0
782 17 0
783 20 0
784 23 0
721 2 0
722 2 0
723 2 0
724 2 0
725 2 0
726 2 0
727 2 0
728 2 0
729 5 0
730 5 0
731 5 0
732 5 0
733 5 0
734 5 0
735 5 0
736 5 0
737 8 0
738 8 0
739 8 0
740 8 0
741 8 0
742 8 0
743 8 0
744 8 0
745 11 0
746 11 0
747 11 0
748 11 0
749 11 0
750 11 0
751 11 0
752 11 0
753 14 0
754 14 0
755 14 0
756 14 0
757 14 0
758 14 0
759 14 0
760 14 0
761 17 0
762 17 0
763 17 0
764 17 0
765 17 0
766 17 0
767 17 0
768 17 0
769 20 0
770 20 0
771 20 0
772 20 0
773 20 0
774 20 0
775 20 0
776 20 0
777 23 0
778 23 0
779 23 0
780 23 0
781 23 0
782 23 0
783 23 0
784 23 0
-3 -139 -393 -585 -650 -721 785 0
-6 -143 -394 -586 -652 -722 786 0
-9 -147 -395 -587 -654 -723 787 0
-12 -151 -396 -588 -656 -724 788 0
-15 -155 -397 -589 -658 -725 789 0
-18 -159 -398 -590 -660 -726 790 0
-21 -163 -399 -591 -662 -727 791 0
-24 -167 -400 -592 -664 -728 792 0
-26 -169 -401 -593 -665 -729 793 0
-28 -172 -402 -594 -666 -730 794 0
-30 -176 -403 -595 -667 -731 795 0
-32 -180 -404 -596 -668 -732 796 0
-34 -184 -405 -597 -669 -733 797 0
-36 -188 -406 -598 -670 -734 798 0
-38 -192 -407 -599 -671 -735 799 0
-40 -196 -408 -600 -672 -736 800 0
-42 -198 -409 -601 -673 -737 801 0
-44 -200 -410 -602 -674 -738 802 0
-46 -203 -411 -603 -675 -739 803 0
-48 -207 -412 -604 -676 -740 804 0
-50 -211 -413 -605 -677 -741 805 0
-52 -215 -414 -606 -678 -742 806 0
-54 -219 -415 -607 -679 -743 807 0
-56 -223 -416 -608 -680 -744 808 0
-58 -225 -417 -609 -681 -745 809 0
-60 -227 -418 -610 -682 -746 810 0
-62 -229 -419 -611 -683 -747 811 0
-64 -232 -420 -612 -684 -748 812 0
-66 -236 -421 -613 -685 -749 813 0
-68 -240 -422 -614 -686 -750 814 0
-70 -244 -423 -615 -687 -751 815 0
-72 -248 -424 -616 -688 -752 816 0
-74 -250 -425 -617 -689 -753 817 0
-76 -252 -426 -618 -690 -754 818 0
-78 -254 -427 -619 -691 -755 819 0
-80 -256 -428 -620 -692 -756 820 0
-82 -259 -429 -621 -693 -757 821 0
-84 -263 -430 -622 -694 -758 822 0
-86 -267 -431 -623 -695 -759 823 0
-88 -271 -432 -624 -696 -760 824 0
-90 -273 -433 -625 -697 -761 825 0
-92 -275 -434 -626 -698 -762 826 0
-94 -277 -435 -627 -699 -763 827 0
-96 -279 -436 -628 -700 -764 828 0
-98 -281 -437 -629 -701 -765 829 0
-100 -284 -438 -630 -702 -766 830 0
-102 -288 -439 -631 -703 -767 831 0
-104 -292 -440 -632 -704 -768 832 0
-106 -294 -441 -633 -705 -769 833 0
-108 -296 -442 -634 -706 -770 834 0
-110 -298 -443 -635 -707 -771 835 0
-112 -300 -444 -636 -708 -772 836 0
-114 -302 -445 -637 -709 -773 837 0
-116 -304 -446 -638 -710 -774 838 0
-118 -307 -447 -639 -711 -775 839 0
-120 -311 -448 -640 -712 -776 840 0
-122 -313 -449 -641 -713 -777 841 0
-124 -315 -450 -642 -714 -778 842 0
-126 -317 -451 -643 -715 -779 843 0
-128 -319 -452 -644 -716 -780 844 0
-130 -321 -453 -645 -717 -781 845 0
-132 -323 -454 -646 -718 -782 846 0
-134 -325 -455 -647 -719 -783 847 0
-136 -328 -456 -648 -720 -784 848 0
-785 3 0
-786 6 0
-787 9 0
-788 12 0
-789 15 0
-790 18 0
-791 21 0
-792 24 0
-793 26 0
-794 28 0
-795 30 0
-796 32 0
-797 34 0
-798 36 0
-799 38 0
-800 40 0
-801 42 0
-802 44 0
-803 46 0
-804 48 0
-805 50 0
-806 52 0
-807 54 0
-808 56 0
-809 58 0
-810 60 0
-811 62 0
-812 64 0
-813 66 0
-814 68 0
-815 70 0
-816 72 0
-817 74 0
-818 76 0
-819 78 0
-820 80 0
-821 82 0
-822 84 0
-823 86 0
-824 88 0
-825 90 0
-826 92 0
-827 94 0
-828 96 0
-829 98 0
-830 100 0
-831 102 0
-832 104 0
-833 106 0
-834 108 0
-835 110 0
-836 112 0
-837 114 0
-838 116 0
-839 118 0
-840 120 0
-841 122 0
-842 124 0
-843 126 0
-844 128 0
-845 130 0
-846 132 0
-847 134 0
-848 136 0
-785 139 0
-786 143 0
-787 147 0
-788 151 0
-789 155 0
-790 159 0
-791 163 0
-792 167 0
-793 169 0
-794 172 0
-795 176 0
-796 180 0
-797 184 0
-798 188 0
-799 192 0
-800 196 0
-801 198 0
-802 200 0
-803 203 0
-804 207 0
-805 211 0
-806 215 0
-807 219 0
-808 223 0
-809 225 0
-810 227 0
-811 229 0
-812 232 0
-813 236 0
-814 240 0
-815 244 0
-816 248 0
-817 250 0
-818 252 0
-819 254 0
-820 256 0
-821 259 0
-822 263 0
-823 267 0
-824 271 0
-825 273 0
-826 275 0
-827 277 0
-828 279 0
-829 281 0
-830 284 0
-831 288 0
-832 292 0
-833 294 0
-834 296 0
-835 298 0
-836 300 0
-837 302 0
-838 304 0
-839 307 0
-840 311 0
-841 313 0
-842 315 0
-843 317 0
-844 319 0
-845 321 0
-846 323 0
-847 325 0
-848 328 0
-785 393 0
-786 394 0
-787 395 0
-788 396 0
-789 397 0
-790 398 0
-791 399 0
-792 400 0
-793 401 0
-794 402 0
-795 403 0
-796 404 0
-797 405 0
-798 406 0
-799 407 0
-800 408 0
-801 409 0
-802 410 0
-803 411 0
-804 412 0
-805 413 0
-806 414 0
-807 415 0
-808 416 0
-809 417 0
-810 418 0
-811 419 0
-812 420 0
-813 421 0
-814 422 0
-815 423 0
-816 424 0
-817 425 0
-818 426 0
-819 427 0
-820 428 0
-821 429 0
-822 430 0
-823 431 0
-824 432 0
-825 433 0
-826 434 0
-827 435 0
-828 436 0
-829 437 0
-830 438 0
-831 439 0
-832 440 0
-833 441 0
-834 442 0
-835 443 0
-836 444 0
-837 445 0
-838 446 0
-839 447 0
-840 448 0
-841 449 0
-842 450 0
-843 451 0
-844 452 0
-845 453 0
-846 454 0
-847 455 0
-848 456 0
-785 585 0
-786 586 0
-787 587 0
-788 588 0
-789 589 0
-790 590 0
-791 591 0
-792 592 0
-793 593 0
-794 594 0
-795 595 0
-796 596 0
-797 597 0
-798 598 0
-799 599 0
-800 600 0
-801 601 0
-802 602 0
-803 603 0
-804 604 0
-805 605 0
-806 606 0
-807 607 0
-808 608 0
-809 609 0
-810 610 0
-811 611 0
-812 612 0
-813 613 0
-814 614 0
-815 615 0
-816 616 0
-817 617 0
-818 618 0
-819 619 0
-820 620 0
-821 621 0
-822 622 0
-823 623 0
-824 624 0
-825 625 0
-826 626 0
-827 627 0
-828 628 0
-829 629 0
-830 630 0
-831 631 0
-832 632 0
-833 633 0
-834 634 0
-835 635 0
-836 636 0
-837 637 0
-838 638 0
-839 639 0
-840 640 0
-841 641 0
-842 642 0
-843 643 0
-844 644 0
-845 645 0
-846 646 0
-847 647 0
-848 648 0
-785 650 0
-786 652 0
-787 654 0
-788 656 0
-789 658 0
-790 660 0
-791 662 0
-792 664 0
-793 665 0
-794 666 0
-795 667 0
-796 668 0
-797 669 0
-798 670 0
-799 671 0
-800 672 0
-801 673 0
-802 674 0
-803 675 0
-804 676 0
-805 677 0
-806 678 0
-807 679 0
-808 680 0
-809 681 0
-810 682 0
-811 683 0
-812 684 0
-813 685 0
-814 686 0
-815 687 0
-816 688 0
-817 689 0
-818 690 0
-819 691 0
-820 692 0
-821 693 0
-822 694 0
-823 695 0
-824 696 0
-825 697 0
-826 698 0
-827 699 0
-828 700 0
-829 701 0
-830 702 0
-831 703 0
-832 704 0
-833 705 0
-834 706 0
-835 707 0
-836 708 0
-837 709 0
-838 710 0
-839 711 0
-840 712 0
-841 713 0
-842 714 0
-843 715 0
-844 716 0
-845 717 0
-846 718 0
-847 719 0
-848 720 0
-785 721 0
-786 722 0
-787 723 0
-788 724 0
-789 725 0
-790 726 0
-791 727 0
-792 728 0
-793 729 0
-794 730 0
-795 731 0
-796 732 0
-797 733 0
-798 734 0
-799 735 0
-800 736 0
-801 737 0
-802 738 0
-803 739 0
-804 740 0
-805 741 0
-806 742 0
-807 743 0
-808 744 0
-809 745 0
-810 746 0
-811 747 0
-812 748 0
-813 749 0
-814 750 0
-815 751 0
-816 752 0
-817 753 0
-818 754 0
-819 755 0
-820 756 0
-821 757 0
-822 758 0
-823 759 0
-824 760 0
-825 761 0
-826 762 0
-827 763 0
-828 764 0
-829 765 0
-830 766 0
-831 767 0
-832 768 0
-833 769 0
-834 770 0
-835 771 0
-836 772 0
-837 773 0
-838 774 0
-839 775 0
-840 776 0
-841 777 0
-842 778 0
-843 779 0
-844 780 0
-845 781 0
-846 782 0
-847 783 0
-848 784 0
785 0
786 0
787 0
788 0
789 0
790 0
791 0
792 0
793 0
794 0
795 0
796 0
797 0
798 0
799 0
800 0
801 0
802 0
803 0
804 0
805 0
806 0
807 0
808 0
809 0
810 0
811 0
812 0
813 0
814 0
815 0
816 0
817 0
818 0
819 0
820 0
821 0
822 0
823 0
824 0
825 0
826 0
827 0
828 0
829 0
830 0
831 0
832 0
833 0
834 0
835 0
836 0
837 0
838 0
839 0
840 0
841 0
842 0
843 0
844 0
845 0
846 0
847 0
848 0
-659 0
-657 0
-663 0
8 0
20 0
17 0
-655 0
11 0
649 0
-661 0
2 0
14 0
23 0
5 0
651 0
653 0
1 0
25 4 0
-25 -4 0
-25 -43 41 0
-25 -59 57 0
-25 -75 73 0
-25 -91 89 0
-25 -107 105 0
-25 -123 121 0
41 7 0
-41 -7 0
-41 -29 25 0
-41 -61 57 0
-41 -77 73 0
-41 -93 89 0
-41 -109 105 0
-41 -125 121 0
57 10 0
-57 -10 0
-57 -31 25 0
-57 -47 41 0
-57 -79 73 0
-57 -95 89 0
-57 -111 105 0
-57 -127 121 0
73 13 0
-73 -13 0
-73 -33 25 0
-73 -49 41 0
-73 -65 57 0
-73 -97 89 0
-73 -113 105 0
-73 -129 121 0
89 16 0
-89 -16 0
-89 -35 25 0
-89 -51 41 0
-89 -67 57 0
-89 -83 73 0
-89 -115 105 0
-89 -131 121 0
105 19 0
-105 -19 0
-105 -37 25 0
-105 -53 41 0
-105 -69 57 0
-105 -85 73 0
-105 -101 89 0
-105 -133 121 0
121 22 0
-121 -22 0
-121 -39 25 0
-121 -55 41 0
-121 -71 57 0
-121 -87 73 0
-121 -103 89 0
-121 -119 105 0
27 0
4 25 0
-4 -25 0
-4 -41 43 0
-4 -57 59 0
-4 -73 75 0
-4 -89 91 0
-4 -105 107 0
-4 -121 123 0
43 29 0
-43 -29 0
-43 -7 4 0
-43 -61 59 0
-43 -77 75 0
-43 -93 91 0
-43 -109 107 0
-43 -125 123 0
59 31 0
-59 -31 0
-59 -10 4 0
-59 -47 43 0
-59 -79 75 0
-59 -95 91 0
-59 -111 107 0
-59 -127 123 0
75 33 0
-75 -33 0
-75 -13 4 0
-75 -49 43 0
-75 -65 59 0
-75 -97 91 0
-75 -113 107 0
-75 -129 123 0
91 35 0
-91 -35 0
-91 -16 4 0
-91 -51 43 0
-91 -67 59 0
-91 -83 75 0
-91 -115 107 0
-91 -131 123 0
107 37 0
-107 -37 0
-107 -19 4 0
-107 -53 43 0
-107 -69 59 0
-107 -85 75 0
-107 -101 91 0
-107 -133 123 0
123 39 0
-123 -39 0
-123 -22 4 0
-123 -55 43 0
-123 -71 59 0
-123 -87 75 0
-123 -103 91 0
-123 -119 107 0
45 0
7 41 0
-7 -41 0
-7 -25 29 0
-7 -57 61 0
-7 -73 77 0
-7 -89 93 0
-7 -105 109 0
-7 -121 125 0
29 43 0
-29 -43 0
-29 -4 7 0
-29 -59 61 0
-29 -75 77 0
-29 -91 93 0
-29 -107 109 0
-29 -123 125 0
61 47 0
-61 -47 0
-61 -10 7 0
-61 -31 29 0
-61 -79 77 0
-61 -95 93 0
-61 -111 109 0
-61 -127 125 0
77 49 0
-77 -49 0
-77 -13 7 0
-77 -33 29 0
-77 -65 61 0
-77 -97 93 0
-77 -113 109 0
-77 -129 125 0
93 51 0
-93 -51 0
-93 -16 7 0
-93 -35 29 0
-93 -67 61 0
-93 -83 77 0
-93 -115 109 0
-93 -131 125 0
109 53 0
-109 -53 0
-109 -19 7 0
-109 -37 29 0
-109 -69 61 0
-109 -85 77 0
-109 -101 93 0
-109 -133 125 0
125 55 0
-125 -55 0
-125 -22 7 0
-125 -39 29 0
-125 -71 61 0
-125 -87 77 0
-125 -103 93 0
-125 -119 109 0
63 0
10 57 0
-10 -57 0
-10 -25 31 0
-10 -41 47 0
-10 -73 79 0
-10 -89 95 0
-10 -105 111 0
-10 -121 127 0
31 59 0
-31 -59 0
-31 -4 10 0
-31 -43 47 0
-31 -75 79 0
-31 -91 95 0
-31 -107 111 0
-31 -123 127 0
47 61 0
-47 -61 0
-47 -7 10 0
-47 -29 31 0
-47 -77 79 0
-47 -93 95 0
-47 -109 111 0
-47 -125 127 0
79 65 0
-79 -65 0
-79 -13 10 0
-79 -33 31 0
-79 -49 47 0
-79 -97 95 0
-79 -113 111 0
-79 -129 127 0
95 67 0
-95 -67 0
-95 -16 10 0
-95 -35 31 0
-95 -51 47 0
-95 -83 79 0
-95 -115 111 0
-95 -131 127 0
111 69 0
-111 -69 0
-111 -19 10 0
-111 -37 31 0
-111 -53 47 0
-111 -85 79 0
-111 -101 95 0
-111 -133 127 0
127 71 0
-127 -71 0
-127 -22 10 0
-127 -39 31 0
-127 -55 47 0
-127 -87 79 0
-127 -103 95 0
-127 -119 111 0
81 0
13 73 0
-13 -73 0
-13 -25 33 0
-13 -41 49 0
-13 -57 65 0
-13 -89 97 0
-13 -105 113 0
-13 -121 129 0
33 75 0
-33 -75 0
-33 -4 13 0
-33 -43 49 0
-33 -59 65 0
-33 -91 97 0
-33 -107 113 0
-33 -123 129 0
49 77 0
-49 -77 0
-49 -7 13 0
-49 -29 33 0
-49 -61 65 0
-49 -93 97 0
-49 -109 113 0
-49 -125 129 0
65 79 0
-65 -79 0
-65 -10 13 0
-65 -31 33 0
-65 -47 49 0
-65 -95 97 0
-65 -111 113 0
-65 -127 129 0
97 83 0
-97 -83 0
-97 -16 13 0
-97 -35 33 0
-97 -51 49 0
-97 -67 65 0
-97 -115 113 0
-97 -131 129 0
113 85 0
-113 -85 0
-113 -19 13 0
-113 -37 33 0
-113 -53 49 0
-113 -69 65 0
-113 -101 97 0
-113 -133 129 0
129 87 0
-129 -87 0
-129 -22 13 0
-129 -39 33 0
-129 -55 49 0
-129 -71 65 0
-129 -103 97 0
-129 -119 113 0
99 0
16 89 0
-16 -89 0
-16 -25 35 0
-16 -41 51 0
-16 -57 67 0
-16 -73 83 0
-16 -105 115 0
-16 -121 131 0
35 91 0
-35 -91 0
-35 -4 16 0
-35 -43 51 0
-35 -59 67 0
-35 -75 83 0
-35 -107 115 0
-35 -123 131 0
51 93 0
-51 -93 0
-51 -7 16 0
-51 -29 35 0
-51 -61 67 0
-51 -77 83 0
-51 -109 115 0
-51 -125 131 0
67 95 0
-67 -95 0
-67 -10 16 0
-67 -31 35 0
-67 -47 51 0
-67 -79 83 0
-67 -111 115 0
-67 -127 131 0
83 97 0
-83 -97 0
-83 -13 16 0
-83 -33 35 0
-83 -49 51 0
-83 -65 67 0
-83 -113 115 0
-83 -129 131 0
115 101 0
-115 -101 0
-115 -19 16 0
-115 -37 35 0
-115 -53 51 0
-115 -69 67 0
-115 -85 83 0
-115 -133 131 0
131 103 0
-131 -103 0
-131 -22 16 0
-131 -39 35 0
-131 -55 51 0
-131 -71 67 0
-131 -87 83 0
-131 -119 115 0
117 0
19 105 0
-19 -105 0
-19 -25 37 0
-19 -41 53 0
-19 -57 69 0
-19 -73 85 0
-19 -89 101 0
-19 -121 133 0
37 107 0
-37 -107 0
-37 -4 19 0
-37 -43 53 0
-37 -59 69 0
-37 -75 85 0
-37 -91 101 0
-37 -123 133 0
53 109 0
-53 -109 0
-53 -7 19 0
-53 -29 37 0
-53 -61 69 0
-53 -77 85 0
-53 -93 101 0
-53 -125 133 0
69 111 0
-69 -111 0
-69 -10 19 0
-69 -31 37 0
-69 -47 53 0
-69 -79 85 0
-69 -95 101 0
-69 -127 133 0
85 113 0
-85 -113 0
-85 -13 19 0
-85 -33 37 0
-85 -49 53 0
-85 -65 69 0
-85 -97 101 0
-85 -129 133 0
101 115 0
-101 -115 0
-101 -16 19 0
-101 -35 37 0
-101 -51 53 0
-101 -67 69 0
-101 -83 85 0
-101 -131 133 0
133 119 0
-133 -119 0
-133 -22 19 0
-133 -39 37 0
-133 -55 53 0
-133 -71 69 0
-133 -87 85 0
-133 -103 101 0
135 0
22 121 0
-22 -121 0
-22 -25 39 0
-22 -41 55 0
-22 -57 71 0
-22 -73 87 0
-22 -89 103 0
-22 -105 119 0
39 123 0
-39 -123 0
-39 -4 22 0
-39 -43 55 0
-39 -59 71 0
-39 -75 87 0
-39 -91 103 0
-39 -107 119 0
55 125 0
-55 -125 0
-55 -7 22 0
-55 -29 39 0
-55 -61 71 0
-55 -77 87 0
-55 -93 103 0
-55 -109 119 0
71 127 0
-71 -127 0
-71 -10 22 0
-71 -31 39 0
-71 -47 55 0
-71 -79 87 0
-71 -95 103 0
-71 -111 119 0
87 129 0
-87 -129 0
-87 -13 22 0
-87 -33 39 0
-87 -49 55 0
-87 -65 71 0
-87 -97 103 0
-87 -113 119 0
103 131 0
-103 -131 0
-103 -16 22 0
-103 -35 39 0
-103 -51 55 0
-103 -67 71 0
-103 -83 87 0
-103 -115 119 0
119 133 0
-119 -133 0
-119 -19 22 0
-119 -37 39 0
-119 -53 55 0
-119 -69 71 0
-119 -85 87 0
-119 -101 103 0
-849 0
-850 25 0
-851 41 0
-851 29 0
-41 -29 851 0
-852 57 0
-852 31 0
-57 -31 852 0
-853 73 0
-853 33 0
-73 -33 853 0
-854 89 0
-854 35 0
-89 -35 854 0
-855 105 0
-855 37 0
-105 -37 855 0
-856 121 0
-856 39 0
-121 -39 856 0
-850 -851 0
-850 -852 0
-850 -853 0
-850 -854 0
-850 -855 0
-850 -856 0
-25 850 851 852 853 854 855 856 0
-857 41 0
-858 25 0
-858 43 0
-25 -43 858 0
-859 57 0
-859 47 0
-57 -47 859 0
-860 73 0
-860 49 0
-73 -49 860 0
-861 89 0
-861 51 0
-89 -51 861 0
-862 105 0
-862 53 0
-105 -53 862 0
-863 121 0
-863 55 0
-121 -55 863 0
-857 -858 0
-857 -859 0
-857 -860 0
-857 -861 0
-857 -862 0
-857 -863 0
-41 857 858 859 860 861 862 863 0
-864 57 0
-865 25 0
-865 59 0
-25 -59 865 0
-866 41 0
-866 61 0
-41 -61 866 0
-867 73 0
-867 65 0
-73 -65 867 0
-868 89 0
-868 67 0
-89 -67 868 0
-869 105 0
-869 69 0
-105 -69 869 0
-870 121 0
-870 71 0
-121 -71 870 0
-864 -865 0
-864 -866 0
-864 -867 0
-864 -868 0
-864 -869 0
-864 -870 0
-57 864 865 866 867 868 869 870 0
-871 73 0
-872 25 0
-872 75 0
-25 -75 872 0
-873 41 0
-873 77 0
-41 -77 873 0
-874 57 0
-874 79 0
-57 -79 874 0
-875 89 0
-875 83 0
-89 -83 875 0
-876 105 0
-876 85 0
-105 -85 876 0
-877 121 0
-877 87 0
-121 -87 877 0
-871 -872 0
-871 -873 0
-871 -874 0
-871 -875 0
-871 -876 0
-871 -877 0
-73 871 872 873 874 875 876 877 0
-878 89 0
-879 25 0
-879 91 0
-25 -91 879 0
-880 41 0
-880 93 0
-41 -93 880 0
-881 57 0
-881 95 0
-57 -95 881 0
-882 73 0
-882 97 0
-73 -97 882 0
-883 105 0
-883 101 0
-105 -101 883 0
-884 121 0
-884 103 0
-121 -103 884 0
-878 -879 0
-878 -880 0
-878 -881 0
-878 -882 0
-878 -883 0
-878 -884 0
-89 878 879 880 881 882 883 884 0
-885 105 0
-886 25 0
-886 107 0
-25 -107 886 0
-887 41 0
-887 109 0
-41 -109 887 0
-888 57 0
-888 111 0
-57 -111 888 0
-889 73 0
-889 113 0
-73 -113 889 0
-890 89 0
-890 115 0
-89 -115 890 0
-891 121 0
-891 119 0
-121 -119 891 0
-885 -886 0
-885 -887 0
-885 -888 0
-885 -889 0
-885 -890 0
-885 -891 0
-105 885 886 887 888 889 890 891 0
-892 121 0
-893 25 0
-893 123 0
-25 -123 893 0
-894 41 0
-894 125 0
-41 -125 894 0
-895 57 0
-895 127 0
-57 -127 895 0
-896 73 0
-896 129 0
-73 -129 896 0
-897 89 0
-897 131 0
-89 -131 897 0
-898 105 0
-898 133 0
-105 -133 898 0
-892 -893 0
-892 -894 0
-892 -895 0
-892 -896 0
-892 -897 0
-892 -898 0
-121 892 893 894 895 896 897 898 0
-899 4 0
-900 43 0
-900 7 0
-43 -7 900 0
-901 59 0
-901 10 0
-59 -10 901 0
-902 75 0
-902 13 0
-75 -13 902 0
-903 91 0
-903 16 0
-91 -16 903 0
-904 107 0
-904 19 0
-107 -19 904 0
-905 123 0
-905 22 0
-123 -22 905 0
-899 -900 0
-899 -901 0
-899 -902 0
-899 -903 0
-899 -904 0
-899 -905 0
-4 899 900 901 902 903 904 905 0
-906 0
-907 43 0
-908 4 0
-908 41 0
-4 -41 908 0
-909 59 0
-909 47 0
-59 -47 909 0
-910 75 0
-910 49 0
-75 -49 910 0
-911 91 0
-911 51 0
-91 -51 911 0
-912 107 0
-912 53 0
-107 -53 912 0
-913 123 0
-913 55 0
-123 -55 913 0
-907 -908 0
-907 -909 0
-907 -910 0
-907 -911 0
-907 -912 0
-907 -913 0
-43 907 908 909 910 911 912 913 0
-914 59 0
-915 4 0
-915 57 0
-4 -57 915 0
-916 43 0
-916 61 0
-43 -61 916 0
-917 75 0
-917 65 0
-75 -65 917 0
-918 91 0
-918 67 0
-91 -67 918 0
-919 107 0
-919 69 0
-107 -69 919 0
-920 123 0
-920 71 0
-123 -71 920 0
-914 -915 0
-914 -916 0
-914 -917 0
-914 -918 0
-914 -919 0
-914 -920 0
-59 914 915 916 917 918 919 920 0
-921 75 0
-922 4 0
-922 73 0
-4 -73 922 0
-923 43 0
-923 77 0
-43 -77 923 0
-924 59 0
-924 79 0
-59 -79 924 0
-925 91 0
-925 83 0
-91 -83 925 0
-926 107 0
-926 85 0
-107 -85 926 0
-927 123 0
-927 87 0
-123 -87 927 0
-921 -922 0
-921 -923 0
-921 -924 0
-921 -925 0
-921 -926 0
-921 -927 0
-75 921 922 923 924 925 926 927 0
-928 91 0
-929 4 0
-929 89 0
-4 -89 929 0
-930 43 0
-930 93 0
-43 -93 930 0
-931 59 0
-931 95 0
-59 -95 931 0
-932 75 0
-932 97 0
-75 -97 932 0
-933 107 0
-933 101 0
-107 -101 933 0
-934 123 0
-934 103 0
-123 -103 934 0
-928 -929 0
-928 -930 0
-928 -931 0
-928 -932 0
-928 -933 0
-928 -934 0
-91 928 929 930 931 932 933 934 0
-935 107 0
-936 4 0
-936 105 0
-4 -105 936 0
-937 43 0
-937 109 0
-43 -109 937 0
-938 59 0
-938 111 0
-59 -111 938 0
-939 75 0
-939 113 0
-75 -113 939 0
-940 91 0
-940 115 0
-91 -115 940 0
-941 123 0
-941 119 0
-123 -119 941 0
-935 -936 0
-935 -937 0
-935 -938 0
-935 -939 0
-935 -940 0
-935 -941 0
-107 935 936 937 938 939 940 941 0
-942 123 0
-943 4 0
-943 121 0
-4 -121 943 0
-944 43 0
-944 125 0
-43 -125 944 0
-945 59 0
-945 127 0
-59 -127 945 0
-946 75 0
-946 129 0
-75 -129 946 0
-947 91 0
-947 131 0
-91 -131 947 0
-948 107 0
-948 133 0
-107 -133 948 0
-942 -943 0
-942 -944 0
-942 -945 0
-942 -946 0
-942 -947 0
-942 -948 0
-123 942 943 944 945 946 947 948 0
-949 7 0
-950 29 0
-950 4 0
-29 -4 950 0
-951 61 0
-951 10 0
-61 -10 951 0
-952 77 0
-952 13 0
-77 -13 952 0
-953 93 0
-953 16 0
-93 -16 953 0
-954 109 0
-954 19 0
-109 -19 954 0
-955 125 0
-955 22 0
-125 -22 955 0
-949 -950 0
-949 -951 0
-949 -952 0
-949 -953 0
-949 -954 0
-949 -955 0
-7 949 950 951 952 953 954 955 0
-956 29 0
-957 7 0
-957 25 0
-7 -25 957 0
-958 61 0
-958 31 0
-61 -31 958 0
-959 77 0
-959 33 0
-77 -33 959 0
-960 93 0
-960 35 0
-93 -35 960 0
-961 109 0
-961 37 0
-109 -37 961 0
-962 125 0
-962 39 0
-125 -39 962 0
-956 -957 0
-956 -958 0
-956 -959 0
-956 -960 0
-956 -961 0
-956 -962 0
-29 956 957 958 959 960 961 962 0
-963 0
-964 61 0
-965 7 0
-965 57 0
-7 -57 965 0
-966 29 0
-966 59 0
-29 -59 966 0
-967 77 0
-967 65 0
-77 -65 967 0
-968 93 0
-968 67 0
-93 -67 968 0
-969 109 0
-969 69 0
-109 -69 969 0
-970 125 0
-970 71 0
-125 -71 970 0
-964 -965 0
-964 -966 0
-964 -967 0
-964 -968 0
-964 -969 0
-964 -970 0
-61 964 965 966 967 968 969 970 0
-971 77 0
-972 7 0
-972 73 0
-7 -73 972 0
-973 29 0
-973 75 0
-29 -75 973 0
-974 61 0
-974 79 0
-61 -79 974 0
-975 93 0
-975 83 0
-93 -83 975 0
-976 109 0
-976 85 0
-109 -85 976 0
-977 125 0
-977 87 0
-125 -87 977 0
-971 -972 0
-971 -973 0
-971 -974 0
-971 -975 0
-971 -976 0
-971 -977 0
-77 971 972 973 974 975 976 977 0
-978 93 0
-979 7 0
-979 89 0
-7 -89 979 0
-980 29 0
-980 91 0
-29 -91 980 0
-981 61 0
-981 95 0
-61 -95 981 0
-982 77 0
-982 97 0
-77 -97 982 0
-983 109 0
-983 101 0
-109 -101 983 0
-984 125 0
-984 103 0
-125 -103 984 0
-978 -979 0
-978 -980 0
-978 -981 0
-978 -982 0
-978 -983 0
-978 -984 0
-93 978 979 980 981 982 983 984 0
-985 109 0
-986 7 0
-986 105 0
-7 -105 986 0
-987 29 0
-987 107 0
-29 -107 987 0
-988 61 0
-988 111 0
-61 -111 988 0
-989 77 0
-989 113 0
-77 -113 989 0
-990 93 0
-990 115 0
-93 -115 990 0
-991 125 0
-991 119 0
-125 -119 991 0
-985 -986 0
-985 -987 0
-985 -988 0
-985 -989 0
-985 -990 0
-985 -991 0
-109 985 986 987 988 989 990 991 0
-992 125 0
-993 7 0
-993 121 0
-7 -121 993 0
-994 29 0
-994 123 0
-29 -123 994 0
-995 61 0
-995 127 0
-61 -127 995 0
-996 77 0
-996 129 0
-77 -129 996 0
-997 93 0
-997 131 0
-93 -131 997 0
-998 109 0
-998 133 0
-109 -133 998 0
-992 -993 0
-992 -994 0
-992 -995 0
-992 -996 0
-992 -997 0
-992 -998 0
-125 992 993 994 995 996 997 998 0
-999 10 0
-1000 31 0
-1000 4 0
-31 -4 1000 0
-1001 47 0
-1001 7 0
-47 -7 1001 0
-1002 79 0
-1002 13 0
-79 -13 1002 0
-1003 95 0
-1003 16 0
-95 -16 1003 0
-1004 111 0
-1004 19 0
-111 -19 1004 0
-1005 127 0
-1005 22 0
-127 -22 1005 0
-999 -1000 0
-999 -1001 0
-999 -1002 0
-999 -1003 0
-999 -1004 0
-999 -1005 0
-10 999 1000 1001 1002 1003 1004 1005 0
-1006 31 0
-1007 10 0
-1007 25 0
-10 -25 1007 0
-1008 47 0
-1008 29 0
-47 -29 1008 0
-1009 79 0
-1009 33 0
-79 -33 1009 0
-1010 95 0
-1010 35 0
-95 -35 1010 0
-1011 111 0
-1011 37 0
-111 -37 1011 0
-1012 127 0
-1012 39 0
-127 -39 1012 0
-1006 -1007 0
-1006 -1008 0
-1006 -1009 0
-1006 -1010 0
-1006 -1011 0
-1006 -1012 0
-31 1006 1007 1008 1009 1010 1011 1012 0
-1013 47 0
-1014 10 0
-1014 41 0
-10 -41 1014 0
-1015 31 0
-1015 43 0
-31 -43 1015 0
-1016 79 0
-1016 49 0
-79 -49 1016 0
-1017 95 0
-1017 51 0
-95 -51 1017 0
-1018 111 0
-1018 53 0
-111 -53 1018 0
-1019 127 0
-1019 55 0
-127 -55 1019 0
-1013 -1014 0
-1013 -1015 0
-1013 -1016 0
-1013 -1017 0
-1013 -1018 0
-1013 -1019 0
-47 1013 1014 1015 1016 1017 1018 1019 0
-1020 0
-1021 79 0
-1022 10 0
-1022 73 0
-10 -73 1022 0
-1023 31 0
-1023 75 0
-31 -75 1023 0
-1024 47 0
-1024 77 0
-47 -77 1024 0
-1025 95 0
-1025 83 0
-95 -83 1025 0
-1026 111 0
-1026 85 0
-111 -85 1026 0
-1027 127 0
-1027 87 0
-127 -87 1027 0
-1021 -1022 0
-1021 -1023 0
-1021 -1024 0
-1021 -1025 0
-1021 -1026 0
-1021 -1027 0
-79 1021 1022 1023 1024 1025 1026 1027 0
-1028 95 0
-1029 10 0
-1029 89 0
-10 -89 1029 0
-1030 31 0
-1030 91 0
-31 -91 1030 0
-1031 47 0
-1031 93 0
-47 -93 1031 0
-1032 79 0
-1032 97 0
-79 -97 1032 0
-1033 111 0
-1033 101 0
-111 -101 1033 0
-1034 127 0
-1034 103 0
-127 -103 1034 0
-1028 -1029 0
-1028 -1030 0
-1028 -1031 0
-1028 -1032 0
-1028 -1033 0
-1028 -1034 0
-95 1028 1029 1030 1031 1032 1033 1034 0
-1035 111 0
-1036 10 0
-1036 105 0
-10 -105 1036 0
-1037 31 0
-1037 107 0
-31 -107 1037 0
-1038 47 0
-1038 109 0
-47 -109 1038 0
-1039 79 0
-1039 113 0
-79 -113 1039 0
-1040 95 0
-1040 115 0
-95 -115 1040 0
-1041 127 0
-1041 119 0
-127 -119 1041 0
-1035 -1036 0
-1035 -1037 0
-1035 -1038 0
-1035 -1039 0
-1035 -1040 0
-1035 -1041 0
-111 1035 1036 1037 1038 1039 1040 1041 0
-1042 127 0
-1043 10 0
-1043 121 0
-10 -121 1043 0
-1044 31 0
-1044 123 0
-31 -123 1044 0
-1045 47 0
-1045 125 0
-47 -125 1045 0
-1046 79 0
-1046 129 0
-79 -129 1046 0
-1047 95 0
-1047 131 0
-95 -131 1047 0
-1048 111 0
-1048 133 0
-111 -133 1048 0
-1042 -1043 0
-1042 -1044 0
-1042 -1045 0
-1042 -1046 0
-1042 -1047 0
-1042 -1048 0
-127 1042 1043 1044 1045 1046 1047 1048 0
-1049 13 0
-1050 33 0
-1050 4 0
-33 -4 1050 0
-1051 49 0
-1051 7 0
-49 -7 1051 0
-1052 65 0
-1052 10 0
-65 -10 1052 0
-1053 97 0
-1053 16 0
-97 -16 1053 0
-1054 113 0
-1054 19 0
-113 -19 1054 0
-1055 129 0
-1055 22 0
-129 -22 1055 0
-1049 -1050 0
-1049 -1051 0
-1049 -1052 0
-1049 -1053 0
-1049 -1054 0
-1049 -1055 0
-13 1049 1050 1051 1052 1053 1054 1055 0
-1056 33 0
-1057 13 0
-1057 25 0
-13 -25 1057 0
-1058 49 0
-1058 29 0
-49 -29 1058 0
-1059 65 0
-1059 31 0
-65 -31 1059 0
-1060 97 0
-1060 35 0
-97 -35 1060 0
-1061 113 0
-1061 37 0
-113 -37 1061 0
-1062 129 0
-1062 39 0
-129 -39 1062 0
-1056 -1057 0
-1056 -1058 0
-1056 -1059 0
-1056 -1060 0
-1056 -1061 0
-1056 -1062 0
-33 1056 1057 1058 1059 1060 1061 1062 0
-1063 49 0
-1064 13 0
-1064 41 0
-13 -41 1064 0
-1065 33 0
-1065 43 0
-33 -43 1065 0
-1066 65 0
-1066 47 0
-65 -47 1066 0
-1067 97 0
-1067 51 0
-97 -51 1067 0
-1068 113 0
-1068 53 0
-113 -53 1068 0
-1069 129 0
-1069 55 0
-129 -55 1069 0
-1063 -1064 0
-1063 -1065 0
-1063 -1066 0
-1063 -1067 0
-1063 -1068 0
-1063 -1069 0
-49 1063 1064 1065 1066 1067 1068 1069 0
-1070 65 0
-1071 13 0
-1071 57 0
-13 -57 1071 0
-1072 33 0
-1072 59 0
-33 -59 1072 0
-1073 49 0
-1073 61 0
-49 -61 1073 0
-1074 97 0
-1074 67 0
-97 -67 1074 0
-1075 113 0
-1075 69 0
-113 -69 1075 0
-1076 129 0
-1076 71 0
-129 -71 1076 0
-1070 -1071 0
-1070 -1072 0
-1070 -1073 0
-1070 -1074 0
-1070 -1075 0
-1070 -1076 0
-65 1070 1071 1072 1073 1074 1075 1076 0
-1077 0
-1078 97 0
-1079 13 0
-1079 89 0
-13 -89 1079 0
-1080 33 0
-1080 91 0
-33 -91 1080 0
-1081 49 0
-1081 93 0
-49 -93 1081 0
-1082 65 0
-1082 95 0
-65 -95 1082 0
-1083 113 0
-1083 101 0
-113 -101 1083 0
-1084 129 0
-1084 103 0
-129 -103 1084 0
-1078 -1079 0
-1078 -1080 0
-1078 -1081 0
-1078 -1082 0
-1078 -1083 0
-1078 -1084 0
-97 1078 1079 1080 1081 1082 1083 1084 0
-1085 113 0
-1086 13 0
-1086 105 0
-13 -105 1086 0
-1087 33 0
-1087 107 0
-33 -107 1087 0
-1088 49 0
-1088 109 0
-49 -109 1088 0
-1089 65 0
-1089 111 0
-65 -111 1089 0
-1090 97 0
-1090 115 0
-97 -115 1090 0
-1091 129 0
-1091 119 0
-129 -119 1091 0
-1085 -1086 0
-1085 -1087 0
-1085 -1088 0
-1085 -1089 0
-1085 -1090 0
-1085 -1091 0
-113 1085 1086 1087 1088 1089 1090 1091 0
-1092 129 0
-1093 13 0
-1093 121 0
-13 -121 1093 0
-1094 33 0
-1094 123 0
-33 -123 1094 0
-1095 49 0
-1095 125 0
-49 -125 1095 0
-1096 65 0
-1096 127 0
-65 -127 1096 0
-1097 97 0
-1097 131 0
-97 -131 1097 0
-1098 113 0
-1098 133 0
-113 -133 1098 0
-1092 -1093 0
-1092 -1094 0
-1092 -1095 0
-1092 -1096 0
-1092 -1097 0
-1092 -1098 0
-129 1092 1093 1094 1095 1096 1097 1098 0
-1099 16 0
-1100 35 0
-1100 4 0
-35 -4 1100 0
-1101 51 0
-1101 7 0
-51 -7 1101 0
-1102 67 0
-1102 10 0
-67 -10 1102 0
-1103 83 0
-1103 13 0
-83 -13 1103 0
-1104 115 0
-1104 19 0
-115 -19 1104 0
-1105 131 0
-1105 22 0
-131 -22 1105 0
-1099 -1100 0
-1099 -1101 0
-1099 -1102 0
-1099 -1103 0
-1099 -1104 0
-1099 -1105 0
-16 1099 1100 1101 1102 1103 1104 1105 0
-1106 35 0
-1107 16 0
-1107 25 0
-16 -25 1107 0
-1108 51 0
-1108 29 0
-51 -29 1108 0
-1109 67 0
-1109 31 0
-67 -31 1109 0
-1110 83 0
-1110 33 0
-83 -33 1110 0
-1111 115 0
-1111 37 0
-115 -37 1111 0
-1112 131 0
-1112 39 0
-131 -39 1112 0
-1106 -1107 0
-1106 -1108 0
-1106 -1109 0
-1106 -1110 0
-1106 -1111 0
-1106 -1112 0
-35 1106 1107 1108 1109 1110 1111 1112 0
-1113 51 0
-1114 16 0
-1114 41 0
-16 -41 1114 0
-1115 35 0
-1115 43 0
-35 -43 1115 0
-1116 67 0
-1116 47 0
-67 -47 1116 0
-1117 83 0
-1117 49 0
-83 -49 1117 0
-1118 115 0
-1118 53 0
-115 -53 1118 0
-1119 131 0
-1119 55 0
-131 -55 1119 0
-1113 -1114 0
-1113 -1115 0
-1113 -1116 0
-1113 -1117 0
-1113 -1118 0
-1113 -1119 0
-51 1113 1114 1115 1116 1117 1118 1119 0
-1120 67 0
-1121 16 0
-1121 57 0
-16 -57 1121 0
-1122 35 0
-1122 59 0
-35 -59 1122 0
-1123 51 0
-1123 61 0
-51 -61 1123 0
-1124 83 0
-1124 65 0
-83 -65 1124 0
-1125 115 0
-1125 69 0
-115 -69 1125 0
-1126 131 0
-1126 71 0
-131 -71 1126 0
-1120 -1121 0
-1120 -1122 0
-1120 -1123 0
-1120 -1124 0
-1120 -1125 0
-1120 -1126 0
-67 1120 1121 1122 1123 1124 1125 1126 0
-1127 83 0
-1128 16 0
-1128 73 0
-16 -73 1128 0
-1129 35 0
-1129 75 0
-35 -75 1129 0
-1130 51 0
-1130 77 0
-51 -77 1130 0
-1131 67 0
-1131 79 0
-67 -79 1131 0
-1132 115 0
-1132 85 0
-115 -85 1132 0
-1133 131 0
-1133 87 0
-131 -87 1133 0
-1127 -1128 0
-1127 -1129 0
-1127 -1130 0
-1127 -1131 0
-1127 -1132 0
-1127 -1133 0
-83 1127 1128 1129 1130 1131 1132 1133 0
-1134 0
-1135 115 0
-1136 16 0
-1136 105 0
-16 -105 1136 0
-1137 35 0
-1137 107 0
-35 -107 1137 0
-1138 51 0
-1138 109 0
-51 -109 1138 0
-1139 67 0
-1139 111 0
-67 -111 1139 0
-1140 83 0
-1140 113 0
-83 -113 1140 0
-1141 131 0
-1141 119 0
-131 -119 1141 0
-1135 -1136 0
-1135 -1137 0
-1135 -1138 0
-1135 -1139 0
-1135 -1140 0
-1135 -1141 0
-115 1135 1136 1137 1138 1139 1140 1141 0
-1142 131 0
-1143 16 0
-1143 121 0
-16 -121 1143 0
-1144 35 0
-1144 123 0
-35 -123 1144 0
-1145 51 0
-1145 125 0
-51 -125 1145 0
-1146 67 0
-1146 127 0
-67 -127 1146 0
-1147 83 0
-1147 129 0
-83 -129 1147 0
-1148 115 0
-1148 133 0
-115 -133 1148 0
-1142 -1143 0
-1142 -1144 0
-1142 -1145 0
-1142 -1146 0
-1142 -1147 0
-1142 -1148 0
-131 1142 1143 1144 1145 1146 1147 1148 0
-1149 19 0
-1150 37 0
-1150 4 0
-37 -4 1150 0
-1151 53 0
-1151 7 0
-53 -7 1151 0
-1152 69 0
-1152 10 0
-69 -10 1152 0
-1153 85 0
-1153 13 0
-85 -13 1153 0
-1154 101 0
-1154 16 0
-101 -16 1154 0
-1155 133 0
-1155 22 0
-133 -22 1155 0
-1149 -1150 0
-1149 -1151 0
-1149 -1152 0
-1149 -1153 0
-1149 -1154 0
-1149 -1155 0
-19 1149 1150 1151 1152 1153 1154 1155 0
-1156 37 0
-1157 19 0
-1157 25 0
-19 -25 1157 0
-1158 53 0
-1158 29 0
-53 -29 1158 0
-1159 69 0
-1159 31 0
-69 -31 1159 0
-1160 85 0
-1160 33 0
-85 -33 1160 0
-1161 101 0
-1161 35 0
-101 -35 1161 0
-1162 133 0
-1162 39 0
-133 -39 1162 0
-1156 -1157 0
-1156 -1158 0
-1156 -1159 0
-1156 -1160 0
-1156 -1161 0
-1156 -1162 0
-37 1156 1157 1158 1159 1160 1161 1162 0
-1163 53 0
-1164 19 0
-1164 41 0
-19 -41 1164 0
-1165 37 0
-1165 43 0
-37 -43 1165 0
-1166 69 0
-1166 47 0
-69 -47 1166 0
-1167 85 0
-1167 49 0
-85 -49 1167 0
-1168 101 0
-1168 51 0
-101 -51 1168 0
-1169 133 0
-1169 55 0
-133 -55 1169 0
-1163 -1164 0
-1163 -1165 0
-1163 -1166 0
-1163 -1167 0
-1163 -1168 0
-1163 -1169 0
-53 1163 1164 1165 1166 1167 1168 1169 0
-1170 69 0
-1171 19 0
-1171 57 0
-19 -57 1171 0
-1172 37 0
-1172 59 0
-37 -59 1172 0
-1173 53 0
-1173 61 0
-53 -61 1173 0
-1174 85 0
-1174 65 0
-85 -65 1174 0
-1175 101 0
-1175 67 0
-101 -67 1175 0
-1176 133 0
-1176 71 0
-133 -71 1176 0
-1170 -1171 0
-1170 -1172 0
-1170 -1173 0
-1170 -1174 0
-1170 -1175 0
-1170 -1176 0
-69 1170 1171 1172 1173 1174 1175 1176 0
-1177 85 0
-1178 19 0
-1178 73 0
-19 -73 1178 0
-1179 37 0
-1179 75 0
-37 -75 1179 0
-1180 53 0
-1180 77 0
-53 -77 1180 0
-1181 69 0
-1181 79 0
-69 -79 1181 0
-1182 101 0
-1182 83 0
-101 -83 1182 0
-1183 133 0
-1183 87 0
-133 -87 1183 0
-1177 -1178 0
-1177 -1179 0
-1177 -1180 0
-1177 -1181 0
-1177 -1182 0
-1177 -1183 0
-85 1177 1178 1179 1180 1181 1182 1183 0
-1184 101 0
-1185 19 0
-1185 89 0
-19 -89 1185 0
-1186 37 0
-1186 91 0
-37 -91 1186 0
-1187 53 0
-1187 93 0
-53 -93 1187 0
-1188 69 0
-1188 95 0
-69 -95 1188 0
-1189 85 0
-1189 97 0
-85 -97 1189 0
-1190 133 0
-1190 103 0
-133 -103 1190 0
-1184 -1185 0
-1184 -1186 0
-1184 -1187 0
-1184 -1188 0
-1184 -1189 0
-1184 -1190 0
-101 1184 1185 1186 1187 1188 1189 1190 0
-1191 0
-1192 133 0
-1193 19 0
-1193 121 0
-19 -121 1193 0
-1194 37 0
-1194 123 0
-37 -123 1194 0
-1195 53 0
-1195 125 0
-53 -125 1195 0
-1196 69 0
-1196 127 0
-69 -127 1196 0
-1197 85 0
-1197 129 0
-85 -129 1197 0
-1198 101 0
-1198 131 0
-101 -131 1198 0
-1192 -1193 0
-1192 -1194 0
-1192 -1195 0
-1192 -1196 0
-1192 -1197 0
-1192 -1198 0
-133 1192 1193 1194 1195 1196 1197 1198 0
-1199 22 0
-1200 39 0
-1200 4 0
-39 -4 1200 0
-1201 55 0
-1201 7 0
-55 -7 1201 0
-1202 71 0
-1202 10 0
-71 -10 1202 0
-1203 87 0
-1203 13 0
-87 -13 1203 0
-1204 103 0
-1204 16 0
-103 -16 1204 0
-1205 119 0
-1205 19 0
-119 -19 1205 0
-1199 -1200 0
-1199 -1201 0
-1199 -1202 0
-1199 -1203 0
-1199 -1204 0
-1199 -1205 0
-22 1199 1200 1201 1202 1203 1204 1205 0
-1206 39 0
-1207 22 0
-1207 25 0
-22 -25 1207 0
-1208 55 0
-1208 29 0
-55 -29 1208 0
-1209 71 0
-1209 31 0
-71 -31 1209 0
-1210 87 0
-1210 33 0
-87 -33 1210 0
-1211 103 0
-1211 35 0
-103 -35 1211 0
-1212 119 0
-1212 37 0
-119 -37 1212 0
-1206 -1207 0
-1206 -1208 0
-1206 -1209 0
-1206 -1210 0
-1206 -1211 0
-1206 -1212 0
-39 1206 1207 1208 1209 1210 1211 1212 0
-1213 55 0
-1214 22 0
-1214 41 0
-22 -41 1214 0
-1215 39 0
-1215 43 0
-39 -43 1215 0
-1216 71 0
-1216 47 0
-71 -47 1216 0
-1217 87 0
-1217 49 0
-87 -49 1217 0
-1218 103 0
-1218 51 0
-103 -51 1218 0
-1219 119 0
-1219 53 0
-119 -53 1219 0
-1213 -1214 0
-1213 -1215 0
-1213 -1216 0
-1213 -1217 0
-1213 -1218 0
-1213 -1219 0
-55 1213 1214 1215 1216 1217 1218 1219 0
-1220 71 0
-1221 22 0
-1221 57 0
-22 -57 1221 0
-1222 39 0
-1222 59 0
-39 -59 1222 0
-1223 55 0
-1223 61 0
-55 -61 1223 0
-1224 87 0
-1224 65 0
-87 -65 1224 0
-1225 103 0
-1225 67 0
-103 -67 1225 0
-1226 119 0
-1226 69 0
-119 -69 1226 0
-1220 -1221 0
-1220 -1222 0
-1220 -1223 0
-1220 -1224 0
-1220 -1225 0
-1220 -1226 0
-71 1220 1221 1222 1223 1224 1225 1226 0
-1227 87 0
-1228 22 0
-1228 73 0
-22 -73 1228 0
-1229 39 0
-1229 75 0
-39 -75 1229 0
-1230 55 0
-1230 77 0
-55 -77 1230 0
-1231 71 0
-1231 79 0
-71 -79 1231 0
-1232 103 0
-1232 83 0
-103 -83 1232 0
-1233 119 0
-1233 85 0
-119 -85 1233 0
-1227 -1228 0
-1227 -1229 0
-1227 -1230 0
-1227 -1231 0
-1227 -1232 0
-1227 -1233 0
-87 1227 1228 1229 1230 1231 1232 1233 0
-1234 103 0
-1235 22 0
-1235 89 0
-22 -89 1235 0
-1236 39 0
-1236 91 0
-39 -91 1236 0
-1237 55 0
-1237 93 0
-55 -93 1237 0
-1238 71 0
-1238 95 0
-71 -95 1238 0
-1239 87 0
-1239 97 0
-87 -97 1239 0
-1240 119 0
-1240 101 0
-119 -101 1240 0
-1234 -1235 0
-1234 -1236 0
-1234 -1237 0
-1234 -1238 0
-1234 -1239 0
-1234 -1240 0
-103 1234 1235 1236 1237 1238 1239 1240 0
-1241 119 0
-1242 22 0
-1242 105 0
-22 -105 1242 0
-1243 39 0
-1243 107 0
-39 -107 1243 0
-1244 55 0
-1244 109 0
-55 -109 1244 0
-1245 71 0
-1245 111 0
-71 -111 1245 0
-1246 87 0
-1246 113 0
-87 -113 1246 0
-1247 103 0
-1247 115 0
-103 -115 1247 0
-1241 -1242 0
-1241 -1243 0
-1241 -1244 0
-1241 -1245 0
-1241 -1246 0
-1241 -1247 0
-119 1241 1242 1243 1244 1245 1246 1247 0
-1248 0
-1249 1 0
-1249 25 0
-1249 41 0
-1249 57 0
-1249 73 0
-1249 89 0
-1249 105 0
-1249 121 0
-1 -25 -41 -57 -73 -89 -105 -121 1249 0
-1250 1 0
-1250 4 0
-1250 7 0
-1250 10 0
-1250 13 0
-1250 16 0
-1250 19 0
-1250 22 0
-1 -4 -7 -10 -13 -16 -19 -22 1250 0
-1251 4 0
-1251 27 0
-1251 43 0
-1251 59 0
-1251 75 0
-1251 91 0
-1251 107 0
-1251 123 0
-4 -27 -43 -59 -75 -91 -107 -123 1251 0
-1252 25 0
-1252 27 0
-1252 29 0
-1252 31 0
-1252 33 0
-1252 35 0
-1252 37 0
-1252 39 0
-25 -27 -29 -31 -33 -35 -37 -39 1252 0
-1253 7 0
-1253 29 0
-1253 45 0
-1253 61 0
-1253 77 0
-1253 93 0
-1253 109 0
-1253 125 0
-7 -29 -45 -61 -77 -93 -109 -125 1253 0
-1254 41 0
-1254 43 0
-1254 45 0
-1254 47 0
-1254 49 0
-1254 51 0
-1254 53 0
-1254 55 0
-41 -43 -45 -47 -49 -51 -53 -55 1254 0
-1255 10 0
-1255 31 0
-1255 47 0
-1255 63 0
-1255 79 0
-1255 95 0
-1255 111 0
-1255 127 0
-10 -31 -47 -63 -79 -95 -111 -127 1255 0
-1256 57 0
-1256 59 0
-1256 61 0
-1256 63 0
-1256 65 0
-1256 67 0
-1256 69 0
-1256 71 0
-57 -59 -61 -63 -65 -67 -69 -71 1256 0
-1257 13 0
-1257 33 0
-1257 49 0
-1257 65 0
-1257 81 0
-1257 97 0
-1257 113 0
-1257 129 0
-13 -33 -49 -65 -81 -97 -113 -129 1257 0
-1258 73 0
-1258 75 0
-1258 77 0
-1258 79 0
-1258 81 0
-1258 83 0
-1258 85 0
-1258 87 0
-73 -75 -77 -79 -81 -83 -85 -87 1258 0
-1259 16 0
-1259 35 0
-1259 51 0
-1259 67 0
-1259 83 0
-1259 99 0
-1259 115 0
-1259 131 0
-16 -35 -51 -67 -83 -99 -115 -131 1259 0
-1260 89 0
-1260 91 0
-1260 93 0
-1260 95 0
-1260 97 0
-1260 99 0
-1260 101 0
-1260 103 0
-89 -91 -93 -95 -97 -99 -101 -103 1260 0
-1261 19 0
-1261 37 0
-1261 53 0
-1261 69 0
-1261 85 0
-1261 101 0
-1261 117 0
-1261 133 0
-19 -37 -53 -69 -85 -101 -117 -133 1261 0
-1262 105 0
-1262 107 0
-1262 109 0
-1262 111 0
-1262 113 0
-1262 115 0
-1262 117 0
-1262 119 0
-105 -107 -109 -111 -113 -115 -117 -119 1262 0
-1263 22 0
-1263 39 0
-1263 55 0
-1263 71 0
-1263 87 0
-1263 103 0
-1263 119 0
-1263 135 0
-22 -39 -55 -71 -87 -103 -119 -135 1263 0
-1264 121 0
-1264 123 0
-1264 125 0
-1264 127 0
-1264 129 0
-1264 131 0
-1264 133 0
-1264 135 0
-121 -123 -125 -127 -129 -131 -133 -135 1264 0
-849 457 0
-1250 -1249 457 0
-457 849 1250 0
-457 849 1249 0
-850 473 0
-1250 -1251 473 0
-473 850 1250 0
-473 850 1251 0
-857 489 0
-1250 -1253 489 0
-489 857 1250 0
-489 857 1253 0
-864 505 0
-1250 -1255 505 0
-505 864 1250 0
-505 864 1255 0
-871 521 0
-1250 -1257 521 0
-521 871 1250 0
-521 871 1257 0
-878 537 0
-1250 -1259 537 0
-537 878 1250 0
-537 878 1259 0
-885 553 0
-1250 -1261 553 0
-553 885 1250 0
-553 885 1261 0
-892 569 0
-1250 -1263 569 0
-569 892 1250 0
-569 892 1263 0
-899 459 0
-1252 -1249 459 0
-459 899 1252 0
-459 899 1249 0
-906 475 0
-1252 -1251 475 0
-475 906 1252 0
-475 906 1251 0
-907 491 0
-1252 -1253 491 0
-491 907 1252 0
-491 907 1253 0
-914 507 0
-1252 -1255 507 0
-507 914 1252 0
-507 914 1255 0
-921 523 0
-1252 -1257 523 0
-523 921 1252 0
-523 921 1257 0
-928 539 0
-1252 -1259 539 0
-539 928 1252 0
-539 928 1259 0
-935 555 0
-1252 -1261 555 0
-555 935 1252 0
-555 935 1261 0
-942 571 0
-1252 -1263 571 0
-571 942 1252 0
-571 942 1263 0
-949 461 0
-1254 -1249 461 0
-461 949 1254 0
-461 949 1249 0
-956 477 0
-1254 -1251 477 0
-477 956 1254 0
-477 956 1251 0
-963 493 0
-1254 -1253 493 0
-493 963 1254 0
-493 963 1253 0
-964 509 0
-1254 -1255 509 0
-509 964 1254 0
-509 964 1255 0
-971 525 0
-1254 -1257 525 0
-525 971 1254 0
-525 971 1257 0
-978 541 0
-1254 -1259 541 0
-541 978 1254 0
-541 978 1259 0
-985 557 0
-1254 -1261 557 0
-557 985 1254 0
-557 985 1261 0
-992 573 0
-1254 -1263 573 0
-573 992 1254 0
-573 992 1263 0
-999 463 0
-1256 -1249 463 0
-463 999 1256 0
-463 999 1249 0
-1006 479 0
-1256 -1251 479 0
-479 1006 1256 0
-479 1006 1251 0
-1013 495 0
-1256 -1253 495 0
-495 1013 1256 0
-495 1013 1253 0
-1020 511 0
-1256 -1255 511 0
-511 1020 1256 0
-511 1020 1255 0
-1021 527 0
-1256 -1257 527 0
-527 1021 1256 0
-527 1021 1257 0
-1028 543 0
-1256 -1259 543 0
-543 1028 1256 0
-543 1028 1259 0
-1035 559 0
-1256 -1261 559 0
-559 1035 1256 0
-559 1035 1261 0
-1042 575 0
-1256 -1263 575 0
-575 1042 1256 0
-575 1042 1263 0
-1049 465 0
-1258 -1249 465 0
-465 1049 1258 0
-465 1049 1249 0
-1056 481 0
-1258 -1251 481 0
-481 1056 1258 0
-481 1056 1251 0
-1063 497 0
-1258 -1253 497 0
-497 1063 1258 0
-497 1063 1253 0
-1070 513 0
-1258 -1255 513 0
-513 1070 1258 0
-513 1070 1255 0
-1077 529 0
-1258 -1257 529 0
-529 1077 1258 0
-529 1077 1257 0
-1078 545 0
-1258 -1259 545 0
-545 1078 1258 0
-545 1078 1259 0
-1085 561 0
-1258 -1261 561 0
-561 1085 1258 0
-561 1085 1261 0
-1092 577 0
-1258 -1263 577 0
-577 1092 1258 0
-577 1092 1263 0
-1099 467 0
-1260 -1249 467 0
-467 1099 1260 0
-467 1099 1249 0
-1106 483 0
-1260 -1251 483 0
-483 1106 1260 0
-483 1106 1251 0
-1113 499 0
-1260 -1253 499 0
-499 1113 1260 0
-499 1113 1253 0
-1120 515 0
-1260 -1255 515 0
-515 1120 1260 0
-515 1120 1255 0
-1127 531 0
-1260 -1257 531 0
-531 1127 1260 0
-531 1127 1257 0
-1134 547 0
-1260 -1259 547 0
-547 1134 1260 0
-547 1134 1259 0
-1135 563 0
-1260 -1261 563 0
-563 1135 1260 0
-563 1135 1261 0
-1142 579 0
-1260 -1263 579 0
-579 1142 1260 0
-579 1142 1263 0
-1149 469 0
-1262 -1249 469 0
-469 1149 1262 0
-469 1149 1249 0
-1156 485 0
-1262 -1251 485 0
-485 1156 1262 0
-485 1156 1251 0
-1163 501 0
-1262 -1253 501 0
-501 1163 1262 0
-501 1163 1253 0
-1170 517 0
-1262 -1255 517 0
-517 1170 1262 0
-517 1170 1255 0
-1177 533 0
-1262 -1257 533 0
-533 1177 1262 0
-533 1177 1257 0
-1184 549 0
-1262 -1259 549 0
-549 1184 1262 0
-549 1184 1259 0
-1191 565 0
-1262 -1261 565 0
-565 1191 1262 0
-565 1191 1261 0
-1192 581 0
-1262 -1263 581 0
-581 1192 1262 0
-581 1192 1263 0
-1199 471 0
-1264 -1249 471 0
-471 1199 1264 0
-471 1199 1249 0
-1206 487 0
-1264 -1251 487 0
-487 1206 1264 0
-487 1206 1251 0
-1213 503 0
-1264 -1253 503 0
-503 1213 1264 0
-503 1213 1253 0
-1220 519 0
-1264 -1255 519 0
-519 1220 1264 0
-519 1220 1255 0
-1227 535 0
-1264 -1257 535 0
-535 1227 1264 0
-535 1227 1257 0
-1234 551 0
-1264 -1259 551 0
-551 1234 1264 0
-551 1234 1259 0
-1241 567 0
-1264 -1261 567 0
-567 1241 1264 0
-567 1241 1261 0
-1248 583 0
-1264 -1263 583 0
-583 1248 1264 0
-583 1248 1263 0
