p cnf 1126 4070
c ind 1 2 3 4 5 6 7 8 9 10 11 12 13 14 15 16 17 18 19 20 21 22 23 24 25 26 27 28 29 30 31 32 33 34 35 36 37 38 39 40 41 42 43 44 45 46 47 48 49 50 0
c ind 51 52 53 54 55 56 57 58 59 60 61 62 63 64 65 66 67 68 69 70 71 72 73 74 75 76 77 78 79 80 81 82 83 84 85 86 87 88 89 90 91 92 93 94 95 96 97 98 99 100 0
c ind 101 102 103 104 105 106 107 108 109 110 111 112 113 114 115 116 117 118 119 120 121 122 123 124 125 126 127 128 129 130 131 132 133 134 135 136 137 138 139 140 141 142 143 144 145 146 147 148 149 150 0
c ind 151 152 153 154 155 156 157 158 159 160 161 162 163 164 165 166 167 168 169 170 171 172 173 174 175 176 177 178 179 180 181 182 183 184 185 186 187 188 189 190 191 192 193 194 195 196 197 198 199 200 0
c ind 201 202 203 204 205 206 207 208 209 210 211 212 213 214 215 216 217 218 219 220 221 222 223 224 225 226 227 228 229 230 231 232 233 234 235 236 237 238 239 240 241 242 243 244 245 246 247 248 249 250 0
c ind 251 252 253 254 255 256 257 258 259 260 261 262 263 264 265 266 267 268 269 270 271 272 273 274 275 276 277 278 279 280 281 282 283 284 285 286 287 288 289 290 291 292 293 294 295 296 297 298 299 300 0
c ind 301 302 303 304 305 306 307 308 309 310 311 312 313 314 315 316 317 318 319 320 321 322 323 324 325 326 327 328 329 330 331 332 333 334 335 336 337 338 339 340 341 342 343 344 345 346 347 348 349 350 0
c ind 351 352 353 354 355 356 357 358 359 360 361 362 363 364 365 366 367 368 369 370 371 372 373 374 375 376 377 378 379 380 381 382 383 384 385 386 387 388 389 390 391 392 393 394 395 396 397 398 399 400 0
c ind 401 402 403 404 405 406 407 408 409 410 411 412 413 414 415 416 417 418 419 420 421 422 423 424 425 426 427 428 429 430 431 432 433 434 435 436 437 438 439 440 441 442 443 444 445 446 447 448 449 450 0
c ind 451 452 453 454 455 456 457 458 459 460 461 462 463 464 465 466 467 468 469 470 471 472 473 474 475 476 477 478 479 480 481 482 483 484 485 486 487 488 489 490 491 492 493 494 495 496 497 498 499 500 0
c ind 501 502 503 504 505 506 507 508 509 510 511 512 513 514 515 516 517 518 519 520 521 522 523 524 525 526 527 528 529 530 531 532 533 534 535 536 537 538 539 540 541 542 543 544 545 546 547 548 549 550 0
c ind 551 552 553 554 555 556 557 558 559 560 561 562 563 564 565 566 567 568 569 570 571 572 573 574 575 576 577 578 579 580 581 582 583 584 585 586 587 588 589 590 591 592 593 594 595 596 597 598 599 600 0
c ind 601 602 603 604 605 606 607 608 609 610 611 612 613 614 615 616 617 618 619 620 621 622 623 624 625 626 627 628 629 630 631 632 633 634 635 636 637 638 639 640 641 642 643 644 645 646 647 648 649 650 0
c ind 651 652 653 654 655 656 657 658 659 660 661 662 663 664 665 666 667 668 669 670 671 672 673 674 675 676 677 678 679 680 681 682 683 684 685 686 687 688 689 690 691 692 693 694 695 696 697 698 699 700 0
c ind 701 702 703 704 705 706 707 708 709 710 711 712 713 714 715 716 717 718 719 720 721 722 723 724 725 726 727 728 729 730 731 732 733 734 735 736 737 738 739 740 741 742 743 744 745 746 747 748 749 750 0
c ind 751 752 753 754 755 756 757 758 759 760 761 762 763 764 765 766 767 768 769 770 771 772 773 774 775 776 777 778 779 780 781 782 783 784 785 786 787 788 789 790 791 792 793 794 795 796 797 798 799 800 0
c ind 801 802 803 804 805 806 807 808 809 810 811 812 813 814 815 816 817 818 819 820 821 822 823 824 825 826 827 828 829 830 831 832 833 834 835 836 837 838 839 840 841 842 843 844 845 846 847 848 849 850 0
c ind 851 852 853 854 855 856 857 858 859 860 861 862 863 864 865 866 867 868 869 870 871 872 873 874 875 876 877 878 879 880 881 882 883 884 885 886 887 888 889 890 891 892 893 894 895 896 897 898 899 900 0
c ind 901 902 903 904 905 906 907 908 909 910 917 918 919 920 921 922 923 924 925 926 927 928 929 930 931 932 933 934 935 936 937 938 939 940 941 942 943 944 945 946 947 948 949 950 951 952 953 954 955 956 0
c ind 957 958 959 960 961 962 963 964 965 966 967 968 969 970 971 972 973 974 975 976 977 978 979 980 981 982 983 984 985 986 987 988 989 990 991 992 993 994 995 996 997 998 999 1000 1001 1002 1003 1004 1005 1006 0
c ind 1007 1008 1009 1010 1011 1012 1013 1014 1015 1016 1017 1018 1019 1020 1021 1022 1023 1024 1025 1026 1027 1028 1029 1030 1031 1032 1033 1034 1035 1036 1037 1038 1039 1040 1041 1042 1043 1044 1045 1046 1047 1048 1049 1050 1051 1052 1053 1054 1055 1056 0
c ind 1057 1058 1059 1060 1061 1062 1063 1064 1065 1066 1067 1068 1069 1070 1071 1072 1073 1074 1075 1076 1077 1078 1079 1080 1081 1082 1083 1084 1085 1086 1087 1088 1089 1090 1091 1092 1093 1094 1095 1096 1097 1098 1099 1100 1101 1102 1103 1104 1105 1106 0
c ind 1107 1108 1109 1110 1111 1112 1113 1114 1115 1116 1117 1118 1119 1120 1121 1122 1123 1124 1125 1126 0
1 2 3 4 5 6 7 0
8 9 10 11 12 13 14 0
15 16 17 18 19 20 21 0
22 23 24 25 26 27 28 0
29 30 31 32 33 34 35 0
36 37 38 39 40 41 42 0
43 44 45 46 47 48 49 0
50 51 -51 -52 0
53 51 -54 -55 0
56 51 -57 -58 0
59 51 -60 -61 0
62 51 -63 -64 0
65 51 -66 -67 0
68 51 -69 -70 0
71 54 -51 -72 0
73 54 -54 -74 0
75 54 -57 -76 0
77 54 -60 -78 0
79 54 -63 -80 0
81 54 -66 -82 0
83 54 -69 -84 0
85 57 -51 -86 0
87 57 -54 -88 0
89 57 -57 -90 0
91 57 -60 -92 0
93 57 -63 -94 0
95 57 -66 -96 0
97 57 -69 -98 0
99 60 -51 -100 0
101 60 -54 -102 0
103 60 -57 -104 0
105 60 -60 -106 0
107 60 -63 -108 0
109 60 -66 -110 0
111 60 -69 -112 0
113 63 -51 -114 0
115 63 -54 -116 0
117 63 -57 -118 0
119 63 -60 -120 0
121 63 -63 -122 0
123 63 -66 -124 0
125 63 -69 -126 0
127 66 -51 -128 0
129 66 -54 -130 0
131 66 -57 -132 0
133 66 -60 -134 0
135 66 -63 -136 0
137 66 -66 -138 0
139 66 -69 -140 0
141 69 -51 -142 0
143 69 -54 -144 0
145 69 -57 -146 0
147 69 -60 -148 0
149 69 -63 -150 0
151 69 -66 -152 0
153 69 -69 -154 0
52 -50 0
55 -53 0
58 -56 0
61 -59 0
64 -62 0
67 -65 0
70 -68 0
72 -71 0
74 -73 0
76 -75 0
78 -77 0
80 -79 0
82 -81 0
84 -83 0
86 -85 0
88 -87 0
90 -89 0
92 -91 0
94 -93 0
96 -95 0
98 -97 0
100 -99 0
102 -101 0
104 -103 0
106 -105 0
108 -107 0
110 -109 0
112 -111 0
114 -113 0
116 -115 0
118 -117 0
120 -119 0
122 -121 0
124 -123 0
126 -125 0
128 -127 0
130 -129 0
132 -131 0
134 -133 0
136 -135 0
138 -137 0
140 -139 0
142 -141 0
144 -143 0
146 -145 0
148 -147 0
150 -149 0
152 -151 0
154 -153 0
52 -51 0
55 -51 0
58 -51 0
61 -51 0
64 -51 0
67 -51 0
70 -51 0
72 -54 0
74 -54 0
76 -54 0
78 -54 0
80 -54 0
82 -54 0
84 -54 0
86 -57 0
88 -57 0
90 -57 0
92 -57 0
94 -57 0
96 -57 0
98 -57 0
100 -60 0
102 -60 0
104 -60 0
106 -60 0
108 -60 0
110 -60 0
112 -60 0
114 -63 0
116 -63 0
118 -63 0
120 -63 0
122 -63 0
124 -63 0
126 -63 0
128 -66 0
130 -66 0
132 -66 0
134 -66 0
136 -66 0
138 -66 0
140 -66 0
142 -69 0
144 -69 0
146 -69 0
148 -69 0
150 -69 0
152 -69 0
154 -69 0
52 51 0
55 54 0
58 57 0
61 60 0
64 63 0
67 66 0
70 69 0
72 51 0
74 54 0
76 57 0
78 60 0
80 63 0
82 66 0
84 69 0
86 51 0
88 54 0
90 57 0
92 60 0
94 63 0
96 66 0
98 69 0
100 51 0
102 54 0
104 57 0
106 60 0
108 63 0
110 66 0
112 69 0
114 51 0
116 54 0
118 57 0
120 60 0
122 63 0
124 66 0
126 69 0
128 51 0
130 54 0
132 57 0
134 60 0
136 63 0
138 66 0
140 69 0
142 51 0
144 54 0
146 57 0
148 60 0
150 63 0
152 66 0
154 69 0
155 -156 -157 -158 0
159 -160 -157 -161 0
162 -163 -157 -164 0
165 -166 -157 -167 0
168 -169 -157 -170 0
171 -172 -157 -173 0
174 -175 -157 -176 0
177 -156 -178 -179 0
180 -160 -178 -181 0
182 -163 -178 -183 0
184 -166 -178 -185 0
186 -169 -178 -187 0
188 -172 -178 -189 0
190 -175 -178 -191 0
192 -156 -193 -194 0
195 -160 -193 -196 0
197 -163 -193 -198 0
199 -166 -193 -200 0
201 -169 -193 -202 0
203 -172 -193 -204 0
205 -175 -193 -206 0
207 -156 -208 -209 0
210 -160 -208 -211 0
212 -163 -208 -213 0
214 -166 -208 -215 0
216 -169 -208 -217 0
218 -172 -208 -219 0
220 -175 -208 -221 0
222 -156 -223 -224 0
225 -160 -223 -226 0
227 -163 -223 -228 0
229 -166 -223 -230 0
231 -169 -223 -232 0
233 -172 -223 -234 0
235 -175 -223 -236 0
237 -156 -238 -239 0
240 -160 -238 -241 0
242 -163 -238 -243 0
244 -166 -238 -245 0
246 -169 -238 -247 0
248 -172 -238 -249 0
250 -175 -238 -251 0
252 -156 -253 -254 0
255 -160 -253 -256 0
257 -163 -253 -258 0
259 -166 -253 -260 0
261 -169 -253 -262 0
263 -172 -253 -264 0
265 -175 -253 -266 0
158 -155 0
161 -159 0
164 -162 0
167 -165 0
170 -168 0
173 -171 0
176 -174 0
179 -177 0
181 -180 0
183 -182 0
185 -184 0
187 -186 0
189 -188 0
191 -190 0
194 -192 0
196 -195 0
198 -197 0
200 -199 0
202 -201 0
204 -203 0
206 -205 0
209 -207 0
211 -210 0
213 -212 0
215 -214 0
217 -216 0
219 -218 0
221 -220 0
224 -222 0
226 -225 0
228 -227 0
230 -229 0
232 -231 0
234 -233 0
236 -235 0
239 -237 0
241 -240 0
243 -242 0
245 -244 0
247 -246 0
249 -248 0
251 -250 0
254 -252 0
256 -255 0
258 -257 0
260 -259 0
262 -261 0
264 -263 0
266 -265 0
158 156 0
161 160 0
164 163 0
167 166 0
170 169 0
173 172 0
176 175 0
179 156 0
181 160 0
183 163 0
185 166 0
187 169 0
189 172 0
191 175 0
194 156 0
196 160 0
198 163 0
200 166 0
202 169 0
204 172 0
206 175 0
209 156 0
211 160 0
213 163 0
215 166 0
217 169 0
219 172 0
221 175 0
224 156 0
226 160 0
228 163 0
230 166 0
232 169 0
234 172 0
236 175 0
239 156 0
241 160 0
243 163 0
245 166 0
247 169 0
249 172 0
251 175 0
254 156 0
256 160 0
258 163 0
260 166 0
262 169 0
264 172 0
266 175 0
158 157 0
161 157 0
164 157 0
167 157 0
170 157 0
173 157 0
176 157 0
179 178 0
181 178 0
183 178 0
185 178 0
187 178 0
189 178 0
191 178 0
194 193 0
196 193 0
198 193 0
200 193 0
202 193 0
204 193 0
206 193 0
209 208 0
211 208 0
213 208 0
215 208 0
217 208 0
219 208 0
221 208 0
224 223 0
226 223 0
228 223 0
230 223 0
232 223 0
234 223 0
236 223 0
239 238 0
241 238 0
243 238 0
245 238 0
247 238 0
249 238 0
251 238 0
254 253 0
256 253 0
258 253 0
260 253 0
262 253 0
264 253 0
266 253 0
-50 -51 -51 267 0
-53 -54 -51 268 0
-56 -57 -51 269 0
-59 -60 -51 270 0
-62 -63 -51 271 0
-65 -66 -51 272 0
-68 -69 -51 273 0
-71 -51 -54 274 0
-73 -54 -54 275 0
-75 -57 -54 276 0
-77 -60 -54 277 0
-79 -63 -54 278 0
-81 -66 -54 279 0
-83 -69 -54 280 0
-85 -51 -57 281 0
-87 -54 -57 282 0
-89 -57 -57 283 0
-91 -60 -57 284 0
-93 -63 -57 285 0
-95 -66 -57 286 0
-97 -69 -57 287 0
-99 -51 -60 288 0
-101 -54 -60 289 0
-103 -57 -60 290 0
-105 -60 -60 291 0
-107 -63 -60 292 0
-109 -66 -60 293 0
-111 -69 -60 294 0
-113 -51 -63 295 0
-115 -54 -63 296 0
-117 -57 -63 297 0
-119 -60 -63 298 0
-121 -63 -63 299 0
-123 -66 -63 300 0
-125 -69 -63 301 0
-127 -51 -66 302 0
-129 -54 -66 303 0
-131 -57 -66 304 0
-133 -60 -66 305 0
-135 -63 -66 306 0
-137 -66 -66 307 0
-139 -69 -66 308 0
-141 -51 -69 309 0
-143 -54 -69 310 0
-145 -57 -69 311 0
-147 -60 -69 312 0
-149 -63 -69 313 0
-151 -66 -69 314 0
-153 -69 -69 315 0
-267 50 0
-268 53 0
-269 56 0
-270 59 0
-271 62 0
-272 65 0
-273 68 0
-274 71 0
-275 73 0
-276 75 0
-277 77 0
-278 79 0
-279 81 0
-280 83 0
-281 85 0
-282 87 0
-283 89 0
-284 91 0
-285 93 0
-286 95 0
-287 97 0
-288 99 0
-289 101 0
-290 103 0
-291 105 0
-292 107 0
-293 109 0
-294 111 0
-295 113 0
-296 115 0
-297 117 0
-298 119 0
-299 121 0
-300 123 0
-301 125 0
-302 127 0
-303 129 0
-304 131 0
-305 133 0
-306 135 0
-307 137 0
-308 139 0
-309 141 0
-310 143 0
-311 145 0
-312 147 0
-313 149 0
-314 151 0
-315 153 0
-267 51 0
-268 54 0
-269 57 0
-270 60 0
-271 63 0
-272 66 0
-273 69 0
-274 51 0
-275 54 0
-276 57 0
-277 60 0
-278 63 0
-279 66 0
-280 69 0
-281 51 0
-282 54 0
-283 57 0
-284 60 0
-285 63 0
-286 66 0
-287 69 0
-288 51 0
-289 54 0
-290 57 0
-291 60 0
-292 63 0
-293 66 0
-294 69 0
-295 51 0
-296 54 0
-297 57 0
-298 60 0
-299 63 0
-300 66 0
-301 69 0
-302 51 0
-303 54 0
-304 57 0
-305 60 0
-306 63 0
-307 66 0
-308 69 0
-309 51 0
-310 54 0
-311 57 0
-312 60 0
-313 63 0
-314 66 0
-315 69 0
-267 51 0
-268 51 0
-269 51 0
-270 51 0
-271 51 0
-272 51 0
-273 51 0
-274 54 0
-275 54 0
-276 54 0
-277 54 0
-278 54 0
-279 54 0
-280 54 0
-281 57 0
-282 57 0
-283 57 0
-284 57 0
-285 57 0
-286 57 0
-287 57 0
-288 60 0
-289 60 0
-290 60 0
-291 60 0
-292 60 0
-293 60 0
-294 60 0
-295 63 0
-296 63 0
-297 63 0
-298 63 0
-299 63 0
-300 63 0
-301 63 0
-302 66 0
-303 66 0
-304 66 0
-305 66 0
-306 66 0
-307 66 0
-308 66 0
-309 69 0
-310 69 0
-311 69 0
-312 69 0
-313 69 0
-314 69 0
-315 69 0
-155 267 -316 0
-159 268 -317 0
-162 269 -318 0
-165 270 -319 0
-168 271 -320 0
-171 272 -321 0
-174 273 -322 0
-177 274 -323 0
-180 275 -324 0
-182 276 -325 0
-184 277 -326 0
-186 278 -327 0
-188 279 -328 0
-190 280 -329 0
-192 281 -330 0
-195 282 -331 0
-197 283 -332 0
-199 284 -333 0
-201 285 -334 0
-203 286 -335 0
-205 287 -336 0
-207 288 -337 0
-210 289 -338 0
-212 290 -339 0
-214 291 -340 0
-216 292 -341 0
-218 293 -342 0
-220 294 -343 0
-222 295 -344 0
-225 296 -345 0
-227 297 -346 0
-229 298 -347 0
-231 299 -348 0
-233 300 -349 0
-235 301 -350 0
-237 302 -351 0
-240 303 -352 0
-242 304 -353 0
-244 305 -354 0
-246 306 -355 0
-248 307 -356 0
-250 308 -357 0
-252 309 -358 0
-255 310 -359 0
-257 311 -360 0
-259 312 -361 0
-261 313 -362 0
-263 314 -363 0
-265 315 -364 0
316 155 0
317 159 0
318 162 0
319 165 0
320 168 0
321 171 0
322 174 0
323 177 0
324 180 0
325 182 0
326 184 0
327 186 0
328 188 0
329 190 0
330 192 0
331 195 0
332 197 0
333 199 0
334 201 0
335 203 0
336 205 0
337 207 0
338 210 0
339 212 0
340 214 0
341 216 0
342 218 0
343 220 0
344 222 0
345 225 0
346 227 0
347 229 0
348 231 0
349 233 0
350 235 0
351 237 0
352 240 0
353 242 0
354 244 0
355 246 0
356 248 0
357 250 0
358 252 0
359 255 0
360 257 0
361 259 0
362 261 0
363 263 0
364 265 0
316 -267 0
317 -268 0
318 -269 0
319 -270 0
320 -271 0
321 -272 0
322 -273 0
323 -274 0
324 -275 0
325 -276 0
326 -277 0
327 -278 0
328 -279 0
329 -280 0
330 -281 0
331 -282 0
332 -283 0
333 -284 0
334 -285 0
335 -286 0
336 -287 0
337 -288 0
338 -289 0
339 -290 0
340 -291 0
341 -292 0
342 -293 0
343 -294 0
344 -295 0
345 -296 0
346 -297 0
347 -298 0
348 -299 0
349 -300 0
350 -301 0
351 -302 0
352 -303 0
353 -304 0
354 -305 0
355 -306 0
356 -307 0
357 -308 0
358 -309 0
359 -310 0
360 -311 0
361 -312 0
362 -313 0
363 -314 0
364 -315 0
-365 -51 -51 366 0
-367 -54 -51 368 0
-369 -57 -51 370 0
-371 -60 -51 372 0
-373 -63 -51 374 0
-375 -66 -51 376 0
-377 -69 -51 378 0
-379 -51 -54 380 0
-381 -54 -54 382 0
-383 -57 -54 384 0
-385 -60 -54 386 0
-387 -63 -54 388 0
-389 -66 -54 390 0
-391 -69 -54 392 0
-393 -51 -57 394 0
-395 -54 -57 396 0
-397 -57 -57 398 0
-399 -60 -57 400 0
-401 -63 -57 402 0
-403 -66 -57 404 0
-405 -69 -57 406 0
-407 -51 -60 408 0
-409 -54 -60 410 0
-411 -57 -60 412 0
-413 -60 -60 414 0
-415 -63 -60 416 0
-417 -66 -60 418 0
-419 -69 -60 420 0
-421 -51 -63 422 0
-423 -54 -63 424 0
-425 -57 -63 426 0
-427 -60 -63 428 0
-429 -63 -63 430 0
-431 -66 -63 432 0
-433 -69 -63 434 0
-435 -51 -66 436 0
-437 -54 -66 438 0
-439 -57 -66 440 0
-441 -60 -66 442 0
-443 -63 -66 444 0
-445 -66 -66 446 0
-447 -69 -66 448 0
-449 -51 -69 450 0
-451 -54 -69 452 0
-453 -57 -69 454 0
-455 -60 -69 456 0
-457 -63 -69 458 0
-459 -66 -69 460 0
-461 -69 -69 462 0
-366 365 0
-368 367 0
-370 369 0
-372 371 0
-374 373 0
-376 375 0
-378 377 0
-380 379 0
-382 381 0
-384 383 0
-386 385 0
-388 387 0
-390 389 0
-392 391 0
-394 393 0
-396 395 0
-398 397 0
-400 399 0
-402 401 0
-404 403 0
-406 405 0
-408 407 0
-410 409 0
-412 411 0
-414 413 0
-416 415 0
-418 417 0
-420 419 0
-422 421 0
-424 423 0
-426 425 0
-428 427 0
-430 429 0
-432 431 0
-434 433 0
-436 435 0
-438 437 0
-440 439 0
-442 441 0
-444 443 0
-446 445 0
-448 447 0
-450 449 0
-452 451 0
-454 453 0
-456 455 0
-458 457 0
-460 459 0
-462 461 0
-366 51 0
-368 54 0
-370 57 0
-372 60 0
-374 63 0
-376 66 0
-378 69 0
-380 51 0
-382 54 0
-384 57 0
-386 60 0
-388 63 0
-390 66 0
-392 69 0
-394 51 0
-396 54 0
-398 57 0
-400 60 0
-402 63 0
-404 66 0
-406 69 0
-408 51 0
-410 54 0
-412 57 0
-414 60 0
-416 63 0
-418 66 0
-420 69 0
-422 51 0
-424 54 0
-426 57 0
-428 60 0
-430 63 0
-432 66 0
-434 69 0
-436 51 0
-438 54 0
-440 57 0
-442 60 0
-444 63 0
-446 66 0
-448 69 0
-450 51 0
-452 54 0
-454 57 0
-456 60 0
-458 63 0
-460 66 0
-462 69 0
-366 51 0
-368 51 0
-370 51 0
-372 51 0
-374 51 0
-376 51 0
-378 51 0
-380 54 0
-382 54 0
-384 54 0
-386 54 0
-388 54 0
-390 54 0
-392 54 0
-394 57 0
-396 57 0
-398 57 0
-400 57 0
-402 57 0
-404 57 0
-406 57 0
-408 60 0
-410 60 0
-412 60 0
-414 60 0
-416 60 0
-418 60 0
-420 60 0
-422 63 0
-424 63 0
-426 63 0
-428 63 0
-430 63 0
-432 63 0
-434 63 0
-436 66 0
-438 66 0
-440 66 0
-442 66 0
-444 66 0
-446 66 0
-448 66 0
-450 69 0
-452 69 0
-454 69 0
-456 69 0
-458 69 0
-460 69 0
-462 69 0
-463 366 -464 0
-465 368 -466 0
-467 370 -468 0
-469 372 -470 0
-471 374 -472 0
-473 376 -474 0
-475 378 -476 0
-477 380 -478 0
-479 382 -480 0
-481 384 -482 0
-483 386 -484 0
-485 388 -486 0
-487 390 -488 0
-489 392 -490 0
-491 394 -492 0
-493 396 -494 0
-495 398 -496 0
-497 400 -498 0
-499 402 -500 0
-501 404 -502 0
-503 406 -504 0
-505 408 -506 0
-507 410 -508 0
-509 412 -510 0
-511 414 -512 0
-513 416 -514 0
-515 418 -516 0
-517 420 -518 0
-519 422 -520 0
-521 424 -522 0
-523 426 -524 0
-525 428 -526 0
-527 430 -528 0
-529 432 -530 0
-531 434 -532 0
-533 436 -534 0
-535 438 -536 0
-537 440 -538 0
-539 442 -540 0
-541 444 -542 0
-543 446 -544 0
-545 448 -546 0
-547 450 -548 0
-549 452 -550 0
-551 454 -552 0
-553 456 -554 0
-555 458 -556 0
-557 460 -558 0
-559 462 -560 0
464 463 0
466 465 0
468 467 0
470 469 0
472 471 0
474 473 0
476 475 0
478 477 0
480 479 0
482 481 0
484 483 0
486 485 0
488 487 0
490 489 0
492 491 0
494 493 0
496 495 0
498 497 0
500 499 0
502 501 0
504 503 0
506 505 0
508 507 0
510 509 0
512 511 0
514 513 0
516 515 0
518 517 0
520 519 0
522 521 0
524 523 0
526 525 0
528 527 0
530 529 0
532 531 0
534 533 0
536 535 0
538 537 0
540 539 0
542 541 0
544 543 0
546 545 0
548 547 0
550 549 0
552 551 0
554 553 0
556 555 0
558 557 0
560 559 0
464 -366 0
466 -368 0
468 -370 0
470 -372 0
472 -374 0
474 -376 0
476 -378 0
478 -380 0
480 -382 0
482 -384 0
484 -386 0
486 -388 0
488 -390 0
490 -392 0
492 -394 0
494 -396 0
496 -398 0
498 -400 0
500 -402 0
502 -404 0
504 -406 0
506 -408 0
508 -410 0
510 -412 0
512 -414 0
514 -416 0
516 -418 0
518 -420 0
520 -422 0
522 -424 0
524 -426 0
526 -428 0
528 -430 0
530 -432 0
532 -434 0
534 -436 0
536 -438 0
538 -440 0
540 -442 0
542 -444 0
544 -446 0
546 -448 0
548 -450 0
550 -452 0
552 -454 0
554 -456 0
556 -458 0
558 -460 0
560 -462 0
155 -50 -51 -51 -561 0
159 -53 -54 -51 -562 0
162 -56 -57 -51 -563 0
165 -59 -60 -51 -564 0
168 -62 -63 -51 -565 0
171 -65 -66 -51 -566 0
174 -68 -69 -51 -567 0
177 -71 -51 -54 -568 0
180 -73 -54 -54 -569 0
182 -75 -57 -54 -570 0
184 -77 -60 -54 -571 0
186 -79 -63 -54 -572 0
188 -81 -66 -54 -573 0
190 -83 -69 -54 -574 0
192 -85 -51 -57 -575 0
195 -87 -54 -57 -576 0
197 -89 -57 -57 -577 0
199 -91 -60 -57 -578 0
201 -93 -63 -57 -579 0
203 -95 -66 -57 -580 0
205 -97 -69 -57 -581 0
207 -99 -51 -60 -582 0
210 -101 -54 -60 -583 0
212 -103 -57 -60 -584 0
214 -105 -60 -60 -585 0
216 -107 -63 -60 -586 0
218 -109 -66 -60 -587 0
220 -111 -69 -60 -588 0
222 -113 -51 -63 -589 0
225 -115 -54 -63 -590 0
227 -117 -57 -63 -591 0
229 -119 -60 -63 -592 0
231 -121 -63 -63 -593 0
233 -123 -66 -63 -594 0
235 -125 -69 -63 -595 0
237 -127 -51 -66 -596 0
240 -129 -54 -66 -597 0
242 -131 -57 -66 -598 0
244 -133 -60 -66 -599 0
246 -135 -63 -66 -600 0
248 -137 -66 -66 -601 0
250 -139 -69 -66 -602 0
252 -141 -51 -69 -603 0
255 -143 -54 -69 -604 0
257 -145 -57 -69 -605 0
259 -147 -60 -69 -606 0
261 -149 -63 -69 -607 0
263 -151 -66 -69 -608 0
265 -153 -69 -69 -609 0
561 -155 0
562 -159 0
563 -162 0
564 -165 0
565 -168 0
566 -171 0
567 -174 0
568 -177 0
569 -180 0
570 -182 0
571 -184 0
572 -186 0
573 -188 0
574 -190 0
575 -192 0
576 -195 0
577 -197 0
578 -199 0
579 -201 0
580 -203 0
581 -205 0
582 -207 0
583 -210 0
584 -212 0
585 -214 0
586 -216 0
587 -218 0
588 -220 0
589 -222 0
590 -225 0
591 -227 0
592 -229 0
593 -231 0
594 -233 0
595 -235 0
596 -237 0
597 -240 0
598 -242 0
599 -244 0
600 -246 0
601 -248 0
602 -250 0
603 -252 0
604 -255 0
605 -257 0
606 -259 0
607 -261 0
608 -263 0
609 -265 0
561 50 0
562 53 0
563 56 0
564 59 0
565 62 0
566 65 0
567 68 0
568 71 0
569 73 0
570 75 0
571 77 0
572 79 0
573 81 0
574 83 0
575 85 0
576 87 0
577 89 0
578 91 0
579 93 0
580 95 0
581 97 0
582 99 0
583 101 0
584 103 0
585 105 0
586 107 0
587 109 0
588 111 0
589 113 0
590 115 0
591 117 0
592 119 0
593 121 0
594 123 0
595 125 0
596 127 0
597 129 0
598 131 0
599 133 0
600 135 0
601 137 0
602 139 0
603 141 0
604 143 0
605 145 0
606 147 0
607 149 0
608 151 0
609 153 0
561 51 0
562 54 0
563 57 0
564 60 0
565 63 0
566 66 0
567 69 0
568 51 0
569 54 0
570 57 0
571 60 0
572 63 0
573 66 0
574 69 0
575 51 0
576 54 0
577 57 0
578 60 0
579 63 0
580 66 0
581 69 0
582 51 0
583 54 0
584 57 0
585 60 0
586 63 0
587 66 0
588 69 0
589 51 0
590 54 0
591 57 0
592 60 0
593 63 0
594 66 0
595 69 0
596 51 0
597 54 0
598 57 0
599 60 0
600 63 0
601 66 0
602 69 0
603 51 0
604 54 0
605 57 0
606 60 0
607 63 0
608 66 0
609 69 0
561 51 0
562 51 0
563 51 0
564 51 0
565 51 0
566 51 0
567 51 0
568 54 0
569 54 0
570 54 0
571 54 0
572 54 0
573 54 0
574 54 0
575 57 0
576 57 0
577 57 0
578 57 0
579 57 0
580 57 0
581 57 0
582 60 0
583 60 0
584 60 0
585 60 0
586 60 0
587 60 0
588 60 0
589 63 0
590 63 0
591 63 0
592 63 0
593 63 0
594 63 0
595 63 0
596 66 0
597 66 0
598 66 0
599 66 0
600 66 0
601 66 0
602 66 0
603 69 0
604 69 0
605 69 0
606 69 0
607 69 0
608 69 0
609 69 0
463 -365 -51 -51 -610 0
465 -367 -54 -51 -611 0
467 -369 -57 -51 -612 0
469 -371 -60 -51 -613 0
471 -373 -63 -51 -614 0
473 -375 -66 -51 -615 0
475 -377 -69 -51 -616 0
477 -379 -51 -54 -617 0
479 -381 -54 -54 -618 0
481 -383 -57 -54 -619 0
483 -385 -60 -54 -620 0
485 -387 -63 -54 -621 0
487 -389 -66 -54 -622 0
489 -391 -69 -54 -623 0
491 -393 -51 -57 -624 0
493 -395 -54 -57 -625 0
495 -397 -57 -57 -626 0
497 -399 -60 -57 -627 0
499 -401 -63 -57 -628 0
501 -403 -66 -57 -629 0
503 -405 -69 -57 -630 0
505 -407 -51 -60 -631 0
507 -409 -54 -60 -632 0
509 -411 -57 -60 -633 0
511 -413 -60 -60 -634 0
513 -415 -63 -60 -635 0
515 -417 -66 -60 -636 0
517 -419 -69 -60 -637 0
519 -421 -51 -63 -638 0
521 -423 -54 -63 -639 0
523 -425 -57 -63 -640 0
525 -427 -60 -63 -641 0
527 -429 -63 -63 -642 0
529 -431 -66 -63 -643 0
531 -433 -69 -63 -644 0
533 -435 -51 -66 -645 0
535 -437 -54 -66 -646 0
537 -439 -57 -66 -647 0
539 -441 -60 -66 -648 0
541 -443 -63 -66 -649 0
543 -445 -66 -66 -650 0
545 -447 -69 -66 -651 0
547 -449 -51 -69 -652 0
549 -451 -54 -69 -653 0
551 -453 -57 -69 -654 0
553 -455 -60 -69 -655 0
555 -457 -63 -69 -656 0
557 -459 -66 -69 -657 0
559 -461 -69 -69 -658 0
610 -463 0
611 -465 0
612 -467 0
613 -469 0
614 -471 0
615 -473 0
616 -475 0
617 -477 0
618 -479 0
619 -481 0
620 -483 0
621 -485 0
622 -487 0
623 -489 0
624 -491 0
625 -493 0
626 -495 0
627 -497 0
628 -499 0
629 -501 0
630 -503 0
631 -505 0
632 -507 0
633 -509 0
634 -511 0
635 -513 0
636 -515 0
637 -517 0
638 -519 0
639 -521 0
640 -523 0
641 -525 0
642 -527 0
643 -529 0
644 -531 0
645 -533 0
646 -535 0
647 -537 0
648 -539 0
649 -541 0
650 -543 0
651 -545 0
652 -547 0
653 -549 0
654 -551 0
655 -553 0
656 -555 0
657 -557 0
658 -559 0
610 365 0
611 367 0
612 369 0
613 371 0
614 373 0
615 375 0
616 377 0
617 379 0
618 381 0
619 383 0
620 385 0
621 387 0
622 389 0
623 391 0
624 393 0
625 395 0
626 397 0
627 399 0
628 401 0
629 403 0
630 405 0
631 407 0
632 409 0
633 411 0
634 413 0
635 415 0
636 417 0
637 419 0
638 421 0
639 423 0
640 425 0
641 427 0
642 429 0
643 431 0
644 433 0
645 435 0
646 437 0
647 439 0
648 441 0
649 443 0
650 445 0
651 447 0
652 449 0
653 451 0
654 453 0
655 455 0
656 457 0
657 459 0
658 461 0
610 51 0
611 54 0
612 57 0
613 60 0
614 63 0
615 66 0
616 69 0
617 51 0
618 54 0
619 57 0
620 60 0
621 63 0
622 66 0
623 69 0
624 51 0
625 54 0
626 57 0
627 60 0
628 63 0
629 66 0
630 69 0
631 51 0
632 54 0
633 57 0
634 60 0
635 63 0
636 66 0
637 69 0
638 51 0
639 54 0
640 57 0
641 60 0
642 63 0
643 66 0
644 69 0
645 51 0
646 54 0
647 57 0
648 60 0
649 63 0
650 66 0
651 69 0
652 51 0
653 54 0
654 57 0
655 60 0
656 63 0
657 66 0
658 69 0
610 51 0
611 51 0
612 51 0
613 51 0
614 51 0
615 51 0
616 51 0
617 54 0
618 54 0
619 54 0
620 54 0
621 54 0
622 54 0
623 54 0
624 57 0
625 57 0
626 57 0
627 57 0
628 57 0
629 57 0
630 57 0
631 60 0
632 60 0
633 60 0
634 60 0
635 60 0
636 60 0
637 60 0
638 63 0
639 63 0
640 63 0
641 63 0
642 63 0
643 63 0
644 63 0
645 66 0
646 66 0
647 66 0
648 66 0
649 66 0
650 66 0
651 66 0
652 69 0
653 69 0
654 69 0
655 69 0
656 69 0
657 69 0
658 69 0
-463 -156 -659 0
-477 -156 -660 0
-491 -156 -661 0
-505 -156 -662 0
-519 -156 -663 0
-533 -156 -664 0
-547 -156 -665 0
-465 -160 -666 0
-479 -160 -667 0
-493 -160 -668 0
-507 -160 -669 0
-521 -160 -670 0
-535 -160 -671 0
-549 -160 -672 0
-467 -163 -673 0
-481 -163 -674 0
-495 -163 -675 0
-509 -163 -676 0
-523 -163 -677 0
-537 -163 -678 0
-551 -163 -679 0
-469 -166 -680 0
-483 -166 -681 0
-497 -166 -682 0
-511 -166 -683 0
-525 -166 -684 0
-539 -166 -685 0
-553 -166 -686 0
-471 -169 -687 0
-485 -169 -688 0
-499 -169 -689 0
-513 -169 -690 0
-527 -169 -691 0
-541 -169 -692 0
-555 -169 -693 0
-473 -172 -694 0
-487 -172 -695 0
-501 -172 -696 0
-515 -172 -697 0
-529 -172 -698 0
-543 -172 -699 0
-557 -172 -700 0
-475 -175 -701 0
-489 -175 -702 0
-503 -175 -703 0
-517 -175 -704 0
-531 -175 -705 0
-545 -175 -706 0
-559 -175 -707 0
659 463 0
660 477 0
661 491 0
662 505 0
663 519 0
664 533 0
665 547 0
666 465 0
667 479 0
668 493 0
669 507 0
670 521 0
671 535 0
672 549 0
673 467 0
674 481 0
675 495 0
676 509 0
677 523 0
678 537 0
679 551 0
680 469 0
681 483 0
682 497 0
683 511 0
684 525 0
685 539 0
686 553 0
687 471 0
688 485 0
689 499 0
690 513 0
691 527 0
692 541 0
693 555 0
694 473 0
695 487 0
696 501 0
697 515 0
698 529 0
699 543 0
700 557 0
701 475 0
702 489 0
703 503 0
704 517 0
705 531 0
706 545 0
707 559 0
659 156 0
660 156 0
661 156 0
662 156 0
663 156 0
664 156 0
665 156 0
666 160 0
667 160 0
668 160 0
669 160 0
670 160 0
671 160 0
672 160 0
673 163 0
674 163 0
675 163 0
676 163 0
677 163 0
678 163 0
679 163 0
680 166 0
681 166 0
682 166 0
683 166 0
684 166 0
685 166 0
686 166 0
687 169 0
688 169 0
689 169 0
690 169 0
691 169 0
692 169 0
693 169 0
694 172 0
695 172 0
696 172 0
697 172 0
698 172 0
699 172 0
700 172 0
701 175 0
702 175 0
703 175 0
704 175 0
705 175 0
706 175 0
707 175 0
-156 -659 708 0
-160 -660 709 0
-163 -661 710 0
-166 -662 711 0
-169 -663 712 0
-172 -664 713 0
-175 -665 714 0
-156 -666 715 0
-160 -667 716 0
-163 -668 717 0
-166 -669 718 0
-169 -670 719 0
-172 -671 720 0
-175 -672 721 0
-156 -673 722 0
-160 -674 723 0
-163 -675 724 0
-166 -676 725 0
-169 -677 726 0
-172 -678 727 0
-175 -679 728 0
-156 -680 729 0
-160 -681 730 0
-163 -682 731 0
-166 -683 732 0
-169 -684 733 0
-172 -685 734 0
-175 -686 735 0
-156 -687 736 0
-160 -688 737 0
-163 -689 738 0
-166 -690 739 0
-169 -691 740 0
-172 -692 741 0
-175 -693 742 0
-156 -694 743 0
-160 -695 744 0
-163 -696 745 0
-166 -697 746 0
-169 -698 747 0
-172 -699 748 0
-175 -700 749 0
-156 -701 750 0
-160 -702 751 0
-163 -703 752 0
-166 -704 753 0
-169 -705 754 0
-172 -706 755 0
-175 -707 756 0
-708 156 0
-709 160 0
-710 163 0
-711 166 0
-712 169 0
-713 172 0
-714 175 0
-715 156 0
-716 160 0
-717 163 0
-718 166 0
-719 169 0
-720 172 0
-721 175 0
-722 156 0
-723 160 0
-724 163 0
-725 166 0
-726 169 0
-727 172 0
-728 175 0
-729 156 0
-730 160 0
-731 163 0
-732 166 0
-733 169 0
-734 172 0
-735 175 0
-736 156 0
-737 160 0
-738 163 0
-739 166 0
-740 169 0
-741 172 0
-742 175 0
-743 156 0
-744 160 0
-745 163 0
-746 166 0
-747 169 0
-748 172 0
-749 175 0
-750 156 0
-751 160 0
-752 163 0
-753 166 0
-754 169 0
-755 172 0
-756 175 0
-708 659 0
-709 660 0
-710 661 0
-711 662 0
-712 663 0
-713 664 0
-714 665 0
-715 666 0
-716 667 0
-717 668 0
-718 669 0
-719 670 0
-720 671 0
-721 672 0
-722 673 0
-723 674 0
-724 675 0
-725 676 0
-726 677 0
-727 678 0
-728 679 0
-729 680 0
-730 681 0
-731 682 0
-732 683 0
-733 684 0
-734 685 0
-735 686 0
-736 687 0
-737 688 0
-738 689 0
-739 690 0
-740 691 0
-741 692 0
-742 693 0
-743 694 0
-744 695 0
-745 696 0
-746 697 0
-747 698 0
-748 699 0
-749 700 0
-750 701 0
-751 702 0
-752 703 0
-753 704 0
-754 705 0
-755 706 0
-756 707 0
-757 708 -758 0
-759 709 -760 0
-761 710 -762 0
-763 711 -764 0
-765 712 -766 0
-767 713 -768 0
-769 714 -770 0
-757 715 -771 0
-759 716 -772 0
-761 717 -773 0
-763 718 -774 0
-765 719 -775 0
-767 720 -776 0
-769 721 -777 0
-757 722 -778 0
-759 723 -779 0
-761 724 -780 0
-763 725 -781 0
-765 726 -782 0
-767 727 -783 0
-769 728 -784 0
-757 729 -785 0
-759 730 -786 0
-761 731 -787 0
-763 732 -788 0
-765 733 -789 0
-767 734 -790 0
-769 735 -791 0
-757 736 -792 0
-759 737 -793 0
-761 738 -794 0
-763 739 -795 0
-765 740 -796 0
-767 741 -797 0
-769 742 -798 0
-757 743 -799 0
-759 744 -800 0
-761 745 -801 0
-763 746 -802 0
-765 747 -803 0
-767 748 -804 0
-769 749 -805 0
-757 750 -806 0
-759 751 -807 0
-761 752 -808 0
-763 753 -809 0
-765 754 -810 0
-767 755 -811 0
-769 756 -812 0
758 757 0
760 759 0
762 761 0
764 763 0
766 765 0
768 767 0
770 769 0
771 757 0
772 759 0
773 761 0
774 763 0
775 765 0
776 767 0
777 769 0
778 757 0
779 759 0
780 761 0
781 763 0
782 765 0
783 767 0
784 769 0
785 757 0
786 759 0
787 761 0
788 763 0
789 765 0
790 767 0
791 769 0
792 757 0
793 759 0
794 761 0
795 763 0
796 765 0
797 767 0
798 769 0
799 757 0
800 759 0
801 761 0
802 763 0
803 765 0
804 767 0
805 769 0
806 757 0
807 759 0
808 761 0
809 763 0
810 765 0
811 767 0
812 769 0
758 -708 0
760 -709 0
762 -710 0
764 -711 0
766 -712 0
768 -713 0
770 -714 0
771 -715 0
772 -716 0
773 -717 0
774 -718 0
775 -719 0
776 -720 0
777 -721 0
778 -722 0
779 -723 0
780 -724 0
781 -725 0
782 -726 0
783 -727 0
784 -728 0
785 -729 0
786 -730 0
787 -731 0
788 -732 0
789 -733 0
790 -734 0
791 -735 0
792 -736 0
793 -737 0
794 -738 0
795 -739 0
796 -740 0
797 -741 0
798 -742 0
799 -743 0
800 -744 0
801 -745 0
802 -746 0
803 -747 0
804 -748 0
805 -749 0
806 -750 0
807 -751 0
808 -752 0
809 -753 0
810 -754 0
811 -755 0
812 -756 0
-52 -158 -316 -464 -561 -610 -758 813 0
-55 -161 -317 -466 -562 -611 -760 814 0
-58 -164 -318 -468 -563 -612 -762 815 0
-61 -167 -319 -470 -564 -613 -764 816 0
-64 -170 -320 -472 -565 -614 -766 817 0
-67 -173 -321 -474 -566 -615 -768 818 0
-70 -176 -322 -476 -567 -616 -770 819 0
-72 -179 -323 -478 -568 -617 -771 820 0
-74 -181 -324 -480 -569 -618 -772 821 0
-76 -183 -325 -482 -570 -619 -773 822 0
-78 -185 -326 -484 -571 -620 -774 823 0
-80 -187 -327 -486 -572 -621 -775 824 0
-82 -189 -328 -488 -573 -622 -776 825 0
-84 -191 -329 -490 -574 -623 -777 826 0
-86 -194 -330 -492 -575 -624 -778 827 0
-88 -196 -331 -494 -576 -625 -779 828 0
-90 -198 -332 -496 -577 -626 -780 829 0
-92 -200 -333 -498 -578 -627 -781 830 0
-94 -202 -334 -500 -579 -628 -782 831 0
-96 -204 -335 -502 -580 -629 -783 832 0
-98 -206 -336 -504 -581 -630 -784 833 0
-100 -209 -337 -506 -582 -631 -785 834 0
-102 -211 -338 -508 -583 -632 -786 835 0
-104 -213 -339 -510 -584 -633 -787 836 0
-106 -215 -340 -512 -585 -634 -788 837 0
-108 -217 -341 -514 -586 -635 -789 838 0
-110 -219 -342 -516 -587 -636 -790 839 0
-112 -221 -343 -518 -588 -637 -791 840 0
-114 -224 -344 -520 -589 -638 -792 841 0
-116 -226 -345 -522 -590 -639 -793 842 0
-118 -228 -346 -524 -591 -640 -794 843 0
-120 -230 -347 -526 -592 -641 -795 844 0
-122 -232 -348 -528 -593 -642 -796 845 0
-124 -234 -349 -530 -594 -643 -797 846 0
-126 -236 -350 -532 -595 -644 -798 847 0
-128 -239 -351 -534 -596 -645 -799 848 0
-130 -241 -352 -536 -597 -646 -800 849 0
-132 -243 -353 -538 -598 -647 -801 850 0
-134 -245 -354 -540 -599 -648 -802 851 0
-136 -247 -355 -542 -600 -649 -803 852 0
-138 -249 -356 -544 -601 -650 -804 853 0
-140 -251 -357 -546 -602 -651 -805 854 0
-142 -254 -358 -548 -603 -652 -806 855 0
-144 -256 -359 -550 -604 -653 -807 856 0
-146 -258 -360 -552 -605 -654 -808 857 0
-148 -260 -361 -554 -606 -655 -809 858 0
-150 -262 -362 -556 -607 -656 -810 859 0
-152 -264 -363 -558 -608 -657 -811 860 0
-154 -266 -364 -560 -609 -658 -812 861 0
-813 52 0
-814 55 0
-815 58 0
-816 61 0
-817 64 0
-818 67 0
-819 70 0
-820 72 0
-821 74 0
-822 76 0
-823 78 0
-824 80 0
-825 82 0
-826 84 0
-827 86 0
-828 88 0
-829 90 0
-830 92 0
-831 94 0
-832 96 0
-833 98 0
-834 100 0
-835 102 0
-836 104 0
-837 106 0
-838 108 0
-839 110 0
-840 112 0
-841 114 0
-842 116 0
-843 118 0
-844 120 0
-845 122 0
-846 124 0
-847 126 0
-848 128 0
-849 130 0
-850 132 0
-851 134 0
-852 136 0
-853 138 0
-854 140 0
-855 142 0
-856 144 0
-857 146 0
-858 148 0
-859 150 0
-860 152 0
-861 154 0
-813 158 0
-814 161 0
-815 164 0
-816 167 0
-817 170 0
-818 173 0
-819 176 0
-820 179 0
-821 181 0
-822 183 0
-823 185 0
-824 187 0
-825 189 0
-826 191 0
-827 194 0
-828 196 0
-829 198 0
-830 200 0
-831 202 0
-832 204 0
-833 206 0
-834 209 0
-835 211 0
-836 213 0
-837 215 0
-838 217 0
-839 219 0
-840 221 0
-841 224 0
-842 226 0
-843 228 0
-844 230 0
-845 232 0
-846 234 0
-847 236 0
-848 239 0
-849 241 0
-850 243 0
-851 245 0
-852 247 0
-853 249 0
-854 251 0
-855 254 0
-856 256 0
-857 258 0
-858 260 0
-859 262 0
-860 264 0
-861 266 0
-813 316 0
-814 317 0
-815 318 0
-816 319 0
-817 320 0
-818 321 0
-819 322 0
-820 323 0
-821 324 0
-822 325 0
-823 326 0
-824 327 0
-825 328 0
-826 329 0
-827 330 0
-828 331 0
-829 332 0
-830 333 0
-831 334 0
-832 335 0
-833 336 0
-834 337 0
-835 338 0
-836 339 0
-837 340 0
-838 341 0
-839 342 0
-840 343 0
-841 344 0
-842 345 0
-843 346 0
-844 347 0
-845 348 0
-846 349 0
-847 350 0
-848 351 0
-849 352 0
-850 353 0
-851 354 0
-852 355 0
-853 356 0
-854 357 0
-855 358 0
-856 359 0
-857 360 0
-858 361 0
-859 362 0
-860 363 0
-861 364 0
-813 464 0
-814 466 0
-815 468 0
-816 470 0
-817 472 0
-818 474 0
-819 476 0
-820 478 0
-821 480 0
-822 482 0
-823 484 0
-824 486 0
-825 488 0
-826 490 0
-827 492 0
-828 494 0
-829 496 0
-830 498 0
-831 500 0
-832 502 0
-833 504 0
-834 506 0
-835 508 0
-836 510 0
-837 512 0
-838 514 0
-839 516 0
-840 518 0
-841 520 0
-842 522 0
-843 524 0
-844 526 0
-845 528 0
-846 530 0
-847 532 0
-848 534 0
-849 536 0
-850 538 0
-851 540 0
-852 542 0
-853 544 0
-854 546 0
-855 548 0
-856 550 0
-857 552 0
-858 554 0
-859 556 0
-860 558 0
-861 560 0
-813 561 0
-814 562 0
-815 563 0
-816 564 0
-817 565 0
-818 566 0
-819 567 0
-820 568 0
-821 569 0
-822 570 0
-823 571 0
-824 572 0
-825 573 0
-826 574 0
-827 575 0
-828 576 0
-829 577 0
-830 578 0
-831 579 0
-832 580 0
-833 581 0
-834 582 0
-835 583 0
-836 584 0
-837 585 0
-838 586 0
-839 587 0
-840 588 0
-841 589 0
-842 590 0
-843 591 0
-844 592 0
-845 593 0
-846 594 0
-847 595 0
-848 596 0
-849 597 0
-850 598 0
-851 599 0
-852 600 0
-853 601 0
-854 602 0
-855 603 0
-856 604 0
-857 605 0
-858 606 0
-859 607 0
-860 608 0
-861 609 0
-813 610 0
-814 611 0
-815 612 0
-816 613 0
-817 614 0
-818 615 0
-819 616 0
-820 617 0
-821 618 0
-822 619 0
-823 620 0
-824 621 0
-825 622 0
-826 623 0
-827 624 0
-828 625 0
-829 626 0
-830 627 0
-831 628 0
-832 629 0
-833 630 0
-834 631 0
-835 632 0
-836 633 0
-837 634 0
-838 635 0
-839 636 0
-840 637 0
-841 638 0
-842 639 0
-843 640 0
-844 641 0
-845 642 0
-846 643 0
-847 644 0
-848 645 0
-849 646 0
-850 647 0
-851 648 0
-852 649 0
-853 650 0
-854 651 0
-855 652 0
-856 653 0
-857 654 0
-858 655 0
-859 656 0
-860 657 0
-861 658 0
-813 758 0
-814 760 0
-815 762 0
-816 764 0
-817 766 0
-818 768 0
-819 770 0
-820 771 0
-821 772 0
-822 773 0
-823 774 0
-824 775 0
-825 776 0
-826 777 0
-827 778 0
-828 779 0
-829 780 0
-830 781 0
-831 782 0
-832 783 0
-833 784 0
-834 785 0
-835 786 0
-836 787 0
-837 788 0
-838 789 0
-839 790 0
-840 791 0
-841 792 0
-842 793 0
-843 794 0
-844 795 0
-845 796 0
-846 797 0
-847 798 0
-848 799 0
-849 800 0
-850 801 0
-851 802 0
-852 803 0
-853 804 0
-854 805 0
-855 806 0
-856 807 0
-857 808 0
-858 809 0
-859 810 0
-860 811 0
-861 812 0
813 0
814 0
815 0
816 0
817 0
818 0
819 0
820 0
821 0
822 0
823 0
824 0
825 0
826 0
827 0
828 0
829 0
830 0
831 0
832 0
833 0
834 0
835 0
836 0
837 0
838 0
839 0
840 0
841 0
842 0
843 0
844 0
845 0
846 0
847 0
848 0
849 0
850 0
851 0
852 0
853 0
854 0
855 0
856 0
857 0
858 0
859 0
860 0
861 0
-463 -156 862 0
-477 -156 863 0
-491 -156 864 0
-505 -156 865 0
-519 -156 866 0
-533 -156 867 0
-547 -156 868 0
-465 -160 869 0
-479 -160 870 0
-493 -160 871 0
-507 -160 872 0
-521 -160 873 0
-535 -160 874 0
-549 -160 875 0
-467 -163 876 0
-481 -163 877 0
-495 -163 878 0
-509 -163 879 0
-523 -163 880 0
-537 -163 881 0
-551 -163 882 0
-469 -166 883 0
-483 -166 884 0
-497 -166 885 0
-511 -166 886 0
-525 -166 887 0
-539 -166 888 0
-553 -166 889 0
-471 -169 890 0
-485 -169 891 0
-499 -169 892 0
-513 -169 893 0
-527 -169 894 0
-541 -169 895 0
-555 -169 896 0
-473 -172 897 0
-487 -172 898 0
-501 -172 899 0
-515 -172 900 0
-529 -172 901 0
-543 -172 902 0
-557 -172 903 0
-475 -175 904 0
-489 -175 905 0
-503 -175 906 0
-517 -175 907 0
-531 -175 908 0
-545 -175 909 0
-559 -175 910 0
-862 463 0
-863 477 0
-864 491 0
-865 505 0
-866 519 0
-867 533 0
-868 547 0
-869 465 0
-870 479 0
-871 493 0
-872 507 0
-873 521 0
-874 535 0
-875 549 0
-876 467 0
-877 481 0
-878 495 0
-879 509 0
-880 523 0
-881 537 0
-882 551 0
-883 469 0
-884 483 0
-885 497 0
-886 511 0
-887 525 0
-888 539 0
-889 553 0
-890 471 0
-891 485 0
-892 499 0
-893 513 0
-894 527 0
-895 541 0
-896 555 0
-897 473 0
-898 487 0
-899 501 0
-900 515 0
-901 529 0
-902 543 0
-903 557 0
-904 475 0
-905 489 0
-906 503 0
-907 517 0
-908 531 0
-909 545 0
-910 559 0
-862 156 0
-863 156 0
-864 156 0
-865 156 0
-866 156 0
-867 156 0
-868 156 0
-869 160 0
-870 160 0
-871 160 0
-872 160 0
-873 160 0
-874 160 0
-875 160 0
-876 163 0
-877 163 0
-878 163 0
-879 163 0
-880 163 0
-881 163 0
-882 163 0
-883 166 0
-884 166 0
-885 166 0
-886 166 0
-887 166 0
-888 166 0
-889 166 0
-890 169 0
-891 169 0
-892 169 0
-893 169 0
-894 169 0
-895 169 0
-896 169 0
-897 172 0
-898 172 0
-899 172 0
-900 172 0
-901 172 0
-902 172 0
-903 172 0
-904 175 0
-905 175 0
-906 175 0
-907 175 0
-908 175 0
-909 175 0
-910 175 0
757 -156 862 -1 0
759 -160 863 -8 0
761 -163 864 -15 0
763 -166 865 -22 0
765 -169 866 -29 0
767 -172 867 -36 0
769 -175 868 -43 0
757 -156 869 -2 0
759 -160 870 -9 0
761 -163 871 -16 0
763 -166 872 -23 0
765 -169 873 -30 0
767 -172 874 -37 0
769 -175 875 -44 0
757 -156 876 -3 0
759 -160 877 -10 0
761 -163 878 -17 0
763 -166 879 -24 0
765 -169 880 -31 0
767 -172 881 -38 0
769 -175 882 -45 0
757 -156 883 -4 0
759 -160 884 -11 0
761 -163 885 -18 0
763 -166 886 -25 0
765 -169 887 -32 0
767 -172 888 -39 0
769 -175 889 -46 0
757 -156 890 -5 0
759 -160 891 -12 0
761 -163 892 -19 0
763 -166 893 -26 0
765 -169 894 -33 0
767 -172 895 -40 0
769 -175 896 -47 0
757 -156 897 -6 0
759 -160 898 -13 0
761 -163 899 -20 0
763 -166 900 -27 0
765 -169 901 -34 0
767 -172 902 -41 0
769 -175 903 -48 0
757 -156 904 -7 0
759 -160 905 -14 0
761 -163 906 -21 0
763 -166 907 -28 0
765 -169 908 -35 0
767 -172 909 -42 0
769 -175 910 -49 0
1 -757 0
8 -759 0
15 -761 0
22 -763 0
29 -765 0
36 -767 0
43 -769 0
2 -757 0
9 -759 0
16 -761 0
23 -763 0
30 -765 0
37 -767 0
44 -769 0
3 -757 0
10 -759 0
17 -761 0
24 -763 0
31 -765 0
38 -767 0
45 -769 0
4 -757 0
11 -759 0
18 -761 0
25 -763 0
32 -765 0
39 -767 0
46 -769 0
5 -757 0
12 -759 0
19 -761 0
26 -763 0
33 -765 0
40 -767 0
47 -769 0
6 -757 0
13 -759 0
20 -761 0
27 -763 0
34 -765 0
41 -767 0
48 -769 0
7 -757 0
14 -759 0
21 -761 0
28 -763 0
35 -765 0
42 -767 0
49 -769 0
1 156 0
8 160 0
15 163 0
22 166 0
29 169 0
36 172 0
43 175 0
2 156 0
9 160 0
16 163 0
23 166 0
30 169 0
37 172 0
44 175 0
3 156 0
10 160 0
17 163 0
24 166 0
31 169 0
38 172 0
45 175 0
4 156 0
11 160 0
18 163 0
25 166 0
32 169 0
39 172 0
46 175 0
5 156 0
12 160 0
19 163 0
26 166 0
33 169 0
40 172 0
47 175 0
6 156 0
13 160 0
20 163 0
27 166 0
34 169 0
41 172 0
48 175 0
7 156 0
14 160 0
21 163 0
28 166 0
35 169 0
42 172 0
49 175 0
1 -862 0
8 -863 0
15 -864 0
22 -865 0
29 -866 0
36 -867 0
43 -868 0
2 -869 0
9 -870 0
16 -871 0
23 -872 0
30 -873 0
37 -874 0
44 -875 0
3 -876 0
10 -877 0
17 -878 0
24 -879 0
31 -880 0
38 -881 0
45 -882 0
4 -883 0
11 -884 0
18 -885 0
25 -886 0
32 -887 0
39 -888 0
46 -889 0
5 -890 0
12 -891 0
19 -892 0
26 -893 0
33 -894 0
40 -895 0
47 -896 0
6 -897 0
13 -898 0
20 -899 0
27 -900 0
34 -901 0
41 -902 0
48 -903 0
7 -904 0
14 -905 0
21 -906 0
28 -907 0
35 -908 0
42 -909 0
49 -910 0
57 0
-193 0
66 0
-238 0
51 0
-157 0
253 0
-178 0
-175 0
54 0
69 0
-169 0
-166 0
156 0
63 0
-163 0
-223 0
-208 0
160 0
60 0
-172 0
-757 911 0
-911 912 0
-759 -911 0
-759 912 0
-912 913 0
-761 -912 0
-761 913 0
-913 914 0
-763 -913 0
-763 914 0
-914 915 0
-765 -914 0
-765 915 0
-915 916 0
-767 -915 0
-767 916 0
-769 -916 0
50 0
71 53 0
-71 -53 0
-71 -87 85 0
-71 -101 99 0
-71 -115 113 0
-71 -129 127 0
-71 -143 141 0
85 56 0
-85 -56 0
-85 -75 71 0
-85 -103 99 0
-85 -117 113 0
-85 -131 127 0
-85 -145 141 0
99 59 0
-99 -59 0
-99 -77 71 0
-99 -91 85 0
-99 -119 113 0
-99 -133 127 0
-99 -147 141 0
113 62 0
-113 -62 0
-113 -79 71 0
-113 -93 85 0
-113 -107 99 0
-113 -135 127 0
-113 -149 141 0
127 65 0
-127 -65 0
-127 -81 71 0
-127 -95 85 0
-127 -109 99 0
-127 -123 113 0
-127 -151 141 0
141 68 0
-141 -68 0
-141 -83 71 0
-141 -97 85 0
-141 -111 99 0
-141 -125 113 0
-141 -139 127 0
73 0
53 71 0
-53 -71 0
-53 -85 87 0
-53 -99 101 0
-53 -113 115 0
-53 -127 129 0
-53 -141 143 0
87 75 0
-87 -75 0
-87 -56 53 0
-87 -103 101 0
-87 -117 115 0
-87 -131 129 0
-87 -145 143 0
101 77 0
-101 -77 0
-101 -59 53 0
-101 -91 87 0
-101 -119 115 0
-101 -133 129 0
-101 -147 143 0
115 79 0
-115 -79 0
-115 -62 53 0
-115 -93 87 0
-115 -107 101 0
-115 -135 129 0
-115 -149 143 0
129 81 0
-129 -81 0
-129 -65 53 0
-129 -95 87 0
-129 -109 101 0
-129 -123 115 0
-129 -151 143 0
143 83 0
-143 -83 0
-143 -68 53 0
-143 -97 87 0
-143 -111 101 0
-143 -125 115 0
-143 -139 129 0
89 0
56 85 0
-56 -85 0
-56 -71 75 0
-56 -99 103 0
-56 -113 117 0
-56 -127 131 0
-56 -141 145 0
75 87 0
-75 -87 0
-75 -53 56 0
-75 -101 103 0
-75 -115 117 0
-75 -129 131 0
-75 -143 145 0
103 91 0
-103 -91 0
-103 -59 56 0
-103 -77 75 0
-103 -119 117 0
-103 -133 131 0
-103 -147 145 0
117 93 0
-117 -93 0
-117 -62 56 0
-117 -79 75 0
-117 -107 103 0
-117 -135 131 0
-117 -149 145 0
131 95 0
-131 -95 0
-131 -65 56 0
-131 -81 75 0
-131 -109 103 0
-131 -123 117 0
-131 -151 145 0
145 97 0
-145 -97 0
-145 -68 56 0
-145 -83 75 0
-145 -111 103 0
-145 -125 117 0
-145 -139 131 0
105 0
59 99 0
-59 -99 0
-59 -71 77 0
-59 -85 91 0
-59 -113 119 0
-59 -127 133 0
-59 -141 147 0
77 101 0
-77 -101 0
-77 -53 59 0
-77 -87 91 0
-77 -115 119 0
-77 -129 133 0
-77 -143 147 0
91 103 0
-91 -103 0
-91 -56 59 0
-91 -75 77 0
-91 -117 119 0
-91 -131 133 0
-91 -145 147 0
119 107 0
-119 -107 0
-119 -62 59 0
-119 -79 77 0
-119 -93 91 0
-119 -135 133 0
-119 -149 147 0
133 109 0
-133 -109 0
-133 -65 59 0
-133 -81 77 0
-133 -95 91 0
-133 -123 119 0
-133 -151 147 0
147 111 0
-147 -111 0
-147 -68 59 0
-147 -83 77 0
-147 -97 91 0
-147 -125 119 0
-147 -139 133 0
121 0
62 113 0
-62 -113 0
-62 -71 79 0
-62 -85 93 0
-62 -99 107 0
-62 -127 135 0
-62 -141 149 0
79 115 0
-79 -115 0
-79 -53 62 0
-79 -87 93 0
-79 -101 107 0
-79 -129 135 0
-79 -143 149 0
93 117 0
-93 -117 0
-93 -56 62 0
-93 -75 79 0
-93 -103 107 0
-93 -131 135 0
-93 -145 149 0
107 119 0
-107 -119 0
-107 -59 62 0
-107 -77 79 0
-107 -91 93 0
-107 -133 135 0
-107 -147 149 0
135 123 0
-135 -123 0
-135 -65 62 0
-135 -81 79 0
-135 -95 93 0
-135 -109 107 0
-135 -151 149 0
149 125 0
-149 -125 0
-149 -68 62 0
-149 -83 79 0
-149 -97 93 0
-149 -111 107 0
-149 -139 135 0
137 0
65 127 0
-65 -127 0
-65 -71 81 0
-65 -85 95 0
-65 -99 109 0
-65 -113 123 0
-65 -141 151 0
81 129 0
-81 -129 0
-81 -53 65 0
-81 -87 95 0
-81 -101 109 0
-81 -115 123 0
-81 -143 151 0
95 131 0
-95 -131 0
-95 -56 65 0
-95 -75 81 0
-95 -103 109 0
-95 -117 123 0
-95 -145 151 0
109 133 0
-109 -133 0
-109 -59 65 0
-109 -77 81 0
-109 -91 95 0
-109 -119 123 0
-109 -147 151 0
123 135 0
-123 -135 0
-123 -62 65 0
-123 -79 81 0
-123 -93 95 0
-123 -107 109 0
-123 -149 151 0
151 139 0
-151 -139 0
-151 -68 65 0
-151 -83 81 0
-151 -97 95 0
-151 -111 109 0
-151 -125 123 0
153 0
68 141 0
-68 -141 0
-68 -71 83 0
-68 -85 97 0
-68 -99 111 0
-68 -113 125 0
-68 -127 139 0
83 143 0
-83 -143 0
-83 -53 68 0
-83 -87 97 0
-83 -101 111 0
-83 -115 125 0
-83 -129 139 0
97 145 0
-97 -145 0
-97 -56 68 0
-97 -75 83 0
-97 -103 111 0
-97 -117 125 0
-97 -131 139 0
111 147 0
-111 -147 0
-111 -59 68 0
-111 -77 83 0
-111 -91 97 0
-111 -119 125 0
-111 -133 139 0
125 149 0
-125 -149 0
-125 -62 68 0
-125 -79 83 0
-125 -93 97 0
-125 -107 111 0
-125 -135 139 0
139 151 0
-139 -151 0
-139 -65 68 0
-139 -81 83 0
-139 -95 97 0
-139 -109 111 0
-139 -123 125 0
-365 0
-379 71 0
-917 85 0
-917 75 0
-85 -75 917 0
-918 99 0
-918 77 0
-99 -77 918 0
-919 113 0
-919 79 0
-113 -79 919 0
-920 127 0
-920 81 0
-127 -81 920 0
-921 141 0
-921 83 0
-141 -83 921 0
-379 -917 0
-379 -918 0
-379 -919 0
-379 -920 0
-379 -921 0
-71 379 917 918 919 920 921 0
-393 85 0
-922 71 0
-922 87 0
-71 -87 922 0
-923 99 0
-923 91 0
-99 -91 923 0
-924 113 0
-924 93 0
-113 -93 924 0
-925 127 0
-925 95 0
-127 -95 925 0
-926 141 0
-926 97 0
-141 -97 926 0
-393 -922 0
-393 -923 0
-393 -924 0
-393 -925 0
-393 -926 0
-85 393 922 923 924 925 926 0
-407 99 0
-927 71 0
-927 101 0
-71 -101 927 0
-928 85 0
-928 103 0
-85 -103 928 0
-929 113 0
-929 107 0
-113 -107 929 0
-930 127 0
-930 109 0
-127 -109 930 0
-931 141 0
-931 111 0
-141 -111 931 0
-407 -927 0
-407 -928 0
-407 -929 0
-407 -930 0
-407 -931 0
-99 407 927 928 929 930 931 0
-421 113 0
-932 71 0
-932 115 0
-71 -115 932 0
-933 85 0
-933 117 0
-85 -117 933 0
-934 99 0
-934 119 0
-99 -119 934 0
-935 127 0
-935 123 0
-127 -123 935 0
-936 141 0
-936 125 0
-141 -125 936 0
-421 -932 0
-421 -933 0
-421 -934 0
-421 -935 0
-421 -936 0
-113 421 932 933 934 935 936 0
-435 127 0
-937 71 0
-937 129 0
-71 -129 937 0
-938 85 0
-938 131 0
-85 -131 938 0
-939 99 0
-939 133 0
-99 -133 939 0
-940 113 0
-940 135 0
-113 -135 940 0
-941 141 0
-941 139 0
-141 -139 941 0
-435 -937 0
-435 -938 0
-435 -939 0
-435 -940 0
-435 -941 0
-127 435 937 938 939 940 941 0
-449 141 0
-942 71 0
-942 143 0
-71 -143 942 0
-943 85 0
-943 145 0
-85 -145 943 0
-944 99 0
-944 147 0
-99 -147 944 0
-945 113 0
-945 149 0
-113 -149 945 0
-946 127 0
-946 151 0
-127 -151 946 0
-449 -942 0
-449 -943 0
-449 -944 0
-449 -945 0
-449 -946 0
-141 449 942 943 944 945 946 0
-367 53 0
-947 87 0
-947 56 0
-87 -56 947 0
-948 101 0
-948 59 0
-101 -59 948 0
-949 115 0
-949 62 0
-115 -62 949 0
-950 129 0
-950 65 0
-129 -65 950 0
-951 143 0
-951 68 0
-143 -68 951 0
-367 -947 0
-367 -948 0
-367 -949 0
-367 -950 0
-367 -951 0
-53 367 947 948 949 950 951 0
-381 0
-395 87 0
-952 53 0
-952 85 0
-53 -85 952 0
-953 101 0
-953 91 0
-101 -91 953 0
-954 115 0
-954 93 0
-115 -93 954 0
-955 129 0
-955 95 0
-129 -95 955 0
-956 143 0
-956 97 0
-143 -97 956 0
-395 -952 0
-395 -953 0
-395 -954 0
-395 -955 0
-395 -956 0
-87 395 952 953 954 955 956 0
-409 101 0
-957 53 0
-957 99 0
-53 -99 957 0
-958 87 0
-958 103 0
-87 -103 958 0
-959 115 0
-959 107 0
-115 -107 959 0
-960 129 0
-960 109 0
-129 -109 960 0
-961 143 0
-961 111 0
-143 -111 961 0
-409 -957 0
-409 -958 0
-409 -959 0
-409 -960 0
-409 -961 0
-101 409 957 958 959 960 961 0
-423 115 0
-962 53 0
-962 113 0
-53 -113 962 0
-963 87 0
-963 117 0
-87 -117 963 0
-964 101 0
-964 119 0
-101 -119 964 0
-965 129 0
-965 123 0
-129 -123 965 0
-966 143 0
-966 125 0
-143 -125 966 0
-423 -962 0
-423 -963 0
-423 -964 0
-423 -965 0
-423 -966 0
-115 423 962 963 964 965 966 0
-437 129 0
-967 53 0
-967 127 0
-53 -127 967 0
-968 87 0
-968 131 0
-87 -131 968 0
-969 101 0
-969 133 0
-101 -133 969 0
-970 115 0
-970 135 0
-115 -135 970 0
-971 143 0
-971 139 0
-143 -139 971 0
-437 -967 0
-437 -968 0
-437 -969 0
-437 -970 0
-437 -971 0
-129 437 967 968 969 970 971 0
-451 143 0
-972 53 0
-972 141 0
-53 -141 972 0
-973 87 0
-973 145 0
-87 -145 973 0
-974 101 0
-974 147 0
-101 -147 974 0
-975 115 0
-975 149 0
-115 -149 975 0
-976 129 0
-976 151 0
-129 -151 976 0
-451 -972 0
-451 -973 0
-451 -974 0
-451 -975 0
-451 -976 0
-143 451 972 973 974 975 976 0
-369 56 0
-977 75 0
-977 53 0
-75 -53 977 0
-978 103 0
-978 59 0
-103 -59 978 0
-979 117 0
-979 62 0
-117 -62 979 0
-980 131 0
-980 65 0
-131 -65 980 0
-981 145 0
-981 68 0
-145 -68 981 0
-369 -977 0
-369 -978 0
-369 -979 0
-369 -980 0
-369 -981 0
-56 369 977 978 979 980 981 0
-383 75 0
-982 56 0
-982 71 0
-56 -71 982 0
-983 103 0
-983 77 0
-103 -77 983 0
-984 117 0
-984 79 0
-117 -79 984 0
-985 131 0
-985 81 0
-131 -81 985 0
-986 145 0
-986 83 0
-145 -83 986 0
-383 -982 0
-383 -983 0
-383 -984 0
-383 -985 0
-383 -986 0
-75 383 982 983 984 985 986 0
-397 0
-411 103 0
-987 56 0
-987 99 0
-56 -99 987 0
-988 75 0
-988 101 0
-75 -101 988 0
-989 117 0
-989 107 0
-117 -107 989 0
-990 131 0
-990 109 0
-131 -109 990 0
-991 145 0
-991 111 0
-145 -111 991 0
-411 -987 0
-411 -988 0
-411 -989 0
-411 -990 0
-411 -991 0
-103 411 987 988 989 990 991 0
-425 117 0
-992 56 0
-992 113 0
-56 -113 992 0
-993 75 0
-993 115 0
-75 -115 993 0
-994 103 0
-994 119 0
-103 -119 994 0
-995 131 0
-995 123 0
-131 -123 995 0
-996 145 0
-996 125 0
-145 -125 996 0
-425 -992 0
-425 -993 0
-425 -994 0
-425 -995 0
-425 -996 0
-117 425 992 993 994 995 996 0
-439 131 0
-997 56 0
-997 127 0
-56 -127 997 0
-998 75 0
-998 129 0
-75 -129 998 0
-999 103 0
-999 133 0
-103 -133 999 0
-1000 117 0
-1000 135 0
-117 -135 1000 0
-1001 145 0
-1001 139 0
-145 -139 1001 0
-439 -997 0
-439 -998 0
-439 -999 0
-439 -1000 0
-439 -1001 0
-131 439 997 998 999 1000 1001 0
-453 145 0
-1002 56 0
-1002 141 0
-56 -141 1002 0
-1003 75 0
-1003 143 0
-75 -143 1003 0
-1004 103 0
-1004 147 0
-103 -147 1004 0
-1005 117 0
-1005 149 0
-117 -149 1005 0
-1006 131 0
-1006 151 0
-131 -151 1006 0
-453 -1002 0
-453 -1003 0
-453 -1004 0
-453 -1005 0
-453 -1006 0
-145 453 1002 1003 1004 1005 1006 0
-371 59 0
-1007 77 0
-1007 53 0
-77 -53 1007 0
-1008 91 0
-1008 56 0
-91 -56 1008 0
-1009 119 0
-1009 62 0
-119 -62 1009 0
-1010 133 0
-1010 65 0
-133 -65 1010 0
-1011 147 0
-1011 68 0
-147 -68 1011 0
-371 -1007 0
-371 -1008 0
-371 -1009 0
-371 -1010 0
-371 -1011 0
-59 371 1007 1008 1009 1010 1011 0
-385 77 0
-1012 59 0
-1012 71 0
-59 -71 1012 0
-1013 91 0
-1013 75 0
-91 -75 1013 0
-1014 119 0
-1014 79 0
-119 -79 1014 0
-1015 133 0
-1015 81 0
-133 -81 1015 0
-1016 147 0
-1016 83 0
-147 -83 1016 0
-385 -1012 0
-385 -1013 0
-385 -1014 0
-385 -1015 0
-385 -1016 0
-77 385 1012 1013 1014 1015 1016 0
-399 91 0
-1017 59 0
-1017 85 0
-59 -85 1017 0
-1018 77 0
-1018 87 0
-77 -87 1018 0
-1019 119 0
-1019 93 0
-119 -93 1019 0
-1020 133 0
-1020 95 0
-133 -95 1020 0
-1021 147 0
-1021 97 0
-147 -97 1021 0
-399 -1017 0
-399 -1018 0
-399 -1019 0
-399 -1020 0
-399 -1021 0
-91 399 1017 1018 1019 1020 1021 0
-413 0
-427 119 0
-1022 59 0
-1022 113 0
-59 -113 1022 0
-1023 77 0
-1023 115 0
-77 -115 1023 0
-1024 91 0
-1024 117 0
-91 -117 1024 0
-1025 133 0
-1025 123 0
-133 -123 1025 0
-1026 147 0
-1026 125 0
-147 -125 1026 0
-427 -1022 0
-427 -1023 0
-427 -1024 0
-427 -1025 0
-427 -1026 0
-119 427 1022 1023 1024 1025 1026 0
-441 133 0
-1027 59 0
-1027 127 0
-59 -127 1027 0
-1028 77 0
-1028 129 0
-77 -129 1028 0
-1029 91 0
-1029 131 0
-91 -131 1029 0
-1030 119 0
-1030 135 0
-119 -135 1030 0
-1031 147 0
-1031 139 0
-147 -139 1031 0
-441 -1027 0
-441 -1028 0
-441 -1029 0
-441 -1030 0
-441 -1031 0
-133 441 1027 1028 1029 1030 1031 0
-455 147 0
-1032 59 0
-1032 141 0
-59 -141 1032 0
-1033 77 0
-1033 143 0
-77 -143 1033 0
-1034 91 0
-1034 145 0
-91 -145 1034 0
-1035 119 0
-1035 149 0
-119 -149 1035 0
-1036 133 0
-1036 151 0
-133 -151 1036 0
-455 -1032 0
-455 -1033 0
-455 -1034 0
-455 -1035 0
-455 -1036 0
-147 455 1032 1033 1034 1035 1036 0
-373 62 0
-1037 79 0
-1037 53 0
-79 -53 1037 0
-1038 93 0
-1038 56 0
-93 -56 1038 0
-1039 107 0
-1039 59 0
-107 -59 1039 0
-1040 135 0
-1040 65 0
-135 -65 1040 0
-1041 149 0
-1041 68 0
-149 -68 1041 0
-373 -1037 0
-373 -1038 0
-373 -1039 0
-373 -1040 0
-373 -1041 0
-62 373 1037 1038 1039 1040 1041 0
-387 79 0
-1042 62 0
-1042 71 0
-62 -71 1042 0
-1043 93 0
-1043 75 0
-93 -75 1043 0
-1044 107 0
-1044 77 0
-107 -77 1044 0
-1045 135 0
-1045 81 0
-135 -81 1045 0
-1046 149 0
-1046 83 0
-149 -83 1046 0
-387 -1042 0
-387 -1043 0
-387 -1044 0
-387 -1045 0
-387 -1046 0
-79 387 1042 1043 1044 1045 1046 0
-401 93 0
-1047 62 0
-1047 85 0
-62 -85 1047 0
-1048 79 0
-1048 87 0
-79 -87 1048 0
-1049 107 0
-1049 91 0
-107 -91 1049 0
-1050 135 0
-1050 95 0
-135 -95 1050 0
-1051 149 0
-1051 97 0
-149 -97 1051 0
-401 -1047 0
-401 -1048 0
-401 -1049 0
-401 -1050 0
-401 -1051 0
-93 401 1047 1048 1049 1050 1051 0
-415 107 0
-1052 62 0
-1052 99 0
-62 -99 1052 0
-1053 79 0
-1053 101 0
-79 -101 1053 0
-1054 93 0
-1054 103 0
-93 -103 1054 0
-1055 135 0
-1055 109 0
-135 -109 1055 0
-1056 149 0
-1056 111 0
-149 -111 1056 0
-415 -1052 0
-415 -1053 0
-415 -1054 0
-415 -1055 0
-415 -1056 0
-107 415 1052 1053 1054 1055 1056 0
-429 0
-443 135 0
-1057 62 0
-1057 127 0
-62 -127 1057 0
-1058 79 0
-1058 129 0
-79 -129 1058 0
-1059 93 0
-1059 131 0
-93 -131 1059 0
-1060 107 0
-1060 133 0
-107 -133 1060 0
-1061 149 0
-1061 139 0
-149 -139 1061 0
-443 -1057 0
-443 -1058 0
-443 -1059 0
-443 -1060 0
-443 -1061 0
-135 443 1057 1058 1059 1060 1061 0
-457 149 0
-1062 62 0
-1062 141 0
-62 -141 1062 0
-1063 79 0
-1063 143 0
-79 -143 1063 0
-1064 93 0
-1064 145 0
-93 -145 1064 0
-1065 107 0
-1065 147 0
-107 -147 1065 0
-1066 135 0
-1066 151 0
-135 -151 1066 0
-457 -1062 0
-457 -1063 0
-457 -1064 0
-457 -1065 0
-457 -1066 0
-149 457 1062 1063 1064 1065 1066 0
-375 65 0
-1067 81 0
-1067 53 0
-81 -53 1067 0
-1068 95 0
-1068 56 0
-95 -56 1068 0
-1069 109 0
-1069 59 0
-109 -59 1069 0
-1070 123 0
-1070 62 0
-123 -62 1070 0
-1071 151 0
-1071 68 0
-151 -68 1071 0
-375 -1067 0
-375 -1068 0
-375 -1069 0
-375 -1070 0
-375 -1071 0
-65 375 1067 1068 1069 1070 1071 0
-389 81 0
-1072 65 0
-1072 71 0
-65 -71 1072 0
-1073 95 0
-1073 75 0
-95 -75 1073 0
-1074 109 0
-1074 77 0
-109 -77 1074 0
-1075 123 0
-1075 79 0
-123 -79 1075 0
-1076 151 0
-1076 83 0
-151 -83 1076 0
-389 -1072 0
-389 -1073 0
-389 -1074 0
-389 -1075 0
-389 -1076 0
-81 389 1072 1073 1074 1075 1076 0
-403 95 0
-1077 65 0
-1077 85 0
-65 -85 1077 0
-1078 81 0
-1078 87 0
-81 -87 1078 0
-1079 109 0
-1079 91 0
-109 -91 1079 0
-1080 123 0
-1080 93 0
-123 -93 1080 0
-1081 151 0
-1081 97 0
-151 -97 1081 0
-403 -1077 0
-403 -1078 0
-403 -1079 0
-403 -1080 0
-403 -1081 0
-95 403 1077 1078 1079 1080 1081 0
-417 109 0
-1082 65 0
-1082 99 0
-65 -99 1082 0
-1083 81 0
-1083 101 0
-81 -101 1083 0
-1084 95 0
-1084 103 0
-95 -103 1084 0
-1085 123 0
-1085 107 0
-123 -107 1085 0
-1086 151 0
-1086 111 0
-151 -111 1086 0
-417 -1082 0
-417 -1083 0
-417 -1084 0
-417 -1085 0
-417 -1086 0
-109 417 1082 1083 1084 1085 1086 0
-431 123 0
-1087 65 0
-1087 113 0
-65 -113 1087 0
-1088 81 0
-1088 115 0
-81 -115 1088 0
-1089 95 0
-1089 117 0
-95 -117 1089 0
-1090 109 0
-1090 119 0
-109 -119 1090 0
-1091 151 0
-1091 125 0
-151 -125 1091 0
-431 -1087 0
-431 -1088 0
-431 -1089 0
-431 -1090 0
-431 -1091 0
-123 431 1087 1088 1089 1090 1091 0
-445 0
-459 151 0
-1092 65 0
-1092 141 0
-65 -141 1092 0
-1093 81 0
-1093 143 0
-81 -143 1093 0
-1094 95 0
-1094 145 0
-95 -145 1094 0
-1095 109 0
-1095 147 0
-109 -147 1095 0
-1096 123 0
-1096 149 0
-123 -149 1096 0
-459 -1092 0
-459 -1093 0
-459 -1094 0
-459 -1095 0
-459 -1096 0
-151 459 1092 1093 1094 1095 1096 0
-377 68 0
-1097 83 0
-1097 53 0
-83 -53 1097 0
-1098 97 0
-1098 56 0
-97 -56 1098 0
-1099 111 0
-1099 59 0
-111 -59 1099 0
-1100 125 0
-1100 62 0
-125 -62 1100 0
-1101 139 0
-1101 65 0
-139 -65 1101 0
-377 -1097 0
-377 -1098 0
-377 -1099 0
-377 -1100 0
-377 -1101 0
-68 377 1097 1098 1099 1100 1101 0
-391 83 0
-1102 68 0
-1102 71 0
-68 -71 1102 0
-1103 97 0
-1103 75 0
-97 -75 1103 0
-1104 111 0
-1104 77 0
-111 -77 1104 0
-1105 125 0
-1105 79 0
-125 -79 1105 0
-1106 139 0
-1106 81 0
-139 -81 1106 0
-391 -1102 0
-391 -1103 0
-391 -1104 0
-391 -1105 0
-391 -1106 0
-83 391 1102 1103 1104 1105 1106 0
-405 97 0
-1107 68 0
-1107 85 0
-68 -85 1107 0
-1108 83 0
-1108 87 0
-83 -87 1108 0
-1109 111 0
-1109 91 0
-111 -91 1109 0
-1110 125 0
-1110 93 0
-125 -93 1110 0
-1111 139 0
-1111 95 0
-139 -95 1111 0
-405 -1107 0
-405 -1108 0
-405 -1109 0
-405 -1110 0
-405 -1111 0
-97 405 1107 1108 1109 1110 1111 0
-419 111 0
-1112 68 0
-1112 99 0
-68 -99 1112 0
-1113 83 0
-1113 101 0
-83 -101 1113 0
-1114 97 0
-1114 103 0
-97 -103 1114 0
-1115 125 0
-1115 107 0
-125 -107 1115 0
-1116 139 0
-1116 109 0
-139 -109 1116 0
-419 -1112 0
-419 -1113 0
-419 -1114 0
-419 -1115 0
-419 -1116 0
-111 419 1112 1113 1114 1115 1116 0
-433 125 0
-1117 68 0
-1117 113 0
-68 -113 1117 0
-1118 83 0
-1118 115 0
-83 -115 1118 0
-1119 97 0
-1119 117 0
-97 -117 1119 0
-1120 111 0
-1120 119 0
-111 -119 1120 0
-1121 139 0
-1121 123 0
-139 -123 1121 0
-433 -1117 0
-433 -1118 0
-433 -1119 0
-433 -1120 0
-433 -1121 0
-125 433 1117 1118 1119 1120 1121 0
-447 139 0
-1122 68 0
-1122 127 0
-68 -127 1122 0
-1123 83 0
-1123 129 0
-83 -129 1123 0
-1124 97 0
-1124 131 0
-97 -131 1124 0
-1125 111 0
-1125 133 0
-111 -133 1125 0
-1126 125 0
-1126 135 0
-125 -135 1126 0
-447 -1122 0
-447 -1123 0
-447 -1124 0
-447 -1125 0
-447 -1126 0
-139 447 1122 1123 1124 1125 1126 0
-461 0
