p cnf 874 3132
c ind 1 2 3 4 5 6 7 8 9 10 11 12 13 14 15 16 17 18 19 20 21 22 23 24 25 26 27 28 29 30 31 32 33 34 35 36 37 38 39 40 41 42 43 44 45 46 47 48 49 50 0
c ind 51 52 53 54 55 56 57 58 59 60 61 62 63 64 65 66 67 68 69 70 71 72 73 74 75 76 77 78 79 80 81 82 83 84 85 86 87 88 89 90 91 92 93 94 95 96 97 98 99 100 0
c ind 101 102 103 104 105 106 107 108 109 110 111 112 113 114 115 116 117 118 119 120 121 122 123 124 125 126 127 128 129 130 131 132 133 134 135 136 137 138 139 140 141 142 143 144 145 146 147 148 149 150 0
c ind 151 152 153 154 155 156 157 158 159 160 161 162 163 164 165 166 167 168 169 170 171 172 173 174 175 176 177 178 179 180 181 182 183 184 185 186 187 188 189 190 191 192 193 194 195 196 197 198 199 200 0
c ind 201 202 203 204 205 206 207 208 209 210 211 212 213 214 215 216 217 218 219 220 221 222 223 224 225 226 227 228 229 230 231 232 233 234 235 236 237 238 239 240 241 242 243 244 245 246 247 248 249 250 0
c ind 251 252 253 254 255 256 257 258 259 260 261 262 263 264 265 266 267 268 269 270 271 272 273 274 275 276 277 278 279 280 281 282 283 284 285 286 287 288 289 290 291 292 293 294 295 296 297 298 299 300 0
c ind 301 302 303 304 305 306 307 308 309 310 311 312 313 314 315 316 317 318 319 320 321 322 323 324 325 326 327 328 329 330 331 332 333 334 335 336 337 338 339 340 341 342 343 344 345 346 347 348 349 350 0
c ind 351 352 353 354 355 356 357 358 359 360 361 362 363 364 365 366 367 368 369 370 371 372 373 374 375 376 377 378 379 380 381 382 383 384 385 386 387 388 389 390 391 392 393 394 395 396 397 398 399 400 0
c ind 401 402 403 404 405 406 407 408 409 410 411 412 413 414 415 416 417 418 419 420 421 422 423 424 425 426 427 428 429 430 431 432 433 434 435 436 437 438 439 440 441 442 443 444 445 446 447 448 449 450 0
c ind 451 452 453 454 455 456 457 458 459 460 461 462 463 464 465 466 467 468 469 470 471 472 473 474 475 476 477 478 479 480 481 482 483 484 485 486 487 488 489 490 491 492 493 494 495 496 497 498 499 500 0
c ind 501 502 503 504 505 506 507 508 509 510 511 512 513 514 515 516 517 518 519 520 521 522 523 524 525 526 527 528 529 530 531 532 533 534 535 536 537 538 539 540 541 542 543 544 545 546 547 548 549 550 0
c ind 551 552 553 554 555 556 557 558 559 560 561 562 563 564 565 566 567 568 569 570 571 572 573 574 575 576 577 578 579 580 581 582 583 584 585 586 587 588 589 590 591 592 593 594 595 596 597 598 599 600 0
c ind 601 602 603 604 605 606 607 608 609 610 611 612 613 614 615 616 617 618 619 620 621 622 623 624 625 626 627 628 629 630 631 632 633 634 635 636 637 638 639 640 641 642 643 644 645 646 647 648 649 650 0
c ind 651 652 653 654 655 656 657 658 665 666 667 668 669 670 671 672 673 674 675 676 677 678 679 680 681 682 683 684 685 686 687 688 689 690 691 692 693 694 695 696 697 698 699 700 701 702 703 704 705 706 0
c ind 707 708 709 710 711 712 713 714 715 716 717 718 719 720 721 722 723 724 725 726 727 728 729 730 731 732 733 734 735 736 737 738 739 740 741 742 743 744 745 746 747 748 749 750 751 752 753 754 755 756 0
c ind 757 758 759 760 761 762 763 764 765 766 767 768 769 770 771 772 773 774 775 776 777 778 779 780 781 782 783 784 785 786 787 788 789 790 791 792 793 794 795 796 797 798 799 800 801 802 803 804 805 806 0
c ind 807 808 809 810 811 812 813 814 815 816 817 818 819 820 821 822 823 824 825 826 827 828 829 830 831 832 833 834 835 836 837 838 839 840 841 842 843 844 845 846 847 848 849 850 851 852 853 854 855 856 0
c ind 857 858 859 860 861 862 863 864 865 866 867 868 869 870 871 872 873 874 0
1 2 3 4 5 6 7 0
8 9 10 11 12 13 14 0
15 16 17 18 19 20 21 0
22 23 24 25 26 27 28 0
29 30 31 32 33 34 35 0
36 37 38 39 40 41 42 0
43 44 45 46 47 48 49 0
50 51 -51 -52 0
53 51 -54 -55 0
56 51 -57 -58 0
59 51 -60 -61 0
62 51 -63 -64 0
65 51 -66 -67 0
68 51 -69 -70 0
71 54 -51 -72 0
73 54 -54 -74 0
75 54 -57 -76 0
77 54 -60 -78 0
79 54 -63 -80 0
81 54 -66 -82 0
83 54 -69 -84 0
85 57 -51 -86 0
87 57 -54 -88 0
89 57 -57 -90 0
91 57 -60 -92 0
93 57 -63 -94 0
95 57 -66 -96 0
97 57 -69 -98 0
99 60 -51 -100 0
101 60 -54 -102 0
103 60 -57 -104 0
105 60 -60 -106 0
107 60 -63 -108 0
109 60 -66 -110 0
111 60 -69 -112 0
113 63 -51 -114 0
115 63 -54 -116 0
117 63 -57 -118 0
119 63 -60 -120 0
121 63 -63 -122 0
123 63 -66 -124 0
125 63 -69 -126 0
127 66 -51 -128 0
129 66 -54 -130 0
131 66 -57 -132 0
133 66 -60 -134 0
135 66 -63 -136 0
137 66 -66 -138 0
139 66 -69 -140 0
141 69 -51 -142 0
143 69 -54 -144 0
145 69 -57 -146 0
147 69 -60 -148 0
149 69 -63 -150 0
151 69 -66 -152 0
153 69 -69 -154 0
52 -50 0
55 -53 0
58 -56 0
61 -59 0
64 -62 0
67 -65 0
70 -68 0
72 -71 0
74 -73 0
76 -75 0
78 -77 0
80 -79 0
82 -81 0
84 -83 0
86 -85 0
88 -87 0
90 -89 0
92 -91 0
94 -93 0
96 -95 0
98 -97 0
100 -99 0
102 -101 0
104 -103 0
106 -105 0
108 -107 0
110 -109 0
112 -111 0
114 -113 0
116 -115 0
118 -117 0
120 -119 0
122 -121 0
124 -123 0
126 -125 0
128 -127 0
130 -129 0
132 -131 0
134 -133 0
136 -135 0
138 -137 0
140 -139 0
142 -141 0
144 -143 0
146 -145 0
148 -147 0
150 -149 0
152 -151 0
154 -153 0
52 -51 0
55 -51 0
58 -51 0
61 -51 0
64 -51 0
67 -51 0
70 -51 0
72 -54 0
74 -54 0
76 -54 0
78 -54 0
80 -54 0
82 -54 0
84 -54 0
86 -57 0
88 -57 0
90 -57 0
92 -57 0
94 -57 0
96 -57 0
98 -57 0
100 -60 0
102 -60 0
104 -60 0
106 -60 0
108 -60 0
110 -60 0
112 -60 0
114 -63 0
116 -63 0
118 -63 0
120 -63 0
122 -63 0
124 -63 0
126 -63 0
128 -66 0
130 -66 0
132 -66 0
134 -66 0
136 -66 0
138 -66 0
140 -66 0
142 -69 0
144 -69 0
146 -69 0
148 -69 0
150 -69 0
152 -69 0
154 -69 0
52 51 0
55 54 0
58 57 0
61 60 0
64 63 0
67 66 0
70 69 0
72 51 0
74 54 0
76 57 0
78 60 0
80 63 0
82 66 0
84 69 0
86 51 0
88 54 0
90 57 0
92 60 0
94 63 0
96 66 0
98 69 0
100 51 0
102 54 0
104 57 0
106 60 0
108 63 0
110 66 0
112 69 0
114 51 0
116 54 0
118 57 0
120 60 0
122 63 0
124 66 0
126 69 0
128 51 0
130 54 0
132 57 0
134 60 0
136 63 0
138 66 0
140 69 0
142 51 0
144 54 0
146 57 0
148 60 0
150 63 0
152 66 0
154 69 0
-155 -51 -51 156 0
-157 -54 -51 158 0
-159 -57 -51 160 0
-161 -60 -51 162 0
-163 -63 -51 164 0
-165 -66 -51 166 0
-167 -69 -51 168 0
-169 -51 -54 170 0
-171 -54 -54 172 0
-173 -57 -54 174 0
-175 -60 -54 176 0
-177 -63 -54 178 0
-179 -66 -54 180 0
-181 -69 -54 182 0
-183 -51 -57 184 0
-185 -54 -57 186 0
-187 -57 -57 188 0
-189 -60 -57 190 0
-191 -63 -57 192 0
-193 -66 -57 194 0
-195 -69 -57 196 0
-197 -51 -60 198 0
-199 -54 -60 200 0
-201 -57 -60 202 0
-203 -60 -60 204 0
-205 -63 -60 206 0
-207 -66 -60 208 0
-209 -69 -60 210 0
-211 -51 -63 212 0
-213 -54 -63 214 0
-215 -57 -63 216 0
-217 -60 -63 218 0
-219 -63 -63 220 0
-221 -66 -63 222 0
-223 -69 -63 224 0
-225 -51 -66 226 0
-227 -54 -66 228 0
-229 -57 -66 230 0
-231 -60 -66 232 0
-233 -63 -66 234 0
-235 -66 -66 236 0
-237 -69 -66 238 0
-239 -51 -69 240 0
-241 -54 -69 242 0
-243 -57 -69 244 0
-245 -60 -69 246 0
-247 -63 -69 248 0
-249 -66 -69 250 0
-251 -69 -69 252 0
-156 155 0
-158 157 0
-160 159 0
-162 161 0
-164 163 0
-166 165 0
-168 167 0
-170 169 0
-172 171 0
-174 173 0
-176 175 0
-178 177 0
-180 179 0
-182 181 0
-184 183 0
-186 185 0
-188 187 0
-190 189 0
-192 191 0
-194 193 0
-196 195 0
-198 197 0
-200 199 0
-202 201 0
-204 203 0
-206 205 0
-208 207 0
-210 209 0
-212 211 0
-214 213 0
-216 215 0
-218 217 0
-220 219 0
-222 221 0
-224 223 0
-226 225 0
-228 227 0
-230 229 0
-232 231 0
-234 233 0
-236 235 0
-238 237 0
-240 239 0
-242 241 0
-244 243 0
-246 245 0
-248 247 0
-250 249 0
-252 251 0
-156 51 0
-158 54 0
-160 57 0
-162 60 0
-164 63 0
-166 66 0
-168 69 0
-170 51 0
-172 54 0
-174 57 0
-176 60 0
-178 63 0
-180 66 0
-182 69 0
-184 51 0
-186 54 0
-188 57 0
-190 60 0
-192 63 0
-194 66 0
-196 69 0
-198 51 0
-200 54 0
-202 57 0
-204 60 0
-206 63 0
-208 66 0
-210 69 0
-212 51 0
-214 54 0
-216 57 0
-218 60 0
-220 63 0
-222 66 0
-224 69 0
-226 51 0
-228 54 0
-230 57 0
-232 60 0
-234 63 0
-236 66 0
-238 69 0
-240 51 0
-242 54 0
-244 57 0
-246 60 0
-248 63 0
-250 66 0
-252 69 0
-156 51 0
-158 51 0
-160 51 0
-162 51 0
-164 51 0
-166 51 0
-168 51 0
-170 54 0
-172 54 0
-174 54 0
-176 54 0
-178 54 0
-180 54 0
-182 54 0
-184 57 0
-186 57 0
-188 57 0
-190 57 0
-192 57 0
-194 57 0
-196 57 0
-198 60 0
-200 60 0
-202 60 0
-204 60 0
-206 60 0
-208 60 0
-210 60 0
-212 63 0
-214 63 0
-216 63 0
-218 63 0
-220 63 0
-222 63 0
-224 63 0
-226 66 0
-228 66 0
-230 66 0
-232 66 0
-234 66 0
-236 66 0
-238 66 0
-240 69 0
-242 69 0
-244 69 0
-246 69 0
-248 69 0
-250 69 0
-252 69 0
-253 156 -254 0
-255 158 -256 0
-257 160 -258 0
-259 162 -260 0
-261 164 -262 0
-263 166 -264 0
-265 168 -266 0
-267 170 -268 0
-269 172 -270 0
-271 174 -272 0
-273 176 -274 0
-275 178 -276 0
-277 180 -278 0
-279 182 -280 0
-281 184 -282 0
-283 186 -284 0
-285 188 -286 0
-287 190 -288 0
-289 192 -290 0
-291 194 -292 0
-293 196 -294 0
-295 198 -296 0
-297 200 -298 0
-299 202 -300 0
-301 204 -302 0
-303 206 -304 0
-305 208 -306 0
-307 210 -308 0
-309 212 -310 0
-311 214 -312 0
-313 216 -314 0
-315 218 -316 0
-317 220 -318 0
-319 222 -320 0
-321 224 -322 0
-323 226 -324 0
-325 228 -326 0
-327 230 -328 0
-329 232 -330 0
-331 234 -332 0
-333 236 -334 0
-335 238 -336 0
-337 240 -338 0
-339 242 -340 0
-341 244 -342 0
-343 246 -344 0
-345 248 -346 0
-347 250 -348 0
-349 252 -350 0
254 253 0
256 255 0
258 257 0
260 259 0
262 261 0
264 263 0
266 265 0
268 267 0
270 269 0
272 271 0
274 273 0
276 275 0
278 277 0
280 279 0
282 281 0
284 283 0
286 285 0
288 287 0
290 289 0
292 291 0
294 293 0
296 295 0
298 297 0
300 299 0
302 301 0
304 303 0
306 305 0
308 307 0
310 309 0
312 311 0
314 313 0
316 315 0
318 317 0
320 319 0
322 321 0
324 323 0
326 325 0
328 327 0
330 329 0
332 331 0
334 333 0
336 335 0
338 337 0
340 339 0
342 341 0
344 343 0
346 345 0
348 347 0
350 349 0
254 -156 0
256 -158 0
258 -160 0
260 -162 0
262 -164 0
264 -166 0
266 -168 0
268 -170 0
270 -172 0
272 -174 0
274 -176 0
276 -178 0
278 -180 0
280 -182 0
282 -184 0
284 -186 0
286 -188 0
288 -190 0
290 -192 0
292 -194 0
294 -196 0
296 -198 0
298 -200 0
300 -202 0
302 -204 0
304 -206 0
306 -208 0
308 -210 0
310 -212 0
312 -214 0
314 -216 0
316 -218 0
318 -220 0
320 -222 0
322 -224 0
324 -226 0
326 -228 0
328 -230 0
330 -232 0
332 -234 0
334 -236 0
336 -238 0
338 -240 0
340 -242 0
342 -244 0
344 -246 0
346 -248 0
348 -250 0
350 -252 0
253 -155 -51 -51 -351 0
255 -157 -54 -51 -352 0
257 -159 -57 -51 -353 0
259 -161 -60 -51 -354 0
261 -163 -63 -51 -355 0
263 -165 -66 -51 -356 0
265 -167 -69 -51 -357 0
267 -169 -51 -54 -358 0
269 -171 -54 -54 -359 0
271 -173 -57 -54 -360 0
273 -175 -60 -54 -361 0
275 -177 -63 -54 -362 0
277 -179 -66 -54 -363 0
279 -181 -69 -54 -364 0
281 -183 -51 -57 -365 0
283 -185 -54 -57 -366 0
285 -187 -57 -57 -367 0
287 -189 -60 -57 -368 0
289 -191 -63 -57 -369 0
291 -193 -66 -57 -370 0
293 -195 -69 -57 -371 0
295 -197 -51 -60 -372 0
297 -199 -54 -60 -373 0
299 -201 -57 -60 -374 0
301 -203 -60 -60 -375 0
303 -205 -63 -60 -376 0
305 -207 -66 -60 -377 0
307 -209 -69 -60 -378 0
309 -211 -51 -63 -379 0
311 -213 -54 -63 -380 0
313 -215 -57 -63 -381 0
315 -217 -60 -63 -382 0
317 -219 -63 -63 -383 0
319 -221 -66 -63 -384 0
321 -223 -69 -63 -385 0
323 -225 -51 -66 -386 0
325 -227 -54 -66 -387 0
327 -229 -57 -66 -388 0
329 -231 -60 -66 -389 0
331 -233 -63 -66 -390 0
333 -235 -66 -66 -391 0
335 -237 -69 -66 -392 0
337 -239 -51 -69 -393 0
339 -241 -54 -69 -394 0
341 -243 -57 -69 -395 0
343 -245 -60 -69 -396 0
345 -247 -63 -69 -397 0
347 -249 -66 -69 -398 0
349 -251 -69 -69 -399 0
351 -253 0
352 -255 0
353 -257 0
354 -259 0
355 -261 0
356 -263 0
357 -265 0
358 -267 0
359 -269 0
360 -271 0
361 -273 0
362 -275 0
363 -277 0
364 -279 0
365 -281 0
366 -283 0
367 -285 0
368 -287 0
369 -289 0
370 -291 0
371 -293 0
372 -295 0
373 -297 0
374 -299 0
375 -301 0
376 -303 0
377 -305 0
378 -307 0
379 -309 0
380 -311 0
381 -313 0
382 -315 0
383 -317 0
384 -319 0
385 -321 0
386 -323 0
387 -325 0
388 -327 0
389 -329 0
390 -331 0
391 -333 0
392 -335 0
393 -337 0
394 -339 0
395 -341 0
396 -343 0
397 -345 0
398 -347 0
399 -349 0
351 155 0
352 157 0
353 159 0
354 161 0
355 163 0
356 165 0
357 167 0
358 169 0
359 171 0
360 173 0
361 175 0
362 177 0
363 179 0
364 181 0
365 183 0
366 185 0
367 187 0
368 189 0
369 191 0
370 193 0
371 195 0
372 197 0
373 199 0
374 201 0
375 203 0
376 205 0
377 207 0
378 209 0
379 211 0
380 213 0
381 215 0
382 217 0
383 219 0
384 221 0
385 223 0
386 225 0
387 227 0
388 229 0
389 231 0
390 233 0
391 235 0
392 237 0
393 239 0
394 241 0
395 243 0
396 245 0
397 247 0
398 249 0
399 251 0
351 51 0
352 54 0
353 57 0
354 60 0
355 63 0
356 66 0
357 69 0
358 51 0
359 54 0
360 57 0
361 60 0
362 63 0
363 66 0
364 69 0
365 51 0
366 54 0
367 57 0
368 60 0
369 63 0
370 66 0
371 69 0
372 51 0
373 54 0
374 57 0
375 60 0
376 63 0
377 66 0
378 69 0
379 51 0
380 54 0
381 57 0
382 60 0
383 63 0
384 66 0
385 69 0
386 51 0
387 54 0
388 57 0
389 60 0
390 63 0
391 66 0
392 69 0
393 51 0
394 54 0
395 57 0
396 60 0
397 63 0
398 66 0
399 69 0
351 51 0
352 51 0
353 51 0
354 51 0
355 51 0
356 51 0
357 51 0
358 54 0
359 54 0
360 54 0
361 54 0
362 54 0
363 54 0
364 54 0
365 57 0
366 57 0
367 57 0
368 57 0
369 57 0
370 57 0
371 57 0
372 60 0
373 60 0
374 60 0
375 60 0
376 60 0
377 60 0
378 60 0
379 63 0
380 63 0
381 63 0
382 63 0
383 63 0
384 63 0
385 63 0
386 66 0
387 66 0
388 66 0
389 66 0
390 66 0
391 66 0
392 66 0
393 69 0
394 69 0
395 69 0
396 69 0
397 69 0
398 69 0
399 69 0
-253 -400 -401 0
-267 -400 -402 0
-281 -400 -403 0
-295 -400 -404 0
-309 -400 -405 0
-323 -400 -406 0
-337 -400 -407 0
-255 -408 -409 0
-269 -408 -410 0
-283 -408 -411 0
-297 -408 -412 0
-311 -408 -413 0
-325 -408 -414 0
-339 -408 -415 0
-257 -416 -417 0
-271 -416 -418 0
-285 -416 -419 0
-299 -416 -420 0
-313 -416 -421 0
-327 -416 -422 0
-341 -416 -423 0
-259 -424 -425 0
-273 -424 -426 0
-287 -424 -427 0
-301 -424 -428 0
-315 -424 -429 0
-329 -424 -430 0
-343 -424 -431 0
-261 -432 -433 0
-275 -432 -434 0
-289 -432 -435 0
-303 -432 -436 0
-317 -432 -437 0
-331 -432 -438 0
-345 -432 -439 0
-263 -440 -441 0
-277 -440 -442 0
-291 -440 -443 0
-305 -440 -444 0
-319 -440 -445 0
-333 -440 -446 0
-347 -440 -447 0
-265 -448 -449 0
-279 -448 -450 0
-293 -448 -451 0
-307 -448 -452 0
-321 -448 -453 0
-335 -448 -454 0
-349 -448 -455 0
401 253 0
402 267 0
403 281 0
404 295 0
405 309 0
406 323 0
407 337 0
409 255 0
410 269 0
411 283 0
412 297 0
413 311 0
414 325 0
415 339 0
417 257 0
418 271 0
419 285 0
420 299 0
421 313 0
422 327 0
423 341 0
425 259 0
426 273 0
427 287 0
428 301 0
429 315 0
430 329 0
431 343 0
433 261 0
434 275 0
435 289 0
436 303 0
437 317 0
438 331 0
439 345 0
441 263 0
442 277 0
443 291 0
444 305 0
445 319 0
446 333 0
447 347 0
449 265 0
450 279 0
451 293 0
452 307 0
453 321 0
454 335 0
455 349 0
401 400 0
402 400 0
403 400 0
404 400 0
405 400 0
406 400 0
407 400 0
409 408 0
410 408 0
411 408 0
412 408 0
413 408 0
414 408 0
415 408 0
417 416 0
418 416 0
419 416 0
420 416 0
421 416 0
422 416 0
423 416 0
425 424 0
426 424 0
427 424 0
428 424 0
429 424 0
430 424 0
431 424 0
433 432 0
434 432 0
435 432 0
436 432 0
437 432 0
438 432 0
439 432 0
441 440 0
442 440 0
443 440 0
444 440 0
445 440 0
446 440 0
447 440 0
449 448 0
450 448 0
451 448 0
452 448 0
453 448 0
454 448 0
455 448 0
-400 -401 456 0
-408 -402 457 0
-416 -403 458 0
-424 -404 459 0
-432 -405 460 0
-440 -406 461 0
-448 -407 462 0
-400 -409 463 0
-408 -410 464 0
-416 -411 465 0
-424 -412 466 0
-432 -413 467 0
-440 -414 468 0
-448 -415 469 0
-400 -417 470 0
-408 -418 471 0
-416 -419 472 0
-424 -420 473 0
-432 -421 474 0
-440 -422 475 0
-448 -423 476 0
-400 -425 477 0
-408 -426 478 0
-416 -427 479 0
-424 -428 480 0
-432 -429 481 0
-440 -430 482 0
-448 -431 483 0
-400 -433 484 0
-408 -434 485 0
-416 -435 486 0
-424 -436 487 0
-432 -437 488 0
-440 -438 489 0
-448 -439 490 0
-400 -441 491 0
-408 -442 492 0
-416 -443 493 0
-424 -444 494 0
-432 -445 495 0
-440 -446 496 0
-448 -447 497 0
-400 -449 498 0
-408 -450 499 0
-416 -451 500 0
-424 -452 501 0
-432 -453 502 0
-440 -454 503 0
-448 -455 504 0
-456 400 0
-457 408 0
-458 416 0
-459 424 0
-460 432 0
-461 440 0
-462 448 0
-463 400 0
-464 408 0
-465 416 0
-466 424 0
-467 432 0
-468 440 0
-469 448 0
-470 400 0
-471 408 0
-472 416 0
-473 424 0
-474 432 0
-475 440 0
-476 448 0
-477 400 0
-478 408 0
-479 416 0
-480 424 0
-481 432 0
-482 440 0
-483 448 0
-484 400 0
-485 408 0
-486 416 0
-487 424 0
-488 432 0
-489 440 0
-490 448 0
-491 400 0
-492 408 0
-493 416 0
-494 424 0
-495 432 0
-496 440 0
-497 448 0
-498 400 0
-499 408 0
-500 416 0
-501 424 0
-502 432 0
-503 440 0
-504 448 0
-456 401 0
-457 402 0
-458 403 0
-459 404 0
-460 405 0
-461 406 0
-462 407 0
-463 409 0
-464 410 0
-465 411 0
-466 412 0
-467 413 0
-468 414 0
-469 415 0
-470 417 0
-471 418 0
-472 419 0
-473 420 0
-474 421 0
-475 422 0
-476 423 0
-477 425 0
-478 426 0
-479 427 0
-480 428 0
-481 429 0
-482 430 0
-483 431 0
-484 433 0
-485 434 0
-486 435 0
-487 436 0
-488 437 0
-489 438 0
-490 439 0
-491 441 0
-492 442 0
-493 443 0
-494 444 0
-495 445 0
-496 446 0
-497 447 0
-498 449 0
-499 450 0
-500 451 0
-501 452 0
-502 453 0
-503 454 0
-504 455 0
-505 456 -506 0
-507 457 -508 0
-509 458 -510 0
-511 459 -512 0
-513 460 -514 0
-515 461 -516 0
-517 462 -518 0
-505 463 -519 0
-507 464 -520 0
-509 465 -521 0
-511 466 -522 0
-513 467 -523 0
-515 468 -524 0
-517 469 -525 0
-505 470 -526 0
-507 471 -527 0
-509 472 -528 0
-511 473 -529 0
-513 474 -530 0
-515 475 -531 0
-517 476 -532 0
-505 477 -533 0
-507 478 -534 0
-509 479 -535 0
-511 480 -536 0
-513 481 -537 0
-515 482 -538 0
-517 483 -539 0
-505 484 -540 0
-507 485 -541 0
-509 486 -542 0
-511 487 -543 0
-513 488 -544 0
-515 489 -545 0
-517 490 -546 0
-505 491 -547 0
-507 492 -548 0
-509 493 -549 0
-511 494 -550 0
-513 495 -551 0
-515 496 -552 0
-517 497 -553 0
-505 498 -554 0
-507 499 -555 0
-509 500 -556 0
-511 501 -557 0
-513 502 -558 0
-515 503 -559 0
-517 504 -560 0
506 505 0
508 507 0
510 509 0
512 511 0
514 513 0
516 515 0
518 517 0
519 505 0
520 507 0
521 509 0
522 511 0
523 513 0
524 515 0
525 517 0
526 505 0
527 507 0
528 509 0
529 511 0
530 513 0
531 515 0
532 517 0
533 505 0
534 507 0
535 509 0
536 511 0
537 513 0
538 515 0
539 517 0
540 505 0
541 507 0
542 509 0
543 511 0
544 513 0
545 515 0
546 517 0
547 505 0
548 507 0
549 509 0
550 511 0
551 513 0
552 515 0
553 517 0
554 505 0
555 507 0
556 509 0
557 511 0
558 513 0
559 515 0
560 517 0
506 -456 0
508 -457 0
510 -458 0
512 -459 0
514 -460 0
516 -461 0
518 -462 0
519 -463 0
520 -464 0
521 -465 0
522 -466 0
523 -467 0
524 -468 0
525 -469 0
526 -470 0
527 -471 0
528 -472 0
529 -473 0
530 -474 0
531 -475 0
532 -476 0
533 -477 0
534 -478 0
535 -479 0
536 -480 0
537 -481 0
538 -482 0
539 -483 0
540 -484 0
541 -485 0
542 -486 0
543 -487 0
544 -488 0
545 -489 0
546 -490 0
547 -491 0
548 -492 0
549 -493 0
550 -494 0
551 -495 0
552 -496 0
553 -497 0
554 -498 0
555 -499 0
556 -500 0
557 -501 0
558 -502 0
559 -503 0
560 -504 0
-52 -254 -351 -506 561 0
-55 -256 -352 -508 562 0
-58 -258 -353 -510 563 0
-61 -260 -354 -512 564 0
-64 -262 -355 -514 565 0
-67 -264 -356 -516 566 0
-70 -266 -357 -518 567 0
-72 -268 -358 -519 568 0
-74 -270 -359 -520 569 0
-76 -272 -360 -521 570 0
-78 -274 -361 -522 571 0
-80 -276 -362 -523 572 0
-82 -278 -363 -524 573 0
-84 -280 -364 -525 574 0
-86 -282 -365 -526 575 0
-88 -284 -366 -527 576 0
-90 -286 -367 -528 577 0
-92 -288 -368 -529 578 0
-94 -290 -369 -530 579 0
-96 -292 -370 -531 580 0
-98 -294 -371 -532 581 0
-100 -296 -372 -533 582 0
-102 -298 -373 -534 583 0
-104 -300 -374 -535 584 0
-106 -302 -375 -536 585 0
-108 -304 -376 -537 586 0
-110 -306 -377 -538 587 0
-112 -308 -378 -539 588 0
-114 -310 -379 -540 589 0
-116 -312 -380 -541 590 0
-118 -314 -381 -542 591 0
-120 -316 -382 -543 592 0
-122 -318 -383 -544 593 0
-124 -320 -384 -545 594 0
-126 -322 -385 -546 595 0
-128 -324 -386 -547 596 0
-130 -326 -387 -548 597 0
-132 -328 -388 -549 598 0
-134 -330 -389 -550 599 0
-136 -332 -390 -551 600 0
-138 -334 -391 -552 601 0
-140 -336 -392 -553 602 0
-142 -338 -393 -554 603 0
-144 -340 -394 -555 604 0
-146 -342 -395 -556 605 0
-148 -344 -396 -557 606 0
-150 -346 -397 -558 607 0
-152 -348 -398 -559 608 0
-154 -350 -399 -560 609 0
-561 52 0
-562 55 0
-563 58 0
-564 61 0
-565 64 0
-566 67 0
-567 70 0
-568 72 0
-569 74 0
-570 76 0
-571 78 0
-572 80 0
-573 82 0
-574 84 0
-575 86 0
-576 88 0
-577 90 0
-578 92 0
-579 94 0
-580 96 0
-581 98 0
-582 100 0
-583 102 0
-584 104 0
-585 106 0
-586 108 0
-587 110 0
-588 112 0
-589 114 0
-590 116 0
-591 118 0
-592 120 0
-593 122 0
-594 124 0
-595 126 0
-596 128 0
-597 130 0
-598 132 0
-599 134 0
-600 136 0
-601 138 0
-602 140 0
-603 142 0
-604 144 0
-605 146 0
-606 148 0
-607 150 0
-608 152 0
-609 154 0
-561 254 0
-562 256 0
-563 258 0
-564 260 0
-565 262 0
-566 264 0
-567 266 0
-568 268 0
-569 270 0
-570 272 0
-571 274 0
-572 276 0
-573 278 0
-574 280 0
-575 282 0
-576 284 0
-577 286 0
-578 288 0
-579 290 0
-580 292 0
-581 294 0
-582 296 0
-583 298 0
-584 300 0
-585 302 0
-586 304 0
-587 306 0
-588 308 0
-589 310 0
-590 312 0
-591 314 0
-592 316 0
-593 318 0
-594 320 0
-595 322 0
-596 324 0
-597 326 0
-598 328 0
-599 330 0
-600 332 0
-601 334 0
-602 336 0
-603 338 0
-604 340 0
-605 342 0
-606 344 0
-607 346 0
-608 348 0
-609 350 0
-561 351 0
-562 352 0
-563 353 0
-564 354 0
-565 355 0
-566 356 0
-567 357 0
-568 358 0
-569 359 0
-570 360 0
-571 361 0
-572 362 0
-573 363 0
-574 364 0
-575 365 0
-576 366 0
-577 367 0
-578 368 0
-579 369 0
-580 370 0
-581 371 0
-582 372 0
-583 373 0
-584 374 0
-585 375 0
-586 376 0
-587 377 0
-588 378 0
-589 379 0
-590 380 0
-591 381 0
-592 382 0
-593 383 0
-594 384 0
-595 385 0
-596 386 0
-597 387 0
-598 388 0
-599 389 0
-600 390 0
-601 391 0
-602 392 0
-603 393 0
-604 394 0
-605 395 0
-606 396 0
-607 397 0
-608 398 0
-609 399 0
-561 506 0
-562 508 0
-563 510 0
-564 512 0
-565 514 0
-566 516 0
-567 518 0
-568 519 0
-569 520 0
-570 521 0
-571 522 0
-572 523 0
-573 524 0
-574 525 0
-575 526 0
-576 527 0
-577 528 0
-578 529 0
-579 530 0
-580 531 0
-581 532 0
-582 533 0
-583 534 0
-584 535 0
-585 536 0
-586 537 0
-587 538 0
-588 539 0
-589 540 0
-590 541 0
-591 542 0
-592 543 0
-593 544 0
-594 545 0
-595 546 0
-596 547 0
-597 548 0
-598 549 0
-599 550 0
-600 551 0
-601 552 0
-602 553 0
-603 554 0
-604 555 0
-605 556 0
-606 557 0
-607 558 0
-608 559 0
-609 560 0
561 0
562 0
563 0
564 0
565 0
566 0
567 0
568 0
569 0
570 0
571 0
572 0
573 0
574 0
575 0
576 0
577 0
578 0
579 0
580 0
581 0
582 0
583 0
584 0
585 0
586 0
587 0
588 0
589 0
590 0
591 0
592 0
593 0
594 0
595 0
596 0
597 0
598 0
599 0
600 0
601 0
602 0
603 0
604 0
605 0
606 0
607 0
608 0
609 0
-253 -400 610 0
-267 -400 611 0
-281 -400 612 0
-295 -400 613 0
-309 -400 614 0
-323 -400 615 0
-337 -400 616 0
-255 -408 617 0
-269 -408 618 0
-283 -408 619 0
-297 -408 620 0
-311 -408 621 0
-325 -408 622 0
-339 -408 623 0
-257 -416 624 0
-271 -416 625 0
-285 -416 626 0
-299 -416 627 0
-313 -416 628 0
-327 -416 629 0
-341 -416 630 0
-259 -424 631 0
-273 -424 632 0
-287 -424 633 0
-301 -424 634 0
-315 -424 635 0
-329 -424 636 0
-343 -424 637 0
-261 -432 638 0
-275 -432 639 0
-289 -432 640 0
-303 -432 641 0
-317 -432 642 0
-331 -432 643 0
-345 -432 644 0
-263 -440 645 0
-277 -440 646 0
-291 -440 647 0
-305 -440 648 0
-319 -440 649 0
-333 -440 650 0
-347 -440 651 0
-265 -448 652 0
-279 -448 653 0
-293 -448 654 0
-307 -448 655 0
-321 -448 656 0
-335 -448 657 0
-349 -448 658 0
-610 253 0
-611 267 0
-612 281 0
-613 295 0
-614 309 0
-615 323 0
-616 337 0
-617 255 0
-618 269 0
-619 283 0
-620 297 0
-621 311 0
-622 325 0
-623 339 0
-624 257 0
-625 271 0
-626 285 0
-627 299 0
-628 313 0
-629 327 0
-630 341 0
-631 259 0
-632 273 0
-633 287 0
-634 301 0
-635 315 0
-636 329 0
-637 343 0
-638 261 0
-639 275 0
-640 289 0
-641 303 0
-642 317 0
-643 331 0
-644 345 0
-645 263 0
-646 277 0
-647 291 0
-648 305 0
-649 319 0
-650 333 0
-651 347 0
-652 265 0
-653 279 0
-654 293 0
-655 307 0
-656 321 0
-657 335 0
-658 349 0
-610 400 0
-611 400 0
-612 400 0
-613 400 0
-614 400 0
-615 400 0
-616 400 0
-617 408 0
-618 408 0
-619 408 0
-620 408 0
-621 408 0
-622 408 0
-623 408 0
-624 416 0
-625 416 0
-626 416 0
-627 416 0
-628 416 0
-629 416 0
-630 416 0
-631 424 0
-632 424 0
-633 424 0
-634 424 0
-635 424 0
-636 424 0
-637 424 0
-638 432 0
-639 432 0
-640 432 0
-641 432 0
-642 432 0
-643 432 0
-644 432 0
-645 440 0
-646 440 0
-647 440 0
-648 440 0
-649 440 0
-650 440 0
-651 440 0
-652 448 0
-653 448 0
-654 448 0
-655 448 0
-656 448 0
-657 448 0
-658 448 0
505 -400 610 -1 0
507 -408 611 -8 0
509 -416 612 -15 0
511 -424 613 -22 0
513 -432 614 -29 0
515 -440 615 -36 0
517 -448 616 -43 0
505 -400 617 -2 0
507 -408 618 -9 0
509 -416 619 -16 0
511 -424 620 -23 0
513 -432 621 -30 0
515 -440 622 -37 0
517 -448 623 -44 0
505 -400 624 -3 0
507 -408 625 -10 0
509 -416 626 -17 0
511 -424 627 -24 0
513 -432 628 -31 0
515 -440 629 -38 0
517 -448 630 -45 0
505 -400 631 -4 0
507 -408 632 -11 0
509 -416 633 -18 0
511 -424 634 -25 0
513 -432 635 -32 0
515 -440 636 -39 0
517 -448 637 -46 0
505 -400 638 -5 0
507 -408 639 -12 0
509 -416 640 -19 0
511 -424 641 -26 0
513 -432 642 -33 0
515 -440 643 -40 0
517 -448 644 -47 0
505 -400 645 -6 0
507 -408 646 -13 0
509 -416 647 -20 0
511 -424 648 -27 0
513 -432 649 -34 0
515 -440 650 -41 0
517 -448 651 -48 0
505 -400 652 -7 0
507 -408 653 -14 0
509 -416 654 -21 0
511 -424 655 -28 0
513 -432 656 -35 0
515 -440 657 -42 0
517 -448 658 -49 0
1 -505 0
8 -507 0
15 -509 0
22 -511 0
29 -513 0
36 -515 0
43 -517 0
2 -505 0
9 -507 0
16 -509 0
23 -511 0
30 -513 0
37 -515 0
44 -517 0
3 -505 0
10 -507 0
17 -509 0
24 -511 0
31 -513 0
38 -515 0
45 -517 0
4 -505 0
11 -507 0
18 -509 0
25 -511 0
32 -513 0
39 -515 0
46 -517 0
5 -505 0
12 -507 0
19 -509 0
26 -511 0
33 -513 0
40 -515 0
47 -517 0
6 -505 0
13 -507 0
20 -509 0
27 -511 0
34 -513 0
41 -515 0
48 -517 0
7 -505 0
14 -507 0
21 -509 0
28 -511 0
35 -513 0
42 -515 0
49 -517 0
1 400 0
8 408 0
15 416 0
22 424 0
29 432 0
36 440 0
43 448 0
2 400 0
9 408 0
16 416 0
23 424 0
30 432 0
37 440 0
44 448 0
3 400 0
10 408 0
17 416 0
24 424 0
31 432 0
38 440 0
45 448 0
4 400 0
11 408 0
18 416 0
25 424 0
32 432 0
39 440 0
46 448 0
5 400 0
12 408 0
19 416 0
26 424 0
33 432 0
40 440 0
47 448 0
6 400 0
13 408 0
20 416 0
27 424 0
34 432 0
41 440 0
48 448 0
7 400 0
14 408 0
21 416 0
28 424 0
35 432 0
42 440 0
49 448 0
1 -610 0
8 -611 0
15 -612 0
22 -613 0
29 -614 0
36 -615 0
43 -616 0
2 -617 0
9 -618 0
16 -619 0
23 -620 0
30 -621 0
37 -622 0
44 -623 0
3 -624 0
10 -625 0
17 -626 0
24 -627 0
31 -628 0
38 -629 0
45 -630 0
4 -631 0
11 -632 0
18 -633 0
25 -634 0
32 -635 0
39 -636 0
46 -637 0
5 -638 0
12 -639 0
19 -640 0
26 -641 0
33 -642 0
40 -643 0
47 -644 0
6 -645 0
13 -646 0
20 -647 0
27 -648 0
34 -649 0
41 -650 0
48 -651 0
7 -652 0
14 -653 0
21 -654 0
28 -655 0
35 -656 0
42 -657 0
49 -658 0
54 0
51 0
66 0
400 0
57 0
69 0
-424 0
-448 0
63 0
416 0
60 0
-440 0
408 0
-432 0
-505 659 0
-659 660 0
-507 -659 0
-507 660 0
-660 661 0
-509 -660 0
-509 661 0
-661 662 0
-511 -661 0
-511 662 0
-662 663 0
-513 -662 0
-513 663 0
-663 664 0
-515 -663 0
-515 664 0
-517 -664 0
50 0
71 53 0
-71 -53 0
-71 -87 85 0
-71 -101 99 0
-71 -115 113 0
-71 -129 127 0
-71 -143 141 0
85 56 0
-85 -56 0
-85 -75 71 0
-85 -103 99 0
-85 -117 113 0
-85 -131 127 0
-85 -145 141 0
99 59 0
-99 -59 0
-99 -77 71 0
-99 -91 85 0
-99 -119 113 0
-99 -133 127 0
-99 -147 141 0
113 62 0
-113 -62 0
-113 -79 71 0
-113 -93 85 0
-113 -107 99 0
-113 -135 127 0
-113 -149 141 0
127 65 0
-127 -65 0
-127 -81 71 0
-127 -95 85 0
-127 -109 99 0
-127 -123 113 0
-127 -151 141 0
141 68 0
-141 -68 0
-141 -83 71 0
-141 -97 85 0
-141 -111 99 0
-141 -125 113 0
-141 -139 127 0
73 0
53 71 0
-53 -71 0
-53 -85 87 0
-53 -99 101 0
-53 -113 115 0
-53 -127 129 0
-53 -141 143 0
87 75 0
-87 -75 0
-87 -56 53 0
-87 -103 101 0
-87 -117 115 0
-87 -131 129 0
-87 -145 143 0
101 77 0
-101 -77 0
-101 -59 53 0
-101 -91 87 0
-101 -119 115 0
-101 -133 129 0
-101 -147 143 0
115 79 0
-115 -79 0
-115 -62 53 0
-115 -93 87 0
-115 -107 101 0
-115 -135 129 0
-115 -149 143 0
129 81 0
-129 -81 0
-129 -65 53 0
-129 -95 87 0
-129 -109 101 0
-129 -123 115 0
-129 -151 143 0
143 83 0
-143 -83 0
-143 -68 53 0
-143 -97 87 0
-143 -111 101 0
-143 -125 115 0
-143 -139 129 0
89 0
56 85 0
-56 -85 0
-56 -71 75 0
-56 -99 103 0
-56 -113 117 0
-56 -127 131 0
-56 -141 145 0
75 87 0
-75 -87 0
-75 -53 56 0
-75 -101 103 0
-75 -115 117 0
-75 -129 131 0
-75 -143 145 0
103 91 0
-103 -91 0
-103 -59 56 0
-103 -77 75 0
-103 -119 117 0
-103 -133 131 0
-103 -147 145 0
117 93 0
-117 -93 0
-117 -62 56 0
-117 -79 75 0
-117 -107 103 0
-117 -135 131 0
-117 -149 145 0
131 95 0
-131 -95 0
-131 -65 56 0
-131 -81 75 0
-131 -109 103 0
-131 -123 117 0
-131 -151 145 0
145 97 0
-145 -97 0
-145 -68 56 0
-145 -83 75 0
-145 -111 103 0
-145 -125 117 0
-145 -139 131 0
105 0
59 99 0
-59 -99 0
-59 -71 77 0
-59 -85 91 0
-59 -113 119 0
-59 -127 133 0
-59 -141 147 0
77 101 0
-77 -101 0
-77 -53 59 0
-77 -87 91 0
-77 -115 119 0
-77 -129 133 0
-77 -143 147 0
91 103 0
-91 -103 0
-91 -56 59 0
-91 -75 77 0
-91 -117 119 0
-91 -131 133 0
-91 -145 147 0
119 107 0
-119 -107 0
-119 -62 59 0
-119 -79 77 0
-119 -93 91 0
-119 -135 133 0
-119 -149 147 0
133 109 0
-133 -109 0
-133 -65 59 0
-133 -81 77 0
-133 -95 91 0
-133 -123 119 0
-133 -151 147 0
147 111 0
-147 -111 0
-147 -68 59 0
-147 -83 77 0
-147 -97 91 0
-147 -125 119 0
-147 -139 133 0
121 0
62 113 0
-62 -113 0
-62 -71 79 0
-62 -85 93 0
-62 -99 107 0
-62 -127 135 0
-62 -141 149 0
79 115 0
-79 -115 0
-79 -53 62 0
-79 -87 93 0
-79 -101 107 0
-79 -129 135 0
-79 -143 149 0
93 117 0
-93 -117 0
-93 -56 62 0
-93 -75 79 0
-93 -103 107 0
-93 -131 135 0
-93 -145 149 0
107 119 0
-107 -119 0
-107 -59 62 0
-107 -77 79 0
-107 -91 93 0
-107 -133 135 0
-107 -147 149 0
135 123 0
-135 -123 0
-135 -65 62 0
-135 -81 79 0
-135 -95 93 0
-135 -109 107 0
-135 -151 149 0
149 125 0
-149 -125 0
-149 -68 62 0
-149 -83 79 0
-149 -97 93 0
-149 -111 107 0
-149 -139 135 0
137 0
65 127 0
-65 -127 0
-65 -71 81 0
-65 -85 95 0
-65 -99 109 0
-65 -113 123 0
-65 -141 151 0
81 129 0
-81 -129 0
-81 -53 65 0
-81 -87 95 0
-81 -101 109 0
-81 -115 123 0
-81 -143 151 0
95 131 0
-95 -131 0
-95 -56 65 0
-95 -75 81 0
-95 -103 109 0
-95 -117 123 0
-95 -145 151 0
109 133 0
-109 -133 0
-109 -59 65 0
-109 -77 81 0
-109 -91 95 0
-109 -119 123 0
-109 -147 151 0
123 135 0
-123 -135 0
-123 -62 65 0
-123 -79 81 0
-123 -93 95 0
-123 -107 109 0
-123 -149 151 0
151 139 0
-151 -139 0
-151 -68 65 0
-151 -83 81 0
-151 -97 95 0
-151 -111 109 0
-151 -125 123 0
153 0
68 141 0
-68 -141 0
-68 -71 83 0
-68 -85 97 0
-68 -99 111 0
-68 -113 125 0
-68 -127 139 0
83 143 0
-83 -143 0
-83 -53 68 0
-83 -87 97 0
-83 -101 111 0
-83 -115 125 0
-83 -129 139 0
97 145 0
-97 -145 0
-97 -56 68 0
-97 -75 83 0
-97 -103 111 0
-97 -117 125 0
-97 -131 139 0
111 147 0
-111 -147 0
-111 -59 68 0
-111 -77 83 0
-111 -91 97 0
-111 -119 125 0
-111 -133 139 0
125 149 0
-125 -149 0
-125 -62 68 0
-125 -79 83 0
-125 -93 97 0
-125 -107 111 0
-125 -135 139 0
139 151 0
-139 -151 0
-139 -65 68 0
-139 -81 83 0
-139 -95 97 0
-139 -109 111 0
-139 -123 125 0
-155 0
-169 71 0
-665 85 0
-665 75 0
-85 -75 665 0
-666 99 0
-666 77 0
-99 -77 666 0
-667 113 0
-667 79 0
-113 -79 667 0
-668 127 0
-668 81 0
-127 -81 668 0
-669 141 0
-669 83 0
-141 -83 669 0
-169 -665 0
-169 -666 0
-169 -667 0
-169 -668 0
-169 -669 0
-71 169 665 666 667 668 669 0
-183 85 0
-670 71 0
-670 87 0
-71 -87 670 0
-671 99 0
-671 91 0
-99 -91 671 0
-672 113 0
-672 93 0
-113 -93 672 0
-673 127 0
-673 95 0
-127 -95 673 0
-674 141 0
-674 97 0
-141 -97 674 0
-183 -670 0
-183 -671 0
-183 -672 0
-183 -673 0
-183 -674 0
-85 183 670 671 672 673 674 0
-197 99 0
-675 71 0
-675 101 0
-71 -101 675 0
-676 85 0
-676 103 0
-85 -103 676 0
-677 113 0
-677 107 0
-113 -107 677 0
-678 127 0
-678 109 0
-127 -109 678 0
-679 141 0
-679 111 0
-141 -111 679 0
-197 -675 0
-197 -676 0
-197 -677 0
-197 -678 0
-197 -679 0
-99 197 675 676 677 678 679 0
-211 113 0
-680 71 0
-680 115 0
-71 -115 680 0
-681 85 0
-681 117 0
-85 -117 681 0
-682 99 0
-682 119 0
-99 -119 682 0
-683 127 0
-683 123 0
-127 -123 683 0
-684 141 0
-684 125 0
-141 -125 684 0
-211 -680 0
-211 -681 0
-211 -682 0
-211 -683 0
-211 -684 0
-113 211 680 681 682 683 684 0
-225 127 0
-685 71 0
-685 129 0
-71 -129 685 0
-686 85 0
-686 131 0
-85 -131 686 0
-687 99 0
-687 133 0
-99 -133 687 0
-688 113 0
-688 135 0
-113 -135 688 0
-689 141 0
-689 139 0
-141 -139 689 0
-225 -685 0
-225 -686 0
-225 -687 0
-225 -688 0
-225 -689 0
-127 225 685 686 687 688 689 0
-239 141 0
-690 71 0
-690 143 0
-71 -143 690 0
-691 85 0
-691 145 0
-85 -145 691 0
-692 99 0
-692 147 0
-99 -147 692 0
-693 113 0
-693 149 0
-113 -149 693 0
-694 127 0
-694 151 0
-127 -151 694 0
-239 -690 0
-239 -691 0
-239 -692 0
-239 -693 0
-239 -694 0
-141 239 690 691 692 693 694 0
-157 53 0
-695 87 0
-695 56 0
-87 -56 695 0
-696 101 0
-696 59 0
-101 -59 696 0
-697 115 0
-697 62 0
-115 -62 697 0
-698 129 0
-698 65 0
-129 -65 698 0
-699 143 0
-699 68 0
-143 -68 699 0
-157 -695 0
-157 -696 0
-157 -697 0
-157 -698 0
-157 -699 0
-53 157 695 696 697 698 699 0
-171 0
-185 87 0
-700 53 0
-700 85 0
-53 -85 700 0
-701 101 0
-701 91 0
-101 -91 701 0
-702 115 0
-702 93 0
-115 -93 702 0
-703 129 0
-703 95 0
-129 -95 703 0
-704 143 0
-704 97 0
-143 -97 704 0
-185 -700 0
-185 -701 0
-185 -702 0
-185 -703 0
-185 -704 0
-87 185 700 701 702 703 704 0
-199 101 0
-705 53 0
-705 99 0
-53 -99 705 0
-706 87 0
-706 103 0
-87 -103 706 0
-707 115 0
-707 107 0
-115 -107 707 0
-708 129 0
-708 109 0
-129 -109 708 0
-709 143 0
-709 111 0
-143 -111 709 0
-199 -705 0
-199 -706 0
-199 -707 0
-199 -708 0
-199 -709 0
-101 199 705 706 707 708 709 0
-213 115 0
-710 53 0
-710 113 0
-53 -113 710 0
-711 87 0
-711 117 0
-87 -117 711 0
-712 101 0
-712 119 0
-101 -119 712 0
-713 129 0
-713 123 0
-129 -123 713 0
-714 143 0
-714 125 0
-143 -125 714 0
-213 -710 0
-213 -711 0
-213 -712 0
-213 -713 0
-213 -714 0
-115 213 710 711 712 713 714 0
-227 129 0
-715 53 0
-715 127 0
-53 -127 715 0
-716 87 0
-716 131 0
-87 -131 716 0
-717 101 0
-717 133 0
-101 -133 717 0
-718 115 0
-718 135 0
-115 -135 718 0
-719 143 0
-719 139 0
-143 -139 719 0
-227 -715 0
-227 -716 0
-227 -717 0
-227 -718 0
-227 -719 0
-129 227 715 716 717 718 719 0
-241 143 0
-720 53 0
-720 141 0
-53 -141 720 0
-721 87 0
-721 145 0
-87 -145 721 0
-722 101 0
-722 147 0
-101 -147 722 0
-723 115 0
-723 149 0
-115 -149 723 0
-724 129 0
-724 151 0
-129 -151 724 0
-241 -720 0
-241 -721 0
-241 -722 0
-241 -723 0
-241 -724 0
-143 241 720 721 722 723 724 0
-159 56 0
-725 75 0
-725 53 0
-75 -53 725 0
-726 103 0
-726 59 0
-103 -59 726 0
-727 117 0
-727 62 0
-117 -62 727 0
-728 131 0
-728 65 0
-131 -65 728 0
-729 145 0
-729 68 0
-145 -68 729 0
-159 -725 0
-159 -726 0
-159 -727 0
-159 -728 0
-159 -729 0
-56 159 725 726 727 728 729 0
-173 75 0
-730 56 0
-730 71 0
-56 -71 730 0
-731 103 0
-731 77 0
-103 -77 731 0
-732 117 0
-732 79 0
-117 -79 732 0
-733 131 0
-733 81 0
-131 -81 733 0
-734 145 0
-734 83 0
-145 -83 734 0
-173 -730 0
-173 -731 0
-173 -732 0
-173 -733 0
-173 -734 0
-75 173 730 731 732 733 734 0
-187 0
-201 103 0
-735 56 0
-735 99 0
-56 -99 735 0
-736 75 0
-736 101 0
-75 -101 736 0
-737 117 0
-737 107 0
-117 -107 737 0
-738 131 0
-738 109 0
-131 -109 738 0
-739 145 0
-739 111 0
-145 -111 739 0
-201 -735 0
-201 -736 0
-201 -737 0
-201 -738 0
-201 -739 0
-103 201 735 736 737 738 739 0
-215 117 0
-740 56 0
-740 113 0
-56 -113 740 0
-741 75 0
-741 115 0
-75 -115 741 0
-742 103 0
-742 119 0
-103 -119 742 0
-743 131 0
-743 123 0
-131 -123 743 0
-744 145 0
-744 125 0
-145 -125 744 0
-215 -740 0
-215 -741 0
-215 -742 0
-215 -743 0
-215 -744 0
-117 215 740 741 742 743 744 0
-229 131 0
-745 56 0
-745 127 0
-56 -127 745 0
-746 75 0
-746 129 0
-75 -129 746 0
-747 103 0
-747 133 0
-103 -133 747 0
-748 117 0
-748 135 0
-117 -135 748 0
-749 145 0
-749 139 0
-145 -139 749 0
-229 -745 0
-229 -746 0
-229 -747 0
-229 -748 0
-229 -749 0
-131 229 745 746 747 748 749 0
-243 145 0
-750 56 0
-750 141 0
-56 -141 750 0
-751 75 0
-751 143 0
-75 -143 751 0
-752 103 0
-752 147 0
-103 -147 752 0
-753 117 0
-753 149 0
-117 -149 753 0
-754 131 0
-754 151 0
-131 -151 754 0
-243 -750 0
-243 -751 0
-243 -752 0
-243 -753 0
-243 -754 0
-145 243 750 751 752 753 754 0
-161 59 0
-755 77 0
-755 53 0
-77 -53 755 0
-756 91 0
-756 56 0
-91 -56 756 0
-757 119 0
-757 62 0
-119 -62 757 0
-758 133 0
-758 65 0
-133 -65 758 0
-759 147 0
-759 68 0
-147 -68 759 0
-161 -755 0
-161 -756 0
-161 -757 0
-161 -758 0
-161 -759 0
-59 161 755 756 757 758 759 0
-175 77 0
-760 59 0
-760 71 0
-59 -71 760 0
-761 91 0
-761 75 0
-91 -75 761 0
-762 119 0
-762 79 0
-119 -79 762 0
-763 133 0
-763 81 0
-133 -81 763 0
-764 147 0
-764 83 0
-147 -83 764 0
-175 -760 0
-175 -761 0
-175 -762 0
-175 -763 0
-175 -764 0
-77 175 760 761 762 763 764 0
-189 91 0
-765 59 0
-765 85 0
-59 -85 765 0
-766 77 0
-766 87 0
-77 -87 766 0
-767 119 0
-767 93 0
-119 -93 767 0
-768 133 0
-768 95 0
-133 -95 768 0
-769 147 0
-769 97 0
-147 -97 769 0
-189 -765 0
-189 -766 0
-189 -767 0
-189 -768 0
-189 -769 0
-91 189 765 766 767 768 769 0
-203 0
-217 119 0
-770 59 0
-770 113 0
-59 -113 770 0
-771 77 0
-771 115 0
-77 -115 771 0
-772 91 0
-772 117 0
-91 -117 772 0
-773 133 0
-773 123 0
-133 -123 773 0
-774 147 0
-774 125 0
-147 -125 774 0
-217 -770 0
-217 -771 0
-217 -772 0
-217 -773 0
-217 -774 0
-119 217 770 771 772 773 774 0
-231 133 0
-775 59 0
-775 127 0
-59 -127 775 0
-776 77 0
-776 129 0
-77 -129 776 0
-777 91 0
-777 131 0
-91 -131 777 0
-778 119 0
-778 135 0
-119 -135 778 0
-779 147 0
-779 139 0
-147 -139 779 0
-231 -775 0
-231 -776 0
-231 -777 0
-231 -778 0
-231 -779 0
-133 231 775 776 777 778 779 0
-245 147 0
-780 59 0
-780 141 0
-59 -141 780 0
-781 77 0
-781 143 0
-77 -143 781 0
-782 91 0
-782 145 0
-91 -145 782 0
-783 119 0
-783 149 0
-119 -149 783 0
-784 133 0
-784 151 0
-133 -151 784 0
-245 -780 0
-245 -781 0
-245 -782 0
-245 -783 0
-245 -784 0
-147 245 780 781 782 783 784 0
-163 62 0
-785 79 0
-785 53 0
-79 -53 785 0
-786 93 0
-786 56 0
-93 -56 786 0
-787 107 0
-787 59 0
-107 -59 787 0
-788 135 0
-788 65 0
-135 -65 788 0
-789 149 0
-789 68 0
-149 -68 789 0
-163 -785 0
-163 -786 0
-163 -787 0
-163 -788 0
-163 -789 0
-62 163 785 786 787 788 789 0
-177 79 0
-790 62 0
-790 71 0
-62 -71 790 0
-791 93 0
-791 75 0
-93 -75 791 0
-792 107 0
-792 77 0
-107 -77 792 0
-793 135 0
-793 81 0
-135 -81 793 0
-794 149 0
-794 83 0
-149 -83 794 0
-177 -790 0
-177 -791 0
-177 -792 0
-177 -793 0
-177 -794 0
-79 177 790 791 792 793 794 0
-191 93 0
-795 62 0
-795 85 0
-62 -85 795 0
-796 79 0
-796 87 0
-79 -87 796 0
-797 107 0
-797 91 0
-107 -91 797 0
-798 135 0
-798 95 0
-135 -95 798 0
-799 149 0
-799 97 0
-149 -97 799 0
-191 -795 0
-191 -796 0
-191 -797 0
-191 -798 0
-191 -799 0
-93 191 795 796 797 798 799 0
-205 107 0
-800 62 0
-800 99 0
-62 -99 800 0
-801 79 0
-801 101 0
-79 -101 801 0
-802 93 0
-802 103 0
-93 -103 802 0
-803 135 0
-803 109 0
-135 -109 803 0
-804 149 0
-804 111 0
-149 -111 804 0
-205 -800 0
-205 -801 0
-205 -802 0
-205 -803 0
-205 -804 0
-107 205 800 801 802 803 804 0
-219 0
-233 135 0
-805 62 0
-805 127 0
-62 -127 805 0
-806 79 0
-806 129 0
-79 -129 806 0
-807 93 0
-807 131 0
-93 -131 807 0
-808 107 0
-808 133 0
-107 -133 808 0
-809 149 0
-809 139 0
-149 -139 809 0
-233 -805 0
-233 -806 0
-233 -807 0
-233 -808 0
-233 -809 0
-135 233 805 806 807 808 809 0
-247 149 0
-810 62 0
-810 141 0
-62 -141 810 0
-811 79 0
-811 143 0
-79 -143 811 0
-812 93 0
-812 145 0
-93 -145 812 0
-813 107 0
-813 147 0
-107 -147 813 0
-814 135 0
-814 151 0
-135 -151 814 0
-247 -810 0
-247 -811 0
-247 -812 0
-247 -813 0
-247 -814 0
-149 247 810 811 812 813 814 0
-165 65 0
-815 81 0
-815 53 0
-81 -53 815 0
-816 95 0
-816 56 0
-95 -56 816 0
-817 109 0
-817 59 0
-109 -59 817 0
-818 123 0
-818 62 0
-123 -62 818 0
-819 151 0
-819 68 0
-151 -68 819 0
-165 -815 0
-165 -816 0
-165 -817 0
-165 -818 0
-165 -819 0
-65 165 815 816 817 818 819 0
-179 81 0
-820 65 0
-820 71 0
-65 -71 820 0
-821 95 0
-821 75 0
-95 -75 821 0
-822 109 0
-822 77 0
-109 -77 822 0
-823 123 0
-823 79 0
-123 -79 823 0
-824 151 0
-824 83 0
-151 -83 824 0
-179 -820 0
-179 -821 0
-179 -822 0
-179 -823 0
-179 -824 0
-81 179 820 821 822 823 824 0
-193 95 0
-825 65 0
-825 85 0
-65 -85 825 0
-826 81 0
-826 87 0
-81 -87 826 0
-827 109 0
-827 91 0
-109 -91 827 0
-828 123 0
-828 93 0
-123 -93 828 0
-829 151 0
-829 97 0
-151 -97 829 0
-193 -825 0
-193 -826 0
-193 -827 0
-193 -828 0
-193 -829 0
-95 193 825 826 827 828 829 0
-207 109 0
-830 65 0
-830 99 0
-65 -99 830 0
-831 81 0
-831 101 0
-81 -101 831 0
-832 95 0
-832 103 0
-95 -103 832 0
-833 123 0
-833 107 0
-123 -107 833 0
-834 151 0
-834 111 0
-151 -111 834 0
-207 -830 0
-207 -831 0
-207 -832 0
-207 -833 0
-207 -834 0
-109 207 830 831 832 833 834 0
-221 123 0
-835 65 0
-835 113 0
-65 -113 835 0
-836 81 0
-836 115 0
-81 -115 836 0
-837 95 0
-837 117 0
-95 -117 837 0
-838 109 0
-838 119 0
-109 -119 838 0
-839 151 0
-839 125 0
-151 -125 839 0
-221 -835 0
-221 -836 0
-221 -837 0
-221 -838 0
-221 -839 0
-123 221 835 836 837 838 839 0
-235 0
-249 151 0
-840 65 0
-840 141 0
-65 -141 840 0
-841 81 0
-841 143 0
-81 -143 841 0
-842 95 0
-842 145 0
-95 -145 842 0
-843 109 0
-843 147 0
-109 -147 843 0
-844 123 0
-844 149 0
-123 -149 844 0
-249 -840 0
-249 -841 0
-249 -842 0
-249 -843 0
-249 -844 0
-151 249 840 841 842 843 844 0
-167 68 0
-845 83 0
-845 53 0
-83 -53 845 0
-846 97 0
-846 56 0
-97 -56 846 0
-847 111 0
-847 59 0
-111 -59 847 0
-848 125 0
-848 62 0
-125 -62 848 0
-849 139 0
-849 65 0
-139 -65 849 0
-167 -845 0
-167 -846 0
-167 -847 0
-167 -848 0
-167 -849 0
-68 167 845 846 847 848 849 0
-181 83 0
-850 68 0
-850 71 0
-68 -71 850 0
-851 97 0
-851 75 0
-97 -75 851 0
-852 111 0
-852 77 0
-111 -77 852 0
-853 125 0
-853 79 0
-125 -79 853 0
-854 139 0
-854 81 0
-139 -81 854 0
-181 -850 0
-181 -851 0
-181 -852 0
-181 -853 0
-181 -854 0
-83 181 850 851 852 853 854 0
-195 97 0
-855 68 0
-855 85 0
-68 -85 855 0
-856 83 0
-856 87 0
-83 -87 856 0
-857 111 0
-857 91 0
-111 -91 857 0
-858 125 0
-858 93 0
-125 -93 858 0
-859 139 0
-859 95 0
-139 -95 859 0
-195 -855 0
-195 -856 0
-195 -857 0
-195 -858 0
-195 -859 0
-97 195 855 856 857 858 859 0
-209 111 0
-860 68 0
-860 99 0
-68 -99 860 0
-861 83 0
-861 101 0
-83 -101 861 0
-862 97 0
-862 103 0
-97 -103 862 0
-863 125 0
-863 107 0
-125 -107 863 0
-864 139 0
-864 109 0
-139 -109 864 0
-209 -860 0
-209 -861 0
-209 -862 0
-209 -863 0
-209 -864 0
-111 209 860 861 862 863 864 0
-223 125 0
-865 68 0
-865 113 0
-68 -113 865 0
-866 83 0
-866 115 0
-83 -115 866 0
-867 97 0
-867 117 0
-97 -117 867 0
-868 111 0
-868 119 0
-111 -119 868 0
-869 139 0
-869 123 0
-139 -123 869 0
-223 -865 0
-223 -866 0
-223 -867 0
-223 -868 0
-223 -869 0
-125 223 865 866 867 868 869 0
-237 139 0
-870 68 0
-870 127 0
-68 -127 870 0
-871 83 0
-871 129 0
-83 -129 871 0
-872 97 0
-872 131 0
-97 -131 872 0
-873 111 0
-873 133 0
-111 -133 873 0
-874 125 0
-874 135 0
-125 -135 874 0
-237 -870 0
-237 -871 0
-237 -872 0
-237 -873 0
-237 -874 0
-139 237 870 871 872 873 874 0
-251 0
