p cnf 435 1515
1 2 -2 -3 0
4 2 -5 -6 0
7 2 -8 -9 0
10 2 -11 -12 0
13 2 -14 -15 0
16 5 -2 -17 0
18 5 -5 -19 0
20 5 -8 -21 0
22 5 -11 -23 0
24 5 -14 -25 0
26 8 -2 -27 0
28 8 -5 -29 0
30 8 -8 -31 0
32 8 -11 -33 0
34 8 -14 -35 0
36 11 -2 -37 0
38 11 -5 -39 0
40 11 -8 -41 0
42 11 -11 -43 0
44 11 -14 -45 0
46 14 -2 -47 0
48 14 -5 -49 0
50 14 -8 -51 0
52 14 -11 -53 0
54 14 -14 -55 0
3 -1 0
6 -4 0
9 -7 0
12 -10 0
15 -13 0
17 -16 0
19 -18 0
21 -20 0
23 -22 0
25 -24 0
27 -26 0
29 -28 0
31 -30 0
33 -32 0
35 -34 0
37 -36 0
39 -38 0
41 -40 0
43 -42 0
45 -44 0
47 -46 0
49 -48 0
51 -50 0
53 -52 0
55 -54 0
3 -2 0
6 -2 0
9 -2 0
12 -2 0
15 -2 0
17 -5 0
19 -5 0
21 -5 0
23 -5 0
25 -5 0
27 -8 0
29 -8 0
31 -8 0
33 -8 0
35 -8 0
37 -11 0
39 -11 0
41 -11 0
43 -11 0
45 -11 0
47 -14 0
49 -14 0
51 -14 0
53 -14 0
55 -14 0
3 2 0
6 5 0
9 8 0
12 11 0
15 14 0
17 2 0
19 5 0
21 8 0
23 11 0
25 14 0
27 2 0
29 5 0
31 8 0
33 11 0
35 14 0
37 2 0
39 5 0
41 8 0
43 11 0
45 14 0
47 2 0
49 5 0
51 8 0
53 11 0
55 14 0
56 56 -57 -58 0
59 60 -61 -62 0
63 64 -65 -66 0
67 68 -69 -70 0
71 72 -73 -74 0
60 59 -75 -76 0
77 77 -78 -79 0
80 81 -82 -83 0
84 85 -86 -87 0
88 89 -90 -91 0
64 63 -92 -93 0
81 80 -94 -95 0
96 96 -97 -98 0
99 100 -101 -102 0
103 104 -105 -106 0
68 67 -107 -108 0
85 84 -109 -110 0
100 99 -111 -112 0
113 113 -114 -115 0
116 117 -118 -119 0
72 71 -120 -121 0
89 88 -122 -123 0
104 103 -124 -125 0
117 116 -126 -127 0
128 128 -129 -130 0
58 -56 0
62 -59 0
66 -63 0
70 -67 0
74 -71 0
76 -60 0
79 -77 0
83 -80 0
87 -84 0
91 -88 0
93 -64 0
95 -81 0
98 -96 0
102 -99 0
106 -103 0
108 -68 0
110 -85 0
112 -100 0
115 -113 0
119 -116 0
121 -72 0
123 -89 0
125 -104 0
127 -117 0
130 -128 0
58 -56 0
62 -60 0
66 -64 0
70 -68 0
74 -72 0
76 -59 0
79 -77 0
83 -81 0
87 -85 0
91 -89 0
93 -63 0
95 -80 0
98 -96 0
102 -100 0
106 -104 0
108 -67 0
110 -84 0
112 -99 0
115 -113 0
119 -117 0
121 -71 0
123 -88 0
125 -103 0
127 -116 0
130 -128 0
58 57 0
62 61 0
66 65 0
70 69 0
74 73 0
76 75 0
79 78 0
83 82 0
87 86 0
91 90 0
93 92 0
95 94 0
98 97 0
102 101 0
106 105 0
108 107 0
110 109 0
112 111 0
115 114 0
119 118 0
121 120 0
123 122 0
125 124 0
127 126 0
130 129 0
57 -131 -132 -133 0
61 -131 -134 -135 0
65 -131 -136 -137 0
69 -131 -138 -139 0
73 -131 -140 -141 0
75 -142 -132 -143 0
78 -142 -134 -144 0
82 -142 -136 -145 0
86 -142 -138 -146 0
90 -142 -140 -147 0
92 -148 -132 -149 0
94 -148 -134 -150 0
97 -148 -136 -151 0
101 -148 -138 -152 0
105 -148 -140 -153 0
107 -154 -132 -155 0
109 -154 -134 -156 0
111 -154 -136 -157 0
114 -154 -138 -158 0
118 -154 -140 -159 0
120 -160 -132 -161 0
122 -160 -134 -162 0
124 -160 -136 -163 0
126 -160 -138 -164 0
129 -160 -140 -165 0
133 -57 0
135 -61 0
137 -65 0
139 -69 0
141 -73 0
143 -75 0
144 -78 0
145 -82 0
146 -86 0
147 -90 0
149 -92 0
150 -94 0
151 -97 0
152 -101 0
153 -105 0
155 -107 0
156 -109 0
157 -111 0
158 -114 0
159 -118 0
161 -120 0
162 -122 0
163 -124 0
164 -126 0
165 -129 0
133 131 0
135 131 0
137 131 0
139 131 0
141 131 0
143 142 0
144 142 0
145 142 0
146 142 0
147 142 0
149 148 0
150 148 0
151 148 0
152 148 0
153 148 0
155 154 0
156 154 0
157 154 0
158 154 0
159 154 0
161 160 0
162 160 0
163 160 0
164 160 0
165 160 0
133 132 0
135 134 0
137 136 0
139 138 0
141 140 0
143 132 0
144 134 0
145 136 0
146 138 0
147 140 0
149 132 0
150 134 0
151 136 0
152 138 0
153 140 0
155 132 0
156 134 0
157 136 0
158 138 0
159 140 0
161 132 0
162 134 0
163 136 0
164 138 0
165 140 0
56 56 166 0
59 60 167 0
63 64 168 0
67 68 169 0
71 72 170 0
60 59 171 0
77 77 172 0
80 81 173 0
84 85 174 0
88 89 175 0
64 63 176 0
81 80 177 0
96 96 178 0
99 100 179 0
103 104 180 0
68 67 181 0
85 84 182 0
100 99 183 0
113 113 184 0
116 117 185 0
72 71 186 0
89 88 187 0
104 103 188 0
117 116 189 0
128 128 190 0
-166 -56 0
-167 -59 0
-168 -63 0
-169 -67 0
-170 -71 0
-171 -60 0
-172 -77 0
-173 -80 0
-174 -84 0
-175 -88 0
-176 -64 0
-177 -81 0
-178 -96 0
-179 -99 0
-180 -103 0
-181 -68 0
-182 -85 0
-183 -100 0
-184 -113 0
-185 -116 0
-186 -72 0
-187 -89 0
-188 -104 0
-189 -117 0
-190 -128 0
-166 -56 0
-167 -60 0
-168 -64 0
-169 -68 0
-170 -72 0
-171 -59 0
-172 -77 0
-173 -81 0
-174 -85 0
-175 -89 0
-176 -63 0
-177 -80 0
-178 -96 0
-179 -100 0
-180 -104 0
-181 -67 0
-182 -84 0
-183 -99 0
-184 -113 0
-185 -117 0
-186 -71 0
-187 -88 0
-188 -103 0
-189 -116 0
-190 -128 0
57 166 -191 0
61 167 -192 0
65 168 -193 0
69 169 -194 0
73 170 -195 0
75 171 -196 0
78 172 -197 0
82 173 -198 0
86 174 -199 0
90 175 -200 0
92 176 -201 0
94 177 -202 0
97 178 -203 0
101 179 -204 0
105 180 -205 0
107 181 -206 0
109 182 -207 0
111 183 -208 0
114 184 -209 0
118 185 -210 0
120 186 -211 0
122 187 -212 0
124 188 -213 0
126 189 -214 0
129 190 -215 0
191 -57 0
192 -61 0
193 -65 0
194 -69 0
195 -73 0
196 -75 0
197 -78 0
198 -82 0
199 -86 0
200 -90 0
201 -92 0
202 -94 0
203 -97 0
204 -101 0
205 -105 0
206 -107 0
207 -109 0
208 -111 0
209 -114 0
210 -118 0
211 -120 0
212 -122 0
213 -124 0
214 -126 0
215 -129 0
191 -166 0
192 -167 0
193 -168 0
194 -169 0
195 -170 0
196 -171 0
197 -172 0
198 -173 0
199 -174 0
200 -175 0
201 -176 0
202 -177 0
203 -178 0
204 -179 0
205 -180 0
206 -181 0
207 -182 0
208 -183 0
209 -184 0
210 -185 0
211 -186 0
212 -187 0
213 -188 0
214 -189 0
215 -190 0
-216 -2 -2 217 0
-218 -5 -2 219 0
-220 -8 -2 221 0
-222 -11 -2 223 0
-224 -14 -2 225 0
-226 -2 -5 227 0
-228 -5 -5 229 0
-230 -8 -5 231 0
-232 -11 -5 233 0
-234 -14 -5 235 0
-236 -2 -8 237 0
-238 -5 -8 239 0
-240 -8 -8 241 0
-242 -11 -8 243 0
-244 -14 -8 245 0
-246 -2 -11 247 0
-248 -5 -11 249 0
-250 -8 -11 251 0
-252 -11 -11 253 0
-254 -14 -11 255 0
-256 -2 -14 257 0
-258 -5 -14 259 0
-260 -8 -14 261 0
-262 -11 -14 263 0
-264 -14 -14 265 0
-217 216 0
-219 218 0
-221 220 0
-223 222 0
-225 224 0
-227 226 0
-229 228 0
-231 230 0
-233 232 0
-235 234 0
-237 236 0
-239 238 0
-241 240 0
-243 242 0
-245 244 0
-247 246 0
-249 248 0
-251 250 0
-253 252 0
-255 254 0
-257 256 0
-259 258 0
-261 260 0
-263 262 0
-265 264 0
-217 2 0
-219 5 0
-221 8 0
-223 11 0
-225 14 0
-227 2 0
-229 5 0
-231 8 0
-233 11 0
-235 14 0
-237 2 0
-239 5 0
-241 8 0
-243 11 0
-245 14 0
-247 2 0
-249 5 0
-251 8 0
-253 11 0
-255 14 0
-257 2 0
-259 5 0
-261 8 0
-263 11 0
-265 14 0
-217 2 0
-219 2 0
-221 2 0
-223 2 0
-225 2 0
-227 5 0
-229 5 0
-231 5 0
-233 5 0
-235 5 0
-237 8 0
-239 8 0
-241 8 0
-243 8 0
-245 8 0
-247 11 0
-249 11 0
-251 11 0
-253 11 0
-255 11 0
-257 14 0
-259 14 0
-261 14 0
-263 14 0
-265 14 0
-56 217 -266 0
-59 219 -267 0
-63 221 -268 0
-67 223 -269 0
-71 225 -270 0
-60 227 -271 0
-77 229 -272 0
-80 231 -273 0
-84 233 -274 0
-88 235 -275 0
-64 237 -276 0
-81 239 -277 0
-96 241 -278 0
-99 243 -279 0
-103 245 -280 0
-68 247 -281 0
-85 249 -282 0
-100 251 -283 0
-113 253 -284 0
-116 255 -285 0
-72 257 -286 0
-89 259 -287 0
-104 261 -288 0
-117 263 -289 0
-128 265 -290 0
266 56 0
267 59 0
268 63 0
269 67 0
270 71 0
271 60 0
272 77 0
273 80 0
274 84 0
275 88 0
276 64 0
277 81 0
278 96 0
279 99 0
280 103 0
281 68 0
282 85 0
283 100 0
284 113 0
285 116 0
286 72 0
287 89 0
288 104 0
289 117 0
290 128 0
266 -217 0
267 -219 0
268 -221 0
269 -223 0
270 -225 0
271 -227 0
272 -229 0
273 -231 0
274 -233 0
275 -235 0
276 -237 0
277 -239 0
278 -241 0
279 -243 0
280 -245 0
281 -247 0
282 -249 0
283 -251 0
284 -253 0
285 -255 0
286 -257 0
287 -259 0
288 -261 0
289 -263 0
290 -265 0
56 -216 -2 -2 -291 0
59 -218 -5 -2 -292 0
63 -220 -8 -2 -293 0
67 -222 -11 -2 -294 0
71 -224 -14 -2 -295 0
60 -226 -2 -5 -296 0
77 -228 -5 -5 -297 0
80 -230 -8 -5 -298 0
84 -232 -11 -5 -299 0
88 -234 -14 -5 -300 0
64 -236 -2 -8 -301 0
81 -238 -5 -8 -302 0
96 -240 -8 -8 -303 0
99 -242 -11 -8 -304 0
103 -244 -14 -8 -305 0
68 -246 -2 -11 -306 0
85 -248 -5 -11 -307 0
100 -250 -8 -11 -308 0
113 -252 -11 -11 -309 0
116 -254 -14 -11 -310 0
72 -256 -2 -14 -311 0
89 -258 -5 -14 -312 0
104 -260 -8 -14 -313 0
117 -262 -11 -14 -314 0
128 -264 -14 -14 -315 0
291 -56 0
292 -59 0
293 -63 0
294 -67 0
295 -71 0
296 -60 0
297 -77 0
298 -80 0
299 -84 0
300 -88 0
301 -64 0
302 -81 0
303 -96 0
304 -99 0
305 -103 0
306 -68 0
307 -85 0
308 -100 0
309 -113 0
310 -116 0
311 -72 0
312 -89 0
313 -104 0
314 -117 0
315 -128 0
291 216 0
292 218 0
293 220 0
294 222 0
295 224 0
296 226 0
297 228 0
298 230 0
299 232 0
300 234 0
301 236 0
302 238 0
303 240 0
304 242 0
305 244 0
306 246 0
307 248 0
308 250 0
309 252 0
310 254 0
311 256 0
312 258 0
313 260 0
314 262 0
315 264 0
291 2 0
292 5 0
293 8 0
294 11 0
295 14 0
296 2 0
297 5 0
298 8 0
299 11 0
300 14 0
301 2 0
302 5 0
303 8 0
304 11 0
305 14 0
306 2 0
307 5 0
308 8 0
309 11 0
310 14 0
311 2 0
312 5 0
313 8 0
314 11 0
315 14 0
291 2 0
292 2 0
293 2 0
294 2 0
295 2 0
296 5 0
297 5 0
298 5 0
299 5 0
300 5 0
301 8 0
302 8 0
303 8 0
304 8 0
305 8 0
306 11 0
307 11 0
308 11 0
309 11 0
310 11 0
311 14 0
312 14 0
313 14 0
314 14 0
315 14 0
-3 -58 -133 -191 -266 -291 316 0
-6 -62 -135 -192 -267 -292 317 0
-9 -66 -137 -193 -268 -293 318 0
-12 -70 -139 -194 -269 -294 319 0
-15 -74 -141 -195 -270 -295 320 0
-17 -76 -143 -196 -271 -296 321 0
-19 -79 -144 -197 -272 -297 322 0
-21 -83 -145 -198 -273 -298 323 0
-23 -87 -146 -199 -274 -299 324 0
-25 -91 -147 -200 -275 -300 325 0
-27 -93 -149 -201 -276 -301 326 0
-29 -95 -150 -202 -277 -302 327 0
-31 -98 -151 -203 -278 -303 328 0
-33 -102 -152 -204 -279 -304 329 0
-35 -106 -153 -205 -280 -305 330 0
-37 -108 -155 -206 -281 -306 331 0
-39 -110 -156 -207 -282 -307 332 0
-41 -112 -157 -208 -283 -308 333 0
-43 -115 -158 -209 -284 -309 334 0
-45 -119 -159 -210 -285 -310 335 0
-47 -121 -161 -211 -286 -311 336 0
-49 -123 -162 -212 -287 -312 337 0
-51 -125 -163 -213 -288 -313 338 0
-53 -127 -164 -214 -289 -314 339 0
-55 -130 -165 -215 -290 -315 340 0
-316 3 0
-317 6 0
-318 9 0
-319 12 0
-320 15 0
-321 17 0
-322 19 0
-323 21 0
-324 23 0
-325 25 0
-326 27 0
-327 29 0
-328 31 0
-329 33 0
-330 35 0
-331 37 0
-332 39 0
-333 41 0
-334 43 0
-335 45 0
-336 47 0
-337 49 0
-338 51 0
-339 53 0
-340 55 0
-316 58 0
-317 62 0
-318 66 0
-319 70 0
-320 74 0
-321 76 0
-322 79 0
-323 83 0
-324 87 0
-325 91 0
-326 93 0
-327 95 0
-328 98 0
-329 102 0
-330 106 0
-331 108 0
-332 110 0
-333 112 0
-334 115 0
-335 119 0
-336 121 0
-337 123 0
-338 125 0
-339 127 0
-340 130 0
-316 133 0
-317 135 0
-318 137 0
-319 139 0
-320 141 0
-321 143 0
-322 144 0
-323 145 0
-324 146 0
-325 147 0
-326 149 0
-327 150 0
-328 151 0
-329 152 0
-330 153 0
-331 155 0
-332 156 0
-333 157 0
-334 158 0
-335 159 0
-336 161 0
-337 162 0
-338 163 0
-339 164 0
-340 165 0
-316 191 0
-317 192 0
-318 193 0
-319 194 0
-320 195 0
-321 196 0
-322 197 0
-323 198 0
-324 199 0
-325 200 0
-326 201 0
-327 202 0
-328 203 0
-329 204 0
-330 205 0
-331 206 0
-332 207 0
-333 208 0
-334 209 0
-335 210 0
-336 211 0
-337 212 0
-338 213 0
-339 214 0
-340 215 0
-316 266 0
-317 267 0
-318 268 0
-319 269 0
-320 270 0
-321 271 0
-322 272 0
-323 273 0
-324 274 0
-325 275 0
-326 276 0
-327 277 0
-328 278 0
-329 279 0
-330 280 0
-331 281 0
-332 282 0
-333 283 0
-334 284 0
-335 285 0
-336 286 0
-337 287 0
-338 288 0
-339 289 0
-340 290 0
-316 291 0
-317 292 0
-318 293 0
-319 294 0
-320 295 0
-321 296 0
-322 297 0
-323 298 0
-324 299 0
-325 300 0
-326 301 0
-327 302 0
-328 303 0
-329 304 0
-330 305 0
-331 306 0
-332 307 0
-333 308 0
-334 309 0
-335 310 0
-336 311 0
-337 312 0
-338 313 0
-339 314 0
-340 315 0
316 0
317 0
318 0
319 0
320 0
321 0
322 0
323 0
324 0
325 0
326 0
327 0
328 0
329 0
330 0
331 0
332 0
333 0
334 0
335 0
336 0
337 0
338 0
339 0
340 0
-132 0
-140 0
-148 0
5 0
-154 0
8 0
-160 0
-136 0
-142 0
14 0
2 0
-138 0
11 0
131 0
134 0
1 0
16 4 0
-16 -4 0
-16 -28 26 0
-16 -38 36 0
-16 -48 46 0
26 7 0
-26 -7 0
-26 -20 16 0
-26 -40 36 0
-26 -50 46 0
36 10 0
-36 -10 0
-36 -22 16 0
-36 -32 26 0
-36 -52 46 0
46 13 0
-46 -13 0
-46 -24 16 0
-46 -34 26 0
-46 -44 36 0
18 0
4 16 0
-4 -16 0
-4 -26 28 0
-4 -36 38 0
-4 -46 48 0
28 20 0
-28 -20 0
-28 -7 4 0
-28 -40 38 0
-28 -50 48 0
38 22 0
-38 -22 0
-38 -10 4 0
-38 -32 28 0
-38 -52 48 0
48 24 0
-48 -24 0
-48 -13 4 0
-48 -34 28 0
-48 -44 38 0
30 0
7 26 0
-7 -26 0
-7 -16 20 0
-7 -36 40 0
-7 -46 50 0
20 28 0
-20 -28 0
-20 -4 7 0
-20 -38 40 0
-20 -48 50 0
40 32 0
-40 -32 0
-40 -10 7 0
-40 -22 20 0
-40 -52 50 0
50 34 0
-50 -34 0
-50 -13 7 0
-50 -24 20 0
-50 -44 40 0
42 0
10 36 0
-10 -36 0
-10 -16 22 0
-10 -26 32 0
-10 -46 52 0
22 38 0
-22 -38 0
-22 -4 10 0
-22 -28 32 0
-22 -48 52 0
32 40 0
-32 -40 0
-32 -7 10 0
-32 -20 22 0
-32 -50 52 0
52 44 0
-52 -44 0
-52 -13 10 0
-52 -24 22 0
-52 -34 32 0
54 0
13 46 0
-13 -46 0
-13 -16 24 0
-13 -26 34 0
-13 -36 44 0
24 48 0
-24 -48 0
-24 -4 13 0
-24 -28 34 0
-24 -38 44 0
34 50 0
-34 -50 0
-34 -7 13 0
-34 -20 24 0
-34 -40 44 0
44 52 0
-44 -52 0
-44 -10 13 0
-44 -22 24 0
-44 -32 34 0
-341 0
-342 16 0
-343 26 0
-343 20 0
-26 -20 343 0
-344 36 0
-344 22 0
-36 -22 344 0
-345 46 0
-345 24 0
-46 -24 345 0
-342 -343 0
-342 -344 0
-342 -345 0
-16 342 343 344 345 0
-346 26 0
-347 16 0
-347 28 0
-16 -28 347 0
-348 36 0
-348 32 0
-36 -32 348 0
-349 46 0
-349 34 0
-46 -34 349 0
-346 -347 0
-346 -348 0
-346 -349 0
-26 346 347 348 349 0
-350 36 0
-351 16 0
-351 38 0
-16 -38 351 0
-352 26 0
-352 40 0
-26 -40 352 0
-353 46 0
-353 44 0
-46 -44 353 0
-350 -351 0
-350 -352 0
-350 -353 0
-36 350 351 352 353 0
-354 46 0
-355 16 0
-355 48 0
-16 -48 355 0
-356 26 0
-356 50 0
-26 -50 356 0
-357 36 0
-357 52 0
-36 -52 357 0
-354 -355 0
-354 -356 0
-354 -357 0
-46 354 355 356 357 0
-358 4 0
-359 28 0
-359 7 0
-28 -7 359 0
-360 38 0
-360 10 0
-38 -10 360 0
-361 48 0
-361 13 0
-48 -13 361 0
-358 -359 0
-358 -360 0
-358 -361 0
-4 358 359 360 361 0
-362 0
-363 28 0
-364 4 0
-364 26 0
-4 -26 364 0
-365 38 0
-365 32 0
-38 -32 365 0
-366 48 0
-366 34 0
-48 -34 366 0
-363 -364 0
-363 -365 0
-363 -366 0
-28 363 364 365 366 0
-367 38 0
-368 4 0
-368 36 0
-4 -36 368 0
-369 28 0
-369 40 0
-28 -40 369 0
-370 48 0
-370 44 0
-48 -44 370 0
-367 -368 0
-367 -369 0
-367 -370 0
-38 367 368 369 370 0
-371 48 0
-372 4 0
-372 46 0
-4 -46 372 0
-373 28 0
-373 50 0
-28 -50 373 0
-374 38 0
-374 52 0
-38 -52 374 0
-371 -372 0
-371 -373 0
-371 -374 0
-48 371 372 373 374 0
-375 7 0
-376 20 0
-376 4 0
-20 -4 376 0
-377 40 0
-377 10 0
-40 -10 377 0
-378 50 0
-378 13 0
-50 -13 378 0
-375 -376 0
-375 -377 0
-375 -378 0
-7 375 376 377 378 0
-379 20 0
-380 7 0
-380 16 0
-7 -16 380 0
-381 40 0
-381 22 0
-40 -22 381 0
-382 50 0
-382 24 0
-50 -24 382 0
-379 -380 0
-379 -381 0
-379 -382 0
-20 379 380 381 382 0
-383 0
-384 40 0
-385 7 0
-385 36 0
-7 -36 385 0
-386 20 0
-386 38 0
-20 -38 386 0
-387 50 0
-387 44 0
-50 -44 387 0
-384 -385 0
-384 -386 0
-384 -387 0
-40 384 385 386 387 0
-388 50 0
-389 7 0
-389 46 0
-7 -46 389 0
-390 20 0
-390 48 0
-20 -48 390 0
-391 40 0
-391 52 0
-40 -52 391 0
-388 -389 0
-388 -390 0
-388 -391 0
-50 388 389 390 391 0
-392 10 0
-393 22 0
-393 4 0
-22 -4 393 0
-394 32 0
-394 7 0
-32 -7 394 0
-395 52 0
-395 13 0
-52 -13 395 0
-392 -393 0
-392 -394 0
-392 -395 0
-10 392 393 394 395 0
-396 22 0
-397 10 0
-397 16 0
-10 -16 397 0
-398 32 0
-398 20 0
-32 -20 398 0
-399 52 0
-399 24 0
-52 -24 399 0
-396 -397 0
-396 -398 0
-396 -399 0
-22 396 397 398 399 0
-400 32 0
-401 10 0
-401 26 0
-10 -26 401 0
-402 22 0
-402 28 0
-22 -28 402 0
-403 52 0
-403 34 0
-52 -34 403 0
-400 -401 0
-400 -402 0
-400 -403 0
-32 400 401 402 403 0
-404 0
-405 52 0
-406 10 0
-406 46 0
-10 -46 406 0
-407 22 0
-407 48 0
-22 -48 407 0
-408 32 0
-408 50 0
-32 -50 408 0
-405 -406 0
-405 -407 0
-405 -408 0
-52 405 406 407 408 0
-409 13 0
-410 24 0
-410 4 0
-24 -4 410 0
-411 34 0
-411 7 0
-34 -7 411 0
-412 44 0
-412 10 0
-44 -10 412 0
-409 -410 0
-409 -411 0
-409 -412 0
-13 409 410 411 412 0
-413 24 0
-414 13 0
-414 16 0
-13 -16 414 0
-415 34 0
-415 20 0
-34 -20 415 0
-416 44 0
-416 22 0
-44 -22 416 0
-413 -414 0
-413 -415 0
-413 -416 0
-24 413 414 415 416 0
-417 34 0
-418 13 0
-418 26 0
-13 -26 418 0
-419 24 0
-419 28 0
-24 -28 419 0
-420 44 0
-420 32 0
-44 -32 420 0
-417 -418 0
-417 -419 0
-417 -420 0
-34 417 418 419 420 0
-421 44 0
-422 13 0
-422 36 0
-13 -36 422 0
-423 24 0
-423 38 0
-24 -38 423 0
-424 34 0
-424 40 0
-34 -40 424 0
-421 -422 0
-421 -423 0
-421 -424 0
-44 421 422 423 424 0
-425 0
-426 1 0
-426 16 0
-426 26 0
-426 36 0
-426 46 0
-1 -16 -26 -36 -46 426 0
-427 1 0
-427 4 0
-427 7 0
-427 10 0
-427 13 0
-1 -4 -7 -10 -13 427 0
-428 4 0
-428 18 0
-428 28 0
-428 38 0
-428 48 0
-4 -18 -28 -38 -48 428 0
-429 16 0
-429 18 0
-429 20 0
-429 22 0
-429 24 0
-16 -18 -20 -22 -24 429 0
-430 7 0
-430 20 0
-430 30 0
-430 40 0
-430 50 0
-7 -20 -30 -40 -50 430 0
-431 26 0
-431 28 0
-431 30 0
-431 32 0
-431 34 0
-26 -28 -30 -32 -34 431 0
-432 10 0
-432 22 0
-432 32 0
-432 42 0
-432 52 0
-10 -22 -32 -42 -52 432 0
-433 36 0
-433 38 0
-433 40 0
-433 42 0
-433 44 0
-36 -38 -40 -42 -44 433 0
-434 13 0
-434 24 0
-434 34 0
-434 44 0
-434 54 0
-13 -24 -34 -44 -54 434 0
-435 46 0
-435 48 0
-435 50 0
-435 52 0
-435 54 0
-46 -48 -50 -52 -54 435 0
-341 216 0
-427 -426 216 0
-216 341 427 0
-216 341 426 0
-342 226 0
-427 -428 226 0
-226 342 427 0
-226 342 428 0
-346 236 0
-427 -430 236 0
-236 346 427 0
-236 346 430 0
-350 246 0
-427 -432 246 0
-246 350 427 0
-246 350 432 0
-354 256 0
-427 -434 256 0
-256 354 427 0
-256 354 434 0
-358 218 0
-429 -426 218 0
-218 358 429 0
-218 358 426 0
-362 228 0
-429 -428 228 0
-228 362 429 0
-228 362 428 0
-363 238 0
-429 -430 238 0
-238 363 429 0
-238 363 430 0
-367 248 0
-429 -432 248 0
-248 367 429 0
-248 367 432 0
-371 258 0
-429 -434 258 0
-258 371 429 0
-258 371 434 0
-375 220 0
-431 -426 220 0
-220 375 431 0
-220 375 426 0
-379 230 0
-431 -428 230 0
-230 379 431 0
-230 379 428 0
-383 240 0
-431 -430 240 0
-240 383 431 0
-240 383 430 0
-384 250 0
-431 -432 250 0
-250 384 431 0
-250 384 432 0
-388 260 0
-431 -434 260 0
-260 388 431 0
-260 388 434 0
-392 222 0
-433 -426 222 0
-222 392 433 0
-222 392 426 0
-396 232 0
-433 -428 232 0
-232 396 433 0
-232 396 428 0
-400 242 0
-433 -430 242 0
-242 400 433 0
-242 400 430 0
-404 252 0
-433 -432 252 0
-252 404 433 0
-252 404 432 0
-405 262 0
-433 -434 262 0
-262 405 433 0
-262 405 434 0
-409 224 0
-435 -426 224 0
-224 409 435 0
-224 409 426 0
-413 234 0
-435 -428 234 0
-234 413 435 0
-234 413 428 0
-417 244 0
-435 -430 244 0
-244 417 435 0
-244 417 430 0
-421 254 0
-435 -432 254 0
-254 421 435 0
-254 421 432 0
-425 264 0
-435 -434 264 0
-264 425 435 0
-264 425 434 0
