p cnf 244 796
1 2 -2 -3 0
4 2 -5 -6 0
7 2 -8 -9 0
10 2 -11 -12 0
13 5 -2 -14 0
15 5 -5 -16 0
17 5 -8 -18 0
19 5 -11 -20 0
21 8 -2 -22 0
23 8 -5 -24 0
25 8 -8 -26 0
27 8 -11 -28 0
29 11 -2 -30 0
31 11 -5 -32 0
33 11 -8 -34 0
35 11 -11 -36 0
3 -1 0
6 -4 0
9 -7 0
12 -10 0
14 -13 0
16 -15 0
18 -17 0
20 -19 0
22 -21 0
24 -23 0
26 -25 0
28 -27 0
30 -29 0
32 -31 0
34 -33 0
36 -35 0
3 -2 0
6 -2 0
9 -2 0
12 -2 0
14 -5 0
16 -5 0
18 -5 0
20 -5 0
22 -8 0
24 -8 0
26 -8 0
28 -8 0
30 -11 0
32 -11 0
34 -11 0
36 -11 0
3 2 0
6 5 0
9 8 0
12 11 0
14 2 0
16 5 0
18 8 0
20 11 0
22 2 0
24 5 0
26 8 0
28 11 0
30 2 0
32 5 0
34 8 0
36 11 0
37 37 -38 -39 0
40 41 -42 -43 0
44 45 -46 -47 0
48 49 -50 -51 0
41 40 -52 -53 0
54 54 -55 -56 0
57 58 -59 -60 0
61 62 -63 -64 0
45 44 -65 -66 0
58 57 -67 -68 0
69 69 -70 -71 0
72 73 -74 -75 0
49 48 -76 -77 0
62 61 -78 -79 0
73 72 -80 -81 0
82 82 -83 -84 0
39 -37 0
43 -40 0
47 -44 0
51 -48 0
53 -41 0
56 -54 0
60 -57 0
64 -61 0
66 -45 0
68 -58 0
71 -69 0
75 -72 0
77 -49 0
79 -62 0
81 -73 0
84 -82 0
39 -37 0
43 -41 0
47 -45 0
51 -49 0
53 -40 0
56 -54 0
60 -58 0
64 -62 0
66 -44 0
68 -57 0
71 -69 0
75 -73 0
77 -48 0
79 -61 0
81 -72 0
84 -82 0
39 38 0
43 42 0
47 46 0
51 50 0
53 52 0
56 55 0
60 59 0
64 63 0
66 65 0
68 67 0
71 70 0
75 74 0
77 76 0
79 78 0
81 80 0
84 83 0
37 37 85 0
40 41 86 0
44 45 87 0
48 49 88 0
41 40 89 0
54 54 90 0
57 58 91 0
61 62 92 0
45 44 93 0
58 57 94 0
69 69 95 0
72 73 96 0
49 48 97 0
62 61 98 0
73 72 99 0
82 82 100 0
-85 -37 0
-86 -40 0
-87 -44 0
-88 -48 0
-89 -41 0
-90 -54 0
-91 -57 0
-92 -61 0
-93 -45 0
-94 -58 0
-95 -69 0
-96 -72 0
-97 -49 0
-98 -62 0
-99 -73 0
-100 -82 0
-85 -37 0
-86 -41 0
-87 -45 0
-88 -49 0
-89 -40 0
-90 -54 0
-91 -58 0
-92 -62 0
-93 -44 0
-94 -57 0
-95 -69 0
-96 -73 0
-97 -48 0
-98 -61 0
-99 -72 0
-100 -82 0
38 85 -101 0
42 86 -102 0
46 87 -103 0
50 88 -104 0
52 89 -105 0
55 90 -106 0
59 91 -107 0
63 92 -108 0
65 93 -109 0
67 94 -110 0
70 95 -111 0
74 96 -112 0
76 97 -113 0
78 98 -114 0
80 99 -115 0
83 100 -116 0
101 -38 0
102 -42 0
103 -46 0
104 -50 0
105 -52 0
106 -55 0
107 -59 0
108 -63 0
109 -65 0
110 -67 0
111 -70 0
112 -74 0
113 -76 0
114 -78 0
115 -80 0
116 -83 0
101 -85 0
102 -86 0
103 -87 0
104 -88 0
105 -89 0
106 -90 0
107 -91 0
108 -92 0
109 -93 0
110 -94 0
111 -95 0
112 -96 0
113 -97 0
114 -98 0
115 -99 0
116 -100 0
-117 -2 -2 118 0
-119 -5 -2 120 0
-121 -8 -2 122 0
-123 -11 -2 124 0
-125 -2 -5 126 0
-127 -5 -5 128 0
-129 -8 -5 130 0
-131 -11 -5 132 0
-133 -2 -8 134 0
-135 -5 -8 136 0
-137 -8 -8 138 0
-139 -11 -8 140 0
-141 -2 -11 142 0
-143 -5 -11 144 0
-145 -8 -11 146 0
-147 -11 -11 148 0
-118 117 0
-120 119 0
-122 121 0
-124 123 0
-126 125 0
-128 127 0
-130 129 0
-132 131 0
-134 133 0
-136 135 0
-138 137 0
-140 139 0
-142 141 0
-144 143 0
-146 145 0
-148 147 0
-118 2 0
-120 5 0
-122 8 0
-124 11 0
-126 2 0
-128 5 0
-130 8 0
-132 11 0
-134 2 0
-136 5 0
-138 8 0
-140 11 0
-142 2 0
-144 5 0
-146 8 0
-148 11 0
-118 2 0
-120 2 0
-122 2 0
-124 2 0
-126 5 0
-128 5 0
-130 5 0
-132 5 0
-134 8 0
-136 8 0
-138 8 0
-140 8 0
-142 11 0
-144 11 0
-146 11 0
-148 11 0
-37 118 -149 0
-40 120 -150 0
-44 122 -151 0
-48 124 -152 0
-41 126 -153 0
-54 128 -154 0
-57 130 -155 0
-61 132 -156 0
-45 134 -157 0
-58 136 -158 0
-69 138 -159 0
-72 140 -160 0
-49 142 -161 0
-62 144 -162 0
-73 146 -163 0
-82 148 -164 0
149 37 0
150 40 0
151 44 0
152 48 0
153 41 0
154 54 0
155 57 0
156 61 0
157 45 0
158 58 0
159 69 0
160 72 0
161 49 0
162 62 0
163 73 0
164 82 0
149 -118 0
150 -120 0
151 -122 0
152 -124 0
153 -126 0
154 -128 0
155 -130 0
156 -132 0
157 -134 0
158 -136 0
159 -138 0
160 -140 0
161 -142 0
162 -144 0
163 -146 0
164 -148 0
-165 -166 -38 -167 0
-168 -166 -42 -169 0
-170 -166 -46 -171 0
-172 -166 -50 -173 0
-165 -174 -52 -175 0
-168 -174 -55 -176 0
-170 -174 -59 -177 0
-172 -174 -63 -178 0
-165 -179 -65 -180 0
-168 -179 -67 -181 0
-170 -179 -70 -182 0
-172 -179 -74 -183 0
-165 -184 -76 -185 0
-168 -184 -78 -186 0
-170 -184 -80 -187 0
-172 -184 -83 -188 0
167 165 0
169 168 0
171 170 0
173 172 0
175 165 0
176 168 0
177 170 0
178 172 0
180 165 0
181 168 0
182 170 0
183 172 0
185 165 0
186 168 0
187 170 0
188 172 0
167 166 0
169 166 0
171 166 0
173 166 0
175 174 0
176 174 0
177 174 0
178 174 0
180 179 0
181 179 0
182 179 0
183 179 0
185 184 0
186 184 0
187 184 0
188 184 0
167 38 0
169 42 0
171 46 0
173 50 0
175 52 0
176 55 0
177 59 0
178 63 0
180 65 0
181 67 0
182 70 0
183 74 0
185 76 0
186 78 0
187 80 0
188 83 0
37 -117 -2 -2 -189 0
40 -119 -5 -2 -190 0
44 -121 -8 -2 -191 0
48 -123 -11 -2 -192 0
41 -125 -2 -5 -193 0
54 -127 -5 -5 -194 0
57 -129 -8 -5 -195 0
61 -131 -11 -5 -196 0
45 -133 -2 -8 -197 0
58 -135 -5 -8 -198 0
69 -137 -8 -8 -199 0
72 -139 -11 -8 -200 0
49 -141 -2 -11 -201 0
62 -143 -5 -11 -202 0
73 -145 -8 -11 -203 0
82 -147 -11 -11 -204 0
189 -37 0
190 -40 0
191 -44 0
192 -48 0
193 -41 0
194 -54 0
195 -57 0
196 -61 0
197 -45 0
198 -58 0
199 -69 0
200 -72 0
201 -49 0
202 -62 0
203 -73 0
204 -82 0
189 117 0
190 119 0
191 121 0
192 123 0
193 125 0
194 127 0
195 129 0
196 131 0
197 133 0
198 135 0
199 137 0
200 139 0
201 141 0
202 143 0
203 145 0
204 147 0
189 2 0
190 5 0
191 8 0
192 11 0
193 2 0
194 5 0
195 8 0
196 11 0
197 2 0
198 5 0
199 8 0
200 11 0
201 2 0
202 5 0
203 8 0
204 11 0
189 2 0
190 2 0
191 2 0
192 2 0
193 5 0
194 5 0
195 5 0
196 5 0
197 8 0
198 8 0
199 8 0
200 8 0
201 11 0
202 11 0
203 11 0
204 11 0
-3 -39 -101 -149 -167 -189 205 0
-6 -43 -102 -150 -169 -190 206 0
-9 -47 -103 -151 -171 -191 207 0
-12 -51 -104 -152 -173 -192 208 0
-14 -53 -105 -153 -175 -193 209 0
-16 -56 -106 -154 -176 -194 210 0
-18 -60 -107 -155 -177 -195 211 0
-20 -64 -108 -156 -178 -196 212 0
-22 -66 -109 -157 -180 -197 213 0
-24 -68 -110 -158 -181 -198 214 0
-26 -71 -111 -159 -182 -199 215 0
-28 -75 -112 -160 -183 -200 216 0
-30 -77 -113 -161 -185 -201 217 0
-32 -79 -114 -162 -186 -202 218 0
-34 -81 -115 -163 -187 -203 219 0
-36 -84 -116 -164 -188 -204 220 0
-205 3 0
-206 6 0
-207 9 0
-208 12 0
-209 14 0
-210 16 0
-211 18 0
-212 20 0
-213 22 0
-214 24 0
-215 26 0
-216 28 0
-217 30 0
-218 32 0
-219 34 0
-220 36 0
-205 39 0
-206 43 0
-207 47 0
-208 51 0
-209 53 0
-210 56 0
-211 60 0
-212 64 0
-213 66 0
-214 68 0
-215 71 0
-216 75 0
-217 77 0
-218 79 0
-219 81 0
-220 84 0
-205 101 0
-206 102 0
-207 103 0
-208 104 0
-209 105 0
-210 106 0
-211 107 0
-212 108 0
-213 109 0
-214 110 0
-215 111 0
-216 112 0
-217 113 0
-218 114 0
-219 115 0
-220 116 0
-205 149 0
-206 150 0
-207 151 0
-208 152 0
-209 153 0
-210 154 0
-211 155 0
-212 156 0
-213 157 0
-214 158 0
-215 159 0
-216 160 0
-217 161 0
-218 162 0
-219 163 0
-220 164 0
-205 167 0
-206 169 0
-207 171 0
-208 173 0
-209 175 0
-210 176 0
-211 177 0
-212 178 0
-213 180 0
-214 181 0
-215 182 0
-216 183 0
-217 185 0
-218 186 0
-219 187 0
-220 188 0
-205 189 0
-206 190 0
-207 191 0
-208 192 0
-209 193 0
-210 194 0
-211 195 0
-212 196 0
-213 197 0
-214 198 0
-215 199 0
-216 200 0
-217 201 0
-218 202 0
-219 203 0
-220 204 0
205 0
206 0
207 0
208 0
209 0
210 0
211 0
212 0
213 0
214 0
215 0
216 0
217 0
218 0
219 0
220 0
8 0
165 0
-179 0
174 0
-168 0
-172 0
-184 0
5 0
-166 0
11 0
2 0
-170 0
1 0
13 4 0
-13 -4 0
-13 -23 21 0
-13 -31 29 0
21 7 0
-21 -7 0
-21 -17 13 0
-21 -33 29 0
29 10 0
-29 -10 0
-29 -19 13 0
-29 -27 21 0
15 0
4 13 0
-4 -13 0
-4 -21 23 0
-4 -29 31 0
23 17 0
-23 -17 0
-23 -7 4 0
-23 -33 31 0
31 19 0
-31 -19 0
-31 -10 4 0
-31 -27 23 0
25 0
7 21 0
-7 -21 0
-7 -13 17 0
-7 -29 33 0
17 23 0
-17 -23 0
-17 -4 7 0
-17 -31 33 0
33 27 0
-33 -27 0
-33 -10 7 0
-33 -19 17 0
35 0
10 29 0
-10 -29 0
-10 -13 19 0
-10 -21 27 0
19 31 0
-19 -31 0
-19 -4 10 0
-19 -23 27 0
27 33 0
-27 -33 0
-27 -7 10 0
-27 -17 19 0
-117 0
-125 13 0
-221 21 0
-221 17 0
-21 -17 221 0
-222 29 0
-222 19 0
-29 -19 222 0
-125 -221 0
-125 -222 0
-13 125 221 222 0
-133 21 0
-223 13 0
-223 23 0
-13 -23 223 0
-224 29 0
-224 27 0
-29 -27 224 0
-133 -223 0
-133 -224 0
-21 133 223 224 0
-141 29 0
-225 13 0
-225 31 0
-13 -31 225 0
-226 21 0
-226 33 0
-21 -33 226 0
-141 -225 0
-141 -226 0
-29 141 225 226 0
-119 4 0
-227 23 0
-227 7 0
-23 -7 227 0
-228 31 0
-228 10 0
-31 -10 228 0
-119 -227 0
-119 -228 0
-4 119 227 228 0
-127 0
-135 23 0
-229 4 0
-229 21 0
-4 -21 229 0
-230 31 0
-230 27 0
-31 -27 230 0
-135 -229 0
-135 -230 0
-23 135 229 230 0
-143 31 0
-231 4 0
-231 29 0
-4 -29 231 0
-232 23 0
-232 33 0
-23 -33 232 0
-143 -231 0
-143 -232 0
-31 143 231 232 0
-121 7 0
-233 17 0
-233 4 0
-17 -4 233 0
-234 33 0
-234 10 0
-33 -10 234 0
-121 -233 0
-121 -234 0
-7 121 233 234 0
-129 17 0
-235 7 0
-235 13 0
-7 -13 235 0
-236 33 0
-236 19 0
-33 -19 236 0
-129 -235 0
-129 -236 0
-17 129 235 236 0
-137 0
-145 33 0
-237 7 0
-237 29 0
-7 -29 237 0
-238 17 0
-238 31 0
-17 -31 238 0
-145 -237 0
-145 -238 0
-33 145 237 238 0
-123 10 0
-239 19 0
-239 4 0
-19 -4 239 0
-240 27 0
-240 7 0
-27 -7 240 0
-123 -239 0
-123 -240 0
-10 123 239 240 0
-131 19 0
-241 10 0
-241 13 0
-10 -13 241 0
-242 27 0
-242 17 0
-27 -17 242 0
-131 -241 0
-131 -242 0
-19 131 241 242 0
-139 27 0
-243 10 0
-243 21 0
-10 -21 243 0
-244 19 0
-244 23 0
-19 -23 244 0
-139 -243 0
-139 -244 0
-27 139 243 244 0
-147 0
