p cnf 1408 5424
1 2 -2 -3 0
4 2 -5 -6 0
7 2 -8 -9 0
10 2 -11 -12 0
13 2 -14 -15 0
16 2 -17 -18 0
19 2 -20 -21 0
22 2 -23 -24 0
25 5 -2 -26 0
27 5 -5 -28 0
29 5 -8 -30 0
31 5 -11 -32 0
33 5 -14 -34 0
35 5 -17 -36 0
37 5 -20 -38 0
39 5 -23 -40 0
41 8 -2 -42 0
43 8 -5 -44 0
45 8 -8 -46 0
47 8 -11 -48 0
49 8 -14 -50 0
51 8 -17 -52 0
53 8 -20 -54 0
55 8 -23 -56 0
57 11 -2 -58 0
59 11 -5 -60 0
61 11 -8 -62 0
63 11 -11 -64 0
65 11 -14 -66 0
67 11 -17 -68 0
69 11 -20 -70 0
71 11 -23 -72 0
73 14 -2 -74 0
75 14 -5 -76 0
77 14 -8 -78 0
79 14 -11 -80 0
81 14 -14 -82 0
83 14 -17 -84 0
85 14 -20 -86 0
87 14 -23 -88 0
89 17 -2 -90 0
91 17 -5 -92 0
93 17 -8 -94 0
95 17 -11 -96 0
97 17 -14 -98 0
99 17 -17 -100 0
101 17 -20 -102 0
103 17 -23 -104 0
105 20 -2 -106 0
107 20 -5 -108 0
109 20 -8 -110 0
111 20 -11 -112 0
113 20 -14 -114 0
115 20 -17 -116 0
117 20 -20 -118 0
119 20 -23 -120 0
121 23 -2 -122 0
123 23 -5 -124 0
125 23 -8 -126 0
127 23 -11 -128 0
129 23 -14 -130 0
131 23 -17 -132 0
133 23 -20 -134 0
135 23 -23 -136 0
3 -1 0
6 -4 0
9 -7 0
12 -10 0
15 -13 0
18 -16 0
21 -19 0
24 -22 0
26 -25 0
28 -27 0
30 -29 0
32 -31 0
34 -33 0
36 -35 0
38 -37 0
40 -39 0
42 -41 0
44 -43 0
46 -45 0
48 -47 0
50 -49 0
52 -51 0
54 -53 0
56 -55 0
58 -57 0
60 -59 0
62 -61 0
64 -63 0
66 -65 0
68 -67 0
70 -69 0
72 -71 0
74 -73 0
76 -75 0
78 -77 0
80 -79 0
82 -81 0
84 -83 0
86 -85 0
88 -87 0
90 -89 0
92 -91 0
94 -93 0
96 -95 0
98 -97 0
100 -99 0
102 -101 0
104 -103 0
106 -105 0
108 -107 0
110 -109 0
112 -111 0
114 -113 0
116 -115 0
118 -117 0
120 -119 0
122 -121 0
124 -123 0
126 -125 0
128 -127 0
130 -129 0
132 -131 0
134 -133 0
136 -135 0
3 -2 0
6 -2 0
9 -2 0
12 -2 0
15 -2 0
18 -2 0
21 -2 0
24 -2 0
26 -5 0
28 -5 0
30 -5 0
32 -5 0
34 -5 0
36 -5 0
38 -5 0
40 -5 0
42 -8 0
44 -8 0
46 -8 0
48 -8 0
50 -8 0
52 -8 0
54 -8 0
56 -8 0
58 -11 0
60 -11 0
62 -11 0
64 -11 0
66 -11 0
68 -11 0
70 -11 0
72 -11 0
74 -14 0
76 -14 0
78 -14 0
80 -14 0
82 -14 0
84 -14 0
86 -14 0
88 -14 0
90 -17 0
92 -17 0
94 -17 0
96 -17 0
98 -17 0
100 -17 0
102 -17 0
104 -17 0
106 -20 0
108 -20 0
110 -20 0
112 -20 0
114 -20 0
116 -20 0
118 -20 0
120 -20 0
122 -23 0
124 -23 0
126 -23 0
128 -23 0
130 -23 0
132 -23 0
134 -23 0
136 -23 0
3 2 0
6 5 0
9 8 0
12 11 0
15 14 0
18 17 0
21 20 0
24 23 0
26 2 0
28 5 0
30 8 0
32 11 0
34 14 0
36 17 0
38 20 0
40 23 0
42 2 0
44 5 0
46 8 0
48 11 0
50 14 0
52 17 0
54 20 0
56 23 0
58 2 0
60 5 0
62 8 0
64 11 0
66 14 0
68 17 0
70 20 0
72 23 0
74 2 0
76 5 0
78 8 0
80 11 0
82 14 0
84 17 0
86 20 0
88 23 0
90 2 0
92 5 0
94 8 0
96 11 0
98 14 0
100 17 0
102 20 0
104 23 0
106 2 0
108 5 0
110 8 0
112 11 0
114 14 0
116 17 0
118 20 0
120 23 0
122 2 0
124 5 0
126 8 0
128 11 0
130 14 0
132 17 0
134 20 0
136 23 0
137 137 -138 -139 0
140 141 -142 -143 0
144 145 -146 -147 0
148 149 -150 -151 0
152 153 -154 -155 0
156 157 -158 -159 0
160 161 -162 -163 0
164 165 -166 -167 0
141 140 -168 -169 0
170 170 -171 -172 0
173 174 -175 -176 0
177 178 -179 -180 0
181 182 -183 -184 0
185 186 -187 -188 0
189 190 -191 -192 0
193 194 -195 -196 0
145 144 -197 -198 0
174 173 -199 -200 0
201 201 -202 -203 0
204 205 -206 -207 0
208 209 -210 -211 0
212 213 -214 -215 0
216 217 -218 -219 0
220 221 -222 -223 0
149 148 -224 -225 0
178 177 -226 -227 0
205 204 -228 -229 0
230 230 -231 -232 0
233 234 -235 -236 0
237 238 -239 -240 0
241 242 -243 -244 0
245 246 -247 -248 0
153 152 -249 -250 0
182 181 -251 -252 0
209 208 -253 -254 0
234 233 -255 -256 0
257 257 -258 -259 0
260 261 -262 -263 0
264 265 -266 -267 0
268 269 -270 -271 0
157 156 -272 -273 0
186 185 -274 -275 0
213 212 -276 -277 0
238 237 -278 -279 0
261 260 -280 -281 0
282 282 -283 -284 0
285 286 -287 -288 0
289 290 -291 -292 0
161 160 -293 -294 0
190 189 -295 -296 0
217 216 -297 -298 0
242 241 -299 -300 0
265 264 -301 -302 0
286 285 -303 -304 0
305 305 -306 -307 0
308 309 -310 -311 0
165 164 -312 -313 0
194 193 -314 -315 0
221 220 -316 -317 0
246 245 -318 -319 0
269 268 -320 -321 0
290 289 -322 -323 0
309 308 -324 -325 0
326 326 -327 -328 0
139 -137 0
143 -140 0
147 -144 0
151 -148 0
155 -152 0
159 -156 0
163 -160 0
167 -164 0
169 -141 0
172 -170 0
176 -173 0
180 -177 0
184 -181 0
188 -185 0
192 -189 0
196 -193 0
198 -145 0
200 -174 0
203 -201 0
207 -204 0
211 -208 0
215 -212 0
219 -216 0
223 -220 0
225 -149 0
227 -178 0
229 -205 0
232 -230 0
236 -233 0
240 -237 0
244 -241 0
248 -245 0
250 -153 0
252 -182 0
254 -209 0
256 -234 0
259 -257 0
263 -260 0
267 -264 0
271 -268 0
273 -157 0
275 -186 0
277 -213 0
279 -238 0
281 -261 0
284 -282 0
288 -285 0
292 -289 0
294 -161 0
296 -190 0
298 -217 0
300 -242 0
302 -265 0
304 -286 0
307 -305 0
311 -308 0
313 -165 0
315 -194 0
317 -221 0
319 -246 0
321 -269 0
323 -290 0
325 -309 0
328 -326 0
139 -137 0
143 -141 0
147 -145 0
151 -149 0
155 -153 0
159 -157 0
163 -161 0
167 -165 0
169 -140 0
172 -170 0
176 -174 0
180 -178 0
184 -182 0
188 -186 0
192 -190 0
196 -194 0
198 -144 0
200 -173 0
203 -201 0
207 -205 0
211 -209 0
215 -213 0
219 -217 0
223 -221 0
225 -148 0
227 -177 0
229 -204 0
232 -230 0
236 -234 0
240 -238 0
244 -242 0
248 -246 0
250 -152 0
252 -181 0
254 -208 0
256 -233 0
259 -257 0
263 -261 0
267 -265 0
271 -269 0
273 -156 0
275 -185 0
277 -212 0
279 -237 0
281 -260 0
284 -282 0
288 -286 0
292 -290 0
294 -160 0
296 -189 0
298 -216 0
300 -241 0
302 -264 0
304 -285 0
307 -305 0
311 -309 0
313 -164 0
315 -193 0
317 -220 0
319 -245 0
321 -268 0
323 -289 0
325 -308 0
328 -326 0
139 138 0
143 142 0
147 146 0
151 150 0
155 154 0
159 158 0
163 162 0
167 166 0
169 168 0
172 171 0
176 175 0
180 179 0
184 183 0
188 187 0
192 191 0
196 195 0
198 197 0
200 199 0
203 202 0
207 206 0
211 210 0
215 214 0
219 218 0
223 222 0
225 224 0
227 226 0
229 228 0
232 231 0
236 235 0
240 239 0
244 243 0
248 247 0
250 249 0
252 251 0
254 253 0
256 255 0
259 258 0
263 262 0
267 266 0
271 270 0
273 272 0
275 274 0
277 276 0
279 278 0
281 280 0
284 283 0
288 287 0
292 291 0
294 293 0
296 295 0
298 297 0
300 299 0
302 301 0
304 303 0
307 306 0
311 310 0
313 312 0
315 314 0
317 316 0
319 318 0
321 320 0
323 322 0
325 324 0
328 327 0
138 -329 -330 -331 0
142 -332 -330 -333 0
146 -334 -330 -335 0
150 -336 -330 -337 0
154 -338 -330 -339 0
158 -340 -330 -341 0
162 -342 -330 -343 0
166 -344 -330 -345 0
168 -329 -346 -347 0
171 -332 -346 -348 0
175 -334 -346 -349 0
179 -336 -346 -350 0
183 -338 -346 -351 0
187 -340 -346 -352 0
191 -342 -346 -353 0
195 -344 -346 -354 0
197 -329 -355 -356 0
199 -332 -355 -357 0
202 -334 -355 -358 0
206 -336 -355 -359 0
210 -338 -355 -360 0
214 -340 -355 -361 0
218 -342 -355 -362 0
222 -344 -355 -363 0
224 -329 -364 -365 0
226 -332 -364 -366 0
228 -334 -364 -367 0
231 -336 -364 -368 0
235 -338 -364 -369 0
239 -340 -364 -370 0
243 -342 -364 -371 0
247 -344 -364 -372 0
249 -329 -373 -374 0
251 -332 -373 -375 0
253 -334 -373 -376 0
255 -336 -373 -377 0
258 -338 -373 -378 0
262 -340 -373 -379 0
266 -342 -373 -380 0
270 -344 -373 -381 0
272 -329 -382 -383 0
274 -332 -382 -384 0
276 -334 -382 -385 0
278 -336 -382 -386 0
280 -338 -382 -387 0
283 -340 -382 -388 0
287 -342 -382 -389 0
291 -344 -382 -390 0
293 -329 -391 -392 0
295 -332 -391 -393 0
297 -334 -391 -394 0
299 -336 -391 -395 0
301 -338 -391 -396 0
303 -340 -391 -397 0
306 -342 -391 -398 0
310 -344 -391 -399 0
312 -329 -400 -401 0
314 -332 -400 -402 0
316 -334 -400 -403 0
318 -336 -400 -404 0
320 -338 -400 -405 0
322 -340 -400 -406 0
324 -342 -400 -407 0
327 -344 -400 -408 0
331 -138 0
333 -142 0
335 -146 0
337 -150 0
339 -154 0
341 -158 0
343 -162 0
345 -166 0
347 -168 0
348 -171 0
349 -175 0
350 -179 0
351 -183 0
352 -187 0
353 -191 0
354 -195 0
356 -197 0
357 -199 0
358 -202 0
359 -206 0
360 -210 0
361 -214 0
362 -218 0
363 -222 0
365 -224 0
366 -226 0
367 -228 0
368 -231 0
369 -235 0
370 -239 0
371 -243 0
372 -247 0
374 -249 0
375 -251 0
376 -253 0
377 -255 0
378 -258 0
379 -262 0
380 -266 0
381 -270 0
383 -272 0
384 -274 0
385 -276 0
386 -278 0
387 -280 0
388 -283 0
389 -287 0
390 -291 0
392 -293 0
393 -295 0
394 -297 0
395 -299 0
396 -301 0
397 -303 0
398 -306 0
399 -310 0
401 -312 0
402 -314 0
403 -316 0
404 -318 0
405 -320 0
406 -322 0
407 -324 0
408 -327 0
331 329 0
333 332 0
335 334 0
337 336 0
339 338 0
341 340 0
343 342 0
345 344 0
347 329 0
348 332 0
349 334 0
350 336 0
351 338 0
352 340 0
353 342 0
354 344 0
356 329 0
357 332 0
358 334 0
359 336 0
360 338 0
361 340 0
362 342 0
363 344 0
365 329 0
366 332 0
367 334 0
368 336 0
369 338 0
370 340 0
371 342 0
372 344 0
374 329 0
375 332 0
376 334 0
377 336 0
378 338 0
379 340 0
380 342 0
381 344 0
383 329 0
384 332 0
385 334 0
386 336 0
387 338 0
388 340 0
389 342 0
390 344 0
392 329 0
393 332 0
394 334 0
395 336 0
396 338 0
397 340 0
398 342 0
399 344 0
401 329 0
402 332 0
403 334 0
404 336 0
405 338 0
406 340 0
407 342 0
408 344 0
331 330 0
333 330 0
335 330 0
337 330 0
339 330 0
341 330 0
343 330 0
345 330 0
347 346 0
348 346 0
349 346 0
350 346 0
351 346 0
352 346 0
353 346 0
354 346 0
356 355 0
357 355 0
358 355 0
359 355 0
360 355 0
361 355 0
362 355 0
363 355 0
365 364 0
366 364 0
367 364 0
368 364 0
369 364 0
370 364 0
371 364 0
372 364 0
374 373 0
375 373 0
376 373 0
377 373 0
378 373 0
379 373 0
380 373 0
381 373 0
383 382 0
384 382 0
385 382 0
386 382 0
387 382 0
388 382 0
389 382 0
390 382 0
392 391 0
393 391 0
394 391 0
395 391 0
396 391 0
397 391 0
398 391 0
399 391 0
401 400 0
402 400 0
403 400 0
404 400 0
405 400 0
406 400 0
407 400 0
408 400 0
137 137 409 0
140 141 410 0
144 145 411 0
148 149 412 0
152 153 413 0
156 157 414 0
160 161 415 0
164 165 416 0
141 140 417 0
170 170 418 0
173 174 419 0
177 178 420 0
181 182 421 0
185 186 422 0
189 190 423 0
193 194 424 0
145 144 425 0
174 173 426 0
201 201 427 0
204 205 428 0
208 209 429 0
212 213 430 0
216 217 431 0
220 221 432 0
149 148 433 0
178 177 434 0
205 204 435 0
230 230 436 0
233 234 437 0
237 238 438 0
241 242 439 0
245 246 440 0
153 152 441 0
182 181 442 0
209 208 443 0
234 233 444 0
257 257 445 0
260 261 446 0
264 265 447 0
268 269 448 0
157 156 449 0
186 185 450 0
213 212 451 0
238 237 452 0
261 260 453 0
282 282 454 0
285 286 455 0
289 290 456 0
161 160 457 0
190 189 458 0
217 216 459 0
242 241 460 0
265 264 461 0
286 285 462 0
305 305 463 0
308 309 464 0
165 164 465 0
194 193 466 0
221 220 467 0
246 245 468 0
269 268 469 0
290 289 470 0
309 308 471 0
326 326 472 0
-409 -137 0
-410 -140 0
-411 -144 0
-412 -148 0
-413 -152 0
-414 -156 0
-415 -160 0
-416 -164 0
-417 -141 0
-418 -170 0
-419 -173 0
-420 -177 0
-421 -181 0
-422 -185 0
-423 -189 0
-424 -193 0
-425 -145 0
-426 -174 0
-427 -201 0
-428 -204 0
-429 -208 0
-430 -212 0
-431 -216 0
-432 -220 0
-433 -149 0
-434 -178 0
-435 -205 0
-436 -230 0
-437 -233 0
-438 -237 0
-439 -241 0
-440 -245 0
-441 -153 0
-442 -182 0
-443 -209 0
-444 -234 0
-445 -257 0
-446 -260 0
-447 -264 0
-448 -268 0
-449 -157 0
-450 -186 0
-451 -213 0
-452 -238 0
-453 -261 0
-454 -282 0
-455 -285 0
-456 -289 0
-457 -161 0
-458 -190 0
-459 -217 0
-460 -242 0
-461 -265 0
-462 -286 0
-463 -305 0
-464 -308 0
-465 -165 0
-466 -194 0
-467 -221 0
-468 -246 0
-469 -269 0
-470 -290 0
-471 -309 0
-472 -326 0
-409 -137 0
-410 -141 0
-411 -145 0
-412 -149 0
-413 -153 0
-414 -157 0
-415 -161 0
-416 -165 0
-417 -140 0
-418 -170 0
-419 -174 0
-420 -178 0
-421 -182 0
-422 -186 0
-423 -190 0
-424 -194 0
-425 -144 0
-426 -173 0
-427 -201 0
-428 -205 0
-429 -209 0
-430 -213 0
-431 -217 0
-432 -221 0
-433 -148 0
-434 -177 0
-435 -204 0
-436 -230 0
-437 -234 0
-438 -238 0
-439 -242 0
-440 -246 0
-441 -152 0
-442 -181 0
-443 -208 0
-444 -233 0
-445 -257 0
-446 -261 0
-447 -265 0
-448 -269 0
-449 -156 0
-450 -185 0
-451 -212 0
-452 -237 0
-453 -260 0
-454 -282 0
-455 -286 0
-456 -290 0
-457 -160 0
-458 -189 0
-459 -216 0
-460 -241 0
-461 -264 0
-462 -285 0
-463 -305 0
-464 -309 0
-465 -164 0
-466 -193 0
-467 -220 0
-468 -245 0
-469 -268 0
-470 -289 0
-471 -308 0
-472 -326 0
138 409 -473 0
142 410 -474 0
146 411 -475 0
150 412 -476 0
154 413 -477 0
158 414 -478 0
162 415 -479 0
166 416 -480 0
168 417 -481 0
171 418 -482 0
175 419 -483 0
179 420 -484 0
183 421 -485 0
187 422 -486 0
191 423 -487 0
195 424 -488 0
197 425 -489 0
199 426 -490 0
202 427 -491 0
206 428 -492 0
210 429 -493 0
214 430 -494 0
218 431 -495 0
222 432 -496 0
224 433 -497 0
226 434 -498 0
228 435 -499 0
231 436 -500 0
235 437 -501 0
239 438 -502 0
243 439 -503 0
247 440 -504 0
249 441 -505 0
251 442 -506 0
253 443 -507 0
255 444 -508 0
258 445 -509 0
262 446 -510 0
266 447 -511 0
270 448 -512 0
272 449 -513 0
274 450 -514 0
276 451 -515 0
278 452 -516 0
280 453 -517 0
283 454 -518 0
287 455 -519 0
291 456 -520 0
293 457 -521 0
295 458 -522 0
297 459 -523 0
299 460 -524 0
301 461 -525 0
303 462 -526 0
306 463 -527 0
310 464 -528 0
312 465 -529 0
314 466 -530 0
316 467 -531 0
318 468 -532 0
320 469 -533 0
322 470 -534 0
324 471 -535 0
327 472 -536 0
473 -138 0
474 -142 0
475 -146 0
476 -150 0
477 -154 0
478 -158 0
479 -162 0
480 -166 0
481 -168 0
482 -171 0
483 -175 0
484 -179 0
485 -183 0
486 -187 0
487 -191 0
488 -195 0
489 -197 0
490 -199 0
491 -202 0
492 -206 0
493 -210 0
494 -214 0
495 -218 0
496 -222 0
497 -224 0
498 -226 0
499 -228 0
500 -231 0
501 -235 0
502 -239 0
503 -243 0
504 -247 0
505 -249 0
506 -251 0
507 -253 0
508 -255 0
509 -258 0
510 -262 0
511 -266 0
512 -270 0
513 -272 0
514 -274 0
515 -276 0
516 -278 0
517 -280 0
518 -283 0
519 -287 0
520 -291 0
521 -293 0
522 -295 0
523 -297 0
524 -299 0
525 -301 0
526 -303 0
527 -306 0
528 -310 0
529 -312 0
530 -314 0
531 -316 0
532 -318 0
533 -320 0
534 -322 0
535 -324 0
536 -327 0
473 -409 0
474 -410 0
475 -411 0
476 -412 0
477 -413 0
478 -414 0
479 -415 0
480 -416 0
481 -417 0
482 -418 0
483 -419 0
484 -420 0
485 -421 0
486 -422 0
487 -423 0
488 -424 0
489 -425 0
490 -426 0
491 -427 0
492 -428 0
493 -429 0
494 -430 0
495 -431 0
496 -432 0
497 -433 0
498 -434 0
499 -435 0
500 -436 0
501 -437 0
502 -438 0
503 -439 0
504 -440 0
505 -441 0
506 -442 0
507 -443 0
508 -444 0
509 -445 0
510 -446 0
511 -447 0
512 -448 0
513 -449 0
514 -450 0
515 -451 0
516 -452 0
517 -453 0
518 -454 0
519 -455 0
520 -456 0
521 -457 0
522 -458 0
523 -459 0
524 -460 0
525 -461 0
526 -462 0
527 -463 0
528 -464 0
529 -465 0
530 -466 0
531 -467 0
532 -468 0
533 -469 0
534 -470 0
535 -471 0
536 -472 0
-537 -2 -2 538 0
-539 -5 -2 540 0
-541 -8 -2 542 0
-543 -11 -2 544 0
-545 -14 -2 546 0
-547 -17 -2 548 0
-549 -20 -2 550 0
-551 -23 -2 552 0
-553 -2 -5 554 0
-555 -5 -5 556 0
-557 -8 -5 558 0
-559 -11 -5 560 0
-561 -14 -5 562 0
-563 -17 -5 564 0
-565 -20 -5 566 0
-567 -23 -5 568 0
-569 -2 -8 570 0
-571 -5 -8 572 0
-573 -8 -8 574 0
-575 -11 -8 576 0
-577 -14 -8 578 0
-579 -17 -8 580 0
-581 -20 -8 582 0
-583 -23 -8 584 0
-585 -2 -11 586 0
-587 -5 -11 588 0
-589 -8 -11 590 0
-591 -11 -11 592 0
-593 -14 -11 594 0
-595 -17 -11 596 0
-597 -20 -11 598 0
-599 -23 -11 600 0
-601 -2 -14 602 0
-603 -5 -14 604 0
-605 -8 -14 606 0
-607 -11 -14 608 0
-609 -14 -14 610 0
-611 -17 -14 612 0
-613 -20 -14 614 0
-615 -23 -14 616 0
-617 -2 -17 618 0
-619 -5 -17 620 0
-621 -8 -17 622 0
-623 -11 -17 624 0
-625 -14 -17 626 0
-627 -17 -17 628 0
-629 -20 -17 630 0
-631 -23 -17 632 0
-633 -2 -20 634 0
-635 -5 -20 636 0
-637 -8 -20 638 0
-639 -11 -20 640 0
-641 -14 -20 642 0
-643 -17 -20 644 0
-645 -20 -20 646 0
-647 -23 -20 648 0
-649 -2 -23 650 0
-651 -5 -23 652 0
-653 -8 -23 654 0
-655 -11 -23 656 0
-657 -14 -23 658 0
-659 -17 -23 660 0
-661 -20 -23 662 0
-663 -23 -23 664 0
-538 537 0
-540 539 0
-542 541 0
-544 543 0
-546 545 0
-548 547 0
-550 549 0
-552 551 0
-554 553 0
-556 555 0
-558 557 0
-560 559 0
-562 561 0
-564 563 0
-566 565 0
-568 567 0
-570 569 0
-572 571 0
-574 573 0
-576 575 0
-578 577 0
-580 579 0
-582 581 0
-584 583 0
-586 585 0
-588 587 0
-590 589 0
-592 591 0
-594 593 0
-596 595 0
-598 597 0
-600 599 0
-602 601 0
-604 603 0
-606 605 0
-608 607 0
-610 609 0
-612 611 0
-614 613 0
-616 615 0
-618 617 0
-620 619 0
-622 621 0
-624 623 0
-626 625 0
-628 627 0
-630 629 0
-632 631 0
-634 633 0
-636 635 0
-638 637 0
-640 639 0
-642 641 0
-644 643 0
-646 645 0
-648 647 0
-650 649 0
-652 651 0
-654 653 0
-656 655 0
-658 657 0
-660 659 0
-662 661 0
-664 663 0
-538 2 0
-540 5 0
-542 8 0
-544 11 0
-546 14 0
-548 17 0
-550 20 0
-552 23 0
-554 2 0
-556 5 0
-558 8 0
-560 11 0
-562 14 0
-564 17 0
-566 20 0
-568 23 0
-570 2 0
-572 5 0
-574 8 0
-576 11 0
-578 14 0
-580 17 0
-582 20 0
-584 23 0
-586 2 0
-588 5 0
-590 8 0
-592 11 0
-594 14 0
-596 17 0
-598 20 0
-600 23 0
-602 2 0
-604 5 0
-606 8 0
-608 11 0
-610 14 0
-612 17 0
-614 20 0
-616 23 0
-618 2 0
-620 5 0
-622 8 0
-624 11 0
-626 14 0
-628 17 0
-630 20 0
-632 23 0
-634 2 0
-636 5 0
-638 8 0
-640 11 0
-642 14 0
-644 17 0
-646 20 0
-648 23 0
-650 2 0
-652 5 0
-654 8 0
-656 11 0
-658 14 0
-660 17 0
-662 20 0
-664 23 0
-538 2 0
-540 2 0
-542 2 0
-544 2 0
-546 2 0
-548 2 0
-550 2 0
-552 2 0
-554 5 0
-556 5 0
-558 5 0
-560 5 0
-562 5 0
-564 5 0
-566 5 0
-568 5 0
-570 8 0
-572 8 0
-574 8 0
-576 8 0
-578 8 0
-580 8 0
-582 8 0
-584 8 0
-586 11 0
-588 11 0
-590 11 0
-592 11 0
-594 11 0
-596 11 0
-598 11 0
-600 11 0
-602 14 0
-604 14 0
-606 14 0
-608 14 0
-610 14 0
-612 14 0
-614 14 0
-616 14 0
-618 17 0
-620 17 0
-622 17 0
-624 17 0
-626 17 0
-628 17 0
-630 17 0
-632 17 0
-634 20 0
-636 20 0
-638 20 0
-640 20 0
-642 20 0
-644 20 0
-646 20 0
-648 20 0
-650 23 0
-652 23 0
-654 23 0
-656 23 0
-658 23 0
-660 23 0
-662 23 0
-664 23 0
-137 538 -665 0
-140 540 -666 0
-144 542 -667 0
-148 544 -668 0
-152 546 -669 0
-156 548 -670 0
-160 550 -671 0
-164 552 -672 0
-141 554 -673 0
-170 556 -674 0
-173 558 -675 0
-177 560 -676 0
-181 562 -677 0
-185 564 -678 0
-189 566 -679 0
-193 568 -680 0
-145 570 -681 0
-174 572 -682 0
-201 574 -683 0
-204 576 -684 0
-208 578 -685 0
-212 580 -686 0
-216 582 -687 0
-220 584 -688 0
-149 586 -689 0
-178 588 -690 0
-205 590 -691 0
-230 592 -692 0
-233 594 -693 0
-237 596 -694 0
-241 598 -695 0
-245 600 -696 0
-153 602 -697 0
-182 604 -698 0
-209 606 -699 0
-234 608 -700 0
-257 610 -701 0
-260 612 -702 0
-264 614 -703 0
-268 616 -704 0
-157 618 -705 0
-186 620 -706 0
-213 622 -707 0
-238 624 -708 0
-261 626 -709 0
-282 628 -710 0
-285 630 -711 0
-289 632 -712 0
-161 634 -713 0
-190 636 -714 0
-217 638 -715 0
-242 640 -716 0
-265 642 -717 0
-286 644 -718 0
-305 646 -719 0
-308 648 -720 0
-165 650 -721 0
-194 652 -722 0
-221 654 -723 0
-246 656 -724 0
-269 658 -725 0
-290 660 -726 0
-309 662 -727 0
-326 664 -728 0
665 137 0
666 140 0
667 144 0
668 148 0
669 152 0
670 156 0
671 160 0
672 164 0
673 141 0
674 170 0
675 173 0
676 177 0
677 181 0
678 185 0
679 189 0
680 193 0
681 145 0
682 174 0
683 201 0
684 204 0
685 208 0
686 212 0
687 216 0
688 220 0
689 149 0
690 178 0
691 205 0
692 230 0
693 233 0
694 237 0
695 241 0
696 245 0
697 153 0
698 182 0
699 209 0
700 234 0
701 257 0
702 260 0
703 264 0
704 268 0
705 157 0
706 186 0
707 213 0
708 238 0
709 261 0
710 282 0
711 285 0
712 289 0
713 161 0
714 190 0
715 217 0
716 242 0
717 265 0
718 286 0
719 305 0
720 308 0
721 165 0
722 194 0
723 221 0
724 246 0
725 269 0
726 290 0
727 309 0
728 326 0
665 -538 0
666 -540 0
667 -542 0
668 -544 0
669 -546 0
670 -548 0
671 -550 0
672 -552 0
673 -554 0
674 -556 0
675 -558 0
676 -560 0
677 -562 0
678 -564 0
679 -566 0
680 -568 0
681 -570 0
682 -572 0
683 -574 0
684 -576 0
685 -578 0
686 -580 0
687 -582 0
688 -584 0
689 -586 0
690 -588 0
691 -590 0
692 -592 0
693 -594 0
694 -596 0
695 -598 0
696 -600 0
697 -602 0
698 -604 0
699 -606 0
700 -608 0
701 -610 0
702 -612 0
703 -614 0
704 -616 0
705 -618 0
706 -620 0
707 -622 0
708 -624 0
709 -626 0
710 -628 0
711 -630 0
712 -632 0
713 -634 0
714 -636 0
715 -638 0
716 -640 0
717 -642 0
718 -644 0
719 -646 0
720 -648 0
721 -650 0
722 -652 0
723 -654 0
724 -656 0
725 -658 0
726 -660 0
727 -662 0
728 -664 0
-329 -729 -138 -730 0
-329 -731 -142 -732 0
-329 -733 -146 -734 0
-329 -735 -150 -736 0
-329 -737 -154 -738 0
-329 -739 -158 -740 0
-329 -741 -162 -742 0
-329 -743 -166 -744 0
-332 -729 -168 -745 0
-332 -731 -171 -746 0
-332 -733 -175 -747 0
-332 -735 -179 -748 0
-332 -737 -183 -749 0
-332 -739 -187 -750 0
-332 -741 -191 -751 0
-332 -743 -195 -752 0
-334 -729 -197 -753 0
-334 -731 -199 -754 0
-334 -733 -202 -755 0
-334 -735 -206 -756 0
-334 -737 -210 -757 0
-334 -739 -214 -758 0
-334 -741 -218 -759 0
-334 -743 -222 -760 0
-336 -729 -224 -761 0
-336 -731 -226 -762 0
-336 -733 -228 -763 0
-336 -735 -231 -764 0
-336 -737 -235 -765 0
-336 -739 -239 -766 0
-336 -741 -243 -767 0
-336 -743 -247 -768 0
-338 -729 -249 -769 0
-338 -731 -251 -770 0
-338 -733 -253 -771 0
-338 -735 -255 -772 0
-338 -737 -258 -773 0
-338 -739 -262 -774 0
-338 -741 -266 -775 0
-338 -743 -270 -776 0
-340 -729 -272 -777 0
-340 -731 -274 -778 0
-340 -733 -276 -779 0
-340 -735 -278 -780 0
-340 -737 -280 -781 0
-340 -739 -283 -782 0
-340 -741 -287 -783 0
-340 -743 -291 -784 0
-342 -729 -293 -785 0
-342 -731 -295 -786 0
-342 -733 -297 -787 0
-342 -735 -299 -788 0
-342 -737 -301 -789 0
-342 -739 -303 -790 0
-342 -741 -306 -791 0
-342 -743 -310 -792 0
-344 -729 -312 -793 0
-344 -731 -314 -794 0
-344 -733 -316 -795 0
-344 -735 -318 -796 0
-344 -737 -320 -797 0
-344 -739 -322 -798 0
-344 -741 -324 -799 0
-344 -743 -327 -800 0
730 329 0
732 329 0
734 329 0
736 329 0
738 329 0
740 329 0
742 329 0
744 329 0
745 332 0
746 332 0
747 332 0
748 332 0
749 332 0
750 332 0
751 332 0
752 332 0
753 334 0
754 334 0
755 334 0
756 334 0
757 334 0
758 334 0
759 334 0
760 334 0
761 336 0
762 336 0
763 336 0
764 336 0
765 336 0
766 336 0
767 336 0
768 336 0
769 338 0
770 338 0
771 338 0
772 338 0
773 338 0
774 338 0
775 338 0
776 338 0
777 340 0
778 340 0
779 340 0
780 340 0
781 340 0
782 340 0
783 340 0
784 340 0
785 342 0
786 342 0
787 342 0
788 342 0
789 342 0
790 342 0
791 342 0
792 342 0
793 344 0
794 344 0
795 344 0
796 344 0
797 344 0
798 344 0
799 344 0
800 344 0
730 729 0
732 731 0
734 733 0
736 735 0
738 737 0
740 739 0
742 741 0
744 743 0
745 729 0
746 731 0
747 733 0
748 735 0
749 737 0
750 739 0
751 741 0
752 743 0
753 729 0
754 731 0
755 733 0
756 735 0
757 737 0
758 739 0
759 741 0
760 743 0
761 729 0
762 731 0
763 733 0
764 735 0
765 737 0
766 739 0
767 741 0
768 743 0
769 729 0
770 731 0
771 733 0
772 735 0
773 737 0
774 739 0
775 741 0
776 743 0
777 729 0
778 731 0
779 733 0
780 735 0
781 737 0
782 739 0
783 741 0
784 743 0
785 729 0
786 731 0
787 733 0
788 735 0
789 737 0
790 739 0
791 741 0
792 743 0
793 729 0
794 731 0
795 733 0
796 735 0
797 737 0
798 739 0
799 741 0
800 743 0
730 138 0
732 142 0
734 146 0
736 150 0
738 154 0
740 158 0
742 162 0
744 166 0
745 168 0
746 171 0
747 175 0
748 179 0
749 183 0
750 187 0
751 191 0
752 195 0
753 197 0
754 199 0
755 202 0
756 206 0
757 210 0
758 214 0
759 218 0
760 222 0
761 224 0
762 226 0
763 228 0
764 231 0
765 235 0
766 239 0
767 243 0
768 247 0
769 249 0
770 251 0
771 253 0
772 255 0
773 258 0
774 262 0
775 266 0
776 270 0
777 272 0
778 274 0
779 276 0
780 278 0
781 280 0
782 283 0
783 287 0
784 291 0
785 293 0
786 295 0
787 297 0
788 299 0
789 301 0
790 303 0
791 306 0
792 310 0
793 312 0
794 314 0
795 316 0
796 318 0
797 320 0
798 322 0
799 324 0
800 327 0
-729 -330 -138 -801 0
-731 -330 -142 -802 0
-733 -330 -146 -803 0
-735 -330 -150 -804 0
-737 -330 -154 -805 0
-739 -330 -158 -806 0
-741 -330 -162 -807 0
-743 -330 -166 -808 0
-729 -346 -168 -809 0
-731 -346 -171 -810 0
-733 -346 -175 -811 0
-735 -346 -179 -812 0
-737 -346 -183 -813 0
-739 -346 -187 -814 0
-741 -346 -191 -815 0
-743 -346 -195 -816 0
-729 -355 -197 -817 0
-731 -355 -199 -818 0
-733 -355 -202 -819 0
-735 -355 -206 -820 0
-737 -355 -210 -821 0
-739 -355 -214 -822 0
-741 -355 -218 -823 0
-743 -355 -222 -824 0
-729 -364 -224 -825 0
-731 -364 -226 -826 0
-733 -364 -228 -827 0
-735 -364 -231 -828 0
-737 -364 -235 -829 0
-739 -364 -239 -830 0
-741 -364 -243 -831 0
-743 -364 -247 -832 0
-729 -373 -249 -833 0
-731 -373 -251 -834 0
-733 -373 -253 -835 0
-735 -373 -255 -836 0
-737 -373 -258 -837 0
-739 -373 -262 -838 0
-741 -373 -266 -839 0
-743 -373 -270 -840 0
-729 -382 -272 -841 0
-731 -382 -274 -842 0
-733 -382 -276 -843 0
-735 -382 -278 -844 0
-737 -382 -280 -845 0
-739 -382 -283 -846 0
-741 -382 -287 -847 0
-743 -382 -291 -848 0
-729 -391 -293 -849 0
-731 -391 -295 -850 0
-733 -391 -297 -851 0
-735 -391 -299 -852 0
-737 -391 -301 -853 0
-739 -391 -303 -854 0
-741 -391 -306 -855 0
-743 -391 -310 -856 0
-729 -400 -312 -857 0
-731 -400 -314 -858 0
-733 -400 -316 -859 0
-735 -400 -318 -860 0
-737 -400 -320 -861 0
-739 -400 -322 -862 0
-741 -400 -324 -863 0
-743 -400 -327 -864 0
801 729 0
802 731 0
803 733 0
804 735 0
805 737 0
806 739 0
807 741 0
808 743 0
809 729 0
810 731 0
811 733 0
812 735 0
813 737 0
814 739 0
815 741 0
816 743 0
817 729 0
818 731 0
819 733 0
820 735 0
821 737 0
822 739 0
823 741 0
824 743 0
825 729 0
826 731 0
827 733 0
828 735 0
829 737 0
830 739 0
831 741 0
832 743 0
833 729 0
834 731 0
835 733 0
836 735 0
837 737 0
838 739 0
839 741 0
840 743 0
841 729 0
842 731 0
843 733 0
844 735 0
845 737 0
846 739 0
847 741 0
848 743 0
849 729 0
850 731 0
851 733 0
852 735 0
853 737 0
854 739 0
855 741 0
856 743 0
857 729 0
858 731 0
859 733 0
860 735 0
861 737 0
862 739 0
863 741 0
864 743 0
801 330 0
802 330 0
803 330 0
804 330 0
805 330 0
806 330 0
807 330 0
808 330 0
809 346 0
810 346 0
811 346 0
812 346 0
813 346 0
814 346 0
815 346 0
816 346 0
817 355 0
818 355 0
819 355 0
820 355 0
821 355 0
822 355 0
823 355 0
824 355 0
825 364 0
826 364 0
827 364 0
828 364 0
829 364 0
830 364 0
831 364 0
832 364 0
833 373 0
834 373 0
835 373 0
836 373 0
837 373 0
838 373 0
839 373 0
840 373 0
841 382 0
842 382 0
843 382 0
844 382 0
845 382 0
846 382 0
847 382 0
848 382 0
849 391 0
850 391 0
851 391 0
852 391 0
853 391 0
854 391 0
855 391 0
856 391 0
857 400 0
858 400 0
859 400 0
860 400 0
861 400 0
862 400 0
863 400 0
864 400 0
801 138 0
802 142 0
803 146 0
804 150 0
805 154 0
806 158 0
807 162 0
808 166 0
809 168 0
810 171 0
811 175 0
812 179 0
813 183 0
814 187 0
815 191 0
816 195 0
817 197 0
818 199 0
819 202 0
820 206 0
821 210 0
822 214 0
823 218 0
824 222 0
825 224 0
826 226 0
827 228 0
828 231 0
829 235 0
830 239 0
831 243 0
832 247 0
833 249 0
834 251 0
835 253 0
836 255 0
837 258 0
838 262 0
839 266 0
840 270 0
841 272 0
842 274 0
843 276 0
844 278 0
845 280 0
846 283 0
847 287 0
848 291 0
849 293 0
850 295 0
851 297 0
852 299 0
853 301 0
854 303 0
855 306 0
856 310 0
857 312 0
858 314 0
859 316 0
860 318 0
861 320 0
862 322 0
863 324 0
864 327 0
137 -537 -2 -2 -865 0
140 -539 -5 -2 -866 0
144 -541 -8 -2 -867 0
148 -543 -11 -2 -868 0
152 -545 -14 -2 -869 0
156 -547 -17 -2 -870 0
160 -549 -20 -2 -871 0
164 -551 -23 -2 -872 0
141 -553 -2 -5 -873 0
170 -555 -5 -5 -874 0
173 -557 -8 -5 -875 0
177 -559 -11 -5 -876 0
181 -561 -14 -5 -877 0
185 -563 -17 -5 -878 0
189 -565 -20 -5 -879 0
193 -567 -23 -5 -880 0
145 -569 -2 -8 -881 0
174 -571 -5 -8 -882 0
201 -573 -8 -8 -883 0
204 -575 -11 -8 -884 0
208 -577 -14 -8 -885 0
212 -579 -17 -8 -886 0
216 -581 -20 -8 -887 0
220 -583 -23 -8 -888 0
149 -585 -2 -11 -889 0
178 -587 -5 -11 -890 0
205 -589 -8 -11 -891 0
230 -591 -11 -11 -892 0
233 -593 -14 -11 -893 0
237 -595 -17 -11 -894 0
241 -597 -20 -11 -895 0
245 -599 -23 -11 -896 0
153 -601 -2 -14 -897 0
182 -603 -5 -14 -898 0
209 -605 -8 -14 -899 0
234 -607 -11 -14 -900 0
257 -609 -14 -14 -901 0
260 -611 -17 -14 -902 0
264 -613 -20 -14 -903 0
268 -615 -23 -14 -904 0
157 -617 -2 -17 -905 0
186 -619 -5 -17 -906 0
213 -621 -8 -17 -907 0
238 -623 -11 -17 -908 0
261 -625 -14 -17 -909 0
282 -627 -17 -17 -910 0
285 -629 -20 -17 -911 0
289 -631 -23 -17 -912 0
161 -633 -2 -20 -913 0
190 -635 -5 -20 -914 0
217 -637 -8 -20 -915 0
242 -639 -11 -20 -916 0
265 -641 -14 -20 -917 0
286 -643 -17 -20 -918 0
305 -645 -20 -20 -919 0
308 -647 -23 -20 -920 0
165 -649 -2 -23 -921 0
194 -651 -5 -23 -922 0
221 -653 -8 -23 -923 0
246 -655 -11 -23 -924 0
269 -657 -14 -23 -925 0
290 -659 -17 -23 -926 0
309 -661 -20 -23 -927 0
326 -663 -23 -23 -928 0
865 -137 0
866 -140 0
867 -144 0
868 -148 0
869 -152 0
870 -156 0
871 -160 0
872 -164 0
873 -141 0
874 -170 0
875 -173 0
876 -177 0
877 -181 0
878 -185 0
879 -189 0
880 -193 0
881 -145 0
882 -174 0
883 -201 0
884 -204 0
885 -208 0
886 -212 0
887 -216 0
888 -220 0
889 -149 0
890 -178 0
891 -205 0
892 -230 0
893 -233 0
894 -237 0
895 -241 0
896 -245 0
897 -153 0
898 -182 0
899 -209 0
900 -234 0
901 -257 0
902 -260 0
903 -264 0
904 -268 0
905 -157 0
906 -186 0
907 -213 0
908 -238 0
909 -261 0
910 -282 0
911 -285 0
912 -289 0
913 -161 0
914 -190 0
915 -217 0
916 -242 0
917 -265 0
918 -286 0
919 -305 0
920 -308 0
921 -165 0
922 -194 0
923 -221 0
924 -246 0
925 -269 0
926 -290 0
927 -309 0
928 -326 0
865 537 0
866 539 0
867 541 0
868 543 0
869 545 0
870 547 0
871 549 0
872 551 0
873 553 0
874 555 0
875 557 0
876 559 0
877 561 0
878 563 0
879 565 0
880 567 0
881 569 0
882 571 0
883 573 0
884 575 0
885 577 0
886 579 0
887 581 0
888 583 0
889 585 0
890 587 0
891 589 0
892 591 0
893 593 0
894 595 0
895 597 0
896 599 0
897 601 0
898 603 0
899 605 0
900 607 0
901 609 0
902 611 0
903 613 0
904 615 0
905 617 0
906 619 0
907 621 0
908 623 0
909 625 0
910 627 0
911 629 0
912 631 0
913 633 0
914 635 0
915 637 0
916 639 0
917 641 0
918 643 0
919 645 0
920 647 0
921 649 0
922 651 0
923 653 0
924 655 0
925 657 0
926 659 0
927 661 0
928 663 0
865 2 0
866 5 0
867 8 0
868 11 0
869 14 0
870 17 0
871 20 0
872 23 0
873 2 0
874 5 0
875 8 0
876 11 0
877 14 0
878 17 0
879 20 0
880 23 0
881 2 0
882 5 0
883 8 0
884 11 0
885 14 0
886 17 0
887 20 0
888 23 0
889 2 0
890 5 0
891 8 0
892 11 0
893 14 0
894 17 0
895 20 0
896 23 0
897 2 0
898 5 0
899 8 0
900 11 0
901 14 0
902 17 0
903 20 0
904 23 0
905 2 0
906 5 0
907 8 0
908 11 0
909 14 0
910 17 0
911 20 0
912 23 0
913 2 0
914 5 0
915 8 0
916 11 0
917 14 0
918 17 0
919 20 0
920 23 0
921 2 0
922 5 0
923 8 0
924 11 0
925 14 0
926 17 0
927 20 0
928 23 0
865 2 0
866 2 0
867 2 0
868 2 0
869 2 0
870 2 0
871 2 0
872 2 0
873 5 0
874 5 0
875 5 0
876 5 0
877 5 0
878 5 0
879 5 0
880 5 0
881 8 0
882 8 0
883 8 0
884 8 0
885 8 0
886 8 0
887 8 0
888 8 0
889 11 0
890 11 0
891 11 0
892 11 0
893 11 0
894 11 0
895 11 0
896 11 0
897 14 0
898 14 0
899 14 0
900 14 0
901 14 0
902 14 0
903 14 0
904 14 0
905 17 0
906 17 0
907 17 0
908 17 0
909 17 0
910 17 0
911 17 0
912 17 0
913 20 0
914 20 0
915 20 0
916 20 0
917 20 0
918 20 0
919 20 0
920 20 0
921 23 0
922 23 0
923 23 0
924 23 0
925 23 0
926 23 0
927 23 0
928 23 0
-3 -139 -331 -473 -665 -730 -801 -865 929 0
-6 -143 -333 -474 -666 -732 -802 -866 930 0
-9 -147 -335 -475 -667 -734 -803 -867 931 0
-12 -151 -337 -476 -668 -736 -804 -868 932 0
-15 -155 -339 -477 -669 -738 -805 -869 933 0
-18 -159 -341 -478 -670 -740 -806 -870 934 0
-21 -163 -343 -479 -671 -742 -807 -871 935 0
-24 -167 -345 -480 -672 -744 -808 -872 936 0
-26 -169 -347 -481 -673 -745 -809 -873 937 0
-28 -172 -348 -482 -674 -746 -810 -874 938 0
-30 -176 -349 -483 -675 -747 -811 -875 939 0
-32 -180 -350 -484 -676 -748 -812 -876 940 0
-34 -184 -351 -485 -677 -749 -813 -877 941 0
-36 -188 -352 -486 -678 -750 -814 -878 942 0
-38 -192 -353 -487 -679 -751 -815 -879 943 0
-40 -196 -354 -488 -680 -752 -816 -880 944 0
-42 -198 -356 -489 -681 -753 -817 -881 945 0
-44 -200 -357 -490 -682 -754 -818 -882 946 0
-46 -203 -358 -491 -683 -755 -819 -883 947 0
-48 -207 -359 -492 -684 -756 -820 -884 948 0
-50 -211 -360 -493 -685 -757 -821 -885 949 0
-52 -215 -361 -494 -686 -758 -822 -886 950 0
-54 -219 -362 -495 -687 -759 -823 -887 951 0
-56 -223 -363 -496 -688 -760 -824 -888 952 0
-58 -225 -365 -497 -689 -761 -825 -889 953 0
-60 -227 -366 -498 -690 -762 -826 -890 954 0
-62 -229 -367 -499 -691 -763 -827 -891 955 0
-64 -232 -368 -500 -692 -764 -828 -892 956 0
-66 -236 -369 -501 -693 -765 -829 -893 957 0
-68 -240 -370 -502 -694 -766 -830 -894 958 0
-70 -244 -371 -503 -695 -767 -831 -895 959 0
-72 -248 -372 -504 -696 -768 -832 -896 960 0
-74 -250 -374 -505 -697 -769 -833 -897 961 0
-76 -252 -375 -506 -698 -770 -834 -898 962 0
-78 -254 -376 -507 -699 -771 -835 -899 963 0
-80 -256 -377 -508 -700 -772 -836 -900 964 0
-82 -259 -378 -509 -701 -773 -837 -901 965 0
-84 -263 -379 -510 -702 -774 -838 -902 966 0
-86 -267 -380 -511 -703 -775 -839 -903 967 0
-88 -271 -381 -512 -704 -776 -840 -904 968 0
-90 -273 -383 -513 -705 -777 -841 -905 969 0
-92 -275 -384 -514 -706 -778 -842 -906 970 0
-94 -277 -385 -515 -707 -779 -843 -907 971 0
-96 -279 -386 -516 -708 -780 -844 -908 972 0
-98 -281 -387 -517 -709 -781 -845 -909 973 0
-100 -284 -388 -518 -710 -782 -846 -910 974 0
-102 -288 -389 -519 -711 -783 -847 -911 975 0
-104 -292 -390 -520 -712 -784 -848 -912 976 0
-106 -294 -392 -521 -713 -785 -849 -913 977 0
-108 -296 -393 -522 -714 -786 -850 -914 978 0
-110 -298 -394 -523 -715 -787 -851 -915 979 0
-112 -300 -395 -524 -716 -788 -852 -916 980 0
-114 -302 -396 -525 -717 -789 -853 -917 981 0
-116 -304 -397 -526 -718 -790 -854 -918 982 0
-118 -307 -398 -527 -719 -791 -855 -919 983 0
-120 -311 -399 -528 -720 -792 -856 -920 984 0
-122 -313 -401 -529 -721 -793 -857 -921 985 0
-124 -315 -402 -530 -722 -794 -858 -922 986 0
-126 -317 -403 -531 -723 -795 -859 -923 987 0
-128 -319 -404 -532 -724 -796 -860 -924 988 0
-130 -321 -405 -533 -725 -797 -861 -925 989 0
-132 -323 -406 -534 -726 -798 -862 -926 990 0
-134 -325 -407 -535 -727 -799 -863 -927 991 0
-136 -328 -408 -536 -728 -800 -864 -928 992 0
-929 3 0
-930 6 0
-931 9 0
-932 12 0
-933 15 0
-934 18 0
-935 21 0
-936 24 0
-937 26 0
-938 28 0
-939 30 0
-940 32 0
-941 34 0
-942 36 0
-943 38 0
-944 40 0
-945 42 0
-946 44 0
-947 46 0
-948 48 0
-949 50 0
-950 52 0
-951 54 0
-952 56 0
-953 58 0
-954 60 0
-955 62 0
-956 64 0
-957 66 0
-958 68 0
-959 70 0
-960 72 0
-961 74 0
-962 76 0
-963 78 0
-964 80 0
-965 82 0
-966 84 0
-967 86 0
-968 88 0
-969 90 0
-970 92 0
-971 94 0
-972 96 0
-973 98 0
-974 100 0
-975 102 0
-976 104 0
-977 106 0
-978 108 0
-979 110 0
-980 112 0
-981 114 0
-982 116 0
-983 118 0
-984 120 0
-985 122 0
-986 124 0
-987 126 0
-988 128 0
-989 130 0
-990 132 0
-991 134 0
-992 136 0
-929 139 0
-930 143 0
-931 147 0
-932 151 0
-933 155 0
-934 159 0
-935 163 0
-936 167 0
-937 169 0
-938 172 0
-939 176 0
-940 180 0
-941 184 0
-942 188 0
-943 192 0
-944 196 0
-945 198 0
-946 200 0
-947 203 0
-948 207 0
-949 211 0
-950 215 0
-951 219 0
-952 223 0
-953 225 0
-954 227 0
-955 229 0
-956 232 0
-957 236 0
-958 240 0
-959 244 0
-960 248 0
-961 250 0
-962 252 0
-963 254 0
-964 256 0
-965 259 0
-966 263 0
-967 267 0
-968 271 0
-969 273 0
-970 275 0
-971 277 0
-972 279 0
-973 281 0
-974 284 0
-975 288 0
-976 292 0
-977 294 0
-978 296 0
-979 298 0
-980 300 0
-981 302 0
-982 304 0
-983 307 0
-984 311 0
-985 313 0
-986 315 0
-987 317 0
-988 319 0
-989 321 0
-990 323 0
-991 325 0
-992 328 0
-929 331 0
-930 333 0
-931 335 0
-932 337 0
-933 339 0
-934 341 0
-935 343 0
-936 345 0
-937 347 0
-938 348 0
-939 349 0
-940 350 0
-941 351 0
-942 352 0
-943 353 0
-944 354 0
-945 356 0
-946 357 0
-947 358 0
-948 359 0
-949 360 0
-950 361 0
-951 362 0
-952 363 0
-953 365 0
-954 366 0
-955 367 0
-956 368 0
-957 369 0
-958 370 0
-959 371 0
-960 372 0
-961 374 0
-962 375 0
-963 376 0
-964 377 0
-965 378 0
-966 379 0
-967 380 0
-968 381 0
-969 383 0
-970 384 0
-971 385 0
-972 386 0
-973 387 0
-974 388 0
-975 389 0
-976 390 0
-977 392 0
-978 393 0
-979 394 0
-980 395 0
-981 396 0
-982 397 0
-983 398 0
-984 399 0
-985 401 0
-986 402 0
-987 403 0
-988 404 0
-989 405 0
-990 406 0
-991 407 0
-992 408 0
-929 473 0
-930 474 0
-931 475 0
-932 476 0
-933 477 0
-934 478 0
-935 479 0
-936 480 0
-937 481 0
-938 482 0
-939 483 0
-940 484 0
-941 485 0
-942 486 0
-943 487 0
-944 488 0
-945 489 0
-946 490 0
-947 491 0
-948 492 0
-949 493 0
-950 494 0
-951 495 0
-952 496 0
-953 497 0
-954 498 0
-955 499 0
-956 500 0
-957 501 0
-958 502 0
-959 503 0
-960 504 0
-961 505 0
-962 506 0
-963 507 0
-964 508 0
-965 509 0
-966 510 0
-967 511 0
-968 512 0
-969 513 0
-970 514 0
-971 515 0
-972 516 0
-973 517 0
-974 518 0
-975 519 0
-976 520 0
-977 521 0
-978 522 0
-979 523 0
-980 524 0
-981 525 0
-982 526 0
-983 527 0
-984 528 0
-985 529 0
-986 530 0
-987 531 0
-988 532 0
-989 533 0
-990 534 0
-991 535 0
-992 536 0
-929 665 0
-930 666 0
-931 667 0
-932 668 0
-933 669 0
-934 670 0
-935 671 0
-936 672 0
-937 673 0
-938 674 0
-939 675 0
-940 676 0
-941 677 0
-942 678 0
-943 679 0
-944 680 0
-945 681 0
-946 682 0
-947 683 0
-948 684 0
-949 685 0
-950 686 0
-951 687 0
-952 688 0
-953 689 0
-954 690 0
-955 691 0
-956 692 0
-957 693 0
-958 694 0
-959 695 0
-960 696 0
-961 697 0
-962 698 0
-963 699 0
-964 700 0
-965 701 0
-966 702 0
-967 703 0
-968 704 0
-969 705 0
-970 706 0
-971 707 0
-972 708 0
-973 709 0
-974 710 0
-975 711 0
-976 712 0
-977 713 0
-978 714 0
-979 715 0
-980 716 0
-981 717 0
-982 718 0
-983 719 0
-984 720 0
-985 721 0
-986 722 0
-987 723 0
-988 724 0
-989 725 0
-990 726 0
-991 727 0
-992 728 0
-929 730 0
-930 732 0
-931 734 0
-932 736 0
-933 738 0
-934 740 0
-935 742 0
-936 744 0
-937 745 0
-938 746 0
-939 747 0
-940 748 0
-941 749 0
-942 750 0
-943 751 0
-944 752 0
-945 753 0
-946 754 0
-947 755 0
-948 756 0
-949 757 0
-950 758 0
-951 759 0
-952 760 0
-953 761 0
-954 762 0
-955 763 0
-956 764 0
-957 765 0
-958 766 0
-959 767 0
-960 768 0
-961 769 0
-962 770 0
-963 771 0
-964 772 0
-965 773 0
-966 774 0
-967 775 0
-968 776 0
-969 777 0
-970 778 0
-971 779 0
-972 780 0
-973 781 0
-974 782 0
-975 783 0
-976 784 0
-977 785 0
-978 786 0
-979 787 0
-980 788 0
-981 789 0
-982 790 0
-983 791 0
-984 792 0
-985 793 0
-986 794 0
-987 795 0
-988 796 0
-989 797 0
-990 798 0
-991 799 0
-992 800 0
-929 801 0
-930 802 0
-931 803 0
-932 804 0
-933 805 0
-934 806 0
-935 807 0
-936 808 0
-937 809 0
-938 810 0
-939 811 0
-940 812 0
-941 813 0
-942 814 0
-943 815 0
-944 816 0
-945 817 0
-946 818 0
-947 819 0
-948 820 0
-949 821 0
-950 822 0
-951 823 0
-952 824 0
-953 825 0
-954 826 0
-955 827 0
-956 828 0
-957 829 0
-958 830 0
-959 831 0
-960 832 0
-961 833 0
-962 834 0
-963 835 0
-964 836 0
-965 837 0
-966 838 0
-967 839 0
-968 840 0
-969 841 0
-970 842 0
-971 843 0
-972 844 0
-973 845 0
-974 846 0
-975 847 0
-976 848 0
-977 849 0
-978 850 0
-979 851 0
-980 852 0
-981 853 0
-982 854 0
-983 855 0
-984 856 0
-985 857 0
-986 858 0
-987 859 0
-988 860 0
-989 861 0
-990 862 0
-991 863 0
-992 864 0
-929 865 0
-930 866 0
-931 867 0
-932 868 0
-933 869 0
-934 870 0
-935 871 0
-936 872 0
-937 873 0
-938 874 0
-939 875 0
-940 876 0
-941 877 0
-942 878 0
-943 879 0
-944 880 0
-945 881 0
-946 882 0
-947 883 0
-948 884 0
-949 885 0
-950 886 0
-951 887 0
-952 888 0
-953 889 0
-954 890 0
-955 891 0
-956 892 0
-957 893 0
-958 894 0
-959 895 0
-960 896 0
-961 897 0
-962 898 0
-963 899 0
-964 900 0
-965 901 0
-966 902 0
-967 903 0
-968 904 0
-969 905 0
-970 906 0
-971 907 0
-972 908 0
-973 909 0
-974 910 0
-975 911 0
-976 912 0
-977 913 0
-978 914 0
-979 915 0
-980 916 0
-981 917 0
-982 918 0
-983 919 0
-984 920 0
-985 921 0
-986 922 0
-987 923 0
-988 924 0
-989 925 0
-990 926 0
-991 927 0
-992 928 0
929 0
930 0
931 0
932 0
933 0
934 0
935 0
936 0
937 0
938 0
939 0
940 0
941 0
942 0
943 0
944 0
945 0
946 0
947 0
948 0
949 0
950 0
951 0
952 0
953 0
954 0
955 0
956 0
957 0
958 0
959 0
960 0
961 0
962 0
963 0
964 0
965 0
966 0
967 0
968 0
969 0
970 0
971 0
972 0
973 0
974 0
975 0
976 0
977 0
978 0
979 0
980 0
981 0
982 0
983 0
984 0
985 0
986 0
987 0
988 0
989 0
990 0
991 0
992 0
-340 0
-330 0
17 0
-400 0
731 0
5 0
11 0
-338 0
-737 0
-373 0
8 0
20 0
-739 0
329 0
-332 0
-336 0
-334 0
-342 0
2 0
-382 0
355 0
23 0
-735 0
-733 0
-741 0
-729 0
-346 0
-344 0
-364 0
-743 0
-391 0
14 0
1 0
25 4 0
-25 -4 0
-25 -43 41 0
-25 -59 57 0
-25 -75 73 0
-25 -91 89 0
-25 -107 105 0
-25 -123 121 0
41 7 0
-41 -7 0
-41 -29 25 0
-41 -61 57 0
-41 -77 73 0
-41 -93 89 0
-41 -109 105 0
-41 -125 121 0
57 10 0
-57 -10 0
-57 -31 25 0
-57 -47 41 0
-57 -79 73 0
-57 -95 89 0
-57 -111 105 0
-57 -127 121 0
73 13 0
-73 -13 0
-73 -33 25 0
-73 -49 41 0
-73 -65 57 0
-73 -97 89 0
-73 -113 105 0
-73 -129 121 0
89 16 0
-89 -16 0
-89 -35 25 0
-89 -51 41 0
-89 -67 57 0
-89 -83 73 0
-89 -115 105 0
-89 -131 121 0
105 19 0
-105 -19 0
-105 -37 25 0
-105 -53 41 0
-105 -69 57 0
-105 -85 73 0
-105 -101 89 0
-105 -133 121 0
121 22 0
-121 -22 0
-121 -39 25 0
-121 -55 41 0
-121 -71 57 0
-121 -87 73 0
-121 -103 89 0
-121 -119 105 0
27 0
4 25 0
-4 -25 0
-4 -41 43 0
-4 -57 59 0
-4 -73 75 0
-4 -89 91 0
-4 -105 107 0
-4 -121 123 0
43 29 0
-43 -29 0
-43 -7 4 0
-43 -61 59 0
-43 -77 75 0
-43 -93 91 0
-43 -109 107 0
-43 -125 123 0
59 31 0
-59 -31 0
-59 -10 4 0
-59 -47 43 0
-59 -79 75 0
-59 -95 91 0
-59 -111 107 0
-59 -127 123 0
75 33 0
-75 -33 0
-75 -13 4 0
-75 -49 43 0
-75 -65 59 0
-75 -97 91 0
-75 -113 107 0
-75 -129 123 0
91 35 0
-91 -35 0
-91 -16 4 0
-91 -51 43 0
-91 -67 59 0
-91 -83 75 0
-91 -115 107 0
-91 -131 123 0
107 37 0
-107 -37 0
-107 -19 4 0
-107 -53 43 0
-107 -69 59 0
-107 -85 75 0
-107 -101 91 0
-107 -133 123 0
123 39 0
-123 -39 0
-123 -22 4 0
-123 -55 43 0
-123 -71 59 0
-123 -87 75 0
-123 -103 91 0
-123 -119 107 0
45 0
7 41 0
-7 -41 0
-7 -25 29 0
-7 -57 61 0
-7 -73 77 0
-7 -89 93 0
-7 -105 109 0
-7 -121 125 0
29 43 0
-29 -43 0
-29 -4 7 0
-29 -59 61 0
-29 -75 77 0
-29 -91 93 0
-29 -107 109 0
-29 -123 125 0
61 47 0
-61 -47 0
-61 -10 7 0
-61 -31 29 0
-61 -79 77 0
-61 -95 93 0
-61 -111 109 0
-61 -127 125 0
77 49 0
-77 -49 0
-77 -13 7 0
-77 -33 29 0
-77 -65 61 0
-77 -97 93 0
-77 -113 109 0
-77 -129 125 0
93 51 0
-93 -51 0
-93 -16 7 0
-93 -35 29 0
-93 -67 61 0
-93 -83 77 0
-93 -115 109 0
-93 -131 125 0
109 53 0
-109 -53 0
-109 -19 7 0
-109 -37 29 0
-109 -69 61 0
-109 -85 77 0
-109 -101 93 0
-109 -133 125 0
125 55 0
-125 -55 0
-125 -22 7 0
-125 -39 29 0
-125 -71 61 0
-125 -87 77 0
-125 -103 93 0
-125 -119 109 0
63 0
10 57 0
-10 -57 0
-10 -25 31 0
-10 -41 47 0
-10 -73 79 0
-10 -89 95 0
-10 -105 111 0
-10 -121 127 0
31 59 0
-31 -59 0
-31 -4 10 0
-31 -43 47 0
-31 -75 79 0
-31 -91 95 0
-31 -107 111 0
-31 -123 127 0
47 61 0
-47 -61 0
-47 -7 10 0
-47 -29 31 0
-47 -77 79 0
-47 -93 95 0
-47 -109 111 0
-47 -125 127 0
79 65 0
-79 -65 0
-79 -13 10 0
-79 -33 31 0
-79 -49 47 0
-79 -97 95 0
-79 -113 111 0
-79 -129 127 0
95 67 0
-95 -67 0
-95 -16 10 0
-95 -35 31 0
-95 -51 47 0
-95 -83 79 0
-95 -115 111 0
-95 -131 127 0
111 69 0
-111 -69 0
-111 -19 10 0
-111 -37 31 0
-111 -53 47 0
-111 -85 79 0
-111 -101 95 0
-111 -133 127 0
127 71 0
-127 -71 0
-127 -22 10 0
-127 -39 31 0
-127 -55 47 0
-127 -87 79 0
-127 -103 95 0
-127 -119 111 0
81 0
13 73 0
-13 -73 0
-13 -25 33 0
-13 -41 49 0
-13 -57 65 0
-13 -89 97 0
-13 -105 113 0
-13 -121 129 0
33 75 0
-33 -75 0
-33 -4 13 0
-33 -43 49 0
-33 -59 65 0
-33 -91 97 0
-33 -107 113 0
-33 -123 129 0
49 77 0
-49 -77 0
-49 -7 13 0
-49 -29 33 0
-49 -61 65 0
-49 -93 97 0
-49 -109 113 0
-49 -125 129 0
65 79 0
-65 -79 0
-65 -10 13 0
-65 -31 33 0
-65 -47 49 0
-65 -95 97 0
-65 -111 113 0
-65 -127 129 0
97 83 0
-97 -83 0
-97 -16 13 0
-97 -35 33 0
-97 -51 49 0
-97 -67 65 0
-97 -115 113 0
-97 -131 129 0
113 85 0
-113 -85 0
-113 -19 13 0
-113 -37 33 0
-113 -53 49 0
-113 -69 65 0
-113 -101 97 0
-113 -133 129 0
129 87 0
-129 -87 0
-129 -22 13 0
-129 -39 33 0
-129 -55 49 0
-129 -71 65 0
-129 -103 97 0
-129 -119 113 0
99 0
16 89 0
-16 -89 0
-16 -25 35 0
-16 -41 51 0
-16 -57 67 0
-16 -73 83 0
-16 -105 115 0
-16 -121 131 0
35 91 0
-35 -91 0
-35 -4 16 0
-35 -43 51 0
-35 -59 67 0
-35 -75 83 0
-35 -107 115 0
-35 -123 131 0
51 93 0
-51 -93 0
-51 -7 16 0
-51 -29 35 0
-51 -61 67 0
-51 -77 83 0
-51 -109 115 0
-51 -125 131 0
67 95 0
-67 -95 0
-67 -10 16 0
-67 -31 35 0
-67 -47 51 0
-67 -79 83 0
-67 -111 115 0
-67 -127 131 0
83 97 0
-83 -97 0
-83 -13 16 0
-83 -33 35 0
-83 -49 51 0
-83 -65 67 0
-83 -113 115 0
-83 -129 131 0
115 101 0
-115 -101 0
-115 -19 16 0
-115 -37 35 0
-115 -53 51 0
-115 -69 67 0
-115 -85 83 0
-115 -133 131 0
131 103 0
-131 -103 0
-131 -22 16 0
-131 -39 35 0
-131 -55 51 0
-131 -71 67 0
-131 -87 83 0
-131 -119 115 0
117 0
19 105 0
-19 -105 0
-19 -25 37 0
-19 -41 53 0
-19 -57 69 0
-19 -73 85 0
-19 -89 101 0
-19 -121 133 0
37 107 0
-37 -107 0
-37 -4 19 0
-37 -43 53 0
-37 -59 69 0
-37 -75 85 0
-37 -91 101 0
-37 -123 133 0
53 109 0
-53 -109 0
-53 -7 19 0
-53 -29 37 0
-53 -61 69 0
-53 -77 85 0
-53 -93 101 0
-53 -125 133 0
69 111 0
-69 -111 0
-69 -10 19 0
-69 -31 37 0
-69 -47 53 0
-69 -79 85 0
-69 -95 101 0
-69 -127 133 0
85 113 0
-85 -113 0
-85 -13 19 0
-85 -33 37 0
-85 -49 53 0
-85 -65 69 0
-85 -97 101 0
-85 -129 133 0
101 115 0
-101 -115 0
-101 -16 19 0
-101 -35 37 0
-101 -51 53 0
-101 -67 69 0
-101 -83 85 0
-101 -131 133 0
133 119 0
-133 -119 0
-133 -22 19 0
-133 -39 37 0
-133 -55 53 0
-133 -71 69 0
-133 -87 85 0
-133 -103 101 0
135 0
22 121 0
-22 -121 0
-22 -25 39 0
-22 -41 55 0
-22 -57 71 0
-22 -73 87 0
-22 -89 103 0
-22 -105 119 0
39 123 0
-39 -123 0
-39 -4 22 0
-39 -43 55 0
-39 -59 71 0
-39 -75 87 0
-39 -91 103 0
-39 -107 119 0
55 125 0
-55 -125 0
-55 -7 22 0
-55 -29 39 0
-55 -61 71 0
-55 -77 87 0
-55 -93 103 0
-55 -109 119 0
71 127 0
-71 -127 0
-71 -10 22 0
-71 -31 39 0
-71 -47 55 0
-71 -79 87 0
-71 -95 103 0
-71 -111 119 0
87 129 0
-87 -129 0
-87 -13 22 0
-87 -33 39 0
-87 -49 55 0
-87 -65 71 0
-87 -97 103 0
-87 -113 119 0
103 131 0
-103 -131 0
-103 -16 22 0
-103 -35 39 0
-103 -51 55 0
-103 -67 71 0
-103 -83 87 0
-103 -115 119 0
119 133 0
-119 -133 0
-119 -19 22 0
-119 -37 39 0
-119 -53 55 0
-119 -69 71 0
-119 -85 87 0
-119 -101 103 0
-993 0
-994 25 0
-995 41 0
-995 29 0
-41 -29 995 0
-996 57 0
-996 31 0
-57 -31 996 0
-997 73 0
-997 33 0
-73 -33 997 0
-998 89 0
-998 35 0
-89 -35 998 0
-999 105 0
-999 37 0
-105 -37 999 0
-1000 121 0
-1000 39 0
-121 -39 1000 0
-994 -995 0
-994 -996 0
-994 -997 0
-994 -998 0
-994 -999 0
-994 -1000 0
-25 994 995 996 997 998 999 1000 0
-1001 41 0
-1002 25 0
-1002 43 0
-25 -43 1002 0
-1003 57 0
-1003 47 0
-57 -47 1003 0
-1004 73 0
-1004 49 0
-73 -49 1004 0
-1005 89 0
-1005 51 0
-89 -51 1005 0
-1006 105 0
-1006 53 0
-105 -53 1006 0
-1007 121 0
-1007 55 0
-121 -55 1007 0
-1001 -1002 0
-1001 -1003 0
-1001 -1004 0
-1001 -1005 0
-1001 -1006 0
-1001 -1007 0
-41 1001 1002 1003 1004 1005 1006 1007 0
-1008 57 0
-1009 25 0
-1009 59 0
-25 -59 1009 0
-1010 41 0
-1010 61 0
-41 -61 1010 0
-1011 73 0
-1011 65 0
-73 -65 1011 0
-1012 89 0
-1012 67 0
-89 -67 1012 0
-1013 105 0
-1013 69 0
-105 -69 1013 0
-1014 121 0
-1014 71 0
-121 -71 1014 0
-1008 -1009 0
-1008 -1010 0
-1008 -1011 0
-1008 -1012 0
-1008 -1013 0
-1008 -1014 0
-57 1008 1009 1010 1011 1012 1013 1014 0
-1015 73 0
-1016 25 0
-1016 75 0
-25 -75 1016 0
-1017 41 0
-1017 77 0
-41 -77 1017 0
-1018 57 0
-1018 79 0
-57 -79 1018 0
-1019 89 0
-1019 83 0
-89 -83 1019 0
-1020 105 0
-1020 85 0
-105 -85 1020 0
-1021 121 0
-1021 87 0
-121 -87 1021 0
-1015 -1016 0
-1015 -1017 0
-1015 -1018 0
-1015 -1019 0
-1015 -1020 0
-1015 -1021 0
-73 1015 1016 1017 1018 1019 1020 1021 0
-1022 89 0
-1023 25 0
-1023 91 0
-25 -91 1023 0
-1024 41 0
-1024 93 0
-41 -93 1024 0
-1025 57 0
-1025 95 0
-57 -95 1025 0
-1026 73 0
-1026 97 0
-73 -97 1026 0
-1027 105 0
-1027 101 0
-105 -101 1027 0
-1028 121 0
-1028 103 0
-121 -103 1028 0
-1022 -1023 0
-1022 -1024 0
-1022 -1025 0
-1022 -1026 0
-1022 -1027 0
-1022 -1028 0
-89 1022 1023 1024 1025 1026 1027 1028 0
-1029 105 0
-1030 25 0
-1030 107 0
-25 -107 1030 0
-1031 41 0
-1031 109 0
-41 -109 1031 0
-1032 57 0
-1032 111 0
-57 -111 1032 0
-1033 73 0
-1033 113 0
-73 -113 1033 0
-1034 89 0
-1034 115 0
-89 -115 1034 0
-1035 121 0
-1035 119 0
-121 -119 1035 0
-1029 -1030 0
-1029 -1031 0
-1029 -1032 0
-1029 -1033 0
-1029 -1034 0
-1029 -1035 0
-105 1029 1030 1031 1032 1033 1034 1035 0
-1036 121 0
-1037 25 0
-1037 123 0
-25 -123 1037 0
-1038 41 0
-1038 125 0
-41 -125 1038 0
-1039 57 0
-1039 127 0
-57 -127 1039 0
-1040 73 0
-1040 129 0
-73 -129 1040 0
-1041 89 0
-1041 131 0
-89 -131 1041 0
-1042 105 0
-1042 133 0
-105 -133 1042 0
-1036 -1037 0
-1036 -1038 0
-1036 -1039 0
-1036 -1040 0
-1036 -1041 0
-1036 -1042 0
-121 1036 1037 1038 1039 1040 1041 1042 0
-1043 4 0
-1044 43 0
-1044 7 0
-43 -7 1044 0
-1045 59 0
-1045 10 0
-59 -10 1045 0
-1046 75 0
-1046 13 0
-75 -13 1046 0
-1047 91 0
-1047 16 0
-91 -16 1047 0
-1048 107 0
-1048 19 0
-107 -19 1048 0
-1049 123 0
-1049 22 0
-123 -22 1049 0
-1043 -1044 0
-1043 -1045 0
-1043 -1046 0
-1043 -1047 0
-1043 -1048 0
-1043 -1049 0
-4 1043 1044 1045 1046 1047 1048 1049 0
-1050 0
-1051 43 0
-1052 4 0
-1052 41 0
-4 -41 1052 0
-1053 59 0
-1053 47 0
-59 -47 1053 0
-1054 75 0
-1054 49 0
-75 -49 1054 0
-1055 91 0
-1055 51 0
-91 -51 1055 0
-1056 107 0
-1056 53 0
-107 -53 1056 0
-1057 123 0
-1057 55 0
-123 -55 1057 0
-1051 -1052 0
-1051 -1053 0
-1051 -1054 0
-1051 -1055 0
-1051 -1056 0
-1051 -1057 0
-43 1051 1052 1053 1054 1055 1056 1057 0
-1058 59 0
-1059 4 0
-1059 57 0
-4 -57 1059 0
-1060 43 0
-1060 61 0
-43 -61 1060 0
-1061 75 0
-1061 65 0
-75 -65 1061 0
-1062 91 0
-1062 67 0
-91 -67 1062 0
-1063 107 0
-1063 69 0
-107 -69 1063 0
-1064 123 0
-1064 71 0
-123 -71 1064 0
-1058 -1059 0
-1058 -1060 0
-1058 -1061 0
-1058 -1062 0
-1058 -1063 0
-1058 -1064 0
-59 1058 1059 1060 1061 1062 1063 1064 0
-1065 75 0
-1066 4 0
-1066 73 0
-4 -73 1066 0
-1067 43 0
-1067 77 0
-43 -77 1067 0
-1068 59 0
-1068 79 0
-59 -79 1068 0
-1069 91 0
-1069 83 0
-91 -83 1069 0
-1070 107 0
-1070 85 0
-107 -85 1070 0
-1071 123 0
-1071 87 0
-123 -87 1071 0
-1065 -1066 0
-1065 -1067 0
-1065 -1068 0
-1065 -1069 0
-1065 -1070 0
-1065 -1071 0
-75 1065 1066 1067 1068 1069 1070 1071 0
-1072 91 0
-1073 4 0
-1073 89 0
-4 -89 1073 0
-1074 43 0
-1074 93 0
-43 -93 1074 0
-1075 59 0
-1075 95 0
-59 -95 1075 0
-1076 75 0
-1076 97 0
-75 -97 1076 0
-1077 107 0
-1077 101 0
-107 -101 1077 0
-1078 123 0
-1078 103 0
-123 -103 1078 0
-1072 -1073 0
-1072 -1074 0
-1072 -1075 0
-1072 -1076 0
-1072 -1077 0
-1072 -1078 0
-91 1072 1073 1074 1075 1076 1077 1078 0
-1079 107 0
-1080 4 0
-1080 105 0
-4 -105 1080 0
-1081 43 0
-1081 109 0
-43 -109 1081 0
-1082 59 0
-1082 111 0
-59 -111 1082 0
-1083 75 0
-1083 113 0
-75 -113 1083 0
-1084 91 0
-1084 115 0
-91 -115 1084 0
-1085 123 0
-1085 119 0
-123 -119 1085 0
-1079 -1080 0
-1079 -1081 0
-1079 -1082 0
-1079 -1083 0
-1079 -1084 0
-1079 -1085 0
-107 1079 1080 1081 1082 1083 1084 1085 0
-1086 123 0
-1087 4 0
-1087 121 0
-4 -121 1087 0
-1088 43 0
-1088 125 0
-43 -125 1088 0
-1089 59 0
-1089 127 0
-59 -127 1089 0
-1090 75 0
-1090 129 0
-75 -129 1090 0
-1091 91 0
-1091 131 0
-91 -131 1091 0
-1092 107 0
-1092 133 0
-107 -133 1092 0
-1086 -1087 0
-1086 -1088 0
-1086 -1089 0
-1086 -1090 0
-1086 -1091 0
-1086 -1092 0
-123 1086 1087 1088 1089 1090 1091 1092 0
-1093 7 0
-1094 29 0
-1094 4 0
-29 -4 1094 0
-1095 61 0
-1095 10 0
-61 -10 1095 0
-1096 77 0
-1096 13 0
-77 -13 1096 0
-1097 93 0
-1097 16 0
-93 -16 1097 0
-1098 109 0
-1098 19 0
-109 -19 1098 0
-1099 125 0
-1099 22 0
-125 -22 1099 0
-1093 -1094 0
-1093 -1095 0
-1093 -1096 0
-1093 -1097 0
-1093 -1098 0
-1093 -1099 0
-7 1093 1094 1095 1096 1097 1098 1099 0
-1100 29 0
-1101 7 0
-1101 25 0
-7 -25 1101 0
-1102 61 0
-1102 31 0
-61 -31 1102 0
-1103 77 0
-1103 33 0
-77 -33 1103 0
-1104 93 0
-1104 35 0
-93 -35 1104 0
-1105 109 0
-1105 37 0
-109 -37 1105 0
-1106 125 0
-1106 39 0
-125 -39 1106 0
-1100 -1101 0
-1100 -1102 0
-1100 -1103 0
-1100 -1104 0
-1100 -1105 0
-1100 -1106 0
-29 1100 1101 1102 1103 1104 1105 1106 0
-1107 0
-1108 61 0
-1109 7 0
-1109 57 0
-7 -57 1109 0
-1110 29 0
-1110 59 0
-29 -59 1110 0
-1111 77 0
-1111 65 0
-77 -65 1111 0
-1112 93 0
-1112 67 0
-93 -67 1112 0
-1113 109 0
-1113 69 0
-109 -69 1113 0
-1114 125 0
-1114 71 0
-125 -71 1114 0
-1108 -1109 0
-1108 -1110 0
-1108 -1111 0
-1108 -1112 0
-1108 -1113 0
-1108 -1114 0
-61 1108 1109 1110 1111 1112 1113 1114 0
-1115 77 0
-1116 7 0
-1116 73 0
-7 -73 1116 0
-1117 29 0
-1117 75 0
-29 -75 1117 0
-1118 61 0
-1118 79 0
-61 -79 1118 0
-1119 93 0
-1119 83 0
-93 -83 1119 0
-1120 109 0
-1120 85 0
-109 -85 1120 0
-1121 125 0
-1121 87 0
-125 -87 1121 0
-1115 -1116 0
-1115 -1117 0
-1115 -1118 0
-1115 -1119 0
-1115 -1120 0
-1115 -1121 0
-77 1115 1116 1117 1118 1119 1120 1121 0
-1122 93 0
-1123 7 0
-1123 89 0
-7 -89 1123 0
-1124 29 0
-1124 91 0
-29 -91 1124 0
-1125 61 0
-1125 95 0
-61 -95 1125 0
-1126 77 0
-1126 97 0
-77 -97 1126 0
-1127 109 0
-1127 101 0
-109 -101 1127 0
-1128 125 0
-1128 103 0
-125 -103 1128 0
-1122 -1123 0
-1122 -1124 0
-1122 -1125 0
-1122 -1126 0
-1122 -1127 0
-1122 -1128 0
-93 1122 1123 1124 1125 1126 1127 1128 0
-1129 109 0
-1130 7 0
-1130 105 0
-7 -105 1130 0
-1131 29 0
-1131 107 0
-29 -107 1131 0
-1132 61 0
-1132 111 0
-61 -111 1132 0
-1133 77 0
-1133 113 0
-77 -113 1133 0
-1134 93 0
-1134 115 0
-93 -115 1134 0
-1135 125 0
-1135 119 0
-125 -119 1135 0
-1129 -1130 0
-1129 -1131 0
-1129 -1132 0
-1129 -1133 0
-1129 -1134 0
-1129 -1135 0
-109 1129 1130 1131 1132 1133 1134 1135 0
-1136 125 0
-1137 7 0
-1137 121 0
-7 -121 1137 0
-1138 29 0
-1138 123 0
-29 -123 1138 0
-1139 61 0
-1139 127 0
-61 -127 1139 0
-1140 77 0
-1140 129 0
-77 -129 1140 0
-1141 93 0
-1141 131 0
-93 -131 1141 0
-1142 109 0
-1142 133 0
-109 -133 1142 0
-1136 -1137 0
-1136 -1138 0
-1136 -1139 0
-1136 -1140 0
-1136 -1141 0
-1136 -1142 0
-125 1136 1137 1138 1139 1140 1141 1142 0
-1143 10 0
-1144 31 0
-1144 4 0
-31 -4 1144 0
-1145 47 0
-1145 7 0
-47 -7 1145 0
-1146 79 0
-1146 13 0
-79 -13 1146 0
-1147 95 0
-1147 16 0
-95 -16 1147 0
-1148 111 0
-1148 19 0
-111 -19 1148 0
-1149 127 0
-1149 22 0
-127 -22 1149 0
-1143 -1144 0
-1143 -1145 0
-1143 -1146 0
-1143 -1147 0
-1143 -1148 0
-1143 -1149 0
-10 1143 1144 1145 1146 1147 1148 1149 0
-1150 31 0
-1151 10 0
-1151 25 0
-10 -25 1151 0
-1152 47 0
-1152 29 0
-47 -29 1152 0
-1153 79 0
-1153 33 0
-79 -33 1153 0
-1154 95 0
-1154 35 0
-95 -35 1154 0
-1155 111 0
-1155 37 0
-111 -37 1155 0
-1156 127 0
-1156 39 0
-127 -39 1156 0
-1150 -1151 0
-1150 -1152 0
-1150 -1153 0
-1150 -1154 0
-1150 -1155 0
-1150 -1156 0
-31 1150 1151 1152 1153 1154 1155 1156 0
-1157 47 0
-1158 10 0
-1158 41 0
-10 -41 1158 0
-1159 31 0
-1159 43 0
-31 -43 1159 0
-1160 79 0
-1160 49 0
-79 -49 1160 0
-1161 95 0
-1161 51 0
-95 -51 1161 0
-1162 111 0
-1162 53 0
-111 -53 1162 0
-1163 127 0
-1163 55 0
-127 -55 1163 0
-1157 -1158 0
-1157 -1159 0
-1157 -1160 0
-1157 -1161 0
-1157 -1162 0
-1157 -1163 0
-47 1157 1158 1159 1160 1161 1162 1163 0
-1164 0
-1165 79 0
-1166 10 0
-1166 73 0
-10 -73 1166 0
-1167 31 0
-1167 75 0
-31 -75 1167 0
-1168 47 0
-1168 77 0
-47 -77 1168 0
-1169 95 0
-1169 83 0
-95 -83 1169 0
-1170 111 0
-1170 85 0
-111 -85 1170 0
-1171 127 0
-1171 87 0
-127 -87 1171 0
-1165 -1166 0
-1165 -1167 0
-1165 -1168 0
-1165 -1169 0
-1165 -1170 0
-1165 -1171 0
-79 1165 1166 1167 1168 1169 1170 1171 0
-1172 95 0
-1173 10 0
-1173 89 0
-10 -89 1173 0
-1174 31 0
-1174 91 0
-31 -91 1174 0
-1175 47 0
-1175 93 0
-47 -93 1175 0
-1176 79 0
-1176 97 0
-79 -97 1176 0
-1177 111 0
-1177 101 0
-111 -101 1177 0
-1178 127 0
-1178 103 0
-127 -103 1178 0
-1172 -1173 0
-1172 -1174 0
-1172 -1175 0
-1172 -1176 0
-1172 -1177 0
-1172 -1178 0
-95 1172 1173 1174 1175 1176 1177 1178 0
-1179 111 0
-1180 10 0
-1180 105 0
-10 -105 1180 0
-1181 31 0
-1181 107 0
-31 -107 1181 0
-1182 47 0
-1182 109 0
-47 -109 1182 0
-1183 79 0
-1183 113 0
-79 -113 1183 0
-1184 95 0
-1184 115 0
-95 -115 1184 0
-1185 127 0
-1185 119 0
-127 -119 1185 0
-1179 -1180 0
-1179 -1181 0
-1179 -1182 0
-1179 -1183 0
-1179 -1184 0
-1179 -1185 0
-111 1179 1180 1181 1182 1183 1184 1185 0
-1186 127 0
-1187 10 0
-1187 121 0
-10 -121 1187 0
-1188 31 0
-1188 123 0
-31 -123 1188 0
-1189 47 0
-1189 125 0
-47 -125 1189 0
-1190 79 0
-1190 129 0
-79 -129 1190 0
-1191 95 0
-1191 131 0
-95 -131 1191 0
-1192 111 0
-1192 133 0
-111 -133 1192 0
-1186 -1187 0
-1186 -1188 0
-1186 -1189 0
-1186 -1190 0
-1186 -1191 0
-1186 -1192 0
-127 1186 1187 1188 1189 1190 1191 1192 0
-1193 13 0
-1194 33 0
-1194 4 0
-33 -4 1194 0
-1195 49 0
-1195 7 0
-49 -7 1195 0
-1196 65 0
-1196 10 0
-65 -10 1196 0
-1197 97 0
-1197 16 0
-97 -16 1197 0
-1198 113 0
-1198 19 0
-113 -19 1198 0
-1199 129 0
-1199 22 0
-129 -22 1199 0
-1193 -1194 0
-1193 -1195 0
-1193 -1196 0
-1193 -1197 0
-1193 -1198 0
-1193 -1199 0
-13 1193 1194 1195 1196 1197 1198 1199 0
-1200 33 0
-1201 13 0
-1201 25 0
-13 -25 1201 0
-1202 49 0
-1202 29 0
-49 -29 1202 0
-1203 65 0
-1203 31 0
-65 -31 1203 0
-1204 97 0
-1204 35 0
-97 -35 1204 0
-1205 113 0
-1205 37 0
-113 -37 1205 0
-1206 129 0
-1206 39 0
-129 -39 1206 0
-1200 -1201 0
-1200 -1202 0
-1200 -1203 0
-1200 -1204 0
-1200 -1205 0
-1200 -1206 0
-33 1200 1201 1202 1203 1204 1205 1206 0
-1207 49 0
-1208 13 0
-1208 41 0
-13 -41 1208 0
-1209 33 0
-1209 43 0
-33 -43 1209 0
-1210 65 0
-1210 47 0
-65 -47 1210 0
-1211 97 0
-1211 51 0
-97 -51 1211 0
-1212 113 0
-1212 53 0
-113 -53 1212 0
-1213 129 0
-1213 55 0
-129 -55 1213 0
-1207 -1208 0
-1207 -1209 0
-1207 -1210 0
-1207 -1211 0
-1207 -1212 0
-1207 -1213 0
-49 1207 1208 1209 1210 1211 1212 1213 0
-1214 65 0
-1215 13 0
-1215 57 0
-13 -57 1215 0
-1216 33 0
-1216 59 0
-33 -59 1216 0
-1217 49 0
-1217 61 0
-49 -61 1217 0
-1218 97 0
-1218 67 0
-97 -67 1218 0
-1219 113 0
-1219 69 0
-113 -69 1219 0
-1220 129 0
-1220 71 0
-129 -71 1220 0
-1214 -1215 0
-1214 -1216 0
-1214 -1217 0
-1214 -1218 0
-1214 -1219 0
-1214 -1220 0
-65 1214 1215 1216 1217 1218 1219 1220 0
-1221 0
-1222 97 0
-1223 13 0
-1223 89 0
-13 -89 1223 0
-1224 33 0
-1224 91 0
-33 -91 1224 0
-1225 49 0
-1225 93 0
-49 -93 1225 0
-1226 65 0
-1226 95 0
-65 -95 1226 0
-1227 113 0
-1227 101 0
-113 -101 1227 0
-1228 129 0
-1228 103 0
-129 -103 1228 0
-1222 -1223 0
-1222 -1224 0
-1222 -1225 0
-1222 -1226 0
-1222 -1227 0
-1222 -1228 0
-97 1222 1223 1224 1225 1226 1227 1228 0
-1229 113 0
-1230 13 0
-1230 105 0
-13 -105 1230 0
-1231 33 0
-1231 107 0
-33 -107 1231 0
-1232 49 0
-1232 109 0
-49 -109 1232 0
-1233 65 0
-1233 111 0
-65 -111 1233 0
-1234 97 0
-1234 115 0
-97 -115 1234 0
-1235 129 0
-1235 119 0
-129 -119 1235 0
-1229 -1230 0
-1229 -1231 0
-1229 -1232 0
-1229 -1233 0
-1229 -1234 0
-1229 -1235 0
-113 1229 1230 1231 1232 1233 1234 1235 0
-1236 129 0
-1237 13 0
-1237 121 0
-13 -121 1237 0
-1238 33 0
-1238 123 0
-33 -123 1238 0
-1239 49 0
-1239 125 0
-49 -125 1239 0
-1240 65 0
-1240 127 0
-65 -127 1240 0
-1241 97 0
-1241 131 0
-97 -131 1241 0
-1242 113 0
-1242 133 0
-113 -133 1242 0
-1236 -1237 0
-1236 -1238 0
-1236 -1239 0
-1236 -1240 0
-1236 -1241 0
-1236 -1242 0
-129 1236 1237 1238 1239 1240 1241 1242 0
-1243 16 0
-1244 35 0
-1244 4 0
-35 -4 1244 0
-1245 51 0
-1245 7 0
-51 -7 1245 0
-1246 67 0
-1246 10 0
-67 -10 1246 0
-1247 83 0
-1247 13 0
-83 -13 1247 0
-1248 115 0
-1248 19 0
-115 -19 1248 0
-1249 131 0
-1249 22 0
-131 -22 1249 0
-1243 -1244 0
-1243 -1245 0
-1243 -1246 0
-1243 -1247 0
-1243 -1248 0
-1243 -1249 0
-16 1243 1244 1245 1246 1247 1248 1249 0
-1250 35 0
-1251 16 0
-1251 25 0
-16 -25 1251 0
-1252 51 0
-1252 29 0
-51 -29 1252 0
-1253 67 0
-1253 31 0
-67 -31 1253 0
-1254 83 0
-1254 33 0
-83 -33 1254 0
-1255 115 0
-1255 37 0
-115 -37 1255 0
-1256 131 0
-1256 39 0
-131 -39 1256 0
-1250 -1251 0
-1250 -1252 0
-1250 -1253 0
-1250 -1254 0
-1250 -1255 0
-1250 -1256 0
-35 1250 1251 1252 1253 1254 1255 1256 0
-1257 51 0
-1258 16 0
-1258 41 0
-16 -41 1258 0
-1259 35 0
-1259 43 0
-35 -43 1259 0
-1260 67 0
-1260 47 0
-67 -47 1260 0
-1261 83 0
-1261 49 0
-83 -49 1261 0
-1262 115 0
-1262 53 0
-115 -53 1262 0
-1263 131 0
-1263 55 0
-131 -55 1263 0
-1257 -1258 0
-1257 -1259 0
-1257 -1260 0
-1257 -1261 0
-1257 -1262 0
-1257 -1263 0
-51 1257 1258 1259 1260 1261 1262 1263 0
-1264 67 0
-1265 16 0
-1265 57 0
-16 -57 1265 0
-1266 35 0
-1266 59 0
-35 -59 1266 0
-1267 51 0
-1267 61 0
-51 -61 1267 0
-1268 83 0
-1268 65 0
-83 -65 1268 0
-1269 115 0
-1269 69 0
-115 -69 1269 0
-1270 131 0
-1270 71 0
-131 -71 1270 0
-1264 -1265 0
-1264 -1266 0
-1264 -1267 0
-1264 -1268 0
-1264 -1269 0
-1264 -1270 0
-67 1264 1265 1266 1267 1268 1269 1270 0
-1271 83 0
-1272 16 0
-1272 73 0
-16 -73 1272 0
-1273 35 0
-1273 75 0
-35 -75 1273 0
-1274 51 0
-1274 77 0
-51 -77 1274 0
-1275 67 0
-1275 79 0
-67 -79 1275 0
-1276 115 0
-1276 85 0
-115 -85 1276 0
-1277 131 0
-1277 87 0
-131 -87 1277 0
-1271 -1272 0
-1271 -1273 0
-1271 -1274 0
-1271 -1275 0
-1271 -1276 0
-1271 -1277 0
-83 1271 1272 1273 1274 1275 1276 1277 0
-1278 0
-1279 115 0
-1280 16 0
-1280 105 0
-16 -105 1280 0
-1281 35 0
-1281 107 0
-35 -107 1281 0
-1282 51 0
-1282 109 0
-51 -109 1282 0
-1283 67 0
-1283 111 0
-67 -111 1283 0
-1284 83 0
-1284 113 0
-83 -113 1284 0
-1285 131 0
-1285 119 0
-131 -119 1285 0
-1279 -1280 0
-1279 -1281 0
-1279 -1282 0
-1279 -1283 0
-1279 -1284 0
-1279 -1285 0
-115 1279 1280 1281 1282 1283 1284 1285 0
-1286 131 0
-1287 16 0
-1287 121 0
-16 -121 1287 0
-1288 35 0
-1288 123 0
-35 -123 1288 0
-1289 51 0
-1289 125 0
-51 -125 1289 0
-1290 67 0
-1290 127 0
-67 -127 1290 0
-1291 83 0
-1291 129 0
-83 -129 1291 0
-1292 115 0
-1292 133 0
-115 -133 1292 0
-1286 -1287 0
-1286 -1288 0
-1286 -1289 0
-1286 -1290 0
-1286 -1291 0
-1286 -1292 0
-131 1286 1287 1288 1289 1290 1291 1292 0
-1293 19 0
-1294 37 0
-1294 4 0
-37 -4 1294 0
-1295 53 0
-1295 7 0
-53 -7 1295 0
-1296 69 0
-1296 10 0
-69 -10 1296 0
-1297 85 0
-1297 13 0
-85 -13 1297 0
-1298 101 0
-1298 16 0
-101 -16 1298 0
-1299 133 0
-1299 22 0
-133 -22 1299 0
-1293 -1294 0
-1293 -1295 0
-1293 -1296 0
-1293 -1297 0
-1293 -1298 0
-1293 -1299 0
-19 1293 1294 1295 1296 1297 1298 1299 0
-1300 37 0
-1301 19 0
-1301 25 0
-19 -25 1301 0
-1302 53 0
-1302 29 0
-53 -29 1302 0
-1303 69 0
-1303 31 0
-69 -31 1303 0
-1304 85 0
-1304 33 0
-85 -33 1304 0
-1305 101 0
-1305 35 0
-101 -35 1305 0
-1306 133 0
-1306 39 0
-133 -39 1306 0
-1300 -1301 0
-1300 -1302 0
-1300 -1303 0
-1300 -1304 0
-1300 -1305 0
-1300 -1306 0
-37 1300 1301 1302 1303 1304 1305 1306 0
-1307 53 0
-1308 19 0
-1308 41 0
-19 -41 1308 0
-1309 37 0
-1309 43 0
-37 -43 1309 0
-1310 69 0
-1310 47 0
-69 -47 1310 0
-1311 85 0
-1311 49 0
-85 -49 1311 0
-1312 101 0
-1312 51 0
-101 -51 1312 0
-1313 133 0
-1313 55 0
-133 -55 1313 0
-1307 -1308 0
-1307 -1309 0
-1307 -1310 0
-1307 -1311 0
-1307 -1312 0
-1307 -1313 0
-53 1307 1308 1309 1310 1311 1312 1313 0
-1314 69 0
-1315 19 0
-1315 57 0
-19 -57 1315 0
-1316 37 0
-1316 59 0
-37 -59 1316 0
-1317 53 0
-1317 61 0
-53 -61 1317 0
-1318 85 0
-1318 65 0
-85 -65 1318 0
-1319 101 0
-1319 67 0
-101 -67 1319 0
-1320 133 0
-1320 71 0
-133 -71 1320 0
-1314 -1315 0
-1314 -1316 0
-1314 -1317 0
-1314 -1318 0
-1314 -1319 0
-1314 -1320 0
-69 1314 1315 1316 1317 1318 1319 1320 0
-1321 85 0
-1322 19 0
-1322 73 0
-19 -73 1322 0
-1323 37 0
-1323 75 0
-37 -75 1323 0
-1324 53 0
-1324 77 0
-53 -77 1324 0
-1325 69 0
-1325 79 0
-69 -79 1325 0
-1326 101 0
-1326 83 0
-101 -83 1326 0
-1327 133 0
-1327 87 0
-133 -87 1327 0
-1321 -1322 0
-1321 -1323 0
-1321 -1324 0
-1321 -1325 0
-1321 -1326 0
-1321 -1327 0
-85 1321 1322 1323 1324 1325 1326 1327 0
-1328 101 0
-1329 19 0
-1329 89 0
-19 -89 1329 0
-1330 37 0
-1330 91 0
-37 -91 1330 0
-1331 53 0
-1331 93 0
-53 -93 1331 0
-1332 69 0
-1332 95 0
-69 -95 1332 0
-1333 85 0
-1333 97 0
-85 -97 1333 0
-1334 133 0
-1334 103 0
-133 -103 1334 0
-1328 -1329 0
-1328 -1330 0
-1328 -1331 0
-1328 -1332 0
-1328 -1333 0
-1328 -1334 0
-101 1328 1329 1330 1331 1332 1333 1334 0
-1335 0
-1336 133 0
-1337 19 0
-1337 121 0
-19 -121 1337 0
-1338 37 0
-1338 123 0
-37 -123 1338 0
-1339 53 0
-1339 125 0
-53 -125 1339 0
-1340 69 0
-1340 127 0
-69 -127 1340 0
-1341 85 0
-1341 129 0
-85 -129 1341 0
-1342 101 0
-1342 131 0
-101 -131 1342 0
-1336 -1337 0
-1336 -1338 0
-1336 -1339 0
-1336 -1340 0
-1336 -1341 0
-1336 -1342 0
-133 1336 1337 1338 1339 1340 1341 1342 0
-1343 22 0
-1344 39 0
-1344 4 0
-39 -4 1344 0
-1345 55 0
-1345 7 0
-55 -7 1345 0
-1346 71 0
-1346 10 0
-71 -10 1346 0
-1347 87 0
-1347 13 0
-87 -13 1347 0
-1348 103 0
-1348 16 0
-103 -16 1348 0
-1349 119 0
-1349 19 0
-119 -19 1349 0
-1343 -1344 0
-1343 -1345 0
-1343 -1346 0
-1343 -1347 0
-1343 -1348 0
-1343 -1349 0
-22 1343 1344 1345 1346 1347 1348 1349 0
-1350 39 0
-1351 22 0
-1351 25 0
-22 -25 1351 0
-1352 55 0
-1352 29 0
-55 -29 1352 0
-1353 71 0
-1353 31 0
-71 -31 1353 0
-1354 87 0
-1354 33 0
-87 -33 1354 0
-1355 103 0
-1355 35 0
-103 -35 1355 0
-1356 119 0
-1356 37 0
-119 -37 1356 0
-1350 -1351 0
-1350 -1352 0
-1350 -1353 0
-1350 -1354 0
-1350 -1355 0
-1350 -1356 0
-39 1350 1351 1352 1353 1354 1355 1356 0
-1357 55 0
-1358 22 0
-1358 41 0
-22 -41 1358 0
-1359 39 0
-1359 43 0
-39 -43 1359 0
-1360 71 0
-1360 47 0
-71 -47 1360 0
-1361 87 0
-1361 49 0
-87 -49 1361 0
-1362 103 0
-1362 51 0
-103 -51 1362 0
-1363 119 0
-1363 53 0
-119 -53 1363 0
-1357 -1358 0
-1357 -1359 0
-1357 -1360 0
-1357 -1361 0
-1357 -1362 0
-1357 -1363 0
-55 1357 1358 1359 1360 1361 1362 1363 0
-1364 71 0
-1365 22 0
-1365 57 0
-22 -57 1365 0
-1366 39 0
-1366 59 0
-39 -59 1366 0
-1367 55 0
-1367 61 0
-55 -61 1367 0
-1368 87 0
-1368 65 0
-87 -65 1368 0
-1369 103 0
-1369 67 0
-103 -67 1369 0
-1370 119 0
-1370 69 0
-119 -69 1370 0
-1364 -1365 0
-1364 -1366 0
-1364 -1367 0
-1364 -1368 0
-1364 -1369 0
-1364 -1370 0
-71 1364 1365 1366 1367 1368 1369 1370 0
-1371 87 0
-1372 22 0
-1372 73 0
-22 -73 1372 0
-1373 39 0
-1373 75 0
-39 -75 1373 0
-1374 55 0
-1374 77 0
-55 -77 1374 0
-1375 71 0
-1375 79 0
-71 -79 1375 0
-1376 103 0
-1376 83 0
-103 -83 1376 0
-1377 119 0
-1377 85 0
-119 -85 1377 0
-1371 -1372 0
-1371 -1373 0
-1371 -1374 0
-1371 -1375 0
-1371 -1376 0
-1371 -1377 0
-87 1371 1372 1373 1374 1375 1376 1377 0
-1378 103 0
-1379 22 0
-1379 89 0
-22 -89 1379 0
-1380 39 0
-1380 91 0
-39 -91 1380 0
-1381 55 0
-1381 93 0
-55 -93 1381 0
-1382 71 0
-1382 95 0
-71 -95 1382 0
-1383 87 0
-1383 97 0
-87 -97 1383 0
-1384 119 0
-1384 101 0
-119 -101 1384 0
-1378 -1379 0
-1378 -1380 0
-1378 -1381 0
-1378 -1382 0
-1378 -1383 0
-1378 -1384 0
-103 1378 1379 1380 1381 1382 1383 1384 0
-1385 119 0
-1386 22 0
-1386 105 0
-22 -105 1386 0
-1387 39 0
-1387 107 0
-39 -107 1387 0
-1388 55 0
-1388 109 0
-55 -109 1388 0
-1389 71 0
-1389 111 0
-71 -111 1389 0
-1390 87 0
-1390 113 0
-87 -113 1390 0
-1391 103 0
-1391 115 0
-103 -115 1391 0
-1385 -1386 0
-1385 -1387 0
-1385 -1388 0
-1385 -1389 0
-1385 -1390 0
-1385 -1391 0
-119 1385 1386 1387 1388 1389 1390 1391 0
-1392 0
-1393 1 0
-1393 25 0
-1393 41 0
-1393 57 0
-1393 73 0
-1393 89 0
-1393 105 0
-1393 121 0
-1 -25 -41 -57 -73 -89 -105 -121 1393 0
-1394 1 0
-1394 4 0
-1394 7 0
-1394 10 0
-1394 13 0
-1394 16 0
-1394 19 0
-1394 22 0
-1 -4 -7 -10 -13 -16 -19 -22 1394 0
-1395 4 0
-1395 27 0
-1395 43 0
-1395 59 0
-1395 75 0
-1395 91 0
-1395 107 0
-1395 123 0
-4 -27 -43 -59 -75 -91 -107 -123 1395 0
-1396 25 0
-1396 27 0
-1396 29 0
-1396 31 0
-1396 33 0
-1396 35 0
-1396 37 0
-1396 39 0
-25 -27 -29 -31 -33 -35 -37 -39 1396 0
-1397 7 0
-1397 29 0
-1397 45 0
-1397 61 0
-1397 77 0
-1397 93 0
-1397 109 0
-1397 125 0
-7 -29 -45 -61 -77 -93 -109 -125 1397 0
-1398 41 0
-1398 43 0
-1398 45 0
-1398 47 0
-1398 49 0
-1398 51 0
-1398 53 0
-1398 55 0
-41 -43 -45 -47 -49 -51 -53 -55 1398 0
-1399 10 0
-1399 31 0
-1399 47 0
-1399 63 0
-1399 79 0
-1399 95 0
-1399 111 0
-1399 127 0
-10 -31 -47 -63 -79 -95 -111 -127 1399 0
-1400 57 0
-1400 59 0
-1400 61 0
-1400 63 0
-1400 65 0
-1400 67 0
-1400 69 0
-1400 71 0
-57 -59 -61 -63 -65 -67 -69 -71 1400 0
-1401 13 0
-1401 33 0
-1401 49 0
-1401 65 0
-1401 81 0
-1401 97 0
-1401 113 0
-1401 129 0
-13 -33 -49 -65 -81 -97 -113 -129 1401 0
-1402 73 0
-1402 75 0
-1402 77 0
-1402 79 0
-1402 81 0
-1402 83 0
-1402 85 0
-1402 87 0
-73 -75 -77 -79 -81 -83 -85 -87 1402 0
-1403 16 0
-1403 35 0
-1403 51 0
-1403 67 0
-1403 83 0
-1403 99 0
-1403 115 0
-1403 131 0
-16 -35 -51 -67 -83 -99 -115 -131 1403 0
-1404 89 0
-1404 91 0
-1404 93 0
-1404 95 0
-1404 97 0
-1404 99 0
-1404 101 0
-1404 103 0
-89 -91 -93 -95 -97 -99 -101 -103 1404 0
-1405 19 0
-1405 37 0
-1405 53 0
-1405 69 0
-1405 85 0
-1405 101 0
-1405 117 0
-1405 133 0
-19 -37 -53 -69 -85 -101 -117 -133 1405 0
-1406 105 0
-1406 107 0
-1406 109 0
-1406 111 0
-1406 113 0
-1406 115 0
-1406 117 0
-1406 119 0
-105 -107 -109 -111 -113 -115 -117 -119 1406 0
-1407 22 0
-1407 39 0
-1407 55 0
-1407 71 0
-1407 87 0
-1407 103 0
-1407 119 0
-1407 135 0
-22 -39 -55 -71 -87 -103 -119 -135 1407 0
-1408 121 0
-1408 123 0
-1408 125 0
-1408 127 0
-1408 129 0
-1408 131 0
-1408 133 0
-1408 135 0
-121 -123 -125 -127 -129 -131 -133 -135 1408 0
-993 537 0
-1394 -1393 537 0
-537 993 1394 0
-537 993 1393 0
-994 553 0
-1394 -1395 553 0
-553 994 1394 0
-553 994 1395 0
-1001 569 0
-1394 -1397 569 0
-569 1001 1394 0
-569 1001 1397 0
-1008 585 0
-1394 -1399 585 0
-585 1008 1394 0
-585 1008 1399 0
-1015 601 0
-1394 -1401 601 0
-601 1015 1394 0
-601 1015 1401 0
-1022 617 0
-1394 -1403 617 0
-617 1022 1394 0
-617 1022 1403 0
-1029 633 0
-1394 -1405 633 0
-633 1029 1394 0
-633 1029 1405 0
-1036 649 0
-1394 -1407 649 0
-649 1036 1394 0
-649 1036 1407 0
-1043 539 0
-1396 -1393 539 0
-539 1043 1396 0
-539 1043 1393 0
-1050 555 0
-1396 -1395 555 0
-555 1050 1396 0
-555 1050 1395 0
-1051 571 0
-1396 -1397 571 0
-571 1051 1396 0
-571 1051 1397 0
-1058 587 0
-1396 -1399 587 0
-587 1058 1396 0
-587 1058 1399 0
-1065 603 0
-1396 -1401 603 0
-603 1065 1396 0
-603 1065 1401 0
-1072 619 0
-1396 -1403 619 0
-619 1072 1396 0
-619 1072 1403 0
-1079 635 0
-1396 -1405 635 0
-635 1079 1396 0
-635 1079 1405 0
-1086 651 0
-1396 -1407 651 0
-651 1086 1396 0
-651 1086 1407 0
-1093 541 0
-1398 -1393 541 0
-541 1093 1398 0
-541 1093 1393 0
-1100 557 0
-1398 -1395 557 0
-557 1100 1398 0
-557 1100 1395 0
-1107 573 0
-1398 -1397 573 0
-573 1107 1398 0
-573 1107 1397 0
-1108 589 0
-1398 -1399 589 0
-589 1108 1398 0
-589 1108 1399 0
-1115 605 0
-1398 -1401 605 0
-605 1115 1398 0
-605 1115 1401 0
-1122 621 0
-1398 -1403 621 0
-621 1122 1398 0
-621 1122 1403 0
-1129 637 0
-1398 -1405 637 0
-637 1129 1398 0
-637 1129 1405 0
-1136 653 0
-1398 -1407 653 0
-653 1136 1398 0
-653 1136 1407 0
-1143 543 0
-1400 -1393 543 0
-543 1143 1400 0
-543 1143 1393 0
-1150 559 0
-1400 -1395 559 0
-559 1150 1400 0
-559 1150 1395 0
-1157 575 0
-1400 -1397 575 0
-575 1157 1400 0
-575 1157 1397 0
-1164 591 0
-1400 -1399 591 0
-591 1164 1400 0
-591 1164 1399 0
-1165 607 0
-1400 -1401 607 0
-607 1165 1400 0
-607 1165 1401 0
-1172 623 0
-1400 -1403 623 0
-623 1172 1400 0
-623 1172 1403 0
-1179 639 0
-1400 -1405 639 0
-639 1179 1400 0
-639 1179 1405 0
-1186 655 0
-1400 -1407 655 0
-655 1186 1400 0
-655 1186 1407 0
-1193 545 0
-1402 -1393 545 0
-545 1193 1402 0
-545 1193 1393 0
-1200 561 0
-1402 -1395 561 0
-561 1200 1402 0
-561 1200 1395 0
-1207 577 0
-1402 -1397 577 0
-577 1207 1402 0
-577 1207 1397 0
-1214 593 0
-1402 -1399 593 0
-593 1214 1402 0
-593 1214 1399 0
-1221 609 0
-1402 -1401 609 0
-609 1221 1402 0
-609 1221 1401 0
-1222 625 0
-1402 -1403 625 0
-625 1222 1402 0
-625 1222 1403 0
-1229 641 0
-1402 -1405 641 0
-641 1229 1402 0
-641 1229 1405 0
-1236 657 0
-1402 -1407 657 0
-657 1236 1402 0
-657 1236 1407 0
-1243 547 0
-1404 -1393 547 0
-547 1243 1404 0
-547 1243 1393 0
-1250 563 0
-1404 -1395 563 0
-563 1250 1404 0
-563 1250 1395 0
-1257 579 0
-1404 -1397 579 0
-579 1257 1404 0
-579 1257 1397 0
-1264 595 0
-1404 -1399 595 0
-595 1264 1404 0
-595 1264 1399 0
-1271 611 0
-1404 -1401 611 0
-611 1271 1404 0
-611 1271 1401 0
-1278 627 0
-1404 -1403 627 0
-627 1278 1404 0
-627 1278 1403 0
-1279 643 0
-1404 -1405 643 0
-643 1279 1404 0
-643 1279 1405 0
-1286 659 0
-1404 -1407 659 0
-659 1286 1404 0
-659 1286 1407 0
-1293 549 0
-1406 -1393 549 0
-549 1293 1406 0
-549 1293 1393 0
-1300 565 0
-1406 -1395 565 0
-565 1300 1406 0
-565 1300 1395 0
-1307 581 0
-1406 -1397 581 0
-581 1307 1406 0
-581 1307 1397 0
-1314 597 0
-1406 -1399 597 0
-597 1314 1406 0
-597 1314 1399 0
-1321 613 0
-1406 -1401 613 0
-613 1321 1406 0
-613 1321 1401 0
-1328 629 0
-1406 -1403 629 0
-629 1328 1406 0
-629 1328 1403 0
-1335 645 0
-1406 -1405 645 0
-645 1335 1406 0
-645 1335 1405 0
-1336 661 0
-1406 -1407 661 0
-661 1336 1406 0
-661 1336 1407 0
-1343 551 0
-1408 -1393 551 0
-551 1343 1408 0
-551 1343 1393 0
-1350 567 0
-1408 -1395 567 0
-567 1350 1408 0
-567 1350 1395 0
-1357 583 0
-1408 -1397 583 0
-583 1357 1408 0
-583 1357 1397 0
-1364 599 0
-1408 -1399 599 0
-599 1364 1408 0
-599 1364 1399 0
-1371 615 0
-1408 -1401 615 0
-615 1371 1408 0
-615 1371 1401 0
-1378 631 0
-1408 -1403 631 0
-631 1378 1408 0
-631 1378 1403 0
-1385 647 0
-1408 -1405 647 0
-647 1385 1408 0
-647 1385 1405 0
-1392 663 0
-1408 -1407 663 0
-663 1392 1408 0
-663 1392 1407 0
