p cnf 1592 5954
c ind 1 2 3 4 5 6 7 8 9 10 11 12 13 14 15 16 17 18 19 20 21 22 23 24 25 26 27 28 29 30 31 32 33 34 35 36 37 38 39 40 41 42 43 44 45 46 47 48 49 50 0
c ind 51 52 53 54 55 56 57 58 59 60 61 62 63 64 65 66 67 68 69 70 71 72 73 74 75 76 77 78 79 80 81 82 83 84 85 86 87 88 89 90 91 92 93 94 95 96 97 98 99 100 0
c ind 101 102 103 104 105 106 107 108 109 110 111 112 113 114 115 116 117 118 119 120 121 122 123 124 125 126 127 128 129 130 131 132 133 134 135 136 137 138 139 140 141 142 143 144 145 146 147 148 149 150 0
c ind 151 152 153 154 155 156 157 158 159 160 161 162 163 164 165 166 167 168 169 170 171 172 173 174 175 176 177 178 179 180 181 182 183 184 185 186 187 188 189 190 191 192 193 194 195 196 197 198 199 200 0
c ind 201 202 203 204 205 206 207 208 209 210 211 212 213 214 215 216 217 218 219 220 221 222 223 224 225 226 227 228 229 230 231 232 233 234 235 236 237 238 239 240 241 242 243 244 245 246 247 248 249 250 0
c ind 251 252 253 254 255 256 257 258 259 260 261 262 263 264 265 266 267 268 269 270 271 272 273 274 275 276 277 278 279 280 281 282 283 284 285 286 287 288 289 290 291 292 293 294 295 296 297 298 299 300 0
c ind 301 302 303 304 305 306 307 308 309 310 311 312 313 314 315 316 317 318 319 320 321 322 323 324 325 326 327 328 329 330 331 332 333 334 335 336 337 338 339 340 341 342 343 344 345 346 347 348 349 350 0
c ind 351 352 353 354 355 356 357 358 359 360 361 362 363 364 365 366 367 368 369 370 371 372 373 374 375 376 377 378 379 380 381 382 383 384 385 386 387 388 389 390 391 392 393 394 395 396 397 398 399 400 0
c ind 401 402 403 404 405 406 407 408 409 410 411 412 413 414 415 416 417 418 419 420 421 422 423 424 425 426 427 428 429 430 431 432 433 434 435 436 437 438 439 440 441 442 443 444 445 446 447 448 449 450 0
c ind 451 452 453 454 455 456 457 458 459 460 461 462 463 464 465 466 467 468 469 470 471 472 473 474 475 476 477 478 479 480 481 482 483 484 485 486 487 488 489 490 491 492 493 494 495 496 497 498 499 500 0
c ind 501 502 503 504 505 506 507 508 509 510 511 512 513 514 515 516 517 518 519 520 521 522 523 524 525 526 527 528 529 530 531 532 533 534 535 536 537 538 539 540 541 542 543 544 545 546 547 548 549 550 0
c ind 551 552 553 554 555 556 557 558 559 560 561 562 563 564 565 566 567 568 569 570 571 572 573 574 575 576 577 578 579 580 581 582 583 584 585 586 587 588 589 590 591 592 593 594 595 596 597 598 599 600 0
c ind 601 602 603 604 605 606 607 608 609 610 611 612 613 614 615 616 617 618 619 620 621 622 623 624 625 626 627 628 629 630 631 632 633 634 635 636 637 638 639 640 641 642 643 644 645 646 647 648 649 650 0
c ind 651 652 653 654 655 656 657 658 659 660 661 662 663 664 665 666 667 668 669 670 671 672 673 674 675 676 677 678 679 680 681 682 683 684 685 686 687 688 689 690 691 692 693 694 695 696 697 698 699 700 0
c ind 701 702 703 704 705 706 707 708 709 710 711 712 713 714 715 716 717 718 719 720 721 722 723 724 725 726 727 728 729 730 731 732 733 734 735 736 737 738 739 740 741 742 743 744 745 746 747 748 749 750 0
c ind 751 752 753 754 755 756 757 758 759 760 761 762 763 764 765 766 767 768 769 770 771 772 773 774 775 776 777 778 779 780 781 782 783 784 785 786 787 788 789 790 791 792 793 794 795 796 797 798 799 800 0
c ind 801 802 803 804 805 806 807 808 809 810 811 812 813 814 815 816 817 818 819 820 821 822 823 824 825 826 827 828 829 830 831 832 833 834 835 836 837 838 839 840 841 842 843 844 845 846 847 848 849 850 0
c ind 851 852 853 854 855 856 857 858 859 860 861 862 863 864 865 866 867 868 869 870 871 872 873 874 875 876 877 878 879 880 881 882 883 884 885 886 887 888 889 890 891 892 893 894 895 896 897 898 899 900 0
c ind 901 902 903 904 905 906 907 908 909 910 911 912 913 914 915 916 917 918 919 920 921 922 923 924 925 926 927 928 929 930 931 932 933 934 935 936 937 938 939 940 941 942 943 944 945 946 947 948 949 950 0
c ind 951 952 953 954 955 956 957 958 959 960 961 962 963 964 965 966 967 968 969 970 971 972 973 974 975 976 977 978 979 980 981 982 983 984 985 986 987 988 989 990 991 992 993 994 995 996 997 998 999 1000 0
c ind 1001 1002 1003 1004 1005 1006 1007 1008 1009 1010 1011 1012 1013 1014 1015 1016 1017 1018 1019 1020 1021 1022 1023 1024 1025 1026 1027 1028 1029 1030 1031 1032 1033 1034 1035 1036 1037 1038 1039 1040 1041 1042 1043 1044 1045 1046 1047 1048 1049 1050 0
c ind 1051 1052 1053 1054 1055 1056 1057 1058 1059 1060 1061 1062 1063 1064 1065 1066 1067 1068 1069 1070 1071 1072 1073 1074 1075 1076 1077 1078 1079 1080 1089 1090 1091 1092 1093 1094 1095 1096 1097 1098 1099 1100 1101 1102 1103 1104 1105 1106 1107 1108 0
c ind 1109 1110 1111 1112 1113 1114 1115 1116 1117 1118 1119 1120 1121 1122 1123 1124 1125 1126 1127 1128 1129 1130 1131 1132 1133 1134 1135 1136 1137 1138 1139 1140 1141 1142 1143 1144 1145 1146 1147 1148 1149 1150 1151 1152 1153 1154 1155 1156 1157 1158 0
c ind 1159 1160 1161 1162 1163 1164 1165 1166 1167 1168 1169 1170 1171 1172 1173 1174 1175 1176 1177 1178 1179 1180 1181 1182 1183 1184 1185 1186 1187 1188 1189 1190 1191 1192 1193 1194 1195 1196 1197 1198 1199 1200 1201 1202 1203 1204 1205 1206 1207 1208 0
c ind 1209 1210 1211 1212 1213 1214 1215 1216 1217 1218 1219 1220 1221 1222 1223 1224 1225 1226 1227 1228 1229 1230 1231 1232 1233 1234 1235 1236 1237 1238 1239 1240 1241 1242 1243 1244 1245 1246 1247 1248 1249 1250 1251 1252 1253 1254 1255 1256 1257 1258 0
c ind 1259 1260 1261 1262 1263 1264 1265 1266 1267 1268 1269 1270 1271 1272 1273 1274 1275 1276 1277 1278 1279 1280 1281 1282 1283 1284 1285 1286 1287 1288 1289 1290 1291 1292 1293 1294 1295 1296 1297 1298 1299 1300 1301 1302 1303 1304 1305 1306 1307 1308 0
c ind 1309 1310 1311 1312 1313 1314 1315 1316 1317 1318 1319 1320 1321 1322 1323 1324 1325 1326 1327 1328 1329 1330 1331 1332 1333 1334 1335 1336 1337 1338 1339 1340 1341 1342 1343 1344 1345 1346 1347 1348 1349 1350 1351 1352 1353 1354 1355 1356 1357 1358 0
c ind 1359 1360 1361 1362 1363 1364 1365 1366 1367 1368 1369 1370 1371 1372 1373 1374 1375 1376 1377 1378 1379 1380 1381 1382 1383 1384 1385 1386 1387 1388 1389 1390 1391 1392 1393 1394 1395 1396 1397 1398 1399 1400 1401 1402 1403 1404 1405 1406 1407 1408 0
c ind 1409 1410 1411 1412 1413 1414 1415 1416 1417 1418 1419 1420 1421 1422 1423 1424 1425 1426 1427 1428 1429 1430 1431 1432 1433 1434 1435 1436 1437 1438 1439 1440 1441 1442 1443 1444 1445 1446 1447 1448 1449 1450 1451 1452 1453 1454 1455 1456 1457 1458 0
c ind 1459 1460 1461 1462 1463 1464 1465 1466 1467 1468 1469 1470 1471 1472 1473 1474 1475 1476 1477 1478 1479 1480 1481 1482 1483 1484 1485 1486 1487 1488 1489 1490 1491 1492 1493 1494 1495 1496 1497 1498 1499 1500 1501 1502 1503 1504 1505 1506 1507 1508 0
c ind 1509 1510 1511 1512 1513 1514 1515 1516 1517 1518 1519 1520 1521 1522 1523 1524 1525 1526 1527 1528 1529 1530 1531 1532 1533 1534 1535 1536 1537 1538 1539 1540 1541 1542 1543 1544 1545 1546 1547 1548 1549 1550 1551 1552 1553 1554 1555 1556 1557 1558 0
c ind 1559 1560 1561 1562 1563 1564 1565 1566 1567 1568 1569 1570 1571 1572 1573 1574 1575 1576 1577 1578 1579 1580 1581 1582 1583 1584 1585 1586 1587 1588 1589 1590 1591 1592 0
1 2 3 4 5 6 7 8 9 0
10 11 12 13 14 15 16 17 18 0
19 20 21 22 23 24 25 26 27 0
28 29 30 31 32 33 34 35 36 0
37 38 39 40 41 42 43 44 45 0
46 47 48 49 50 51 52 53 54 0
55 56 57 58 59 60 61 62 63 0
64 65 66 67 68 69 70 71 72 0
73 74 75 76 77 78 79 80 81 0
82 83 -83 -84 0
85 83 -86 -87 0
88 83 -89 -90 0
91 83 -92 -93 0
94 83 -95 -96 0
97 83 -98 -99 0
100 83 -101 -102 0
103 83 -104 -105 0
106 83 -107 -108 0
109 86 -83 -110 0
111 86 -86 -112 0
113 86 -89 -114 0
115 86 -92 -116 0
117 86 -95 -118 0
119 86 -98 -120 0
121 86 -101 -122 0
123 86 -104 -124 0
125 86 -107 -126 0
127 89 -83 -128 0
129 89 -86 -130 0
131 89 -89 -132 0
133 89 -92 -134 0
135 89 -95 -136 0
137 89 -98 -138 0
139 89 -101 -140 0
141 89 -104 -142 0
143 89 -107 -144 0
145 92 -83 -146 0
147 92 -86 -148 0
149 92 -89 -150 0
151 92 -92 -152 0
153 92 -95 -154 0
155 92 -98 -156 0
157 92 -101 -158 0
159 92 -104 -160 0
161 92 -107 -162 0
163 95 -83 -164 0
165 95 -86 -166 0
167 95 -89 -168 0
169 95 -92 -170 0
171 95 -95 -172 0
173 95 -98 -174 0
175 95 -101 -176 0
177 95 -104 -178 0
179 95 -107 -180 0
181 98 -83 -182 0
183 98 -86 -184 0
185 98 -89 -186 0
187 98 -92 -188 0
189 98 -95 -190 0
191 98 -98 -192 0
193 98 -101 -194 0
195 98 -104 -196 0
197 98 -107 -198 0
199 101 -83 -200 0
201 101 -86 -202 0
203 101 -89 -204 0
205 101 -92 -206 0
207 101 -95 -208 0
209 101 -98 -210 0
211 101 -101 -212 0
213 101 -104 -214 0
215 101 -107 -216 0
217 104 -83 -218 0
219 104 -86 -220 0
221 104 -89 -222 0
223 104 -92 -224 0
225 104 -95 -226 0
227 104 -98 -228 0
229 104 -101 -230 0
231 104 -104 -232 0
233 104 -107 -234 0
235 107 -83 -236 0
237 107 -86 -238 0
239 107 -89 -240 0
241 107 -92 -242 0
243 107 -95 -244 0
245 107 -98 -246 0
247 107 -101 -248 0
249 107 -104 -250 0
251 107 -107 -252 0
84 -82 0
87 -85 0
90 -88 0
93 -91 0
96 -94 0
99 -97 0
102 -100 0
105 -103 0
108 -106 0
110 -109 0
112 -111 0
114 -113 0
116 -115 0
118 -117 0
120 -119 0
122 -121 0
124 -123 0
126 -125 0
128 -127 0
130 -129 0
132 -131 0
134 -133 0
136 -135 0
138 -137 0
140 -139 0
142 -141 0
144 -143 0
146 -145 0
148 -147 0
150 -149 0
152 -151 0
154 -153 0
156 -155 0
158 -157 0
160 -159 0
162 -161 0
164 -163 0
166 -165 0
168 -167 0
170 -169 0
172 -171 0
174 -173 0
176 -175 0
178 -177 0
180 -179 0
182 -181 0
184 -183 0
186 -185 0
188 -187 0
190 -189 0
192 -191 0
194 -193 0
196 -195 0
198 -197 0
200 -199 0
202 -201 0
204 -203 0
206 -205 0
208 -207 0
210 -209 0
212 -211 0
214 -213 0
216 -215 0
218 -217 0
220 -219 0
222 -221 0
224 -223 0
226 -225 0
228 -227 0
230 -229 0
232 -231 0
234 -233 0
236 -235 0
238 -237 0
240 -239 0
242 -241 0
244 -243 0
246 -245 0
248 -247 0
250 -249 0
252 -251 0
84 -83 0
87 -83 0
90 -83 0
93 -83 0
96 -83 0
99 -83 0
102 -83 0
105 -83 0
108 -83 0
110 -86 0
112 -86 0
114 -86 0
116 -86 0
118 -86 0
120 -86 0
122 -86 0
124 -86 0
126 -86 0
128 -89 0
130 -89 0
132 -89 0
134 -89 0
136 -89 0
138 -89 0
140 -89 0
142 -89 0
144 -89 0
146 -92 0
148 -92 0
150 -92 0
152 -92 0
154 -92 0
156 -92 0
158 -92 0
160 -92 0
162 -92 0
164 -95 0
166 -95 0
168 -95 0
170 -95 0
172 -95 0
174 -95 0
176 -95 0
178 -95 0
180 -95 0
182 -98 0
184 -98 0
186 -98 0
188 -98 0
190 -98 0
192 -98 0
194 -98 0
196 -98 0
198 -98 0
200 -101 0
202 -101 0
204 -101 0
206 -101 0
208 -101 0
210 -101 0
212 -101 0
214 -101 0
216 -101 0
218 -104 0
220 -104 0
222 -104 0
224 -104 0
226 -104 0
228 -104 0
230 -104 0
232 -104 0
234 -104 0
236 -107 0
238 -107 0
240 -107 0
242 -107 0
244 -107 0
246 -107 0
248 -107 0
250 -107 0
252 -107 0
84 83 0
87 86 0
90 89 0
93 92 0
96 95 0
99 98 0
102 101 0
105 104 0
108 107 0
110 83 0
112 86 0
114 89 0
116 92 0
118 95 0
120 98 0
122 101 0
124 104 0
126 107 0
128 83 0
130 86 0
132 89 0
134 92 0
136 95 0
138 98 0
140 101 0
142 104 0
144 107 0
146 83 0
148 86 0
150 89 0
152 92 0
154 95 0
156 98 0
158 101 0
160 104 0
162 107 0
164 83 0
166 86 0
168 89 0
170 92 0
172 95 0
174 98 0
176 101 0
178 104 0
180 107 0
182 83 0
184 86 0
186 89 0
188 92 0
190 95 0
192 98 0
194 101 0
196 104 0
198 107 0
200 83 0
202 86 0
204 89 0
206 92 0
208 95 0
210 98 0
212 101 0
214 104 0
216 107 0
218 83 0
220 86 0
222 89 0
224 92 0
226 95 0
228 98 0
230 101 0
232 104 0
234 107 0
236 83 0
238 86 0
240 89 0
242 92 0
244 95 0
246 98 0
248 101 0
250 104 0
252 107 0
-253 -83 -83 254 0
-255 -86 -83 256 0
-257 -89 -83 258 0
-259 -92 -83 260 0
-261 -95 -83 262 0
-263 -98 -83 264 0
-265 -101 -83 266 0
-267 -104 -83 268 0
-269 -107 -83 270 0
-271 -83 -86 272 0
-273 -86 -86 274 0
-275 -89 -86 276 0
-277 -92 -86 278 0
-279 -95 -86 280 0
-281 -98 -86 282 0
-283 -101 -86 284 0
-285 -104 -86 286 0
-287 -107 -86 288 0
-289 -83 -89 290 0
-291 -86 -89 292 0
-293 -89 -89 294 0
-295 -92 -89 296 0
-297 -95 -89 298 0
-299 -98 -89 300 0
-301 -101 -89 302 0
-303 -104 -89 304 0
-305 -107 -89 306 0
-307 -83 -92 308 0
-309 -86 -92 310 0
-311 -89 -92 312 0
-313 -92 -92 314 0
-315 -95 -92 316 0
-317 -98 -92 318 0
-319 -101 -92 320 0
-321 -104 -92 322 0
-323 -107 -92 324 0
-325 -83 -95 326 0
-327 -86 -95 328 0
-329 -89 -95 330 0
-331 -92 -95 332 0
-333 -95 -95 334 0
-335 -98 -95 336 0
-337 -101 -95 338 0
-339 -104 -95 340 0
-341 -107 -95 342 0
-343 -83 -98 344 0
-345 -86 -98 346 0
-347 -89 -98 348 0
-349 -92 -98 350 0
-351 -95 -98 352 0
-353 -98 -98 354 0
-355 -101 -98 356 0
-357 -104 -98 358 0
-359 -107 -98 360 0
-361 -83 -101 362 0
-363 -86 -101 364 0
-365 -89 -101 366 0
-367 -92 -101 368 0
-369 -95 -101 370 0
-371 -98 -101 372 0
-373 -101 -101 374 0
-375 -104 -101 376 0
-377 -107 -101 378 0
-379 -83 -104 380 0
-381 -86 -104 382 0
-383 -89 -104 384 0
-385 -92 -104 386 0
-387 -95 -104 388 0
-389 -98 -104 390 0
-391 -101 -104 392 0
-393 -104 -104 394 0
-395 -107 -104 396 0
-397 -83 -107 398 0
-399 -86 -107 400 0
-401 -89 -107 402 0
-403 -92 -107 404 0
-405 -95 -107 406 0
-407 -98 -107 408 0
-409 -101 -107 410 0
-411 -104 -107 412 0
-413 -107 -107 414 0
-254 253 0
-256 255 0
-258 257 0
-260 259 0
-262 261 0
-264 263 0
-266 265 0
-268 267 0
-270 269 0
-272 271 0
-274 273 0
-276 275 0
-278 277 0
-280 279 0
-282 281 0
-284 283 0
-286 285 0
-288 287 0
-290 289 0
-292 291 0
-294 293 0
-296 295 0
-298 297 0
-300 299 0
-302 301 0
-304 303 0
-306 305 0
-308 307 0
-310 309 0
-312 311 0
-314 313 0
-316 315 0
-318 317 0
-320 319 0
-322 321 0
-324 323 0
-326 325 0
-328 327 0
-330 329 0
-332 331 0
-334 333 0
-336 335 0
-338 337 0
-340 339 0
-342 341 0
-344 343 0
-346 345 0
-348 347 0
-350 349 0
-352 351 0
-354 353 0
-356 355 0
-358 357 0
-360 359 0
-362 361 0
-364 363 0
-366 365 0
-368 367 0
-370 369 0
-372 371 0
-374 373 0
-376 375 0
-378 377 0
-380 379 0
-382 381 0
-384 383 0
-386 385 0
-388 387 0
-390 389 0
-392 391 0
-394 393 0
-396 395 0
-398 397 0
-400 399 0
-402 401 0
-404 403 0
-406 405 0
-408 407 0
-410 409 0
-412 411 0
-414 413 0
-254 83 0
-256 86 0
-258 89 0
-260 92 0
-262 95 0
-264 98 0
-266 101 0
-268 104 0
-270 107 0
-272 83 0
-274 86 0
-276 89 0
-278 92 0
-280 95 0
-282 98 0
-284 101 0
-286 104 0
-288 107 0
-290 83 0
-292 86 0
-294 89 0
-296 92 0
-298 95 0
-300 98 0
-302 101 0
-304 104 0
-306 107 0
-308 83 0
-310 86 0
-312 89 0
-314 92 0
-316 95 0
-318 98 0
-320 101 0
-322 104 0
-324 107 0
-326 83 0
-328 86 0
-330 89 0
-332 92 0
-334 95 0
-336 98 0
-338 101 0
-340 104 0
-342 107 0
-344 83 0
-346 86 0
-348 89 0
-350 92 0
-352 95 0
-354 98 0
-356 101 0
-358 104 0
-360 107 0
-362 83 0
-364 86 0
-366 89 0
-368 92 0
-370 95 0
-372 98 0
-374 101 0
-376 104 0
-378 107 0
-380 83 0
-382 86 0
-384 89 0
-386 92 0
-388 95 0
-390 98 0
-392 101 0
-394 104 0
-396 107 0
-398 83 0
-400 86 0
-402 89 0
-404 92 0
-406 95 0
-408 98 0
-410 101 0
-412 104 0
-414 107 0
-254 83 0
-256 83 0
-258 83 0
-260 83 0
-262 83 0
-264 83 0
-266 83 0
-268 83 0
-270 83 0
-272 86 0
-274 86 0
-276 86 0
-278 86 0
-280 86 0
-282 86 0
-284 86 0
-286 86 0
-288 86 0
-290 89 0
-292 89 0
-294 89 0
-296 89 0
-298 89 0
-300 89 0
-302 89 0
-304 89 0
-306 89 0
-308 92 0
-310 92 0
-312 92 0
-314 92 0
-316 92 0
-318 92 0
-320 92 0
-322 92 0
-324 92 0
-326 95 0
-328 95 0
-330 95 0
-332 95 0
-334 95 0
-336 95 0
-338 95 0
-340 95 0
-342 95 0
-344 98 0
-346 98 0
-348 98 0
-350 98 0
-352 98 0
-354 98 0
-356 98 0
-358 98 0
-360 98 0
-362 101 0
-364 101 0
-366 101 0
-368 101 0
-370 101 0
-372 101 0
-374 101 0
-376 101 0
-378 101 0
-380 104 0
-382 104 0
-384 104 0
-386 104 0
-388 104 0
-390 104 0
-392 104 0
-394 104 0
-396 104 0
-398 107 0
-400 107 0
-402 107 0
-404 107 0
-406 107 0
-408 107 0
-410 107 0
-412 107 0
-414 107 0
-415 254 -416 0
-417 256 -418 0
-419 258 -420 0
-421 260 -422 0
-423 262 -424 0
-425 264 -426 0
-427 266 -428 0
-429 268 -430 0
-431 270 -432 0
-433 272 -434 0
-435 274 -436 0
-437 276 -438 0
-439 278 -440 0
-441 280 -442 0
-443 282 -444 0
-445 284 -446 0
-447 286 -448 0
-449 288 -450 0
-451 290 -452 0
-453 292 -454 0
-455 294 -456 0
-457 296 -458 0
-459 298 -460 0
-461 300 -462 0
-463 302 -464 0
-465 304 -466 0
-467 306 -468 0
-469 308 -470 0
-471 310 -472 0
-473 312 -474 0
-475 314 -476 0
-477 316 -478 0
-479 318 -480 0
-481 320 -482 0
-483 322 -484 0
-485 324 -486 0
-487 326 -488 0
-489 328 -490 0
-491 330 -492 0
-493 332 -494 0
-495 334 -496 0
-497 336 -498 0
-499 338 -500 0
-501 340 -502 0
-503 342 -504 0
-505 344 -506 0
-507 346 -508 0
-509 348 -510 0
-511 350 -512 0
-513 352 -514 0
-515 354 -516 0
-517 356 -518 0
-519 358 -520 0
-521 360 -522 0
-523 362 -524 0
-525 364 -526 0
-527 366 -528 0
-529 368 -530 0
-531 370 -532 0
-533 372 -534 0
-535 374 -536 0
-537 376 -538 0
-539 378 -540 0
-541 380 -542 0
-543 382 -544 0
-545 384 -546 0
-547 386 -548 0
-549 388 -550 0
-551 390 -552 0
-553 392 -554 0
-555 394 -556 0
-557 396 -558 0
-559 398 -560 0
-561 400 -562 0
-563 402 -564 0
-565 404 -566 0
-567 406 -568 0
-569 408 -570 0
-571 410 -572 0
-573 412 -574 0
-575 414 -576 0
416 415 0
418 417 0
420 419 0
422 421 0
424 423 0
426 425 0
428 427 0
430 429 0
432 431 0
434 433 0
436 435 0
438 437 0
440 439 0
442 441 0
444 443 0
446 445 0
448 447 0
450 449 0
452 451 0
454 453 0
456 455 0
458 457 0
460 459 0
462 461 0
464 463 0
466 465 0
468 467 0
470 469 0
472 471 0
474 473 0
476 475 0
478 477 0
480 479 0
482 481 0
484 483 0
486 485 0
488 487 0
490 489 0
492 491 0
494 493 0
496 495 0
498 497 0
500 499 0
502 501 0
504 503 0
506 505 0
508 507 0
510 509 0
512 511 0
514 513 0
516 515 0
518 517 0
520 519 0
522 521 0
524 523 0
526 525 0
528 527 0
530 529 0
532 531 0
534 533 0
536 535 0
538 537 0
540 539 0
542 541 0
544 543 0
546 545 0
548 547 0
550 549 0
552 551 0
554 553 0
556 555 0
558 557 0
560 559 0
562 561 0
564 563 0
566 565 0
568 567 0
570 569 0
572 571 0
574 573 0
576 575 0
416 -254 0
418 -256 0
420 -258 0
422 -260 0
424 -262 0
426 -264 0
428 -266 0
430 -268 0
432 -270 0
434 -272 0
436 -274 0
438 -276 0
440 -278 0
442 -280 0
444 -282 0
446 -284 0
448 -286 0
450 -288 0
452 -290 0
454 -292 0
456 -294 0
458 -296 0
460 -298 0
462 -300 0
464 -302 0
466 -304 0
468 -306 0
470 -308 0
472 -310 0
474 -312 0
476 -314 0
478 -316 0
480 -318 0
482 -320 0
484 -322 0
486 -324 0
488 -326 0
490 -328 0
492 -330 0
494 -332 0
496 -334 0
498 -336 0
500 -338 0
502 -340 0
504 -342 0
506 -344 0
508 -346 0
510 -348 0
512 -350 0
514 -352 0
516 -354 0
518 -356 0
520 -358 0
522 -360 0
524 -362 0
526 -364 0
528 -366 0
530 -368 0
532 -370 0
534 -372 0
536 -374 0
538 -376 0
540 -378 0
542 -380 0
544 -382 0
546 -384 0
548 -386 0
550 -388 0
552 -390 0
554 -392 0
556 -394 0
558 -396 0
560 -398 0
562 -400 0
564 -402 0
566 -404 0
568 -406 0
570 -408 0
572 -410 0
574 -412 0
576 -414 0
415 -253 -83 -83 -577 0
417 -255 -86 -83 -578 0
419 -257 -89 -83 -579 0
421 -259 -92 -83 -580 0
423 -261 -95 -83 -581 0
425 -263 -98 -83 -582 0
427 -265 -101 -83 -583 0
429 -267 -104 -83 -584 0
431 -269 -107 -83 -585 0
433 -271 -83 -86 -586 0
435 -273 -86 -86 -587 0
437 -275 -89 -86 -588 0
439 -277 -92 -86 -589 0
441 -279 -95 -86 -590 0
443 -281 -98 -86 -591 0
445 -283 -101 -86 -592 0
447 -285 -104 -86 -593 0
449 -287 -107 -86 -594 0
451 -289 -83 -89 -595 0
453 -291 -86 -89 -596 0
455 -293 -89 -89 -597 0
457 -295 -92 -89 -598 0
459 -297 -95 -89 -599 0
461 -299 -98 -89 -600 0
463 -301 -101 -89 -601 0
465 -303 -104 -89 -602 0
467 -305 -107 -89 -603 0
469 -307 -83 -92 -604 0
471 -309 -86 -92 -605 0
473 -311 -89 -92 -606 0
475 -313 -92 -92 -607 0
477 -315 -95 -92 -608 0
479 -317 -98 -92 -609 0
481 -319 -101 -92 -610 0
483 -321 -104 -92 -611 0
485 -323 -107 -92 -612 0
487 -325 -83 -95 -613 0
489 -327 -86 -95 -614 0
491 -329 -89 -95 -615 0
493 -331 -92 -95 -616 0
495 -333 -95 -95 -617 0
497 -335 -98 -95 -618 0
499 -337 -101 -95 -619 0
501 -339 -104 -95 -620 0
503 -341 -107 -95 -621 0
505 -343 -83 -98 -622 0
507 -345 -86 -98 -623 0
509 -347 -89 -98 -624 0
511 -349 -92 -98 -625 0
513 -351 -95 -98 -626 0
515 -353 -98 -98 -627 0
517 -355 -101 -98 -628 0
519 -357 -104 -98 -629 0
521 -359 -107 -98 -630 0
523 -361 -83 -101 -631 0
525 -363 -86 -101 -632 0
527 -365 -89 -101 -633 0
529 -367 -92 -101 -634 0
531 -369 -95 -101 -635 0
533 -371 -98 -101 -636 0
535 -373 -101 -101 -637 0
537 -375 -104 -101 -638 0
539 -377 -107 -101 -639 0
541 -379 -83 -104 -640 0
543 -381 -86 -104 -641 0
545 -383 -89 -104 -642 0
547 -385 -92 -104 -643 0
549 -387 -95 -104 -644 0
551 -389 -98 -104 -645 0
553 -391 -101 -104 -646 0
555 -393 -104 -104 -647 0
557 -395 -107 -104 -648 0
559 -397 -83 -107 -649 0
561 -399 -86 -107 -650 0
563 -401 -89 -107 -651 0
565 -403 -92 -107 -652 0
567 -405 -95 -107 -653 0
569 -407 -98 -107 -654 0
571 -409 -101 -107 -655 0
573 -411 -104 -107 -656 0
575 -413 -107 -107 -657 0
577 -415 0
578 -417 0
579 -419 0
580 -421 0
581 -423 0
582 -425 0
583 -427 0
584 -429 0
585 -431 0
586 -433 0
587 -435 0
588 -437 0
589 -439 0
590 -441 0
591 -443 0
592 -445 0
593 -447 0
594 -449 0
595 -451 0
596 -453 0
597 -455 0
598 -457 0
599 -459 0
600 -461 0
601 -463 0
602 -465 0
603 -467 0
604 -469 0
605 -471 0
606 -473 0
607 -475 0
608 -477 0
609 -479 0
610 -481 0
611 -483 0
612 -485 0
613 -487 0
614 -489 0
615 -491 0
616 -493 0
617 -495 0
618 -497 0
619 -499 0
620 -501 0
621 -503 0
622 -505 0
623 -507 0
624 -509 0
625 -511 0
626 -513 0
627 -515 0
628 -517 0
629 -519 0
630 -521 0
631 -523 0
632 -525 0
633 -527 0
634 -529 0
635 -531 0
636 -533 0
637 -535 0
638 -537 0
639 -539 0
640 -541 0
641 -543 0
642 -545 0
643 -547 0
644 -549 0
645 -551 0
646 -553 0
647 -555 0
648 -557 0
649 -559 0
650 -561 0
651 -563 0
652 -565 0
653 -567 0
654 -569 0
655 -571 0
656 -573 0
657 -575 0
577 253 0
578 255 0
579 257 0
580 259 0
581 261 0
582 263 0
583 265 0
584 267 0
585 269 0
586 271 0
587 273 0
588 275 0
589 277 0
590 279 0
591 281 0
592 283 0
593 285 0
594 287 0
595 289 0
596 291 0
597 293 0
598 295 0
599 297 0
600 299 0
601 301 0
602 303 0
603 305 0
604 307 0
605 309 0
606 311 0
607 313 0
608 315 0
609 317 0
610 319 0
611 321 0
612 323 0
613 325 0
614 327 0
615 329 0
616 331 0
617 333 0
618 335 0
619 337 0
620 339 0
621 341 0
622 343 0
623 345 0
624 347 0
625 349 0
626 351 0
627 353 0
628 355 0
629 357 0
630 359 0
631 361 0
632 363 0
633 365 0
634 367 0
635 369 0
636 371 0
637 373 0
638 375 0
639 377 0
640 379 0
641 381 0
642 383 0
643 385 0
644 387 0
645 389 0
646 391 0
647 393 0
648 395 0
649 397 0
650 399 0
651 401 0
652 403 0
653 405 0
654 407 0
655 409 0
656 411 0
657 413 0
577 83 0
578 86 0
579 89 0
580 92 0
581 95 0
582 98 0
583 101 0
584 104 0
585 107 0
586 83 0
587 86 0
588 89 0
589 92 0
590 95 0
591 98 0
592 101 0
593 104 0
594 107 0
595 83 0
596 86 0
597 89 0
598 92 0
599 95 0
600 98 0
601 101 0
602 104 0
603 107 0
604 83 0
605 86 0
606 89 0
607 92 0
608 95 0
609 98 0
610 101 0
611 104 0
612 107 0
613 83 0
614 86 0
615 89 0
616 92 0
617 95 0
618 98 0
619 101 0
620 104 0
621 107 0
622 83 0
623 86 0
624 89 0
625 92 0
626 95 0
627 98 0
628 101 0
629 104 0
630 107 0
631 83 0
632 86 0
633 89 0
634 92 0
635 95 0
636 98 0
637 101 0
638 104 0
639 107 0
640 83 0
641 86 0
642 89 0
643 92 0
644 95 0
645 98 0
646 101 0
647 104 0
648 107 0
649 83 0
650 86 0
651 89 0
652 92 0
653 95 0
654 98 0
655 101 0
656 104 0
657 107 0
577 83 0
578 83 0
579 83 0
580 83 0
581 83 0
582 83 0
583 83 0
584 83 0
585 83 0
586 86 0
587 86 0
588 86 0
589 86 0
590 86 0
591 86 0
592 86 0
593 86 0
594 86 0
595 89 0
596 89 0
597 89 0
598 89 0
599 89 0
600 89 0
601 89 0
602 89 0
603 89 0
604 92 0
605 92 0
606 92 0
607 92 0
608 92 0
609 92 0
610 92 0
611 92 0
612 92 0
613 95 0
614 95 0
615 95 0
616 95 0
617 95 0
618 95 0
619 95 0
620 95 0
621 95 0
622 98 0
623 98 0
624 98 0
625 98 0
626 98 0
627 98 0
628 98 0
629 98 0
630 98 0
631 101 0
632 101 0
633 101 0
634 101 0
635 101 0
636 101 0
637 101 0
638 101 0
639 101 0
640 104 0
641 104 0
642 104 0
643 104 0
644 104 0
645 104 0
646 104 0
647 104 0
648 104 0
649 107 0
650 107 0
651 107 0
652 107 0
653 107 0
654 107 0
655 107 0
656 107 0
657 107 0
-415 -658 -659 0
-433 -658 -660 0
-451 -658 -661 0
-469 -658 -662 0
-487 -658 -663 0
-505 -658 -664 0
-523 -658 -665 0
-541 -658 -666 0
-559 -658 -667 0
-417 -668 -669 0
-435 -668 -670 0
-453 -668 -671 0
-471 -668 -672 0
-489 -668 -673 0
-507 -668 -674 0
-525 -668 -675 0
-543 -668 -676 0
-561 -668 -677 0
-419 -678 -679 0
-437 -678 -680 0
-455 -678 -681 0
-473 -678 -682 0
-491 -678 -683 0
-509 -678 -684 0
-527 -678 -685 0
-545 -678 -686 0
-563 -678 -687 0
-421 -688 -689 0
-439 -688 -690 0
-457 -688 -691 0
-475 -688 -692 0
-493 -688 -693 0
-511 -688 -694 0
-529 -688 -695 0
-547 -688 -696 0
-565 -688 -697 0
-423 -698 -699 0
-441 -698 -700 0
-459 -698 -701 0
-477 -698 -702 0
-495 -698 -703 0
-513 -698 -704 0
-531 -698 -705 0
-549 -698 -706 0
-567 -698 -707 0
-425 -708 -709 0
-443 -708 -710 0
-461 -708 -711 0
-479 -708 -712 0
-497 -708 -713 0
-515 -708 -714 0
-533 -708 -715 0
-551 -708 -716 0
-569 -708 -717 0
-427 -718 -719 0
-445 -718 -720 0
-463 -718 -721 0
-481 -718 -722 0
-499 -718 -723 0
-517 -718 -724 0
-535 -718 -725 0
-553 -718 -726 0
-571 -718 -727 0
-429 -728 -729 0
-447 -728 -730 0
-465 -728 -731 0
-483 -728 -732 0
-501 -728 -733 0
-519 -728 -734 0
-537 -728 -735 0
-555 -728 -736 0
-573 -728 -737 0
-431 -738 -739 0
-449 -738 -740 0
-467 -738 -741 0
-485 -738 -742 0
-503 -738 -743 0
-521 -738 -744 0
-539 -738 -745 0
-557 -738 -746 0
-575 -738 -747 0
659 415 0
660 433 0
661 451 0
662 469 0
663 487 0
664 505 0
665 523 0
666 541 0
667 559 0
669 417 0
670 435 0
671 453 0
672 471 0
673 489 0
674 507 0
675 525 0
676 543 0
677 561 0
679 419 0
680 437 0
681 455 0
682 473 0
683 491 0
684 509 0
685 527 0
686 545 0
687 563 0
689 421 0
690 439 0
691 457 0
692 475 0
693 493 0
694 511 0
695 529 0
696 547 0
697 565 0
699 423 0
700 441 0
701 459 0
702 477 0
703 495 0
704 513 0
705 531 0
706 549 0
707 567 0
709 425 0
710 443 0
711 461 0
712 479 0
713 497 0
714 515 0
715 533 0
716 551 0
717 569 0
719 427 0
720 445 0
721 463 0
722 481 0
723 499 0
724 517 0
725 535 0
726 553 0
727 571 0
729 429 0
730 447 0
731 465 0
732 483 0
733 501 0
734 519 0
735 537 0
736 555 0
737 573 0
739 431 0
740 449 0
741 467 0
742 485 0
743 503 0
744 521 0
745 539 0
746 557 0
747 575 0
659 658 0
660 658 0
661 658 0
662 658 0
663 658 0
664 658 0
665 658 0
666 658 0
667 658 0
669 668 0
670 668 0
671 668 0
672 668 0
673 668 0
674 668 0
675 668 0
676 668 0
677 668 0
679 678 0
680 678 0
681 678 0
682 678 0
683 678 0
684 678 0
685 678 0
686 678 0
687 678 0
689 688 0
690 688 0
691 688 0
692 688 0
693 688 0
694 688 0
695 688 0
696 688 0
697 688 0
699 698 0
700 698 0
701 698 0
702 698 0
703 698 0
704 698 0
705 698 0
706 698 0
707 698 0
709 708 0
710 708 0
711 708 0
712 708 0
713 708 0
714 708 0
715 708 0
716 708 0
717 708 0
719 718 0
720 718 0
721 718 0
722 718 0
723 718 0
724 718 0
725 718 0
726 718 0
727 718 0
729 728 0
730 728 0
731 728 0
732 728 0
733 728 0
734 728 0
735 728 0
736 728 0
737 728 0
739 738 0
740 738 0
741 738 0
742 738 0
743 738 0
744 738 0
745 738 0
746 738 0
747 738 0
-658 -659 748 0
-668 -660 749 0
-678 -661 750 0
-688 -662 751 0
-698 -663 752 0
-708 -664 753 0
-718 -665 754 0
-728 -666 755 0
-738 -667 756 0
-658 -669 757 0
-668 -670 758 0
-678 -671 759 0
-688 -672 760 0
-698 -673 761 0
-708 -674 762 0
-718 -675 763 0
-728 -676 764 0
-738 -677 765 0
-658 -679 766 0
-668 -680 767 0
-678 -681 768 0
-688 -682 769 0
-698 -683 770 0
-708 -684 771 0
-718 -685 772 0
-728 -686 773 0
-738 -687 774 0
-658 -689 775 0
-668 -690 776 0
-678 -691 777 0
-688 -692 778 0
-698 -693 779 0
-708 -694 780 0
-718 -695 781 0
-728 -696 782 0
-738 -697 783 0
-658 -699 784 0
-668 -700 785 0
-678 -701 786 0
-688 -702 787 0
-698 -703 788 0
-708 -704 789 0
-718 -705 790 0
-728 -706 791 0
-738 -707 792 0
-658 -709 793 0
-668 -710 794 0
-678 -711 795 0
-688 -712 796 0
-698 -713 797 0
-708 -714 798 0
-718 -715 799 0
-728 -716 800 0
-738 -717 801 0
-658 -719 802 0
-668 -720 803 0
-678 -721 804 0
-688 -722 805 0
-698 -723 806 0
-708 -724 807 0
-718 -725 808 0
-728 -726 809 0
-738 -727 810 0
-658 -729 811 0
-668 -730 812 0
-678 -731 813 0
-688 -732 814 0
-698 -733 815 0
-708 -734 816 0
-718 -735 817 0
-728 -736 818 0
-738 -737 819 0
-658 -739 820 0
-668 -740 821 0
-678 -741 822 0
-688 -742 823 0
-698 -743 824 0
-708 -744 825 0
-718 -745 826 0
-728 -746 827 0
-738 -747 828 0
-748 658 0
-749 668 0
-750 678 0
-751 688 0
-752 698 0
-753 708 0
-754 718 0
-755 728 0
-756 738 0
-757 658 0
-758 668 0
-759 678 0
-760 688 0
-761 698 0
-762 708 0
-763 718 0
-764 728 0
-765 738 0
-766 658 0
-767 668 0
-768 678 0
-769 688 0
-770 698 0
-771 708 0
-772 718 0
-773 728 0
-774 738 0
-775 658 0
-776 668 0
-777 678 0
-778 688 0
-779 698 0
-780 708 0
-781 718 0
-782 728 0
-783 738 0
-784 658 0
-785 668 0
-786 678 0
-787 688 0
-788 698 0
-789 708 0
-790 718 0
-791 728 0
-792 738 0
-793 658 0
-794 668 0
-795 678 0
-796 688 0
-797 698 0
-798 708 0
-799 718 0
-800 728 0
-801 738 0
-802 658 0
-803 668 0
-804 678 0
-805 688 0
-806 698 0
-807 708 0
-808 718 0
-809 728 0
-810 738 0
-811 658 0
-812 668 0
-813 678 0
-814 688 0
-815 698 0
-816 708 0
-817 718 0
-818 728 0
-819 738 0
-820 658 0
-821 668 0
-822 678 0
-823 688 0
-824 698 0
-825 708 0
-826 718 0
-827 728 0
-828 738 0
-748 659 0
-749 660 0
-750 661 0
-751 662 0
-752 663 0
-753 664 0
-754 665 0
-755 666 0
-756 667 0
-757 669 0
-758 670 0
-759 671 0
-760 672 0
-761 673 0
-762 674 0
-763 675 0
-764 676 0
-765 677 0
-766 679 0
-767 680 0
-768 681 0
-769 682 0
-770 683 0
-771 684 0
-772 685 0
-773 686 0
-774 687 0
-775 689 0
-776 690 0
-777 691 0
-778 692 0
-779 693 0
-780 694 0
-781 695 0
-782 696 0
-783 697 0
-784 699 0
-785 700 0
-786 701 0
-787 702 0
-788 703 0
-789 704 0
-790 705 0
-791 706 0
-792 707 0
-793 709 0
-794 710 0
-795 711 0
-796 712 0
-797 713 0
-798 714 0
-799 715 0
-800 716 0
-801 717 0
-802 719 0
-803 720 0
-804 721 0
-805 722 0
-806 723 0
-807 724 0
-808 725 0
-809 726 0
-810 727 0
-811 729 0
-812 730 0
-813 731 0
-814 732 0
-815 733 0
-816 734 0
-817 735 0
-818 736 0
-819 737 0
-820 739 0
-821 740 0
-822 741 0
-823 742 0
-824 743 0
-825 744 0
-826 745 0
-827 746 0
-828 747 0
-829 748 -830 0
-831 749 -832 0
-833 750 -834 0
-835 751 -836 0
-837 752 -838 0
-839 753 -840 0
-841 754 -842 0
-843 755 -844 0
-845 756 -846 0
-829 757 -847 0
-831 758 -848 0
-833 759 -849 0
-835 760 -850 0
-837 761 -851 0
-839 762 -852 0
-841 763 -853 0
-843 764 -854 0
-845 765 -855 0
-829 766 -856 0
-831 767 -857 0
-833 768 -858 0
-835 769 -859 0
-837 770 -860 0
-839 771 -861 0
-841 772 -862 0
-843 773 -863 0
-845 774 -864 0
-829 775 -865 0
-831 776 -866 0
-833 777 -867 0
-835 778 -868 0
-837 779 -869 0
-839 780 -870 0
-841 781 -871 0
-843 782 -872 0
-845 783 -873 0
-829 784 -874 0
-831 785 -875 0
-833 786 -876 0
-835 787 -877 0
-837 788 -878 0
-839 789 -879 0
-841 790 -880 0
-843 791 -881 0
-845 792 -882 0
-829 793 -883 0
-831 794 -884 0
-833 795 -885 0
-835 796 -886 0
-837 797 -887 0
-839 798 -888 0
-841 799 -889 0
-843 800 -890 0
-845 801 -891 0
-829 802 -892 0
-831 803 -893 0
-833 804 -894 0
-835 805 -895 0
-837 806 -896 0
-839 807 -897 0
-841 808 -898 0
-843 809 -899 0
-845 810 -900 0
-829 811 -901 0
-831 812 -902 0
-833 813 -903 0
-835 814 -904 0
-837 815 -905 0
-839 816 -906 0
-841 817 -907 0
-843 818 -908 0
-845 819 -909 0
-829 820 -910 0
-831 821 -911 0
-833 822 -912 0
-835 823 -913 0
-837 824 -914 0
-839 825 -915 0
-841 826 -916 0
-843 827 -917 0
-845 828 -918 0
830 829 0
832 831 0
834 833 0
836 835 0
838 837 0
840 839 0
842 841 0
844 843 0
846 845 0
847 829 0
848 831 0
849 833 0
850 835 0
851 837 0
852 839 0
853 841 0
854 843 0
855 845 0
856 829 0
857 831 0
858 833 0
859 835 0
860 837 0
861 839 0
862 841 0
863 843 0
864 845 0
865 829 0
866 831 0
867 833 0
868 835 0
869 837 0
870 839 0
871 841 0
872 843 0
873 845 0
874 829 0
875 831 0
876 833 0
877 835 0
878 837 0
879 839 0
880 841 0
881 843 0
882 845 0
883 829 0
884 831 0
885 833 0
886 835 0
887 837 0
888 839 0
889 841 0
890 843 0
891 845 0
892 829 0
893 831 0
894 833 0
895 835 0
896 837 0
897 839 0
898 841 0
899 843 0
900 845 0
901 829 0
902 831 0
903 833 0
904 835 0
905 837 0
906 839 0
907 841 0
908 843 0
909 845 0
910 829 0
911 831 0
912 833 0
913 835 0
914 837 0
915 839 0
916 841 0
917 843 0
918 845 0
830 -748 0
832 -749 0
834 -750 0
836 -751 0
838 -752 0
840 -753 0
842 -754 0
844 -755 0
846 -756 0
847 -757 0
848 -758 0
849 -759 0
850 -760 0
851 -761 0
852 -762 0
853 -763 0
854 -764 0
855 -765 0
856 -766 0
857 -767 0
858 -768 0
859 -769 0
860 -770 0
861 -771 0
862 -772 0
863 -773 0
864 -774 0
865 -775 0
866 -776 0
867 -777 0
868 -778 0
869 -779 0
870 -780 0
871 -781 0
872 -782 0
873 -783 0
874 -784 0
875 -785 0
876 -786 0
877 -787 0
878 -788 0
879 -789 0
880 -790 0
881 -791 0
882 -792 0
883 -793 0
884 -794 0
885 -795 0
886 -796 0
887 -797 0
888 -798 0
889 -799 0
890 -800 0
891 -801 0
892 -802 0
893 -803 0
894 -804 0
895 -805 0
896 -806 0
897 -807 0
898 -808 0
899 -809 0
900 -810 0
901 -811 0
902 -812 0
903 -813 0
904 -814 0
905 -815 0
906 -816 0
907 -817 0
908 -818 0
909 -819 0
910 -820 0
911 -821 0
912 -822 0
913 -823 0
914 -824 0
915 -825 0
916 -826 0
917 -827 0
918 -828 0
-84 -416 -577 -830 919 0
-87 -418 -578 -832 920 0
-90 -420 -579 -834 921 0
-93 -422 -580 -836 922 0
-96 -424 -581 -838 923 0
-99 -426 -582 -840 924 0
-102 -428 -583 -842 925 0
-105 -430 -584 -844 926 0
-108 -432 -585 -846 927 0
-110 -434 -586 -847 928 0
-112 -436 -587 -848 929 0
-114 -438 -588 -849 930 0
-116 -440 -589 -850 931 0
-118 -442 -590 -851 932 0
-120 -444 -591 -852 933 0
-122 -446 -592 -853 934 0
-124 -448 -593 -854 935 0
-126 -450 -594 -855 936 0
-128 -452 -595 -856 937 0
-130 -454 -596 -857 938 0
-132 -456 -597 -858 939 0
-134 -458 -598 -859 940 0
-136 -460 -599 -860 941 0
-138 -462 -600 -861 942 0
-140 -464 -601 -862 943 0
-142 -466 -602 -863 944 0
-144 -468 -603 -864 945 0
-146 -470 -604 -865 946 0
-148 -472 -605 -866 947 0
-150 -474 -606 -867 948 0
-152 -476 -607 -868 949 0
-154 -478 -608 -869 950 0
-156 -480 -609 -870 951 0
-158 -482 -610 -871 952 0
-160 -484 -611 -872 953 0
-162 -486 -612 -873 954 0
-164 -488 -613 -874 955 0
-166 -490 -614 -875 956 0
-168 -492 -615 -876 957 0
-170 -494 -616 -877 958 0
-172 -496 -617 -878 959 0
-174 -498 -618 -879 960 0
-176 -500 -619 -880 961 0
-178 -502 -620 -881 962 0
-180 -504 -621 -882 963 0
-182 -506 -622 -883 964 0
-184 -508 -623 -884 965 0
-186 -510 -624 -885 966 0
-188 -512 -625 -886 967 0
-190 -514 -626 -887 968 0
-192 -516 -627 -888 969 0
-194 -518 -628 -889 970 0
-196 -520 -629 -890 971 0
-198 -522 -630 -891 972 0
-200 -524 -631 -892 973 0
-202 -526 -632 -893 974 0
-204 -528 -633 -894 975 0
-206 -530 -634 -895 976 0
-208 -532 -635 -896 977 0
-210 -534 -636 -897 978 0
-212 -536 -637 -898 979 0
-214 -538 -638 -899 980 0
-216 -540 -639 -900 981 0
-218 -542 -640 -901 982 0
-220 -544 -641 -902 983 0
-222 -546 -642 -903 984 0
-224 -548 -643 -904 985 0
-226 -550 -644 -905 986 0
-228 -552 -645 -906 987 0
-230 -554 -646 -907 988 0
-232 -556 -647 -908 989 0
-234 -558 -648 -909 990 0
-236 -560 -649 -910 991 0
-238 -562 -650 -911 992 0
-240 -564 -651 -912 993 0
-242 -566 -652 -913 994 0
-244 -568 -653 -914 995 0
-246 -570 -654 -915 996 0
-248 -572 -655 -916 997 0
-250 -574 -656 -917 998 0
-252 -576 -657 -918 999 0
-919 84 0
-920 87 0
-921 90 0
-922 93 0
-923 96 0
-924 99 0
-925 102 0
-926 105 0
-927 108 0
-928 110 0
-929 112 0
-930 114 0
-931 116 0
-932 118 0
-933 120 0
-934 122 0
-935 124 0
-936 126 0
-937 128 0
-938 130 0
-939 132 0
-940 134 0
-941 136 0
-942 138 0
-943 140 0
-944 142 0
-945 144 0
-946 146 0
-947 148 0
-948 150 0
-949 152 0
-950 154 0
-951 156 0
-952 158 0
-953 160 0
-954 162 0
-955 164 0
-956 166 0
-957 168 0
-958 170 0
-959 172 0
-960 174 0
-961 176 0
-962 178 0
-963 180 0
-964 182 0
-965 184 0
-966 186 0
-967 188 0
-968 190 0
-969 192 0
-970 194 0
-971 196 0
-972 198 0
-973 200 0
-974 202 0
-975 204 0
-976 206 0
-977 208 0
-978 210 0
-979 212 0
-980 214 0
-981 216 0
-982 218 0
-983 220 0
-984 222 0
-985 224 0
-986 226 0
-987 228 0
-988 230 0
-989 232 0
-990 234 0
-991 236 0
-992 238 0
-993 240 0
-994 242 0
-995 244 0
-996 246 0
-997 248 0
-998 250 0
-999 252 0
-919 416 0
-920 418 0
-921 420 0
-922 422 0
-923 424 0
-924 426 0
-925 428 0
-926 430 0
-927 432 0
-928 434 0
-929 436 0
-930 438 0
-931 440 0
-932 442 0
-933 444 0
-934 446 0
-935 448 0
-936 450 0
-937 452 0
-938 454 0
-939 456 0
-940 458 0
-941 460 0
-942 462 0
-943 464 0
-944 466 0
-945 468 0
-946 470 0
-947 472 0
-948 474 0
-949 476 0
-950 478 0
-951 480 0
-952 482 0
-953 484 0
-954 486 0
-955 488 0
-956 490 0
-957 492 0
-958 494 0
-959 496 0
-960 498 0
-961 500 0
-962 502 0
-963 504 0
-964 506 0
-965 508 0
-966 510 0
-967 512 0
-968 514 0
-969 516 0
-970 518 0
-971 520 0
-972 522 0
-973 524 0
-974 526 0
-975 528 0
-976 530 0
-977 532 0
-978 534 0
-979 536 0
-980 538 0
-981 540 0
-982 542 0
-983 544 0
-984 546 0
-985 548 0
-986 550 0
-987 552 0
-988 554 0
-989 556 0
-990 558 0
-991 560 0
-992 562 0
-993 564 0
-994 566 0
-995 568 0
-996 570 0
-997 572 0
-998 574 0
-999 576 0
-919 577 0
-920 578 0
-921 579 0
-922 580 0
-923 581 0
-924 582 0
-925 583 0
-926 584 0
-927 585 0
-928 586 0
-929 587 0
-930 588 0
-931 589 0
-932 590 0
-933 591 0
-934 592 0
-935 593 0
-936 594 0
-937 595 0
-938 596 0
-939 597 0
-940 598 0
-941 599 0
-942 600 0
-943 601 0
-944 602 0
-945 603 0
-946 604 0
-947 605 0
-948 606 0
-949 607 0
-950 608 0
-951 609 0
-952 610 0
-953 611 0
-954 612 0
-955 613 0
-956 614 0
-957 615 0
-958 616 0
-959 617 0
-960 618 0
-961 619 0
-962 620 0
-963 621 0
-964 622 0
-965 623 0
-966 624 0
-967 625 0
-968 626 0
-969 627 0
-970 628 0
-971 629 0
-972 630 0
-973 631 0
-974 632 0
-975 633 0
-976 634 0
-977 635 0
-978 636 0
-979 637 0
-980 638 0
-981 639 0
-982 640 0
-983 641 0
-984 642 0
-985 643 0
-986 644 0
-987 645 0
-988 646 0
-989 647 0
-990 648 0
-991 649 0
-992 650 0
-993 651 0
-994 652 0
-995 653 0
-996 654 0
-997 655 0
-998 656 0
-999 657 0
-919 830 0
-920 832 0
-921 834 0
-922 836 0
-923 838 0
-924 840 0
-925 842 0
-926 844 0
-927 846 0
-928 847 0
-929 848 0
-930 849 0
-931 850 0
-932 851 0
-933 852 0
-934 853 0
-935 854 0
-936 855 0
-937 856 0
-938 857 0
-939 858 0
-940 859 0
-941 860 0
-942 861 0
-943 862 0
-944 863 0
-945 864 0
-946 865 0
-947 866 0
-948 867 0
-949 868 0
-950 869 0
-951 870 0
-952 871 0
-953 872 0
-954 873 0
-955 874 0
-956 875 0
-957 876 0
-958 877 0
-959 878 0
-960 879 0
-961 880 0
-962 881 0
-963 882 0
-964 883 0
-965 884 0
-966 885 0
-967 886 0
-968 887 0
-969 888 0
-970 889 0
-971 890 0
-972 891 0
-973 892 0
-974 893 0
-975 894 0
-976 895 0
-977 896 0
-978 897 0
-979 898 0
-980 899 0
-981 900 0
-982 901 0
-983 902 0
-984 903 0
-985 904 0
-986 905 0
-987 906 0
-988 907 0
-989 908 0
-990 909 0
-991 910 0
-992 911 0
-993 912 0
-994 913 0
-995 914 0
-996 915 0
-997 916 0
-998 917 0
-999 918 0
919 0
920 0
921 0
922 0
923 0
924 0
925 0
926 0
927 0
928 0
929 0
930 0
931 0
932 0
933 0
934 0
935 0
936 0
937 0
938 0
939 0
940 0
941 0
942 0
943 0
944 0
945 0
946 0
947 0
948 0
949 0
950 0
951 0
952 0
953 0
954 0
955 0
956 0
957 0
958 0
959 0
960 0
961 0
962 0
963 0
964 0
965 0
966 0
967 0
968 0
969 0
970 0
971 0
972 0
973 0
974 0
975 0
976 0
977 0
978 0
979 0
980 0
981 0
982 0
983 0
984 0
985 0
986 0
987 0
988 0
989 0
990 0
991 0
992 0
993 0
994 0
995 0
996 0
997 0
998 0
999 0
-415 -658 1000 0
-433 -658 1001 0
-451 -658 1002 0
-469 -658 1003 0
-487 -658 1004 0
-505 -658 1005 0
-523 -658 1006 0
-541 -658 1007 0
-559 -658 1008 0
-417 -668 1009 0
-435 -668 1010 0
-453 -668 1011 0
-471 -668 1012 0
-489 -668 1013 0
-507 -668 1014 0
-525 -668 1015 0
-543 -668 1016 0
-561 -668 1017 0
-419 -678 1018 0
-437 -678 1019 0
-455 -678 1020 0
-473 -678 1021 0
-491 -678 1022 0
-509 -678 1023 0
-527 -678 1024 0
-545 -678 1025 0
-563 -678 1026 0
-421 -688 1027 0
-439 -688 1028 0
-457 -688 1029 0
-475 -688 1030 0
-493 -688 1031 0
-511 -688 1032 0
-529 -688 1033 0
-547 -688 1034 0
-565 -688 1035 0
-423 -698 1036 0
-441 -698 1037 0
-459 -698 1038 0
-477 -698 1039 0
-495 -698 1040 0
-513 -698 1041 0
-531 -698 1042 0
-549 -698 1043 0
-567 -698 1044 0
-425 -708 1045 0
-443 -708 1046 0
-461 -708 1047 0
-479 -708 1048 0
-497 -708 1049 0
-515 -708 1050 0
-533 -708 1051 0
-551 -708 1052 0
-569 -708 1053 0
-427 -718 1054 0
-445 -718 1055 0
-463 -718 1056 0
-481 -718 1057 0
-499 -718 1058 0
-517 -718 1059 0
-535 -718 1060 0
-553 -718 1061 0
-571 -718 1062 0
-429 -728 1063 0
-447 -728 1064 0
-465 -728 1065 0
-483 -728 1066 0
-501 -728 1067 0
-519 -728 1068 0
-537 -728 1069 0
-555 -728 1070 0
-573 -728 1071 0
-431 -738 1072 0
-449 -738 1073 0
-467 -738 1074 0
-485 -738 1075 0
-503 -738 1076 0
-521 -738 1077 0
-539 -738 1078 0
-557 -738 1079 0
-575 -738 1080 0
-1000 415 0
-1001 433 0
-1002 451 0
-1003 469 0
-1004 487 0
-1005 505 0
-1006 523 0
-1007 541 0
-1008 559 0
-1009 417 0
-1010 435 0
-1011 453 0
-1012 471 0
-1013 489 0
-1014 507 0
-1015 525 0
-1016 543 0
-1017 561 0
-1018 419 0
-1019 437 0
-1020 455 0
-1021 473 0
-1022 491 0
-1023 509 0
-1024 527 0
-1025 545 0
-1026 563 0
-1027 421 0
-1028 439 0
-1029 457 0
-1030 475 0
-1031 493 0
-1032 511 0
-1033 529 0
-1034 547 0
-1035 565 0
-1036 423 0
-1037 441 0
-1038 459 0
-1039 477 0
-1040 495 0
-1041 513 0
-1042 531 0
-1043 549 0
-1044 567 0
-1045 425 0
-1046 443 0
-1047 461 0
-1048 479 0
-1049 497 0
-1050 515 0
-1051 533 0
-1052 551 0
-1053 569 0
-1054 427 0
-1055 445 0
-1056 463 0
-1057 481 0
-1058 499 0
-1059 517 0
-1060 535 0
-1061 553 0
-1062 571 0
-1063 429 0
-1064 447 0
-1065 465 0
-1066 483 0
-1067 501 0
-1068 519 0
-1069 537 0
-1070 555 0
-1071 573 0
-1072 431 0
-1073 449 0
-1074 467 0
-1075 485 0
-1076 503 0
-1077 521 0
-1078 539 0
-1079 557 0
-1080 575 0
-1000 658 0
-1001 658 0
-1002 658 0
-1003 658 0
-1004 658 0
-1005 658 0
-1006 658 0
-1007 658 0
-1008 658 0
-1009 668 0
-1010 668 0
-1011 668 0
-1012 668 0
-1013 668 0
-1014 668 0
-1015 668 0
-1016 668 0
-1017 668 0
-1018 678 0
-1019 678 0
-1020 678 0
-1021 678 0
-1022 678 0
-1023 678 0
-1024 678 0
-1025 678 0
-1026 678 0
-1027 688 0
-1028 688 0
-1029 688 0
-1030 688 0
-1031 688 0
-1032 688 0
-1033 688 0
-1034 688 0
-1035 688 0
-1036 698 0
-1037 698 0
-1038 698 0
-1039 698 0
-1040 698 0
-1041 698 0
-1042 698 0
-1043 698 0
-1044 698 0
-1045 708 0
-1046 708 0
-1047 708 0
-1048 708 0
-1049 708 0
-1050 708 0
-1051 708 0
-1052 708 0
-1053 708 0
-1054 718 0
-1055 718 0
-1056 718 0
-1057 718 0
-1058 718 0
-1059 718 0
-1060 718 0
-1061 718 0
-1062 718 0
-1063 728 0
-1064 728 0
-1065 728 0
-1066 728 0
-1067 728 0
-1068 728 0
-1069 728 0
-1070 728 0
-1071 728 0
-1072 738 0
-1073 738 0
-1074 738 0
-1075 738 0
-1076 738 0
-1077 738 0
-1078 738 0
-1079 738 0
-1080 738 0
829 -658 1000 -1 0
831 -668 1001 -10 0
833 -678 1002 -19 0
835 -688 1003 -28 0
837 -698 1004 -37 0
839 -708 1005 -46 0
841 -718 1006 -55 0
843 -728 1007 -64 0
845 -738 1008 -73 0
829 -658 1009 -2 0
831 -668 1010 -11 0
833 -678 1011 -20 0
835 -688 1012 -29 0
837 -698 1013 -38 0
839 -708 1014 -47 0
841 -718 1015 -56 0
843 -728 1016 -65 0
845 -738 1017 -74 0
829 -658 1018 -3 0
831 -668 1019 -12 0
833 -678 1020 -21 0
835 -688 1021 -30 0
837 -698 1022 -39 0
839 -708 1023 -48 0
841 -718 1024 -57 0
843 -728 1025 -66 0
845 -738 1026 -75 0
829 -658 1027 -4 0
831 -668 1028 -13 0
833 -678 1029 -22 0
835 -688 1030 -31 0
837 -698 1031 -40 0
839 -708 1032 -49 0
841 -718 1033 -58 0
843 -728 1034 -67 0
845 -738 1035 -76 0
829 -658 1036 -5 0
831 -668 1037 -14 0
833 -678 1038 -23 0
835 -688 1039 -32 0
837 -698 1040 -41 0
839 -708 1041 -50 0
841 -718 1042 -59 0
843 -728 1043 -68 0
845 -738 1044 -77 0
829 -658 1045 -6 0
831 -668 1046 -15 0
833 -678 1047 -24 0
835 -688 1048 -33 0
837 -698 1049 -42 0
839 -708 1050 -51 0
841 -718 1051 -60 0
843 -728 1052 -69 0
845 -738 1053 -78 0
829 -658 1054 -7 0
831 -668 1055 -16 0
833 -678 1056 -25 0
835 -688 1057 -34 0
837 -698 1058 -43 0
839 -708 1059 -52 0
841 -718 1060 -61 0
843 -728 1061 -70 0
845 -738 1062 -79 0
829 -658 1063 -8 0
831 -668 1064 -17 0
833 -678 1065 -26 0
835 -688 1066 -35 0
837 -698 1067 -44 0
839 -708 1068 -53 0
841 -718 1069 -62 0
843 -728 1070 -71 0
845 -738 1071 -80 0
829 -658 1072 -9 0
831 -668 1073 -18 0
833 -678 1074 -27 0
835 -688 1075 -36 0
837 -698 1076 -45 0
839 -708 1077 -54 0
841 -718 1078 -63 0
843 -728 1079 -72 0
845 -738 1080 -81 0
1 -829 0
10 -831 0
19 -833 0
28 -835 0
37 -837 0
46 -839 0
55 -841 0
64 -843 0
73 -845 0
2 -829 0
11 -831 0
20 -833 0
29 -835 0
38 -837 0
47 -839 0
56 -841 0
65 -843 0
74 -845 0
3 -829 0
12 -831 0
21 -833 0
30 -835 0
39 -837 0
48 -839 0
57 -841 0
66 -843 0
75 -845 0
4 -829 0
13 -831 0
22 -833 0
31 -835 0
40 -837 0
49 -839 0
58 -841 0
67 -843 0
76 -845 0
5 -829 0
14 -831 0
23 -833 0
32 -835 0
41 -837 0
50 -839 0
59 -841 0
68 -843 0
77 -845 0
6 -829 0
15 -831 0
24 -833 0
33 -835 0
42 -837 0
51 -839 0
60 -841 0
69 -843 0
78 -845 0
7 -829 0
16 -831 0
25 -833 0
34 -835 0
43 -837 0
52 -839 0
61 -841 0
70 -843 0
79 -845 0
8 -829 0
17 -831 0
26 -833 0
35 -835 0
44 -837 0
53 -839 0
62 -841 0
71 -843 0
80 -845 0
9 -829 0
18 -831 0
27 -833 0
36 -835 0
45 -837 0
54 -839 0
63 -841 0
72 -843 0
81 -845 0
1 658 0
10 668 0
19 678 0
28 688 0
37 698 0
46 708 0
55 718 0
64 728 0
73 738 0
2 658 0
11 668 0
20 678 0
29 688 0
38 698 0
47 708 0
56 718 0
65 728 0
74 738 0
3 658 0
12 668 0
21 678 0
30 688 0
39 698 0
48 708 0
57 718 0
66 728 0
75 738 0
4 658 0
13 668 0
22 678 0
31 688 0
40 698 0
49 708 0
58 718 0
67 728 0
76 738 0
5 658 0
14 668 0
23 678 0
32 688 0
41 698 0
50 708 0
59 718 0
68 728 0
77 738 0
6 658 0
15 668 0
24 678 0
33 688 0
42 698 0
51 708 0
60 718 0
69 728 0
78 738 0
7 658 0
16 668 0
25 678 0
34 688 0
43 698 0
52 708 0
61 718 0
70 728 0
79 738 0
8 658 0
17 668 0
26 678 0
35 688 0
44 698 0
53 708 0
62 718 0
71 728 0
80 738 0
9 658 0
18 668 0
27 678 0
36 688 0
45 698 0
54 708 0
63 718 0
72 728 0
81 738 0
1 -1000 0
10 -1001 0
19 -1002 0
28 -1003 0
37 -1004 0
46 -1005 0
55 -1006 0
64 -1007 0
73 -1008 0
2 -1009 0
11 -1010 0
20 -1011 0
29 -1012 0
38 -1013 0
47 -1014 0
56 -1015 0
65 -1016 0
74 -1017 0
3 -1018 0
12 -1019 0
21 -1020 0
30 -1021 0
39 -1022 0
48 -1023 0
57 -1024 0
66 -1025 0
75 -1026 0
4 -1027 0
13 -1028 0
22 -1029 0
31 -1030 0
40 -1031 0
49 -1032 0
58 -1033 0
67 -1034 0
76 -1035 0
5 -1036 0
14 -1037 0
23 -1038 0
32 -1039 0
41 -1040 0
50 -1041 0
59 -1042 0
68 -1043 0
77 -1044 0
6 -1045 0
15 -1046 0
24 -1047 0
33 -1048 0
42 -1049 0
51 -1050 0
60 -1051 0
69 -1052 0
78 -1053 0
7 -1054 0
16 -1055 0
25 -1056 0
34 -1057 0
43 -1058 0
52 -1059 0
61 -1060 0
70 -1061 0
79 -1062 0
8 -1063 0
17 -1064 0
26 -1065 0
35 -1066 0
44 -1067 0
53 -1068 0
62 -1069 0
71 -1070 0
80 -1071 0
9 -1072 0
18 -1073 0
27 -1074 0
36 -1075 0
45 -1076 0
54 -1077 0
63 -1078 0
72 -1079 0
81 -1080 0
83 0
688 0
-728 0
86 0
-698 0
104 0
95 0
98 0
92 0
89 0
678 0
-738 0
668 0
107 0
101 0
-718 0
658 0
-708 0
-829 1081 0
-1081 1082 0
-831 -1081 0
-831 1082 0
-1082 1083 0
-833 -1082 0
-833 1083 0
-1083 1084 0
-835 -1083 0
-835 1084 0
-1084 1085 0
-837 -1084 0
-837 1085 0
-1085 1086 0
-839 -1085 0
-839 1086 0
-1086 1087 0
-841 -1086 0
-841 1087 0
-1087 1088 0
-843 -1087 0
-843 1088 0
-845 -1088 0
82 0
109 85 0
-109 -85 0
-109 -129 127 0
-109 -147 145 0
-109 -165 163 0
-109 -183 181 0
-109 -201 199 0
-109 -219 217 0
-109 -237 235 0
127 88 0
-127 -88 0
-127 -113 109 0
-127 -149 145 0
-127 -167 163 0
-127 -185 181 0
-127 -203 199 0
-127 -221 217 0
-127 -239 235 0
145 91 0
-145 -91 0
-145 -115 109 0
-145 -133 127 0
-145 -169 163 0
-145 -187 181 0
-145 -205 199 0
-145 -223 217 0
-145 -241 235 0
163 94 0
-163 -94 0
-163 -117 109 0
-163 -135 127 0
-163 -153 145 0
-163 -189 181 0
-163 -207 199 0
-163 -225 217 0
-163 -243 235 0
181 97 0
-181 -97 0
-181 -119 109 0
-181 -137 127 0
-181 -155 145 0
-181 -173 163 0
-181 -209 199 0
-181 -227 217 0
-181 -245 235 0
199 100 0
-199 -100 0
-199 -121 109 0
-199 -139 127 0
-199 -157 145 0
-199 -175 163 0
-199 -193 181 0
-199 -229 217 0
-199 -247 235 0
217 103 0
-217 -103 0
-217 -123 109 0
-217 -141 127 0
-217 -159 145 0
-217 -177 163 0
-217 -195 181 0
-217 -213 199 0
-217 -249 235 0
235 106 0
-235 -106 0
-235 -125 109 0
-235 -143 127 0
-235 -161 145 0
-235 -179 163 0
-235 -197 181 0
-235 -215 199 0
-235 -233 217 0
111 0
85 109 0
-85 -109 0
-85 -127 129 0
-85 -145 147 0
-85 -163 165 0
-85 -181 183 0
-85 -199 201 0
-85 -217 219 0
-85 -235 237 0
129 113 0
-129 -113 0
-129 -88 85 0
-129 -149 147 0
-129 -167 165 0
-129 -185 183 0
-129 -203 201 0
-129 -221 219 0
-129 -239 237 0
147 115 0
-147 -115 0
-147 -91 85 0
-147 -133 129 0
-147 -169 165 0
-147 -187 183 0
-147 -205 201 0
-147 -223 219 0
-147 -241 237 0
165 117 0
-165 -117 0
-165 -94 85 0
-165 -135 129 0
-165 -153 147 0
-165 -189 183 0
-165 -207 201 0
-165 -225 219 0
-165 -243 237 0
183 119 0
-183 -119 0
-183 -97 85 0
-183 -137 129 0
-183 -155 147 0
-183 -173 165 0
-183 -209 201 0
-183 -227 219 0
-183 -245 237 0
201 121 0
-201 -121 0
-201 -100 85 0
-201 -139 129 0
-201 -157 147 0
-201 -175 165 0
-201 -193 183 0
-201 -229 219 0
-201 -247 237 0
219 123 0
-219 -123 0
-219 -103 85 0
-219 -141 129 0
-219 -159 147 0
-219 -177 165 0
-219 -195 183 0
-219 -213 201 0
-219 -249 237 0
237 125 0
-237 -125 0
-237 -106 85 0
-237 -143 129 0
-237 -161 147 0
-237 -179 165 0
-237 -197 183 0
-237 -215 201 0
-237 -233 219 0
131 0
88 127 0
-88 -127 0
-88 -109 113 0
-88 -145 149 0
-88 -163 167 0
-88 -181 185 0
-88 -199 203 0
-88 -217 221 0
-88 -235 239 0
113 129 0
-113 -129 0
-113 -85 88 0
-113 -147 149 0
-113 -165 167 0
-113 -183 185 0
-113 -201 203 0
-113 -219 221 0
-113 -237 239 0
149 133 0
-149 -133 0
-149 -91 88 0
-149 -115 113 0
-149 -169 167 0
-149 -187 185 0
-149 -205 203 0
-149 -223 221 0
-149 -241 239 0
167 135 0
-167 -135 0
-167 -94 88 0
-167 -117 113 0
-167 -153 149 0
-167 -189 185 0
-167 -207 203 0
-167 -225 221 0
-167 -243 239 0
185 137 0
-185 -137 0
-185 -97 88 0
-185 -119 113 0
-185 -155 149 0
-185 -173 167 0
-185 -209 203 0
-185 -227 221 0
-185 -245 239 0
203 139 0
-203 -139 0
-203 -100 88 0
-203 -121 113 0
-203 -157 149 0
-203 -175 167 0
-203 -193 185 0
-203 -229 221 0
-203 -247 239 0
221 141 0
-221 -141 0
-221 -103 88 0
-221 -123 113 0
-221 -159 149 0
-221 -177 167 0
-221 -195 185 0
-221 -213 203 0
-221 -249 239 0
239 143 0
-239 -143 0
-239 -106 88 0
-239 -125 113 0
-239 -161 149 0
-239 -179 167 0
-239 -197 185 0
-239 -215 203 0
-239 -233 221 0
151 0
91 145 0
-91 -145 0
-91 -109 115 0
-91 -127 133 0
-91 -163 169 0
-91 -181 187 0
-91 -199 205 0
-91 -217 223 0
-91 -235 241 0
115 147 0
-115 -147 0
-115 -85 91 0
-115 -129 133 0
-115 -165 169 0
-115 -183 187 0
-115 -201 205 0
-115 -219 223 0
-115 -237 241 0
133 149 0
-133 -149 0
-133 -88 91 0
-133 -113 115 0
-133 -167 169 0
-133 -185 187 0
-133 -203 205 0
-133 -221 223 0
-133 -239 241 0
169 153 0
-169 -153 0
-169 -94 91 0
-169 -117 115 0
-169 -135 133 0
-169 -189 187 0
-169 -207 205 0
-169 -225 223 0
-169 -243 241 0
187 155 0
-187 -155 0
-187 -97 91 0
-187 -119 115 0
-187 -137 133 0
-187 -173 169 0
-187 -209 205 0
-187 -227 223 0
-187 -245 241 0
205 157 0
-205 -157 0
-205 -100 91 0
-205 -121 115 0
-205 -139 133 0
-205 -175 169 0
-205 -193 187 0
-205 -229 223 0
-205 -247 241 0
223 159 0
-223 -159 0
-223 -103 91 0
-223 -123 115 0
-223 -141 133 0
-223 -177 169 0
-223 -195 187 0
-223 -213 205 0
-223 -249 241 0
241 161 0
-241 -161 0
-241 -106 91 0
-241 -125 115 0
-241 -143 133 0
-241 -179 169 0
-241 -197 187 0
-241 -215 205 0
-241 -233 223 0
171 0
94 163 0
-94 -163 0
-94 -109 117 0
-94 -127 135 0
-94 -145 153 0
-94 -181 189 0
-94 -199 207 0
-94 -217 225 0
-94 -235 243 0
117 165 0
-117 -165 0
-117 -85 94 0
-117 -129 135 0
-117 -147 153 0
-117 -183 189 0
-117 -201 207 0
-117 -219 225 0
-117 -237 243 0
135 167 0
-135 -167 0
-135 -88 94 0
-135 -113 117 0
-135 -149 153 0
-135 -185 189 0
-135 -203 207 0
-135 -221 225 0
-135 -239 243 0
153 169 0
-153 -169 0
-153 -91 94 0
-153 -115 117 0
-153 -133 135 0
-153 -187 189 0
-153 -205 207 0
-153 -223 225 0
-153 -241 243 0
189 173 0
-189 -173 0
-189 -97 94 0
-189 -119 117 0
-189 -137 135 0
-189 -155 153 0
-189 -209 207 0
-189 -227 225 0
-189 -245 243 0
207 175 0
-207 -175 0
-207 -100 94 0
-207 -121 117 0
-207 -139 135 0
-207 -157 153 0
-207 -193 189 0
-207 -229 225 0
-207 -247 243 0
225 177 0
-225 -177 0
-225 -103 94 0
-225 -123 117 0
-225 -141 135 0
-225 -159 153 0
-225 -195 189 0
-225 -213 207 0
-225 -249 243 0
243 179 0
-243 -179 0
-243 -106 94 0
-243 -125 117 0
-243 -143 135 0
-243 -161 153 0
-243 -197 189 0
-243 -215 207 0
-243 -233 225 0
191 0
97 181 0
-97 -181 0
-97 -109 119 0
-97 -127 137 0
-97 -145 155 0
-97 -163 173 0
-97 -199 209 0
-97 -217 227 0
-97 -235 245 0
119 183 0
-119 -183 0
-119 -85 97 0
-119 -129 137 0
-119 -147 155 0
-119 -165 173 0
-119 -201 209 0
-119 -219 227 0
-119 -237 245 0
137 185 0
-137 -185 0
-137 -88 97 0
-137 -113 119 0
-137 -149 155 0
-137 -167 173 0
-137 -203 209 0
-137 -221 227 0
-137 -239 245 0
155 187 0
-155 -187 0
-155 -91 97 0
-155 -115 119 0
-155 -133 137 0
-155 -169 173 0
-155 -205 209 0
-155 -223 227 0
-155 -241 245 0
173 189 0
-173 -189 0
-173 -94 97 0
-173 -117 119 0
-173 -135 137 0
-173 -153 155 0
-173 -207 209 0
-173 -225 227 0
-173 -243 245 0
209 193 0
-209 -193 0
-209 -100 97 0
-209 -121 119 0
-209 -139 137 0
-209 -157 155 0
-209 -175 173 0
-209 -229 227 0
-209 -247 245 0
227 195 0
-227 -195 0
-227 -103 97 0
-227 -123 119 0
-227 -141 137 0
-227 -159 155 0
-227 -177 173 0
-227 -213 209 0
-227 -249 245 0
245 197 0
-245 -197 0
-245 -106 97 0
-245 -125 119 0
-245 -143 137 0
-245 -161 155 0
-245 -179 173 0
-245 -215 209 0
-245 -233 227 0
211 0
100 199 0
-100 -199 0
-100 -109 121 0
-100 -127 139 0
-100 -145 157 0
-100 -163 175 0
-100 -181 193 0
-100 -217 229 0
-100 -235 247 0
121 201 0
-121 -201 0
-121 -85 100 0
-121 -129 139 0
-121 -147 157 0
-121 -165 175 0
-121 -183 193 0
-121 -219 229 0
-121 -237 247 0
139 203 0
-139 -203 0
-139 -88 100 0
-139 -113 121 0
-139 -149 157 0
-139 -167 175 0
-139 -185 193 0
-139 -221 229 0
-139 -239 247 0
157 205 0
-157 -205 0
-157 -91 100 0
-157 -115 121 0
-157 -133 139 0
-157 -169 175 0
-157 -187 193 0
-157 -223 229 0
-157 -241 247 0
175 207 0
-175 -207 0
-175 -94 100 0
-175 -117 121 0
-175 -135 139 0
-175 -153 157 0
-175 -189 193 0
-175 -225 229 0
-175 -243 247 0
193 209 0
-193 -209 0
-193 -97 100 0
-193 -119 121 0
-193 -137 139 0
-193 -155 157 0
-193 -173 175 0
-193 -227 229 0
-193 -245 247 0
229 213 0
-229 -213 0
-229 -103 100 0
-229 -123 121 0
-229 -141 139 0
-229 -159 157 0
-229 -177 175 0
-229 -195 193 0
-229 -249 247 0
247 215 0
-247 -215 0
-247 -106 100 0
-247 -125 121 0
-247 -143 139 0
-247 -161 157 0
-247 -179 175 0
-247 -197 193 0
-247 -233 229 0
231 0
103 217 0
-103 -217 0
-103 -109 123 0
-103 -127 141 0
-103 -145 159 0
-103 -163 177 0
-103 -181 195 0
-103 -199 213 0
-103 -235 249 0
123 219 0
-123 -219 0
-123 -85 103 0
-123 -129 141 0
-123 -147 159 0
-123 -165 177 0
-123 -183 195 0
-123 -201 213 0
-123 -237 249 0
141 221 0
-141 -221 0
-141 -88 103 0
-141 -113 123 0
-141 -149 159 0
-141 -167 177 0
-141 -185 195 0
-141 -203 213 0
-141 -239 249 0
159 223 0
-159 -223 0
-159 -91 103 0
-159 -115 123 0
-159 -133 141 0
-159 -169 177 0
-159 -187 195 0
-159 -205 213 0
-159 -241 249 0
177 225 0
-177 -225 0
-177 -94 103 0
-177 -117 123 0
-177 -135 141 0
-177 -153 159 0
-177 -189 195 0
-177 -207 213 0
-177 -243 249 0
195 227 0
-195 -227 0
-195 -97 103 0
-195 -119 123 0
-195 -137 141 0
-195 -155 159 0
-195 -173 177 0
-195 -209 213 0
-195 -245 249 0
213 229 0
-213 -229 0
-213 -100 103 0
-213 -121 123 0
-213 -139 141 0
-213 -157 159 0
-213 -175 177 0
-213 -193 195 0
-213 -247 249 0
249 233 0
-249 -233 0
-249 -106 103 0
-249 -125 123 0
-249 -143 141 0
-249 -161 159 0
-249 -179 177 0
-249 -197 195 0
-249 -215 213 0
251 0
106 235 0
-106 -235 0
-106 -109 125 0
-106 -127 143 0
-106 -145 161 0
-106 -163 179 0
-106 -181 197 0
-106 -199 215 0
-106 -217 233 0
125 237 0
-125 -237 0
-125 -85 106 0
-125 -129 143 0
-125 -147 161 0
-125 -165 179 0
-125 -183 197 0
-125 -201 215 0
-125 -219 233 0
143 239 0
-143 -239 0
-143 -88 106 0
-143 -113 125 0
-143 -149 161 0
-143 -167 179 0
-143 -185 197 0
-143 -203 215 0
-143 -221 233 0
161 241 0
-161 -241 0
-161 -91 106 0
-161 -115 125 0
-161 -133 143 0
-161 -169 179 0
-161 -187 197 0
-161 -205 215 0
-161 -223 233 0
179 243 0
-179 -243 0
-179 -94 106 0
-179 -117 125 0
-179 -135 143 0
-179 -153 161 0
-179 -189 197 0
-179 -207 215 0
-179 -225 233 0
197 245 0
-197 -245 0
-197 -97 106 0
-197 -119 125 0
-197 -137 143 0
-197 -155 161 0
-197 -173 179 0
-197 -209 215 0
-197 -227 233 0
215 247 0
-215 -247 0
-215 -100 106 0
-215 -121 125 0
-215 -139 143 0
-215 -157 161 0
-215 -175 179 0
-215 -193 197 0
-215 -229 233 0
233 249 0
-233 -249 0
-233 -103 106 0
-233 -123 125 0
-233 -141 143 0
-233 -159 161 0
-233 -177 179 0
-233 -195 197 0
-233 -213 215 0
-253 0
-271 109 0
-1089 127 0
-1089 113 0
-127 -113 1089 0
-1090 145 0
-1090 115 0
-145 -115 1090 0
-1091 163 0
-1091 117 0
-163 -117 1091 0
-1092 181 0
-1092 119 0
-181 -119 1092 0
-1093 199 0
-1093 121 0
-199 -121 1093 0
-1094 217 0
-1094 123 0
-217 -123 1094 0
-1095 235 0
-1095 125 0
-235 -125 1095 0
-271 -1089 0
-271 -1090 0
-271 -1091 0
-271 -1092 0
-271 -1093 0
-271 -1094 0
-271 -1095 0
-109 271 1089 1090 1091 1092 1093 1094 1095 0
-289 127 0
-1096 109 0
-1096 129 0
-109 -129 1096 0
-1097 145 0
-1097 133 0
-145 -133 1097 0
-1098 163 0
-1098 135 0
-163 -135 1098 0
-1099 181 0
-1099 137 0
-181 -137 1099 0
-1100 199 0
-1100 139 0
-199 -139 1100 0
-1101 217 0
-1101 141 0
-217 -141 1101 0
-1102 235 0
-1102 143 0
-235 -143 1102 0
-289 -1096 0
-289 -1097 0
-289 -1098 0
-289 -1099 0
-289 -1100 0
-289 -1101 0
-289 -1102 0
-127 289 1096 1097 1098 1099 1100 1101 1102 0
-307 145 0
-1103 109 0
-1103 147 0
-109 -147 1103 0
-1104 127 0
-1104 149 0
-127 -149 1104 0
-1105 163 0
-1105 153 0
-163 -153 1105 0
-1106 181 0
-1106 155 0
-181 -155 1106 0
-1107 199 0
-1107 157 0
-199 -157 1107 0
-1108 217 0
-1108 159 0
-217 -159 1108 0
-1109 235 0
-1109 161 0
-235 -161 1109 0
-307 -1103 0
-307 -1104 0
-307 -1105 0
-307 -1106 0
-307 -1107 0
-307 -1108 0
-307 -1109 0
-145 307 1103 1104 1105 1106 1107 1108 1109 0
-325 163 0
-1110 109 0
-1110 165 0
-109 -165 1110 0
-1111 127 0
-1111 167 0
-127 -167 1111 0
-1112 145 0
-1112 169 0
-145 -169 1112 0
-1113 181 0
-1113 173 0
-181 -173 1113 0
-1114 199 0
-1114 175 0
-199 -175 1114 0
-1115 217 0
-1115 177 0
-217 -177 1115 0
-1116 235 0
-1116 179 0
-235 -179 1116 0
-325 -1110 0
-325 -1111 0
-325 -1112 0
-325 -1113 0
-325 -1114 0
-325 -1115 0
-325 -1116 0
-163 325 1110 1111 1112 1113 1114 1115 1116 0
-343 181 0
-1117 109 0
-1117 183 0
-109 -183 1117 0
-1118 127 0
-1118 185 0
-127 -185 1118 0
-1119 145 0
-1119 187 0
-145 -187 1119 0
-1120 163 0
-1120 189 0
-163 -189 1120 0
-1121 199 0
-1121 193 0
-199 -193 1121 0
-1122 217 0
-1122 195 0
-217 -195 1122 0
-1123 235 0
-1123 197 0
-235 -197 1123 0
-343 -1117 0
-343 -1118 0
-343 -1119 0
-343 -1120 0
-343 -1121 0
-343 -1122 0
-343 -1123 0
-181 343 1117 1118 1119 1120 1121 1122 1123 0
-361 199 0
-1124 109 0
-1124 201 0
-109 -201 1124 0
-1125 127 0
-1125 203 0
-127 -203 1125 0
-1126 145 0
-1126 205 0
-145 -205 1126 0
-1127 163 0
-1127 207 0
-163 -207 1127 0
-1128 181 0
-1128 209 0
-181 -209 1128 0
-1129 217 0
-1129 213 0
-217 -213 1129 0
-1130 235 0
-1130 215 0
-235 -215 1130 0
-361 -1124 0
-361 -1125 0
-361 -1126 0
-361 -1127 0
-361 -1128 0
-361 -1129 0
-361 -1130 0
-199 361 1124 1125 1126 1127 1128 1129 1130 0
-379 217 0
-1131 109 0
-1131 219 0
-109 -219 1131 0
-1132 127 0
-1132 221 0
-127 -221 1132 0
-1133 145 0
-1133 223 0
-145 -223 1133 0
-1134 163 0
-1134 225 0
-163 -225 1134 0
-1135 181 0
-1135 227 0
-181 -227 1135 0
-1136 199 0
-1136 229 0
-199 -229 1136 0
-1137 235 0
-1137 233 0
-235 -233 1137 0
-379 -1131 0
-379 -1132 0
-379 -1133 0
-379 -1134 0
-379 -1135 0
-379 -1136 0
-379 -1137 0
-217 379 1131 1132 1133 1134 1135 1136 1137 0
-397 235 0
-1138 109 0
-1138 237 0
-109 -237 1138 0
-1139 127 0
-1139 239 0
-127 -239 1139 0
-1140 145 0
-1140 241 0
-145 -241 1140 0
-1141 163 0
-1141 243 0
-163 -243 1141 0
-1142 181 0
-1142 245 0
-181 -245 1142 0
-1143 199 0
-1143 247 0
-199 -247 1143 0
-1144 217 0
-1144 249 0
-217 -249 1144 0
-397 -1138 0
-397 -1139 0
-397 -1140 0
-397 -1141 0
-397 -1142 0
-397 -1143 0
-397 -1144 0
-235 397 1138 1139 1140 1141 1142 1143 1144 0
-255 85 0
-1145 129 0
-1145 88 0
-129 -88 1145 0
-1146 147 0
-1146 91 0
-147 -91 1146 0
-1147 165 0
-1147 94 0
-165 -94 1147 0
-1148 183 0
-1148 97 0
-183 -97 1148 0
-1149 201 0
-1149 100 0
-201 -100 1149 0
-1150 219 0
-1150 103 0
-219 -103 1150 0
-1151 237 0
-1151 106 0
-237 -106 1151 0
-255 -1145 0
-255 -1146 0
-255 -1147 0
-255 -1148 0
-255 -1149 0
-255 -1150 0
-255 -1151 0
-85 255 1145 1146 1147 1148 1149 1150 1151 0
-273 0
-291 129 0
-1152 85 0
-1152 127 0
-85 -127 1152 0
-1153 147 0
-1153 133 0
-147 -133 1153 0
-1154 165 0
-1154 135 0
-165 -135 1154 0
-1155 183 0
-1155 137 0
-183 -137 1155 0
-1156 201 0
-1156 139 0
-201 -139 1156 0
-1157 219 0
-1157 141 0
-219 -141 1157 0
-1158 237 0
-1158 143 0
-237 -143 1158 0
-291 -1152 0
-291 -1153 0
-291 -1154 0
-291 -1155 0
-291 -1156 0
-291 -1157 0
-291 -1158 0
-129 291 1152 1153 1154 1155 1156 1157 1158 0
-309 147 0
-1159 85 0
-1159 145 0
-85 -145 1159 0
-1160 129 0
-1160 149 0
-129 -149 1160 0
-1161 165 0
-1161 153 0
-165 -153 1161 0
-1162 183 0
-1162 155 0
-183 -155 1162 0
-1163 201 0
-1163 157 0
-201 -157 1163 0
-1164 219 0
-1164 159 0
-219 -159 1164 0
-1165 237 0
-1165 161 0
-237 -161 1165 0
-309 -1159 0
-309 -1160 0
-309 -1161 0
-309 -1162 0
-309 -1163 0
-309 -1164 0
-309 -1165 0
-147 309 1159 1160 1161 1162 1163 1164 1165 0
-327 165 0
-1166 85 0
-1166 163 0
-85 -163 1166 0
-1167 129 0
-1167 167 0
-129 -167 1167 0
-1168 147 0
-1168 169 0
-147 -169 1168 0
-1169 183 0
-1169 173 0
-183 -173 1169 0
-1170 201 0
-1170 175 0
-201 -175 1170 0
-1171 219 0
-1171 177 0
-219 -177 1171 0
-1172 237 0
-1172 179 0
-237 -179 1172 0
-327 -1166 0
-327 -1167 0
-327 -1168 0
-327 -1169 0
-327 -1170 0
-327 -1171 0
-327 -1172 0
-165 327 1166 1167 1168 1169 1170 1171 1172 0
-345 183 0
-1173 85 0
-1173 181 0
-85 -181 1173 0
-1174 129 0
-1174 185 0
-129 -185 1174 0
-1175 147 0
-1175 187 0
-147 -187 1175 0
-1176 165 0
-1176 189 0
-165 -189 1176 0
-1177 201 0
-1177 193 0
-201 -193 1177 0
-1178 219 0
-1178 195 0
-219 -195 1178 0
-1179 237 0
-1179 197 0
-237 -197 1179 0
-345 -1173 0
-345 -1174 0
-345 -1175 0
-345 -1176 0
-345 -1177 0
-345 -1178 0
-345 -1179 0
-183 345 1173 1174 1175 1176 1177 1178 1179 0
-363 201 0
-1180 85 0
-1180 199 0
-85 -199 1180 0
-1181 129 0
-1181 203 0
-129 -203 1181 0
-1182 147 0
-1182 205 0
-147 -205 1182 0
-1183 165 0
-1183 207 0
-165 -207 1183 0
-1184 183 0
-1184 209 0
-183 -209 1184 0
-1185 219 0
-1185 213 0
-219 -213 1185 0
-1186 237 0
-1186 215 0
-237 -215 1186 0
-363 -1180 0
-363 -1181 0
-363 -1182 0
-363 -1183 0
-363 -1184 0
-363 -1185 0
-363 -1186 0
-201 363 1180 1181 1182 1183 1184 1185 1186 0
-381 219 0
-1187 85 0
-1187 217 0
-85 -217 1187 0
-1188 129 0
-1188 221 0
-129 -221 1188 0
-1189 147 0
-1189 223 0
-147 -223 1189 0
-1190 165 0
-1190 225 0
-165 -225 1190 0
-1191 183 0
-1191 227 0
-183 -227 1191 0
-1192 201 0
-1192 229 0
-201 -229 1192 0
-1193 237 0
-1193 233 0
-237 -233 1193 0
-381 -1187 0
-381 -1188 0
-381 -1189 0
-381 -1190 0
-381 -1191 0
-381 -1192 0
-381 -1193 0
-219 381 1187 1188 1189 1190 1191 1192 1193 0
-399 237 0
-1194 85 0
-1194 235 0
-85 -235 1194 0
-1195 129 0
-1195 239 0
-129 -239 1195 0
-1196 147 0
-1196 241 0
-147 -241 1196 0
-1197 165 0
-1197 243 0
-165 -243 1197 0
-1198 183 0
-1198 245 0
-183 -245 1198 0
-1199 201 0
-1199 247 0
-201 -247 1199 0
-1200 219 0
-1200 249 0
-219 -249 1200 0
-399 -1194 0
-399 -1195 0
-399 -1196 0
-399 -1197 0
-399 -1198 0
-399 -1199 0
-399 -1200 0
-237 399 1194 1195 1196 1197 1198 1199 1200 0
-257 88 0
-1201 113 0
-1201 85 0
-113 -85 1201 0
-1202 149 0
-1202 91 0
-149 -91 1202 0
-1203 167 0
-1203 94 0
-167 -94 1203 0
-1204 185 0
-1204 97 0
-185 -97 1204 0
-1205 203 0
-1205 100 0
-203 -100 1205 0
-1206 221 0
-1206 103 0
-221 -103 1206 0
-1207 239 0
-1207 106 0
-239 -106 1207 0
-257 -1201 0
-257 -1202 0
-257 -1203 0
-257 -1204 0
-257 -1205 0
-257 -1206 0
-257 -1207 0
-88 257 1201 1202 1203 1204 1205 1206 1207 0
-275 113 0
-1208 88 0
-1208 109 0
-88 -109 1208 0
-1209 149 0
-1209 115 0
-149 -115 1209 0
-1210 167 0
-1210 117 0
-167 -117 1210 0
-1211 185 0
-1211 119 0
-185 -119 1211 0
-1212 203 0
-1212 121 0
-203 -121 1212 0
-1213 221 0
-1213 123 0
-221 -123 1213 0
-1214 239 0
-1214 125 0
-239 -125 1214 0
-275 -1208 0
-275 -1209 0
-275 -1210 0
-275 -1211 0
-275 -1212 0
-275 -1213 0
-275 -1214 0
-113 275 1208 1209 1210 1211 1212 1213 1214 0
-293 0
-311 149 0
-1215 88 0
-1215 145 0
-88 -145 1215 0
-1216 113 0
-1216 147 0
-113 -147 1216 0
-1217 167 0
-1217 153 0
-167 -153 1217 0
-1218 185 0
-1218 155 0
-185 -155 1218 0
-1219 203 0
-1219 157 0
-203 -157 1219 0
-1220 221 0
-1220 159 0
-221 -159 1220 0
-1221 239 0
-1221 161 0
-239 -161 1221 0
-311 -1215 0
-311 -1216 0
-311 -1217 0
-311 -1218 0
-311 -1219 0
-311 -1220 0
-311 -1221 0
-149 311 1215 1216 1217 1218 1219 1220 1221 0
-329 167 0
-1222 88 0
-1222 163 0
-88 -163 1222 0
-1223 113 0
-1223 165 0
-113 -165 1223 0
-1224 149 0
-1224 169 0
-149 -169 1224 0
-1225 185 0
-1225 173 0
-185 -173 1225 0
-1226 203 0
-1226 175 0
-203 -175 1226 0
-1227 221 0
-1227 177 0
-221 -177 1227 0
-1228 239 0
-1228 179 0
-239 -179 1228 0
-329 -1222 0
-329 -1223 0
-329 -1224 0
-329 -1225 0
-329 -1226 0
-329 -1227 0
-329 -1228 0
-167 329 1222 1223 1224 1225 1226 1227 1228 0
-347 185 0
-1229 88 0
-1229 181 0
-88 -181 1229 0
-1230 113 0
-1230 183 0
-113 -183 1230 0
-1231 149 0
-1231 187 0
-149 -187 1231 0
-1232 167 0
-1232 189 0
-167 -189 1232 0
-1233 203 0
-1233 193 0
-203 -193 1233 0
-1234 221 0
-1234 195 0
-221 -195 1234 0
-1235 239 0
-1235 197 0
-239 -197 1235 0
-347 -1229 0
-347 -1230 0
-347 -1231 0
-347 -1232 0
-347 -1233 0
-347 -1234 0
-347 -1235 0
-185 347 1229 1230 1231 1232 1233 1234 1235 0
-365 203 0
-1236 88 0
-1236 199 0
-88 -199 1236 0
-1237 113 0
-1237 201 0
-113 -201 1237 0
-1238 149 0
-1238 205 0
-149 -205 1238 0
-1239 167 0
-1239 207 0
-167 -207 1239 0
-1240 185 0
-1240 209 0
-185 -209 1240 0
-1241 221 0
-1241 213 0
-221 -213 1241 0
-1242 239 0
-1242 215 0
-239 -215 1242 0
-365 -1236 0
-365 -1237 0
-365 -1238 0
-365 -1239 0
-365 -1240 0
-365 -1241 0
-365 -1242 0
-203 365 1236 1237 1238 1239 1240 1241 1242 0
-383 221 0
-1243 88 0
-1243 217 0
-88 -217 1243 0
-1244 113 0
-1244 219 0
-113 -219 1244 0
-1245 149 0
-1245 223 0
-149 -223 1245 0
-1246 167 0
-1246 225 0
-167 -225 1246 0
-1247 185 0
-1247 227 0
-185 -227 1247 0
-1248 203 0
-1248 229 0
-203 -229 1248 0
-1249 239 0
-1249 233 0
-239 -233 1249 0
-383 -1243 0
-383 -1244 0
-383 -1245 0
-383 -1246 0
-383 -1247 0
-383 -1248 0
-383 -1249 0
-221 383 1243 1244 1245 1246 1247 1248 1249 0
-401 239 0
-1250 88 0
-1250 235 0
-88 -235 1250 0
-1251 113 0
-1251 237 0
-113 -237 1251 0
-1252 149 0
-1252 241 0
-149 -241 1252 0
-1253 167 0
-1253 243 0
-167 -243 1253 0
-1254 185 0
-1254 245 0
-185 -245 1254 0
-1255 203 0
-1255 247 0
-203 -247 1255 0
-1256 221 0
-1256 249 0
-221 -249 1256 0
-401 -1250 0
-401 -1251 0
-401 -1252 0
-401 -1253 0
-401 -1254 0
-401 -1255 0
-401 -1256 0
-239 401 1250 1251 1252 1253 1254 1255 1256 0
-259 91 0
-1257 115 0
-1257 85 0
-115 -85 1257 0
-1258 133 0
-1258 88 0
-133 -88 1258 0
-1259 169 0
-1259 94 0
-169 -94 1259 0
-1260 187 0
-1260 97 0
-187 -97 1260 0
-1261 205 0
-1261 100 0
-205 -100 1261 0
-1262 223 0
-1262 103 0
-223 -103 1262 0
-1263 241 0
-1263 106 0
-241 -106 1263 0
-259 -1257 0
-259 -1258 0
-259 -1259 0
-259 -1260 0
-259 -1261 0
-259 -1262 0
-259 -1263 0
-91 259 1257 1258 1259 1260 1261 1262 1263 0
-277 115 0
-1264 91 0
-1264 109 0
-91 -109 1264 0
-1265 133 0
-1265 113 0
-133 -113 1265 0
-1266 169 0
-1266 117 0
-169 -117 1266 0
-1267 187 0
-1267 119 0
-187 -119 1267 0
-1268 205 0
-1268 121 0
-205 -121 1268 0
-1269 223 0
-1269 123 0
-223 -123 1269 0
-1270 241 0
-1270 125 0
-241 -125 1270 0
-277 -1264 0
-277 -1265 0
-277 -1266 0
-277 -1267 0
-277 -1268 0
-277 -1269 0
-277 -1270 0
-115 277 1264 1265 1266 1267 1268 1269 1270 0
-295 133 0
-1271 91 0
-1271 127 0
-91 -127 1271 0
-1272 115 0
-1272 129 0
-115 -129 1272 0
-1273 169 0
-1273 135 0
-169 -135 1273 0
-1274 187 0
-1274 137 0
-187 -137 1274 0
-1275 205 0
-1275 139 0
-205 -139 1275 0
-1276 223 0
-1276 141 0
-223 -141 1276 0
-1277 241 0
-1277 143 0
-241 -143 1277 0
-295 -1271 0
-295 -1272 0
-295 -1273 0
-295 -1274 0
-295 -1275 0
-295 -1276 0
-295 -1277 0
-133 295 1271 1272 1273 1274 1275 1276 1277 0
-313 0
-331 169 0
-1278 91 0
-1278 163 0
-91 -163 1278 0
-1279 115 0
-1279 165 0
-115 -165 1279 0
-1280 133 0
-1280 167 0
-133 -167 1280 0
-1281 187 0
-1281 173 0
-187 -173 1281 0
-1282 205 0
-1282 175 0
-205 -175 1282 0
-1283 223 0
-1283 177 0
-223 -177 1283 0
-1284 241 0
-1284 179 0
-241 -179 1284 0
-331 -1278 0
-331 -1279 0
-331 -1280 0
-331 -1281 0
-331 -1282 0
-331 -1283 0
-331 -1284 0
-169 331 1278 1279 1280 1281 1282 1283 1284 0
-349 187 0
-1285 91 0
-1285 181 0
-91 -181 1285 0
-1286 115 0
-1286 183 0
-115 -183 1286 0
-1287 133 0
-1287 185 0
-133 -185 1287 0
-1288 169 0
-1288 189 0
-169 -189 1288 0
-1289 205 0
-1289 193 0
-205 -193 1289 0
-1290 223 0
-1290 195 0
-223 -195 1290 0
-1291 241 0
-1291 197 0
-241 -197 1291 0
-349 -1285 0
-349 -1286 0
-349 -1287 0
-349 -1288 0
-349 -1289 0
-349 -1290 0
-349 -1291 0
-187 349 1285 1286 1287 1288 1289 1290 1291 0
-367 205 0
-1292 91 0
-1292 199 0
-91 -199 1292 0
-1293 115 0
-1293 201 0
-115 -201 1293 0
-1294 133 0
-1294 203 0
-133 -203 1294 0
-1295 169 0
-1295 207 0
-169 -207 1295 0
-1296 187 0
-1296 209 0
-187 -209 1296 0
-1297 223 0
-1297 213 0
-223 -213 1297 0
-1298 241 0
-1298 215 0
-241 -215 1298 0
-367 -1292 0
-367 -1293 0
-367 -1294 0
-367 -1295 0
-367 -1296 0
-367 -1297 0
-367 -1298 0
-205 367 1292 1293 1294 1295 1296 1297 1298 0
-385 223 0
-1299 91 0
-1299 217 0
-91 -217 1299 0
-1300 115 0
-1300 219 0
-115 -219 1300 0
-1301 133 0
-1301 221 0
-133 -221 1301 0
-1302 169 0
-1302 225 0
-169 -225 1302 0
-1303 187 0
-1303 227 0
-187 -227 1303 0
-1304 205 0
-1304 229 0
-205 -229 1304 0
-1305 241 0
-1305 233 0
-241 -233 1305 0
-385 -1299 0
-385 -1300 0
-385 -1301 0
-385 -1302 0
-385 -1303 0
-385 -1304 0
-385 -1305 0
-223 385 1299 1300 1301 1302 1303 1304 1305 0
-403 241 0
-1306 91 0
-1306 235 0
-91 -235 1306 0
-1307 115 0
-1307 237 0
-115 -237 1307 0
-1308 133 0
-1308 239 0
-133 -239 1308 0
-1309 169 0
-1309 243 0
-169 -243 1309 0
-1310 187 0
-1310 245 0
-187 -245 1310 0
-1311 205 0
-1311 247 0
-205 -247 1311 0
-1312 223 0
-1312 249 0
-223 -249 1312 0
-403 -1306 0
-403 -1307 0
-403 -1308 0
-403 -1309 0
-403 -1310 0
-403 -1311 0
-403 -1312 0
-241 403 1306 1307 1308 1309 1310 1311 1312 0
-261 94 0
-1313 117 0
-1313 85 0
-117 -85 1313 0
-1314 135 0
-1314 88 0
-135 -88 1314 0
-1315 153 0
-1315 91 0
-153 -91 1315 0
-1316 189 0
-1316 97 0
-189 -97 1316 0
-1317 207 0
-1317 100 0
-207 -100 1317 0
-1318 225 0
-1318 103 0
-225 -103 1318 0
-1319 243 0
-1319 106 0
-243 -106 1319 0
-261 -1313 0
-261 -1314 0
-261 -1315 0
-261 -1316 0
-261 -1317 0
-261 -1318 0
-261 -1319 0
-94 261 1313 1314 1315 1316 1317 1318 1319 0
-279 117 0
-1320 94 0
-1320 109 0
-94 -109 1320 0
-1321 135 0
-1321 113 0
-135 -113 1321 0
-1322 153 0
-1322 115 0
-153 -115 1322 0
-1323 189 0
-1323 119 0
-189 -119 1323 0
-1324 207 0
-1324 121 0
-207 -121 1324 0
-1325 225 0
-1325 123 0
-225 -123 1325 0
-1326 243 0
-1326 125 0
-243 -125 1326 0
-279 -1320 0
-279 -1321 0
-279 -1322 0
-279 -1323 0
-279 -1324 0
-279 -1325 0
-279 -1326 0
-117 279 1320 1321 1322 1323 1324 1325 1326 0
-297 135 0
-1327 94 0
-1327 127 0
-94 -127 1327 0
-1328 117 0
-1328 129 0
-117 -129 1328 0
-1329 153 0
-1329 133 0
-153 -133 1329 0
-1330 189 0
-1330 137 0
-189 -137 1330 0
-1331 207 0
-1331 139 0
-207 -139 1331 0
-1332 225 0
-1332 141 0
-225 -141 1332 0
-1333 243 0
-1333 143 0
-243 -143 1333 0
-297 -1327 0
-297 -1328 0
-297 -1329 0
-297 -1330 0
-297 -1331 0
-297 -1332 0
-297 -1333 0
-135 297 1327 1328 1329 1330 1331 1332 1333 0
-315 153 0
-1334 94 0
-1334 145 0
-94 -145 1334 0
-1335 117 0
-1335 147 0
-117 -147 1335 0
-1336 135 0
-1336 149 0
-135 -149 1336 0
-1337 189 0
-1337 155 0
-189 -155 1337 0
-1338 207 0
-1338 157 0
-207 -157 1338 0
-1339 225 0
-1339 159 0
-225 -159 1339 0
-1340 243 0
-1340 161 0
-243 -161 1340 0
-315 -1334 0
-315 -1335 0
-315 -1336 0
-315 -1337 0
-315 -1338 0
-315 -1339 0
-315 -1340 0
-153 315 1334 1335 1336 1337 1338 1339 1340 0
-333 0
-351 189 0
-1341 94 0
-1341 181 0
-94 -181 1341 0
-1342 117 0
-1342 183 0
-117 -183 1342 0
-1343 135 0
-1343 185 0
-135 -185 1343 0
-1344 153 0
-1344 187 0
-153 -187 1344 0
-1345 207 0
-1345 193 0
-207 -193 1345 0
-1346 225 0
-1346 195 0
-225 -195 1346 0
-1347 243 0
-1347 197 0
-243 -197 1347 0
-351 -1341 0
-351 -1342 0
-351 -1343 0
-351 -1344 0
-351 -1345 0
-351 -1346 0
-351 -1347 0
-189 351 1341 1342 1343 1344 1345 1346 1347 0
-369 207 0
-1348 94 0
-1348 199 0
-94 -199 1348 0
-1349 117 0
-1349 201 0
-117 -201 1349 0
-1350 135 0
-1350 203 0
-135 -203 1350 0
-1351 153 0
-1351 205 0
-153 -205 1351 0
-1352 189 0
-1352 209 0
-189 -209 1352 0
-1353 225 0
-1353 213 0
-225 -213 1353 0
-1354 243 0
-1354 215 0
-243 -215 1354 0
-369 -1348 0
-369 -1349 0
-369 -1350 0
-369 -1351 0
-369 -1352 0
-369 -1353 0
-369 -1354 0
-207 369 1348 1349 1350 1351 1352 1353 1354 0
-387 225 0
-1355 94 0
-1355 217 0
-94 -217 1355 0
-1356 117 0
-1356 219 0
-117 -219 1356 0
-1357 135 0
-1357 221 0
-135 -221 1357 0
-1358 153 0
-1358 223 0
-153 -223 1358 0
-1359 189 0
-1359 227 0
-189 -227 1359 0
-1360 207 0
-1360 229 0
-207 -229 1360 0
-1361 243 0
-1361 233 0
-243 -233 1361 0
-387 -1355 0
-387 -1356 0
-387 -1357 0
-387 -1358 0
-387 -1359 0
-387 -1360 0
-387 -1361 0
-225 387 1355 1356 1357 1358 1359 1360 1361 0
-405 243 0
-1362 94 0
-1362 235 0
-94 -235 1362 0
-1363 117 0
-1363 237 0
-117 -237 1363 0
-1364 135 0
-1364 239 0
-135 -239 1364 0
-1365 153 0
-1365 241 0
-153 -241 1365 0
-1366 189 0
-1366 245 0
-189 -245 1366 0
-1367 207 0
-1367 247 0
-207 -247 1367 0
-1368 225 0
-1368 249 0
-225 -249 1368 0
-405 -1362 0
-405 -1363 0
-405 -1364 0
-405 -1365 0
-405 -1366 0
-405 -1367 0
-405 -1368 0
-243 405 1362 1363 1364 1365 1366 1367 1368 0
-263 97 0
-1369 119 0
-1369 85 0
-119 -85 1369 0
-1370 137 0
-1370 88 0
-137 -88 1370 0
-1371 155 0
-1371 91 0
-155 -91 1371 0
-1372 173 0
-1372 94 0
-173 -94 1372 0
-1373 209 0
-1373 100 0
-209 -100 1373 0
-1374 227 0
-1374 103 0
-227 -103 1374 0
-1375 245 0
-1375 106 0
-245 -106 1375 0
-263 -1369 0
-263 -1370 0
-263 -1371 0
-263 -1372 0
-263 -1373 0
-263 -1374 0
-263 -1375 0
-97 263 1369 1370 1371 1372 1373 1374 1375 0
-281 119 0
-1376 97 0
-1376 109 0
-97 -109 1376 0
-1377 137 0
-1377 113 0
-137 -113 1377 0
-1378 155 0
-1378 115 0
-155 -115 1378 0
-1379 173 0
-1379 117 0
-173 -117 1379 0
-1380 209 0
-1380 121 0
-209 -121 1380 0
-1381 227 0
-1381 123 0
-227 -123 1381 0
-1382 245 0
-1382 125 0
-245 -125 1382 0
-281 -1376 0
-281 -1377 0
-281 -1378 0
-281 -1379 0
-281 -1380 0
-281 -1381 0
-281 -1382 0
-119 281 1376 1377 1378 1379 1380 1381 1382 0
-299 137 0
-1383 97 0
-1383 127 0
-97 -127 1383 0
-1384 119 0
-1384 129 0
-119 -129 1384 0
-1385 155 0
-1385 133 0
-155 -133 1385 0
-1386 173 0
-1386 135 0
-173 -135 1386 0
-1387 209 0
-1387 139 0
-209 -139 1387 0
-1388 227 0
-1388 141 0
-227 -141 1388 0
-1389 245 0
-1389 143 0
-245 -143 1389 0
-299 -1383 0
-299 -1384 0
-299 -1385 0
-299 -1386 0
-299 -1387 0
-299 -1388 0
-299 -1389 0
-137 299 1383 1384 1385 1386 1387 1388 1389 0
-317 155 0
-1390 97 0
-1390 145 0
-97 -145 1390 0
-1391 119 0
-1391 147 0
-119 -147 1391 0
-1392 137 0
-1392 149 0
-137 -149 1392 0
-1393 173 0
-1393 153 0
-173 -153 1393 0
-1394 209 0
-1394 157 0
-209 -157 1394 0
-1395 227 0
-1395 159 0
-227 -159 1395 0
-1396 245 0
-1396 161 0
-245 -161 1396 0
-317 -1390 0
-317 -1391 0
-317 -1392 0
-317 -1393 0
-317 -1394 0
-317 -1395 0
-317 -1396 0
-155 317 1390 1391 1392 1393 1394 1395 1396 0
-335 173 0
-1397 97 0
-1397 163 0
-97 -163 1397 0
-1398 119 0
-1398 165 0
-119 -165 1398 0
-1399 137 0
-1399 167 0
-137 -167 1399 0
-1400 155 0
-1400 169 0
-155 -169 1400 0
-1401 209 0
-1401 175 0
-209 -175 1401 0
-1402 227 0
-1402 177 0
-227 -177 1402 0
-1403 245 0
-1403 179 0
-245 -179 1403 0
-335 -1397 0
-335 -1398 0
-335 -1399 0
-335 -1400 0
-335 -1401 0
-335 -1402 0
-335 -1403 0
-173 335 1397 1398 1399 1400 1401 1402 1403 0
-353 0
-371 209 0
-1404 97 0
-1404 199 0
-97 -199 1404 0
-1405 119 0
-1405 201 0
-119 -201 1405 0
-1406 137 0
-1406 203 0
-137 -203 1406 0
-1407 155 0
-1407 205 0
-155 -205 1407 0
-1408 173 0
-1408 207 0
-173 -207 1408 0
-1409 227 0
-1409 213 0
-227 -213 1409 0
-1410 245 0
-1410 215 0
-245 -215 1410 0
-371 -1404 0
-371 -1405 0
-371 -1406 0
-371 -1407 0
-371 -1408 0
-371 -1409 0
-371 -1410 0
-209 371 1404 1405 1406 1407 1408 1409 1410 0
-389 227 0
-1411 97 0
-1411 217 0
-97 -217 1411 0
-1412 119 0
-1412 219 0
-119 -219 1412 0
-1413 137 0
-1413 221 0
-137 -221 1413 0
-1414 155 0
-1414 223 0
-155 -223 1414 0
-1415 173 0
-1415 225 0
-173 -225 1415 0
-1416 209 0
-1416 229 0
-209 -229 1416 0
-1417 245 0
-1417 233 0
-245 -233 1417 0
-389 -1411 0
-389 -1412 0
-389 -1413 0
-389 -1414 0
-389 -1415 0
-389 -1416 0
-389 -1417 0
-227 389 1411 1412 1413 1414 1415 1416 1417 0
-407 245 0
-1418 97 0
-1418 235 0
-97 -235 1418 0
-1419 119 0
-1419 237 0
-119 -237 1419 0
-1420 137 0
-1420 239 0
-137 -239 1420 0
-1421 155 0
-1421 241 0
-155 -241 1421 0
-1422 173 0
-1422 243 0
-173 -243 1422 0
-1423 209 0
-1423 247 0
-209 -247 1423 0
-1424 227 0
-1424 249 0
-227 -249 1424 0
-407 -1418 0
-407 -1419 0
-407 -1420 0
-407 -1421 0
-407 -1422 0
-407 -1423 0
-407 -1424 0
-245 407 1418 1419 1420 1421 1422 1423 1424 0
-265 100 0
-1425 121 0
-1425 85 0
-121 -85 1425 0
-1426 139 0
-1426 88 0
-139 -88 1426 0
-1427 157 0
-1427 91 0
-157 -91 1427 0
-1428 175 0
-1428 94 0
-175 -94 1428 0
-1429 193 0
-1429 97 0
-193 -97 1429 0
-1430 229 0
-1430 103 0
-229 -103 1430 0
-1431 247 0
-1431 106 0
-247 -106 1431 0
-265 -1425 0
-265 -1426 0
-265 -1427 0
-265 -1428 0
-265 -1429 0
-265 -1430 0
-265 -1431 0
-100 265 1425 1426 1427 1428 1429 1430 1431 0
-283 121 0
-1432 100 0
-1432 109 0
-100 -109 1432 0
-1433 139 0
-1433 113 0
-139 -113 1433 0
-1434 157 0
-1434 115 0
-157 -115 1434 0
-1435 175 0
-1435 117 0
-175 -117 1435 0
-1436 193 0
-1436 119 0
-193 -119 1436 0
-1437 229 0
-1437 123 0
-229 -123 1437 0
-1438 247 0
-1438 125 0
-247 -125 1438 0
-283 -1432 0
-283 -1433 0
-283 -1434 0
-283 -1435 0
-283 -1436 0
-283 -1437 0
-283 -1438 0
-121 283 1432 1433 1434 1435 1436 1437 1438 0
-301 139 0
-1439 100 0
-1439 127 0
-100 -127 1439 0
-1440 121 0
-1440 129 0
-121 -129 1440 0
-1441 157 0
-1441 133 0
-157 -133 1441 0
-1442 175 0
-1442 135 0
-175 -135 1442 0
-1443 193 0
-1443 137 0
-193 -137 1443 0
-1444 229 0
-1444 141 0
-229 -141 1444 0
-1445 247 0
-1445 143 0
-247 -143 1445 0
-301 -1439 0
-301 -1440 0
-301 -1441 0
-301 -1442 0
-301 -1443 0
-301 -1444 0
-301 -1445 0
-139 301 1439 1440 1441 1442 1443 1444 1445 0
-319 157 0
-1446 100 0
-1446 145 0
-100 -145 1446 0
-1447 121 0
-1447 147 0
-121 -147 1447 0
-1448 139 0
-1448 149 0
-139 -149 1448 0
-1449 175 0
-1449 153 0
-175 -153 1449 0
-1450 193 0
-1450 155 0
-193 -155 1450 0
-1451 229 0
-1451 159 0
-229 -159 1451 0
-1452 247 0
-1452 161 0
-247 -161 1452 0
-319 -1446 0
-319 -1447 0
-319 -1448 0
-319 -1449 0
-319 -1450 0
-319 -1451 0
-319 -1452 0
-157 319 1446 1447 1448 1449 1450 1451 1452 0
-337 175 0
-1453 100 0
-1453 163 0
-100 -163 1453 0
-1454 121 0
-1454 165 0
-121 -165 1454 0
-1455 139 0
-1455 167 0
-139 -167 1455 0
-1456 157 0
-1456 169 0
-157 -169 1456 0
-1457 193 0
-1457 173 0
-193 -173 1457 0
-1458 229 0
-1458 177 0
-229 -177 1458 0
-1459 247 0
-1459 179 0
-247 -179 1459 0
-337 -1453 0
-337 -1454 0
-337 -1455 0
-337 -1456 0
-337 -1457 0
-337 -1458 0
-337 -1459 0
-175 337 1453 1454 1455 1456 1457 1458 1459 0
-355 193 0
-1460 100 0
-1460 181 0
-100 -181 1460 0
-1461 121 0
-1461 183 0
-121 -183 1461 0
-1462 139 0
-1462 185 0
-139 -185 1462 0
-1463 157 0
-1463 187 0
-157 -187 1463 0
-1464 175 0
-1464 189 0
-175 -189 1464 0
-1465 229 0
-1465 195 0
-229 -195 1465 0
-1466 247 0
-1466 197 0
-247 -197 1466 0
-355 -1460 0
-355 -1461 0
-355 -1462 0
-355 -1463 0
-355 -1464 0
-355 -1465 0
-355 -1466 0
-193 355 1460 1461 1462 1463 1464 1465 1466 0
-373 0
-391 229 0
-1467 100 0
-1467 217 0
-100 -217 1467 0
-1468 121 0
-1468 219 0
-121 -219 1468 0
-1469 139 0
-1469 221 0
-139 -221 1469 0
-1470 157 0
-1470 223 0
-157 -223 1470 0
-1471 175 0
-1471 225 0
-175 -225 1471 0
-1472 193 0
-1472 227 0
-193 -227 1472 0
-1473 247 0
-1473 233 0
-247 -233 1473 0
-391 -1467 0
-391 -1468 0
-391 -1469 0
-391 -1470 0
-391 -1471 0
-391 -1472 0
-391 -1473 0
-229 391 1467 1468 1469 1470 1471 1472 1473 0
-409 247 0
-1474 100 0
-1474 235 0
-100 -235 1474 0
-1475 121 0
-1475 237 0
-121 -237 1475 0
-1476 139 0
-1476 239 0
-139 -239 1476 0
-1477 157 0
-1477 241 0
-157 -241 1477 0
-1478 175 0
-1478 243 0
-175 -243 1478 0
-1479 193 0
-1479 245 0
-193 -245 1479 0
-1480 229 0
-1480 249 0
-229 -249 1480 0
-409 -1474 0
-409 -1475 0
-409 -1476 0
-409 -1477 0
-409 -1478 0
-409 -1479 0
-409 -1480 0
-247 409 1474 1475 1476 1477 1478 1479 1480 0
-267 103 0
-1481 123 0
-1481 85 0
-123 -85 1481 0
-1482 141 0
-1482 88 0
-141 -88 1482 0
-1483 159 0
-1483 91 0
-159 -91 1483 0
-1484 177 0
-1484 94 0
-177 -94 1484 0
-1485 195 0
-1485 97 0
-195 -97 1485 0
-1486 213 0
-1486 100 0
-213 -100 1486 0
-1487 249 0
-1487 106 0
-249 -106 1487 0
-267 -1481 0
-267 -1482 0
-267 -1483 0
-267 -1484 0
-267 -1485 0
-267 -1486 0
-267 -1487 0
-103 267 1481 1482 1483 1484 1485 1486 1487 0
-285 123 0
-1488 103 0
-1488 109 0
-103 -109 1488 0
-1489 141 0
-1489 113 0
-141 -113 1489 0
-1490 159 0
-1490 115 0
-159 -115 1490 0
-1491 177 0
-1491 117 0
-177 -117 1491 0
-1492 195 0
-1492 119 0
-195 -119 1492 0
-1493 213 0
-1493 121 0
-213 -121 1493 0
-1494 249 0
-1494 125 0
-249 -125 1494 0
-285 -1488 0
-285 -1489 0
-285 -1490 0
-285 -1491 0
-285 -1492 0
-285 -1493 0
-285 -1494 0
-123 285 1488 1489 1490 1491 1492 1493 1494 0
-303 141 0
-1495 103 0
-1495 127 0
-103 -127 1495 0
-1496 123 0
-1496 129 0
-123 -129 1496 0
-1497 159 0
-1497 133 0
-159 -133 1497 0
-1498 177 0
-1498 135 0
-177 -135 1498 0
-1499 195 0
-1499 137 0
-195 -137 1499 0
-1500 213 0
-1500 139 0
-213 -139 1500 0
-1501 249 0
-1501 143 0
-249 -143 1501 0
-303 -1495 0
-303 -1496 0
-303 -1497 0
-303 -1498 0
-303 -1499 0
-303 -1500 0
-303 -1501 0
-141 303 1495 1496 1497 1498 1499 1500 1501 0
-321 159 0
-1502 103 0
-1502 145 0
-103 -145 1502 0
-1503 123 0
-1503 147 0
-123 -147 1503 0
-1504 141 0
-1504 149 0
-141 -149 1504 0
-1505 177 0
-1505 153 0
-177 -153 1505 0
-1506 195 0
-1506 155 0
-195 -155 1506 0
-1507 213 0
-1507 157 0
-213 -157 1507 0
-1508 249 0
-1508 161 0
-249 -161 1508 0
-321 -1502 0
-321 -1503 0
-321 -1504 0
-321 -1505 0
-321 -1506 0
-321 -1507 0
-321 -1508 0
-159 321 1502 1503 1504 1505 1506 1507 1508 0
-339 177 0
-1509 103 0
-1509 163 0
-103 -163 1509 0
-1510 123 0
-1510 165 0
-123 -165 1510 0
-1511 141 0
-1511 167 0
-141 -167 1511 0
-1512 159 0
-1512 169 0
-159 -169 1512 0
-1513 195 0
-1513 173 0
-195 -173 1513 0
-1514 213 0
-1514 175 0
-213 -175 1514 0
-1515 249 0
-1515 179 0
-249 -179 1515 0
-339 -1509 0
-339 -1510 0
-339 -1511 0
-339 -1512 0
-339 -1513 0
-339 -1514 0
-339 -1515 0
-177 339 1509 1510 1511 1512 1513 1514 1515 0
-357 195 0
-1516 103 0
-1516 181 0
-103 -181 1516 0
-1517 123 0
-1517 183 0
-123 -183 1517 0
-1518 141 0
-1518 185 0
-141 -185 1518 0
-1519 159 0
-1519 187 0
-159 -187 1519 0
-1520 177 0
-1520 189 0
-177 -189 1520 0
-1521 213 0
-1521 193 0
-213 -193 1521 0
-1522 249 0
-1522 197 0
-249 -197 1522 0
-357 -1516 0
-357 -1517 0
-357 -1518 0
-357 -1519 0
-357 -1520 0
-357 -1521 0
-357 -1522 0
-195 357 1516 1517 1518 1519 1520 1521 1522 0
-375 213 0
-1523 103 0
-1523 199 0
-103 -199 1523 0
-1524 123 0
-1524 201 0
-123 -201 1524 0
-1525 141 0
-1525 203 0
-141 -203 1525 0
-1526 159 0
-1526 205 0
-159 -205 1526 0
-1527 177 0
-1527 207 0
-177 -207 1527 0
-1528 195 0
-1528 209 0
-195 -209 1528 0
-1529 249 0
-1529 215 0
-249 -215 1529 0
-375 -1523 0
-375 -1524 0
-375 -1525 0
-375 -1526 0
-375 -1527 0
-375 -1528 0
-375 -1529 0
-213 375 1523 1524 1525 1526 1527 1528 1529 0
-393 0
-411 249 0
-1530 103 0
-1530 235 0
-103 -235 1530 0
-1531 123 0
-1531 237 0
-123 -237 1531 0
-1532 141 0
-1532 239 0
-141 -239 1532 0
-1533 159 0
-1533 241 0
-159 -241 1533 0
-1534 177 0
-1534 243 0
-177 -243 1534 0
-1535 195 0
-1535 245 0
-195 -245 1535 0
-1536 213 0
-1536 247 0
-213 -247 1536 0
-411 -1530 0
-411 -1531 0
-411 -1532 0
-411 -1533 0
-411 -1534 0
-411 -1535 0
-411 -1536 0
-249 411 1530 1531 1532 1533 1534 1535 1536 0
-269 106 0
-1537 125 0
-1537 85 0
-125 -85 1537 0
-1538 143 0
-1538 88 0
-143 -88 1538 0
-1539 161 0
-1539 91 0
-161 -91 1539 0
-1540 179 0
-1540 94 0
-179 -94 1540 0
-1541 197 0
-1541 97 0
-197 -97 1541 0
-1542 215 0
-1542 100 0
-215 -100 1542 0
-1543 233 0
-1543 103 0
-233 -103 1543 0
-269 -1537 0
-269 -1538 0
-269 -1539 0
-269 -1540 0
-269 -1541 0
-269 -1542 0
-269 -1543 0
-106 269 1537 1538 1539 1540 1541 1542 1543 0
-287 125 0
-1544 106 0
-1544 109 0
-106 -109 1544 0
-1545 143 0
-1545 113 0
-143 -113 1545 0
-1546 161 0
-1546 115 0
-161 -115 1546 0
-1547 179 0
-1547 117 0
-179 -117 1547 0
-1548 197 0
-1548 119 0
-197 -119 1548 0
-1549 215 0
-1549 121 0
-215 -121 1549 0
-1550 233 0
-1550 123 0
-233 -123 1550 0
-287 -1544 0
-287 -1545 0
-287 -1546 0
-287 -1547 0
-287 -1548 0
-287 -1549 0
-287 -1550 0
-125 287 1544 1545 1546 1547 1548 1549 1550 0
-305 143 0
-1551 106 0
-1551 127 0
-106 -127 1551 0
-1552 125 0
-1552 129 0
-125 -129 1552 0
-1553 161 0
-1553 133 0
-161 -133 1553 0
-1554 179 0
-1554 135 0
-179 -135 1554 0
-1555 197 0
-1555 137 0
-197 -137 1555 0
-1556 215 0
-1556 139 0
-215 -139 1556 0
-1557 233 0
-1557 141 0
-233 -141 1557 0
-305 -1551 0
-305 -1552 0
-305 -1553 0
-305 -1554 0
-305 -1555 0
-305 -1556 0
-305 -1557 0
-143 305 1551 1552 1553 1554 1555 1556 1557 0
-323 161 0
-1558 106 0
-1558 145 0
-106 -145 1558 0
-1559 125 0
-1559 147 0
-125 -147 1559 0
-1560 143 0
-1560 149 0
-143 -149 1560 0
-1561 179 0
-1561 153 0
-179 -153 1561 0
-1562 197 0
-1562 155 0
-197 -155 1562 0
-1563 215 0
-1563 157 0
-215 -157 1563 0
-1564 233 0
-1564 159 0
-233 -159 1564 0
-323 -1558 0
-323 -1559 0
-323 -1560 0
-323 -1561 0
-323 -1562 0
-323 -1563 0
-323 -1564 0
-161 323 1558 1559 1560 1561 1562 1563 1564 0
-341 179 0
-1565 106 0
-1565 163 0
-106 -163 1565 0
-1566 125 0
-1566 165 0
-125 -165 1566 0
-1567 143 0
-1567 167 0
-143 -167 1567 0
-1568 161 0
-1568 169 0
-161 -169 1568 0
-1569 197 0
-1569 173 0
-197 -173 1569 0
-1570 215 0
-1570 175 0
-215 -175 1570 0
-1571 233 0
-1571 177 0
-233 -177 1571 0
-341 -1565 0
-341 -1566 0
-341 -1567 0
-341 -1568 0
-341 -1569 0
-341 -1570 0
-341 -1571 0
-179 341 1565 1566 1567 1568 1569 1570 1571 0
-359 197 0
-1572 106 0
-1572 181 0
-106 -181 1572 0
-1573 125 0
-1573 183 0
-125 -183 1573 0
-1574 143 0
-1574 185 0
-143 -185 1574 0
-1575 161 0
-1575 187 0
-161 -187 1575 0
-1576 179 0
-1576 189 0
-179 -189 1576 0
-1577 215 0
-1577 193 0
-215 -193 1577 0
-1578 233 0
-1578 195 0
-233 -195 1578 0
-359 -1572 0
-359 -1573 0
-359 -1574 0
-359 -1575 0
-359 -1576 0
-359 -1577 0
-359 -1578 0
-197 359 1572 1573 1574 1575 1576 1577 1578 0
-377 215 0
-1579 106 0
-1579 199 0
-106 -199 1579 0
-1580 125 0
-1580 201 0
-125 -201 1580 0
-1581 143 0
-1581 203 0
-143 -203 1581 0
-1582 161 0
-1582 205 0
-161 -205 1582 0
-1583 179 0
-1583 207 0
-179 -207 1583 0
-1584 197 0
-1584 209 0
-197 -209 1584 0
-1585 233 0
-1585 213 0
-233 -213 1585 0
-377 -1579 0
-377 -1580 0
-377 -1581 0
-377 -1582 0
-377 -1583 0
-377 -1584 0
-377 -1585 0
-215 377 1579 1580 1581 1582 1583 1584 1585 0
-395 233 0
-1586 106 0
-1586 217 0
-106 -217 1586 0
-1587 125 0
-1587 219 0
-125 -219 1587 0
-1588 143 0
-1588 221 0
-143 -221 1588 0
-1589 161 0
-1589 223 0
-161 -223 1589 0
-1590 179 0
-1590 225 0
-179 -225 1590 0
-1591 197 0
-1591 227 0
-197 -227 1591 0
-1592 215 0
-1592 229 0
-215 -229 1592 0
-395 -1586 0
-395 -1587 0
-395 -1588 0
-395 -1589 0
-395 -1590 0
-395 -1591 0
-395 -1592 0
-233 395 1586 1587 1588 1589 1590 1591 1592 0
-413 0
