p cnf 924 3416
1 2 -2 -3 0
4 2 -5 -6 0
7 2 -8 -9 0
10 2 -11 -12 0
13 2 -14 -15 0
16 2 -17 -18 0
19 2 -20 -21 0
22 5 -2 -23 0
24 5 -5 -25 0
26 5 -8 -27 0
28 5 -11 -29 0
30 5 -14 -31 0
32 5 -17 -33 0
34 5 -20 -35 0
36 8 -2 -37 0
38 8 -5 -39 0
40 8 -8 -41 0
42 8 -11 -43 0
44 8 -14 -45 0
46 8 -17 -47 0
48 8 -20 -49 0
50 11 -2 -51 0
52 11 -5 -53 0
54 11 -8 -55 0
56 11 -11 -57 0
58 11 -14 -59 0
60 11 -17 -61 0
62 11 -20 -63 0
64 14 -2 -65 0
66 14 -5 -67 0
68 14 -8 -69 0
70 14 -11 -71 0
72 14 -14 -73 0
74 14 -17 -75 0
76 14 -20 -77 0
78 17 -2 -79 0
80 17 -5 -81 0
82 17 -8 -83 0
84 17 -11 -85 0
86 17 -14 -87 0
88 17 -17 -89 0
90 17 -20 -91 0
92 20 -2 -93 0
94 20 -5 -95 0
96 20 -8 -97 0
98 20 -11 -99 0
100 20 -14 -101 0
102 20 -17 -103 0
104 20 -20 -105 0
3 -1 0
6 -4 0
9 -7 0
12 -10 0
15 -13 0
18 -16 0
21 -19 0
23 -22 0
25 -24 0
27 -26 0
29 -28 0
31 -30 0
33 -32 0
35 -34 0
37 -36 0
39 -38 0
41 -40 0
43 -42 0
45 -44 0
47 -46 0
49 -48 0
51 -50 0
53 -52 0
55 -54 0
57 -56 0
59 -58 0
61 -60 0
63 -62 0
65 -64 0
67 -66 0
69 -68 0
71 -70 0
73 -72 0
75 -74 0
77 -76 0
79 -78 0
81 -80 0
83 -82 0
85 -84 0
87 -86 0
89 -88 0
91 -90 0
93 -92 0
95 -94 0
97 -96 0
99 -98 0
101 -100 0
103 -102 0
105 -104 0
3 -2 0
6 -2 0
9 -2 0
12 -2 0
15 -2 0
18 -2 0
21 -2 0
23 -5 0
25 -5 0
27 -5 0
29 -5 0
31 -5 0
33 -5 0
35 -5 0
37 -8 0
39 -8 0
41 -8 0
43 -8 0
45 -8 0
47 -8 0
49 -8 0
51 -11 0
53 -11 0
55 -11 0
57 -11 0
59 -11 0
61 -11 0
63 -11 0
65 -14 0
67 -14 0
69 -14 0
71 -14 0
73 -14 0
75 -14 0
77 -14 0
79 -17 0
81 -17 0
83 -17 0
85 -17 0
87 -17 0
89 -17 0
91 -17 0
93 -20 0
95 -20 0
97 -20 0
99 -20 0
101 -20 0
103 -20 0
105 -20 0
3 2 0
6 5 0
9 8 0
12 11 0
15 14 0
18 17 0
21 20 0
23 2 0
25 5 0
27 8 0
29 11 0
31 14 0
33 17 0
35 20 0
37 2 0
39 5 0
41 8 0
43 11 0
45 14 0
47 17 0
49 20 0
51 2 0
53 5 0
55 8 0
57 11 0
59 14 0
61 17 0
63 20 0
65 2 0
67 5 0
69 8 0
71 11 0
73 14 0
75 17 0
77 20 0
79 2 0
81 5 0
83 8 0
85 11 0
87 14 0
89 17 0
91 20 0
93 2 0
95 5 0
97 8 0
99 11 0
101 14 0
103 17 0
105 20 0
106 106 -107 -108 0
109 110 -111 -112 0
113 114 -115 -116 0
117 118 -119 -120 0
121 122 -123 -124 0
125 126 -127 -128 0
129 130 -131 -132 0
110 109 -133 -134 0
135 135 -136 -137 0
138 139 -140 -141 0
142 143 -144 -145 0
146 147 -148 -149 0
150 151 -152 -153 0
154 155 -156 -157 0
114 113 -158 -159 0
139 138 -160 -161 0
162 162 -163 -164 0
165 166 -167 -168 0
169 170 -171 -172 0
173 174 -175 -176 0
177 178 -179 -180 0
118 117 -181 -182 0
143 142 -183 -184 0
166 165 -185 -186 0
187 187 -188 -189 0
190 191 -192 -193 0
194 195 -196 -197 0
198 199 -200 -201 0
122 121 -202 -203 0
147 146 -204 -205 0
170 169 -206 -207 0
191 190 -208 -209 0
210 210 -211 -212 0
213 214 -215 -216 0
217 218 -219 -220 0
126 125 -221 -222 0
151 150 -223 -224 0
174 173 -225 -226 0
195 194 -227 -228 0
214 213 -229 -230 0
231 231 -232 -233 0
234 235 -236 -237 0
130 129 -238 -239 0
155 154 -240 -241 0
178 177 -242 -243 0
199 198 -244 -245 0
218 217 -246 -247 0
235 234 -248 -249 0
250 250 -251 -252 0
108 -106 0
112 -109 0
116 -113 0
120 -117 0
124 -121 0
128 -125 0
132 -129 0
134 -110 0
137 -135 0
141 -138 0
145 -142 0
149 -146 0
153 -150 0
157 -154 0
159 -114 0
161 -139 0
164 -162 0
168 -165 0
172 -169 0
176 -173 0
180 -177 0
182 -118 0
184 -143 0
186 -166 0
189 -187 0
193 -190 0
197 -194 0
201 -198 0
203 -122 0
205 -147 0
207 -170 0
209 -191 0
212 -210 0
216 -213 0
220 -217 0
222 -126 0
224 -151 0
226 -174 0
228 -195 0
230 -214 0
233 -231 0
237 -234 0
239 -130 0
241 -155 0
243 -178 0
245 -199 0
247 -218 0
249 -235 0
252 -250 0
108 -106 0
112 -110 0
116 -114 0
120 -118 0
124 -122 0
128 -126 0
132 -130 0
134 -109 0
137 -135 0
141 -139 0
145 -143 0
149 -147 0
153 -151 0
157 -155 0
159 -113 0
161 -138 0
164 -162 0
168 -166 0
172 -170 0
176 -174 0
180 -178 0
182 -117 0
184 -142 0
186 -165 0
189 -187 0
193 -191 0
197 -195 0
201 -199 0
203 -121 0
205 -146 0
207 -169 0
209 -190 0
212 -210 0
216 -214 0
220 -218 0
222 -125 0
224 -150 0
226 -173 0
228 -194 0
230 -213 0
233 -231 0
237 -235 0
239 -129 0
241 -154 0
243 -177 0
245 -198 0
247 -217 0
249 -234 0
252 -250 0
108 107 0
112 111 0
116 115 0
120 119 0
124 123 0
128 127 0
132 131 0
134 133 0
137 136 0
141 140 0
145 144 0
149 148 0
153 152 0
157 156 0
159 158 0
161 160 0
164 163 0
168 167 0
172 171 0
176 175 0
180 179 0
182 181 0
184 183 0
186 185 0
189 188 0
193 192 0
197 196 0
201 200 0
203 202 0
205 204 0
207 206 0
209 208 0
212 211 0
216 215 0
220 219 0
222 221 0
224 223 0
226 225 0
228 227 0
230 229 0
233 232 0
237 236 0
239 238 0
241 240 0
243 242 0
245 244 0
247 246 0
249 248 0
252 251 0
106 106 253 0
109 110 254 0
113 114 255 0
117 118 256 0
121 122 257 0
125 126 258 0
129 130 259 0
110 109 260 0
135 135 261 0
138 139 262 0
142 143 263 0
146 147 264 0
150 151 265 0
154 155 266 0
114 113 267 0
139 138 268 0
162 162 269 0
165 166 270 0
169 170 271 0
173 174 272 0
177 178 273 0
118 117 274 0
143 142 275 0
166 165 276 0
187 187 277 0
190 191 278 0
194 195 279 0
198 199 280 0
122 121 281 0
147 146 282 0
170 169 283 0
191 190 284 0
210 210 285 0
213 214 286 0
217 218 287 0
126 125 288 0
151 150 289 0
174 173 290 0
195 194 291 0
214 213 292 0
231 231 293 0
234 235 294 0
130 129 295 0
155 154 296 0
178 177 297 0
199 198 298 0
218 217 299 0
235 234 300 0
250 250 301 0
-253 -106 0
-254 -109 0
-255 -113 0
-256 -117 0
-257 -121 0
-258 -125 0
-259 -129 0
-260 -110 0
-261 -135 0
-262 -138 0
-263 -142 0
-264 -146 0
-265 -150 0
-266 -154 0
-267 -114 0
-268 -139 0
-269 -162 0
-270 -165 0
-271 -169 0
-272 -173 0
-273 -177 0
-274 -118 0
-275 -143 0
-276 -166 0
-277 -187 0
-278 -190 0
-279 -194 0
-280 -198 0
-281 -122 0
-282 -147 0
-283 -170 0
-284 -191 0
-285 -210 0
-286 -213 0
-287 -217 0
-288 -126 0
-289 -151 0
-290 -174 0
-291 -195 0
-292 -214 0
-293 -231 0
-294 -234 0
-295 -130 0
-296 -155 0
-297 -178 0
-298 -199 0
-299 -218 0
-300 -235 0
-301 -250 0
-253 -106 0
-254 -110 0
-255 -114 0
-256 -118 0
-257 -122 0
-258 -126 0
-259 -130 0
-260 -109 0
-261 -135 0
-262 -139 0
-263 -143 0
-264 -147 0
-265 -151 0
-266 -155 0
-267 -113 0
-268 -138 0
-269 -162 0
-270 -166 0
-271 -170 0
-272 -174 0
-273 -178 0
-274 -117 0
-275 -142 0
-276 -165 0
-277 -187 0
-278 -191 0
-279 -195 0
-280 -199 0
-281 -121 0
-282 -146 0
-283 -169 0
-284 -190 0
-285 -210 0
-286 -214 0
-287 -218 0
-288 -125 0
-289 -150 0
-290 -173 0
-291 -194 0
-292 -213 0
-293 -231 0
-294 -235 0
-295 -129 0
-296 -154 0
-297 -177 0
-298 -198 0
-299 -217 0
-300 -234 0
-301 -250 0
107 253 -302 0
111 254 -303 0
115 255 -304 0
119 256 -305 0
123 257 -306 0
127 258 -307 0
131 259 -308 0
133 260 -309 0
136 261 -310 0
140 262 -311 0
144 263 -312 0
148 264 -313 0
152 265 -314 0
156 266 -315 0
158 267 -316 0
160 268 -317 0
163 269 -318 0
167 270 -319 0
171 271 -320 0
175 272 -321 0
179 273 -322 0
181 274 -323 0
183 275 -324 0
185 276 -325 0
188 277 -326 0
192 278 -327 0
196 279 -328 0
200 280 -329 0
202 281 -330 0
204 282 -331 0
206 283 -332 0
208 284 -333 0
211 285 -334 0
215 286 -335 0
219 287 -336 0
221 288 -337 0
223 289 -338 0
225 290 -339 0
227 291 -340 0
229 292 -341 0
232 293 -342 0
236 294 -343 0
238 295 -344 0
240 296 -345 0
242 297 -346 0
244 298 -347 0
246 299 -348 0
248 300 -349 0
251 301 -350 0
302 -107 0
303 -111 0
304 -115 0
305 -119 0
306 -123 0
307 -127 0
308 -131 0
309 -133 0
310 -136 0
311 -140 0
312 -144 0
313 -148 0
314 -152 0
315 -156 0
316 -158 0
317 -160 0
318 -163 0
319 -167 0
320 -171 0
321 -175 0
322 -179 0
323 -181 0
324 -183 0
325 -185 0
326 -188 0
327 -192 0
328 -196 0
329 -200 0
330 -202 0
331 -204 0
332 -206 0
333 -208 0
334 -211 0
335 -215 0
336 -219 0
337 -221 0
338 -223 0
339 -225 0
340 -227 0
341 -229 0
342 -232 0
343 -236 0
344 -238 0
345 -240 0
346 -242 0
347 -244 0
348 -246 0
349 -248 0
350 -251 0
302 -253 0
303 -254 0
304 -255 0
305 -256 0
306 -257 0
307 -258 0
308 -259 0
309 -260 0
310 -261 0
311 -262 0
312 -263 0
313 -264 0
314 -265 0
315 -266 0
316 -267 0
317 -268 0
318 -269 0
319 -270 0
320 -271 0
321 -272 0
322 -273 0
323 -274 0
324 -275 0
325 -276 0
326 -277 0
327 -278 0
328 -279 0
329 -280 0
330 -281 0
331 -282 0
332 -283 0
333 -284 0
334 -285 0
335 -286 0
336 -287 0
337 -288 0
338 -289 0
339 -290 0
340 -291 0
341 -292 0
342 -293 0
343 -294 0
344 -295 0
345 -296 0
346 -297 0
347 -298 0
348 -299 0
349 -300 0
350 -301 0
-351 -2 -2 352 0
-353 -5 -2 354 0
-355 -8 -2 356 0
-357 -11 -2 358 0
-359 -14 -2 360 0
-361 -17 -2 362 0
-363 -20 -2 364 0
-365 -2 -5 366 0
-367 -5 -5 368 0
-369 -8 -5 370 0
-371 -11 -5 372 0
-373 -14 -5 374 0
-375 -17 -5 376 0
-377 -20 -5 378 0
-379 -2 -8 380 0
-381 -5 -8 382 0
-383 -8 -8 384 0
-385 -11 -8 386 0
-387 -14 -8 388 0
-389 -17 -8 390 0
-391 -20 -8 392 0
-393 -2 -11 394 0
-395 -5 -11 396 0
-397 -8 -11 398 0
-399 -11 -11 400 0
-401 -14 -11 402 0
-403 -17 -11 404 0
-405 -20 -11 406 0
-407 -2 -14 408 0
-409 -5 -14 410 0
-411 -8 -14 412 0
-413 -11 -14 414 0
-415 -14 -14 416 0
-417 -17 -14 418 0
-419 -20 -14 420 0
-421 -2 -17 422 0
-423 -5 -17 424 0
-425 -8 -17 426 0
-427 -11 -17 428 0
-429 -14 -17 430 0
-431 -17 -17 432 0
-433 -20 -17 434 0
-435 -2 -20 436 0
-437 -5 -20 438 0
-439 -8 -20 440 0
-441 -11 -20 442 0
-443 -14 -20 444 0
-445 -17 -20 446 0
-447 -20 -20 448 0
-352 351 0
-354 353 0
-356 355 0
-358 357 0
-360 359 0
-362 361 0
-364 363 0
-366 365 0
-368 367 0
-370 369 0
-372 371 0
-374 373 0
-376 375 0
-378 377 0
-380 379 0
-382 381 0
-384 383 0
-386 385 0
-388 387 0
-390 389 0
-392 391 0
-394 393 0
-396 395 0
-398 397 0
-400 399 0
-402 401 0
-404 403 0
-406 405 0
-408 407 0
-410 409 0
-412 411 0
-414 413 0
-416 415 0
-418 417 0
-420 419 0
-422 421 0
-424 423 0
-426 425 0
-428 427 0
-430 429 0
-432 431 0
-434 433 0
-436 435 0
-438 437 0
-440 439 0
-442 441 0
-444 443 0
-446 445 0
-448 447 0
-352 2 0
-354 5 0
-356 8 0
-358 11 0
-360 14 0
-362 17 0
-364 20 0
-366 2 0
-368 5 0
-370 8 0
-372 11 0
-374 14 0
-376 17 0
-378 20 0
-380 2 0
-382 5 0
-384 8 0
-386 11 0
-388 14 0
-390 17 0
-392 20 0
-394 2 0
-396 5 0
-398 8 0
-400 11 0
-402 14 0
-404 17 0
-406 20 0
-408 2 0
-410 5 0
-412 8 0
-414 11 0
-416 14 0
-418 17 0
-420 20 0
-422 2 0
-424 5 0
-426 8 0
-428 11 0
-430 14 0
-432 17 0
-434 20 0
-436 2 0
-438 5 0
-440 8 0
-442 11 0
-444 14 0
-446 17 0
-448 20 0
-352 2 0
-354 2 0
-356 2 0
-358 2 0
-360 2 0
-362 2 0
-364 2 0
-366 5 0
-368 5 0
-370 5 0
-372 5 0
-374 5 0
-376 5 0
-378 5 0
-380 8 0
-382 8 0
-384 8 0
-386 8 0
-388 8 0
-390 8 0
-392 8 0
-394 11 0
-396 11 0
-398 11 0
-400 11 0
-402 11 0
-404 11 0
-406 11 0
-408 14 0
-410 14 0
-412 14 0
-414 14 0
-416 14 0
-418 14 0
-420 14 0
-422 17 0
-424 17 0
-426 17 0
-428 17 0
-430 17 0
-432 17 0
-434 17 0
-436 20 0
-438 20 0
-440 20 0
-442 20 0
-444 20 0
-446 20 0
-448 20 0
-106 352 -449 0
-109 354 -450 0
-113 356 -451 0
-117 358 -452 0
-121 360 -453 0
-125 362 -454 0
-129 364 -455 0
-110 366 -456 0
-135 368 -457 0
-138 370 -458 0
-142 372 -459 0
-146 374 -460 0
-150 376 -461 0
-154 378 -462 0
-114 380 -463 0
-139 382 -464 0
-162 384 -465 0
-165 386 -466 0
-169 388 -467 0
-173 390 -468 0
-177 392 -469 0
-118 394 -470 0
-143 396 -471 0
-166 398 -472 0
-187 400 -473 0
-190 402 -474 0
-194 404 -475 0
-198 406 -476 0
-122 408 -477 0
-147 410 -478 0
-170 412 -479 0
-191 414 -480 0
-210 416 -481 0
-213 418 -482 0
-217 420 -483 0
-126 422 -484 0
-151 424 -485 0
-174 426 -486 0
-195 428 -487 0
-214 430 -488 0
-231 432 -489 0
-234 434 -490 0
-130 436 -491 0
-155 438 -492 0
-178 440 -493 0
-199 442 -494 0
-218 444 -495 0
-235 446 -496 0
-250 448 -497 0
449 106 0
450 109 0
451 113 0
452 117 0
453 121 0
454 125 0
455 129 0
456 110 0
457 135 0
458 138 0
459 142 0
460 146 0
461 150 0
462 154 0
463 114 0
464 139 0
465 162 0
466 165 0
467 169 0
468 173 0
469 177 0
470 118 0
471 143 0
472 166 0
473 187 0
474 190 0
475 194 0
476 198 0
477 122 0
478 147 0
479 170 0
480 191 0
481 210 0
482 213 0
483 217 0
484 126 0
485 151 0
486 174 0
487 195 0
488 214 0
489 231 0
490 234 0
491 130 0
492 155 0
493 178 0
494 199 0
495 218 0
496 235 0
497 250 0
449 -352 0
450 -354 0
451 -356 0
452 -358 0
453 -360 0
454 -362 0
455 -364 0
456 -366 0
457 -368 0
458 -370 0
459 -372 0
460 -374 0
461 -376 0
462 -378 0
463 -380 0
464 -382 0
465 -384 0
466 -386 0
467 -388 0
468 -390 0
469 -392 0
470 -394 0
471 -396 0
472 -398 0
473 -400 0
474 -402 0
475 -404 0
476 -406 0
477 -408 0
478 -410 0
479 -412 0
480 -414 0
481 -416 0
482 -418 0
483 -420 0
484 -422 0
485 -424 0
486 -426 0
487 -428 0
488 -430 0
489 -432 0
490 -434 0
491 -436 0
492 -438 0
493 -440 0
494 -442 0
495 -444 0
496 -446 0
497 -448 0
-498 -498 -107 -499 0
-500 -498 -111 -501 0
-502 -498 -115 -503 0
-504 -498 -119 -505 0
-506 -498 -123 -507 0
-508 -498 -127 -509 0
-510 -498 -131 -511 0
-498 -500 -133 -512 0
-500 -500 -136 -513 0
-502 -500 -140 -514 0
-504 -500 -144 -515 0
-506 -500 -148 -516 0
-508 -500 -152 -517 0
-510 -500 -156 -518 0
-498 -502 -158 -519 0
-500 -502 -160 -520 0
-502 -502 -163 -521 0
-504 -502 -167 -522 0
-506 -502 -171 -523 0
-508 -502 -175 -524 0
-510 -502 -179 -525 0
-498 -504 -181 -526 0
-500 -504 -183 -527 0
-502 -504 -185 -528 0
-504 -504 -188 -529 0
-506 -504 -192 -530 0
-508 -504 -196 -531 0
-510 -504 -200 -532 0
-498 -506 -202 -533 0
-500 -506 -204 -534 0
-502 -506 -206 -535 0
-504 -506 -208 -536 0
-506 -506 -211 -537 0
-508 -506 -215 -538 0
-510 -506 -219 -539 0
-498 -508 -221 -540 0
-500 -508 -223 -541 0
-502 -508 -225 -542 0
-504 -508 -227 -543 0
-506 -508 -229 -544 0
-508 -508 -232 -545 0
-510 -508 -236 -546 0
-498 -510 -238 -547 0
-500 -510 -240 -548 0
-502 -510 -242 -549 0
-504 -510 -244 -550 0
-506 -510 -246 -551 0
-508 -510 -248 -552 0
-510 -510 -251 -553 0
499 498 0
501 500 0
503 502 0
505 504 0
507 506 0
509 508 0
511 510 0
512 498 0
513 500 0
514 502 0
515 504 0
516 506 0
517 508 0
518 510 0
519 498 0
520 500 0
521 502 0
522 504 0
523 506 0
524 508 0
525 510 0
526 498 0
527 500 0
528 502 0
529 504 0
530 506 0
531 508 0
532 510 0
533 498 0
534 500 0
535 502 0
536 504 0
537 506 0
538 508 0
539 510 0
540 498 0
541 500 0
542 502 0
543 504 0
544 506 0
545 508 0
546 510 0
547 498 0
548 500 0
549 502 0
550 504 0
551 506 0
552 508 0
553 510 0
499 498 0
501 498 0
503 498 0
505 498 0
507 498 0
509 498 0
511 498 0
512 500 0
513 500 0
514 500 0
515 500 0
516 500 0
517 500 0
518 500 0
519 502 0
520 502 0
521 502 0
522 502 0
523 502 0
524 502 0
525 502 0
526 504 0
527 504 0
528 504 0
529 504 0
530 504 0
531 504 0
532 504 0
533 506 0
534 506 0
535 506 0
536 506 0
537 506 0
538 506 0
539 506 0
540 508 0
541 508 0
542 508 0
543 508 0
544 508 0
545 508 0
546 508 0
547 510 0
548 510 0
549 510 0
550 510 0
551 510 0
552 510 0
553 510 0
499 107 0
501 111 0
503 115 0
505 119 0
507 123 0
509 127 0
511 131 0
512 133 0
513 136 0
514 140 0
515 144 0
516 148 0
517 152 0
518 156 0
519 158 0
520 160 0
521 163 0
522 167 0
523 171 0
524 175 0
525 179 0
526 181 0
527 183 0
528 185 0
529 188 0
530 192 0
531 196 0
532 200 0
533 202 0
534 204 0
535 206 0
536 208 0
537 211 0
538 215 0
539 219 0
540 221 0
541 223 0
542 225 0
543 227 0
544 229 0
545 232 0
546 236 0
547 238 0
548 240 0
549 242 0
550 244 0
551 246 0
552 248 0
553 251 0
106 -351 -2 -2 -554 0
109 -353 -5 -2 -555 0
113 -355 -8 -2 -556 0
117 -357 -11 -2 -557 0
121 -359 -14 -2 -558 0
125 -361 -17 -2 -559 0
129 -363 -20 -2 -560 0
110 -365 -2 -5 -561 0
135 -367 -5 -5 -562 0
138 -369 -8 -5 -563 0
142 -371 -11 -5 -564 0
146 -373 -14 -5 -565 0
150 -375 -17 -5 -566 0
154 -377 -20 -5 -567 0
114 -379 -2 -8 -568 0
139 -381 -5 -8 -569 0
162 -383 -8 -8 -570 0
165 -385 -11 -8 -571 0
169 -387 -14 -8 -572 0
173 -389 -17 -8 -573 0
177 -391 -20 -8 -574 0
118 -393 -2 -11 -575 0
143 -395 -5 -11 -576 0
166 -397 -8 -11 -577 0
187 -399 -11 -11 -578 0
190 -401 -14 -11 -579 0
194 -403 -17 -11 -580 0
198 -405 -20 -11 -581 0
122 -407 -2 -14 -582 0
147 -409 -5 -14 -583 0
170 -411 -8 -14 -584 0
191 -413 -11 -14 -585 0
210 -415 -14 -14 -586 0
213 -417 -17 -14 -587 0
217 -419 -20 -14 -588 0
126 -421 -2 -17 -589 0
151 -423 -5 -17 -590 0
174 -425 -8 -17 -591 0
195 -427 -11 -17 -592 0
214 -429 -14 -17 -593 0
231 -431 -17 -17 -594 0
234 -433 -20 -17 -595 0
130 -435 -2 -20 -596 0
155 -437 -5 -20 -597 0
178 -439 -8 -20 -598 0
199 -441 -11 -20 -599 0
218 -443 -14 -20 -600 0
235 -445 -17 -20 -601 0
250 -447 -20 -20 -602 0
554 -106 0
555 -109 0
556 -113 0
557 -117 0
558 -121 0
559 -125 0
560 -129 0
561 -110 0
562 -135 0
563 -138 0
564 -142 0
565 -146 0
566 -150 0
567 -154 0
568 -114 0
569 -139 0
570 -162 0
571 -165 0
572 -169 0
573 -173 0
574 -177 0
575 -118 0
576 -143 0
577 -166 0
578 -187 0
579 -190 0
580 -194 0
581 -198 0
582 -122 0
583 -147 0
584 -170 0
585 -191 0
586 -210 0
587 -213 0
588 -217 0
589 -126 0
590 -151 0
591 -174 0
592 -195 0
593 -214 0
594 -231 0
595 -234 0
596 -130 0
597 -155 0
598 -178 0
599 -199 0
600 -218 0
601 -235 0
602 -250 0
554 351 0
555 353 0
556 355 0
557 357 0
558 359 0
559 361 0
560 363 0
561 365 0
562 367 0
563 369 0
564 371 0
565 373 0
566 375 0
567 377 0
568 379 0
569 381 0
570 383 0
571 385 0
572 387 0
573 389 0
574 391 0
575 393 0
576 395 0
577 397 0
578 399 0
579 401 0
580 403 0
581 405 0
582 407 0
583 409 0
584 411 0
585 413 0
586 415 0
587 417 0
588 419 0
589 421 0
590 423 0
591 425 0
592 427 0
593 429 0
594 431 0
595 433 0
596 435 0
597 437 0
598 439 0
599 441 0
600 443 0
601 445 0
602 447 0
554 2 0
555 5 0
556 8 0
557 11 0
558 14 0
559 17 0
560 20 0
561 2 0
562 5 0
563 8 0
564 11 0
565 14 0
566 17 0
567 20 0
568 2 0
569 5 0
570 8 0
571 11 0
572 14 0
573 17 0
574 20 0
575 2 0
576 5 0
577 8 0
578 11 0
579 14 0
580 17 0
581 20 0
582 2 0
583 5 0
584 8 0
585 11 0
586 14 0
587 17 0
588 20 0
589 2 0
590 5 0
591 8 0
592 11 0
593 14 0
594 17 0
595 20 0
596 2 0
597 5 0
598 8 0
599 11 0
600 14 0
601 17 0
602 20 0
554 2 0
555 2 0
556 2 0
557 2 0
558 2 0
559 2 0
560 2 0
561 5 0
562 5 0
563 5 0
564 5 0
565 5 0
566 5 0
567 5 0
568 8 0
569 8 0
570 8 0
571 8 0
572 8 0
573 8 0
574 8 0
575 11 0
576 11 0
577 11 0
578 11 0
579 11 0
580 11 0
581 11 0
582 14 0
583 14 0
584 14 0
585 14 0
586 14 0
587 14 0
588 14 0
589 17 0
590 17 0
591 17 0
592 17 0
593 17 0
594 17 0
595 17 0
596 20 0
597 20 0
598 20 0
599 20 0
600 20 0
601 20 0
602 20 0
-3 -108 -302 -449 -499 -554 603 0
-6 -112 -303 -450 -501 -555 604 0
-9 -116 -304 -451 -503 -556 605 0
-12 -120 -305 -452 -505 -557 606 0
-15 -124 -306 -453 -507 -558 607 0
-18 -128 -307 -454 -509 -559 608 0
-21 -132 -308 -455 -511 -560 609 0
-23 -134 -309 -456 -512 -561 610 0
-25 -137 -310 -457 -513 -562 611 0
-27 -141 -311 -458 -514 -563 612 0
-29 -145 -312 -459 -515 -564 613 0
-31 -149 -313 -460 -516 -565 614 0
-33 -153 -314 -461 -517 -566 615 0
-35 -157 -315 -462 -518 -567 616 0
-37 -159 -316 -463 -519 -568 617 0
-39 -161 -317 -464 -520 -569 618 0
-41 -164 -318 -465 -521 -570 619 0
-43 -168 -319 -466 -522 -571 620 0
-45 -172 -320 -467 -523 -572 621 0
-47 -176 -321 -468 -524 -573 622 0
-49 -180 -322 -469 -525 -574 623 0
-51 -182 -323 -470 -526 -575 624 0
-53 -184 -324 -471 -527 -576 625 0
-55 -186 -325 -472 -528 -577 626 0
-57 -189 -326 -473 -529 -578 627 0
-59 -193 -327 -474 -530 -579 628 0
-61 -197 -328 -475 -531 -580 629 0
-63 -201 -329 -476 -532 -581 630 0
-65 -203 -330 -477 -533 -582 631 0
-67 -205 -331 -478 -534 -583 632 0
-69 -207 -332 -479 -535 -584 633 0
-71 -209 -333 -480 -536 -585 634 0
-73 -212 -334 -481 -537 -586 635 0
-75 -216 -335 -482 -538 -587 636 0
-77 -220 -336 -483 -539 -588 637 0
-79 -222 -337 -484 -540 -589 638 0
-81 -224 -338 -485 -541 -590 639 0
-83 -226 -339 -486 -542 -591 640 0
-85 -228 -340 -487 -543 -592 641 0
-87 -230 -341 -488 -544 -593 642 0
-89 -233 -342 -489 -545 -594 643 0
-91 -237 -343 -490 -546 -595 644 0
-93 -239 -344 -491 -547 -596 645 0
-95 -241 -345 -492 -548 -597 646 0
-97 -243 -346 -493 -549 -598 647 0
-99 -245 -347 -494 -550 -599 648 0
-101 -247 -348 -495 -551 -600 649 0
-103 -249 -349 -496 -552 -601 650 0
-105 -252 -350 -497 -553 -602 651 0
-603 3 0
-604 6 0
-605 9 0
-606 12 0
-607 15 0
-608 18 0
-609 21 0
-610 23 0
-611 25 0
-612 27 0
-613 29 0
-614 31 0
-615 33 0
-616 35 0
-617 37 0
-618 39 0
-619 41 0
-620 43 0
-621 45 0
-622 47 0
-623 49 0
-624 51 0
-625 53 0
-626 55 0
-627 57 0
-628 59 0
-629 61 0
-630 63 0
-631 65 0
-632 67 0
-633 69 0
-634 71 0
-635 73 0
-636 75 0
-637 77 0
-638 79 0
-639 81 0
-640 83 0
-641 85 0
-642 87 0
-643 89 0
-644 91 0
-645 93 0
-646 95 0
-647 97 0
-648 99 0
-649 101 0
-650 103 0
-651 105 0
-603 108 0
-604 112 0
-605 116 0
-606 120 0
-607 124 0
-608 128 0
-609 132 0
-610 134 0
-611 137 0
-612 141 0
-613 145 0
-614 149 0
-615 153 0
-616 157 0
-617 159 0
-618 161 0
-619 164 0
-620 168 0
-621 172 0
-622 176 0
-623 180 0
-624 182 0
-625 184 0
-626 186 0
-627 189 0
-628 193 0
-629 197 0
-630 201 0
-631 203 0
-632 205 0
-633 207 0
-634 209 0
-635 212 0
-636 216 0
-637 220 0
-638 222 0
-639 224 0
-640 226 0
-641 228 0
-642 230 0
-643 233 0
-644 237 0
-645 239 0
-646 241 0
-647 243 0
-648 245 0
-649 247 0
-650 249 0
-651 252 0
-603 302 0
-604 303 0
-605 304 0
-606 305 0
-607 306 0
-608 307 0
-609 308 0
-610 309 0
-611 310 0
-612 311 0
-613 312 0
-614 313 0
-615 314 0
-616 315 0
-617 316 0
-618 317 0
-619 318 0
-620 319 0
-621 320 0
-622 321 0
-623 322 0
-624 323 0
-625 324 0
-626 325 0
-627 326 0
-628 327 0
-629 328 0
-630 329 0
-631 330 0
-632 331 0
-633 332 0
-634 333 0
-635 334 0
-636 335 0
-637 336 0
-638 337 0
-639 338 0
-640 339 0
-641 340 0
-642 341 0
-643 342 0
-644 343 0
-645 344 0
-646 345 0
-647 346 0
-648 347 0
-649 348 0
-650 349 0
-651 350 0
-603 449 0
-604 450 0
-605 451 0
-606 452 0
-607 453 0
-608 454 0
-609 455 0
-610 456 0
-611 457 0
-612 458 0
-613 459 0
-614 460 0
-615 461 0
-616 462 0
-617 463 0
-618 464 0
-619 465 0
-620 466 0
-621 467 0
-622 468 0
-623 469 0
-624 470 0
-625 471 0
-626 472 0
-627 473 0
-628 474 0
-629 475 0
-630 476 0
-631 477 0
-632 478 0
-633 479 0
-634 480 0
-635 481 0
-636 482 0
-637 483 0
-638 484 0
-639 485 0
-640 486 0
-641 487 0
-642 488 0
-643 489 0
-644 490 0
-645 491 0
-646 492 0
-647 493 0
-648 494 0
-649 495 0
-650 496 0
-651 497 0
-603 499 0
-604 501 0
-605 503 0
-606 505 0
-607 507 0
-608 509 0
-609 511 0
-610 512 0
-611 513 0
-612 514 0
-613 515 0
-614 516 0
-615 517 0
-616 518 0
-617 519 0
-618 520 0
-619 521 0
-620 522 0
-621 523 0
-622 524 0
-623 525 0
-624 526 0
-625 527 0
-626 528 0
-627 529 0
-628 530 0
-629 531 0
-630 532 0
-631 533 0
-632 534 0
-633 535 0
-634 536 0
-635 537 0
-636 538 0
-637 539 0
-638 540 0
-639 541 0
-640 542 0
-641 543 0
-642 544 0
-643 545 0
-644 546 0
-645 547 0
-646 548 0
-647 549 0
-648 550 0
-649 551 0
-650 552 0
-651 553 0
-603 554 0
-604 555 0
-605 556 0
-606 557 0
-607 558 0
-608 559 0
-609 560 0
-610 561 0
-611 562 0
-612 563 0
-613 564 0
-614 565 0
-615 566 0
-616 567 0
-617 568 0
-618 569 0
-619 570 0
-620 571 0
-621 572 0
-622 573 0
-623 574 0
-624 575 0
-625 576 0
-626 577 0
-627 578 0
-628 579 0
-629 580 0
-630 581 0
-631 582 0
-632 583 0
-633 584 0
-634 585 0
-635 586 0
-636 587 0
-637 588 0
-638 589 0
-639 590 0
-640 591 0
-641 592 0
-642 593 0
-643 594 0
-644 595 0
-645 596 0
-646 597 0
-647 598 0
-648 599 0
-649 600 0
-650 601 0
-651 602 0
603 0
604 0
605 0
606 0
607 0
608 0
609 0
610 0
611 0
612 0
613 0
614 0
615 0
616 0
617 0
618 0
619 0
620 0
621 0
622 0
623 0
624 0
625 0
626 0
627 0
628 0
629 0
630 0
631 0
632 0
633 0
634 0
635 0
636 0
637 0
638 0
639 0
640 0
641 0
642 0
643 0
644 0
645 0
646 0
647 0
648 0
649 0
650 0
651 0
-508 0
-506 0
500 0
20 0
502 0
8 0
17 0
-504 0
-510 0
2 0
498 0
5 0
14 0
11 0
1 0
22 4 0
-22 -4 0
-22 -38 36 0
-22 -52 50 0
-22 -66 64 0
-22 -80 78 0
-22 -94 92 0
36 7 0
-36 -7 0
-36 -26 22 0
-36 -54 50 0
-36 -68 64 0
-36 -82 78 0
-36 -96 92 0
50 10 0
-50 -10 0
-50 -28 22 0
-50 -42 36 0
-50 -70 64 0
-50 -84 78 0
-50 -98 92 0
64 13 0
-64 -13 0
-64 -30 22 0
-64 -44 36 0
-64 -58 50 0
-64 -86 78 0
-64 -100 92 0
78 16 0
-78 -16 0
-78 -32 22 0
-78 -46 36 0
-78 -60 50 0
-78 -74 64 0
-78 -102 92 0
92 19 0
-92 -19 0
-92 -34 22 0
-92 -48 36 0
-92 -62 50 0
-92 -76 64 0
-92 -90 78 0
24 0
4 22 0
-4 -22 0
-4 -36 38 0
-4 -50 52 0
-4 -64 66 0
-4 -78 80 0
-4 -92 94 0
38 26 0
-38 -26 0
-38 -7 4 0
-38 -54 52 0
-38 -68 66 0
-38 -82 80 0
-38 -96 94 0
52 28 0
-52 -28 0
-52 -10 4 0
-52 -42 38 0
-52 -70 66 0
-52 -84 80 0
-52 -98 94 0
66 30 0
-66 -30 0
-66 -13 4 0
-66 -44 38 0
-66 -58 52 0
-66 -86 80 0
-66 -100 94 0
80 32 0
-80 -32 0
-80 -16 4 0
-80 -46 38 0
-80 -60 52 0
-80 -74 66 0
-80 -102 94 0
94 34 0
-94 -34 0
-94 -19 4 0
-94 -48 38 0
-94 -62 52 0
-94 -76 66 0
-94 -90 80 0
40 0
7 36 0
-7 -36 0
-7 -22 26 0
-7 -50 54 0
-7 -64 68 0
-7 -78 82 0
-7 -92 96 0
26 38 0
-26 -38 0
-26 -4 7 0
-26 -52 54 0
-26 -66 68 0
-26 -80 82 0
-26 -94 96 0
54 42 0
-54 -42 0
-54 -10 7 0
-54 -28 26 0
-54 -70 68 0
-54 -84 82 0
-54 -98 96 0
68 44 0
-68 -44 0
-68 -13 7 0
-68 -30 26 0
-68 -58 54 0
-68 -86 82 0
-68 -100 96 0
82 46 0
-82 -46 0
-82 -16 7 0
-82 -32 26 0
-82 -60 54 0
-82 -74 68 0
-82 -102 96 0
96 48 0
-96 -48 0
-96 -19 7 0
-96 -34 26 0
-96 -62 54 0
-96 -76 68 0
-96 -90 82 0
56 0
10 50 0
-10 -50 0
-10 -22 28 0
-10 -36 42 0
-10 -64 70 0
-10 -78 84 0
-10 -92 98 0
28 52 0
-28 -52 0
-28 -4 10 0
-28 -38 42 0
-28 -66 70 0
-28 -80 84 0
-28 -94 98 0
42 54 0
-42 -54 0
-42 -7 10 0
-42 -26 28 0
-42 -68 70 0
-42 -82 84 0
-42 -96 98 0
70 58 0
-70 -58 0
-70 -13 10 0
-70 -30 28 0
-70 -44 42 0
-70 -86 84 0
-70 -100 98 0
84 60 0
-84 -60 0
-84 -16 10 0
-84 -32 28 0
-84 -46 42 0
-84 -74 70 0
-84 -102 98 0
98 62 0
-98 -62 0
-98 -19 10 0
-98 -34 28 0
-98 -48 42 0
-98 -76 70 0
-98 -90 84 0
72 0
13 64 0
-13 -64 0
-13 -22 30 0
-13 -36 44 0
-13 -50 58 0
-13 -78 86 0
-13 -92 100 0
30 66 0
-30 -66 0
-30 -4 13 0
-30 -38 44 0
-30 -52 58 0
-30 -80 86 0
-30 -94 100 0
44 68 0
-44 -68 0
-44 -7 13 0
-44 -26 30 0
-44 -54 58 0
-44 -82 86 0
-44 -96 100 0
58 70 0
-58 -70 0
-58 -10 13 0
-58 -28 30 0
-58 -42 44 0
-58 -84 86 0
-58 -98 100 0
86 74 0
-86 -74 0
-86 -16 13 0
-86 -32 30 0
-86 -46 44 0
-86 -60 58 0
-86 -102 100 0
100 76 0
-100 -76 0
-100 -19 13 0
-100 -34 30 0
-100 -48 44 0
-100 -62 58 0
-100 -90 86 0
88 0
16 78 0
-16 -78 0
-16 -22 32 0
-16 -36 46 0
-16 -50 60 0
-16 -64 74 0
-16 -92 102 0
32 80 0
-32 -80 0
-32 -4 16 0
-32 -38 46 0
-32 -52 60 0
-32 -66 74 0
-32 -94 102 0
46 82 0
-46 -82 0
-46 -7 16 0
-46 -26 32 0
-46 -54 60 0
-46 -68 74 0
-46 -96 102 0
60 84 0
-60 -84 0
-60 -10 16 0
-60 -28 32 0
-60 -42 46 0
-60 -70 74 0
-60 -98 102 0
74 86 0
-74 -86 0
-74 -13 16 0
-74 -30 32 0
-74 -44 46 0
-74 -58 60 0
-74 -100 102 0
102 90 0
-102 -90 0
-102 -19 16 0
-102 -34 32 0
-102 -48 46 0
-102 -62 60 0
-102 -76 74 0
104 0
19 92 0
-19 -92 0
-19 -22 34 0
-19 -36 48 0
-19 -50 62 0
-19 -64 76 0
-19 -78 90 0
34 94 0
-34 -94 0
-34 -4 19 0
-34 -38 48 0
-34 -52 62 0
-34 -66 76 0
-34 -80 90 0
48 96 0
-48 -96 0
-48 -7 19 0
-48 -26 34 0
-48 -54 62 0
-48 -68 76 0
-48 -82 90 0
62 98 0
-62 -98 0
-62 -10 19 0
-62 -28 34 0
-62 -42 48 0
-62 -70 76 0
-62 -84 90 0
76 100 0
-76 -100 0
-76 -13 19 0
-76 -30 34 0
-76 -44 48 0
-76 -58 62 0
-76 -86 90 0
90 102 0
-90 -102 0
-90 -16 19 0
-90 -32 34 0
-90 -46 48 0
-90 -60 62 0
-90 -74 76 0
-652 0
-653 22 0
-654 36 0
-654 26 0
-36 -26 654 0
-655 50 0
-655 28 0
-50 -28 655 0
-656 64 0
-656 30 0
-64 -30 656 0
-657 78 0
-657 32 0
-78 -32 657 0
-658 92 0
-658 34 0
-92 -34 658 0
-653 -654 0
-653 -655 0
-653 -656 0
-653 -657 0
-653 -658 0
-22 653 654 655 656 657 658 0
-659 36 0
-660 22 0
-660 38 0
-22 -38 660 0
-661 50 0
-661 42 0
-50 -42 661 0
-662 64 0
-662 44 0
-64 -44 662 0
-663 78 0
-663 46 0
-78 -46 663 0
-664 92 0
-664 48 0
-92 -48 664 0
-659 -660 0
-659 -661 0
-659 -662 0
-659 -663 0
-659 -664 0
-36 659 660 661 662 663 664 0
-665 50 0
-666 22 0
-666 52 0
-22 -52 666 0
-667 36 0
-667 54 0
-36 -54 667 0
-668 64 0
-668 58 0
-64 -58 668 0
-669 78 0
-669 60 0
-78 -60 669 0
-670 92 0
-670 62 0
-92 -62 670 0
-665 -666 0
-665 -667 0
-665 -668 0
-665 -669 0
-665 -670 0
-50 665 666 667 668 669 670 0
-671 64 0
-672 22 0
-672 66 0
-22 -66 672 0
-673 36 0
-673 68 0
-36 -68 673 0
-674 50 0
-674 70 0
-50 -70 674 0
-675 78 0
-675 74 0
-78 -74 675 0
-676 92 0
-676 76 0
-92 -76 676 0
-671 -672 0
-671 -673 0
-671 -674 0
-671 -675 0
-671 -676 0
-64 671 672 673 674 675 676 0
-677 78 0
-678 22 0
-678 80 0
-22 -80 678 0
-679 36 0
-679 82 0
-36 -82 679 0
-680 50 0
-680 84 0
-50 -84 680 0
-681 64 0
-681 86 0
-64 -86 681 0
-682 92 0
-682 90 0
-92 -90 682 0
-677 -678 0
-677 -679 0
-677 -680 0
-677 -681 0
-677 -682 0
-78 677 678 679 680 681 682 0
-683 92 0
-684 22 0
-684 94 0
-22 -94 684 0
-685 36 0
-685 96 0
-36 -96 685 0
-686 50 0
-686 98 0
-50 -98 686 0
-687 64 0
-687 100 0
-64 -100 687 0
-688 78 0
-688 102 0
-78 -102 688 0
-683 -684 0
-683 -685 0
-683 -686 0
-683 -687 0
-683 -688 0
-92 683 684 685 686 687 688 0
-689 4 0
-690 38 0
-690 7 0
-38 -7 690 0
-691 52 0
-691 10 0
-52 -10 691 0
-692 66 0
-692 13 0
-66 -13 692 0
-693 80 0
-693 16 0
-80 -16 693 0
-694 94 0
-694 19 0
-94 -19 694 0
-689 -690 0
-689 -691 0
-689 -692 0
-689 -693 0
-689 -694 0
-4 689 690 691 692 693 694 0
-695 0
-696 38 0
-697 4 0
-697 36 0
-4 -36 697 0
-698 52 0
-698 42 0
-52 -42 698 0
-699 66 0
-699 44 0
-66 -44 699 0
-700 80 0
-700 46 0
-80 -46 700 0
-701 94 0
-701 48 0
-94 -48 701 0
-696 -697 0
-696 -698 0
-696 -699 0
-696 -700 0
-696 -701 0
-38 696 697 698 699 700 701 0
-702 52 0
-703 4 0
-703 50 0
-4 -50 703 0
-704 38 0
-704 54 0
-38 -54 704 0
-705 66 0
-705 58 0
-66 -58 705 0
-706 80 0
-706 60 0
-80 -60 706 0
-707 94 0
-707 62 0
-94 -62 707 0
-702 -703 0
-702 -704 0
-702 -705 0
-702 -706 0
-702 -707 0
-52 702 703 704 705 706 707 0
-708 66 0
-709 4 0
-709 64 0
-4 -64 709 0
-710 38 0
-710 68 0
-38 -68 710 0
-711 52 0
-711 70 0
-52 -70 711 0
-712 80 0
-712 74 0
-80 -74 712 0
-713 94 0
-713 76 0
-94 -76 713 0
-708 -709 0
-708 -710 0
-708 -711 0
-708 -712 0
-708 -713 0
-66 708 709 710 711 712 713 0
-714 80 0
-715 4 0
-715 78 0
-4 -78 715 0
-716 38 0
-716 82 0
-38 -82 716 0
-717 52 0
-717 84 0
-52 -84 717 0
-718 66 0
-718 86 0
-66 -86 718 0
-719 94 0
-719 90 0
-94 -90 719 0
-714 -715 0
-714 -716 0
-714 -717 0
-714 -718 0
-714 -719 0
-80 714 715 716 717 718 719 0
-720 94 0
-721 4 0
-721 92 0
-4 -92 721 0
-722 38 0
-722 96 0
-38 -96 722 0
-723 52 0
-723 98 0
-52 -98 723 0
-724 66 0
-724 100 0
-66 -100 724 0
-725 80 0
-725 102 0
-80 -102 725 0
-720 -721 0
-720 -722 0
-720 -723 0
-720 -724 0
-720 -725 0
-94 720 721 722 723 724 725 0
-726 7 0
-727 26 0
-727 4 0
-26 -4 727 0
-728 54 0
-728 10 0
-54 -10 728 0
-729 68 0
-729 13 0
-68 -13 729 0
-730 82 0
-730 16 0
-82 -16 730 0
-731 96 0
-731 19 0
-96 -19 731 0
-726 -727 0
-726 -728 0
-726 -729 0
-726 -730 0
-726 -731 0
-7 726 727 728 729 730 731 0
-732 26 0
-733 7 0
-733 22 0
-7 -22 733 0
-734 54 0
-734 28 0
-54 -28 734 0
-735 68 0
-735 30 0
-68 -30 735 0
-736 82 0
-736 32 0
-82 -32 736 0
-737 96 0
-737 34 0
-96 -34 737 0
-732 -733 0
-732 -734 0
-732 -735 0
-732 -736 0
-732 -737 0
-26 732 733 734 735 736 737 0
-738 0
-739 54 0
-740 7 0
-740 50 0
-7 -50 740 0
-741 26 0
-741 52 0
-26 -52 741 0
-742 68 0
-742 58 0
-68 -58 742 0
-743 82 0
-743 60 0
-82 -60 743 0
-744 96 0
-744 62 0
-96 -62 744 0
-739 -740 0
-739 -741 0
-739 -742 0
-739 -743 0
-739 -744 0
-54 739 740 741 742 743 744 0
-745 68 0
-746 7 0
-746 64 0
-7 -64 746 0
-747 26 0
-747 66 0
-26 -66 747 0
-748 54 0
-748 70 0
-54 -70 748 0
-749 82 0
-749 74 0
-82 -74 749 0
-750 96 0
-750 76 0
-96 -76 750 0
-745 -746 0
-745 -747 0
-745 -748 0
-745 -749 0
-745 -750 0
-68 745 746 747 748 749 750 0
-751 82 0
-752 7 0
-752 78 0
-7 -78 752 0
-753 26 0
-753 80 0
-26 -80 753 0
-754 54 0
-754 84 0
-54 -84 754 0
-755 68 0
-755 86 0
-68 -86 755 0
-756 96 0
-756 90 0
-96 -90 756 0
-751 -752 0
-751 -753 0
-751 -754 0
-751 -755 0
-751 -756 0
-82 751 752 753 754 755 756 0
-757 96 0
-758 7 0
-758 92 0
-7 -92 758 0
-759 26 0
-759 94 0
-26 -94 759 0
-760 54 0
-760 98 0
-54 -98 760 0
-761 68 0
-761 100 0
-68 -100 761 0
-762 82 0
-762 102 0
-82 -102 762 0
-757 -758 0
-757 -759 0
-757 -760 0
-757 -761 0
-757 -762 0
-96 757 758 759 760 761 762 0
-763 10 0
-764 28 0
-764 4 0
-28 -4 764 0
-765 42 0
-765 7 0
-42 -7 765 0
-766 70 0
-766 13 0
-70 -13 766 0
-767 84 0
-767 16 0
-84 -16 767 0
-768 98 0
-768 19 0
-98 -19 768 0
-763 -764 0
-763 -765 0
-763 -766 0
-763 -767 0
-763 -768 0
-10 763 764 765 766 767 768 0
-769 28 0
-770 10 0
-770 22 0
-10 -22 770 0
-771 42 0
-771 26 0
-42 -26 771 0
-772 70 0
-772 30 0
-70 -30 772 0
-773 84 0
-773 32 0
-84 -32 773 0
-774 98 0
-774 34 0
-98 -34 774 0
-769 -770 0
-769 -771 0
-769 -772 0
-769 -773 0
-769 -774 0
-28 769 770 771 772 773 774 0
-775 42 0
-776 10 0
-776 36 0
-10 -36 776 0
-777 28 0
-777 38 0
-28 -38 777 0
-778 70 0
-778 44 0
-70 -44 778 0
-779 84 0
-779 46 0
-84 -46 779 0
-780 98 0
-780 48 0
-98 -48 780 0
-775 -776 0
-775 -777 0
-775 -778 0
-775 -779 0
-775 -780 0
-42 775 776 777 778 779 780 0
-781 0
-782 70 0
-783 10 0
-783 64 0
-10 -64 783 0
-784 28 0
-784 66 0
-28 -66 784 0
-785 42 0
-785 68 0
-42 -68 785 0
-786 84 0
-786 74 0
-84 -74 786 0
-787 98 0
-787 76 0
-98 -76 787 0
-782 -783 0
-782 -784 0
-782 -785 0
-782 -786 0
-782 -787 0
-70 782 783 784 785 786 787 0
-788 84 0
-789 10 0
-789 78 0
-10 -78 789 0
-790 28 0
-790 80 0
-28 -80 790 0
-791 42 0
-791 82 0
-42 -82 791 0
-792 70 0
-792 86 0
-70 -86 792 0
-793 98 0
-793 90 0
-98 -90 793 0
-788 -789 0
-788 -790 0
-788 -791 0
-788 -792 0
-788 -793 0
-84 788 789 790 791 792 793 0
-794 98 0
-795 10 0
-795 92 0
-10 -92 795 0
-796 28 0
-796 94 0
-28 -94 796 0
-797 42 0
-797 96 0
-42 -96 797 0
-798 70 0
-798 100 0
-70 -100 798 0
-799 84 0
-799 102 0
-84 -102 799 0
-794 -795 0
-794 -796 0
-794 -797 0
-794 -798 0
-794 -799 0
-98 794 795 796 797 798 799 0
-800 13 0
-801 30 0
-801 4 0
-30 -4 801 0
-802 44 0
-802 7 0
-44 -7 802 0
-803 58 0
-803 10 0
-58 -10 803 0
-804 86 0
-804 16 0
-86 -16 804 0
-805 100 0
-805 19 0
-100 -19 805 0
-800 -801 0
-800 -802 0
-800 -803 0
-800 -804 0
-800 -805 0
-13 800 801 802 803 804 805 0
-806 30 0
-807 13 0
-807 22 0
-13 -22 807 0
-808 44 0
-808 26 0
-44 -26 808 0
-809 58 0
-809 28 0
-58 -28 809 0
-810 86 0
-810 32 0
-86 -32 810 0
-811 100 0
-811 34 0
-100 -34 811 0
-806 -807 0
-806 -808 0
-806 -809 0
-806 -810 0
-806 -811 0
-30 806 807 808 809 810 811 0
-812 44 0
-813 13 0
-813 36 0
-13 -36 813 0
-814 30 0
-814 38 0
-30 -38 814 0
-815 58 0
-815 42 0
-58 -42 815 0
-816 86 0
-816 46 0
-86 -46 816 0
-817 100 0
-817 48 0
-100 -48 817 0
-812 -813 0
-812 -814 0
-812 -815 0
-812 -816 0
-812 -817 0
-44 812 813 814 815 816 817 0
-818 58 0
-819 13 0
-819 50 0
-13 -50 819 0
-820 30 0
-820 52 0
-30 -52 820 0
-821 44 0
-821 54 0
-44 -54 821 0
-822 86 0
-822 60 0
-86 -60 822 0
-823 100 0
-823 62 0
-100 -62 823 0
-818 -819 0
-818 -820 0
-818 -821 0
-818 -822 0
-818 -823 0
-58 818 819 820 821 822 823 0
-824 0
-825 86 0
-826 13 0
-826 78 0
-13 -78 826 0
-827 30 0
-827 80 0
-30 -80 827 0
-828 44 0
-828 82 0
-44 -82 828 0
-829 58 0
-829 84 0
-58 -84 829 0
-830 100 0
-830 90 0
-100 -90 830 0
-825 -826 0
-825 -827 0
-825 -828 0
-825 -829 0
-825 -830 0
-86 825 826 827 828 829 830 0
-831 100 0
-832 13 0
-832 92 0
-13 -92 832 0
-833 30 0
-833 94 0
-30 -94 833 0
-834 44 0
-834 96 0
-44 -96 834 0
-835 58 0
-835 98 0
-58 -98 835 0
-836 86 0
-836 102 0
-86 -102 836 0
-831 -832 0
-831 -833 0
-831 -834 0
-831 -835 0
-831 -836 0
-100 831 832 833 834 835 836 0
-837 16 0
-838 32 0
-838 4 0
-32 -4 838 0
-839 46 0
-839 7 0
-46 -7 839 0
-840 60 0
-840 10 0
-60 -10 840 0
-841 74 0
-841 13 0
-74 -13 841 0
-842 102 0
-842 19 0
-102 -19 842 0
-837 -838 0
-837 -839 0
-837 -840 0
-837 -841 0
-837 -842 0
-16 837 838 839 840 841 842 0
-843 32 0
-844 16 0
-844 22 0
-16 -22 844 0
-845 46 0
-845 26 0
-46 -26 845 0
-846 60 0
-846 28 0
-60 -28 846 0
-847 74 0
-847 30 0
-74 -30 847 0
-848 102 0
-848 34 0
-102 -34 848 0
-843 -844 0
-843 -845 0
-843 -846 0
-843 -847 0
-843 -848 0
-32 843 844 845 846 847 848 0
-849 46 0
-850 16 0
-850 36 0
-16 -36 850 0
-851 32 0
-851 38 0
-32 -38 851 0
-852 60 0
-852 42 0
-60 -42 852 0
-853 74 0
-853 44 0
-74 -44 853 0
-854 102 0
-854 48 0
-102 -48 854 0
-849 -850 0
-849 -851 0
-849 -852 0
-849 -853 0
-849 -854 0
-46 849 850 851 852 853 854 0
-855 60 0
-856 16 0
-856 50 0
-16 -50 856 0
-857 32 0
-857 52 0
-32 -52 857 0
-858 46 0
-858 54 0
-46 -54 858 0
-859 74 0
-859 58 0
-74 -58 859 0
-860 102 0
-860 62 0
-102 -62 860 0
-855 -856 0
-855 -857 0
-855 -858 0
-855 -859 0
-855 -860 0
-60 855 856 857 858 859 860 0
-861 74 0
-862 16 0
-862 64 0
-16 -64 862 0
-863 32 0
-863 66 0
-32 -66 863 0
-864 46 0
-864 68 0
-46 -68 864 0
-865 60 0
-865 70 0
-60 -70 865 0
-866 102 0
-866 76 0
-102 -76 866 0
-861 -862 0
-861 -863 0
-861 -864 0
-861 -865 0
-861 -866 0
-74 861 862 863 864 865 866 0
-867 0
-868 102 0
-869 16 0
-869 92 0
-16 -92 869 0
-870 32 0
-870 94 0
-32 -94 870 0
-871 46 0
-871 96 0
-46 -96 871 0
-872 60 0
-872 98 0
-60 -98 872 0
-873 74 0
-873 100 0
-74 -100 873 0
-868 -869 0
-868 -870 0
-868 -871 0
-868 -872 0
-868 -873 0
-102 868 869 870 871 872 873 0
-874 19 0
-875 34 0
-875 4 0
-34 -4 875 0
-876 48 0
-876 7 0
-48 -7 876 0
-877 62 0
-877 10 0
-62 -10 877 0
-878 76 0
-878 13 0
-76 -13 878 0
-879 90 0
-879 16 0
-90 -16 879 0
-874 -875 0
-874 -876 0
-874 -877 0
-874 -878 0
-874 -879 0
-19 874 875 876 877 878 879 0
-880 34 0
-881 19 0
-881 22 0
-19 -22 881 0
-882 48 0
-882 26 0
-48 -26 882 0
-883 62 0
-883 28 0
-62 -28 883 0
-884 76 0
-884 30 0
-76 -30 884 0
-885 90 0
-885 32 0
-90 -32 885 0
-880 -881 0
-880 -882 0
-880 -883 0
-880 -884 0
-880 -885 0
-34 880 881 882 883 884 885 0
-886 48 0
-887 19 0
-887 36 0
-19 -36 887 0
-888 34 0
-888 38 0
-34 -38 888 0
-889 62 0
-889 42 0
-62 -42 889 0
-890 76 0
-890 44 0
-76 -44 890 0
-891 90 0
-891 46 0
-90 -46 891 0
-886 -887 0
-886 -888 0
-886 -889 0
-886 -890 0
-886 -891 0
-48 886 887 888 889 890 891 0
-892 62 0
-893 19 0
-893 50 0
-19 -50 893 0
-894 34 0
-894 52 0
-34 -52 894 0
-895 48 0
-895 54 0
-48 -54 895 0
-896 76 0
-896 58 0
-76 -58 896 0
-897 90 0
-897 60 0
-90 -60 897 0
-892 -893 0
-892 -894 0
-892 -895 0
-892 -896 0
-892 -897 0
-62 892 893 894 895 896 897 0
-898 76 0
-899 19 0
-899 64 0
-19 -64 899 0
-900 34 0
-900 66 0
-34 -66 900 0
-901 48 0
-901 68 0
-48 -68 901 0
-902 62 0
-902 70 0
-62 -70 902 0
-903 90 0
-903 74 0
-90 -74 903 0
-898 -899 0
-898 -900 0
-898 -901 0
-898 -902 0
-898 -903 0
-76 898 899 900 901 902 903 0
-904 90 0
-905 19 0
-905 78 0
-19 -78 905 0
-906 34 0
-906 80 0
-34 -80 906 0
-907 48 0
-907 82 0
-48 -82 907 0
-908 62 0
-908 84 0
-62 -84 908 0
-909 76 0
-909 86 0
-76 -86 909 0
-904 -905 0
-904 -906 0
-904 -907 0
-904 -908 0
-904 -909 0
-90 904 905 906 907 908 909 0
-910 0
-911 1 0
-911 22 0
-911 36 0
-911 50 0
-911 64 0
-911 78 0
-911 92 0
-1 -22 -36 -50 -64 -78 -92 911 0
-912 1 0
-912 4 0
-912 7 0
-912 10 0
-912 13 0
-912 16 0
-912 19 0
-1 -4 -7 -10 -13 -16 -19 912 0
-913 4 0
-913 24 0
-913 38 0
-913 52 0
-913 66 0
-913 80 0
-913 94 0
-4 -24 -38 -52 -66 -80 -94 913 0
-914 22 0
-914 24 0
-914 26 0
-914 28 0
-914 30 0
-914 32 0
-914 34 0
-22 -24 -26 -28 -30 -32 -34 914 0
-915 7 0
-915 26 0
-915 40 0
-915 54 0
-915 68 0
-915 82 0
-915 96 0
-7 -26 -40 -54 -68 -82 -96 915 0
-916 36 0
-916 38 0
-916 40 0
-916 42 0
-916 44 0
-916 46 0
-916 48 0
-36 -38 -40 -42 -44 -46 -48 916 0
-917 10 0
-917 28 0
-917 42 0
-917 56 0
-917 70 0
-917 84 0
-917 98 0
-10 -28 -42 -56 -70 -84 -98 917 0
-918 50 0
-918 52 0
-918 54 0
-918 56 0
-918 58 0
-918 60 0
-918 62 0
-50 -52 -54 -56 -58 -60 -62 918 0
-919 13 0
-919 30 0
-919 44 0
-919 58 0
-919 72 0
-919 86 0
-919 100 0
-13 -30 -44 -58 -72 -86 -100 919 0
-920 64 0
-920 66 0
-920 68 0
-920 70 0
-920 72 0
-920 74 0
-920 76 0
-64 -66 -68 -70 -72 -74 -76 920 0
-921 16 0
-921 32 0
-921 46 0
-921 60 0
-921 74 0
-921 88 0
-921 102 0
-16 -32 -46 -60 -74 -88 -102 921 0
-922 78 0
-922 80 0
-922 82 0
-922 84 0
-922 86 0
-922 88 0
-922 90 0
-78 -80 -82 -84 -86 -88 -90 922 0
-923 19 0
-923 34 0
-923 48 0
-923 62 0
-923 76 0
-923 90 0
-923 104 0
-19 -34 -48 -62 -76 -90 -104 923 0
-924 92 0
-924 94 0
-924 96 0
-924 98 0
-924 100 0
-924 102 0
-924 104 0
-92 -94 -96 -98 -100 -102 -104 924 0
-652 351 0
-912 -911 351 0
-351 652 912 0
-351 652 911 0
-653 365 0
-912 -913 365 0
-365 653 912 0
-365 653 913 0
-659 379 0
-912 -915 379 0
-379 659 912 0
-379 659 915 0
-665 393 0
-912 -917 393 0
-393 665 912 0
-393 665 917 0
-671 407 0
-912 -919 407 0
-407 671 912 0
-407 671 919 0
-677 421 0
-912 -921 421 0
-421 677 912 0
-421 677 921 0
-683 435 0
-912 -923 435 0
-435 683 912 0
-435 683 923 0
-689 353 0
-914 -911 353 0
-353 689 914 0
-353 689 911 0
-695 367 0
-914 -913 367 0
-367 695 914 0
-367 695 913 0
-696 381 0
-914 -915 381 0
-381 696 914 0
-381 696 915 0
-702 395 0
-914 -917 395 0
-395 702 914 0
-395 702 917 0
-708 409 0
-914 -919 409 0
-409 708 914 0
-409 708 919 0
-714 423 0
-914 -921 423 0
-423 714 914 0
-423 714 921 0
-720 437 0
-914 -923 437 0
-437 720 914 0
-437 720 923 0
-726 355 0
-916 -911 355 0
-355 726 916 0
-355 726 911 0
-732 369 0
-916 -913 369 0
-369 732 916 0
-369 732 913 0
-738 383 0
-916 -915 383 0
-383 738 916 0
-383 738 915 0
-739 397 0
-916 -917 397 0
-397 739 916 0
-397 739 917 0
-745 411 0
-916 -919 411 0
-411 745 916 0
-411 745 919 0
-751 425 0
-916 -921 425 0
-425 751 916 0
-425 751 921 0
-757 439 0
-916 -923 439 0
-439 757 916 0
-439 757 923 0
-763 357 0
-918 -911 357 0
-357 763 918 0
-357 763 911 0
-769 371 0
-918 -913 371 0
-371 769 918 0
-371 769 913 0
-775 385 0
-918 -915 385 0
-385 775 918 0
-385 775 915 0
-781 399 0
-918 -917 399 0
-399 781 918 0
-399 781 917 0
-782 413 0
-918 -919 413 0
-413 782 918 0
-413 782 919 0
-788 427 0
-918 -921 427 0
-427 788 918 0
-427 788 921 0
-794 441 0
-918 -923 441 0
-441 794 918 0
-441 794 923 0
-800 359 0
-920 -911 359 0
-359 800 920 0
-359 800 911 0
-806 373 0
-920 -913 373 0
-373 806 920 0
-373 806 913 0
-812 387 0
-920 -915 387 0
-387 812 920 0
-387 812 915 0
-818 401 0
-920 -917 401 0
-401 818 920 0
-401 818 917 0
-824 415 0
-920 -919 415 0
-415 824 920 0
-415 824 919 0
-825 429 0
-920 -921 429 0
-429 825 920 0
-429 825 921 0
-831 443 0
-920 -923 443 0
-443 831 920 0
-443 831 923 0
-837 361 0
-922 -911 361 0
-361 837 922 0
-361 837 911 0
-843 375 0
-922 -913 375 0
-375 843 922 0
-375 843 913 0
-849 389 0
-922 -915 389 0
-389 849 922 0
-389 849 915 0
-855 403 0
-922 -917 403 0
-403 855 922 0
-403 855 917 0
-861 417 0
-922 -919 417 0
-417 861 922 0
-417 861 919 0
-867 431 0
-922 -921 431 0
-431 867 922 0
-431 867 921 0
-868 445 0
-922 -923 445 0
-445 868 922 0
-445 868 923 0
-874 363 0
-924 -911 363 0
-363 874 924 0
-363 874 911 0
-880 377 0
-924 -913 377 0
-377 880 924 0
-377 880 913 0
-886 391 0
-924 -915 391 0
-391 886 924 0
-391 886 915 0
-892 405 0
-924 -917 405 0
-405 892 924 0
-405 892 917 0
-898 419 0
-924 -919 419 0
-419 898 924 0
-419 898 919 0
-904 433 0
-924 -921 433 0
-433 904 924 0
-433 904 921 0
-910 447 0
-924 -923 447 0
-447 910 924 0
-447 910 923 0
