p cnf 1542 5520
c ind 1 2 3 4 5 6 7 8 9 10 11 12 13 14 15 16 17 18 19 20 21 22 23 24 25 26 27 28 29 30 31 32 33 34 35 36 37 38 39 40 41 42 43 44 45 46 47 48 49 50 0
c ind 51 52 53 54 55 56 57 58 59 60 61 62 63 64 65 66 67 68 69 70 71 72 73 74 75 76 77 78 79 80 81 82 83 84 85 86 87 88 89 90 91 92 93 94 95 96 97 98 99 100 0
c ind 101 102 103 104 105 106 107 108 109 110 111 112 113 114 115 116 117 118 119 120 121 122 123 124 125 126 127 128 129 130 131 132 133 134 135 136 137 138 139 140 141 142 143 144 145 146 147 148 149 150 0
c ind 151 152 153 154 155 156 157 158 159 160 161 162 163 164 165 166 167 168 169 170 171 172 173 174 175 176 177 178 179 180 181 182 183 184 185 186 187 188 189 190 191 192 193 194 195 196 197 198 199 200 0
c ind 201 202 203 204 205 206 207 208 209 210 211 212 213 214 215 216 217 218 219 220 221 222 223 224 225 226 227 228 229 230 231 232 233 234 235 236 237 238 239 240 241 242 243 244 245 246 247 248 249 250 0
c ind 251 252 253 254 255 256 257 258 259 260 261 262 263 264 265 266 267 268 269 270 271 272 273 274 275 276 277 278 279 280 281 282 283 284 285 286 287 288 289 290 291 292 293 294 295 296 297 298 299 300 0
c ind 301 302 303 304 305 306 307 308 309 310 311 312 313 314 315 316 317 318 319 320 321 322 323 324 325 326 327 328 329 330 331 332 333 334 335 336 337 338 339 340 341 342 343 344 345 346 347 348 349 350 0
c ind 351 352 353 354 355 356 357 358 359 360 361 362 363 364 365 366 367 368 369 370 371 372 373 374 375 376 377 378 379 380 381 382 383 384 385 386 387 388 389 390 391 392 393 394 395 396 397 398 399 400 0
c ind 401 402 403 404 405 406 407 408 409 410 411 412 413 414 415 416 417 418 419 420 421 422 423 424 425 426 427 428 429 430 431 432 433 434 435 436 437 438 439 440 441 442 443 444 445 446 447 448 449 450 0
c ind 451 452 453 454 455 456 457 458 459 460 461 462 463 464 465 466 467 468 469 470 471 472 473 474 475 476 477 478 479 480 481 482 483 484 485 486 487 488 489 490 491 492 493 494 495 496 497 498 499 500 0
c ind 501 502 503 504 505 506 507 508 509 510 511 512 513 514 515 516 517 518 519 520 521 522 523 524 525 526 527 528 529 530 531 532 533 534 535 536 537 538 539 540 541 542 543 544 545 546 547 548 549 550 0
c ind 551 552 553 554 555 556 557 558 559 560 561 562 563 564 565 566 567 568 569 570 571 572 573 574 575 576 577 578 579 580 581 582 583 584 585 586 587 588 589 590 591 592 593 594 595 596 597 598 599 600 0
c ind 601 602 603 604 605 606 607 608 609 610 611 612 613 614 615 616 617 618 619 620 621 622 623 624 625 626 627 628 629 630 631 632 633 634 635 636 637 638 639 640 641 642 643 644 645 646 647 648 649 650 0
c ind 651 652 653 654 655 656 657 658 659 660 661 662 663 664 665 666 667 668 669 670 671 672 673 674 675 676 677 678 679 680 681 682 683 684 685 686 687 688 689 690 691 692 693 694 695 696 697 698 699 700 0
c ind 701 702 703 704 705 706 707 708 709 710 711 712 713 714 715 716 717 718 719 720 721 722 723 724 725 726 727 728 729 730 731 732 733 734 735 736 737 738 739 740 741 742 743 744 745 746 747 748 749 750 0
c ind 751 752 753 754 755 756 757 758 759 760 761 762 763 764 765 766 767 768 769 770 771 772 773 774 775 776 777 778 779 780 781 782 783 784 785 786 787 788 789 790 791 792 793 794 795 796 797 798 799 800 0
c ind 801 802 803 804 805 806 807 808 809 810 811 812 813 814 815 816 817 818 819 820 821 822 823 824 825 826 827 828 829 830 831 832 833 834 835 836 837 838 839 840 841 842 843 844 845 846 847 848 849 850 0
c ind 851 852 853 854 855 856 857 858 859 860 861 862 863 864 865 866 867 868 869 870 871 872 873 874 875 876 877 878 879 880 881 882 883 884 885 886 887 888 889 890 891 892 893 894 895 896 897 898 899 900 0
c ind 901 902 903 904 905 906 907 908 909 910 911 912 913 914 915 916 917 918 919 920 921 922 923 924 925 926 927 928 929 930 931 932 933 934 935 936 937 938 939 940 941 942 943 944 945 946 947 948 949 950 0
c ind 951 952 953 954 955 956 957 958 959 960 961 962 963 964 965 966 967 968 969 970 971 972 973 974 975 976 977 978 979 980 981 982 983 984 985 986 987 988 989 990 991 992 993 994 995 996 997 998 999 1000 0
c ind 1001 1002 1003 1004 1005 1006 1007 1008 1009 1010 1011 1012 1013 1014 1015 1016 1017 1018 1019 1020 1021 1022 1023 1024 1025 1026 1027 1028 1029 1030 1031 1032 1033 1034 1035 1036 1037 1038 1039 1040 1041 1042 1043 1044 1045 1046 1047 1048 1049 1050 0
c ind 1051 1052 1053 1054 1055 1056 1057 1058 1059 1060 1061 1062 1063 1064 1065 1066 1067 1068 1069 1070 1071 1072 1073 1074 1075 1076 1077 1078 1079 1080 1081 1082 1083 1084 1085 1086 1087 1088 1089 1090 1091 1092 1093 1094 1095 1096 1097 1098 1099 1100 0
c ind 1101 1102 1103 1104 1105 1106 1107 1108 1109 1110 1111 1112 1113 1114 1115 1116 1117 1118 1119 1120 1121 1122 1123 1124 1125 1126 1127 1128 1129 1130 1131 1132 1133 1134 1135 1136 1137 1138 1139 1140 1141 1142 1143 1144 1145 1146 1147 1148 1149 1150 0
c ind 1151 1152 1153 1154 1155 1156 1157 1158 1159 1160 1161 1162 1163 1164 1165 1166 1167 1168 1169 1170 1171 1172 1173 1174 1175 1176 1177 1178 1179 1180 1181 1182 1183 1184 1185 1186 1187 1188 1189 1190 1191 1192 1207 1208 1209 1210 1211 1212 1213 1214 0
c ind 1215 1216 1217 1218 1219 1220 1221 1222 1223 1224 1225 1226 1227 1228 1229 1230 1231 1232 1233 1234 1235 1236 1237 1238 1239 1240 1241 1242 1243 1244 1245 1246 1247 1248 1249 1250 1251 1252 1253 1254 1255 1256 1257 1258 1259 1260 1261 1262 1263 1264 0
c ind 1265 1266 1267 1268 1269 1270 1271 1272 1273 1274 1275 1276 1277 1278 1279 1280 1281 1282 1283 1284 1285 1286 1287 1288 1289 1290 1291 1292 1293 1294 1295 1296 1297 1298 1299 1300 1301 1302 1303 1304 1305 1306 1307 1308 1309 1310 1311 1312 1313 1314 0
c ind 1315 1316 1317 1318 1319 1320 1321 1322 1323 1324 1325 1326 1327 1328 1329 1330 1331 1332 1333 1334 1335 1336 1337 1338 1339 1340 1341 1342 1343 1344 1345 1346 1347 1348 1349 1350 1351 1352 1353 1354 1355 1356 1357 1358 1359 1360 1361 1362 1363 1364 0
c ind 1365 1366 1367 1368 1369 1370 1371 1372 1373 1374 1375 1376 1377 1378 1379 1380 1381 1382 1383 1384 1385 1386 1387 1388 1389 1390 1391 1392 1393 1394 1395 1396 1397 1398 1399 1400 1401 1402 1403 1404 1405 1406 1407 1408 1409 1410 1411 1412 1413 1414 0
c ind 1415 1416 1417 1418 1419 1420 1421 1422 1423 1424 1425 1426 1427 1428 1429 1430 1431 1432 1433 1434 1435 1436 1437 1438 1439 1440 1441 1442 1443 1444 1445 1446 1447 1448 1449 1450 1451 1452 1453 1454 1455 1456 1457 1458 1459 1460 1461 1462 1463 1464 0
c ind 1465 1466 1467 1468 1469 1470 1471 1472 1473 1474 1475 1476 1477 1478 1479 1480 1481 1482 1483 1484 1485 1486 1487 1488 1489 1490 1491 1492 1493 1494 1495 1496 1497 1498 1499 1500 1501 1502 1503 1504 1505 1506 1507 1508 1509 1510 1511 1512 1513 1514 0
c ind 1515 1516 1517 1518 1519 1520 1521 1522 1523 1524 1525 1526 1527 1528 1529 1530 1531 1532 1533 1534 1535 1536 1537 1538 1539 1540 1541 1542 0
1 2 3 4 5 6 7 8 0
9 10 11 12 13 14 15 16 0
17 18 19 20 21 22 23 24 0
25 26 27 28 29 30 31 32 0
33 34 35 36 37 38 39 40 0
41 42 43 44 45 46 47 48 0
49 50 51 52 53 54 55 56 0
57 58 59 60 61 62 63 64 0
65 66 67 68 69 70 71 72 0
73 74 75 76 77 78 79 80 0
81 82 83 84 85 86 87 88 0
89 90 91 92 93 94 95 96 0
97 98 99 100 101 102 103 104 0
105 106 107 108 109 110 111 112 0
113 114 115 116 117 118 119 120 0
121 122 123 124 125 126 127 128 0
129 130 -130 -131 0
132 130 -133 -134 0
135 130 -136 -137 0
138 130 -139 -140 0
141 130 -142 -143 0
144 130 -145 -146 0
147 130 -148 -149 0
150 130 -151 -152 0
153 133 -130 -154 0
155 133 -133 -156 0
157 133 -136 -158 0
159 133 -139 -160 0
161 133 -142 -162 0
163 133 -145 -164 0
165 133 -148 -166 0
167 133 -151 -168 0
169 136 -130 -170 0
171 136 -133 -172 0
173 136 -136 -174 0
175 136 -139 -176 0
177 136 -142 -178 0
179 136 -145 -180 0
181 136 -148 -182 0
183 136 -151 -184 0
185 139 -130 -186 0
187 139 -133 -188 0
189 139 -136 -190 0
191 139 -139 -192 0
193 139 -142 -194 0
195 139 -145 -196 0
197 139 -148 -198 0
199 139 -151 -200 0
201 142 -130 -202 0
203 142 -133 -204 0
205 142 -136 -206 0
207 142 -139 -208 0
209 142 -142 -210 0
211 142 -145 -212 0
213 142 -148 -214 0
215 142 -151 -216 0
217 145 -130 -218 0
219 145 -133 -220 0
221 145 -136 -222 0
223 145 -139 -224 0
225 145 -142 -226 0
227 145 -145 -228 0
229 145 -148 -230 0
231 145 -151 -232 0
233 148 -130 -234 0
235 148 -133 -236 0
237 148 -136 -238 0
239 148 -139 -240 0
241 148 -142 -242 0
243 148 -145 -244 0
245 148 -148 -246 0
247 148 -151 -248 0
249 151 -130 -250 0
251 151 -133 -252 0
253 151 -136 -254 0
255 151 -139 -256 0
257 151 -142 -258 0
259 151 -145 -260 0
261 151 -148 -262 0
263 151 -151 -264 0
131 -129 0
134 -132 0
137 -135 0
140 -138 0
143 -141 0
146 -144 0
149 -147 0
152 -150 0
154 -153 0
156 -155 0
158 -157 0
160 -159 0
162 -161 0
164 -163 0
166 -165 0
168 -167 0
170 -169 0
172 -171 0
174 -173 0
176 -175 0
178 -177 0
180 -179 0
182 -181 0
184 -183 0
186 -185 0
188 -187 0
190 -189 0
192 -191 0
194 -193 0
196 -195 0
198 -197 0
200 -199 0
202 -201 0
204 -203 0
206 -205 0
208 -207 0
210 -209 0
212 -211 0
214 -213 0
216 -215 0
218 -217 0
220 -219 0
222 -221 0
224 -223 0
226 -225 0
228 -227 0
230 -229 0
232 -231 0
234 -233 0
236 -235 0
238 -237 0
240 -239 0
242 -241 0
244 -243 0
246 -245 0
248 -247 0
250 -249 0
252 -251 0
254 -253 0
256 -255 0
258 -257 0
260 -259 0
262 -261 0
264 -263 0
131 -130 0
134 -130 0
137 -130 0
140 -130 0
143 -130 0
146 -130 0
149 -130 0
152 -130 0
154 -133 0
156 -133 0
158 -133 0
160 -133 0
162 -133 0
164 -133 0
166 -133 0
168 -133 0
170 -136 0
172 -136 0
174 -136 0
176 -136 0
178 -136 0
180 -136 0
182 -136 0
184 -136 0
186 -139 0
188 -139 0
190 -139 0
192 -139 0
194 -139 0
196 -139 0
198 -139 0
200 -139 0
202 -142 0
204 -142 0
206 -142 0
208 -142 0
210 -142 0
212 -142 0
214 -142 0
216 -142 0
218 -145 0
220 -145 0
222 -145 0
224 -145 0
226 -145 0
228 -145 0
230 -145 0
232 -145 0
234 -148 0
236 -148 0
238 -148 0
240 -148 0
242 -148 0
244 -148 0
246 -148 0
248 -148 0
250 -151 0
252 -151 0
254 -151 0
256 -151 0
258 -151 0
260 -151 0
262 -151 0
264 -151 0
131 130 0
134 133 0
137 136 0
140 139 0
143 142 0
146 145 0
149 148 0
152 151 0
154 130 0
156 133 0
158 136 0
160 139 0
162 142 0
164 145 0
166 148 0
168 151 0
170 130 0
172 133 0
174 136 0
176 139 0
178 142 0
180 145 0
182 148 0
184 151 0
186 130 0
188 133 0
190 136 0
192 139 0
194 142 0
196 145 0
198 148 0
200 151 0
202 130 0
204 133 0
206 136 0
208 139 0
210 142 0
212 145 0
214 148 0
216 151 0
218 130 0
220 133 0
222 136 0
224 139 0
226 142 0
228 145 0
230 148 0
232 151 0
234 130 0
236 133 0
238 136 0
240 139 0
242 142 0
244 145 0
246 148 0
248 151 0
250 130 0
252 133 0
254 136 0
256 139 0
258 142 0
260 145 0
262 148 0
264 151 0
-265 -130 -130 266 0
-267 -133 -130 268 0
-269 -136 -130 270 0
-271 -139 -130 272 0
-273 -142 -130 274 0
-275 -145 -130 276 0
-277 -148 -130 278 0
-279 -151 -130 280 0
-281 -130 -133 282 0
-283 -133 -133 284 0
-285 -136 -133 286 0
-287 -139 -133 288 0
-289 -142 -133 290 0
-291 -145 -133 292 0
-293 -148 -133 294 0
-295 -151 -133 296 0
-297 -130 -136 298 0
-299 -133 -136 300 0
-301 -136 -136 302 0
-303 -139 -136 304 0
-305 -142 -136 306 0
-307 -145 -136 308 0
-309 -148 -136 310 0
-311 -151 -136 312 0
-313 -130 -139 314 0
-315 -133 -139 316 0
-317 -136 -139 318 0
-319 -139 -139 320 0
-321 -142 -139 322 0
-323 -145 -139 324 0
-325 -148 -139 326 0
-327 -151 -139 328 0
-329 -130 -142 330 0
-331 -133 -142 332 0
-333 -136 -142 334 0
-335 -139 -142 336 0
-337 -142 -142 338 0
-339 -145 -142 340 0
-341 -148 -142 342 0
-343 -151 -142 344 0
-345 -130 -145 346 0
-347 -133 -145 348 0
-349 -136 -145 350 0
-351 -139 -145 352 0
-353 -142 -145 354 0
-355 -145 -145 356 0
-357 -148 -145 358 0
-359 -151 -145 360 0
-361 -130 -148 362 0
-363 -133 -148 364 0
-365 -136 -148 366 0
-367 -139 -148 368 0
-369 -142 -148 370 0
-371 -145 -148 372 0
-373 -148 -148 374 0
-375 -151 -148 376 0
-377 -130 -151 378 0
-379 -133 -151 380 0
-381 -136 -151 382 0
-383 -139 -151 384 0
-385 -142 -151 386 0
-387 -145 -151 388 0
-389 -148 -151 390 0
-391 -151 -151 392 0
-266 265 0
-268 267 0
-270 269 0
-272 271 0
-274 273 0
-276 275 0
-278 277 0
-280 279 0
-282 281 0
-284 283 0
-286 285 0
-288 287 0
-290 289 0
-292 291 0
-294 293 0
-296 295 0
-298 297 0
-300 299 0
-302 301 0
-304 303 0
-306 305 0
-308 307 0
-310 309 0
-312 311 0
-314 313 0
-316 315 0
-318 317 0
-320 319 0
-322 321 0
-324 323 0
-326 325 0
-328 327 0
-330 329 0
-332 331 0
-334 333 0
-336 335 0
-338 337 0
-340 339 0
-342 341 0
-344 343 0
-346 345 0
-348 347 0
-350 349 0
-352 351 0
-354 353 0
-356 355 0
-358 357 0
-360 359 0
-362 361 0
-364 363 0
-366 365 0
-368 367 0
-370 369 0
-372 371 0
-374 373 0
-376 375 0
-378 377 0
-380 379 0
-382 381 0
-384 383 0
-386 385 0
-388 387 0
-390 389 0
-392 391 0
-266 130 0
-268 133 0
-270 136 0
-272 139 0
-274 142 0
-276 145 0
-278 148 0
-280 151 0
-282 130 0
-284 133 0
-286 136 0
-288 139 0
-290 142 0
-292 145 0
-294 148 0
-296 151 0
-298 130 0
-300 133 0
-302 136 0
-304 139 0
-306 142 0
-308 145 0
-310 148 0
-312 151 0
-314 130 0
-316 133 0
-318 136 0
-320 139 0
-322 142 0
-324 145 0
-326 148 0
-328 151 0
-330 130 0
-332 133 0
-334 136 0
-336 139 0
-338 142 0
-340 145 0
-342 148 0
-344 151 0
-346 130 0
-348 133 0
-350 136 0
-352 139 0
-354 142 0
-356 145 0
-358 148 0
-360 151 0
-362 130 0
-364 133 0
-366 136 0
-368 139 0
-370 142 0
-372 145 0
-374 148 0
-376 151 0
-378 130 0
-380 133 0
-382 136 0
-384 139 0
-386 142 0
-388 145 0
-390 148 0
-392 151 0
-266 130 0
-268 130 0
-270 130 0
-272 130 0
-274 130 0
-276 130 0
-278 130 0
-280 130 0
-282 133 0
-284 133 0
-286 133 0
-288 133 0
-290 133 0
-292 133 0
-294 133 0
-296 133 0
-298 136 0
-300 136 0
-302 136 0
-304 136 0
-306 136 0
-308 136 0
-310 136 0
-312 136 0
-314 139 0
-316 139 0
-318 139 0
-320 139 0
-322 139 0
-324 139 0
-326 139 0
-328 139 0
-330 142 0
-332 142 0
-334 142 0
-336 142 0
-338 142 0
-340 142 0
-342 142 0
-344 142 0
-346 145 0
-348 145 0
-350 145 0
-352 145 0
-354 145 0
-356 145 0
-358 145 0
-360 145 0
-362 148 0
-364 148 0
-366 148 0
-368 148 0
-370 148 0
-372 148 0
-374 148 0
-376 148 0
-378 151 0
-380 151 0
-382 151 0
-384 151 0
-386 151 0
-388 151 0
-390 151 0
-392 151 0
-393 266 -394 0
-395 268 -396 0
-397 270 -398 0
-399 272 -400 0
-401 274 -402 0
-403 276 -404 0
-405 278 -406 0
-407 280 -408 0
-409 282 -410 0
-411 284 -412 0
-413 286 -414 0
-415 288 -416 0
-417 290 -418 0
-419 292 -420 0
-421 294 -422 0
-423 296 -424 0
-425 298 -426 0
-427 300 -428 0
-429 302 -430 0
-431 304 -432 0
-433 306 -434 0
-435 308 -436 0
-437 310 -438 0
-439 312 -440 0
-441 314 -442 0
-443 316 -444 0
-445 318 -446 0
-447 320 -448 0
-449 322 -450 0
-451 324 -452 0
-453 326 -454 0
-455 328 -456 0
-457 330 -458 0
-459 332 -460 0
-461 334 -462 0
-463 336 -464 0
-465 338 -466 0
-467 340 -468 0
-469 342 -470 0
-471 344 -472 0
-473 346 -474 0
-475 348 -476 0
-477 350 -478 0
-479 352 -480 0
-481 354 -482 0
-483 356 -484 0
-485 358 -486 0
-487 360 -488 0
-489 362 -490 0
-491 364 -492 0
-493 366 -494 0
-495 368 -496 0
-497 370 -498 0
-499 372 -500 0
-501 374 -502 0
-503 376 -504 0
-505 378 -506 0
-507 380 -508 0
-509 382 -510 0
-511 384 -512 0
-513 386 -514 0
-515 388 -516 0
-517 390 -518 0
-519 392 -520 0
394 393 0
396 395 0
398 397 0
400 399 0
402 401 0
404 403 0
406 405 0
408 407 0
410 409 0
412 411 0
414 413 0
416 415 0
418 417 0
420 419 0
422 421 0
424 423 0
426 425 0
428 427 0
430 429 0
432 431 0
434 433 0
436 435 0
438 437 0
440 439 0
442 441 0
444 443 0
446 445 0
448 447 0
450 449 0
452 451 0
454 453 0
456 455 0
458 457 0
460 459 0
462 461 0
464 463 0
466 465 0
468 467 0
470 469 0
472 471 0
474 473 0
476 475 0
478 477 0
480 479 0
482 481 0
484 483 0
486 485 0
488 487 0
490 489 0
492 491 0
494 493 0
496 495 0
498 497 0
500 499 0
502 501 0
504 503 0
506 505 0
508 507 0
510 509 0
512 511 0
514 513 0
516 515 0
518 517 0
520 519 0
394 -266 0
396 -268 0
398 -270 0
400 -272 0
402 -274 0
404 -276 0
406 -278 0
408 -280 0
410 -282 0
412 -284 0
414 -286 0
416 -288 0
418 -290 0
420 -292 0
422 -294 0
424 -296 0
426 -298 0
428 -300 0
430 -302 0
432 -304 0
434 -306 0
436 -308 0
438 -310 0
440 -312 0
442 -314 0
444 -316 0
446 -318 0
448 -320 0
450 -322 0
452 -324 0
454 -326 0
456 -328 0
458 -330 0
460 -332 0
462 -334 0
464 -336 0
466 -338 0
468 -340 0
470 -342 0
472 -344 0
474 -346 0
476 -348 0
478 -350 0
480 -352 0
482 -354 0
484 -356 0
486 -358 0
488 -360 0
490 -362 0
492 -364 0
494 -366 0
496 -368 0
498 -370 0
500 -372 0
502 -374 0
504 -376 0
506 -378 0
508 -380 0
510 -382 0
512 -384 0
514 -386 0
516 -388 0
518 -390 0
520 -392 0
393 -265 -130 -130 -521 0
395 -267 -133 -130 -522 0
397 -269 -136 -130 -523 0
399 -271 -139 -130 -524 0
401 -273 -142 -130 -525 0
403 -275 -145 -130 -526 0
405 -277 -148 -130 -527 0
407 -279 -151 -130 -528 0
409 -281 -130 -133 -529 0
411 -283 -133 -133 -530 0
413 -285 -136 -133 -531 0
415 -287 -139 -133 -532 0
417 -289 -142 -133 -533 0
419 -291 -145 -133 -534 0
421 -293 -148 -133 -535 0
423 -295 -151 -133 -536 0
425 -297 -130 -136 -537 0
427 -299 -133 -136 -538 0
429 -301 -136 -136 -539 0
431 -303 -139 -136 -540 0
433 -305 -142 -136 -541 0
435 -307 -145 -136 -542 0
437 -309 -148 -136 -543 0
439 -311 -151 -136 -544 0
441 -313 -130 -139 -545 0
443 -315 -133 -139 -546 0
445 -317 -136 -139 -547 0
447 -319 -139 -139 -548 0
449 -321 -142 -139 -549 0
451 -323 -145 -139 -550 0
453 -325 -148 -139 -551 0
455 -327 -151 -139 -552 0
457 -329 -130 -142 -553 0
459 -331 -133 -142 -554 0
461 -333 -136 -142 -555 0
463 -335 -139 -142 -556 0
465 -337 -142 -142 -557 0
467 -339 -145 -142 -558 0
469 -341 -148 -142 -559 0
471 -343 -151 -142 -560 0
473 -345 -130 -145 -561 0
475 -347 -133 -145 -562 0
477 -349 -136 -145 -563 0
479 -351 -139 -145 -564 0
481 -353 -142 -145 -565 0
483 -355 -145 -145 -566 0
485 -357 -148 -145 -567 0
487 -359 -151 -145 -568 0
489 -361 -130 -148 -569 0
491 -363 -133 -148 -570 0
493 -365 -136 -148 -571 0
495 -367 -139 -148 -572 0
497 -369 -142 -148 -573 0
499 -371 -145 -148 -574 0
501 -373 -148 -148 -575 0
503 -375 -151 -148 -576 0
505 -377 -130 -151 -577 0
507 -379 -133 -151 -578 0
509 -381 -136 -151 -579 0
511 -383 -139 -151 -580 0
513 -385 -142 -151 -581 0
515 -387 -145 -151 -582 0
517 -389 -148 -151 -583 0
519 -391 -151 -151 -584 0
521 -393 0
522 -395 0
523 -397 0
524 -399 0
525 -401 0
526 -403 0
527 -405 0
528 -407 0
529 -409 0
530 -411 0
531 -413 0
532 -415 0
533 -417 0
534 -419 0
535 -421 0
536 -423 0
537 -425 0
538 -427 0
539 -429 0
540 -431 0
541 -433 0
542 -435 0
543 -437 0
544 -439 0
545 -441 0
546 -443 0
547 -445 0
548 -447 0
549 -449 0
550 -451 0
551 -453 0
552 -455 0
553 -457 0
554 -459 0
555 -461 0
556 -463 0
557 -465 0
558 -467 0
559 -469 0
560 -471 0
561 -473 0
562 -475 0
563 -477 0
564 -479 0
565 -481 0
566 -483 0
567 -485 0
568 -487 0
569 -489 0
570 -491 0
571 -493 0
572 -495 0
573 -497 0
574 -499 0
575 -501 0
576 -503 0
577 -505 0
578 -507 0
579 -509 0
580 -511 0
581 -513 0
582 -515 0
583 -517 0
584 -519 0
521 265 0
522 267 0
523 269 0
524 271 0
525 273 0
526 275 0
527 277 0
528 279 0
529 281 0
530 283 0
531 285 0
532 287 0
533 289 0
534 291 0
535 293 0
536 295 0
537 297 0
538 299 0
539 301 0
540 303 0
541 305 0
542 307 0
543 309 0
544 311 0
545 313 0
546 315 0
547 317 0
548 319 0
549 321 0
550 323 0
551 325 0
552 327 0
553 329 0
554 331 0
555 333 0
556 335 0
557 337 0
558 339 0
559 341 0
560 343 0
561 345 0
562 347 0
563 349 0
564 351 0
565 353 0
566 355 0
567 357 0
568 359 0
569 361 0
570 363 0
571 365 0
572 367 0
573 369 0
574 371 0
575 373 0
576 375 0
577 377 0
578 379 0
579 381 0
580 383 0
581 385 0
582 387 0
583 389 0
584 391 0
521 130 0
522 133 0
523 136 0
524 139 0
525 142 0
526 145 0
527 148 0
528 151 0
529 130 0
530 133 0
531 136 0
532 139 0
533 142 0
534 145 0
535 148 0
536 151 0
537 130 0
538 133 0
539 136 0
540 139 0
541 142 0
542 145 0
543 148 0
544 151 0
545 130 0
546 133 0
547 136 0
548 139 0
549 142 0
550 145 0
551 148 0
552 151 0
553 130 0
554 133 0
555 136 0
556 139 0
557 142 0
558 145 0
559 148 0
560 151 0
561 130 0
562 133 0
563 136 0
564 139 0
565 142 0
566 145 0
567 148 0
568 151 0
569 130 0
570 133 0
571 136 0
572 139 0
573 142 0
574 145 0
575 148 0
576 151 0
577 130 0
578 133 0
579 136 0
580 139 0
581 142 0
582 145 0
583 148 0
584 151 0
521 130 0
522 130 0
523 130 0
524 130 0
525 130 0
526 130 0
527 130 0
528 130 0
529 133 0
530 133 0
531 133 0
532 133 0
533 133 0
534 133 0
535 133 0
536 133 0
537 136 0
538 136 0
539 136 0
540 136 0
541 136 0
542 136 0
543 136 0
544 136 0
545 139 0
546 139 0
547 139 0
548 139 0
549 139 0
550 139 0
551 139 0
552 139 0
553 142 0
554 142 0
555 142 0
556 142 0
557 142 0
558 142 0
559 142 0
560 142 0
561 145 0
562 145 0
563 145 0
564 145 0
565 145 0
566 145 0
567 145 0
568 145 0
569 148 0
570 148 0
571 148 0
572 148 0
573 148 0
574 148 0
575 148 0
576 148 0
577 151 0
578 151 0
579 151 0
580 151 0
581 151 0
582 151 0
583 151 0
584 151 0
-585 -393 -586 0
-585 -409 -587 0
-585 -425 -588 0
-585 -441 -589 0
-585 -457 -590 0
-585 -473 -591 0
-585 -489 -592 0
-585 -505 -593 0
-594 -395 -595 0
-594 -411 -596 0
-594 -427 -597 0
-594 -443 -598 0
-594 -459 -599 0
-594 -475 -600 0
-594 -491 -601 0
-594 -507 -602 0
-603 -397 -604 0
-603 -413 -605 0
-603 -429 -606 0
-603 -445 -607 0
-603 -461 -608 0
-603 -477 -609 0
-603 -493 -610 0
-603 -509 -611 0
-612 -399 -613 0
-612 -415 -614 0
-612 -431 -615 0
-612 -447 -616 0
-612 -463 -617 0
-612 -479 -618 0
-612 -495 -619 0
-612 -511 -620 0
-621 -401 -622 0
-621 -417 -623 0
-621 -433 -624 0
-621 -449 -625 0
-621 -465 -626 0
-621 -481 -627 0
-621 -497 -628 0
-621 -513 -629 0
-630 -403 -631 0
-630 -419 -632 0
-630 -435 -633 0
-630 -451 -634 0
-630 -467 -635 0
-630 -483 -636 0
-630 -499 -637 0
-630 -515 -638 0
-639 -405 -640 0
-639 -421 -641 0
-639 -437 -642 0
-639 -453 -643 0
-639 -469 -644 0
-639 -485 -645 0
-639 -501 -646 0
-639 -517 -647 0
-648 -407 -649 0
-648 -423 -650 0
-648 -439 -651 0
-648 -455 -652 0
-648 -471 -653 0
-648 -487 -654 0
-648 -503 -655 0
-648 -519 -656 0
586 585 0
587 585 0
588 585 0
589 585 0
590 585 0
591 585 0
592 585 0
593 585 0
595 594 0
596 594 0
597 594 0
598 594 0
599 594 0
600 594 0
601 594 0
602 594 0
604 603 0
605 603 0
606 603 0
607 603 0
608 603 0
609 603 0
610 603 0
611 603 0
613 612 0
614 612 0
615 612 0
616 612 0
617 612 0
618 612 0
619 612 0
620 612 0
622 621 0
623 621 0
624 621 0
625 621 0
626 621 0
627 621 0
628 621 0
629 621 0
631 630 0
632 630 0
633 630 0
634 630 0
635 630 0
636 630 0
637 630 0
638 630 0
640 639 0
641 639 0
642 639 0
643 639 0
644 639 0
645 639 0
646 639 0
647 639 0
649 648 0
650 648 0
651 648 0
652 648 0
653 648 0
654 648 0
655 648 0
656 648 0
586 393 0
587 409 0
588 425 0
589 441 0
590 457 0
591 473 0
592 489 0
593 505 0
595 395 0
596 411 0
597 427 0
598 443 0
599 459 0
600 475 0
601 491 0
602 507 0
604 397 0
605 413 0
606 429 0
607 445 0
608 461 0
609 477 0
610 493 0
611 509 0
613 399 0
614 415 0
615 431 0
616 447 0
617 463 0
618 479 0
619 495 0
620 511 0
622 401 0
623 417 0
624 433 0
625 449 0
626 465 0
627 481 0
628 497 0
629 513 0
631 403 0
632 419 0
633 435 0
634 451 0
635 467 0
636 483 0
637 499 0
638 515 0
640 405 0
641 421 0
642 437 0
643 453 0
644 469 0
645 485 0
646 501 0
647 517 0
649 407 0
650 423 0
651 439 0
652 455 0
653 471 0
654 487 0
655 503 0
656 519 0
-585 -586 657 0
-594 -587 658 0
-603 -588 659 0
-612 -589 660 0
-621 -590 661 0
-630 -591 662 0
-639 -592 663 0
-648 -593 664 0
-585 -595 665 0
-594 -596 666 0
-603 -597 667 0
-612 -598 668 0
-621 -599 669 0
-630 -600 670 0
-639 -601 671 0
-648 -602 672 0
-585 -604 673 0
-594 -605 674 0
-603 -606 675 0
-612 -607 676 0
-621 -608 677 0
-630 -609 678 0
-639 -610 679 0
-648 -611 680 0
-585 -613 681 0
-594 -614 682 0
-603 -615 683 0
-612 -616 684 0
-621 -617 685 0
-630 -618 686 0
-639 -619 687 0
-648 -620 688 0
-585 -622 689 0
-594 -623 690 0
-603 -624 691 0
-612 -625 692 0
-621 -626 693 0
-630 -627 694 0
-639 -628 695 0
-648 -629 696 0
-585 -631 697 0
-594 -632 698 0
-603 -633 699 0
-612 -634 700 0
-621 -635 701 0
-630 -636 702 0
-639 -637 703 0
-648 -638 704 0
-585 -640 705 0
-594 -641 706 0
-603 -642 707 0
-612 -643 708 0
-621 -644 709 0
-630 -645 710 0
-639 -646 711 0
-648 -647 712 0
-585 -649 713 0
-594 -650 714 0
-603 -651 715 0
-612 -652 716 0
-621 -653 717 0
-630 -654 718 0
-639 -655 719 0
-648 -656 720 0
-657 585 0
-658 594 0
-659 603 0
-660 612 0
-661 621 0
-662 630 0
-663 639 0
-664 648 0
-665 585 0
-666 594 0
-667 603 0
-668 612 0
-669 621 0
-670 630 0
-671 639 0
-672 648 0
-673 585 0
-674 594 0
-675 603 0
-676 612 0
-677 621 0
-678 630 0
-679 639 0
-680 648 0
-681 585 0
-682 594 0
-683 603 0
-684 612 0
-685 621 0
-686 630 0
-687 639 0
-688 648 0
-689 585 0
-690 594 0
-691 603 0
-692 612 0
-693 621 0
-694 630 0
-695 639 0
-696 648 0
-697 585 0
-698 594 0
-699 603 0
-700 612 0
-701 621 0
-702 630 0
-703 639 0
-704 648 0
-705 585 0
-706 594 0
-707 603 0
-708 612 0
-709 621 0
-710 630 0
-711 639 0
-712 648 0
-713 585 0
-714 594 0
-715 603 0
-716 612 0
-717 621 0
-718 630 0
-719 639 0
-720 648 0
-657 586 0
-658 587 0
-659 588 0
-660 589 0
-661 590 0
-662 591 0
-663 592 0
-664 593 0
-665 595 0
-666 596 0
-667 597 0
-668 598 0
-669 599 0
-670 600 0
-671 601 0
-672 602 0
-673 604 0
-674 605 0
-675 606 0
-676 607 0
-677 608 0
-678 609 0
-679 610 0
-680 611 0
-681 613 0
-682 614 0
-683 615 0
-684 616 0
-685 617 0
-686 618 0
-687 619 0
-688 620 0
-689 622 0
-690 623 0
-691 624 0
-692 625 0
-693 626 0
-694 627 0
-695 628 0
-696 629 0
-697 631 0
-698 632 0
-699 633 0
-700 634 0
-701 635 0
-702 636 0
-703 637 0
-704 638 0
-705 640 0
-706 641 0
-707 642 0
-708 643 0
-709 644 0
-710 645 0
-711 646 0
-712 647 0
-713 649 0
-714 650 0
-715 651 0
-716 652 0
-717 653 0
-718 654 0
-719 655 0
-720 656 0
-721 657 -722 0
-723 658 -724 0
-725 659 -726 0
-727 660 -728 0
-729 661 -730 0
-731 662 -732 0
-733 663 -734 0
-735 664 -736 0
-721 665 -737 0
-723 666 -738 0
-725 667 -739 0
-727 668 -740 0
-729 669 -741 0
-731 670 -742 0
-733 671 -743 0
-735 672 -744 0
-721 673 -745 0
-723 674 -746 0
-725 675 -747 0
-727 676 -748 0
-729 677 -749 0
-731 678 -750 0
-733 679 -751 0
-735 680 -752 0
-721 681 -753 0
-723 682 -754 0
-725 683 -755 0
-727 684 -756 0
-729 685 -757 0
-731 686 -758 0
-733 687 -759 0
-735 688 -760 0
-721 689 -761 0
-723 690 -762 0
-725 691 -763 0
-727 692 -764 0
-729 693 -765 0
-731 694 -766 0
-733 695 -767 0
-735 696 -768 0
-721 697 -769 0
-723 698 -770 0
-725 699 -771 0
-727 700 -772 0
-729 701 -773 0
-731 702 -774 0
-733 703 -775 0
-735 704 -776 0
-721 705 -777 0
-723 706 -778 0
-725 707 -779 0
-727 708 -780 0
-729 709 -781 0
-731 710 -782 0
-733 711 -783 0
-735 712 -784 0
-721 713 -785 0
-723 714 -786 0
-725 715 -787 0
-727 716 -788 0
-729 717 -789 0
-731 718 -790 0
-733 719 -791 0
-735 720 -792 0
722 721 0
724 723 0
726 725 0
728 727 0
730 729 0
732 731 0
734 733 0
736 735 0
737 721 0
738 723 0
739 725 0
740 727 0
741 729 0
742 731 0
743 733 0
744 735 0
745 721 0
746 723 0
747 725 0
748 727 0
749 729 0
750 731 0
751 733 0
752 735 0
753 721 0
754 723 0
755 725 0
756 727 0
757 729 0
758 731 0
759 733 0
760 735 0
761 721 0
762 723 0
763 725 0
764 727 0
765 729 0
766 731 0
767 733 0
768 735 0
769 721 0
770 723 0
771 725 0
772 727 0
773 729 0
774 731 0
775 733 0
776 735 0
777 721 0
778 723 0
779 725 0
780 727 0
781 729 0
782 731 0
783 733 0
784 735 0
785 721 0
786 723 0
787 725 0
788 727 0
789 729 0
790 731 0
791 733 0
792 735 0
722 -657 0
724 -658 0
726 -659 0
728 -660 0
730 -661 0
732 -662 0
734 -663 0
736 -664 0
737 -665 0
738 -666 0
739 -667 0
740 -668 0
741 -669 0
742 -670 0
743 -671 0
744 -672 0
745 -673 0
746 -674 0
747 -675 0
748 -676 0
749 -677 0
750 -678 0
751 -679 0
752 -680 0
753 -681 0
754 -682 0
755 -683 0
756 -684 0
757 -685 0
758 -686 0
759 -687 0
760 -688 0
761 -689 0
762 -690 0
763 -691 0
764 -692 0
765 -693 0
766 -694 0
767 -695 0
768 -696 0
769 -697 0
770 -698 0
771 -699 0
772 -700 0
773 -701 0
774 -702 0
775 -703 0
776 -704 0
777 -705 0
778 -706 0
779 -707 0
780 -708 0
781 -709 0
782 -710 0
783 -711 0
784 -712 0
785 -713 0
786 -714 0
787 -715 0
788 -716 0
789 -717 0
790 -718 0
791 -719 0
792 -720 0
-793 -393 -794 0
-793 -409 -795 0
-793 -425 -796 0
-793 -441 -797 0
-793 -457 -798 0
-793 -473 -799 0
-793 -489 -800 0
-793 -505 -801 0
-802 -395 -803 0
-802 -411 -804 0
-802 -427 -805 0
-802 -443 -806 0
-802 -459 -807 0
-802 -475 -808 0
-802 -491 -809 0
-802 -507 -810 0
-811 -397 -812 0
-811 -413 -813 0
-811 -429 -814 0
-811 -445 -815 0
-811 -461 -816 0
-811 -477 -817 0
-811 -493 -818 0
-811 -509 -819 0
-820 -399 -821 0
-820 -415 -822 0
-820 -431 -823 0
-820 -447 -824 0
-820 -463 -825 0
-820 -479 -826 0
-820 -495 -827 0
-820 -511 -828 0
-829 -401 -830 0
-829 -417 -831 0
-829 -433 -832 0
-829 -449 -833 0
-829 -465 -834 0
-829 -481 -835 0
-829 -497 -836 0
-829 -513 -837 0
-838 -403 -839 0
-838 -419 -840 0
-838 -435 -841 0
-838 -451 -842 0
-838 -467 -843 0
-838 -483 -844 0
-838 -499 -845 0
-838 -515 -846 0
-847 -405 -848 0
-847 -421 -849 0
-847 -437 -850 0
-847 -453 -851 0
-847 -469 -852 0
-847 -485 -853 0
-847 -501 -854 0
-847 -517 -855 0
-856 -407 -857 0
-856 -423 -858 0
-856 -439 -859 0
-856 -455 -860 0
-856 -471 -861 0
-856 -487 -862 0
-856 -503 -863 0
-856 -519 -864 0
794 793 0
795 793 0
796 793 0
797 793 0
798 793 0
799 793 0
800 793 0
801 793 0
803 802 0
804 802 0
805 802 0
806 802 0
807 802 0
808 802 0
809 802 0
810 802 0
812 811 0
813 811 0
814 811 0
815 811 0
816 811 0
817 811 0
818 811 0
819 811 0
821 820 0
822 820 0
823 820 0
824 820 0
825 820 0
826 820 0
827 820 0
828 820 0
830 829 0
831 829 0
832 829 0
833 829 0
834 829 0
835 829 0
836 829 0
837 829 0
839 838 0
840 838 0
841 838 0
842 838 0
843 838 0
844 838 0
845 838 0
846 838 0
848 847 0
849 847 0
850 847 0
851 847 0
852 847 0
853 847 0
854 847 0
855 847 0
857 856 0
858 856 0
859 856 0
860 856 0
861 856 0
862 856 0
863 856 0
864 856 0
794 393 0
795 409 0
796 425 0
797 441 0
798 457 0
799 473 0
800 489 0
801 505 0
803 395 0
804 411 0
805 427 0
806 443 0
807 459 0
808 475 0
809 491 0
810 507 0
812 397 0
813 413 0
814 429 0
815 445 0
816 461 0
817 477 0
818 493 0
819 509 0
821 399 0
822 415 0
823 431 0
824 447 0
825 463 0
826 479 0
827 495 0
828 511 0
830 401 0
831 417 0
832 433 0
833 449 0
834 465 0
835 481 0
836 497 0
837 513 0
839 403 0
840 419 0
841 435 0
842 451 0
843 467 0
844 483 0
845 499 0
846 515 0
848 405 0
849 421 0
850 437 0
851 453 0
852 469 0
853 485 0
854 501 0
855 517 0
857 407 0
858 423 0
859 439 0
860 455 0
861 471 0
862 487 0
863 503 0
864 519 0
-793 -794 865 0
-802 -795 866 0
-811 -796 867 0
-820 -797 868 0
-829 -798 869 0
-838 -799 870 0
-847 -800 871 0
-856 -801 872 0
-793 -803 873 0
-802 -804 874 0
-811 -805 875 0
-820 -806 876 0
-829 -807 877 0
-838 -808 878 0
-847 -809 879 0
-856 -810 880 0
-793 -812 881 0
-802 -813 882 0
-811 -814 883 0
-820 -815 884 0
-829 -816 885 0
-838 -817 886 0
-847 -818 887 0
-856 -819 888 0
-793 -821 889 0
-802 -822 890 0
-811 -823 891 0
-820 -824 892 0
-829 -825 893 0
-838 -826 894 0
-847 -827 895 0
-856 -828 896 0
-793 -830 897 0
-802 -831 898 0
-811 -832 899 0
-820 -833 900 0
-829 -834 901 0
-838 -835 902 0
-847 -836 903 0
-856 -837 904 0
-793 -839 905 0
-802 -840 906 0
-811 -841 907 0
-820 -842 908 0
-829 -843 909 0
-838 -844 910 0
-847 -845 911 0
-856 -846 912 0
-793 -848 913 0
-802 -849 914 0
-811 -850 915 0
-820 -851 916 0
-829 -852 917 0
-838 -853 918 0
-847 -854 919 0
-856 -855 920 0
-793 -857 921 0
-802 -858 922 0
-811 -859 923 0
-820 -860 924 0
-829 -861 925 0
-838 -862 926 0
-847 -863 927 0
-856 -864 928 0
-865 793 0
-866 802 0
-867 811 0
-868 820 0
-869 829 0
-870 838 0
-871 847 0
-872 856 0
-873 793 0
-874 802 0
-875 811 0
-876 820 0
-877 829 0
-878 838 0
-879 847 0
-880 856 0
-881 793 0
-882 802 0
-883 811 0
-884 820 0
-885 829 0
-886 838 0
-887 847 0
-888 856 0
-889 793 0
-890 802 0
-891 811 0
-892 820 0
-893 829 0
-894 838 0
-895 847 0
-896 856 0
-897 793 0
-898 802 0
-899 811 0
-900 820 0
-901 829 0
-902 838 0
-903 847 0
-904 856 0
-905 793 0
-906 802 0
-907 811 0
-908 820 0
-909 829 0
-910 838 0
-911 847 0
-912 856 0
-913 793 0
-914 802 0
-915 811 0
-916 820 0
-917 829 0
-918 838 0
-919 847 0
-920 856 0
-921 793 0
-922 802 0
-923 811 0
-924 820 0
-925 829 0
-926 838 0
-927 847 0
-928 856 0
-865 794 0
-866 795 0
-867 796 0
-868 797 0
-869 798 0
-870 799 0
-871 800 0
-872 801 0
-873 803 0
-874 804 0
-875 805 0
-876 806 0
-877 807 0
-878 808 0
-879 809 0
-880 810 0
-881 812 0
-882 813 0
-883 814 0
-884 815 0
-885 816 0
-886 817 0
-887 818 0
-888 819 0
-889 821 0
-890 822 0
-891 823 0
-892 824 0
-893 825 0
-894 826 0
-895 827 0
-896 828 0
-897 830 0
-898 831 0
-899 832 0
-900 833 0
-901 834 0
-902 835 0
-903 836 0
-904 837 0
-905 839 0
-906 840 0
-907 841 0
-908 842 0
-909 843 0
-910 844 0
-911 845 0
-912 846 0
-913 848 0
-914 849 0
-915 850 0
-916 851 0
-917 852 0
-918 853 0
-919 854 0
-920 855 0
-921 857 0
-922 858 0
-923 859 0
-924 860 0
-925 861 0
-926 862 0
-927 863 0
-928 864 0
-929 865 -930 0
-931 866 -932 0
-933 867 -934 0
-935 868 -936 0
-937 869 -938 0
-939 870 -940 0
-941 871 -942 0
-943 872 -944 0
-929 873 -945 0
-931 874 -946 0
-933 875 -947 0
-935 876 -948 0
-937 877 -949 0
-939 878 -950 0
-941 879 -951 0
-943 880 -952 0
-929 881 -953 0
-931 882 -954 0
-933 883 -955 0
-935 884 -956 0
-937 885 -957 0
-939 886 -958 0
-941 887 -959 0
-943 888 -960 0
-929 889 -961 0
-931 890 -962 0
-933 891 -963 0
-935 892 -964 0
-937 893 -965 0
-939 894 -966 0
-941 895 -967 0
-943 896 -968 0
-929 897 -969 0
-931 898 -970 0
-933 899 -971 0
-935 900 -972 0
-937 901 -973 0
-939 902 -974 0
-941 903 -975 0
-943 904 -976 0
-929 905 -977 0
-931 906 -978 0
-933 907 -979 0
-935 908 -980 0
-937 909 -981 0
-939 910 -982 0
-941 911 -983 0
-943 912 -984 0
-929 913 -985 0
-931 914 -986 0
-933 915 -987 0
-935 916 -988 0
-937 917 -989 0
-939 918 -990 0
-941 919 -991 0
-943 920 -992 0
-929 921 -993 0
-931 922 -994 0
-933 923 -995 0
-935 924 -996 0
-937 925 -997 0
-939 926 -998 0
-941 927 -999 0
-943 928 -1000 0
930 929 0
932 931 0
934 933 0
936 935 0
938 937 0
940 939 0
942 941 0
944 943 0
945 929 0
946 931 0
947 933 0
948 935 0
949 937 0
950 939 0
951 941 0
952 943 0
953 929 0
954 931 0
955 933 0
956 935 0
957 937 0
958 939 0
959 941 0
960 943 0
961 929 0
962 931 0
963 933 0
964 935 0
965 937 0
966 939 0
967 941 0
968 943 0
969 929 0
970 931 0
971 933 0
972 935 0
973 937 0
974 939 0
975 941 0
976 943 0
977 929 0
978 931 0
979 933 0
980 935 0
981 937 0
982 939 0
983 941 0
984 943 0
985 929 0
986 931 0
987 933 0
988 935 0
989 937 0
990 939 0
991 941 0
992 943 0
993 929 0
994 931 0
995 933 0
996 935 0
997 937 0
998 939 0
999 941 0
1000 943 0
930 -865 0
932 -866 0
934 -867 0
936 -868 0
938 -869 0
940 -870 0
942 -871 0
944 -872 0
945 -873 0
946 -874 0
947 -875 0
948 -876 0
949 -877 0
950 -878 0
951 -879 0
952 -880 0
953 -881 0
954 -882 0
955 -883 0
956 -884 0
957 -885 0
958 -886 0
959 -887 0
960 -888 0
961 -889 0
962 -890 0
963 -891 0
964 -892 0
965 -893 0
966 -894 0
967 -895 0
968 -896 0
969 -897 0
970 -898 0
971 -899 0
972 -900 0
973 -901 0
974 -902 0
975 -903 0
976 -904 0
977 -905 0
978 -906 0
979 -907 0
980 -908 0
981 -909 0
982 -910 0
983 -911 0
984 -912 0
985 -913 0
986 -914 0
987 -915 0
988 -916 0
989 -917 0
990 -918 0
991 -919 0
992 -920 0
993 -921 0
994 -922 0
995 -923 0
996 -924 0
997 -925 0
998 -926 0
999 -927 0
1000 -928 0
-131 -394 -521 -722 -930 1001 0
-134 -396 -522 -724 -932 1002 0
-137 -398 -523 -726 -934 1003 0
-140 -400 -524 -728 -936 1004 0
-143 -402 -525 -730 -938 1005 0
-146 -404 -526 -732 -940 1006 0
-149 -406 -527 -734 -942 1007 0
-152 -408 -528 -736 -944 1008 0
-154 -410 -529 -737 -945 1009 0
-156 -412 -530 -738 -946 1010 0
-158 -414 -531 -739 -947 1011 0
-160 -416 -532 -740 -948 1012 0
-162 -418 -533 -741 -949 1013 0
-164 -420 -534 -742 -950 1014 0
-166 -422 -535 -743 -951 1015 0
-168 -424 -536 -744 -952 1016 0
-170 -426 -537 -745 -953 1017 0
-172 -428 -538 -746 -954 1018 0
-174 -430 -539 -747 -955 1019 0
-176 -432 -540 -748 -956 1020 0
-178 -434 -541 -749 -957 1021 0
-180 -436 -542 -750 -958 1022 0
-182 -438 -543 -751 -959 1023 0
-184 -440 -544 -752 -960 1024 0
-186 -442 -545 -753 -961 1025 0
-188 -444 -546 -754 -962 1026 0
-190 -446 -547 -755 -963 1027 0
-192 -448 -548 -756 -964 1028 0
-194 -450 -549 -757 -965 1029 0
-196 -452 -550 -758 -966 1030 0
-198 -454 -551 -759 -967 1031 0
-200 -456 -552 -760 -968 1032 0
-202 -458 -553 -761 -969 1033 0
-204 -460 -554 -762 -970 1034 0
-206 -462 -555 -763 -971 1035 0
-208 -464 -556 -764 -972 1036 0
-210 -466 -557 -765 -973 1037 0
-212 -468 -558 -766 -974 1038 0
-214 -470 -559 -767 -975 1039 0
-216 -472 -560 -768 -976 1040 0
-218 -474 -561 -769 -977 1041 0
-220 -476 -562 -770 -978 1042 0
-222 -478 -563 -771 -979 1043 0
-224 -480 -564 -772 -980 1044 0
-226 -482 -565 -773 -981 1045 0
-228 -484 -566 -774 -982 1046 0
-230 -486 -567 -775 -983 1047 0
-232 -488 -568 -776 -984 1048 0
-234 -490 -569 -777 -985 1049 0
-236 -492 -570 -778 -986 1050 0
-238 -494 -571 -779 -987 1051 0
-240 -496 -572 -780 -988 1052 0
-242 -498 -573 -781 -989 1053 0
-244 -500 -574 -782 -990 1054 0
-246 -502 -575 -783 -991 1055 0
-248 -504 -576 -784 -992 1056 0
-250 -506 -577 -785 -993 1057 0
-252 -508 -578 -786 -994 1058 0
-254 -510 -579 -787 -995 1059 0
-256 -512 -580 -788 -996 1060 0
-258 -514 -581 -789 -997 1061 0
-260 -516 -582 -790 -998 1062 0
-262 -518 -583 -791 -999 1063 0
-264 -520 -584 -792 -1000 1064 0
-1001 131 0
-1002 134 0
-1003 137 0
-1004 140 0
-1005 143 0
-1006 146 0
-1007 149 0
-1008 152 0
-1009 154 0
-1010 156 0
-1011 158 0
-1012 160 0
-1013 162 0
-1014 164 0
-1015 166 0
-1016 168 0
-1017 170 0
-1018 172 0
-1019 174 0
-1020 176 0
-1021 178 0
-1022 180 0
-1023 182 0
-1024 184 0
-1025 186 0
-1026 188 0
-1027 190 0
-1028 192 0
-1029 194 0
-1030 196 0
-1031 198 0
-1032 200 0
-1033 202 0
-1034 204 0
-1035 206 0
-1036 208 0
-1037 210 0
-1038 212 0
-1039 214 0
-1040 216 0
-1041 218 0
-1042 220 0
-1043 222 0
-1044 224 0
-1045 226 0
-1046 228 0
-1047 230 0
-1048 232 0
-1049 234 0
-1050 236 0
-1051 238 0
-1052 240 0
-1053 242 0
-1054 244 0
-1055 246 0
-1056 248 0
-1057 250 0
-1058 252 0
-1059 254 0
-1060 256 0
-1061 258 0
-1062 260 0
-1063 262 0
-1064 264 0
-1001 394 0
-1002 396 0
-1003 398 0
-1004 400 0
-1005 402 0
-1006 404 0
-1007 406 0
-1008 408 0
-1009 410 0
-1010 412 0
-1011 414 0
-1012 416 0
-1013 418 0
-1014 420 0
-1015 422 0
-1016 424 0
-1017 426 0
-1018 428 0
-1019 430 0
-1020 432 0
-1021 434 0
-1022 436 0
-1023 438 0
-1024 440 0
-1025 442 0
-1026 444 0
-1027 446 0
-1028 448 0
-1029 450 0
-1030 452 0
-1031 454 0
-1032 456 0
-1033 458 0
-1034 460 0
-1035 462 0
-1036 464 0
-1037 466 0
-1038 468 0
-1039 470 0
-1040 472 0
-1041 474 0
-1042 476 0
-1043 478 0
-1044 480 0
-1045 482 0
-1046 484 0
-1047 486 0
-1048 488 0
-1049 490 0
-1050 492 0
-1051 494 0
-1052 496 0
-1053 498 0
-1054 500 0
-1055 502 0
-1056 504 0
-1057 506 0
-1058 508 0
-1059 510 0
-1060 512 0
-1061 514 0
-1062 516 0
-1063 518 0
-1064 520 0
-1001 521 0
-1002 522 0
-1003 523 0
-1004 524 0
-1005 525 0
-1006 526 0
-1007 527 0
-1008 528 0
-1009 529 0
-1010 530 0
-1011 531 0
-1012 532 0
-1013 533 0
-1014 534 0
-1015 535 0
-1016 536 0
-1017 537 0
-1018 538 0
-1019 539 0
-1020 540 0
-1021 541 0
-1022 542 0
-1023 543 0
-1024 544 0
-1025 545 0
-1026 546 0
-1027 547 0
-1028 548 0
-1029 549 0
-1030 550 0
-1031 551 0
-1032 552 0
-1033 553 0
-1034 554 0
-1035 555 0
-1036 556 0
-1037 557 0
-1038 558 0
-1039 559 0
-1040 560 0
-1041 561 0
-1042 562 0
-1043 563 0
-1044 564 0
-1045 565 0
-1046 566 0
-1047 567 0
-1048 568 0
-1049 569 0
-1050 570 0
-1051 571 0
-1052 572 0
-1053 573 0
-1054 574 0
-1055 575 0
-1056 576 0
-1057 577 0
-1058 578 0
-1059 579 0
-1060 580 0
-1061 581 0
-1062 582 0
-1063 583 0
-1064 584 0
-1001 722 0
-1002 724 0
-1003 726 0
-1004 728 0
-1005 730 0
-1006 732 0
-1007 734 0
-1008 736 0
-1009 737 0
-1010 738 0
-1011 739 0
-1012 740 0
-1013 741 0
-1014 742 0
-1015 743 0
-1016 744 0
-1017 745 0
-1018 746 0
-1019 747 0
-1020 748 0
-1021 749 0
-1022 750 0
-1023 751 0
-1024 752 0
-1025 753 0
-1026 754 0
-1027 755 0
-1028 756 0
-1029 757 0
-1030 758 0
-1031 759 0
-1032 760 0
-1033 761 0
-1034 762 0
-1035 763 0
-1036 764 0
-1037 765 0
-1038 766 0
-1039 767 0
-1040 768 0
-1041 769 0
-1042 770 0
-1043 771 0
-1044 772 0
-1045 773 0
-1046 774 0
-1047 775 0
-1048 776 0
-1049 777 0
-1050 778 0
-1051 779 0
-1052 780 0
-1053 781 0
-1054 782 0
-1055 783 0
-1056 784 0
-1057 785 0
-1058 786 0
-1059 787 0
-1060 788 0
-1061 789 0
-1062 790 0
-1063 791 0
-1064 792 0
-1001 930 0
-1002 932 0
-1003 934 0
-1004 936 0
-1005 938 0
-1006 940 0
-1007 942 0
-1008 944 0
-1009 945 0
-1010 946 0
-1011 947 0
-1012 948 0
-1013 949 0
-1014 950 0
-1015 951 0
-1016 952 0
-1017 953 0
-1018 954 0
-1019 955 0
-1020 956 0
-1021 957 0
-1022 958 0
-1023 959 0
-1024 960 0
-1025 961 0
-1026 962 0
-1027 963 0
-1028 964 0
-1029 965 0
-1030 966 0
-1031 967 0
-1032 968 0
-1033 969 0
-1034 970 0
-1035 971 0
-1036 972 0
-1037 973 0
-1038 974 0
-1039 975 0
-1040 976 0
-1041 977 0
-1042 978 0
-1043 979 0
-1044 980 0
-1045 981 0
-1046 982 0
-1047 983 0
-1048 984 0
-1049 985 0
-1050 986 0
-1051 987 0
-1052 988 0
-1053 989 0
-1054 990 0
-1055 991 0
-1056 992 0
-1057 993 0
-1058 994 0
-1059 995 0
-1060 996 0
-1061 997 0
-1062 998 0
-1063 999 0
-1064 1000 0
1001 0
1002 0
1003 0
1004 0
1005 0
1006 0
1007 0
1008 0
1009 0
1010 0
1011 0
1012 0
1013 0
1014 0
1015 0
1016 0
1017 0
1018 0
1019 0
1020 0
1021 0
1022 0
1023 0
1024 0
1025 0
1026 0
1027 0
1028 0
1029 0
1030 0
1031 0
1032 0
1033 0
1034 0
1035 0
1036 0
1037 0
1038 0
1039 0
1040 0
1041 0
1042 0
1043 0
1044 0
1045 0
1046 0
1047 0
1048 0
1049 0
1050 0
1051 0
1052 0
1053 0
1054 0
1055 0
1056 0
1057 0
1058 0
1059 0
1060 0
1061 0
1062 0
1063 0
1064 0
-793 -393 1065 0
-793 -409 1066 0
-793 -425 1067 0
-793 -441 1068 0
-793 -457 1069 0
-793 -473 1070 0
-793 -489 1071 0
-793 -505 1072 0
-802 -395 1073 0
-802 -411 1074 0
-802 -427 1075 0
-802 -443 1076 0
-802 -459 1077 0
-802 -475 1078 0
-802 -491 1079 0
-802 -507 1080 0
-811 -397 1081 0
-811 -413 1082 0
-811 -429 1083 0
-811 -445 1084 0
-811 -461 1085 0
-811 -477 1086 0
-811 -493 1087 0
-811 -509 1088 0
-820 -399 1089 0
-820 -415 1090 0
-820 -431 1091 0
-820 -447 1092 0
-820 -463 1093 0
-820 -479 1094 0
-820 -495 1095 0
-820 -511 1096 0
-829 -401 1097 0
-829 -417 1098 0
-829 -433 1099 0
-829 -449 1100 0
-829 -465 1101 0
-829 -481 1102 0
-829 -497 1103 0
-829 -513 1104 0
-838 -403 1105 0
-838 -419 1106 0
-838 -435 1107 0
-838 -451 1108 0
-838 -467 1109 0
-838 -483 1110 0
-838 -499 1111 0
-838 -515 1112 0
-847 -405 1113 0
-847 -421 1114 0
-847 -437 1115 0
-847 -453 1116 0
-847 -469 1117 0
-847 -485 1118 0
-847 -501 1119 0
-847 -517 1120 0
-856 -407 1121 0
-856 -423 1122 0
-856 -439 1123 0
-856 -455 1124 0
-856 -471 1125 0
-856 -487 1126 0
-856 -503 1127 0
-856 -519 1128 0
-1065 793 0
-1066 793 0
-1067 793 0
-1068 793 0
-1069 793 0
-1070 793 0
-1071 793 0
-1072 793 0
-1073 802 0
-1074 802 0
-1075 802 0
-1076 802 0
-1077 802 0
-1078 802 0
-1079 802 0
-1080 802 0
-1081 811 0
-1082 811 0
-1083 811 0
-1084 811 0
-1085 811 0
-1086 811 0
-1087 811 0
-1088 811 0
-1089 820 0
-1090 820 0
-1091 820 0
-1092 820 0
-1093 820 0
-1094 820 0
-1095 820 0
-1096 820 0
-1097 829 0
-1098 829 0
-1099 829 0
-1100 829 0
-1101 829 0
-1102 829 0
-1103 829 0
-1104 829 0
-1105 838 0
-1106 838 0
-1107 838 0
-1108 838 0
-1109 838 0
-1110 838 0
-1111 838 0
-1112 838 0
-1113 847 0
-1114 847 0
-1115 847 0
-1116 847 0
-1117 847 0
-1118 847 0
-1119 847 0
-1120 847 0
-1121 856 0
-1122 856 0
-1123 856 0
-1124 856 0
-1125 856 0
-1126 856 0
-1127 856 0
-1128 856 0
-1065 393 0
-1066 409 0
-1067 425 0
-1068 441 0
-1069 457 0
-1070 473 0
-1071 489 0
-1072 505 0
-1073 395 0
-1074 411 0
-1075 427 0
-1076 443 0
-1077 459 0
-1078 475 0
-1079 491 0
-1080 507 0
-1081 397 0
-1082 413 0
-1083 429 0
-1084 445 0
-1085 461 0
-1086 477 0
-1087 493 0
-1088 509 0
-1089 399 0
-1090 415 0
-1091 431 0
-1092 447 0
-1093 463 0
-1094 479 0
-1095 495 0
-1096 511 0
-1097 401 0
-1098 417 0
-1099 433 0
-1100 449 0
-1101 465 0
-1102 481 0
-1103 497 0
-1104 513 0
-1105 403 0
-1106 419 0
-1107 435 0
-1108 451 0
-1109 467 0
-1110 483 0
-1111 499 0
-1112 515 0
-1113 405 0
-1114 421 0
-1115 437 0
-1116 453 0
-1117 469 0
-1118 485 0
-1119 501 0
-1120 517 0
-1121 407 0
-1122 423 0
-1123 439 0
-1124 455 0
-1125 471 0
-1126 487 0
-1127 503 0
-1128 519 0
929 -793 1065 -1 0
931 -802 1066 -9 0
933 -811 1067 -17 0
935 -820 1068 -25 0
937 -829 1069 -33 0
939 -838 1070 -41 0
941 -847 1071 -49 0
943 -856 1072 -57 0
929 -793 1073 -2 0
931 -802 1074 -10 0
933 -811 1075 -18 0
935 -820 1076 -26 0
937 -829 1077 -34 0
939 -838 1078 -42 0
941 -847 1079 -50 0
943 -856 1080 -58 0
929 -793 1081 -3 0
931 -802 1082 -11 0
933 -811 1083 -19 0
935 -820 1084 -27 0
937 -829 1085 -35 0
939 -838 1086 -43 0
941 -847 1087 -51 0
943 -856 1088 -59 0
929 -793 1089 -4 0
931 -802 1090 -12 0
933 -811 1091 -20 0
935 -820 1092 -28 0
937 -829 1093 -36 0
939 -838 1094 -44 0
941 -847 1095 -52 0
943 -856 1096 -60 0
929 -793 1097 -5 0
931 -802 1098 -13 0
933 -811 1099 -21 0
935 -820 1100 -29 0
937 -829 1101 -37 0
939 -838 1102 -45 0
941 -847 1103 -53 0
943 -856 1104 -61 0
929 -793 1105 -6 0
931 -802 1106 -14 0
933 -811 1107 -22 0
935 -820 1108 -30 0
937 -829 1109 -38 0
939 -838 1110 -46 0
941 -847 1111 -54 0
943 -856 1112 -62 0
929 -793 1113 -7 0
931 -802 1114 -15 0
933 -811 1115 -23 0
935 -820 1116 -31 0
937 -829 1117 -39 0
939 -838 1118 -47 0
941 -847 1119 -55 0
943 -856 1120 -63 0
929 -793 1121 -8 0
931 -802 1122 -16 0
933 -811 1123 -24 0
935 -820 1124 -32 0
937 -829 1125 -40 0
939 -838 1126 -48 0
941 -847 1127 -56 0
943 -856 1128 -64 0
1 -929 0
9 -931 0
17 -933 0
25 -935 0
33 -937 0
41 -939 0
49 -941 0
57 -943 0
2 -929 0
10 -931 0
18 -933 0
26 -935 0
34 -937 0
42 -939 0
50 -941 0
58 -943 0
3 -929 0
11 -931 0
19 -933 0
27 -935 0
35 -937 0
43 -939 0
51 -941 0
59 -943 0
4 -929 0
12 -931 0
20 -933 0
28 -935 0
36 -937 0
44 -939 0
52 -941 0
60 -943 0
5 -929 0
13 -931 0
21 -933 0
29 -935 0
37 -937 0
45 -939 0
53 -941 0
61 -943 0
6 -929 0
14 -931 0
22 -933 0
30 -935 0
38 -937 0
46 -939 0
54 -941 0
62 -943 0
7 -929 0
15 -931 0
23 -933 0
31 -935 0
39 -937 0
47 -939 0
55 -941 0
63 -943 0
8 -929 0
16 -931 0
24 -933 0
32 -935 0
40 -937 0
48 -939 0
56 -941 0
64 -943 0
1 793 0
9 802 0
17 811 0
25 820 0
33 829 0
41 838 0
49 847 0
57 856 0
2 793 0
10 802 0
18 811 0
26 820 0
34 829 0
42 838 0
50 847 0
58 856 0
3 793 0
11 802 0
19 811 0
27 820 0
35 829 0
43 838 0
51 847 0
59 856 0
4 793 0
12 802 0
20 811 0
28 820 0
36 829 0
44 838 0
52 847 0
60 856 0
5 793 0
13 802 0
21 811 0
29 820 0
37 829 0
45 838 0
53 847 0
61 856 0
6 793 0
14 802 0
22 811 0
30 820 0
38 829 0
46 838 0
54 847 0
62 856 0
7 793 0
15 802 0
23 811 0
31 820 0
39 829 0
47 838 0
55 847 0
63 856 0
8 793 0
16 802 0
24 811 0
32 820 0
40 829 0
48 838 0
56 847 0
64 856 0
1 -1065 0
9 -1066 0
17 -1067 0
25 -1068 0
33 -1069 0
41 -1070 0
49 -1071 0
57 -1072 0
2 -1073 0
10 -1074 0
18 -1075 0
26 -1076 0
34 -1077 0
42 -1078 0
50 -1079 0
58 -1080 0
3 -1081 0
11 -1082 0
19 -1083 0
27 -1084 0
35 -1085 0
43 -1086 0
51 -1087 0
59 -1088 0
4 -1089 0
12 -1090 0
20 -1091 0
28 -1092 0
36 -1093 0
44 -1094 0
52 -1095 0
60 -1096 0
5 -1097 0
13 -1098 0
21 -1099 0
29 -1100 0
37 -1101 0
45 -1102 0
53 -1103 0
61 -1104 0
6 -1105 0
14 -1106 0
22 -1107 0
30 -1108 0
38 -1109 0
46 -1110 0
54 -1111 0
62 -1112 0
7 -1113 0
15 -1114 0
23 -1115 0
31 -1116 0
39 -1117 0
47 -1118 0
55 -1119 0
63 -1120 0
8 -1121 0
16 -1122 0
24 -1123 0
32 -1124 0
40 -1125 0
48 -1126 0
56 -1127 0
64 -1128 0
-585 -393 1129 0
-585 -409 1130 0
-585 -425 1131 0
-585 -441 1132 0
-585 -457 1133 0
-585 -473 1134 0
-585 -489 1135 0
-585 -505 1136 0
-594 -395 1137 0
-594 -411 1138 0
-594 -427 1139 0
-594 -443 1140 0
-594 -459 1141 0
-594 -475 1142 0
-594 -491 1143 0
-594 -507 1144 0
-603 -397 1145 0
-603 -413 1146 0
-603 -429 1147 0
-603 -445 1148 0
-603 -461 1149 0
-603 -477 1150 0
-603 -493 1151 0
-603 -509 1152 0
-612 -399 1153 0
-612 -415 1154 0
-612 -431 1155 0
-612 -447 1156 0
-612 -463 1157 0
-612 -479 1158 0
-612 -495 1159 0
-612 -511 1160 0
-621 -401 1161 0
-621 -417 1162 0
-621 -433 1163 0
-621 -449 1164 0
-621 -465 1165 0
-621 -481 1166 0
-621 -497 1167 0
-621 -513 1168 0
-630 -403 1169 0
-630 -419 1170 0
-630 -435 1171 0
-630 -451 1172 0
-630 -467 1173 0
-630 -483 1174 0
-630 -499 1175 0
-630 -515 1176 0
-639 -405 1177 0
-639 -421 1178 0
-639 -437 1179 0
-639 -453 1180 0
-639 -469 1181 0
-639 -485 1182 0
-639 -501 1183 0
-639 -517 1184 0
-648 -407 1185 0
-648 -423 1186 0
-648 -439 1187 0
-648 -455 1188 0
-648 -471 1189 0
-648 -487 1190 0
-648 -503 1191 0
-648 -519 1192 0
-1129 585 0
-1130 585 0
-1131 585 0
-1132 585 0
-1133 585 0
-1134 585 0
-1135 585 0
-1136 585 0
-1137 594 0
-1138 594 0
-1139 594 0
-1140 594 0
-1141 594 0
-1142 594 0
-1143 594 0
-1144 594 0
-1145 603 0
-1146 603 0
-1147 603 0
-1148 603 0
-1149 603 0
-1150 603 0
-1151 603 0
-1152 603 0
-1153 612 0
-1154 612 0
-1155 612 0
-1156 612 0
-1157 612 0
-1158 612 0
-1159 612 0
-1160 612 0
-1161 621 0
-1162 621 0
-1163 621 0
-1164 621 0
-1165 621 0
-1166 621 0
-1167 621 0
-1168 621 0
-1169 630 0
-1170 630 0
-1171 630 0
-1172 630 0
-1173 630 0
-1174 630 0
-1175 630 0
-1176 630 0
-1177 639 0
-1178 639 0
-1179 639 0
-1180 639 0
-1181 639 0
-1182 639 0
-1183 639 0
-1184 639 0
-1185 648 0
-1186 648 0
-1187 648 0
-1188 648 0
-1189 648 0
-1190 648 0
-1191 648 0
-1192 648 0
-1129 393 0
-1130 409 0
-1131 425 0
-1132 441 0
-1133 457 0
-1134 473 0
-1135 489 0
-1136 505 0
-1137 395 0
-1138 411 0
-1139 427 0
-1140 443 0
-1141 459 0
-1142 475 0
-1143 491 0
-1144 507 0
-1145 397 0
-1146 413 0
-1147 429 0
-1148 445 0
-1149 461 0
-1150 477 0
-1151 493 0
-1152 509 0
-1153 399 0
-1154 415 0
-1155 431 0
-1156 447 0
-1157 463 0
-1158 479 0
-1159 495 0
-1160 511 0
-1161 401 0
-1162 417 0
-1163 433 0
-1164 449 0
-1165 465 0
-1166 481 0
-1167 497 0
-1168 513 0
-1169 403 0
-1170 419 0
-1171 435 0
-1172 451 0
-1173 467 0
-1174 483 0
-1175 499 0
-1176 515 0
-1177 405 0
-1178 421 0
-1179 437 0
-1180 453 0
-1181 469 0
-1182 485 0
-1183 501 0
-1184 517 0
-1185 407 0
-1186 423 0
-1187 439 0
-1188 455 0
-1189 471 0
-1190 487 0
-1191 503 0
-1192 519 0
721 -585 1129 -65 0
723 -594 1130 -73 0
725 -603 1131 -81 0
727 -612 1132 -89 0
729 -621 1133 -97 0
731 -630 1134 -105 0
733 -639 1135 -113 0
735 -648 1136 -121 0
721 -585 1137 -66 0
723 -594 1138 -74 0
725 -603 1139 -82 0
727 -612 1140 -90 0
729 -621 1141 -98 0
731 -630 1142 -106 0
733 -639 1143 -114 0
735 -648 1144 -122 0
721 -585 1145 -67 0
723 -594 1146 -75 0
725 -603 1147 -83 0
727 -612 1148 -91 0
729 -621 1149 -99 0
731 -630 1150 -107 0
733 -639 1151 -115 0
735 -648 1152 -123 0
721 -585 1153 -68 0
723 -594 1154 -76 0
725 -603 1155 -84 0
727 -612 1156 -92 0
729 -621 1157 -100 0
731 -630 1158 -108 0
733 -639 1159 -116 0
735 -648 1160 -124 0
721 -585 1161 -69 0
723 -594 1162 -77 0
725 -603 1163 -85 0
727 -612 1164 -93 0
729 -621 1165 -101 0
731 -630 1166 -109 0
733 -639 1167 -117 0
735 -648 1168 -125 0
721 -585 1169 -70 0
723 -594 1170 -78 0
725 -603 1171 -86 0
727 -612 1172 -94 0
729 -621 1173 -102 0
731 -630 1174 -110 0
733 -639 1175 -118 0
735 -648 1176 -126 0
721 -585 1177 -71 0
723 -594 1178 -79 0
725 -603 1179 -87 0
727 -612 1180 -95 0
729 -621 1181 -103 0
731 -630 1182 -111 0
733 -639 1183 -119 0
735 -648 1184 -127 0
721 -585 1185 -72 0
723 -594 1186 -80 0
725 -603 1187 -88 0
727 -612 1188 -96 0
729 -621 1189 -104 0
731 -630 1190 -112 0
733 -639 1191 -120 0
735 -648 1192 -128 0
65 -721 0
73 -723 0
81 -725 0
89 -727 0
97 -729 0
105 -731 0
113 -733 0
121 -735 0
66 -721 0
74 -723 0
82 -725 0
90 -727 0
98 -729 0
106 -731 0
114 -733 0
122 -735 0
67 -721 0
75 -723 0
83 -725 0
91 -727 0
99 -729 0
107 -731 0
115 -733 0
123 -735 0
68 -721 0
76 -723 0
84 -725 0
92 -727 0
100 -729 0
108 -731 0
116 -733 0
124 -735 0
69 -721 0
77 -723 0
85 -725 0
93 -727 0
101 -729 0
109 -731 0
117 -733 0
125 -735 0
70 -721 0
78 -723 0
86 -725 0
94 -727 0
102 -729 0
110 -731 0
118 -733 0
126 -735 0
71 -721 0
79 -723 0
87 -725 0
95 -727 0
103 -729 0
111 -731 0
119 -733 0
127 -735 0
72 -721 0
80 -723 0
88 -725 0
96 -727 0
104 -729 0
112 -731 0
120 -733 0
128 -735 0
65 585 0
73 594 0
81 603 0
89 612 0
97 621 0
105 630 0
113 639 0
121 648 0
66 585 0
74 594 0
82 603 0
90 612 0
98 621 0
106 630 0
114 639 0
122 648 0
67 585 0
75 594 0
83 603 0
91 612 0
99 621 0
107 630 0
115 639 0
123 648 0
68 585 0
76 594 0
84 603 0
92 612 0
100 621 0
108 630 0
116 639 0
124 648 0
69 585 0
77 594 0
85 603 0
93 612 0
101 621 0
109 630 0
117 639 0
125 648 0
70 585 0
78 594 0
86 603 0
94 612 0
102 621 0
110 630 0
118 639 0
126 648 0
71 585 0
79 594 0
87 603 0
95 612 0
103 621 0
111 630 0
119 639 0
127 648 0
72 585 0
80 594 0
88 603 0
96 612 0
104 621 0
112 630 0
120 639 0
128 648 0
65 -1129 0
73 -1130 0
81 -1131 0
89 -1132 0
97 -1133 0
105 -1134 0
113 -1135 0
121 -1136 0
66 -1137 0
74 -1138 0
82 -1139 0
90 -1140 0
98 -1141 0
106 -1142 0
114 -1143 0
122 -1144 0
67 -1145 0
75 -1146 0
83 -1147 0
91 -1148 0
99 -1149 0
107 -1150 0
115 -1151 0
123 -1152 0
68 -1153 0
76 -1154 0
84 -1155 0
92 -1156 0
100 -1157 0
108 -1158 0
116 -1159 0
124 -1160 0
69 -1161 0
77 -1162 0
85 -1163 0
93 -1164 0
101 -1165 0
109 -1166 0
117 -1167 0
125 -1168 0
70 -1169 0
78 -1170 0
86 -1171 0
94 -1172 0
102 -1173 0
110 -1174 0
118 -1175 0
126 -1176 0
71 -1177 0
79 -1178 0
87 -1179 0
95 -1180 0
103 -1181 0
111 -1182 0
119 -1183 0
127 -1184 0
72 -1185 0
80 -1186 0
88 -1187 0
96 -1188 0
104 -1189 0
112 -1190 0
120 -1191 0
128 -1192 0
-793 0
-802 0
-648 0
130 0
148 0
133 0
856 0
585 0
-630 0
594 0
-811 0
-820 0
603 0
136 0
-639 0
139 0
838 0
612 0
-829 0
151 0
847 0
142 0
145 0
621 0
-929 1193 0
-1193 1194 0
-931 -1193 0
-931 1194 0
-1194 1195 0
-933 -1194 0
-933 1195 0
-1195 1196 0
-935 -1195 0
-935 1196 0
-1196 1197 0
-937 -1196 0
-937 1197 0
-1197 1198 0
-939 -1197 0
-939 1198 0
-1198 1199 0
-941 -1198 0
-941 1199 0
-943 -1199 0
-721 1200 0
-1200 1201 0
-723 -1200 0
-723 1201 0
-1201 1202 0
-725 -1201 0
-725 1202 0
-1202 1203 0
-727 -1202 0
-727 1203 0
-1203 1204 0
-729 -1203 0
-729 1204 0
-1204 1205 0
-731 -1204 0
-731 1205 0
-1205 1206 0
-733 -1205 0
-733 1206 0
-735 -1206 0
129 0
153 132 0
-153 -132 0
-153 -171 169 0
-153 -187 185 0
-153 -203 201 0
-153 -219 217 0
-153 -235 233 0
-153 -251 249 0
169 135 0
-169 -135 0
-169 -157 153 0
-169 -189 185 0
-169 -205 201 0
-169 -221 217 0
-169 -237 233 0
-169 -253 249 0
185 138 0
-185 -138 0
-185 -159 153 0
-185 -175 169 0
-185 -207 201 0
-185 -223 217 0
-185 -239 233 0
-185 -255 249 0
201 141 0
-201 -141 0
-201 -161 153 0
-201 -177 169 0
-201 -193 185 0
-201 -225 217 0
-201 -241 233 0
-201 -257 249 0
217 144 0
-217 -144 0
-217 -163 153 0
-217 -179 169 0
-217 -195 185 0
-217 -211 201 0
-217 -243 233 0
-217 -259 249 0
233 147 0
-233 -147 0
-233 -165 153 0
-233 -181 169 0
-233 -197 185 0
-233 -213 201 0
-233 -229 217 0
-233 -261 249 0
249 150 0
-249 -150 0
-249 -167 153 0
-249 -183 169 0
-249 -199 185 0
-249 -215 201 0
-249 -231 217 0
-249 -247 233 0
155 0
132 153 0
-132 -153 0
-132 -169 171 0
-132 -185 187 0
-132 -201 203 0
-132 -217 219 0
-132 -233 235 0
-132 -249 251 0
171 157 0
-171 -157 0
-171 -135 132 0
-171 -189 187 0
-171 -205 203 0
-171 -221 219 0
-171 -237 235 0
-171 -253 251 0
187 159 0
-187 -159 0
-187 -138 132 0
-187 -175 171 0
-187 -207 203 0
-187 -223 219 0
-187 -239 235 0
-187 -255 251 0
203 161 0
-203 -161 0
-203 -141 132 0
-203 -177 171 0
-203 -193 187 0
-203 -225 219 0
-203 -241 235 0
-203 -257 251 0
219 163 0
-219 -163 0
-219 -144 132 0
-219 -179 171 0
-219 -195 187 0
-219 -211 203 0
-219 -243 235 0
-219 -259 251 0
235 165 0
-235 -165 0
-235 -147 132 0
-235 -181 171 0
-235 -197 187 0
-235 -213 203 0
-235 -229 219 0
-235 -261 251 0
251 167 0
-251 -167 0
-251 -150 132 0
-251 -183 171 0
-251 -199 187 0
-251 -215 203 0
-251 -231 219 0
-251 -247 235 0
173 0
135 169 0
-135 -169 0
-135 -153 157 0
-135 -185 189 0
-135 -201 205 0
-135 -217 221 0
-135 -233 237 0
-135 -249 253 0
157 171 0
-157 -171 0
-157 -132 135 0
-157 -187 189 0
-157 -203 205 0
-157 -219 221 0
-157 -235 237 0
-157 -251 253 0
189 175 0
-189 -175 0
-189 -138 135 0
-189 -159 157 0
-189 -207 205 0
-189 -223 221 0
-189 -239 237 0
-189 -255 253 0
205 177 0
-205 -177 0
-205 -141 135 0
-205 -161 157 0
-205 -193 189 0
-205 -225 221 0
-205 -241 237 0
-205 -257 253 0
221 179 0
-221 -179 0
-221 -144 135 0
-221 -163 157 0
-221 -195 189 0
-221 -211 205 0
-221 -243 237 0
-221 -259 253 0
237 181 0
-237 -181 0
-237 -147 135 0
-237 -165 157 0
-237 -197 189 0
-237 -213 205 0
-237 -229 221 0
-237 -261 253 0
253 183 0
-253 -183 0
-253 -150 135 0
-253 -167 157 0
-253 -199 189 0
-253 -215 205 0
-253 -231 221 0
-253 -247 237 0
191 0
138 185 0
-138 -185 0
-138 -153 159 0
-138 -169 175 0
-138 -201 207 0
-138 -217 223 0
-138 -233 239 0
-138 -249 255 0
159 187 0
-159 -187 0
-159 -132 138 0
-159 -171 175 0
-159 -203 207 0
-159 -219 223 0
-159 -235 239 0
-159 -251 255 0
175 189 0
-175 -189 0
-175 -135 138 0
-175 -157 159 0
-175 -205 207 0
-175 -221 223 0
-175 -237 239 0
-175 -253 255 0
207 193 0
-207 -193 0
-207 -141 138 0
-207 -161 159 0
-207 -177 175 0
-207 -225 223 0
-207 -241 239 0
-207 -257 255 0
223 195 0
-223 -195 0
-223 -144 138 0
-223 -163 159 0
-223 -179 175 0
-223 -211 207 0
-223 -243 239 0
-223 -259 255 0
239 197 0
-239 -197 0
-239 -147 138 0
-239 -165 159 0
-239 -181 175 0
-239 -213 207 0
-239 -229 223 0
-239 -261 255 0
255 199 0
-255 -199 0
-255 -150 138 0
-255 -167 159 0
-255 -183 175 0
-255 -215 207 0
-255 -231 223 0
-255 -247 239 0
209 0
141 201 0
-141 -201 0
-141 -153 161 0
-141 -169 177 0
-141 -185 193 0
-141 -217 225 0
-141 -233 241 0
-141 -249 257 0
161 203 0
-161 -203 0
-161 -132 141 0
-161 -171 177 0
-161 -187 193 0
-161 -219 225 0
-161 -235 241 0
-161 -251 257 0
177 205 0
-177 -205 0
-177 -135 141 0
-177 -157 161 0
-177 -189 193 0
-177 -221 225 0
-177 -237 241 0
-177 -253 257 0
193 207 0
-193 -207 0
-193 -138 141 0
-193 -159 161 0
-193 -175 177 0
-193 -223 225 0
-193 -239 241 0
-193 -255 257 0
225 211 0
-225 -211 0
-225 -144 141 0
-225 -163 161 0
-225 -179 177 0
-225 -195 193 0
-225 -243 241 0
-225 -259 257 0
241 213 0
-241 -213 0
-241 -147 141 0
-241 -165 161 0
-241 -181 177 0
-241 -197 193 0
-241 -229 225 0
-241 -261 257 0
257 215 0
-257 -215 0
-257 -150 141 0
-257 -167 161 0
-257 -183 177 0
-257 -199 193 0
-257 -231 225 0
-257 -247 241 0
227 0
144 217 0
-144 -217 0
-144 -153 163 0
-144 -169 179 0
-144 -185 195 0
-144 -201 211 0
-144 -233 243 0
-144 -249 259 0
163 219 0
-163 -219 0
-163 -132 144 0
-163 -171 179 0
-163 -187 195 0
-163 -203 211 0
-163 -235 243 0
-163 -251 259 0
179 221 0
-179 -221 0
-179 -135 144 0
-179 -157 163 0
-179 -189 195 0
-179 -205 211 0
-179 -237 243 0
-179 -253 259 0
195 223 0
-195 -223 0
-195 -138 144 0
-195 -159 163 0
-195 -175 179 0
-195 -207 211 0
-195 -239 243 0
-195 -255 259 0
211 225 0
-211 -225 0
-211 -141 144 0
-211 -161 163 0
-211 -177 179 0
-211 -193 195 0
-211 -241 243 0
-211 -257 259 0
243 229 0
-243 -229 0
-243 -147 144 0
-243 -165 163 0
-243 -181 179 0
-243 -197 195 0
-243 -213 211 0
-243 -261 259 0
259 231 0
-259 -231 0
-259 -150 144 0
-259 -167 163 0
-259 -183 179 0
-259 -199 195 0
-259 -215 211 0
-259 -247 243 0
245 0
147 233 0
-147 -233 0
-147 -153 165 0
-147 -169 181 0
-147 -185 197 0
-147 -201 213 0
-147 -217 229 0
-147 -249 261 0
165 235 0
-165 -235 0
-165 -132 147 0
-165 -171 181 0
-165 -187 197 0
-165 -203 213 0
-165 -219 229 0
-165 -251 261 0
181 237 0
-181 -237 0
-181 -135 147 0
-181 -157 165 0
-181 -189 197 0
-181 -205 213 0
-181 -221 229 0
-181 -253 261 0
197 239 0
-197 -239 0
-197 -138 147 0
-197 -159 165 0
-197 -175 181 0
-197 -207 213 0
-197 -223 229 0
-197 -255 261 0
213 241 0
-213 -241 0
-213 -141 147 0
-213 -161 165 0
-213 -177 181 0
-213 -193 197 0
-213 -225 229 0
-213 -257 261 0
229 243 0
-229 -243 0
-229 -144 147 0
-229 -163 165 0
-229 -179 181 0
-229 -195 197 0
-229 -211 213 0
-229 -259 261 0
261 247 0
-261 -247 0
-261 -150 147 0
-261 -167 165 0
-261 -183 181 0
-261 -199 197 0
-261 -215 213 0
-261 -231 229 0
263 0
150 249 0
-150 -249 0
-150 -153 167 0
-150 -169 183 0
-150 -185 199 0
-150 -201 215 0
-150 -217 231 0
-150 -233 247 0
167 251 0
-167 -251 0
-167 -132 150 0
-167 -171 183 0
-167 -187 199 0
-167 -203 215 0
-167 -219 231 0
-167 -235 247 0
183 253 0
-183 -253 0
-183 -135 150 0
-183 -157 167 0
-183 -189 199 0
-183 -205 215 0
-183 -221 231 0
-183 -237 247 0
199 255 0
-199 -255 0
-199 -138 150 0
-199 -159 167 0
-199 -175 183 0
-199 -207 215 0
-199 -223 231 0
-199 -239 247 0
215 257 0
-215 -257 0
-215 -141 150 0
-215 -161 167 0
-215 -177 183 0
-215 -193 199 0
-215 -225 231 0
-215 -241 247 0
231 259 0
-231 -259 0
-231 -144 150 0
-231 -163 167 0
-231 -179 183 0
-231 -195 199 0
-231 -211 215 0
-231 -243 247 0
247 261 0
-247 -261 0
-247 -147 150 0
-247 -165 167 0
-247 -181 183 0
-247 -197 199 0
-247 -213 215 0
-247 -229 231 0
-265 0
-281 153 0
-1207 169 0
-1207 157 0
-169 -157 1207 0
-1208 185 0
-1208 159 0
-185 -159 1208 0
-1209 201 0
-1209 161 0
-201 -161 1209 0
-1210 217 0
-1210 163 0
-217 -163 1210 0
-1211 233 0
-1211 165 0
-233 -165 1211 0
-1212 249 0
-1212 167 0
-249 -167 1212 0
-281 -1207 0
-281 -1208 0
-281 -1209 0
-281 -1210 0
-281 -1211 0
-281 -1212 0
-153 281 1207 1208 1209 1210 1211 1212 0
-297 169 0
-1213 153 0
-1213 171 0
-153 -171 1213 0
-1214 185 0
-1214 175 0
-185 -175 1214 0
-1215 201 0
-1215 177 0
-201 -177 1215 0
-1216 217 0
-1216 179 0
-217 -179 1216 0
-1217 233 0
-1217 181 0
-233 -181 1217 0
-1218 249 0
-1218 183 0
-249 -183 1218 0
-297 -1213 0
-297 -1214 0
-297 -1215 0
-297 -1216 0
-297 -1217 0
-297 -1218 0
-169 297 1213 1214 1215 1216 1217 1218 0
-313 185 0
-1219 153 0
-1219 187 0
-153 -187 1219 0
-1220 169 0
-1220 189 0
-169 -189 1220 0
-1221 201 0
-1221 193 0
-201 -193 1221 0
-1222 217 0
-1222 195 0
-217 -195 1222 0
-1223 233 0
-1223 197 0
-233 -197 1223 0
-1224 249 0
-1224 199 0
-249 -199 1224 0
-313 -1219 0
-313 -1220 0
-313 -1221 0
-313 -1222 0
-313 -1223 0
-313 -1224 0
-185 313 1219 1220 1221 1222 1223 1224 0
-329 201 0
-1225 153 0
-1225 203 0
-153 -203 1225 0
-1226 169 0
-1226 205 0
-169 -205 1226 0
-1227 185 0
-1227 207 0
-185 -207 1227 0
-1228 217 0
-1228 211 0
-217 -211 1228 0
-1229 233 0
-1229 213 0
-233 -213 1229 0
-1230 249 0
-1230 215 0
-249 -215 1230 0
-329 -1225 0
-329 -1226 0
-329 -1227 0
-329 -1228 0
-329 -1229 0
-329 -1230 0
-201 329 1225 1226 1227 1228 1229 1230 0
-345 217 0
-1231 153 0
-1231 219 0
-153 -219 1231 0
-1232 169 0
-1232 221 0
-169 -221 1232 0
-1233 185 0
-1233 223 0
-185 -223 1233 0
-1234 201 0
-1234 225 0
-201 -225 1234 0
-1235 233 0
-1235 229 0
-233 -229 1235 0
-1236 249 0
-1236 231 0
-249 -231 1236 0
-345 -1231 0
-345 -1232 0
-345 -1233 0
-345 -1234 0
-345 -1235 0
-345 -1236 0
-217 345 1231 1232 1233 1234 1235 1236 0
-361 233 0
-1237 153 0
-1237 235 0
-153 -235 1237 0
-1238 169 0
-1238 237 0
-169 -237 1238 0
-1239 185 0
-1239 239 0
-185 -239 1239 0
-1240 201 0
-1240 241 0
-201 -241 1240 0
-1241 217 0
-1241 243 0
-217 -243 1241 0
-1242 249 0
-1242 247 0
-249 -247 1242 0
-361 -1237 0
-361 -1238 0
-361 -1239 0
-361 -1240 0
-361 -1241 0
-361 -1242 0
-233 361 1237 1238 1239 1240 1241 1242 0
-377 249 0
-1243 153 0
-1243 251 0
-153 -251 1243 0
-1244 169 0
-1244 253 0
-169 -253 1244 0
-1245 185 0
-1245 255 0
-185 -255 1245 0
-1246 201 0
-1246 257 0
-201 -257 1246 0
-1247 217 0
-1247 259 0
-217 -259 1247 0
-1248 233 0
-1248 261 0
-233 -261 1248 0
-377 -1243 0
-377 -1244 0
-377 -1245 0
-377 -1246 0
-377 -1247 0
-377 -1248 0
-249 377 1243 1244 1245 1246 1247 1248 0
-267 132 0
-1249 171 0
-1249 135 0
-171 -135 1249 0
-1250 187 0
-1250 138 0
-187 -138 1250 0
-1251 203 0
-1251 141 0
-203 -141 1251 0
-1252 219 0
-1252 144 0
-219 -144 1252 0
-1253 235 0
-1253 147 0
-235 -147 1253 0
-1254 251 0
-1254 150 0
-251 -150 1254 0
-267 -1249 0
-267 -1250 0
-267 -1251 0
-267 -1252 0
-267 -1253 0
-267 -1254 0
-132 267 1249 1250 1251 1252 1253 1254 0
-283 0
-299 171 0
-1255 132 0
-1255 169 0
-132 -169 1255 0
-1256 187 0
-1256 175 0
-187 -175 1256 0
-1257 203 0
-1257 177 0
-203 -177 1257 0
-1258 219 0
-1258 179 0
-219 -179 1258 0
-1259 235 0
-1259 181 0
-235 -181 1259 0
-1260 251 0
-1260 183 0
-251 -183 1260 0
-299 -1255 0
-299 -1256 0
-299 -1257 0
-299 -1258 0
-299 -1259 0
-299 -1260 0
-171 299 1255 1256 1257 1258 1259 1260 0
-315 187 0
-1261 132 0
-1261 185 0
-132 -185 1261 0
-1262 171 0
-1262 189 0
-171 -189 1262 0
-1263 203 0
-1263 193 0
-203 -193 1263 0
-1264 219 0
-1264 195 0
-219 -195 1264 0
-1265 235 0
-1265 197 0
-235 -197 1265 0
-1266 251 0
-1266 199 0
-251 -199 1266 0
-315 -1261 0
-315 -1262 0
-315 -1263 0
-315 -1264 0
-315 -1265 0
-315 -1266 0
-187 315 1261 1262 1263 1264 1265 1266 0
-331 203 0
-1267 132 0
-1267 201 0
-132 -201 1267 0
-1268 171 0
-1268 205 0
-171 -205 1268 0
-1269 187 0
-1269 207 0
-187 -207 1269 0
-1270 219 0
-1270 211 0
-219 -211 1270 0
-1271 235 0
-1271 213 0
-235 -213 1271 0
-1272 251 0
-1272 215 0
-251 -215 1272 0
-331 -1267 0
-331 -1268 0
-331 -1269 0
-331 -1270 0
-331 -1271 0
-331 -1272 0
-203 331 1267 1268 1269 1270 1271 1272 0
-347 219 0
-1273 132 0
-1273 217 0
-132 -217 1273 0
-1274 171 0
-1274 221 0
-171 -221 1274 0
-1275 187 0
-1275 223 0
-187 -223 1275 0
-1276 203 0
-1276 225 0
-203 -225 1276 0
-1277 235 0
-1277 229 0
-235 -229 1277 0
-1278 251 0
-1278 231 0
-251 -231 1278 0
-347 -1273 0
-347 -1274 0
-347 -1275 0
-347 -1276 0
-347 -1277 0
-347 -1278 0
-219 347 1273 1274 1275 1276 1277 1278 0
-363 235 0
-1279 132 0
-1279 233 0
-132 -233 1279 0
-1280 171 0
-1280 237 0
-171 -237 1280 0
-1281 187 0
-1281 239 0
-187 -239 1281 0
-1282 203 0
-1282 241 0
-203 -241 1282 0
-1283 219 0
-1283 243 0
-219 -243 1283 0
-1284 251 0
-1284 247 0
-251 -247 1284 0
-363 -1279 0
-363 -1280 0
-363 -1281 0
-363 -1282 0
-363 -1283 0
-363 -1284 0
-235 363 1279 1280 1281 1282 1283 1284 0
-379 251 0
-1285 132 0
-1285 249 0
-132 -249 1285 0
-1286 171 0
-1286 253 0
-171 -253 1286 0
-1287 187 0
-1287 255 0
-187 -255 1287 0
-1288 203 0
-1288 257 0
-203 -257 1288 0
-1289 219 0
-1289 259 0
-219 -259 1289 0
-1290 235 0
-1290 261 0
-235 -261 1290 0
-379 -1285 0
-379 -1286 0
-379 -1287 0
-379 -1288 0
-379 -1289 0
-379 -1290 0
-251 379 1285 1286 1287 1288 1289 1290 0
-269 135 0
-1291 157 0
-1291 132 0
-157 -132 1291 0
-1292 189 0
-1292 138 0
-189 -138 1292 0
-1293 205 0
-1293 141 0
-205 -141 1293 0
-1294 221 0
-1294 144 0
-221 -144 1294 0
-1295 237 0
-1295 147 0
-237 -147 1295 0
-1296 253 0
-1296 150 0
-253 -150 1296 0
-269 -1291 0
-269 -1292 0
-269 -1293 0
-269 -1294 0
-269 -1295 0
-269 -1296 0
-135 269 1291 1292 1293 1294 1295 1296 0
-285 157 0
-1297 135 0
-1297 153 0
-135 -153 1297 0
-1298 189 0
-1298 159 0
-189 -159 1298 0
-1299 205 0
-1299 161 0
-205 -161 1299 0
-1300 221 0
-1300 163 0
-221 -163 1300 0
-1301 237 0
-1301 165 0
-237 -165 1301 0
-1302 253 0
-1302 167 0
-253 -167 1302 0
-285 -1297 0
-285 -1298 0
-285 -1299 0
-285 -1300 0
-285 -1301 0
-285 -1302 0
-157 285 1297 1298 1299 1300 1301 1302 0
-301 0
-317 189 0
-1303 135 0
-1303 185 0
-135 -185 1303 0
-1304 157 0
-1304 187 0
-157 -187 1304 0
-1305 205 0
-1305 193 0
-205 -193 1305 0
-1306 221 0
-1306 195 0
-221 -195 1306 0
-1307 237 0
-1307 197 0
-237 -197 1307 0
-1308 253 0
-1308 199 0
-253 -199 1308 0
-317 -1303 0
-317 -1304 0
-317 -1305 0
-317 -1306 0
-317 -1307 0
-317 -1308 0
-189 317 1303 1304 1305 1306 1307 1308 0
-333 205 0
-1309 135 0
-1309 201 0
-135 -201 1309 0
-1310 157 0
-1310 203 0
-157 -203 1310 0
-1311 189 0
-1311 207 0
-189 -207 1311 0
-1312 221 0
-1312 211 0
-221 -211 1312 0
-1313 237 0
-1313 213 0
-237 -213 1313 0
-1314 253 0
-1314 215 0
-253 -215 1314 0
-333 -1309 0
-333 -1310 0
-333 -1311 0
-333 -1312 0
-333 -1313 0
-333 -1314 0
-205 333 1309 1310 1311 1312 1313 1314 0
-349 221 0
-1315 135 0
-1315 217 0
-135 -217 1315 0
-1316 157 0
-1316 219 0
-157 -219 1316 0
-1317 189 0
-1317 223 0
-189 -223 1317 0
-1318 205 0
-1318 225 0
-205 -225 1318 0
-1319 237 0
-1319 229 0
-237 -229 1319 0
-1320 253 0
-1320 231 0
-253 -231 1320 0
-349 -1315 0
-349 -1316 0
-349 -1317 0
-349 -1318 0
-349 -1319 0
-349 -1320 0
-221 349 1315 1316 1317 1318 1319 1320 0
-365 237 0
-1321 135 0
-1321 233 0
-135 -233 1321 0
-1322 157 0
-1322 235 0
-157 -235 1322 0
-1323 189 0
-1323 239 0
-189 -239 1323 0
-1324 205 0
-1324 241 0
-205 -241 1324 0
-1325 221 0
-1325 243 0
-221 -243 1325 0
-1326 253 0
-1326 247 0
-253 -247 1326 0
-365 -1321 0
-365 -1322 0
-365 -1323 0
-365 -1324 0
-365 -1325 0
-365 -1326 0
-237 365 1321 1322 1323 1324 1325 1326 0
-381 253 0
-1327 135 0
-1327 249 0
-135 -249 1327 0
-1328 157 0
-1328 251 0
-157 -251 1328 0
-1329 189 0
-1329 255 0
-189 -255 1329 0
-1330 205 0
-1330 257 0
-205 -257 1330 0
-1331 221 0
-1331 259 0
-221 -259 1331 0
-1332 237 0
-1332 261 0
-237 -261 1332 0
-381 -1327 0
-381 -1328 0
-381 -1329 0
-381 -1330 0
-381 -1331 0
-381 -1332 0
-253 381 1327 1328 1329 1330 1331 1332 0
-271 138 0
-1333 159 0
-1333 132 0
-159 -132 1333 0
-1334 175 0
-1334 135 0
-175 -135 1334 0
-1335 207 0
-1335 141 0
-207 -141 1335 0
-1336 223 0
-1336 144 0
-223 -144 1336 0
-1337 239 0
-1337 147 0
-239 -147 1337 0
-1338 255 0
-1338 150 0
-255 -150 1338 0
-271 -1333 0
-271 -1334 0
-271 -1335 0
-271 -1336 0
-271 -1337 0
-271 -1338 0
-138 271 1333 1334 1335 1336 1337 1338 0
-287 159 0
-1339 138 0
-1339 153 0
-138 -153 1339 0
-1340 175 0
-1340 157 0
-175 -157 1340 0
-1341 207 0
-1341 161 0
-207 -161 1341 0
-1342 223 0
-1342 163 0
-223 -163 1342 0
-1343 239 0
-1343 165 0
-239 -165 1343 0
-1344 255 0
-1344 167 0
-255 -167 1344 0
-287 -1339 0
-287 -1340 0
-287 -1341 0
-287 -1342 0
-287 -1343 0
-287 -1344 0
-159 287 1339 1340 1341 1342 1343 1344 0
-303 175 0
-1345 138 0
-1345 169 0
-138 -169 1345 0
-1346 159 0
-1346 171 0
-159 -171 1346 0
-1347 207 0
-1347 177 0
-207 -177 1347 0
-1348 223 0
-1348 179 0
-223 -179 1348 0
-1349 239 0
-1349 181 0
-239 -181 1349 0
-1350 255 0
-1350 183 0
-255 -183 1350 0
-303 -1345 0
-303 -1346 0
-303 -1347 0
-303 -1348 0
-303 -1349 0
-303 -1350 0
-175 303 1345 1346 1347 1348 1349 1350 0
-319 0
-335 207 0
-1351 138 0
-1351 201 0
-138 -201 1351 0
-1352 159 0
-1352 203 0
-159 -203 1352 0
-1353 175 0
-1353 205 0
-175 -205 1353 0
-1354 223 0
-1354 211 0
-223 -211 1354 0
-1355 239 0
-1355 213 0
-239 -213 1355 0
-1356 255 0
-1356 215 0
-255 -215 1356 0
-335 -1351 0
-335 -1352 0
-335 -1353 0
-335 -1354 0
-335 -1355 0
-335 -1356 0
-207 335 1351 1352 1353 1354 1355 1356 0
-351 223 0
-1357 138 0
-1357 217 0
-138 -217 1357 0
-1358 159 0
-1358 219 0
-159 -219 1358 0
-1359 175 0
-1359 221 0
-175 -221 1359 0
-1360 207 0
-1360 225 0
-207 -225 1360 0
-1361 239 0
-1361 229 0
-239 -229 1361 0
-1362 255 0
-1362 231 0
-255 -231 1362 0
-351 -1357 0
-351 -1358 0
-351 -1359 0
-351 -1360 0
-351 -1361 0
-351 -1362 0
-223 351 1357 1358 1359 1360 1361 1362 0
-367 239 0
-1363 138 0
-1363 233 0
-138 -233 1363 0
-1364 159 0
-1364 235 0
-159 -235 1364 0
-1365 175 0
-1365 237 0
-175 -237 1365 0
-1366 207 0
-1366 241 0
-207 -241 1366 0
-1367 223 0
-1367 243 0
-223 -243 1367 0
-1368 255 0
-1368 247 0
-255 -247 1368 0
-367 -1363 0
-367 -1364 0
-367 -1365 0
-367 -1366 0
-367 -1367 0
-367 -1368 0
-239 367 1363 1364 1365 1366 1367 1368 0
-383 255 0
-1369 138 0
-1369 249 0
-138 -249 1369 0
-1370 159 0
-1370 251 0
-159 -251 1370 0
-1371 175 0
-1371 253 0
-175 -253 1371 0
-1372 207 0
-1372 257 0
-207 -257 1372 0
-1373 223 0
-1373 259 0
-223 -259 1373 0
-1374 239 0
-1374 261 0
-239 -261 1374 0
-383 -1369 0
-383 -1370 0
-383 -1371 0
-383 -1372 0
-383 -1373 0
-383 -1374 0
-255 383 1369 1370 1371 1372 1373 1374 0
-273 141 0
-1375 161 0
-1375 132 0
-161 -132 1375 0
-1376 177 0
-1376 135 0
-177 -135 1376 0
-1377 193 0
-1377 138 0
-193 -138 1377 0
-1378 225 0
-1378 144 0
-225 -144 1378 0
-1379 241 0
-1379 147 0
-241 -147 1379 0
-1380 257 0
-1380 150 0
-257 -150 1380 0
-273 -1375 0
-273 -1376 0
-273 -1377 0
-273 -1378 0
-273 -1379 0
-273 -1380 0
-141 273 1375 1376 1377 1378 1379 1380 0
-289 161 0
-1381 141 0
-1381 153 0
-141 -153 1381 0
-1382 177 0
-1382 157 0
-177 -157 1382 0
-1383 193 0
-1383 159 0
-193 -159 1383 0
-1384 225 0
-1384 163 0
-225 -163 1384 0
-1385 241 0
-1385 165 0
-241 -165 1385 0
-1386 257 0
-1386 167 0
-257 -167 1386 0
-289 -1381 0
-289 -1382 0
-289 -1383 0
-289 -1384 0
-289 -1385 0
-289 -1386 0
-161 289 1381 1382 1383 1384 1385 1386 0
-305 177 0
-1387 141 0
-1387 169 0
-141 -169 1387 0
-1388 161 0
-1388 171 0
-161 -171 1388 0
-1389 193 0
-1389 175 0
-193 -175 1389 0
-1390 225 0
-1390 179 0
-225 -179 1390 0
-1391 241 0
-1391 181 0
-241 -181 1391 0
-1392 257 0
-1392 183 0
-257 -183 1392 0
-305 -1387 0
-305 -1388 0
-305 -1389 0
-305 -1390 0
-305 -1391 0
-305 -1392 0
-177 305 1387 1388 1389 1390 1391 1392 0
-321 193 0
-1393 141 0
-1393 185 0
-141 -185 1393 0
-1394 161 0
-1394 187 0
-161 -187 1394 0
-1395 177 0
-1395 189 0
-177 -189 1395 0
-1396 225 0
-1396 195 0
-225 -195 1396 0
-1397 241 0
-1397 197 0
-241 -197 1397 0
-1398 257 0
-1398 199 0
-257 -199 1398 0
-321 -1393 0
-321 -1394 0
-321 -1395 0
-321 -1396 0
-321 -1397 0
-321 -1398 0
-193 321 1393 1394 1395 1396 1397 1398 0
-337 0
-353 225 0
-1399 141 0
-1399 217 0
-141 -217 1399 0
-1400 161 0
-1400 219 0
-161 -219 1400 0
-1401 177 0
-1401 221 0
-177 -221 1401 0
-1402 193 0
-1402 223 0
-193 -223 1402 0
-1403 241 0
-1403 229 0
-241 -229 1403 0
-1404 257 0
-1404 231 0
-257 -231 1404 0
-353 -1399 0
-353 -1400 0
-353 -1401 0
-353 -1402 0
-353 -1403 0
-353 -1404 0
-225 353 1399 1400 1401 1402 1403 1404 0
-369 241 0
-1405 141 0
-1405 233 0
-141 -233 1405 0
-1406 161 0
-1406 235 0
-161 -235 1406 0
-1407 177 0
-1407 237 0
-177 -237 1407 0
-1408 193 0
-1408 239 0
-193 -239 1408 0
-1409 225 0
-1409 243 0
-225 -243 1409 0
-1410 257 0
-1410 247 0
-257 -247 1410 0
-369 -1405 0
-369 -1406 0
-369 -1407 0
-369 -1408 0
-369 -1409 0
-369 -1410 0
-241 369 1405 1406 1407 1408 1409 1410 0
-385 257 0
-1411 141 0
-1411 249 0
-141 -249 1411 0
-1412 161 0
-1412 251 0
-161 -251 1412 0
-1413 177 0
-1413 253 0
-177 -253 1413 0
-1414 193 0
-1414 255 0
-193 -255 1414 0
-1415 225 0
-1415 259 0
-225 -259 1415 0
-1416 241 0
-1416 261 0
-241 -261 1416 0
-385 -1411 0
-385 -1412 0
-385 -1413 0
-385 -1414 0
-385 -1415 0
-385 -1416 0
-257 385 1411 1412 1413 1414 1415 1416 0
-275 144 0
-1417 163 0
-1417 132 0
-163 -132 1417 0
-1418 179 0
-1418 135 0
-179 -135 1418 0
-1419 195 0
-1419 138 0
-195 -138 1419 0
-1420 211 0
-1420 141 0
-211 -141 1420 0
-1421 243 0
-1421 147 0
-243 -147 1421 0
-1422 259 0
-1422 150 0
-259 -150 1422 0
-275 -1417 0
-275 -1418 0
-275 -1419 0
-275 -1420 0
-275 -1421 0
-275 -1422 0
-144 275 1417 1418 1419 1420 1421 1422 0
-291 163 0
-1423 144 0
-1423 153 0
-144 -153 1423 0
-1424 179 0
-1424 157 0
-179 -157 1424 0
-1425 195 0
-1425 159 0
-195 -159 1425 0
-1426 211 0
-1426 161 0
-211 -161 1426 0
-1427 243 0
-1427 165 0
-243 -165 1427 0
-1428 259 0
-1428 167 0
-259 -167 1428 0
-291 -1423 0
-291 -1424 0
-291 -1425 0
-291 -1426 0
-291 -1427 0
-291 -1428 0
-163 291 1423 1424 1425 1426 1427 1428 0
-307 179 0
-1429 144 0
-1429 169 0
-144 -169 1429 0
-1430 163 0
-1430 171 0
-163 -171 1430 0
-1431 195 0
-1431 175 0
-195 -175 1431 0
-1432 211 0
-1432 177 0
-211 -177 1432 0
-1433 243 0
-1433 181 0
-243 -181 1433 0
-1434 259 0
-1434 183 0
-259 -183 1434 0
-307 -1429 0
-307 -1430 0
-307 -1431 0
-307 -1432 0
-307 -1433 0
-307 -1434 0
-179 307 1429 1430 1431 1432 1433 1434 0
-323 195 0
-1435 144 0
-1435 185 0
-144 -185 1435 0
-1436 163 0
-1436 187 0
-163 -187 1436 0
-1437 179 0
-1437 189 0
-179 -189 1437 0
-1438 211 0
-1438 193 0
-211 -193 1438 0
-1439 243 0
-1439 197 0
-243 -197 1439 0
-1440 259 0
-1440 199 0
-259 -199 1440 0
-323 -1435 0
-323 -1436 0
-323 -1437 0
-323 -1438 0
-323 -1439 0
-323 -1440 0
-195 323 1435 1436 1437 1438 1439 1440 0
-339 211 0
-1441 144 0
-1441 201 0
-144 -201 1441 0
-1442 163 0
-1442 203 0
-163 -203 1442 0
-1443 179 0
-1443 205 0
-179 -205 1443 0
-1444 195 0
-1444 207 0
-195 -207 1444 0
-1445 243 0
-1445 213 0
-243 -213 1445 0
-1446 259 0
-1446 215 0
-259 -215 1446 0
-339 -1441 0
-339 -1442 0
-339 -1443 0
-339 -1444 0
-339 -1445 0
-339 -1446 0
-211 339 1441 1442 1443 1444 1445 1446 0
-355 0
-371 243 0
-1447 144 0
-1447 233 0
-144 -233 1447 0
-1448 163 0
-1448 235 0
-163 -235 1448 0
-1449 179 0
-1449 237 0
-179 -237 1449 0
-1450 195 0
-1450 239 0
-195 -239 1450 0
-1451 211 0
-1451 241 0
-211 -241 1451 0
-1452 259 0
-1452 247 0
-259 -247 1452 0
-371 -1447 0
-371 -1448 0
-371 -1449 0
-371 -1450 0
-371 -1451 0
-371 -1452 0
-243 371 1447 1448 1449 1450 1451 1452 0
-387 259 0
-1453 144 0
-1453 249 0
-144 -249 1453 0
-1454 163 0
-1454 251 0
-163 -251 1454 0
-1455 179 0
-1455 253 0
-179 -253 1455 0
-1456 195 0
-1456 255 0
-195 -255 1456 0
-1457 211 0
-1457 257 0
-211 -257 1457 0
-1458 243 0
-1458 261 0
-243 -261 1458 0
-387 -1453 0
-387 -1454 0
-387 -1455 0
-387 -1456 0
-387 -1457 0
-387 -1458 0
-259 387 1453 1454 1455 1456 1457 1458 0
-277 147 0
-1459 165 0
-1459 132 0
-165 -132 1459 0
-1460 181 0
-1460 135 0
-181 -135 1460 0
-1461 197 0
-1461 138 0
-197 -138 1461 0
-1462 213 0
-1462 141 0
-213 -141 1462 0
-1463 229 0
-1463 144 0
-229 -144 1463 0
-1464 261 0
-1464 150 0
-261 -150 1464 0
-277 -1459 0
-277 -1460 0
-277 -1461 0
-277 -1462 0
-277 -1463 0
-277 -1464 0
-147 277 1459 1460 1461 1462 1463 1464 0
-293 165 0
-1465 147 0
-1465 153 0
-147 -153 1465 0
-1466 181 0
-1466 157 0
-181 -157 1466 0
-1467 197 0
-1467 159 0
-197 -159 1467 0
-1468 213 0
-1468 161 0
-213 -161 1468 0
-1469 229 0
-1469 163 0
-229 -163 1469 0
-1470 261 0
-1470 167 0
-261 -167 1470 0
-293 -1465 0
-293 -1466 0
-293 -1467 0
-293 -1468 0
-293 -1469 0
-293 -1470 0
-165 293 1465 1466 1467 1468 1469 1470 0
-309 181 0
-1471 147 0
-1471 169 0
-147 -169 1471 0
-1472 165 0
-1472 171 0
-165 -171 1472 0
-1473 197 0
-1473 175 0
-197 -175 1473 0
-1474 213 0
-1474 177 0
-213 -177 1474 0
-1475 229 0
-1475 179 0
-229 -179 1475 0
-1476 261 0
-1476 183 0
-261 -183 1476 0
-309 -1471 0
-309 -1472 0
-309 -1473 0
-309 -1474 0
-309 -1475 0
-309 -1476 0
-181 309 1471 1472 1473 1474 1475 1476 0
-325 197 0
-1477 147 0
-1477 185 0
-147 -185 1477 0
-1478 165 0
-1478 187 0
-165 -187 1478 0
-1479 181 0
-1479 189 0
-181 -189 1479 0
-1480 213 0
-1480 193 0
-213 -193 1480 0
-1481 229 0
-1481 195 0
-229 -195 1481 0
-1482 261 0
-1482 199 0
-261 -199 1482 0
-325 -1477 0
-325 -1478 0
-325 -1479 0
-325 -1480 0
-325 -1481 0
-325 -1482 0
-197 325 1477 1478 1479 1480 1481 1482 0
-341 213 0
-1483 147 0
-1483 201 0
-147 -201 1483 0
-1484 165 0
-1484 203 0
-165 -203 1484 0
-1485 181 0
-1485 205 0
-181 -205 1485 0
-1486 197 0
-1486 207 0
-197 -207 1486 0
-1487 229 0
-1487 211 0
-229 -211 1487 0
-1488 261 0
-1488 215 0
-261 -215 1488 0
-341 -1483 0
-341 -1484 0
-341 -1485 0
-341 -1486 0
-341 -1487 0
-341 -1488 0
-213 341 1483 1484 1485 1486 1487 1488 0
-357 229 0
-1489 147 0
-1489 217 0
-147 -217 1489 0
-1490 165 0
-1490 219 0
-165 -219 1490 0
-1491 181 0
-1491 221 0
-181 -221 1491 0
-1492 197 0
-1492 223 0
-197 -223 1492 0
-1493 213 0
-1493 225 0
-213 -225 1493 0
-1494 261 0
-1494 231 0
-261 -231 1494 0
-357 -1489 0
-357 -1490 0
-357 -1491 0
-357 -1492 0
-357 -1493 0
-357 -1494 0
-229 357 1489 1490 1491 1492 1493 1494 0
-373 0
-389 261 0
-1495 147 0
-1495 249 0
-147 -249 1495 0
-1496 165 0
-1496 251 0
-165 -251 1496 0
-1497 181 0
-1497 253 0
-181 -253 1497 0
-1498 197 0
-1498 255 0
-197 -255 1498 0
-1499 213 0
-1499 257 0
-213 -257 1499 0
-1500 229 0
-1500 259 0
-229 -259 1500 0
-389 -1495 0
-389 -1496 0
-389 -1497 0
-389 -1498 0
-389 -1499 0
-389 -1500 0
-261 389 1495 1496 1497 1498 1499 1500 0
-279 150 0
-1501 167 0
-1501 132 0
-167 -132 1501 0
-1502 183 0
-1502 135 0
-183 -135 1502 0
-1503 199 0
-1503 138 0
-199 -138 1503 0
-1504 215 0
-1504 141 0
-215 -141 1504 0
-1505 231 0
-1505 144 0
-231 -144 1505 0
-1506 247 0
-1506 147 0
-247 -147 1506 0
-279 -1501 0
-279 -1502 0
-279 -1503 0
-279 -1504 0
-279 -1505 0
-279 -1506 0
-150 279 1501 1502 1503 1504 1505 1506 0
-295 167 0
-1507 150 0
-1507 153 0
-150 -153 1507 0
-1508 183 0
-1508 157 0
-183 -157 1508 0
-1509 199 0
-1509 159 0
-199 -159 1509 0
-1510 215 0
-1510 161 0
-215 -161 1510 0
-1511 231 0
-1511 163 0
-231 -163 1511 0
-1512 247 0
-1512 165 0
-247 -165 1512 0
-295 -1507 0
-295 -1508 0
-295 -1509 0
-295 -1510 0
-295 -1511 0
-295 -1512 0
-167 295 1507 1508 1509 1510 1511 1512 0
-311 183 0
-1513 150 0
-1513 169 0
-150 -169 1513 0
-1514 167 0
-1514 171 0
-167 -171 1514 0
-1515 199 0
-1515 175 0
-199 -175 1515 0
-1516 215 0
-1516 177 0
-215 -177 1516 0
-1517 231 0
-1517 179 0
-231 -179 1517 0
-1518 247 0
-1518 181 0
-247 -181 1518 0
-311 -1513 0
-311 -1514 0
-311 -1515 0
-311 -1516 0
-311 -1517 0
-311 -1518 0
-183 311 1513 1514 1515 1516 1517 1518 0
-327 199 0
-1519 150 0
-1519 185 0
-150 -185 1519 0
-1520 167 0
-1520 187 0
-167 -187 1520 0
-1521 183 0
-1521 189 0
-183 -189 1521 0
-1522 215 0
-1522 193 0
-215 -193 1522 0
-1523 231 0
-1523 195 0
-231 -195 1523 0
-1524 247 0
-1524 197 0
-247 -197 1524 0
-327 -1519 0
-327 -1520 0
-327 -1521 0
-327 -1522 0
-327 -1523 0
-327 -1524 0
-199 327 1519 1520 1521 1522 1523 1524 0
-343 215 0
-1525 150 0
-1525 201 0
-150 -201 1525 0
-1526 167 0
-1526 203 0
-167 -203 1526 0
-1527 183 0
-1527 205 0
-183 -205 1527 0
-1528 199 0
-1528 207 0
-199 -207 1528 0
-1529 231 0
-1529 211 0
-231 -211 1529 0
-1530 247 0
-1530 213 0
-247 -213 1530 0
-343 -1525 0
-343 -1526 0
-343 -1527 0
-343 -1528 0
-343 -1529 0
-343 -1530 0
-215 343 1525 1526 1527 1528 1529 1530 0
-359 231 0
-1531 150 0
-1531 217 0
-150 -217 1531 0
-1532 167 0
-1532 219 0
-167 -219 1532 0
-1533 183 0
-1533 221 0
-183 -221 1533 0
-1534 199 0
-1534 223 0
-199 -223 1534 0
-1535 215 0
-1535 225 0
-215 -225 1535 0
-1536 247 0
-1536 229 0
-247 -229 1536 0
-359 -1531 0
-359 -1532 0
-359 -1533 0
-359 -1534 0
-359 -1535 0
-359 -1536 0
-231 359 1531 1532 1533 1534 1535 1536 0
-375 247 0
-1537 150 0
-1537 233 0
-150 -233 1537 0
-1538 167 0
-1538 235 0
-167 -235 1538 0
-1539 183 0
-1539 237 0
-183 -237 1539 0
-1540 199 0
-1540 239 0
-199 -239 1540 0
-1541 215 0
-1541 241 0
-215 -241 1541 0
-1542 231 0
-1542 243 0
-231 -243 1542 0
-375 -1537 0
-375 -1538 0
-375 -1539 0
-375 -1540 0
-375 -1541 0
-375 -1542 0
-247 375 1537 1538 1539 1540 1541 1542 0
-391 0
