p cnf 606 2118
1 2 -2 -3 0
4 2 -5 -6 0
7 2 -8 -9 0
10 2 -11 -12 0
13 2 -14 -15 0
16 2 -17 -18 0
19 5 -2 -20 0
21 5 -5 -22 0
23 5 -8 -24 0
25 5 -11 -26 0
27 5 -14 -28 0
29 5 -17 -30 0
31 8 -2 -32 0
33 8 -5 -34 0
35 8 -8 -36 0
37 8 -11 -38 0
39 8 -14 -40 0
41 8 -17 -42 0
43 11 -2 -44 0
45 11 -5 -46 0
47 11 -8 -48 0
49 11 -11 -50 0
51 11 -14 -52 0
53 11 -17 -54 0
55 14 -2 -56 0
57 14 -5 -58 0
59 14 -8 -60 0
61 14 -11 -62 0
63 14 -14 -64 0
65 14 -17 -66 0
67 17 -2 -68 0
69 17 -5 -70 0
71 17 -8 -72 0
73 17 -11 -74 0
75 17 -14 -76 0
77 17 -17 -78 0
3 -1 0
6 -4 0
9 -7 0
12 -10 0
15 -13 0
18 -16 0
20 -19 0
22 -21 0
24 -23 0
26 -25 0
28 -27 0
30 -29 0
32 -31 0
34 -33 0
36 -35 0
38 -37 0
40 -39 0
42 -41 0
44 -43 0
46 -45 0
48 -47 0
50 -49 0
52 -51 0
54 -53 0
56 -55 0
58 -57 0
60 -59 0
62 -61 0
64 -63 0
66 -65 0
68 -67 0
70 -69 0
72 -71 0
74 -73 0
76 -75 0
78 -77 0
3 -2 0
6 -2 0
9 -2 0
12 -2 0
15 -2 0
18 -2 0
20 -5 0
22 -5 0
24 -5 0
26 -5 0
28 -5 0
30 -5 0
32 -8 0
34 -8 0
36 -8 0
38 -8 0
40 -8 0
42 -8 0
44 -11 0
46 -11 0
48 -11 0
50 -11 0
52 -11 0
54 -11 0
56 -14 0
58 -14 0
60 -14 0
62 -14 0
64 -14 0
66 -14 0
68 -17 0
70 -17 0
72 -17 0
74 -17 0
76 -17 0
78 -17 0
3 2 0
6 5 0
9 8 0
12 11 0
15 14 0
18 17 0
20 2 0
22 5 0
24 8 0
26 11 0
28 14 0
30 17 0
32 2 0
34 5 0
36 8 0
38 11 0
40 14 0
42 17 0
44 2 0
46 5 0
48 8 0
50 11 0
52 14 0
54 17 0
56 2 0
58 5 0
60 8 0
62 11 0
64 14 0
66 17 0
68 2 0
70 5 0
72 8 0
74 11 0
76 14 0
78 17 0
79 79 -80 -81 0
82 83 -84 -85 0
86 87 -88 -89 0
90 91 -92 -93 0
94 95 -96 -97 0
98 99 -100 -101 0
83 82 -102 -103 0
104 104 -105 -106 0
107 108 -109 -110 0
111 112 -113 -114 0
115 116 -117 -118 0
119 120 -121 -122 0
87 86 -123 -124 0
108 107 -125 -126 0
127 127 -128 -129 0
130 131 -132 -133 0
134 135 -136 -137 0
138 139 -140 -141 0
91 90 -142 -143 0
112 111 -144 -145 0
131 130 -146 -147 0
148 148 -149 -150 0
151 152 -153 -154 0
155 156 -157 -158 0
95 94 -159 -160 0
116 115 -161 -162 0
135 134 -163 -164 0
152 151 -165 -166 0
167 167 -168 -169 0
170 171 -172 -173 0
99 98 -174 -175 0
120 119 -176 -177 0
139 138 -178 -179 0
156 155 -180 -181 0
171 170 -182 -183 0
184 184 -185 -186 0
81 -79 0
85 -82 0
89 -86 0
93 -90 0
97 -94 0
101 -98 0
103 -83 0
106 -104 0
110 -107 0
114 -111 0
118 -115 0
122 -119 0
124 -87 0
126 -108 0
129 -127 0
133 -130 0
137 -134 0
141 -138 0
143 -91 0
145 -112 0
147 -131 0
150 -148 0
154 -151 0
158 -155 0
160 -95 0
162 -116 0
164 -135 0
166 -152 0
169 -167 0
173 -170 0
175 -99 0
177 -120 0
179 -139 0
181 -156 0
183 -171 0
186 -184 0
81 -79 0
85 -83 0
89 -87 0
93 -91 0
97 -95 0
101 -99 0
103 -82 0
106 -104 0
110 -108 0
114 -112 0
118 -116 0
122 -120 0
124 -86 0
126 -107 0
129 -127 0
133 -131 0
137 -135 0
141 -139 0
143 -90 0
145 -111 0
147 -130 0
150 -148 0
154 -152 0
158 -156 0
160 -94 0
162 -115 0
164 -134 0
166 -151 0
169 -167 0
173 -171 0
175 -98 0
177 -119 0
179 -138 0
181 -155 0
183 -170 0
186 -184 0
81 80 0
85 84 0
89 88 0
93 92 0
97 96 0
101 100 0
103 102 0
106 105 0
110 109 0
114 113 0
118 117 0
122 121 0
124 123 0
126 125 0
129 128 0
133 132 0
137 136 0
141 140 0
143 142 0
145 144 0
147 146 0
150 149 0
154 153 0
158 157 0
160 159 0
162 161 0
164 163 0
166 165 0
169 168 0
173 172 0
175 174 0
177 176 0
179 178 0
181 180 0
183 182 0
186 185 0
79 79 187 0
82 83 188 0
86 87 189 0
90 91 190 0
94 95 191 0
98 99 192 0
83 82 193 0
104 104 194 0
107 108 195 0
111 112 196 0
115 116 197 0
119 120 198 0
87 86 199 0
108 107 200 0
127 127 201 0
130 131 202 0
134 135 203 0
138 139 204 0
91 90 205 0
112 111 206 0
131 130 207 0
148 148 208 0
151 152 209 0
155 156 210 0
95 94 211 0
116 115 212 0
135 134 213 0
152 151 214 0
167 167 215 0
170 171 216 0
99 98 217 0
120 119 218 0
139 138 219 0
156 155 220 0
171 170 221 0
184 184 222 0
-187 -79 0
-188 -82 0
-189 -86 0
-190 -90 0
-191 -94 0
-192 -98 0
-193 -83 0
-194 -104 0
-195 -107 0
-196 -111 0
-197 -115 0
-198 -119 0
-199 -87 0
-200 -108 0
-201 -127 0
-202 -130 0
-203 -134 0
-204 -138 0
-205 -91 0
-206 -112 0
-207 -131 0
-208 -148 0
-209 -151 0
-210 -155 0
-211 -95 0
-212 -116 0
-213 -135 0
-214 -152 0
-215 -167 0
-216 -170 0
-217 -99 0
-218 -120 0
-219 -139 0
-220 -156 0
-221 -171 0
-222 -184 0
-187 -79 0
-188 -83 0
-189 -87 0
-190 -91 0
-191 -95 0
-192 -99 0
-193 -82 0
-194 -104 0
-195 -108 0
-196 -112 0
-197 -116 0
-198 -120 0
-199 -86 0
-200 -107 0
-201 -127 0
-202 -131 0
-203 -135 0
-204 -139 0
-205 -90 0
-206 -111 0
-207 -130 0
-208 -148 0
-209 -152 0
-210 -156 0
-211 -94 0
-212 -115 0
-213 -134 0
-214 -151 0
-215 -167 0
-216 -171 0
-217 -98 0
-218 -119 0
-219 -138 0
-220 -155 0
-221 -170 0
-222 -184 0
80 187 -223 0
84 188 -224 0
88 189 -225 0
92 190 -226 0
96 191 -227 0
100 192 -228 0
102 193 -229 0
105 194 -230 0
109 195 -231 0
113 196 -232 0
117 197 -233 0
121 198 -234 0
123 199 -235 0
125 200 -236 0
128 201 -237 0
132 202 -238 0
136 203 -239 0
140 204 -240 0
142 205 -241 0
144 206 -242 0
146 207 -243 0
149 208 -244 0
153 209 -245 0
157 210 -246 0
159 211 -247 0
161 212 -248 0
163 213 -249 0
165 214 -250 0
168 215 -251 0
172 216 -252 0
174 217 -253 0
176 218 -254 0
178 219 -255 0
180 220 -256 0
182 221 -257 0
185 222 -258 0
223 -80 0
224 -84 0
225 -88 0
226 -92 0
227 -96 0
228 -100 0
229 -102 0
230 -105 0
231 -109 0
232 -113 0
233 -117 0
234 -121 0
235 -123 0
236 -125 0
237 -128 0
238 -132 0
239 -136 0
240 -140 0
241 -142 0
242 -144 0
243 -146 0
244 -149 0
245 -153 0
246 -157 0
247 -159 0
248 -161 0
249 -163 0
250 -165 0
251 -168 0
252 -172 0
253 -174 0
254 -176 0
255 -178 0
256 -180 0
257 -182 0
258 -185 0
223 -187 0
224 -188 0
225 -189 0
226 -190 0
227 -191 0
228 -192 0
229 -193 0
230 -194 0
231 -195 0
232 -196 0
233 -197 0
234 -198 0
235 -199 0
236 -200 0
237 -201 0
238 -202 0
239 -203 0
240 -204 0
241 -205 0
242 -206 0
243 -207 0
244 -208 0
245 -209 0
246 -210 0
247 -211 0
248 -212 0
249 -213 0
250 -214 0
251 -215 0
252 -216 0
253 -217 0
254 -218 0
255 -219 0
256 -220 0
257 -221 0
258 -222 0
-259 -2 -2 260 0
-261 -5 -2 262 0
-263 -8 -2 264 0
-265 -11 -2 266 0
-267 -14 -2 268 0
-269 -17 -2 270 0
-271 -2 -5 272 0
-273 -5 -5 274 0
-275 -8 -5 276 0
-277 -11 -5 278 0
-279 -14 -5 280 0
-281 -17 -5 282 0
-283 -2 -8 284 0
-285 -5 -8 286 0
-287 -8 -8 288 0
-289 -11 -8 290 0
-291 -14 -8 292 0
-293 -17 -8 294 0
-295 -2 -11 296 0
-297 -5 -11 298 0
-299 -8 -11 300 0
-301 -11 -11 302 0
-303 -14 -11 304 0
-305 -17 -11 306 0
-307 -2 -14 308 0
-309 -5 -14 310 0
-311 -8 -14 312 0
-313 -11 -14 314 0
-315 -14 -14 316 0
-317 -17 -14 318 0
-319 -2 -17 320 0
-321 -5 -17 322 0
-323 -8 -17 324 0
-325 -11 -17 326 0
-327 -14 -17 328 0
-329 -17 -17 330 0
-260 259 0
-262 261 0
-264 263 0
-266 265 0
-268 267 0
-270 269 0
-272 271 0
-274 273 0
-276 275 0
-278 277 0
-280 279 0
-282 281 0
-284 283 0
-286 285 0
-288 287 0
-290 289 0
-292 291 0
-294 293 0
-296 295 0
-298 297 0
-300 299 0
-302 301 0
-304 303 0
-306 305 0
-308 307 0
-310 309 0
-312 311 0
-314 313 0
-316 315 0
-318 317 0
-320 319 0
-322 321 0
-324 323 0
-326 325 0
-328 327 0
-330 329 0
-260 2 0
-262 5 0
-264 8 0
-266 11 0
-268 14 0
-270 17 0
-272 2 0
-274 5 0
-276 8 0
-278 11 0
-280 14 0
-282 17 0
-284 2 0
-286 5 0
-288 8 0
-290 11 0
-292 14 0
-294 17 0
-296 2 0
-298 5 0
-300 8 0
-302 11 0
-304 14 0
-306 17 0
-308 2 0
-310 5 0
-312 8 0
-314 11 0
-316 14 0
-318 17 0
-320 2 0
-322 5 0
-324 8 0
-326 11 0
-328 14 0
-330 17 0
-260 2 0
-262 2 0
-264 2 0
-266 2 0
-268 2 0
-270 2 0
-272 5 0
-274 5 0
-276 5 0
-278 5 0
-280 5 0
-282 5 0
-284 8 0
-286 8 0
-288 8 0
-290 8 0
-292 8 0
-294 8 0
-296 11 0
-298 11 0
-300 11 0
-302 11 0
-304 11 0
-306 11 0
-308 14 0
-310 14 0
-312 14 0
-314 14 0
-316 14 0
-318 14 0
-320 17 0
-322 17 0
-324 17 0
-326 17 0
-328 17 0
-330 17 0
-79 260 -331 0
-82 262 -332 0
-86 264 -333 0
-90 266 -334 0
-94 268 -335 0
-98 270 -336 0
-83 272 -337 0
-104 274 -338 0
-107 276 -339 0
-111 278 -340 0
-115 280 -341 0
-119 282 -342 0
-87 284 -343 0
-108 286 -344 0
-127 288 -345 0
-130 290 -346 0
-134 292 -347 0
-138 294 -348 0
-91 296 -349 0
-112 298 -350 0
-131 300 -351 0
-148 302 -352 0
-151 304 -353 0
-155 306 -354 0
-95 308 -355 0
-116 310 -356 0
-135 312 -357 0
-152 314 -358 0
-167 316 -359 0
-170 318 -360 0
-99 320 -361 0
-120 322 -362 0
-139 324 -363 0
-156 326 -364 0
-171 328 -365 0
-184 330 -366 0
331 79 0
332 82 0
333 86 0
334 90 0
335 94 0
336 98 0
337 83 0
338 104 0
339 107 0
340 111 0
341 115 0
342 119 0
343 87 0
344 108 0
345 127 0
346 130 0
347 134 0
348 138 0
349 91 0
350 112 0
351 131 0
352 148 0
353 151 0
354 155 0
355 95 0
356 116 0
357 135 0
358 152 0
359 167 0
360 170 0
361 99 0
362 120 0
363 139 0
364 156 0
365 171 0
366 184 0
331 -260 0
332 -262 0
333 -264 0
334 -266 0
335 -268 0
336 -270 0
337 -272 0
338 -274 0
339 -276 0
340 -278 0
341 -280 0
342 -282 0
343 -284 0
344 -286 0
345 -288 0
346 -290 0
347 -292 0
348 -294 0
349 -296 0
350 -298 0
351 -300 0
352 -302 0
353 -304 0
354 -306 0
355 -308 0
356 -310 0
357 -312 0
358 -314 0
359 -316 0
360 -318 0
361 -320 0
362 -322 0
363 -324 0
364 -326 0
365 -328 0
366 -330 0
-80 -367 -368 -369 0
-84 -370 -368 -371 0
-88 -372 -368 -373 0
-92 -374 -368 -375 0
-96 -376 -368 -377 0
-100 -378 -368 -379 0
-102 -367 -380 -381 0
-105 -370 -380 -382 0
-109 -372 -380 -383 0
-113 -374 -380 -384 0
-117 -376 -380 -385 0
-121 -378 -380 -386 0
-123 -367 -387 -388 0
-125 -370 -387 -389 0
-128 -372 -387 -390 0
-132 -374 -387 -391 0
-136 -376 -387 -392 0
-140 -378 -387 -393 0
-142 -367 -394 -395 0
-144 -370 -394 -396 0
-146 -372 -394 -397 0
-149 -374 -394 -398 0
-153 -376 -394 -399 0
-157 -378 -394 -400 0
-159 -367 -401 -402 0
-161 -370 -401 -403 0
-163 -372 -401 -404 0
-165 -374 -401 -405 0
-168 -376 -401 -406 0
-172 -378 -401 -407 0
-174 -367 -408 -409 0
-176 -370 -408 -410 0
-178 -372 -408 -411 0
-180 -374 -408 -412 0
-182 -376 -408 -413 0
-185 -378 -408 -414 0
369 80 0
371 84 0
373 88 0
375 92 0
377 96 0
379 100 0
381 102 0
382 105 0
383 109 0
384 113 0
385 117 0
386 121 0
388 123 0
389 125 0
390 128 0
391 132 0
392 136 0
393 140 0
395 142 0
396 144 0
397 146 0
398 149 0
399 153 0
400 157 0
402 159 0
403 161 0
404 163 0
405 165 0
406 168 0
407 172 0
409 174 0
410 176 0
411 178 0
412 180 0
413 182 0
414 185 0
369 367 0
371 370 0
373 372 0
375 374 0
377 376 0
379 378 0
381 367 0
382 370 0
383 372 0
384 374 0
385 376 0
386 378 0
388 367 0
389 370 0
390 372 0
391 374 0
392 376 0
393 378 0
395 367 0
396 370 0
397 372 0
398 374 0
399 376 0
400 378 0
402 367 0
403 370 0
404 372 0
405 374 0
406 376 0
407 378 0
409 367 0
410 370 0
411 372 0
412 374 0
413 376 0
414 378 0
369 368 0
371 368 0
373 368 0
375 368 0
377 368 0
379 368 0
381 380 0
382 380 0
383 380 0
384 380 0
385 380 0
386 380 0
388 387 0
389 387 0
390 387 0
391 387 0
392 387 0
393 387 0
395 394 0
396 394 0
397 394 0
398 394 0
399 394 0
400 394 0
402 401 0
403 401 0
404 401 0
405 401 0
406 401 0
407 401 0
409 408 0
410 408 0
411 408 0
412 408 0
413 408 0
414 408 0
79 -259 -2 -2 -415 0
82 -261 -5 -2 -416 0
86 -263 -8 -2 -417 0
90 -265 -11 -2 -418 0
94 -267 -14 -2 -419 0
98 -269 -17 -2 -420 0
83 -271 -2 -5 -421 0
104 -273 -5 -5 -422 0
107 -275 -8 -5 -423 0
111 -277 -11 -5 -424 0
115 -279 -14 -5 -425 0
119 -281 -17 -5 -426 0
87 -283 -2 -8 -427 0
108 -285 -5 -8 -428 0
127 -287 -8 -8 -429 0
130 -289 -11 -8 -430 0
134 -291 -14 -8 -431 0
138 -293 -17 -8 -432 0
91 -295 -2 -11 -433 0
112 -297 -5 -11 -434 0
131 -299 -8 -11 -435 0
148 -301 -11 -11 -436 0
151 -303 -14 -11 -437 0
155 -305 -17 -11 -438 0
95 -307 -2 -14 -439 0
116 -309 -5 -14 -440 0
135 -311 -8 -14 -441 0
152 -313 -11 -14 -442 0
167 -315 -14 -14 -443 0
170 -317 -17 -14 -444 0
99 -319 -2 -17 -445 0
120 -321 -5 -17 -446 0
139 -323 -8 -17 -447 0
156 -325 -11 -17 -448 0
171 -327 -14 -17 -449 0
184 -329 -17 -17 -450 0
415 -79 0
416 -82 0
417 -86 0
418 -90 0
419 -94 0
420 -98 0
421 -83 0
422 -104 0
423 -107 0
424 -111 0
425 -115 0
426 -119 0
427 -87 0
428 -108 0
429 -127 0
430 -130 0
431 -134 0
432 -138 0
433 -91 0
434 -112 0
435 -131 0
436 -148 0
437 -151 0
438 -155 0
439 -95 0
440 -116 0
441 -135 0
442 -152 0
443 -167 0
444 -170 0
445 -99 0
446 -120 0
447 -139 0
448 -156 0
449 -171 0
450 -184 0
415 259 0
416 261 0
417 263 0
418 265 0
419 267 0
420 269 0
421 271 0
422 273 0
423 275 0
424 277 0
425 279 0
426 281 0
427 283 0
428 285 0
429 287 0
430 289 0
431 291 0
432 293 0
433 295 0
434 297 0
435 299 0
436 301 0
437 303 0
438 305 0
439 307 0
440 309 0
441 311 0
442 313 0
443 315 0
444 317 0
445 319 0
446 321 0
447 323 0
448 325 0
449 327 0
450 329 0
415 2 0
416 5 0
417 8 0
418 11 0
419 14 0
420 17 0
421 2 0
422 5 0
423 8 0
424 11 0
425 14 0
426 17 0
427 2 0
428 5 0
429 8 0
430 11 0
431 14 0
432 17 0
433 2 0
434 5 0
435 8 0
436 11 0
437 14 0
438 17 0
439 2 0
440 5 0
441 8 0
442 11 0
443 14 0
444 17 0
445 2 0
446 5 0
447 8 0
448 11 0
449 14 0
450 17 0
415 2 0
416 2 0
417 2 0
418 2 0
419 2 0
420 2 0
421 5 0
422 5 0
423 5 0
424 5 0
425 5 0
426 5 0
427 8 0
428 8 0
429 8 0
430 8 0
431 8 0
432 8 0
433 11 0
434 11 0
435 11 0
436 11 0
437 11 0
438 11 0
439 14 0
440 14 0
441 14 0
442 14 0
443 14 0
444 14 0
445 17 0
446 17 0
447 17 0
448 17 0
449 17 0
450 17 0
-3 -81 -223 -331 -369 -415 451 0
-6 -85 -224 -332 -371 -416 452 0
-9 -89 -225 -333 -373 -417 453 0
-12 -93 -226 -334 -375 -418 454 0
-15 -97 -227 -335 -377 -419 455 0
-18 -101 -228 -336 -379 -420 456 0
-20 -103 -229 -337 -381 -421 457 0
-22 -106 -230 -338 -382 -422 458 0
-24 -110 -231 -339 -383 -423 459 0
-26 -114 -232 -340 -384 -424 460 0
-28 -118 -233 -341 -385 -425 461 0
-30 -122 -234 -342 -386 -426 462 0
-32 -124 -235 -343 -388 -427 463 0
-34 -126 -236 -344 -389 -428 464 0
-36 -129 -237 -345 -390 -429 465 0
-38 -133 -238 -346 -391 -430 466 0
-40 -137 -239 -347 -392 -431 467 0
-42 -141 -240 -348 -393 -432 468 0
-44 -143 -241 -349 -395 -433 469 0
-46 -145 -242 -350 -396 -434 470 0
-48 -147 -243 -351 -397 -435 471 0
-50 -150 -244 -352 -398 -436 472 0
-52 -154 -245 -353 -399 -437 473 0
-54 -158 -246 -354 -400 -438 474 0
-56 -160 -247 -355 -402 -439 475 0
-58 -162 -248 -356 -403 -440 476 0
-60 -164 -249 -357 -404 -441 477 0
-62 -166 -250 -358 -405 -442 478 0
-64 -169 -251 -359 -406 -443 479 0
-66 -173 -252 -360 -407 -444 480 0
-68 -175 -253 -361 -409 -445 481 0
-70 -177 -254 -362 -410 -446 482 0
-72 -179 -255 -363 -411 -447 483 0
-74 -181 -256 -364 -412 -448 484 0
-76 -183 -257 -365 -413 -449 485 0
-78 -186 -258 -366 -414 -450 486 0
-451 3 0
-452 6 0
-453 9 0
-454 12 0
-455 15 0
-456 18 0
-457 20 0
-458 22 0
-459 24 0
-460 26 0
-461 28 0
-462 30 0
-463 32 0
-464 34 0
-465 36 0
-466 38 0
-467 40 0
-468 42 0
-469 44 0
-470 46 0
-471 48 0
-472 50 0
-473 52 0
-474 54 0
-475 56 0
-476 58 0
-477 60 0
-478 62 0
-479 64 0
-480 66 0
-481 68 0
-482 70 0
-483 72 0
-484 74 0
-485 76 0
-486 78 0
-451 81 0
-452 85 0
-453 89 0
-454 93 0
-455 97 0
-456 101 0
-457 103 0
-458 106 0
-459 110 0
-460 114 0
-461 118 0
-462 122 0
-463 124 0
-464 126 0
-465 129 0
-466 133 0
-467 137 0
-468 141 0
-469 143 0
-470 145 0
-471 147 0
-472 150 0
-473 154 0
-474 158 0
-475 160 0
-476 162 0
-477 164 0
-478 166 0
-479 169 0
-480 173 0
-481 175 0
-482 177 0
-483 179 0
-484 181 0
-485 183 0
-486 186 0
-451 223 0
-452 224 0
-453 225 0
-454 226 0
-455 227 0
-456 228 0
-457 229 0
-458 230 0
-459 231 0
-460 232 0
-461 233 0
-462 234 0
-463 235 0
-464 236 0
-465 237 0
-466 238 0
-467 239 0
-468 240 0
-469 241 0
-470 242 0
-471 243 0
-472 244 0
-473 245 0
-474 246 0
-475 247 0
-476 248 0
-477 249 0
-478 250 0
-479 251 0
-480 252 0
-481 253 0
-482 254 0
-483 255 0
-484 256 0
-485 257 0
-486 258 0
-451 331 0
-452 332 0
-453 333 0
-454 334 0
-455 335 0
-456 336 0
-457 337 0
-458 338 0
-459 339 0
-460 340 0
-461 341 0
-462 342 0
-463 343 0
-464 344 0
-465 345 0
-466 346 0
-467 347 0
-468 348 0
-469 349 0
-470 350 0
-471 351 0
-472 352 0
-473 353 0
-474 354 0
-475 355 0
-476 356 0
-477 357 0
-478 358 0
-479 359 0
-480 360 0
-481 361 0
-482 362 0
-483 363 0
-484 364 0
-485 365 0
-486 366 0
-451 369 0
-452 371 0
-453 373 0
-454 375 0
-455 377 0
-456 379 0
-457 381 0
-458 382 0
-459 383 0
-460 384 0
-461 385 0
-462 386 0
-463 388 0
-464 389 0
-465 390 0
-466 391 0
-467 392 0
-468 393 0
-469 395 0
-470 396 0
-471 397 0
-472 398 0
-473 399 0
-474 400 0
-475 402 0
-476 403 0
-477 404 0
-478 405 0
-479 406 0
-480 407 0
-481 409 0
-482 410 0
-483 411 0
-484 412 0
-485 413 0
-486 414 0
-451 415 0
-452 416 0
-453 417 0
-454 418 0
-455 419 0
-456 420 0
-457 421 0
-458 422 0
-459 423 0
-460 424 0
-461 425 0
-462 426 0
-463 427 0
-464 428 0
-465 429 0
-466 430 0
-467 431 0
-468 432 0
-469 433 0
-470 434 0
-471 435 0
-472 436 0
-473 437 0
-474 438 0
-475 439 0
-476 440 0
-477 441 0
-478 442 0
-479 443 0
-480 444 0
-481 445 0
-482 446 0
-483 447 0
-484 448 0
-485 449 0
-486 450 0
451 0
452 0
453 0
454 0
455 0
456 0
457 0
458 0
459 0
460 0
461 0
462 0
463 0
464 0
465 0
466 0
467 0
468 0
469 0
470 0
471 0
472 0
473 0
474 0
475 0
476 0
477 0
478 0
479 0
480 0
481 0
482 0
483 0
484 0
485 0
486 0
-380 0
2 0
-376 0
408 0
372 0
8 0
17 0
-367 0
11 0
5 0
370 0
-387 0
-374 0
-378 0
14 0
394 0
-368 0
401 0
1 0
19 4 0
-19 -4 0
-19 -33 31 0
-19 -45 43 0
-19 -57 55 0
-19 -69 67 0
31 7 0
-31 -7 0
-31 -23 19 0
-31 -47 43 0
-31 -59 55 0
-31 -71 67 0
43 10 0
-43 -10 0
-43 -25 19 0
-43 -37 31 0
-43 -61 55 0
-43 -73 67 0
55 13 0
-55 -13 0
-55 -27 19 0
-55 -39 31 0
-55 -51 43 0
-55 -75 67 0
67 16 0
-67 -16 0
-67 -29 19 0
-67 -41 31 0
-67 -53 43 0
-67 -65 55 0
21 0
4 19 0
-4 -19 0
-4 -31 33 0
-4 -43 45 0
-4 -55 57 0
-4 -67 69 0
33 23 0
-33 -23 0
-33 -7 4 0
-33 -47 45 0
-33 -59 57 0
-33 -71 69 0
45 25 0
-45 -25 0
-45 -10 4 0
-45 -37 33 0
-45 -61 57 0
-45 -73 69 0
57 27 0
-57 -27 0
-57 -13 4 0
-57 -39 33 0
-57 -51 45 0
-57 -75 69 0
69 29 0
-69 -29 0
-69 -16 4 0
-69 -41 33 0
-69 -53 45 0
-69 -65 57 0
35 0
7 31 0
-7 -31 0
-7 -19 23 0
-7 -43 47 0
-7 -55 59 0
-7 -67 71 0
23 33 0
-23 -33 0
-23 -4 7 0
-23 -45 47 0
-23 -57 59 0
-23 -69 71 0
47 37 0
-47 -37 0
-47 -10 7 0
-47 -25 23 0
-47 -61 59 0
-47 -73 71 0
59 39 0
-59 -39 0
-59 -13 7 0
-59 -27 23 0
-59 -51 47 0
-59 -75 71 0
71 41 0
-71 -41 0
-71 -16 7 0
-71 -29 23 0
-71 -53 47 0
-71 -65 59 0
49 0
10 43 0
-10 -43 0
-10 -19 25 0
-10 -31 37 0
-10 -55 61 0
-10 -67 73 0
25 45 0
-25 -45 0
-25 -4 10 0
-25 -33 37 0
-25 -57 61 0
-25 -69 73 0
37 47 0
-37 -47 0
-37 -7 10 0
-37 -23 25 0
-37 -59 61 0
-37 -71 73 0
61 51 0
-61 -51 0
-61 -13 10 0
-61 -27 25 0
-61 -39 37 0
-61 -75 73 0
73 53 0
-73 -53 0
-73 -16 10 0
-73 -29 25 0
-73 -41 37 0
-73 -65 61 0
63 0
13 55 0
-13 -55 0
-13 -19 27 0
-13 -31 39 0
-13 -43 51 0
-13 -67 75 0
27 57 0
-27 -57 0
-27 -4 13 0
-27 -33 39 0
-27 -45 51 0
-27 -69 75 0
39 59 0
-39 -59 0
-39 -7 13 0
-39 -23 27 0
-39 -47 51 0
-39 -71 75 0
51 61 0
-51 -61 0
-51 -10 13 0
-51 -25 27 0
-51 -37 39 0
-51 -73 75 0
75 65 0
-75 -65 0
-75 -16 13 0
-75 -29 27 0
-75 -41 39 0
-75 -53 51 0
77 0
16 67 0
-16 -67 0
-16 -19 29 0
-16 -31 41 0
-16 -43 53 0
-16 -55 65 0
29 69 0
-29 -69 0
-29 -4 16 0
-29 -33 41 0
-29 -45 53 0
-29 -57 65 0
41 71 0
-41 -71 0
-41 -7 16 0
-41 -23 29 0
-41 -47 53 0
-41 -59 65 0
53 73 0
-53 -73 0
-53 -10 16 0
-53 -25 29 0
-53 -37 41 0
-53 -61 65 0
65 75 0
-65 -75 0
-65 -13 16 0
-65 -27 29 0
-65 -39 41 0
-65 -51 53 0
-259 0
-271 19 0
-487 31 0
-487 23 0
-31 -23 487 0
-488 43 0
-488 25 0
-43 -25 488 0
-489 55 0
-489 27 0
-55 -27 489 0
-490 67 0
-490 29 0
-67 -29 490 0
-271 -487 0
-271 -488 0
-271 -489 0
-271 -490 0
-19 271 487 488 489 490 0
-283 31 0
-491 19 0
-491 33 0
-19 -33 491 0
-492 43 0
-492 37 0
-43 -37 492 0
-493 55 0
-493 39 0
-55 -39 493 0
-494 67 0
-494 41 0
-67 -41 494 0
-283 -491 0
-283 -492 0
-283 -493 0
-283 -494 0
-31 283 491 492 493 494 0
-295 43 0
-495 19 0
-495 45 0
-19 -45 495 0
-496 31 0
-496 47 0
-31 -47 496 0
-497 55 0
-497 51 0
-55 -51 497 0
-498 67 0
-498 53 0
-67 -53 498 0
-295 -495 0
-295 -496 0
-295 -497 0
-295 -498 0
-43 295 495 496 497 498 0
-307 55 0
-499 19 0
-499 57 0
-19 -57 499 0
-500 31 0
-500 59 0
-31 -59 500 0
-501 43 0
-501 61 0
-43 -61 501 0
-502 67 0
-502 65 0
-67 -65 502 0
-307 -499 0
-307 -500 0
-307 -501 0
-307 -502 0
-55 307 499 500 501 502 0
-319 67 0
-503 19 0
-503 69 0
-19 -69 503 0
-504 31 0
-504 71 0
-31 -71 504 0
-505 43 0
-505 73 0
-43 -73 505 0
-506 55 0
-506 75 0
-55 -75 506 0
-319 -503 0
-319 -504 0
-319 -505 0
-319 -506 0
-67 319 503 504 505 506 0
-261 4 0
-507 33 0
-507 7 0
-33 -7 507 0
-508 45 0
-508 10 0
-45 -10 508 0
-509 57 0
-509 13 0
-57 -13 509 0
-510 69 0
-510 16 0
-69 -16 510 0
-261 -507 0
-261 -508 0
-261 -509 0
-261 -510 0
-4 261 507 508 509 510 0
-273 0
-285 33 0
-511 4 0
-511 31 0
-4 -31 511 0
-512 45 0
-512 37 0
-45 -37 512 0
-513 57 0
-513 39 0
-57 -39 513 0
-514 69 0
-514 41 0
-69 -41 514 0
-285 -511 0
-285 -512 0
-285 -513 0
-285 -514 0
-33 285 511 512 513 514 0
-297 45 0
-515 4 0
-515 43 0
-4 -43 515 0
-516 33 0
-516 47 0
-33 -47 516 0
-517 57 0
-517 51 0
-57 -51 517 0
-518 69 0
-518 53 0
-69 -53 518 0
-297 -515 0
-297 -516 0
-297 -517 0
-297 -518 0
-45 297 515 516 517 518 0
-309 57 0
-519 4 0
-519 55 0
-4 -55 519 0
-520 33 0
-520 59 0
-33 -59 520 0
-521 45 0
-521 61 0
-45 -61 521 0
-522 69 0
-522 65 0
-69 -65 522 0
-309 -519 0
-309 -520 0
-309 -521 0
-309 -522 0
-57 309 519 520 521 522 0
-321 69 0
-523 4 0
-523 67 0
-4 -67 523 0
-524 33 0
-524 71 0
-33 -71 524 0
-525 45 0
-525 73 0
-45 -73 525 0
-526 57 0
-526 75 0
-57 -75 526 0
-321 -523 0
-321 -524 0
-321 -525 0
-321 -526 0
-69 321 523 524 525 526 0
-263 7 0
-527 23 0
-527 4 0
-23 -4 527 0
-528 47 0
-528 10 0
-47 -10 528 0
-529 59 0
-529 13 0
-59 -13 529 0
-530 71 0
-530 16 0
-71 -16 530 0
-263 -527 0
-263 -528 0
-263 -529 0
-263 -530 0
-7 263 527 528 529 530 0
-275 23 0
-531 7 0
-531 19 0
-7 -19 531 0
-532 47 0
-532 25 0
-47 -25 532 0
-533 59 0
-533 27 0
-59 -27 533 0
-534 71 0
-534 29 0
-71 -29 534 0
-275 -531 0
-275 -532 0
-275 -533 0
-275 -534 0
-23 275 531 532 533 534 0
-287 0
-299 47 0
-535 7 0
-535 43 0
-7 -43 535 0
-536 23 0
-536 45 0
-23 -45 536 0
-537 59 0
-537 51 0
-59 -51 537 0
-538 71 0
-538 53 0
-71 -53 538 0
-299 -535 0
-299 -536 0
-299 -537 0
-299 -538 0
-47 299 535 536 537 538 0
-311 59 0
-539 7 0
-539 55 0
-7 -55 539 0
-540 23 0
-540 57 0
-23 -57 540 0
-541 47 0
-541 61 0
-47 -61 541 0
-542 71 0
-542 65 0
-71 -65 542 0
-311 -539 0
-311 -540 0
-311 -541 0
-311 -542 0
-59 311 539 540 541 542 0
-323 71 0
-543 7 0
-543 67 0
-7 -67 543 0
-544 23 0
-544 69 0
-23 -69 544 0
-545 47 0
-545 73 0
-47 -73 545 0
-546 59 0
-546 75 0
-59 -75 546 0
-323 -543 0
-323 -544 0
-323 -545 0
-323 -546 0
-71 323 543 544 545 546 0
-265 10 0
-547 25 0
-547 4 0
-25 -4 547 0
-548 37 0
-548 7 0
-37 -7 548 0
-549 61 0
-549 13 0
-61 -13 549 0
-550 73 0
-550 16 0
-73 -16 550 0
-265 -547 0
-265 -548 0
-265 -549 0
-265 -550 0
-10 265 547 548 549 550 0
-277 25 0
-551 10 0
-551 19 0
-10 -19 551 0
-552 37 0
-552 23 0
-37 -23 552 0
-553 61 0
-553 27 0
-61 -27 553 0
-554 73 0
-554 29 0
-73 -29 554 0
-277 -551 0
-277 -552 0
-277 -553 0
-277 -554 0
-25 277 551 552 553 554 0
-289 37 0
-555 10 0
-555 31 0
-10 -31 555 0
-556 25 0
-556 33 0
-25 -33 556 0
-557 61 0
-557 39 0
-61 -39 557 0
-558 73 0
-558 41 0
-73 -41 558 0
-289 -555 0
-289 -556 0
-289 -557 0
-289 -558 0
-37 289 555 556 557 558 0
-301 0
-313 61 0
-559 10 0
-559 55 0
-10 -55 559 0
-560 25 0
-560 57 0
-25 -57 560 0
-561 37 0
-561 59 0
-37 -59 561 0
-562 73 0
-562 65 0
-73 -65 562 0
-313 -559 0
-313 -560 0
-313 -561 0
-313 -562 0
-61 313 559 560 561 562 0
-325 73 0
-563 10 0
-563 67 0
-10 -67 563 0
-564 25 0
-564 69 0
-25 -69 564 0
-565 37 0
-565 71 0
-37 -71 565 0
-566 61 0
-566 75 0
-61 -75 566 0
-325 -563 0
-325 -564 0
-325 -565 0
-325 -566 0
-73 325 563 564 565 566 0
-267 13 0
-567 27 0
-567 4 0
-27 -4 567 0
-568 39 0
-568 7 0
-39 -7 568 0
-569 51 0
-569 10 0
-51 -10 569 0
-570 75 0
-570 16 0
-75 -16 570 0
-267 -567 0
-267 -568 0
-267 -569 0
-267 -570 0
-13 267 567 568 569 570 0
-279 27 0
-571 13 0
-571 19 0
-13 -19 571 0
-572 39 0
-572 23 0
-39 -23 572 0
-573 51 0
-573 25 0
-51 -25 573 0
-574 75 0
-574 29 0
-75 -29 574 0
-279 -571 0
-279 -572 0
-279 -573 0
-279 -574 0
-27 279 571 572 573 574 0
-291 39 0
-575 13 0
-575 31 0
-13 -31 575 0
-576 27 0
-576 33 0
-27 -33 576 0
-577 51 0
-577 37 0
-51 -37 577 0
-578 75 0
-578 41 0
-75 -41 578 0
-291 -575 0
-291 -576 0
-291 -577 0
-291 -578 0
-39 291 575 576 577 578 0
-303 51 0
-579 13 0
-579 43 0
-13 -43 579 0
-580 27 0
-580 45 0
-27 -45 580 0
-581 39 0
-581 47 0
-39 -47 581 0
-582 75 0
-582 53 0
-75 -53 582 0
-303 -579 0
-303 -580 0
-303 -581 0
-303 -582 0
-51 303 579 580 581 582 0
-315 0
-327 75 0
-583 13 0
-583 67 0
-13 -67 583 0
-584 27 0
-584 69 0
-27 -69 584 0
-585 39 0
-585 71 0
-39 -71 585 0
-586 51 0
-586 73 0
-51 -73 586 0
-327 -583 0
-327 -584 0
-327 -585 0
-327 -586 0
-75 327 583 584 585 586 0
-269 16 0
-587 29 0
-587 4 0
-29 -4 587 0
-588 41 0
-588 7 0
-41 -7 588 0
-589 53 0
-589 10 0
-53 -10 589 0
-590 65 0
-590 13 0
-65 -13 590 0
-269 -587 0
-269 -588 0
-269 -589 0
-269 -590 0
-16 269 587 588 589 590 0
-281 29 0
-591 16 0
-591 19 0
-16 -19 591 0
-592 41 0
-592 23 0
-41 -23 592 0
-593 53 0
-593 25 0
-53 -25 593 0
-594 65 0
-594 27 0
-65 -27 594 0
-281 -591 0
-281 -592 0
-281 -593 0
-281 -594 0
-29 281 591 592 593 594 0
-293 41 0
-595 16 0
-595 31 0
-16 -31 595 0
-596 29 0
-596 33 0
-29 -33 596 0
-597 53 0
-597 37 0
-53 -37 597 0
-598 65 0
-598 39 0
-65 -39 598 0
-293 -595 0
-293 -596 0
-293 -597 0
-293 -598 0
-41 293 595 596 597 598 0
-305 53 0
-599 16 0
-599 43 0
-16 -43 599 0
-600 29 0
-600 45 0
-29 -45 600 0
-601 41 0
-601 47 0
-41 -47 601 0
-602 65 0
-602 51 0
-65 -51 602 0
-305 -599 0
-305 -600 0
-305 -601 0
-305 -602 0
-53 305 599 600 601 602 0
-317 65 0
-603 16 0
-603 55 0
-16 -55 603 0
-604 29 0
-604 57 0
-29 -57 604 0
-605 41 0
-605 59 0
-41 -59 605 0
-606 53 0
-606 61 0
-53 -61 606 0
-317 -603 0
-317 -604 0
-317 -605 0
-317 -606 0
-65 317 603 604 605 606 0
-329 0
