p cnf 654 2346
1 2 -2 -3 0
4 2 -5 -6 0
7 2 -8 -9 0
10 2 -11 -12 0
13 2 -14 -15 0
16 2 -17 -18 0
19 5 -2 -20 0
21 5 -5 -22 0
23 5 -8 -24 0
25 5 -11 -26 0
27 5 -14 -28 0
29 5 -17 -30 0
31 8 -2 -32 0
33 8 -5 -34 0
35 8 -8 -36 0
37 8 -11 -38 0
39 8 -14 -40 0
41 8 -17 -42 0
43 11 -2 -44 0
45 11 -5 -46 0
47 11 -8 -48 0
49 11 -11 -50 0
51 11 -14 -52 0
53 11 -17 -54 0
55 14 -2 -56 0
57 14 -5 -58 0
59 14 -8 -60 0
61 14 -11 -62 0
63 14 -14 -64 0
65 14 -17 -66 0
67 17 -2 -68 0
69 17 -5 -70 0
71 17 -8 -72 0
73 17 -11 -74 0
75 17 -14 -76 0
77 17 -17 -78 0
3 -1 0
6 -4 0
9 -7 0
12 -10 0
15 -13 0
18 -16 0
20 -19 0
22 -21 0
24 -23 0
26 -25 0
28 -27 0
30 -29 0
32 -31 0
34 -33 0
36 -35 0
38 -37 0
40 -39 0
42 -41 0
44 -43 0
46 -45 0
48 -47 0
50 -49 0
52 -51 0
54 -53 0
56 -55 0
58 -57 0
60 -59 0
62 -61 0
64 -63 0
66 -65 0
68 -67 0
70 -69 0
72 -71 0
74 -73 0
76 -75 0
78 -77 0
3 -2 0
6 -2 0
9 -2 0
12 -2 0
15 -2 0
18 -2 0
20 -5 0
22 -5 0
24 -5 0
26 -5 0
28 -5 0
30 -5 0
32 -8 0
34 -8 0
36 -8 0
38 -8 0
40 -8 0
42 -8 0
44 -11 0
46 -11 0
48 -11 0
50 -11 0
52 -11 0
54 -11 0
56 -14 0
58 -14 0
60 -14 0
62 -14 0
64 -14 0
66 -14 0
68 -17 0
70 -17 0
72 -17 0
74 -17 0
76 -17 0
78 -17 0
3 2 0
6 5 0
9 8 0
12 11 0
15 14 0
18 17 0
20 2 0
22 5 0
24 8 0
26 11 0
28 14 0
30 17 0
32 2 0
34 5 0
36 8 0
38 11 0
40 14 0
42 17 0
44 2 0
46 5 0
48 8 0
50 11 0
52 14 0
54 17 0
56 2 0
58 5 0
60 8 0
62 11 0
64 14 0
66 17 0
68 2 0
70 5 0
72 8 0
74 11 0
76 14 0
78 17 0
79 79 -80 -81 0
82 83 -84 -85 0
86 87 -88 -89 0
90 91 -92 -93 0
94 95 -96 -97 0
98 99 -100 -101 0
83 82 -102 -103 0
104 104 -105 -106 0
107 108 -109 -110 0
111 112 -113 -114 0
115 116 -117 -118 0
119 120 -121 -122 0
87 86 -123 -124 0
108 107 -125 -126 0
127 127 -128 -129 0
130 131 -132 -133 0
134 135 -136 -137 0
138 139 -140 -141 0
91 90 -142 -143 0
112 111 -144 -145 0
131 130 -146 -147 0
148 148 -149 -150 0
151 152 -153 -154 0
155 156 -157 -158 0
95 94 -159 -160 0
116 115 -161 -162 0
135 134 -163 -164 0
152 151 -165 -166 0
167 167 -168 -169 0
170 171 -172 -173 0
99 98 -174 -175 0
120 119 -176 -177 0
139 138 -178 -179 0
156 155 -180 -181 0
171 170 -182 -183 0
184 184 -185 -186 0
81 -79 0
85 -82 0
89 -86 0
93 -90 0
97 -94 0
101 -98 0
103 -83 0
106 -104 0
110 -107 0
114 -111 0
118 -115 0
122 -119 0
124 -87 0
126 -108 0
129 -127 0
133 -130 0
137 -134 0
141 -138 0
143 -91 0
145 -112 0
147 -131 0
150 -148 0
154 -151 0
158 -155 0
160 -95 0
162 -116 0
164 -135 0
166 -152 0
169 -167 0
173 -170 0
175 -99 0
177 -120 0
179 -139 0
181 -156 0
183 -171 0
186 -184 0
81 -79 0
85 -83 0
89 -87 0
93 -91 0
97 -95 0
101 -99 0
103 -82 0
106 -104 0
110 -108 0
114 -112 0
118 -116 0
122 -120 0
124 -86 0
126 -107 0
129 -127 0
133 -131 0
137 -135 0
141 -139 0
143 -90 0
145 -111 0
147 -130 0
150 -148 0
154 -152 0
158 -156 0
160 -94 0
162 -115 0
164 -134 0
166 -151 0
169 -167 0
173 -171 0
175 -98 0
177 -119 0
179 -138 0
181 -155 0
183 -170 0
186 -184 0
81 80 0
85 84 0
89 88 0
93 92 0
97 96 0
101 100 0
103 102 0
106 105 0
110 109 0
114 113 0
118 117 0
122 121 0
124 123 0
126 125 0
129 128 0
133 132 0
137 136 0
141 140 0
143 142 0
145 144 0
147 146 0
150 149 0
154 153 0
158 157 0
160 159 0
162 161 0
164 163 0
166 165 0
169 168 0
173 172 0
175 174 0
177 176 0
179 178 0
181 180 0
183 182 0
186 185 0
80 -187 -188 -189 0
84 -190 -188 -191 0
88 -192 -188 -193 0
92 -194 -188 -195 0
96 -196 -188 -197 0
100 -198 -188 -199 0
102 -187 -200 -201 0
105 -190 -200 -202 0
109 -192 -200 -203 0
113 -194 -200 -204 0
117 -196 -200 -205 0
121 -198 -200 -206 0
123 -187 -207 -208 0
125 -190 -207 -209 0
128 -192 -207 -210 0
132 -194 -207 -211 0
136 -196 -207 -212 0
140 -198 -207 -213 0
142 -187 -214 -215 0
144 -190 -214 -216 0
146 -192 -214 -217 0
149 -194 -214 -218 0
153 -196 -214 -219 0
157 -198 -214 -220 0
159 -187 -221 -222 0
161 -190 -221 -223 0
163 -192 -221 -224 0
165 -194 -221 -225 0
168 -196 -221 -226 0
172 -198 -221 -227 0
174 -187 -228 -229 0
176 -190 -228 -230 0
178 -192 -228 -231 0
180 -194 -228 -232 0
182 -196 -228 -233 0
185 -198 -228 -234 0
189 -80 0
191 -84 0
193 -88 0
195 -92 0
197 -96 0
199 -100 0
201 -102 0
202 -105 0
203 -109 0
204 -113 0
205 -117 0
206 -121 0
208 -123 0
209 -125 0
210 -128 0
211 -132 0
212 -136 0
213 -140 0
215 -142 0
216 -144 0
217 -146 0
218 -149 0
219 -153 0
220 -157 0
222 -159 0
223 -161 0
224 -163 0
225 -165 0
226 -168 0
227 -172 0
229 -174 0
230 -176 0
231 -178 0
232 -180 0
233 -182 0
234 -185 0
189 187 0
191 190 0
193 192 0
195 194 0
197 196 0
199 198 0
201 187 0
202 190 0
203 192 0
204 194 0
205 196 0
206 198 0
208 187 0
209 190 0
210 192 0
211 194 0
212 196 0
213 198 0
215 187 0
216 190 0
217 192 0
218 194 0
219 196 0
220 198 0
222 187 0
223 190 0
224 192 0
225 194 0
226 196 0
227 198 0
229 187 0
230 190 0
231 192 0
232 194 0
233 196 0
234 198 0
189 188 0
191 188 0
193 188 0
195 188 0
197 188 0
199 188 0
201 200 0
202 200 0
203 200 0
204 200 0
205 200 0
206 200 0
208 207 0
209 207 0
210 207 0
211 207 0
212 207 0
213 207 0
215 214 0
216 214 0
217 214 0
218 214 0
219 214 0
220 214 0
222 221 0
223 221 0
224 221 0
225 221 0
226 221 0
227 221 0
229 228 0
230 228 0
231 228 0
232 228 0
233 228 0
234 228 0
79 79 235 0
82 83 236 0
86 87 237 0
90 91 238 0
94 95 239 0
98 99 240 0
83 82 241 0
104 104 242 0
107 108 243 0
111 112 244 0
115 116 245 0
119 120 246 0
87 86 247 0
108 107 248 0
127 127 249 0
130 131 250 0
134 135 251 0
138 139 252 0
91 90 253 0
112 111 254 0
131 130 255 0
148 148 256 0
151 152 257 0
155 156 258 0
95 94 259 0
116 115 260 0
135 134 261 0
152 151 262 0
167 167 263 0
170 171 264 0
99 98 265 0
120 119 266 0
139 138 267 0
156 155 268 0
171 170 269 0
184 184 270 0
-235 -79 0
-236 -82 0
-237 -86 0
-238 -90 0
-239 -94 0
-240 -98 0
-241 -83 0
-242 -104 0
-243 -107 0
-244 -111 0
-245 -115 0
-246 -119 0
-247 -87 0
-248 -108 0
-249 -127 0
-250 -130 0
-251 -134 0
-252 -138 0
-253 -91 0
-254 -112 0
-255 -131 0
-256 -148 0
-257 -151 0
-258 -155 0
-259 -95 0
-260 -116 0
-261 -135 0
-262 -152 0
-263 -167 0
-264 -170 0
-265 -99 0
-266 -120 0
-267 -139 0
-268 -156 0
-269 -171 0
-270 -184 0
-235 -79 0
-236 -83 0
-237 -87 0
-238 -91 0
-239 -95 0
-240 -99 0
-241 -82 0
-242 -104 0
-243 -108 0
-244 -112 0
-245 -116 0
-246 -120 0
-247 -86 0
-248 -107 0
-249 -127 0
-250 -131 0
-251 -135 0
-252 -139 0
-253 -90 0
-254 -111 0
-255 -130 0
-256 -148 0
-257 -152 0
-258 -156 0
-259 -94 0
-260 -115 0
-261 -134 0
-262 -151 0
-263 -167 0
-264 -171 0
-265 -98 0
-266 -119 0
-267 -138 0
-268 -155 0
-269 -170 0
-270 -184 0
80 235 -271 0
84 236 -272 0
88 237 -273 0
92 238 -274 0
96 239 -275 0
100 240 -276 0
102 241 -277 0
105 242 -278 0
109 243 -279 0
113 244 -280 0
117 245 -281 0
121 246 -282 0
123 247 -283 0
125 248 -284 0
128 249 -285 0
132 250 -286 0
136 251 -287 0
140 252 -288 0
142 253 -289 0
144 254 -290 0
146 255 -291 0
149 256 -292 0
153 257 -293 0
157 258 -294 0
159 259 -295 0
161 260 -296 0
163 261 -297 0
165 262 -298 0
168 263 -299 0
172 264 -300 0
174 265 -301 0
176 266 -302 0
178 267 -303 0
180 268 -304 0
182 269 -305 0
185 270 -306 0
271 -80 0
272 -84 0
273 -88 0
274 -92 0
275 -96 0
276 -100 0
277 -102 0
278 -105 0
279 -109 0
280 -113 0
281 -117 0
282 -121 0
283 -123 0
284 -125 0
285 -128 0
286 -132 0
287 -136 0
288 -140 0
289 -142 0
290 -144 0
291 -146 0
292 -149 0
293 -153 0
294 -157 0
295 -159 0
296 -161 0
297 -163 0
298 -165 0
299 -168 0
300 -172 0
301 -174 0
302 -176 0
303 -178 0
304 -180 0
305 -182 0
306 -185 0
271 -235 0
272 -236 0
273 -237 0
274 -238 0
275 -239 0
276 -240 0
277 -241 0
278 -242 0
279 -243 0
280 -244 0
281 -245 0
282 -246 0
283 -247 0
284 -248 0
285 -249 0
286 -250 0
287 -251 0
288 -252 0
289 -253 0
290 -254 0
291 -255 0
292 -256 0
293 -257 0
294 -258 0
295 -259 0
296 -260 0
297 -261 0
298 -262 0
299 -263 0
300 -264 0
301 -265 0
302 -266 0
303 -267 0
304 -268 0
305 -269 0
306 -270 0
-307 -2 -2 308 0
-309 -5 -2 310 0
-311 -8 -2 312 0
-313 -11 -2 314 0
-315 -14 -2 316 0
-317 -17 -2 318 0
-319 -2 -5 320 0
-321 -5 -5 322 0
-323 -8 -5 324 0
-325 -11 -5 326 0
-327 -14 -5 328 0
-329 -17 -5 330 0
-331 -2 -8 332 0
-333 -5 -8 334 0
-335 -8 -8 336 0
-337 -11 -8 338 0
-339 -14 -8 340 0
-341 -17 -8 342 0
-343 -2 -11 344 0
-345 -5 -11 346 0
-347 -8 -11 348 0
-349 -11 -11 350 0
-351 -14 -11 352 0
-353 -17 -11 354 0
-355 -2 -14 356 0
-357 -5 -14 358 0
-359 -8 -14 360 0
-361 -11 -14 362 0
-363 -14 -14 364 0
-365 -17 -14 366 0
-367 -2 -17 368 0
-369 -5 -17 370 0
-371 -8 -17 372 0
-373 -11 -17 374 0
-375 -14 -17 376 0
-377 -17 -17 378 0
-308 307 0
-310 309 0
-312 311 0
-314 313 0
-316 315 0
-318 317 0
-320 319 0
-322 321 0
-324 323 0
-326 325 0
-328 327 0
-330 329 0
-332 331 0
-334 333 0
-336 335 0
-338 337 0
-340 339 0
-342 341 0
-344 343 0
-346 345 0
-348 347 0
-350 349 0
-352 351 0
-354 353 0
-356 355 0
-358 357 0
-360 359 0
-362 361 0
-364 363 0
-366 365 0
-368 367 0
-370 369 0
-372 371 0
-374 373 0
-376 375 0
-378 377 0
-308 2 0
-310 5 0
-312 8 0
-314 11 0
-316 14 0
-318 17 0
-320 2 0
-322 5 0
-324 8 0
-326 11 0
-328 14 0
-330 17 0
-332 2 0
-334 5 0
-336 8 0
-338 11 0
-340 14 0
-342 17 0
-344 2 0
-346 5 0
-348 8 0
-350 11 0
-352 14 0
-354 17 0
-356 2 0
-358 5 0
-360 8 0
-362 11 0
-364 14 0
-366 17 0
-368 2 0
-370 5 0
-372 8 0
-374 11 0
-376 14 0
-378 17 0
-308 2 0
-310 2 0
-312 2 0
-314 2 0
-316 2 0
-318 2 0
-320 5 0
-322 5 0
-324 5 0
-326 5 0
-328 5 0
-330 5 0
-332 8 0
-334 8 0
-336 8 0
-338 8 0
-340 8 0
-342 8 0
-344 11 0
-346 11 0
-348 11 0
-350 11 0
-352 11 0
-354 11 0
-356 14 0
-358 14 0
-360 14 0
-362 14 0
-364 14 0
-366 14 0
-368 17 0
-370 17 0
-372 17 0
-374 17 0
-376 17 0
-378 17 0
-79 308 -379 0
-82 310 -380 0
-86 312 -381 0
-90 314 -382 0
-94 316 -383 0
-98 318 -384 0
-83 320 -385 0
-104 322 -386 0
-107 324 -387 0
-111 326 -388 0
-115 328 -389 0
-119 330 -390 0
-87 332 -391 0
-108 334 -392 0
-127 336 -393 0
-130 338 -394 0
-134 340 -395 0
-138 342 -396 0
-91 344 -397 0
-112 346 -398 0
-131 348 -399 0
-148 350 -400 0
-151 352 -401 0
-155 354 -402 0
-95 356 -403 0
-116 358 -404 0
-135 360 -405 0
-152 362 -406 0
-167 364 -407 0
-170 366 -408 0
-99 368 -409 0
-120 370 -410 0
-139 372 -411 0
-156 374 -412 0
-171 376 -413 0
-184 378 -414 0
379 79 0
380 82 0
381 86 0
382 90 0
383 94 0
384 98 0
385 83 0
386 104 0
387 107 0
388 111 0
389 115 0
390 119 0
391 87 0
392 108 0
393 127 0
394 130 0
395 134 0
396 138 0
397 91 0
398 112 0
399 131 0
400 148 0
401 151 0
402 155 0
403 95 0
404 116 0
405 135 0
406 152 0
407 167 0
408 170 0
409 99 0
410 120 0
411 139 0
412 156 0
413 171 0
414 184 0
379 -308 0
380 -310 0
381 -312 0
382 -314 0
383 -316 0
384 -318 0
385 -320 0
386 -322 0
387 -324 0
388 -326 0
389 -328 0
390 -330 0
391 -332 0
392 -334 0
393 -336 0
394 -338 0
395 -340 0
396 -342 0
397 -344 0
398 -346 0
399 -348 0
400 -350 0
401 -352 0
402 -354 0
403 -356 0
404 -358 0
405 -360 0
406 -362 0
407 -364 0
408 -366 0
409 -368 0
410 -370 0
411 -372 0
412 -374 0
413 -376 0
414 -378 0
79 -307 -2 -2 -415 0
82 -309 -5 -2 -416 0
86 -311 -8 -2 -417 0
90 -313 -11 -2 -418 0
94 -315 -14 -2 -419 0
98 -317 -17 -2 -420 0
83 -319 -2 -5 -421 0
104 -321 -5 -5 -422 0
107 -323 -8 -5 -423 0
111 -325 -11 -5 -424 0
115 -327 -14 -5 -425 0
119 -329 -17 -5 -426 0
87 -331 -2 -8 -427 0
108 -333 -5 -8 -428 0
127 -335 -8 -8 -429 0
130 -337 -11 -8 -430 0
134 -339 -14 -8 -431 0
138 -341 -17 -8 -432 0
91 -343 -2 -11 -433 0
112 -345 -5 -11 -434 0
131 -347 -8 -11 -435 0
148 -349 -11 -11 -436 0
151 -351 -14 -11 -437 0
155 -353 -17 -11 -438 0
95 -355 -2 -14 -439 0
116 -357 -5 -14 -440 0
135 -359 -8 -14 -441 0
152 -361 -11 -14 -442 0
167 -363 -14 -14 -443 0
170 -365 -17 -14 -444 0
99 -367 -2 -17 -445 0
120 -369 -5 -17 -446 0
139 -371 -8 -17 -447 0
156 -373 -11 -17 -448 0
171 -375 -14 -17 -449 0
184 -377 -17 -17 -450 0
415 -79 0
416 -82 0
417 -86 0
418 -90 0
419 -94 0
420 -98 0
421 -83 0
422 -104 0
423 -107 0
424 -111 0
425 -115 0
426 -119 0
427 -87 0
428 -108 0
429 -127 0
430 -130 0
431 -134 0
432 -138 0
433 -91 0
434 -112 0
435 -131 0
436 -148 0
437 -151 0
438 -155 0
439 -95 0
440 -116 0
441 -135 0
442 -152 0
443 -167 0
444 -170 0
445 -99 0
446 -120 0
447 -139 0
448 -156 0
449 -171 0
450 -184 0
415 307 0
416 309 0
417 311 0
418 313 0
419 315 0
420 317 0
421 319 0
422 321 0
423 323 0
424 325 0
425 327 0
426 329 0
427 331 0
428 333 0
429 335 0
430 337 0
431 339 0
432 341 0
433 343 0
434 345 0
435 347 0
436 349 0
437 351 0
438 353 0
439 355 0
440 357 0
441 359 0
442 361 0
443 363 0
444 365 0
445 367 0
446 369 0
447 371 0
448 373 0
449 375 0
450 377 0
415 2 0
416 5 0
417 8 0
418 11 0
419 14 0
420 17 0
421 2 0
422 5 0
423 8 0
424 11 0
425 14 0
426 17 0
427 2 0
428 5 0
429 8 0
430 11 0
431 14 0
432 17 0
433 2 0
434 5 0
435 8 0
436 11 0
437 14 0
438 17 0
439 2 0
440 5 0
441 8 0
442 11 0
443 14 0
444 17 0
445 2 0
446 5 0
447 8 0
448 11 0
449 14 0
450 17 0
415 2 0
416 2 0
417 2 0
418 2 0
419 2 0
420 2 0
421 5 0
422 5 0
423 5 0
424 5 0
425 5 0
426 5 0
427 8 0
428 8 0
429 8 0
430 8 0
431 8 0
432 8 0
433 11 0
434 11 0
435 11 0
436 11 0
437 11 0
438 11 0
439 14 0
440 14 0
441 14 0
442 14 0
443 14 0
444 14 0
445 17 0
446 17 0
447 17 0
448 17 0
449 17 0
450 17 0
-3 -81 -189 -271 -379 -415 451 0
-6 -85 -191 -272 -380 -416 452 0
-9 -89 -193 -273 -381 -417 453 0
-12 -93 -195 -274 -382 -418 454 0
-15 -97 -197 -275 -383 -419 455 0
-18 -101 -199 -276 -384 -420 456 0
-20 -103 -201 -277 -385 -421 457 0
-22 -106 -202 -278 -386 -422 458 0
-24 -110 -203 -279 -387 -423 459 0
-26 -114 -204 -280 -388 -424 460 0
-28 -118 -205 -281 -389 -425 461 0
-30 -122 -206 -282 -390 -426 462 0
-32 -124 -208 -283 -391 -427 463 0
-34 -126 -209 -284 -392 -428 464 0
-36 -129 -210 -285 -393 -429 465 0
-38 -133 -211 -286 -394 -430 466 0
-40 -137 -212 -287 -395 -431 467 0
-42 -141 -213 -288 -396 -432 468 0
-44 -143 -215 -289 -397 -433 469 0
-46 -145 -216 -290 -398 -434 470 0
-48 -147 -217 -291 -399 -435 471 0
-50 -150 -218 -292 -400 -436 472 0
-52 -154 -219 -293 -401 -437 473 0
-54 -158 -220 -294 -402 -438 474 0
-56 -160 -222 -295 -403 -439 475 0
-58 -162 -223 -296 -404 -440 476 0
-60 -164 -224 -297 -405 -441 477 0
-62 -166 -225 -298 -406 -442 478 0
-64 -169 -226 -299 -407 -443 479 0
-66 -173 -227 -300 -408 -444 480 0
-68 -175 -229 -301 -409 -445 481 0
-70 -177 -230 -302 -410 -446 482 0
-72 -179 -231 -303 -411 -447 483 0
-74 -181 -232 -304 -412 -448 484 0
-76 -183 -233 -305 -413 -449 485 0
-78 -186 -234 -306 -414 -450 486 0
-451 3 0
-452 6 0
-453 9 0
-454 12 0
-455 15 0
-456 18 0
-457 20 0
-458 22 0
-459 24 0
-460 26 0
-461 28 0
-462 30 0
-463 32 0
-464 34 0
-465 36 0
-466 38 0
-467 40 0
-468 42 0
-469 44 0
-470 46 0
-471 48 0
-472 50 0
-473 52 0
-474 54 0
-475 56 0
-476 58 0
-477 60 0
-478 62 0
-479 64 0
-480 66 0
-481 68 0
-482 70 0
-483 72 0
-484 74 0
-485 76 0
-486 78 0
-451 81 0
-452 85 0
-453 89 0
-454 93 0
-455 97 0
-456 101 0
-457 103 0
-458 106 0
-459 110 0
-460 114 0
-461 118 0
-462 122 0
-463 124 0
-464 126 0
-465 129 0
-466 133 0
-467 137 0
-468 141 0
-469 143 0
-470 145 0
-471 147 0
-472 150 0
-473 154 0
-474 158 0
-475 160 0
-476 162 0
-477 164 0
-478 166 0
-479 169 0
-480 173 0
-481 175 0
-482 177 0
-483 179 0
-484 181 0
-485 183 0
-486 186 0
-451 189 0
-452 191 0
-453 193 0
-454 195 0
-455 197 0
-456 199 0
-457 201 0
-458 202 0
-459 203 0
-460 204 0
-461 205 0
-462 206 0
-463 208 0
-464 209 0
-465 210 0
-466 211 0
-467 212 0
-468 213 0
-469 215 0
-470 216 0
-471 217 0
-472 218 0
-473 219 0
-474 220 0
-475 222 0
-476 223 0
-477 224 0
-478 225 0
-479 226 0
-480 227 0
-481 229 0
-482 230 0
-483 231 0
-484 232 0
-485 233 0
-486 234 0
-451 271 0
-452 272 0
-453 273 0
-454 274 0
-455 275 0
-456 276 0
-457 277 0
-458 278 0
-459 279 0
-460 280 0
-461 281 0
-462 282 0
-463 283 0
-464 284 0
-465 285 0
-466 286 0
-467 287 0
-468 288 0
-469 289 0
-470 290 0
-471 291 0
-472 292 0
-473 293 0
-474 294 0
-475 295 0
-476 296 0
-477 297 0
-478 298 0
-479 299 0
-480 300 0
-481 301 0
-482 302 0
-483 303 0
-484 304 0
-485 305 0
-486 306 0
-451 379 0
-452 380 0
-453 381 0
-454 382 0
-455 383 0
-456 384 0
-457 385 0
-458 386 0
-459 387 0
-460 388 0
-461 389 0
-462 390 0
-463 391 0
-464 392 0
-465 393 0
-466 394 0
-467 395 0
-468 396 0
-469 397 0
-470 398 0
-471 399 0
-472 400 0
-473 401 0
-474 402 0
-475 403 0
-476 404 0
-477 405 0
-478 406 0
-479 407 0
-480 408 0
-481 409 0
-482 410 0
-483 411 0
-484 412 0
-485 413 0
-486 414 0
-451 415 0
-452 416 0
-453 417 0
-454 418 0
-455 419 0
-456 420 0
-457 421 0
-458 422 0
-459 423 0
-460 424 0
-461 425 0
-462 426 0
-463 427 0
-464 428 0
-465 429 0
-466 430 0
-467 431 0
-468 432 0
-469 433 0
-470 434 0
-471 435 0
-472 436 0
-473 437 0
-474 438 0
-475 439 0
-476 440 0
-477 441 0
-478 442 0
-479 443 0
-480 444 0
-481 445 0
-482 446 0
-483 447 0
-484 448 0
-485 449 0
-486 450 0
451 0
452 0
453 0
454 0
455 0
456 0
457 0
458 0
459 0
460 0
461 0
462 0
463 0
464 0
465 0
466 0
467 0
468 0
469 0
470 0
471 0
472 0
473 0
474 0
475 0
476 0
477 0
478 0
479 0
480 0
481 0
482 0
483 0
484 0
485 0
486 0
-207 0
2 0
17 0
-228 0
187 0
-190 0
14 0
-192 0
-221 0
-198 0
-188 0
5 0
200 0
-194 0
-196 0
11 0
-214 0
8 0
1 0
19 4 0
-19 -4 0
-19 -33 31 0
-19 -45 43 0
-19 -57 55 0
-19 -69 67 0
31 7 0
-31 -7 0
-31 -23 19 0
-31 -47 43 0
-31 -59 55 0
-31 -71 67 0
43 10 0
-43 -10 0
-43 -25 19 0
-43 -37 31 0
-43 -61 55 0
-43 -73 67 0
55 13 0
-55 -13 0
-55 -27 19 0
-55 -39 31 0
-55 -51 43 0
-55 -75 67 0
67 16 0
-67 -16 0
-67 -29 19 0
-67 -41 31 0
-67 -53 43 0
-67 -65 55 0
21 0
4 19 0
-4 -19 0
-4 -31 33 0
-4 -43 45 0
-4 -55 57 0
-4 -67 69 0
33 23 0
-33 -23 0
-33 -7 4 0
-33 -47 45 0
-33 -59 57 0
-33 -71 69 0
45 25 0
-45 -25 0
-45 -10 4 0
-45 -37 33 0
-45 -61 57 0
-45 -73 69 0
57 27 0
-57 -27 0
-57 -13 4 0
-57 -39 33 0
-57 -51 45 0
-57 -75 69 0
69 29 0
-69 -29 0
-69 -16 4 0
-69 -41 33 0
-69 -53 45 0
-69 -65 57 0
35 0
7 31 0
-7 -31 0
-7 -19 23 0
-7 -43 47 0
-7 -55 59 0
-7 -67 71 0
23 33 0
-23 -33 0
-23 -4 7 0
-23 -45 47 0
-23 -57 59 0
-23 -69 71 0
47 37 0
-47 -37 0
-47 -10 7 0
-47 -25 23 0
-47 -61 59 0
-47 -73 71 0
59 39 0
-59 -39 0
-59 -13 7 0
-59 -27 23 0
-59 -51 47 0
-59 -75 71 0
71 41 0
-71 -41 0
-71 -16 7 0
-71 -29 23 0
-71 -53 47 0
-71 -65 59 0
49 0
10 43 0
-10 -43 0
-10 -19 25 0
-10 -31 37 0
-10 -55 61 0
-10 -67 73 0
25 45 0
-25 -45 0
-25 -4 10 0
-25 -33 37 0
-25 -57 61 0
-25 -69 73 0
37 47 0
-37 -47 0
-37 -7 10 0
-37 -23 25 0
-37 -59 61 0
-37 -71 73 0
61 51 0
-61 -51 0
-61 -13 10 0
-61 -27 25 0
-61 -39 37 0
-61 -75 73 0
73 53 0
-73 -53 0
-73 -16 10 0
-73 -29 25 0
-73 -41 37 0
-73 -65 61 0
63 0
13 55 0
-13 -55 0
-13 -19 27 0
-13 -31 39 0
-13 -43 51 0
-13 -67 75 0
27 57 0
-27 -57 0
-27 -4 13 0
-27 -33 39 0
-27 -45 51 0
-27 -69 75 0
39 59 0
-39 -59 0
-39 -7 13 0
-39 -23 27 0
-39 -47 51 0
-39 -71 75 0
51 61 0
-51 -61 0
-51 -10 13 0
-51 -25 27 0
-51 -37 39 0
-51 -73 75 0
75 65 0
-75 -65 0
-75 -16 13 0
-75 -29 27 0
-75 -41 39 0
-75 -53 51 0
77 0
16 67 0
-16 -67 0
-16 -19 29 0
-16 -31 41 0
-16 -43 53 0
-16 -55 65 0
29 69 0
-29 -69 0
-29 -4 16 0
-29 -33 41 0
-29 -45 53 0
-29 -57 65 0
41 71 0
-41 -71 0
-41 -7 16 0
-41 -23 29 0
-41 -47 53 0
-41 -59 65 0
53 73 0
-53 -73 0
-53 -10 16 0
-53 -25 29 0
-53 -37 41 0
-53 -61 65 0
65 75 0
-65 -75 0
-65 -13 16 0
-65 -27 29 0
-65 -39 41 0
-65 -51 53 0
-487 0
-488 19 0
-489 31 0
-489 23 0
-31 -23 489 0
-490 43 0
-490 25 0
-43 -25 490 0
-491 55 0
-491 27 0
-55 -27 491 0
-492 67 0
-492 29 0
-67 -29 492 0
-488 -489 0
-488 -490 0
-488 -491 0
-488 -492 0
-19 488 489 490 491 492 0
-493 31 0
-494 19 0
-494 33 0
-19 -33 494 0
-495 43 0
-495 37 0
-43 -37 495 0
-496 55 0
-496 39 0
-55 -39 496 0
-497 67 0
-497 41 0
-67 -41 497 0
-493 -494 0
-493 -495 0
-493 -496 0
-493 -497 0
-31 493 494 495 496 497 0
-498 43 0
-499 19 0
-499 45 0
-19 -45 499 0
-500 31 0
-500 47 0
-31 -47 500 0
-501 55 0
-501 51 0
-55 -51 501 0
-502 67 0
-502 53 0
-67 -53 502 0
-498 -499 0
-498 -500 0
-498 -501 0
-498 -502 0
-43 498 499 500 501 502 0
-503 55 0
-504 19 0
-504 57 0
-19 -57 504 0
-505 31 0
-505 59 0
-31 -59 505 0
-506 43 0
-506 61 0
-43 -61 506 0
-507 67 0
-507 65 0
-67 -65 507 0
-503 -504 0
-503 -505 0
-503 -506 0
-503 -507 0
-55 503 504 505 506 507 0
-508 67 0
-509 19 0
-509 69 0
-19 -69 509 0
-510 31 0
-510 71 0
-31 -71 510 0
-511 43 0
-511 73 0
-43 -73 511 0
-512 55 0
-512 75 0
-55 -75 512 0
-508 -509 0
-508 -510 0
-508 -511 0
-508 -512 0
-67 508 509 510 511 512 0
-513 4 0
-514 33 0
-514 7 0
-33 -7 514 0
-515 45 0
-515 10 0
-45 -10 515 0
-516 57 0
-516 13 0
-57 -13 516 0
-517 69 0
-517 16 0
-69 -16 517 0
-513 -514 0
-513 -515 0
-513 -516 0
-513 -517 0
-4 513 514 515 516 517 0
-518 0
-519 33 0
-520 4 0
-520 31 0
-4 -31 520 0
-521 45 0
-521 37 0
-45 -37 521 0
-522 57 0
-522 39 0
-57 -39 522 0
-523 69 0
-523 41 0
-69 -41 523 0
-519 -520 0
-519 -521 0
-519 -522 0
-519 -523 0
-33 519 520 521 522 523 0
-524 45 0
-525 4 0
-525 43 0
-4 -43 525 0
-526 33 0
-526 47 0
-33 -47 526 0
-527 57 0
-527 51 0
-57 -51 527 0
-528 69 0
-528 53 0
-69 -53 528 0
-524 -525 0
-524 -526 0
-524 -527 0
-524 -528 0
-45 524 525 526 527 528 0
-529 57 0
-530 4 0
-530 55 0
-4 -55 530 0
-531 33 0
-531 59 0
-33 -59 531 0
-532 45 0
-532 61 0
-45 -61 532 0
-533 69 0
-533 65 0
-69 -65 533 0
-529 -530 0
-529 -531 0
-529 -532 0
-529 -533 0
-57 529 530 531 532 533 0
-534 69 0
-535 4 0
-535 67 0
-4 -67 535 0
-536 33 0
-536 71 0
-33 -71 536 0
-537 45 0
-537 73 0
-45 -73 537 0
-538 57 0
-538 75 0
-57 -75 538 0
-534 -535 0
-534 -536 0
-534 -537 0
-534 -538 0
-69 534 535 536 537 538 0
-539 7 0
-540 23 0
-540 4 0
-23 -4 540 0
-541 47 0
-541 10 0
-47 -10 541 0
-542 59 0
-542 13 0
-59 -13 542 0
-543 71 0
-543 16 0
-71 -16 543 0
-539 -540 0
-539 -541 0
-539 -542 0
-539 -543 0
-7 539 540 541 542 543 0
-544 23 0
-545 7 0
-545 19 0
-7 -19 545 0
-546 47 0
-546 25 0
-47 -25 546 0
-547 59 0
-547 27 0
-59 -27 547 0
-548 71 0
-548 29 0
-71 -29 548 0
-544 -545 0
-544 -546 0
-544 -547 0
-544 -548 0
-23 544 545 546 547 548 0
-549 0
-550 47 0
-551 7 0
-551 43 0
-7 -43 551 0
-552 23 0
-552 45 0
-23 -45 552 0
-553 59 0
-553 51 0
-59 -51 553 0
-554 71 0
-554 53 0
-71 -53 554 0
-550 -551 0
-550 -552 0
-550 -553 0
-550 -554 0
-47 550 551 552 553 554 0
-555 59 0
-556 7 0
-556 55 0
-7 -55 556 0
-557 23 0
-557 57 0
-23 -57 557 0
-558 47 0
-558 61 0
-47 -61 558 0
-559 71 0
-559 65 0
-71 -65 559 0
-555 -556 0
-555 -557 0
-555 -558 0
-555 -559 0
-59 555 556 557 558 559 0
-560 71 0
-561 7 0
-561 67 0
-7 -67 561 0
-562 23 0
-562 69 0
-23 -69 562 0
-563 47 0
-563 73 0
-47 -73 563 0
-564 59 0
-564 75 0
-59 -75 564 0
-560 -561 0
-560 -562 0
-560 -563 0
-560 -564 0
-71 560 561 562 563 564 0
-565 10 0
-566 25 0
-566 4 0
-25 -4 566 0
-567 37 0
-567 7 0
-37 -7 567 0
-568 61 0
-568 13 0
-61 -13 568 0
-569 73 0
-569 16 0
-73 -16 569 0
-565 -566 0
-565 -567 0
-565 -568 0
-565 -569 0
-10 565 566 567 568 569 0
-570 25 0
-571 10 0
-571 19 0
-10 -19 571 0
-572 37 0
-572 23 0
-37 -23 572 0
-573 61 0
-573 27 0
-61 -27 573 0
-574 73 0
-574 29 0
-73 -29 574 0
-570 -571 0
-570 -572 0
-570 -573 0
-570 -574 0
-25 570 571 572 573 574 0
-575 37 0
-576 10 0
-576 31 0
-10 -31 576 0
-577 25 0
-577 33 0
-25 -33 577 0
-578 61 0
-578 39 0
-61 -39 578 0
-579 73 0
-579 41 0
-73 -41 579 0
-575 -576 0
-575 -577 0
-575 -578 0
-575 -579 0
-37 575 576 577 578 579 0
-580 0
-581 61 0
-582 10 0
-582 55 0
-10 -55 582 0
-583 25 0
-583 57 0
-25 -57 583 0
-584 37 0
-584 59 0
-37 -59 584 0
-585 73 0
-585 65 0
-73 -65 585 0
-581 -582 0
-581 -583 0
-581 -584 0
-581 -585 0
-61 581 582 583 584 585 0
-586 73 0
-587 10 0
-587 67 0
-10 -67 587 0
-588 25 0
-588 69 0
-25 -69 588 0
-589 37 0
-589 71 0
-37 -71 589 0
-590 61 0
-590 75 0
-61 -75 590 0
-586 -587 0
-586 -588 0
-586 -589 0
-586 -590 0
-73 586 587 588 589 590 0
-591 13 0
-592 27 0
-592 4 0
-27 -4 592 0
-593 39 0
-593 7 0
-39 -7 593 0
-594 51 0
-594 10 0
-51 -10 594 0
-595 75 0
-595 16 0
-75 -16 595 0
-591 -592 0
-591 -593 0
-591 -594 0
-591 -595 0
-13 591 592 593 594 595 0
-596 27 0
-597 13 0
-597 19 0
-13 -19 597 0
-598 39 0
-598 23 0
-39 -23 598 0
-599 51 0
-599 25 0
-51 -25 599 0
-600 75 0
-600 29 0
-75 -29 600 0
-596 -597 0
-596 -598 0
-596 -599 0
-596 -600 0
-27 596 597 598 599 600 0
-601 39 0
-602 13 0
-602 31 0
-13 -31 602 0
-603 27 0
-603 33 0
-27 -33 603 0
-604 51 0
-604 37 0
-51 -37 604 0
-605 75 0
-605 41 0
-75 -41 605 0
-601 -602 0
-601 -603 0
-601 -604 0
-601 -605 0
-39 601 602 603 604 605 0
-606 51 0
-607 13 0
-607 43 0
-13 -43 607 0
-608 27 0
-608 45 0
-27 -45 608 0
-609 39 0
-609 47 0
-39 -47 609 0
-610 75 0
-610 53 0
-75 -53 610 0
-606 -607 0
-606 -608 0
-606 -609 0
-606 -610 0
-51 606 607 608 609 610 0
-611 0
-612 75 0
-613 13 0
-613 67 0
-13 -67 613 0
-614 27 0
-614 69 0
-27 -69 614 0
-615 39 0
-615 71 0
-39 -71 615 0
-616 51 0
-616 73 0
-51 -73 616 0
-612 -613 0
-612 -614 0
-612 -615 0
-612 -616 0
-75 612 613 614 615 616 0
-617 16 0
-618 29 0
-618 4 0
-29 -4 618 0
-619 41 0
-619 7 0
-41 -7 619 0
-620 53 0
-620 10 0
-53 -10 620 0
-621 65 0
-621 13 0
-65 -13 621 0
-617 -618 0
-617 -619 0
-617 -620 0
-617 -621 0
-16 617 618 619 620 621 0
-622 29 0
-623 16 0
-623 19 0
-16 -19 623 0
-624 41 0
-624 23 0
-41 -23 624 0
-625 53 0
-625 25 0
-53 -25 625 0
-626 65 0
-626 27 0
-65 -27 626 0
-622 -623 0
-622 -624 0
-622 -625 0
-622 -626 0
-29 622 623 624 625 626 0
-627 41 0
-628 16 0
-628 31 0
-16 -31 628 0
-629 29 0
-629 33 0
-29 -33 629 0
-630 53 0
-630 37 0
-53 -37 630 0
-631 65 0
-631 39 0
-65 -39 631 0
-627 -628 0
-627 -629 0
-627 -630 0
-627 -631 0
-41 627 628 629 630 631 0
-632 53 0
-633 16 0
-633 43 0
-16 -43 633 0
-634 29 0
-634 45 0
-29 -45 634 0
-635 41 0
-635 47 0
-41 -47 635 0
-636 65 0
-636 51 0
-65 -51 636 0
-632 -633 0
-632 -634 0
-632 -635 0
-632 -636 0
-53 632 633 634 635 636 0
-637 65 0
-638 16 0
-638 55 0
-16 -55 638 0
-639 29 0
-639 57 0
-29 -57 639 0
-640 41 0
-640 59 0
-41 -59 640 0
-641 53 0
-641 61 0
-53 -61 641 0
-637 -638 0
-637 -639 0
-637 -640 0
-637 -641 0
-65 637 638 639 640 641 0
-642 0
-643 1 0
-643 19 0
-643 31 0
-643 43 0
-643 55 0
-643 67 0
-1 -19 -31 -43 -55 -67 643 0
-644 1 0
-644 4 0
-644 7 0
-644 10 0
-644 13 0
-644 16 0
-1 -4 -7 -10 -13 -16 644 0
-645 4 0
-645 21 0
-645 33 0
-645 45 0
-645 57 0
-645 69 0
-4 -21 -33 -45 -57 -69 645 0
-646 19 0
-646 21 0
-646 23 0
-646 25 0
-646 27 0
-646 29 0
-19 -21 -23 -25 -27 -29 646 0
-647 7 0
-647 23 0
-647 35 0
-647 47 0
-647 59 0
-647 71 0
-7 -23 -35 -47 -59 -71 647 0
-648 31 0
-648 33 0
-648 35 0
-648 37 0
-648 39 0
-648 41 0
-31 -33 -35 -37 -39 -41 648 0
-649 10 0
-649 25 0
-649 37 0
-649 49 0
-649 61 0
-649 73 0
-10 -25 -37 -49 -61 -73 649 0
-650 43 0
-650 45 0
-650 47 0
-650 49 0
-650 51 0
-650 53 0
-43 -45 -47 -49 -51 -53 650 0
-651 13 0
-651 27 0
-651 39 0
-651 51 0
-651 63 0
-651 75 0
-13 -27 -39 -51 -63 -75 651 0
-652 55 0
-652 57 0
-652 59 0
-652 61 0
-652 63 0
-652 65 0
-55 -57 -59 -61 -63 -65 652 0
-653 16 0
-653 29 0
-653 41 0
-653 53 0
-653 65 0
-653 77 0
-16 -29 -41 -53 -65 -77 653 0
-654 67 0
-654 69 0
-654 71 0
-654 73 0
-654 75 0
-654 77 0
-67 -69 -71 -73 -75 -77 654 0
-487 307 0
-644 -643 307 0
-307 487 644 0
-307 487 643 0
-488 319 0
-644 -645 319 0
-319 488 644 0
-319 488 645 0
-493 331 0
-644 -647 331 0
-331 493 644 0
-331 493 647 0
-498 343 0
-644 -649 343 0
-343 498 644 0
-343 498 649 0
-503 355 0
-644 -651 355 0
-355 503 644 0
-355 503 651 0
-508 367 0
-644 -653 367 0
-367 508 644 0
-367 508 653 0
-513 309 0
-646 -643 309 0
-309 513 646 0
-309 513 643 0
-518 321 0
-646 -645 321 0
-321 518 646 0
-321 518 645 0
-519 333 0
-646 -647 333 0
-333 519 646 0
-333 519 647 0
-524 345 0
-646 -649 345 0
-345 524 646 0
-345 524 649 0
-529 357 0
-646 -651 357 0
-357 529 646 0
-357 529 651 0
-534 369 0
-646 -653 369 0
-369 534 646 0
-369 534 653 0
-539 311 0
-648 -643 311 0
-311 539 648 0
-311 539 643 0
-544 323 0
-648 -645 323 0
-323 544 648 0
-323 544 645 0
-549 335 0
-648 -647 335 0
-335 549 648 0
-335 549 647 0
-550 347 0
-648 -649 347 0
-347 550 648 0
-347 550 649 0
-555 359 0
-648 -651 359 0
-359 555 648 0
-359 555 651 0
-560 371 0
-648 -653 371 0
-371 560 648 0
-371 560 653 0
-565 313 0
-650 -643 313 0
-313 565 650 0
-313 565 643 0
-570 325 0
-650 -645 325 0
-325 570 650 0
-325 570 645 0
-575 337 0
-650 -647 337 0
-337 575 650 0
-337 575 647 0
-580 349 0
-650 -649 349 0
-349 580 650 0
-349 580 649 0
-581 361 0
-650 -651 361 0
-361 581 650 0
-361 581 651 0
-586 373 0
-650 -653 373 0
-373 586 650 0
-373 586 653 0
-591 315 0
-652 -643 315 0
-315 591 652 0
-315 591 643 0
-596 327 0
-652 -645 327 0
-327 596 652 0
-327 596 645 0
-601 339 0
-652 -647 339 0
-339 601 652 0
-339 601 647 0
-606 351 0
-652 -649 351 0
-351 606 652 0
-351 606 649 0
-611 363 0
-652 -651 363 0
-363 611 652 0
-363 611 651 0
-612 375 0
-652 -653 375 0
-375 612 652 0
-375 612 653 0
-617 317 0
-654 -643 317 0
-317 617 654 0
-317 617 643 0
-622 329 0
-654 -645 329 0
-329 622 654 0
-329 622 645 0
-627 341 0
-654 -647 341 0
-341 627 654 0
-341 627 647 0
-632 353 0
-654 -649 353 0
-353 632 654 0
-353 632 649 0
-637 365 0
-654 -651 365 0
-365 637 654 0
-365 637 651 0
-642 377 0
-654 -653 377 0
-377 642 654 0
-377 642 653 0
