p cnf 306 1140
1 2 -2 -3 0
4 2 -5 -6 0
7 2 -8 -9 0
10 2 -11 -12 0
13 2 -14 -15 0
16 2 -17 -18 0
19 5 -2 -20 0
21 5 -5 -22 0
23 5 -8 -24 0
25 5 -11 -26 0
27 5 -14 -28 0
29 5 -17 -30 0
31 8 -2 -32 0
33 8 -5 -34 0
35 8 -8 -36 0
37 8 -11 -38 0
39 8 -14 -40 0
41 8 -17 -42 0
43 11 -2 -44 0
45 11 -5 -46 0
47 11 -8 -48 0
49 11 -11 -50 0
51 11 -14 -52 0
53 11 -17 -54 0
55 14 -2 -56 0
57 14 -5 -58 0
59 14 -8 -60 0
61 14 -11 -62 0
63 14 -14 -64 0
65 14 -17 -66 0
67 17 -2 -68 0
69 17 -5 -70 0
71 17 -8 -72 0
73 17 -11 -74 0
75 17 -14 -76 0
77 17 -17 -78 0
3 -1 0
6 -4 0
9 -7 0
12 -10 0
15 -13 0
18 -16 0
20 -19 0
22 -21 0
24 -23 0
26 -25 0
28 -27 0
30 -29 0
32 -31 0
34 -33 0
36 -35 0
38 -37 0
40 -39 0
42 -41 0
44 -43 0
46 -45 0
48 -47 0
50 -49 0
52 -51 0
54 -53 0
56 -55 0
58 -57 0
60 -59 0
62 -61 0
64 -63 0
66 -65 0
68 -67 0
70 -69 0
72 -71 0
74 -73 0
76 -75 0
78 -77 0
3 -2 0
6 -2 0
9 -2 0
12 -2 0
15 -2 0
18 -2 0
20 -5 0
22 -5 0
24 -5 0
26 -5 0
28 -5 0
30 -5 0
32 -8 0
34 -8 0
36 -8 0
38 -8 0
40 -8 0
42 -8 0
44 -11 0
46 -11 0
48 -11 0
50 -11 0
52 -11 0
54 -11 0
56 -14 0
58 -14 0
60 -14 0
62 -14 0
64 -14 0
66 -14 0
68 -17 0
70 -17 0
72 -17 0
74 -17 0
76 -17 0
78 -17 0
3 2 0
6 5 0
9 8 0
12 11 0
15 14 0
18 17 0
20 2 0
22 5 0
24 8 0
26 11 0
28 14 0
30 17 0
32 2 0
34 5 0
36 8 0
38 11 0
40 14 0
42 17 0
44 2 0
46 5 0
48 8 0
50 11 0
52 14 0
54 17 0
56 2 0
58 5 0
60 8 0
62 11 0
64 14 0
66 17 0
68 2 0
70 5 0
72 8 0
74 11 0
76 14 0
78 17 0
79 -80 -81 -82 0
83 -84 -81 -85 0
86 -87 -81 -88 0
89 -90 -81 -91 0
92 -93 -81 -94 0
95 -96 -81 -97 0
98 -80 -99 -100 0
101 -84 -99 -102 0
103 -87 -99 -104 0
105 -90 -99 -106 0
107 -93 -99 -108 0
109 -96 -99 -110 0
111 -80 -112 -113 0
114 -84 -112 -115 0
116 -87 -112 -117 0
118 -90 -112 -119 0
120 -93 -112 -121 0
122 -96 -112 -123 0
124 -80 -125 -126 0
127 -84 -125 -128 0
129 -87 -125 -130 0
131 -90 -125 -132 0
133 -93 -125 -134 0
135 -96 -125 -136 0
137 -80 -138 -139 0
140 -84 -138 -141 0
142 -87 -138 -143 0
144 -90 -138 -145 0
146 -93 -138 -147 0
148 -96 -138 -149 0
150 -80 -151 -152 0
153 -84 -151 -154 0
155 -87 -151 -156 0
157 -90 -151 -158 0
159 -93 -151 -160 0
161 -96 -151 -162 0
82 -79 0
85 -83 0
88 -86 0
91 -89 0
94 -92 0
97 -95 0
100 -98 0
102 -101 0
104 -103 0
106 -105 0
108 -107 0
110 -109 0
113 -111 0
115 -114 0
117 -116 0
119 -118 0
121 -120 0
123 -122 0
126 -124 0
128 -127 0
130 -129 0
132 -131 0
134 -133 0
136 -135 0
139 -137 0
141 -140 0
143 -142 0
145 -144 0
147 -146 0
149 -148 0
152 -150 0
154 -153 0
156 -155 0
158 -157 0
160 -159 0
162 -161 0
82 80 0
85 84 0
88 87 0
91 90 0
94 93 0
97 96 0
100 80 0
102 84 0
104 87 0
106 90 0
108 93 0
110 96 0
113 80 0
115 84 0
117 87 0
119 90 0
121 93 0
123 96 0
126 80 0
128 84 0
130 87 0
132 90 0
134 93 0
136 96 0
139 80 0
141 84 0
143 87 0
145 90 0
147 93 0
149 96 0
152 80 0
154 84 0
156 87 0
158 90 0
160 93 0
162 96 0
82 81 0
85 81 0
88 81 0
91 81 0
94 81 0
97 81 0
100 99 0
102 99 0
104 99 0
106 99 0
108 99 0
110 99 0
113 112 0
115 112 0
117 112 0
119 112 0
121 112 0
123 112 0
126 125 0
128 125 0
130 125 0
132 125 0
134 125 0
136 125 0
139 138 0
141 138 0
143 138 0
145 138 0
147 138 0
149 138 0
152 151 0
154 151 0
156 151 0
158 151 0
160 151 0
162 151 0
-1 -2 -2 163 0
-4 -5 -2 164 0
-7 -8 -2 165 0
-10 -11 -2 166 0
-13 -14 -2 167 0
-16 -17 -2 168 0
-19 -2 -5 169 0
-21 -5 -5 170 0
-23 -8 -5 171 0
-25 -11 -5 172 0
-27 -14 -5 173 0
-29 -17 -5 174 0
-31 -2 -8 175 0
-33 -5 -8 176 0
-35 -8 -8 177 0
-37 -11 -8 178 0
-39 -14 -8 179 0
-41 -17 -8 180 0
-43 -2 -11 181 0
-45 -5 -11 182 0
-47 -8 -11 183 0
-49 -11 -11 184 0
-51 -14 -11 185 0
-53 -17 -11 186 0
-55 -2 -14 187 0
-57 -5 -14 188 0
-59 -8 -14 189 0
-61 -11 -14 190 0
-63 -14 -14 191 0
-65 -17 -14 192 0
-67 -2 -17 193 0
-69 -5 -17 194 0
-71 -8 -17 195 0
-73 -11 -17 196 0
-75 -14 -17 197 0
-77 -17 -17 198 0
-163 1 0
-164 4 0
-165 7 0
-166 10 0
-167 13 0
-168 16 0
-169 19 0
-170 21 0
-171 23 0
-172 25 0
-173 27 0
-174 29 0
-175 31 0
-176 33 0
-177 35 0
-178 37 0
-179 39 0
-180 41 0
-181 43 0
-182 45 0
-183 47 0
-184 49 0
-185 51 0
-186 53 0
-187 55 0
-188 57 0
-189 59 0
-190 61 0
-191 63 0
-192 65 0
-193 67 0
-194 69 0
-195 71 0
-196 73 0
-197 75 0
-198 77 0
-163 2 0
-164 5 0
-165 8 0
-166 11 0
-167 14 0
-168 17 0
-169 2 0
-170 5 0
-171 8 0
-172 11 0
-173 14 0
-174 17 0
-175 2 0
-176 5 0
-177 8 0
-178 11 0
-179 14 0
-180 17 0
-181 2 0
-182 5 0
-183 8 0
-184 11 0
-185 14 0
-186 17 0
-187 2 0
-188 5 0
-189 8 0
-190 11 0
-191 14 0
-192 17 0
-193 2 0
-194 5 0
-195 8 0
-196 11 0
-197 14 0
-198 17 0
-163 2 0
-164 2 0
-165 2 0
-166 2 0
-167 2 0
-168 2 0
-169 5 0
-170 5 0
-171 5 0
-172 5 0
-173 5 0
-174 5 0
-175 8 0
-176 8 0
-177 8 0
-178 8 0
-179 8 0
-180 8 0
-181 11 0
-182 11 0
-183 11 0
-184 11 0
-185 11 0
-186 11 0
-187 14 0
-188 14 0
-189 14 0
-190 14 0
-191 14 0
-192 14 0
-193 17 0
-194 17 0
-195 17 0
-196 17 0
-197 17 0
-198 17 0
-79 163 -199 0
-83 164 -200 0
-86 165 -201 0
-89 166 -202 0
-92 167 -203 0
-95 168 -204 0
-98 169 -205 0
-101 170 -206 0
-103 171 -207 0
-105 172 -208 0
-107 173 -209 0
-109 174 -210 0
-111 175 -211 0
-114 176 -212 0
-116 177 -213 0
-118 178 -214 0
-120 179 -215 0
-122 180 -216 0
-124 181 -217 0
-127 182 -218 0
-129 183 -219 0
-131 184 -220 0
-133 185 -221 0
-135 186 -222 0
-137 187 -223 0
-140 188 -224 0
-142 189 -225 0
-144 190 -226 0
-146 191 -227 0
-148 192 -228 0
-150 193 -229 0
-153 194 -230 0
-155 195 -231 0
-157 196 -232 0
-159 197 -233 0
-161 198 -234 0
199 79 0
200 83 0
201 86 0
202 89 0
203 92 0
204 95 0
205 98 0
206 101 0
207 103 0
208 105 0
209 107 0
210 109 0
211 111 0
212 114 0
213 116 0
214 118 0
215 120 0
216 122 0
217 124 0
218 127 0
219 129 0
220 131 0
221 133 0
222 135 0
223 137 0
224 140 0
225 142 0
226 144 0
227 146 0
228 148 0
229 150 0
230 153 0
231 155 0
232 157 0
233 159 0
234 161 0
199 -163 0
200 -164 0
201 -165 0
202 -166 0
203 -167 0
204 -168 0
205 -169 0
206 -170 0
207 -171 0
208 -172 0
209 -173 0
210 -174 0
211 -175 0
212 -176 0
213 -177 0
214 -178 0
215 -179 0
216 -180 0
217 -181 0
218 -182 0
219 -183 0
220 -184 0
221 -185 0
222 -186 0
223 -187 0
224 -188 0
225 -189 0
226 -190 0
227 -191 0
228 -192 0
229 -193 0
230 -194 0
231 -195 0
232 -196 0
233 -197 0
234 -198 0
79 -1 -2 -2 -235 0
83 -4 -5 -2 -236 0
86 -7 -8 -2 -237 0
89 -10 -11 -2 -238 0
92 -13 -14 -2 -239 0
95 -16 -17 -2 -240 0
98 -19 -2 -5 -241 0
101 -21 -5 -5 -242 0
103 -23 -8 -5 -243 0
105 -25 -11 -5 -244 0
107 -27 -14 -5 -245 0
109 -29 -17 -5 -246 0
111 -31 -2 -8 -247 0
114 -33 -5 -8 -248 0
116 -35 -8 -8 -249 0
118 -37 -11 -8 -250 0
120 -39 -14 -8 -251 0
122 -41 -17 -8 -252 0
124 -43 -2 -11 -253 0
127 -45 -5 -11 -254 0
129 -47 -8 -11 -255 0
131 -49 -11 -11 -256 0
133 -51 -14 -11 -257 0
135 -53 -17 -11 -258 0
137 -55 -2 -14 -259 0
140 -57 -5 -14 -260 0
142 -59 -8 -14 -261 0
144 -61 -11 -14 -262 0
146 -63 -14 -14 -263 0
148 -65 -17 -14 -264 0
150 -67 -2 -17 -265 0
153 -69 -5 -17 -266 0
155 -71 -8 -17 -267 0
157 -73 -11 -17 -268 0
159 -75 -14 -17 -269 0
161 -77 -17 -17 -270 0
235 -79 0
236 -83 0
237 -86 0
238 -89 0
239 -92 0
240 -95 0
241 -98 0
242 -101 0
243 -103 0
244 -105 0
245 -107 0
246 -109 0
247 -111 0
248 -114 0
249 -116 0
250 -118 0
251 -120 0
252 -122 0
253 -124 0
254 -127 0
255 -129 0
256 -131 0
257 -133 0
258 -135 0
259 -137 0
260 -140 0
261 -142 0
262 -144 0
263 -146 0
264 -148 0
265 -150 0
266 -153 0
267 -155 0
268 -157 0
269 -159 0
270 -161 0
235 1 0
236 4 0
237 7 0
238 10 0
239 13 0
240 16 0
241 19 0
242 21 0
243 23 0
244 25 0
245 27 0
246 29 0
247 31 0
248 33 0
249 35 0
250 37 0
251 39 0
252 41 0
253 43 0
254 45 0
255 47 0
256 49 0
257 51 0
258 53 0
259 55 0
260 57 0
261 59 0
262 61 0
263 63 0
264 65 0
265 67 0
266 69 0
267 71 0
268 73 0
269 75 0
270 77 0
235 2 0
236 5 0
237 8 0
238 11 0
239 14 0
240 17 0
241 2 0
242 5 0
243 8 0
244 11 0
245 14 0
246 17 0
247 2 0
248 5 0
249 8 0
250 11 0
251 14 0
252 17 0
253 2 0
254 5 0
255 8 0
256 11 0
257 14 0
258 17 0
259 2 0
260 5 0
261 8 0
262 11 0
263 14 0
264 17 0
265 2 0
266 5 0
267 8 0
268 11 0
269 14 0
270 17 0
235 2 0
236 2 0
237 2 0
238 2 0
239 2 0
240 2 0
241 5 0
242 5 0
243 5 0
244 5 0
245 5 0
246 5 0
247 8 0
248 8 0
249 8 0
250 8 0
251 8 0
252 8 0
253 11 0
254 11 0
255 11 0
256 11 0
257 11 0
258 11 0
259 14 0
260 14 0
261 14 0
262 14 0
263 14 0
264 14 0
265 17 0
266 17 0
267 17 0
268 17 0
269 17 0
270 17 0
-3 -82 -199 -235 271 0
-6 -85 -200 -236 272 0
-9 -88 -201 -237 273 0
-12 -91 -202 -238 274 0
-15 -94 -203 -239 275 0
-18 -97 -204 -240 276 0
-20 -100 -205 -241 277 0
-22 -102 -206 -242 278 0
-24 -104 -207 -243 279 0
-26 -106 -208 -244 280 0
-28 -108 -209 -245 281 0
-30 -110 -210 -246 282 0
-32 -113 -211 -247 283 0
-34 -115 -212 -248 284 0
-36 -117 -213 -249 285 0
-38 -119 -214 -250 286 0
-40 -121 -215 -251 287 0
-42 -123 -216 -252 288 0
-44 -126 -217 -253 289 0
-46 -128 -218 -254 290 0
-48 -130 -219 -255 291 0
-50 -132 -220 -256 292 0
-52 -134 -221 -257 293 0
-54 -136 -222 -258 294 0
-56 -139 -223 -259 295 0
-58 -141 -224 -260 296 0
-60 -143 -225 -261 297 0
-62 -145 -226 -262 298 0
-64 -147 -227 -263 299 0
-66 -149 -228 -264 300 0
-68 -152 -229 -265 301 0
-70 -154 -230 -266 302 0
-72 -156 -231 -267 303 0
-74 -158 -232 -268 304 0
-76 -160 -233 -269 305 0
-78 -162 -234 -270 306 0
-271 3 0
-272 6 0
-273 9 0
-274 12 0
-275 15 0
-276 18 0
-277 20 0
-278 22 0
-279 24 0
-280 26 0
-281 28 0
-282 30 0
-283 32 0
-284 34 0
-285 36 0
-286 38 0
-287 40 0
-288 42 0
-289 44 0
-290 46 0
-291 48 0
-292 50 0
-293 52 0
-294 54 0
-295 56 0
-296 58 0
-297 60 0
-298 62 0
-299 64 0
-300 66 0
-301 68 0
-302 70 0
-303 72 0
-304 74 0
-305 76 0
-306 78 0
-271 82 0
-272 85 0
-273 88 0
-274 91 0
-275 94 0
-276 97 0
-277 100 0
-278 102 0
-279 104 0
-280 106 0
-281 108 0
-282 110 0
-283 113 0
-284 115 0
-285 117 0
-286 119 0
-287 121 0
-288 123 0
-289 126 0
-290 128 0
-291 130 0
-292 132 0
-293 134 0
-294 136 0
-295 139 0
-296 141 0
-297 143 0
-298 145 0
-299 147 0
-300 149 0
-301 152 0
-302 154 0
-303 156 0
-304 158 0
-305 160 0
-306 162 0
-271 199 0
-272 200 0
-273 201 0
-274 202 0
-275 203 0
-276 204 0
-277 205 0
-278 206 0
-279 207 0
-280 208 0
-281 209 0
-282 210 0
-283 211 0
-284 212 0
-285 213 0
-286 214 0
-287 215 0
-288 216 0
-289 217 0
-290 218 0
-291 219 0
-292 220 0
-293 221 0
-294 222 0
-295 223 0
-296 224 0
-297 225 0
-298 226 0
-299 227 0
-300 228 0
-301 229 0
-302 230 0
-303 231 0
-304 232 0
-305 233 0
-306 234 0
-271 235 0
-272 236 0
-273 237 0
-274 238 0
-275 239 0
-276 240 0
-277 241 0
-278 242 0
-279 243 0
-280 244 0
-281 245 0
-282 246 0
-283 247 0
-284 248 0
-285 249 0
-286 250 0
-287 251 0
-288 252 0
-289 253 0
-290 254 0
-291 255 0
-292 256 0
-293 257 0
-294 258 0
-295 259 0
-296 260 0
-297 261 0
-298 262 0
-299 263 0
-300 264 0
-301 265 0
-302 266 0
-303 267 0
-304 268 0
-305 269 0
-306 270 0
271 0
272 0
273 0
274 0
275 0
276 0
277 0
278 0
279 0
280 0
281 0
282 0
283 0
284 0
285 0
286 0
287 0
288 0
289 0
290 0
291 0
292 0
293 0
294 0
295 0
296 0
297 0
298 0
299 0
300 0
301 0
302 0
303 0
304 0
305 0
306 0
5 0
-87 0
-81 0
-112 0
-96 0
2 0
8 0
-93 0
-151 0
80 0
17 0
-138 0
11 0
99 0
-90 0
-84 0
-125 0
14 0
1 0
19 4 0
-19 -4 0
-19 -33 31 0
-19 -45 43 0
-19 -57 55 0
-19 -69 67 0
31 7 0
-31 -7 0
-31 -23 19 0
-31 -47 43 0
-31 -59 55 0
-31 -71 67 0
43 10 0
-43 -10 0
-43 -25 19 0
-43 -37 31 0
-43 -61 55 0
-43 -73 67 0
55 13 0
-55 -13 0
-55 -27 19 0
-55 -39 31 0
-55 -51 43 0
-55 -75 67 0
67 16 0
-67 -16 0
-67 -29 19 0
-67 -41 31 0
-67 -53 43 0
-67 -65 55 0
21 0
4 19 0
-4 -19 0
-4 -31 33 0
-4 -43 45 0
-4 -55 57 0
-4 -67 69 0
33 23 0
-33 -23 0
-33 -7 4 0
-33 -47 45 0
-33 -59 57 0
-33 -71 69 0
45 25 0
-45 -25 0
-45 -10 4 0
-45 -37 33 0
-45 -61 57 0
-45 -73 69 0
57 27 0
-57 -27 0
-57 -13 4 0
-57 -39 33 0
-57 -51 45 0
-57 -75 69 0
69 29 0
-69 -29 0
-69 -16 4 0
-69 -41 33 0
-69 -53 45 0
-69 -65 57 0
35 0
7 31 0
-7 -31 0
-7 -19 23 0
-7 -43 47 0
-7 -55 59 0
-7 -67 71 0
23 33 0
-23 -33 0
-23 -4 7 0
-23 -45 47 0
-23 -57 59 0
-23 -69 71 0
47 37 0
-47 -37 0
-47 -10 7 0
-47 -25 23 0
-47 -61 59 0
-47 -73 71 0
59 39 0
-59 -39 0
-59 -13 7 0
-59 -27 23 0
-59 -51 47 0
-59 -75 71 0
71 41 0
-71 -41 0
-71 -16 7 0
-71 -29 23 0
-71 -53 47 0
-71 -65 59 0
49 0
10 43 0
-10 -43 0
-10 -19 25 0
-10 -31 37 0
-10 -55 61 0
-10 -67 73 0
25 45 0
-25 -45 0
-25 -4 10 0
-25 -33 37 0
-25 -57 61 0
-25 -69 73 0
37 47 0
-37 -47 0
-37 -7 10 0
-37 -23 25 0
-37 -59 61 0
-37 -71 73 0
61 51 0
-61 -51 0
-61 -13 10 0
-61 -27 25 0
-61 -39 37 0
-61 -75 73 0
73 53 0
-73 -53 0
-73 -16 10 0
-73 -29 25 0
-73 -41 37 0
-73 -65 61 0
63 0
13 55 0
-13 -55 0
-13 -19 27 0
-13 -31 39 0
-13 -43 51 0
-13 -67 75 0
27 57 0
-27 -57 0
-27 -4 13 0
-27 -33 39 0
-27 -45 51 0
-27 -69 75 0
39 59 0
-39 -59 0
-39 -7 13 0
-39 -23 27 0
-39 -47 51 0
-39 -71 75 0
51 61 0
-51 -61 0
-51 -10 13 0
-51 -25 27 0
-51 -37 39 0
-51 -73 75 0
75 65 0
-75 -65 0
-75 -16 13 0
-75 -29 27 0
-75 -41 39 0
-75 -53 51 0
77 0
16 67 0
-16 -67 0
-16 -19 29 0
-16 -31 41 0
-16 -43 53 0
-16 -55 65 0
29 69 0
-29 -69 0
-29 -4 16 0
-29 -33 41 0
-29 -45 53 0
-29 -57 65 0
41 71 0
-41 -71 0
-41 -7 16 0
-41 -23 29 0
-41 -47 53 0
-41 -59 65 0
53 73 0
-53 -73 0
-53 -10 16 0
-53 -25 29 0
-53 -37 41 0
-53 -61 65 0
65 75 0
-65 -75 0
-65 -13 16 0
-65 -27 29 0
-65 -39 41 0
-65 -51 53 0
