p cnf 928 3968
-1 -2 0
-3 -4 0
-5 -6 0
-7 -8 0
-9 -10 0
-11 -12 0
-13 -14 0
-15 -16 0
-17 -18 0
-19 -20 0
-21 -22 0
-23 -24 0
-25 -26 0
-27 -28 0
-29 -30 0
-31 -32 0
-33 -34 0
-35 -36 0
-37 -38 0
-39 -40 0
-41 -42 0
-43 -44 0
-45 -46 0
-47 -48 0
-49 -50 0
-51 -52 0
-53 -54 0
-55 -56 0
-57 -58 0
-59 -60 0
-61 -62 0
-63 -64 0
-65 -66 0
-67 -68 0
-69 -70 0
-71 -72 0
-73 -74 0
-75 -76 0
-77 -78 0
-79 -80 0
-81 -82 0
-83 -84 0
-85 -86 0
-87 -88 0
-89 -90 0
-91 -92 0
-93 -94 0
-95 -96 0
-97 -98 0
-99 -100 0
-101 -102 0
-103 -104 0
-105 -106 0
-107 -108 0
-109 -110 0
-111 -112 0
-113 -114 0
-115 -116 0
-117 -118 0
-119 -120 0
-121 -122 0
-123 -124 0
-125 -126 0
-127 -128 0
-1 -2 0
-17 -4 0
-33 -6 0
-49 -8 0
-65 -10 0
-81 -12 0
-97 -14 0
-113 -16 0
-3 -18 0
-19 -20 0
-35 -22 0
-51 -24 0
-67 -26 0
-83 -28 0
-99 -30 0
-115 -32 0
-5 -34 0
-21 -36 0
-37 -38 0
-53 -40 0
-69 -42 0
-85 -44 0
-101 -46 0
-117 -48 0
-7 -50 0
-23 -52 0
-39 -54 0
-55 -56 0
-71 -58 0
-87 -60 0
-103 -62 0
-119 -64 0
-9 -66 0
-25 -68 0
-41 -70 0
-57 -72 0
-73 -74 0
-89 -76 0
-105 -78 0
-121 -80 0
-11 -82 0
-27 -84 0
-43 -86 0
-59 -88 0
-75 -90 0
-91 -92 0
-107 -94 0
-123 -96 0
-13 -98 0
-29 -100 0
-45 -102 0
-61 -104 0
-77 -106 0
-93 -108 0
-109 -110 0
-125 -112 0
-15 -114 0
-31 -116 0
-47 -118 0
-63 -120 0
-79 -122 0
-95 -124 0
-111 -126 0
-127 -128 0
129 0
130 131 0
-130 -131 0
-130 -132 133 0
-130 -134 135 0
-130 -136 137 0
-130 -138 139 0
-130 -140 141 0
-130 -142 143 0
133 144 0
-133 -144 0
-133 -145 130 0
-133 -146 135 0
-133 -147 137 0
-133 -148 139 0
-133 -149 141 0
-133 -150 143 0
135 151 0
-135 -151 0
-135 -152 130 0
-135 -153 133 0
-135 -154 137 0
-135 -155 139 0
-135 -156 141 0
-135 -157 143 0
137 158 0
-137 -158 0
-137 -159 130 0
-137 -160 133 0
-137 -161 135 0
-137 -162 139 0
-137 -163 141 0
-137 -164 143 0
139 165 0
-139 -165 0
-139 -166 130 0
-139 -167 133 0
-139 -168 135 0
-139 -169 137 0
-139 -170 141 0
-139 -171 143 0
141 172 0
-141 -172 0
-141 -173 130 0
-141 -174 133 0
-141 -175 135 0
-141 -176 137 0
-141 -177 139 0
-141 -178 143 0
143 179 0
-143 -179 0
-143 -180 130 0
-143 -181 133 0
-143 -182 135 0
-143 -183 137 0
-143 -184 139 0
-143 -185 141 0
186 0
131 130 0
-131 -130 0
-131 -133 132 0
-131 -135 134 0
-131 -137 136 0
-131 -139 138 0
-131 -141 140 0
-131 -143 142 0
132 145 0
-132 -145 0
-132 -144 131 0
-132 -146 134 0
-132 -147 136 0
-132 -148 138 0
-132 -149 140 0
-132 -150 142 0
134 152 0
-134 -152 0
-134 -151 131 0
-134 -153 132 0
-134 -154 136 0
-134 -155 138 0
-134 -156 140 0
-134 -157 142 0
136 159 0
-136 -159 0
-136 -158 131 0
-136 -160 132 0
-136 -161 134 0
-136 -162 138 0
-136 -163 140 0
-136 -164 142 0
138 166 0
-138 -166 0
-138 -165 131 0
-138 -167 132 0
-138 -168 134 0
-138 -169 136 0
-138 -170 140 0
-138 -171 142 0
140 173 0
-140 -173 0
-140 -172 131 0
-140 -174 132 0
-140 -175 134 0
-140 -176 136 0
-140 -177 138 0
-140 -178 142 0
142 180 0
-142 -180 0
-142 -179 131 0
-142 -181 132 0
-142 -182 134 0
-142 -183 136 0
-142 -184 138 0
-142 -185 140 0
187 0
144 133 0
-144 -133 0
-144 -130 145 0
-144 -135 146 0
-144 -137 147 0
-144 -139 148 0
-144 -141 149 0
-144 -143 150 0
145 132 0
-145 -132 0
-145 -131 144 0
-145 -134 146 0
-145 -136 147 0
-145 -138 148 0
-145 -140 149 0
-145 -142 150 0
146 153 0
-146 -153 0
-146 -151 144 0
-146 -152 145 0
-146 -154 147 0
-146 -155 148 0
-146 -156 149 0
-146 -157 150 0
147 160 0
-147 -160 0
-147 -158 144 0
-147 -159 145 0
-147 -161 146 0
-147 -162 148 0
-147 -163 149 0
-147 -164 150 0
148 167 0
-148 -167 0
-148 -165 144 0
-148 -166 145 0
-148 -168 146 0
-148 -169 147 0
-148 -170 149 0
-148 -171 150 0
149 174 0
-149 -174 0
-149 -172 144 0
-149 -173 145 0
-149 -175 146 0
-149 -176 147 0
-149 -177 148 0
-149 -178 150 0
150 181 0
-150 -181 0
-150 -179 144 0
-150 -180 145 0
-150 -182 146 0
-150 -183 147 0
-150 -184 148 0
-150 -185 149 0
188 0
151 135 0
-151 -135 0
-151 -130 152 0
-151 -133 153 0
-151 -137 154 0
-151 -139 155 0
-151 -141 156 0
-151 -143 157 0
152 134 0
-152 -134 0
-152 -131 151 0
-152 -132 153 0
-152 -136 154 0
-152 -138 155 0
-152 -140 156 0
-152 -142 157 0
153 146 0
-153 -146 0
-153 -144 151 0
-153 -145 152 0
-153 -147 154 0
-153 -148 155 0
-153 -149 156 0
-153 -150 157 0
154 161 0
-154 -161 0
-154 -158 151 0
-154 -159 152 0
-154 -160 153 0
-154 -162 155 0
-154 -163 156 0
-154 -164 157 0
155 168 0
-155 -168 0
-155 -165 151 0
-155 -166 152 0
-155 -167 153 0
-155 -169 154 0
-155 -170 156 0
-155 -171 157 0
156 175 0
-156 -175 0
-156 -172 151 0
-156 -173 152 0
-156 -174 153 0
-156 -176 154 0
-156 -177 155 0
-156 -178 157 0
157 182 0
-157 -182 0
-157 -179 151 0
-157 -180 152 0
-157 -181 153 0
-157 -183 154 0
-157 -184 155 0
-157 -185 156 0
189 0
158 137 0
-158 -137 0
-158 -130 159 0
-158 -133 160 0
-158 -135 161 0
-158 -139 162 0
-158 -141 163 0
-158 -143 164 0
159 136 0
-159 -136 0
-159 -131 158 0
-159 -132 160 0
-159 -134 161 0
-159 -138 162 0
-159 -140 163 0
-159 -142 164 0
160 147 0
-160 -147 0
-160 -144 158 0
-160 -145 159 0
-160 -146 161 0
-160 -148 162 0
-160 -149 163 0
-160 -150 164 0
161 154 0
-161 -154 0
-161 -151 158 0
-161 -152 159 0
-161 -153 160 0
-161 -155 162 0
-161 -156 163 0
-161 -157 164 0
162 169 0
-162 -169 0
-162 -165 158 0
-162 -166 159 0
-162 -167 160 0
-162 -168 161 0
-162 -170 163 0
-162 -171 164 0
163 176 0
-163 -176 0
-163 -172 158 0
-163 -173 159 0
-163 -174 160 0
-163 -175 161 0
-163 -177 162 0
-163 -178 164 0
164 183 0
-164 -183 0
-164 -179 158 0
-164 -180 159 0
-164 -181 160 0
-164 -182 161 0
-164 -184 162 0
-164 -185 163 0
190 0
165 139 0
-165 -139 0
-165 -130 166 0
-165 -133 167 0
-165 -135 168 0
-165 -137 169 0
-165 -141 170 0
-165 -143 171 0
166 138 0
-166 -138 0
-166 -131 165 0
-166 -132 167 0
-166 -134 168 0
-166 -136 169 0
-166 -140 170 0
-166 -142 171 0
167 148 0
-167 -148 0
-167 -144 165 0
-167 -145 166 0
-167 -146 168 0
-167 -147 169 0
-167 -149 170 0
-167 -150 171 0
168 155 0
-168 -155 0
-168 -151 165 0
-168 -152 166 0
-168 -153 167 0
-168 -154 169 0
-168 -156 170 0
-168 -157 171 0
169 162 0
-169 -162 0
-169 -158 165 0
-169 -159 166 0
-169 -160 167 0
-169 -161 168 0
-169 -163 170 0
-169 -164 171 0
170 177 0
-170 -177 0
-170 -172 165 0
-170 -173 166 0
-170 -174 167 0
-170 -175 168 0
-170 -176 169 0
-170 -178 171 0
171 184 0
-171 -184 0
-171 -179 165 0
-171 -180 166 0
-171 -181 167 0
-171 -182 168 0
-171 -183 169 0
-171 -185 170 0
191 0
172 141 0
-172 -141 0
-172 -130 173 0
-172 -133 174 0
-172 -135 175 0
-172 -137 176 0
-172 -139 177 0
-172 -143 178 0
173 140 0
-173 -140 0
-173 -131 172 0
-173 -132 174 0
-173 -134 175 0
-173 -136 176 0
-173 -138 177 0
-173 -142 178 0
174 149 0
-174 -149 0
-174 -144 172 0
-174 -145 173 0
-174 -146 175 0
-174 -147 176 0
-174 -148 177 0
-174 -150 178 0
175 156 0
-175 -156 0
-175 -151 172 0
-175 -152 173 0
-175 -153 174 0
-175 -154 176 0
-175 -155 177 0
-175 -157 178 0
176 163 0
-176 -163 0
-176 -158 172 0
-176 -159 173 0
-176 -160 174 0
-176 -161 175 0
-176 -162 177 0
-176 -164 178 0
177 170 0
-177 -170 0
-177 -165 172 0
-177 -166 173 0
-177 -167 174 0
-177 -168 175 0
-177 -169 176 0
-177 -171 178 0
178 185 0
-178 -185 0
-178 -179 172 0
-178 -180 173 0
-178 -181 174 0
-178 -182 175 0
-178 -183 176 0
-178 -184 177 0
192 0
179 143 0
-179 -143 0
-179 -130 180 0
-179 -133 181 0
-179 -135 182 0
-179 -137 183 0
-179 -139 184 0
-179 -141 185 0
180 142 0
-180 -142 0
-180 -131 179 0
-180 -132 181 0
-180 -134 182 0
-180 -136 183 0
-180 -138 184 0
-180 -140 185 0
181 150 0
-181 -150 0
-181 -144 179 0
-181 -145 180 0
-181 -146 182 0
-181 -147 183 0
-181 -148 184 0
-181 -149 185 0
182 157 0
-182 -157 0
-182 -151 179 0
-182 -152 180 0
-182 -153 181 0
-182 -154 183 0
-182 -155 184 0
-182 -156 185 0
183 164 0
-183 -164 0
-183 -158 179 0
-183 -159 180 0
-183 -160 181 0
-183 -161 182 0
-183 -162 184 0
-183 -163 185 0
184 171 0
-184 -171 0
-184 -165 179 0
-184 -166 180 0
-184 -167 181 0
-184 -168 182 0
-184 -169 183 0
-184 -170 185 0
185 178 0
-185 -178 0
-185 -172 179 0
-185 -173 180 0
-185 -174 181 0
-185 -175 182 0
-185 -176 183 0
-185 -177 184 0
-1 0
-17 130 0
-193 133 0
-193 145 0
-133 -145 193 0
-194 135 0
-194 152 0
-135 -152 194 0
-195 137 0
-195 159 0
-137 -159 195 0
-196 139 0
-196 166 0
-139 -166 196 0
-197 141 0
-197 173 0
-141 -173 197 0
-198 143 0
-198 180 0
-143 -180 198 0
-17 -193 0
-17 -194 0
-17 -195 0
-17 -196 0
-17 -197 0
-17 -198 0
-130 17 193 194 195 196 197 198 0
-33 133 0
-199 130 0
-199 132 0
-130 -132 199 0
-200 135 0
-200 153 0
-135 -153 200 0
-201 137 0
-201 160 0
-137 -160 201 0
-202 139 0
-202 167 0
-139 -167 202 0
-203 141 0
-203 174 0
-141 -174 203 0
-204 143 0
-204 181 0
-143 -181 204 0
-33 -199 0
-33 -200 0
-33 -201 0
-33 -202 0
-33 -203 0
-33 -204 0
-133 33 199 200 201 202 203 204 0
-49 135 0
-205 130 0
-205 134 0
-130 -134 205 0
-206 133 0
-206 146 0
-133 -146 206 0
-207 137 0
-207 161 0
-137 -161 207 0
-208 139 0
-208 168 0
-139 -168 208 0
-209 141 0
-209 175 0
-141 -175 209 0
-210 143 0
-210 182 0
-143 -182 210 0
-49 -205 0
-49 -206 0
-49 -207 0
-49 -208 0
-49 -209 0
-49 -210 0
-135 49 205 206 207 208 209 210 0
-65 137 0
-211 130 0
-211 136 0
-130 -136 211 0
-212 133 0
-212 147 0
-133 -147 212 0
-213 135 0
-213 154 0
-135 -154 213 0
-214 139 0
-214 169 0
-139 -169 214 0
-215 141 0
-215 176 0
-141 -176 215 0
-216 143 0
-216 183 0
-143 -183 216 0
-65 -211 0
-65 -212 0
-65 -213 0
-65 -214 0
-65 -215 0
-65 -216 0
-137 65 211 212 213 214 215 216 0
-81 139 0
-217 130 0
-217 138 0
-130 -138 217 0
-218 133 0
-218 148 0
-133 -148 218 0
-219 135 0
-219 155 0
-135 -155 219 0
-220 137 0
-220 162 0
-137 -162 220 0
-221 141 0
-221 177 0
-141 -177 221 0
-222 143 0
-222 184 0
-143 -184 222 0
-81 -217 0
-81 -218 0
-81 -219 0
-81 -220 0
-81 -221 0
-81 -222 0
-139 81 217 218 219 220 221 222 0
-97 141 0
-223 130 0
-223 140 0
-130 -140 223 0
-224 133 0
-224 149 0
-133 -149 224 0
-225 135 0
-225 156 0
-135 -156 225 0
-226 137 0
-226 163 0
-137 -163 226 0
-227 139 0
-227 170 0
-139 -170 227 0
-228 143 0
-228 185 0
-143 -185 228 0
-97 -223 0
-97 -224 0
-97 -225 0
-97 -226 0
-97 -227 0
-97 -228 0
-141 97 223 224 225 226 227 228 0
-113 143 0
-229 130 0
-229 142 0
-130 -142 229 0
-230 133 0
-230 150 0
-133 -150 230 0
-231 135 0
-231 157 0
-135 -157 231 0
-232 137 0
-232 164 0
-137 -164 232 0
-233 139 0
-233 171 0
-139 -171 233 0
-234 141 0
-234 178 0
-141 -178 234 0
-113 -229 0
-113 -230 0
-113 -231 0
-113 -232 0
-113 -233 0
-113 -234 0
-143 113 229 230 231 232 233 234 0
-3 131 0
-235 132 0
-235 144 0
-132 -144 235 0
-236 134 0
-236 151 0
-134 -151 236 0
-237 136 0
-237 158 0
-136 -158 237 0
-238 138 0
-238 165 0
-138 -165 238 0
-239 140 0
-239 172 0
-140 -172 239 0
-240 142 0
-240 179 0
-142 -179 240 0
-3 -235 0
-3 -236 0
-3 -237 0
-3 -238 0
-3 -239 0
-3 -240 0
-131 3 235 236 237 238 239 240 0
-19 0
-35 132 0
-241 131 0
-241 133 0
-131 -133 241 0
-242 134 0
-242 153 0
-134 -153 242 0
-243 136 0
-243 160 0
-136 -160 243 0
-244 138 0
-244 167 0
-138 -167 244 0
-245 140 0
-245 174 0
-140 -174 245 0
-246 142 0
-246 181 0
-142 -181 246 0
-35 -241 0
-35 -242 0
-35 -243 0
-35 -244 0
-35 -245 0
-35 -246 0
-132 35 241 242 243 244 245 246 0
-51 134 0
-247 131 0
-247 135 0
-131 -135 247 0
-248 132 0
-248 146 0
-132 -146 248 0
-249 136 0
-249 161 0
-136 -161 249 0
-250 138 0
-250 168 0
-138 -168 250 0
-251 140 0
-251 175 0
-140 -175 251 0
-252 142 0
-252 182 0
-142 -182 252 0
-51 -247 0
-51 -248 0
-51 -249 0
-51 -250 0
-51 -251 0
-51 -252 0
-134 51 247 248 249 250 251 252 0
-67 136 0
-253 131 0
-253 137 0
-131 -137 253 0
-254 132 0
-254 147 0
-132 -147 254 0
-255 134 0
-255 154 0
-134 -154 255 0
-256 138 0
-256 169 0
-138 -169 256 0
-257 140 0
-257 176 0
-140 -176 257 0
-258 142 0
-258 183 0
-142 -183 258 0
-67 -253 0
-67 -254 0
-67 -255 0
-67 -256 0
-67 -257 0
-67 -258 0
-136 67 253 254 255 256 257 258 0
-83 138 0
-259 131 0
-259 139 0
-131 -139 259 0
-260 132 0
-260 148 0
-132 -148 260 0
-261 134 0
-261 155 0
-134 -155 261 0
-262 136 0
-262 162 0
-136 -162 262 0
-263 140 0
-263 177 0
-140 -177 263 0
-264 142 0
-264 184 0
-142 -184 264 0
-83 -259 0
-83 -260 0
-83 -261 0
-83 -262 0
-83 -263 0
-83 -264 0
-138 83 259 260 261 262 263 264 0
-99 140 0
-265 131 0
-265 141 0
-131 -141 265 0
-266 132 0
-266 149 0
-132 -149 266 0
-267 134 0
-267 156 0
-134 -156 267 0
-268 136 0
-268 163 0
-136 -163 268 0
-269 138 0
-269 170 0
-138 -170 269 0
-270 142 0
-270 185 0
-142 -185 270 0
-99 -265 0
-99 -266 0
-99 -267 0
-99 -268 0
-99 -269 0
-99 -270 0
-140 99 265 266 267 268 269 270 0
-115 142 0
-271 131 0
-271 143 0
-131 -143 271 0
-272 132 0
-272 150 0
-132 -150 272 0
-273 134 0
-273 157 0
-134 -157 273 0
-274 136 0
-274 164 0
-136 -164 274 0
-275 138 0
-275 171 0
-138 -171 275 0
-276 140 0
-276 178 0
-140 -178 276 0
-115 -271 0
-115 -272 0
-115 -273 0
-115 -274 0
-115 -275 0
-115 -276 0
-142 115 271 272 273 274 275 276 0
-5 144 0
-277 145 0
-277 131 0
-145 -131 277 0
-278 146 0
-278 151 0
-146 -151 278 0
-279 147 0
-279 158 0
-147 -158 279 0
-280 148 0
-280 165 0
-148 -165 280 0
-281 149 0
-281 172 0
-149 -172 281 0
-282 150 0
-282 179 0
-150 -179 282 0
-5 -277 0
-5 -278 0
-5 -279 0
-5 -280 0
-5 -281 0
-5 -282 0
-144 5 277 278 279 280 281 282 0
-21 145 0
-283 144 0
-283 130 0
-144 -130 283 0
-284 146 0
-284 152 0
-146 -152 284 0
-285 147 0
-285 159 0
-147 -159 285 0
-286 148 0
-286 166 0
-148 -166 286 0
-287 149 0
-287 173 0
-149 -173 287 0
-288 150 0
-288 180 0
-150 -180 288 0
-21 -283 0
-21 -284 0
-21 -285 0
-21 -286 0
-21 -287 0
-21 -288 0
-145 21 283 284 285 286 287 288 0
-37 0
-53 146 0
-289 144 0
-289 135 0
-144 -135 289 0
-290 145 0
-290 134 0
-145 -134 290 0
-291 147 0
-291 161 0
-147 -161 291 0
-292 148 0
-292 168 0
-148 -168 292 0
-293 149 0
-293 175 0
-149 -175 293 0
-294 150 0
-294 182 0
-150 -182 294 0
-53 -289 0
-53 -290 0
-53 -291 0
-53 -292 0
-53 -293 0
-53 -294 0
-146 53 289 290 291 292 293 294 0
-69 147 0
-295 144 0
-295 137 0
-144 -137 295 0
-296 145 0
-296 136 0
-145 -136 296 0
-297 146 0
-297 154 0
-146 -154 297 0
-298 148 0
-298 169 0
-148 -169 298 0
-299 149 0
-299 176 0
-149 -176 299 0
-300 150 0
-300 183 0
-150 -183 300 0
-69 -295 0
-69 -296 0
-69 -297 0
-69 -298 0
-69 -299 0
-69 -300 0
-147 69 295 296 297 298 299 300 0
-85 148 0
-301 144 0
-301 139 0
-144 -139 301 0
-302 145 0
-302 138 0
-145 -138 302 0
-303 146 0
-303 155 0
-146 -155 303 0
-304 147 0
-304 162 0
-147 -162 304 0
-305 149 0
-305 177 0
-149 -177 305 0
-306 150 0
-306 184 0
-150 -184 306 0
-85 -301 0
-85 -302 0
-85 -303 0
-85 -304 0
-85 -305 0
-85 -306 0
-148 85 301 302 303 304 305 306 0
-101 149 0
-307 144 0
-307 141 0
-144 -141 307 0
-308 145 0
-308 140 0
-145 -140 308 0
-309 146 0
-309 156 0
-146 -156 309 0
-310 147 0
-310 163 0
-147 -163 310 0
-311 148 0
-311 170 0
-148 -170 311 0
-312 150 0
-312 185 0
-150 -185 312 0
-101 -307 0
-101 -308 0
-101 -309 0
-101 -310 0
-101 -311 0
-101 -312 0
-149 101 307 308 309 310 311 312 0
-117 150 0
-313 144 0
-313 143 0
-144 -143 313 0
-314 145 0
-314 142 0
-145 -142 314 0
-315 146 0
-315 157 0
-146 -157 315 0
-316 147 0
-316 164 0
-147 -164 316 0
-317 148 0
-317 171 0
-148 -171 317 0
-318 149 0
-318 178 0
-149 -178 318 0
-117 -313 0
-117 -314 0
-117 -315 0
-117 -316 0
-117 -317 0
-117 -318 0
-150 117 313 314 315 316 317 318 0
-7 151 0
-319 152 0
-319 131 0
-152 -131 319 0
-320 153 0
-320 144 0
-153 -144 320 0
-321 154 0
-321 158 0
-154 -158 321 0
-322 155 0
-322 165 0
-155 -165 322 0
-323 156 0
-323 172 0
-156 -172 323 0
-324 157 0
-324 179 0
-157 -179 324 0
-7 -319 0
-7 -320 0
-7 -321 0
-7 -322 0
-7 -323 0
-7 -324 0
-151 7 319 320 321 322 323 324 0
-23 152 0
-325 151 0
-325 130 0
-151 -130 325 0
-326 153 0
-326 145 0
-153 -145 326 0
-327 154 0
-327 159 0
-154 -159 327 0
-328 155 0
-328 166 0
-155 -166 328 0
-329 156 0
-329 173 0
-156 -173 329 0
-330 157 0
-330 180 0
-157 -180 330 0
-23 -325 0
-23 -326 0
-23 -327 0
-23 -328 0
-23 -329 0
-23 -330 0
-152 23 325 326 327 328 329 330 0
-39 153 0
-331 151 0
-331 133 0
-151 -133 331 0
-332 152 0
-332 132 0
-152 -132 332 0
-333 154 0
-333 160 0
-154 -160 333 0
-334 155 0
-334 167 0
-155 -167 334 0
-335 156 0
-335 174 0
-156 -174 335 0
-336 157 0
-336 181 0
-157 -181 336 0
-39 -331 0
-39 -332 0
-39 -333 0
-39 -334 0
-39 -335 0
-39 -336 0
-153 39 331 332 333 334 335 336 0
-55 0
-71 154 0
-337 151 0
-337 137 0
-151 -137 337 0
-338 152 0
-338 136 0
-152 -136 338 0
-339 153 0
-339 147 0
-153 -147 339 0
-340 155 0
-340 169 0
-155 -169 340 0
-341 156 0
-341 176 0
-156 -176 341 0
-342 157 0
-342 183 0
-157 -183 342 0
-71 -337 0
-71 -338 0
-71 -339 0
-71 -340 0
-71 -341 0
-71 -342 0
-154 71 337 338 339 340 341 342 0
-87 155 0
-343 151 0
-343 139 0
-151 -139 343 0
-344 152 0
-344 138 0
-152 -138 344 0
-345 153 0
-345 148 0
-153 -148 345 0
-346 154 0
-346 162 0
-154 -162 346 0
-347 156 0
-347 177 0
-156 -177 347 0
-348 157 0
-348 184 0
-157 -184 348 0
-87 -343 0
-87 -344 0
-87 -345 0
-87 -346 0
-87 -347 0
-87 -348 0
-155 87 343 344 345 346 347 348 0
-103 156 0
-349 151 0
-349 141 0
-151 -141 349 0
-350 152 0
-350 140 0
-152 -140 350 0
-351 153 0
-351 149 0
-153 -149 351 0
-352 154 0
-352 163 0
-154 -163 352 0
-353 155 0
-353 170 0
-155 -170 353 0
-354 157 0
-354 185 0
-157 -185 354 0
-103 -349 0
-103 -350 0
-103 -351 0
-103 -352 0
-103 -353 0
-103 -354 0
-156 103 349 350 351 352 353 354 0
-119 157 0
-355 151 0
-355 143 0
-151 -143 355 0
-356 152 0
-356 142 0
-152 -142 356 0
-357 153 0
-357 150 0
-153 -150 357 0
-358 154 0
-358 164 0
-154 -164 358 0
-359 155 0
-359 171 0
-155 -171 359 0
-360 156 0
-360 178 0
-156 -178 360 0
-119 -355 0
-119 -356 0
-119 -357 0
-119 -358 0
-119 -359 0
-119 -360 0
-157 119 355 356 357 358 359 360 0
-9 158 0
-361 159 0
-361 131 0
-159 -131 361 0
-362 160 0
-362 144 0
-160 -144 362 0
-363 161 0
-363 151 0
-161 -151 363 0
-364 162 0
-364 165 0
-162 -165 364 0
-365 163 0
-365 172 0
-163 -172 365 0
-366 164 0
-366 179 0
-164 -179 366 0
-9 -361 0
-9 -362 0
-9 -363 0
-9 -364 0
-9 -365 0
-9 -366 0
-158 9 361 362 363 364 365 366 0
-25 159 0
-367 158 0
-367 130 0
-158 -130 367 0
-368 160 0
-368 145 0
-160 -145 368 0
-369 161 0
-369 152 0
-161 -152 369 0
-370 162 0
-370 166 0
-162 -166 370 0
-371 163 0
-371 173 0
-163 -173 371 0
-372 164 0
-372 180 0
-164 -180 372 0
-25 -367 0
-25 -368 0
-25 -369 0
-25 -370 0
-25 -371 0
-25 -372 0
-159 25 367 368 369 370 371 372 0
-41 160 0
-373 158 0
-373 133 0
-158 -133 373 0
-374 159 0
-374 132 0
-159 -132 374 0
-375 161 0
-375 153 0
-161 -153 375 0
-376 162 0
-376 167 0
-162 -167 376 0
-377 163 0
-377 174 0
-163 -174 377 0
-378 164 0
-378 181 0
-164 -181 378 0
-41 -373 0
-41 -374 0
-41 -375 0
-41 -376 0
-41 -377 0
-41 -378 0
-160 41 373 374 375 376 377 378 0
-57 161 0
-379 158 0
-379 135 0
-158 -135 379 0
-380 159 0
-380 134 0
-159 -134 380 0
-381 160 0
-381 146 0
-160 -146 381 0
-382 162 0
-382 168 0
-162 -168 382 0
-383 163 0
-383 175 0
-163 -175 383 0
-384 164 0
-384 182 0
-164 -182 384 0
-57 -379 0
-57 -380 0
-57 -381 0
-57 -382 0
-57 -383 0
-57 -384 0
-161 57 379 380 381 382 383 384 0
-73 0
-89 162 0
-385 158 0
-385 139 0
-158 -139 385 0
-386 159 0
-386 138 0
-159 -138 386 0
-387 160 0
-387 148 0
-160 -148 387 0
-388 161 0
-388 155 0
-161 -155 388 0
-389 163 0
-389 177 0
-163 -177 389 0
-390 164 0
-390 184 0
-164 -184 390 0
-89 -385 0
-89 -386 0
-89 -387 0
-89 -388 0
-89 -389 0
-89 -390 0
-162 89 385 386 387 388 389 390 0
-105 163 0
-391 158 0
-391 141 0
-158 -141 391 0
-392 159 0
-392 140 0
-159 -140 392 0
-393 160 0
-393 149 0
-160 -149 393 0
-394 161 0
-394 156 0
-161 -156 394 0
-395 162 0
-395 170 0
-162 -170 395 0
-396 164 0
-396 185 0
-164 -185 396 0
-105 -391 0
-105 -392 0
-105 -393 0
-105 -394 0
-105 -395 0
-105 -396 0
-163 105 391 392 393 394 395 396 0
-121 164 0
-397 158 0
-397 143 0
-158 -143 397 0
-398 159 0
-398 142 0
-159 -142 398 0
-399 160 0
-399 150 0
-160 -150 399 0
-400 161 0
-400 157 0
-161 -157 400 0
-401 162 0
-401 171 0
-162 -171 401 0
-402 163 0
-402 178 0
-163 -178 402 0
-121 -397 0
-121 -398 0
-121 -399 0
-121 -400 0
-121 -401 0
-121 -402 0
-164 121 397 398 399 400 401 402 0
-11 165 0
-403 166 0
-403 131 0
-166 -131 403 0
-404 167 0
-404 144 0
-167 -144 404 0
-405 168 0
-405 151 0
-168 -151 405 0
-406 169 0
-406 158 0
-169 -158 406 0
-407 170 0
-407 172 0
-170 -172 407 0
-408 171 0
-408 179 0
-171 -179 408 0
-11 -403 0
-11 -404 0
-11 -405 0
-11 -406 0
-11 -407 0
-11 -408 0
-165 11 403 404 405 406 407 408 0
-27 166 0
-409 165 0
-409 130 0
-165 -130 409 0
-410 167 0
-410 145 0
-167 -145 410 0
-411 168 0
-411 152 0
-168 -152 411 0
-412 169 0
-412 159 0
-169 -159 412 0
-413 170 0
-413 173 0
-170 -173 413 0
-414 171 0
-414 180 0
-171 -180 414 0
-27 -409 0
-27 -410 0
-27 -411 0
-27 -412 0
-27 -413 0
-27 -414 0
-166 27 409 410 411 412 413 414 0
-43 167 0
-415 165 0
-415 133 0
-165 -133 415 0
-416 166 0
-416 132 0
-166 -132 416 0
-417 168 0
-417 153 0
-168 -153 417 0
-418 169 0
-418 160 0
-169 -160 418 0
-419 170 0
-419 174 0
-170 -174 419 0
-420 171 0
-420 181 0
-171 -181 420 0
-43 -415 0
-43 -416 0
-43 -417 0
-43 -418 0
-43 -419 0
-43 -420 0
-167 43 415 416 417 418 419 420 0
-59 168 0
-421 165 0
-421 135 0
-165 -135 421 0
-422 166 0
-422 134 0
-166 -134 422 0
-423 167 0
-423 146 0
-167 -146 423 0
-424 169 0
-424 161 0
-169 -161 424 0
-425 170 0
-425 175 0
-170 -175 425 0
-426 171 0
-426 182 0
-171 -182 426 0
-59 -421 0
-59 -422 0
-59 -423 0
-59 -424 0
-59 -425 0
-59 -426 0
-168 59 421 422 423 424 425 426 0
-75 169 0
-427 165 0
-427 137 0
-165 -137 427 0
-428 166 0
-428 136 0
-166 -136 428 0
-429 167 0
-429 147 0
-167 -147 429 0
-430 168 0
-430 154 0
-168 -154 430 0
-431 170 0
-431 176 0
-170 -176 431 0
-432 171 0
-432 183 0
-171 -183 432 0
-75 -427 0
-75 -428 0
-75 -429 0
-75 -430 0
-75 -431 0
-75 -432 0
-169 75 427 428 429 430 431 432 0
-91 0
-107 170 0
-433 165 0
-433 141 0
-165 -141 433 0
-434 166 0
-434 140 0
-166 -140 434 0
-435 167 0
-435 149 0
-167 -149 435 0
-436 168 0
-436 156 0
-168 -156 436 0
-437 169 0
-437 163 0
-169 -163 437 0
-438 171 0
-438 185 0
-171 -185 438 0
-107 -433 0
-107 -434 0
-107 -435 0
-107 -436 0
-107 -437 0
-107 -438 0
-170 107 433 434 435 436 437 438 0
-123 171 0
-439 165 0
-439 143 0
-165 -143 439 0
-440 166 0
-440 142 0
-166 -142 440 0
-441 167 0
-441 150 0
-167 -150 441 0
-442 168 0
-442 157 0
-168 -157 442 0
-443 169 0
-443 164 0
-169 -164 443 0
-444 170 0
-444 178 0
-170 -178 444 0
-123 -439 0
-123 -440 0
-123 -441 0
-123 -442 0
-123 -443 0
-123 -444 0
-171 123 439 440 441 442 443 444 0
-13 172 0
-445 173 0
-445 131 0
-173 -131 445 0
-446 174 0
-446 144 0
-174 -144 446 0
-447 175 0
-447 151 0
-175 -151 447 0
-448 176 0
-448 158 0
-176 -158 448 0
-449 177 0
-449 165 0
-177 -165 449 0
-450 178 0
-450 179 0
-178 -179 450 0
-13 -445 0
-13 -446 0
-13 -447 0
-13 -448 0
-13 -449 0
-13 -450 0
-172 13 445 446 447 448 449 450 0
-29 173 0
-451 172 0
-451 130 0
-172 -130 451 0
-452 174 0
-452 145 0
-174 -145 452 0
-453 175 0
-453 152 0
-175 -152 453 0
-454 176 0
-454 159 0
-176 -159 454 0
-455 177 0
-455 166 0
-177 -166 455 0
-456 178 0
-456 180 0
-178 -180 456 0
-29 -451 0
-29 -452 0
-29 -453 0
-29 -454 0
-29 -455 0
-29 -456 0
-173 29 451 452 453 454 455 456 0
-45 174 0
-457 172 0
-457 133 0
-172 -133 457 0
-458 173 0
-458 132 0
-173 -132 458 0
-459 175 0
-459 153 0
-175 -153 459 0
-460 176 0
-460 160 0
-176 -160 460 0
-461 177 0
-461 167 0
-177 -167 461 0
-462 178 0
-462 181 0
-178 -181 462 0
-45 -457 0
-45 -458 0
-45 -459 0
-45 -460 0
-45 -461 0
-45 -462 0
-174 45 457 458 459 460 461 462 0
-61 175 0
-463 172 0
-463 135 0
-172 -135 463 0
-464 173 0
-464 134 0
-173 -134 464 0
-465 174 0
-465 146 0
-174 -146 465 0
-466 176 0
-466 161 0
-176 -161 466 0
-467 177 0
-467 168 0
-177 -168 467 0
-468 178 0
-468 182 0
-178 -182 468 0
-61 -463 0
-61 -464 0
-61 -465 0
-61 -466 0
-61 -467 0
-61 -468 0
-175 61 463 464 465 466 467 468 0
-77 176 0
-469 172 0
-469 137 0
-172 -137 469 0
-470 173 0
-470 136 0
-173 -136 470 0
-471 174 0
-471 147 0
-174 -147 471 0
-472 175 0
-472 154 0
-175 -154 472 0
-473 177 0
-473 169 0
-177 -169 473 0
-474 178 0
-474 183 0
-178 -183 474 0
-77 -469 0
-77 -470 0
-77 -471 0
-77 -472 0
-77 -473 0
-77 -474 0
-176 77 469 470 471 472 473 474 0
-93 177 0
-475 172 0
-475 139 0
-172 -139 475 0
-476 173 0
-476 138 0
-173 -138 476 0
-477 174 0
-477 148 0
-174 -148 477 0
-478 175 0
-478 155 0
-175 -155 478 0
-479 176 0
-479 162 0
-176 -162 479 0
-480 178 0
-480 184 0
-178 -184 480 0
-93 -475 0
-93 -476 0
-93 -477 0
-93 -478 0
-93 -479 0
-93 -480 0
-177 93 475 476 477 478 479 480 0
-109 0
-125 178 0
-481 172 0
-481 143 0
-172 -143 481 0
-482 173 0
-482 142 0
-173 -142 482 0
-483 174 0
-483 150 0
-174 -150 483 0
-484 175 0
-484 157 0
-175 -157 484 0
-485 176 0
-485 164 0
-176 -164 485 0
-486 177 0
-486 171 0
-177 -171 486 0
-125 -481 0
-125 -482 0
-125 -483 0
-125 -484 0
-125 -485 0
-125 -486 0
-178 125 481 482 483 484 485 486 0
-15 179 0
-487 180 0
-487 131 0
-180 -131 487 0
-488 181 0
-488 144 0
-181 -144 488 0
-489 182 0
-489 151 0
-182 -151 489 0
-490 183 0
-490 158 0
-183 -158 490 0
-491 184 0
-491 165 0
-184 -165 491 0
-492 185 0
-492 172 0
-185 -172 492 0
-15 -487 0
-15 -488 0
-15 -489 0
-15 -490 0
-15 -491 0
-15 -492 0
-179 15 487 488 489 490 491 492 0
-31 180 0
-493 179 0
-493 130 0
-179 -130 493 0
-494 181 0
-494 145 0
-181 -145 494 0
-495 182 0
-495 152 0
-182 -152 495 0
-496 183 0
-496 159 0
-183 -159 496 0
-497 184 0
-497 166 0
-184 -166 497 0
-498 185 0
-498 173 0
-185 -173 498 0
-31 -493 0
-31 -494 0
-31 -495 0
-31 -496 0
-31 -497 0
-31 -498 0
-180 31 493 494 495 496 497 498 0
-47 181 0
-499 179 0
-499 133 0
-179 -133 499 0
-500 180 0
-500 132 0
-180 -132 500 0
-501 182 0
-501 153 0
-182 -153 501 0
-502 183 0
-502 160 0
-183 -160 502 0
-503 184 0
-503 167 0
-184 -167 503 0
-504 185 0
-504 174 0
-185 -174 504 0
-47 -499 0
-47 -500 0
-47 -501 0
-47 -502 0
-47 -503 0
-47 -504 0
-181 47 499 500 501 502 503 504 0
-63 182 0
-505 179 0
-505 135 0
-179 -135 505 0
-506 180 0
-506 134 0
-180 -134 506 0
-507 181 0
-507 146 0
-181 -146 507 0
-508 183 0
-508 161 0
-183 -161 508 0
-509 184 0
-509 168 0
-184 -168 509 0
-510 185 0
-510 175 0
-185 -175 510 0
-63 -505 0
-63 -506 0
-63 -507 0
-63 -508 0
-63 -509 0
-63 -510 0
-182 63 505 506 507 508 509 510 0
-79 183 0
-511 179 0
-511 137 0
-179 -137 511 0
-512 180 0
-512 136 0
-180 -136 512 0
-513 181 0
-513 147 0
-181 -147 513 0
-514 182 0
-514 154 0
-182 -154 514 0
-515 184 0
-515 169 0
-184 -169 515 0
-516 185 0
-516 176 0
-185 -176 516 0
-79 -511 0
-79 -512 0
-79 -513 0
-79 -514 0
-79 -515 0
-79 -516 0
-183 79 511 512 513 514 515 516 0
-95 184 0
-517 179 0
-517 139 0
-179 -139 517 0
-518 180 0
-518 138 0
-180 -138 518 0
-519 181 0
-519 148 0
-181 -148 519 0
-520 182 0
-520 155 0
-182 -155 520 0
-521 183 0
-521 162 0
-183 -162 521 0
-522 185 0
-522 177 0
-185 -177 522 0
-95 -517 0
-95 -518 0
-95 -519 0
-95 -520 0
-95 -521 0
-95 -522 0
-184 95 517 518 519 520 521 522 0
-111 185 0
-523 179 0
-523 141 0
-179 -141 523 0
-524 180 0
-524 140 0
-180 -140 524 0
-525 181 0
-525 149 0
-181 -149 525 0
-526 182 0
-526 156 0
-182 -156 526 0
-527 183 0
-527 163 0
-183 -163 527 0
-528 184 0
-528 170 0
-184 -170 528 0
-111 -523 0
-111 -524 0
-111 -525 0
-111 -526 0
-111 -527 0
-111 -528 0
-185 111 523 524 525 526 527 528 0
-127 0
529 0
530 531 0
-530 -531 0
-530 -532 533 0
-530 -534 535 0
-530 -536 537 0
-530 -538 539 0
-530 -540 541 0
-530 -542 543 0
533 544 0
-533 -544 0
-533 -545 530 0
-533 -546 535 0
-533 -547 537 0
-533 -548 539 0
-533 -549 541 0
-533 -550 543 0
535 551 0
-535 -551 0
-535 -552 530 0
-535 -553 533 0
-535 -554 537 0
-535 -555 539 0
-535 -556 541 0
-535 -557 543 0
537 558 0
-537 -558 0
-537 -559 530 0
-537 -560 533 0
-537 -561 535 0
-537 -562 539 0
-537 -563 541 0
-537 -564 543 0
539 565 0
-539 -565 0
-539 -566 530 0
-539 -567 533 0
-539 -568 535 0
-539 -569 537 0
-539 -570 541 0
-539 -571 543 0
541 572 0
-541 -572 0
-541 -573 530 0
-541 -574 533 0
-541 -575 535 0
-541 -576 537 0
-541 -577 539 0
-541 -578 543 0
543 579 0
-543 -579 0
-543 -580 530 0
-543 -581 533 0
-543 -582 535 0
-543 -583 537 0
-543 -584 539 0
-543 -585 541 0
586 0
531 530 0
-531 -530 0
-531 -533 532 0
-531 -535 534 0
-531 -537 536 0
-531 -539 538 0
-531 -541 540 0
-531 -543 542 0
532 545 0
-532 -545 0
-532 -544 531 0
-532 -546 534 0
-532 -547 536 0
-532 -548 538 0
-532 -549 540 0
-532 -550 542 0
534 552 0
-534 -552 0
-534 -551 531 0
-534 -553 532 0
-534 -554 536 0
-534 -555 538 0
-534 -556 540 0
-534 -557 542 0
536 559 0
-536 -559 0
-536 -558 531 0
-536 -560 532 0
-536 -561 534 0
-536 -562 538 0
-536 -563 540 0
-536 -564 542 0
538 566 0
-538 -566 0
-538 -565 531 0
-538 -567 532 0
-538 -568 534 0
-538 -569 536 0
-538 -570 540 0
-538 -571 542 0
540 573 0
-540 -573 0
-540 -572 531 0
-540 -574 532 0
-540 -575 534 0
-540 -576 536 0
-540 -577 538 0
-540 -578 542 0
542 580 0
-542 -580 0
-542 -579 531 0
-542 -581 532 0
-542 -582 534 0
-542 -583 536 0
-542 -584 538 0
-542 -585 540 0
587 0
544 533 0
-544 -533 0
-544 -530 545 0
-544 -535 546 0
-544 -537 547 0
-544 -539 548 0
-544 -541 549 0
-544 -543 550 0
545 532 0
-545 -532 0
-545 -531 544 0
-545 -534 546 0
-545 -536 547 0
-545 -538 548 0
-545 -540 549 0
-545 -542 550 0
546 553 0
-546 -553 0
-546 -551 544 0
-546 -552 545 0
-546 -554 547 0
-546 -555 548 0
-546 -556 549 0
-546 -557 550 0
547 560 0
-547 -560 0
-547 -558 544 0
-547 -559 545 0
-547 -561 546 0
-547 -562 548 0
-547 -563 549 0
-547 -564 550 0
548 567 0
-548 -567 0
-548 -565 544 0
-548 -566 545 0
-548 -568 546 0
-548 -569 547 0
-548 -570 549 0
-548 -571 550 0
549 574 0
-549 -574 0
-549 -572 544 0
-549 -573 545 0
-549 -575 546 0
-549 -576 547 0
-549 -577 548 0
-549 -578 550 0
550 581 0
-550 -581 0
-550 -579 544 0
-550 -580 545 0
-550 -582 546 0
-550 -583 547 0
-550 -584 548 0
-550 -585 549 0
588 0
551 535 0
-551 -535 0
-551 -530 552 0
-551 -533 553 0
-551 -537 554 0
-551 -539 555 0
-551 -541 556 0
-551 -543 557 0
552 534 0
-552 -534 0
-552 -531 551 0
-552 -532 553 0
-552 -536 554 0
-552 -538 555 0
-552 -540 556 0
-552 -542 557 0
553 546 0
-553 -546 0
-553 -544 551 0
-553 -545 552 0
-553 -547 554 0
-553 -548 555 0
-553 -549 556 0
-553 -550 557 0
554 561 0
-554 -561 0
-554 -558 551 0
-554 -559 552 0
-554 -560 553 0
-554 -562 555 0
-554 -563 556 0
-554 -564 557 0
555 568 0
-555 -568 0
-555 -565 551 0
-555 -566 552 0
-555 -567 553 0
-555 -569 554 0
-555 -570 556 0
-555 -571 557 0
556 575 0
-556 -575 0
-556 -572 551 0
-556 -573 552 0
-556 -574 553 0
-556 -576 554 0
-556 -577 555 0
-556 -578 557 0
557 582 0
-557 -582 0
-557 -579 551 0
-557 -580 552 0
-557 -581 553 0
-557 -583 554 0
-557 -584 555 0
-557 -585 556 0
589 0
558 537 0
-558 -537 0
-558 -530 559 0
-558 -533 560 0
-558 -535 561 0
-558 -539 562 0
-558 -541 563 0
-558 -543 564 0
559 536 0
-559 -536 0
-559 -531 558 0
-559 -532 560 0
-559 -534 561 0
-559 -538 562 0
-559 -540 563 0
-559 -542 564 0
560 547 0
-560 -547 0
-560 -544 558 0
-560 -545 559 0
-560 -546 561 0
-560 -548 562 0
-560 -549 563 0
-560 -550 564 0
561 554 0
-561 -554 0
-561 -551 558 0
-561 -552 559 0
-561 -553 560 0
-561 -555 562 0
-561 -556 563 0
-561 -557 564 0
562 569 0
-562 -569 0
-562 -565 558 0
-562 -566 559 0
-562 -567 560 0
-562 -568 561 0
-562 -570 563 0
-562 -571 564 0
563 576 0
-563 -576 0
-563 -572 558 0
-563 -573 559 0
-563 -574 560 0
-563 -575 561 0
-563 -577 562 0
-563 -578 564 0
564 583 0
-564 -583 0
-564 -579 558 0
-564 -580 559 0
-564 -581 560 0
-564 -582 561 0
-564 -584 562 0
-564 -585 563 0
590 0
565 539 0
-565 -539 0
-565 -530 566 0
-565 -533 567 0
-565 -535 568 0
-565 -537 569 0
-565 -541 570 0
-565 -543 571 0
566 538 0
-566 -538 0
-566 -531 565 0
-566 -532 567 0
-566 -534 568 0
-566 -536 569 0
-566 -540 570 0
-566 -542 571 0
567 548 0
-567 -548 0
-567 -544 565 0
-567 -545 566 0
-567 -546 568 0
-567 -547 569 0
-567 -549 570 0
-567 -550 571 0
568 555 0
-568 -555 0
-568 -551 565 0
-568 -552 566 0
-568 -553 567 0
-568 -554 569 0
-568 -556 570 0
-568 -557 571 0
569 562 0
-569 -562 0
-569 -558 565 0
-569 -559 566 0
-569 -560 567 0
-569 -561 568 0
-569 -563 570 0
-569 -564 571 0
570 577 0
-570 -577 0
-570 -572 565 0
-570 -573 566 0
-570 -574 567 0
-570 -575 568 0
-570 -576 569 0
-570 -578 571 0
571 584 0
-571 -584 0
-571 -579 565 0
-571 -580 566 0
-571 -581 567 0
-571 -582 568 0
-571 -583 569 0
-571 -585 570 0
591 0
572 541 0
-572 -541 0
-572 -530 573 0
-572 -533 574 0
-572 -535 575 0
-572 -537 576 0
-572 -539 577 0
-572 -543 578 0
573 540 0
-573 -540 0
-573 -531 572 0
-573 -532 574 0
-573 -534 575 0
-573 -536 576 0
-573 -538 577 0
-573 -542 578 0
574 549 0
-574 -549 0
-574 -544 572 0
-574 -545 573 0
-574 -546 575 0
-574 -547 576 0
-574 -548 577 0
-574 -550 578 0
575 556 0
-575 -556 0
-575 -551 572 0
-575 -552 573 0
-575 -553 574 0
-575 -554 576 0
-575 -555 577 0
-575 -557 578 0
576 563 0
-576 -563 0
-576 -558 572 0
-576 -559 573 0
-576 -560 574 0
-576 -561 575 0
-576 -562 577 0
-576 -564 578 0
577 570 0
-577 -570 0
-577 -565 572 0
-577 -566 573 0
-577 -567 574 0
-577 -568 575 0
-577 -569 576 0
-577 -571 578 0
578 585 0
-578 -585 0
-578 -579 572 0
-578 -580 573 0
-578 -581 574 0
-578 -582 575 0
-578 -583 576 0
-578 -584 577 0
592 0
579 543 0
-579 -543 0
-579 -530 580 0
-579 -533 581 0
-579 -535 582 0
-579 -537 583 0
-579 -539 584 0
-579 -541 585 0
580 542 0
-580 -542 0
-580 -531 579 0
-580 -532 581 0
-580 -534 582 0
-580 -536 583 0
-580 -538 584 0
-580 -540 585 0
581 550 0
-581 -550 0
-581 -544 579 0
-581 -545 580 0
-581 -546 582 0
-581 -547 583 0
-581 -548 584 0
-581 -549 585 0
582 557 0
-582 -557 0
-582 -551 579 0
-582 -552 580 0
-582 -553 581 0
-582 -554 583 0
-582 -555 584 0
-582 -556 585 0
583 564 0
-583 -564 0
-583 -558 579 0
-583 -559 580 0
-583 -560 581 0
-583 -561 582 0
-583 -562 584 0
-583 -563 585 0
584 571 0
-584 -571 0
-584 -565 579 0
-584 -566 580 0
-584 -567 581 0
-584 -568 582 0
-584 -569 583 0
-584 -570 585 0
585 578 0
-585 -578 0
-585 -572 579 0
-585 -573 580 0
-585 -574 581 0
-585 -575 582 0
-585 -576 583 0
-585 -577 584 0
-2 0
-18 530 0
-593 533 0
-593 545 0
-533 -545 593 0
-594 535 0
-594 552 0
-535 -552 594 0
-595 537 0
-595 559 0
-537 -559 595 0
-596 539 0
-596 566 0
-539 -566 596 0
-597 541 0
-597 573 0
-541 -573 597 0
-598 543 0
-598 580 0
-543 -580 598 0
-18 -593 0
-18 -594 0
-18 -595 0
-18 -596 0
-18 -597 0
-18 -598 0
-530 18 593 594 595 596 597 598 0
-34 533 0
-599 530 0
-599 532 0
-530 -532 599 0
-600 535 0
-600 553 0
-535 -553 600 0
-601 537 0
-601 560 0
-537 -560 601 0
-602 539 0
-602 567 0
-539 -567 602 0
-603 541 0
-603 574 0
-541 -574 603 0
-604 543 0
-604 581 0
-543 -581 604 0
-34 -599 0
-34 -600 0
-34 -601 0
-34 -602 0
-34 -603 0
-34 -604 0
-533 34 599 600 601 602 603 604 0
-50 535 0
-605 530 0
-605 534 0
-530 -534 605 0
-606 533 0
-606 546 0
-533 -546 606 0
-607 537 0
-607 561 0
-537 -561 607 0
-608 539 0
-608 568 0
-539 -568 608 0
-609 541 0
-609 575 0
-541 -575 609 0
-610 543 0
-610 582 0
-543 -582 610 0
-50 -605 0
-50 -606 0
-50 -607 0
-50 -608 0
-50 -609 0
-50 -610 0
-535 50 605 606 607 608 609 610 0
-66 537 0
-611 530 0
-611 536 0
-530 -536 611 0
-612 533 0
-612 547 0
-533 -547 612 0
-613 535 0
-613 554 0
-535 -554 613 0
-614 539 0
-614 569 0
-539 -569 614 0
-615 541 0
-615 576 0
-541 -576 615 0
-616 543 0
-616 583 0
-543 -583 616 0
-66 -611 0
-66 -612 0
-66 -613 0
-66 -614 0
-66 -615 0
-66 -616 0
-537 66 611 612 613 614 615 616 0
-82 539 0
-617 530 0
-617 538 0
-530 -538 617 0
-618 533 0
-618 548 0
-533 -548 618 0
-619 535 0
-619 555 0
-535 -555 619 0
-620 537 0
-620 562 0
-537 -562 620 0
-621 541 0
-621 577 0
-541 -577 621 0
-622 543 0
-622 584 0
-543 -584 622 0
-82 -617 0
-82 -618 0
-82 -619 0
-82 -620 0
-82 -621 0
-82 -622 0
-539 82 617 618 619 620 621 622 0
-98 541 0
-623 530 0
-623 540 0
-530 -540 623 0
-624 533 0
-624 549 0
-533 -549 624 0
-625 535 0
-625 556 0
-535 -556 625 0
-626 537 0
-626 563 0
-537 -563 626 0
-627 539 0
-627 570 0
-539 -570 627 0
-628 543 0
-628 585 0
-543 -585 628 0
-98 -623 0
-98 -624 0
-98 -625 0
-98 -626 0
-98 -627 0
-98 -628 0
-541 98 623 624 625 626 627 628 0
-114 543 0
-629 530 0
-629 542 0
-530 -542 629 0
-630 533 0
-630 550 0
-533 -550 630 0
-631 535 0
-631 557 0
-535 -557 631 0
-632 537 0
-632 564 0
-537 -564 632 0
-633 539 0
-633 571 0
-539 -571 633 0
-634 541 0
-634 578 0
-541 -578 634 0
-114 -629 0
-114 -630 0
-114 -631 0
-114 -632 0
-114 -633 0
-114 -634 0
-543 114 629 630 631 632 633 634 0
-4 531 0
-635 532 0
-635 544 0
-532 -544 635 0
-636 534 0
-636 551 0
-534 -551 636 0
-637 536 0
-637 558 0
-536 -558 637 0
-638 538 0
-638 565 0
-538 -565 638 0
-639 540 0
-639 572 0
-540 -572 639 0
-640 542 0
-640 579 0
-542 -579 640 0
-4 -635 0
-4 -636 0
-4 -637 0
-4 -638 0
-4 -639 0
-4 -640 0
-531 4 635 636 637 638 639 640 0
-20 0
-36 532 0
-641 531 0
-641 533 0
-531 -533 641 0
-642 534 0
-642 553 0
-534 -553 642 0
-643 536 0
-643 560 0
-536 -560 643 0
-644 538 0
-644 567 0
-538 -567 644 0
-645 540 0
-645 574 0
-540 -574 645 0
-646 542 0
-646 581 0
-542 -581 646 0
-36 -641 0
-36 -642 0
-36 -643 0
-36 -644 0
-36 -645 0
-36 -646 0
-532 36 641 642 643 644 645 646 0
-52 534 0
-647 531 0
-647 535 0
-531 -535 647 0
-648 532 0
-648 546 0
-532 -546 648 0
-649 536 0
-649 561 0
-536 -561 649 0
-650 538 0
-650 568 0
-538 -568 650 0
-651 540 0
-651 575 0
-540 -575 651 0
-652 542 0
-652 582 0
-542 -582 652 0
-52 -647 0
-52 -648 0
-52 -649 0
-52 -650 0
-52 -651 0
-52 -652 0
-534 52 647 648 649 650 651 652 0
-68 536 0
-653 531 0
-653 537 0
-531 -537 653 0
-654 532 0
-654 547 0
-532 -547 654 0
-655 534 0
-655 554 0
-534 -554 655 0
-656 538 0
-656 569 0
-538 -569 656 0
-657 540 0
-657 576 0
-540 -576 657 0
-658 542 0
-658 583 0
-542 -583 658 0
-68 -653 0
-68 -654 0
-68 -655 0
-68 -656 0
-68 -657 0
-68 -658 0
-536 68 653 654 655 656 657 658 0
-84 538 0
-659 531 0
-659 539 0
-531 -539 659 0
-660 532 0
-660 548 0
-532 -548 660 0
-661 534 0
-661 555 0
-534 -555 661 0
-662 536 0
-662 562 0
-536 -562 662 0
-663 540 0
-663 577 0
-540 -577 663 0
-664 542 0
-664 584 0
-542 -584 664 0
-84 -659 0
-84 -660 0
-84 -661 0
-84 -662 0
-84 -663 0
-84 -664 0
-538 84 659 660 661 662 663 664 0
-100 540 0
-665 531 0
-665 541 0
-531 -541 665 0
-666 532 0
-666 549 0
-532 -549 666 0
-667 534 0
-667 556 0
-534 -556 667 0
-668 536 0
-668 563 0
-536 -563 668 0
-669 538 0
-669 570 0
-538 -570 669 0
-670 542 0
-670 585 0
-542 -585 670 0
-100 -665 0
-100 -666 0
-100 -667 0
-100 -668 0
-100 -669 0
-100 -670 0
-540 100 665 666 667 668 669 670 0
-116 542 0
-671 531 0
-671 543 0
-531 -543 671 0
-672 532 0
-672 550 0
-532 -550 672 0
-673 534 0
-673 557 0
-534 -557 673 0
-674 536 0
-674 564 0
-536 -564 674 0
-675 538 0
-675 571 0
-538 -571 675 0
-676 540 0
-676 578 0
-540 -578 676 0
-116 -671 0
-116 -672 0
-116 -673 0
-116 -674 0
-116 -675 0
-116 -676 0
-542 116 671 672 673 674 675 676 0
-6 544 0
-677 545 0
-677 531 0
-545 -531 677 0
-678 546 0
-678 551 0
-546 -551 678 0
-679 547 0
-679 558 0
-547 -558 679 0
-680 548 0
-680 565 0
-548 -565 680 0
-681 549 0
-681 572 0
-549 -572 681 0
-682 550 0
-682 579 0
-550 -579 682 0
-6 -677 0
-6 -678 0
-6 -679 0
-6 -680 0
-6 -681 0
-6 -682 0
-544 6 677 678 679 680 681 682 0
-22 545 0
-683 544 0
-683 530 0
-544 -530 683 0
-684 546 0
-684 552 0
-546 -552 684 0
-685 547 0
-685 559 0
-547 -559 685 0
-686 548 0
-686 566 0
-548 -566 686 0
-687 549 0
-687 573 0
-549 -573 687 0
-688 550 0
-688 580 0
-550 -580 688 0
-22 -683 0
-22 -684 0
-22 -685 0
-22 -686 0
-22 -687 0
-22 -688 0
-545 22 683 684 685 686 687 688 0
-38 0
-54 546 0
-689 544 0
-689 535 0
-544 -535 689 0
-690 545 0
-690 534 0
-545 -534 690 0
-691 547 0
-691 561 0
-547 -561 691 0
-692 548 0
-692 568 0
-548 -568 692 0
-693 549 0
-693 575 0
-549 -575 693 0
-694 550 0
-694 582 0
-550 -582 694 0
-54 -689 0
-54 -690 0
-54 -691 0
-54 -692 0
-54 -693 0
-54 -694 0
-546 54 689 690 691 692 693 694 0
-70 547 0
-695 544 0
-695 537 0
-544 -537 695 0
-696 545 0
-696 536 0
-545 -536 696 0
-697 546 0
-697 554 0
-546 -554 697 0
-698 548 0
-698 569 0
-548 -569 698 0
-699 549 0
-699 576 0
-549 -576 699 0
-700 550 0
-700 583 0
-550 -583 700 0
-70 -695 0
-70 -696 0
-70 -697 0
-70 -698 0
-70 -699 0
-70 -700 0
-547 70 695 696 697 698 699 700 0
-86 548 0
-701 544 0
-701 539 0
-544 -539 701 0
-702 545 0
-702 538 0
-545 -538 702 0
-703 546 0
-703 555 0
-546 -555 703 0
-704 547 0
-704 562 0
-547 -562 704 0
-705 549 0
-705 577 0
-549 -577 705 0
-706 550 0
-706 584 0
-550 -584 706 0
-86 -701 0
-86 -702 0
-86 -703 0
-86 -704 0
-86 -705 0
-86 -706 0
-548 86 701 702 703 704 705 706 0
-102 549 0
-707 544 0
-707 541 0
-544 -541 707 0
-708 545 0
-708 540 0
-545 -540 708 0
-709 546 0
-709 556 0
-546 -556 709 0
-710 547 0
-710 563 0
-547 -563 710 0
-711 548 0
-711 570 0
-548 -570 711 0
-712 550 0
-712 585 0
-550 -585 712 0
-102 -707 0
-102 -708 0
-102 -709 0
-102 -710 0
-102 -711 0
-102 -712 0
-549 102 707 708 709 710 711 712 0
-118 550 0
-713 544 0
-713 543 0
-544 -543 713 0
-714 545 0
-714 542 0
-545 -542 714 0
-715 546 0
-715 557 0
-546 -557 715 0
-716 547 0
-716 564 0
-547 -564 716 0
-717 548 0
-717 571 0
-548 -571 717 0
-718 549 0
-718 578 0
-549 -578 718 0
-118 -713 0
-118 -714 0
-118 -715 0
-118 -716 0
-118 -717 0
-118 -718 0
-550 118 713 714 715 716 717 718 0
-8 551 0
-719 552 0
-719 531 0
-552 -531 719 0
-720 553 0
-720 544 0
-553 -544 720 0
-721 554 0
-721 558 0
-554 -558 721 0
-722 555 0
-722 565 0
-555 -565 722 0
-723 556 0
-723 572 0
-556 -572 723 0
-724 557 0
-724 579 0
-557 -579 724 0
-8 -719 0
-8 -720 0
-8 -721 0
-8 -722 0
-8 -723 0
-8 -724 0
-551 8 719 720 721 722 723 724 0
-24 552 0
-725 551 0
-725 530 0
-551 -530 725 0
-726 553 0
-726 545 0
-553 -545 726 0
-727 554 0
-727 559 0
-554 -559 727 0
-728 555 0
-728 566 0
-555 -566 728 0
-729 556 0
-729 573 0
-556 -573 729 0
-730 557 0
-730 580 0
-557 -580 730 0
-24 -725 0
-24 -726 0
-24 -727 0
-24 -728 0
-24 -729 0
-24 -730 0
-552 24 725 726 727 728 729 730 0
-40 553 0
-731 551 0
-731 533 0
-551 -533 731 0
-732 552 0
-732 532 0
-552 -532 732 0
-733 554 0
-733 560 0
-554 -560 733 0
-734 555 0
-734 567 0
-555 -567 734 0
-735 556 0
-735 574 0
-556 -574 735 0
-736 557 0
-736 581 0
-557 -581 736 0
-40 -731 0
-40 -732 0
-40 -733 0
-40 -734 0
-40 -735 0
-40 -736 0
-553 40 731 732 733 734 735 736 0
-56 0
-72 554 0
-737 551 0
-737 537 0
-551 -537 737 0
-738 552 0
-738 536 0
-552 -536 738 0
-739 553 0
-739 547 0
-553 -547 739 0
-740 555 0
-740 569 0
-555 -569 740 0
-741 556 0
-741 576 0
-556 -576 741 0
-742 557 0
-742 583 0
-557 -583 742 0
-72 -737 0
-72 -738 0
-72 -739 0
-72 -740 0
-72 -741 0
-72 -742 0
-554 72 737 738 739 740 741 742 0
-88 555 0
-743 551 0
-743 539 0
-551 -539 743 0
-744 552 0
-744 538 0
-552 -538 744 0
-745 553 0
-745 548 0
-553 -548 745 0
-746 554 0
-746 562 0
-554 -562 746 0
-747 556 0
-747 577 0
-556 -577 747 0
-748 557 0
-748 584 0
-557 -584 748 0
-88 -743 0
-88 -744 0
-88 -745 0
-88 -746 0
-88 -747 0
-88 -748 0
-555 88 743 744 745 746 747 748 0
-104 556 0
-749 551 0
-749 541 0
-551 -541 749 0
-750 552 0
-750 540 0
-552 -540 750 0
-751 553 0
-751 549 0
-553 -549 751 0
-752 554 0
-752 563 0
-554 -563 752 0
-753 555 0
-753 570 0
-555 -570 753 0
-754 557 0
-754 585 0
-557 -585 754 0
-104 -749 0
-104 -750 0
-104 -751 0
-104 -752 0
-104 -753 0
-104 -754 0
-556 104 749 750 751 752 753 754 0
-120 557 0
-755 551 0
-755 543 0
-551 -543 755 0
-756 552 0
-756 542 0
-552 -542 756 0
-757 553 0
-757 550 0
-553 -550 757 0
-758 554 0
-758 564 0
-554 -564 758 0
-759 555 0
-759 571 0
-555 -571 759 0
-760 556 0
-760 578 0
-556 -578 760 0
-120 -755 0
-120 -756 0
-120 -757 0
-120 -758 0
-120 -759 0
-120 -760 0
-557 120 755 756 757 758 759 760 0
-10 558 0
-761 559 0
-761 531 0
-559 -531 761 0
-762 560 0
-762 544 0
-560 -544 762 0
-763 561 0
-763 551 0
-561 -551 763 0
-764 562 0
-764 565 0
-562 -565 764 0
-765 563 0
-765 572 0
-563 -572 765 0
-766 564 0
-766 579 0
-564 -579 766 0
-10 -761 0
-10 -762 0
-10 -763 0
-10 -764 0
-10 -765 0
-10 -766 0
-558 10 761 762 763 764 765 766 0
-26 559 0
-767 558 0
-767 530 0
-558 -530 767 0
-768 560 0
-768 545 0
-560 -545 768 0
-769 561 0
-769 552 0
-561 -552 769 0
-770 562 0
-770 566 0
-562 -566 770 0
-771 563 0
-771 573 0
-563 -573 771 0
-772 564 0
-772 580 0
-564 -580 772 0
-26 -767 0
-26 -768 0
-26 -769 0
-26 -770 0
-26 -771 0
-26 -772 0
-559 26 767 768 769 770 771 772 0
-42 560 0
-773 558 0
-773 533 0
-558 -533 773 0
-774 559 0
-774 532 0
-559 -532 774 0
-775 561 0
-775 553 0
-561 -553 775 0
-776 562 0
-776 567 0
-562 -567 776 0
-777 563 0
-777 574 0
-563 -574 777 0
-778 564 0
-778 581 0
-564 -581 778 0
-42 -773 0
-42 -774 0
-42 -775 0
-42 -776 0
-42 -777 0
-42 -778 0
-560 42 773 774 775 776 777 778 0
-58 561 0
-779 558 0
-779 535 0
-558 -535 779 0
-780 559 0
-780 534 0
-559 -534 780 0
-781 560 0
-781 546 0
-560 -546 781 0
-782 562 0
-782 568 0
-562 -568 782 0
-783 563 0
-783 575 0
-563 -575 783 0
-784 564 0
-784 582 0
-564 -582 784 0
-58 -779 0
-58 -780 0
-58 -781 0
-58 -782 0
-58 -783 0
-58 -784 0
-561 58 779 780 781 782 783 784 0
-74 0
-90 562 0
-785 558 0
-785 539 0
-558 -539 785 0
-786 559 0
-786 538 0
-559 -538 786 0
-787 560 0
-787 548 0
-560 -548 787 0
-788 561 0
-788 555 0
-561 -555 788 0
-789 563 0
-789 577 0
-563 -577 789 0
-790 564 0
-790 584 0
-564 -584 790 0
-90 -785 0
-90 -786 0
-90 -787 0
-90 -788 0
-90 -789 0
-90 -790 0
-562 90 785 786 787 788 789 790 0
-106 563 0
-791 558 0
-791 541 0
-558 -541 791 0
-792 559 0
-792 540 0
-559 -540 792 0
-793 560 0
-793 549 0
-560 -549 793 0
-794 561 0
-794 556 0
-561 -556 794 0
-795 562 0
-795 570 0
-562 -570 795 0
-796 564 0
-796 585 0
-564 -585 796 0
-106 -791 0
-106 -792 0
-106 -793 0
-106 -794 0
-106 -795 0
-106 -796 0
-563 106 791 792 793 794 795 796 0
-122 564 0
-797 558 0
-797 543 0
-558 -543 797 0
-798 559 0
-798 542 0
-559 -542 798 0
-799 560 0
-799 550 0
-560 -550 799 0
-800 561 0
-800 557 0
-561 -557 800 0
-801 562 0
-801 571 0
-562 -571 801 0
-802 563 0
-802 578 0
-563 -578 802 0
-122 -797 0
-122 -798 0
-122 -799 0
-122 -800 0
-122 -801 0
-122 -802 0
-564 122 797 798 799 800 801 802 0
-12 565 0
-803 566 0
-803 531 0
-566 -531 803 0
-804 567 0
-804 544 0
-567 -544 804 0
-805 568 0
-805 551 0
-568 -551 805 0
-806 569 0
-806 558 0
-569 -558 806 0
-807 570 0
-807 572 0
-570 -572 807 0
-808 571 0
-808 579 0
-571 -579 808 0
-12 -803 0
-12 -804 0
-12 -805 0
-12 -806 0
-12 -807 0
-12 -808 0
-565 12 803 804 805 806 807 808 0
-28 566 0
-809 565 0
-809 530 0
-565 -530 809 0
-810 567 0
-810 545 0
-567 -545 810 0
-811 568 0
-811 552 0
-568 -552 811 0
-812 569 0
-812 559 0
-569 -559 812 0
-813 570 0
-813 573 0
-570 -573 813 0
-814 571 0
-814 580 0
-571 -580 814 0
-28 -809 0
-28 -810 0
-28 -811 0
-28 -812 0
-28 -813 0
-28 -814 0
-566 28 809 810 811 812 813 814 0
-44 567 0
-815 565 0
-815 533 0
-565 -533 815 0
-816 566 0
-816 532 0
-566 -532 816 0
-817 568 0
-817 553 0
-568 -553 817 0
-818 569 0
-818 560 0
-569 -560 818 0
-819 570 0
-819 574 0
-570 -574 819 0
-820 571 0
-820 581 0
-571 -581 820 0
-44 -815 0
-44 -816 0
-44 -817 0
-44 -818 0
-44 -819 0
-44 -820 0
-567 44 815 816 817 818 819 820 0
-60 568 0
-821 565 0
-821 535 0
-565 -535 821 0
-822 566 0
-822 534 0
-566 -534 822 0
-823 567 0
-823 546 0
-567 -546 823 0
-824 569 0
-824 561 0
-569 -561 824 0
-825 570 0
-825 575 0
-570 -575 825 0
-826 571 0
-826 582 0
-571 -582 826 0
-60 -821 0
-60 -822 0
-60 -823 0
-60 -824 0
-60 -825 0
-60 -826 0
-568 60 821 822 823 824 825 826 0
-76 569 0
-827 565 0
-827 537 0
-565 -537 827 0
-828 566 0
-828 536 0
-566 -536 828 0
-829 567 0
-829 547 0
-567 -547 829 0
-830 568 0
-830 554 0
-568 -554 830 0
-831 570 0
-831 576 0
-570 -576 831 0
-832 571 0
-832 583 0
-571 -583 832 0
-76 -827 0
-76 -828 0
-76 -829 0
-76 -830 0
-76 -831 0
-76 -832 0
-569 76 827 828 829 830 831 832 0
-92 0
-108 570 0
-833 565 0
-833 541 0
-565 -541 833 0
-834 566 0
-834 540 0
-566 -540 834 0
-835 567 0
-835 549 0
-567 -549 835 0
-836 568 0
-836 556 0
-568 -556 836 0
-837 569 0
-837 563 0
-569 -563 837 0
-838 571 0
-838 585 0
-571 -585 838 0
-108 -833 0
-108 -834 0
-108 -835 0
-108 -836 0
-108 -837 0
-108 -838 0
-570 108 833 834 835 836 837 838 0
-124 571 0
-839 565 0
-839 543 0
-565 -543 839 0
-840 566 0
-840 542 0
-566 -542 840 0
-841 567 0
-841 550 0
-567 -550 841 0
-842 568 0
-842 557 0
-568 -557 842 0
-843 569 0
-843 564 0
-569 -564 843 0
-844 570 0
-844 578 0
-570 -578 844 0
-124 -839 0
-124 -840 0
-124 -841 0
-124 -842 0
-124 -843 0
-124 -844 0
-571 124 839 840 841 842 843 844 0
-14 572 0
-845 573 0
-845 531 0
-573 -531 845 0
-846 574 0
-846 544 0
-574 -544 846 0
-847 575 0
-847 551 0
-575 -551 847 0
-848 576 0
-848 558 0
-576 -558 848 0
-849 577 0
-849 565 0
-577 -565 849 0
-850 578 0
-850 579 0
-578 -579 850 0
-14 -845 0
-14 -846 0
-14 -847 0
-14 -848 0
-14 -849 0
-14 -850 0
-572 14 845 846 847 848 849 850 0
-30 573 0
-851 572 0
-851 530 0
-572 -530 851 0
-852 574 0
-852 545 0
-574 -545 852 0
-853 575 0
-853 552 0
-575 -552 853 0
-854 576 0
-854 559 0
-576 -559 854 0
-855 577 0
-855 566 0
-577 -566 855 0
-856 578 0
-856 580 0
-578 -580 856 0
-30 -851 0
-30 -852 0
-30 -853 0
-30 -854 0
-30 -855 0
-30 -856 0
-573 30 851 852 853 854 855 856 0
-46 574 0
-857 572 0
-857 533 0
-572 -533 857 0
-858 573 0
-858 532 0
-573 -532 858 0
-859 575 0
-859 553 0
-575 -553 859 0
-860 576 0
-860 560 0
-576 -560 860 0
-861 577 0
-861 567 0
-577 -567 861 0
-862 578 0
-862 581 0
-578 -581 862 0
-46 -857 0
-46 -858 0
-46 -859 0
-46 -860 0
-46 -861 0
-46 -862 0
-574 46 857 858 859 860 861 862 0
-62 575 0
-863 572 0
-863 535 0
-572 -535 863 0
-864 573 0
-864 534 0
-573 -534 864 0
-865 574 0
-865 546 0
-574 -546 865 0
-866 576 0
-866 561 0
-576 -561 866 0
-867 577 0
-867 568 0
-577 -568 867 0
-868 578 0
-868 582 0
-578 -582 868 0
-62 -863 0
-62 -864 0
-62 -865 0
-62 -866 0
-62 -867 0
-62 -868 0
-575 62 863 864 865 866 867 868 0
-78 576 0
-869 572 0
-869 537 0
-572 -537 869 0
-870 573 0
-870 536 0
-573 -536 870 0
-871 574 0
-871 547 0
-574 -547 871 0
-872 575 0
-872 554 0
-575 -554 872 0
-873 577 0
-873 569 0
-577 -569 873 0
-874 578 0
-874 583 0
-578 -583 874 0
-78 -869 0
-78 -870 0
-78 -871 0
-78 -872 0
-78 -873 0
-78 -874 0
-576 78 869 870 871 872 873 874 0
-94 577 0
-875 572 0
-875 539 0
-572 -539 875 0
-876 573 0
-876 538 0
-573 -538 876 0
-877 574 0
-877 548 0
-574 -548 877 0
-878 575 0
-878 555 0
-575 -555 878 0
-879 576 0
-879 562 0
-576 -562 879 0
-880 578 0
-880 584 0
-578 -584 880 0
-94 -875 0
-94 -876 0
-94 -877 0
-94 -878 0
-94 -879 0
-94 -880 0
-577 94 875 876 877 878 879 880 0
-110 0
-126 578 0
-881 572 0
-881 543 0
-572 -543 881 0
-882 573 0
-882 542 0
-573 -542 882 0
-883 574 0
-883 550 0
-574 -550 883 0
-884 575 0
-884 557 0
-575 -557 884 0
-885 576 0
-885 564 0
-576 -564 885 0
-886 577 0
-886 571 0
-577 -571 886 0
-126 -881 0
-126 -882 0
-126 -883 0
-126 -884 0
-126 -885 0
-126 -886 0
-578 126 881 882 883 884 885 886 0
-16 579 0
-887 580 0
-887 531 0
-580 -531 887 0
-888 581 0
-888 544 0
-581 -544 888 0
-889 582 0
-889 551 0
-582 -551 889 0
-890 583 0
-890 558 0
-583 -558 890 0
-891 584 0
-891 565 0
-584 -565 891 0
-892 585 0
-892 572 0
-585 -572 892 0
-16 -887 0
-16 -888 0
-16 -889 0
-16 -890 0
-16 -891 0
-16 -892 0
-579 16 887 888 889 890 891 892 0
-32 580 0
-893 579 0
-893 530 0
-579 -530 893 0
-894 581 0
-894 545 0
-581 -545 894 0
-895 582 0
-895 552 0
-582 -552 895 0
-896 583 0
-896 559 0
-583 -559 896 0
-897 584 0
-897 566 0
-584 -566 897 0
-898 585 0
-898 573 0
-585 -573 898 0
-32 -893 0
-32 -894 0
-32 -895 0
-32 -896 0
-32 -897 0
-32 -898 0
-580 32 893 894 895 896 897 898 0
-48 581 0
-899 579 0
-899 533 0
-579 -533 899 0
-900 580 0
-900 532 0
-580 -532 900 0
-901 582 0
-901 553 0
-582 -553 901 0
-902 583 0
-902 560 0
-583 -560 902 0
-903 584 0
-903 567 0
-584 -567 903 0
-904 585 0
-904 574 0
-585 -574 904 0
-48 -899 0
-48 -900 0
-48 -901 0
-48 -902 0
-48 -903 0
-48 -904 0
-581 48 899 900 901 902 903 904 0
-64 582 0
-905 579 0
-905 535 0
-579 -535 905 0
-906 580 0
-906 534 0
-580 -534 906 0
-907 581 0
-907 546 0
-581 -546 907 0
-908 583 0
-908 561 0
-583 -561 908 0
-909 584 0
-909 568 0
-584 -568 909 0
-910 585 0
-910 575 0
-585 -575 910 0
-64 -905 0
-64 -906 0
-64 -907 0
-64 -908 0
-64 -909 0
-64 -910 0
-582 64 905 906 907 908 909 910 0
-80 583 0
-911 579 0
-911 537 0
-579 -537 911 0
-912 580 0
-912 536 0
-580 -536 912 0
-913 581 0
-913 547 0
-581 -547 913 0
-914 582 0
-914 554 0
-582 -554 914 0
-915 584 0
-915 569 0
-584 -569 915 0
-916 585 0
-916 576 0
-585 -576 916 0
-80 -911 0
-80 -912 0
-80 -913 0
-80 -914 0
-80 -915 0
-80 -916 0
-583 80 911 912 913 914 915 916 0
-96 584 0
-917 579 0
-917 539 0
-579 -539 917 0
-918 580 0
-918 538 0
-580 -538 918 0
-919 581 0
-919 548 0
-581 -548 919 0
-920 582 0
-920 555 0
-582 -555 920 0
-921 583 0
-921 562 0
-583 -562 921 0
-922 585 0
-922 577 0
-585 -577 922 0
-96 -917 0
-96 -918 0
-96 -919 0
-96 -920 0
-96 -921 0
-96 -922 0
-584 96 917 918 919 920 921 922 0
-112 585 0
-923 579 0
-923 541 0
-579 -541 923 0
-924 580 0
-924 540 0
-580 -540 924 0
-925 581 0
-925 549 0
-581 -549 925 0
-926 582 0
-926 556 0
-582 -556 926 0
-927 583 0
-927 563 0
-583 -563 927 0
-928 584 0
-928 570 0
-584 -570 928 0
-112 -923 0
-112 -924 0
-112 -925 0
-112 -926 0
-112 -927 0
-112 -928 0
-585 112 923 924 925 926 927 928 0
-128 0
