p cnf 616 2562
-1 -2 0
-3 -4 0
-5 -6 0
-7 -8 0
-9 -10 0
-11 -12 0
-13 -14 0
-15 -16 0
-17 -18 0
-19 -20 0
-21 -22 0
-23 -24 0
-25 -26 0
-27 -28 0
-29 -30 0
-31 -32 0
-33 -34 0
-35 -36 0
-37 -38 0
-39 -40 0
-41 -42 0
-43 -44 0
-45 -46 0
-47 -48 0
-49 -50 0
-51 -52 0
-53 -54 0
-55 -56 0
-57 -58 0
-59 -60 0
-61 -62 0
-63 -64 0
-65 -66 0
-67 -68 0
-69 -70 0
-71 -72 0
-73 -74 0
-75 -76 0
-77 -78 0
-79 -80 0
-81 -82 0
-83 -84 0
-85 -86 0
-87 -88 0
-89 -90 0
-91 -92 0
-93 -94 0
-95 -96 0
-97 -98 0
-1 -2 0
-15 -4 0
-29 -6 0
-43 -8 0
-57 -10 0
-71 -12 0
-85 -14 0
-3 -16 0
-17 -18 0
-31 -20 0
-45 -22 0
-59 -24 0
-73 -26 0
-87 -28 0
-5 -30 0
-19 -32 0
-33 -34 0
-47 -36 0
-61 -38 0
-75 -40 0
-89 -42 0
-7 -44 0
-21 -46 0
-35 -48 0
-49 -50 0
-63 -52 0
-77 -54 0
-91 -56 0
-9 -58 0
-23 -60 0
-37 -62 0
-51 -64 0
-65 -66 0
-79 -68 0
-93 -70 0
-11 -72 0
-25 -74 0
-39 -76 0
-53 -78 0
-67 -80 0
-81 -82 0
-95 -84 0
-13 -86 0
-27 -88 0
-41 -90 0
-55 -92 0
-69 -94 0
-83 -96 0
-97 -98 0
99 0
100 101 0
-100 -101 0
-100 -102 103 0
-100 -104 105 0
-100 -106 107 0
-100 -108 109 0
-100 -110 111 0
103 112 0
-103 -112 0
-103 -113 100 0
-103 -114 105 0
-103 -115 107 0
-103 -116 109 0
-103 -117 111 0
105 118 0
-105 -118 0
-105 -119 100 0
-105 -120 103 0
-105 -121 107 0
-105 -122 109 0
-105 -123 111 0
107 124 0
-107 -124 0
-107 -125 100 0
-107 -126 103 0
-107 -127 105 0
-107 -128 109 0
-107 -129 111 0
109 130 0
-109 -130 0
-109 -131 100 0
-109 -132 103 0
-109 -133 105 0
-109 -134 107 0
-109 -135 111 0
111 136 0
-111 -136 0
-111 -137 100 0
-111 -138 103 0
-111 -139 105 0
-111 -140 107 0
-111 -141 109 0
142 0
101 100 0
-101 -100 0
-101 -103 102 0
-101 -105 104 0
-101 -107 106 0
-101 -109 108 0
-101 -111 110 0
102 113 0
-102 -113 0
-102 -112 101 0
-102 -114 104 0
-102 -115 106 0
-102 -116 108 0
-102 -117 110 0
104 119 0
-104 -119 0
-104 -118 101 0
-104 -120 102 0
-104 -121 106 0
-104 -122 108 0
-104 -123 110 0
106 125 0
-106 -125 0
-106 -124 101 0
-106 -126 102 0
-106 -127 104 0
-106 -128 108 0
-106 -129 110 0
108 131 0
-108 -131 0
-108 -130 101 0
-108 -132 102 0
-108 -133 104 0
-108 -134 106 0
-108 -135 110 0
110 137 0
-110 -137 0
-110 -136 101 0
-110 -138 102 0
-110 -139 104 0
-110 -140 106 0
-110 -141 108 0
143 0
112 103 0
-112 -103 0
-112 -100 113 0
-112 -105 114 0
-112 -107 115 0
-112 -109 116 0
-112 -111 117 0
113 102 0
-113 -102 0
-113 -101 112 0
-113 -104 114 0
-113 -106 115 0
-113 -108 116 0
-113 -110 117 0
114 120 0
-114 -120 0
-114 -118 112 0
-114 -119 113 0
-114 -121 115 0
-114 -122 116 0
-114 -123 117 0
115 126 0
-115 -126 0
-115 -124 112 0
-115 -125 113 0
-115 -127 114 0
-115 -128 116 0
-115 -129 117 0
116 132 0
-116 -132 0
-116 -130 112 0
-116 -131 113 0
-116 -133 114 0
-116 -134 115 0
-116 -135 117 0
117 138 0
-117 -138 0
-117 -136 112 0
-117 -137 113 0
-117 -139 114 0
-117 -140 115 0
-117 -141 116 0
144 0
118 105 0
-118 -105 0
-118 -100 119 0
-118 -103 120 0
-118 -107 121 0
-118 -109 122 0
-118 -111 123 0
119 104 0
-119 -104 0
-119 -101 118 0
-119 -102 120 0
-119 -106 121 0
-119 -108 122 0
-119 -110 123 0
120 114 0
-120 -114 0
-120 -112 118 0
-120 -113 119 0
-120 -115 121 0
-120 -116 122 0
-120 -117 123 0
121 127 0
-121 -127 0
-121 -124 118 0
-121 -125 119 0
-121 -126 120 0
-121 -128 122 0
-121 -129 123 0
122 133 0
-122 -133 0
-122 -130 118 0
-122 -131 119 0
-122 -132 120 0
-122 -134 121 0
-122 -135 123 0
123 139 0
-123 -139 0
-123 -136 118 0
-123 -137 119 0
-123 -138 120 0
-123 -140 121 0
-123 -141 122 0
145 0
124 107 0
-124 -107 0
-124 -100 125 0
-124 -103 126 0
-124 -105 127 0
-124 -109 128 0
-124 -111 129 0
125 106 0
-125 -106 0
-125 -101 124 0
-125 -102 126 0
-125 -104 127 0
-125 -108 128 0
-125 -110 129 0
126 115 0
-126 -115 0
-126 -112 124 0
-126 -113 125 0
-126 -114 127 0
-126 -116 128 0
-126 -117 129 0
127 121 0
-127 -121 0
-127 -118 124 0
-127 -119 125 0
-127 -120 126 0
-127 -122 128 0
-127 -123 129 0
128 134 0
-128 -134 0
-128 -130 124 0
-128 -131 125 0
-128 -132 126 0
-128 -133 127 0
-128 -135 129 0
129 140 0
-129 -140 0
-129 -136 124 0
-129 -137 125 0
-129 -138 126 0
-129 -139 127 0
-129 -141 128 0
146 0
130 109 0
-130 -109 0
-130 -100 131 0
-130 -103 132 0
-130 -105 133 0
-130 -107 134 0
-130 -111 135 0
131 108 0
-131 -108 0
-131 -101 130 0
-131 -102 132 0
-131 -104 133 0
-131 -106 134 0
-131 -110 135 0
132 116 0
-132 -116 0
-132 -112 130 0
-132 -113 131 0
-132 -114 133 0
-132 -115 134 0
-132 -117 135 0
133 122 0
-133 -122 0
-133 -118 130 0
-133 -119 131 0
-133 -120 132 0
-133 -121 134 0
-133 -123 135 0
134 128 0
-134 -128 0
-134 -124 130 0
-134 -125 131 0
-134 -126 132 0
-134 -127 133 0
-134 -129 135 0
135 141 0
-135 -141 0
-135 -136 130 0
-135 -137 131 0
-135 -138 132 0
-135 -139 133 0
-135 -140 134 0
147 0
136 111 0
-136 -111 0
-136 -100 137 0
-136 -103 138 0
-136 -105 139 0
-136 -107 140 0
-136 -109 141 0
137 110 0
-137 -110 0
-137 -101 136 0
-137 -102 138 0
-137 -104 139 0
-137 -106 140 0
-137 -108 141 0
138 117 0
-138 -117 0
-138 -112 136 0
-138 -113 137 0
-138 -114 139 0
-138 -115 140 0
-138 -116 141 0
139 123 0
-139 -123 0
-139 -118 136 0
-139 -119 137 0
-139 -120 138 0
-139 -121 140 0
-139 -122 141 0
140 129 0
-140 -129 0
-140 -124 136 0
-140 -125 137 0
-140 -126 138 0
-140 -127 139 0
-140 -128 141 0
141 135 0
-141 -135 0
-141 -130 136 0
-141 -131 137 0
-141 -132 138 0
-141 -133 139 0
-141 -134 140 0
-1 0
-15 100 0
-148 103 0
-148 113 0
-103 -113 148 0
-149 105 0
-149 119 0
-105 -119 149 0
-150 107 0
-150 125 0
-107 -125 150 0
-151 109 0
-151 131 0
-109 -131 151 0
-152 111 0
-152 137 0
-111 -137 152 0
-15 -148 0
-15 -149 0
-15 -150 0
-15 -151 0
-15 -152 0
-100 15 148 149 150 151 152 0
-29 103 0
-153 100 0
-153 102 0
-100 -102 153 0
-154 105 0
-154 120 0
-105 -120 154 0
-155 107 0
-155 126 0
-107 -126 155 0
-156 109 0
-156 132 0
-109 -132 156 0
-157 111 0
-157 138 0
-111 -138 157 0
-29 -153 0
-29 -154 0
-29 -155 0
-29 -156 0
-29 -157 0
-103 29 153 154 155 156 157 0
-43 105 0
-158 100 0
-158 104 0
-100 -104 158 0
-159 103 0
-159 114 0
-103 -114 159 0
-160 107 0
-160 127 0
-107 -127 160 0
-161 109 0
-161 133 0
-109 -133 161 0
-162 111 0
-162 139 0
-111 -139 162 0
-43 -158 0
-43 -159 0
-43 -160 0
-43 -161 0
-43 -162 0
-105 43 158 159 160 161 162 0
-57 107 0
-163 100 0
-163 106 0
-100 -106 163 0
-164 103 0
-164 115 0
-103 -115 164 0
-165 105 0
-165 121 0
-105 -121 165 0
-166 109 0
-166 134 0
-109 -134 166 0
-167 111 0
-167 140 0
-111 -140 167 0
-57 -163 0
-57 -164 0
-57 -165 0
-57 -166 0
-57 -167 0
-107 57 163 164 165 166 167 0
-71 109 0
-168 100 0
-168 108 0
-100 -108 168 0
-169 103 0
-169 116 0
-103 -116 169 0
-170 105 0
-170 122 0
-105 -122 170 0
-171 107 0
-171 128 0
-107 -128 171 0
-172 111 0
-172 141 0
-111 -141 172 0
-71 -168 0
-71 -169 0
-71 -170 0
-71 -171 0
-71 -172 0
-109 71 168 169 170 171 172 0
-85 111 0
-173 100 0
-173 110 0
-100 -110 173 0
-174 103 0
-174 117 0
-103 -117 174 0
-175 105 0
-175 123 0
-105 -123 175 0
-176 107 0
-176 129 0
-107 -129 176 0
-177 109 0
-177 135 0
-109 -135 177 0
-85 -173 0
-85 -174 0
-85 -175 0
-85 -176 0
-85 -177 0
-111 85 173 174 175 176 177 0
-3 101 0
-178 102 0
-178 112 0
-102 -112 178 0
-179 104 0
-179 118 0
-104 -118 179 0
-180 106 0
-180 124 0
-106 -124 180 0
-181 108 0
-181 130 0
-108 -130 181 0
-182 110 0
-182 136 0
-110 -136 182 0
-3 -178 0
-3 -179 0
-3 -180 0
-3 -181 0
-3 -182 0
-101 3 178 179 180 181 182 0
-17 0
-31 102 0
-183 101 0
-183 103 0
-101 -103 183 0
-184 104 0
-184 120 0
-104 -120 184 0
-185 106 0
-185 126 0
-106 -126 185 0
-186 108 0
-186 132 0
-108 -132 186 0
-187 110 0
-187 138 0
-110 -138 187 0
-31 -183 0
-31 -184 0
-31 -185 0
-31 -186 0
-31 -187 0
-102 31 183 184 185 186 187 0
-45 104 0
-188 101 0
-188 105 0
-101 -105 188 0
-189 102 0
-189 114 0
-102 -114 189 0
-190 106 0
-190 127 0
-106 -127 190 0
-191 108 0
-191 133 0
-108 -133 191 0
-192 110 0
-192 139 0
-110 -139 192 0
-45 -188 0
-45 -189 0
-45 -190 0
-45 -191 0
-45 -192 0
-104 45 188 189 190 191 192 0
-59 106 0
-193 101 0
-193 107 0
-101 -107 193 0
-194 102 0
-194 115 0
-102 -115 194 0
-195 104 0
-195 121 0
-104 -121 195 0
-196 108 0
-196 134 0
-108 -134 196 0
-197 110 0
-197 140 0
-110 -140 197 0
-59 -193 0
-59 -194 0
-59 -195 0
-59 -196 0
-59 -197 0
-106 59 193 194 195 196 197 0
-73 108 0
-198 101 0
-198 109 0
-101 -109 198 0
-199 102 0
-199 116 0
-102 -116 199 0
-200 104 0
-200 122 0
-104 -122 200 0
-201 106 0
-201 128 0
-106 -128 201 0
-202 110 0
-202 141 0
-110 -141 202 0
-73 -198 0
-73 -199 0
-73 -200 0
-73 -201 0
-73 -202 0
-108 73 198 199 200 201 202 0
-87 110 0
-203 101 0
-203 111 0
-101 -111 203 0
-204 102 0
-204 117 0
-102 -117 204 0
-205 104 0
-205 123 0
-104 -123 205 0
-206 106 0
-206 129 0
-106 -129 206 0
-207 108 0
-207 135 0
-108 -135 207 0
-87 -203 0
-87 -204 0
-87 -205 0
-87 -206 0
-87 -207 0
-110 87 203 204 205 206 207 0
-5 112 0
-208 113 0
-208 101 0
-113 -101 208 0
-209 114 0
-209 118 0
-114 -118 209 0
-210 115 0
-210 124 0
-115 -124 210 0
-211 116 0
-211 130 0
-116 -130 211 0
-212 117 0
-212 136 0
-117 -136 212 0
-5 -208 0
-5 -209 0
-5 -210 0
-5 -211 0
-5 -212 0
-112 5 208 209 210 211 212 0
-19 113 0
-213 112 0
-213 100 0
-112 -100 213 0
-214 114 0
-214 119 0
-114 -119 214 0
-215 115 0
-215 125 0
-115 -125 215 0
-216 116 0
-216 131 0
-116 -131 216 0
-217 117 0
-217 137 0
-117 -137 217 0
-19 -213 0
-19 -214 0
-19 -215 0
-19 -216 0
-19 -217 0
-113 19 213 214 215 216 217 0
-33 0
-47 114 0
-218 112 0
-218 105 0
-112 -105 218 0
-219 113 0
-219 104 0
-113 -104 219 0
-220 115 0
-220 127 0
-115 -127 220 0
-221 116 0
-221 133 0
-116 -133 221 0
-222 117 0
-222 139 0
-117 -139 222 0
-47 -218 0
-47 -219 0
-47 -220 0
-47 -221 0
-47 -222 0
-114 47 218 219 220 221 222 0
-61 115 0
-223 112 0
-223 107 0
-112 -107 223 0
-224 113 0
-224 106 0
-113 -106 224 0
-225 114 0
-225 121 0
-114 -121 225 0
-226 116 0
-226 134 0
-116 -134 226 0
-227 117 0
-227 140 0
-117 -140 227 0
-61 -223 0
-61 -224 0
-61 -225 0
-61 -226 0
-61 -227 0
-115 61 223 224 225 226 227 0
-75 116 0
-228 112 0
-228 109 0
-112 -109 228 0
-229 113 0
-229 108 0
-113 -108 229 0
-230 114 0
-230 122 0
-114 -122 230 0
-231 115 0
-231 128 0
-115 -128 231 0
-232 117 0
-232 141 0
-117 -141 232 0
-75 -228 0
-75 -229 0
-75 -230 0
-75 -231 0
-75 -232 0
-116 75 228 229 230 231 232 0
-89 117 0
-233 112 0
-233 111 0
-112 -111 233 0
-234 113 0
-234 110 0
-113 -110 234 0
-235 114 0
-235 123 0
-114 -123 235 0
-236 115 0
-236 129 0
-115 -129 236 0
-237 116 0
-237 135 0
-116 -135 237 0
-89 -233 0
-89 -234 0
-89 -235 0
-89 -236 0
-89 -237 0
-117 89 233 234 235 236 237 0
-7 118 0
-238 119 0
-238 101 0
-119 -101 238 0
-239 120 0
-239 112 0
-120 -112 239 0
-240 121 0
-240 124 0
-121 -124 240 0
-241 122 0
-241 130 0
-122 -130 241 0
-242 123 0
-242 136 0
-123 -136 242 0
-7 -238 0
-7 -239 0
-7 -240 0
-7 -241 0
-7 -242 0
-118 7 238 239 240 241 242 0
-21 119 0
-243 118 0
-243 100 0
-118 -100 243 0
-244 120 0
-244 113 0
-120 -113 244 0
-245 121 0
-245 125 0
-121 -125 245 0
-246 122 0
-246 131 0
-122 -131 246 0
-247 123 0
-247 137 0
-123 -137 247 0
-21 -243 0
-21 -244 0
-21 -245 0
-21 -246 0
-21 -247 0
-119 21 243 244 245 246 247 0
-35 120 0
-248 118 0
-248 103 0
-118 -103 248 0
-249 119 0
-249 102 0
-119 -102 249 0
-250 121 0
-250 126 0
-121 -126 250 0
-251 122 0
-251 132 0
-122 -132 251 0
-252 123 0
-252 138 0
-123 -138 252 0
-35 -248 0
-35 -249 0
-35 -250 0
-35 -251 0
-35 -252 0
-120 35 248 249 250 251 252 0
-49 0
-63 121 0
-253 118 0
-253 107 0
-118 -107 253 0
-254 119 0
-254 106 0
-119 -106 254 0
-255 120 0
-255 115 0
-120 -115 255 0
-256 122 0
-256 134 0
-122 -134 256 0
-257 123 0
-257 140 0
-123 -140 257 0
-63 -253 0
-63 -254 0
-63 -255 0
-63 -256 0
-63 -257 0
-121 63 253 254 255 256 257 0
-77 122 0
-258 118 0
-258 109 0
-118 -109 258 0
-259 119 0
-259 108 0
-119 -108 259 0
-260 120 0
-260 116 0
-120 -116 260 0
-261 121 0
-261 128 0
-121 -128 261 0
-262 123 0
-262 141 0
-123 -141 262 0
-77 -258 0
-77 -259 0
-77 -260 0
-77 -261 0
-77 -262 0
-122 77 258 259 260 261 262 0
-91 123 0
-263 118 0
-263 111 0
-118 -111 263 0
-264 119 0
-264 110 0
-119 -110 264 0
-265 120 0
-265 117 0
-120 -117 265 0
-266 121 0
-266 129 0
-121 -129 266 0
-267 122 0
-267 135 0
-122 -135 267 0
-91 -263 0
-91 -264 0
-91 -265 0
-91 -266 0
-91 -267 0
-123 91 263 264 265 266 267 0
-9 124 0
-268 125 0
-268 101 0
-125 -101 268 0
-269 126 0
-269 112 0
-126 -112 269 0
-270 127 0
-270 118 0
-127 -118 270 0
-271 128 0
-271 130 0
-128 -130 271 0
-272 129 0
-272 136 0
-129 -136 272 0
-9 -268 0
-9 -269 0
-9 -270 0
-9 -271 0
-9 -272 0
-124 9 268 269 270 271 272 0
-23 125 0
-273 124 0
-273 100 0
-124 -100 273 0
-274 126 0
-274 113 0
-126 -113 274 0
-275 127 0
-275 119 0
-127 -119 275 0
-276 128 0
-276 131 0
-128 -131 276 0
-277 129 0
-277 137 0
-129 -137 277 0
-23 -273 0
-23 -274 0
-23 -275 0
-23 -276 0
-23 -277 0
-125 23 273 274 275 276 277 0
-37 126 0
-278 124 0
-278 103 0
-124 -103 278 0
-279 125 0
-279 102 0
-125 -102 279 0
-280 127 0
-280 120 0
-127 -120 280 0
-281 128 0
-281 132 0
-128 -132 281 0
-282 129 0
-282 138 0
-129 -138 282 0
-37 -278 0
-37 -279 0
-37 -280 0
-37 -281 0
-37 -282 0
-126 37 278 279 280 281 282 0
-51 127 0
-283 124 0
-283 105 0
-124 -105 283 0
-284 125 0
-284 104 0
-125 -104 284 0
-285 126 0
-285 114 0
-126 -114 285 0
-286 128 0
-286 133 0
-128 -133 286 0
-287 129 0
-287 139 0
-129 -139 287 0
-51 -283 0
-51 -284 0
-51 -285 0
-51 -286 0
-51 -287 0
-127 51 283 284 285 286 287 0
-65 0
-79 128 0
-288 124 0
-288 109 0
-124 -109 288 0
-289 125 0
-289 108 0
-125 -108 289 0
-290 126 0
-290 116 0
-126 -116 290 0
-291 127 0
-291 122 0
-127 -122 291 0
-292 129 0
-292 141 0
-129 -141 292 0
-79 -288 0
-79 -289 0
-79 -290 0
-79 -291 0
-79 -292 0
-128 79 288 289 290 291 292 0
-93 129 0
-293 124 0
-293 111 0
-124 -111 293 0
-294 125 0
-294 110 0
-125 -110 294 0
-295 126 0
-295 117 0
-126 -117 295 0
-296 127 0
-296 123 0
-127 -123 296 0
-297 128 0
-297 135 0
-128 -135 297 0
-93 -293 0
-93 -294 0
-93 -295 0
-93 -296 0
-93 -297 0
-129 93 293 294 295 296 297 0
-11 130 0
-298 131 0
-298 101 0
-131 -101 298 0
-299 132 0
-299 112 0
-132 -112 299 0
-300 133 0
-300 118 0
-133 -118 300 0
-301 134 0
-301 124 0
-134 -124 301 0
-302 135 0
-302 136 0
-135 -136 302 0
-11 -298 0
-11 -299 0
-11 -300 0
-11 -301 0
-11 -302 0
-130 11 298 299 300 301 302 0
-25 131 0
-303 130 0
-303 100 0
-130 -100 303 0
-304 132 0
-304 113 0
-132 -113 304 0
-305 133 0
-305 119 0
-133 -119 305 0
-306 134 0
-306 125 0
-134 -125 306 0
-307 135 0
-307 137 0
-135 -137 307 0
-25 -303 0
-25 -304 0
-25 -305 0
-25 -306 0
-25 -307 0
-131 25 303 304 305 306 307 0
-39 132 0
-308 130 0
-308 103 0
-130 -103 308 0
-309 131 0
-309 102 0
-131 -102 309 0
-310 133 0
-310 120 0
-133 -120 310 0
-311 134 0
-311 126 0
-134 -126 311 0
-312 135 0
-312 138 0
-135 -138 312 0
-39 -308 0
-39 -309 0
-39 -310 0
-39 -311 0
-39 -312 0
-132 39 308 309 310 311 312 0
-53 133 0
-313 130 0
-313 105 0
-130 -105 313 0
-314 131 0
-314 104 0
-131 -104 314 0
-315 132 0
-315 114 0
-132 -114 315 0
-316 134 0
-316 127 0
-134 -127 316 0
-317 135 0
-317 139 0
-135 -139 317 0
-53 -313 0
-53 -314 0
-53 -315 0
-53 -316 0
-53 -317 0
-133 53 313 314 315 316 317 0
-67 134 0
-318 130 0
-318 107 0
-130 -107 318 0
-319 131 0
-319 106 0
-131 -106 319 0
-320 132 0
-320 115 0
-132 -115 320 0
-321 133 0
-321 121 0
-133 -121 321 0
-322 135 0
-322 140 0
-135 -140 322 0
-67 -318 0
-67 -319 0
-67 -320 0
-67 -321 0
-67 -322 0
-134 67 318 319 320 321 322 0
-81 0
-95 135 0
-323 130 0
-323 111 0
-130 -111 323 0
-324 131 0
-324 110 0
-131 -110 324 0
-325 132 0
-325 117 0
-132 -117 325 0
-326 133 0
-326 123 0
-133 -123 326 0
-327 134 0
-327 129 0
-134 -129 327 0
-95 -323 0
-95 -324 0
-95 -325 0
-95 -326 0
-95 -327 0
-135 95 323 324 325 326 327 0
-13 136 0
-328 137 0
-328 101 0
-137 -101 328 0
-329 138 0
-329 112 0
-138 -112 329 0
-330 139 0
-330 118 0
-139 -118 330 0
-331 140 0
-331 124 0
-140 -124 331 0
-332 141 0
-332 130 0
-141 -130 332 0
-13 -328 0
-13 -329 0
-13 -330 0
-13 -331 0
-13 -332 0
-136 13 328 329 330 331 332 0
-27 137 0
-333 136 0
-333 100 0
-136 -100 333 0
-334 138 0
-334 113 0
-138 -113 334 0
-335 139 0
-335 119 0
-139 -119 335 0
-336 140 0
-336 125 0
-140 -125 336 0
-337 141 0
-337 131 0
-141 -131 337 0
-27 -333 0
-27 -334 0
-27 -335 0
-27 -336 0
-27 -337 0
-137 27 333 334 335 336 337 0
-41 138 0
-338 136 0
-338 103 0
-136 -103 338 0
-339 137 0
-339 102 0
-137 -102 339 0
-340 139 0
-340 120 0
-139 -120 340 0
-341 140 0
-341 126 0
-140 -126 341 0
-342 141 0
-342 132 0
-141 -132 342 0
-41 -338 0
-41 -339 0
-41 -340 0
-41 -341 0
-41 -342 0
-138 41 338 339 340 341 342 0
-55 139 0
-343 136 0
-343 105 0
-136 -105 343 0
-344 137 0
-344 104 0
-137 -104 344 0
-345 138 0
-345 114 0
-138 -114 345 0
-346 140 0
-346 127 0
-140 -127 346 0
-347 141 0
-347 133 0
-141 -133 347 0
-55 -343 0
-55 -344 0
-55 -345 0
-55 -346 0
-55 -347 0
-139 55 343 344 345 346 347 0
-69 140 0
-348 136 0
-348 107 0
-136 -107 348 0
-349 137 0
-349 106 0
-137 -106 349 0
-350 138 0
-350 115 0
-138 -115 350 0
-351 139 0
-351 121 0
-139 -121 351 0
-352 141 0
-352 134 0
-141 -134 352 0
-69 -348 0
-69 -349 0
-69 -350 0
-69 -351 0
-69 -352 0
-140 69 348 349 350 351 352 0
-83 141 0
-353 136 0
-353 109 0
-136 -109 353 0
-354 137 0
-354 108 0
-137 -108 354 0
-355 138 0
-355 116 0
-138 -116 355 0
-356 139 0
-356 122 0
-139 -122 356 0
-357 140 0
-357 128 0
-140 -128 357 0
-83 -353 0
-83 -354 0
-83 -355 0
-83 -356 0
-83 -357 0
-141 83 353 354 355 356 357 0
-97 0
358 0
359 360 0
-359 -360 0
-359 -361 362 0
-359 -363 364 0
-359 -365 366 0
-359 -367 368 0
-359 -369 370 0
362 371 0
-362 -371 0
-362 -372 359 0
-362 -373 364 0
-362 -374 366 0
-362 -375 368 0
-362 -376 370 0
364 377 0
-364 -377 0
-364 -378 359 0
-364 -379 362 0
-364 -380 366 0
-364 -381 368 0
-364 -382 370 0
366 383 0
-366 -383 0
-366 -384 359 0
-366 -385 362 0
-366 -386 364 0
-366 -387 368 0
-366 -388 370 0
368 389 0
-368 -389 0
-368 -390 359 0
-368 -391 362 0
-368 -392 364 0
-368 -393 366 0
-368 -394 370 0
370 395 0
-370 -395 0
-370 -396 359 0
-370 -397 362 0
-370 -398 364 0
-370 -399 366 0
-370 -400 368 0
401 0
360 359 0
-360 -359 0
-360 -362 361 0
-360 -364 363 0
-360 -366 365 0
-360 -368 367 0
-360 -370 369 0
361 372 0
-361 -372 0
-361 -371 360 0
-361 -373 363 0
-361 -374 365 0
-361 -375 367 0
-361 -376 369 0
363 378 0
-363 -378 0
-363 -377 360 0
-363 -379 361 0
-363 -380 365 0
-363 -381 367 0
-363 -382 369 0
365 384 0
-365 -384 0
-365 -383 360 0
-365 -385 361 0
-365 -386 363 0
-365 -387 367 0
-365 -388 369 0
367 390 0
-367 -390 0
-367 -389 360 0
-367 -391 361 0
-367 -392 363 0
-367 -393 365 0
-367 -394 369 0
369 396 0
-369 -396 0
-369 -395 360 0
-369 -397 361 0
-369 -398 363 0
-369 -399 365 0
-369 -400 367 0
402 0
371 362 0
-371 -362 0
-371 -359 372 0
-371 -364 373 0
-371 -366 374 0
-371 -368 375 0
-371 -370 376 0
372 361 0
-372 -361 0
-372 -360 371 0
-372 -363 373 0
-372 -365 374 0
-372 -367 375 0
-372 -369 376 0
373 379 0
-373 -379 0
-373 -377 371 0
-373 -378 372 0
-373 -380 374 0
-373 -381 375 0
-373 -382 376 0
374 385 0
-374 -385 0
-374 -383 371 0
-374 -384 372 0
-374 -386 373 0
-374 -387 375 0
-374 -388 376 0
375 391 0
-375 -391 0
-375 -389 371 0
-375 -390 372 0
-375 -392 373 0
-375 -393 374 0
-375 -394 376 0
376 397 0
-376 -397 0
-376 -395 371 0
-376 -396 372 0
-376 -398 373 0
-376 -399 374 0
-376 -400 375 0
403 0
377 364 0
-377 -364 0
-377 -359 378 0
-377 -362 379 0
-377 -366 380 0
-377 -368 381 0
-377 -370 382 0
378 363 0
-378 -363 0
-378 -360 377 0
-378 -361 379 0
-378 -365 380 0
-378 -367 381 0
-378 -369 382 0
379 373 0
-379 -373 0
-379 -371 377 0
-379 -372 378 0
-379 -374 380 0
-379 -375 381 0
-379 -376 382 0
380 386 0
-380 -386 0
-380 -383 377 0
-380 -384 378 0
-380 -385 379 0
-380 -387 381 0
-380 -388 382 0
381 392 0
-381 -392 0
-381 -389 377 0
-381 -390 378 0
-381 -391 379 0
-381 -393 380 0
-381 -394 382 0
382 398 0
-382 -398 0
-382 -395 377 0
-382 -396 378 0
-382 -397 379 0
-382 -399 380 0
-382 -400 381 0
404 0
383 366 0
-383 -366 0
-383 -359 384 0
-383 -362 385 0
-383 -364 386 0
-383 -368 387 0
-383 -370 388 0
384 365 0
-384 -365 0
-384 -360 383 0
-384 -361 385 0
-384 -363 386 0
-384 -367 387 0
-384 -369 388 0
385 374 0
-385 -374 0
-385 -371 383 0
-385 -372 384 0
-385 -373 386 0
-385 -375 387 0
-385 -376 388 0
386 380 0
-386 -380 0
-386 -377 383 0
-386 -378 384 0
-386 -379 385 0
-386 -381 387 0
-386 -382 388 0
387 393 0
-387 -393 0
-387 -389 383 0
-387 -390 384 0
-387 -391 385 0
-387 -392 386 0
-387 -394 388 0
388 399 0
-388 -399 0
-388 -395 383 0
-388 -396 384 0
-388 -397 385 0
-388 -398 386 0
-388 -400 387 0
405 0
389 368 0
-389 -368 0
-389 -359 390 0
-389 -362 391 0
-389 -364 392 0
-389 -366 393 0
-389 -370 394 0
390 367 0
-390 -367 0
-390 -360 389 0
-390 -361 391 0
-390 -363 392 0
-390 -365 393 0
-390 -369 394 0
391 375 0
-391 -375 0
-391 -371 389 0
-391 -372 390 0
-391 -373 392 0
-391 -374 393 0
-391 -376 394 0
392 381 0
-392 -381 0
-392 -377 389 0
-392 -378 390 0
-392 -379 391 0
-392 -380 393 0
-392 -382 394 0
393 387 0
-393 -387 0
-393 -383 389 0
-393 -384 390 0
-393 -385 391 0
-393 -386 392 0
-393 -388 394 0
394 400 0
-394 -400 0
-394 -395 389 0
-394 -396 390 0
-394 -397 391 0
-394 -398 392 0
-394 -399 393 0
406 0
395 370 0
-395 -370 0
-395 -359 396 0
-395 -362 397 0
-395 -364 398 0
-395 -366 399 0
-395 -368 400 0
396 369 0
-396 -369 0
-396 -360 395 0
-396 -361 397 0
-396 -363 398 0
-396 -365 399 0
-396 -367 400 0
397 376 0
-397 -376 0
-397 -371 395 0
-397 -372 396 0
-397 -373 398 0
-397 -374 399 0
-397 -375 400 0
398 382 0
-398 -382 0
-398 -377 395 0
-398 -378 396 0
-398 -379 397 0
-398 -380 399 0
-398 -381 400 0
399 388 0
-399 -388 0
-399 -383 395 0
-399 -384 396 0
-399 -385 397 0
-399 -386 398 0
-399 -387 400 0
400 394 0
-400 -394 0
-400 -389 395 0
-400 -390 396 0
-400 -391 397 0
-400 -392 398 0
-400 -393 399 0
-2 0
-16 359 0
-407 362 0
-407 372 0
-362 -372 407 0
-408 364 0
-408 378 0
-364 -378 408 0
-409 366 0
-409 384 0
-366 -384 409 0
-410 368 0
-410 390 0
-368 -390 410 0
-411 370 0
-411 396 0
-370 -396 411 0
-16 -407 0
-16 -408 0
-16 -409 0
-16 -410 0
-16 -411 0
-359 16 407 408 409 410 411 0
-30 362 0
-412 359 0
-412 361 0
-359 -361 412 0
-413 364 0
-413 379 0
-364 -379 413 0
-414 366 0
-414 385 0
-366 -385 414 0
-415 368 0
-415 391 0
-368 -391 415 0
-416 370 0
-416 397 0
-370 -397 416 0
-30 -412 0
-30 -413 0
-30 -414 0
-30 -415 0
-30 -416 0
-362 30 412 413 414 415 416 0
-44 364 0
-417 359 0
-417 363 0
-359 -363 417 0
-418 362 0
-418 373 0
-362 -373 418 0
-419 366 0
-419 386 0
-366 -386 419 0
-420 368 0
-420 392 0
-368 -392 420 0
-421 370 0
-421 398 0
-370 -398 421 0
-44 -417 0
-44 -418 0
-44 -419 0
-44 -420 0
-44 -421 0
-364 44 417 418 419 420 421 0
-58 366 0
-422 359 0
-422 365 0
-359 -365 422 0
-423 362 0
-423 374 0
-362 -374 423 0
-424 364 0
-424 380 0
-364 -380 424 0
-425 368 0
-425 393 0
-368 -393 425 0
-426 370 0
-426 399 0
-370 -399 426 0
-58 -422 0
-58 -423 0
-58 -424 0
-58 -425 0
-58 -426 0
-366 58 422 423 424 425 426 0
-72 368 0
-427 359 0
-427 367 0
-359 -367 427 0
-428 362 0
-428 375 0
-362 -375 428 0
-429 364 0
-429 381 0
-364 -381 429 0
-430 366 0
-430 387 0
-366 -387 430 0
-431 370 0
-431 400 0
-370 -400 431 0
-72 -427 0
-72 -428 0
-72 -429 0
-72 -430 0
-72 -431 0
-368 72 427 428 429 430 431 0
-86 370 0
-432 359 0
-432 369 0
-359 -369 432 0
-433 362 0
-433 376 0
-362 -376 433 0
-434 364 0
-434 382 0
-364 -382 434 0
-435 366 0
-435 388 0
-366 -388 435 0
-436 368 0
-436 394 0
-368 -394 436 0
-86 -432 0
-86 -433 0
-86 -434 0
-86 -435 0
-86 -436 0
-370 86 432 433 434 435 436 0
-4 360 0
-437 361 0
-437 371 0
-361 -371 437 0
-438 363 0
-438 377 0
-363 -377 438 0
-439 365 0
-439 383 0
-365 -383 439 0
-440 367 0
-440 389 0
-367 -389 440 0
-441 369 0
-441 395 0
-369 -395 441 0
-4 -437 0
-4 -438 0
-4 -439 0
-4 -440 0
-4 -441 0
-360 4 437 438 439 440 441 0
-18 0
-32 361 0
-442 360 0
-442 362 0
-360 -362 442 0
-443 363 0
-443 379 0
-363 -379 443 0
-444 365 0
-444 385 0
-365 -385 444 0
-445 367 0
-445 391 0
-367 -391 445 0
-446 369 0
-446 397 0
-369 -397 446 0
-32 -442 0
-32 -443 0
-32 -444 0
-32 -445 0
-32 -446 0
-361 32 442 443 444 445 446 0
-46 363 0
-447 360 0
-447 364 0
-360 -364 447 0
-448 361 0
-448 373 0
-361 -373 448 0
-449 365 0
-449 386 0
-365 -386 449 0
-450 367 0
-450 392 0
-367 -392 450 0
-451 369 0
-451 398 0
-369 -398 451 0
-46 -447 0
-46 -448 0
-46 -449 0
-46 -450 0
-46 -451 0
-363 46 447 448 449 450 451 0
-60 365 0
-452 360 0
-452 366 0
-360 -366 452 0
-453 361 0
-453 374 0
-361 -374 453 0
-454 363 0
-454 380 0
-363 -380 454 0
-455 367 0
-455 393 0
-367 -393 455 0
-456 369 0
-456 399 0
-369 -399 456 0
-60 -452 0
-60 -453 0
-60 -454 0
-60 -455 0
-60 -456 0
-365 60 452 453 454 455 456 0
-74 367 0
-457 360 0
-457 368 0
-360 -368 457 0
-458 361 0
-458 375 0
-361 -375 458 0
-459 363 0
-459 381 0
-363 -381 459 0
-460 365 0
-460 387 0
-365 -387 460 0
-461 369 0
-461 400 0
-369 -400 461 0
-74 -457 0
-74 -458 0
-74 -459 0
-74 -460 0
-74 -461 0
-367 74 457 458 459 460 461 0
-88 369 0
-462 360 0
-462 370 0
-360 -370 462 0
-463 361 0
-463 376 0
-361 -376 463 0
-464 363 0
-464 382 0
-363 -382 464 0
-465 365 0
-465 388 0
-365 -388 465 0
-466 367 0
-466 394 0
-367 -394 466 0
-88 -462 0
-88 -463 0
-88 -464 0
-88 -465 0
-88 -466 0
-369 88 462 463 464 465 466 0
-6 371 0
-467 372 0
-467 360 0
-372 -360 467 0
-468 373 0
-468 377 0
-373 -377 468 0
-469 374 0
-469 383 0
-374 -383 469 0
-470 375 0
-470 389 0
-375 -389 470 0
-471 376 0
-471 395 0
-376 -395 471 0
-6 -467 0
-6 -468 0
-6 -469 0
-6 -470 0
-6 -471 0
-371 6 467 468 469 470 471 0
-20 372 0
-472 371 0
-472 359 0
-371 -359 472 0
-473 373 0
-473 378 0
-373 -378 473 0
-474 374 0
-474 384 0
-374 -384 474 0
-475 375 0
-475 390 0
-375 -390 475 0
-476 376 0
-476 396 0
-376 -396 476 0
-20 -472 0
-20 -473 0
-20 -474 0
-20 -475 0
-20 -476 0
-372 20 472 473 474 475 476 0
-34 0
-48 373 0
-477 371 0
-477 364 0
-371 -364 477 0
-478 372 0
-478 363 0
-372 -363 478 0
-479 374 0
-479 386 0
-374 -386 479 0
-480 375 0
-480 392 0
-375 -392 480 0
-481 376 0
-481 398 0
-376 -398 481 0
-48 -477 0
-48 -478 0
-48 -479 0
-48 -480 0
-48 -481 0
-373 48 477 478 479 480 481 0
-62 374 0
-482 371 0
-482 366 0
-371 -366 482 0
-483 372 0
-483 365 0
-372 -365 483 0
-484 373 0
-484 380 0
-373 -380 484 0
-485 375 0
-485 393 0
-375 -393 485 0
-486 376 0
-486 399 0
-376 -399 486 0
-62 -482 0
-62 -483 0
-62 -484 0
-62 -485 0
-62 -486 0
-374 62 482 483 484 485 486 0
-76 375 0
-487 371 0
-487 368 0
-371 -368 487 0
-488 372 0
-488 367 0
-372 -367 488 0
-489 373 0
-489 381 0
-373 -381 489 0
-490 374 0
-490 387 0
-374 -387 490 0
-491 376 0
-491 400 0
-376 -400 491 0
-76 -487 0
-76 -488 0
-76 -489 0
-76 -490 0
-76 -491 0
-375 76 487 488 489 490 491 0
-90 376 0
-492 371 0
-492 370 0
-371 -370 492 0
-493 372 0
-493 369 0
-372 -369 493 0
-494 373 0
-494 382 0
-373 -382 494 0
-495 374 0
-495 388 0
-374 -388 495 0
-496 375 0
-496 394 0
-375 -394 496 0
-90 -492 0
-90 -493 0
-90 -494 0
-90 -495 0
-90 -496 0
-376 90 492 493 494 495 496 0
-8 377 0
-497 378 0
-497 360 0
-378 -360 497 0
-498 379 0
-498 371 0
-379 -371 498 0
-499 380 0
-499 383 0
-380 -383 499 0
-500 381 0
-500 389 0
-381 -389 500 0
-501 382 0
-501 395 0
-382 -395 501 0
-8 -497 0
-8 -498 0
-8 -499 0
-8 -500 0
-8 -501 0
-377 8 497 498 499 500 501 0
-22 378 0
-502 377 0
-502 359 0
-377 -359 502 0
-503 379 0
-503 372 0
-379 -372 503 0
-504 380 0
-504 384 0
-380 -384 504 0
-505 381 0
-505 390 0
-381 -390 505 0
-506 382 0
-506 396 0
-382 -396 506 0
-22 -502 0
-22 -503 0
-22 -504 0
-22 -505 0
-22 -506 0
-378 22 502 503 504 505 506 0
-36 379 0
-507 377 0
-507 362 0
-377 -362 507 0
-508 378 0
-508 361 0
-378 -361 508 0
-509 380 0
-509 385 0
-380 -385 509 0
-510 381 0
-510 391 0
-381 -391 510 0
-511 382 0
-511 397 0
-382 -397 511 0
-36 -507 0
-36 -508 0
-36 -509 0
-36 -510 0
-36 -511 0
-379 36 507 508 509 510 511 0
-50 0
-64 380 0
-512 377 0
-512 366 0
-377 -366 512 0
-513 378 0
-513 365 0
-378 -365 513 0
-514 379 0
-514 374 0
-379 -374 514 0
-515 381 0
-515 393 0
-381 -393 515 0
-516 382 0
-516 399 0
-382 -399 516 0
-64 -512 0
-64 -513 0
-64 -514 0
-64 -515 0
-64 -516 0
-380 64 512 513 514 515 516 0
-78 381 0
-517 377 0
-517 368 0
-377 -368 517 0
-518 378 0
-518 367 0
-378 -367 518 0
-519 379 0
-519 375 0
-379 -375 519 0
-520 380 0
-520 387 0
-380 -387 520 0
-521 382 0
-521 400 0
-382 -400 521 0
-78 -517 0
-78 -518 0
-78 -519 0
-78 -520 0
-78 -521 0
-381 78 517 518 519 520 521 0
-92 382 0
-522 377 0
-522 370 0
-377 -370 522 0
-523 378 0
-523 369 0
-378 -369 523 0
-524 379 0
-524 376 0
-379 -376 524 0
-525 380 0
-525 388 0
-380 -388 525 0
-526 381 0
-526 394 0
-381 -394 526 0
-92 -522 0
-92 -523 0
-92 -524 0
-92 -525 0
-92 -526 0
-382 92 522 523 524 525 526 0
-10 383 0
-527 384 0
-527 360 0
-384 -360 527 0
-528 385 0
-528 371 0
-385 -371 528 0
-529 386 0
-529 377 0
-386 -377 529 0
-530 387 0
-530 389 0
-387 -389 530 0
-531 388 0
-531 395 0
-388 -395 531 0
-10 -527 0
-10 -528 0
-10 -529 0
-10 -530 0
-10 -531 0
-383 10 527 528 529 530 531 0
-24 384 0
-532 383 0
-532 359 0
-383 -359 532 0
-533 385 0
-533 372 0
-385 -372 533 0
-534 386 0
-534 378 0
-386 -378 534 0
-535 387 0
-535 390 0
-387 -390 535 0
-536 388 0
-536 396 0
-388 -396 536 0
-24 -532 0
-24 -533 0
-24 -534 0
-24 -535 0
-24 -536 0
-384 24 532 533 534 535 536 0
-38 385 0
-537 383 0
-537 362 0
-383 -362 537 0
-538 384 0
-538 361 0
-384 -361 538 0
-539 386 0
-539 379 0
-386 -379 539 0
-540 387 0
-540 391 0
-387 -391 540 0
-541 388 0
-541 397 0
-388 -397 541 0
-38 -537 0
-38 -538 0
-38 -539 0
-38 -540 0
-38 -541 0
-385 38 537 538 539 540 541 0
-52 386 0
-542 383 0
-542 364 0
-383 -364 542 0
-543 384 0
-543 363 0
-384 -363 543 0
-544 385 0
-544 373 0
-385 -373 544 0
-545 387 0
-545 392 0
-387 -392 545 0
-546 388 0
-546 398 0
-388 -398 546 0
-52 -542 0
-52 -543 0
-52 -544 0
-52 -545 0
-52 -546 0
-386 52 542 543 544 545 546 0
-66 0
-80 387 0
-547 383 0
-547 368 0
-383 -368 547 0
-548 384 0
-548 367 0
-384 -367 548 0
-549 385 0
-549 375 0
-385 -375 549 0
-550 386 0
-550 381 0
-386 -381 550 0
-551 388 0
-551 400 0
-388 -400 551 0
-80 -547 0
-80 -548 0
-80 -549 0
-80 -550 0
-80 -551 0
-387 80 547 548 549 550 551 0
-94 388 0
-552 383 0
-552 370 0
-383 -370 552 0
-553 384 0
-553 369 0
-384 -369 553 0
-554 385 0
-554 376 0
-385 -376 554 0
-555 386 0
-555 382 0
-386 -382 555 0
-556 387 0
-556 394 0
-387 -394 556 0
-94 -552 0
-94 -553 0
-94 -554 0
-94 -555 0
-94 -556 0
-388 94 552 553 554 555 556 0
-12 389 0
-557 390 0
-557 360 0
-390 -360 557 0
-558 391 0
-558 371 0
-391 -371 558 0
-559 392 0
-559 377 0
-392 -377 559 0
-560 393 0
-560 383 0
-393 -383 560 0
-561 394 0
-561 395 0
-394 -395 561 0
-12 -557 0
-12 -558 0
-12 -559 0
-12 -560 0
-12 -561 0
-389 12 557 558 559 560 561 0
-26 390 0
-562 389 0
-562 359 0
-389 -359 562 0
-563 391 0
-563 372 0
-391 -372 563 0
-564 392 0
-564 378 0
-392 -378 564 0
-565 393 0
-565 384 0
-393 -384 565 0
-566 394 0
-566 396 0
-394 -396 566 0
-26 -562 0
-26 -563 0
-26 -564 0
-26 -565 0
-26 -566 0
-390 26 562 563 564 565 566 0
-40 391 0
-567 389 0
-567 362 0
-389 -362 567 0
-568 390 0
-568 361 0
-390 -361 568 0
-569 392 0
-569 379 0
-392 -379 569 0
-570 393 0
-570 385 0
-393 -385 570 0
-571 394 0
-571 397 0
-394 -397 571 0
-40 -567 0
-40 -568 0
-40 -569 0
-40 -570 0
-40 -571 0
-391 40 567 568 569 570 571 0
-54 392 0
-572 389 0
-572 364 0
-389 -364 572 0
-573 390 0
-573 363 0
-390 -363 573 0
-574 391 0
-574 373 0
-391 -373 574 0
-575 393 0
-575 386 0
-393 -386 575 0
-576 394 0
-576 398 0
-394 -398 576 0
-54 -572 0
-54 -573 0
-54 -574 0
-54 -575 0
-54 -576 0
-392 54 572 573 574 575 576 0
-68 393 0
-577 389 0
-577 366 0
-389 -366 577 0
-578 390 0
-578 365 0
-390 -365 578 0
-579 391 0
-579 374 0
-391 -374 579 0
-580 392 0
-580 380 0
-392 -380 580 0
-581 394 0
-581 399 0
-394 -399 581 0
-68 -577 0
-68 -578 0
-68 -579 0
-68 -580 0
-68 -581 0
-393 68 577 578 579 580 581 0
-82 0
-96 394 0
-582 389 0
-582 370 0
-389 -370 582 0
-583 390 0
-583 369 0
-390 -369 583 0
-584 391 0
-584 376 0
-391 -376 584 0
-585 392 0
-585 382 0
-392 -382 585 0
-586 393 0
-586 388 0
-393 -388 586 0
-96 -582 0
-96 -583 0
-96 -584 0
-96 -585 0
-96 -586 0
-394 96 582 583 584 585 586 0
-14 395 0
-587 396 0
-587 360 0
-396 -360 587 0
-588 397 0
-588 371 0
-397 -371 588 0
-589 398 0
-589 377 0
-398 -377 589 0
-590 399 0
-590 383 0
-399 -383 590 0
-591 400 0
-591 389 0
-400 -389 591 0
-14 -587 0
-14 -588 0
-14 -589 0
-14 -590 0
-14 -591 0
-395 14 587 588 589 590 591 0
-28 396 0
-592 395 0
-592 359 0
-395 -359 592 0
-593 397 0
-593 372 0
-397 -372 593 0
-594 398 0
-594 378 0
-398 -378 594 0
-595 399 0
-595 384 0
-399 -384 595 0
-596 400 0
-596 390 0
-400 -390 596 0
-28 -592 0
-28 -593 0
-28 -594 0
-28 -595 0
-28 -596 0
-396 28 592 593 594 595 596 0
-42 397 0
-597 395 0
-597 362 0
-395 -362 597 0
-598 396 0
-598 361 0
-396 -361 598 0
-599 398 0
-599 379 0
-398 -379 599 0
-600 399 0
-600 385 0
-399 -385 600 0
-601 400 0
-601 391 0
-400 -391 601 0
-42 -597 0
-42 -598 0
-42 -599 0
-42 -600 0
-42 -601 0
-397 42 597 598 599 600 601 0
-56 398 0
-602 395 0
-602 364 0
-395 -364 602 0
-603 396 0
-603 363 0
-396 -363 603 0
-604 397 0
-604 373 0
-397 -373 604 0
-605 399 0
-605 386 0
-399 -386 605 0
-606 400 0
-606 392 0
-400 -392 606 0
-56 -602 0
-56 -603 0
-56 -604 0
-56 -605 0
-56 -606 0
-398 56 602 603 604 605 606 0
-70 399 0
-607 395 0
-607 366 0
-395 -366 607 0
-608 396 0
-608 365 0
-396 -365 608 0
-609 397 0
-609 374 0
-397 -374 609 0
-610 398 0
-610 380 0
-398 -380 610 0
-611 400 0
-611 393 0
-400 -393 611 0
-70 -607 0
-70 -608 0
-70 -609 0
-70 -610 0
-70 -611 0
-399 70 607 608 609 610 611 0
-84 400 0
-612 395 0
-612 368 0
-395 -368 612 0
-613 396 0
-613 367 0
-396 -367 613 0
-614 397 0
-614 375 0
-397 -375 614 0
-615 398 0
-615 381 0
-398 -381 615 0
-616 399 0
-616 387 0
-399 -387 616 0
-84 -612 0
-84 -613 0
-84 -614 0
-84 -615 0
-84 -616 0
-400 84 612 613 614 615 616 0
-98 0
