p cnf 112 384
-1 -2 0
-3 -4 0
-5 -6 0
-7 -8 0
-9 -10 0
-11 -12 0
-13 -14 0
-15 -16 0
-17 -18 0
-19 -20 0
-21 -22 0
-23 -24 0
-25 -26 0
-27 -28 0
-29 -30 0
-31 -32 0
-1 -2 0
-9 -4 0
-17 -6 0
-25 -8 0
-3 -10 0
-11 -12 0
-19 -14 0
-27 -16 0
-5 -18 0
-13 -20 0
-21 -22 0
-29 -24 0
-7 -26 0
-15 -28 0
-23 -30 0
-31 -32 0
33 0
34 35 0
-34 -35 0
-34 -36 37 0
-34 -38 39 0
37 40 0
-37 -40 0
-37 -41 34 0
-37 -42 39 0
39 43 0
-39 -43 0
-39 -44 34 0
-39 -45 37 0
46 0
35 34 0
-35 -34 0
-35 -37 36 0
-35 -39 38 0
36 41 0
-36 -41 0
-36 -40 35 0
-36 -42 38 0
38 44 0
-38 -44 0
-38 -43 35 0
-38 -45 36 0
47 0
40 37 0
-40 -37 0
-40 -34 41 0
-40 -39 42 0
41 36 0
-41 -36 0
-41 -35 40 0
-41 -38 42 0
42 45 0
-42 -45 0
-42 -43 40 0
-42 -44 41 0
48 0
43 39 0
-43 -39 0
-43 -34 44 0
-43 -37 45 0
44 38 0
-44 -38 0
-44 -35 43 0
-44 -36 45 0
45 42 0
-45 -42 0
-45 -40 43 0
-45 -41 44 0
-1 0
-9 34 0
-49 37 0
-49 41 0
-37 -41 49 0
-50 39 0
-50 44 0
-39 -44 50 0
-9 -49 0
-9 -50 0
-34 9 49 50 0
-17 37 0
-51 34 0
-51 36 0
-34 -36 51 0
-52 39 0
-52 45 0
-39 -45 52 0
-17 -51 0
-17 -52 0
-37 17 51 52 0
-25 39 0
-53 34 0
-53 38 0
-34 -38 53 0
-54 37 0
-54 42 0
-37 -42 54 0
-25 -53 0
-25 -54 0
-39 25 53 54 0
-3 35 0
-55 36 0
-55 40 0
-36 -40 55 0
-56 38 0
-56 43 0
-38 -43 56 0
-3 -55 0
-3 -56 0
-35 3 55 56 0
-11 0
-19 36 0
-57 35 0
-57 37 0
-35 -37 57 0
-58 38 0
-58 45 0
-38 -45 58 0
-19 -57 0
-19 -58 0
-36 19 57 58 0
-27 38 0
-59 35 0
-59 39 0
-35 -39 59 0
-60 36 0
-60 42 0
-36 -42 60 0
-27 -59 0
-27 -60 0
-38 27 59 60 0
-5 40 0
-61 41 0
-61 35 0
-41 -35 61 0
-62 42 0
-62 43 0
-42 -43 62 0
-5 -61 0
-5 -62 0
-40 5 61 62 0
-13 41 0
-63 40 0
-63 34 0
-40 -34 63 0
-64 42 0
-64 44 0
-42 -44 64 0
-13 -63 0
-13 -64 0
-41 13 63 64 0
-21 0
-29 42 0
-65 40 0
-65 39 0
-40 -39 65 0
-66 41 0
-66 38 0
-41 -38 66 0
-29 -65 0
-29 -66 0
-42 29 65 66 0
-7 43 0
-67 44 0
-67 35 0
-44 -35 67 0
-68 45 0
-68 40 0
-45 -40 68 0
-7 -67 0
-7 -68 0
-43 7 67 68 0
-15 44 0
-69 43 0
-69 34 0
-43 -34 69 0
-70 45 0
-70 41 0
-45 -41 70 0
-15 -69 0
-15 -70 0
-44 15 69 70 0
-23 45 0
-71 43 0
-71 37 0
-43 -37 71 0
-72 44 0
-72 36 0
-44 -36 72 0
-23 -71 0
-23 -72 0
-45 23 71 72 0
-31 0
73 0
74 75 0
-74 -75 0
-74 -76 77 0
-74 -78 79 0
77 80 0
-77 -80 0
-77 -81 74 0
-77 -82 79 0
79 83 0
-79 -83 0
-79 -84 74 0
-79 -85 77 0
86 0
75 74 0
-75 -74 0
-75 -77 76 0
-75 -79 78 0
76 81 0
-76 -81 0
-76 -80 75 0
-76 -82 78 0
78 84 0
-78 -84 0
-78 -83 75 0
-78 -85 76 0
87 0
80 77 0
-80 -77 0
-80 -74 81 0
-80 -79 82 0
81 76 0
-81 -76 0
-81 -75 80 0
-81 -78 82 0
82 85 0
-82 -85 0
-82 -83 80 0
-82 -84 81 0
88 0
83 79 0
-83 -79 0
-83 -74 84 0
-83 -77 85 0
84 78 0
-84 -78 0
-84 -75 83 0
-84 -76 85 0
85 82 0
-85 -82 0
-85 -80 83 0
-85 -81 84 0
-2 0
-10 74 0
-89 77 0
-89 81 0
-77 -81 89 0
-90 79 0
-90 84 0
-79 -84 90 0
-10 -89 0
-10 -90 0
-74 10 89 90 0
-18 77 0
-91 74 0
-91 76 0
-74 -76 91 0
-92 79 0
-92 85 0
-79 -85 92 0
-18 -91 0
-18 -92 0
-77 18 91 92 0
-26 79 0
-93 74 0
-93 78 0
-74 -78 93 0
-94 77 0
-94 82 0
-77 -82 94 0
-26 -93 0
-26 -94 0
-79 26 93 94 0
-4 75 0
-95 76 0
-95 80 0
-76 -80 95 0
-96 78 0
-96 83 0
-78 -83 96 0
-4 -95 0
-4 -96 0
-75 4 95 96 0
-12 0
-20 76 0
-97 75 0
-97 77 0
-75 -77 97 0
-98 78 0
-98 85 0
-78 -85 98 0
-20 -97 0
-20 -98 0
-76 20 97 98 0
-28 78 0
-99 75 0
-99 79 0
-75 -79 99 0
-100 76 0
-100 82 0
-76 -82 100 0
-28 -99 0
-28 -100 0
-78 28 99 100 0
-6 80 0
-101 81 0
-101 75 0
-81 -75 101 0
-102 82 0
-102 83 0
-82 -83 102 0
-6 -101 0
-6 -102 0
-80 6 101 102 0
-14 81 0
-103 80 0
-103 74 0
-80 -74 103 0
-104 82 0
-104 84 0
-82 -84 104 0
-14 -103 0
-14 -104 0
-81 14 103 104 0
-22 0
-30 82 0
-105 80 0
-105 79 0
-80 -79 105 0
-106 81 0
-106 78 0
-81 -78 106 0
-30 -105 0
-30 -106 0
-82 30 105 106 0
-8 83 0
-107 84 0
-107 75 0
-84 -75 107 0
-108 85 0
-108 80 0
-85 -80 108 0
-8 -107 0
-8 -108 0
-83 8 107 108 0
-16 84 0
-109 83 0
-109 74 0
-83 -74 109 0
-110 85 0
-110 81 0
-85 -81 110 0
-16 -109 0
-16 -110 0
-84 16 109 110 0
-24 85 0
-111 83 0
-111 77 0
-83 -77 111 0
-112 84 0
-112 76 0
-84 -76 112 0
-24 -111 0
-24 -112 0
-85 24 111 112 0
-32 0
