p cnf 220 830
-1 -2 0
-3 -4 0
-5 -6 0
-7 -8 0
-9 -10 0
-11 -12 0
-13 -14 0
-15 -16 0
-17 -18 0
-19 -20 0
-21 -22 0
-23 -24 0
-25 -26 0
-27 -28 0
-29 -30 0
-31 -32 0
-33 -34 0
-35 -36 0
-37 -38 0
-39 -40 0
-41 -42 0
-43 -44 0
-45 -46 0
-47 -48 0
-49 -50 0
-1 -2 0
-11 -4 0
-21 -6 0
-31 -8 0
-41 -10 0
-3 -12 0
-13 -14 0
-23 -16 0
-33 -18 0
-43 -20 0
-5 -22 0
-15 -24 0
-25 -26 0
-35 -28 0
-45 -30 0
-7 -32 0
-17 -34 0
-27 -36 0
-37 -38 0
-47 -40 0
-9 -42 0
-19 -44 0
-29 -46 0
-39 -48 0
-49 -50 0
51 0
52 53 0
-52 -53 0
-52 -54 55 0
-52 -56 57 0
-52 -58 59 0
55 60 0
-55 -60 0
-55 -61 52 0
-55 -62 57 0
-55 -63 59 0
57 64 0
-57 -64 0
-57 -65 52 0
-57 -66 55 0
-57 -67 59 0
59 68 0
-59 -68 0
-59 -69 52 0
-59 -70 55 0
-59 -71 57 0
72 0
53 52 0
-53 -52 0
-53 -55 54 0
-53 -57 56 0
-53 -59 58 0
54 61 0
-54 -61 0
-54 -60 53 0
-54 -62 56 0
-54 -63 58 0
56 65 0
-56 -65 0
-56 -64 53 0
-56 -66 54 0
-56 -67 58 0
58 69 0
-58 -69 0
-58 -68 53 0
-58 -70 54 0
-58 -71 56 0
73 0
60 55 0
-60 -55 0
-60 -52 61 0
-60 -57 62 0
-60 -59 63 0
61 54 0
-61 -54 0
-61 -53 60 0
-61 -56 62 0
-61 -58 63 0
62 66 0
-62 -66 0
-62 -64 60 0
-62 -65 61 0
-62 -67 63 0
63 70 0
-63 -70 0
-63 -68 60 0
-63 -69 61 0
-63 -71 62 0
74 0
64 57 0
-64 -57 0
-64 -52 65 0
-64 -55 66 0
-64 -59 67 0
65 56 0
-65 -56 0
-65 -53 64 0
-65 -54 66 0
-65 -58 67 0
66 62 0
-66 -62 0
-66 -60 64 0
-66 -61 65 0
-66 -63 67 0
67 71 0
-67 -71 0
-67 -68 64 0
-67 -69 65 0
-67 -70 66 0
75 0
68 59 0
-68 -59 0
-68 -52 69 0
-68 -55 70 0
-68 -57 71 0
69 58 0
-69 -58 0
-69 -53 68 0
-69 -54 70 0
-69 -56 71 0
70 63 0
-70 -63 0
-70 -60 68 0
-70 -61 69 0
-70 -62 71 0
71 67 0
-71 -67 0
-71 -64 68 0
-71 -65 69 0
-71 -66 70 0
-1 0
-11 52 0
-76 55 0
-76 61 0
-55 -61 76 0
-77 57 0
-77 65 0
-57 -65 77 0
-78 59 0
-78 69 0
-59 -69 78 0
-11 -76 0
-11 -77 0
-11 -78 0
-52 11 76 77 78 0
-21 55 0
-79 52 0
-79 54 0
-52 -54 79 0
-80 57 0
-80 66 0
-57 -66 80 0
-81 59 0
-81 70 0
-59 -70 81 0
-21 -79 0
-21 -80 0
-21 -81 0
-55 21 79 80 81 0
-31 57 0
-82 52 0
-82 56 0
-52 -56 82 0
-83 55 0
-83 62 0
-55 -62 83 0
-84 59 0
-84 71 0
-59 -71 84 0
-31 -82 0
-31 -83 0
-31 -84 0
-57 31 82 83 84 0
-41 59 0
-85 52 0
-85 58 0
-52 -58 85 0
-86 55 0
-86 63 0
-55 -63 86 0
-87 57 0
-87 67 0
-57 -67 87 0
-41 -85 0
-41 -86 0
-41 -87 0
-59 41 85 86 87 0
-3 53 0
-88 54 0
-88 60 0
-54 -60 88 0
-89 56 0
-89 64 0
-56 -64 89 0
-90 58 0
-90 68 0
-58 -68 90 0
-3 -88 0
-3 -89 0
-3 -90 0
-53 3 88 89 90 0
-13 0
-23 54 0
-91 53 0
-91 55 0
-53 -55 91 0
-92 56 0
-92 66 0
-56 -66 92 0
-93 58 0
-93 70 0
-58 -70 93 0
-23 -91 0
-23 -92 0
-23 -93 0
-54 23 91 92 93 0
-33 56 0
-94 53 0
-94 57 0
-53 -57 94 0
-95 54 0
-95 62 0
-54 -62 95 0
-96 58 0
-96 71 0
-58 -71 96 0
-33 -94 0
-33 -95 0
-33 -96 0
-56 33 94 95 96 0
-43 58 0
-97 53 0
-97 59 0
-53 -59 97 0
-98 54 0
-98 63 0
-54 -63 98 0
-99 56 0
-99 67 0
-56 -67 99 0
-43 -97 0
-43 -98 0
-43 -99 0
-58 43 97 98 99 0
-5 60 0
-100 61 0
-100 53 0
-61 -53 100 0
-101 62 0
-101 64 0
-62 -64 101 0
-102 63 0
-102 68 0
-63 -68 102 0
-5 -100 0
-5 -101 0
-5 -102 0
-60 5 100 101 102 0
-15 61 0
-103 60 0
-103 52 0
-60 -52 103 0
-104 62 0
-104 65 0
-62 -65 104 0
-105 63 0
-105 69 0
-63 -69 105 0
-15 -103 0
-15 -104 0
-15 -105 0
-61 15 103 104 105 0
-25 0
-35 62 0
-106 60 0
-106 57 0
-60 -57 106 0
-107 61 0
-107 56 0
-61 -56 107 0
-108 63 0
-108 71 0
-63 -71 108 0
-35 -106 0
-35 -107 0
-35 -108 0
-62 35 106 107 108 0
-45 63 0
-109 60 0
-109 59 0
-60 -59 109 0
-110 61 0
-110 58 0
-61 -58 110 0
-111 62 0
-111 67 0
-62 -67 111 0
-45 -109 0
-45 -110 0
-45 -111 0
-63 45 109 110 111 0
-7 64 0
-112 65 0
-112 53 0
-65 -53 112 0
-113 66 0
-113 60 0
-66 -60 113 0
-114 67 0
-114 68 0
-67 -68 114 0
-7 -112 0
-7 -113 0
-7 -114 0
-64 7 112 113 114 0
-17 65 0
-115 64 0
-115 52 0
-64 -52 115 0
-116 66 0
-116 61 0
-66 -61 116 0
-117 67 0
-117 69 0
-67 -69 117 0
-17 -115 0
-17 -116 0
-17 -117 0
-65 17 115 116 117 0
-27 66 0
-118 64 0
-118 55 0
-64 -55 118 0
-119 65 0
-119 54 0
-65 -54 119 0
-120 67 0
-120 70 0
-67 -70 120 0
-27 -118 0
-27 -119 0
-27 -120 0
-66 27 118 119 120 0
-37 0
-47 67 0
-121 64 0
-121 59 0
-64 -59 121 0
-122 65 0
-122 58 0
-65 -58 122 0
-123 66 0
-123 63 0
-66 -63 123 0
-47 -121 0
-47 -122 0
-47 -123 0
-67 47 121 122 123 0
-9 68 0
-124 69 0
-124 53 0
-69 -53 124 0
-125 70 0
-125 60 0
-70 -60 125 0
-126 71 0
-126 64 0
-71 -64 126 0
-9 -124 0
-9 -125 0
-9 -126 0
-68 9 124 125 126 0
-19 69 0
-127 68 0
-127 52 0
-68 -52 127 0
-128 70 0
-128 61 0
-70 -61 128 0
-129 71 0
-129 65 0
-71 -65 129 0
-19 -127 0
-19 -128 0
-19 -129 0
-69 19 127 128 129 0
-29 70 0
-130 68 0
-130 55 0
-68 -55 130 0
-131 69 0
-131 54 0
-69 -54 131 0
-132 71 0
-132 66 0
-71 -66 132 0
-29 -130 0
-29 -131 0
-29 -132 0
-70 29 130 131 132 0
-39 71 0
-133 68 0
-133 57 0
-68 -57 133 0
-134 69 0
-134 56 0
-69 -56 134 0
-135 70 0
-135 62 0
-70 -62 135 0
-39 -133 0
-39 -134 0
-39 -135 0
-71 39 133 134 135 0
-49 0
136 0
137 138 0
-137 -138 0
-137 -139 140 0
-137 -141 142 0
-137 -143 144 0
140 145 0
-140 -145 0
-140 -146 137 0
-140 -147 142 0
-140 -148 144 0
142 149 0
-142 -149 0
-142 -150 137 0
-142 -151 140 0
-142 -152 144 0
144 153 0
-144 -153 0
-144 -154 137 0
-144 -155 140 0
-144 -156 142 0
157 0
138 137 0
-138 -137 0
-138 -140 139 0
-138 -142 141 0
-138 -144 143 0
139 146 0
-139 -146 0
-139 -145 138 0
-139 -147 141 0
-139 -148 143 0
141 150 0
-141 -150 0
-141 -149 138 0
-141 -151 139 0
-141 -152 143 0
143 154 0
-143 -154 0
-143 -153 138 0
-143 -155 139 0
-143 -156 141 0
158 0
145 140 0
-145 -140 0
-145 -137 146 0
-145 -142 147 0
-145 -144 148 0
146 139 0
-146 -139 0
-146 -138 145 0
-146 -141 147 0
-146 -143 148 0
147 151 0
-147 -151 0
-147 -149 145 0
-147 -150 146 0
-147 -152 148 0
148 155 0
-148 -155 0
-148 -153 145 0
-148 -154 146 0
-148 -156 147 0
159 0
149 142 0
-149 -142 0
-149 -137 150 0
-149 -140 151 0
-149 -144 152 0
150 141 0
-150 -141 0
-150 -138 149 0
-150 -139 151 0
-150 -143 152 0
151 147 0
-151 -147 0
-151 -145 149 0
-151 -146 150 0
-151 -148 152 0
152 156 0
-152 -156 0
-152 -153 149 0
-152 -154 150 0
-152 -155 151 0
160 0
153 144 0
-153 -144 0
-153 -137 154 0
-153 -140 155 0
-153 -142 156 0
154 143 0
-154 -143 0
-154 -138 153 0
-154 -139 155 0
-154 -141 156 0
155 148 0
-155 -148 0
-155 -145 153 0
-155 -146 154 0
-155 -147 156 0
156 152 0
-156 -152 0
-156 -149 153 0
-156 -150 154 0
-156 -151 155 0
-2 0
-12 137 0
-161 140 0
-161 146 0
-140 -146 161 0
-162 142 0
-162 150 0
-142 -150 162 0
-163 144 0
-163 154 0
-144 -154 163 0
-12 -161 0
-12 -162 0
-12 -163 0
-137 12 161 162 163 0
-22 140 0
-164 137 0
-164 139 0
-137 -139 164 0
-165 142 0
-165 151 0
-142 -151 165 0
-166 144 0
-166 155 0
-144 -155 166 0
-22 -164 0
-22 -165 0
-22 -166 0
-140 22 164 165 166 0
-32 142 0
-167 137 0
-167 141 0
-137 -141 167 0
-168 140 0
-168 147 0
-140 -147 168 0
-169 144 0
-169 156 0
-144 -156 169 0
-32 -167 0
-32 -168 0
-32 -169 0
-142 32 167 168 169 0
-42 144 0
-170 137 0
-170 143 0
-137 -143 170 0
-171 140 0
-171 148 0
-140 -148 171 0
-172 142 0
-172 152 0
-142 -152 172 0
-42 -170 0
-42 -171 0
-42 -172 0
-144 42 170 171 172 0
-4 138 0
-173 139 0
-173 145 0
-139 -145 173 0
-174 141 0
-174 149 0
-141 -149 174 0
-175 143 0
-175 153 0
-143 -153 175 0
-4 -173 0
-4 -174 0
-4 -175 0
-138 4 173 174 175 0
-14 0
-24 139 0
-176 138 0
-176 140 0
-138 -140 176 0
-177 141 0
-177 151 0
-141 -151 177 0
-178 143 0
-178 155 0
-143 -155 178 0
-24 -176 0
-24 -177 0
-24 -178 0
-139 24 176 177 178 0
-34 141 0
-179 138 0
-179 142 0
-138 -142 179 0
-180 139 0
-180 147 0
-139 -147 180 0
-181 143 0
-181 156 0
-143 -156 181 0
-34 -179 0
-34 -180 0
-34 -181 0
-141 34 179 180 181 0
-44 143 0
-182 138 0
-182 144 0
-138 -144 182 0
-183 139 0
-183 148 0
-139 -148 183 0
-184 141 0
-184 152 0
-141 -152 184 0
-44 -182 0
-44 -183 0
-44 -184 0
-143 44 182 183 184 0
-6 145 0
-185 146 0
-185 138 0
-146 -138 185 0
-186 147 0
-186 149 0
-147 -149 186 0
-187 148 0
-187 153 0
-148 -153 187 0
-6 -185 0
-6 -186 0
-6 -187 0
-145 6 185 186 187 0
-16 146 0
-188 145 0
-188 137 0
-145 -137 188 0
-189 147 0
-189 150 0
-147 -150 189 0
-190 148 0
-190 154 0
-148 -154 190 0
-16 -188 0
-16 -189 0
-16 -190 0
-146 16 188 189 190 0
-26 0
-36 147 0
-191 145 0
-191 142 0
-145 -142 191 0
-192 146 0
-192 141 0
-146 -141 192 0
-193 148 0
-193 156 0
-148 -156 193 0
-36 -191 0
-36 -192 0
-36 -193 0
-147 36 191 192 193 0
-46 148 0
-194 145 0
-194 144 0
-145 -144 194 0
-195 146 0
-195 143 0
-146 -143 195 0
-196 147 0
-196 152 0
-147 -152 196 0
-46 -194 0
-46 -195 0
-46 -196 0
-148 46 194 195 196 0
-8 149 0
-197 150 0
-197 138 0
-150 -138 197 0
-198 151 0
-198 145 0
-151 -145 198 0
-199 152 0
-199 153 0
-152 -153 199 0
-8 -197 0
-8 -198 0
-8 -199 0
-149 8 197 198 199 0
-18 150 0
-200 149 0
-200 137 0
-149 -137 200 0
-201 151 0
-201 146 0
-151 -146 201 0
-202 152 0
-202 154 0
-152 -154 202 0
-18 -200 0
-18 -201 0
-18 -202 0
-150 18 200 201 202 0
-28 151 0
-203 149 0
-203 140 0
-149 -140 203 0
-204 150 0
-204 139 0
-150 -139 204 0
-205 152 0
-205 155 0
-152 -155 205 0
-28 -203 0
-28 -204 0
-28 -205 0
-151 28 203 204 205 0
-38 0
-48 152 0
-206 149 0
-206 144 0
-149 -144 206 0
-207 150 0
-207 143 0
-150 -143 207 0
-208 151 0
-208 148 0
-151 -148 208 0
-48 -206 0
-48 -207 0
-48 -208 0
-152 48 206 207 208 0
-10 153 0
-209 154 0
-209 138 0
-154 -138 209 0
-210 155 0
-210 145 0
-155 -145 210 0
-211 156 0
-211 149 0
-156 -149 211 0
-10 -209 0
-10 -210 0
-10 -211 0
-153 10 209 210 211 0
-20 154 0
-212 153 0
-212 137 0
-153 -137 212 0
-213 155 0
-213 146 0
-155 -146 213 0
-214 156 0
-214 150 0
-156 -150 214 0
-20 -212 0
-20 -213 0
-20 -214 0
-154 20 212 213 214 0
-30 155 0
-215 153 0
-215 140 0
-153 -140 215 0
-216 154 0
-216 139 0
-154 -139 216 0
-217 156 0
-217 151 0
-156 -151 217 0
-30 -215 0
-30 -216 0
-30 -217 0
-155 30 215 216 217 0
-40 156 0
-218 153 0
-218 142 0
-153 -142 218 0
-219 154 0
-219 141 0
-154 -141 219 0
-220 155 0
-220 147 0
-155 -147 220 0
-40 -218 0
-40 -219 0
-40 -220 0
-156 40 218 219 220 0
-50 0
