p cnf 1332 5814
-1 -2 0
-3 -4 0
-5 -6 0
-7 -8 0
-9 -10 0
-11 -12 0
-13 -14 0
-15 -16 0
-17 -18 0
-19 -20 0
-21 -22 0
-23 -24 0
-25 -26 0
-27 -28 0
-29 -30 0
-31 -32 0
-33 -34 0
-35 -36 0
-37 -38 0
-39 -40 0
-41 -42 0
-43 -44 0
-45 -46 0
-47 -48 0
-49 -50 0
-51 -52 0
-53 -54 0
-55 -56 0
-57 -58 0
-59 -60 0
-61 -62 0
-63 -64 0
-65 -66 0
-67 -68 0
-69 -70 0
-71 -72 0
-73 -74 0
-75 -76 0
-77 -78 0
-79 -80 0
-81 -82 0
-83 -84 0
-85 -86 0
-87 -88 0
-89 -90 0
-91 -92 0
-93 -94 0
-95 -96 0
-97 -98 0
-99 -100 0
-101 -102 0
-103 -104 0
-105 -106 0
-107 -108 0
-109 -110 0
-111 -112 0
-113 -114 0
-115 -116 0
-117 -118 0
-119 -120 0
-121 -122 0
-123 -124 0
-125 -126 0
-127 -128 0
-129 -130 0
-131 -132 0
-133 -134 0
-135 -136 0
-137 -138 0
-139 -140 0
-141 -142 0
-143 -144 0
-145 -146 0
-147 -148 0
-149 -150 0
-151 -152 0
-153 -154 0
-155 -156 0
-157 -158 0
-159 -160 0
-161 -162 0
-1 -2 0
-19 -4 0
-37 -6 0
-55 -8 0
-73 -10 0
-91 -12 0
-109 -14 0
-127 -16 0
-145 -18 0
-3 -20 0
-21 -22 0
-39 -24 0
-57 -26 0
-75 -28 0
-93 -30 0
-111 -32 0
-129 -34 0
-147 -36 0
-5 -38 0
-23 -40 0
-41 -42 0
-59 -44 0
-77 -46 0
-95 -48 0
-113 -50 0
-131 -52 0
-149 -54 0
-7 -56 0
-25 -58 0
-43 -60 0
-61 -62 0
-79 -64 0
-97 -66 0
-115 -68 0
-133 -70 0
-151 -72 0
-9 -74 0
-27 -76 0
-45 -78 0
-63 -80 0
-81 -82 0
-99 -84 0
-117 -86 0
-135 -88 0
-153 -90 0
-11 -92 0
-29 -94 0
-47 -96 0
-65 -98 0
-83 -100 0
-101 -102 0
-119 -104 0
-137 -106 0
-155 -108 0
-13 -110 0
-31 -112 0
-49 -114 0
-67 -116 0
-85 -118 0
-103 -120 0
-121 -122 0
-139 -124 0
-157 -126 0
-15 -128 0
-33 -130 0
-51 -132 0
-69 -134 0
-87 -136 0
-105 -138 0
-123 -140 0
-141 -142 0
-159 -144 0
-17 -146 0
-35 -148 0
-53 -150 0
-71 -152 0
-89 -154 0
-107 -156 0
-125 -158 0
-143 -160 0
-161 -162 0
163 0
164 165 0
-164 -165 0
-164 -166 167 0
-164 -168 169 0
-164 -170 171 0
-164 -172 173 0
-164 -174 175 0
-164 -176 177 0
-164 -178 179 0
167 180 0
-167 -180 0
-167 -181 164 0
-167 -182 169 0
-167 -183 171 0
-167 -184 173 0
-167 -185 175 0
-167 -186 177 0
-167 -187 179 0
169 188 0
-169 -188 0
-169 -189 164 0
-169 -190 167 0
-169 -191 171 0
-169 -192 173 0
-169 -193 175 0
-169 -194 177 0
-169 -195 179 0
171 196 0
-171 -196 0
-171 -197 164 0
-171 -198 167 0
-171 -199 169 0
-171 -200 173 0
-171 -201 175 0
-171 -202 177 0
-171 -203 179 0
173 204 0
-173 -204 0
-173 -205 164 0
-173 -206 167 0
-173 -207 169 0
-173 -208 171 0
-173 -209 175 0
-173 -210 177 0
-173 -211 179 0
175 212 0
-175 -212 0
-175 -213 164 0
-175 -214 167 0
-175 -215 169 0
-175 -216 171 0
-175 -217 173 0
-175 -218 177 0
-175 -219 179 0
177 220 0
-177 -220 0
-177 -221 164 0
-177 -222 167 0
-177 -223 169 0
-177 -224 171 0
-177 -225 173 0
-177 -226 175 0
-177 -227 179 0
179 228 0
-179 -228 0
-179 -229 164 0
-179 -230 167 0
-179 -231 169 0
-179 -232 171 0
-179 -233 173 0
-179 -234 175 0
-179 -235 177 0
236 0
165 164 0
-165 -164 0
-165 -167 166 0
-165 -169 168 0
-165 -171 170 0
-165 -173 172 0
-165 -175 174 0
-165 -177 176 0
-165 -179 178 0
166 181 0
-166 -181 0
-166 -180 165 0
-166 -182 168 0
-166 -183 170 0
-166 -184 172 0
-166 -185 174 0
-166 -186 176 0
-166 -187 178 0
168 189 0
-168 -189 0
-168 -188 165 0
-168 -190 166 0
-168 -191 170 0
-168 -192 172 0
-168 -193 174 0
-168 -194 176 0
-168 -195 178 0
170 197 0
-170 -197 0
-170 -196 165 0
-170 -198 166 0
-170 -199 168 0
-170 -200 172 0
-170 -201 174 0
-170 -202 176 0
-170 -203 178 0
172 205 0
-172 -205 0
-172 -204 165 0
-172 -206 166 0
-172 -207 168 0
-172 -208 170 0
-172 -209 174 0
-172 -210 176 0
-172 -211 178 0
174 213 0
-174 -213 0
-174 -212 165 0
-174 -214 166 0
-174 -215 168 0
-174 -216 170 0
-174 -217 172 0
-174 -218 176 0
-174 -219 178 0
176 221 0
-176 -221 0
-176 -220 165 0
-176 -222 166 0
-176 -223 168 0
-176 -224 170 0
-176 -225 172 0
-176 -226 174 0
-176 -227 178 0
178 229 0
-178 -229 0
-178 -228 165 0
-178 -230 166 0
-178 -231 168 0
-178 -232 170 0
-178 -233 172 0
-178 -234 174 0
-178 -235 176 0
237 0
180 167 0
-180 -167 0
-180 -164 181 0
-180 -169 182 0
-180 -171 183 0
-180 -173 184 0
-180 -175 185 0
-180 -177 186 0
-180 -179 187 0
181 166 0
-181 -166 0
-181 -165 180 0
-181 -168 182 0
-181 -170 183 0
-181 -172 184 0
-181 -174 185 0
-181 -176 186 0
-181 -178 187 0
182 190 0
-182 -190 0
-182 -188 180 0
-182 -189 181 0
-182 -191 183 0
-182 -192 184 0
-182 -193 185 0
-182 -194 186 0
-182 -195 187 0
183 198 0
-183 -198 0
-183 -196 180 0
-183 -197 181 0
-183 -199 182 0
-183 -200 184 0
-183 -201 185 0
-183 -202 186 0
-183 -203 187 0
184 206 0
-184 -206 0
-184 -204 180 0
-184 -205 181 0
-184 -207 182 0
-184 -208 183 0
-184 -209 185 0
-184 -210 186 0
-184 -211 187 0
185 214 0
-185 -214 0
-185 -212 180 0
-185 -213 181 0
-185 -215 182 0
-185 -216 183 0
-185 -217 184 0
-185 -218 186 0
-185 -219 187 0
186 222 0
-186 -222 0
-186 -220 180 0
-186 -221 181 0
-186 -223 182 0
-186 -224 183 0
-186 -225 184 0
-186 -226 185 0
-186 -227 187 0
187 230 0
-187 -230 0
-187 -228 180 0
-187 -229 181 0
-187 -231 182 0
-187 -232 183 0
-187 -233 184 0
-187 -234 185 0
-187 -235 186 0
238 0
188 169 0
-188 -169 0
-188 -164 189 0
-188 -167 190 0
-188 -171 191 0
-188 -173 192 0
-188 -175 193 0
-188 -177 194 0
-188 -179 195 0
189 168 0
-189 -168 0
-189 -165 188 0
-189 -166 190 0
-189 -170 191 0
-189 -172 192 0
-189 -174 193 0
-189 -176 194 0
-189 -178 195 0
190 182 0
-190 -182 0
-190 -180 188 0
-190 -181 189 0
-190 -183 191 0
-190 -184 192 0
-190 -185 193 0
-190 -186 194 0
-190 -187 195 0
191 199 0
-191 -199 0
-191 -196 188 0
-191 -197 189 0
-191 -198 190 0
-191 -200 192 0
-191 -201 193 0
-191 -202 194 0
-191 -203 195 0
192 207 0
-192 -207 0
-192 -204 188 0
-192 -205 189 0
-192 -206 190 0
-192 -208 191 0
-192 -209 193 0
-192 -210 194 0
-192 -211 195 0
193 215 0
-193 -215 0
-193 -212 188 0
-193 -213 189 0
-193 -214 190 0
-193 -216 191 0
-193 -217 192 0
-193 -218 194 0
-193 -219 195 0
194 223 0
-194 -223 0
-194 -220 188 0
-194 -221 189 0
-194 -222 190 0
-194 -224 191 0
-194 -225 192 0
-194 -226 193 0
-194 -227 195 0
195 231 0
-195 -231 0
-195 -228 188 0
-195 -229 189 0
-195 -230 190 0
-195 -232 191 0
-195 -233 192 0
-195 -234 193 0
-195 -235 194 0
239 0
196 171 0
-196 -171 0
-196 -164 197 0
-196 -167 198 0
-196 -169 199 0
-196 -173 200 0
-196 -175 201 0
-196 -177 202 0
-196 -179 203 0
197 170 0
-197 -170 0
-197 -165 196 0
-197 -166 198 0
-197 -168 199 0
-197 -172 200 0
-197 -174 201 0
-197 -176 202 0
-197 -178 203 0
198 183 0
-198 -183 0
-198 -180 196 0
-198 -181 197 0
-198 -182 199 0
-198 -184 200 0
-198 -185 201 0
-198 -186 202 0
-198 -187 203 0
199 191 0
-199 -191 0
-199 -188 196 0
-199 -189 197 0
-199 -190 198 0
-199 -192 200 0
-199 -193 201 0
-199 -194 202 0
-199 -195 203 0
200 208 0
-200 -208 0
-200 -204 196 0
-200 -205 197 0
-200 -206 198 0
-200 -207 199 0
-200 -209 201 0
-200 -210 202 0
-200 -211 203 0
201 216 0
-201 -216 0
-201 -212 196 0
-201 -213 197 0
-201 -214 198 0
-201 -215 199 0
-201 -217 200 0
-201 -218 202 0
-201 -219 203 0
202 224 0
-202 -224 0
-202 -220 196 0
-202 -221 197 0
-202 -222 198 0
-202 -223 199 0
-202 -225 200 0
-202 -226 201 0
-202 -227 203 0
203 232 0
-203 -232 0
-203 -228 196 0
-203 -229 197 0
-203 -230 198 0
-203 -231 199 0
-203 -233 200 0
-203 -234 201 0
-203 -235 202 0
240 0
204 173 0
-204 -173 0
-204 -164 205 0
-204 -167 206 0
-204 -169 207 0
-204 -171 208 0
-204 -175 209 0
-204 -177 210 0
-204 -179 211 0
205 172 0
-205 -172 0
-205 -165 204 0
-205 -166 206 0
-205 -168 207 0
-205 -170 208 0
-205 -174 209 0
-205 -176 210 0
-205 -178 211 0
206 184 0
-206 -184 0
-206 -180 204 0
-206 -181 205 0
-206 -182 207 0
-206 -183 208 0
-206 -185 209 0
-206 -186 210 0
-206 -187 211 0
207 192 0
-207 -192 0
-207 -188 204 0
-207 -189 205 0
-207 -190 206 0
-207 -191 208 0
-207 -193 209 0
-207 -194 210 0
-207 -195 211 0
208 200 0
-208 -200 0
-208 -196 204 0
-208 -197 205 0
-208 -198 206 0
-208 -199 207 0
-208 -201 209 0
-208 -202 210 0
-208 -203 211 0
209 217 0
-209 -217 0
-209 -212 204 0
-209 -213 205 0
-209 -214 206 0
-209 -215 207 0
-209 -216 208 0
-209 -218 210 0
-209 -219 211 0
210 225 0
-210 -225 0
-210 -220 204 0
-210 -221 205 0
-210 -222 206 0
-210 -223 207 0
-210 -224 208 0
-210 -226 209 0
-210 -227 211 0
211 233 0
-211 -233 0
-211 -228 204 0
-211 -229 205 0
-211 -230 206 0
-211 -231 207 0
-211 -232 208 0
-211 -234 209 0
-211 -235 210 0
241 0
212 175 0
-212 -175 0
-212 -164 213 0
-212 -167 214 0
-212 -169 215 0
-212 -171 216 0
-212 -173 217 0
-212 -177 218 0
-212 -179 219 0
213 174 0
-213 -174 0
-213 -165 212 0
-213 -166 214 0
-213 -168 215 0
-213 -170 216 0
-213 -172 217 0
-213 -176 218 0
-213 -178 219 0
214 185 0
-214 -185 0
-214 -180 212 0
-214 -181 213 0
-214 -182 215 0
-214 -183 216 0
-214 -184 217 0
-214 -186 218 0
-214 -187 219 0
215 193 0
-215 -193 0
-215 -188 212 0
-215 -189 213 0
-215 -190 214 0
-215 -191 216 0
-215 -192 217 0
-215 -194 218 0
-215 -195 219 0
216 201 0
-216 -201 0
-216 -196 212 0
-216 -197 213 0
-216 -198 214 0
-216 -199 215 0
-216 -200 217 0
-216 -202 218 0
-216 -203 219 0
217 209 0
-217 -209 0
-217 -204 212 0
-217 -205 213 0
-217 -206 214 0
-217 -207 215 0
-217 -208 216 0
-217 -210 218 0
-217 -211 219 0
218 226 0
-218 -226 0
-218 -220 212 0
-218 -221 213 0
-218 -222 214 0
-218 -223 215 0
-218 -224 216 0
-218 -225 217 0
-218 -227 219 0
219 234 0
-219 -234 0
-219 -228 212 0
-219 -229 213 0
-219 -230 214 0
-219 -231 215 0
-219 -232 216 0
-219 -233 217 0
-219 -235 218 0
242 0
220 177 0
-220 -177 0
-220 -164 221 0
-220 -167 222 0
-220 -169 223 0
-220 -171 224 0
-220 -173 225 0
-220 -175 226 0
-220 -179 227 0
221 176 0
-221 -176 0
-221 -165 220 0
-221 -166 222 0
-221 -168 223 0
-221 -170 224 0
-221 -172 225 0
-221 -174 226 0
-221 -178 227 0
222 186 0
-222 -186 0
-222 -180 220 0
-222 -181 221 0
-222 -182 223 0
-222 -183 224 0
-222 -184 225 0
-222 -185 226 0
-222 -187 227 0
223 194 0
-223 -194 0
-223 -188 220 0
-223 -189 221 0
-223 -190 222 0
-223 -191 224 0
-223 -192 225 0
-223 -193 226 0
-223 -195 227 0
224 202 0
-224 -202 0
-224 -196 220 0
-224 -197 221 0
-224 -198 222 0
-224 -199 223 0
-224 -200 225 0
-224 -201 226 0
-224 -203 227 0
225 210 0
-225 -210 0
-225 -204 220 0
-225 -205 221 0
-225 -206 222 0
-225 -207 223 0
-225 -208 224 0
-225 -209 226 0
-225 -211 227 0
226 218 0
-226 -218 0
-226 -212 220 0
-226 -213 221 0
-226 -214 222 0
-226 -215 223 0
-226 -216 224 0
-226 -217 225 0
-226 -219 227 0
227 235 0
-227 -235 0
-227 -228 220 0
-227 -229 221 0
-227 -230 222 0
-227 -231 223 0
-227 -232 224 0
-227 -233 225 0
-227 -234 226 0
243 0
228 179 0
-228 -179 0
-228 -164 229 0
-228 -167 230 0
-228 -169 231 0
-228 -171 232 0
-228 -173 233 0
-228 -175 234 0
-228 -177 235 0
229 178 0
-229 -178 0
-229 -165 228 0
-229 -166 230 0
-229 -168 231 0
-229 -170 232 0
-229 -172 233 0
-229 -174 234 0
-229 -176 235 0
230 187 0
-230 -187 0
-230 -180 228 0
-230 -181 229 0
-230 -182 231 0
-230 -183 232 0
-230 -184 233 0
-230 -185 234 0
-230 -186 235 0
231 195 0
-231 -195 0
-231 -188 228 0
-231 -189 229 0
-231 -190 230 0
-231 -191 232 0
-231 -192 233 0
-231 -193 234 0
-231 -194 235 0
232 203 0
-232 -203 0
-232 -196 228 0
-232 -197 229 0
-232 -198 230 0
-232 -199 231 0
-232 -200 233 0
-232 -201 234 0
-232 -202 235 0
233 211 0
-233 -211 0
-233 -204 228 0
-233 -205 229 0
-233 -206 230 0
-233 -207 231 0
-233 -208 232 0
-233 -209 234 0
-233 -210 235 0
234 219 0
-234 -219 0
-234 -212 228 0
-234 -213 229 0
-234 -214 230 0
-234 -215 231 0
-234 -216 232 0
-234 -217 233 0
-234 -218 235 0
235 227 0
-235 -227 0
-235 -220 228 0
-235 -221 229 0
-235 -222 230 0
-235 -223 231 0
-235 -224 232 0
-235 -225 233 0
-235 -226 234 0
-1 0
-19 164 0
-244 167 0
-244 181 0
-167 -181 244 0
-245 169 0
-245 189 0
-169 -189 245 0
-246 171 0
-246 197 0
-171 -197 246 0
-247 173 0
-247 205 0
-173 -205 247 0
-248 175 0
-248 213 0
-175 -213 248 0
-249 177 0
-249 221 0
-177 -221 249 0
-250 179 0
-250 229 0
-179 -229 250 0
-19 -244 0
-19 -245 0
-19 -246 0
-19 -247 0
-19 -248 0
-19 -249 0
-19 -250 0
-164 19 244 245 246 247 248 249 250 0
-37 167 0
-251 164 0
-251 166 0
-164 -166 251 0
-252 169 0
-252 190 0
-169 -190 252 0
-253 171 0
-253 198 0
-171 -198 253 0
-254 173 0
-254 206 0
-173 -206 254 0
-255 175 0
-255 214 0
-175 -214 255 0
-256 177 0
-256 222 0
-177 -222 256 0
-257 179 0
-257 230 0
-179 -230 257 0
-37 -251 0
-37 -252 0
-37 -253 0
-37 -254 0
-37 -255 0
-37 -256 0
-37 -257 0
-167 37 251 252 253 254 255 256 257 0
-55 169 0
-258 164 0
-258 168 0
-164 -168 258 0
-259 167 0
-259 182 0
-167 -182 259 0
-260 171 0
-260 199 0
-171 -199 260 0
-261 173 0
-261 207 0
-173 -207 261 0
-262 175 0
-262 215 0
-175 -215 262 0
-263 177 0
-263 223 0
-177 -223 263 0
-264 179 0
-264 231 0
-179 -231 264 0
-55 -258 0
-55 -259 0
-55 -260 0
-55 -261 0
-55 -262 0
-55 -263 0
-55 -264 0
-169 55 258 259 260 261 262 263 264 0
-73 171 0
-265 164 0
-265 170 0
-164 -170 265 0
-266 167 0
-266 183 0
-167 -183 266 0
-267 169 0
-267 191 0
-169 -191 267 0
-268 173 0
-268 208 0
-173 -208 268 0
-269 175 0
-269 216 0
-175 -216 269 0
-270 177 0
-270 224 0
-177 -224 270 0
-271 179 0
-271 232 0
-179 -232 271 0
-73 -265 0
-73 -266 0
-73 -267 0
-73 -268 0
-73 -269 0
-73 -270 0
-73 -271 0
-171 73 265 266 267 268 269 270 271 0
-91 173 0
-272 164 0
-272 172 0
-164 -172 272 0
-273 167 0
-273 184 0
-167 -184 273 0
-274 169 0
-274 192 0
-169 -192 274 0
-275 171 0
-275 200 0
-171 -200 275 0
-276 175 0
-276 217 0
-175 -217 276 0
-277 177 0
-277 225 0
-177 -225 277 0
-278 179 0
-278 233 0
-179 -233 278 0
-91 -272 0
-91 -273 0
-91 -274 0
-91 -275 0
-91 -276 0
-91 -277 0
-91 -278 0
-173 91 272 273 274 275 276 277 278 0
-109 175 0
-279 164 0
-279 174 0
-164 -174 279 0
-280 167 0
-280 185 0
-167 -185 280 0
-281 169 0
-281 193 0
-169 -193 281 0
-282 171 0
-282 201 0
-171 -201 282 0
-283 173 0
-283 209 0
-173 -209 283 0
-284 177 0
-284 226 0
-177 -226 284 0
-285 179 0
-285 234 0
-179 -234 285 0
-109 -279 0
-109 -280 0
-109 -281 0
-109 -282 0
-109 -283 0
-109 -284 0
-109 -285 0
-175 109 279 280 281 282 283 284 285 0
-127 177 0
-286 164 0
-286 176 0
-164 -176 286 0
-287 167 0
-287 186 0
-167 -186 287 0
-288 169 0
-288 194 0
-169 -194 288 0
-289 171 0
-289 202 0
-171 -202 289 0
-290 173 0
-290 210 0
-173 -210 290 0
-291 175 0
-291 218 0
-175 -218 291 0
-292 179 0
-292 235 0
-179 -235 292 0
-127 -286 0
-127 -287 0
-127 -288 0
-127 -289 0
-127 -290 0
-127 -291 0
-127 -292 0
-177 127 286 287 288 289 290 291 292 0
-145 179 0
-293 164 0
-293 178 0
-164 -178 293 0
-294 167 0
-294 187 0
-167 -187 294 0
-295 169 0
-295 195 0
-169 -195 295 0
-296 171 0
-296 203 0
-171 -203 296 0
-297 173 0
-297 211 0
-173 -211 297 0
-298 175 0
-298 219 0
-175 -219 298 0
-299 177 0
-299 227 0
-177 -227 299 0
-145 -293 0
-145 -294 0
-145 -295 0
-145 -296 0
-145 -297 0
-145 -298 0
-145 -299 0
-179 145 293 294 295 296 297 298 299 0
-3 165 0
-300 166 0
-300 180 0
-166 -180 300 0
-301 168 0
-301 188 0
-168 -188 301 0
-302 170 0
-302 196 0
-170 -196 302 0
-303 172 0
-303 204 0
-172 -204 303 0
-304 174 0
-304 212 0
-174 -212 304 0
-305 176 0
-305 220 0
-176 -220 305 0
-306 178 0
-306 228 0
-178 -228 306 0
-3 -300 0
-3 -301 0
-3 -302 0
-3 -303 0
-3 -304 0
-3 -305 0
-3 -306 0
-165 3 300 301 302 303 304 305 306 0
-21 0
-39 166 0
-307 165 0
-307 167 0
-165 -167 307 0
-308 168 0
-308 190 0
-168 -190 308 0
-309 170 0
-309 198 0
-170 -198 309 0
-310 172 0
-310 206 0
-172 -206 310 0
-311 174 0
-311 214 0
-174 -214 311 0
-312 176 0
-312 222 0
-176 -222 312 0
-313 178 0
-313 230 0
-178 -230 313 0
-39 -307 0
-39 -308 0
-39 -309 0
-39 -310 0
-39 -311 0
-39 -312 0
-39 -313 0
-166 39 307 308 309 310 311 312 313 0
-57 168 0
-314 165 0
-314 169 0
-165 -169 314 0
-315 166 0
-315 182 0
-166 -182 315 0
-316 170 0
-316 199 0
-170 -199 316 0
-317 172 0
-317 207 0
-172 -207 317 0
-318 174 0
-318 215 0
-174 -215 318 0
-319 176 0
-319 223 0
-176 -223 319 0
-320 178 0
-320 231 0
-178 -231 320 0
-57 -314 0
-57 -315 0
-57 -316 0
-57 -317 0
-57 -318 0
-57 -319 0
-57 -320 0
-168 57 314 315 316 317 318 319 320 0
-75 170 0
-321 165 0
-321 171 0
-165 -171 321 0
-322 166 0
-322 183 0
-166 -183 322 0
-323 168 0
-323 191 0
-168 -191 323 0
-324 172 0
-324 208 0
-172 -208 324 0
-325 174 0
-325 216 0
-174 -216 325 0
-326 176 0
-326 224 0
-176 -224 326 0
-327 178 0
-327 232 0
-178 -232 327 0
-75 -321 0
-75 -322 0
-75 -323 0
-75 -324 0
-75 -325 0
-75 -326 0
-75 -327 0
-170 75 321 322 323 324 325 326 327 0
-93 172 0
-328 165 0
-328 173 0
-165 -173 328 0
-329 166 0
-329 184 0
-166 -184 329 0
-330 168 0
-330 192 0
-168 -192 330 0
-331 170 0
-331 200 0
-170 -200 331 0
-332 174 0
-332 217 0
-174 -217 332 0
-333 176 0
-333 225 0
-176 -225 333 0
-334 178 0
-334 233 0
-178 -233 334 0
-93 -328 0
-93 -329 0
-93 -330 0
-93 -331 0
-93 -332 0
-93 -333 0
-93 -334 0
-172 93 328 329 330 331 332 333 334 0
-111 174 0
-335 165 0
-335 175 0
-165 -175 335 0
-336 166 0
-336 185 0
-166 -185 336 0
-337 168 0
-337 193 0
-168 -193 337 0
-338 170 0
-338 201 0
-170 -201 338 0
-339 172 0
-339 209 0
-172 -209 339 0
-340 176 0
-340 226 0
-176 -226 340 0
-341 178 0
-341 234 0
-178 -234 341 0
-111 -335 0
-111 -336 0
-111 -337 0
-111 -338 0
-111 -339 0
-111 -340 0
-111 -341 0
-174 111 335 336 337 338 339 340 341 0
-129 176 0
-342 165 0
-342 177 0
-165 -177 342 0
-343 166 0
-343 186 0
-166 -186 343 0
-344 168 0
-344 194 0
-168 -194 344 0
-345 170 0
-345 202 0
-170 -202 345 0
-346 172 0
-346 210 0
-172 -210 346 0
-347 174 0
-347 218 0
-174 -218 347 0
-348 178 0
-348 235 0
-178 -235 348 0
-129 -342 0
-129 -343 0
-129 -344 0
-129 -345 0
-129 -346 0
-129 -347 0
-129 -348 0
-176 129 342 343 344 345 346 347 348 0
-147 178 0
-349 165 0
-349 179 0
-165 -179 349 0
-350 166 0
-350 187 0
-166 -187 350 0
-351 168 0
-351 195 0
-168 -195 351 0
-352 170 0
-352 203 0
-170 -203 352 0
-353 172 0
-353 211 0
-172 -211 353 0
-354 174 0
-354 219 0
-174 -219 354 0
-355 176 0
-355 227 0
-176 -227 355 0
-147 -349 0
-147 -350 0
-147 -351 0
-147 -352 0
-147 -353 0
-147 -354 0
-147 -355 0
-178 147 349 350 351 352 353 354 355 0
-5 180 0
-356 181 0
-356 165 0
-181 -165 356 0
-357 182 0
-357 188 0
-182 -188 357 0
-358 183 0
-358 196 0
-183 -196 358 0
-359 184 0
-359 204 0
-184 -204 359 0
-360 185 0
-360 212 0
-185 -212 360 0
-361 186 0
-361 220 0
-186 -220 361 0
-362 187 0
-362 228 0
-187 -228 362 0
-5 -356 0
-5 -357 0
-5 -358 0
-5 -359 0
-5 -360 0
-5 -361 0
-5 -362 0
-180 5 356 357 358 359 360 361 362 0
-23 181 0
-363 180 0
-363 164 0
-180 -164 363 0
-364 182 0
-364 189 0
-182 -189 364 0
-365 183 0
-365 197 0
-183 -197 365 0
-366 184 0
-366 205 0
-184 -205 366 0
-367 185 0
-367 213 0
-185 -213 367 0
-368 186 0
-368 221 0
-186 -221 368 0
-369 187 0
-369 229 0
-187 -229 369 0
-23 -363 0
-23 -364 0
-23 -365 0
-23 -366 0
-23 -367 0
-23 -368 0
-23 -369 0
-181 23 363 364 365 366 367 368 369 0
-41 0
-59 182 0
-370 180 0
-370 169 0
-180 -169 370 0
-371 181 0
-371 168 0
-181 -168 371 0
-372 183 0
-372 199 0
-183 -199 372 0
-373 184 0
-373 207 0
-184 -207 373 0
-374 185 0
-374 215 0
-185 -215 374 0
-375 186 0
-375 223 0
-186 -223 375 0
-376 187 0
-376 231 0
-187 -231 376 0
-59 -370 0
-59 -371 0
-59 -372 0
-59 -373 0
-59 -374 0
-59 -375 0
-59 -376 0
-182 59 370 371 372 373 374 375 376 0
-77 183 0
-377 180 0
-377 171 0
-180 -171 377 0
-378 181 0
-378 170 0
-181 -170 378 0
-379 182 0
-379 191 0
-182 -191 379 0
-380 184 0
-380 208 0
-184 -208 380 0
-381 185 0
-381 216 0
-185 -216 381 0
-382 186 0
-382 224 0
-186 -224 382 0
-383 187 0
-383 232 0
-187 -232 383 0
-77 -377 0
-77 -378 0
-77 -379 0
-77 -380 0
-77 -381 0
-77 -382 0
-77 -383 0
-183 77 377 378 379 380 381 382 383 0
-95 184 0
-384 180 0
-384 173 0
-180 -173 384 0
-385 181 0
-385 172 0
-181 -172 385 0
-386 182 0
-386 192 0
-182 -192 386 0
-387 183 0
-387 200 0
-183 -200 387 0
-388 185 0
-388 217 0
-185 -217 388 0
-389 186 0
-389 225 0
-186 -225 389 0
-390 187 0
-390 233 0
-187 -233 390 0
-95 -384 0
-95 -385 0
-95 -386 0
-95 -387 0
-95 -388 0
-95 -389 0
-95 -390 0
-184 95 384 385 386 387 388 389 390 0
-113 185 0
-391 180 0
-391 175 0
-180 -175 391 0
-392 181 0
-392 174 0
-181 -174 392 0
-393 182 0
-393 193 0
-182 -193 393 0
-394 183 0
-394 201 0
-183 -201 394 0
-395 184 0
-395 209 0
-184 -209 395 0
-396 186 0
-396 226 0
-186 -226 396 0
-397 187 0
-397 234 0
-187 -234 397 0
-113 -391 0
-113 -392 0
-113 -393 0
-113 -394 0
-113 -395 0
-113 -396 0
-113 -397 0
-185 113 391 392 393 394 395 396 397 0
-131 186 0
-398 180 0
-398 177 0
-180 -177 398 0
-399 181 0
-399 176 0
-181 -176 399 0
-400 182 0
-400 194 0
-182 -194 400 0
-401 183 0
-401 202 0
-183 -202 401 0
-402 184 0
-402 210 0
-184 -210 402 0
-403 185 0
-403 218 0
-185 -218 403 0
-404 187 0
-404 235 0
-187 -235 404 0
-131 -398 0
-131 -399 0
-131 -400 0
-131 -401 0
-131 -402 0
-131 -403 0
-131 -404 0
-186 131 398 399 400 401 402 403 404 0
-149 187 0
-405 180 0
-405 179 0
-180 -179 405 0
-406 181 0
-406 178 0
-181 -178 406 0
-407 182 0
-407 195 0
-182 -195 407 0
-408 183 0
-408 203 0
-183 -203 408 0
-409 184 0
-409 211 0
-184 -211 409 0
-410 185 0
-410 219 0
-185 -219 410 0
-411 186 0
-411 227 0
-186 -227 411 0
-149 -405 0
-149 -406 0
-149 -407 0
-149 -408 0
-149 -409 0
-149 -410 0
-149 -411 0
-187 149 405 406 407 408 409 410 411 0
-7 188 0
-412 189 0
-412 165 0
-189 -165 412 0
-413 190 0
-413 180 0
-190 -180 413 0
-414 191 0
-414 196 0
-191 -196 414 0
-415 192 0
-415 204 0
-192 -204 415 0
-416 193 0
-416 212 0
-193 -212 416 0
-417 194 0
-417 220 0
-194 -220 417 0
-418 195 0
-418 228 0
-195 -228 418 0
-7 -412 0
-7 -413 0
-7 -414 0
-7 -415 0
-7 -416 0
-7 -417 0
-7 -418 0
-188 7 412 413 414 415 416 417 418 0
-25 189 0
-419 188 0
-419 164 0
-188 -164 419 0
-420 190 0
-420 181 0
-190 -181 420 0
-421 191 0
-421 197 0
-191 -197 421 0
-422 192 0
-422 205 0
-192 -205 422 0
-423 193 0
-423 213 0
-193 -213 423 0
-424 194 0
-424 221 0
-194 -221 424 0
-425 195 0
-425 229 0
-195 -229 425 0
-25 -419 0
-25 -420 0
-25 -421 0
-25 -422 0
-25 -423 0
-25 -424 0
-25 -425 0
-189 25 419 420 421 422 423 424 425 0
-43 190 0
-426 188 0
-426 167 0
-188 -167 426 0
-427 189 0
-427 166 0
-189 -166 427 0
-428 191 0
-428 198 0
-191 -198 428 0
-429 192 0
-429 206 0
-192 -206 429 0
-430 193 0
-430 214 0
-193 -214 430 0
-431 194 0
-431 222 0
-194 -222 431 0
-432 195 0
-432 230 0
-195 -230 432 0
-43 -426 0
-43 -427 0
-43 -428 0
-43 -429 0
-43 -430 0
-43 -431 0
-43 -432 0
-190 43 426 427 428 429 430 431 432 0
-61 0
-79 191 0
-433 188 0
-433 171 0
-188 -171 433 0
-434 189 0
-434 170 0
-189 -170 434 0
-435 190 0
-435 183 0
-190 -183 435 0
-436 192 0
-436 208 0
-192 -208 436 0
-437 193 0
-437 216 0
-193 -216 437 0
-438 194 0
-438 224 0
-194 -224 438 0
-439 195 0
-439 232 0
-195 -232 439 0
-79 -433 0
-79 -434 0
-79 -435 0
-79 -436 0
-79 -437 0
-79 -438 0
-79 -439 0
-191 79 433 434 435 436 437 438 439 0
-97 192 0
-440 188 0
-440 173 0
-188 -173 440 0
-441 189 0
-441 172 0
-189 -172 441 0
-442 190 0
-442 184 0
-190 -184 442 0
-443 191 0
-443 200 0
-191 -200 443 0
-444 193 0
-444 217 0
-193 -217 444 0
-445 194 0
-445 225 0
-194 -225 445 0
-446 195 0
-446 233 0
-195 -233 446 0
-97 -440 0
-97 -441 0
-97 -442 0
-97 -443 0
-97 -444 0
-97 -445 0
-97 -446 0
-192 97 440 441 442 443 444 445 446 0
-115 193 0
-447 188 0
-447 175 0
-188 -175 447 0
-448 189 0
-448 174 0
-189 -174 448 0
-449 190 0
-449 185 0
-190 -185 449 0
-450 191 0
-450 201 0
-191 -201 450 0
-451 192 0
-451 209 0
-192 -209 451 0
-452 194 0
-452 226 0
-194 -226 452 0
-453 195 0
-453 234 0
-195 -234 453 0
-115 -447 0
-115 -448 0
-115 -449 0
-115 -450 0
-115 -451 0
-115 -452 0
-115 -453 0
-193 115 447 448 449 450 451 452 453 0
-133 194 0
-454 188 0
-454 177 0
-188 -177 454 0
-455 189 0
-455 176 0
-189 -176 455 0
-456 190 0
-456 186 0
-190 -186 456 0
-457 191 0
-457 202 0
-191 -202 457 0
-458 192 0
-458 210 0
-192 -210 458 0
-459 193 0
-459 218 0
-193 -218 459 0
-460 195 0
-460 235 0
-195 -235 460 0
-133 -454 0
-133 -455 0
-133 -456 0
-133 -457 0
-133 -458 0
-133 -459 0
-133 -460 0
-194 133 454 455 456 457 458 459 460 0
-151 195 0
-461 188 0
-461 179 0
-188 -179 461 0
-462 189 0
-462 178 0
-189 -178 462 0
-463 190 0
-463 187 0
-190 -187 463 0
-464 191 0
-464 203 0
-191 -203 464 0
-465 192 0
-465 211 0
-192 -211 465 0
-466 193 0
-466 219 0
-193 -219 466 0
-467 194 0
-467 227 0
-194 -227 467 0
-151 -461 0
-151 -462 0
-151 -463 0
-151 -464 0
-151 -465 0
-151 -466 0
-151 -467 0
-195 151 461 462 463 464 465 466 467 0
-9 196 0
-468 197 0
-468 165 0
-197 -165 468 0
-469 198 0
-469 180 0
-198 -180 469 0
-470 199 0
-470 188 0
-199 -188 470 0
-471 200 0
-471 204 0
-200 -204 471 0
-472 201 0
-472 212 0
-201 -212 472 0
-473 202 0
-473 220 0
-202 -220 473 0
-474 203 0
-474 228 0
-203 -228 474 0
-9 -468 0
-9 -469 0
-9 -470 0
-9 -471 0
-9 -472 0
-9 -473 0
-9 -474 0
-196 9 468 469 470 471 472 473 474 0
-27 197 0
-475 196 0
-475 164 0
-196 -164 475 0
-476 198 0
-476 181 0
-198 -181 476 0
-477 199 0
-477 189 0
-199 -189 477 0
-478 200 0
-478 205 0
-200 -205 478 0
-479 201 0
-479 213 0
-201 -213 479 0
-480 202 0
-480 221 0
-202 -221 480 0
-481 203 0
-481 229 0
-203 -229 481 0
-27 -475 0
-27 -476 0
-27 -477 0
-27 -478 0
-27 -479 0
-27 -480 0
-27 -481 0
-197 27 475 476 477 478 479 480 481 0
-45 198 0
-482 196 0
-482 167 0
-196 -167 482 0
-483 197 0
-483 166 0
-197 -166 483 0
-484 199 0
-484 190 0
-199 -190 484 0
-485 200 0
-485 206 0
-200 -206 485 0
-486 201 0
-486 214 0
-201 -214 486 0
-487 202 0
-487 222 0
-202 -222 487 0
-488 203 0
-488 230 0
-203 -230 488 0
-45 -482 0
-45 -483 0
-45 -484 0
-45 -485 0
-45 -486 0
-45 -487 0
-45 -488 0
-198 45 482 483 484 485 486 487 488 0
-63 199 0
-489 196 0
-489 169 0
-196 -169 489 0
-490 197 0
-490 168 0
-197 -168 490 0
-491 198 0
-491 182 0
-198 -182 491 0
-492 200 0
-492 207 0
-200 -207 492 0
-493 201 0
-493 215 0
-201 -215 493 0
-494 202 0
-494 223 0
-202 -223 494 0
-495 203 0
-495 231 0
-203 -231 495 0
-63 -489 0
-63 -490 0
-63 -491 0
-63 -492 0
-63 -493 0
-63 -494 0
-63 -495 0
-199 63 489 490 491 492 493 494 495 0
-81 0
-99 200 0
-496 196 0
-496 173 0
-196 -173 496 0
-497 197 0
-497 172 0
-197 -172 497 0
-498 198 0
-498 184 0
-198 -184 498 0
-499 199 0
-499 192 0
-199 -192 499 0
-500 201 0
-500 217 0
-201 -217 500 0
-501 202 0
-501 225 0
-202 -225 501 0
-502 203 0
-502 233 0
-203 -233 502 0
-99 -496 0
-99 -497 0
-99 -498 0
-99 -499 0
-99 -500 0
-99 -501 0
-99 -502 0
-200 99 496 497 498 499 500 501 502 0
-117 201 0
-503 196 0
-503 175 0
-196 -175 503 0
-504 197 0
-504 174 0
-197 -174 504 0
-505 198 0
-505 185 0
-198 -185 505 0
-506 199 0
-506 193 0
-199 -193 506 0
-507 200 0
-507 209 0
-200 -209 507 0
-508 202 0
-508 226 0
-202 -226 508 0
-509 203 0
-509 234 0
-203 -234 509 0
-117 -503 0
-117 -504 0
-117 -505 0
-117 -506 0
-117 -507 0
-117 -508 0
-117 -509 0
-201 117 503 504 505 506 507 508 509 0
-135 202 0
-510 196 0
-510 177 0
-196 -177 510 0
-511 197 0
-511 176 0
-197 -176 511 0
-512 198 0
-512 186 0
-198 -186 512 0
-513 199 0
-513 194 0
-199 -194 513 0
-514 200 0
-514 210 0
-200 -210 514 0
-515 201 0
-515 218 0
-201 -218 515 0
-516 203 0
-516 235 0
-203 -235 516 0
-135 -510 0
-135 -511 0
-135 -512 0
-135 -513 0
-135 -514 0
-135 -515 0
-135 -516 0
-202 135 510 511 512 513 514 515 516 0
-153 203 0
-517 196 0
-517 179 0
-196 -179 517 0
-518 197 0
-518 178 0
-197 -178 518 0
-519 198 0
-519 187 0
-198 -187 519 0
-520 199 0
-520 195 0
-199 -195 520 0
-521 200 0
-521 211 0
-200 -211 521 0
-522 201 0
-522 219 0
-201 -219 522 0
-523 202 0
-523 227 0
-202 -227 523 0
-153 -517 0
-153 -518 0
-153 -519 0
-153 -520 0
-153 -521 0
-153 -522 0
-153 -523 0
-203 153 517 518 519 520 521 522 523 0
-11 204 0
-524 205 0
-524 165 0
-205 -165 524 0
-525 206 0
-525 180 0
-206 -180 525 0
-526 207 0
-526 188 0
-207 -188 526 0
-527 208 0
-527 196 0
-208 -196 527 0
-528 209 0
-528 212 0
-209 -212 528 0
-529 210 0
-529 220 0
-210 -220 529 0
-530 211 0
-530 228 0
-211 -228 530 0
-11 -524 0
-11 -525 0
-11 -526 0
-11 -527 0
-11 -528 0
-11 -529 0
-11 -530 0
-204 11 524 525 526 527 528 529 530 0
-29 205 0
-531 204 0
-531 164 0
-204 -164 531 0
-532 206 0
-532 181 0
-206 -181 532 0
-533 207 0
-533 189 0
-207 -189 533 0
-534 208 0
-534 197 0
-208 -197 534 0
-535 209 0
-535 213 0
-209 -213 535 0
-536 210 0
-536 221 0
-210 -221 536 0
-537 211 0
-537 229 0
-211 -229 537 0
-29 -531 0
-29 -532 0
-29 -533 0
-29 -534 0
-29 -535 0
-29 -536 0
-29 -537 0
-205 29 531 532 533 534 535 536 537 0
-47 206 0
-538 204 0
-538 167 0
-204 -167 538 0
-539 205 0
-539 166 0
-205 -166 539 0
-540 207 0
-540 190 0
-207 -190 540 0
-541 208 0
-541 198 0
-208 -198 541 0
-542 209 0
-542 214 0
-209 -214 542 0
-543 210 0
-543 222 0
-210 -222 543 0
-544 211 0
-544 230 0
-211 -230 544 0
-47 -538 0
-47 -539 0
-47 -540 0
-47 -541 0
-47 -542 0
-47 -543 0
-47 -544 0
-206 47 538 539 540 541 542 543 544 0
-65 207 0
-545 204 0
-545 169 0
-204 -169 545 0
-546 205 0
-546 168 0
-205 -168 546 0
-547 206 0
-547 182 0
-206 -182 547 0
-548 208 0
-548 199 0
-208 -199 548 0
-549 209 0
-549 215 0
-209 -215 549 0
-550 210 0
-550 223 0
-210 -223 550 0
-551 211 0
-551 231 0
-211 -231 551 0
-65 -545 0
-65 -546 0
-65 -547 0
-65 -548 0
-65 -549 0
-65 -550 0
-65 -551 0
-207 65 545 546 547 548 549 550 551 0
-83 208 0
-552 204 0
-552 171 0
-204 -171 552 0
-553 205 0
-553 170 0
-205 -170 553 0
-554 206 0
-554 183 0
-206 -183 554 0
-555 207 0
-555 191 0
-207 -191 555 0
-556 209 0
-556 216 0
-209 -216 556 0
-557 210 0
-557 224 0
-210 -224 557 0
-558 211 0
-558 232 0
-211 -232 558 0
-83 -552 0
-83 -553 0
-83 -554 0
-83 -555 0
-83 -556 0
-83 -557 0
-83 -558 0
-208 83 552 553 554 555 556 557 558 0
-101 0
-119 209 0
-559 204 0
-559 175 0
-204 -175 559 0
-560 205 0
-560 174 0
-205 -174 560 0
-561 206 0
-561 185 0
-206 -185 561 0
-562 207 0
-562 193 0
-207 -193 562 0
-563 208 0
-563 201 0
-208 -201 563 0
-564 210 0
-564 226 0
-210 -226 564 0
-565 211 0
-565 234 0
-211 -234 565 0
-119 -559 0
-119 -560 0
-119 -561 0
-119 -562 0
-119 -563 0
-119 -564 0
-119 -565 0
-209 119 559 560 561 562 563 564 565 0
-137 210 0
-566 204 0
-566 177 0
-204 -177 566 0
-567 205 0
-567 176 0
-205 -176 567 0
-568 206 0
-568 186 0
-206 -186 568 0
-569 207 0
-569 194 0
-207 -194 569 0
-570 208 0
-570 202 0
-208 -202 570 0
-571 209 0
-571 218 0
-209 -218 571 0
-572 211 0
-572 235 0
-211 -235 572 0
-137 -566 0
-137 -567 0
-137 -568 0
-137 -569 0
-137 -570 0
-137 -571 0
-137 -572 0
-210 137 566 567 568 569 570 571 572 0
-155 211 0
-573 204 0
-573 179 0
-204 -179 573 0
-574 205 0
-574 178 0
-205 -178 574 0
-575 206 0
-575 187 0
-206 -187 575 0
-576 207 0
-576 195 0
-207 -195 576 0
-577 208 0
-577 203 0
-208 -203 577 0
-578 209 0
-578 219 0
-209 -219 578 0
-579 210 0
-579 227 0
-210 -227 579 0
-155 -573 0
-155 -574 0
-155 -575 0
-155 -576 0
-155 -577 0
-155 -578 0
-155 -579 0
-211 155 573 574 575 576 577 578 579 0
-13 212 0
-580 213 0
-580 165 0
-213 -165 580 0
-581 214 0
-581 180 0
-214 -180 581 0
-582 215 0
-582 188 0
-215 -188 582 0
-583 216 0
-583 196 0
-216 -196 583 0
-584 217 0
-584 204 0
-217 -204 584 0
-585 218 0
-585 220 0
-218 -220 585 0
-586 219 0
-586 228 0
-219 -228 586 0
-13 -580 0
-13 -581 0
-13 -582 0
-13 -583 0
-13 -584 0
-13 -585 0
-13 -586 0
-212 13 580 581 582 583 584 585 586 0
-31 213 0
-587 212 0
-587 164 0
-212 -164 587 0
-588 214 0
-588 181 0
-214 -181 588 0
-589 215 0
-589 189 0
-215 -189 589 0
-590 216 0
-590 197 0
-216 -197 590 0
-591 217 0
-591 205 0
-217 -205 591 0
-592 218 0
-592 221 0
-218 -221 592 0
-593 219 0
-593 229 0
-219 -229 593 0
-31 -587 0
-31 -588 0
-31 -589 0
-31 -590 0
-31 -591 0
-31 -592 0
-31 -593 0
-213 31 587 588 589 590 591 592 593 0
-49 214 0
-594 212 0
-594 167 0
-212 -167 594 0
-595 213 0
-595 166 0
-213 -166 595 0
-596 215 0
-596 190 0
-215 -190 596 0
-597 216 0
-597 198 0
-216 -198 597 0
-598 217 0
-598 206 0
-217 -206 598 0
-599 218 0
-599 222 0
-218 -222 599 0
-600 219 0
-600 230 0
-219 -230 600 0
-49 -594 0
-49 -595 0
-49 -596 0
-49 -597 0
-49 -598 0
-49 -599 0
-49 -600 0
-214 49 594 595 596 597 598 599 600 0
-67 215 0
-601 212 0
-601 169 0
-212 -169 601 0
-602 213 0
-602 168 0
-213 -168 602 0
-603 214 0
-603 182 0
-214 -182 603 0
-604 216 0
-604 199 0
-216 -199 604 0
-605 217 0
-605 207 0
-217 -207 605 0
-606 218 0
-606 223 0
-218 -223 606 0
-607 219 0
-607 231 0
-219 -231 607 0
-67 -601 0
-67 -602 0
-67 -603 0
-67 -604 0
-67 -605 0
-67 -606 0
-67 -607 0
-215 67 601 602 603 604 605 606 607 0
-85 216 0
-608 212 0
-608 171 0
-212 -171 608 0
-609 213 0
-609 170 0
-213 -170 609 0
-610 214 0
-610 183 0
-214 -183 610 0
-611 215 0
-611 191 0
-215 -191 611 0
-612 217 0
-612 208 0
-217 -208 612 0
-613 218 0
-613 224 0
-218 -224 613 0
-614 219 0
-614 232 0
-219 -232 614 0
-85 -608 0
-85 -609 0
-85 -610 0
-85 -611 0
-85 -612 0
-85 -613 0
-85 -614 0
-216 85 608 609 610 611 612 613 614 0
-103 217 0
-615 212 0
-615 173 0
-212 -173 615 0
-616 213 0
-616 172 0
-213 -172 616 0
-617 214 0
-617 184 0
-214 -184 617 0
-618 215 0
-618 192 0
-215 -192 618 0
-619 216 0
-619 200 0
-216 -200 619 0
-620 218 0
-620 225 0
-218 -225 620 0
-621 219 0
-621 233 0
-219 -233 621 0
-103 -615 0
-103 -616 0
-103 -617 0
-103 -618 0
-103 -619 0
-103 -620 0
-103 -621 0
-217 103 615 616 617 618 619 620 621 0
-121 0
-139 218 0
-622 212 0
-622 177 0
-212 -177 622 0
-623 213 0
-623 176 0
-213 -176 623 0
-624 214 0
-624 186 0
-214 -186 624 0
-625 215 0
-625 194 0
-215 -194 625 0
-626 216 0
-626 202 0
-216 -202 626 0
-627 217 0
-627 210 0
-217 -210 627 0
-628 219 0
-628 235 0
-219 -235 628 0
-139 -622 0
-139 -623 0
-139 -624 0
-139 -625 0
-139 -626 0
-139 -627 0
-139 -628 0
-218 139 622 623 624 625 626 627 628 0
-157 219 0
-629 212 0
-629 179 0
-212 -179 629 0
-630 213 0
-630 178 0
-213 -178 630 0
-631 214 0
-631 187 0
-214 -187 631 0
-632 215 0
-632 195 0
-215 -195 632 0
-633 216 0
-633 203 0
-216 -203 633 0
-634 217 0
-634 211 0
-217 -211 634 0
-635 218 0
-635 227 0
-218 -227 635 0
-157 -629 0
-157 -630 0
-157 -631 0
-157 -632 0
-157 -633 0
-157 -634 0
-157 -635 0
-219 157 629 630 631 632 633 634 635 0
-15 220 0
-636 221 0
-636 165 0
-221 -165 636 0
-637 222 0
-637 180 0
-222 -180 637 0
-638 223 0
-638 188 0
-223 -188 638 0
-639 224 0
-639 196 0
-224 -196 639 0
-640 225 0
-640 204 0
-225 -204 640 0
-641 226 0
-641 212 0
-226 -212 641 0
-642 227 0
-642 228 0
-227 -228 642 0
-15 -636 0
-15 -637 0
-15 -638 0
-15 -639 0
-15 -640 0
-15 -641 0
-15 -642 0
-220 15 636 637 638 639 640 641 642 0
-33 221 0
-643 220 0
-643 164 0
-220 -164 643 0
-644 222 0
-644 181 0
-222 -181 644 0
-645 223 0
-645 189 0
-223 -189 645 0
-646 224 0
-646 197 0
-224 -197 646 0
-647 225 0
-647 205 0
-225 -205 647 0
-648 226 0
-648 213 0
-226 -213 648 0
-649 227 0
-649 229 0
-227 -229 649 0
-33 -643 0
-33 -644 0
-33 -645 0
-33 -646 0
-33 -647 0
-33 -648 0
-33 -649 0
-221 33 643 644 645 646 647 648 649 0
-51 222 0
-650 220 0
-650 167 0
-220 -167 650 0
-651 221 0
-651 166 0
-221 -166 651 0
-652 223 0
-652 190 0
-223 -190 652 0
-653 224 0
-653 198 0
-224 -198 653 0
-654 225 0
-654 206 0
-225 -206 654 0
-655 226 0
-655 214 0
-226 -214 655 0
-656 227 0
-656 230 0
-227 -230 656 0
-51 -650 0
-51 -651 0
-51 -652 0
-51 -653 0
-51 -654 0
-51 -655 0
-51 -656 0
-222 51 650 651 652 653 654 655 656 0
-69 223 0
-657 220 0
-657 169 0
-220 -169 657 0
-658 221 0
-658 168 0
-221 -168 658 0
-659 222 0
-659 182 0
-222 -182 659 0
-660 224 0
-660 199 0
-224 -199 660 0
-661 225 0
-661 207 0
-225 -207 661 0
-662 226 0
-662 215 0
-226 -215 662 0
-663 227 0
-663 231 0
-227 -231 663 0
-69 -657 0
-69 -658 0
-69 -659 0
-69 -660 0
-69 -661 0
-69 -662 0
-69 -663 0
-223 69 657 658 659 660 661 662 663 0
-87 224 0
-664 220 0
-664 171 0
-220 -171 664 0
-665 221 0
-665 170 0
-221 -170 665 0
-666 222 0
-666 183 0
-222 -183 666 0
-667 223 0
-667 191 0
-223 -191 667 0
-668 225 0
-668 208 0
-225 -208 668 0
-669 226 0
-669 216 0
-226 -216 669 0
-670 227 0
-670 232 0
-227 -232 670 0
-87 -664 0
-87 -665 0
-87 -666 0
-87 -667 0
-87 -668 0
-87 -669 0
-87 -670 0
-224 87 664 665 666 667 668 669 670 0
-105 225 0
-671 220 0
-671 173 0
-220 -173 671 0
-672 221 0
-672 172 0
-221 -172 672 0
-673 222 0
-673 184 0
-222 -184 673 0
-674 223 0
-674 192 0
-223 -192 674 0
-675 224 0
-675 200 0
-224 -200 675 0
-676 226 0
-676 217 0
-226 -217 676 0
-677 227 0
-677 233 0
-227 -233 677 0
-105 -671 0
-105 -672 0
-105 -673 0
-105 -674 0
-105 -675 0
-105 -676 0
-105 -677 0
-225 105 671 672 673 674 675 676 677 0
-123 226 0
-678 220 0
-678 175 0
-220 -175 678 0
-679 221 0
-679 174 0
-221 -174 679 0
-680 222 0
-680 185 0
-222 -185 680 0
-681 223 0
-681 193 0
-223 -193 681 0
-682 224 0
-682 201 0
-224 -201 682 0
-683 225 0
-683 209 0
-225 -209 683 0
-684 227 0
-684 234 0
-227 -234 684 0
-123 -678 0
-123 -679 0
-123 -680 0
-123 -681 0
-123 -682 0
-123 -683 0
-123 -684 0
-226 123 678 679 680 681 682 683 684 0
-141 0
-159 227 0
-685 220 0
-685 179 0
-220 -179 685 0
-686 221 0
-686 178 0
-221 -178 686 0
-687 222 0
-687 187 0
-222 -187 687 0
-688 223 0
-688 195 0
-223 -195 688 0
-689 224 0
-689 203 0
-224 -203 689 0
-690 225 0
-690 211 0
-225 -211 690 0
-691 226 0
-691 219 0
-226 -219 691 0
-159 -685 0
-159 -686 0
-159 -687 0
-159 -688 0
-159 -689 0
-159 -690 0
-159 -691 0
-227 159 685 686 687 688 689 690 691 0
-17 228 0
-692 229 0
-692 165 0
-229 -165 692 0
-693 230 0
-693 180 0
-230 -180 693 0
-694 231 0
-694 188 0
-231 -188 694 0
-695 232 0
-695 196 0
-232 -196 695 0
-696 233 0
-696 204 0
-233 -204 696 0
-697 234 0
-697 212 0
-234 -212 697 0
-698 235 0
-698 220 0
-235 -220 698 0
-17 -692 0
-17 -693 0
-17 -694 0
-17 -695 0
-17 -696 0
-17 -697 0
-17 -698 0
-228 17 692 693 694 695 696 697 698 0
-35 229 0
-699 228 0
-699 164 0
-228 -164 699 0
-700 230 0
-700 181 0
-230 -181 700 0
-701 231 0
-701 189 0
-231 -189 701 0
-702 232 0
-702 197 0
-232 -197 702 0
-703 233 0
-703 205 0
-233 -205 703 0
-704 234 0
-704 213 0
-234 -213 704 0
-705 235 0
-705 221 0
-235 -221 705 0
-35 -699 0
-35 -700 0
-35 -701 0
-35 -702 0
-35 -703 0
-35 -704 0
-35 -705 0
-229 35 699 700 701 702 703 704 705 0
-53 230 0
-706 228 0
-706 167 0
-228 -167 706 0
-707 229 0
-707 166 0
-229 -166 707 0
-708 231 0
-708 190 0
-231 -190 708 0
-709 232 0
-709 198 0
-232 -198 709 0
-710 233 0
-710 206 0
-233 -206 710 0
-711 234 0
-711 214 0
-234 -214 711 0
-712 235 0
-712 222 0
-235 -222 712 0
-53 -706 0
-53 -707 0
-53 -708 0
-53 -709 0
-53 -710 0
-53 -711 0
-53 -712 0
-230 53 706 707 708 709 710 711 712 0
-71 231 0
-713 228 0
-713 169 0
-228 -169 713 0
-714 229 0
-714 168 0
-229 -168 714 0
-715 230 0
-715 182 0
-230 -182 715 0
-716 232 0
-716 199 0
-232 -199 716 0
-717 233 0
-717 207 0
-233 -207 717 0
-718 234 0
-718 215 0
-234 -215 718 0
-719 235 0
-719 223 0
-235 -223 719 0
-71 -713 0
-71 -714 0
-71 -715 0
-71 -716 0
-71 -717 0
-71 -718 0
-71 -719 0
-231 71 713 714 715 716 717 718 719 0
-89 232 0
-720 228 0
-720 171 0
-228 -171 720 0
-721 229 0
-721 170 0
-229 -170 721 0
-722 230 0
-722 183 0
-230 -183 722 0
-723 231 0
-723 191 0
-231 -191 723 0
-724 233 0
-724 208 0
-233 -208 724 0
-725 234 0
-725 216 0
-234 -216 725 0
-726 235 0
-726 224 0
-235 -224 726 0
-89 -720 0
-89 -721 0
-89 -722 0
-89 -723 0
-89 -724 0
-89 -725 0
-89 -726 0
-232 89 720 721 722 723 724 725 726 0
-107 233 0
-727 228 0
-727 173 0
-228 -173 727 0
-728 229 0
-728 172 0
-229 -172 728 0
-729 230 0
-729 184 0
-230 -184 729 0
-730 231 0
-730 192 0
-231 -192 730 0
-731 232 0
-731 200 0
-232 -200 731 0
-732 234 0
-732 217 0
-234 -217 732 0
-733 235 0
-733 225 0
-235 -225 733 0
-107 -727 0
-107 -728 0
-107 -729 0
-107 -730 0
-107 -731 0
-107 -732 0
-107 -733 0
-233 107 727 728 729 730 731 732 733 0
-125 234 0
-734 228 0
-734 175 0
-228 -175 734 0
-735 229 0
-735 174 0
-229 -174 735 0
-736 230 0
-736 185 0
-230 -185 736 0
-737 231 0
-737 193 0
-231 -193 737 0
-738 232 0
-738 201 0
-232 -201 738 0
-739 233 0
-739 209 0
-233 -209 739 0
-740 235 0
-740 226 0
-235 -226 740 0
-125 -734 0
-125 -735 0
-125 -736 0
-125 -737 0
-125 -738 0
-125 -739 0
-125 -740 0
-234 125 734 735 736 737 738 739 740 0
-143 235 0
-741 228 0
-741 177 0
-228 -177 741 0
-742 229 0
-742 176 0
-229 -176 742 0
-743 230 0
-743 186 0
-230 -186 743 0
-744 231 0
-744 194 0
-231 -194 744 0
-745 232 0
-745 202 0
-232 -202 745 0
-746 233 0
-746 210 0
-233 -210 746 0
-747 234 0
-747 218 0
-234 -218 747 0
-143 -741 0
-143 -742 0
-143 -743 0
-143 -744 0
-143 -745 0
-143 -746 0
-143 -747 0
-235 143 741 742 743 744 745 746 747 0
-161 0
748 0
749 750 0
-749 -750 0
-749 -751 752 0
-749 -753 754 0
-749 -755 756 0
-749 -757 758 0
-749 -759 760 0
-749 -761 762 0
-749 -763 764 0
752 765 0
-752 -765 0
-752 -766 749 0
-752 -767 754 0
-752 -768 756 0
-752 -769 758 0
-752 -770 760 0
-752 -771 762 0
-752 -772 764 0
754 773 0
-754 -773 0
-754 -774 749 0
-754 -775 752 0
-754 -776 756 0
-754 -777 758 0
-754 -778 760 0
-754 -779 762 0
-754 -780 764 0
756 781 0
-756 -781 0
-756 -782 749 0
-756 -783 752 0
-756 -784 754 0
-756 -785 758 0
-756 -786 760 0
-756 -787 762 0
-756 -788 764 0
758 789 0
-758 -789 0
-758 -790 749 0
-758 -791 752 0
-758 -792 754 0
-758 -793 756 0
-758 -794 760 0
-758 -795 762 0
-758 -796 764 0
760 797 0
-760 -797 0
-760 -798 749 0
-760 -799 752 0
-760 -800 754 0
-760 -801 756 0
-760 -802 758 0
-760 -803 762 0
-760 -804 764 0
762 805 0
-762 -805 0
-762 -806 749 0
-762 -807 752 0
-762 -808 754 0
-762 -809 756 0
-762 -810 758 0
-762 -811 760 0
-762 -812 764 0
764 813 0
-764 -813 0
-764 -814 749 0
-764 -815 752 0
-764 -816 754 0
-764 -817 756 0
-764 -818 758 0
-764 -819 760 0
-764 -820 762 0
821 0
750 749 0
-750 -749 0
-750 -752 751 0
-750 -754 753 0
-750 -756 755 0
-750 -758 757 0
-750 -760 759 0
-750 -762 761 0
-750 -764 763 0
751 766 0
-751 -766 0
-751 -765 750 0
-751 -767 753 0
-751 -768 755 0
-751 -769 757 0
-751 -770 759 0
-751 -771 761 0
-751 -772 763 0
753 774 0
-753 -774 0
-753 -773 750 0
-753 -775 751 0
-753 -776 755 0
-753 -777 757 0
-753 -778 759 0
-753 -779 761 0
-753 -780 763 0
755 782 0
-755 -782 0
-755 -781 750 0
-755 -783 751 0
-755 -784 753 0
-755 -785 757 0
-755 -786 759 0
-755 -787 761 0
-755 -788 763 0
757 790 0
-757 -790 0
-757 -789 750 0
-757 -791 751 0
-757 -792 753 0
-757 -793 755 0
-757 -794 759 0
-757 -795 761 0
-757 -796 763 0
759 798 0
-759 -798 0
-759 -797 750 0
-759 -799 751 0
-759 -800 753 0
-759 -801 755 0
-759 -802 757 0
-759 -803 761 0
-759 -804 763 0
761 806 0
-761 -806 0
-761 -805 750 0
-761 -807 751 0
-761 -808 753 0
-761 -809 755 0
-761 -810 757 0
-761 -811 759 0
-761 -812 763 0
763 814 0
-763 -814 0
-763 -813 750 0
-763 -815 751 0
-763 -816 753 0
-763 -817 755 0
-763 -818 757 0
-763 -819 759 0
-763 -820 761 0
822 0
765 752 0
-765 -752 0
-765 -749 766 0
-765 -754 767 0
-765 -756 768 0
-765 -758 769 0
-765 -760 770 0
-765 -762 771 0
-765 -764 772 0
766 751 0
-766 -751 0
-766 -750 765 0
-766 -753 767 0
-766 -755 768 0
-766 -757 769 0
-766 -759 770 0
-766 -761 771 0
-766 -763 772 0
767 775 0
-767 -775 0
-767 -773 765 0
-767 -774 766 0
-767 -776 768 0
-767 -777 769 0
-767 -778 770 0
-767 -779 771 0
-767 -780 772 0
768 783 0
-768 -783 0
-768 -781 765 0
-768 -782 766 0
-768 -784 767 0
-768 -785 769 0
-768 -786 770 0
-768 -787 771 0
-768 -788 772 0
769 791 0
-769 -791 0
-769 -789 765 0
-769 -790 766 0
-769 -792 767 0
-769 -793 768 0
-769 -794 770 0
-769 -795 771 0
-769 -796 772 0
770 799 0
-770 -799 0
-770 -797 765 0
-770 -798 766 0
-770 -800 767 0
-770 -801 768 0
-770 -802 769 0
-770 -803 771 0
-770 -804 772 0
771 807 0
-771 -807 0
-771 -805 765 0
-771 -806 766 0
-771 -808 767 0
-771 -809 768 0
-771 -810 769 0
-771 -811 770 0
-771 -812 772 0
772 815 0
-772 -815 0
-772 -813 765 0
-772 -814 766 0
-772 -816 767 0
-772 -817 768 0
-772 -818 769 0
-772 -819 770 0
-772 -820 771 0
823 0
773 754 0
-773 -754 0
-773 -749 774 0
-773 -752 775 0
-773 -756 776 0
-773 -758 777 0
-773 -760 778 0
-773 -762 779 0
-773 -764 780 0
774 753 0
-774 -753 0
-774 -750 773 0
-774 -751 775 0
-774 -755 776 0
-774 -757 777 0
-774 -759 778 0
-774 -761 779 0
-774 -763 780 0
775 767 0
-775 -767 0
-775 -765 773 0
-775 -766 774 0
-775 -768 776 0
-775 -769 777 0
-775 -770 778 0
-775 -771 779 0
-775 -772 780 0
776 784 0
-776 -784 0
-776 -781 773 0
-776 -782 774 0
-776 -783 775 0
-776 -785 777 0
-776 -786 778 0
-776 -787 779 0
-776 -788 780 0
777 792 0
-777 -792 0
-777 -789 773 0
-777 -790 774 0
-777 -791 775 0
-777 -793 776 0
-777 -794 778 0
-777 -795 779 0
-777 -796 780 0
778 800 0
-778 -800 0
-778 -797 773 0
-778 -798 774 0
-778 -799 775 0
-778 -801 776 0
-778 -802 777 0
-778 -803 779 0
-778 -804 780 0
779 808 0
-779 -808 0
-779 -805 773 0
-779 -806 774 0
-779 -807 775 0
-779 -809 776 0
-779 -810 777 0
-779 -811 778 0
-779 -812 780 0
780 816 0
-780 -816 0
-780 -813 773 0
-780 -814 774 0
-780 -815 775 0
-780 -817 776 0
-780 -818 777 0
-780 -819 778 0
-780 -820 779 0
824 0
781 756 0
-781 -756 0
-781 -749 782 0
-781 -752 783 0
-781 -754 784 0
-781 -758 785 0
-781 -760 786 0
-781 -762 787 0
-781 -764 788 0
782 755 0
-782 -755 0
-782 -750 781 0
-782 -751 783 0
-782 -753 784 0
-782 -757 785 0
-782 -759 786 0
-782 -761 787 0
-782 -763 788 0
783 768 0
-783 -768 0
-783 -765 781 0
-783 -766 782 0
-783 -767 784 0
-783 -769 785 0
-783 -770 786 0
-783 -771 787 0
-783 -772 788 0
784 776 0
-784 -776 0
-784 -773 781 0
-784 -774 782 0
-784 -775 783 0
-784 -777 785 0
-784 -778 786 0
-784 -779 787 0
-784 -780 788 0
785 793 0
-785 -793 0
-785 -789 781 0
-785 -790 782 0
-785 -791 783 0
-785 -792 784 0
-785 -794 786 0
-785 -795 787 0
-785 -796 788 0
786 801 0
-786 -801 0
-786 -797 781 0
-786 -798 782 0
-786 -799 783 0
-786 -800 784 0
-786 -802 785 0
-786 -803 787 0
-786 -804 788 0
787 809 0
-787 -809 0
-787 -805 781 0
-787 -806 782 0
-787 -807 783 0
-787 -808 784 0
-787 -810 785 0
-787 -811 786 0
-787 -812 788 0
788 817 0
-788 -817 0
-788 -813 781 0
-788 -814 782 0
-788 -815 783 0
-788 -816 784 0
-788 -818 785 0
-788 -819 786 0
-788 -820 787 0
825 0
789 758 0
-789 -758 0
-789 -749 790 0
-789 -752 791 0
-789 -754 792 0
-789 -756 793 0
-789 -760 794 0
-789 -762 795 0
-789 -764 796 0
790 757 0
-790 -757 0
-790 -750 789 0
-790 -751 791 0
-790 -753 792 0
-790 -755 793 0
-790 -759 794 0
-790 -761 795 0
-790 -763 796 0
791 769 0
-791 -769 0
-791 -765 789 0
-791 -766 790 0
-791 -767 792 0
-791 -768 793 0
-791 -770 794 0
-791 -771 795 0
-791 -772 796 0
792 777 0
-792 -777 0
-792 -773 789 0
-792 -774 790 0
-792 -775 791 0
-792 -776 793 0
-792 -778 794 0
-792 -779 795 0
-792 -780 796 0
793 785 0
-793 -785 0
-793 -781 789 0
-793 -782 790 0
-793 -783 791 0
-793 -784 792 0
-793 -786 794 0
-793 -787 795 0
-793 -788 796 0
794 802 0
-794 -802 0
-794 -797 789 0
-794 -798 790 0
-794 -799 791 0
-794 -800 792 0
-794 -801 793 0
-794 -803 795 0
-794 -804 796 0
795 810 0
-795 -810 0
-795 -805 789 0
-795 -806 790 0
-795 -807 791 0
-795 -808 792 0
-795 -809 793 0
-795 -811 794 0
-795 -812 796 0
796 818 0
-796 -818 0
-796 -813 789 0
-796 -814 790 0
-796 -815 791 0
-796 -816 792 0
-796 -817 793 0
-796 -819 794 0
-796 -820 795 0
826 0
797 760 0
-797 -760 0
-797 -749 798 0
-797 -752 799 0
-797 -754 800 0
-797 -756 801 0
-797 -758 802 0
-797 -762 803 0
-797 -764 804 0
798 759 0
-798 -759 0
-798 -750 797 0
-798 -751 799 0
-798 -753 800 0
-798 -755 801 0
-798 -757 802 0
-798 -761 803 0
-798 -763 804 0
799 770 0
-799 -770 0
-799 -765 797 0
-799 -766 798 0
-799 -767 800 0
-799 -768 801 0
-799 -769 802 0
-799 -771 803 0
-799 -772 804 0
800 778 0
-800 -778 0
-800 -773 797 0
-800 -774 798 0
-800 -775 799 0
-800 -776 801 0
-800 -777 802 0
-800 -779 803 0
-800 -780 804 0
801 786 0
-801 -786 0
-801 -781 797 0
-801 -782 798 0
-801 -783 799 0
-801 -784 800 0
-801 -785 802 0
-801 -787 803 0
-801 -788 804 0
802 794 0
-802 -794 0
-802 -789 797 0
-802 -790 798 0
-802 -791 799 0
-802 -792 800 0
-802 -793 801 0
-802 -795 803 0
-802 -796 804 0
803 811 0
-803 -811 0
-803 -805 797 0
-803 -806 798 0
-803 -807 799 0
-803 -808 800 0
-803 -809 801 0
-803 -810 802 0
-803 -812 804 0
804 819 0
-804 -819 0
-804 -813 797 0
-804 -814 798 0
-804 -815 799 0
-804 -816 800 0
-804 -817 801 0
-804 -818 802 0
-804 -820 803 0
827 0
805 762 0
-805 -762 0
-805 -749 806 0
-805 -752 807 0
-805 -754 808 0
-805 -756 809 0
-805 -758 810 0
-805 -760 811 0
-805 -764 812 0
806 761 0
-806 -761 0
-806 -750 805 0
-806 -751 807 0
-806 -753 808 0
-806 -755 809 0
-806 -757 810 0
-806 -759 811 0
-806 -763 812 0
807 771 0
-807 -771 0
-807 -765 805 0
-807 -766 806 0
-807 -767 808 0
-807 -768 809 0
-807 -769 810 0
-807 -770 811 0
-807 -772 812 0
808 779 0
-808 -779 0
-808 -773 805 0
-808 -774 806 0
-808 -775 807 0
-808 -776 809 0
-808 -777 810 0
-808 -778 811 0
-808 -780 812 0
809 787 0
-809 -787 0
-809 -781 805 0
-809 -782 806 0
-809 -783 807 0
-809 -784 808 0
-809 -785 810 0
-809 -786 811 0
-809 -788 812 0
810 795 0
-810 -795 0
-810 -789 805 0
-810 -790 806 0
-810 -791 807 0
-810 -792 808 0
-810 -793 809 0
-810 -794 811 0
-810 -796 812 0
811 803 0
-811 -803 0
-811 -797 805 0
-811 -798 806 0
-811 -799 807 0
-811 -800 808 0
-811 -801 809 0
-811 -802 810 0
-811 -804 812 0
812 820 0
-812 -820 0
-812 -813 805 0
-812 -814 806 0
-812 -815 807 0
-812 -816 808 0
-812 -817 809 0
-812 -818 810 0
-812 -819 811 0
828 0
813 764 0
-813 -764 0
-813 -749 814 0
-813 -752 815 0
-813 -754 816 0
-813 -756 817 0
-813 -758 818 0
-813 -760 819 0
-813 -762 820 0
814 763 0
-814 -763 0
-814 -750 813 0
-814 -751 815 0
-814 -753 816 0
-814 -755 817 0
-814 -757 818 0
-814 -759 819 0
-814 -761 820 0
815 772 0
-815 -772 0
-815 -765 813 0
-815 -766 814 0
-815 -767 816 0
-815 -768 817 0
-815 -769 818 0
-815 -770 819 0
-815 -771 820 0
816 780 0
-816 -780 0
-816 -773 813 0
-816 -774 814 0
-816 -775 815 0
-816 -776 817 0
-816 -777 818 0
-816 -778 819 0
-816 -779 820 0
817 788 0
-817 -788 0
-817 -781 813 0
-817 -782 814 0
-817 -783 815 0
-817 -784 816 0
-817 -785 818 0
-817 -786 819 0
-817 -787 820 0
818 796 0
-818 -796 0
-818 -789 813 0
-818 -790 814 0
-818 -791 815 0
-818 -792 816 0
-818 -793 817 0
-818 -794 819 0
-818 -795 820 0
819 804 0
-819 -804 0
-819 -797 813 0
-819 -798 814 0
-819 -799 815 0
-819 -800 816 0
-819 -801 817 0
-819 -802 818 0
-819 -803 820 0
820 812 0
-820 -812 0
-820 -805 813 0
-820 -806 814 0
-820 -807 815 0
-820 -808 816 0
-820 -809 817 0
-820 -810 818 0
-820 -811 819 0
-2 0
-20 749 0
-829 752 0
-829 766 0
-752 -766 829 0
-830 754 0
-830 774 0
-754 -774 830 0
-831 756 0
-831 782 0
-756 -782 831 0
-832 758 0
-832 790 0
-758 -790 832 0
-833 760 0
-833 798 0
-760 -798 833 0
-834 762 0
-834 806 0
-762 -806 834 0
-835 764 0
-835 814 0
-764 -814 835 0
-20 -829 0
-20 -830 0
-20 -831 0
-20 -832 0
-20 -833 0
-20 -834 0
-20 -835 0
-749 20 829 830 831 832 833 834 835 0
-38 752 0
-836 749 0
-836 751 0
-749 -751 836 0
-837 754 0
-837 775 0
-754 -775 837 0
-838 756 0
-838 783 0
-756 -783 838 0
-839 758 0
-839 791 0
-758 -791 839 0
-840 760 0
-840 799 0
-760 -799 840 0
-841 762 0
-841 807 0
-762 -807 841 0
-842 764 0
-842 815 0
-764 -815 842 0
-38 -836 0
-38 -837 0
-38 -838 0
-38 -839 0
-38 -840 0
-38 -841 0
-38 -842 0
-752 38 836 837 838 839 840 841 842 0
-56 754 0
-843 749 0
-843 753 0
-749 -753 843 0
-844 752 0
-844 767 0
-752 -767 844 0
-845 756 0
-845 784 0
-756 -784 845 0
-846 758 0
-846 792 0
-758 -792 846 0
-847 760 0
-847 800 0
-760 -800 847 0
-848 762 0
-848 808 0
-762 -808 848 0
-849 764 0
-849 816 0
-764 -816 849 0
-56 -843 0
-56 -844 0
-56 -845 0
-56 -846 0
-56 -847 0
-56 -848 0
-56 -849 0
-754 56 843 844 845 846 847 848 849 0
-74 756 0
-850 749 0
-850 755 0
-749 -755 850 0
-851 752 0
-851 768 0
-752 -768 851 0
-852 754 0
-852 776 0
-754 -776 852 0
-853 758 0
-853 793 0
-758 -793 853 0
-854 760 0
-854 801 0
-760 -801 854 0
-855 762 0
-855 809 0
-762 -809 855 0
-856 764 0
-856 817 0
-764 -817 856 0
-74 -850 0
-74 -851 0
-74 -852 0
-74 -853 0
-74 -854 0
-74 -855 0
-74 -856 0
-756 74 850 851 852 853 854 855 856 0
-92 758 0
-857 749 0
-857 757 0
-749 -757 857 0
-858 752 0
-858 769 0
-752 -769 858 0
-859 754 0
-859 777 0
-754 -777 859 0
-860 756 0
-860 785 0
-756 -785 860 0
-861 760 0
-861 802 0
-760 -802 861 0
-862 762 0
-862 810 0
-762 -810 862 0
-863 764 0
-863 818 0
-764 -818 863 0
-92 -857 0
-92 -858 0
-92 -859 0
-92 -860 0
-92 -861 0
-92 -862 0
-92 -863 0
-758 92 857 858 859 860 861 862 863 0
-110 760 0
-864 749 0
-864 759 0
-749 -759 864 0
-865 752 0
-865 770 0
-752 -770 865 0
-866 754 0
-866 778 0
-754 -778 866 0
-867 756 0
-867 786 0
-756 -786 867 0
-868 758 0
-868 794 0
-758 -794 868 0
-869 762 0
-869 811 0
-762 -811 869 0
-870 764 0
-870 819 0
-764 -819 870 0
-110 -864 0
-110 -865 0
-110 -866 0
-110 -867 0
-110 -868 0
-110 -869 0
-110 -870 0
-760 110 864 865 866 867 868 869 870 0
-128 762 0
-871 749 0
-871 761 0
-749 -761 871 0
-872 752 0
-872 771 0
-752 -771 872 0
-873 754 0
-873 779 0
-754 -779 873 0
-874 756 0
-874 787 0
-756 -787 874 0
-875 758 0
-875 795 0
-758 -795 875 0
-876 760 0
-876 803 0
-760 -803 876 0
-877 764 0
-877 820 0
-764 -820 877 0
-128 -871 0
-128 -872 0
-128 -873 0
-128 -874 0
-128 -875 0
-128 -876 0
-128 -877 0
-762 128 871 872 873 874 875 876 877 0
-146 764 0
-878 749 0
-878 763 0
-749 -763 878 0
-879 752 0
-879 772 0
-752 -772 879 0
-880 754 0
-880 780 0
-754 -780 880 0
-881 756 0
-881 788 0
-756 -788 881 0
-882 758 0
-882 796 0
-758 -796 882 0
-883 760 0
-883 804 0
-760 -804 883 0
-884 762 0
-884 812 0
-762 -812 884 0
-146 -878 0
-146 -879 0
-146 -880 0
-146 -881 0
-146 -882 0
-146 -883 0
-146 -884 0
-764 146 878 879 880 881 882 883 884 0
-4 750 0
-885 751 0
-885 765 0
-751 -765 885 0
-886 753 0
-886 773 0
-753 -773 886 0
-887 755 0
-887 781 0
-755 -781 887 0
-888 757 0
-888 789 0
-757 -789 888 0
-889 759 0
-889 797 0
-759 -797 889 0
-890 761 0
-890 805 0
-761 -805 890 0
-891 763 0
-891 813 0
-763 -813 891 0
-4 -885 0
-4 -886 0
-4 -887 0
-4 -888 0
-4 -889 0
-4 -890 0
-4 -891 0
-750 4 885 886 887 888 889 890 891 0
-22 0
-40 751 0
-892 750 0
-892 752 0
-750 -752 892 0
-893 753 0
-893 775 0
-753 -775 893 0
-894 755 0
-894 783 0
-755 -783 894 0
-895 757 0
-895 791 0
-757 -791 895 0
-896 759 0
-896 799 0
-759 -799 896 0
-897 761 0
-897 807 0
-761 -807 897 0
-898 763 0
-898 815 0
-763 -815 898 0
-40 -892 0
-40 -893 0
-40 -894 0
-40 -895 0
-40 -896 0
-40 -897 0
-40 -898 0
-751 40 892 893 894 895 896 897 898 0
-58 753 0
-899 750 0
-899 754 0
-750 -754 899 0
-900 751 0
-900 767 0
-751 -767 900 0
-901 755 0
-901 784 0
-755 -784 901 0
-902 757 0
-902 792 0
-757 -792 902 0
-903 759 0
-903 800 0
-759 -800 903 0
-904 761 0
-904 808 0
-761 -808 904 0
-905 763 0
-905 816 0
-763 -816 905 0
-58 -899 0
-58 -900 0
-58 -901 0
-58 -902 0
-58 -903 0
-58 -904 0
-58 -905 0
-753 58 899 900 901 902 903 904 905 0
-76 755 0
-906 750 0
-906 756 0
-750 -756 906 0
-907 751 0
-907 768 0
-751 -768 907 0
-908 753 0
-908 776 0
-753 -776 908 0
-909 757 0
-909 793 0
-757 -793 909 0
-910 759 0
-910 801 0
-759 -801 910 0
-911 761 0
-911 809 0
-761 -809 911 0
-912 763 0
-912 817 0
-763 -817 912 0
-76 -906 0
-76 -907 0
-76 -908 0
-76 -909 0
-76 -910 0
-76 -911 0
-76 -912 0
-755 76 906 907 908 909 910 911 912 0
-94 757 0
-913 750 0
-913 758 0
-750 -758 913 0
-914 751 0
-914 769 0
-751 -769 914 0
-915 753 0
-915 777 0
-753 -777 915 0
-916 755 0
-916 785 0
-755 -785 916 0
-917 759 0
-917 802 0
-759 -802 917 0
-918 761 0
-918 810 0
-761 -810 918 0
-919 763 0
-919 818 0
-763 -818 919 0
-94 -913 0
-94 -914 0
-94 -915 0
-94 -916 0
-94 -917 0
-94 -918 0
-94 -919 0
-757 94 913 914 915 916 917 918 919 0
-112 759 0
-920 750 0
-920 760 0
-750 -760 920 0
-921 751 0
-921 770 0
-751 -770 921 0
-922 753 0
-922 778 0
-753 -778 922 0
-923 755 0
-923 786 0
-755 -786 923 0
-924 757 0
-924 794 0
-757 -794 924 0
-925 761 0
-925 811 0
-761 -811 925 0
-926 763 0
-926 819 0
-763 -819 926 0
-112 -920 0
-112 -921 0
-112 -922 0
-112 -923 0
-112 -924 0
-112 -925 0
-112 -926 0
-759 112 920 921 922 923 924 925 926 0
-130 761 0
-927 750 0
-927 762 0
-750 -762 927 0
-928 751 0
-928 771 0
-751 -771 928 0
-929 753 0
-929 779 0
-753 -779 929 0
-930 755 0
-930 787 0
-755 -787 930 0
-931 757 0
-931 795 0
-757 -795 931 0
-932 759 0
-932 803 0
-759 -803 932 0
-933 763 0
-933 820 0
-763 -820 933 0
-130 -927 0
-130 -928 0
-130 -929 0
-130 -930 0
-130 -931 0
-130 -932 0
-130 -933 0
-761 130 927 928 929 930 931 932 933 0
-148 763 0
-934 750 0
-934 764 0
-750 -764 934 0
-935 751 0
-935 772 0
-751 -772 935 0
-936 753 0
-936 780 0
-753 -780 936 0
-937 755 0
-937 788 0
-755 -788 937 0
-938 757 0
-938 796 0
-757 -796 938 0
-939 759 0
-939 804 0
-759 -804 939 0
-940 761 0
-940 812 0
-761 -812 940 0
-148 -934 0
-148 -935 0
-148 -936 0
-148 -937 0
-148 -938 0
-148 -939 0
-148 -940 0
-763 148 934 935 936 937 938 939 940 0
-6 765 0
-941 766 0
-941 750 0
-766 -750 941 0
-942 767 0
-942 773 0
-767 -773 942 0
-943 768 0
-943 781 0
-768 -781 943 0
-944 769 0
-944 789 0
-769 -789 944 0
-945 770 0
-945 797 0
-770 -797 945 0
-946 771 0
-946 805 0
-771 -805 946 0
-947 772 0
-947 813 0
-772 -813 947 0
-6 -941 0
-6 -942 0
-6 -943 0
-6 -944 0
-6 -945 0
-6 -946 0
-6 -947 0
-765 6 941 942 943 944 945 946 947 0
-24 766 0
-948 765 0
-948 749 0
-765 -749 948 0
-949 767 0
-949 774 0
-767 -774 949 0
-950 768 0
-950 782 0
-768 -782 950 0
-951 769 0
-951 790 0
-769 -790 951 0
-952 770 0
-952 798 0
-770 -798 952 0
-953 771 0
-953 806 0
-771 -806 953 0
-954 772 0
-954 814 0
-772 -814 954 0
-24 -948 0
-24 -949 0
-24 -950 0
-24 -951 0
-24 -952 0
-24 -953 0
-24 -954 0
-766 24 948 949 950 951 952 953 954 0
-42 0
-60 767 0
-955 765 0
-955 754 0
-765 -754 955 0
-956 766 0
-956 753 0
-766 -753 956 0
-957 768 0
-957 784 0
-768 -784 957 0
-958 769 0
-958 792 0
-769 -792 958 0
-959 770 0
-959 800 0
-770 -800 959 0
-960 771 0
-960 808 0
-771 -808 960 0
-961 772 0
-961 816 0
-772 -816 961 0
-60 -955 0
-60 -956 0
-60 -957 0
-60 -958 0
-60 -959 0
-60 -960 0
-60 -961 0
-767 60 955 956 957 958 959 960 961 0
-78 768 0
-962 765 0
-962 756 0
-765 -756 962 0
-963 766 0
-963 755 0
-766 -755 963 0
-964 767 0
-964 776 0
-767 -776 964 0
-965 769 0
-965 793 0
-769 -793 965 0
-966 770 0
-966 801 0
-770 -801 966 0
-967 771 0
-967 809 0
-771 -809 967 0
-968 772 0
-968 817 0
-772 -817 968 0
-78 -962 0
-78 -963 0
-78 -964 0
-78 -965 0
-78 -966 0
-78 -967 0
-78 -968 0
-768 78 962 963 964 965 966 967 968 0
-96 769 0
-969 765 0
-969 758 0
-765 -758 969 0
-970 766 0
-970 757 0
-766 -757 970 0
-971 767 0
-971 777 0
-767 -777 971 0
-972 768 0
-972 785 0
-768 -785 972 0
-973 770 0
-973 802 0
-770 -802 973 0
-974 771 0
-974 810 0
-771 -810 974 0
-975 772 0
-975 818 0
-772 -818 975 0
-96 -969 0
-96 -970 0
-96 -971 0
-96 -972 0
-96 -973 0
-96 -974 0
-96 -975 0
-769 96 969 970 971 972 973 974 975 0
-114 770 0
-976 765 0
-976 760 0
-765 -760 976 0
-977 766 0
-977 759 0
-766 -759 977 0
-978 767 0
-978 778 0
-767 -778 978 0
-979 768 0
-979 786 0
-768 -786 979 0
-980 769 0
-980 794 0
-769 -794 980 0
-981 771 0
-981 811 0
-771 -811 981 0
-982 772 0
-982 819 0
-772 -819 982 0
-114 -976 0
-114 -977 0
-114 -978 0
-114 -979 0
-114 -980 0
-114 -981 0
-114 -982 0
-770 114 976 977 978 979 980 981 982 0
-132 771 0
-983 765 0
-983 762 0
-765 -762 983 0
-984 766 0
-984 761 0
-766 -761 984 0
-985 767 0
-985 779 0
-767 -779 985 0
-986 768 0
-986 787 0
-768 -787 986 0
-987 769 0
-987 795 0
-769 -795 987 0
-988 770 0
-988 803 0
-770 -803 988 0
-989 772 0
-989 820 0
-772 -820 989 0
-132 -983 0
-132 -984 0
-132 -985 0
-132 -986 0
-132 -987 0
-132 -988 0
-132 -989 0
-771 132 983 984 985 986 987 988 989 0
-150 772 0
-990 765 0
-990 764 0
-765 -764 990 0
-991 766 0
-991 763 0
-766 -763 991 0
-992 767 0
-992 780 0
-767 -780 992 0
-993 768 0
-993 788 0
-768 -788 993 0
-994 769 0
-994 796 0
-769 -796 994 0
-995 770 0
-995 804 0
-770 -804 995 0
-996 771 0
-996 812 0
-771 -812 996 0
-150 -990 0
-150 -991 0
-150 -992 0
-150 -993 0
-150 -994 0
-150 -995 0
-150 -996 0
-772 150 990 991 992 993 994 995 996 0
-8 773 0
-997 774 0
-997 750 0
-774 -750 997 0
-998 775 0
-998 765 0
-775 -765 998 0
-999 776 0
-999 781 0
-776 -781 999 0
-1000 777 0
-1000 789 0
-777 -789 1000 0
-1001 778 0
-1001 797 0
-778 -797 1001 0
-1002 779 0
-1002 805 0
-779 -805 1002 0
-1003 780 0
-1003 813 0
-780 -813 1003 0
-8 -997 0
-8 -998 0
-8 -999 0
-8 -1000 0
-8 -1001 0
-8 -1002 0
-8 -1003 0
-773 8 997 998 999 1000 1001 1002 1003 0
-26 774 0
-1004 773 0
-1004 749 0
-773 -749 1004 0
-1005 775 0
-1005 766 0
-775 -766 1005 0
-1006 776 0
-1006 782 0
-776 -782 1006 0
-1007 777 0
-1007 790 0
-777 -790 1007 0
-1008 778 0
-1008 798 0
-778 -798 1008 0
-1009 779 0
-1009 806 0
-779 -806 1009 0
-1010 780 0
-1010 814 0
-780 -814 1010 0
-26 -1004 0
-26 -1005 0
-26 -1006 0
-26 -1007 0
-26 -1008 0
-26 -1009 0
-26 -1010 0
-774 26 1004 1005 1006 1007 1008 1009 1010 0
-44 775 0
-1011 773 0
-1011 752 0
-773 -752 1011 0
-1012 774 0
-1012 751 0
-774 -751 1012 0
-1013 776 0
-1013 783 0
-776 -783 1013 0
-1014 777 0
-1014 791 0
-777 -791 1014 0
-1015 778 0
-1015 799 0
-778 -799 1015 0
-1016 779 0
-1016 807 0
-779 -807 1016 0
-1017 780 0
-1017 815 0
-780 -815 1017 0
-44 -1011 0
-44 -1012 0
-44 -1013 0
-44 -1014 0
-44 -1015 0
-44 -1016 0
-44 -1017 0
-775 44 1011 1012 1013 1014 1015 1016 1017 0
-62 0
-80 776 0
-1018 773 0
-1018 756 0
-773 -756 1018 0
-1019 774 0
-1019 755 0
-774 -755 1019 0
-1020 775 0
-1020 768 0
-775 -768 1020 0
-1021 777 0
-1021 793 0
-777 -793 1021 0
-1022 778 0
-1022 801 0
-778 -801 1022 0
-1023 779 0
-1023 809 0
-779 -809 1023 0
-1024 780 0
-1024 817 0
-780 -817 1024 0
-80 -1018 0
-80 -1019 0
-80 -1020 0
-80 -1021 0
-80 -1022 0
-80 -1023 0
-80 -1024 0
-776 80 1018 1019 1020 1021 1022 1023 1024 0
-98 777 0
-1025 773 0
-1025 758 0
-773 -758 1025 0
-1026 774 0
-1026 757 0
-774 -757 1026 0
-1027 775 0
-1027 769 0
-775 -769 1027 0
-1028 776 0
-1028 785 0
-776 -785 1028 0
-1029 778 0
-1029 802 0
-778 -802 1029 0
-1030 779 0
-1030 810 0
-779 -810 1030 0
-1031 780 0
-1031 818 0
-780 -818 1031 0
-98 -1025 0
-98 -1026 0
-98 -1027 0
-98 -1028 0
-98 -1029 0
-98 -1030 0
-98 -1031 0
-777 98 1025 1026 1027 1028 1029 1030 1031 0
-116 778 0
-1032 773 0
-1032 760 0
-773 -760 1032 0
-1033 774 0
-1033 759 0
-774 -759 1033 0
-1034 775 0
-1034 770 0
-775 -770 1034 0
-1035 776 0
-1035 786 0
-776 -786 1035 0
-1036 777 0
-1036 794 0
-777 -794 1036 0
-1037 779 0
-1037 811 0
-779 -811 1037 0
-1038 780 0
-1038 819 0
-780 -819 1038 0
-116 -1032 0
-116 -1033 0
-116 -1034 0
-116 -1035 0
-116 -1036 0
-116 -1037 0
-116 -1038 0
-778 116 1032 1033 1034 1035 1036 1037 1038 0
-134 779 0
-1039 773 0
-1039 762 0
-773 -762 1039 0
-1040 774 0
-1040 761 0
-774 -761 1040 0
-1041 775 0
-1041 771 0
-775 -771 1041 0
-1042 776 0
-1042 787 0
-776 -787 1042 0
-1043 777 0
-1043 795 0
-777 -795 1043 0
-1044 778 0
-1044 803 0
-778 -803 1044 0
-1045 780 0
-1045 820 0
-780 -820 1045 0
-134 -1039 0
-134 -1040 0
-134 -1041 0
-134 -1042 0
-134 -1043 0
-134 -1044 0
-134 -1045 0
-779 134 1039 1040 1041 1042 1043 1044 1045 0
-152 780 0
-1046 773 0
-1046 764 0
-773 -764 1046 0
-1047 774 0
-1047 763 0
-774 -763 1047 0
-1048 775 0
-1048 772 0
-775 -772 1048 0
-1049 776 0
-1049 788 0
-776 -788 1049 0
-1050 777 0
-1050 796 0
-777 -796 1050 0
-1051 778 0
-1051 804 0
-778 -804 1051 0
-1052 779 0
-1052 812 0
-779 -812 1052 0
-152 -1046 0
-152 -1047 0
-152 -1048 0
-152 -1049 0
-152 -1050 0
-152 -1051 0
-152 -1052 0
-780 152 1046 1047 1048 1049 1050 1051 1052 0
-10 781 0
-1053 782 0
-1053 750 0
-782 -750 1053 0
-1054 783 0
-1054 765 0
-783 -765 1054 0
-1055 784 0
-1055 773 0
-784 -773 1055 0
-1056 785 0
-1056 789 0
-785 -789 1056 0
-1057 786 0
-1057 797 0
-786 -797 1057 0
-1058 787 0
-1058 805 0
-787 -805 1058 0
-1059 788 0
-1059 813 0
-788 -813 1059 0
-10 -1053 0
-10 -1054 0
-10 -1055 0
-10 -1056 0
-10 -1057 0
-10 -1058 0
-10 -1059 0
-781 10 1053 1054 1055 1056 1057 1058 1059 0
-28 782 0
-1060 781 0
-1060 749 0
-781 -749 1060 0
-1061 783 0
-1061 766 0
-783 -766 1061 0
-1062 784 0
-1062 774 0
-784 -774 1062 0
-1063 785 0
-1063 790 0
-785 -790 1063 0
-1064 786 0
-1064 798 0
-786 -798 1064 0
-1065 787 0
-1065 806 0
-787 -806 1065 0
-1066 788 0
-1066 814 0
-788 -814 1066 0
-28 -1060 0
-28 -1061 0
-28 -1062 0
-28 -1063 0
-28 -1064 0
-28 -1065 0
-28 -1066 0
-782 28 1060 1061 1062 1063 1064 1065 1066 0
-46 783 0
-1067 781 0
-1067 752 0
-781 -752 1067 0
-1068 782 0
-1068 751 0
-782 -751 1068 0
-1069 784 0
-1069 775 0
-784 -775 1069 0
-1070 785 0
-1070 791 0
-785 -791 1070 0
-1071 786 0
-1071 799 0
-786 -799 1071 0
-1072 787 0
-1072 807 0
-787 -807 1072 0
-1073 788 0
-1073 815 0
-788 -815 1073 0
-46 -1067 0
-46 -1068 0
-46 -1069 0
-46 -1070 0
-46 -1071 0
-46 -1072 0
-46 -1073 0
-783 46 1067 1068 1069 1070 1071 1072 1073 0
-64 784 0
-1074 781 0
-1074 754 0
-781 -754 1074 0
-1075 782 0
-1075 753 0
-782 -753 1075 0
-1076 783 0
-1076 767 0
-783 -767 1076 0
-1077 785 0
-1077 792 0
-785 -792 1077 0
-1078 786 0
-1078 800 0
-786 -800 1078 0
-1079 787 0
-1079 808 0
-787 -808 1079 0
-1080 788 0
-1080 816 0
-788 -816 1080 0
-64 -1074 0
-64 -1075 0
-64 -1076 0
-64 -1077 0
-64 -1078 0
-64 -1079 0
-64 -1080 0
-784 64 1074 1075 1076 1077 1078 1079 1080 0
-82 0
-100 785 0
-1081 781 0
-1081 758 0
-781 -758 1081 0
-1082 782 0
-1082 757 0
-782 -757 1082 0
-1083 783 0
-1083 769 0
-783 -769 1083 0
-1084 784 0
-1084 777 0
-784 -777 1084 0
-1085 786 0
-1085 802 0
-786 -802 1085 0
-1086 787 0
-1086 810 0
-787 -810 1086 0
-1087 788 0
-1087 818 0
-788 -818 1087 0
-100 -1081 0
-100 -1082 0
-100 -1083 0
-100 -1084 0
-100 -1085 0
-100 -1086 0
-100 -1087 0
-785 100 1081 1082 1083 1084 1085 1086 1087 0
-118 786 0
-1088 781 0
-1088 760 0
-781 -760 1088 0
-1089 782 0
-1089 759 0
-782 -759 1089 0
-1090 783 0
-1090 770 0
-783 -770 1090 0
-1091 784 0
-1091 778 0
-784 -778 1091 0
-1092 785 0
-1092 794 0
-785 -794 1092 0
-1093 787 0
-1093 811 0
-787 -811 1093 0
-1094 788 0
-1094 819 0
-788 -819 1094 0
-118 -1088 0
-118 -1089 0
-118 -1090 0
-118 -1091 0
-118 -1092 0
-118 -1093 0
-118 -1094 0
-786 118 1088 1089 1090 1091 1092 1093 1094 0
-136 787 0
-1095 781 0
-1095 762 0
-781 -762 1095 0
-1096 782 0
-1096 761 0
-782 -761 1096 0
-1097 783 0
-1097 771 0
-783 -771 1097 0
-1098 784 0
-1098 779 0
-784 -779 1098 0
-1099 785 0
-1099 795 0
-785 -795 1099 0
-1100 786 0
-1100 803 0
-786 -803 1100 0
-1101 788 0
-1101 820 0
-788 -820 1101 0
-136 -1095 0
-136 -1096 0
-136 -1097 0
-136 -1098 0
-136 -1099 0
-136 -1100 0
-136 -1101 0
-787 136 1095 1096 1097 1098 1099 1100 1101 0
-154 788 0
-1102 781 0
-1102 764 0
-781 -764 1102 0
-1103 782 0
-1103 763 0
-782 -763 1103 0
-1104 783 0
-1104 772 0
-783 -772 1104 0
-1105 784 0
-1105 780 0
-784 -780 1105 0
-1106 785 0
-1106 796 0
-785 -796 1106 0
-1107 786 0
-1107 804 0
-786 -804 1107 0
-1108 787 0
-1108 812 0
-787 -812 1108 0
-154 -1102 0
-154 -1103 0
-154 -1104 0
-154 -1105 0
-154 -1106 0
-154 -1107 0
-154 -1108 0
-788 154 1102 1103 1104 1105 1106 1107 1108 0
-12 789 0
-1109 790 0
-1109 750 0
-790 -750 1109 0
-1110 791 0
-1110 765 0
-791 -765 1110 0
-1111 792 0
-1111 773 0
-792 -773 1111 0
-1112 793 0
-1112 781 0
-793 -781 1112 0
-1113 794 0
-1113 797 0
-794 -797 1113 0
-1114 795 0
-1114 805 0
-795 -805 1114 0
-1115 796 0
-1115 813 0
-796 -813 1115 0
-12 -1109 0
-12 -1110 0
-12 -1111 0
-12 -1112 0
-12 -1113 0
-12 -1114 0
-12 -1115 0
-789 12 1109 1110 1111 1112 1113 1114 1115 0
-30 790 0
-1116 789 0
-1116 749 0
-789 -749 1116 0
-1117 791 0
-1117 766 0
-791 -766 1117 0
-1118 792 0
-1118 774 0
-792 -774 1118 0
-1119 793 0
-1119 782 0
-793 -782 1119 0
-1120 794 0
-1120 798 0
-794 -798 1120 0
-1121 795 0
-1121 806 0
-795 -806 1121 0
-1122 796 0
-1122 814 0
-796 -814 1122 0
-30 -1116 0
-30 -1117 0
-30 -1118 0
-30 -1119 0
-30 -1120 0
-30 -1121 0
-30 -1122 0
-790 30 1116 1117 1118 1119 1120 1121 1122 0
-48 791 0
-1123 789 0
-1123 752 0
-789 -752 1123 0
-1124 790 0
-1124 751 0
-790 -751 1124 0
-1125 792 0
-1125 775 0
-792 -775 1125 0
-1126 793 0
-1126 783 0
-793 -783 1126 0
-1127 794 0
-1127 799 0
-794 -799 1127 0
-1128 795 0
-1128 807 0
-795 -807 1128 0
-1129 796 0
-1129 815 0
-796 -815 1129 0
-48 -1123 0
-48 -1124 0
-48 -1125 0
-48 -1126 0
-48 -1127 0
-48 -1128 0
-48 -1129 0
-791 48 1123 1124 1125 1126 1127 1128 1129 0
-66 792 0
-1130 789 0
-1130 754 0
-789 -754 1130 0
-1131 790 0
-1131 753 0
-790 -753 1131 0
-1132 791 0
-1132 767 0
-791 -767 1132 0
-1133 793 0
-1133 784 0
-793 -784 1133 0
-1134 794 0
-1134 800 0
-794 -800 1134 0
-1135 795 0
-1135 808 0
-795 -808 1135 0
-1136 796 0
-1136 816 0
-796 -816 1136 0
-66 -1130 0
-66 -1131 0
-66 -1132 0
-66 -1133 0
-66 -1134 0
-66 -1135 0
-66 -1136 0
-792 66 1130 1131 1132 1133 1134 1135 1136 0
-84 793 0
-1137 789 0
-1137 756 0
-789 -756 1137 0
-1138 790 0
-1138 755 0
-790 -755 1138 0
-1139 791 0
-1139 768 0
-791 -768 1139 0
-1140 792 0
-1140 776 0
-792 -776 1140 0
-1141 794 0
-1141 801 0
-794 -801 1141 0
-1142 795 0
-1142 809 0
-795 -809 1142 0
-1143 796 0
-1143 817 0
-796 -817 1143 0
-84 -1137 0
-84 -1138 0
-84 -1139 0
-84 -1140 0
-84 -1141 0
-84 -1142 0
-84 -1143 0
-793 84 1137 1138 1139 1140 1141 1142 1143 0
-102 0
-120 794 0
-1144 789 0
-1144 760 0
-789 -760 1144 0
-1145 790 0
-1145 759 0
-790 -759 1145 0
-1146 791 0
-1146 770 0
-791 -770 1146 0
-1147 792 0
-1147 778 0
-792 -778 1147 0
-1148 793 0
-1148 786 0
-793 -786 1148 0
-1149 795 0
-1149 811 0
-795 -811 1149 0
-1150 796 0
-1150 819 0
-796 -819 1150 0
-120 -1144 0
-120 -1145 0
-120 -1146 0
-120 -1147 0
-120 -1148 0
-120 -1149 0
-120 -1150 0
-794 120 1144 1145 1146 1147 1148 1149 1150 0
-138 795 0
-1151 789 0
-1151 762 0
-789 -762 1151 0
-1152 790 0
-1152 761 0
-790 -761 1152 0
-1153 791 0
-1153 771 0
-791 -771 1153 0
-1154 792 0
-1154 779 0
-792 -779 1154 0
-1155 793 0
-1155 787 0
-793 -787 1155 0
-1156 794 0
-1156 803 0
-794 -803 1156 0
-1157 796 0
-1157 820 0
-796 -820 1157 0
-138 -1151 0
-138 -1152 0
-138 -1153 0
-138 -1154 0
-138 -1155 0
-138 -1156 0
-138 -1157 0
-795 138 1151 1152 1153 1154 1155 1156 1157 0
-156 796 0
-1158 789 0
-1158 764 0
-789 -764 1158 0
-1159 790 0
-1159 763 0
-790 -763 1159 0
-1160 791 0
-1160 772 0
-791 -772 1160 0
-1161 792 0
-1161 780 0
-792 -780 1161 0
-1162 793 0
-1162 788 0
-793 -788 1162 0
-1163 794 0
-1163 804 0
-794 -804 1163 0
-1164 795 0
-1164 812 0
-795 -812 1164 0
-156 -1158 0
-156 -1159 0
-156 -1160 0
-156 -1161 0
-156 -1162 0
-156 -1163 0
-156 -1164 0
-796 156 1158 1159 1160 1161 1162 1163 1164 0
-14 797 0
-1165 798 0
-1165 750 0
-798 -750 1165 0
-1166 799 0
-1166 765 0
-799 -765 1166 0
-1167 800 0
-1167 773 0
-800 -773 1167 0
-1168 801 0
-1168 781 0
-801 -781 1168 0
-1169 802 0
-1169 789 0
-802 -789 1169 0
-1170 803 0
-1170 805 0
-803 -805 1170 0
-1171 804 0
-1171 813 0
-804 -813 1171 0
-14 -1165 0
-14 -1166 0
-14 -1167 0
-14 -1168 0
-14 -1169 0
-14 -1170 0
-14 -1171 0
-797 14 1165 1166 1167 1168 1169 1170 1171 0
-32 798 0
-1172 797 0
-1172 749 0
-797 -749 1172 0
-1173 799 0
-1173 766 0
-799 -766 1173 0
-1174 800 0
-1174 774 0
-800 -774 1174 0
-1175 801 0
-1175 782 0
-801 -782 1175 0
-1176 802 0
-1176 790 0
-802 -790 1176 0
-1177 803 0
-1177 806 0
-803 -806 1177 0
-1178 804 0
-1178 814 0
-804 -814 1178 0
-32 -1172 0
-32 -1173 0
-32 -1174 0
-32 -1175 0
-32 -1176 0
-32 -1177 0
-32 -1178 0
-798 32 1172 1173 1174 1175 1176 1177 1178 0
-50 799 0
-1179 797 0
-1179 752 0
-797 -752 1179 0
-1180 798 0
-1180 751 0
-798 -751 1180 0
-1181 800 0
-1181 775 0
-800 -775 1181 0
-1182 801 0
-1182 783 0
-801 -783 1182 0
-1183 802 0
-1183 791 0
-802 -791 1183 0
-1184 803 0
-1184 807 0
-803 -807 1184 0
-1185 804 0
-1185 815 0
-804 -815 1185 0
-50 -1179 0
-50 -1180 0
-50 -1181 0
-50 -1182 0
-50 -1183 0
-50 -1184 0
-50 -1185 0
-799 50 1179 1180 1181 1182 1183 1184 1185 0
-68 800 0
-1186 797 0
-1186 754 0
-797 -754 1186 0
-1187 798 0
-1187 753 0
-798 -753 1187 0
-1188 799 0
-1188 767 0
-799 -767 1188 0
-1189 801 0
-1189 784 0
-801 -784 1189 0
-1190 802 0
-1190 792 0
-802 -792 1190 0
-1191 803 0
-1191 808 0
-803 -808 1191 0
-1192 804 0
-1192 816 0
-804 -816 1192 0
-68 -1186 0
-68 -1187 0
-68 -1188 0
-68 -1189 0
-68 -1190 0
-68 -1191 0
-68 -1192 0
-800 68 1186 1187 1188 1189 1190 1191 1192 0
-86 801 0
-1193 797 0
-1193 756 0
-797 -756 1193 0
-1194 798 0
-1194 755 0
-798 -755 1194 0
-1195 799 0
-1195 768 0
-799 -768 1195 0
-1196 800 0
-1196 776 0
-800 -776 1196 0
-1197 802 0
-1197 793 0
-802 -793 1197 0
-1198 803 0
-1198 809 0
-803 -809 1198 0
-1199 804 0
-1199 817 0
-804 -817 1199 0
-86 -1193 0
-86 -1194 0
-86 -1195 0
-86 -1196 0
-86 -1197 0
-86 -1198 0
-86 -1199 0
-801 86 1193 1194 1195 1196 1197 1198 1199 0
-104 802 0
-1200 797 0
-1200 758 0
-797 -758 1200 0
-1201 798 0
-1201 757 0
-798 -757 1201 0
-1202 799 0
-1202 769 0
-799 -769 1202 0
-1203 800 0
-1203 777 0
-800 -777 1203 0
-1204 801 0
-1204 785 0
-801 -785 1204 0
-1205 803 0
-1205 810 0
-803 -810 1205 0
-1206 804 0
-1206 818 0
-804 -818 1206 0
-104 -1200 0
-104 -1201 0
-104 -1202 0
-104 -1203 0
-104 -1204 0
-104 -1205 0
-104 -1206 0
-802 104 1200 1201 1202 1203 1204 1205 1206 0
-122 0
-140 803 0
-1207 797 0
-1207 762 0
-797 -762 1207 0
-1208 798 0
-1208 761 0
-798 -761 1208 0
-1209 799 0
-1209 771 0
-799 -771 1209 0
-1210 800 0
-1210 779 0
-800 -779 1210 0
-1211 801 0
-1211 787 0
-801 -787 1211 0
-1212 802 0
-1212 795 0
-802 -795 1212 0
-1213 804 0
-1213 820 0
-804 -820 1213 0
-140 -1207 0
-140 -1208 0
-140 -1209 0
-140 -1210 0
-140 -1211 0
-140 -1212 0
-140 -1213 0
-803 140 1207 1208 1209 1210 1211 1212 1213 0
-158 804 0
-1214 797 0
-1214 764 0
-797 -764 1214 0
-1215 798 0
-1215 763 0
-798 -763 1215 0
-1216 799 0
-1216 772 0
-799 -772 1216 0
-1217 800 0
-1217 780 0
-800 -780 1217 0
-1218 801 0
-1218 788 0
-801 -788 1218 0
-1219 802 0
-1219 796 0
-802 -796 1219 0
-1220 803 0
-1220 812 0
-803 -812 1220 0
-158 -1214 0
-158 -1215 0
-158 -1216 0
-158 -1217 0
-158 -1218 0
-158 -1219 0
-158 -1220 0
-804 158 1214 1215 1216 1217 1218 1219 1220 0
-16 805 0
-1221 806 0
-1221 750 0
-806 -750 1221 0
-1222 807 0
-1222 765 0
-807 -765 1222 0
-1223 808 0
-1223 773 0
-808 -773 1223 0
-1224 809 0
-1224 781 0
-809 -781 1224 0
-1225 810 0
-1225 789 0
-810 -789 1225 0
-1226 811 0
-1226 797 0
-811 -797 1226 0
-1227 812 0
-1227 813 0
-812 -813 1227 0
-16 -1221 0
-16 -1222 0
-16 -1223 0
-16 -1224 0
-16 -1225 0
-16 -1226 0
-16 -1227 0
-805 16 1221 1222 1223 1224 1225 1226 1227 0
-34 806 0
-1228 805 0
-1228 749 0
-805 -749 1228 0
-1229 807 0
-1229 766 0
-807 -766 1229 0
-1230 808 0
-1230 774 0
-808 -774 1230 0
-1231 809 0
-1231 782 0
-809 -782 1231 0
-1232 810 0
-1232 790 0
-810 -790 1232 0
-1233 811 0
-1233 798 0
-811 -798 1233 0
-1234 812 0
-1234 814 0
-812 -814 1234 0
-34 -1228 0
-34 -1229 0
-34 -1230 0
-34 -1231 0
-34 -1232 0
-34 -1233 0
-34 -1234 0
-806 34 1228 1229 1230 1231 1232 1233 1234 0
-52 807 0
-1235 805 0
-1235 752 0
-805 -752 1235 0
-1236 806 0
-1236 751 0
-806 -751 1236 0
-1237 808 0
-1237 775 0
-808 -775 1237 0
-1238 809 0
-1238 783 0
-809 -783 1238 0
-1239 810 0
-1239 791 0
-810 -791 1239 0
-1240 811 0
-1240 799 0
-811 -799 1240 0
-1241 812 0
-1241 815 0
-812 -815 1241 0
-52 -1235 0
-52 -1236 0
-52 -1237 0
-52 -1238 0
-52 -1239 0
-52 -1240 0
-52 -1241 0
-807 52 1235 1236 1237 1238 1239 1240 1241 0
-70 808 0
-1242 805 0
-1242 754 0
-805 -754 1242 0
-1243 806 0
-1243 753 0
-806 -753 1243 0
-1244 807 0
-1244 767 0
-807 -767 1244 0
-1245 809 0
-1245 784 0
-809 -784 1245 0
-1246 810 0
-1246 792 0
-810 -792 1246 0
-1247 811 0
-1247 800 0
-811 -800 1247 0
-1248 812 0
-1248 816 0
-812 -816 1248 0
-70 -1242 0
-70 -1243 0
-70 -1244 0
-70 -1245 0
-70 -1246 0
-70 -1247 0
-70 -1248 0
-808 70 1242 1243 1244 1245 1246 1247 1248 0
-88 809 0
-1249 805 0
-1249 756 0
-805 -756 1249 0
-1250 806 0
-1250 755 0
-806 -755 1250 0
-1251 807 0
-1251 768 0
-807 -768 1251 0
-1252 808 0
-1252 776 0
-808 -776 1252 0
-1253 810 0
-1253 793 0
-810 -793 1253 0
-1254 811 0
-1254 801 0
-811 -801 1254 0
-1255 812 0
-1255 817 0
-812 -817 1255 0
-88 -1249 0
-88 -1250 0
-88 -1251 0
-88 -1252 0
-88 -1253 0
-88 -1254 0
-88 -1255 0
-809 88 1249 1250 1251 1252 1253 1254 1255 0
-106 810 0
-1256 805 0
-1256 758 0
-805 -758 1256 0
-1257 806 0
-1257 757 0
-806 -757 1257 0
-1258 807 0
-1258 769 0
-807 -769 1258 0
-1259 808 0
-1259 777 0
-808 -777 1259 0
-1260 809 0
-1260 785 0
-809 -785 1260 0
-1261 811 0
-1261 802 0
-811 -802 1261 0
-1262 812 0
-1262 818 0
-812 -818 1262 0
-106 -1256 0
-106 -1257 0
-106 -1258 0
-106 -1259 0
-106 -1260 0
-106 -1261 0
-106 -1262 0
-810 106 1256 1257 1258 1259 1260 1261 1262 0
-124 811 0
-1263 805 0
-1263 760 0
-805 -760 1263 0
-1264 806 0
-1264 759 0
-806 -759 1264 0
-1265 807 0
-1265 770 0
-807 -770 1265 0
-1266 808 0
-1266 778 0
-808 -778 1266 0
-1267 809 0
-1267 786 0
-809 -786 1267 0
-1268 810 0
-1268 794 0
-810 -794 1268 0
-1269 812 0
-1269 819 0
-812 -819 1269 0
-124 -1263 0
-124 -1264 0
-124 -1265 0
-124 -1266 0
-124 -1267 0
-124 -1268 0
-124 -1269 0
-811 124 1263 1264 1265 1266 1267 1268 1269 0
-142 0
-160 812 0
-1270 805 0
-1270 764 0
-805 -764 1270 0
-1271 806 0
-1271 763 0
-806 -763 1271 0
-1272 807 0
-1272 772 0
-807 -772 1272 0
-1273 808 0
-1273 780 0
-808 -780 1273 0
-1274 809 0
-1274 788 0
-809 -788 1274 0
-1275 810 0
-1275 796 0
-810 -796 1275 0
-1276 811 0
-1276 804 0
-811 -804 1276 0
-160 -1270 0
-160 -1271 0
-160 -1272 0
-160 -1273 0
-160 -1274 0
-160 -1275 0
-160 -1276 0
-812 160 1270 1271 1272 1273 1274 1275 1276 0
-18 813 0
-1277 814 0
-1277 750 0
-814 -750 1277 0
-1278 815 0
-1278 765 0
-815 -765 1278 0
-1279 816 0
-1279 773 0
-816 -773 1279 0
-1280 817 0
-1280 781 0
-817 -781 1280 0
-1281 818 0
-1281 789 0
-818 -789 1281 0
-1282 819 0
-1282 797 0
-819 -797 1282 0
-1283 820 0
-1283 805 0
-820 -805 1283 0
-18 -1277 0
-18 -1278 0
-18 -1279 0
-18 -1280 0
-18 -1281 0
-18 -1282 0
-18 -1283 0
-813 18 1277 1278 1279 1280 1281 1282 1283 0
-36 814 0
-1284 813 0
-1284 749 0
-813 -749 1284 0
-1285 815 0
-1285 766 0
-815 -766 1285 0
-1286 816 0
-1286 774 0
-816 -774 1286 0
-1287 817 0
-1287 782 0
-817 -782 1287 0
-1288 818 0
-1288 790 0
-818 -790 1288 0
-1289 819 0
-1289 798 0
-819 -798 1289 0
-1290 820 0
-1290 806 0
-820 -806 1290 0
-36 -1284 0
-36 -1285 0
-36 -1286 0
-36 -1287 0
-36 -1288 0
-36 -1289 0
-36 -1290 0
-814 36 1284 1285 1286 1287 1288 1289 1290 0
-54 815 0
-1291 813 0
-1291 752 0
-813 -752 1291 0
-1292 814 0
-1292 751 0
-814 -751 1292 0
-1293 816 0
-1293 775 0
-816 -775 1293 0
-1294 817 0
-1294 783 0
-817 -783 1294 0
-1295 818 0
-1295 791 0
-818 -791 1295 0
-1296 819 0
-1296 799 0
-819 -799 1296 0
-1297 820 0
-1297 807 0
-820 -807 1297 0
-54 -1291 0
-54 -1292 0
-54 -1293 0
-54 -1294 0
-54 -1295 0
-54 -1296 0
-54 -1297 0
-815 54 1291 1292 1293 1294 1295 1296 1297 0
-72 816 0
-1298 813 0
-1298 754 0
-813 -754 1298 0
-1299 814 0
-1299 753 0
-814 -753 1299 0
-1300 815 0
-1300 767 0
-815 -767 1300 0
-1301 817 0
-1301 784 0
-817 -784 1301 0
-1302 818 0
-1302 792 0
-818 -792 1302 0
-1303 819 0
-1303 800 0
-819 -800 1303 0
-1304 820 0
-1304 808 0
-820 -808 1304 0
-72 -1298 0
-72 -1299 0
-72 -1300 0
-72 -1301 0
-72 -1302 0
-72 -1303 0
-72 -1304 0
-816 72 1298 1299 1300 1301 1302 1303 1304 0
-90 817 0
-1305 813 0
-1305 756 0
-813 -756 1305 0
-1306 814 0
-1306 755 0
-814 -755 1306 0
-1307 815 0
-1307 768 0
-815 -768 1307 0
-1308 816 0
-1308 776 0
-816 -776 1308 0
-1309 818 0
-1309 793 0
-818 -793 1309 0
-1310 819 0
-1310 801 0
-819 -801 1310 0
-1311 820 0
-1311 809 0
-820 -809 1311 0
-90 -1305 0
-90 -1306 0
-90 -1307 0
-90 -1308 0
-90 -1309 0
-90 -1310 0
-90 -1311 0
-817 90 1305 1306 1307 1308 1309 1310 1311 0
-108 818 0
-1312 813 0
-1312 758 0
-813 -758 1312 0
-1313 814 0
-1313 757 0
-814 -757 1313 0
-1314 815 0
-1314 769 0
-815 -769 1314 0
-1315 816 0
-1315 777 0
-816 -777 1315 0
-1316 817 0
-1316 785 0
-817 -785 1316 0
-1317 819 0
-1317 802 0
-819 -802 1317 0
-1318 820 0
-1318 810 0
-820 -810 1318 0
-108 -1312 0
-108 -1313 0
-108 -1314 0
-108 -1315 0
-108 -1316 0
-108 -1317 0
-108 -1318 0
-818 108 1312 1313 1314 1315 1316 1317 1318 0
-126 819 0
-1319 813 0
-1319 760 0
-813 -760 1319 0
-1320 814 0
-1320 759 0
-814 -759 1320 0
-1321 815 0
-1321 770 0
-815 -770 1321 0
-1322 816 0
-1322 778 0
-816 -778 1322 0
-1323 817 0
-1323 786 0
-817 -786 1323 0
-1324 818 0
-1324 794 0
-818 -794 1324 0
-1325 820 0
-1325 811 0
-820 -811 1325 0
-126 -1319 0
-126 -1320 0
-126 -1321 0
-126 -1322 0
-126 -1323 0
-126 -1324 0
-126 -1325 0
-819 126 1319 1320 1321 1322 1323 1324 1325 0
-144 820 0
-1326 813 0
-1326 762 0
-813 -762 1326 0
-1327 814 0
-1327 761 0
-814 -761 1327 0
-1328 815 0
-1328 771 0
-815 -771 1328 0
-1329 816 0
-1329 779 0
-816 -779 1329 0
-1330 817 0
-1330 787 0
-817 -787 1330 0
-1331 818 0
-1331 795 0
-818 -795 1331 0
-1332 819 0
-1332 803 0
-819 -803 1332 0
-144 -1326 0
-144 -1327 0
-144 -1328 0
-144 -1329 0
-144 -1330 0
-144 -1331 0
-144 -1332 0
-820 144 1326 1327 1328 1329 1330 1331 1332 0
-162 0
