p cnf 384 1536
-1 -2 0
-3 -4 0
-5 -6 0
-7 -8 0
-9 -10 0
-11 -12 0
-13 -14 0
-15 -16 0
-17 -18 0
-19 -20 0
-21 -22 0
-23 -24 0
-25 -26 0
-27 -28 0
-29 -30 0
-31 -32 0
-33 -34 0
-35 -36 0
-37 -38 0
-39 -40 0
-41 -42 0
-43 -44 0
-45 -46 0
-47 -48 0
-49 -50 0
-51 -52 0
-53 -54 0
-55 -56 0
-57 -58 0
-59 -60 0
-61 -62 0
-63 -64 0
-65 -66 0
-67 -68 0
-69 -70 0
-71 -72 0
-1 -2 0
-13 -4 0
-25 -6 0
-37 -8 0
-49 -10 0
-61 -12 0
-3 -14 0
-15 -16 0
-27 -18 0
-39 -20 0
-51 -22 0
-63 -24 0
-5 -26 0
-17 -28 0
-29 -30 0
-41 -32 0
-53 -34 0
-65 -36 0
-7 -38 0
-19 -40 0
-31 -42 0
-43 -44 0
-55 -46 0
-67 -48 0
-9 -50 0
-21 -52 0
-33 -54 0
-45 -56 0
-57 -58 0
-69 -60 0
-11 -62 0
-23 -64 0
-35 -66 0
-47 -68 0
-59 -70 0
-71 -72 0
73 0
74 75 0
-74 -75 0
-74 -76 77 0
-74 -78 79 0
-74 -80 81 0
-74 -82 83 0
77 84 0
-77 -84 0
-77 -85 74 0
-77 -86 79 0
-77 -87 81 0
-77 -88 83 0
79 89 0
-79 -89 0
-79 -90 74 0
-79 -91 77 0
-79 -92 81 0
-79 -93 83 0
81 94 0
-81 -94 0
-81 -95 74 0
-81 -96 77 0
-81 -97 79 0
-81 -98 83 0
83 99 0
-83 -99 0
-83 -100 74 0
-83 -101 77 0
-83 -102 79 0
-83 -103 81 0
104 0
75 74 0
-75 -74 0
-75 -77 76 0
-75 -79 78 0
-75 -81 80 0
-75 -83 82 0
76 85 0
-76 -85 0
-76 -84 75 0
-76 -86 78 0
-76 -87 80 0
-76 -88 82 0
78 90 0
-78 -90 0
-78 -89 75 0
-78 -91 76 0
-78 -92 80 0
-78 -93 82 0
80 95 0
-80 -95 0
-80 -94 75 0
-80 -96 76 0
-80 -97 78 0
-80 -98 82 0
82 100 0
-82 -100 0
-82 -99 75 0
-82 -101 76 0
-82 -102 78 0
-82 -103 80 0
105 0
84 77 0
-84 -77 0
-84 -74 85 0
-84 -79 86 0
-84 -81 87 0
-84 -83 88 0
85 76 0
-85 -76 0
-85 -75 84 0
-85 -78 86 0
-85 -80 87 0
-85 -82 88 0
86 91 0
-86 -91 0
-86 -89 84 0
-86 -90 85 0
-86 -92 87 0
-86 -93 88 0
87 96 0
-87 -96 0
-87 -94 84 0
-87 -95 85 0
-87 -97 86 0
-87 -98 88 0
88 101 0
-88 -101 0
-88 -99 84 0
-88 -100 85 0
-88 -102 86 0
-88 -103 87 0
106 0
89 79 0
-89 -79 0
-89 -74 90 0
-89 -77 91 0
-89 -81 92 0
-89 -83 93 0
90 78 0
-90 -78 0
-90 -75 89 0
-90 -76 91 0
-90 -80 92 0
-90 -82 93 0
91 86 0
-91 -86 0
-91 -84 89 0
-91 -85 90 0
-91 -87 92 0
-91 -88 93 0
92 97 0
-92 -97 0
-92 -94 89 0
-92 -95 90 0
-92 -96 91 0
-92 -98 93 0
93 102 0
-93 -102 0
-93 -99 89 0
-93 -100 90 0
-93 -101 91 0
-93 -103 92 0
107 0
94 81 0
-94 -81 0
-94 -74 95 0
-94 -77 96 0
-94 -79 97 0
-94 -83 98 0
95 80 0
-95 -80 0
-95 -75 94 0
-95 -76 96 0
-95 -78 97 0
-95 -82 98 0
96 87 0
-96 -87 0
-96 -84 94 0
-96 -85 95 0
-96 -86 97 0
-96 -88 98 0
97 92 0
-97 -92 0
-97 -89 94 0
-97 -90 95 0
-97 -91 96 0
-97 -93 98 0
98 103 0
-98 -103 0
-98 -99 94 0
-98 -100 95 0
-98 -101 96 0
-98 -102 97 0
108 0
99 83 0
-99 -83 0
-99 -74 100 0
-99 -77 101 0
-99 -79 102 0
-99 -81 103 0
100 82 0
-100 -82 0
-100 -75 99 0
-100 -76 101 0
-100 -78 102 0
-100 -80 103 0
101 88 0
-101 -88 0
-101 -84 99 0
-101 -85 100 0
-101 -86 102 0
-101 -87 103 0
102 93 0
-102 -93 0
-102 -89 99 0
-102 -90 100 0
-102 -91 101 0
-102 -92 103 0
103 98 0
-103 -98 0
-103 -94 99 0
-103 -95 100 0
-103 -96 101 0
-103 -97 102 0
-1 0
-13 74 0
-109 77 0
-109 85 0
-77 -85 109 0
-110 79 0
-110 90 0
-79 -90 110 0
-111 81 0
-111 95 0
-81 -95 111 0
-112 83 0
-112 100 0
-83 -100 112 0
-13 -109 0
-13 -110 0
-13 -111 0
-13 -112 0
-74 13 109 110 111 112 0
-25 77 0
-113 74 0
-113 76 0
-74 -76 113 0
-114 79 0
-114 91 0
-79 -91 114 0
-115 81 0
-115 96 0
-81 -96 115 0
-116 83 0
-116 101 0
-83 -101 116 0
-25 -113 0
-25 -114 0
-25 -115 0
-25 -116 0
-77 25 113 114 115 116 0
-37 79 0
-117 74 0
-117 78 0
-74 -78 117 0
-118 77 0
-118 86 0
-77 -86 118 0
-119 81 0
-119 97 0
-81 -97 119 0
-120 83 0
-120 102 0
-83 -102 120 0
-37 -117 0
-37 -118 0
-37 -119 0
-37 -120 0
-79 37 117 118 119 120 0
-49 81 0
-121 74 0
-121 80 0
-74 -80 121 0
-122 77 0
-122 87 0
-77 -87 122 0
-123 79 0
-123 92 0
-79 -92 123 0
-124 83 0
-124 103 0
-83 -103 124 0
-49 -121 0
-49 -122 0
-49 -123 0
-49 -124 0
-81 49 121 122 123 124 0
-61 83 0
-125 74 0
-125 82 0
-74 -82 125 0
-126 77 0
-126 88 0
-77 -88 126 0
-127 79 0
-127 93 0
-79 -93 127 0
-128 81 0
-128 98 0
-81 -98 128 0
-61 -125 0
-61 -126 0
-61 -127 0
-61 -128 0
-83 61 125 126 127 128 0
-3 75 0
-129 76 0
-129 84 0
-76 -84 129 0
-130 78 0
-130 89 0
-78 -89 130 0
-131 80 0
-131 94 0
-80 -94 131 0
-132 82 0
-132 99 0
-82 -99 132 0
-3 -129 0
-3 -130 0
-3 -131 0
-3 -132 0
-75 3 129 130 131 132 0
-15 0
-27 76 0
-133 75 0
-133 77 0
-75 -77 133 0
-134 78 0
-134 91 0
-78 -91 134 0
-135 80 0
-135 96 0
-80 -96 135 0
-136 82 0
-136 101 0
-82 -101 136 0
-27 -133 0
-27 -134 0
-27 -135 0
-27 -136 0
-76 27 133 134 135 136 0
-39 78 0
-137 75 0
-137 79 0
-75 -79 137 0
-138 76 0
-138 86 0
-76 -86 138 0
-139 80 0
-139 97 0
-80 -97 139 0
-140 82 0
-140 102 0
-82 -102 140 0
-39 -137 0
-39 -138 0
-39 -139 0
-39 -140 0
-78 39 137 138 139 140 0
-51 80 0
-141 75 0
-141 81 0
-75 -81 141 0
-142 76 0
-142 87 0
-76 -87 142 0
-143 78 0
-143 92 0
-78 -92 143 0
-144 82 0
-144 103 0
-82 -103 144 0
-51 -141 0
-51 -142 0
-51 -143 0
-51 -144 0
-80 51 141 142 143 144 0
-63 82 0
-145 75 0
-145 83 0
-75 -83 145 0
-146 76 0
-146 88 0
-76 -88 146 0
-147 78 0
-147 93 0
-78 -93 147 0
-148 80 0
-148 98 0
-80 -98 148 0
-63 -145 0
-63 -146 0
-63 -147 0
-63 -148 0
-82 63 145 146 147 148 0
-5 84 0
-149 85 0
-149 75 0
-85 -75 149 0
-150 86 0
-150 89 0
-86 -89 150 0
-151 87 0
-151 94 0
-87 -94 151 0
-152 88 0
-152 99 0
-88 -99 152 0
-5 -149 0
-5 -150 0
-5 -151 0
-5 -152 0
-84 5 149 150 151 152 0
-17 85 0
-153 84 0
-153 74 0
-84 -74 153 0
-154 86 0
-154 90 0
-86 -90 154 0
-155 87 0
-155 95 0
-87 -95 155 0
-156 88 0
-156 100 0
-88 -100 156 0
-17 -153 0
-17 -154 0
-17 -155 0
-17 -156 0
-85 17 153 154 155 156 0
-29 0
-41 86 0
-157 84 0
-157 79 0
-84 -79 157 0
-158 85 0
-158 78 0
-85 -78 158 0
-159 87 0
-159 97 0
-87 -97 159 0
-160 88 0
-160 102 0
-88 -102 160 0
-41 -157 0
-41 -158 0
-41 -159 0
-41 -160 0
-86 41 157 158 159 160 0
-53 87 0
-161 84 0
-161 81 0
-84 -81 161 0
-162 85 0
-162 80 0
-85 -80 162 0
-163 86 0
-163 92 0
-86 -92 163 0
-164 88 0
-164 103 0
-88 -103 164 0
-53 -161 0
-53 -162 0
-53 -163 0
-53 -164 0
-87 53 161 162 163 164 0
-65 88 0
-165 84 0
-165 83 0
-84 -83 165 0
-166 85 0
-166 82 0
-85 -82 166 0
-167 86 0
-167 93 0
-86 -93 167 0
-168 87 0
-168 98 0
-87 -98 168 0
-65 -165 0
-65 -166 0
-65 -167 0
-65 -168 0
-88 65 165 166 167 168 0
-7 89 0
-169 90 0
-169 75 0
-90 -75 169 0
-170 91 0
-170 84 0
-91 -84 170 0
-171 92 0
-171 94 0
-92 -94 171 0
-172 93 0
-172 99 0
-93 -99 172 0
-7 -169 0
-7 -170 0
-7 -171 0
-7 -172 0
-89 7 169 170 171 172 0
-19 90 0
-173 89 0
-173 74 0
-89 -74 173 0
-174 91 0
-174 85 0
-91 -85 174 0
-175 92 0
-175 95 0
-92 -95 175 0
-176 93 0
-176 100 0
-93 -100 176 0
-19 -173 0
-19 -174 0
-19 -175 0
-19 -176 0
-90 19 173 174 175 176 0
-31 91 0
-177 89 0
-177 77 0
-89 -77 177 0
-178 90 0
-178 76 0
-90 -76 178 0
-179 92 0
-179 96 0
-92 -96 179 0
-180 93 0
-180 101 0
-93 -101 180 0
-31 -177 0
-31 -178 0
-31 -179 0
-31 -180 0
-91 31 177 178 179 180 0
-43 0
-55 92 0
-181 89 0
-181 81 0
-89 -81 181 0
-182 90 0
-182 80 0
-90 -80 182 0
-183 91 0
-183 87 0
-91 -87 183 0
-184 93 0
-184 103 0
-93 -103 184 0
-55 -181 0
-55 -182 0
-55 -183 0
-55 -184 0
-92 55 181 182 183 184 0
-67 93 0
-185 89 0
-185 83 0
-89 -83 185 0
-186 90 0
-186 82 0
-90 -82 186 0
-187 91 0
-187 88 0
-91 -88 187 0
-188 92 0
-188 98 0
-92 -98 188 0
-67 -185 0
-67 -186 0
-67 -187 0
-67 -188 0
-93 67 185 186 187 188 0
-9 94 0
-189 95 0
-189 75 0
-95 -75 189 0
-190 96 0
-190 84 0
-96 -84 190 0
-191 97 0
-191 89 0
-97 -89 191 0
-192 98 0
-192 99 0
-98 -99 192 0
-9 -189 0
-9 -190 0
-9 -191 0
-9 -192 0
-94 9 189 190 191 192 0
-21 95 0
-193 94 0
-193 74 0
-94 -74 193 0
-194 96 0
-194 85 0
-96 -85 194 0
-195 97 0
-195 90 0
-97 -90 195 0
-196 98 0
-196 100 0
-98 -100 196 0
-21 -193 0
-21 -194 0
-21 -195 0
-21 -196 0
-95 21 193 194 195 196 0
-33 96 0
-197 94 0
-197 77 0
-94 -77 197 0
-198 95 0
-198 76 0
-95 -76 198 0
-199 97 0
-199 91 0
-97 -91 199 0
-200 98 0
-200 101 0
-98 -101 200 0
-33 -197 0
-33 -198 0
-33 -199 0
-33 -200 0
-96 33 197 198 199 200 0
-45 97 0
-201 94 0
-201 79 0
-94 -79 201 0
-202 95 0
-202 78 0
-95 -78 202 0
-203 96 0
-203 86 0
-96 -86 203 0
-204 98 0
-204 102 0
-98 -102 204 0
-45 -201 0
-45 -202 0
-45 -203 0
-45 -204 0
-97 45 201 202 203 204 0
-57 0
-69 98 0
-205 94 0
-205 83 0
-94 -83 205 0
-206 95 0
-206 82 0
-95 -82 206 0
-207 96 0
-207 88 0
-96 -88 207 0
-208 97 0
-208 93 0
-97 -93 208 0
-69 -205 0
-69 -206 0
-69 -207 0
-69 -208 0
-98 69 205 206 207 208 0
-11 99 0
-209 100 0
-209 75 0
-100 -75 209 0
-210 101 0
-210 84 0
-101 -84 210 0
-211 102 0
-211 89 0
-102 -89 211 0
-212 103 0
-212 94 0
-103 -94 212 0
-11 -209 0
-11 -210 0
-11 -211 0
-11 -212 0
-99 11 209 210 211 212 0
-23 100 0
-213 99 0
-213 74 0
-99 -74 213 0
-214 101 0
-214 85 0
-101 -85 214 0
-215 102 0
-215 90 0
-102 -90 215 0
-216 103 0
-216 95 0
-103 -95 216 0
-23 -213 0
-23 -214 0
-23 -215 0
-23 -216 0
-100 23 213 214 215 216 0
-35 101 0
-217 99 0
-217 77 0
-99 -77 217 0
-218 100 0
-218 76 0
-100 -76 218 0
-219 102 0
-219 91 0
-102 -91 219 0
-220 103 0
-220 96 0
-103 -96 220 0
-35 -217 0
-35 -218 0
-35 -219 0
-35 -220 0
-101 35 217 218 219 220 0
-47 102 0
-221 99 0
-221 79 0
-99 -79 221 0
-222 100 0
-222 78 0
-100 -78 222 0
-223 101 0
-223 86 0
-101 -86 223 0
-224 103 0
-224 97 0
-103 -97 224 0
-47 -221 0
-47 -222 0
-47 -223 0
-47 -224 0
-102 47 221 222 223 224 0
-59 103 0
-225 99 0
-225 81 0
-99 -81 225 0
-226 100 0
-226 80 0
-100 -80 226 0
-227 101 0
-227 87 0
-101 -87 227 0
-228 102 0
-228 92 0
-102 -92 228 0
-59 -225 0
-59 -226 0
-59 -227 0
-59 -228 0
-103 59 225 226 227 228 0
-71 0
229 0
230 231 0
-230 -231 0
-230 -232 233 0
-230 -234 235 0
-230 -236 237 0
-230 -238 239 0
233 240 0
-233 -240 0
-233 -241 230 0
-233 -242 235 0
-233 -243 237 0
-233 -244 239 0
235 245 0
-235 -245 0
-235 -246 230 0
-235 -247 233 0
-235 -248 237 0
-235 -249 239 0
237 250 0
-237 -250 0
-237 -251 230 0
-237 -252 233 0
-237 -253 235 0
-237 -254 239 0
239 255 0
-239 -255 0
-239 -256 230 0
-239 -257 233 0
-239 -258 235 0
-239 -259 237 0
260 0
231 230 0
-231 -230 0
-231 -233 232 0
-231 -235 234 0
-231 -237 236 0
-231 -239 238 0
232 241 0
-232 -241 0
-232 -240 231 0
-232 -242 234 0
-232 -243 236 0
-232 -244 238 0
234 246 0
-234 -246 0
-234 -245 231 0
-234 -247 232 0
-234 -248 236 0
-234 -249 238 0
236 251 0
-236 -251 0
-236 -250 231 0
-236 -252 232 0
-236 -253 234 0
-236 -254 238 0
238 256 0
-238 -256 0
-238 -255 231 0
-238 -257 232 0
-238 -258 234 0
-238 -259 236 0
261 0
240 233 0
-240 -233 0
-240 -230 241 0
-240 -235 242 0
-240 -237 243 0
-240 -239 244 0
241 232 0
-241 -232 0
-241 -231 240 0
-241 -234 242 0
-241 -236 243 0
-241 -238 244 0
242 247 0
-242 -247 0
-242 -245 240 0
-242 -246 241 0
-242 -248 243 0
-242 -249 244 0
243 252 0
-243 -252 0
-243 -250 240 0
-243 -251 241 0
-243 -253 242 0
-243 -254 244 0
244 257 0
-244 -257 0
-244 -255 240 0
-244 -256 241 0
-244 -258 242 0
-244 -259 243 0
262 0
245 235 0
-245 -235 0
-245 -230 246 0
-245 -233 247 0
-245 -237 248 0
-245 -239 249 0
246 234 0
-246 -234 0
-246 -231 245 0
-246 -232 247 0
-246 -236 248 0
-246 -238 249 0
247 242 0
-247 -242 0
-247 -240 245 0
-247 -241 246 0
-247 -243 248 0
-247 -244 249 0
248 253 0
-248 -253 0
-248 -250 245 0
-248 -251 246 0
-248 -252 247 0
-248 -254 249 0
249 258 0
-249 -258 0
-249 -255 245 0
-249 -256 246 0
-249 -257 247 0
-249 -259 248 0
263 0
250 237 0
-250 -237 0
-250 -230 251 0
-250 -233 252 0
-250 -235 253 0
-250 -239 254 0
251 236 0
-251 -236 0
-251 -231 250 0
-251 -232 252 0
-251 -234 253 0
-251 -238 254 0
252 243 0
-252 -243 0
-252 -240 250 0
-252 -241 251 0
-252 -242 253 0
-252 -244 254 0
253 248 0
-253 -248 0
-253 -245 250 0
-253 -246 251 0
-253 -247 252 0
-253 -249 254 0
254 259 0
-254 -259 0
-254 -255 250 0
-254 -256 251 0
-254 -257 252 0
-254 -258 253 0
264 0
255 239 0
-255 -239 0
-255 -230 256 0
-255 -233 257 0
-255 -235 258 0
-255 -237 259 0
256 238 0
-256 -238 0
-256 -231 255 0
-256 -232 257 0
-256 -234 258 0
-256 -236 259 0
257 244 0
-257 -244 0
-257 -240 255 0
-257 -241 256 0
-257 -242 258 0
-257 -243 259 0
258 249 0
-258 -249 0
-258 -245 255 0
-258 -246 256 0
-258 -247 257 0
-258 -248 259 0
259 254 0
-259 -254 0
-259 -250 255 0
-259 -251 256 0
-259 -252 257 0
-259 -253 258 0
-2 0
-14 230 0
-265 233 0
-265 241 0
-233 -241 265 0
-266 235 0
-266 246 0
-235 -246 266 0
-267 237 0
-267 251 0
-237 -251 267 0
-268 239 0
-268 256 0
-239 -256 268 0
-14 -265 0
-14 -266 0
-14 -267 0
-14 -268 0
-230 14 265 266 267 268 0
-26 233 0
-269 230 0
-269 232 0
-230 -232 269 0
-270 235 0
-270 247 0
-235 -247 270 0
-271 237 0
-271 252 0
-237 -252 271 0
-272 239 0
-272 257 0
-239 -257 272 0
-26 -269 0
-26 -270 0
-26 -271 0
-26 -272 0
-233 26 269 270 271 272 0
-38 235 0
-273 230 0
-273 234 0
-230 -234 273 0
-274 233 0
-274 242 0
-233 -242 274 0
-275 237 0
-275 253 0
-237 -253 275 0
-276 239 0
-276 258 0
-239 -258 276 0
-38 -273 0
-38 -274 0
-38 -275 0
-38 -276 0
-235 38 273 274 275 276 0
-50 237 0
-277 230 0
-277 236 0
-230 -236 277 0
-278 233 0
-278 243 0
-233 -243 278 0
-279 235 0
-279 248 0
-235 -248 279 0
-280 239 0
-280 259 0
-239 -259 280 0
-50 -277 0
-50 -278 0
-50 -279 0
-50 -280 0
-237 50 277 278 279 280 0
-62 239 0
-281 230 0
-281 238 0
-230 -238 281 0
-282 233 0
-282 244 0
-233 -244 282 0
-283 235 0
-283 249 0
-235 -249 283 0
-284 237 0
-284 254 0
-237 -254 284 0
-62 -281 0
-62 -282 0
-62 -283 0
-62 -284 0
-239 62 281 282 283 284 0
-4 231 0
-285 232 0
-285 240 0
-232 -240 285 0
-286 234 0
-286 245 0
-234 -245 286 0
-287 236 0
-287 250 0
-236 -250 287 0
-288 238 0
-288 255 0
-238 -255 288 0
-4 -285 0
-4 -286 0
-4 -287 0
-4 -288 0
-231 4 285 286 287 288 0
-16 0
-28 232 0
-289 231 0
-289 233 0
-231 -233 289 0
-290 234 0
-290 247 0
-234 -247 290 0
-291 236 0
-291 252 0
-236 -252 291 0
-292 238 0
-292 257 0
-238 -257 292 0
-28 -289 0
-28 -290 0
-28 -291 0
-28 -292 0
-232 28 289 290 291 292 0
-40 234 0
-293 231 0
-293 235 0
-231 -235 293 0
-294 232 0
-294 242 0
-232 -242 294 0
-295 236 0
-295 253 0
-236 -253 295 0
-296 238 0
-296 258 0
-238 -258 296 0
-40 -293 0
-40 -294 0
-40 -295 0
-40 -296 0
-234 40 293 294 295 296 0
-52 236 0
-297 231 0
-297 237 0
-231 -237 297 0
-298 232 0
-298 243 0
-232 -243 298 0
-299 234 0
-299 248 0
-234 -248 299 0
-300 238 0
-300 259 0
-238 -259 300 0
-52 -297 0
-52 -298 0
-52 -299 0
-52 -300 0
-236 52 297 298 299 300 0
-64 238 0
-301 231 0
-301 239 0
-231 -239 301 0
-302 232 0
-302 244 0
-232 -244 302 0
-303 234 0
-303 249 0
-234 -249 303 0
-304 236 0
-304 254 0
-236 -254 304 0
-64 -301 0
-64 -302 0
-64 -303 0
-64 -304 0
-238 64 301 302 303 304 0
-6 240 0
-305 241 0
-305 231 0
-241 -231 305 0
-306 242 0
-306 245 0
-242 -245 306 0
-307 243 0
-307 250 0
-243 -250 307 0
-308 244 0
-308 255 0
-244 -255 308 0
-6 -305 0
-6 -306 0
-6 -307 0
-6 -308 0
-240 6 305 306 307 308 0
-18 241 0
-309 240 0
-309 230 0
-240 -230 309 0
-310 242 0
-310 246 0
-242 -246 310 0
-311 243 0
-311 251 0
-243 -251 311 0
-312 244 0
-312 256 0
-244 -256 312 0
-18 -309 0
-18 -310 0
-18 -311 0
-18 -312 0
-241 18 309 310 311 312 0
-30 0
-42 242 0
-313 240 0
-313 235 0
-240 -235 313 0
-314 241 0
-314 234 0
-241 -234 314 0
-315 243 0
-315 253 0
-243 -253 315 0
-316 244 0
-316 258 0
-244 -258 316 0
-42 -313 0
-42 -314 0
-42 -315 0
-42 -316 0
-242 42 313 314 315 316 0
-54 243 0
-317 240 0
-317 237 0
-240 -237 317 0
-318 241 0
-318 236 0
-241 -236 318 0
-319 242 0
-319 248 0
-242 -248 319 0
-320 244 0
-320 259 0
-244 -259 320 0
-54 -317 0
-54 -318 0
-54 -319 0
-54 -320 0
-243 54 317 318 319 320 0
-66 244 0
-321 240 0
-321 239 0
-240 -239 321 0
-322 241 0
-322 238 0
-241 -238 322 0
-323 242 0
-323 249 0
-242 -249 323 0
-324 243 0
-324 254 0
-243 -254 324 0
-66 -321 0
-66 -322 0
-66 -323 0
-66 -324 0
-244 66 321 322 323 324 0
-8 245 0
-325 246 0
-325 231 0
-246 -231 325 0
-326 247 0
-326 240 0
-247 -240 326 0
-327 248 0
-327 250 0
-248 -250 327 0
-328 249 0
-328 255 0
-249 -255 328 0
-8 -325 0
-8 -326 0
-8 -327 0
-8 -328 0
-245 8 325 326 327 328 0
-20 246 0
-329 245 0
-329 230 0
-245 -230 329 0
-330 247 0
-330 241 0
-247 -241 330 0
-331 248 0
-331 251 0
-248 -251 331 0
-332 249 0
-332 256 0
-249 -256 332 0
-20 -329 0
-20 -330 0
-20 -331 0
-20 -332 0
-246 20 329 330 331 332 0
-32 247 0
-333 245 0
-333 233 0
-245 -233 333 0
-334 246 0
-334 232 0
-246 -232 334 0
-335 248 0
-335 252 0
-248 -252 335 0
-336 249 0
-336 257 0
-249 -257 336 0
-32 -333 0
-32 -334 0
-32 -335 0
-32 -336 0
-247 32 333 334 335 336 0
-44 0
-56 248 0
-337 245 0
-337 237 0
-245 -237 337 0
-338 246 0
-338 236 0
-246 -236 338 0
-339 247 0
-339 243 0
-247 -243 339 0
-340 249 0
-340 259 0
-249 -259 340 0
-56 -337 0
-56 -338 0
-56 -339 0
-56 -340 0
-248 56 337 338 339 340 0
-68 249 0
-341 245 0
-341 239 0
-245 -239 341 0
-342 246 0
-342 238 0
-246 -238 342 0
-343 247 0
-343 244 0
-247 -244 343 0
-344 248 0
-344 254 0
-248 -254 344 0
-68 -341 0
-68 -342 0
-68 -343 0
-68 -344 0
-249 68 341 342 343 344 0
-10 250 0
-345 251 0
-345 231 0
-251 -231 345 0
-346 252 0
-346 240 0
-252 -240 346 0
-347 253 0
-347 245 0
-253 -245 347 0
-348 254 0
-348 255 0
-254 -255 348 0
-10 -345 0
-10 -346 0
-10 -347 0
-10 -348 0
-250 10 345 346 347 348 0
-22 251 0
-349 250 0
-349 230 0
-250 -230 349 0
-350 252 0
-350 241 0
-252 -241 350 0
-351 253 0
-351 246 0
-253 -246 351 0
-352 254 0
-352 256 0
-254 -256 352 0
-22 -349 0
-22 -350 0
-22 -351 0
-22 -352 0
-251 22 349 350 351 352 0
-34 252 0
-353 250 0
-353 233 0
-250 -233 353 0
-354 251 0
-354 232 0
-251 -232 354 0
-355 253 0
-355 247 0
-253 -247 355 0
-356 254 0
-356 257 0
-254 -257 356 0
-34 -353 0
-34 -354 0
-34 -355 0
-34 -356 0
-252 34 353 354 355 356 0
-46 253 0
-357 250 0
-357 235 0
-250 -235 357 0
-358 251 0
-358 234 0
-251 -234 358 0
-359 252 0
-359 242 0
-252 -242 359 0
-360 254 0
-360 258 0
-254 -258 360 0
-46 -357 0
-46 -358 0
-46 -359 0
-46 -360 0
-253 46 357 358 359 360 0
-58 0
-70 254 0
-361 250 0
-361 239 0
-250 -239 361 0
-362 251 0
-362 238 0
-251 -238 362 0
-363 252 0
-363 244 0
-252 -244 363 0
-364 253 0
-364 249 0
-253 -249 364 0
-70 -361 0
-70 -362 0
-70 -363 0
-70 -364 0
-254 70 361 362 363 364 0
-12 255 0
-365 256 0
-365 231 0
-256 -231 365 0
-366 257 0
-366 240 0
-257 -240 366 0
-367 258 0
-367 245 0
-258 -245 367 0
-368 259 0
-368 250 0
-259 -250 368 0
-12 -365 0
-12 -366 0
-12 -367 0
-12 -368 0
-255 12 365 366 367 368 0
-24 256 0
-369 255 0
-369 230 0
-255 -230 369 0
-370 257 0
-370 241 0
-257 -241 370 0
-371 258 0
-371 246 0
-258 -246 371 0
-372 259 0
-372 251 0
-259 -251 372 0
-24 -369 0
-24 -370 0
-24 -371 0
-24 -372 0
-256 24 369 370 371 372 0
-36 257 0
-373 255 0
-373 233 0
-255 -233 373 0
-374 256 0
-374 232 0
-256 -232 374 0
-375 258 0
-375 247 0
-258 -247 375 0
-376 259 0
-376 252 0
-259 -252 376 0
-36 -373 0
-36 -374 0
-36 -375 0
-36 -376 0
-257 36 373 374 375 376 0
-48 258 0
-377 255 0
-377 235 0
-255 -235 377 0
-378 256 0
-378 234 0
-256 -234 378 0
-379 257 0
-379 242 0
-257 -242 379 0
-380 259 0
-380 253 0
-259 -253 380 0
-48 -377 0
-48 -378 0
-48 -379 0
-48 -380 0
-258 48 377 378 379 380 0
-60 259 0
-381 255 0
-381 237 0
-255 -237 381 0
-382 256 0
-382 236 0
-256 -236 382 0
-383 257 0
-383 243 0
-257 -243 383 0
-384 258 0
-384 248 0
-258 -248 384 0
-60 -381 0
-60 -382 0
-60 -383 0
-60 -384 0
-259 60 381 382 383 384 0
-72 0
