p cnf 48 138
-1 -2 0
-3 -4 0
-5 -6 0
-7 -8 0
-9 -10 0
-11 -12 0
-13 -14 0
-15 -16 0
-17 -18 0
-1 -2 0
-7 -4 0
-13 -6 0
-3 -8 0
-9 -10 0
-15 -12 0
-5 -14 0
-11 -16 0
-17 -18 0
19 0
20 21 0
-20 -21 0
-20 -22 23 0
23 24 0
-23 -24 0
-23 -25 20 0
26 0
21 20 0
-21 -20 0
-21 -23 22 0
22 25 0
-22 -25 0
-22 -24 21 0
27 0
24 23 0
-24 -23 0
-24 -20 25 0
25 22 0
-25 -22 0
-25 -21 24 0
-1 0
-7 20 0
-28 23 0
-28 25 0
-23 -25 28 0
-7 -28 0
-20 7 28 0
-13 23 0
-29 20 0
-29 22 0
-20 -22 29 0
-13 -29 0
-23 13 29 0
-3 21 0
-30 22 0
-30 24 0
-22 -24 30 0
-3 -30 0
-21 3 30 0
-9 0
-15 22 0
-31 21 0
-31 23 0
-21 -23 31 0
-15 -31 0
-22 15 31 0
-5 24 0
-32 25 0
-32 21 0
-25 -21 32 0
-5 -32 0
-24 5 32 0
-11 25 0
-33 24 0
-33 20 0
-24 -20 33 0
-11 -33 0
-25 11 33 0
-17 0
34 0
35 36 0
-35 -36 0
-35 -37 38 0
38 39 0
-38 -39 0
-38 -40 35 0
41 0
36 35 0
-36 -35 0
-36 -38 37 0
37 40 0
-37 -40 0
-37 -39 36 0
42 0
39 38 0
-39 -38 0
-39 -35 40 0
40 37 0
-40 -37 0
-40 -36 39 0
-2 0
-8 35 0
-43 38 0
-43 40 0
-38 -40 43 0
-8 -43 0
-35 8 43 0
-14 38 0
-44 35 0
-44 37 0
-35 -37 44 0
-14 -44 0
-38 14 44 0
-4 36 0
-45 37 0
-45 39 0
-37 -39 45 0
-4 -45 0
-36 4 45 0
-10 0
-16 37 0
-46 36 0
-46 38 0
-36 -38 46 0
-16 -46 0
-37 16 46 0
-6 39 0
-47 40 0
-47 36 0
-40 -36 47 0
-6 -47 0
-39 6 47 0
-12 40 0
-48 39 0
-48 35 0
-39 -35 48 0
-12 -48 0
-40 12 48 0
-18 0
