p cnf 5955 24495
1 2 -2 -3 0
4 5 -2 -6 0
7 8 -2 -9 0
10 11 -2 -12 0
13 14 -2 -15 0
16 17 -2 -18 0
19 20 -2 -21 0
22 23 -2 -24 0
25 26 -2 -27 0
28 29 -2 -30 0
31 32 -2 -33 0
34 35 -2 -36 0
37 38 -2 -39 0
40 41 -2 -42 0
43 44 -2 -45 0
46 2 -5 -47 0
48 5 -5 -49 0
50 8 -5 -51 0
52 11 -5 -53 0
54 14 -5 -55 0
56 17 -5 -57 0
58 20 -5 -59 0
60 23 -5 -61 0
62 26 -5 -63 0
64 29 -5 -65 0
66 32 -5 -67 0
68 35 -5 -69 0
70 38 -5 -71 0
72 41 -5 -73 0
74 44 -5 -75 0
76 2 -8 -77 0
78 5 -8 -79 0
80 8 -8 -81 0
82 11 -8 -83 0
84 14 -8 -85 0
86 17 -8 -87 0
88 20 -8 -89 0
90 23 -8 -91 0
92 26 -8 -93 0
94 29 -8 -95 0
96 32 -8 -97 0
98 35 -8 -99 0
100 38 -8 -101 0
102 41 -8 -103 0
104 44 -8 -105 0
106 2 -11 -107 0
108 5 -11 -109 0
110 8 -11 -111 0
112 11 -11 -113 0
114 14 -11 -115 0
116 17 -11 -117 0
118 20 -11 -119 0
120 23 -11 -121 0
122 26 -11 -123 0
124 29 -11 -125 0
126 32 -11 -127 0
128 35 -11 -129 0
130 38 -11 -131 0
132 41 -11 -133 0
134 44 -11 -135 0
136 2 -14 -137 0
138 5 -14 -139 0
140 8 -14 -141 0
142 11 -14 -143 0
144 14 -14 -145 0
146 17 -14 -147 0
148 20 -14 -149 0
150 23 -14 -151 0
152 26 -14 -153 0
154 29 -14 -155 0
156 32 -14 -157 0
158 35 -14 -159 0
160 38 -14 -161 0
162 41 -14 -163 0
164 44 -14 -165 0
166 2 -17 -167 0
168 5 -17 -169 0
170 8 -17 -171 0
172 11 -17 -173 0
174 14 -17 -175 0
176 17 -17 -177 0
178 20 -17 -179 0
180 23 -17 -181 0
182 26 -17 -183 0
184 29 -17 -185 0
186 32 -17 -187 0
188 35 -17 -189 0
190 38 -17 -191 0
192 41 -17 -193 0
194 44 -17 -195 0
196 2 -20 -197 0
198 5 -20 -199 0
200 8 -20 -201 0
202 11 -20 -203 0
204 14 -20 -205 0
206 17 -20 -207 0
208 20 -20 -209 0
210 23 -20 -211 0
212 26 -20 -213 0
214 29 -20 -215 0
216 32 -20 -217 0
218 35 -20 -219 0
220 38 -20 -221 0
222 41 -20 -223 0
224 44 -20 -225 0
226 2 -23 -227 0
228 5 -23 -229 0
230 8 -23 -231 0
232 11 -23 -233 0
234 14 -23 -235 0
236 17 -23 -237 0
238 20 -23 -239 0
240 23 -23 -241 0
242 26 -23 -243 0
244 29 -23 -245 0
246 32 -23 -247 0
248 35 -23 -249 0
250 38 -23 -251 0
252 41 -23 -253 0
254 44 -23 -255 0
256 2 -26 -257 0
258 5 -26 -259 0
260 8 -26 -261 0
262 11 -26 -263 0
264 14 -26 -265 0
266 17 -26 -267 0
268 20 -26 -269 0
270 23 -26 -271 0
272 26 -26 -273 0
274 29 -26 -275 0
276 32 -26 -277 0
278 35 -26 -279 0
280 38 -26 -281 0
282 41 -26 -283 0
284 44 -26 -285 0
286 2 -29 -287 0
288 5 -29 -289 0
290 8 -29 -291 0
292 11 -29 -293 0
294 14 -29 -295 0
296 17 -29 -297 0
298 20 -29 -299 0
300 23 -29 -301 0
302 26 -29 -303 0
304 29 -29 -305 0
306 32 -29 -307 0
308 35 -29 -309 0
310 38 -29 -311 0
312 41 -29 -313 0
314 44 -29 -315 0
316 2 -32 -317 0
318 5 -32 -319 0
320 8 -32 -321 0
322 11 -32 -323 0
324 14 -32 -325 0
326 17 -32 -327 0
328 20 -32 -329 0
330 23 -32 -331 0
332 26 -32 -333 0
334 29 -32 -335 0
336 32 -32 -337 0
338 35 -32 -339 0
340 38 -32 -341 0
342 41 -32 -343 0
344 44 -32 -345 0
346 2 -35 -347 0
348 5 -35 -349 0
350 8 -35 -351 0
352 11 -35 -353 0
354 14 -35 -355 0
356 17 -35 -357 0
358 20 -35 -359 0
360 23 -35 -361 0
362 26 -35 -363 0
364 29 -35 -365 0
366 32 -35 -367 0
368 35 -35 -369 0
370 38 -35 -371 0
372 41 -35 -373 0
374 44 -35 -375 0
376 2 -38 -377 0
378 5 -38 -379 0
380 8 -38 -381 0
382 11 -38 -383 0
384 14 -38 -385 0
386 17 -38 -387 0
388 20 -38 -389 0
390 23 -38 -391 0
392 26 -38 -393 0
394 29 -38 -395 0
396 32 -38 -397 0
398 35 -38 -399 0
400 38 -38 -401 0
402 41 -38 -403 0
404 44 -38 -405 0
406 2 -41 -407 0
408 5 -41 -409 0
410 8 -41 -411 0
412 11 -41 -413 0
414 14 -41 -415 0
416 17 -41 -417 0
418 20 -41 -419 0
420 23 -41 -421 0
422 26 -41 -423 0
424 29 -41 -425 0
426 32 -41 -427 0
428 35 -41 -429 0
430 38 -41 -431 0
432 41 -41 -433 0
434 44 -41 -435 0
436 2 -44 -437 0
438 5 -44 -439 0
440 8 -44 -441 0
442 11 -44 -443 0
444 14 -44 -445 0
446 17 -44 -447 0
448 20 -44 -449 0
450 23 -44 -451 0
452 26 -44 -453 0
454 29 -44 -455 0
456 32 -44 -457 0
458 35 -44 -459 0
460 38 -44 -461 0
462 41 -44 -463 0
464 44 -44 -465 0
3 -1 0
6 -4 0
9 -7 0
12 -10 0
15 -13 0
18 -16 0
21 -19 0
24 -22 0
27 -25 0
30 -28 0
33 -31 0
36 -34 0
39 -37 0
42 -40 0
45 -43 0
47 -46 0
49 -48 0
51 -50 0
53 -52 0
55 -54 0
57 -56 0
59 -58 0
61 -60 0
63 -62 0
65 -64 0
67 -66 0
69 -68 0
71 -70 0
73 -72 0
75 -74 0
77 -76 0
79 -78 0
81 -80 0
83 -82 0
85 -84 0
87 -86 0
89 -88 0
91 -90 0
93 -92 0
95 -94 0
97 -96 0
99 -98 0
101 -100 0
103 -102 0
105 -104 0
107 -106 0
109 -108 0
111 -110 0
113 -112 0
115 -114 0
117 -116 0
119 -118 0
121 -120 0
123 -122 0
125 -124 0
127 -126 0
129 -128 0
131 -130 0
133 -132 0
135 -134 0
137 -136 0
139 -138 0
141 -140 0
143 -142 0
145 -144 0
147 -146 0
149 -148 0
151 -150 0
153 -152 0
155 -154 0
157 -156 0
159 -158 0
161 -160 0
163 -162 0
165 -164 0
167 -166 0
169 -168 0
171 -170 0
173 -172 0
175 -174 0
177 -176 0
179 -178 0
181 -180 0
183 -182 0
185 -184 0
187 -186 0
189 -188 0
191 -190 0
193 -192 0
195 -194 0
197 -196 0
199 -198 0
201 -200 0
203 -202 0
205 -204 0
207 -206 0
209 -208 0
211 -210 0
213 -212 0
215 -214 0
217 -216 0
219 -218 0
221 -220 0
223 -222 0
225 -224 0
227 -226 0
229 -228 0
231 -230 0
233 -232 0
235 -234 0
237 -236 0
239 -238 0
241 -240 0
243 -242 0
245 -244 0
247 -246 0
249 -248 0
251 -250 0
253 -252 0
255 -254 0
257 -256 0
259 -258 0
261 -260 0
263 -262 0
265 -264 0
267 -266 0
269 -268 0
271 -270 0
273 -272 0
275 -274 0
277 -276 0
279 -278 0
281 -280 0
283 -282 0
285 -284 0
287 -286 0
289 -288 0
291 -290 0
293 -292 0
295 -294 0
297 -296 0
299 -298 0
301 -300 0
303 -302 0
305 -304 0
307 -306 0
309 -308 0
311 -310 0
313 -312 0
315 -314 0
317 -316 0
319 -318 0
321 -320 0
323 -322 0
325 -324 0
327 -326 0
329 -328 0
331 -330 0
333 -332 0
335 -334 0
337 -336 0
339 -338 0
341 -340 0
343 -342 0
345 -344 0
347 -346 0
349 -348 0
351 -350 0
353 -352 0
355 -354 0
357 -356 0
359 -358 0
361 -360 0
363 -362 0
365 -364 0
367 -366 0
369 -368 0
371 -370 0
373 -372 0
375 -374 0
377 -376 0
379 -378 0
381 -380 0
383 -382 0
385 -384 0
387 -386 0
389 -388 0
391 -390 0
393 -392 0
395 -394 0
397 -396 0
399 -398 0
401 -400 0
403 -402 0
405 -404 0
407 -406 0
409 -408 0
411 -410 0
413 -412 0
415 -414 0
417 -416 0
419 -418 0
421 -420 0
423 -422 0
425 -424 0
427 -426 0
429 -428 0
431 -430 0
433 -432 0
435 -434 0
437 -436 0
439 -438 0
441 -440 0
443 -442 0
445 -444 0
447 -446 0
449 -448 0
451 -450 0
453 -452 0
455 -454 0
457 -456 0
459 -458 0
461 -460 0
463 -462 0
465 -464 0
3 -2 0
6 -5 0
9 -8 0
12 -11 0
15 -14 0
18 -17 0
21 -20 0
24 -23 0
27 -26 0
30 -29 0
33 -32 0
36 -35 0
39 -38 0
42 -41 0
45 -44 0
47 -2 0
49 -5 0
51 -8 0
53 -11 0
55 -14 0
57 -17 0
59 -20 0
61 -23 0
63 -26 0
65 -29 0
67 -32 0
69 -35 0
71 -38 0
73 -41 0
75 -44 0
77 -2 0
79 -5 0
81 -8 0
83 -11 0
85 -14 0
87 -17 0
89 -20 0
91 -23 0
93 -26 0
95 -29 0
97 -32 0
99 -35 0
101 -38 0
103 -41 0
105 -44 0
107 -2 0
109 -5 0
111 -8 0
113 -11 0
115 -14 0
117 -17 0
119 -20 0
121 -23 0
123 -26 0
125 -29 0
127 -32 0
129 -35 0
131 -38 0
133 -41 0
135 -44 0
137 -2 0
139 -5 0
141 -8 0
143 -11 0
145 -14 0
147 -17 0
149 -20 0
151 -23 0
153 -26 0
155 -29 0
157 -32 0
159 -35 0
161 -38 0
163 -41 0
165 -44 0
167 -2 0
169 -5 0
171 -8 0
173 -11 0
175 -14 0
177 -17 0
179 -20 0
181 -23 0
183 -26 0
185 -29 0
187 -32 0
189 -35 0
191 -38 0
193 -41 0
195 -44 0
197 -2 0
199 -5 0
201 -8 0
203 -11 0
205 -14 0
207 -17 0
209 -20 0
211 -23 0
213 -26 0
215 -29 0
217 -32 0
219 -35 0
221 -38 0
223 -41 0
225 -44 0
227 -2 0
229 -5 0
231 -8 0
233 -11 0
235 -14 0
237 -17 0
239 -20 0
241 -23 0
243 -26 0
245 -29 0
247 -32 0
249 -35 0
251 -38 0
253 -41 0
255 -44 0
257 -2 0
259 -5 0
261 -8 0
263 -11 0
265 -14 0
267 -17 0
269 -20 0
271 -23 0
273 -26 0
275 -29 0
277 -32 0
279 -35 0
281 -38 0
283 -41 0
285 -44 0
287 -2 0
289 -5 0
291 -8 0
293 -11 0
295 -14 0
297 -17 0
299 -20 0
301 -23 0
303 -26 0
305 -29 0
307 -32 0
309 -35 0
311 -38 0
313 -41 0
315 -44 0
317 -2 0
319 -5 0
321 -8 0
323 -11 0
325 -14 0
327 -17 0
329 -20 0
331 -23 0
333 -26 0
335 -29 0
337 -32 0
339 -35 0
341 -38 0
343 -41 0
345 -44 0
347 -2 0
349 -5 0
351 -8 0
353 -11 0
355 -14 0
357 -17 0
359 -20 0
361 -23 0
363 -26 0
365 -29 0
367 -32 0
369 -35 0
371 -38 0
373 -41 0
375 -44 0
377 -2 0
379 -5 0
381 -8 0
383 -11 0
385 -14 0
387 -17 0
389 -20 0
391 -23 0
393 -26 0
395 -29 0
397 -32 0
399 -35 0
401 -38 0
403 -41 0
405 -44 0
407 -2 0
409 -5 0
411 -8 0
413 -11 0
415 -14 0
417 -17 0
419 -20 0
421 -23 0
423 -26 0
425 -29 0
427 -32 0
429 -35 0
431 -38 0
433 -41 0
435 -44 0
437 -2 0
439 -5 0
441 -8 0
443 -11 0
445 -14 0
447 -17 0
449 -20 0
451 -23 0
453 -26 0
455 -29 0
457 -32 0
459 -35 0
461 -38 0
463 -41 0
465 -44 0
3 2 0
6 2 0
9 2 0
12 2 0
15 2 0
18 2 0
21 2 0
24 2 0
27 2 0
30 2 0
33 2 0
36 2 0
39 2 0
42 2 0
45 2 0
47 5 0
49 5 0
51 5 0
53 5 0
55 5 0
57 5 0
59 5 0
61 5 0
63 5 0
65 5 0
67 5 0
69 5 0
71 5 0
73 5 0
75 5 0
77 8 0
79 8 0
81 8 0
83 8 0
85 8 0
87 8 0
89 8 0
91 8 0
93 8 0
95 8 0
97 8 0
99 8 0
101 8 0
103 8 0
105 8 0
107 11 0
109 11 0
111 11 0
113 11 0
115 11 0
117 11 0
119 11 0
121 11 0
123 11 0
125 11 0
127 11 0
129 11 0
131 11 0
133 11 0
135 11 0
137 14 0
139 14 0
141 14 0
143 14 0
145 14 0
147 14 0
149 14 0
151 14 0
153 14 0
155 14 0
157 14 0
159 14 0
161 14 0
163 14 0
165 14 0
167 17 0
169 17 0
171 17 0
173 17 0
175 17 0
177 17 0
179 17 0
181 17 0
183 17 0
185 17 0
187 17 0
189 17 0
191 17 0
193 17 0
195 17 0
197 20 0
199 20 0
201 20 0
203 20 0
205 20 0
207 20 0
209 20 0
211 20 0
213 20 0
215 20 0
217 20 0
219 20 0
221 20 0
223 20 0
225 20 0
227 23 0
229 23 0
231 23 0
233 23 0
235 23 0
237 23 0
239 23 0
241 23 0
243 23 0
245 23 0
247 23 0
249 23 0
251 23 0
253 23 0
255 23 0
257 26 0
259 26 0
261 26 0
263 26 0
265 26 0
267 26 0
269 26 0
271 26 0
273 26 0
275 26 0
277 26 0
279 26 0
281 26 0
283 26 0
285 26 0
287 29 0
289 29 0
291 29 0
293 29 0
295 29 0
297 29 0
299 29 0
301 29 0
303 29 0
305 29 0
307 29 0
309 29 0
311 29 0
313 29 0
315 29 0
317 32 0
319 32 0
321 32 0
323 32 0
325 32 0
327 32 0
329 32 0
331 32 0
333 32 0
335 32 0
337 32 0
339 32 0
341 32 0
343 32 0
345 32 0
347 35 0
349 35 0
351 35 0
353 35 0
355 35 0
357 35 0
359 35 0
361 35 0
363 35 0
365 35 0
367 35 0
369 35 0
371 35 0
373 35 0
375 35 0
377 38 0
379 38 0
381 38 0
383 38 0
385 38 0
387 38 0
389 38 0
391 38 0
393 38 0
395 38 0
397 38 0
399 38 0
401 38 0
403 38 0
405 38 0
407 41 0
409 41 0
411 41 0
413 41 0
415 41 0
417 41 0
419 41 0
421 41 0
423 41 0
425 41 0
427 41 0
429 41 0
431 41 0
433 41 0
435 41 0
437 44 0
439 44 0
441 44 0
443 44 0
445 44 0
447 44 0
449 44 0
451 44 0
453 44 0
455 44 0
457 44 0
459 44 0
461 44 0
463 44 0
465 44 0
466 466 -467 -468 0
469 470 -471 -472 0
473 474 -475 -476 0
477 478 -479 -480 0
481 482 -483 -484 0
485 486 -487 -488 0
489 490 -491 -492 0
493 494 -495 -496 0
497 498 -499 -500 0
501 502 -503 -504 0
505 506 -507 -508 0
509 510 -511 -512 0
513 514 -515 -516 0
517 518 -519 -520 0
521 522 -523 -524 0
470 469 -525 -526 0
527 527 -528 -529 0
530 531 -532 -533 0
534 535 -536 -537 0
538 539 -540 -541 0
542 543 -544 -545 0
546 547 -548 -549 0
550 551 -552 -553 0
554 555 -556 -557 0
558 559 -560 -561 0
562 563 -564 -565 0
566 567 -568 -569 0
570 571 -572 -573 0
574 575 -576 -577 0
578 579 -580 -581 0
474 473 -582 -583 0
531 530 -584 -585 0
586 586 -587 -588 0
589 590 -591 -592 0
593 594 -595 -596 0
597 598 -599 -600 0
601 602 -603 -604 0
605 606 -607 -608 0
609 610 -611 -612 0
613 614 -615 -616 0
617 618 -619 -620 0
621 622 -623 -624 0
625 626 -627 -628 0
629 630 -631 -632 0
633 634 -635 -636 0
478 477 -637 -638 0
535 534 -639 -640 0
590 589 -641 -642 0
643 643 -644 -645 0
646 647 -648 -649 0
650 651 -652 -653 0
654 655 -656 -657 0
658 659 -660 -661 0
662 663 -664 -665 0
666 667 -668 -669 0
670 671 -672 -673 0
674 675 -676 -677 0
678 679 -680 -681 0
682 683 -684 -685 0
686 687 -688 -689 0
482 481 -690 -691 0
539 538 -692 -693 0
594 593 -694 -695 0
647 646 -696 -697 0
698 698 -699 -700 0
701 702 -703 -704 0
705 706 -707 -708 0
709 710 -711 -712 0
713 714 -715 -716 0
717 718 -719 -720 0
721 722 -723 -724 0
725 726 -727 -728 0
729 730 -731 -732 0
733 734 -735 -736 0
737 738 -739 -740 0
486 485 -741 -742 0
543 542 -743 -744 0
598 597 -745 -746 0
651 650 -747 -748 0
702 701 -749 -750 0
751 751 -752 -753 0
754 755 -756 -757 0
758 759 -760 -761 0
762 763 -764 -765 0
766 767 -768 -769 0
770 771 -772 -773 0
774 775 -776 -777 0
778 779 -780 -781 0
782 783 -784 -785 0
786 787 -788 -789 0
490 489 -790 -791 0
547 546 -792 -793 0
602 601 -794 -795 0
655 654 -796 -797 0
706 705 -798 -799 0
755 754 -800 -801 0
802 802 -803 -804 0
805 806 -807 -808 0
809 810 -811 -812 0
813 814 -815 -816 0
817 818 -819 -820 0
821 822 -823 -824 0
825 826 -827 -828 0
829 830 -831 -832 0
833 834 -835 -836 0
494 493 -837 -838 0
551 550 -839 -840 0
606 605 -841 -842 0
659 658 -843 -844 0
710 709 -845 -846 0
759 758 -847 -848 0
806 805 -849 -850 0
851 851 -852 -853 0
854 855 -856 -857 0
858 859 -860 -861 0
862 863 -864 -865 0
866 867 -868 -869 0
870 871 -872 -873 0
874 875 -876 -877 0
878 879 -880 -881 0
498 497 -882 -883 0
555 554 -884 -885 0
610 609 -886 -887 0
663 662 -888 -889 0
714 713 -890 -891 0
763 762 -892 -893 0
810 809 -894 -895 0
855 854 -896 -897 0
898 898 -899 -900 0
901 902 -903 -904 0
905 906 -907 -908 0
909 910 -911 -912 0
913 914 -915 -916 0
917 918 -919 -920 0
921 922 -923 -924 0
502 501 -925 -926 0
559 558 -927 -928 0
614 613 -929 -930 0
667 666 -931 -932 0
718 717 -933 -934 0
767 766 -935 -936 0
814 813 -937 -938 0
859 858 -939 -940 0
902 901 -941 -942 0
943 943 -944 -945 0
946 947 -948 -949 0
950 951 -952 -953 0
954 955 -956 -957 0
958 959 -960 -961 0
962 963 -964 -965 0
506 505 -966 -967 0
563 562 -968 -969 0
618 617 -970 -971 0
671 670 -972 -973 0
722 721 -974 -975 0
771 770 -976 -977 0
818 817 -978 -979 0
863 862 -980 -981 0
906 905 -982 -983 0
947 946 -984 -985 0
986 986 -987 -988 0
989 990 -991 -992 0
993 994 -995 -996 0
997 998 -999 -1000 0
1001 1002 -1003 -1004 0
510 509 -1005 -1006 0
567 566 -1007 -1008 0
622 621 -1009 -1010 0
675 674 -1011 -1012 0
726 725 -1013 -1014 0
775 774 -1015 -1016 0
822 821 -1017 -1018 0
867 866 -1019 -1020 0
910 909 -1021 -1022 0
951 950 -1023 -1024 0
990 989 -1025 -1026 0
1027 1027 -1028 -1029 0
1030 1031 -1032 -1033 0
1034 1035 -1036 -1037 0
1038 1039 -1040 -1041 0
514 513 -1042 -1043 0
571 570 -1044 -1045 0
626 625 -1046 -1047 0
679 678 -1048 -1049 0
730 729 -1050 -1051 0
779 778 -1052 -1053 0
826 825 -1054 -1055 0
871 870 -1056 -1057 0
914 913 -1058 -1059 0
955 954 -1060 -1061 0
994 993 -1062 -1063 0
1031 1030 -1064 -1065 0
1066 1066 -1067 -1068 0
1069 1070 -1071 -1072 0
1073 1074 -1075 -1076 0
518 517 -1077 -1078 0
575 574 -1079 -1080 0
630 629 -1081 -1082 0
683 682 -1083 -1084 0
734 733 -1085 -1086 0
783 782 -1087 -1088 0
830 829 -1089 -1090 0
875 874 -1091 -1092 0
918 917 -1093 -1094 0
959 958 -1095 -1096 0
998 997 -1097 -1098 0
1035 1034 -1099 -1100 0
1070 1069 -1101 -1102 0
1103 1103 -1104 -1105 0
1106 1107 -1108 -1109 0
522 521 -1110 -1111 0
579 578 -1112 -1113 0
634 633 -1114 -1115 0
687 686 -1116 -1117 0
738 737 -1118 -1119 0
787 786 -1120 -1121 0
834 833 -1122 -1123 0
879 878 -1124 -1125 0
922 921 -1126 -1127 0
963 962 -1128 -1129 0
1002 1001 -1130 -1131 0
1039 1038 -1132 -1133 0
1074 1073 -1134 -1135 0
1107 1106 -1136 -1137 0
1138 1138 -1139 -1140 0
468 -466 0
472 -469 0
476 -473 0
480 -477 0
484 -481 0
488 -485 0
492 -489 0
496 -493 0
500 -497 0
504 -501 0
508 -505 0
512 -509 0
516 -513 0
520 -517 0
524 -521 0
526 -470 0
529 -527 0
533 -530 0
537 -534 0
541 -538 0
545 -542 0
549 -546 0
553 -550 0
557 -554 0
561 -558 0
565 -562 0
569 -566 0
573 -570 0
577 -574 0
581 -578 0
583 -474 0
585 -531 0
588 -586 0
592 -589 0
596 -593 0
600 -597 0
604 -601 0
608 -605 0
612 -609 0
616 -613 0
620 -617 0
624 -621 0
628 -625 0
632 -629 0
636 -633 0
638 -478 0
640 -535 0
642 -590 0
645 -643 0
649 -646 0
653 -650 0
657 -654 0
661 -658 0
665 -662 0
669 -666 0
673 -670 0
677 -674 0
681 -678 0
685 -682 0
689 -686 0
691 -482 0
693 -539 0
695 -594 0
697 -647 0
700 -698 0
704 -701 0
708 -705 0
712 -709 0
716 -713 0
720 -717 0
724 -721 0
728 -725 0
732 -729 0
736 -733 0
740 -737 0
742 -486 0
744 -543 0
746 -598 0
748 -651 0
750 -702 0
753 -751 0
757 -754 0
761 -758 0
765 -762 0
769 -766 0
773 -770 0
777 -774 0
781 -778 0
785 -782 0
789 -786 0
791 -490 0
793 -547 0
795 -602 0
797 -655 0
799 -706 0
801 -755 0
804 -802 0
808 -805 0
812 -809 0
816 -813 0
820 -817 0
824 -821 0
828 -825 0
832 -829 0
836 -833 0
838 -494 0
840 -551 0
842 -606 0
844 -659 0
846 -710 0
848 -759 0
850 -806 0
853 -851 0
857 -854 0
861 -858 0
865 -862 0
869 -866 0
873 -870 0
877 -874 0
881 -878 0
883 -498 0
885 -555 0
887 -610 0
889 -663 0
891 -714 0
893 -763 0
895 -810 0
897 -855 0
900 -898 0
904 -901 0
908 -905 0
912 -909 0
916 -913 0
920 -917 0
924 -921 0
926 -502 0
928 -559 0
930 -614 0
932 -667 0
934 -718 0
936 -767 0
938 -814 0
940 -859 0
942 -902 0
945 -943 0
949 -946 0
953 -950 0
957 -954 0
961 -958 0
965 -962 0
967 -506 0
969 -563 0
971 -618 0
973 -671 0
975 -722 0
977 -771 0
979 -818 0
981 -863 0
983 -906 0
985 -947 0
988 -986 0
992 -989 0
996 -993 0
1000 -997 0
1004 -1001 0
1006 -510 0
1008 -567 0
1010 -622 0
1012 -675 0
1014 -726 0
1016 -775 0
1018 -822 0
1020 -867 0
1022 -910 0
1024 -951 0
1026 -990 0
1029 -1027 0
1033 -1030 0
1037 -1034 0
1041 -1038 0
1043 -514 0
1045 -571 0
1047 -626 0
1049 -679 0
1051 -730 0
1053 -779 0
1055 -826 0
1057 -871 0
1059 -914 0
1061 -955 0
1063 -994 0
1065 -1031 0
1068 -1066 0
1072 -1069 0
1076 -1073 0
1078 -518 0
1080 -575 0
1082 -630 0
1084 -683 0
1086 -734 0
1088 -783 0
1090 -830 0
1092 -875 0
1094 -918 0
1096 -959 0
1098 -998 0
1100 -1035 0
1102 -1070 0
1105 -1103 0
1109 -1106 0
1111 -522 0
1113 -579 0
1115 -634 0
1117 -687 0
1119 -738 0
1121 -787 0
1123 -834 0
1125 -879 0
1127 -922 0
1129 -963 0
1131 -1002 0
1133 -1039 0
1135 -1074 0
1137 -1107 0
1140 -1138 0
468 -466 0
472 -470 0
476 -474 0
480 -478 0
484 -482 0
488 -486 0
492 -490 0
496 -494 0
500 -498 0
504 -502 0
508 -506 0
512 -510 0
516 -514 0
520 -518 0
524 -522 0
526 -469 0
529 -527 0
533 -531 0
537 -535 0
541 -539 0
545 -543 0
549 -547 0
553 -551 0
557 -555 0
561 -559 0
565 -563 0
569 -567 0
573 -571 0
577 -575 0
581 -579 0
583 -473 0
585 -530 0
588 -586 0
592 -590 0
596 -594 0
600 -598 0
604 -602 0
608 -606 0
612 -610 0
616 -614 0
620 -618 0
624 -622 0
628 -626 0
632 -630 0
636 -634 0
638 -477 0
640 -534 0
642 -589 0
645 -643 0
649 -647 0
653 -651 0
657 -655 0
661 -659 0
665 -663 0
669 -667 0
673 -671 0
677 -675 0
681 -679 0
685 -683 0
689 -687 0
691 -481 0
693 -538 0
695 -593 0
697 -646 0
700 -698 0
704 -702 0
708 -706 0
712 -710 0
716 -714 0
720 -718 0
724 -722 0
728 -726 0
732 -730 0
736 -734 0
740 -738 0
742 -485 0
744 -542 0
746 -597 0
748 -650 0
750 -701 0
753 -751 0
757 -755 0
761 -759 0
765 -763 0
769 -767 0
773 -771 0
777 -775 0
781 -779 0
785 -783 0
789 -787 0
791 -489 0
793 -546 0
795 -601 0
797 -654 0
799 -705 0
801 -754 0
804 -802 0
808 -806 0
812 -810 0
816 -814 0
820 -818 0
824 -822 0
828 -826 0
832 -830 0
836 -834 0
838 -493 0
840 -550 0
842 -605 0
844 -658 0
846 -709 0
848 -758 0
850 -805 0
853 -851 0
857 -855 0
861 -859 0
865 -863 0
869 -867 0
873 -871 0
877 -875 0
881 -879 0
883 -497 0
885 -554 0
887 -609 0
889 -662 0
891 -713 0
893 -762 0
895 -809 0
897 -854 0
900 -898 0
904 -902 0
908 -906 0
912 -910 0
916 -914 0
920 -918 0
924 -922 0
926 -501 0
928 -558 0
930 -613 0
932 -666 0
934 -717 0
936 -766 0
938 -813 0
940 -858 0
942 -901 0
945 -943 0
949 -947 0
953 -951 0
957 -955 0
961 -959 0
965 -963 0
967 -505 0
969 -562 0
971 -617 0
973 -670 0
975 -721 0
977 -770 0
979 -817 0
981 -862 0
983 -905 0
985 -946 0
988 -986 0
992 -990 0
996 -994 0
1000 -998 0
1004 -1002 0
1006 -509 0
1008 -566 0
1010 -621 0
1012 -674 0
1014 -725 0
1016 -774 0
1018 -821 0
1020 -866 0
1022 -909 0
1024 -950 0
1026 -989 0
1029 -1027 0
1033 -1031 0
1037 -1035 0
1041 -1039 0
1043 -513 0
1045 -570 0
1047 -625 0
1049 -678 0
1051 -729 0
1053 -778 0
1055 -825 0
1057 -870 0
1059 -913 0
1061 -954 0
1063 -993 0
1065 -1030 0
1068 -1066 0
1072 -1070 0
1076 -1074 0
1078 -517 0
1080 -574 0
1082 -629 0
1084 -682 0
1086 -733 0
1088 -782 0
1090 -829 0
1092 -874 0
1094 -917 0
1096 -958 0
1098 -997 0
1100 -1034 0
1102 -1069 0
1105 -1103 0
1109 -1107 0
1111 -521 0
1113 -578 0
1115 -633 0
1117 -686 0
1119 -737 0
1121 -786 0
1123 -833 0
1125 -878 0
1127 -921 0
1129 -962 0
1131 -1001 0
1133 -1038 0
1135 -1073 0
1137 -1106 0
1140 -1138 0
468 467 0
472 471 0
476 475 0
480 479 0
484 483 0
488 487 0
492 491 0
496 495 0
500 499 0
504 503 0
508 507 0
512 511 0
516 515 0
520 519 0
524 523 0
526 525 0
529 528 0
533 532 0
537 536 0
541 540 0
545 544 0
549 548 0
553 552 0
557 556 0
561 560 0
565 564 0
569 568 0
573 572 0
577 576 0
581 580 0
583 582 0
585 584 0
588 587 0
592 591 0
596 595 0
600 599 0
604 603 0
608 607 0
612 611 0
616 615 0
620 619 0
624 623 0
628 627 0
632 631 0
636 635 0
638 637 0
640 639 0
642 641 0
645 644 0
649 648 0
653 652 0
657 656 0
661 660 0
665 664 0
669 668 0
673 672 0
677 676 0
681 680 0
685 684 0
689 688 0
691 690 0
693 692 0
695 694 0
697 696 0
700 699 0
704 703 0
708 707 0
712 711 0
716 715 0
720 719 0
724 723 0
728 727 0
732 731 0
736 735 0
740 739 0
742 741 0
744 743 0
746 745 0
748 747 0
750 749 0
753 752 0
757 756 0
761 760 0
765 764 0
769 768 0
773 772 0
777 776 0
781 780 0
785 784 0
789 788 0
791 790 0
793 792 0
795 794 0
797 796 0
799 798 0
801 800 0
804 803 0
808 807 0
812 811 0
816 815 0
820 819 0
824 823 0
828 827 0
832 831 0
836 835 0
838 837 0
840 839 0
842 841 0
844 843 0
846 845 0
848 847 0
850 849 0
853 852 0
857 856 0
861 860 0
865 864 0
869 868 0
873 872 0
877 876 0
881 880 0
883 882 0
885 884 0
887 886 0
889 888 0
891 890 0
893 892 0
895 894 0
897 896 0
900 899 0
904 903 0
908 907 0
912 911 0
916 915 0
920 919 0
924 923 0
926 925 0
928 927 0
930 929 0
932 931 0
934 933 0
936 935 0
938 937 0
940 939 0
942 941 0
945 944 0
949 948 0
953 952 0
957 956 0
961 960 0
965 964 0
967 966 0
969 968 0
971 970 0
973 972 0
975 974 0
977 976 0
979 978 0
981 980 0
983 982 0
985 984 0
988 987 0
992 991 0
996 995 0
1000 999 0
1004 1003 0
1006 1005 0
1008 1007 0
1010 1009 0
1012 1011 0
1014 1013 0
1016 1015 0
1018 1017 0
1020 1019 0
1022 1021 0
1024 1023 0
1026 1025 0
1029 1028 0
1033 1032 0
1037 1036 0
1041 1040 0
1043 1042 0
1045 1044 0
1047 1046 0
1049 1048 0
1051 1050 0
1053 1052 0
1055 1054 0
1057 1056 0
1059 1058 0
1061 1060 0
1063 1062 0
1065 1064 0
1068 1067 0
1072 1071 0
1076 1075 0
1078 1077 0
1080 1079 0
1082 1081 0
1084 1083 0
1086 1085 0
1088 1087 0
1090 1089 0
1092 1091 0
1094 1093 0
1096 1095 0
1098 1097 0
1100 1099 0
1102 1101 0
1105 1104 0
1109 1108 0
1111 1110 0
1113 1112 0
1115 1114 0
1117 1116 0
1119 1118 0
1121 1120 0
1123 1122 0
1125 1124 0
1127 1126 0
1129 1128 0
1131 1130 0
1133 1132 0
1135 1134 0
1137 1136 0
1140 1139 0
467 -1141 -1142 -1143 0
471 -1144 -1142 -1145 0
475 -1146 -1142 -1147 0
479 -1148 -1142 -1149 0
483 -1150 -1142 -1151 0
487 -1152 -1142 -1153 0
491 -1154 -1142 -1155 0
495 -1156 -1142 -1157 0
499 -1158 -1142 -1159 0
503 -1160 -1142 -1161 0
507 -1162 -1142 -1163 0
511 -1164 -1142 -1165 0
515 -1166 -1142 -1167 0
519 -1168 -1142 -1169 0
523 -1170 -1142 -1171 0
525 -1141 -1172 -1173 0
528 -1144 -1172 -1174 0
532 -1146 -1172 -1175 0
536 -1148 -1172 -1176 0
540 -1150 -1172 -1177 0
544 -1152 -1172 -1178 0
548 -1154 -1172 -1179 0
552 -1156 -1172 -1180 0
556 -1158 -1172 -1181 0
560 -1160 -1172 -1182 0
564 -1162 -1172 -1183 0
568 -1164 -1172 -1184 0
572 -1166 -1172 -1185 0
576 -1168 -1172 -1186 0
580 -1170 -1172 -1187 0
582 -1141 -1188 -1189 0
584 -1144 -1188 -1190 0
587 -1146 -1188 -1191 0
591 -1148 -1188 -1192 0
595 -1150 -1188 -1193 0
599 -1152 -1188 -1194 0
603 -1154 -1188 -1195 0
607 -1156 -1188 -1196 0
611 -1158 -1188 -1197 0
615 -1160 -1188 -1198 0
619 -1162 -1188 -1199 0
623 -1164 -1188 -1200 0
627 -1166 -1188 -1201 0
631 -1168 -1188 -1202 0
635 -1170 -1188 -1203 0
637 -1141 -1204 -1205 0
639 -1144 -1204 -1206 0
641 -1146 -1204 -1207 0
644 -1148 -1204 -1208 0
648 -1150 -1204 -1209 0
652 -1152 -1204 -1210 0
656 -1154 -1204 -1211 0
660 -1156 -1204 -1212 0
664 -1158 -1204 -1213 0
668 -1160 -1204 -1214 0
672 -1162 -1204 -1215 0
676 -1164 -1204 -1216 0
680 -1166 -1204 -1217 0
684 -1168 -1204 -1218 0
688 -1170 -1204 -1219 0
690 -1141 -1220 -1221 0
692 -1144 -1220 -1222 0
694 -1146 -1220 -1223 0
696 -1148 -1220 -1224 0
699 -1150 -1220 -1225 0
703 -1152 -1220 -1226 0
707 -1154 -1220 -1227 0
711 -1156 -1220 -1228 0
715 -1158 -1220 -1229 0
719 -1160 -1220 -1230 0
723 -1162 -1220 -1231 0
727 -1164 -1220 -1232 0
731 -1166 -1220 -1233 0
735 -1168 -1220 -1234 0
739 -1170 -1220 -1235 0
741 -1141 -1236 -1237 0
743 -1144 -1236 -1238 0
745 -1146 -1236 -1239 0
747 -1148 -1236 -1240 0
749 -1150 -1236 -1241 0
752 -1152 -1236 -1242 0
756 -1154 -1236 -1243 0
760 -1156 -1236 -1244 0
764 -1158 -1236 -1245 0
768 -1160 -1236 -1246 0
772 -1162 -1236 -1247 0
776 -1164 -1236 -1248 0
780 -1166 -1236 -1249 0
784 -1168 -1236 -1250 0
788 -1170 -1236 -1251 0
790 -1141 -1252 -1253 0
792 -1144 -1252 -1254 0
794 -1146 -1252 -1255 0
796 -1148 -1252 -1256 0
798 -1150 -1252 -1257 0
800 -1152 -1252 -1258 0
803 -1154 -1252 -1259 0
807 -1156 -1252 -1260 0
811 -1158 -1252 -1261 0
815 -1160 -1252 -1262 0
819 -1162 -1252 -1263 0
823 -1164 -1252 -1264 0
827 -1166 -1252 -1265 0
831 -1168 -1252 -1266 0
835 -1170 -1252 -1267 0
837 -1141 -1268 -1269 0
839 -1144 -1268 -1270 0
841 -1146 -1268 -1271 0
843 -1148 -1268 -1272 0
845 -1150 -1268 -1273 0
847 -1152 -1268 -1274 0
849 -1154 -1268 -1275 0
852 -1156 -1268 -1276 0
856 -1158 -1268 -1277 0
860 -1160 -1268 -1278 0
864 -1162 -1268 -1279 0
868 -1164 -1268 -1280 0
872 -1166 -1268 -1281 0
876 -1168 -1268 -1282 0
880 -1170 -1268 -1283 0
882 -1141 -1284 -1285 0
884 -1144 -1284 -1286 0
886 -1146 -1284 -1287 0
888 -1148 -1284 -1288 0
890 -1150 -1284 -1289 0
892 -1152 -1284 -1290 0
894 -1154 -1284 -1291 0
896 -1156 -1284 -1292 0
899 -1158 -1284 -1293 0
903 -1160 -1284 -1294 0
907 -1162 -1284 -1295 0
911 -1164 -1284 -1296 0
915 -1166 -1284 -1297 0
919 -1168 -1284 -1298 0
923 -1170 -1284 -1299 0
925 -1141 -1300 -1301 0
927 -1144 -1300 -1302 0
929 -1146 -1300 -1303 0
931 -1148 -1300 -1304 0
933 -1150 -1300 -1305 0
935 -1152 -1300 -1306 0
937 -1154 -1300 -1307 0
939 -1156 -1300 -1308 0
941 -1158 -1300 -1309 0
944 -1160 -1300 -1310 0
948 -1162 -1300 -1311 0
952 -1164 -1300 -1312 0
956 -1166 -1300 -1313 0
960 -1168 -1300 -1314 0
964 -1170 -1300 -1315 0
966 -1141 -1316 -1317 0
968 -1144 -1316 -1318 0
970 -1146 -1316 -1319 0
972 -1148 -1316 -1320 0
974 -1150 -1316 -1321 0
976 -1152 -1316 -1322 0
978 -1154 -1316 -1323 0
980 -1156 -1316 -1324 0
982 -1158 -1316 -1325 0
984 -1160 -1316 -1326 0
987 -1162 -1316 -1327 0
991 -1164 -1316 -1328 0
995 -1166 -1316 -1329 0
999 -1168 -1316 -1330 0
1003 -1170 -1316 -1331 0
1005 -1141 -1332 -1333 0
1007 -1144 -1332 -1334 0
1009 -1146 -1332 -1335 0
1011 -1148 -1332 -1336 0
1013 -1150 -1332 -1337 0
1015 -1152 -1332 -1338 0
1017 -1154 -1332 -1339 0
1019 -1156 -1332 -1340 0
1021 -1158 -1332 -1341 0
1023 -1160 -1332 -1342 0
1025 -1162 -1332 -1343 0
1028 -1164 -1332 -1344 0
1032 -1166 -1332 -1345 0
1036 -1168 -1332 -1346 0
1040 -1170 -1332 -1347 0
1042 -1141 -1348 -1349 0
1044 -1144 -1348 -1350 0
1046 -1146 -1348 -1351 0
1048 -1148 -1348 -1352 0
1050 -1150 -1348 -1353 0
1052 -1152 -1348 -1354 0
1054 -1154 -1348 -1355 0
1056 -1156 -1348 -1356 0
1058 -1158 -1348 -1357 0
1060 -1160 -1348 -1358 0
1062 -1162 -1348 -1359 0
1064 -1164 -1348 -1360 0
1067 -1166 -1348 -1361 0
1071 -1168 -1348 -1362 0
1075 -1170 -1348 -1363 0
1077 -1141 -1364 -1365 0
1079 -1144 -1364 -1366 0
1081 -1146 -1364 -1367 0
1083 -1148 -1364 -1368 0
1085 -1150 -1364 -1369 0
1087 -1152 -1364 -1370 0
1089 -1154 -1364 -1371 0
1091 -1156 -1364 -1372 0
1093 -1158 -1364 -1373 0
1095 -1160 -1364 -1374 0
1097 -1162 -1364 -1375 0
1099 -1164 -1364 -1376 0
1101 -1166 -1364 -1377 0
1104 -1168 -1364 -1378 0
1108 -1170 -1364 -1379 0
1110 -1141 -1380 -1381 0
1112 -1144 -1380 -1382 0
1114 -1146 -1380 -1383 0
1116 -1148 -1380 -1384 0
1118 -1150 -1380 -1385 0
1120 -1152 -1380 -1386 0
1122 -1154 -1380 -1387 0
1124 -1156 -1380 -1388 0
1126 -1158 -1380 -1389 0
1128 -1160 -1380 -1390 0
1130 -1162 -1380 -1391 0
1132 -1164 -1380 -1392 0
1134 -1166 -1380 -1393 0
1136 -1168 -1380 -1394 0
1139 -1170 -1380 -1395 0
1143 -467 0
1145 -471 0
1147 -475 0
1149 -479 0
1151 -483 0
1153 -487 0
1155 -491 0
1157 -495 0
1159 -499 0
1161 -503 0
1163 -507 0
1165 -511 0
1167 -515 0
1169 -519 0
1171 -523 0
1173 -525 0
1174 -528 0
1175 -532 0
1176 -536 0
1177 -540 0
1178 -544 0
1179 -548 0
1180 -552 0
1181 -556 0
1182 -560 0
1183 -564 0
1184 -568 0
1185 -572 0
1186 -576 0
1187 -580 0
1189 -582 0
1190 -584 0
1191 -587 0
1192 -591 0
1193 -595 0
1194 -599 0
1195 -603 0
1196 -607 0
1197 -611 0
1198 -615 0
1199 -619 0
1200 -623 0
1201 -627 0
1202 -631 0
1203 -635 0
1205 -637 0
1206 -639 0
1207 -641 0
1208 -644 0
1209 -648 0
1210 -652 0
1211 -656 0
1212 -660 0
1213 -664 0
1214 -668 0
1215 -672 0
1216 -676 0
1217 -680 0
1218 -684 0
1219 -688 0
1221 -690 0
1222 -692 0
1223 -694 0
1224 -696 0
1225 -699 0
1226 -703 0
1227 -707 0
1228 -711 0
1229 -715 0
1230 -719 0
1231 -723 0
1232 -727 0
1233 -731 0
1234 -735 0
1235 -739 0
1237 -741 0
1238 -743 0
1239 -745 0
1240 -747 0
1241 -749 0
1242 -752 0
1243 -756 0
1244 -760 0
1245 -764 0
1246 -768 0
1247 -772 0
1248 -776 0
1249 -780 0
1250 -784 0
1251 -788 0
1253 -790 0
1254 -792 0
1255 -794 0
1256 -796 0
1257 -798 0
1258 -800 0
1259 -803 0
1260 -807 0
1261 -811 0
1262 -815 0
1263 -819 0
1264 -823 0
1265 -827 0
1266 -831 0
1267 -835 0
1269 -837 0
1270 -839 0
1271 -841 0
1272 -843 0
1273 -845 0
1274 -847 0
1275 -849 0
1276 -852 0
1277 -856 0
1278 -860 0
1279 -864 0
1280 -868 0
1281 -872 0
1282 -876 0
1283 -880 0
1285 -882 0
1286 -884 0
1287 -886 0
1288 -888 0
1289 -890 0
1290 -892 0
1291 -894 0
1292 -896 0
1293 -899 0
1294 -903 0
1295 -907 0
1296 -911 0
1297 -915 0
1298 -919 0
1299 -923 0
1301 -925 0
1302 -927 0
1303 -929 0
1304 -931 0
1305 -933 0
1306 -935 0
1307 -937 0
1308 -939 0
1309 -941 0
1310 -944 0
1311 -948 0
1312 -952 0
1313 -956 0
1314 -960 0
1315 -964 0
1317 -966 0
1318 -968 0
1319 -970 0
1320 -972 0
1321 -974 0
1322 -976 0
1323 -978 0
1324 -980 0
1325 -982 0
1326 -984 0
1327 -987 0
1328 -991 0
1329 -995 0
1330 -999 0
1331 -1003 0
1333 -1005 0
1334 -1007 0
1335 -1009 0
1336 -1011 0
1337 -1013 0
1338 -1015 0
1339 -1017 0
1340 -1019 0
1341 -1021 0
1342 -1023 0
1343 -1025 0
1344 -1028 0
1345 -1032 0
1346 -1036 0
1347 -1040 0
1349 -1042 0
1350 -1044 0
1351 -1046 0
1352 -1048 0
1353 -1050 0
1354 -1052 0
1355 -1054 0
1356 -1056 0
1357 -1058 0
1358 -1060 0
1359 -1062 0
1360 -1064 0
1361 -1067 0
1362 -1071 0
1363 -1075 0
1365 -1077 0
1366 -1079 0
1367 -1081 0
1368 -1083 0
1369 -1085 0
1370 -1087 0
1371 -1089 0
1372 -1091 0
1373 -1093 0
1374 -1095 0
1375 -1097 0
1376 -1099 0
1377 -1101 0
1378 -1104 0
1379 -1108 0
1381 -1110 0
1382 -1112 0
1383 -1114 0
1384 -1116 0
1385 -1118 0
1386 -1120 0
1387 -1122 0
1388 -1124 0
1389 -1126 0
1390 -1128 0
1391 -1130 0
1392 -1132 0
1393 -1134 0
1394 -1136 0
1395 -1139 0
1143 1141 0
1145 1144 0
1147 1146 0
1149 1148 0
1151 1150 0
1153 1152 0
1155 1154 0
1157 1156 0
1159 1158 0
1161 1160 0
1163 1162 0
1165 1164 0
1167 1166 0
1169 1168 0
1171 1170 0
1173 1141 0
1174 1144 0
1175 1146 0
1176 1148 0
1177 1150 0
1178 1152 0
1179 1154 0
1180 1156 0
1181 1158 0
1182 1160 0
1183 1162 0
1184 1164 0
1185 1166 0
1186 1168 0
1187 1170 0
1189 1141 0
1190 1144 0
1191 1146 0
1192 1148 0
1193 1150 0
1194 1152 0
1195 1154 0
1196 1156 0
1197 1158 0
1198 1160 0
1199 1162 0
1200 1164 0
1201 1166 0
1202 1168 0
1203 1170 0
1205 1141 0
1206 1144 0
1207 1146 0
1208 1148 0
1209 1150 0
1210 1152 0
1211 1154 0
1212 1156 0
1213 1158 0
1214 1160 0
1215 1162 0
1216 1164 0
1217 1166 0
1218 1168 0
1219 1170 0
1221 1141 0
1222 1144 0
1223 1146 0
1224 1148 0
1225 1150 0
1226 1152 0
1227 1154 0
1228 1156 0
1229 1158 0
1230 1160 0
1231 1162 0
1232 1164 0
1233 1166 0
1234 1168 0
1235 1170 0
1237 1141 0
1238 1144 0
1239 1146 0
1240 1148 0
1241 1150 0
1242 1152 0
1243 1154 0
1244 1156 0
1245 1158 0
1246 1160 0
1247 1162 0
1248 1164 0
1249 1166 0
1250 1168 0
1251 1170 0
1253 1141 0
1254 1144 0
1255 1146 0
1256 1148 0
1257 1150 0
1258 1152 0
1259 1154 0
1260 1156 0
1261 1158 0
1262 1160 0
1263 1162 0
1264 1164 0
1265 1166 0
1266 1168 0
1267 1170 0
1269 1141 0
1270 1144 0
1271 1146 0
1272 1148 0
1273 1150 0
1274 1152 0
1275 1154 0
1276 1156 0
1277 1158 0
1278 1160 0
1279 1162 0
1280 1164 0
1281 1166 0
1282 1168 0
1283 1170 0
1285 1141 0
1286 1144 0
1287 1146 0
1288 1148 0
1289 1150 0
1290 1152 0
1291 1154 0
1292 1156 0
1293 1158 0
1294 1160 0
1295 1162 0
1296 1164 0
1297 1166 0
1298 1168 0
1299 1170 0
1301 1141 0
1302 1144 0
1303 1146 0
1304 1148 0
1305 1150 0
1306 1152 0
1307 1154 0
1308 1156 0
1309 1158 0
1310 1160 0
1311 1162 0
1312 1164 0
1313 1166 0
1314 1168 0
1315 1170 0
1317 1141 0
1318 1144 0
1319 1146 0
1320 1148 0
1321 1150 0
1322 1152 0
1323 1154 0
1324 1156 0
1325 1158 0
1326 1160 0
1327 1162 0
1328 1164 0
1329 1166 0
1330 1168 0
1331 1170 0
1333 1141 0
1334 1144 0
1335 1146 0
1336 1148 0
1337 1150 0
1338 1152 0
1339 1154 0
1340 1156 0
1341 1158 0
1342 1160 0
1343 1162 0
1344 1164 0
1345 1166 0
1346 1168 0
1347 1170 0
1349 1141 0
1350 1144 0
1351 1146 0
1352 1148 0
1353 1150 0
1354 1152 0
1355 1154 0
1356 1156 0
1357 1158 0
1358 1160 0
1359 1162 0
1360 1164 0
1361 1166 0
1362 1168 0
1363 1170 0
1365 1141 0
1366 1144 0
1367 1146 0
1368 1148 0
1369 1150 0
1370 1152 0
1371 1154 0
1372 1156 0
1373 1158 0
1374 1160 0
1375 1162 0
1376 1164 0
1377 1166 0
1378 1168 0
1379 1170 0
1381 1141 0
1382 1144 0
1383 1146 0
1384 1148 0
1385 1150 0
1386 1152 0
1387 1154 0
1388 1156 0
1389 1158 0
1390 1160 0
1391 1162 0
1392 1164 0
1393 1166 0
1394 1168 0
1395 1170 0
1143 1142 0
1145 1142 0
1147 1142 0
1149 1142 0
1151 1142 0
1153 1142 0
1155 1142 0
1157 1142 0
1159 1142 0
1161 1142 0
1163 1142 0
1165 1142 0
1167 1142 0
1169 1142 0
1171 1142 0
1173 1172 0
1174 1172 0
1175 1172 0
1176 1172 0
1177 1172 0
1178 1172 0
1179 1172 0
1180 1172 0
1181 1172 0
1182 1172 0
1183 1172 0
1184 1172 0
1185 1172 0
1186 1172 0
1187 1172 0
1189 1188 0
1190 1188 0
1191 1188 0
1192 1188 0
1193 1188 0
1194 1188 0
1195 1188 0
1196 1188 0
1197 1188 0
1198 1188 0
1199 1188 0
1200 1188 0
1201 1188 0
1202 1188 0
1203 1188 0
1205 1204 0
1206 1204 0
1207 1204 0
1208 1204 0
1209 1204 0
1210 1204 0
1211 1204 0
1212 1204 0
1213 1204 0
1214 1204 0
1215 1204 0
1216 1204 0
1217 1204 0
1218 1204 0
1219 1204 0
1221 1220 0
1222 1220 0
1223 1220 0
1224 1220 0
1225 1220 0
1226 1220 0
1227 1220 0
1228 1220 0
1229 1220 0
1230 1220 0
1231 1220 0
1232 1220 0
1233 1220 0
1234 1220 0
1235 1220 0
1237 1236 0
1238 1236 0
1239 1236 0
1240 1236 0
1241 1236 0
1242 1236 0
1243 1236 0
1244 1236 0
1245 1236 0
1246 1236 0
1247 1236 0
1248 1236 0
1249 1236 0
1250 1236 0
1251 1236 0
1253 1252 0
1254 1252 0
1255 1252 0
1256 1252 0
1257 1252 0
1258 1252 0
1259 1252 0
1260 1252 0
1261 1252 0
1262 1252 0
1263 1252 0
1264 1252 0
1265 1252 0
1266 1252 0
1267 1252 0
1269 1268 0
1270 1268 0
1271 1268 0
1272 1268 0
1273 1268 0
1274 1268 0
1275 1268 0
1276 1268 0
1277 1268 0
1278 1268 0
1279 1268 0
1280 1268 0
1281 1268 0
1282 1268 0
1283 1268 0
1285 1284 0
1286 1284 0
1287 1284 0
1288 1284 0
1289 1284 0
1290 1284 0
1291 1284 0
1292 1284 0
1293 1284 0
1294 1284 0
1295 1284 0
1296 1284 0
1297 1284 0
1298 1284 0
1299 1284 0
1301 1300 0
1302 1300 0
1303 1300 0
1304 1300 0
1305 1300 0
1306 1300 0
1307 1300 0
1308 1300 0
1309 1300 0
1310 1300 0
1311 1300 0
1312 1300 0
1313 1300 0
1314 1300 0
1315 1300 0
1317 1316 0
1318 1316 0
1319 1316 0
1320 1316 0
1321 1316 0
1322 1316 0
1323 1316 0
1324 1316 0
1325 1316 0
1326 1316 0
1327 1316 0
1328 1316 0
1329 1316 0
1330 1316 0
1331 1316 0
1333 1332 0
1334 1332 0
1335 1332 0
1336 1332 0
1337 1332 0
1338 1332 0
1339 1332 0
1340 1332 0
1341 1332 0
1342 1332 0
1343 1332 0
1344 1332 0
1345 1332 0
1346 1332 0
1347 1332 0
1349 1348 0
1350 1348 0
1351 1348 0
1352 1348 0
1353 1348 0
1354 1348 0
1355 1348 0
1356 1348 0
1357 1348 0
1358 1348 0
1359 1348 0
1360 1348 0
1361 1348 0
1362 1348 0
1363 1348 0
1365 1364 0
1366 1364 0
1367 1364 0
1368 1364 0
1369 1364 0
1370 1364 0
1371 1364 0
1372 1364 0
1373 1364 0
1374 1364 0
1375 1364 0
1376 1364 0
1377 1364 0
1378 1364 0
1379 1364 0
1381 1380 0
1382 1380 0
1383 1380 0
1384 1380 0
1385 1380 0
1386 1380 0
1387 1380 0
1388 1380 0
1389 1380 0
1390 1380 0
1391 1380 0
1392 1380 0
1393 1380 0
1394 1380 0
1395 1380 0
466 466 1396 0
469 470 1397 0
473 474 1398 0
477 478 1399 0
481 482 1400 0
485 486 1401 0
489 490 1402 0
493 494 1403 0
497 498 1404 0
501 502 1405 0
505 506 1406 0
509 510 1407 0
513 514 1408 0
517 518 1409 0
521 522 1410 0
470 469 1411 0
527 527 1412 0
530 531 1413 0
534 535 1414 0
538 539 1415 0
542 543 1416 0
546 547 1417 0
550 551 1418 0
554 555 1419 0
558 559 1420 0
562 563 1421 0
566 567 1422 0
570 571 1423 0
574 575 1424 0
578 579 1425 0
474 473 1426 0
531 530 1427 0
586 586 1428 0
589 590 1429 0
593 594 1430 0
597 598 1431 0
601 602 1432 0
605 606 1433 0
609 610 1434 0
613 614 1435 0
617 618 1436 0
621 622 1437 0
625 626 1438 0
629 630 1439 0
633 634 1440 0
478 477 1441 0
535 534 1442 0
590 589 1443 0
643 643 1444 0
646 647 1445 0
650 651 1446 0
654 655 1447 0
658 659 1448 0
662 663 1449 0
666 667 1450 0
670 671 1451 0
674 675 1452 0
678 679 1453 0
682 683 1454 0
686 687 1455 0
482 481 1456 0
539 538 1457 0
594 593 1458 0
647 646 1459 0
698 698 1460 0
701 702 1461 0
705 706 1462 0
709 710 1463 0
713 714 1464 0
717 718 1465 0
721 722 1466 0
725 726 1467 0
729 730 1468 0
733 734 1469 0
737 738 1470 0
486 485 1471 0
543 542 1472 0
598 597 1473 0
651 650 1474 0
702 701 1475 0
751 751 1476 0
754 755 1477 0
758 759 1478 0
762 763 1479 0
766 767 1480 0
770 771 1481 0
774 775 1482 0
778 779 1483 0
782 783 1484 0
786 787 1485 0
490 489 1486 0
547 546 1487 0
602 601 1488 0
655 654 1489 0
706 705 1490 0
755 754 1491 0
802 802 1492 0
805 806 1493 0
809 810 1494 0
813 814 1495 0
817 818 1496 0
821 822 1497 0
825 826 1498 0
829 830 1499 0
833 834 1500 0
494 493 1501 0
551 550 1502 0
606 605 1503 0
659 658 1504 0
710 709 1505 0
759 758 1506 0
806 805 1507 0
851 851 1508 0
854 855 1509 0
858 859 1510 0
862 863 1511 0
866 867 1512 0
870 871 1513 0
874 875 1514 0
878 879 1515 0
498 497 1516 0
555 554 1517 0
610 609 1518 0
663 662 1519 0
714 713 1520 0
763 762 1521 0
810 809 1522 0
855 854 1523 0
898 898 1524 0
901 902 1525 0
905 906 1526 0
909 910 1527 0
913 914 1528 0
917 918 1529 0
921 922 1530 0
502 501 1531 0
559 558 1532 0
614 613 1533 0
667 666 1534 0
718 717 1535 0
767 766 1536 0
814 813 1537 0
859 858 1538 0
902 901 1539 0
943 943 1540 0
946 947 1541 0
950 951 1542 0
954 955 1543 0
958 959 1544 0
962 963 1545 0
506 505 1546 0
563 562 1547 0
618 617 1548 0
671 670 1549 0
722 721 1550 0
771 770 1551 0
818 817 1552 0
863 862 1553 0
906 905 1554 0
947 946 1555 0
986 986 1556 0
989 990 1557 0
993 994 1558 0
997 998 1559 0
1001 1002 1560 0
510 509 1561 0
567 566 1562 0
622 621 1563 0
675 674 1564 0
726 725 1565 0
775 774 1566 0
822 821 1567 0
867 866 1568 0
910 909 1569 0
951 950 1570 0
990 989 1571 0
1027 1027 1572 0
1030 1031 1573 0
1034 1035 1574 0
1038 1039 1575 0
514 513 1576 0
571 570 1577 0
626 625 1578 0
679 678 1579 0
730 729 1580 0
779 778 1581 0
826 825 1582 0
871 870 1583 0
914 913 1584 0
955 954 1585 0
994 993 1586 0
1031 1030 1587 0
1066 1066 1588 0
1069 1070 1589 0
1073 1074 1590 0
518 517 1591 0
575 574 1592 0
630 629 1593 0
683 682 1594 0
734 733 1595 0
783 782 1596 0
830 829 1597 0
875 874 1598 0
918 917 1599 0
959 958 1600 0
998 997 1601 0
1035 1034 1602 0
1070 1069 1603 0
1103 1103 1604 0
1106 1107 1605 0
522 521 1606 0
579 578 1607 0
634 633 1608 0
687 686 1609 0
738 737 1610 0
787 786 1611 0
834 833 1612 0
879 878 1613 0
922 921 1614 0
963 962 1615 0
1002 1001 1616 0
1039 1038 1617 0
1074 1073 1618 0
1107 1106 1619 0
1138 1138 1620 0
-1396 -466 0
-1397 -469 0
-1398 -473 0
-1399 -477 0
-1400 -481 0
-1401 -485 0
-1402 -489 0
-1403 -493 0
-1404 -497 0
-1405 -501 0
-1406 -505 0
-1407 -509 0
-1408 -513 0
-1409 -517 0
-1410 -521 0
-1411 -470 0
-1412 -527 0
-1413 -530 0
-1414 -534 0
-1415 -538 0
-1416 -542 0
-1417 -546 0
-1418 -550 0
-1419 -554 0
-1420 -558 0
-1421 -562 0
-1422 -566 0
-1423 -570 0
-1424 -574 0
-1425 -578 0
-1426 -474 0
-1427 -531 0
-1428 -586 0
-1429 -589 0
-1430 -593 0
-1431 -597 0
-1432 -601 0
-1433 -605 0
-1434 -609 0
-1435 -613 0
-1436 -617 0
-1437 -621 0
-1438 -625 0
-1439 -629 0
-1440 -633 0
-1441 -478 0
-1442 -535 0
-1443 -590 0
-1444 -643 0
-1445 -646 0
-1446 -650 0
-1447 -654 0
-1448 -658 0
-1449 -662 0
-1450 -666 0
-1451 -670 0
-1452 -674 0
-1453 -678 0
-1454 -682 0
-1455 -686 0
-1456 -482 0
-1457 -539 0
-1458 -594 0
-1459 -647 0
-1460 -698 0
-1461 -701 0
-1462 -705 0
-1463 -709 0
-1464 -713 0
-1465 -717 0
-1466 -721 0
-1467 -725 0
-1468 -729 0
-1469 -733 0
-1470 -737 0
-1471 -486 0
-1472 -543 0
-1473 -598 0
-1474 -651 0
-1475 -702 0
-1476 -751 0
-1477 -754 0
-1478 -758 0
-1479 -762 0
-1480 -766 0
-1481 -770 0
-1482 -774 0
-1483 -778 0
-1484 -782 0
-1485 -786 0
-1486 -490 0
-1487 -547 0
-1488 -602 0
-1489 -655 0
-1490 -706 0
-1491 -755 0
-1492 -802 0
-1493 -805 0
-1494 -809 0
-1495 -813 0
-1496 -817 0
-1497 -821 0
-1498 -825 0
-1499 -829 0
-1500 -833 0
-1501 -494 0
-1502 -551 0
-1503 -606 0
-1504 -659 0
-1505 -710 0
-1506 -759 0
-1507 -806 0
-1508 -851 0
-1509 -854 0
-1510 -858 0
-1511 -862 0
-1512 -866 0
-1513 -870 0
-1514 -874 0
-1515 -878 0
-1516 -498 0
-1517 -555 0
-1518 -610 0
-1519 -663 0
-1520 -714 0
-1521 -763 0
-1522 -810 0
-1523 -855 0
-1524 -898 0
-1525 -901 0
-1526 -905 0
-1527 -909 0
-1528 -913 0
-1529 -917 0
-1530 -921 0
-1531 -502 0
-1532 -559 0
-1533 -614 0
-1534 -667 0
-1535 -718 0
-1536 -767 0
-1537 -814 0
-1538 -859 0
-1539 -902 0
-1540 -943 0
-1541 -946 0
-1542 -950 0
-1543 -954 0
-1544 -958 0
-1545 -962 0
-1546 -506 0
-1547 -563 0
-1548 -618 0
-1549 -671 0
-1550 -722 0
-1551 -771 0
-1552 -818 0
-1553 -863 0
-1554 -906 0
-1555 -947 0
-1556 -986 0
-1557 -989 0
-1558 -993 0
-1559 -997 0
-1560 -1001 0
-1561 -510 0
-1562 -567 0
-1563 -622 0
-1564 -675 0
-1565 -726 0
-1566 -775 0
-1567 -822 0
-1568 -867 0
-1569 -910 0
-1570 -951 0
-1571 -990 0
-1572 -1027 0
-1573 -1030 0
-1574 -1034 0
-1575 -1038 0
-1576 -514 0
-1577 -571 0
-1578 -626 0
-1579 -679 0
-1580 -730 0
-1581 -779 0
-1582 -826 0
-1583 -871 0
-1584 -914 0
-1585 -955 0
-1586 -994 0
-1587 -1031 0
-1588 -1066 0
-1589 -1069 0
-1590 -1073 0
-1591 -518 0
-1592 -575 0
-1593 -630 0
-1594 -683 0
-1595 -734 0
-1596 -783 0
-1597 -830 0
-1598 -875 0
-1599 -918 0
-1600 -959 0
-1601 -998 0
-1602 -1035 0
-1603 -1070 0
-1604 -1103 0
-1605 -1106 0
-1606 -522 0
-1607 -579 0
-1608 -634 0
-1609 -687 0
-1610 -738 0
-1611 -787 0
-1612 -834 0
-1613 -879 0
-1614 -922 0
-1615 -963 0
-1616 -1002 0
-1617 -1039 0
-1618 -1074 0
-1619 -1107 0
-1620 -1138 0
-1396 -466 0
-1397 -470 0
-1398 -474 0
-1399 -478 0
-1400 -482 0
-1401 -486 0
-1402 -490 0
-1403 -494 0
-1404 -498 0
-1405 -502 0
-1406 -506 0
-1407 -510 0
-1408 -514 0
-1409 -518 0
-1410 -522 0
-1411 -469 0
-1412 -527 0
-1413 -531 0
-1414 -535 0
-1415 -539 0
-1416 -543 0
-1417 -547 0
-1418 -551 0
-1419 -555 0
-1420 -559 0
-1421 -563 0
-1422 -567 0
-1423 -571 0
-1424 -575 0
-1425 -579 0
-1426 -473 0
-1427 -530 0
-1428 -586 0
-1429 -590 0
-1430 -594 0
-1431 -598 0
-1432 -602 0
-1433 -606 0
-1434 -610 0
-1435 -614 0
-1436 -618 0
-1437 -622 0
-1438 -626 0
-1439 -630 0
-1440 -634 0
-1441 -477 0
-1442 -534 0
-1443 -589 0
-1444 -643 0
-1445 -647 0
-1446 -651 0
-1447 -655 0
-1448 -659 0
-1449 -663 0
-1450 -667 0
-1451 -671 0
-1452 -675 0
-1453 -679 0
-1454 -683 0
-1455 -687 0
-1456 -481 0
-1457 -538 0
-1458 -593 0
-1459 -646 0
-1460 -698 0
-1461 -702 0
-1462 -706 0
-1463 -710 0
-1464 -714 0
-1465 -718 0
-1466 -722 0
-1467 -726 0
-1468 -730 0
-1469 -734 0
-1470 -738 0
-1471 -485 0
-1472 -542 0
-1473 -597 0
-1474 -650 0
-1475 -701 0
-1476 -751 0
-1477 -755 0
-1478 -759 0
-1479 -763 0
-1480 -767 0
-1481 -771 0
-1482 -775 0
-1483 -779 0
-1484 -783 0
-1485 -787 0
-1486 -489 0
-1487 -546 0
-1488 -601 0
-1489 -654 0
-1490 -705 0
-1491 -754 0
-1492 -802 0
-1493 -806 0
-1494 -810 0
-1495 -814 0
-1496 -818 0
-1497 -822 0
-1498 -826 0
-1499 -830 0
-1500 -834 0
-1501 -493 0
-1502 -550 0
-1503 -605 0
-1504 -658 0
-1505 -709 0
-1506 -758 0
-1507 -805 0
-1508 -851 0
-1509 -855 0
-1510 -859 0
-1511 -863 0
-1512 -867 0
-1513 -871 0
-1514 -875 0
-1515 -879 0
-1516 -497 0
-1517 -554 0
-1518 -609 0
-1519 -662 0
-1520 -713 0
-1521 -762 0
-1522 -809 0
-1523 -854 0
-1524 -898 0
-1525 -902 0
-1526 -906 0
-1527 -910 0
-1528 -914 0
-1529 -918 0
-1530 -922 0
-1531 -501 0
-1532 -558 0
-1533 -613 0
-1534 -666 0
-1535 -717 0
-1536 -766 0
-1537 -813 0
-1538 -858 0
-1539 -901 0
-1540 -943 0
-1541 -947 0
-1542 -951 0
-1543 -955 0
-1544 -959 0
-1545 -963 0
-1546 -505 0
-1547 -562 0
-1548 -617 0
-1549 -670 0
-1550 -721 0
-1551 -770 0
-1552 -817 0
-1553 -862 0
-1554 -905 0
-1555 -946 0
-1556 -986 0
-1557 -990 0
-1558 -994 0
-1559 -998 0
-1560 -1002 0
-1561 -509 0
-1562 -566 0
-1563 -621 0
-1564 -674 0
-1565 -725 0
-1566 -774 0
-1567 -821 0
-1568 -866 0
-1569 -909 0
-1570 -950 0
-1571 -989 0
-1572 -1027 0
-1573 -1031 0
-1574 -1035 0
-1575 -1039 0
-1576 -513 0
-1577 -570 0
-1578 -625 0
-1579 -678 0
-1580 -729 0
-1581 -778 0
-1582 -825 0
-1583 -870 0
-1584 -913 0
-1585 -954 0
-1586 -993 0
-1587 -1030 0
-1588 -1066 0
-1589 -1070 0
-1590 -1074 0
-1591 -517 0
-1592 -574 0
-1593 -629 0
-1594 -682 0
-1595 -733 0
-1596 -782 0
-1597 -829 0
-1598 -874 0
-1599 -917 0
-1600 -958 0
-1601 -997 0
-1602 -1034 0
-1603 -1069 0
-1604 -1103 0
-1605 -1107 0
-1606 -521 0
-1607 -578 0
-1608 -633 0
-1609 -686 0
-1610 -737 0
-1611 -786 0
-1612 -833 0
-1613 -878 0
-1614 -921 0
-1615 -962 0
-1616 -1001 0
-1617 -1038 0
-1618 -1073 0
-1619 -1106 0
-1620 -1138 0
467 1396 -1621 0
471 1397 -1622 0
475 1398 -1623 0
479 1399 -1624 0
483 1400 -1625 0
487 1401 -1626 0
491 1402 -1627 0
495 1403 -1628 0
499 1404 -1629 0
503 1405 -1630 0
507 1406 -1631 0
511 1407 -1632 0
515 1408 -1633 0
519 1409 -1634 0
523 1410 -1635 0
525 1411 -1636 0
528 1412 -1637 0
532 1413 -1638 0
536 1414 -1639 0
540 1415 -1640 0
544 1416 -1641 0
548 1417 -1642 0
552 1418 -1643 0
556 1419 -1644 0
560 1420 -1645 0
564 1421 -1646 0
568 1422 -1647 0
572 1423 -1648 0
576 1424 -1649 0
580 1425 -1650 0
582 1426 -1651 0
584 1427 -1652 0
587 1428 -1653 0
591 1429 -1654 0
595 1430 -1655 0
599 1431 -1656 0
603 1432 -1657 0
607 1433 -1658 0
611 1434 -1659 0
615 1435 -1660 0
619 1436 -1661 0
623 1437 -1662 0
627 1438 -1663 0
631 1439 -1664 0
635 1440 -1665 0
637 1441 -1666 0
639 1442 -1667 0
641 1443 -1668 0
644 1444 -1669 0
648 1445 -1670 0
652 1446 -1671 0
656 1447 -1672 0
660 1448 -1673 0
664 1449 -1674 0
668 1450 -1675 0
672 1451 -1676 0
676 1452 -1677 0
680 1453 -1678 0
684 1454 -1679 0
688 1455 -1680 0
690 1456 -1681 0
692 1457 -1682 0
694 1458 -1683 0
696 1459 -1684 0
699 1460 -1685 0
703 1461 -1686 0
707 1462 -1687 0
711 1463 -1688 0
715 1464 -1689 0
719 1465 -1690 0
723 1466 -1691 0
727 1467 -1692 0
731 1468 -1693 0
735 1469 -1694 0
739 1470 -1695 0
741 1471 -1696 0
743 1472 -1697 0
745 1473 -1698 0
747 1474 -1699 0
749 1475 -1700 0
752 1476 -1701 0
756 1477 -1702 0
760 1478 -1703 0
764 1479 -1704 0
768 1480 -1705 0
772 1481 -1706 0
776 1482 -1707 0
780 1483 -1708 0
784 1484 -1709 0
788 1485 -1710 0
790 1486 -1711 0
792 1487 -1712 0
794 1488 -1713 0
796 1489 -1714 0
798 1490 -1715 0
800 1491 -1716 0
803 1492 -1717 0
807 1493 -1718 0
811 1494 -1719 0
815 1495 -1720 0
819 1496 -1721 0
823 1497 -1722 0
827 1498 -1723 0
831 1499 -1724 0
835 1500 -1725 0
837 1501 -1726 0
839 1502 -1727 0
841 1503 -1728 0
843 1504 -1729 0
845 1505 -1730 0
847 1506 -1731 0
849 1507 -1732 0
852 1508 -1733 0
856 1509 -1734 0
860 1510 -1735 0
864 1511 -1736 0
868 1512 -1737 0
872 1513 -1738 0
876 1514 -1739 0
880 1515 -1740 0
882 1516 -1741 0
884 1517 -1742 0
886 1518 -1743 0
888 1519 -1744 0
890 1520 -1745 0
892 1521 -1746 0
894 1522 -1747 0
896 1523 -1748 0
899 1524 -1749 0
903 1525 -1750 0
907 1526 -1751 0
911 1527 -1752 0
915 1528 -1753 0
919 1529 -1754 0
923 1530 -1755 0
925 1531 -1756 0
927 1532 -1757 0
929 1533 -1758 0
931 1534 -1759 0
933 1535 -1760 0
935 1536 -1761 0
937 1537 -1762 0
939 1538 -1763 0
941 1539 -1764 0
944 1540 -1765 0
948 1541 -1766 0
952 1542 -1767 0
956 1543 -1768 0
960 1544 -1769 0
964 1545 -1770 0
966 1546 -1771 0
968 1547 -1772 0
970 1548 -1773 0
972 1549 -1774 0
974 1550 -1775 0
976 1551 -1776 0
978 1552 -1777 0
980 1553 -1778 0
982 1554 -1779 0
984 1555 -1780 0
987 1556 -1781 0
991 1557 -1782 0
995 1558 -1783 0
999 1559 -1784 0
1003 1560 -1785 0
1005 1561 -1786 0
1007 1562 -1787 0
1009 1563 -1788 0
1011 1564 -1789 0
1013 1565 -1790 0
1015 1566 -1791 0
1017 1567 -1792 0
1019 1568 -1793 0
1021 1569 -1794 0
1023 1570 -1795 0
1025 1571 -1796 0
1028 1572 -1797 0
1032 1573 -1798 0
1036 1574 -1799 0
1040 1575 -1800 0
1042 1576 -1801 0
1044 1577 -1802 0
1046 1578 -1803 0
1048 1579 -1804 0
1050 1580 -1805 0
1052 1581 -1806 0
1054 1582 -1807 0
1056 1583 -1808 0
1058 1584 -1809 0
1060 1585 -1810 0
1062 1586 -1811 0
1064 1587 -1812 0
1067 1588 -1813 0
1071 1589 -1814 0
1075 1590 -1815 0
1077 1591 -1816 0
1079 1592 -1817 0
1081 1593 -1818 0
1083 1594 -1819 0
1085 1595 -1820 0
1087 1596 -1821 0
1089 1597 -1822 0
1091 1598 -1823 0
1093 1599 -1824 0
1095 1600 -1825 0
1097 1601 -1826 0
1099 1602 -1827 0
1101 1603 -1828 0
1104 1604 -1829 0
1108 1605 -1830 0
1110 1606 -1831 0
1112 1607 -1832 0
1114 1608 -1833 0
1116 1609 -1834 0
1118 1610 -1835 0
1120 1611 -1836 0
1122 1612 -1837 0
1124 1613 -1838 0
1126 1614 -1839 0
1128 1615 -1840 0
1130 1616 -1841 0
1132 1617 -1842 0
1134 1618 -1843 0
1136 1619 -1844 0
1139 1620 -1845 0
1621 -467 0
1622 -471 0
1623 -475 0
1624 -479 0
1625 -483 0
1626 -487 0
1627 -491 0
1628 -495 0
1629 -499 0
1630 -503 0
1631 -507 0
1632 -511 0
1633 -515 0
1634 -519 0
1635 -523 0
1636 -525 0
1637 -528 0
1638 -532 0
1639 -536 0
1640 -540 0
1641 -544 0
1642 -548 0
1643 -552 0
1644 -556 0
1645 -560 0
1646 -564 0
1647 -568 0
1648 -572 0
1649 -576 0
1650 -580 0
1651 -582 0
1652 -584 0
1653 -587 0
1654 -591 0
1655 -595 0
1656 -599 0
1657 -603 0
1658 -607 0
1659 -611 0
1660 -615 0
1661 -619 0
1662 -623 0
1663 -627 0
1664 -631 0
1665 -635 0
1666 -637 0
1667 -639 0
1668 -641 0
1669 -644 0
1670 -648 0
1671 -652 0
1672 -656 0
1673 -660 0
1674 -664 0
1675 -668 0
1676 -672 0
1677 -676 0
1678 -680 0
1679 -684 0
1680 -688 0
1681 -690 0
1682 -692 0
1683 -694 0
1684 -696 0
1685 -699 0
1686 -703 0
1687 -707 0
1688 -711 0
1689 -715 0
1690 -719 0
1691 -723 0
1692 -727 0
1693 -731 0
1694 -735 0
1695 -739 0
1696 -741 0
1697 -743 0
1698 -745 0
1699 -747 0
1700 -749 0
1701 -752 0
1702 -756 0
1703 -760 0
1704 -764 0
1705 -768 0
1706 -772 0
1707 -776 0
1708 -780 0
1709 -784 0
1710 -788 0
1711 -790 0
1712 -792 0
1713 -794 0
1714 -796 0
1715 -798 0
1716 -800 0
1717 -803 0
1718 -807 0
1719 -811 0
1720 -815 0
1721 -819 0
1722 -823 0
1723 -827 0
1724 -831 0
1725 -835 0
1726 -837 0
1727 -839 0
1728 -841 0
1729 -843 0
1730 -845 0
1731 -847 0
1732 -849 0
1733 -852 0
1734 -856 0
1735 -860 0
1736 -864 0
1737 -868 0
1738 -872 0
1739 -876 0
1740 -880 0
1741 -882 0
1742 -884 0
1743 -886 0
1744 -888 0
1745 -890 0
1746 -892 0
1747 -894 0
1748 -896 0
1749 -899 0
1750 -903 0
1751 -907 0
1752 -911 0
1753 -915 0
1754 -919 0
1755 -923 0
1756 -925 0
1757 -927 0
1758 -929 0
1759 -931 0
1760 -933 0
1761 -935 0
1762 -937 0
1763 -939 0
1764 -941 0
1765 -944 0
1766 -948 0
1767 -952 0
1768 -956 0
1769 -960 0
1770 -964 0
1771 -966 0
1772 -968 0
1773 -970 0
1774 -972 0
1775 -974 0
1776 -976 0
1777 -978 0
1778 -980 0
1779 -982 0
1780 -984 0
1781 -987 0
1782 -991 0
1783 -995 0
1784 -999 0
1785 -1003 0
1786 -1005 0
1787 -1007 0
1788 -1009 0
1789 -1011 0
1790 -1013 0
1791 -1015 0
1792 -1017 0
1793 -1019 0
1794 -1021 0
1795 -1023 0
1796 -1025 0
1797 -1028 0
1798 -1032 0
1799 -1036 0
1800 -1040 0
1801 -1042 0
1802 -1044 0
1803 -1046 0
1804 -1048 0
1805 -1050 0
1806 -1052 0
1807 -1054 0
1808 -1056 0
1809 -1058 0
1810 -1060 0
1811 -1062 0
1812 -1064 0
1813 -1067 0
1814 -1071 0
1815 -1075 0
1816 -1077 0
1817 -1079 0
1818 -1081 0
1819 -1083 0
1820 -1085 0
1821 -1087 0
1822 -1089 0
1823 -1091 0
1824 -1093 0
1825 -1095 0
1826 -1097 0
1827 -1099 0
1828 -1101 0
1829 -1104 0
1830 -1108 0
1831 -1110 0
1832 -1112 0
1833 -1114 0
1834 -1116 0
1835 -1118 0
1836 -1120 0
1837 -1122 0
1838 -1124 0
1839 -1126 0
1840 -1128 0
1841 -1130 0
1842 -1132 0
1843 -1134 0
1844 -1136 0
1845 -1139 0
1621 -1396 0
1622 -1397 0
1623 -1398 0
1624 -1399 0
1625 -1400 0
1626 -1401 0
1627 -1402 0
1628 -1403 0
1629 -1404 0
1630 -1405 0
1631 -1406 0
1632 -1407 0
1633 -1408 0
1634 -1409 0
1635 -1410 0
1636 -1411 0
1637 -1412 0
1638 -1413 0
1639 -1414 0
1640 -1415 0
1641 -1416 0
1642 -1417 0
1643 -1418 0
1644 -1419 0
1645 -1420 0
1646 -1421 0
1647 -1422 0
1648 -1423 0
1649 -1424 0
1650 -1425 0
1651 -1426 0
1652 -1427 0
1653 -1428 0
1654 -1429 0
1655 -1430 0
1656 -1431 0
1657 -1432 0
1658 -1433 0
1659 -1434 0
1660 -1435 0
1661 -1436 0
1662 -1437 0
1663 -1438 0
1664 -1439 0
1665 -1440 0
1666 -1441 0
1667 -1442 0
1668 -1443 0
1669 -1444 0
1670 -1445 0
1671 -1446 0
1672 -1447 0
1673 -1448 0
1674 -1449 0
1675 -1450 0
1676 -1451 0
1677 -1452 0
1678 -1453 0
1679 -1454 0
1680 -1455 0
1681 -1456 0
1682 -1457 0
1683 -1458 0
1684 -1459 0
1685 -1460 0
1686 -1461 0
1687 -1462 0
1688 -1463 0
1689 -1464 0
1690 -1465 0
1691 -1466 0
1692 -1467 0
1693 -1468 0
1694 -1469 0
1695 -1470 0
1696 -1471 0
1697 -1472 0
1698 -1473 0
1699 -1474 0
1700 -1475 0
1701 -1476 0
1702 -1477 0
1703 -1478 0
1704 -1479 0
1705 -1480 0
1706 -1481 0
1707 -1482 0
1708 -1483 0
1709 -1484 0
1710 -1485 0
1711 -1486 0
1712 -1487 0
1713 -1488 0
1714 -1489 0
1715 -1490 0
1716 -1491 0
1717 -1492 0
1718 -1493 0
1719 -1494 0
1720 -1495 0
1721 -1496 0
1722 -1497 0
1723 -1498 0
1724 -1499 0
1725 -1500 0
1726 -1501 0
1727 -1502 0
1728 -1503 0
1729 -1504 0
1730 -1505 0
1731 -1506 0
1732 -1507 0
1733 -1508 0
1734 -1509 0
1735 -1510 0
1736 -1511 0
1737 -1512 0
1738 -1513 0
1739 -1514 0
1740 -1515 0
1741 -1516 0
1742 -1517 0
1743 -1518 0
1744 -1519 0
1745 -1520 0
1746 -1521 0
1747 -1522 0
1748 -1523 0
1749 -1524 0
1750 -1525 0
1751 -1526 0
1752 -1527 0
1753 -1528 0
1754 -1529 0
1755 -1530 0
1756 -1531 0
1757 -1532 0
1758 -1533 0
1759 -1534 0
1760 -1535 0
1761 -1536 0
1762 -1537 0
1763 -1538 0
1764 -1539 0
1765 -1540 0
1766 -1541 0
1767 -1542 0
1768 -1543 0
1769 -1544 0
1770 -1545 0
1771 -1546 0
1772 -1547 0
1773 -1548 0
1774 -1549 0
1775 -1550 0
1776 -1551 0
1777 -1552 0
1778 -1553 0
1779 -1554 0
1780 -1555 0
1781 -1556 0
1782 -1557 0
1783 -1558 0
1784 -1559 0
1785 -1560 0
1786 -1561 0
1787 -1562 0
1788 -1563 0
1789 -1564 0
1790 -1565 0
1791 -1566 0
1792 -1567 0
1793 -1568 0
1794 -1569 0
1795 -1570 0
1796 -1571 0
1797 -1572 0
1798 -1573 0
1799 -1574 0
1800 -1575 0
1801 -1576 0
1802 -1577 0
1803 -1578 0
1804 -1579 0
1805 -1580 0
1806 -1581 0
1807 -1582 0
1808 -1583 0
1809 -1584 0
1810 -1585 0
1811 -1586 0
1812 -1587 0
1813 -1588 0
1814 -1589 0
1815 -1590 0
1816 -1591 0
1817 -1592 0
1818 -1593 0
1819 -1594 0
1820 -1595 0
1821 -1596 0
1822 -1597 0
1823 -1598 0
1824 -1599 0
1825 -1600 0
1826 -1601 0
1827 -1602 0
1828 -1603 0
1829 -1604 0
1830 -1605 0
1831 -1606 0
1832 -1607 0
1833 -1608 0
1834 -1609 0
1835 -1610 0
1836 -1611 0
1837 -1612 0
1838 -1613 0
1839 -1614 0
1840 -1615 0
1841 -1616 0
1842 -1617 0
1843 -1618 0
1844 -1619 0
1845 -1620 0
-1846 -2 -2 1847 0
-1848 -2 -5 1849 0
-1850 -2 -8 1851 0
-1852 -2 -11 1853 0
-1854 -2 -14 1855 0
-1856 -2 -17 1857 0
-1858 -2 -20 1859 0
-1860 -2 -23 1861 0
-1862 -2 -26 1863 0
-1864 -2 -29 1865 0
-1866 -2 -32 1867 0
-1868 -2 -35 1869 0
-1870 -2 -38 1871 0
-1872 -2 -41 1873 0
-1874 -2 -44 1875 0
-1876 -5 -2 1877 0
-1878 -5 -5 1879 0
-1880 -5 -8 1881 0
-1882 -5 -11 1883 0
-1884 -5 -14 1885 0
-1886 -5 -17 1887 0
-1888 -5 -20 1889 0
-1890 -5 -23 1891 0
-1892 -5 -26 1893 0
-1894 -5 -29 1895 0
-1896 -5 -32 1897 0
-1898 -5 -35 1899 0
-1900 -5 -38 1901 0
-1902 -5 -41 1903 0
-1904 -5 -44 1905 0
-1906 -8 -2 1907 0
-1908 -8 -5 1909 0
-1910 -8 -8 1911 0
-1912 -8 -11 1913 0
-1914 -8 -14 1915 0
-1916 -8 -17 1917 0
-1918 -8 -20 1919 0
-1920 -8 -23 1921 0
-1922 -8 -26 1923 0
-1924 -8 -29 1925 0
-1926 -8 -32 1927 0
-1928 -8 -35 1929 0
-1930 -8 -38 1931 0
-1932 -8 -41 1933 0
-1934 -8 -44 1935 0
-1936 -11 -2 1937 0
-1938 -11 -5 1939 0
-1940 -11 -8 1941 0
-1942 -11 -11 1943 0
-1944 -11 -14 1945 0
-1946 -11 -17 1947 0
-1948 -11 -20 1949 0
-1950 -11 -23 1951 0
-1952 -11 -26 1953 0
-1954 -11 -29 1955 0
-1956 -11 -32 1957 0
-1958 -11 -35 1959 0
-1960 -11 -38 1961 0
-1962 -11 -41 1963 0
-1964 -11 -44 1965 0
-1966 -14 -2 1967 0
-1968 -14 -5 1969 0
-1970 -14 -8 1971 0
-1972 -14 -11 1973 0
-1974 -14 -14 1975 0
-1976 -14 -17 1977 0
-1978 -14 -20 1979 0
-1980 -14 -23 1981 0
-1982 -14 -26 1983 0
-1984 -14 -29 1985 0
-1986 -14 -32 1987 0
-1988 -14 -35 1989 0
-1990 -14 -38 1991 0
-1992 -14 -41 1993 0
-1994 -14 -44 1995 0
-1996 -17 -2 1997 0
-1998 -17 -5 1999 0
-2000 -17 -8 2001 0
-2002 -17 -11 2003 0
-2004 -17 -14 2005 0
-2006 -17 -17 2007 0
-2008 -17 -20 2009 0
-2010 -17 -23 2011 0
-2012 -17 -26 2013 0
-2014 -17 -29 2015 0
-2016 -17 -32 2017 0
-2018 -17 -35 2019 0
-2020 -17 -38 2021 0
-2022 -17 -41 2023 0
-2024 -17 -44 2025 0
-2026 -20 -2 2027 0
-2028 -20 -5 2029 0
-2030 -20 -8 2031 0
-2032 -20 -11 2033 0
-2034 -20 -14 2035 0
-2036 -20 -17 2037 0
-2038 -20 -20 2039 0
-2040 -20 -23 2041 0
-2042 -20 -26 2043 0
-2044 -20 -29 2045 0
-2046 -20 -32 2047 0
-2048 -20 -35 2049 0
-2050 -20 -38 2051 0
-2052 -20 -41 2053 0
-2054 -20 -44 2055 0
-2056 -23 -2 2057 0
-2058 -23 -5 2059 0
-2060 -23 -8 2061 0
-2062 -23 -11 2063 0
-2064 -23 -14 2065 0
-2066 -23 -17 2067 0
-2068 -23 -20 2069 0
-2070 -23 -23 2071 0
-2072 -23 -26 2073 0
-2074 -23 -29 2075 0
-2076 -23 -32 2077 0
-2078 -23 -35 2079 0
-2080 -23 -38 2081 0
-2082 -23 -41 2083 0
-2084 -23 -44 2085 0
-2086 -26 -2 2087 0
-2088 -26 -5 2089 0
-2090 -26 -8 2091 0
-2092 -26 -11 2093 0
-2094 -26 -14 2095 0
-2096 -26 -17 2097 0
-2098 -26 -20 2099 0
-2100 -26 -23 2101 0
-2102 -26 -26 2103 0
-2104 -26 -29 2105 0
-2106 -26 -32 2107 0
-2108 -26 -35 2109 0
-2110 -26 -38 2111 0
-2112 -26 -41 2113 0
-2114 -26 -44 2115 0
-2116 -29 -2 2117 0
-2118 -29 -5 2119 0
-2120 -29 -8 2121 0
-2122 -29 -11 2123 0
-2124 -29 -14 2125 0
-2126 -29 -17 2127 0
-2128 -29 -20 2129 0
-2130 -29 -23 2131 0
-2132 -29 -26 2133 0
-2134 -29 -29 2135 0
-2136 -29 -32 2137 0
-2138 -29 -35 2139 0
-2140 -29 -38 2141 0
-2142 -29 -41 2143 0
-2144 -29 -44 2145 0
-2146 -32 -2 2147 0
-2148 -32 -5 2149 0
-2150 -32 -8 2151 0
-2152 -32 -11 2153 0
-2154 -32 -14 2155 0
-2156 -32 -17 2157 0
-2158 -32 -20 2159 0
-2160 -32 -23 2161 0
-2162 -32 -26 2163 0
-2164 -32 -29 2165 0
-2166 -32 -32 2167 0
-2168 -32 -35 2169 0
-2170 -32 -38 2171 0
-2172 -32 -41 2173 0
-2174 -32 -44 2175 0
-2176 -35 -2 2177 0
-2178 -35 -5 2179 0
-2180 -35 -8 2181 0
-2182 -35 -11 2183 0
-2184 -35 -14 2185 0
-2186 -35 -17 2187 0
-2188 -35 -20 2189 0
-2190 -35 -23 2191 0
-2192 -35 -26 2193 0
-2194 -35 -29 2195 0
-2196 -35 -32 2197 0
-2198 -35 -35 2199 0
-2200 -35 -38 2201 0
-2202 -35 -41 2203 0
-2204 -35 -44 2205 0
-2206 -38 -2 2207 0
-2208 -38 -5 2209 0
-2210 -38 -8 2211 0
-2212 -38 -11 2213 0
-2214 -38 -14 2215 0
-2216 -38 -17 2217 0
-2218 -38 -20 2219 0
-2220 -38 -23 2221 0
-2222 -38 -26 2223 0
-2224 -38 -29 2225 0
-2226 -38 -32 2227 0
-2228 -38 -35 2229 0
-2230 -38 -38 2231 0
-2232 -38 -41 2233 0
-2234 -38 -44 2235 0
-2236 -41 -2 2237 0
-2238 -41 -5 2239 0
-2240 -41 -8 2241 0
-2242 -41 -11 2243 0
-2244 -41 -14 2245 0
-2246 -41 -17 2247 0
-2248 -41 -20 2249 0
-2250 -41 -23 2251 0
-2252 -41 -26 2253 0
-2254 -41 -29 2255 0
-2256 -41 -32 2257 0
-2258 -41 -35 2259 0
-2260 -41 -38 2261 0
-2262 -41 -41 2263 0
-2264 -41 -44 2265 0
-2266 -44 -2 2267 0
-2268 -44 -5 2269 0
-2270 -44 -8 2271 0
-2272 -44 -11 2273 0
-2274 -44 -14 2275 0
-2276 -44 -17 2277 0
-2278 -44 -20 2279 0
-2280 -44 -23 2281 0
-2282 -44 -26 2283 0
-2284 -44 -29 2285 0
-2286 -44 -32 2287 0
-2288 -44 -35 2289 0
-2290 -44 -38 2291 0
-2292 -44 -41 2293 0
-2294 -44 -44 2295 0
-1847 1846 0
-1849 1848 0
-1851 1850 0
-1853 1852 0
-1855 1854 0
-1857 1856 0
-1859 1858 0
-1861 1860 0
-1863 1862 0
-1865 1864 0
-1867 1866 0
-1869 1868 0
-1871 1870 0
-1873 1872 0
-1875 1874 0
-1877 1876 0
-1879 1878 0
-1881 1880 0
-1883 1882 0
-1885 1884 0
-1887 1886 0
-1889 1888 0
-1891 1890 0
-1893 1892 0
-1895 1894 0
-1897 1896 0
-1899 1898 0
-1901 1900 0
-1903 1902 0
-1905 1904 0
-1907 1906 0
-1909 1908 0
-1911 1910 0
-1913 1912 0
-1915 1914 0
-1917 1916 0
-1919 1918 0
-1921 1920 0
-1923 1922 0
-1925 1924 0
-1927 1926 0
-1929 1928 0
-1931 1930 0
-1933 1932 0
-1935 1934 0
-1937 1936 0
-1939 1938 0
-1941 1940 0
-1943 1942 0
-1945 1944 0
-1947 1946 0
-1949 1948 0
-1951 1950 0
-1953 1952 0
-1955 1954 0
-1957 1956 0
-1959 1958 0
-1961 1960 0
-1963 1962 0
-1965 1964 0
-1967 1966 0
-1969 1968 0
-1971 1970 0
-1973 1972 0
-1975 1974 0
-1977 1976 0
-1979 1978 0
-1981 1980 0
-1983 1982 0
-1985 1984 0
-1987 1986 0
-1989 1988 0
-1991 1990 0
-1993 1992 0
-1995 1994 0
-1997 1996 0
-1999 1998 0
-2001 2000 0
-2003 2002 0
-2005 2004 0
-2007 2006 0
-2009 2008 0
-2011 2010 0
-2013 2012 0
-2015 2014 0
-2017 2016 0
-2019 2018 0
-2021 2020 0
-2023 2022 0
-2025 2024 0
-2027 2026 0
-2029 2028 0
-2031 2030 0
-2033 2032 0
-2035 2034 0
-2037 2036 0
-2039 2038 0
-2041 2040 0
-2043 2042 0
-2045 2044 0
-2047 2046 0
-2049 2048 0
-2051 2050 0
-2053 2052 0
-2055 2054 0
-2057 2056 0
-2059 2058 0
-2061 2060 0
-2063 2062 0
-2065 2064 0
-2067 2066 0
-2069 2068 0
-2071 2070 0
-2073 2072 0
-2075 2074 0
-2077 2076 0
-2079 2078 0
-2081 2080 0
-2083 2082 0
-2085 2084 0
-2087 2086 0
-2089 2088 0
-2091 2090 0
-2093 2092 0
-2095 2094 0
-2097 2096 0
-2099 2098 0
-2101 2100 0
-2103 2102 0
-2105 2104 0
-2107 2106 0
-2109 2108 0
-2111 2110 0
-2113 2112 0
-2115 2114 0
-2117 2116 0
-2119 2118 0
-2121 2120 0
-2123 2122 0
-2125 2124 0
-2127 2126 0
-2129 2128 0
-2131 2130 0
-2133 2132 0
-2135 2134 0
-2137 2136 0
-2139 2138 0
-2141 2140 0
-2143 2142 0
-2145 2144 0
-2147 2146 0
-2149 2148 0
-2151 2150 0
-2153 2152 0
-2155 2154 0
-2157 2156 0
-2159 2158 0
-2161 2160 0
-2163 2162 0
-2165 2164 0
-2167 2166 0
-2169 2168 0
-2171 2170 0
-2173 2172 0
-2175 2174 0
-2177 2176 0
-2179 2178 0
-2181 2180 0
-2183 2182 0
-2185 2184 0
-2187 2186 0
-2189 2188 0
-2191 2190 0
-2193 2192 0
-2195 2194 0
-2197 2196 0
-2199 2198 0
-2201 2200 0
-2203 2202 0
-2205 2204 0
-2207 2206 0
-2209 2208 0
-2211 2210 0
-2213 2212 0
-2215 2214 0
-2217 2216 0
-2219 2218 0
-2221 2220 0
-2223 2222 0
-2225 2224 0
-2227 2226 0
-2229 2228 0
-2231 2230 0
-2233 2232 0
-2235 2234 0
-2237 2236 0
-2239 2238 0
-2241 2240 0
-2243 2242 0
-2245 2244 0
-2247 2246 0
-2249 2248 0
-2251 2250 0
-2253 2252 0
-2255 2254 0
-2257 2256 0
-2259 2258 0
-2261 2260 0
-2263 2262 0
-2265 2264 0
-2267 2266 0
-2269 2268 0
-2271 2270 0
-2273 2272 0
-2275 2274 0
-2277 2276 0
-2279 2278 0
-2281 2280 0
-2283 2282 0
-2285 2284 0
-2287 2286 0
-2289 2288 0
-2291 2290 0
-2293 2292 0
-2295 2294 0
-1847 2 0
-1849 2 0
-1851 2 0
-1853 2 0
-1855 2 0
-1857 2 0
-1859 2 0
-1861 2 0
-1863 2 0
-1865 2 0
-1867 2 0
-1869 2 0
-1871 2 0
-1873 2 0
-1875 2 0
-1877 5 0
-1879 5 0
-1881 5 0
-1883 5 0
-1885 5 0
-1887 5 0
-1889 5 0
-1891 5 0
-1893 5 0
-1895 5 0
-1897 5 0
-1899 5 0
-1901 5 0
-1903 5 0
-1905 5 0
-1907 8 0
-1909 8 0
-1911 8 0
-1913 8 0
-1915 8 0
-1917 8 0
-1919 8 0
-1921 8 0
-1923 8 0
-1925 8 0
-1927 8 0
-1929 8 0
-1931 8 0
-1933 8 0
-1935 8 0
-1937 11 0
-1939 11 0
-1941 11 0
-1943 11 0
-1945 11 0
-1947 11 0
-1949 11 0
-1951 11 0
-1953 11 0
-1955 11 0
-1957 11 0
-1959 11 0
-1961 11 0
-1963 11 0
-1965 11 0
-1967 14 0
-1969 14 0
-1971 14 0
-1973 14 0
-1975 14 0
-1977 14 0
-1979 14 0
-1981 14 0
-1983 14 0
-1985 14 0
-1987 14 0
-1989 14 0
-1991 14 0
-1993 14 0
-1995 14 0
-1997 17 0
-1999 17 0
-2001 17 0
-2003 17 0
-2005 17 0
-2007 17 0
-2009 17 0
-2011 17 0
-2013 17 0
-2015 17 0
-2017 17 0
-2019 17 0
-2021 17 0
-2023 17 0
-2025 17 0
-2027 20 0
-2029 20 0
-2031 20 0
-2033 20 0
-2035 20 0
-2037 20 0
-2039 20 0
-2041 20 0
-2043 20 0
-2045 20 0
-2047 20 0
-2049 20 0
-2051 20 0
-2053 20 0
-2055 20 0
-2057 23 0
-2059 23 0
-2061 23 0
-2063 23 0
-2065 23 0
-2067 23 0
-2069 23 0
-2071 23 0
-2073 23 0
-2075 23 0
-2077 23 0
-2079 23 0
-2081 23 0
-2083 23 0
-2085 23 0
-2087 26 0
-2089 26 0
-2091 26 0
-2093 26 0
-2095 26 0
-2097 26 0
-2099 26 0
-2101 26 0
-2103 26 0
-2105 26 0
-2107 26 0
-2109 26 0
-2111 26 0
-2113 26 0
-2115 26 0
-2117 29 0
-2119 29 0
-2121 29 0
-2123 29 0
-2125 29 0
-2127 29 0
-2129 29 0
-2131 29 0
-2133 29 0
-2135 29 0
-2137 29 0
-2139 29 0
-2141 29 0
-2143 29 0
-2145 29 0
-2147 32 0
-2149 32 0
-2151 32 0
-2153 32 0
-2155 32 0
-2157 32 0
-2159 32 0
-2161 32 0
-2163 32 0
-2165 32 0
-2167 32 0
-2169 32 0
-2171 32 0
-2173 32 0
-2175 32 0
-2177 35 0
-2179 35 0
-2181 35 0
-2183 35 0
-2185 35 0
-2187 35 0
-2189 35 0
-2191 35 0
-2193 35 0
-2195 35 0
-2197 35 0
-2199 35 0
-2201 35 0
-2203 35 0
-2205 35 0
-2207 38 0
-2209 38 0
-2211 38 0
-2213 38 0
-2215 38 0
-2217 38 0
-2219 38 0
-2221 38 0
-2223 38 0
-2225 38 0
-2227 38 0
-2229 38 0
-2231 38 0
-2233 38 0
-2235 38 0
-2237 41 0
-2239 41 0
-2241 41 0
-2243 41 0
-2245 41 0
-2247 41 0
-2249 41 0
-2251 41 0
-2253 41 0
-2255 41 0
-2257 41 0
-2259 41 0
-2261 41 0
-2263 41 0
-2265 41 0
-2267 44 0
-2269 44 0
-2271 44 0
-2273 44 0
-2275 44 0
-2277 44 0
-2279 44 0
-2281 44 0
-2283 44 0
-2285 44 0
-2287 44 0
-2289 44 0
-2291 44 0
-2293 44 0
-2295 44 0
-1847 2 0
-1849 5 0
-1851 8 0
-1853 11 0
-1855 14 0
-1857 17 0
-1859 20 0
-1861 23 0
-1863 26 0
-1865 29 0
-1867 32 0
-1869 35 0
-1871 38 0
-1873 41 0
-1875 44 0
-1877 2 0
-1879 5 0
-1881 8 0
-1883 11 0
-1885 14 0
-1887 17 0
-1889 20 0
-1891 23 0
-1893 26 0
-1895 29 0
-1897 32 0
-1899 35 0
-1901 38 0
-1903 41 0
-1905 44 0
-1907 2 0
-1909 5 0
-1911 8 0
-1913 11 0
-1915 14 0
-1917 17 0
-1919 20 0
-1921 23 0
-1923 26 0
-1925 29 0
-1927 32 0
-1929 35 0
-1931 38 0
-1933 41 0
-1935 44 0
-1937 2 0
-1939 5 0
-1941 8 0
-1943 11 0
-1945 14 0
-1947 17 0
-1949 20 0
-1951 23 0
-1953 26 0
-1955 29 0
-1957 32 0
-1959 35 0
-1961 38 0
-1963 41 0
-1965 44 0
-1967 2 0
-1969 5 0
-1971 8 0
-1973 11 0
-1975 14 0
-1977 17 0
-1979 20 0
-1981 23 0
-1983 26 0
-1985 29 0
-1987 32 0
-1989 35 0
-1991 38 0
-1993 41 0
-1995 44 0
-1997 2 0
-1999 5 0
-2001 8 0
-2003 11 0
-2005 14 0
-2007 17 0
-2009 20 0
-2011 23 0
-2013 26 0
-2015 29 0
-2017 32 0
-2019 35 0
-2021 38 0
-2023 41 0
-2025 44 0
-2027 2 0
-2029 5 0
-2031 8 0
-2033 11 0
-2035 14 0
-2037 17 0
-2039 20 0
-2041 23 0
-2043 26 0
-2045 29 0
-2047 32 0
-2049 35 0
-2051 38 0
-2053 41 0
-2055 44 0
-2057 2 0
-2059 5 0
-2061 8 0
-2063 11 0
-2065 14 0
-2067 17 0
-2069 20 0
-2071 23 0
-2073 26 0
-2075 29 0
-2077 32 0
-2079 35 0
-2081 38 0
-2083 41 0
-2085 44 0
-2087 2 0
-2089 5 0
-2091 8 0
-2093 11 0
-2095 14 0
-2097 17 0
-2099 20 0
-2101 23 0
-2103 26 0
-2105 29 0
-2107 32 0
-2109 35 0
-2111 38 0
-2113 41 0
-2115 44 0
-2117 2 0
-2119 5 0
-2121 8 0
-2123 11 0
-2125 14 0
-2127 17 0
-2129 20 0
-2131 23 0
-2133 26 0
-2135 29 0
-2137 32 0
-2139 35 0
-2141 38 0
-2143 41 0
-2145 44 0
-2147 2 0
-2149 5 0
-2151 8 0
-2153 11 0
-2155 14 0
-2157 17 0
-2159 20 0
-2161 23 0
-2163 26 0
-2165 29 0
-2167 32 0
-2169 35 0
-2171 38 0
-2173 41 0
-2175 44 0
-2177 2 0
-2179 5 0
-2181 8 0
-2183 11 0
-2185 14 0
-2187 17 0
-2189 20 0
-2191 23 0
-2193 26 0
-2195 29 0
-2197 32 0
-2199 35 0
-2201 38 0
-2203 41 0
-2205 44 0
-2207 2 0
-2209 5 0
-2211 8 0
-2213 11 0
-2215 14 0
-2217 17 0
-2219 20 0
-2221 23 0
-2223 26 0
-2225 29 0
-2227 32 0
-2229 35 0
-2231 38 0
-2233 41 0
-2235 44 0
-2237 2 0
-2239 5 0
-2241 8 0
-2243 11 0
-2245 14 0
-2247 17 0
-2249 20 0
-2251 23 0
-2253 26 0
-2255 29 0
-2257 32 0
-2259 35 0
-2261 38 0
-2263 41 0
-2265 44 0
-2267 2 0
-2269 5 0
-2271 8 0
-2273 11 0
-2275 14 0
-2277 17 0
-2279 20 0
-2281 23 0
-2283 26 0
-2285 29 0
-2287 32 0
-2289 35 0
-2291 38 0
-2293 41 0
-2295 44 0
-466 1847 -2296 0
-469 1849 -2297 0
-473 1851 -2298 0
-477 1853 -2299 0
-481 1855 -2300 0
-485 1857 -2301 0
-489 1859 -2302 0
-493 1861 -2303 0
-497 1863 -2304 0
-501 1865 -2305 0
-505 1867 -2306 0
-509 1869 -2307 0
-513 1871 -2308 0
-517 1873 -2309 0
-521 1875 -2310 0
-470 1877 -2311 0
-527 1879 -2312 0
-530 1881 -2313 0
-534 1883 -2314 0
-538 1885 -2315 0
-542 1887 -2316 0
-546 1889 -2317 0
-550 1891 -2318 0
-554 1893 -2319 0
-558 1895 -2320 0
-562 1897 -2321 0
-566 1899 -2322 0
-570 1901 -2323 0
-574 1903 -2324 0
-578 1905 -2325 0
-474 1907 -2326 0
-531 1909 -2327 0
-586 1911 -2328 0
-589 1913 -2329 0
-593 1915 -2330 0
-597 1917 -2331 0
-601 1919 -2332 0
-605 1921 -2333 0
-609 1923 -2334 0
-613 1925 -2335 0
-617 1927 -2336 0
-621 1929 -2337 0
-625 1931 -2338 0
-629 1933 -2339 0
-633 1935 -2340 0
-478 1937 -2341 0
-535 1939 -2342 0
-590 1941 -2343 0
-643 1943 -2344 0
-646 1945 -2345 0
-650 1947 -2346 0
-654 1949 -2347 0
-658 1951 -2348 0
-662 1953 -2349 0
-666 1955 -2350 0
-670 1957 -2351 0
-674 1959 -2352 0
-678 1961 -2353 0
-682 1963 -2354 0
-686 1965 -2355 0
-482 1967 -2356 0
-539 1969 -2357 0
-594 1971 -2358 0
-647 1973 -2359 0
-698 1975 -2360 0
-701 1977 -2361 0
-705 1979 -2362 0
-709 1981 -2363 0
-713 1983 -2364 0
-717 1985 -2365 0
-721 1987 -2366 0
-725 1989 -2367 0
-729 1991 -2368 0
-733 1993 -2369 0
-737 1995 -2370 0
-486 1997 -2371 0
-543 1999 -2372 0
-598 2001 -2373 0
-651 2003 -2374 0
-702 2005 -2375 0
-751 2007 -2376 0
-754 2009 -2377 0
-758 2011 -2378 0
-762 2013 -2379 0
-766 2015 -2380 0
-770 2017 -2381 0
-774 2019 -2382 0
-778 2021 -2383 0
-782 2023 -2384 0
-786 2025 -2385 0
-490 2027 -2386 0
-547 2029 -2387 0
-602 2031 -2388 0
-655 2033 -2389 0
-706 2035 -2390 0
-755 2037 -2391 0
-802 2039 -2392 0
-805 2041 -2393 0
-809 2043 -2394 0
-813 2045 -2395 0
-817 2047 -2396 0
-821 2049 -2397 0
-825 2051 -2398 0
-829 2053 -2399 0
-833 2055 -2400 0
-494 2057 -2401 0
-551 2059 -2402 0
-606 2061 -2403 0
-659 2063 -2404 0
-710 2065 -2405 0
-759 2067 -2406 0
-806 2069 -2407 0
-851 2071 -2408 0
-854 2073 -2409 0
-858 2075 -2410 0
-862 2077 -2411 0
-866 2079 -2412 0
-870 2081 -2413 0
-874 2083 -2414 0
-878 2085 -2415 0
-498 2087 -2416 0
-555 2089 -2417 0
-610 2091 -2418 0
-663 2093 -2419 0
-714 2095 -2420 0
-763 2097 -2421 0
-810 2099 -2422 0
-855 2101 -2423 0
-898 2103 -2424 0
-901 2105 -2425 0
-905 2107 -2426 0
-909 2109 -2427 0
-913 2111 -2428 0
-917 2113 -2429 0
-921 2115 -2430 0
-502 2117 -2431 0
-559 2119 -2432 0
-614 2121 -2433 0
-667 2123 -2434 0
-718 2125 -2435 0
-767 2127 -2436 0
-814 2129 -2437 0
-859 2131 -2438 0
-902 2133 -2439 0
-943 2135 -2440 0
-946 2137 -2441 0
-950 2139 -2442 0
-954 2141 -2443 0
-958 2143 -2444 0
-962 2145 -2445 0
-506 2147 -2446 0
-563 2149 -2447 0
-618 2151 -2448 0
-671 2153 -2449 0
-722 2155 -2450 0
-771 2157 -2451 0
-818 2159 -2452 0
-863 2161 -2453 0
-906 2163 -2454 0
-947 2165 -2455 0
-986 2167 -2456 0
-989 2169 -2457 0
-993 2171 -2458 0
-997 2173 -2459 0
-1001 2175 -2460 0
-510 2177 -2461 0
-567 2179 -2462 0
-622 2181 -2463 0
-675 2183 -2464 0
-726 2185 -2465 0
-775 2187 -2466 0
-822 2189 -2467 0
-867 2191 -2468 0
-910 2193 -2469 0
-951 2195 -2470 0
-990 2197 -2471 0
-1027 2199 -2472 0
-1030 2201 -2473 0
-1034 2203 -2474 0
-1038 2205 -2475 0
-514 2207 -2476 0
-571 2209 -2477 0
-626 2211 -2478 0
-679 2213 -2479 0
-730 2215 -2480 0
-779 2217 -2481 0
-826 2219 -2482 0
-871 2221 -2483 0
-914 2223 -2484 0
-955 2225 -2485 0
-994 2227 -2486 0
-1031 2229 -2487 0
-1066 2231 -2488 0
-1069 2233 -2489 0
-1073 2235 -2490 0
-518 2237 -2491 0
-575 2239 -2492 0
-630 2241 -2493 0
-683 2243 -2494 0
-734 2245 -2495 0
-783 2247 -2496 0
-830 2249 -2497 0
-875 2251 -2498 0
-918 2253 -2499 0
-959 2255 -2500 0
-998 2257 -2501 0
-1035 2259 -2502 0
-1070 2261 -2503 0
-1103 2263 -2504 0
-1106 2265 -2505 0
-522 2267 -2506 0
-579 2269 -2507 0
-634 2271 -2508 0
-687 2273 -2509 0
-738 2275 -2510 0
-787 2277 -2511 0
-834 2279 -2512 0
-879 2281 -2513 0
-922 2283 -2514 0
-963 2285 -2515 0
-1002 2287 -2516 0
-1039 2289 -2517 0
-1074 2291 -2518 0
-1107 2293 -2519 0
-1138 2295 -2520 0
2296 466 0
2297 469 0
2298 473 0
2299 477 0
2300 481 0
2301 485 0
2302 489 0
2303 493 0
2304 497 0
2305 501 0
2306 505 0
2307 509 0
2308 513 0
2309 517 0
2310 521 0
2311 470 0
2312 527 0
2313 530 0
2314 534 0
2315 538 0
2316 542 0
2317 546 0
2318 550 0
2319 554 0
2320 558 0
2321 562 0
2322 566 0
2323 570 0
2324 574 0
2325 578 0
2326 474 0
2327 531 0
2328 586 0
2329 589 0
2330 593 0
2331 597 0
2332 601 0
2333 605 0
2334 609 0
2335 613 0
2336 617 0
2337 621 0
2338 625 0
2339 629 0
2340 633 0
2341 478 0
2342 535 0
2343 590 0
2344 643 0
2345 646 0
2346 650 0
2347 654 0
2348 658 0
2349 662 0
2350 666 0
2351 670 0
2352 674 0
2353 678 0
2354 682 0
2355 686 0
2356 482 0
2357 539 0
2358 594 0
2359 647 0
2360 698 0
2361 701 0
2362 705 0
2363 709 0
2364 713 0
2365 717 0
2366 721 0
2367 725 0
2368 729 0
2369 733 0
2370 737 0
2371 486 0
2372 543 0
2373 598 0
2374 651 0
2375 702 0
2376 751 0
2377 754 0
2378 758 0
2379 762 0
2380 766 0
2381 770 0
2382 774 0
2383 778 0
2384 782 0
2385 786 0
2386 490 0
2387 547 0
2388 602 0
2389 655 0
2390 706 0
2391 755 0
2392 802 0
2393 805 0
2394 809 0
2395 813 0
2396 817 0
2397 821 0
2398 825 0
2399 829 0
2400 833 0
2401 494 0
2402 551 0
2403 606 0
2404 659 0
2405 710 0
2406 759 0
2407 806 0
2408 851 0
2409 854 0
2410 858 0
2411 862 0
2412 866 0
2413 870 0
2414 874 0
2415 878 0
2416 498 0
2417 555 0
2418 610 0
2419 663 0
2420 714 0
2421 763 0
2422 810 0
2423 855 0
2424 898 0
2425 901 0
2426 905 0
2427 909 0
2428 913 0
2429 917 0
2430 921 0
2431 502 0
2432 559 0
2433 614 0
2434 667 0
2435 718 0
2436 767 0
2437 814 0
2438 859 0
2439 902 0
2440 943 0
2441 946 0
2442 950 0
2443 954 0
2444 958 0
2445 962 0
2446 506 0
2447 563 0
2448 618 0
2449 671 0
2450 722 0
2451 771 0
2452 818 0
2453 863 0
2454 906 0
2455 947 0
2456 986 0
2457 989 0
2458 993 0
2459 997 0
2460 1001 0
2461 510 0
2462 567 0
2463 622 0
2464 675 0
2465 726 0
2466 775 0
2467 822 0
2468 867 0
2469 910 0
2470 951 0
2471 990 0
2472 1027 0
2473 1030 0
2474 1034 0
2475 1038 0
2476 514 0
2477 571 0
2478 626 0
2479 679 0
2480 730 0
2481 779 0
2482 826 0
2483 871 0
2484 914 0
2485 955 0
2486 994 0
2487 1031 0
2488 1066 0
2489 1069 0
2490 1073 0
2491 518 0
2492 575 0
2493 630 0
2494 683 0
2495 734 0
2496 783 0
2497 830 0
2498 875 0
2499 918 0
2500 959 0
2501 998 0
2502 1035 0
2503 1070 0
2504 1103 0
2505 1106 0
2506 522 0
2507 579 0
2508 634 0
2509 687 0
2510 738 0
2511 787 0
2512 834 0
2513 879 0
2514 922 0
2515 963 0
2516 1002 0
2517 1039 0
2518 1074 0
2519 1107 0
2520 1138 0
2296 -1847 0
2297 -1849 0
2298 -1851 0
2299 -1853 0
2300 -1855 0
2301 -1857 0
2302 -1859 0
2303 -1861 0
2304 -1863 0
2305 -1865 0
2306 -1867 0
2307 -1869 0
2308 -1871 0
2309 -1873 0
2310 -1875 0
2311 -1877 0
2312 -1879 0
2313 -1881 0
2314 -1883 0
2315 -1885 0
2316 -1887 0
2317 -1889 0
2318 -1891 0
2319 -1893 0
2320 -1895 0
2321 -1897 0
2322 -1899 0
2323 -1901 0
2324 -1903 0
2325 -1905 0
2326 -1907 0
2327 -1909 0
2328 -1911 0
2329 -1913 0
2330 -1915 0
2331 -1917 0
2332 -1919 0
2333 -1921 0
2334 -1923 0
2335 -1925 0
2336 -1927 0
2337 -1929 0
2338 -1931 0
2339 -1933 0
2340 -1935 0
2341 -1937 0
2342 -1939 0
2343 -1941 0
2344 -1943 0
2345 -1945 0
2346 -1947 0
2347 -1949 0
2348 -1951 0
2349 -1953 0
2350 -1955 0
2351 -1957 0
2352 -1959 0
2353 -1961 0
2354 -1963 0
2355 -1965 0
2356 -1967 0
2357 -1969 0
2358 -1971 0
2359 -1973 0
2360 -1975 0
2361 -1977 0
2362 -1979 0
2363 -1981 0
2364 -1983 0
2365 -1985 0
2366 -1987 0
2367 -1989 0
2368 -1991 0
2369 -1993 0
2370 -1995 0
2371 -1997 0
2372 -1999 0
2373 -2001 0
2374 -2003 0
2375 -2005 0
2376 -2007 0
2377 -2009 0
2378 -2011 0
2379 -2013 0
2380 -2015 0
2381 -2017 0
2382 -2019 0
2383 -2021 0
2384 -2023 0
2385 -2025 0
2386 -2027 0
2387 -2029 0
2388 -2031 0
2389 -2033 0
2390 -2035 0
2391 -2037 0
2392 -2039 0
2393 -2041 0
2394 -2043 0
2395 -2045 0
2396 -2047 0
2397 -2049 0
2398 -2051 0
2399 -2053 0
2400 -2055 0
2401 -2057 0
2402 -2059 0
2403 -2061 0
2404 -2063 0
2405 -2065 0
2406 -2067 0
2407 -2069 0
2408 -2071 0
2409 -2073 0
2410 -2075 0
2411 -2077 0
2412 -2079 0
2413 -2081 0
2414 -2083 0
2415 -2085 0
2416 -2087 0
2417 -2089 0
2418 -2091 0
2419 -2093 0
2420 -2095 0
2421 -2097 0
2422 -2099 0
2423 -2101 0
2424 -2103 0
2425 -2105 0
2426 -2107 0
2427 -2109 0
2428 -2111 0
2429 -2113 0
2430 -2115 0
2431 -2117 0
2432 -2119 0
2433 -2121 0
2434 -2123 0
2435 -2125 0
2436 -2127 0
2437 -2129 0
2438 -2131 0
2439 -2133 0
2440 -2135 0
2441 -2137 0
2442 -2139 0
2443 -2141 0
2444 -2143 0
2445 -2145 0
2446 -2147 0
2447 -2149 0
2448 -2151 0
2449 -2153 0
2450 -2155 0
2451 -2157 0
2452 -2159 0
2453 -2161 0
2454 -2163 0
2455 -2165 0
2456 -2167 0
2457 -2169 0
2458 -2171 0
2459 -2173 0
2460 -2175 0
2461 -2177 0
2462 -2179 0
2463 -2181 0
2464 -2183 0
2465 -2185 0
2466 -2187 0
2467 -2189 0
2468 -2191 0
2469 -2193 0
2470 -2195 0
2471 -2197 0
2472 -2199 0
2473 -2201 0
2474 -2203 0
2475 -2205 0
2476 -2207 0
2477 -2209 0
2478 -2211 0
2479 -2213 0
2480 -2215 0
2481 -2217 0
2482 -2219 0
2483 -2221 0
2484 -2223 0
2485 -2225 0
2486 -2227 0
2487 -2229 0
2488 -2231 0
2489 -2233 0
2490 -2235 0
2491 -2237 0
2492 -2239 0
2493 -2241 0
2494 -2243 0
2495 -2245 0
2496 -2247 0
2497 -2249 0
2498 -2251 0
2499 -2253 0
2500 -2255 0
2501 -2257 0
2502 -2259 0
2503 -2261 0
2504 -2263 0
2505 -2265 0
2506 -2267 0
2507 -2269 0
2508 -2271 0
2509 -2273 0
2510 -2275 0
2511 -2277 0
2512 -2279 0
2513 -2281 0
2514 -2283 0
2515 -2285 0
2516 -2287 0
2517 -2289 0
2518 -2291 0
2519 -2293 0
2520 -2295 0
466 -1846 -2 -2 -2521 0
469 -1848 -2 -5 -2522 0
473 -1850 -2 -8 -2523 0
477 -1852 -2 -11 -2524 0
481 -1854 -2 -14 -2525 0
485 -1856 -2 -17 -2526 0
489 -1858 -2 -20 -2527 0
493 -1860 -2 -23 -2528 0
497 -1862 -2 -26 -2529 0
501 -1864 -2 -29 -2530 0
505 -1866 -2 -32 -2531 0
509 -1868 -2 -35 -2532 0
513 -1870 -2 -38 -2533 0
517 -1872 -2 -41 -2534 0
521 -1874 -2 -44 -2535 0
470 -1876 -5 -2 -2536 0
527 -1878 -5 -5 -2537 0
530 -1880 -5 -8 -2538 0
534 -1882 -5 -11 -2539 0
538 -1884 -5 -14 -2540 0
542 -1886 -5 -17 -2541 0
546 -1888 -5 -20 -2542 0
550 -1890 -5 -23 -2543 0
554 -1892 -5 -26 -2544 0
558 -1894 -5 -29 -2545 0
562 -1896 -5 -32 -2546 0
566 -1898 -5 -35 -2547 0
570 -1900 -5 -38 -2548 0
574 -1902 -5 -41 -2549 0
578 -1904 -5 -44 -2550 0
474 -1906 -8 -2 -2551 0
531 -1908 -8 -5 -2552 0
586 -1910 -8 -8 -2553 0
589 -1912 -8 -11 -2554 0
593 -1914 -8 -14 -2555 0
597 -1916 -8 -17 -2556 0
601 -1918 -8 -20 -2557 0
605 -1920 -8 -23 -2558 0
609 -1922 -8 -26 -2559 0
613 -1924 -8 -29 -2560 0
617 -1926 -8 -32 -2561 0
621 -1928 -8 -35 -2562 0
625 -1930 -8 -38 -2563 0
629 -1932 -8 -41 -2564 0
633 -1934 -8 -44 -2565 0
478 -1936 -11 -2 -2566 0
535 -1938 -11 -5 -2567 0
590 -1940 -11 -8 -2568 0
643 -1942 -11 -11 -2569 0
646 -1944 -11 -14 -2570 0
650 -1946 -11 -17 -2571 0
654 -1948 -11 -20 -2572 0
658 -1950 -11 -23 -2573 0
662 -1952 -11 -26 -2574 0
666 -1954 -11 -29 -2575 0
670 -1956 -11 -32 -2576 0
674 -1958 -11 -35 -2577 0
678 -1960 -11 -38 -2578 0
682 -1962 -11 -41 -2579 0
686 -1964 -11 -44 -2580 0
482 -1966 -14 -2 -2581 0
539 -1968 -14 -5 -2582 0
594 -1970 -14 -8 -2583 0
647 -1972 -14 -11 -2584 0
698 -1974 -14 -14 -2585 0
701 -1976 -14 -17 -2586 0
705 -1978 -14 -20 -2587 0
709 -1980 -14 -23 -2588 0
713 -1982 -14 -26 -2589 0
717 -1984 -14 -29 -2590 0
721 -1986 -14 -32 -2591 0
725 -1988 -14 -35 -2592 0
729 -1990 -14 -38 -2593 0
733 -1992 -14 -41 -2594 0
737 -1994 -14 -44 -2595 0
486 -1996 -17 -2 -2596 0
543 -1998 -17 -5 -2597 0
598 -2000 -17 -8 -2598 0
651 -2002 -17 -11 -2599 0
702 -2004 -17 -14 -2600 0
751 -2006 -17 -17 -2601 0
754 -2008 -17 -20 -2602 0
758 -2010 -17 -23 -2603 0
762 -2012 -17 -26 -2604 0
766 -2014 -17 -29 -2605 0
770 -2016 -17 -32 -2606 0
774 -2018 -17 -35 -2607 0
778 -2020 -17 -38 -2608 0
782 -2022 -17 -41 -2609 0
786 -2024 -17 -44 -2610 0
490 -2026 -20 -2 -2611 0
547 -2028 -20 -5 -2612 0
602 -2030 -20 -8 -2613 0
655 -2032 -20 -11 -2614 0
706 -2034 -20 -14 -2615 0
755 -2036 -20 -17 -2616 0
802 -2038 -20 -20 -2617 0
805 -2040 -20 -23 -2618 0
809 -2042 -20 -26 -2619 0
813 -2044 -20 -29 -2620 0
817 -2046 -20 -32 -2621 0
821 -2048 -20 -35 -2622 0
825 -2050 -20 -38 -2623 0
829 -2052 -20 -41 -2624 0
833 -2054 -20 -44 -2625 0
494 -2056 -23 -2 -2626 0
551 -2058 -23 -5 -2627 0
606 -2060 -23 -8 -2628 0
659 -2062 -23 -11 -2629 0
710 -2064 -23 -14 -2630 0
759 -2066 -23 -17 -2631 0
806 -2068 -23 -20 -2632 0
851 -2070 -23 -23 -2633 0
854 -2072 -23 -26 -2634 0
858 -2074 -23 -29 -2635 0
862 -2076 -23 -32 -2636 0
866 -2078 -23 -35 -2637 0
870 -2080 -23 -38 -2638 0
874 -2082 -23 -41 -2639 0
878 -2084 -23 -44 -2640 0
498 -2086 -26 -2 -2641 0
555 -2088 -26 -5 -2642 0
610 -2090 -26 -8 -2643 0
663 -2092 -26 -11 -2644 0
714 -2094 -26 -14 -2645 0
763 -2096 -26 -17 -2646 0
810 -2098 -26 -20 -2647 0
855 -2100 -26 -23 -2648 0
898 -2102 -26 -26 -2649 0
901 -2104 -26 -29 -2650 0
905 -2106 -26 -32 -2651 0
909 -2108 -26 -35 -2652 0
913 -2110 -26 -38 -2653 0
917 -2112 -26 -41 -2654 0
921 -2114 -26 -44 -2655 0
502 -2116 -29 -2 -2656 0
559 -2118 -29 -5 -2657 0
614 -2120 -29 -8 -2658 0
667 -2122 -29 -11 -2659 0
718 -2124 -29 -14 -2660 0
767 -2126 -29 -17 -2661 0
814 -2128 -29 -20 -2662 0
859 -2130 -29 -23 -2663 0
902 -2132 -29 -26 -2664 0
943 -2134 -29 -29 -2665 0
946 -2136 -29 -32 -2666 0
950 -2138 -29 -35 -2667 0
954 -2140 -29 -38 -2668 0
958 -2142 -29 -41 -2669 0
962 -2144 -29 -44 -2670 0
506 -2146 -32 -2 -2671 0
563 -2148 -32 -5 -2672 0
618 -2150 -32 -8 -2673 0
671 -2152 -32 -11 -2674 0
722 -2154 -32 -14 -2675 0
771 -2156 -32 -17 -2676 0
818 -2158 -32 -20 -2677 0
863 -2160 -32 -23 -2678 0
906 -2162 -32 -26 -2679 0
947 -2164 -32 -29 -2680 0
986 -2166 -32 -32 -2681 0
989 -2168 -32 -35 -2682 0
993 -2170 -32 -38 -2683 0
997 -2172 -32 -41 -2684 0
1001 -2174 -32 -44 -2685 0
510 -2176 -35 -2 -2686 0
567 -2178 -35 -5 -2687 0
622 -2180 -35 -8 -2688 0
675 -2182 -35 -11 -2689 0
726 -2184 -35 -14 -2690 0
775 -2186 -35 -17 -2691 0
822 -2188 -35 -20 -2692 0
867 -2190 -35 -23 -2693 0
910 -2192 -35 -26 -2694 0
951 -2194 -35 -29 -2695 0
990 -2196 -35 -32 -2696 0
1027 -2198 -35 -35 -2697 0
1030 -2200 -35 -38 -2698 0
1034 -2202 -35 -41 -2699 0
1038 -2204 -35 -44 -2700 0
514 -2206 -38 -2 -2701 0
571 -2208 -38 -5 -2702 0
626 -2210 -38 -8 -2703 0
679 -2212 -38 -11 -2704 0
730 -2214 -38 -14 -2705 0
779 -2216 -38 -17 -2706 0
826 -2218 -38 -20 -2707 0
871 -2220 -38 -23 -2708 0
914 -2222 -38 -26 -2709 0
955 -2224 -38 -29 -2710 0
994 -2226 -38 -32 -2711 0
1031 -2228 -38 -35 -2712 0
1066 -2230 -38 -38 -2713 0
1069 -2232 -38 -41 -2714 0
1073 -2234 -38 -44 -2715 0
518 -2236 -41 -2 -2716 0
575 -2238 -41 -5 -2717 0
630 -2240 -41 -8 -2718 0
683 -2242 -41 -11 -2719 0
734 -2244 -41 -14 -2720 0
783 -2246 -41 -17 -2721 0
830 -2248 -41 -20 -2722 0
875 -2250 -41 -23 -2723 0
918 -2252 -41 -26 -2724 0
959 -2254 -41 -29 -2725 0
998 -2256 -41 -32 -2726 0
1035 -2258 -41 -35 -2727 0
1070 -2260 -41 -38 -2728 0
1103 -2262 -41 -41 -2729 0
1106 -2264 -41 -44 -2730 0
522 -2266 -44 -2 -2731 0
579 -2268 -44 -5 -2732 0
634 -2270 -44 -8 -2733 0
687 -2272 -44 -11 -2734 0
738 -2274 -44 -14 -2735 0
787 -2276 -44 -17 -2736 0
834 -2278 -44 -20 -2737 0
879 -2280 -44 -23 -2738 0
922 -2282 -44 -26 -2739 0
963 -2284 -44 -29 -2740 0
1002 -2286 -44 -32 -2741 0
1039 -2288 -44 -35 -2742 0
1074 -2290 -44 -38 -2743 0
1107 -2292 -44 -41 -2744 0
1138 -2294 -44 -44 -2745 0
2521 -466 0
2522 -469 0
2523 -473 0
2524 -477 0
2525 -481 0
2526 -485 0
2527 -489 0
2528 -493 0
2529 -497 0
2530 -501 0
2531 -505 0
2532 -509 0
2533 -513 0
2534 -517 0
2535 -521 0
2536 -470 0
2537 -527 0
2538 -530 0
2539 -534 0
2540 -538 0
2541 -542 0
2542 -546 0
2543 -550 0
2544 -554 0
2545 -558 0
2546 -562 0
2547 -566 0
2548 -570 0
2549 -574 0
2550 -578 0
2551 -474 0
2552 -531 0
2553 -586 0
2554 -589 0
2555 -593 0
2556 -597 0
2557 -601 0
2558 -605 0
2559 -609 0
2560 -613 0
2561 -617 0
2562 -621 0
2563 -625 0
2564 -629 0
2565 -633 0
2566 -478 0
2567 -535 0
2568 -590 0
2569 -643 0
2570 -646 0
2571 -650 0
2572 -654 0
2573 -658 0
2574 -662 0
2575 -666 0
2576 -670 0
2577 -674 0
2578 -678 0
2579 -682 0
2580 -686 0
2581 -482 0
2582 -539 0
2583 -594 0
2584 -647 0
2585 -698 0
2586 -701 0
2587 -705 0
2588 -709 0
2589 -713 0
2590 -717 0
2591 -721 0
2592 -725 0
2593 -729 0
2594 -733 0
2595 -737 0
2596 -486 0
2597 -543 0
2598 -598 0
2599 -651 0
2600 -702 0
2601 -751 0
2602 -754 0
2603 -758 0
2604 -762 0
2605 -766 0
2606 -770 0
2607 -774 0
2608 -778 0
2609 -782 0
2610 -786 0
2611 -490 0
2612 -547 0
2613 -602 0
2614 -655 0
2615 -706 0
2616 -755 0
2617 -802 0
2618 -805 0
2619 -809 0
2620 -813 0
2621 -817 0
2622 -821 0
2623 -825 0
2624 -829 0
2625 -833 0
2626 -494 0
2627 -551 0
2628 -606 0
2629 -659 0
2630 -710 0
2631 -759 0
2632 -806 0
2633 -851 0
2634 -854 0
2635 -858 0
2636 -862 0
2637 -866 0
2638 -870 0
2639 -874 0
2640 -878 0
2641 -498 0
2642 -555 0
2643 -610 0
2644 -663 0
2645 -714 0
2646 -763 0
2647 -810 0
2648 -855 0
2649 -898 0
2650 -901 0
2651 -905 0
2652 -909 0
2653 -913 0
2654 -917 0
2655 -921 0
2656 -502 0
2657 -559 0
2658 -614 0
2659 -667 0
2660 -718 0
2661 -767 0
2662 -814 0
2663 -859 0
2664 -902 0
2665 -943 0
2666 -946 0
2667 -950 0
2668 -954 0
2669 -958 0
2670 -962 0
2671 -506 0
2672 -563 0
2673 -618 0
2674 -671 0
2675 -722 0
2676 -771 0
2677 -818 0
2678 -863 0
2679 -906 0
2680 -947 0
2681 -986 0
2682 -989 0
2683 -993 0
2684 -997 0
2685 -1001 0
2686 -510 0
2687 -567 0
2688 -622 0
2689 -675 0
2690 -726 0
2691 -775 0
2692 -822 0
2693 -867 0
2694 -910 0
2695 -951 0
2696 -990 0
2697 -1027 0
2698 -1030 0
2699 -1034 0
2700 -1038 0
2701 -514 0
2702 -571 0
2703 -626 0
2704 -679 0
2705 -730 0
2706 -779 0
2707 -826 0
2708 -871 0
2709 -914 0
2710 -955 0
2711 -994 0
2712 -1031 0
2713 -1066 0
2714 -1069 0
2715 -1073 0
2716 -518 0
2717 -575 0
2718 -630 0
2719 -683 0
2720 -734 0
2721 -783 0
2722 -830 0
2723 -875 0
2724 -918 0
2725 -959 0
2726 -998 0
2727 -1035 0
2728 -1070 0
2729 -1103 0
2730 -1106 0
2731 -522 0
2732 -579 0
2733 -634 0
2734 -687 0
2735 -738 0
2736 -787 0
2737 -834 0
2738 -879 0
2739 -922 0
2740 -963 0
2741 -1002 0
2742 -1039 0
2743 -1074 0
2744 -1107 0
2745 -1138 0
2521 1846 0
2522 1848 0
2523 1850 0
2524 1852 0
2525 1854 0
2526 1856 0
2527 1858 0
2528 1860 0
2529 1862 0
2530 1864 0
2531 1866 0
2532 1868 0
2533 1870 0
2534 1872 0
2535 1874 0
2536 1876 0
2537 1878 0
2538 1880 0
2539 1882 0
2540 1884 0
2541 1886 0
2542 1888 0
2543 1890 0
2544 1892 0
2545 1894 0
2546 1896 0
2547 1898 0
2548 1900 0
2549 1902 0
2550 1904 0
2551 1906 0
2552 1908 0
2553 1910 0
2554 1912 0
2555 1914 0
2556 1916 0
2557 1918 0
2558 1920 0
2559 1922 0
2560 1924 0
2561 1926 0
2562 1928 0
2563 1930 0
2564 1932 0
2565 1934 0
2566 1936 0
2567 1938 0
2568 1940 0
2569 1942 0
2570 1944 0
2571 1946 0
2572 1948 0
2573 1950 0
2574 1952 0
2575 1954 0
2576 1956 0
2577 1958 0
2578 1960 0
2579 1962 0
2580 1964 0
2581 1966 0
2582 1968 0
2583 1970 0
2584 1972 0
2585 1974 0
2586 1976 0
2587 1978 0
2588 1980 0
2589 1982 0
2590 1984 0
2591 1986 0
2592 1988 0
2593 1990 0
2594 1992 0
2595 1994 0
2596 1996 0
2597 1998 0
2598 2000 0
2599 2002 0
2600 2004 0
2601 2006 0
2602 2008 0
2603 2010 0
2604 2012 0
2605 2014 0
2606 2016 0
2607 2018 0
2608 2020 0
2609 2022 0
2610 2024 0
2611 2026 0
2612 2028 0
2613 2030 0
2614 2032 0
2615 2034 0
2616 2036 0
2617 2038 0
2618 2040 0
2619 2042 0
2620 2044 0
2621 2046 0
2622 2048 0
2623 2050 0
2624 2052 0
2625 2054 0
2626 2056 0
2627 2058 0
2628 2060 0
2629 2062 0
2630 2064 0
2631 2066 0
2632 2068 0
2633 2070 0
2634 2072 0
2635 2074 0
2636 2076 0
2637 2078 0
2638 2080 0
2639 2082 0
2640 2084 0
2641 2086 0
2642 2088 0
2643 2090 0
2644 2092 0
2645 2094 0
2646 2096 0
2647 2098 0
2648 2100 0
2649 2102 0
2650 2104 0
2651 2106 0
2652 2108 0
2653 2110 0
2654 2112 0
2655 2114 0
2656 2116 0
2657 2118 0
2658 2120 0
2659 2122 0
2660 2124 0
2661 2126 0
2662 2128 0
2663 2130 0
2664 2132 0
2665 2134 0
2666 2136 0
2667 2138 0
2668 2140 0
2669 2142 0
2670 2144 0
2671 2146 0
2672 2148 0
2673 2150 0
2674 2152 0
2675 2154 0
2676 2156 0
2677 2158 0
2678 2160 0
2679 2162 0
2680 2164 0
2681 2166 0
2682 2168 0
2683 2170 0
2684 2172 0
2685 2174 0
2686 2176 0
2687 2178 0
2688 2180 0
2689 2182 0
2690 2184 0
2691 2186 0
2692 2188 0
2693 2190 0
2694 2192 0
2695 2194 0
2696 2196 0
2697 2198 0
2698 2200 0
2699 2202 0
2700 2204 0
2701 2206 0
2702 2208 0
2703 2210 0
2704 2212 0
2705 2214 0
2706 2216 0
2707 2218 0
2708 2220 0
2709 2222 0
2710 2224 0
2711 2226 0
2712 2228 0
2713 2230 0
2714 2232 0
2715 2234 0
2716 2236 0
2717 2238 0
2718 2240 0
2719 2242 0
2720 2244 0
2721 2246 0
2722 2248 0
2723 2250 0
2724 2252 0
2725 2254 0
2726 2256 0
2727 2258 0
2728 2260 0
2729 2262 0
2730 2264 0
2731 2266 0
2732 2268 0
2733 2270 0
2734 2272 0
2735 2274 0
2736 2276 0
2737 2278 0
2738 2280 0
2739 2282 0
2740 2284 0
2741 2286 0
2742 2288 0
2743 2290 0
2744 2292 0
2745 2294 0
2521 2 0
2522 2 0
2523 2 0
2524 2 0
2525 2 0
2526 2 0
2527 2 0
2528 2 0
2529 2 0
2530 2 0
2531 2 0
2532 2 0
2533 2 0
2534 2 0
2535 2 0
2536 5 0
2537 5 0
2538 5 0
2539 5 0
2540 5 0
2541 5 0
2542 5 0
2543 5 0
2544 5 0
2545 5 0
2546 5 0
2547 5 0
2548 5 0
2549 5 0
2550 5 0
2551 8 0
2552 8 0
2553 8 0
2554 8 0
2555 8 0
2556 8 0
2557 8 0
2558 8 0
2559 8 0
2560 8 0
2561 8 0
2562 8 0
2563 8 0
2564 8 0
2565 8 0
2566 11 0
2567 11 0
2568 11 0
2569 11 0
2570 11 0
2571 11 0
2572 11 0
2573 11 0
2574 11 0
2575 11 0
2576 11 0
2577 11 0
2578 11 0
2579 11 0
2580 11 0
2581 14 0
2582 14 0
2583 14 0
2584 14 0
2585 14 0
2586 14 0
2587 14 0
2588 14 0
2589 14 0
2590 14 0
2591 14 0
2592 14 0
2593 14 0
2594 14 0
2595 14 0
2596 17 0
2597 17 0
2598 17 0
2599 17 0
2600 17 0
2601 17 0
2602 17 0
2603 17 0
2604 17 0
2605 17 0
2606 17 0
2607 17 0
2608 17 0
2609 17 0
2610 17 0
2611 20 0
2612 20 0
2613 20 0
2614 20 0
2615 20 0
2616 20 0
2617 20 0
2618 20 0
2619 20 0
2620 20 0
2621 20 0
2622 20 0
2623 20 0
2624 20 0
2625 20 0
2626 23 0
2627 23 0
2628 23 0
2629 23 0
2630 23 0
2631 23 0
2632 23 0
2633 23 0
2634 23 0
2635 23 0
2636 23 0
2637 23 0
2638 23 0
2639 23 0
2640 23 0
2641 26 0
2642 26 0
2643 26 0
2644 26 0
2645 26 0
2646 26 0
2647 26 0
2648 26 0
2649 26 0
2650 26 0
2651 26 0
2652 26 0
2653 26 0
2654 26 0
2655 26 0
2656 29 0
2657 29 0
2658 29 0
2659 29 0
2660 29 0
2661 29 0
2662 29 0
2663 29 0
2664 29 0
2665 29 0
2666 29 0
2667 29 0
2668 29 0
2669 29 0
2670 29 0
2671 32 0
2672 32 0
2673 32 0
2674 32 0
2675 32 0
2676 32 0
2677 32 0
2678 32 0
2679 32 0
2680 32 0
2681 32 0
2682 32 0
2683 32 0
2684 32 0
2685 32 0
2686 35 0
2687 35 0
2688 35 0
2689 35 0
2690 35 0
2691 35 0
2692 35 0
2693 35 0
2694 35 0
2695 35 0
2696 35 0
2697 35 0
2698 35 0
2699 35 0
2700 35 0
2701 38 0
2702 38 0
2703 38 0
2704 38 0
2705 38 0
2706 38 0
2707 38 0
2708 38 0
2709 38 0
2710 38 0
2711 38 0
2712 38 0
2713 38 0
2714 38 0
2715 38 0
2716 41 0
2717 41 0
2718 41 0
2719 41 0
2720 41 0
2721 41 0
2722 41 0
2723 41 0
2724 41 0
2725 41 0
2726 41 0
2727 41 0
2728 41 0
2729 41 0
2730 41 0
2731 44 0
2732 44 0
2733 44 0
2734 44 0
2735 44 0
2736 44 0
2737 44 0
2738 44 0
2739 44 0
2740 44 0
2741 44 0
2742 44 0
2743 44 0
2744 44 0
2745 44 0
2521 2 0
2522 5 0
2523 8 0
2524 11 0
2525 14 0
2526 17 0
2527 20 0
2528 23 0
2529 26 0
2530 29 0
2531 32 0
2532 35 0
2533 38 0
2534 41 0
2535 44 0
2536 2 0
2537 5 0
2538 8 0
2539 11 0
2540 14 0
2541 17 0
2542 20 0
2543 23 0
2544 26 0
2545 29 0
2546 32 0
2547 35 0
2548 38 0
2549 41 0
2550 44 0
2551 2 0
2552 5 0
2553 8 0
2554 11 0
2555 14 0
2556 17 0
2557 20 0
2558 23 0
2559 26 0
2560 29 0
2561 32 0
2562 35 0
2563 38 0
2564 41 0
2565 44 0
2566 2 0
2567 5 0
2568 8 0
2569 11 0
2570 14 0
2571 17 0
2572 20 0
2573 23 0
2574 26 0
2575 29 0
2576 32 0
2577 35 0
2578 38 0
2579 41 0
2580 44 0
2581 2 0
2582 5 0
2583 8 0
2584 11 0
2585 14 0
2586 17 0
2587 20 0
2588 23 0
2589 26 0
2590 29 0
2591 32 0
2592 35 0
2593 38 0
2594 41 0
2595 44 0
2596 2 0
2597 5 0
2598 8 0
2599 11 0
2600 14 0
2601 17 0
2602 20 0
2603 23 0
2604 26 0
2605 29 0
2606 32 0
2607 35 0
2608 38 0
2609 41 0
2610 44 0
2611 2 0
2612 5 0
2613 8 0
2614 11 0
2615 14 0
2616 17 0
2617 20 0
2618 23 0
2619 26 0
2620 29 0
2621 32 0
2622 35 0
2623 38 0
2624 41 0
2625 44 0
2626 2 0
2627 5 0
2628 8 0
2629 11 0
2630 14 0
2631 17 0
2632 20 0
2633 23 0
2634 26 0
2635 29 0
2636 32 0
2637 35 0
2638 38 0
2639 41 0
2640 44 0
2641 2 0
2642 5 0
2643 8 0
2644 11 0
2645 14 0
2646 17 0
2647 20 0
2648 23 0
2649 26 0
2650 29 0
2651 32 0
2652 35 0
2653 38 0
2654 41 0
2655 44 0
2656 2 0
2657 5 0
2658 8 0
2659 11 0
2660 14 0
2661 17 0
2662 20 0
2663 23 0
2664 26 0
2665 29 0
2666 32 0
2667 35 0
2668 38 0
2669 41 0
2670 44 0
2671 2 0
2672 5 0
2673 8 0
2674 11 0
2675 14 0
2676 17 0
2677 20 0
2678 23 0
2679 26 0
2680 29 0
2681 32 0
2682 35 0
2683 38 0
2684 41 0
2685 44 0
2686 2 0
2687 5 0
2688 8 0
2689 11 0
2690 14 0
2691 17 0
2692 20 0
2693 23 0
2694 26 0
2695 29 0
2696 32 0
2697 35 0
2698 38 0
2699 41 0
2700 44 0
2701 2 0
2702 5 0
2703 8 0
2704 11 0
2705 14 0
2706 17 0
2707 20 0
2708 23 0
2709 26 0
2710 29 0
2711 32 0
2712 35 0
2713 38 0
2714 41 0
2715 44 0
2716 2 0
2717 5 0
2718 8 0
2719 11 0
2720 14 0
2721 17 0
2722 20 0
2723 23 0
2724 26 0
2725 29 0
2726 32 0
2727 35 0
2728 38 0
2729 41 0
2730 44 0
2731 2 0
2732 5 0
2733 8 0
2734 11 0
2735 14 0
2736 17 0
2737 20 0
2738 23 0
2739 26 0
2740 29 0
2741 32 0
2742 35 0
2743 38 0
2744 41 0
2745 44 0
-3 -468 -1143 -1621 -2296 -2521 2746 0
-6 -472 -1145 -1622 -2297 -2522 2747 0
-9 -476 -1147 -1623 -2298 -2523 2748 0
-12 -480 -1149 -1624 -2299 -2524 2749 0
-15 -484 -1151 -1625 -2300 -2525 2750 0
-18 -488 -1153 -1626 -2301 -2526 2751 0
-21 -492 -1155 -1627 -2302 -2527 2752 0
-24 -496 -1157 -1628 -2303 -2528 2753 0
-27 -500 -1159 -1629 -2304 -2529 2754 0
-30 -504 -1161 -1630 -2305 -2530 2755 0
-33 -508 -1163 -1631 -2306 -2531 2756 0
-36 -512 -1165 -1632 -2307 -2532 2757 0
-39 -516 -1167 -1633 -2308 -2533 2758 0
-42 -520 -1169 -1634 -2309 -2534 2759 0
-45 -524 -1171 -1635 -2310 -2535 2760 0
-47 -526 -1173 -1636 -2311 -2536 2761 0
-49 -529 -1174 -1637 -2312 -2537 2762 0
-51 -533 -1175 -1638 -2313 -2538 2763 0
-53 -537 -1176 -1639 -2314 -2539 2764 0
-55 -541 -1177 -1640 -2315 -2540 2765 0
-57 -545 -1178 -1641 -2316 -2541 2766 0
-59 -549 -1179 -1642 -2317 -2542 2767 0
-61 -553 -1180 -1643 -2318 -2543 2768 0
-63 -557 -1181 -1644 -2319 -2544 2769 0
-65 -561 -1182 -1645 -2320 -2545 2770 0
-67 -565 -1183 -1646 -2321 -2546 2771 0
-69 -569 -1184 -1647 -2322 -2547 2772 0
-71 -573 -1185 -1648 -2323 -2548 2773 0
-73 -577 -1186 -1649 -2324 -2549 2774 0
-75 -581 -1187 -1650 -2325 -2550 2775 0
-77 -583 -1189 -1651 -2326 -2551 2776 0
-79 -585 -1190 -1652 -2327 -2552 2777 0
-81 -588 -1191 -1653 -2328 -2553 2778 0
-83 -592 -1192 -1654 -2329 -2554 2779 0
-85 -596 -1193 -1655 -2330 -2555 2780 0
-87 -600 -1194 -1656 -2331 -2556 2781 0
-89 -604 -1195 -1657 -2332 -2557 2782 0
-91 -608 -1196 -1658 -2333 -2558 2783 0
-93 -612 -1197 -1659 -2334 -2559 2784 0
-95 -616 -1198 -1660 -2335 -2560 2785 0
-97 -620 -1199 -1661 -2336 -2561 2786 0
-99 -624 -1200 -1662 -2337 -2562 2787 0
-101 -628 -1201 -1663 -2338 -2563 2788 0
-103 -632 -1202 -1664 -2339 -2564 2789 0
-105 -636 -1203 -1665 -2340 -2565 2790 0
-107 -638 -1205 -1666 -2341 -2566 2791 0
-109 -640 -1206 -1667 -2342 -2567 2792 0
-111 -642 -1207 -1668 -2343 -2568 2793 0
-113 -645 -1208 -1669 -2344 -2569 2794 0
-115 -649 -1209 -1670 -2345 -2570 2795 0
-117 -653 -1210 -1671 -2346 -2571 2796 0
-119 -657 -1211 -1672 -2347 -2572 2797 0
-121 -661 -1212 -1673 -2348 -2573 2798 0
-123 -665 -1213 -1674 -2349 -2574 2799 0
-125 -669 -1214 -1675 -2350 -2575 2800 0
-127 -673 -1215 -1676 -2351 -2576 2801 0
-129 -677 -1216 -1677 -2352 -2577 2802 0
-131 -681 -1217 -1678 -2353 -2578 2803 0
-133 -685 -1218 -1679 -2354 -2579 2804 0
-135 -689 -1219 -1680 -2355 -2580 2805 0
-137 -691 -1221 -1681 -2356 -2581 2806 0
-139 -693 -1222 -1682 -2357 -2582 2807 0
-141 -695 -1223 -1683 -2358 -2583 2808 0
-143 -697 -1224 -1684 -2359 -2584 2809 0
-145 -700 -1225 -1685 -2360 -2585 2810 0
-147 -704 -1226 -1686 -2361 -2586 2811 0
-149 -708 -1227 -1687 -2362 -2587 2812 0
-151 -712 -1228 -1688 -2363 -2588 2813 0
-153 -716 -1229 -1689 -2364 -2589 2814 0
-155 -720 -1230 -1690 -2365 -2590 2815 0
-157 -724 -1231 -1691 -2366 -2591 2816 0
-159 -728 -1232 -1692 -2367 -2592 2817 0
-161 -732 -1233 -1693 -2368 -2593 2818 0
-163 -736 -1234 -1694 -2369 -2594 2819 0
-165 -740 -1235 -1695 -2370 -2595 2820 0
-167 -742 -1237 -1696 -2371 -2596 2821 0
-169 -744 -1238 -1697 -2372 -2597 2822 0
-171 -746 -1239 -1698 -2373 -2598 2823 0
-173 -748 -1240 -1699 -2374 -2599 2824 0
-175 -750 -1241 -1700 -2375 -2600 2825 0
-177 -753 -1242 -1701 -2376 -2601 2826 0
-179 -757 -1243 -1702 -2377 -2602 2827 0
-181 -761 -1244 -1703 -2378 -2603 2828 0
-183 -765 -1245 -1704 -2379 -2604 2829 0
-185 -769 -1246 -1705 -2380 -2605 2830 0
-187 -773 -1247 -1706 -2381 -2606 2831 0
-189 -777 -1248 -1707 -2382 -2607 2832 0
-191 -781 -1249 -1708 -2383 -2608 2833 0
-193 -785 -1250 -1709 -2384 -2609 2834 0
-195 -789 -1251 -1710 -2385 -2610 2835 0
-197 -791 -1253 -1711 -2386 -2611 2836 0
-199 -793 -1254 -1712 -2387 -2612 2837 0
-201 -795 -1255 -1713 -2388 -2613 2838 0
-203 -797 -1256 -1714 -2389 -2614 2839 0
-205 -799 -1257 -1715 -2390 -2615 2840 0
-207 -801 -1258 -1716 -2391 -2616 2841 0
-209 -804 -1259 -1717 -2392 -2617 2842 0
-211 -808 -1260 -1718 -2393 -2618 2843 0
-213 -812 -1261 -1719 -2394 -2619 2844 0
-215 -816 -1262 -1720 -2395 -2620 2845 0
-217 -820 -1263 -1721 -2396 -2621 2846 0
-219 -824 -1264 -1722 -2397 -2622 2847 0
-221 -828 -1265 -1723 -2398 -2623 2848 0
-223 -832 -1266 -1724 -2399 -2624 2849 0
-225 -836 -1267 -1725 -2400 -2625 2850 0
-227 -838 -1269 -1726 -2401 -2626 2851 0
-229 -840 -1270 -1727 -2402 -2627 2852 0
-231 -842 -1271 -1728 -2403 -2628 2853 0
-233 -844 -1272 -1729 -2404 -2629 2854 0
-235 -846 -1273 -1730 -2405 -2630 2855 0
-237 -848 -1274 -1731 -2406 -2631 2856 0
-239 -850 -1275 -1732 -2407 -2632 2857 0
-241 -853 -1276 -1733 -2408 -2633 2858 0
-243 -857 -1277 -1734 -2409 -2634 2859 0
-245 -861 -1278 -1735 -2410 -2635 2860 0
-247 -865 -1279 -1736 -2411 -2636 2861 0
-249 -869 -1280 -1737 -2412 -2637 2862 0
-251 -873 -1281 -1738 -2413 -2638 2863 0
-253 -877 -1282 -1739 -2414 -2639 2864 0
-255 -881 -1283 -1740 -2415 -2640 2865 0
-257 -883 -1285 -1741 -2416 -2641 2866 0
-259 -885 -1286 -1742 -2417 -2642 2867 0
-261 -887 -1287 -1743 -2418 -2643 2868 0
-263 -889 -1288 -1744 -2419 -2644 2869 0
-265 -891 -1289 -1745 -2420 -2645 2870 0
-267 -893 -1290 -1746 -2421 -2646 2871 0
-269 -895 -1291 -1747 -2422 -2647 2872 0
-271 -897 -1292 -1748 -2423 -2648 2873 0
-273 -900 -1293 -1749 -2424 -2649 2874 0
-275 -904 -1294 -1750 -2425 -2650 2875 0
-277 -908 -1295 -1751 -2426 -2651 2876 0
-279 -912 -1296 -1752 -2427 -2652 2877 0
-281 -916 -1297 -1753 -2428 -2653 2878 0
-283 -920 -1298 -1754 -2429 -2654 2879 0
-285 -924 -1299 -1755 -2430 -2655 2880 0
-287 -926 -1301 -1756 -2431 -2656 2881 0
-289 -928 -1302 -1757 -2432 -2657 2882 0
-291 -930 -1303 -1758 -2433 -2658 2883 0
-293 -932 -1304 -1759 -2434 -2659 2884 0
-295 -934 -1305 -1760 -2435 -2660 2885 0
-297 -936 -1306 -1761 -2436 -2661 2886 0
-299 -938 -1307 -1762 -2437 -2662 2887 0
-301 -940 -1308 -1763 -2438 -2663 2888 0
-303 -942 -1309 -1764 -2439 -2664 2889 0
-305 -945 -1310 -1765 -2440 -2665 2890 0
-307 -949 -1311 -1766 -2441 -2666 2891 0
-309 -953 -1312 -1767 -2442 -2667 2892 0
-311 -957 -1313 -1768 -2443 -2668 2893 0
-313 -961 -1314 -1769 -2444 -2669 2894 0
-315 -965 -1315 -1770 -2445 -2670 2895 0
-317 -967 -1317 -1771 -2446 -2671 2896 0
-319 -969 -1318 -1772 -2447 -2672 2897 0
-321 -971 -1319 -1773 -2448 -2673 2898 0
-323 -973 -1320 -1774 -2449 -2674 2899 0
-325 -975 -1321 -1775 -2450 -2675 2900 0
-327 -977 -1322 -1776 -2451 -2676 2901 0
-329 -979 -1323 -1777 -2452 -2677 2902 0
-331 -981 -1324 -1778 -2453 -2678 2903 0
-333 -983 -1325 -1779 -2454 -2679 2904 0
-335 -985 -1326 -1780 -2455 -2680 2905 0
-337 -988 -1327 -1781 -2456 -2681 2906 0
-339 -992 -1328 -1782 -2457 -2682 2907 0
-341 -996 -1329 -1783 -2458 -2683 2908 0
-343 -1000 -1330 -1784 -2459 -2684 2909 0
-345 -1004 -1331 -1785 -2460 -2685 2910 0
-347 -1006 -1333 -1786 -2461 -2686 2911 0
-349 -1008 -1334 -1787 -2462 -2687 2912 0
-351 -1010 -1335 -1788 -2463 -2688 2913 0
-353 -1012 -1336 -1789 -2464 -2689 2914 0
-355 -1014 -1337 -1790 -2465 -2690 2915 0
-357 -1016 -1338 -1791 -2466 -2691 2916 0
-359 -1018 -1339 -1792 -2467 -2692 2917 0
-361 -1020 -1340 -1793 -2468 -2693 2918 0
-363 -1022 -1341 -1794 -2469 -2694 2919 0
-365 -1024 -1342 -1795 -2470 -2695 2920 0
-367 -1026 -1343 -1796 -2471 -2696 2921 0
-369 -1029 -1344 -1797 -2472 -2697 2922 0
-371 -1033 -1345 -1798 -2473 -2698 2923 0
-373 -1037 -1346 -1799 -2474 -2699 2924 0
-375 -1041 -1347 -1800 -2475 -2700 2925 0
-377 -1043 -1349 -1801 -2476 -2701 2926 0
-379 -1045 -1350 -1802 -2477 -2702 2927 0
-381 -1047 -1351 -1803 -2478 -2703 2928 0
-383 -1049 -1352 -1804 -2479 -2704 2929 0
-385 -1051 -1353 -1805 -2480 -2705 2930 0
-387 -1053 -1354 -1806 -2481 -2706 2931 0
-389 -1055 -1355 -1807 -2482 -2707 2932 0
-391 -1057 -1356 -1808 -2483 -2708 2933 0
-393 -1059 -1357 -1809 -2484 -2709 2934 0
-395 -1061 -1358 -1810 -2485 -2710 2935 0
-397 -1063 -1359 -1811 -2486 -2711 2936 0
-399 -1065 -1360 -1812 -2487 -2712 2937 0
-401 -1068 -1361 -1813 -2488 -2713 2938 0
-403 -1072 -1362 -1814 -2489 -2714 2939 0
-405 -1076 -1363 -1815 -2490 -2715 2940 0
-407 -1078 -1365 -1816 -2491 -2716 2941 0
-409 -1080 -1366 -1817 -2492 -2717 2942 0
-411 -1082 -1367 -1818 -2493 -2718 2943 0
-413 -1084 -1368 -1819 -2494 -2719 2944 0
-415 -1086 -1369 -1820 -2495 -2720 2945 0
-417 -1088 -1370 -1821 -2496 -2721 2946 0
-419 -1090 -1371 -1822 -2497 -2722 2947 0
-421 -1092 -1372 -1823 -2498 -2723 2948 0
-423 -1094 -1373 -1824 -2499 -2724 2949 0
-425 -1096 -1374 -1825 -2500 -2725 2950 0
-427 -1098 -1375 -1826 -2501 -2726 2951 0
-429 -1100 -1376 -1827 -2502 -2727 2952 0
-431 -1102 -1377 -1828 -2503 -2728 2953 0
-433 -1105 -1378 -1829 -2504 -2729 2954 0
-435 -1109 -1379 -1830 -2505 -2730 2955 0
-437 -1111 -1381 -1831 -2506 -2731 2956 0
-439 -1113 -1382 -1832 -2507 -2732 2957 0
-441 -1115 -1383 -1833 -2508 -2733 2958 0
-443 -1117 -1384 -1834 -2509 -2734 2959 0
-445 -1119 -1385 -1835 -2510 -2735 2960 0
-447 -1121 -1386 -1836 -2511 -2736 2961 0
-449 -1123 -1387 -1837 -2512 -2737 2962 0
-451 -1125 -1388 -1838 -2513 -2738 2963 0
-453 -1127 -1389 -1839 -2514 -2739 2964 0
-455 -1129 -1390 -1840 -2515 -2740 2965 0
-457 -1131 -1391 -1841 -2516 -2741 2966 0
-459 -1133 -1392 -1842 -2517 -2742 2967 0
-461 -1135 -1393 -1843 -2518 -2743 2968 0
-463 -1137 -1394 -1844 -2519 -2744 2969 0
-465 -1140 -1395 -1845 -2520 -2745 2970 0
-2746 3 0
-2747 6 0
-2748 9 0
-2749 12 0
-2750 15 0
-2751 18 0
-2752 21 0
-2753 24 0
-2754 27 0
-2755 30 0
-2756 33 0
-2757 36 0
-2758 39 0
-2759 42 0
-2760 45 0
-2761 47 0
-2762 49 0
-2763 51 0
-2764 53 0
-2765 55 0
-2766 57 0
-2767 59 0
-2768 61 0
-2769 63 0
-2770 65 0
-2771 67 0
-2772 69 0
-2773 71 0
-2774 73 0
-2775 75 0
-2776 77 0
-2777 79 0
-2778 81 0
-2779 83 0
-2780 85 0
-2781 87 0
-2782 89 0
-2783 91 0
-2784 93 0
-2785 95 0
-2786 97 0
-2787 99 0
-2788 101 0
-2789 103 0
-2790 105 0
-2791 107 0
-2792 109 0
-2793 111 0
-2794 113 0
-2795 115 0
-2796 117 0
-2797 119 0
-2798 121 0
-2799 123 0
-2800 125 0
-2801 127 0
-2802 129 0
-2803 131 0
-2804 133 0
-2805 135 0
-2806 137 0
-2807 139 0
-2808 141 0
-2809 143 0
-2810 145 0
-2811 147 0
-2812 149 0
-2813 151 0
-2814 153 0
-2815 155 0
-2816 157 0
-2817 159 0
-2818 161 0
-2819 163 0
-2820 165 0
-2821 167 0
-2822 169 0
-2823 171 0
-2824 173 0
-2825 175 0
-2826 177 0
-2827 179 0
-2828 181 0
-2829 183 0
-2830 185 0
-2831 187 0
-2832 189 0
-2833 191 0
-2834 193 0
-2835 195 0
-2836 197 0
-2837 199 0
-2838 201 0
-2839 203 0
-2840 205 0
-2841 207 0
-2842 209 0
-2843 211 0
-2844 213 0
-2845 215 0
-2846 217 0
-2847 219 0
-2848 221 0
-2849 223 0
-2850 225 0
-2851 227 0
-2852 229 0
-2853 231 0
-2854 233 0
-2855 235 0
-2856 237 0
-2857 239 0
-2858 241 0
-2859 243 0
-2860 245 0
-2861 247 0
-2862 249 0
-2863 251 0
-2864 253 0
-2865 255 0
-2866 257 0
-2867 259 0
-2868 261 0
-2869 263 0
-2870 265 0
-2871 267 0
-2872 269 0
-2873 271 0
-2874 273 0
-2875 275 0
-2876 277 0
-2877 279 0
-2878 281 0
-2879 283 0
-2880 285 0
-2881 287 0
-2882 289 0
-2883 291 0
-2884 293 0
-2885 295 0
-2886 297 0
-2887 299 0
-2888 301 0
-2889 303 0
-2890 305 0
-2891 307 0
-2892 309 0
-2893 311 0
-2894 313 0
-2895 315 0
-2896 317 0
-2897 319 0
-2898 321 0
-2899 323 0
-2900 325 0
-2901 327 0
-2902 329 0
-2903 331 0
-2904 333 0
-2905 335 0
-2906 337 0
-2907 339 0
-2908 341 0
-2909 343 0
-2910 345 0
-2911 347 0
-2912 349 0
-2913 351 0
-2914 353 0
-2915 355 0
-2916 357 0
-2917 359 0
-2918 361 0
-2919 363 0
-2920 365 0
-2921 367 0
-2922 369 0
-2923 371 0
-2924 373 0
-2925 375 0
-2926 377 0
-2927 379 0
-2928 381 0
-2929 383 0
-2930 385 0
-2931 387 0
-2932 389 0
-2933 391 0
-2934 393 0
-2935 395 0
-2936 397 0
-2937 399 0
-2938 401 0
-2939 403 0
-2940 405 0
-2941 407 0
-2942 409 0
-2943 411 0
-2944 413 0
-2945 415 0
-2946 417 0
-2947 419 0
-2948 421 0
-2949 423 0
-2950 425 0
-2951 427 0
-2952 429 0
-2953 431 0
-2954 433 0
-2955 435 0
-2956 437 0
-2957 439 0
-2958 441 0
-2959 443 0
-2960 445 0
-2961 447 0
-2962 449 0
-2963 451 0
-2964 453 0
-2965 455 0
-2966 457 0
-2967 459 0
-2968 461 0
-2969 463 0
-2970 465 0
-2746 468 0
-2747 472 0
-2748 476 0
-2749 480 0
-2750 484 0
-2751 488 0
-2752 492 0
-2753 496 0
-2754 500 0
-2755 504 0
-2756 508 0
-2757 512 0
-2758 516 0
-2759 520 0
-2760 524 0
-2761 526 0
-2762 529 0
-2763 533 0
-2764 537 0
-2765 541 0
-2766 545 0
-2767 549 0
-2768 553 0
-2769 557 0
-2770 561 0
-2771 565 0
-2772 569 0
-2773 573 0
-2774 577 0
-2775 581 0
-2776 583 0
-2777 585 0
-2778 588 0
-2779 592 0
-2780 596 0
-2781 600 0
-2782 604 0
-2783 608 0
-2784 612 0
-2785 616 0
-2786 620 0
-2787 624 0
-2788 628 0
-2789 632 0
-2790 636 0
-2791 638 0
-2792 640 0
-2793 642 0
-2794 645 0
-2795 649 0
-2796 653 0
-2797 657 0
-2798 661 0
-2799 665 0
-2800 669 0
-2801 673 0
-2802 677 0
-2803 681 0
-2804 685 0
-2805 689 0
-2806 691 0
-2807 693 0
-2808 695 0
-2809 697 0
-2810 700 0
-2811 704 0
-2812 708 0
-2813 712 0
-2814 716 0
-2815 720 0
-2816 724 0
-2817 728 0
-2818 732 0
-2819 736 0
-2820 740 0
-2821 742 0
-2822 744 0
-2823 746 0
-2824 748 0
-2825 750 0
-2826 753 0
-2827 757 0
-2828 761 0
-2829 765 0
-2830 769 0
-2831 773 0
-2832 777 0
-2833 781 0
-2834 785 0
-2835 789 0
-2836 791 0
-2837 793 0
-2838 795 0
-2839 797 0
-2840 799 0
-2841 801 0
-2842 804 0
-2843 808 0
-2844 812 0
-2845 816 0
-2846 820 0
-2847 824 0
-2848 828 0
-2849 832 0
-2850 836 0
-2851 838 0
-2852 840 0
-2853 842 0
-2854 844 0
-2855 846 0
-2856 848 0
-2857 850 0
-2858 853 0
-2859 857 0
-2860 861 0
-2861 865 0
-2862 869 0
-2863 873 0
-2864 877 0
-2865 881 0
-2866 883 0
-2867 885 0
-2868 887 0
-2869 889 0
-2870 891 0
-2871 893 0
-2872 895 0
-2873 897 0
-2874 900 0
-2875 904 0
-2876 908 0
-2877 912 0
-2878 916 0
-2879 920 0
-2880 924 0
-2881 926 0
-2882 928 0
-2883 930 0
-2884 932 0
-2885 934 0
-2886 936 0
-2887 938 0
-2888 940 0
-2889 942 0
-2890 945 0
-2891 949 0
-2892 953 0
-2893 957 0
-2894 961 0
-2895 965 0
-2896 967 0
-2897 969 0
-2898 971 0
-2899 973 0
-2900 975 0
-2901 977 0
-2902 979 0
-2903 981 0
-2904 983 0
-2905 985 0
-2906 988 0
-2907 992 0
-2908 996 0
-2909 1000 0
-2910 1004 0
-2911 1006 0
-2912 1008 0
-2913 1010 0
-2914 1012 0
-2915 1014 0
-2916 1016 0
-2917 1018 0
-2918 1020 0
-2919 1022 0
-2920 1024 0
-2921 1026 0
-2922 1029 0
-2923 1033 0
-2924 1037 0
-2925 1041 0
-2926 1043 0
-2927 1045 0
-2928 1047 0
-2929 1049 0
-2930 1051 0
-2931 1053 0
-2932 1055 0
-2933 1057 0
-2934 1059 0
-2935 1061 0
-2936 1063 0
-2937 1065 0
-2938 1068 0
-2939 1072 0
-2940 1076 0
-2941 1078 0
-2942 1080 0
-2943 1082 0
-2944 1084 0
-2945 1086 0
-2946 1088 0
-2947 1090 0
-2948 1092 0
-2949 1094 0
-2950 1096 0
-2951 1098 0
-2952 1100 0
-2953 1102 0
-2954 1105 0
-2955 1109 0
-2956 1111 0
-2957 1113 0
-2958 1115 0
-2959 1117 0
-2960 1119 0
-2961 1121 0
-2962 1123 0
-2963 1125 0
-2964 1127 0
-2965 1129 0
-2966 1131 0
-2967 1133 0
-2968 1135 0
-2969 1137 0
-2970 1140 0
-2746 1143 0
-2747 1145 0
-2748 1147 0
-2749 1149 0
-2750 1151 0
-2751 1153 0
-2752 1155 0
-2753 1157 0
-2754 1159 0
-2755 1161 0
-2756 1163 0
-2757 1165 0
-2758 1167 0
-2759 1169 0
-2760 1171 0
-2761 1173 0
-2762 1174 0
-2763 1175 0
-2764 1176 0
-2765 1177 0
-2766 1178 0
-2767 1179 0
-2768 1180 0
-2769 1181 0
-2770 1182 0
-2771 1183 0
-2772 1184 0
-2773 1185 0
-2774 1186 0
-2775 1187 0
-2776 1189 0
-2777 1190 0
-2778 1191 0
-2779 1192 0
-2780 1193 0
-2781 1194 0
-2782 1195 0
-2783 1196 0
-2784 1197 0
-2785 1198 0
-2786 1199 0
-2787 1200 0
-2788 1201 0
-2789 1202 0
-2790 1203 0
-2791 1205 0
-2792 1206 0
-2793 1207 0
-2794 1208 0
-2795 1209 0
-2796 1210 0
-2797 1211 0
-2798 1212 0
-2799 1213 0
-2800 1214 0
-2801 1215 0
-2802 1216 0
-2803 1217 0
-2804 1218 0
-2805 1219 0
-2806 1221 0
-2807 1222 0
-2808 1223 0
-2809 1224 0
-2810 1225 0
-2811 1226 0
-2812 1227 0
-2813 1228 0
-2814 1229 0
-2815 1230 0
-2816 1231 0
-2817 1232 0
-2818 1233 0
-2819 1234 0
-2820 1235 0
-2821 1237 0
-2822 1238 0
-2823 1239 0
-2824 1240 0
-2825 1241 0
-2826 1242 0
-2827 1243 0
-2828 1244 0
-2829 1245 0
-2830 1246 0
-2831 1247 0
-2832 1248 0
-2833 1249 0
-2834 1250 0
-2835 1251 0
-2836 1253 0
-2837 1254 0
-2838 1255 0
-2839 1256 0
-2840 1257 0
-2841 1258 0
-2842 1259 0
-2843 1260 0
-2844 1261 0
-2845 1262 0
-2846 1263 0
-2847 1264 0
-2848 1265 0
-2849 1266 0
-2850 1267 0
-2851 1269 0
-2852 1270 0
-2853 1271 0
-2854 1272 0
-2855 1273 0
-2856 1274 0
-2857 1275 0
-2858 1276 0
-2859 1277 0
-2860 1278 0
-2861 1279 0
-2862 1280 0
-2863 1281 0
-2864 1282 0
-2865 1283 0
-2866 1285 0
-2867 1286 0
-2868 1287 0
-2869 1288 0
-2870 1289 0
-2871 1290 0
-2872 1291 0
-2873 1292 0
-2874 1293 0
-2875 1294 0
-2876 1295 0
-2877 1296 0
-2878 1297 0
-2879 1298 0
-2880 1299 0
-2881 1301 0
-2882 1302 0
-2883 1303 0
-2884 1304 0
-2885 1305 0
-2886 1306 0
-2887 1307 0
-2888 1308 0
-2889 1309 0
-2890 1310 0
-2891 1311 0
-2892 1312 0
-2893 1313 0
-2894 1314 0
-2895 1315 0
-2896 1317 0
-2897 1318 0
-2898 1319 0
-2899 1320 0
-2900 1321 0
-2901 1322 0
-2902 1323 0
-2903 1324 0
-2904 1325 0
-2905 1326 0
-2906 1327 0
-2907 1328 0
-2908 1329 0
-2909 1330 0
-2910 1331 0
-2911 1333 0
-2912 1334 0
-2913 1335 0
-2914 1336 0
-2915 1337 0
-2916 1338 0
-2917 1339 0
-2918 1340 0
-2919 1341 0
-2920 1342 0
-2921 1343 0
-2922 1344 0
-2923 1345 0
-2924 1346 0
-2925 1347 0
-2926 1349 0
-2927 1350 0
-2928 1351 0
-2929 1352 0
-2930 1353 0
-2931 1354 0
-2932 1355 0
-2933 1356 0
-2934 1357 0
-2935 1358 0
-2936 1359 0
-2937 1360 0
-2938 1361 0
-2939 1362 0
-2940 1363 0
-2941 1365 0
-2942 1366 0
-2943 1367 0
-2944 1368 0
-2945 1369 0
-2946 1370 0
-2947 1371 0
-2948 1372 0
-2949 1373 0
-2950 1374 0
-2951 1375 0
-2952 1376 0
-2953 1377 0
-2954 1378 0
-2955 1379 0
-2956 1381 0
-2957 1382 0
-2958 1383 0
-2959 1384 0
-2960 1385 0
-2961 1386 0
-2962 1387 0
-2963 1388 0
-2964 1389 0
-2965 1390 0
-2966 1391 0
-2967 1392 0
-2968 1393 0
-2969 1394 0
-2970 1395 0
-2746 1621 0
-2747 1622 0
-2748 1623 0
-2749 1624 0
-2750 1625 0
-2751 1626 0
-2752 1627 0
-2753 1628 0
-2754 1629 0
-2755 1630 0
-2756 1631 0
-2757 1632 0
-2758 1633 0
-2759 1634 0
-2760 1635 0
-2761 1636 0
-2762 1637 0
-2763 1638 0
-2764 1639 0
-2765 1640 0
-2766 1641 0
-2767 1642 0
-2768 1643 0
-2769 1644 0
-2770 1645 0
-2771 1646 0
-2772 1647 0
-2773 1648 0
-2774 1649 0
-2775 1650 0
-2776 1651 0
-2777 1652 0
-2778 1653 0
-2779 1654 0
-2780 1655 0
-2781 1656 0
-2782 1657 0
-2783 1658 0
-2784 1659 0
-2785 1660 0
-2786 1661 0
-2787 1662 0
-2788 1663 0
-2789 1664 0
-2790 1665 0
-2791 1666 0
-2792 1667 0
-2793 1668 0
-2794 1669 0
-2795 1670 0
-2796 1671 0
-2797 1672 0
-2798 1673 0
-2799 1674 0
-2800 1675 0
-2801 1676 0
-2802 1677 0
-2803 1678 0
-2804 1679 0
-2805 1680 0
-2806 1681 0
-2807 1682 0
-2808 1683 0
-2809 1684 0
-2810 1685 0
-2811 1686 0
-2812 1687 0
-2813 1688 0
-2814 1689 0
-2815 1690 0
-2816 1691 0
-2817 1692 0
-2818 1693 0
-2819 1694 0
-2820 1695 0
-2821 1696 0
-2822 1697 0
-2823 1698 0
-2824 1699 0
-2825 1700 0
-2826 1701 0
-2827 1702 0
-2828 1703 0
-2829 1704 0
-2830 1705 0
-2831 1706 0
-2832 1707 0
-2833 1708 0
-2834 1709 0
-2835 1710 0
-2836 1711 0
-2837 1712 0
-2838 1713 0
-2839 1714 0
-2840 1715 0
-2841 1716 0
-2842 1717 0
-2843 1718 0
-2844 1719 0
-2845 1720 0
-2846 1721 0
-2847 1722 0
-2848 1723 0
-2849 1724 0
-2850 1725 0
-2851 1726 0
-2852 1727 0
-2853 1728 0
-2854 1729 0
-2855 1730 0
-2856 1731 0
-2857 1732 0
-2858 1733 0
-2859 1734 0
-2860 1735 0
-2861 1736 0
-2862 1737 0
-2863 1738 0
-2864 1739 0
-2865 1740 0
-2866 1741 0
-2867 1742 0
-2868 1743 0
-2869 1744 0
-2870 1745 0
-2871 1746 0
-2872 1747 0
-2873 1748 0
-2874 1749 0
-2875 1750 0
-2876 1751 0
-2877 1752 0
-2878 1753 0
-2879 1754 0
-2880 1755 0
-2881 1756 0
-2882 1757 0
-2883 1758 0
-2884 1759 0
-2885 1760 0
-2886 1761 0
-2887 1762 0
-2888 1763 0
-2889 1764 0
-2890 1765 0
-2891 1766 0
-2892 1767 0
-2893 1768 0
-2894 1769 0
-2895 1770 0
-2896 1771 0
-2897 1772 0
-2898 1773 0
-2899 1774 0
-2900 1775 0
-2901 1776 0
-2902 1777 0
-2903 1778 0
-2904 1779 0
-2905 1780 0
-2906 1781 0
-2907 1782 0
-2908 1783 0
-2909 1784 0
-2910 1785 0
-2911 1786 0
-2912 1787 0
-2913 1788 0
-2914 1789 0
-2915 1790 0
-2916 1791 0
-2917 1792 0
-2918 1793 0
-2919 1794 0
-2920 1795 0
-2921 1796 0
-2922 1797 0
-2923 1798 0
-2924 1799 0
-2925 1800 0
-2926 1801 0
-2927 1802 0
-2928 1803 0
-2929 1804 0
-2930 1805 0
-2931 1806 0
-2932 1807 0
-2933 1808 0
-2934 1809 0
-2935 1810 0
-2936 1811 0
-2937 1812 0
-2938 1813 0
-2939 1814 0
-2940 1815 0
-2941 1816 0
-2942 1817 0
-2943 1818 0
-2944 1819 0
-2945 1820 0
-2946 1821 0
-2947 1822 0
-2948 1823 0
-2949 1824 0
-2950 1825 0
-2951 1826 0
-2952 1827 0
-2953 1828 0
-2954 1829 0
-2955 1830 0
-2956 1831 0
-2957 1832 0
-2958 1833 0
-2959 1834 0
-2960 1835 0
-2961 1836 0
-2962 1837 0
-2963 1838 0
-2964 1839 0
-2965 1840 0
-2966 1841 0
-2967 1842 0
-2968 1843 0
-2969 1844 0
-2970 1845 0
-2746 2296 0
-2747 2297 0
-2748 2298 0
-2749 2299 0
-2750 2300 0
-2751 2301 0
-2752 2302 0
-2753 2303 0
-2754 2304 0
-2755 2305 0
-2756 2306 0
-2757 2307 0
-2758 2308 0
-2759 2309 0
-2760 2310 0
-2761 2311 0
-2762 2312 0
-2763 2313 0
-2764 2314 0
-2765 2315 0
-2766 2316 0
-2767 2317 0
-2768 2318 0
-2769 2319 0
-2770 2320 0
-2771 2321 0
-2772 2322 0
-2773 2323 0
-2774 2324 0
-2775 2325 0
-2776 2326 0
-2777 2327 0
-2778 2328 0
-2779 2329 0
-2780 2330 0
-2781 2331 0
-2782 2332 0
-2783 2333 0
-2784 2334 0
-2785 2335 0
-2786 2336 0
-2787 2337 0
-2788 2338 0
-2789 2339 0
-2790 2340 0
-2791 2341 0
-2792 2342 0
-2793 2343 0
-2794 2344 0
-2795 2345 0
-2796 2346 0
-2797 2347 0
-2798 2348 0
-2799 2349 0
-2800 2350 0
-2801 2351 0
-2802 2352 0
-2803 2353 0
-2804 2354 0
-2805 2355 0
-2806 2356 0
-2807 2357 0
-2808 2358 0
-2809 2359 0
-2810 2360 0
-2811 2361 0
-2812 2362 0
-2813 2363 0
-2814 2364 0
-2815 2365 0
-2816 2366 0
-2817 2367 0
-2818 2368 0
-2819 2369 0
-2820 2370 0
-2821 2371 0
-2822 2372 0
-2823 2373 0
-2824 2374 0
-2825 2375 0
-2826 2376 0
-2827 2377 0
-2828 2378 0
-2829 2379 0
-2830 2380 0
-2831 2381 0
-2832 2382 0
-2833 2383 0
-2834 2384 0
-2835 2385 0
-2836 2386 0
-2837 2387 0
-2838 2388 0
-2839 2389 0
-2840 2390 0
-2841 2391 0
-2842 2392 0
-2843 2393 0
-2844 2394 0
-2845 2395 0
-2846 2396 0
-2847 2397 0
-2848 2398 0
-2849 2399 0
-2850 2400 0
-2851 2401 0
-2852 2402 0
-2853 2403 0
-2854 2404 0
-2855 2405 0
-2856 2406 0
-2857 2407 0
-2858 2408 0
-2859 2409 0
-2860 2410 0
-2861 2411 0
-2862 2412 0
-2863 2413 0
-2864 2414 0
-2865 2415 0
-2866 2416 0
-2867 2417 0
-2868 2418 0
-2869 2419 0
-2870 2420 0
-2871 2421 0
-2872 2422 0
-2873 2423 0
-2874 2424 0
-2875 2425 0
-2876 2426 0
-2877 2427 0
-2878 2428 0
-2879 2429 0
-2880 2430 0
-2881 2431 0
-2882 2432 0
-2883 2433 0
-2884 2434 0
-2885 2435 0
-2886 2436 0
-2887 2437 0
-2888 2438 0
-2889 2439 0
-2890 2440 0
-2891 2441 0
-2892 2442 0
-2893 2443 0
-2894 2444 0
-2895 2445 0
-2896 2446 0
-2897 2447 0
-2898 2448 0
-2899 2449 0
-2900 2450 0
-2901 2451 0
-2902 2452 0
-2903 2453 0
-2904 2454 0
-2905 2455 0
-2906 2456 0
-2907 2457 0
-2908 2458 0
-2909 2459 0
-2910 2460 0
-2911 2461 0
-2912 2462 0
-2913 2463 0
-2914 2464 0
-2915 2465 0
-2916 2466 0
-2917 2467 0
-2918 2468 0
-2919 2469 0
-2920 2470 0
-2921 2471 0
-2922 2472 0
-2923 2473 0
-2924 2474 0
-2925 2475 0
-2926 2476 0
-2927 2477 0
-2928 2478 0
-2929 2479 0
-2930 2480 0
-2931 2481 0
-2932 2482 0
-2933 2483 0
-2934 2484 0
-2935 2485 0
-2936 2486 0
-2937 2487 0
-2938 2488 0
-2939 2489 0
-2940 2490 0
-2941 2491 0
-2942 2492 0
-2943 2493 0
-2944 2494 0
-2945 2495 0
-2946 2496 0
-2947 2497 0
-2948 2498 0
-2949 2499 0
-2950 2500 0
-2951 2501 0
-2952 2502 0
-2953 2503 0
-2954 2504 0
-2955 2505 0
-2956 2506 0
-2957 2507 0
-2958 2508 0
-2959 2509 0
-2960 2510 0
-2961 2511 0
-2962 2512 0
-2963 2513 0
-2964 2514 0
-2965 2515 0
-2966 2516 0
-2967 2517 0
-2968 2518 0
-2969 2519 0
-2970 2520 0
-2746 2521 0
-2747 2522 0
-2748 2523 0
-2749 2524 0
-2750 2525 0
-2751 2526 0
-2752 2527 0
-2753 2528 0
-2754 2529 0
-2755 2530 0
-2756 2531 0
-2757 2532 0
-2758 2533 0
-2759 2534 0
-2760 2535 0
-2761 2536 0
-2762 2537 0
-2763 2538 0
-2764 2539 0
-2765 2540 0
-2766 2541 0
-2767 2542 0
-2768 2543 0
-2769 2544 0
-2770 2545 0
-2771 2546 0
-2772 2547 0
-2773 2548 0
-2774 2549 0
-2775 2550 0
-2776 2551 0
-2777 2552 0
-2778 2553 0
-2779 2554 0
-2780 2555 0
-2781 2556 0
-2782 2557 0
-2783 2558 0
-2784 2559 0
-2785 2560 0
-2786 2561 0
-2787 2562 0
-2788 2563 0
-2789 2564 0
-2790 2565 0
-2791 2566 0
-2792 2567 0
-2793 2568 0
-2794 2569 0
-2795 2570 0
-2796 2571 0
-2797 2572 0
-2798 2573 0
-2799 2574 0
-2800 2575 0
-2801 2576 0
-2802 2577 0
-2803 2578 0
-2804 2579 0
-2805 2580 0
-2806 2581 0
-2807 2582 0
-2808 2583 0
-2809 2584 0
-2810 2585 0
-2811 2586 0
-2812 2587 0
-2813 2588 0
-2814 2589 0
-2815 2590 0
-2816 2591 0
-2817 2592 0
-2818 2593 0
-2819 2594 0
-2820 2595 0
-2821 2596 0
-2822 2597 0
-2823 2598 0
-2824 2599 0
-2825 2600 0
-2826 2601 0
-2827 2602 0
-2828 2603 0
-2829 2604 0
-2830 2605 0
-2831 2606 0
-2832 2607 0
-2833 2608 0
-2834 2609 0
-2835 2610 0
-2836 2611 0
-2837 2612 0
-2838 2613 0
-2839 2614 0
-2840 2615 0
-2841 2616 0
-2842 2617 0
-2843 2618 0
-2844 2619 0
-2845 2620 0
-2846 2621 0
-2847 2622 0
-2848 2623 0
-2849 2624 0
-2850 2625 0
-2851 2626 0
-2852 2627 0
-2853 2628 0
-2854 2629 0
-2855 2630 0
-2856 2631 0
-2857 2632 0
-2858 2633 0
-2859 2634 0
-2860 2635 0
-2861 2636 0
-2862 2637 0
-2863 2638 0
-2864 2639 0
-2865 2640 0
-2866 2641 0
-2867 2642 0
-2868 2643 0
-2869 2644 0
-2870 2645 0
-2871 2646 0
-2872 2647 0
-2873 2648 0
-2874 2649 0
-2875 2650 0
-2876 2651 0
-2877 2652 0
-2878 2653 0
-2879 2654 0
-2880 2655 0
-2881 2656 0
-2882 2657 0
-2883 2658 0
-2884 2659 0
-2885 2660 0
-2886 2661 0
-2887 2662 0
-2888 2663 0
-2889 2664 0
-2890 2665 0
-2891 2666 0
-2892 2667 0
-2893 2668 0
-2894 2669 0
-2895 2670 0
-2896 2671 0
-2897 2672 0
-2898 2673 0
-2899 2674 0
-2900 2675 0
-2901 2676 0
-2902 2677 0
-2903 2678 0
-2904 2679 0
-2905 2680 0
-2906 2681 0
-2907 2682 0
-2908 2683 0
-2909 2684 0
-2910 2685 0
-2911 2686 0
-2912 2687 0
-2913 2688 0
-2914 2689 0
-2915 2690 0
-2916 2691 0
-2917 2692 0
-2918 2693 0
-2919 2694 0
-2920 2695 0
-2921 2696 0
-2922 2697 0
-2923 2698 0
-2924 2699 0
-2925 2700 0
-2926 2701 0
-2927 2702 0
-2928 2703 0
-2929 2704 0
-2930 2705 0
-2931 2706 0
-2932 2707 0
-2933 2708 0
-2934 2709 0
-2935 2710 0
-2936 2711 0
-2937 2712 0
-2938 2713 0
-2939 2714 0
-2940 2715 0
-2941 2716 0
-2942 2717 0
-2943 2718 0
-2944 2719 0
-2945 2720 0
-2946 2721 0
-2947 2722 0
-2948 2723 0
-2949 2724 0
-2950 2725 0
-2951 2726 0
-2952 2727 0
-2953 2728 0
-2954 2729 0
-2955 2730 0
-2956 2731 0
-2957 2732 0
-2958 2733 0
-2959 2734 0
-2960 2735 0
-2961 2736 0
-2962 2737 0
-2963 2738 0
-2964 2739 0
-2965 2740 0
-2966 2741 0
-2967 2742 0
-2968 2743 0
-2969 2744 0
-2970 2745 0
2746 0
2747 0
2748 0
2749 0
2750 0
2751 0
2752 0
2753 0
2754 0
2755 0
2756 0
2757 0
2758 0
2759 0
2760 0
2761 0
2762 0
2763 0
2764 0
2765 0
2766 0
2767 0
2768 0
2769 0
2770 0
2771 0
2772 0
2773 0
2774 0
2775 0
2776 0
2777 0
2778 0
2779 0
2780 0
2781 0
2782 0
2783 0
2784 0
2785 0
2786 0
2787 0
2788 0
2789 0
2790 0
2791 0
2792 0
2793 0
2794 0
2795 0
2796 0
2797 0
2798 0
2799 0
2800 0
2801 0
2802 0
2803 0
2804 0
2805 0
2806 0
2807 0
2808 0
2809 0
2810 0
2811 0
2812 0
2813 0
2814 0
2815 0
2816 0
2817 0
2818 0
2819 0
2820 0
2821 0
2822 0
2823 0
2824 0
2825 0
2826 0
2827 0
2828 0
2829 0
2830 0
2831 0
2832 0
2833 0
2834 0
2835 0
2836 0
2837 0
2838 0
2839 0
2840 0
2841 0
2842 0
2843 0
2844 0
2845 0
2846 0
2847 0
2848 0
2849 0
2850 0
2851 0
2852 0
2853 0
2854 0
2855 0
2856 0
2857 0
2858 0
2859 0
2860 0
2861 0
2862 0
2863 0
2864 0
2865 0
2866 0
2867 0
2868 0
2869 0
2870 0
2871 0
2872 0
2873 0
2874 0
2875 0
2876 0
2877 0
2878 0
2879 0
2880 0
2881 0
2882 0
2883 0
2884 0
2885 0
2886 0
2887 0
2888 0
2889 0
2890 0
2891 0
2892 0
2893 0
2894 0
2895 0
2896 0
2897 0
2898 0
2899 0
2900 0
2901 0
2902 0
2903 0
2904 0
2905 0
2906 0
2907 0
2908 0
2909 0
2910 0
2911 0
2912 0
2913 0
2914 0
2915 0
2916 0
2917 0
2918 0
2919 0
2920 0
2921 0
2922 0
2923 0
2924 0
2925 0
2926 0
2927 0
2928 0
2929 0
2930 0
2931 0
2932 0
2933 0
2934 0
2935 0
2936 0
2937 0
2938 0
2939 0
2940 0
2941 0
2942 0
2943 0
2944 0
2945 0
2946 0
2947 0
2948 0
2949 0
2950 0
2951 0
2952 0
2953 0
2954 0
2955 0
2956 0
2957 0
2958 0
2959 0
2960 0
2961 0
2962 0
2963 0
2964 0
2965 0
2966 0
2967 0
2968 0
2969 0
2970 0
17 0
14 0
20 0
-1268 0
-1150 0
-1154 0
32 0
35 0
11 0
-1162 0
-1164 0
-1148 0
-1236 0
44 0
-1220 0
-1170 0
38 0
1141 0
-1316 0
-1166 0
-1332 0
-1168 0
-1204 0
-1252 0
-1380 0
41 0
-1348 0
26 0
-1158 0
2 0
-1146 0
1172 0
-1364 0
5 0
-1144 0
8 0
-1160 0
-1284 0
29 0
23 0
-1156 0
-1188 0
-1142 0
-1300 0
-1152 0
1 0
4 46 0
-4 -46 0
-4 -50 7 0
-4 -52 10 0
-4 -54 13 0
-4 -56 16 0
-4 -58 19 0
-4 -60 22 0
-4 -62 25 0
-4 -64 28 0
-4 -66 31 0
-4 -68 34 0
-4 -70 37 0
-4 -72 40 0
-4 -74 43 0
7 76 0
-7 -76 0
-7 -78 4 0
-7 -82 10 0
-7 -84 13 0
-7 -86 16 0
-7 -88 19 0
-7 -90 22 0
-7 -92 25 0
-7 -94 28 0
-7 -96 31 0
-7 -98 34 0
-7 -100 37 0
-7 -102 40 0
-7 -104 43 0
10 106 0
-10 -106 0
-10 -108 4 0
-10 -110 7 0
-10 -114 13 0
-10 -116 16 0
-10 -118 19 0
-10 -120 22 0
-10 -122 25 0
-10 -124 28 0
-10 -126 31 0
-10 -128 34 0
-10 -130 37 0
-10 -132 40 0
-10 -134 43 0
13 136 0
-13 -136 0
-13 -138 4 0
-13 -140 7 0
-13 -142 10 0
-13 -146 16 0
-13 -148 19 0
-13 -150 22 0
-13 -152 25 0
-13 -154 28 0
-13 -156 31 0
-13 -158 34 0
-13 -160 37 0
-13 -162 40 0
-13 -164 43 0
16 166 0
-16 -166 0
-16 -168 4 0
-16 -170 7 0
-16 -172 10 0
-16 -174 13 0
-16 -178 19 0
-16 -180 22 0
-16 -182 25 0
-16 -184 28 0
-16 -186 31 0
-16 -188 34 0
-16 -190 37 0
-16 -192 40 0
-16 -194 43 0
19 196 0
-19 -196 0
-19 -198 4 0
-19 -200 7 0
-19 -202 10 0
-19 -204 13 0
-19 -206 16 0
-19 -210 22 0
-19 -212 25 0
-19 -214 28 0
-19 -216 31 0
-19 -218 34 0
-19 -220 37 0
-19 -222 40 0
-19 -224 43 0
22 226 0
-22 -226 0
-22 -228 4 0
-22 -230 7 0
-22 -232 10 0
-22 -234 13 0
-22 -236 16 0
-22 -238 19 0
-22 -242 25 0
-22 -244 28 0
-22 -246 31 0
-22 -248 34 0
-22 -250 37 0
-22 -252 40 0
-22 -254 43 0
25 256 0
-25 -256 0
-25 -258 4 0
-25 -260 7 0
-25 -262 10 0
-25 -264 13 0
-25 -266 16 0
-25 -268 19 0
-25 -270 22 0
-25 -274 28 0
-25 -276 31 0
-25 -278 34 0
-25 -280 37 0
-25 -282 40 0
-25 -284 43 0
28 286 0
-28 -286 0
-28 -288 4 0
-28 -290 7 0
-28 -292 10 0
-28 -294 13 0
-28 -296 16 0
-28 -298 19 0
-28 -300 22 0
-28 -302 25 0
-28 -306 31 0
-28 -308 34 0
-28 -310 37 0
-28 -312 40 0
-28 -314 43 0
31 316 0
-31 -316 0
-31 -318 4 0
-31 -320 7 0
-31 -322 10 0
-31 -324 13 0
-31 -326 16 0
-31 -328 19 0
-31 -330 22 0
-31 -332 25 0
-31 -334 28 0
-31 -338 34 0
-31 -340 37 0
-31 -342 40 0
-31 -344 43 0
34 346 0
-34 -346 0
-34 -348 4 0
-34 -350 7 0
-34 -352 10 0
-34 -354 13 0
-34 -356 16 0
-34 -358 19 0
-34 -360 22 0
-34 -362 25 0
-34 -364 28 0
-34 -366 31 0
-34 -370 37 0
-34 -372 40 0
-34 -374 43 0
37 376 0
-37 -376 0
-37 -378 4 0
-37 -380 7 0
-37 -382 10 0
-37 -384 13 0
-37 -386 16 0
-37 -388 19 0
-37 -390 22 0
-37 -392 25 0
-37 -394 28 0
-37 -396 31 0
-37 -398 34 0
-37 -402 40 0
-37 -404 43 0
40 406 0
-40 -406 0
-40 -408 4 0
-40 -410 7 0
-40 -412 10 0
-40 -414 13 0
-40 -416 16 0
-40 -418 19 0
-40 -420 22 0
-40 -422 25 0
-40 -424 28 0
-40 -426 31 0
-40 -428 34 0
-40 -430 37 0
-40 -434 43 0
43 436 0
-43 -436 0
-43 -438 4 0
-43 -440 7 0
-43 -442 10 0
-43 -444 13 0
-43 -446 16 0
-43 -448 19 0
-43 -450 22 0
-43 -452 25 0
-43 -454 28 0
-43 -456 31 0
-43 -458 34 0
-43 -460 37 0
-43 -462 40 0
48 0
46 4 0
-46 -4 0
-46 -7 50 0
-46 -10 52 0
-46 -13 54 0
-46 -16 56 0
-46 -19 58 0
-46 -22 60 0
-46 -25 62 0
-46 -28 64 0
-46 -31 66 0
-46 -34 68 0
-46 -37 70 0
-46 -40 72 0
-46 -43 74 0
50 78 0
-50 -78 0
-50 -76 46 0
-50 -82 52 0
-50 -84 54 0
-50 -86 56 0
-50 -88 58 0
-50 -90 60 0
-50 -92 62 0
-50 -94 64 0
-50 -96 66 0
-50 -98 68 0
-50 -100 70 0
-50 -102 72 0
-50 -104 74 0
52 108 0
-52 -108 0
-52 -106 46 0
-52 -110 50 0
-52 -114 54 0
-52 -116 56 0
-52 -118 58 0
-52 -120 60 0
-52 -122 62 0
-52 -124 64 0
-52 -126 66 0
-52 -128 68 0
-52 -130 70 0
-52 -132 72 0
-52 -134 74 0
54 138 0
-54 -138 0
-54 -136 46 0
-54 -140 50 0
-54 -142 52 0
-54 -146 56 0
-54 -148 58 0
-54 -150 60 0
-54 -152 62 0
-54 -154 64 0
-54 -156 66 0
-54 -158 68 0
-54 -160 70 0
-54 -162 72 0
-54 -164 74 0
56 168 0
-56 -168 0
-56 -166 46 0
-56 -170 50 0
-56 -172 52 0
-56 -174 54 0
-56 -178 58 0
-56 -180 60 0
-56 -182 62 0
-56 -184 64 0
-56 -186 66 0
-56 -188 68 0
-56 -190 70 0
-56 -192 72 0
-56 -194 74 0
58 198 0
-58 -198 0
-58 -196 46 0
-58 -200 50 0
-58 -202 52 0
-58 -204 54 0
-58 -206 56 0
-58 -210 60 0
-58 -212 62 0
-58 -214 64 0
-58 -216 66 0
-58 -218 68 0
-58 -220 70 0
-58 -222 72 0
-58 -224 74 0
60 228 0
-60 -228 0
-60 -226 46 0
-60 -230 50 0
-60 -232 52 0
-60 -234 54 0
-60 -236 56 0
-60 -238 58 0
-60 -242 62 0
-60 -244 64 0
-60 -246 66 0
-60 -248 68 0
-60 -250 70 0
-60 -252 72 0
-60 -254 74 0
62 258 0
-62 -258 0
-62 -256 46 0
-62 -260 50 0
-62 -262 52 0
-62 -264 54 0
-62 -266 56 0
-62 -268 58 0
-62 -270 60 0
-62 -274 64 0
-62 -276 66 0
-62 -278 68 0
-62 -280 70 0
-62 -282 72 0
-62 -284 74 0
64 288 0
-64 -288 0
-64 -286 46 0
-64 -290 50 0
-64 -292 52 0
-64 -294 54 0
-64 -296 56 0
-64 -298 58 0
-64 -300 60 0
-64 -302 62 0
-64 -306 66 0
-64 -308 68 0
-64 -310 70 0
-64 -312 72 0
-64 -314 74 0
66 318 0
-66 -318 0
-66 -316 46 0
-66 -320 50 0
-66 -322 52 0
-66 -324 54 0
-66 -326 56 0
-66 -328 58 0
-66 -330 60 0
-66 -332 62 0
-66 -334 64 0
-66 -338 68 0
-66 -340 70 0
-66 -342 72 0
-66 -344 74 0
68 348 0
-68 -348 0
-68 -346 46 0
-68 -350 50 0
-68 -352 52 0
-68 -354 54 0
-68 -356 56 0
-68 -358 58 0
-68 -360 60 0
-68 -362 62 0
-68 -364 64 0
-68 -366 66 0
-68 -370 70 0
-68 -372 72 0
-68 -374 74 0
70 378 0
-70 -378 0
-70 -376 46 0
-70 -380 50 0
-70 -382 52 0
-70 -384 54 0
-70 -386 56 0
-70 -388 58 0
-70 -390 60 0
-70 -392 62 0
-70 -394 64 0
-70 -396 66 0
-70 -398 68 0
-70 -402 72 0
-70 -404 74 0
72 408 0
-72 -408 0
-72 -406 46 0
-72 -410 50 0
-72 -412 52 0
-72 -414 54 0
-72 -416 56 0
-72 -418 58 0
-72 -420 60 0
-72 -422 62 0
-72 -424 64 0
-72 -426 66 0
-72 -428 68 0
-72 -430 70 0
-72 -434 74 0
74 438 0
-74 -438 0
-74 -436 46 0
-74 -440 50 0
-74 -442 52 0
-74 -444 54 0
-74 -446 56 0
-74 -448 58 0
-74 -450 60 0
-74 -452 62 0
-74 -454 64 0
-74 -456 66 0
-74 -458 68 0
-74 -460 70 0
-74 -462 72 0
80 0
76 7 0
-76 -7 0
-76 -4 78 0
-76 -10 82 0
-76 -13 84 0
-76 -16 86 0
-76 -19 88 0
-76 -22 90 0
-76 -25 92 0
-76 -28 94 0
-76 -31 96 0
-76 -34 98 0
-76 -37 100 0
-76 -40 102 0
-76 -43 104 0
78 50 0
-78 -50 0
-78 -46 76 0
-78 -52 82 0
-78 -54 84 0
-78 -56 86 0
-78 -58 88 0
-78 -60 90 0
-78 -62 92 0
-78 -64 94 0
-78 -66 96 0
-78 -68 98 0
-78 -70 100 0
-78 -72 102 0
-78 -74 104 0
82 110 0
-82 -110 0
-82 -106 76 0
-82 -108 78 0
-82 -114 84 0
-82 -116 86 0
-82 -118 88 0
-82 -120 90 0
-82 -122 92 0
-82 -124 94 0
-82 -126 96 0
-82 -128 98 0
-82 -130 100 0
-82 -132 102 0
-82 -134 104 0
84 140 0
-84 -140 0
-84 -136 76 0
-84 -138 78 0
-84 -142 82 0
-84 -146 86 0
-84 -148 88 0
-84 -150 90 0
-84 -152 92 0
-84 -154 94 0
-84 -156 96 0
-84 -158 98 0
-84 -160 100 0
-84 -162 102 0
-84 -164 104 0
86 170 0
-86 -170 0
-86 -166 76 0
-86 -168 78 0
-86 -172 82 0
-86 -174 84 0
-86 -178 88 0
-86 -180 90 0
-86 -182 92 0
-86 -184 94 0
-86 -186 96 0
-86 -188 98 0
-86 -190 100 0
-86 -192 102 0
-86 -194 104 0
88 200 0
-88 -200 0
-88 -196 76 0
-88 -198 78 0
-88 -202 82 0
-88 -204 84 0
-88 -206 86 0
-88 -210 90 0
-88 -212 92 0
-88 -214 94 0
-88 -216 96 0
-88 -218 98 0
-88 -220 100 0
-88 -222 102 0
-88 -224 104 0
90 230 0
-90 -230 0
-90 -226 76 0
-90 -228 78 0
-90 -232 82 0
-90 -234 84 0
-90 -236 86 0
-90 -238 88 0
-90 -242 92 0
-90 -244 94 0
-90 -246 96 0
-90 -248 98 0
-90 -250 100 0
-90 -252 102 0
-90 -254 104 0
92 260 0
-92 -260 0
-92 -256 76 0
-92 -258 78 0
-92 -262 82 0
-92 -264 84 0
-92 -266 86 0
-92 -268 88 0
-92 -270 90 0
-92 -274 94 0
-92 -276 96 0
-92 -278 98 0
-92 -280 100 0
-92 -282 102 0
-92 -284 104 0
94 290 0
-94 -290 0
-94 -286 76 0
-94 -288 78 0
-94 -292 82 0
-94 -294 84 0
-94 -296 86 0
-94 -298 88 0
-94 -300 90 0
-94 -302 92 0
-94 -306 96 0
-94 -308 98 0
-94 -310 100 0
-94 -312 102 0
-94 -314 104 0
96 320 0
-96 -320 0
-96 -316 76 0
-96 -318 78 0
-96 -322 82 0
-96 -324 84 0
-96 -326 86 0
-96 -328 88 0
-96 -330 90 0
-96 -332 92 0
-96 -334 94 0
-96 -338 98 0
-96 -340 100 0
-96 -342 102 0
-96 -344 104 0
98 350 0
-98 -350 0
-98 -346 76 0
-98 -348 78 0
-98 -352 82 0
-98 -354 84 0
-98 -356 86 0
-98 -358 88 0
-98 -360 90 0
-98 -362 92 0
-98 -364 94 0
-98 -366 96 0
-98 -370 100 0
-98 -372 102 0
-98 -374 104 0
100 380 0
-100 -380 0
-100 -376 76 0
-100 -378 78 0
-100 -382 82 0
-100 -384 84 0
-100 -386 86 0
-100 -388 88 0
-100 -390 90 0
-100 -392 92 0
-100 -394 94 0
-100 -396 96 0
-100 -398 98 0
-100 -402 102 0
-100 -404 104 0
102 410 0
-102 -410 0
-102 -406 76 0
-102 -408 78 0
-102 -412 82 0
-102 -414 84 0
-102 -416 86 0
-102 -418 88 0
-102 -420 90 0
-102 -422 92 0
-102 -424 94 0
-102 -426 96 0
-102 -428 98 0
-102 -430 100 0
-102 -434 104 0
104 440 0
-104 -440 0
-104 -436 76 0
-104 -438 78 0
-104 -442 82 0
-104 -444 84 0
-104 -446 86 0
-104 -448 88 0
-104 -450 90 0
-104 -452 92 0
-104 -454 94 0
-104 -456 96 0
-104 -458 98 0
-104 -460 100 0
-104 -462 102 0
112 0
106 10 0
-106 -10 0
-106 -4 108 0
-106 -7 110 0
-106 -13 114 0
-106 -16 116 0
-106 -19 118 0
-106 -22 120 0
-106 -25 122 0
-106 -28 124 0
-106 -31 126 0
-106 -34 128 0
-106 -37 130 0
-106 -40 132 0
-106 -43 134 0
108 52 0
-108 -52 0
-108 -46 106 0
-108 -50 110 0
-108 -54 114 0
-108 -56 116 0
-108 -58 118 0
-108 -60 120 0
-108 -62 122 0
-108 -64 124 0
-108 -66 126 0
-108 -68 128 0
-108 -70 130 0
-108 -72 132 0
-108 -74 134 0
110 82 0
-110 -82 0
-110 -76 106 0
-110 -78 108 0
-110 -84 114 0
-110 -86 116 0
-110 -88 118 0
-110 -90 120 0
-110 -92 122 0
-110 -94 124 0
-110 -96 126 0
-110 -98 128 0
-110 -100 130 0
-110 -102 132 0
-110 -104 134 0
114 142 0
-114 -142 0
-114 -136 106 0
-114 -138 108 0
-114 -140 110 0
-114 -146 116 0
-114 -148 118 0
-114 -150 120 0
-114 -152 122 0
-114 -154 124 0
-114 -156 126 0
-114 -158 128 0
-114 -160 130 0
-114 -162 132 0
-114 -164 134 0
116 172 0
-116 -172 0
-116 -166 106 0
-116 -168 108 0
-116 -170 110 0
-116 -174 114 0
-116 -178 118 0
-116 -180 120 0
-116 -182 122 0
-116 -184 124 0
-116 -186 126 0
-116 -188 128 0
-116 -190 130 0
-116 -192 132 0
-116 -194 134 0
118 202 0
-118 -202 0
-118 -196 106 0
-118 -198 108 0
-118 -200 110 0
-118 -204 114 0
-118 -206 116 0
-118 -210 120 0
-118 -212 122 0
-118 -214 124 0
-118 -216 126 0
-118 -218 128 0
-118 -220 130 0
-118 -222 132 0
-118 -224 134 0
120 232 0
-120 -232 0
-120 -226 106 0
-120 -228 108 0
-120 -230 110 0
-120 -234 114 0
-120 -236 116 0
-120 -238 118 0
-120 -242 122 0
-120 -244 124 0
-120 -246 126 0
-120 -248 128 0
-120 -250 130 0
-120 -252 132 0
-120 -254 134 0
122 262 0
-122 -262 0
-122 -256 106 0
-122 -258 108 0
-122 -260 110 0
-122 -264 114 0
-122 -266 116 0
-122 -268 118 0
-122 -270 120 0
-122 -274 124 0
-122 -276 126 0
-122 -278 128 0
-122 -280 130 0
-122 -282 132 0
-122 -284 134 0
124 292 0
-124 -292 0
-124 -286 106 0
-124 -288 108 0
-124 -290 110 0
-124 -294 114 0
-124 -296 116 0
-124 -298 118 0
-124 -300 120 0
-124 -302 122 0
-124 -306 126 0
-124 -308 128 0
-124 -310 130 0
-124 -312 132 0
-124 -314 134 0
126 322 0
-126 -322 0
-126 -316 106 0
-126 -318 108 0
-126 -320 110 0
-126 -324 114 0
-126 -326 116 0
-126 -328 118 0
-126 -330 120 0
-126 -332 122 0
-126 -334 124 0
-126 -338 128 0
-126 -340 130 0
-126 -342 132 0
-126 -344 134 0
128 352 0
-128 -352 0
-128 -346 106 0
-128 -348 108 0
-128 -350 110 0
-128 -354 114 0
-128 -356 116 0
-128 -358 118 0
-128 -360 120 0
-128 -362 122 0
-128 -364 124 0
-128 -366 126 0
-128 -370 130 0
-128 -372 132 0
-128 -374 134 0
130 382 0
-130 -382 0
-130 -376 106 0
-130 -378 108 0
-130 -380 110 0
-130 -384 114 0
-130 -386 116 0
-130 -388 118 0
-130 -390 120 0
-130 -392 122 0
-130 -394 124 0
-130 -396 126 0
-130 -398 128 0
-130 -402 132 0
-130 -404 134 0
132 412 0
-132 -412 0
-132 -406 106 0
-132 -408 108 0
-132 -410 110 0
-132 -414 114 0
-132 -416 116 0
-132 -418 118 0
-132 -420 120 0
-132 -422 122 0
-132 -424 124 0
-132 -426 126 0
-132 -428 128 0
-132 -430 130 0
-132 -434 134 0
134 442 0
-134 -442 0
-134 -436 106 0
-134 -438 108 0
-134 -440 110 0
-134 -444 114 0
-134 -446 116 0
-134 -448 118 0
-134 -450 120 0
-134 -452 122 0
-134 -454 124 0
-134 -456 126 0
-134 -458 128 0
-134 -460 130 0
-134 -462 132 0
144 0
136 13 0
-136 -13 0
-136 -4 138 0
-136 -7 140 0
-136 -10 142 0
-136 -16 146 0
-136 -19 148 0
-136 -22 150 0
-136 -25 152 0
-136 -28 154 0
-136 -31 156 0
-136 -34 158 0
-136 -37 160 0
-136 -40 162 0
-136 -43 164 0
138 54 0
-138 -54 0
-138 -46 136 0
-138 -50 140 0
-138 -52 142 0
-138 -56 146 0
-138 -58 148 0
-138 -60 150 0
-138 -62 152 0
-138 -64 154 0
-138 -66 156 0
-138 -68 158 0
-138 -70 160 0
-138 -72 162 0
-138 -74 164 0
140 84 0
-140 -84 0
-140 -76 136 0
-140 -78 138 0
-140 -82 142 0
-140 -86 146 0
-140 -88 148 0
-140 -90 150 0
-140 -92 152 0
-140 -94 154 0
-140 -96 156 0
-140 -98 158 0
-140 -100 160 0
-140 -102 162 0
-140 -104 164 0
142 114 0
-142 -114 0
-142 -106 136 0
-142 -108 138 0
-142 -110 140 0
-142 -116 146 0
-142 -118 148 0
-142 -120 150 0
-142 -122 152 0
-142 -124 154 0
-142 -126 156 0
-142 -128 158 0
-142 -130 160 0
-142 -132 162 0
-142 -134 164 0
146 174 0
-146 -174 0
-146 -166 136 0
-146 -168 138 0
-146 -170 140 0
-146 -172 142 0
-146 -178 148 0
-146 -180 150 0
-146 -182 152 0
-146 -184 154 0
-146 -186 156 0
-146 -188 158 0
-146 -190 160 0
-146 -192 162 0
-146 -194 164 0
148 204 0
-148 -204 0
-148 -196 136 0
-148 -198 138 0
-148 -200 140 0
-148 -202 142 0
-148 -206 146 0
-148 -210 150 0
-148 -212 152 0
-148 -214 154 0
-148 -216 156 0
-148 -218 158 0
-148 -220 160 0
-148 -222 162 0
-148 -224 164 0
150 234 0
-150 -234 0
-150 -226 136 0
-150 -228 138 0
-150 -230 140 0
-150 -232 142 0
-150 -236 146 0
-150 -238 148 0
-150 -242 152 0
-150 -244 154 0
-150 -246 156 0
-150 -248 158 0
-150 -250 160 0
-150 -252 162 0
-150 -254 164 0
152 264 0
-152 -264 0
-152 -256 136 0
-152 -258 138 0
-152 -260 140 0
-152 -262 142 0
-152 -266 146 0
-152 -268 148 0
-152 -270 150 0
-152 -274 154 0
-152 -276 156 0
-152 -278 158 0
-152 -280 160 0
-152 -282 162 0
-152 -284 164 0
154 294 0
-154 -294 0
-154 -286 136 0
-154 -288 138 0
-154 -290 140 0
-154 -292 142 0
-154 -296 146 0
-154 -298 148 0
-154 -300 150 0
-154 -302 152 0
-154 -306 156 0
-154 -308 158 0
-154 -310 160 0
-154 -312 162 0
-154 -314 164 0
156 324 0
-156 -324 0
-156 -316 136 0
-156 -318 138 0
-156 -320 140 0
-156 -322 142 0
-156 -326 146 0
-156 -328 148 0
-156 -330 150 0
-156 -332 152 0
-156 -334 154 0
-156 -338 158 0
-156 -340 160 0
-156 -342 162 0
-156 -344 164 0
158 354 0
-158 -354 0
-158 -346 136 0
-158 -348 138 0
-158 -350 140 0
-158 -352 142 0
-158 -356 146 0
-158 -358 148 0
-158 -360 150 0
-158 -362 152 0
-158 -364 154 0
-158 -366 156 0
-158 -370 160 0
-158 -372 162 0
-158 -374 164 0
160 384 0
-160 -384 0
-160 -376 136 0
-160 -378 138 0
-160 -380 140 0
-160 -382 142 0
-160 -386 146 0
-160 -388 148 0
-160 -390 150 0
-160 -392 152 0
-160 -394 154 0
-160 -396 156 0
-160 -398 158 0
-160 -402 162 0
-160 -404 164 0
162 414 0
-162 -414 0
-162 -406 136 0
-162 -408 138 0
-162 -410 140 0
-162 -412 142 0
-162 -416 146 0
-162 -418 148 0
-162 -420 150 0
-162 -422 152 0
-162 -424 154 0
-162 -426 156 0
-162 -428 158 0
-162 -430 160 0
-162 -434 164 0
164 444 0
-164 -444 0
-164 -436 136 0
-164 -438 138 0
-164 -440 140 0
-164 -442 142 0
-164 -446 146 0
-164 -448 148 0
-164 -450 150 0
-164 -452 152 0
-164 -454 154 0
-164 -456 156 0
-164 -458 158 0
-164 -460 160 0
-164 -462 162 0
176 0
166 16 0
-166 -16 0
-166 -4 168 0
-166 -7 170 0
-166 -10 172 0
-166 -13 174 0
-166 -19 178 0
-166 -22 180 0
-166 -25 182 0
-166 -28 184 0
-166 -31 186 0
-166 -34 188 0
-166 -37 190 0
-166 -40 192 0
-166 -43 194 0
168 56 0
-168 -56 0
-168 -46 166 0
-168 -50 170 0
-168 -52 172 0
-168 -54 174 0
-168 -58 178 0
-168 -60 180 0
-168 -62 182 0
-168 -64 184 0
-168 -66 186 0
-168 -68 188 0
-168 -70 190 0
-168 -72 192 0
-168 -74 194 0
170 86 0
-170 -86 0
-170 -76 166 0
-170 -78 168 0
-170 -82 172 0
-170 -84 174 0
-170 -88 178 0
-170 -90 180 0
-170 -92 182 0
-170 -94 184 0
-170 -96 186 0
-170 -98 188 0
-170 -100 190 0
-170 -102 192 0
-170 -104 194 0
172 116 0
-172 -116 0
-172 -106 166 0
-172 -108 168 0
-172 -110 170 0
-172 -114 174 0
-172 -118 178 0
-172 -120 180 0
-172 -122 182 0
-172 -124 184 0
-172 -126 186 0
-172 -128 188 0
-172 -130 190 0
-172 -132 192 0
-172 -134 194 0
174 146 0
-174 -146 0
-174 -136 166 0
-174 -138 168 0
-174 -140 170 0
-174 -142 172 0
-174 -148 178 0
-174 -150 180 0
-174 -152 182 0
-174 -154 184 0
-174 -156 186 0
-174 -158 188 0
-174 -160 190 0
-174 -162 192 0
-174 -164 194 0
178 206 0
-178 -206 0
-178 -196 166 0
-178 -198 168 0
-178 -200 170 0
-178 -202 172 0
-178 -204 174 0
-178 -210 180 0
-178 -212 182 0
-178 -214 184 0
-178 -216 186 0
-178 -218 188 0
-178 -220 190 0
-178 -222 192 0
-178 -224 194 0
180 236 0
-180 -236 0
-180 -226 166 0
-180 -228 168 0
-180 -230 170 0
-180 -232 172 0
-180 -234 174 0
-180 -238 178 0
-180 -242 182 0
-180 -244 184 0
-180 -246 186 0
-180 -248 188 0
-180 -250 190 0
-180 -252 192 0
-180 -254 194 0
182 266 0
-182 -266 0
-182 -256 166 0
-182 -258 168 0
-182 -260 170 0
-182 -262 172 0
-182 -264 174 0
-182 -268 178 0
-182 -270 180 0
-182 -274 184 0
-182 -276 186 0
-182 -278 188 0
-182 -280 190 0
-182 -282 192 0
-182 -284 194 0
184 296 0
-184 -296 0
-184 -286 166 0
-184 -288 168 0
-184 -290 170 0
-184 -292 172 0
-184 -294 174 0
-184 -298 178 0
-184 -300 180 0
-184 -302 182 0
-184 -306 186 0
-184 -308 188 0
-184 -310 190 0
-184 -312 192 0
-184 -314 194 0
186 326 0
-186 -326 0
-186 -316 166 0
-186 -318 168 0
-186 -320 170 0
-186 -322 172 0
-186 -324 174 0
-186 -328 178 0
-186 -330 180 0
-186 -332 182 0
-186 -334 184 0
-186 -338 188 0
-186 -340 190 0
-186 -342 192 0
-186 -344 194 0
188 356 0
-188 -356 0
-188 -346 166 0
-188 -348 168 0
-188 -350 170 0
-188 -352 172 0
-188 -354 174 0
-188 -358 178 0
-188 -360 180 0
-188 -362 182 0
-188 -364 184 0
-188 -366 186 0
-188 -370 190 0
-188 -372 192 0
-188 -374 194 0
190 386 0
-190 -386 0
-190 -376 166 0
-190 -378 168 0
-190 -380 170 0
-190 -382 172 0
-190 -384 174 0
-190 -388 178 0
-190 -390 180 0
-190 -392 182 0
-190 -394 184 0
-190 -396 186 0
-190 -398 188 0
-190 -402 192 0
-190 -404 194 0
192 416 0
-192 -416 0
-192 -406 166 0
-192 -408 168 0
-192 -410 170 0
-192 -412 172 0
-192 -414 174 0
-192 -418 178 0
-192 -420 180 0
-192 -422 182 0
-192 -424 184 0
-192 -426 186 0
-192 -428 188 0
-192 -430 190 0
-192 -434 194 0
194 446 0
-194 -446 0
-194 -436 166 0
-194 -438 168 0
-194 -440 170 0
-194 -442 172 0
-194 -444 174 0
-194 -448 178 0
-194 -450 180 0
-194 -452 182 0
-194 -454 184 0
-194 -456 186 0
-194 -458 188 0
-194 -460 190 0
-194 -462 192 0
208 0
196 19 0
-196 -19 0
-196 -4 198 0
-196 -7 200 0
-196 -10 202 0
-196 -13 204 0
-196 -16 206 0
-196 -22 210 0
-196 -25 212 0
-196 -28 214 0
-196 -31 216 0
-196 -34 218 0
-196 -37 220 0
-196 -40 222 0
-196 -43 224 0
198 58 0
-198 -58 0
-198 -46 196 0
-198 -50 200 0
-198 -52 202 0
-198 -54 204 0
-198 -56 206 0
-198 -60 210 0
-198 -62 212 0
-198 -64 214 0
-198 -66 216 0
-198 -68 218 0
-198 -70 220 0
-198 -72 222 0
-198 -74 224 0
200 88 0
-200 -88 0
-200 -76 196 0
-200 -78 198 0
-200 -82 202 0
-200 -84 204 0
-200 -86 206 0
-200 -90 210 0
-200 -92 212 0
-200 -94 214 0
-200 -96 216 0
-200 -98 218 0
-200 -100 220 0
-200 -102 222 0
-200 -104 224 0
202 118 0
-202 -118 0
-202 -106 196 0
-202 -108 198 0
-202 -110 200 0
-202 -114 204 0
-202 -116 206 0
-202 -120 210 0
-202 -122 212 0
-202 -124 214 0
-202 -126 216 0
-202 -128 218 0
-202 -130 220 0
-202 -132 222 0
-202 -134 224 0
204 148 0
-204 -148 0
-204 -136 196 0
-204 -138 198 0
-204 -140 200 0
-204 -142 202 0
-204 -146 206 0
-204 -150 210 0
-204 -152 212 0
-204 -154 214 0
-204 -156 216 0
-204 -158 218 0
-204 -160 220 0
-204 -162 222 0
-204 -164 224 0
206 178 0
-206 -178 0
-206 -166 196 0
-206 -168 198 0
-206 -170 200 0
-206 -172 202 0
-206 -174 204 0
-206 -180 210 0
-206 -182 212 0
-206 -184 214 0
-206 -186 216 0
-206 -188 218 0
-206 -190 220 0
-206 -192 222 0
-206 -194 224 0
210 238 0
-210 -238 0
-210 -226 196 0
-210 -228 198 0
-210 -230 200 0
-210 -232 202 0
-210 -234 204 0
-210 -236 206 0
-210 -242 212 0
-210 -244 214 0
-210 -246 216 0
-210 -248 218 0
-210 -250 220 0
-210 -252 222 0
-210 -254 224 0
212 268 0
-212 -268 0
-212 -256 196 0
-212 -258 198 0
-212 -260 200 0
-212 -262 202 0
-212 -264 204 0
-212 -266 206 0
-212 -270 210 0
-212 -274 214 0
-212 -276 216 0
-212 -278 218 0
-212 -280 220 0
-212 -282 222 0
-212 -284 224 0
214 298 0
-214 -298 0
-214 -286 196 0
-214 -288 198 0
-214 -290 200 0
-214 -292 202 0
-214 -294 204 0
-214 -296 206 0
-214 -300 210 0
-214 -302 212 0
-214 -306 216 0
-214 -308 218 0
-214 -310 220 0
-214 -312 222 0
-214 -314 224 0
216 328 0
-216 -328 0
-216 -316 196 0
-216 -318 198 0
-216 -320 200 0
-216 -322 202 0
-216 -324 204 0
-216 -326 206 0
-216 -330 210 0
-216 -332 212 0
-216 -334 214 0
-216 -338 218 0
-216 -340 220 0
-216 -342 222 0
-216 -344 224 0
218 358 0
-218 -358 0
-218 -346 196 0
-218 -348 198 0
-218 -350 200 0
-218 -352 202 0
-218 -354 204 0
-218 -356 206 0
-218 -360 210 0
-218 -362 212 0
-218 -364 214 0
-218 -366 216 0
-218 -370 220 0
-218 -372 222 0
-218 -374 224 0
220 388 0
-220 -388 0
-220 -376 196 0
-220 -378 198 0
-220 -380 200 0
-220 -382 202 0
-220 -384 204 0
-220 -386 206 0
-220 -390 210 0
-220 -392 212 0
-220 -394 214 0
-220 -396 216 0
-220 -398 218 0
-220 -402 222 0
-220 -404 224 0
222 418 0
-222 -418 0
-222 -406 196 0
-222 -408 198 0
-222 -410 200 0
-222 -412 202 0
-222 -414 204 0
-222 -416 206 0
-222 -420 210 0
-222 -422 212 0
-222 -424 214 0
-222 -426 216 0
-222 -428 218 0
-222 -430 220 0
-222 -434 224 0
224 448 0
-224 -448 0
-224 -436 196 0
-224 -438 198 0
-224 -440 200 0
-224 -442 202 0
-224 -444 204 0
-224 -446 206 0
-224 -450 210 0
-224 -452 212 0
-224 -454 214 0
-224 -456 216 0
-224 -458 218 0
-224 -460 220 0
-224 -462 222 0
240 0
226 22 0
-226 -22 0
-226 -4 228 0
-226 -7 230 0
-226 -10 232 0
-226 -13 234 0
-226 -16 236 0
-226 -19 238 0
-226 -25 242 0
-226 -28 244 0
-226 -31 246 0
-226 -34 248 0
-226 -37 250 0
-226 -40 252 0
-226 -43 254 0
228 60 0
-228 -60 0
-228 -46 226 0
-228 -50 230 0
-228 -52 232 0
-228 -54 234 0
-228 -56 236 0
-228 -58 238 0
-228 -62 242 0
-228 -64 244 0
-228 -66 246 0
-228 -68 248 0
-228 -70 250 0
-228 -72 252 0
-228 -74 254 0
230 90 0
-230 -90 0
-230 -76 226 0
-230 -78 228 0
-230 -82 232 0
-230 -84 234 0
-230 -86 236 0
-230 -88 238 0
-230 -92 242 0
-230 -94 244 0
-230 -96 246 0
-230 -98 248 0
-230 -100 250 0
-230 -102 252 0
-230 -104 254 0
232 120 0
-232 -120 0
-232 -106 226 0
-232 -108 228 0
-232 -110 230 0
-232 -114 234 0
-232 -116 236 0
-232 -118 238 0
-232 -122 242 0
-232 -124 244 0
-232 -126 246 0
-232 -128 248 0
-232 -130 250 0
-232 -132 252 0
-232 -134 254 0
234 150 0
-234 -150 0
-234 -136 226 0
-234 -138 228 0
-234 -140 230 0
-234 -142 232 0
-234 -146 236 0
-234 -148 238 0
-234 -152 242 0
-234 -154 244 0
-234 -156 246 0
-234 -158 248 0
-234 -160 250 0
-234 -162 252 0
-234 -164 254 0
236 180 0
-236 -180 0
-236 -166 226 0
-236 -168 228 0
-236 -170 230 0
-236 -172 232 0
-236 -174 234 0
-236 -178 238 0
-236 -182 242 0
-236 -184 244 0
-236 -186 246 0
-236 -188 248 0
-236 -190 250 0
-236 -192 252 0
-236 -194 254 0
238 210 0
-238 -210 0
-238 -196 226 0
-238 -198 228 0
-238 -200 230 0
-238 -202 232 0
-238 -204 234 0
-238 -206 236 0
-238 -212 242 0
-238 -214 244 0
-238 -216 246 0
-238 -218 248 0
-238 -220 250 0
-238 -222 252 0
-238 -224 254 0
242 270 0
-242 -270 0
-242 -256 226 0
-242 -258 228 0
-242 -260 230 0
-242 -262 232 0
-242 -264 234 0
-242 -266 236 0
-242 -268 238 0
-242 -274 244 0
-242 -276 246 0
-242 -278 248 0
-242 -280 250 0
-242 -282 252 0
-242 -284 254 0
244 300 0
-244 -300 0
-244 -286 226 0
-244 -288 228 0
-244 -290 230 0
-244 -292 232 0
-244 -294 234 0
-244 -296 236 0
-244 -298 238 0
-244 -302 242 0
-244 -306 246 0
-244 -308 248 0
-244 -310 250 0
-244 -312 252 0
-244 -314 254 0
246 330 0
-246 -330 0
-246 -316 226 0
-246 -318 228 0
-246 -320 230 0
-246 -322 232 0
-246 -324 234 0
-246 -326 236 0
-246 -328 238 0
-246 -332 242 0
-246 -334 244 0
-246 -338 248 0
-246 -340 250 0
-246 -342 252 0
-246 -344 254 0
248 360 0
-248 -360 0
-248 -346 226 0
-248 -348 228 0
-248 -350 230 0
-248 -352 232 0
-248 -354 234 0
-248 -356 236 0
-248 -358 238 0
-248 -362 242 0
-248 -364 244 0
-248 -366 246 0
-248 -370 250 0
-248 -372 252 0
-248 -374 254 0
250 390 0
-250 -390 0
-250 -376 226 0
-250 -378 228 0
-250 -380 230 0
-250 -382 232 0
-250 -384 234 0
-250 -386 236 0
-250 -388 238 0
-250 -392 242 0
-250 -394 244 0
-250 -396 246 0
-250 -398 248 0
-250 -402 252 0
-250 -404 254 0
252 420 0
-252 -420 0
-252 -406 226 0
-252 -408 228 0
-252 -410 230 0
-252 -412 232 0
-252 -414 234 0
-252 -416 236 0
-252 -418 238 0
-252 -422 242 0
-252 -424 244 0
-252 -426 246 0
-252 -428 248 0
-252 -430 250 0
-252 -434 254 0
254 450 0
-254 -450 0
-254 -436 226 0
-254 -438 228 0
-254 -440 230 0
-254 -442 232 0
-254 -444 234 0
-254 -446 236 0
-254 -448 238 0
-254 -452 242 0
-254 -454 244 0
-254 -456 246 0
-254 -458 248 0
-254 -460 250 0
-254 -462 252 0
272 0
256 25 0
-256 -25 0
-256 -4 258 0
-256 -7 260 0
-256 -10 262 0
-256 -13 264 0
-256 -16 266 0
-256 -19 268 0
-256 -22 270 0
-256 -28 274 0
-256 -31 276 0
-256 -34 278 0
-256 -37 280 0
-256 -40 282 0
-256 -43 284 0
258 62 0
-258 -62 0
-258 -46 256 0
-258 -50 260 0
-258 -52 262 0
-258 -54 264 0
-258 -56 266 0
-258 -58 268 0
-258 -60 270 0
-258 -64 274 0
-258 -66 276 0
-258 -68 278 0
-258 -70 280 0
-258 -72 282 0
-258 -74 284 0
260 92 0
-260 -92 0
-260 -76 256 0
-260 -78 258 0
-260 -82 262 0
-260 -84 264 0
-260 -86 266 0
-260 -88 268 0
-260 -90 270 0
-260 -94 274 0
-260 -96 276 0
-260 -98 278 0
-260 -100 280 0
-260 -102 282 0
-260 -104 284 0
262 122 0
-262 -122 0
-262 -106 256 0
-262 -108 258 0
-262 -110 260 0
-262 -114 264 0
-262 -116 266 0
-262 -118 268 0
-262 -120 270 0
-262 -124 274 0
-262 -126 276 0
-262 -128 278 0
-262 -130 280 0
-262 -132 282 0
-262 -134 284 0
264 152 0
-264 -152 0
-264 -136 256 0
-264 -138 258 0
-264 -140 260 0
-264 -142 262 0
-264 -146 266 0
-264 -148 268 0
-264 -150 270 0
-264 -154 274 0
-264 -156 276 0
-264 -158 278 0
-264 -160 280 0
-264 -162 282 0
-264 -164 284 0
266 182 0
-266 -182 0
-266 -166 256 0
-266 -168 258 0
-266 -170 260 0
-266 -172 262 0
-266 -174 264 0
-266 -178 268 0
-266 -180 270 0
-266 -184 274 0
-266 -186 276 0
-266 -188 278 0
-266 -190 280 0
-266 -192 282 0
-266 -194 284 0
268 212 0
-268 -212 0
-268 -196 256 0
-268 -198 258 0
-268 -200 260 0
-268 -202 262 0
-268 -204 264 0
-268 -206 266 0
-268 -210 270 0
-268 -214 274 0
-268 -216 276 0
-268 -218 278 0
-268 -220 280 0
-268 -222 282 0
-268 -224 284 0
270 242 0
-270 -242 0
-270 -226 256 0
-270 -228 258 0
-270 -230 260 0
-270 -232 262 0
-270 -234 264 0
-270 -236 266 0
-270 -238 268 0
-270 -244 274 0
-270 -246 276 0
-270 -248 278 0
-270 -250 280 0
-270 -252 282 0
-270 -254 284 0
274 302 0
-274 -302 0
-274 -286 256 0
-274 -288 258 0
-274 -290 260 0
-274 -292 262 0
-274 -294 264 0
-274 -296 266 0
-274 -298 268 0
-274 -300 270 0
-274 -306 276 0
-274 -308 278 0
-274 -310 280 0
-274 -312 282 0
-274 -314 284 0
276 332 0
-276 -332 0
-276 -316 256 0
-276 -318 258 0
-276 -320 260 0
-276 -322 262 0
-276 -324 264 0
-276 -326 266 0
-276 -328 268 0
-276 -330 270 0
-276 -334 274 0
-276 -338 278 0
-276 -340 280 0
-276 -342 282 0
-276 -344 284 0
278 362 0
-278 -362 0
-278 -346 256 0
-278 -348 258 0
-278 -350 260 0
-278 -352 262 0
-278 -354 264 0
-278 -356 266 0
-278 -358 268 0
-278 -360 270 0
-278 -364 274 0
-278 -366 276 0
-278 -370 280 0
-278 -372 282 0
-278 -374 284 0
280 392 0
-280 -392 0
-280 -376 256 0
-280 -378 258 0
-280 -380 260 0
-280 -382 262 0
-280 -384 264 0
-280 -386 266 0
-280 -388 268 0
-280 -390 270 0
-280 -394 274 0
-280 -396 276 0
-280 -398 278 0
-280 -402 282 0
-280 -404 284 0
282 422 0
-282 -422 0
-282 -406 256 0
-282 -408 258 0
-282 -410 260 0
-282 -412 262 0
-282 -414 264 0
-282 -416 266 0
-282 -418 268 0
-282 -420 270 0
-282 -424 274 0
-282 -426 276 0
-282 -428 278 0
-282 -430 280 0
-282 -434 284 0
284 452 0
-284 -452 0
-284 -436 256 0
-284 -438 258 0
-284 -440 260 0
-284 -442 262 0
-284 -444 264 0
-284 -446 266 0
-284 -448 268 0
-284 -450 270 0
-284 -454 274 0
-284 -456 276 0
-284 -458 278 0
-284 -460 280 0
-284 -462 282 0
304 0
286 28 0
-286 -28 0
-286 -4 288 0
-286 -7 290 0
-286 -10 292 0
-286 -13 294 0
-286 -16 296 0
-286 -19 298 0
-286 -22 300 0
-286 -25 302 0
-286 -31 306 0
-286 -34 308 0
-286 -37 310 0
-286 -40 312 0
-286 -43 314 0
288 64 0
-288 -64 0
-288 -46 286 0
-288 -50 290 0
-288 -52 292 0
-288 -54 294 0
-288 -56 296 0
-288 -58 298 0
-288 -60 300 0
-288 -62 302 0
-288 -66 306 0
-288 -68 308 0
-288 -70 310 0
-288 -72 312 0
-288 -74 314 0
290 94 0
-290 -94 0
-290 -76 286 0
-290 -78 288 0
-290 -82 292 0
-290 -84 294 0
-290 -86 296 0
-290 -88 298 0
-290 -90 300 0
-290 -92 302 0
-290 -96 306 0
-290 -98 308 0
-290 -100 310 0
-290 -102 312 0
-290 -104 314 0
292 124 0
-292 -124 0
-292 -106 286 0
-292 -108 288 0
-292 -110 290 0
-292 -114 294 0
-292 -116 296 0
-292 -118 298 0
-292 -120 300 0
-292 -122 302 0
-292 -126 306 0
-292 -128 308 0
-292 -130 310 0
-292 -132 312 0
-292 -134 314 0
294 154 0
-294 -154 0
-294 -136 286 0
-294 -138 288 0
-294 -140 290 0
-294 -142 292 0
-294 -146 296 0
-294 -148 298 0
-294 -150 300 0
-294 -152 302 0
-294 -156 306 0
-294 -158 308 0
-294 -160 310 0
-294 -162 312 0
-294 -164 314 0
296 184 0
-296 -184 0
-296 -166 286 0
-296 -168 288 0
-296 -170 290 0
-296 -172 292 0
-296 -174 294 0
-296 -178 298 0
-296 -180 300 0
-296 -182 302 0
-296 -186 306 0
-296 -188 308 0
-296 -190 310 0
-296 -192 312 0
-296 -194 314 0
298 214 0
-298 -214 0
-298 -196 286 0
-298 -198 288 0
-298 -200 290 0
-298 -202 292 0
-298 -204 294 0
-298 -206 296 0
-298 -210 300 0
-298 -212 302 0
-298 -216 306 0
-298 -218 308 0
-298 -220 310 0
-298 -222 312 0
-298 -224 314 0
300 244 0
-300 -244 0
-300 -226 286 0
-300 -228 288 0
-300 -230 290 0
-300 -232 292 0
-300 -234 294 0
-300 -236 296 0
-300 -238 298 0
-300 -242 302 0
-300 -246 306 0
-300 -248 308 0
-300 -250 310 0
-300 -252 312 0
-300 -254 314 0
302 274 0
-302 -274 0
-302 -256 286 0
-302 -258 288 0
-302 -260 290 0
-302 -262 292 0
-302 -264 294 0
-302 -266 296 0
-302 -268 298 0
-302 -270 300 0
-302 -276 306 0
-302 -278 308 0
-302 -280 310 0
-302 -282 312 0
-302 -284 314 0
306 334 0
-306 -334 0
-306 -316 286 0
-306 -318 288 0
-306 -320 290 0
-306 -322 292 0
-306 -324 294 0
-306 -326 296 0
-306 -328 298 0
-306 -330 300 0
-306 -332 302 0
-306 -338 308 0
-306 -340 310 0
-306 -342 312 0
-306 -344 314 0
308 364 0
-308 -364 0
-308 -346 286 0
-308 -348 288 0
-308 -350 290 0
-308 -352 292 0
-308 -354 294 0
-308 -356 296 0
-308 -358 298 0
-308 -360 300 0
-308 -362 302 0
-308 -366 306 0
-308 -370 310 0
-308 -372 312 0
-308 -374 314 0
310 394 0
-310 -394 0
-310 -376 286 0
-310 -378 288 0
-310 -380 290 0
-310 -382 292 0
-310 -384 294 0
-310 -386 296 0
-310 -388 298 0
-310 -390 300 0
-310 -392 302 0
-310 -396 306 0
-310 -398 308 0
-310 -402 312 0
-310 -404 314 0
312 424 0
-312 -424 0
-312 -406 286 0
-312 -408 288 0
-312 -410 290 0
-312 -412 292 0
-312 -414 294 0
-312 -416 296 0
-312 -418 298 0
-312 -420 300 0
-312 -422 302 0
-312 -426 306 0
-312 -428 308 0
-312 -430 310 0
-312 -434 314 0
314 454 0
-314 -454 0
-314 -436 286 0
-314 -438 288 0
-314 -440 290 0
-314 -442 292 0
-314 -444 294 0
-314 -446 296 0
-314 -448 298 0
-314 -450 300 0
-314 -452 302 0
-314 -456 306 0
-314 -458 308 0
-314 -460 310 0
-314 -462 312 0
336 0
316 31 0
-316 -31 0
-316 -4 318 0
-316 -7 320 0
-316 -10 322 0
-316 -13 324 0
-316 -16 326 0
-316 -19 328 0
-316 -22 330 0
-316 -25 332 0
-316 -28 334 0
-316 -34 338 0
-316 -37 340 0
-316 -40 342 0
-316 -43 344 0
318 66 0
-318 -66 0
-318 -46 316 0
-318 -50 320 0
-318 -52 322 0
-318 -54 324 0
-318 -56 326 0
-318 -58 328 0
-318 -60 330 0
-318 -62 332 0
-318 -64 334 0
-318 -68 338 0
-318 -70 340 0
-318 -72 342 0
-318 -74 344 0
320 96 0
-320 -96 0
-320 -76 316 0
-320 -78 318 0
-320 -82 322 0
-320 -84 324 0
-320 -86 326 0
-320 -88 328 0
-320 -90 330 0
-320 -92 332 0
-320 -94 334 0
-320 -98 338 0
-320 -100 340 0
-320 -102 342 0
-320 -104 344 0
322 126 0
-322 -126 0
-322 -106 316 0
-322 -108 318 0
-322 -110 320 0
-322 -114 324 0
-322 -116 326 0
-322 -118 328 0
-322 -120 330 0
-322 -122 332 0
-322 -124 334 0
-322 -128 338 0
-322 -130 340 0
-322 -132 342 0
-322 -134 344 0
324 156 0
-324 -156 0
-324 -136 316 0
-324 -138 318 0
-324 -140 320 0
-324 -142 322 0
-324 -146 326 0
-324 -148 328 0
-324 -150 330 0
-324 -152 332 0
-324 -154 334 0
-324 -158 338 0
-324 -160 340 0
-324 -162 342 0
-324 -164 344 0
326 186 0
-326 -186 0
-326 -166 316 0
-326 -168 318 0
-326 -170 320 0
-326 -172 322 0
-326 -174 324 0
-326 -178 328 0
-326 -180 330 0
-326 -182 332 0
-326 -184 334 0
-326 -188 338 0
-326 -190 340 0
-326 -192 342 0
-326 -194 344 0
328 216 0
-328 -216 0
-328 -196 316 0
-328 -198 318 0
-328 -200 320 0
-328 -202 322 0
-328 -204 324 0
-328 -206 326 0
-328 -210 330 0
-328 -212 332 0
-328 -214 334 0
-328 -218 338 0
-328 -220 340 0
-328 -222 342 0
-328 -224 344 0
330 246 0
-330 -246 0
-330 -226 316 0
-330 -228 318 0
-330 -230 320 0
-330 -232 322 0
-330 -234 324 0
-330 -236 326 0
-330 -238 328 0
-330 -242 332 0
-330 -244 334 0
-330 -248 338 0
-330 -250 340 0
-330 -252 342 0
-330 -254 344 0
332 276 0
-332 -276 0
-332 -256 316 0
-332 -258 318 0
-332 -260 320 0
-332 -262 322 0
-332 -264 324 0
-332 -266 326 0
-332 -268 328 0
-332 -270 330 0
-332 -274 334 0
-332 -278 338 0
-332 -280 340 0
-332 -282 342 0
-332 -284 344 0
334 306 0
-334 -306 0
-334 -286 316 0
-334 -288 318 0
-334 -290 320 0
-334 -292 322 0
-334 -294 324 0
-334 -296 326 0
-334 -298 328 0
-334 -300 330 0
-334 -302 332 0
-334 -308 338 0
-334 -310 340 0
-334 -312 342 0
-334 -314 344 0
338 366 0
-338 -366 0
-338 -346 316 0
-338 -348 318 0
-338 -350 320 0
-338 -352 322 0
-338 -354 324 0
-338 -356 326 0
-338 -358 328 0
-338 -360 330 0
-338 -362 332 0
-338 -364 334 0
-338 -370 340 0
-338 -372 342 0
-338 -374 344 0
340 396 0
-340 -396 0
-340 -376 316 0
-340 -378 318 0
-340 -380 320 0
-340 -382 322 0
-340 -384 324 0
-340 -386 326 0
-340 -388 328 0
-340 -390 330 0
-340 -392 332 0
-340 -394 334 0
-340 -398 338 0
-340 -402 342 0
-340 -404 344 0
342 426 0
-342 -426 0
-342 -406 316 0
-342 -408 318 0
-342 -410 320 0
-342 -412 322 0
-342 -414 324 0
-342 -416 326 0
-342 -418 328 0
-342 -420 330 0
-342 -422 332 0
-342 -424 334 0
-342 -428 338 0
-342 -430 340 0
-342 -434 344 0
344 456 0
-344 -456 0
-344 -436 316 0
-344 -438 318 0
-344 -440 320 0
-344 -442 322 0
-344 -444 324 0
-344 -446 326 0
-344 -448 328 0
-344 -450 330 0
-344 -452 332 0
-344 -454 334 0
-344 -458 338 0
-344 -460 340 0
-344 -462 342 0
368 0
346 34 0
-346 -34 0
-346 -4 348 0
-346 -7 350 0
-346 -10 352 0
-346 -13 354 0
-346 -16 356 0
-346 -19 358 0
-346 -22 360 0
-346 -25 362 0
-346 -28 364 0
-346 -31 366 0
-346 -37 370 0
-346 -40 372 0
-346 -43 374 0
348 68 0
-348 -68 0
-348 -46 346 0
-348 -50 350 0
-348 -52 352 0
-348 -54 354 0
-348 -56 356 0
-348 -58 358 0
-348 -60 360 0
-348 -62 362 0
-348 -64 364 0
-348 -66 366 0
-348 -70 370 0
-348 -72 372 0
-348 -74 374 0
350 98 0
-350 -98 0
-350 -76 346 0
-350 -78 348 0
-350 -82 352 0
-350 -84 354 0
-350 -86 356 0
-350 -88 358 0
-350 -90 360 0
-350 -92 362 0
-350 -94 364 0
-350 -96 366 0
-350 -100 370 0
-350 -102 372 0
-350 -104 374 0
352 128 0
-352 -128 0
-352 -106 346 0
-352 -108 348 0
-352 -110 350 0
-352 -114 354 0
-352 -116 356 0
-352 -118 358 0
-352 -120 360 0
-352 -122 362 0
-352 -124 364 0
-352 -126 366 0
-352 -130 370 0
-352 -132 372 0
-352 -134 374 0
354 158 0
-354 -158 0
-354 -136 346 0
-354 -138 348 0
-354 -140 350 0
-354 -142 352 0
-354 -146 356 0
-354 -148 358 0
-354 -150 360 0
-354 -152 362 0
-354 -154 364 0
-354 -156 366 0
-354 -160 370 0
-354 -162 372 0
-354 -164 374 0
356 188 0
-356 -188 0
-356 -166 346 0
-356 -168 348 0
-356 -170 350 0
-356 -172 352 0
-356 -174 354 0
-356 -178 358 0
-356 -180 360 0
-356 -182 362 0
-356 -184 364 0
-356 -186 366 0
-356 -190 370 0
-356 -192 372 0
-356 -194 374 0
358 218 0
-358 -218 0
-358 -196 346 0
-358 -198 348 0
-358 -200 350 0
-358 -202 352 0
-358 -204 354 0
-358 -206 356 0
-358 -210 360 0
-358 -212 362 0
-358 -214 364 0
-358 -216 366 0
-358 -220 370 0
-358 -222 372 0
-358 -224 374 0
360 248 0
-360 -248 0
-360 -226 346 0
-360 -228 348 0
-360 -230 350 0
-360 -232 352 0
-360 -234 354 0
-360 -236 356 0
-360 -238 358 0
-360 -242 362 0
-360 -244 364 0
-360 -246 366 0
-360 -250 370 0
-360 -252 372 0
-360 -254 374 0
362 278 0
-362 -278 0
-362 -256 346 0
-362 -258 348 0
-362 -260 350 0
-362 -262 352 0
-362 -264 354 0
-362 -266 356 0
-362 -268 358 0
-362 -270 360 0
-362 -274 364 0
-362 -276 366 0
-362 -280 370 0
-362 -282 372 0
-362 -284 374 0
364 308 0
-364 -308 0
-364 -286 346 0
-364 -288 348 0
-364 -290 350 0
-364 -292 352 0
-364 -294 354 0
-364 -296 356 0
-364 -298 358 0
-364 -300 360 0
-364 -302 362 0
-364 -306 366 0
-364 -310 370 0
-364 -312 372 0
-364 -314 374 0
366 338 0
-366 -338 0
-366 -316 346 0
-366 -318 348 0
-366 -320 350 0
-366 -322 352 0
-366 -324 354 0
-366 -326 356 0
-366 -328 358 0
-366 -330 360 0
-366 -332 362 0
-366 -334 364 0
-366 -340 370 0
-366 -342 372 0
-366 -344 374 0
370 398 0
-370 -398 0
-370 -376 346 0
-370 -378 348 0
-370 -380 350 0
-370 -382 352 0
-370 -384 354 0
-370 -386 356 0
-370 -388 358 0
-370 -390 360 0
-370 -392 362 0
-370 -394 364 0
-370 -396 366 0
-370 -402 372 0
-370 -404 374 0
372 428 0
-372 -428 0
-372 -406 346 0
-372 -408 348 0
-372 -410 350 0
-372 -412 352 0
-372 -414 354 0
-372 -416 356 0
-372 -418 358 0
-372 -420 360 0
-372 -422 362 0
-372 -424 364 0
-372 -426 366 0
-372 -430 370 0
-372 -434 374 0
374 458 0
-374 -458 0
-374 -436 346 0
-374 -438 348 0
-374 -440 350 0
-374 -442 352 0
-374 -444 354 0
-374 -446 356 0
-374 -448 358 0
-374 -450 360 0
-374 -452 362 0
-374 -454 364 0
-374 -456 366 0
-374 -460 370 0
-374 -462 372 0
400 0
376 37 0
-376 -37 0
-376 -4 378 0
-376 -7 380 0
-376 -10 382 0
-376 -13 384 0
-376 -16 386 0
-376 -19 388 0
-376 -22 390 0
-376 -25 392 0
-376 -28 394 0
-376 -31 396 0
-376 -34 398 0
-376 -40 402 0
-376 -43 404 0
378 70 0
-378 -70 0
-378 -46 376 0
-378 -50 380 0
-378 -52 382 0
-378 -54 384 0
-378 -56 386 0
-378 -58 388 0
-378 -60 390 0
-378 -62 392 0
-378 -64 394 0
-378 -66 396 0
-378 -68 398 0
-378 -72 402 0
-378 -74 404 0
380 100 0
-380 -100 0
-380 -76 376 0
-380 -78 378 0
-380 -82 382 0
-380 -84 384 0
-380 -86 386 0
-380 -88 388 0
-380 -90 390 0
-380 -92 392 0
-380 -94 394 0
-380 -96 396 0
-380 -98 398 0
-380 -102 402 0
-380 -104 404 0
382 130 0
-382 -130 0
-382 -106 376 0
-382 -108 378 0
-382 -110 380 0
-382 -114 384 0
-382 -116 386 0
-382 -118 388 0
-382 -120 390 0
-382 -122 392 0
-382 -124 394 0
-382 -126 396 0
-382 -128 398 0
-382 -132 402 0
-382 -134 404 0
384 160 0
-384 -160 0
-384 -136 376 0
-384 -138 378 0
-384 -140 380 0
-384 -142 382 0
-384 -146 386 0
-384 -148 388 0
-384 -150 390 0
-384 -152 392 0
-384 -154 394 0
-384 -156 396 0
-384 -158 398 0
-384 -162 402 0
-384 -164 404 0
386 190 0
-386 -190 0
-386 -166 376 0
-386 -168 378 0
-386 -170 380 0
-386 -172 382 0
-386 -174 384 0
-386 -178 388 0
-386 -180 390 0
-386 -182 392 0
-386 -184 394 0
-386 -186 396 0
-386 -188 398 0
-386 -192 402 0
-386 -194 404 0
388 220 0
-388 -220 0
-388 -196 376 0
-388 -198 378 0
-388 -200 380 0
-388 -202 382 0
-388 -204 384 0
-388 -206 386 0
-388 -210 390 0
-388 -212 392 0
-388 -214 394 0
-388 -216 396 0
-388 -218 398 0
-388 -222 402 0
-388 -224 404 0
390 250 0
-390 -250 0
-390 -226 376 0
-390 -228 378 0
-390 -230 380 0
-390 -232 382 0
-390 -234 384 0
-390 -236 386 0
-390 -238 388 0
-390 -242 392 0
-390 -244 394 0
-390 -246 396 0
-390 -248 398 0
-390 -252 402 0
-390 -254 404 0
392 280 0
-392 -280 0
-392 -256 376 0
-392 -258 378 0
-392 -260 380 0
-392 -262 382 0
-392 -264 384 0
-392 -266 386 0
-392 -268 388 0
-392 -270 390 0
-392 -274 394 0
-392 -276 396 0
-392 -278 398 0
-392 -282 402 0
-392 -284 404 0
394 310 0
-394 -310 0
-394 -286 376 0
-394 -288 378 0
-394 -290 380 0
-394 -292 382 0
-394 -294 384 0
-394 -296 386 0
-394 -298 388 0
-394 -300 390 0
-394 -302 392 0
-394 -306 396 0
-394 -308 398 0
-394 -312 402 0
-394 -314 404 0
396 340 0
-396 -340 0
-396 -316 376 0
-396 -318 378 0
-396 -320 380 0
-396 -322 382 0
-396 -324 384 0
-396 -326 386 0
-396 -328 388 0
-396 -330 390 0
-396 -332 392 0
-396 -334 394 0
-396 -338 398 0
-396 -342 402 0
-396 -344 404 0
398 370 0
-398 -370 0
-398 -346 376 0
-398 -348 378 0
-398 -350 380 0
-398 -352 382 0
-398 -354 384 0
-398 -356 386 0
-398 -358 388 0
-398 -360 390 0
-398 -362 392 0
-398 -364 394 0
-398 -366 396 0
-398 -372 402 0
-398 -374 404 0
402 430 0
-402 -430 0
-402 -406 376 0
-402 -408 378 0
-402 -410 380 0
-402 -412 382 0
-402 -414 384 0
-402 -416 386 0
-402 -418 388 0
-402 -420 390 0
-402 -422 392 0
-402 -424 394 0
-402 -426 396 0
-402 -428 398 0
-402 -434 404 0
404 460 0
-404 -460 0
-404 -436 376 0
-404 -438 378 0
-404 -440 380 0
-404 -442 382 0
-404 -444 384 0
-404 -446 386 0
-404 -448 388 0
-404 -450 390 0
-404 -452 392 0
-404 -454 394 0
-404 -456 396 0
-404 -458 398 0
-404 -462 402 0
432 0
406 40 0
-406 -40 0
-406 -4 408 0
-406 -7 410 0
-406 -10 412 0
-406 -13 414 0
-406 -16 416 0
-406 -19 418 0
-406 -22 420 0
-406 -25 422 0
-406 -28 424 0
-406 -31 426 0
-406 -34 428 0
-406 -37 430 0
-406 -43 434 0
408 72 0
-408 -72 0
-408 -46 406 0
-408 -50 410 0
-408 -52 412 0
-408 -54 414 0
-408 -56 416 0
-408 -58 418 0
-408 -60 420 0
-408 -62 422 0
-408 -64 424 0
-408 -66 426 0
-408 -68 428 0
-408 -70 430 0
-408 -74 434 0
410 102 0
-410 -102 0
-410 -76 406 0
-410 -78 408 0
-410 -82 412 0
-410 -84 414 0
-410 -86 416 0
-410 -88 418 0
-410 -90 420 0
-410 -92 422 0
-410 -94 424 0
-410 -96 426 0
-410 -98 428 0
-410 -100 430 0
-410 -104 434 0
412 132 0
-412 -132 0
-412 -106 406 0
-412 -108 408 0
-412 -110 410 0
-412 -114 414 0
-412 -116 416 0
-412 -118 418 0
-412 -120 420 0
-412 -122 422 0
-412 -124 424 0
-412 -126 426 0
-412 -128 428 0
-412 -130 430 0
-412 -134 434 0
414 162 0
-414 -162 0
-414 -136 406 0
-414 -138 408 0
-414 -140 410 0
-414 -142 412 0
-414 -146 416 0
-414 -148 418 0
-414 -150 420 0
-414 -152 422 0
-414 -154 424 0
-414 -156 426 0
-414 -158 428 0
-414 -160 430 0
-414 -164 434 0
416 192 0
-416 -192 0
-416 -166 406 0
-416 -168 408 0
-416 -170 410 0
-416 -172 412 0
-416 -174 414 0
-416 -178 418 0
-416 -180 420 0
-416 -182 422 0
-416 -184 424 0
-416 -186 426 0
-416 -188 428 0
-416 -190 430 0
-416 -194 434 0
418 222 0
-418 -222 0
-418 -196 406 0
-418 -198 408 0
-418 -200 410 0
-418 -202 412 0
-418 -204 414 0
-418 -206 416 0
-418 -210 420 0
-418 -212 422 0
-418 -214 424 0
-418 -216 426 0
-418 -218 428 0
-418 -220 430 0
-418 -224 434 0
420 252 0
-420 -252 0
-420 -226 406 0
-420 -228 408 0
-420 -230 410 0
-420 -232 412 0
-420 -234 414 0
-420 -236 416 0
-420 -238 418 0
-420 -242 422 0
-420 -244 424 0
-420 -246 426 0
-420 -248 428 0
-420 -250 430 0
-420 -254 434 0
422 282 0
-422 -282 0
-422 -256 406 0
-422 -258 408 0
-422 -260 410 0
-422 -262 412 0
-422 -264 414 0
-422 -266 416 0
-422 -268 418 0
-422 -270 420 0
-422 -274 424 0
-422 -276 426 0
-422 -278 428 0
-422 -280 430 0
-422 -284 434 0
424 312 0
-424 -312 0
-424 -286 406 0
-424 -288 408 0
-424 -290 410 0
-424 -292 412 0
-424 -294 414 0
-424 -296 416 0
-424 -298 418 0
-424 -300 420 0
-424 -302 422 0
-424 -306 426 0
-424 -308 428 0
-424 -310 430 0
-424 -314 434 0
426 342 0
-426 -342 0
-426 -316 406 0
-426 -318 408 0
-426 -320 410 0
-426 -322 412 0
-426 -324 414 0
-426 -326 416 0
-426 -328 418 0
-426 -330 420 0
-426 -332 422 0
-426 -334 424 0
-426 -338 428 0
-426 -340 430 0
-426 -344 434 0
428 372 0
-428 -372 0
-428 -346 406 0
-428 -348 408 0
-428 -350 410 0
-428 -352 412 0
-428 -354 414 0
-428 -356 416 0
-428 -358 418 0
-428 -360 420 0
-428 -362 422 0
-428 -364 424 0
-428 -366 426 0
-428 -370 430 0
-428 -374 434 0
430 402 0
-430 -402 0
-430 -376 406 0
-430 -378 408 0
-430 -380 410 0
-430 -382 412 0
-430 -384 414 0
-430 -386 416 0
-430 -388 418 0
-430 -390 420 0
-430 -392 422 0
-430 -394 424 0
-430 -396 426 0
-430 -398 428 0
-430 -404 434 0
434 462 0
-434 -462 0
-434 -436 406 0
-434 -438 408 0
-434 -440 410 0
-434 -442 412 0
-434 -444 414 0
-434 -446 416 0
-434 -448 418 0
-434 -450 420 0
-434 -452 422 0
-434 -454 424 0
-434 -456 426 0
-434 -458 428 0
-434 -460 430 0
464 0
436 43 0
-436 -43 0
-436 -4 438 0
-436 -7 440 0
-436 -10 442 0
-436 -13 444 0
-436 -16 446 0
-436 -19 448 0
-436 -22 450 0
-436 -25 452 0
-436 -28 454 0
-436 -31 456 0
-436 -34 458 0
-436 -37 460 0
-436 -40 462 0
438 74 0
-438 -74 0
-438 -46 436 0
-438 -50 440 0
-438 -52 442 0
-438 -54 444 0
-438 -56 446 0
-438 -58 448 0
-438 -60 450 0
-438 -62 452 0
-438 -64 454 0
-438 -66 456 0
-438 -68 458 0
-438 -70 460 0
-438 -72 462 0
440 104 0
-440 -104 0
-440 -76 436 0
-440 -78 438 0
-440 -82 442 0
-440 -84 444 0
-440 -86 446 0
-440 -88 448 0
-440 -90 450 0
-440 -92 452 0
-440 -94 454 0
-440 -96 456 0
-440 -98 458 0
-440 -100 460 0
-440 -102 462 0
442 134 0
-442 -134 0
-442 -106 436 0
-442 -108 438 0
-442 -110 440 0
-442 -114 444 0
-442 -116 446 0
-442 -118 448 0
-442 -120 450 0
-442 -122 452 0
-442 -124 454 0
-442 -126 456 0
-442 -128 458 0
-442 -130 460 0
-442 -132 462 0
444 164 0
-444 -164 0
-444 -136 436 0
-444 -138 438 0
-444 -140 440 0
-444 -142 442 0
-444 -146 446 0
-444 -148 448 0
-444 -150 450 0
-444 -152 452 0
-444 -154 454 0
-444 -156 456 0
-444 -158 458 0
-444 -160 460 0
-444 -162 462 0
446 194 0
-446 -194 0
-446 -166 436 0
-446 -168 438 0
-446 -170 440 0
-446 -172 442 0
-446 -174 444 0
-446 -178 448 0
-446 -180 450 0
-446 -182 452 0
-446 -184 454 0
-446 -186 456 0
-446 -188 458 0
-446 -190 460 0
-446 -192 462 0
448 224 0
-448 -224 0
-448 -196 436 0
-448 -198 438 0
-448 -200 440 0
-448 -202 442 0
-448 -204 444 0
-448 -206 446 0
-448 -210 450 0
-448 -212 452 0
-448 -214 454 0
-448 -216 456 0
-448 -218 458 0
-448 -220 460 0
-448 -222 462 0
450 254 0
-450 -254 0
-450 -226 436 0
-450 -228 438 0
-450 -230 440 0
-450 -232 442 0
-450 -234 444 0
-450 -236 446 0
-450 -238 448 0
-450 -242 452 0
-450 -244 454 0
-450 -246 456 0
-450 -248 458 0
-450 -250 460 0
-450 -252 462 0
452 284 0
-452 -284 0
-452 -256 436 0
-452 -258 438 0
-452 -260 440 0
-452 -262 442 0
-452 -264 444 0
-452 -266 446 0
-452 -268 448 0
-452 -270 450 0
-452 -274 454 0
-452 -276 456 0
-452 -278 458 0
-452 -280 460 0
-452 -282 462 0
454 314 0
-454 -314 0
-454 -286 436 0
-454 -288 438 0
-454 -290 440 0
-454 -292 442 0
-454 -294 444 0
-454 -296 446 0
-454 -298 448 0
-454 -300 450 0
-454 -302 452 0
-454 -306 456 0
-454 -308 458 0
-454 -310 460 0
-454 -312 462 0
456 344 0
-456 -344 0
-456 -316 436 0
-456 -318 438 0
-456 -320 440 0
-456 -322 442 0
-456 -324 444 0
-456 -326 446 0
-456 -328 448 0
-456 -330 450 0
-456 -332 452 0
-456 -334 454 0
-456 -338 458 0
-456 -340 460 0
-456 -342 462 0
458 374 0
-458 -374 0
-458 -346 436 0
-458 -348 438 0
-458 -350 440 0
-458 -352 442 0
-458 -354 444 0
-458 -356 446 0
-458 -358 448 0
-458 -360 450 0
-458 -362 452 0
-458 -364 454 0
-458 -366 456 0
-458 -370 460 0
-458 -372 462 0
460 404 0
-460 -404 0
-460 -376 436 0
-460 -378 438 0
-460 -380 440 0
-460 -382 442 0
-460 -384 444 0
-460 -386 446 0
-460 -388 448 0
-460 -390 450 0
-460 -392 452 0
-460 -394 454 0
-460 -396 456 0
-460 -398 458 0
-460 -402 462 0
462 434 0
-462 -434 0
-462 -406 436 0
-462 -408 438 0
-462 -410 440 0
-462 -412 442 0
-462 -414 444 0
-462 -416 446 0
-462 -418 448 0
-462 -420 450 0
-462 -422 452 0
-462 -424 454 0
-462 -426 456 0
-462 -428 458 0
-462 -430 460 0
-2971 0
-2972 4 0
-2973 7 0
-2973 78 0
-7 -78 2973 0
-2974 10 0
-2974 108 0
-10 -108 2974 0
-2975 13 0
-2975 138 0
-13 -138 2975 0
-2976 16 0
-2976 168 0
-16 -168 2976 0
-2977 19 0
-2977 198 0
-19 -198 2977 0
-2978 22 0
-2978 228 0
-22 -228 2978 0
-2979 25 0
-2979 258 0
-25 -258 2979 0
-2980 28 0
-2980 288 0
-28 -288 2980 0
-2981 31 0
-2981 318 0
-31 -318 2981 0
-2982 34 0
-2982 348 0
-34 -348 2982 0
-2983 37 0
-2983 378 0
-37 -378 2983 0
-2984 40 0
-2984 408 0
-40 -408 2984 0
-2985 43 0
-2985 438 0
-43 -438 2985 0
-2972 -2973 0
-2972 -2974 0
-2972 -2975 0
-2972 -2976 0
-2972 -2977 0
-2972 -2978 0
-2972 -2979 0
-2972 -2980 0
-2972 -2981 0
-2972 -2982 0
-2972 -2983 0
-2972 -2984 0
-2972 -2985 0
-4 2972 2973 2974 2975 2976 2977 2978 2979 2980 2981 2982 2983 2984 2985 0
-2986 7 0
-2987 4 0
-2987 50 0
-4 -50 2987 0
-2988 10 0
-2988 110 0
-10 -110 2988 0
-2989 13 0
-2989 140 0
-13 -140 2989 0
-2990 16 0
-2990 170 0
-16 -170 2990 0
-2991 19 0
-2991 200 0
-19 -200 2991 0
-2992 22 0
-2992 230 0
-22 -230 2992 0
-2993 25 0
-2993 260 0
-25 -260 2993 0
-2994 28 0
-2994 290 0
-28 -290 2994 0
-2995 31 0
-2995 320 0
-31 -320 2995 0
-2996 34 0
-2996 350 0
-34 -350 2996 0
-2997 37 0
-2997 380 0
-37 -380 2997 0
-2998 40 0
-2998 410 0
-40 -410 2998 0
-2999 43 0
-2999 440 0
-43 -440 2999 0
-2986 -2987 0
-2986 -2988 0
-2986 -2989 0
-2986 -2990 0
-2986 -2991 0
-2986 -2992 0
-2986 -2993 0
-2986 -2994 0
-2986 -2995 0
-2986 -2996 0
-2986 -2997 0
-2986 -2998 0
-2986 -2999 0
-7 2986 2987 2988 2989 2990 2991 2992 2993 2994 2995 2996 2997 2998 2999 0
-3000 10 0
-3001 4 0
-3001 52 0
-4 -52 3001 0
-3002 7 0
-3002 82 0
-7 -82 3002 0
-3003 13 0
-3003 142 0
-13 -142 3003 0
-3004 16 0
-3004 172 0
-16 -172 3004 0
-3005 19 0
-3005 202 0
-19 -202 3005 0
-3006 22 0
-3006 232 0
-22 -232 3006 0
-3007 25 0
-3007 262 0
-25 -262 3007 0
-3008 28 0
-3008 292 0
-28 -292 3008 0
-3009 31 0
-3009 322 0
-31 -322 3009 0
-3010 34 0
-3010 352 0
-34 -352 3010 0
-3011 37 0
-3011 382 0
-37 -382 3011 0
-3012 40 0
-3012 412 0
-40 -412 3012 0
-3013 43 0
-3013 442 0
-43 -442 3013 0
-3000 -3001 0
-3000 -3002 0
-3000 -3003 0
-3000 -3004 0
-3000 -3005 0
-3000 -3006 0
-3000 -3007 0
-3000 -3008 0
-3000 -3009 0
-3000 -3010 0
-3000 -3011 0
-3000 -3012 0
-3000 -3013 0
-10 3000 3001 3002 3003 3004 3005 3006 3007 3008 3009 3010 3011 3012 3013 0
-3014 13 0
-3015 4 0
-3015 54 0
-4 -54 3015 0
-3016 7 0
-3016 84 0
-7 -84 3016 0
-3017 10 0
-3017 114 0
-10 -114 3017 0
-3018 16 0
-3018 174 0
-16 -174 3018 0
-3019 19 0
-3019 204 0
-19 -204 3019 0
-3020 22 0
-3020 234 0
-22 -234 3020 0
-3021 25 0
-3021 264 0
-25 -264 3021 0
-3022 28 0
-3022 294 0
-28 -294 3022 0
-3023 31 0
-3023 324 0
-31 -324 3023 0
-3024 34 0
-3024 354 0
-34 -354 3024 0
-3025 37 0
-3025 384 0
-37 -384 3025 0
-3026 40 0
-3026 414 0
-40 -414 3026 0
-3027 43 0
-3027 444 0
-43 -444 3027 0
-3014 -3015 0
-3014 -3016 0
-3014 -3017 0
-3014 -3018 0
-3014 -3019 0
-3014 -3020 0
-3014 -3021 0
-3014 -3022 0
-3014 -3023 0
-3014 -3024 0
-3014 -3025 0
-3014 -3026 0
-3014 -3027 0
-13 3014 3015 3016 3017 3018 3019 3020 3021 3022 3023 3024 3025 3026 3027 0
-3028 16 0
-3029 4 0
-3029 56 0
-4 -56 3029 0
-3030 7 0
-3030 86 0
-7 -86 3030 0
-3031 10 0
-3031 116 0
-10 -116 3031 0
-3032 13 0
-3032 146 0
-13 -146 3032 0
-3033 19 0
-3033 206 0
-19 -206 3033 0
-3034 22 0
-3034 236 0
-22 -236 3034 0
-3035 25 0
-3035 266 0
-25 -266 3035 0
-3036 28 0
-3036 296 0
-28 -296 3036 0
-3037 31 0
-3037 326 0
-31 -326 3037 0
-3038 34 0
-3038 356 0
-34 -356 3038 0
-3039 37 0
-3039 386 0
-37 -386 3039 0
-3040 40 0
-3040 416 0
-40 -416 3040 0
-3041 43 0
-3041 446 0
-43 -446 3041 0
-3028 -3029 0
-3028 -3030 0
-3028 -3031 0
-3028 -3032 0
-3028 -3033 0
-3028 -3034 0
-3028 -3035 0
-3028 -3036 0
-3028 -3037 0
-3028 -3038 0
-3028 -3039 0
-3028 -3040 0
-3028 -3041 0
-16 3028 3029 3030 3031 3032 3033 3034 3035 3036 3037 3038 3039 3040 3041 0
-3042 19 0
-3043 4 0
-3043 58 0
-4 -58 3043 0
-3044 7 0
-3044 88 0
-7 -88 3044 0
-3045 10 0
-3045 118 0
-10 -118 3045 0
-3046 13 0
-3046 148 0
-13 -148 3046 0
-3047 16 0
-3047 178 0
-16 -178 3047 0
-3048 22 0
-3048 238 0
-22 -238 3048 0
-3049 25 0
-3049 268 0
-25 -268 3049 0
-3050 28 0
-3050 298 0
-28 -298 3050 0
-3051 31 0
-3051 328 0
-31 -328 3051 0
-3052 34 0
-3052 358 0
-34 -358 3052 0
-3053 37 0
-3053 388 0
-37 -388 3053 0
-3054 40 0
-3054 418 0
-40 -418 3054 0
-3055 43 0
-3055 448 0
-43 -448 3055 0
-3042 -3043 0
-3042 -3044 0
-3042 -3045 0
-3042 -3046 0
-3042 -3047 0
-3042 -3048 0
-3042 -3049 0
-3042 -3050 0
-3042 -3051 0
-3042 -3052 0
-3042 -3053 0
-3042 -3054 0
-3042 -3055 0
-19 3042 3043 3044 3045 3046 3047 3048 3049 3050 3051 3052 3053 3054 3055 0
-3056 22 0
-3057 4 0
-3057 60 0
-4 -60 3057 0
-3058 7 0
-3058 90 0
-7 -90 3058 0
-3059 10 0
-3059 120 0
-10 -120 3059 0
-3060 13 0
-3060 150 0
-13 -150 3060 0
-3061 16 0
-3061 180 0
-16 -180 3061 0
-3062 19 0
-3062 210 0
-19 -210 3062 0
-3063 25 0
-3063 270 0
-25 -270 3063 0
-3064 28 0
-3064 300 0
-28 -300 3064 0
-3065 31 0
-3065 330 0
-31 -330 3065 0
-3066 34 0
-3066 360 0
-34 -360 3066 0
-3067 37 0
-3067 390 0
-37 -390 3067 0
-3068 40 0
-3068 420 0
-40 -420 3068 0
-3069 43 0
-3069 450 0
-43 -450 3069 0
-3056 -3057 0
-3056 -3058 0
-3056 -3059 0
-3056 -3060 0
-3056 -3061 0
-3056 -3062 0
-3056 -3063 0
-3056 -3064 0
-3056 -3065 0
-3056 -3066 0
-3056 -3067 0
-3056 -3068 0
-3056 -3069 0
-22 3056 3057 3058 3059 3060 3061 3062 3063 3064 3065 3066 3067 3068 3069 0
-3070 25 0
-3071 4 0
-3071 62 0
-4 -62 3071 0
-3072 7 0
-3072 92 0
-7 -92 3072 0
-3073 10 0
-3073 122 0
-10 -122 3073 0
-3074 13 0
-3074 152 0
-13 -152 3074 0
-3075 16 0
-3075 182 0
-16 -182 3075 0
-3076 19 0
-3076 212 0
-19 -212 3076 0
-3077 22 0
-3077 242 0
-22 -242 3077 0
-3078 28 0
-3078 302 0
-28 -302 3078 0
-3079 31 0
-3079 332 0
-31 -332 3079 0
-3080 34 0
-3080 362 0
-34 -362 3080 0
-3081 37 0
-3081 392 0
-37 -392 3081 0
-3082 40 0
-3082 422 0
-40 -422 3082 0
-3083 43 0
-3083 452 0
-43 -452 3083 0
-3070 -3071 0
-3070 -3072 0
-3070 -3073 0
-3070 -3074 0
-3070 -3075 0
-3070 -3076 0
-3070 -3077 0
-3070 -3078 0
-3070 -3079 0
-3070 -3080 0
-3070 -3081 0
-3070 -3082 0
-3070 -3083 0
-25 3070 3071 3072 3073 3074 3075 3076 3077 3078 3079 3080 3081 3082 3083 0
-3084 28 0
-3085 4 0
-3085 64 0
-4 -64 3085 0
-3086 7 0
-3086 94 0
-7 -94 3086 0
-3087 10 0
-3087 124 0
-10 -124 3087 0
-3088 13 0
-3088 154 0
-13 -154 3088 0
-3089 16 0
-3089 184 0
-16 -184 3089 0
-3090 19 0
-3090 214 0
-19 -214 3090 0
-3091 22 0
-3091 244 0
-22 -244 3091 0
-3092 25 0
-3092 274 0
-25 -274 3092 0
-3093 31 0
-3093 334 0
-31 -334 3093 0
-3094 34 0
-3094 364 0
-34 -364 3094 0
-3095 37 0
-3095 394 0
-37 -394 3095 0
-3096 40 0
-3096 424 0
-40 -424 3096 0
-3097 43 0
-3097 454 0
-43 -454 3097 0
-3084 -3085 0
-3084 -3086 0
-3084 -3087 0
-3084 -3088 0
-3084 -3089 0
-3084 -3090 0
-3084 -3091 0
-3084 -3092 0
-3084 -3093 0
-3084 -3094 0
-3084 -3095 0
-3084 -3096 0
-3084 -3097 0
-28 3084 3085 3086 3087 3088 3089 3090 3091 3092 3093 3094 3095 3096 3097 0
-3098 31 0
-3099 4 0
-3099 66 0
-4 -66 3099 0
-3100 7 0
-3100 96 0
-7 -96 3100 0
-3101 10 0
-3101 126 0
-10 -126 3101 0
-3102 13 0
-3102 156 0
-13 -156 3102 0
-3103 16 0
-3103 186 0
-16 -186 3103 0
-3104 19 0
-3104 216 0
-19 -216 3104 0
-3105 22 0
-3105 246 0
-22 -246 3105 0
-3106 25 0
-3106 276 0
-25 -276 3106 0
-3107 28 0
-3107 306 0
-28 -306 3107 0
-3108 34 0
-3108 366 0
-34 -366 3108 0
-3109 37 0
-3109 396 0
-37 -396 3109 0
-3110 40 0
-3110 426 0
-40 -426 3110 0
-3111 43 0
-3111 456 0
-43 -456 3111 0
-3098 -3099 0
-3098 -3100 0
-3098 -3101 0
-3098 -3102 0
-3098 -3103 0
-3098 -3104 0
-3098 -3105 0
-3098 -3106 0
-3098 -3107 0
-3098 -3108 0
-3098 -3109 0
-3098 -3110 0
-3098 -3111 0
-31 3098 3099 3100 3101 3102 3103 3104 3105 3106 3107 3108 3109 3110 3111 0
-3112 34 0
-3113 4 0
-3113 68 0
-4 -68 3113 0
-3114 7 0
-3114 98 0
-7 -98 3114 0
-3115 10 0
-3115 128 0
-10 -128 3115 0
-3116 13 0
-3116 158 0
-13 -158 3116 0
-3117 16 0
-3117 188 0
-16 -188 3117 0
-3118 19 0
-3118 218 0
-19 -218 3118 0
-3119 22 0
-3119 248 0
-22 -248 3119 0
-3120 25 0
-3120 278 0
-25 -278 3120 0
-3121 28 0
-3121 308 0
-28 -308 3121 0
-3122 31 0
-3122 338 0
-31 -338 3122 0
-3123 37 0
-3123 398 0
-37 -398 3123 0
-3124 40 0
-3124 428 0
-40 -428 3124 0
-3125 43 0
-3125 458 0
-43 -458 3125 0
-3112 -3113 0
-3112 -3114 0
-3112 -3115 0
-3112 -3116 0
-3112 -3117 0
-3112 -3118 0
-3112 -3119 0
-3112 -3120 0
-3112 -3121 0
-3112 -3122 0
-3112 -3123 0
-3112 -3124 0
-3112 -3125 0
-34 3112 3113 3114 3115 3116 3117 3118 3119 3120 3121 3122 3123 3124 3125 0
-3126 37 0
-3127 4 0
-3127 70 0
-4 -70 3127 0
-3128 7 0
-3128 100 0
-7 -100 3128 0
-3129 10 0
-3129 130 0
-10 -130 3129 0
-3130 13 0
-3130 160 0
-13 -160 3130 0
-3131 16 0
-3131 190 0
-16 -190 3131 0
-3132 19 0
-3132 220 0
-19 -220 3132 0
-3133 22 0
-3133 250 0
-22 -250 3133 0
-3134 25 0
-3134 280 0
-25 -280 3134 0
-3135 28 0
-3135 310 0
-28 -310 3135 0
-3136 31 0
-3136 340 0
-31 -340 3136 0
-3137 34 0
-3137 370 0
-34 -370 3137 0
-3138 40 0
-3138 430 0
-40 -430 3138 0
-3139 43 0
-3139 460 0
-43 -460 3139 0
-3126 -3127 0
-3126 -3128 0
-3126 -3129 0
-3126 -3130 0
-3126 -3131 0
-3126 -3132 0
-3126 -3133 0
-3126 -3134 0
-3126 -3135 0
-3126 -3136 0
-3126 -3137 0
-3126 -3138 0
-3126 -3139 0
-37 3126 3127 3128 3129 3130 3131 3132 3133 3134 3135 3136 3137 3138 3139 0
-3140 40 0
-3141 4 0
-3141 72 0
-4 -72 3141 0
-3142 7 0
-3142 102 0
-7 -102 3142 0
-3143 10 0
-3143 132 0
-10 -132 3143 0
-3144 13 0
-3144 162 0
-13 -162 3144 0
-3145 16 0
-3145 192 0
-16 -192 3145 0
-3146 19 0
-3146 222 0
-19 -222 3146 0
-3147 22 0
-3147 252 0
-22 -252 3147 0
-3148 25 0
-3148 282 0
-25 -282 3148 0
-3149 28 0
-3149 312 0
-28 -312 3149 0
-3150 31 0
-3150 342 0
-31 -342 3150 0
-3151 34 0
-3151 372 0
-34 -372 3151 0
-3152 37 0
-3152 402 0
-37 -402 3152 0
-3153 43 0
-3153 462 0
-43 -462 3153 0
-3140 -3141 0
-3140 -3142 0
-3140 -3143 0
-3140 -3144 0
-3140 -3145 0
-3140 -3146 0
-3140 -3147 0
-3140 -3148 0
-3140 -3149 0
-3140 -3150 0
-3140 -3151 0
-3140 -3152 0
-3140 -3153 0
-40 3140 3141 3142 3143 3144 3145 3146 3147 3148 3149 3150 3151 3152 3153 0
-3154 43 0
-3155 4 0
-3155 74 0
-4 -74 3155 0
-3156 7 0
-3156 104 0
-7 -104 3156 0
-3157 10 0
-3157 134 0
-10 -134 3157 0
-3158 13 0
-3158 164 0
-13 -164 3158 0
-3159 16 0
-3159 194 0
-16 -194 3159 0
-3160 19 0
-3160 224 0
-19 -224 3160 0
-3161 22 0
-3161 254 0
-22 -254 3161 0
-3162 25 0
-3162 284 0
-25 -284 3162 0
-3163 28 0
-3163 314 0
-28 -314 3163 0
-3164 31 0
-3164 344 0
-31 -344 3164 0
-3165 34 0
-3165 374 0
-34 -374 3165 0
-3166 37 0
-3166 404 0
-37 -404 3166 0
-3167 40 0
-3167 434 0
-40 -434 3167 0
-3154 -3155 0
-3154 -3156 0
-3154 -3157 0
-3154 -3158 0
-3154 -3159 0
-3154 -3160 0
-3154 -3161 0
-3154 -3162 0
-3154 -3163 0
-3154 -3164 0
-3154 -3165 0
-3154 -3166 0
-3154 -3167 0
-43 3154 3155 3156 3157 3158 3159 3160 3161 3162 3163 3164 3165 3166 3167 0
-3168 46 0
-3169 50 0
-3169 76 0
-50 -76 3169 0
-3170 52 0
-3170 106 0
-52 -106 3170 0
-3171 54 0
-3171 136 0
-54 -136 3171 0
-3172 56 0
-3172 166 0
-56 -166 3172 0
-3173 58 0
-3173 196 0
-58 -196 3173 0
-3174 60 0
-3174 226 0
-60 -226 3174 0
-3175 62 0
-3175 256 0
-62 -256 3175 0
-3176 64 0
-3176 286 0
-64 -286 3176 0
-3177 66 0
-3177 316 0
-66 -316 3177 0
-3178 68 0
-3178 346 0
-68 -346 3178 0
-3179 70 0
-3179 376 0
-70 -376 3179 0
-3180 72 0
-3180 406 0
-72 -406 3180 0
-3181 74 0
-3181 436 0
-74 -436 3181 0
-3168 -3169 0
-3168 -3170 0
-3168 -3171 0
-3168 -3172 0
-3168 -3173 0
-3168 -3174 0
-3168 -3175 0
-3168 -3176 0
-3168 -3177 0
-3168 -3178 0
-3168 -3179 0
-3168 -3180 0
-3168 -3181 0
-46 3168 3169 3170 3171 3172 3173 3174 3175 3176 3177 3178 3179 3180 3181 0
-3182 0
-3183 50 0
-3184 46 0
-3184 7 0
-46 -7 3184 0
-3185 52 0
-3185 110 0
-52 -110 3185 0
-3186 54 0
-3186 140 0
-54 -140 3186 0
-3187 56 0
-3187 170 0
-56 -170 3187 0
-3188 58 0
-3188 200 0
-58 -200 3188 0
-3189 60 0
-3189 230 0
-60 -230 3189 0
-3190 62 0
-3190 260 0
-62 -260 3190 0
-3191 64 0
-3191 290 0
-64 -290 3191 0
-3192 66 0
-3192 320 0
-66 -320 3192 0
-3193 68 0
-3193 350 0
-68 -350 3193 0
-3194 70 0
-3194 380 0
-70 -380 3194 0
-3195 72 0
-3195 410 0
-72 -410 3195 0
-3196 74 0
-3196 440 0
-74 -440 3196 0
-3183 -3184 0
-3183 -3185 0
-3183 -3186 0
-3183 -3187 0
-3183 -3188 0
-3183 -3189 0
-3183 -3190 0
-3183 -3191 0
-3183 -3192 0
-3183 -3193 0
-3183 -3194 0
-3183 -3195 0
-3183 -3196 0
-50 3183 3184 3185 3186 3187 3188 3189 3190 3191 3192 3193 3194 3195 3196 0
-3197 52 0
-3198 46 0
-3198 10 0
-46 -10 3198 0
-3199 50 0
-3199 82 0
-50 -82 3199 0
-3200 54 0
-3200 142 0
-54 -142 3200 0
-3201 56 0
-3201 172 0
-56 -172 3201 0
-3202 58 0
-3202 202 0
-58 -202 3202 0
-3203 60 0
-3203 232 0
-60 -232 3203 0
-3204 62 0
-3204 262 0
-62 -262 3204 0
-3205 64 0
-3205 292 0
-64 -292 3205 0
-3206 66 0
-3206 322 0
-66 -322 3206 0
-3207 68 0
-3207 352 0
-68 -352 3207 0
-3208 70 0
-3208 382 0
-70 -382 3208 0
-3209 72 0
-3209 412 0
-72 -412 3209 0
-3210 74 0
-3210 442 0
-74 -442 3210 0
-3197 -3198 0
-3197 -3199 0
-3197 -3200 0
-3197 -3201 0
-3197 -3202 0
-3197 -3203 0
-3197 -3204 0
-3197 -3205 0
-3197 -3206 0
-3197 -3207 0
-3197 -3208 0
-3197 -3209 0
-3197 -3210 0
-52 3197 3198 3199 3200 3201 3202 3203 3204 3205 3206 3207 3208 3209 3210 0
-3211 54 0
-3212 46 0
-3212 13 0
-46 -13 3212 0
-3213 50 0
-3213 84 0
-50 -84 3213 0
-3214 52 0
-3214 114 0
-52 -114 3214 0
-3215 56 0
-3215 174 0
-56 -174 3215 0
-3216 58 0
-3216 204 0
-58 -204 3216 0
-3217 60 0
-3217 234 0
-60 -234 3217 0
-3218 62 0
-3218 264 0
-62 -264 3218 0
-3219 64 0
-3219 294 0
-64 -294 3219 0
-3220 66 0
-3220 324 0
-66 -324 3220 0
-3221 68 0
-3221 354 0
-68 -354 3221 0
-3222 70 0
-3222 384 0
-70 -384 3222 0
-3223 72 0
-3223 414 0
-72 -414 3223 0
-3224 74 0
-3224 444 0
-74 -444 3224 0
-3211 -3212 0
-3211 -3213 0
-3211 -3214 0
-3211 -3215 0
-3211 -3216 0
-3211 -3217 0
-3211 -3218 0
-3211 -3219 0
-3211 -3220 0
-3211 -3221 0
-3211 -3222 0
-3211 -3223 0
-3211 -3224 0
-54 3211 3212 3213 3214 3215 3216 3217 3218 3219 3220 3221 3222 3223 3224 0
-3225 56 0
-3226 46 0
-3226 16 0
-46 -16 3226 0
-3227 50 0
-3227 86 0
-50 -86 3227 0
-3228 52 0
-3228 116 0
-52 -116 3228 0
-3229 54 0
-3229 146 0
-54 -146 3229 0
-3230 58 0
-3230 206 0
-58 -206 3230 0
-3231 60 0
-3231 236 0
-60 -236 3231 0
-3232 62 0
-3232 266 0
-62 -266 3232 0
-3233 64 0
-3233 296 0
-64 -296 3233 0
-3234 66 0
-3234 326 0
-66 -326 3234 0
-3235 68 0
-3235 356 0
-68 -356 3235 0
-3236 70 0
-3236 386 0
-70 -386 3236 0
-3237 72 0
-3237 416 0
-72 -416 3237 0
-3238 74 0
-3238 446 0
-74 -446 3238 0
-3225 -3226 0
-3225 -3227 0
-3225 -3228 0
-3225 -3229 0
-3225 -3230 0
-3225 -3231 0
-3225 -3232 0
-3225 -3233 0
-3225 -3234 0
-3225 -3235 0
-3225 -3236 0
-3225 -3237 0
-3225 -3238 0
-56 3225 3226 3227 3228 3229 3230 3231 3232 3233 3234 3235 3236 3237 3238 0
-3239 58 0
-3240 46 0
-3240 19 0
-46 -19 3240 0
-3241 50 0
-3241 88 0
-50 -88 3241 0
-3242 52 0
-3242 118 0
-52 -118 3242 0
-3243 54 0
-3243 148 0
-54 -148 3243 0
-3244 56 0
-3244 178 0
-56 -178 3244 0
-3245 60 0
-3245 238 0
-60 -238 3245 0
-3246 62 0
-3246 268 0
-62 -268 3246 0
-3247 64 0
-3247 298 0
-64 -298 3247 0
-3248 66 0
-3248 328 0
-66 -328 3248 0
-3249 68 0
-3249 358 0
-68 -358 3249 0
-3250 70 0
-3250 388 0
-70 -388 3250 0
-3251 72 0
-3251 418 0
-72 -418 3251 0
-3252 74 0
-3252 448 0
-74 -448 3252 0
-3239 -3240 0
-3239 -3241 0
-3239 -3242 0
-3239 -3243 0
-3239 -3244 0
-3239 -3245 0
-3239 -3246 0
-3239 -3247 0
-3239 -3248 0
-3239 -3249 0
-3239 -3250 0
-3239 -3251 0
-3239 -3252 0
-58 3239 3240 3241 3242 3243 3244 3245 3246 3247 3248 3249 3250 3251 3252 0
-3253 60 0
-3254 46 0
-3254 22 0
-46 -22 3254 0
-3255 50 0
-3255 90 0
-50 -90 3255 0
-3256 52 0
-3256 120 0
-52 -120 3256 0
-3257 54 0
-3257 150 0
-54 -150 3257 0
-3258 56 0
-3258 180 0
-56 -180 3258 0
-3259 58 0
-3259 210 0
-58 -210 3259 0
-3260 62 0
-3260 270 0
-62 -270 3260 0
-3261 64 0
-3261 300 0
-64 -300 3261 0
-3262 66 0
-3262 330 0
-66 -330 3262 0
-3263 68 0
-3263 360 0
-68 -360 3263 0
-3264 70 0
-3264 390 0
-70 -390 3264 0
-3265 72 0
-3265 420 0
-72 -420 3265 0
-3266 74 0
-3266 450 0
-74 -450 3266 0
-3253 -3254 0
-3253 -3255 0
-3253 -3256 0
-3253 -3257 0
-3253 -3258 0
-3253 -3259 0
-3253 -3260 0
-3253 -3261 0
-3253 -3262 0
-3253 -3263 0
-3253 -3264 0
-3253 -3265 0
-3253 -3266 0
-60 3253 3254 3255 3256 3257 3258 3259 3260 3261 3262 3263 3264 3265 3266 0
-3267 62 0
-3268 46 0
-3268 25 0
-46 -25 3268 0
-3269 50 0
-3269 92 0
-50 -92 3269 0
-3270 52 0
-3270 122 0
-52 -122 3270 0
-3271 54 0
-3271 152 0
-54 -152 3271 0
-3272 56 0
-3272 182 0
-56 -182 3272 0
-3273 58 0
-3273 212 0
-58 -212 3273 0
-3274 60 0
-3274 242 0
-60 -242 3274 0
-3275 64 0
-3275 302 0
-64 -302 3275 0
-3276 66 0
-3276 332 0
-66 -332 3276 0
-3277 68 0
-3277 362 0
-68 -362 3277 0
-3278 70 0
-3278 392 0
-70 -392 3278 0
-3279 72 0
-3279 422 0
-72 -422 3279 0
-3280 74 0
-3280 452 0
-74 -452 3280 0
-3267 -3268 0
-3267 -3269 0
-3267 -3270 0
-3267 -3271 0
-3267 -3272 0
-3267 -3273 0
-3267 -3274 0
-3267 -3275 0
-3267 -3276 0
-3267 -3277 0
-3267 -3278 0
-3267 -3279 0
-3267 -3280 0
-62 3267 3268 3269 3270 3271 3272 3273 3274 3275 3276 3277 3278 3279 3280 0
-3281 64 0
-3282 46 0
-3282 28 0
-46 -28 3282 0
-3283 50 0
-3283 94 0
-50 -94 3283 0
-3284 52 0
-3284 124 0
-52 -124 3284 0
-3285 54 0
-3285 154 0
-54 -154 3285 0
-3286 56 0
-3286 184 0
-56 -184 3286 0
-3287 58 0
-3287 214 0
-58 -214 3287 0
-3288 60 0
-3288 244 0
-60 -244 3288 0
-3289 62 0
-3289 274 0
-62 -274 3289 0
-3290 66 0
-3290 334 0
-66 -334 3290 0
-3291 68 0
-3291 364 0
-68 -364 3291 0
-3292 70 0
-3292 394 0
-70 -394 3292 0
-3293 72 0
-3293 424 0
-72 -424 3293 0
-3294 74 0
-3294 454 0
-74 -454 3294 0
-3281 -3282 0
-3281 -3283 0
-3281 -3284 0
-3281 -3285 0
-3281 -3286 0
-3281 -3287 0
-3281 -3288 0
-3281 -3289 0
-3281 -3290 0
-3281 -3291 0
-3281 -3292 0
-3281 -3293 0
-3281 -3294 0
-64 3281 3282 3283 3284 3285 3286 3287 3288 3289 3290 3291 3292 3293 3294 0
-3295 66 0
-3296 46 0
-3296 31 0
-46 -31 3296 0
-3297 50 0
-3297 96 0
-50 -96 3297 0
-3298 52 0
-3298 126 0
-52 -126 3298 0
-3299 54 0
-3299 156 0
-54 -156 3299 0
-3300 56 0
-3300 186 0
-56 -186 3300 0
-3301 58 0
-3301 216 0
-58 -216 3301 0
-3302 60 0
-3302 246 0
-60 -246 3302 0
-3303 62 0
-3303 276 0
-62 -276 3303 0
-3304 64 0
-3304 306 0
-64 -306 3304 0
-3305 68 0
-3305 366 0
-68 -366 3305 0
-3306 70 0
-3306 396 0
-70 -396 3306 0
-3307 72 0
-3307 426 0
-72 -426 3307 0
-3308 74 0
-3308 456 0
-74 -456 3308 0
-3295 -3296 0
-3295 -3297 0
-3295 -3298 0
-3295 -3299 0
-3295 -3300 0
-3295 -3301 0
-3295 -3302 0
-3295 -3303 0
-3295 -3304 0
-3295 -3305 0
-3295 -3306 0
-3295 -3307 0
-3295 -3308 0
-66 3295 3296 3297 3298 3299 3300 3301 3302 3303 3304 3305 3306 3307 3308 0
-3309 68 0
-3310 46 0
-3310 34 0
-46 -34 3310 0
-3311 50 0
-3311 98 0
-50 -98 3311 0
-3312 52 0
-3312 128 0
-52 -128 3312 0
-3313 54 0
-3313 158 0
-54 -158 3313 0
-3314 56 0
-3314 188 0
-56 -188 3314 0
-3315 58 0
-3315 218 0
-58 -218 3315 0
-3316 60 0
-3316 248 0
-60 -248 3316 0
-3317 62 0
-3317 278 0
-62 -278 3317 0
-3318 64 0
-3318 308 0
-64 -308 3318 0
-3319 66 0
-3319 338 0
-66 -338 3319 0
-3320 70 0
-3320 398 0
-70 -398 3320 0
-3321 72 0
-3321 428 0
-72 -428 3321 0
-3322 74 0
-3322 458 0
-74 -458 3322 0
-3309 -3310 0
-3309 -3311 0
-3309 -3312 0
-3309 -3313 0
-3309 -3314 0
-3309 -3315 0
-3309 -3316 0
-3309 -3317 0
-3309 -3318 0
-3309 -3319 0
-3309 -3320 0
-3309 -3321 0
-3309 -3322 0
-68 3309 3310 3311 3312 3313 3314 3315 3316 3317 3318 3319 3320 3321 3322 0
-3323 70 0
-3324 46 0
-3324 37 0
-46 -37 3324 0
-3325 50 0
-3325 100 0
-50 -100 3325 0
-3326 52 0
-3326 130 0
-52 -130 3326 0
-3327 54 0
-3327 160 0
-54 -160 3327 0
-3328 56 0
-3328 190 0
-56 -190 3328 0
-3329 58 0
-3329 220 0
-58 -220 3329 0
-3330 60 0
-3330 250 0
-60 -250 3330 0
-3331 62 0
-3331 280 0
-62 -280 3331 0
-3332 64 0
-3332 310 0
-64 -310 3332 0
-3333 66 0
-3333 340 0
-66 -340 3333 0
-3334 68 0
-3334 370 0
-68 -370 3334 0
-3335 72 0
-3335 430 0
-72 -430 3335 0
-3336 74 0
-3336 460 0
-74 -460 3336 0
-3323 -3324 0
-3323 -3325 0
-3323 -3326 0
-3323 -3327 0
-3323 -3328 0
-3323 -3329 0
-3323 -3330 0
-3323 -3331 0
-3323 -3332 0
-3323 -3333 0
-3323 -3334 0
-3323 -3335 0
-3323 -3336 0
-70 3323 3324 3325 3326 3327 3328 3329 3330 3331 3332 3333 3334 3335 3336 0
-3337 72 0
-3338 46 0
-3338 40 0
-46 -40 3338 0
-3339 50 0
-3339 102 0
-50 -102 3339 0
-3340 52 0
-3340 132 0
-52 -132 3340 0
-3341 54 0
-3341 162 0
-54 -162 3341 0
-3342 56 0
-3342 192 0
-56 -192 3342 0
-3343 58 0
-3343 222 0
-58 -222 3343 0
-3344 60 0
-3344 252 0
-60 -252 3344 0
-3345 62 0
-3345 282 0
-62 -282 3345 0
-3346 64 0
-3346 312 0
-64 -312 3346 0
-3347 66 0
-3347 342 0
-66 -342 3347 0
-3348 68 0
-3348 372 0
-68 -372 3348 0
-3349 70 0
-3349 402 0
-70 -402 3349 0
-3350 74 0
-3350 462 0
-74 -462 3350 0
-3337 -3338 0
-3337 -3339 0
-3337 -3340 0
-3337 -3341 0
-3337 -3342 0
-3337 -3343 0
-3337 -3344 0
-3337 -3345 0
-3337 -3346 0
-3337 -3347 0
-3337 -3348 0
-3337 -3349 0
-3337 -3350 0
-72 3337 3338 3339 3340 3341 3342 3343 3344 3345 3346 3347 3348 3349 3350 0
-3351 74 0
-3352 46 0
-3352 43 0
-46 -43 3352 0
-3353 50 0
-3353 104 0
-50 -104 3353 0
-3354 52 0
-3354 134 0
-52 -134 3354 0
-3355 54 0
-3355 164 0
-54 -164 3355 0
-3356 56 0
-3356 194 0
-56 -194 3356 0
-3357 58 0
-3357 224 0
-58 -224 3357 0
-3358 60 0
-3358 254 0
-60 -254 3358 0
-3359 62 0
-3359 284 0
-62 -284 3359 0
-3360 64 0
-3360 314 0
-64 -314 3360 0
-3361 66 0
-3361 344 0
-66 -344 3361 0
-3362 68 0
-3362 374 0
-68 -374 3362 0
-3363 70 0
-3363 404 0
-70 -404 3363 0
-3364 72 0
-3364 434 0
-72 -434 3364 0
-3351 -3352 0
-3351 -3353 0
-3351 -3354 0
-3351 -3355 0
-3351 -3356 0
-3351 -3357 0
-3351 -3358 0
-3351 -3359 0
-3351 -3360 0
-3351 -3361 0
-3351 -3362 0
-3351 -3363 0
-3351 -3364 0
-74 3351 3352 3353 3354 3355 3356 3357 3358 3359 3360 3361 3362 3363 3364 0
-3365 76 0
-3366 78 0
-3366 46 0
-78 -46 3366 0
-3367 82 0
-3367 106 0
-82 -106 3367 0
-3368 84 0
-3368 136 0
-84 -136 3368 0
-3369 86 0
-3369 166 0
-86 -166 3369 0
-3370 88 0
-3370 196 0
-88 -196 3370 0
-3371 90 0
-3371 226 0
-90 -226 3371 0
-3372 92 0
-3372 256 0
-92 -256 3372 0
-3373 94 0
-3373 286 0
-94 -286 3373 0
-3374 96 0
-3374 316 0
-96 -316 3374 0
-3375 98 0
-3375 346 0
-98 -346 3375 0
-3376 100 0
-3376 376 0
-100 -376 3376 0
-3377 102 0
-3377 406 0
-102 -406 3377 0
-3378 104 0
-3378 436 0
-104 -436 3378 0
-3365 -3366 0
-3365 -3367 0
-3365 -3368 0
-3365 -3369 0
-3365 -3370 0
-3365 -3371 0
-3365 -3372 0
-3365 -3373 0
-3365 -3374 0
-3365 -3375 0
-3365 -3376 0
-3365 -3377 0
-3365 -3378 0
-76 3365 3366 3367 3368 3369 3370 3371 3372 3373 3374 3375 3376 3377 3378 0
-3379 78 0
-3380 76 0
-3380 4 0
-76 -4 3380 0
-3381 82 0
-3381 108 0
-82 -108 3381 0
-3382 84 0
-3382 138 0
-84 -138 3382 0
-3383 86 0
-3383 168 0
-86 -168 3383 0
-3384 88 0
-3384 198 0
-88 -198 3384 0
-3385 90 0
-3385 228 0
-90 -228 3385 0
-3386 92 0
-3386 258 0
-92 -258 3386 0
-3387 94 0
-3387 288 0
-94 -288 3387 0
-3388 96 0
-3388 318 0
-96 -318 3388 0
-3389 98 0
-3389 348 0
-98 -348 3389 0
-3390 100 0
-3390 378 0
-100 -378 3390 0
-3391 102 0
-3391 408 0
-102 -408 3391 0
-3392 104 0
-3392 438 0
-104 -438 3392 0
-3379 -3380 0
-3379 -3381 0
-3379 -3382 0
-3379 -3383 0
-3379 -3384 0
-3379 -3385 0
-3379 -3386 0
-3379 -3387 0
-3379 -3388 0
-3379 -3389 0
-3379 -3390 0
-3379 -3391 0
-3379 -3392 0
-78 3379 3380 3381 3382 3383 3384 3385 3386 3387 3388 3389 3390 3391 3392 0
-3393 0
-3394 82 0
-3395 76 0
-3395 10 0
-76 -10 3395 0
-3396 78 0
-3396 52 0
-78 -52 3396 0
-3397 84 0
-3397 142 0
-84 -142 3397 0
-3398 86 0
-3398 172 0
-86 -172 3398 0
-3399 88 0
-3399 202 0
-88 -202 3399 0
-3400 90 0
-3400 232 0
-90 -232 3400 0
-3401 92 0
-3401 262 0
-92 -262 3401 0
-3402 94 0
-3402 292 0
-94 -292 3402 0
-3403 96 0
-3403 322 0
-96 -322 3403 0
-3404 98 0
-3404 352 0
-98 -352 3404 0
-3405 100 0
-3405 382 0
-100 -382 3405 0
-3406 102 0
-3406 412 0
-102 -412 3406 0
-3407 104 0
-3407 442 0
-104 -442 3407 0
-3394 -3395 0
-3394 -3396 0
-3394 -3397 0
-3394 -3398 0
-3394 -3399 0
-3394 -3400 0
-3394 -3401 0
-3394 -3402 0
-3394 -3403 0
-3394 -3404 0
-3394 -3405 0
-3394 -3406 0
-3394 -3407 0
-82 3394 3395 3396 3397 3398 3399 3400 3401 3402 3403 3404 3405 3406 3407 0
-3408 84 0
-3409 76 0
-3409 13 0
-76 -13 3409 0
-3410 78 0
-3410 54 0
-78 -54 3410 0
-3411 82 0
-3411 114 0
-82 -114 3411 0
-3412 86 0
-3412 174 0
-86 -174 3412 0
-3413 88 0
-3413 204 0
-88 -204 3413 0
-3414 90 0
-3414 234 0
-90 -234 3414 0
-3415 92 0
-3415 264 0
-92 -264 3415 0
-3416 94 0
-3416 294 0
-94 -294 3416 0
-3417 96 0
-3417 324 0
-96 -324 3417 0
-3418 98 0
-3418 354 0
-98 -354 3418 0
-3419 100 0
-3419 384 0
-100 -384 3419 0
-3420 102 0
-3420 414 0
-102 -414 3420 0
-3421 104 0
-3421 444 0
-104 -444 3421 0
-3408 -3409 0
-3408 -3410 0
-3408 -3411 0
-3408 -3412 0
-3408 -3413 0
-3408 -3414 0
-3408 -3415 0
-3408 -3416 0
-3408 -3417 0
-3408 -3418 0
-3408 -3419 0
-3408 -3420 0
-3408 -3421 0
-84 3408 3409 3410 3411 3412 3413 3414 3415 3416 3417 3418 3419 3420 3421 0
-3422 86 0
-3423 76 0
-3423 16 0
-76 -16 3423 0
-3424 78 0
-3424 56 0
-78 -56 3424 0
-3425 82 0
-3425 116 0
-82 -116 3425 0
-3426 84 0
-3426 146 0
-84 -146 3426 0
-3427 88 0
-3427 206 0
-88 -206 3427 0
-3428 90 0
-3428 236 0
-90 -236 3428 0
-3429 92 0
-3429 266 0
-92 -266 3429 0
-3430 94 0
-3430 296 0
-94 -296 3430 0
-3431 96 0
-3431 326 0
-96 -326 3431 0
-3432 98 0
-3432 356 0
-98 -356 3432 0
-3433 100 0
-3433 386 0
-100 -386 3433 0
-3434 102 0
-3434 416 0
-102 -416 3434 0
-3435 104 0
-3435 446 0
-104 -446 3435 0
-3422 -3423 0
-3422 -3424 0
-3422 -3425 0
-3422 -3426 0
-3422 -3427 0
-3422 -3428 0
-3422 -3429 0
-3422 -3430 0
-3422 -3431 0
-3422 -3432 0
-3422 -3433 0
-3422 -3434 0
-3422 -3435 0
-86 3422 3423 3424 3425 3426 3427 3428 3429 3430 3431 3432 3433 3434 3435 0
-3436 88 0
-3437 76 0
-3437 19 0
-76 -19 3437 0
-3438 78 0
-3438 58 0
-78 -58 3438 0
-3439 82 0
-3439 118 0
-82 -118 3439 0
-3440 84 0
-3440 148 0
-84 -148 3440 0
-3441 86 0
-3441 178 0
-86 -178 3441 0
-3442 90 0
-3442 238 0
-90 -238 3442 0
-3443 92 0
-3443 268 0
-92 -268 3443 0
-3444 94 0
-3444 298 0
-94 -298 3444 0
-3445 96 0
-3445 328 0
-96 -328 3445 0
-3446 98 0
-3446 358 0
-98 -358 3446 0
-3447 100 0
-3447 388 0
-100 -388 3447 0
-3448 102 0
-3448 418 0
-102 -418 3448 0
-3449 104 0
-3449 448 0
-104 -448 3449 0
-3436 -3437 0
-3436 -3438 0
-3436 -3439 0
-3436 -3440 0
-3436 -3441 0
-3436 -3442 0
-3436 -3443 0
-3436 -3444 0
-3436 -3445 0
-3436 -3446 0
-3436 -3447 0
-3436 -3448 0
-3436 -3449 0
-88 3436 3437 3438 3439 3440 3441 3442 3443 3444 3445 3446 3447 3448 3449 0
-3450 90 0
-3451 76 0
-3451 22 0
-76 -22 3451 0
-3452 78 0
-3452 60 0
-78 -60 3452 0
-3453 82 0
-3453 120 0
-82 -120 3453 0
-3454 84 0
-3454 150 0
-84 -150 3454 0
-3455 86 0
-3455 180 0
-86 -180 3455 0
-3456 88 0
-3456 210 0
-88 -210 3456 0
-3457 92 0
-3457 270 0
-92 -270 3457 0
-3458 94 0
-3458 300 0
-94 -300 3458 0
-3459 96 0
-3459 330 0
-96 -330 3459 0
-3460 98 0
-3460 360 0
-98 -360 3460 0
-3461 100 0
-3461 390 0
-100 -390 3461 0
-3462 102 0
-3462 420 0
-102 -420 3462 0
-3463 104 0
-3463 450 0
-104 -450 3463 0
-3450 -3451 0
-3450 -3452 0
-3450 -3453 0
-3450 -3454 0
-3450 -3455 0
-3450 -3456 0
-3450 -3457 0
-3450 -3458 0
-3450 -3459 0
-3450 -3460 0
-3450 -3461 0
-3450 -3462 0
-3450 -3463 0
-90 3450 3451 3452 3453 3454 3455 3456 3457 3458 3459 3460 3461 3462 3463 0
-3464 92 0
-3465 76 0
-3465 25 0
-76 -25 3465 0
-3466 78 0
-3466 62 0
-78 -62 3466 0
-3467 82 0
-3467 122 0
-82 -122 3467 0
-3468 84 0
-3468 152 0
-84 -152 3468 0
-3469 86 0
-3469 182 0
-86 -182 3469 0
-3470 88 0
-3470 212 0
-88 -212 3470 0
-3471 90 0
-3471 242 0
-90 -242 3471 0
-3472 94 0
-3472 302 0
-94 -302 3472 0
-3473 96 0
-3473 332 0
-96 -332 3473 0
-3474 98 0
-3474 362 0
-98 -362 3474 0
-3475 100 0
-3475 392 0
-100 -392 3475 0
-3476 102 0
-3476 422 0
-102 -422 3476 0
-3477 104 0
-3477 452 0
-104 -452 3477 0
-3464 -3465 0
-3464 -3466 0
-3464 -3467 0
-3464 -3468 0
-3464 -3469 0
-3464 -3470 0
-3464 -3471 0
-3464 -3472 0
-3464 -3473 0
-3464 -3474 0
-3464 -3475 0
-3464 -3476 0
-3464 -3477 0
-92 3464 3465 3466 3467 3468 3469 3470 3471 3472 3473 3474 3475 3476 3477 0
-3478 94 0
-3479 76 0
-3479 28 0
-76 -28 3479 0
-3480 78 0
-3480 64 0
-78 -64 3480 0
-3481 82 0
-3481 124 0
-82 -124 3481 0
-3482 84 0
-3482 154 0
-84 -154 3482 0
-3483 86 0
-3483 184 0
-86 -184 3483 0
-3484 88 0
-3484 214 0
-88 -214 3484 0
-3485 90 0
-3485 244 0
-90 -244 3485 0
-3486 92 0
-3486 274 0
-92 -274 3486 0
-3487 96 0
-3487 334 0
-96 -334 3487 0
-3488 98 0
-3488 364 0
-98 -364 3488 0
-3489 100 0
-3489 394 0
-100 -394 3489 0
-3490 102 0
-3490 424 0
-102 -424 3490 0
-3491 104 0
-3491 454 0
-104 -454 3491 0
-3478 -3479 0
-3478 -3480 0
-3478 -3481 0
-3478 -3482 0
-3478 -3483 0
-3478 -3484 0
-3478 -3485 0
-3478 -3486 0
-3478 -3487 0
-3478 -3488 0
-3478 -3489 0
-3478 -3490 0
-3478 -3491 0
-94 3478 3479 3480 3481 3482 3483 3484 3485 3486 3487 3488 3489 3490 3491 0
-3492 96 0
-3493 76 0
-3493 31 0
-76 -31 3493 0
-3494 78 0
-3494 66 0
-78 -66 3494 0
-3495 82 0
-3495 126 0
-82 -126 3495 0
-3496 84 0
-3496 156 0
-84 -156 3496 0
-3497 86 0
-3497 186 0
-86 -186 3497 0
-3498 88 0
-3498 216 0
-88 -216 3498 0
-3499 90 0
-3499 246 0
-90 -246 3499 0
-3500 92 0
-3500 276 0
-92 -276 3500 0
-3501 94 0
-3501 306 0
-94 -306 3501 0
-3502 98 0
-3502 366 0
-98 -366 3502 0
-3503 100 0
-3503 396 0
-100 -396 3503 0
-3504 102 0
-3504 426 0
-102 -426 3504 0
-3505 104 0
-3505 456 0
-104 -456 3505 0
-3492 -3493 0
-3492 -3494 0
-3492 -3495 0
-3492 -3496 0
-3492 -3497 0
-3492 -3498 0
-3492 -3499 0
-3492 -3500 0
-3492 -3501 0
-3492 -3502 0
-3492 -3503 0
-3492 -3504 0
-3492 -3505 0
-96 3492 3493 3494 3495 3496 3497 3498 3499 3500 3501 3502 3503 3504 3505 0
-3506 98 0
-3507 76 0
-3507 34 0
-76 -34 3507 0
-3508 78 0
-3508 68 0
-78 -68 3508 0
-3509 82 0
-3509 128 0
-82 -128 3509 0
-3510 84 0
-3510 158 0
-84 -158 3510 0
-3511 86 0
-3511 188 0
-86 -188 3511 0
-3512 88 0
-3512 218 0
-88 -218 3512 0
-3513 90 0
-3513 248 0
-90 -248 3513 0
-3514 92 0
-3514 278 0
-92 -278 3514 0
-3515 94 0
-3515 308 0
-94 -308 3515 0
-3516 96 0
-3516 338 0
-96 -338 3516 0
-3517 100 0
-3517 398 0
-100 -398 3517 0
-3518 102 0
-3518 428 0
-102 -428 3518 0
-3519 104 0
-3519 458 0
-104 -458 3519 0
-3506 -3507 0
-3506 -3508 0
-3506 -3509 0
-3506 -3510 0
-3506 -3511 0
-3506 -3512 0
-3506 -3513 0
-3506 -3514 0
-3506 -3515 0
-3506 -3516 0
-3506 -3517 0
-3506 -3518 0
-3506 -3519 0
-98 3506 3507 3508 3509 3510 3511 3512 3513 3514 3515 3516 3517 3518 3519 0
-3520 100 0
-3521 76 0
-3521 37 0
-76 -37 3521 0
-3522 78 0
-3522 70 0
-78 -70 3522 0
-3523 82 0
-3523 130 0
-82 -130 3523 0
-3524 84 0
-3524 160 0
-84 -160 3524 0
-3525 86 0
-3525 190 0
-86 -190 3525 0
-3526 88 0
-3526 220 0
-88 -220 3526 0
-3527 90 0
-3527 250 0
-90 -250 3527 0
-3528 92 0
-3528 280 0
-92 -280 3528 0
-3529 94 0
-3529 310 0
-94 -310 3529 0
-3530 96 0
-3530 340 0
-96 -340 3530 0
-3531 98 0
-3531 370 0
-98 -370 3531 0
-3532 102 0
-3532 430 0
-102 -430 3532 0
-3533 104 0
-3533 460 0
-104 -460 3533 0
-3520 -3521 0
-3520 -3522 0
-3520 -3523 0
-3520 -3524 0
-3520 -3525 0
-3520 -3526 0
-3520 -3527 0
-3520 -3528 0
-3520 -3529 0
-3520 -3530 0
-3520 -3531 0
-3520 -3532 0
-3520 -3533 0
-100 3520 3521 3522 3523 3524 3525 3526 3527 3528 3529 3530 3531 3532 3533 0
-3534 102 0
-3535 76 0
-3535 40 0
-76 -40 3535 0
-3536 78 0
-3536 72 0
-78 -72 3536 0
-3537 82 0
-3537 132 0
-82 -132 3537 0
-3538 84 0
-3538 162 0
-84 -162 3538 0
-3539 86 0
-3539 192 0
-86 -192 3539 0
-3540 88 0
-3540 222 0
-88 -222 3540 0
-3541 90 0
-3541 252 0
-90 -252 3541 0
-3542 92 0
-3542 282 0
-92 -282 3542 0
-3543 94 0
-3543 312 0
-94 -312 3543 0
-3544 96 0
-3544 342 0
-96 -342 3544 0
-3545 98 0
-3545 372 0
-98 -372 3545 0
-3546 100 0
-3546 402 0
-100 -402 3546 0
-3547 104 0
-3547 462 0
-104 -462 3547 0
-3534 -3535 0
-3534 -3536 0
-3534 -3537 0
-3534 -3538 0
-3534 -3539 0
-3534 -3540 0
-3534 -3541 0
-3534 -3542 0
-3534 -3543 0
-3534 -3544 0
-3534 -3545 0
-3534 -3546 0
-3534 -3547 0
-102 3534 3535 3536 3537 3538 3539 3540 3541 3542 3543 3544 3545 3546 3547 0
-3548 104 0
-3549 76 0
-3549 43 0
-76 -43 3549 0
-3550 78 0
-3550 74 0
-78 -74 3550 0
-3551 82 0
-3551 134 0
-82 -134 3551 0
-3552 84 0
-3552 164 0
-84 -164 3552 0
-3553 86 0
-3553 194 0
-86 -194 3553 0
-3554 88 0
-3554 224 0
-88 -224 3554 0
-3555 90 0
-3555 254 0
-90 -254 3555 0
-3556 92 0
-3556 284 0
-92 -284 3556 0
-3557 94 0
-3557 314 0
-94 -314 3557 0
-3558 96 0
-3558 344 0
-96 -344 3558 0
-3559 98 0
-3559 374 0
-98 -374 3559 0
-3560 100 0
-3560 404 0
-100 -404 3560 0
-3561 102 0
-3561 434 0
-102 -434 3561 0
-3548 -3549 0
-3548 -3550 0
-3548 -3551 0
-3548 -3552 0
-3548 -3553 0
-3548 -3554 0
-3548 -3555 0
-3548 -3556 0
-3548 -3557 0
-3548 -3558 0
-3548 -3559 0
-3548 -3560 0
-3548 -3561 0
-104 3548 3549 3550 3551 3552 3553 3554 3555 3556 3557 3558 3559 3560 3561 0
-3562 106 0
-3563 108 0
-3563 46 0
-108 -46 3563 0
-3564 110 0
-3564 76 0
-110 -76 3564 0
-3565 114 0
-3565 136 0
-114 -136 3565 0
-3566 116 0
-3566 166 0
-116 -166 3566 0
-3567 118 0
-3567 196 0
-118 -196 3567 0
-3568 120 0
-3568 226 0
-120 -226 3568 0
-3569 122 0
-3569 256 0
-122 -256 3569 0
-3570 124 0
-3570 286 0
-124 -286 3570 0
-3571 126 0
-3571 316 0
-126 -316 3571 0
-3572 128 0
-3572 346 0
-128 -346 3572 0
-3573 130 0
-3573 376 0
-130 -376 3573 0
-3574 132 0
-3574 406 0
-132 -406 3574 0
-3575 134 0
-3575 436 0
-134 -436 3575 0
-3562 -3563 0
-3562 -3564 0
-3562 -3565 0
-3562 -3566 0
-3562 -3567 0
-3562 -3568 0
-3562 -3569 0
-3562 -3570 0
-3562 -3571 0
-3562 -3572 0
-3562 -3573 0
-3562 -3574 0
-3562 -3575 0
-106 3562 3563 3564 3565 3566 3567 3568 3569 3570 3571 3572 3573 3574 3575 0
-3576 108 0
-3577 106 0
-3577 4 0
-106 -4 3577 0
-3578 110 0
-3578 78 0
-110 -78 3578 0
-3579 114 0
-3579 138 0
-114 -138 3579 0
-3580 116 0
-3580 168 0
-116 -168 3580 0
-3581 118 0
-3581 198 0
-118 -198 3581 0
-3582 120 0
-3582 228 0
-120 -228 3582 0
-3583 122 0
-3583 258 0
-122 -258 3583 0
-3584 124 0
-3584 288 0
-124 -288 3584 0
-3585 126 0
-3585 318 0
-126 -318 3585 0
-3586 128 0
-3586 348 0
-128 -348 3586 0
-3587 130 0
-3587 378 0
-130 -378 3587 0
-3588 132 0
-3588 408 0
-132 -408 3588 0
-3589 134 0
-3589 438 0
-134 -438 3589 0
-3576 -3577 0
-3576 -3578 0
-3576 -3579 0
-3576 -3580 0
-3576 -3581 0
-3576 -3582 0
-3576 -3583 0
-3576 -3584 0
-3576 -3585 0
-3576 -3586 0
-3576 -3587 0
-3576 -3588 0
-3576 -3589 0
-108 3576 3577 3578 3579 3580 3581 3582 3583 3584 3585 3586 3587 3588 3589 0
-3590 110 0
-3591 106 0
-3591 7 0
-106 -7 3591 0
-3592 108 0
-3592 50 0
-108 -50 3592 0
-3593 114 0
-3593 140 0
-114 -140 3593 0
-3594 116 0
-3594 170 0
-116 -170 3594 0
-3595 118 0
-3595 200 0
-118 -200 3595 0
-3596 120 0
-3596 230 0
-120 -230 3596 0
-3597 122 0
-3597 260 0
-122 -260 3597 0
-3598 124 0
-3598 290 0
-124 -290 3598 0
-3599 126 0
-3599 320 0
-126 -320 3599 0
-3600 128 0
-3600 350 0
-128 -350 3600 0
-3601 130 0
-3601 380 0
-130 -380 3601 0
-3602 132 0
-3602 410 0
-132 -410 3602 0
-3603 134 0
-3603 440 0
-134 -440 3603 0
-3590 -3591 0
-3590 -3592 0
-3590 -3593 0
-3590 -3594 0
-3590 -3595 0
-3590 -3596 0
-3590 -3597 0
-3590 -3598 0
-3590 -3599 0
-3590 -3600 0
-3590 -3601 0
-3590 -3602 0
-3590 -3603 0
-110 3590 3591 3592 3593 3594 3595 3596 3597 3598 3599 3600 3601 3602 3603 0
-3604 0
-3605 114 0
-3606 106 0
-3606 13 0
-106 -13 3606 0
-3607 108 0
-3607 54 0
-108 -54 3607 0
-3608 110 0
-3608 84 0
-110 -84 3608 0
-3609 116 0
-3609 174 0
-116 -174 3609 0
-3610 118 0
-3610 204 0
-118 -204 3610 0
-3611 120 0
-3611 234 0
-120 -234 3611 0
-3612 122 0
-3612 264 0
-122 -264 3612 0
-3613 124 0
-3613 294 0
-124 -294 3613 0
-3614 126 0
-3614 324 0
-126 -324 3614 0
-3615 128 0
-3615 354 0
-128 -354 3615 0
-3616 130 0
-3616 384 0
-130 -384 3616 0
-3617 132 0
-3617 414 0
-132 -414 3617 0
-3618 134 0
-3618 444 0
-134 -444 3618 0
-3605 -3606 0
-3605 -3607 0
-3605 -3608 0
-3605 -3609 0
-3605 -3610 0
-3605 -3611 0
-3605 -3612 0
-3605 -3613 0
-3605 -3614 0
-3605 -3615 0
-3605 -3616 0
-3605 -3617 0
-3605 -3618 0
-114 3605 3606 3607 3608 3609 3610 3611 3612 3613 3614 3615 3616 3617 3618 0
-3619 116 0
-3620 106 0
-3620 16 0
-106 -16 3620 0
-3621 108 0
-3621 56 0
-108 -56 3621 0
-3622 110 0
-3622 86 0
-110 -86 3622 0
-3623 114 0
-3623 146 0
-114 -146 3623 0
-3624 118 0
-3624 206 0
-118 -206 3624 0
-3625 120 0
-3625 236 0
-120 -236 3625 0
-3626 122 0
-3626 266 0
-122 -266 3626 0
-3627 124 0
-3627 296 0
-124 -296 3627 0
-3628 126 0
-3628 326 0
-126 -326 3628 0
-3629 128 0
-3629 356 0
-128 -356 3629 0
-3630 130 0
-3630 386 0
-130 -386 3630 0
-3631 132 0
-3631 416 0
-132 -416 3631 0
-3632 134 0
-3632 446 0
-134 -446 3632 0
-3619 -3620 0
-3619 -3621 0
-3619 -3622 0
-3619 -3623 0
-3619 -3624 0
-3619 -3625 0
-3619 -3626 0
-3619 -3627 0
-3619 -3628 0
-3619 -3629 0
-3619 -3630 0
-3619 -3631 0
-3619 -3632 0
-116 3619 3620 3621 3622 3623 3624 3625 3626 3627 3628 3629 3630 3631 3632 0
-3633 118 0
-3634 106 0
-3634 19 0
-106 -19 3634 0
-3635 108 0
-3635 58 0
-108 -58 3635 0
-3636 110 0
-3636 88 0
-110 -88 3636 0
-3637 114 0
-3637 148 0
-114 -148 3637 0
-3638 116 0
-3638 178 0
-116 -178 3638 0
-3639 120 0
-3639 238 0
-120 -238 3639 0
-3640 122 0
-3640 268 0
-122 -268 3640 0
-3641 124 0
-3641 298 0
-124 -298 3641 0
-3642 126 0
-3642 328 0
-126 -328 3642 0
-3643 128 0
-3643 358 0
-128 -358 3643 0
-3644 130 0
-3644 388 0
-130 -388 3644 0
-3645 132 0
-3645 418 0
-132 -418 3645 0
-3646 134 0
-3646 448 0
-134 -448 3646 0
-3633 -3634 0
-3633 -3635 0
-3633 -3636 0
-3633 -3637 0
-3633 -3638 0
-3633 -3639 0
-3633 -3640 0
-3633 -3641 0
-3633 -3642 0
-3633 -3643 0
-3633 -3644 0
-3633 -3645 0
-3633 -3646 0
-118 3633 3634 3635 3636 3637 3638 3639 3640 3641 3642 3643 3644 3645 3646 0
-3647 120 0
-3648 106 0
-3648 22 0
-106 -22 3648 0
-3649 108 0
-3649 60 0
-108 -60 3649 0
-3650 110 0
-3650 90 0
-110 -90 3650 0
-3651 114 0
-3651 150 0
-114 -150 3651 0
-3652 116 0
-3652 180 0
-116 -180 3652 0
-3653 118 0
-3653 210 0
-118 -210 3653 0
-3654 122 0
-3654 270 0
-122 -270 3654 0
-3655 124 0
-3655 300 0
-124 -300 3655 0
-3656 126 0
-3656 330 0
-126 -330 3656 0
-3657 128 0
-3657 360 0
-128 -360 3657 0
-3658 130 0
-3658 390 0
-130 -390 3658 0
-3659 132 0
-3659 420 0
-132 -420 3659 0
-3660 134 0
-3660 450 0
-134 -450 3660 0
-3647 -3648 0
-3647 -3649 0
-3647 -3650 0
-3647 -3651 0
-3647 -3652 0
-3647 -3653 0
-3647 -3654 0
-3647 -3655 0
-3647 -3656 0
-3647 -3657 0
-3647 -3658 0
-3647 -3659 0
-3647 -3660 0
-120 3647 3648 3649 3650 3651 3652 3653 3654 3655 3656 3657 3658 3659 3660 0
-3661 122 0
-3662 106 0
-3662 25 0
-106 -25 3662 0
-3663 108 0
-3663 62 0
-108 -62 3663 0
-3664 110 0
-3664 92 0
-110 -92 3664 0
-3665 114 0
-3665 152 0
-114 -152 3665 0
-3666 116 0
-3666 182 0
-116 -182 3666 0
-3667 118 0
-3667 212 0
-118 -212 3667 0
-3668 120 0
-3668 242 0
-120 -242 3668 0
-3669 124 0
-3669 302 0
-124 -302 3669 0
-3670 126 0
-3670 332 0
-126 -332 3670 0
-3671 128 0
-3671 362 0
-128 -362 3671 0
-3672 130 0
-3672 392 0
-130 -392 3672 0
-3673 132 0
-3673 422 0
-132 -422 3673 0
-3674 134 0
-3674 452 0
-134 -452 3674 0
-3661 -3662 0
-3661 -3663 0
-3661 -3664 0
-3661 -3665 0
-3661 -3666 0
-3661 -3667 0
-3661 -3668 0
-3661 -3669 0
-3661 -3670 0
-3661 -3671 0
-3661 -3672 0
-3661 -3673 0
-3661 -3674 0
-122 3661 3662 3663 3664 3665 3666 3667 3668 3669 3670 3671 3672 3673 3674 0
-3675 124 0
-3676 106 0
-3676 28 0
-106 -28 3676 0
-3677 108 0
-3677 64 0
-108 -64 3677 0
-3678 110 0
-3678 94 0
-110 -94 3678 0
-3679 114 0
-3679 154 0
-114 -154 3679 0
-3680 116 0
-3680 184 0
-116 -184 3680 0
-3681 118 0
-3681 214 0
-118 -214 3681 0
-3682 120 0
-3682 244 0
-120 -244 3682 0
-3683 122 0
-3683 274 0
-122 -274 3683 0
-3684 126 0
-3684 334 0
-126 -334 3684 0
-3685 128 0
-3685 364 0
-128 -364 3685 0
-3686 130 0
-3686 394 0
-130 -394 3686 0
-3687 132 0
-3687 424 0
-132 -424 3687 0
-3688 134 0
-3688 454 0
-134 -454 3688 0
-3675 -3676 0
-3675 -3677 0
-3675 -3678 0
-3675 -3679 0
-3675 -3680 0
-3675 -3681 0
-3675 -3682 0
-3675 -3683 0
-3675 -3684 0
-3675 -3685 0
-3675 -3686 0
-3675 -3687 0
-3675 -3688 0
-124 3675 3676 3677 3678 3679 3680 3681 3682 3683 3684 3685 3686 3687 3688 0
-3689 126 0
-3690 106 0
-3690 31 0
-106 -31 3690 0
-3691 108 0
-3691 66 0
-108 -66 3691 0
-3692 110 0
-3692 96 0
-110 -96 3692 0
-3693 114 0
-3693 156 0
-114 -156 3693 0
-3694 116 0
-3694 186 0
-116 -186 3694 0
-3695 118 0
-3695 216 0
-118 -216 3695 0
-3696 120 0
-3696 246 0
-120 -246 3696 0
-3697 122 0
-3697 276 0
-122 -276 3697 0
-3698 124 0
-3698 306 0
-124 -306 3698 0
-3699 128 0
-3699 366 0
-128 -366 3699 0
-3700 130 0
-3700 396 0
-130 -396 3700 0
-3701 132 0
-3701 426 0
-132 -426 3701 0
-3702 134 0
-3702 456 0
-134 -456 3702 0
-3689 -3690 0
-3689 -3691 0
-3689 -3692 0
-3689 -3693 0
-3689 -3694 0
-3689 -3695 0
-3689 -3696 0
-3689 -3697 0
-3689 -3698 0
-3689 -3699 0
-3689 -3700 0
-3689 -3701 0
-3689 -3702 0
-126 3689 3690 3691 3692 3693 3694 3695 3696 3697 3698 3699 3700 3701 3702 0
-3703 128 0
-3704 106 0
-3704 34 0
-106 -34 3704 0
-3705 108 0
-3705 68 0
-108 -68 3705 0
-3706 110 0
-3706 98 0
-110 -98 3706 0
-3707 114 0
-3707 158 0
-114 -158 3707 0
-3708 116 0
-3708 188 0
-116 -188 3708 0
-3709 118 0
-3709 218 0
-118 -218 3709 0
-3710 120 0
-3710 248 0
-120 -248 3710 0
-3711 122 0
-3711 278 0
-122 -278 3711 0
-3712 124 0
-3712 308 0
-124 -308 3712 0
-3713 126 0
-3713 338 0
-126 -338 3713 0
-3714 130 0
-3714 398 0
-130 -398 3714 0
-3715 132 0
-3715 428 0
-132 -428 3715 0
-3716 134 0
-3716 458 0
-134 -458 3716 0
-3703 -3704 0
-3703 -3705 0
-3703 -3706 0
-3703 -3707 0
-3703 -3708 0
-3703 -3709 0
-3703 -3710 0
-3703 -3711 0
-3703 -3712 0
-3703 -3713 0
-3703 -3714 0
-3703 -3715 0
-3703 -3716 0
-128 3703 3704 3705 3706 3707 3708 3709 3710 3711 3712 3713 3714 3715 3716 0
-3717 130 0
-3718 106 0
-3718 37 0
-106 -37 3718 0
-3719 108 0
-3719 70 0
-108 -70 3719 0
-3720 110 0
-3720 100 0
-110 -100 3720 0
-3721 114 0
-3721 160 0
-114 -160 3721 0
-3722 116 0
-3722 190 0
-116 -190 3722 0
-3723 118 0
-3723 220 0
-118 -220 3723 0
-3724 120 0
-3724 250 0
-120 -250 3724 0
-3725 122 0
-3725 280 0
-122 -280 3725 0
-3726 124 0
-3726 310 0
-124 -310 3726 0
-3727 126 0
-3727 340 0
-126 -340 3727 0
-3728 128 0
-3728 370 0
-128 -370 3728 0
-3729 132 0
-3729 430 0
-132 -430 3729 0
-3730 134 0
-3730 460 0
-134 -460 3730 0
-3717 -3718 0
-3717 -3719 0
-3717 -3720 0
-3717 -3721 0
-3717 -3722 0
-3717 -3723 0
-3717 -3724 0
-3717 -3725 0
-3717 -3726 0
-3717 -3727 0
-3717 -3728 0
-3717 -3729 0
-3717 -3730 0
-130 3717 3718 3719 3720 3721 3722 3723 3724 3725 3726 3727 3728 3729 3730 0
-3731 132 0
-3732 106 0
-3732 40 0
-106 -40 3732 0
-3733 108 0
-3733 72 0
-108 -72 3733 0
-3734 110 0
-3734 102 0
-110 -102 3734 0
-3735 114 0
-3735 162 0
-114 -162 3735 0
-3736 116 0
-3736 192 0
-116 -192 3736 0
-3737 118 0
-3737 222 0
-118 -222 3737 0
-3738 120 0
-3738 252 0
-120 -252 3738 0
-3739 122 0
-3739 282 0
-122 -282 3739 0
-3740 124 0
-3740 312 0
-124 -312 3740 0
-3741 126 0
-3741 342 0
-126 -342 3741 0
-3742 128 0
-3742 372 0
-128 -372 3742 0
-3743 130 0
-3743 402 0
-130 -402 3743 0
-3744 134 0
-3744 462 0
-134 -462 3744 0
-3731 -3732 0
-3731 -3733 0
-3731 -3734 0
-3731 -3735 0
-3731 -3736 0
-3731 -3737 0
-3731 -3738 0
-3731 -3739 0
-3731 -3740 0
-3731 -3741 0
-3731 -3742 0
-3731 -3743 0
-3731 -3744 0
-132 3731 3732 3733 3734 3735 3736 3737 3738 3739 3740 3741 3742 3743 3744 0
-3745 134 0
-3746 106 0
-3746 43 0
-106 -43 3746 0
-3747 108 0
-3747 74 0
-108 -74 3747 0
-3748 110 0
-3748 104 0
-110 -104 3748 0
-3749 114 0
-3749 164 0
-114 -164 3749 0
-3750 116 0
-3750 194 0
-116 -194 3750 0
-3751 118 0
-3751 224 0
-118 -224 3751 0
-3752 120 0
-3752 254 0
-120 -254 3752 0
-3753 122 0
-3753 284 0
-122 -284 3753 0
-3754 124 0
-3754 314 0
-124 -314 3754 0
-3755 126 0
-3755 344 0
-126 -344 3755 0
-3756 128 0
-3756 374 0
-128 -374 3756 0
-3757 130 0
-3757 404 0
-130 -404 3757 0
-3758 132 0
-3758 434 0
-132 -434 3758 0
-3745 -3746 0
-3745 -3747 0
-3745 -3748 0
-3745 -3749 0
-3745 -3750 0
-3745 -3751 0
-3745 -3752 0
-3745 -3753 0
-3745 -3754 0
-3745 -3755 0
-3745 -3756 0
-3745 -3757 0
-3745 -3758 0
-134 3745 3746 3747 3748 3749 3750 3751 3752 3753 3754 3755 3756 3757 3758 0
-3759 136 0
-3760 138 0
-3760 46 0
-138 -46 3760 0
-3761 140 0
-3761 76 0
-140 -76 3761 0
-3762 142 0
-3762 106 0
-142 -106 3762 0
-3763 146 0
-3763 166 0
-146 -166 3763 0
-3764 148 0
-3764 196 0
-148 -196 3764 0
-3765 150 0
-3765 226 0
-150 -226 3765 0
-3766 152 0
-3766 256 0
-152 -256 3766 0
-3767 154 0
-3767 286 0
-154 -286 3767 0
-3768 156 0
-3768 316 0
-156 -316 3768 0
-3769 158 0
-3769 346 0
-158 -346 3769 0
-3770 160 0
-3770 376 0
-160 -376 3770 0
-3771 162 0
-3771 406 0
-162 -406 3771 0
-3772 164 0
-3772 436 0
-164 -436 3772 0
-3759 -3760 0
-3759 -3761 0
-3759 -3762 0
-3759 -3763 0
-3759 -3764 0
-3759 -3765 0
-3759 -3766 0
-3759 -3767 0
-3759 -3768 0
-3759 -3769 0
-3759 -3770 0
-3759 -3771 0
-3759 -3772 0
-136 3759 3760 3761 3762 3763 3764 3765 3766 3767 3768 3769 3770 3771 3772 0
-3773 138 0
-3774 136 0
-3774 4 0
-136 -4 3774 0
-3775 140 0
-3775 78 0
-140 -78 3775 0
-3776 142 0
-3776 108 0
-142 -108 3776 0
-3777 146 0
-3777 168 0
-146 -168 3777 0
-3778 148 0
-3778 198 0
-148 -198 3778 0
-3779 150 0
-3779 228 0
-150 -228 3779 0
-3780 152 0
-3780 258 0
-152 -258 3780 0
-3781 154 0
-3781 288 0
-154 -288 3781 0
-3782 156 0
-3782 318 0
-156 -318 3782 0
-3783 158 0
-3783 348 0
-158 -348 3783 0
-3784 160 0
-3784 378 0
-160 -378 3784 0
-3785 162 0
-3785 408 0
-162 -408 3785 0
-3786 164 0
-3786 438 0
-164 -438 3786 0
-3773 -3774 0
-3773 -3775 0
-3773 -3776 0
-3773 -3777 0
-3773 -3778 0
-3773 -3779 0
-3773 -3780 0
-3773 -3781 0
-3773 -3782 0
-3773 -3783 0
-3773 -3784 0
-3773 -3785 0
-3773 -3786 0
-138 3773 3774 3775 3776 3777 3778 3779 3780 3781 3782 3783 3784 3785 3786 0
-3787 140 0
-3788 136 0
-3788 7 0
-136 -7 3788 0
-3789 138 0
-3789 50 0
-138 -50 3789 0
-3790 142 0
-3790 110 0
-142 -110 3790 0
-3791 146 0
-3791 170 0
-146 -170 3791 0
-3792 148 0
-3792 200 0
-148 -200 3792 0
-3793 150 0
-3793 230 0
-150 -230 3793 0
-3794 152 0
-3794 260 0
-152 -260 3794 0
-3795 154 0
-3795 290 0
-154 -290 3795 0
-3796 156 0
-3796 320 0
-156 -320 3796 0
-3797 158 0
-3797 350 0
-158 -350 3797 0
-3798 160 0
-3798 380 0
-160 -380 3798 0
-3799 162 0
-3799 410 0
-162 -410 3799 0
-3800 164 0
-3800 440 0
-164 -440 3800 0
-3787 -3788 0
-3787 -3789 0
-3787 -3790 0
-3787 -3791 0
-3787 -3792 0
-3787 -3793 0
-3787 -3794 0
-3787 -3795 0
-3787 -3796 0
-3787 -3797 0
-3787 -3798 0
-3787 -3799 0
-3787 -3800 0
-140 3787 3788 3789 3790 3791 3792 3793 3794 3795 3796 3797 3798 3799 3800 0
-3801 142 0
-3802 136 0
-3802 10 0
-136 -10 3802 0
-3803 138 0
-3803 52 0
-138 -52 3803 0
-3804 140 0
-3804 82 0
-140 -82 3804 0
-3805 146 0
-3805 172 0
-146 -172 3805 0
-3806 148 0
-3806 202 0
-148 -202 3806 0
-3807 150 0
-3807 232 0
-150 -232 3807 0
-3808 152 0
-3808 262 0
-152 -262 3808 0
-3809 154 0
-3809 292 0
-154 -292 3809 0
-3810 156 0
-3810 322 0
-156 -322 3810 0
-3811 158 0
-3811 352 0
-158 -352 3811 0
-3812 160 0
-3812 382 0
-160 -382 3812 0
-3813 162 0
-3813 412 0
-162 -412 3813 0
-3814 164 0
-3814 442 0
-164 -442 3814 0
-3801 -3802 0
-3801 -3803 0
-3801 -3804 0
-3801 -3805 0
-3801 -3806 0
-3801 -3807 0
-3801 -3808 0
-3801 -3809 0
-3801 -3810 0
-3801 -3811 0
-3801 -3812 0
-3801 -3813 0
-3801 -3814 0
-142 3801 3802 3803 3804 3805 3806 3807 3808 3809 3810 3811 3812 3813 3814 0
-3815 0
-3816 146 0
-3817 136 0
-3817 16 0
-136 -16 3817 0
-3818 138 0
-3818 56 0
-138 -56 3818 0
-3819 140 0
-3819 86 0
-140 -86 3819 0
-3820 142 0
-3820 116 0
-142 -116 3820 0
-3821 148 0
-3821 206 0
-148 -206 3821 0
-3822 150 0
-3822 236 0
-150 -236 3822 0
-3823 152 0
-3823 266 0
-152 -266 3823 0
-3824 154 0
-3824 296 0
-154 -296 3824 0
-3825 156 0
-3825 326 0
-156 -326 3825 0
-3826 158 0
-3826 356 0
-158 -356 3826 0
-3827 160 0
-3827 386 0
-160 -386 3827 0
-3828 162 0
-3828 416 0
-162 -416 3828 0
-3829 164 0
-3829 446 0
-164 -446 3829 0
-3816 -3817 0
-3816 -3818 0
-3816 -3819 0
-3816 -3820 0
-3816 -3821 0
-3816 -3822 0
-3816 -3823 0
-3816 -3824 0
-3816 -3825 0
-3816 -3826 0
-3816 -3827 0
-3816 -3828 0
-3816 -3829 0
-146 3816 3817 3818 3819 3820 3821 3822 3823 3824 3825 3826 3827 3828 3829 0
-3830 148 0
-3831 136 0
-3831 19 0
-136 -19 3831 0
-3832 138 0
-3832 58 0
-138 -58 3832 0
-3833 140 0
-3833 88 0
-140 -88 3833 0
-3834 142 0
-3834 118 0
-142 -118 3834 0
-3835 146 0
-3835 178 0
-146 -178 3835 0
-3836 150 0
-3836 238 0
-150 -238 3836 0
-3837 152 0
-3837 268 0
-152 -268 3837 0
-3838 154 0
-3838 298 0
-154 -298 3838 0
-3839 156 0
-3839 328 0
-156 -328 3839 0
-3840 158 0
-3840 358 0
-158 -358 3840 0
-3841 160 0
-3841 388 0
-160 -388 3841 0
-3842 162 0
-3842 418 0
-162 -418 3842 0
-3843 164 0
-3843 448 0
-164 -448 3843 0
-3830 -3831 0
-3830 -3832 0
-3830 -3833 0
-3830 -3834 0
-3830 -3835 0
-3830 -3836 0
-3830 -3837 0
-3830 -3838 0
-3830 -3839 0
-3830 -3840 0
-3830 -3841 0
-3830 -3842 0
-3830 -3843 0
-148 3830 3831 3832 3833 3834 3835 3836 3837 3838 3839 3840 3841 3842 3843 0
-3844 150 0
-3845 136 0
-3845 22 0
-136 -22 3845 0
-3846 138 0
-3846 60 0
-138 -60 3846 0
-3847 140 0
-3847 90 0
-140 -90 3847 0
-3848 142 0
-3848 120 0
-142 -120 3848 0
-3849 146 0
-3849 180 0
-146 -180 3849 0
-3850 148 0
-3850 210 0
-148 -210 3850 0
-3851 152 0
-3851 270 0
-152 -270 3851 0
-3852 154 0
-3852 300 0
-154 -300 3852 0
-3853 156 0
-3853 330 0
-156 -330 3853 0
-3854 158 0
-3854 360 0
-158 -360 3854 0
-3855 160 0
-3855 390 0
-160 -390 3855 0
-3856 162 0
-3856 420 0
-162 -420 3856 0
-3857 164 0
-3857 450 0
-164 -450 3857 0
-3844 -3845 0
-3844 -3846 0
-3844 -3847 0
-3844 -3848 0
-3844 -3849 0
-3844 -3850 0
-3844 -3851 0
-3844 -3852 0
-3844 -3853 0
-3844 -3854 0
-3844 -3855 0
-3844 -3856 0
-3844 -3857 0
-150 3844 3845 3846 3847 3848 3849 3850 3851 3852 3853 3854 3855 3856 3857 0
-3858 152 0
-3859 136 0
-3859 25 0
-136 -25 3859 0
-3860 138 0
-3860 62 0
-138 -62 3860 0
-3861 140 0
-3861 92 0
-140 -92 3861 0
-3862 142 0
-3862 122 0
-142 -122 3862 0
-3863 146 0
-3863 182 0
-146 -182 3863 0
-3864 148 0
-3864 212 0
-148 -212 3864 0
-3865 150 0
-3865 242 0
-150 -242 3865 0
-3866 154 0
-3866 302 0
-154 -302 3866 0
-3867 156 0
-3867 332 0
-156 -332 3867 0
-3868 158 0
-3868 362 0
-158 -362 3868 0
-3869 160 0
-3869 392 0
-160 -392 3869 0
-3870 162 0
-3870 422 0
-162 -422 3870 0
-3871 164 0
-3871 452 0
-164 -452 3871 0
-3858 -3859 0
-3858 -3860 0
-3858 -3861 0
-3858 -3862 0
-3858 -3863 0
-3858 -3864 0
-3858 -3865 0
-3858 -3866 0
-3858 -3867 0
-3858 -3868 0
-3858 -3869 0
-3858 -3870 0
-3858 -3871 0
-152 3858 3859 3860 3861 3862 3863 3864 3865 3866 3867 3868 3869 3870 3871 0
-3872 154 0
-3873 136 0
-3873 28 0
-136 -28 3873 0
-3874 138 0
-3874 64 0
-138 -64 3874 0
-3875 140 0
-3875 94 0
-140 -94 3875 0
-3876 142 0
-3876 124 0
-142 -124 3876 0
-3877 146 0
-3877 184 0
-146 -184 3877 0
-3878 148 0
-3878 214 0
-148 -214 3878 0
-3879 150 0
-3879 244 0
-150 -244 3879 0
-3880 152 0
-3880 274 0
-152 -274 3880 0
-3881 156 0
-3881 334 0
-156 -334 3881 0
-3882 158 0
-3882 364 0
-158 -364 3882 0
-3883 160 0
-3883 394 0
-160 -394 3883 0
-3884 162 0
-3884 424 0
-162 -424 3884 0
-3885 164 0
-3885 454 0
-164 -454 3885 0
-3872 -3873 0
-3872 -3874 0
-3872 -3875 0
-3872 -3876 0
-3872 -3877 0
-3872 -3878 0
-3872 -3879 0
-3872 -3880 0
-3872 -3881 0
-3872 -3882 0
-3872 -3883 0
-3872 -3884 0
-3872 -3885 0
-154 3872 3873 3874 3875 3876 3877 3878 3879 3880 3881 3882 3883 3884 3885 0
-3886 156 0
-3887 136 0
-3887 31 0
-136 -31 3887 0
-3888 138 0
-3888 66 0
-138 -66 3888 0
-3889 140 0
-3889 96 0
-140 -96 3889 0
-3890 142 0
-3890 126 0
-142 -126 3890 0
-3891 146 0
-3891 186 0
-146 -186 3891 0
-3892 148 0
-3892 216 0
-148 -216 3892 0
-3893 150 0
-3893 246 0
-150 -246 3893 0
-3894 152 0
-3894 276 0
-152 -276 3894 0
-3895 154 0
-3895 306 0
-154 -306 3895 0
-3896 158 0
-3896 366 0
-158 -366 3896 0
-3897 160 0
-3897 396 0
-160 -396 3897 0
-3898 162 0
-3898 426 0
-162 -426 3898 0
-3899 164 0
-3899 456 0
-164 -456 3899 0
-3886 -3887 0
-3886 -3888 0
-3886 -3889 0
-3886 -3890 0
-3886 -3891 0
-3886 -3892 0
-3886 -3893 0
-3886 -3894 0
-3886 -3895 0
-3886 -3896 0
-3886 -3897 0
-3886 -3898 0
-3886 -3899 0
-156 3886 3887 3888 3889 3890 3891 3892 3893 3894 3895 3896 3897 3898 3899 0
-3900 158 0
-3901 136 0
-3901 34 0
-136 -34 3901 0
-3902 138 0
-3902 68 0
-138 -68 3902 0
-3903 140 0
-3903 98 0
-140 -98 3903 0
-3904 142 0
-3904 128 0
-142 -128 3904 0
-3905 146 0
-3905 188 0
-146 -188 3905 0
-3906 148 0
-3906 218 0
-148 -218 3906 0
-3907 150 0
-3907 248 0
-150 -248 3907 0
-3908 152 0
-3908 278 0
-152 -278 3908 0
-3909 154 0
-3909 308 0
-154 -308 3909 0
-3910 156 0
-3910 338 0
-156 -338 3910 0
-3911 160 0
-3911 398 0
-160 -398 3911 0
-3912 162 0
-3912 428 0
-162 -428 3912 0
-3913 164 0
-3913 458 0
-164 -458 3913 0
-3900 -3901 0
-3900 -3902 0
-3900 -3903 0
-3900 -3904 0
-3900 -3905 0
-3900 -3906 0
-3900 -3907 0
-3900 -3908 0
-3900 -3909 0
-3900 -3910 0
-3900 -3911 0
-3900 -3912 0
-3900 -3913 0
-158 3900 3901 3902 3903 3904 3905 3906 3907 3908 3909 3910 3911 3912 3913 0
-3914 160 0
-3915 136 0
-3915 37 0
-136 -37 3915 0
-3916 138 0
-3916 70 0
-138 -70 3916 0
-3917 140 0
-3917 100 0
-140 -100 3917 0
-3918 142 0
-3918 130 0
-142 -130 3918 0
-3919 146 0
-3919 190 0
-146 -190 3919 0
-3920 148 0
-3920 220 0
-148 -220 3920 0
-3921 150 0
-3921 250 0
-150 -250 3921 0
-3922 152 0
-3922 280 0
-152 -280 3922 0
-3923 154 0
-3923 310 0
-154 -310 3923 0
-3924 156 0
-3924 340 0
-156 -340 3924 0
-3925 158 0
-3925 370 0
-158 -370 3925 0
-3926 162 0
-3926 430 0
-162 -430 3926 0
-3927 164 0
-3927 460 0
-164 -460 3927 0
-3914 -3915 0
-3914 -3916 0
-3914 -3917 0
-3914 -3918 0
-3914 -3919 0
-3914 -3920 0
-3914 -3921 0
-3914 -3922 0
-3914 -3923 0
-3914 -3924 0
-3914 -3925 0
-3914 -3926 0
-3914 -3927 0
-160 3914 3915 3916 3917 3918 3919 3920 3921 3922 3923 3924 3925 3926 3927 0
-3928 162 0
-3929 136 0
-3929 40 0
-136 -40 3929 0
-3930 138 0
-3930 72 0
-138 -72 3930 0
-3931 140 0
-3931 102 0
-140 -102 3931 0
-3932 142 0
-3932 132 0
-142 -132 3932 0
-3933 146 0
-3933 192 0
-146 -192 3933 0
-3934 148 0
-3934 222 0
-148 -222 3934 0
-3935 150 0
-3935 252 0
-150 -252 3935 0
-3936 152 0
-3936 282 0
-152 -282 3936 0
-3937 154 0
-3937 312 0
-154 -312 3937 0
-3938 156 0
-3938 342 0
-156 -342 3938 0
-3939 158 0
-3939 372 0
-158 -372 3939 0
-3940 160 0
-3940 402 0
-160 -402 3940 0
-3941 164 0
-3941 462 0
-164 -462 3941 0
-3928 -3929 0
-3928 -3930 0
-3928 -3931 0
-3928 -3932 0
-3928 -3933 0
-3928 -3934 0
-3928 -3935 0
-3928 -3936 0
-3928 -3937 0
-3928 -3938 0
-3928 -3939 0
-3928 -3940 0
-3928 -3941 0
-162 3928 3929 3930 3931 3932 3933 3934 3935 3936 3937 3938 3939 3940 3941 0
-3942 164 0
-3943 136 0
-3943 43 0
-136 -43 3943 0
-3944 138 0
-3944 74 0
-138 -74 3944 0
-3945 140 0
-3945 104 0
-140 -104 3945 0
-3946 142 0
-3946 134 0
-142 -134 3946 0
-3947 146 0
-3947 194 0
-146 -194 3947 0
-3948 148 0
-3948 224 0
-148 -224 3948 0
-3949 150 0
-3949 254 0
-150 -254 3949 0
-3950 152 0
-3950 284 0
-152 -284 3950 0
-3951 154 0
-3951 314 0
-154 -314 3951 0
-3952 156 0
-3952 344 0
-156 -344 3952 0
-3953 158 0
-3953 374 0
-158 -374 3953 0
-3954 160 0
-3954 404 0
-160 -404 3954 0
-3955 162 0
-3955 434 0
-162 -434 3955 0
-3942 -3943 0
-3942 -3944 0
-3942 -3945 0
-3942 -3946 0
-3942 -3947 0
-3942 -3948 0
-3942 -3949 0
-3942 -3950 0
-3942 -3951 0
-3942 -3952 0
-3942 -3953 0
-3942 -3954 0
-3942 -3955 0
-164 3942 3943 3944 3945 3946 3947 3948 3949 3950 3951 3952 3953 3954 3955 0
-3956 166 0
-3957 168 0
-3957 46 0
-168 -46 3957 0
-3958 170 0
-3958 76 0
-170 -76 3958 0
-3959 172 0
-3959 106 0
-172 -106 3959 0
-3960 174 0
-3960 136 0
-174 -136 3960 0
-3961 178 0
-3961 196 0
-178 -196 3961 0
-3962 180 0
-3962 226 0
-180 -226 3962 0
-3963 182 0
-3963 256 0
-182 -256 3963 0
-3964 184 0
-3964 286 0
-184 -286 3964 0
-3965 186 0
-3965 316 0
-186 -316 3965 0
-3966 188 0
-3966 346 0
-188 -346 3966 0
-3967 190 0
-3967 376 0
-190 -376 3967 0
-3968 192 0
-3968 406 0
-192 -406 3968 0
-3969 194 0
-3969 436 0
-194 -436 3969 0
-3956 -3957 0
-3956 -3958 0
-3956 -3959 0
-3956 -3960 0
-3956 -3961 0
-3956 -3962 0
-3956 -3963 0
-3956 -3964 0
-3956 -3965 0
-3956 -3966 0
-3956 -3967 0
-3956 -3968 0
-3956 -3969 0
-166 3956 3957 3958 3959 3960 3961 3962 3963 3964 3965 3966 3967 3968 3969 0
-3970 168 0
-3971 166 0
-3971 4 0
-166 -4 3971 0
-3972 170 0
-3972 78 0
-170 -78 3972 0
-3973 172 0
-3973 108 0
-172 -108 3973 0
-3974 174 0
-3974 138 0
-174 -138 3974 0
-3975 178 0
-3975 198 0
-178 -198 3975 0
-3976 180 0
-3976 228 0
-180 -228 3976 0
-3977 182 0
-3977 258 0
-182 -258 3977 0
-3978 184 0
-3978 288 0
-184 -288 3978 0
-3979 186 0
-3979 318 0
-186 -318 3979 0
-3980 188 0
-3980 348 0
-188 -348 3980 0
-3981 190 0
-3981 378 0
-190 -378 3981 0
-3982 192 0
-3982 408 0
-192 -408 3982 0
-3983 194 0
-3983 438 0
-194 -438 3983 0
-3970 -3971 0
-3970 -3972 0
-3970 -3973 0
-3970 -3974 0
-3970 -3975 0
-3970 -3976 0
-3970 -3977 0
-3970 -3978 0
-3970 -3979 0
-3970 -3980 0
-3970 -3981 0
-3970 -3982 0
-3970 -3983 0
-168 3970 3971 3972 3973 3974 3975 3976 3977 3978 3979 3980 3981 3982 3983 0
-3984 170 0
-3985 166 0
-3985 7 0
-166 -7 3985 0
-3986 168 0
-3986 50 0
-168 -50 3986 0
-3987 172 0
-3987 110 0
-172 -110 3987 0
-3988 174 0
-3988 140 0
-174 -140 3988 0
-3989 178 0
-3989 200 0
-178 -200 3989 0
-3990 180 0
-3990 230 0
-180 -230 3990 0
-3991 182 0
-3991 260 0
-182 -260 3991 0
-3992 184 0
-3992 290 0
-184 -290 3992 0
-3993 186 0
-3993 320 0
-186 -320 3993 0
-3994 188 0
-3994 350 0
-188 -350 3994 0
-3995 190 0
-3995 380 0
-190 -380 3995 0
-3996 192 0
-3996 410 0
-192 -410 3996 0
-3997 194 0
-3997 440 0
-194 -440 3997 0
-3984 -3985 0
-3984 -3986 0
-3984 -3987 0
-3984 -3988 0
-3984 -3989 0
-3984 -3990 0
-3984 -3991 0
-3984 -3992 0
-3984 -3993 0
-3984 -3994 0
-3984 -3995 0
-3984 -3996 0
-3984 -3997 0
-170 3984 3985 3986 3987 3988 3989 3990 3991 3992 3993 3994 3995 3996 3997 0
-3998 172 0
-3999 166 0
-3999 10 0
-166 -10 3999 0
-4000 168 0
-4000 52 0
-168 -52 4000 0
-4001 170 0
-4001 82 0
-170 -82 4001 0
-4002 174 0
-4002 142 0
-174 -142 4002 0
-4003 178 0
-4003 202 0
-178 -202 4003 0
-4004 180 0
-4004 232 0
-180 -232 4004 0
-4005 182 0
-4005 262 0
-182 -262 4005 0
-4006 184 0
-4006 292 0
-184 -292 4006 0
-4007 186 0
-4007 322 0
-186 -322 4007 0
-4008 188 0
-4008 352 0
-188 -352 4008 0
-4009 190 0
-4009 382 0
-190 -382 4009 0
-4010 192 0
-4010 412 0
-192 -412 4010 0
-4011 194 0
-4011 442 0
-194 -442 4011 0
-3998 -3999 0
-3998 -4000 0
-3998 -4001 0
-3998 -4002 0
-3998 -4003 0
-3998 -4004 0
-3998 -4005 0
-3998 -4006 0
-3998 -4007 0
-3998 -4008 0
-3998 -4009 0
-3998 -4010 0
-3998 -4011 0
-172 3998 3999 4000 4001 4002 4003 4004 4005 4006 4007 4008 4009 4010 4011 0
-4012 174 0
-4013 166 0
-4013 13 0
-166 -13 4013 0
-4014 168 0
-4014 54 0
-168 -54 4014 0
-4015 170 0
-4015 84 0
-170 -84 4015 0
-4016 172 0
-4016 114 0
-172 -114 4016 0
-4017 178 0
-4017 204 0
-178 -204 4017 0
-4018 180 0
-4018 234 0
-180 -234 4018 0
-4019 182 0
-4019 264 0
-182 -264 4019 0
-4020 184 0
-4020 294 0
-184 -294 4020 0
-4021 186 0
-4021 324 0
-186 -324 4021 0
-4022 188 0
-4022 354 0
-188 -354 4022 0
-4023 190 0
-4023 384 0
-190 -384 4023 0
-4024 192 0
-4024 414 0
-192 -414 4024 0
-4025 194 0
-4025 444 0
-194 -444 4025 0
-4012 -4013 0
-4012 -4014 0
-4012 -4015 0
-4012 -4016 0
-4012 -4017 0
-4012 -4018 0
-4012 -4019 0
-4012 -4020 0
-4012 -4021 0
-4012 -4022 0
-4012 -4023 0
-4012 -4024 0
-4012 -4025 0
-174 4012 4013 4014 4015 4016 4017 4018 4019 4020 4021 4022 4023 4024 4025 0
-4026 0
-4027 178 0
-4028 166 0
-4028 19 0
-166 -19 4028 0
-4029 168 0
-4029 58 0
-168 -58 4029 0
-4030 170 0
-4030 88 0
-170 -88 4030 0
-4031 172 0
-4031 118 0
-172 -118 4031 0
-4032 174 0
-4032 148 0
-174 -148 4032 0
-4033 180 0
-4033 238 0
-180 -238 4033 0
-4034 182 0
-4034 268 0
-182 -268 4034 0
-4035 184 0
-4035 298 0
-184 -298 4035 0
-4036 186 0
-4036 328 0
-186 -328 4036 0
-4037 188 0
-4037 358 0
-188 -358 4037 0
-4038 190 0
-4038 388 0
-190 -388 4038 0
-4039 192 0
-4039 418 0
-192 -418 4039 0
-4040 194 0
-4040 448 0
-194 -448 4040 0
-4027 -4028 0
-4027 -4029 0
-4027 -4030 0
-4027 -4031 0
-4027 -4032 0
-4027 -4033 0
-4027 -4034 0
-4027 -4035 0
-4027 -4036 0
-4027 -4037 0
-4027 -4038 0
-4027 -4039 0
-4027 -4040 0
-178 4027 4028 4029 4030 4031 4032 4033 4034 4035 4036 4037 4038 4039 4040 0
-4041 180 0
-4042 166 0
-4042 22 0
-166 -22 4042 0
-4043 168 0
-4043 60 0
-168 -60 4043 0
-4044 170 0
-4044 90 0
-170 -90 4044 0
-4045 172 0
-4045 120 0
-172 -120 4045 0
-4046 174 0
-4046 150 0
-174 -150 4046 0
-4047 178 0
-4047 210 0
-178 -210 4047 0
-4048 182 0
-4048 270 0
-182 -270 4048 0
-4049 184 0
-4049 300 0
-184 -300 4049 0
-4050 186 0
-4050 330 0
-186 -330 4050 0
-4051 188 0
-4051 360 0
-188 -360 4051 0
-4052 190 0
-4052 390 0
-190 -390 4052 0
-4053 192 0
-4053 420 0
-192 -420 4053 0
-4054 194 0
-4054 450 0
-194 -450 4054 0
-4041 -4042 0
-4041 -4043 0
-4041 -4044 0
-4041 -4045 0
-4041 -4046 0
-4041 -4047 0
-4041 -4048 0
-4041 -4049 0
-4041 -4050 0
-4041 -4051 0
-4041 -4052 0
-4041 -4053 0
-4041 -4054 0
-180 4041 4042 4043 4044 4045 4046 4047 4048 4049 4050 4051 4052 4053 4054 0
-4055 182 0
-4056 166 0
-4056 25 0
-166 -25 4056 0
-4057 168 0
-4057 62 0
-168 -62 4057 0
-4058 170 0
-4058 92 0
-170 -92 4058 0
-4059 172 0
-4059 122 0
-172 -122 4059 0
-4060 174 0
-4060 152 0
-174 -152 4060 0
-4061 178 0
-4061 212 0
-178 -212 4061 0
-4062 180 0
-4062 242 0
-180 -242 4062 0
-4063 184 0
-4063 302 0
-184 -302 4063 0
-4064 186 0
-4064 332 0
-186 -332 4064 0
-4065 188 0
-4065 362 0
-188 -362 4065 0
-4066 190 0
-4066 392 0
-190 -392 4066 0
-4067 192 0
-4067 422 0
-192 -422 4067 0
-4068 194 0
-4068 452 0
-194 -452 4068 0
-4055 -4056 0
-4055 -4057 0
-4055 -4058 0
-4055 -4059 0
-4055 -4060 0
-4055 -4061 0
-4055 -4062 0
-4055 -4063 0
-4055 -4064 0
-4055 -4065 0
-4055 -4066 0
-4055 -4067 0
-4055 -4068 0
-182 4055 4056 4057 4058 4059 4060 4061 4062 4063 4064 4065 4066 4067 4068 0
-4069 184 0
-4070 166 0
-4070 28 0
-166 -28 4070 0
-4071 168 0
-4071 64 0
-168 -64 4071 0
-4072 170 0
-4072 94 0
-170 -94 4072 0
-4073 172 0
-4073 124 0
-172 -124 4073 0
-4074 174 0
-4074 154 0
-174 -154 4074 0
-4075 178 0
-4075 214 0
-178 -214 4075 0
-4076 180 0
-4076 244 0
-180 -244 4076 0
-4077 182 0
-4077 274 0
-182 -274 4077 0
-4078 186 0
-4078 334 0
-186 -334 4078 0
-4079 188 0
-4079 364 0
-188 -364 4079 0
-4080 190 0
-4080 394 0
-190 -394 4080 0
-4081 192 0
-4081 424 0
-192 -424 4081 0
-4082 194 0
-4082 454 0
-194 -454 4082 0
-4069 -4070 0
-4069 -4071 0
-4069 -4072 0
-4069 -4073 0
-4069 -4074 0
-4069 -4075 0
-4069 -4076 0
-4069 -4077 0
-4069 -4078 0
-4069 -4079 0
-4069 -4080 0
-4069 -4081 0
-4069 -4082 0
-184 4069 4070 4071 4072 4073 4074 4075 4076 4077 4078 4079 4080 4081 4082 0
-4083 186 0
-4084 166 0
-4084 31 0
-166 -31 4084 0
-4085 168 0
-4085 66 0
-168 -66 4085 0
-4086 170 0
-4086 96 0
-170 -96 4086 0
-4087 172 0
-4087 126 0
-172 -126 4087 0
-4088 174 0
-4088 156 0
-174 -156 4088 0
-4089 178 0
-4089 216 0
-178 -216 4089 0
-4090 180 0
-4090 246 0
-180 -246 4090 0
-4091 182 0
-4091 276 0
-182 -276 4091 0
-4092 184 0
-4092 306 0
-184 -306 4092 0
-4093 188 0
-4093 366 0
-188 -366 4093 0
-4094 190 0
-4094 396 0
-190 -396 4094 0
-4095 192 0
-4095 426 0
-192 -426 4095 0
-4096 194 0
-4096 456 0
-194 -456 4096 0
-4083 -4084 0
-4083 -4085 0
-4083 -4086 0
-4083 -4087 0
-4083 -4088 0
-4083 -4089 0
-4083 -4090 0
-4083 -4091 0
-4083 -4092 0
-4083 -4093 0
-4083 -4094 0
-4083 -4095 0
-4083 -4096 0
-186 4083 4084 4085 4086 4087 4088 4089 4090 4091 4092 4093 4094 4095 4096 0
-4097 188 0
-4098 166 0
-4098 34 0
-166 -34 4098 0
-4099 168 0
-4099 68 0
-168 -68 4099 0
-4100 170 0
-4100 98 0
-170 -98 4100 0
-4101 172 0
-4101 128 0
-172 -128 4101 0
-4102 174 0
-4102 158 0
-174 -158 4102 0
-4103 178 0
-4103 218 0
-178 -218 4103 0
-4104 180 0
-4104 248 0
-180 -248 4104 0
-4105 182 0
-4105 278 0
-182 -278 4105 0
-4106 184 0
-4106 308 0
-184 -308 4106 0
-4107 186 0
-4107 338 0
-186 -338 4107 0
-4108 190 0
-4108 398 0
-190 -398 4108 0
-4109 192 0
-4109 428 0
-192 -428 4109 0
-4110 194 0
-4110 458 0
-194 -458 4110 0
-4097 -4098 0
-4097 -4099 0
-4097 -4100 0
-4097 -4101 0
-4097 -4102 0
-4097 -4103 0
-4097 -4104 0
-4097 -4105 0
-4097 -4106 0
-4097 -4107 0
-4097 -4108 0
-4097 -4109 0
-4097 -4110 0
-188 4097 4098 4099 4100 4101 4102 4103 4104 4105 4106 4107 4108 4109 4110 0
-4111 190 0
-4112 166 0
-4112 37 0
-166 -37 4112 0
-4113 168 0
-4113 70 0
-168 -70 4113 0
-4114 170 0
-4114 100 0
-170 -100 4114 0
-4115 172 0
-4115 130 0
-172 -130 4115 0
-4116 174 0
-4116 160 0
-174 -160 4116 0
-4117 178 0
-4117 220 0
-178 -220 4117 0
-4118 180 0
-4118 250 0
-180 -250 4118 0
-4119 182 0
-4119 280 0
-182 -280 4119 0
-4120 184 0
-4120 310 0
-184 -310 4120 0
-4121 186 0
-4121 340 0
-186 -340 4121 0
-4122 188 0
-4122 370 0
-188 -370 4122 0
-4123 192 0
-4123 430 0
-192 -430 4123 0
-4124 194 0
-4124 460 0
-194 -460 4124 0
-4111 -4112 0
-4111 -4113 0
-4111 -4114 0
-4111 -4115 0
-4111 -4116 0
-4111 -4117 0
-4111 -4118 0
-4111 -4119 0
-4111 -4120 0
-4111 -4121 0
-4111 -4122 0
-4111 -4123 0
-4111 -4124 0
-190 4111 4112 4113 4114 4115 4116 4117 4118 4119 4120 4121 4122 4123 4124 0
-4125 192 0
-4126 166 0
-4126 40 0
-166 -40 4126 0
-4127 168 0
-4127 72 0
-168 -72 4127 0
-4128 170 0
-4128 102 0
-170 -102 4128 0
-4129 172 0
-4129 132 0
-172 -132 4129 0
-4130 174 0
-4130 162 0
-174 -162 4130 0
-4131 178 0
-4131 222 0
-178 -222 4131 0
-4132 180 0
-4132 252 0
-180 -252 4132 0
-4133 182 0
-4133 282 0
-182 -282 4133 0
-4134 184 0
-4134 312 0
-184 -312 4134 0
-4135 186 0
-4135 342 0
-186 -342 4135 0
-4136 188 0
-4136 372 0
-188 -372 4136 0
-4137 190 0
-4137 402 0
-190 -402 4137 0
-4138 194 0
-4138 462 0
-194 -462 4138 0
-4125 -4126 0
-4125 -4127 0
-4125 -4128 0
-4125 -4129 0
-4125 -4130 0
-4125 -4131 0
-4125 -4132 0
-4125 -4133 0
-4125 -4134 0
-4125 -4135 0
-4125 -4136 0
-4125 -4137 0
-4125 -4138 0
-192 4125 4126 4127 4128 4129 4130 4131 4132 4133 4134 4135 4136 4137 4138 0
-4139 194 0
-4140 166 0
-4140 43 0
-166 -43 4140 0
-4141 168 0
-4141 74 0
-168 -74 4141 0
-4142 170 0
-4142 104 0
-170 -104 4142 0
-4143 172 0
-4143 134 0
-172 -134 4143 0
-4144 174 0
-4144 164 0
-174 -164 4144 0
-4145 178 0
-4145 224 0
-178 -224 4145 0
-4146 180 0
-4146 254 0
-180 -254 4146 0
-4147 182 0
-4147 284 0
-182 -284 4147 0
-4148 184 0
-4148 314 0
-184 -314 4148 0
-4149 186 0
-4149 344 0
-186 -344 4149 0
-4150 188 0
-4150 374 0
-188 -374 4150 0
-4151 190 0
-4151 404 0
-190 -404 4151 0
-4152 192 0
-4152 434 0
-192 -434 4152 0
-4139 -4140 0
-4139 -4141 0
-4139 -4142 0
-4139 -4143 0
-4139 -4144 0
-4139 -4145 0
-4139 -4146 0
-4139 -4147 0
-4139 -4148 0
-4139 -4149 0
-4139 -4150 0
-4139 -4151 0
-4139 -4152 0
-194 4139 4140 4141 4142 4143 4144 4145 4146 4147 4148 4149 4150 4151 4152 0
-4153 196 0
-4154 198 0
-4154 46 0
-198 -46 4154 0
-4155 200 0
-4155 76 0
-200 -76 4155 0
-4156 202 0
-4156 106 0
-202 -106 4156 0
-4157 204 0
-4157 136 0
-204 -136 4157 0
-4158 206 0
-4158 166 0
-206 -166 4158 0
-4159 210 0
-4159 226 0
-210 -226 4159 0
-4160 212 0
-4160 256 0
-212 -256 4160 0
-4161 214 0
-4161 286 0
-214 -286 4161 0
-4162 216 0
-4162 316 0
-216 -316 4162 0
-4163 218 0
-4163 346 0
-218 -346 4163 0
-4164 220 0
-4164 376 0
-220 -376 4164 0
-4165 222 0
-4165 406 0
-222 -406 4165 0
-4166 224 0
-4166 436 0
-224 -436 4166 0
-4153 -4154 0
-4153 -4155 0
-4153 -4156 0
-4153 -4157 0
-4153 -4158 0
-4153 -4159 0
-4153 -4160 0
-4153 -4161 0
-4153 -4162 0
-4153 -4163 0
-4153 -4164 0
-4153 -4165 0
-4153 -4166 0
-196 4153 4154 4155 4156 4157 4158 4159 4160 4161 4162 4163 4164 4165 4166 0
-4167 198 0
-4168 196 0
-4168 4 0
-196 -4 4168 0
-4169 200 0
-4169 78 0
-200 -78 4169 0
-4170 202 0
-4170 108 0
-202 -108 4170 0
-4171 204 0
-4171 138 0
-204 -138 4171 0
-4172 206 0
-4172 168 0
-206 -168 4172 0
-4173 210 0
-4173 228 0
-210 -228 4173 0
-4174 212 0
-4174 258 0
-212 -258 4174 0
-4175 214 0
-4175 288 0
-214 -288 4175 0
-4176 216 0
-4176 318 0
-216 -318 4176 0
-4177 218 0
-4177 348 0
-218 -348 4177 0
-4178 220 0
-4178 378 0
-220 -378 4178 0
-4179 222 0
-4179 408 0
-222 -408 4179 0
-4180 224 0
-4180 438 0
-224 -438 4180 0
-4167 -4168 0
-4167 -4169 0
-4167 -4170 0
-4167 -4171 0
-4167 -4172 0
-4167 -4173 0
-4167 -4174 0
-4167 -4175 0
-4167 -4176 0
-4167 -4177 0
-4167 -4178 0
-4167 -4179 0
-4167 -4180 0
-198 4167 4168 4169 4170 4171 4172 4173 4174 4175 4176 4177 4178 4179 4180 0
-4181 200 0
-4182 196 0
-4182 7 0
-196 -7 4182 0
-4183 198 0
-4183 50 0
-198 -50 4183 0
-4184 202 0
-4184 110 0
-202 -110 4184 0
-4185 204 0
-4185 140 0
-204 -140 4185 0
-4186 206 0
-4186 170 0
-206 -170 4186 0
-4187 210 0
-4187 230 0
-210 -230 4187 0
-4188 212 0
-4188 260 0
-212 -260 4188 0
-4189 214 0
-4189 290 0
-214 -290 4189 0
-4190 216 0
-4190 320 0
-216 -320 4190 0
-4191 218 0
-4191 350 0
-218 -350 4191 0
-4192 220 0
-4192 380 0
-220 -380 4192 0
-4193 222 0
-4193 410 0
-222 -410 4193 0
-4194 224 0
-4194 440 0
-224 -440 4194 0
-4181 -4182 0
-4181 -4183 0
-4181 -4184 0
-4181 -4185 0
-4181 -4186 0
-4181 -4187 0
-4181 -4188 0
-4181 -4189 0
-4181 -4190 0
-4181 -4191 0
-4181 -4192 0
-4181 -4193 0
-4181 -4194 0
-200 4181 4182 4183 4184 4185 4186 4187 4188 4189 4190 4191 4192 4193 4194 0
-4195 202 0
-4196 196 0
-4196 10 0
-196 -10 4196 0
-4197 198 0
-4197 52 0
-198 -52 4197 0
-4198 200 0
-4198 82 0
-200 -82 4198 0
-4199 204 0
-4199 142 0
-204 -142 4199 0
-4200 206 0
-4200 172 0
-206 -172 4200 0
-4201 210 0
-4201 232 0
-210 -232 4201 0
-4202 212 0
-4202 262 0
-212 -262 4202 0
-4203 214 0
-4203 292 0
-214 -292 4203 0
-4204 216 0
-4204 322 0
-216 -322 4204 0
-4205 218 0
-4205 352 0
-218 -352 4205 0
-4206 220 0
-4206 382 0
-220 -382 4206 0
-4207 222 0
-4207 412 0
-222 -412 4207 0
-4208 224 0
-4208 442 0
-224 -442 4208 0
-4195 -4196 0
-4195 -4197 0
-4195 -4198 0
-4195 -4199 0
-4195 -4200 0
-4195 -4201 0
-4195 -4202 0
-4195 -4203 0
-4195 -4204 0
-4195 -4205 0
-4195 -4206 0
-4195 -4207 0
-4195 -4208 0
-202 4195 4196 4197 4198 4199 4200 4201 4202 4203 4204 4205 4206 4207 4208 0
-4209 204 0
-4210 196 0
-4210 13 0
-196 -13 4210 0
-4211 198 0
-4211 54 0
-198 -54 4211 0
-4212 200 0
-4212 84 0
-200 -84 4212 0
-4213 202 0
-4213 114 0
-202 -114 4213 0
-4214 206 0
-4214 174 0
-206 -174 4214 0
-4215 210 0
-4215 234 0
-210 -234 4215 0
-4216 212 0
-4216 264 0
-212 -264 4216 0
-4217 214 0
-4217 294 0
-214 -294 4217 0
-4218 216 0
-4218 324 0
-216 -324 4218 0
-4219 218 0
-4219 354 0
-218 -354 4219 0
-4220 220 0
-4220 384 0
-220 -384 4220 0
-4221 222 0
-4221 414 0
-222 -414 4221 0
-4222 224 0
-4222 444 0
-224 -444 4222 0
-4209 -4210 0
-4209 -4211 0
-4209 -4212 0
-4209 -4213 0
-4209 -4214 0
-4209 -4215 0
-4209 -4216 0
-4209 -4217 0
-4209 -4218 0
-4209 -4219 0
-4209 -4220 0
-4209 -4221 0
-4209 -4222 0
-204 4209 4210 4211 4212 4213 4214 4215 4216 4217 4218 4219 4220 4221 4222 0
-4223 206 0
-4224 196 0
-4224 16 0
-196 -16 4224 0
-4225 198 0
-4225 56 0
-198 -56 4225 0
-4226 200 0
-4226 86 0
-200 -86 4226 0
-4227 202 0
-4227 116 0
-202 -116 4227 0
-4228 204 0
-4228 146 0
-204 -146 4228 0
-4229 210 0
-4229 236 0
-210 -236 4229 0
-4230 212 0
-4230 266 0
-212 -266 4230 0
-4231 214 0
-4231 296 0
-214 -296 4231 0
-4232 216 0
-4232 326 0
-216 -326 4232 0
-4233 218 0
-4233 356 0
-218 -356 4233 0
-4234 220 0
-4234 386 0
-220 -386 4234 0
-4235 222 0
-4235 416 0
-222 -416 4235 0
-4236 224 0
-4236 446 0
-224 -446 4236 0
-4223 -4224 0
-4223 -4225 0
-4223 -4226 0
-4223 -4227 0
-4223 -4228 0
-4223 -4229 0
-4223 -4230 0
-4223 -4231 0
-4223 -4232 0
-4223 -4233 0
-4223 -4234 0
-4223 -4235 0
-4223 -4236 0
-206 4223 4224 4225 4226 4227 4228 4229 4230 4231 4232 4233 4234 4235 4236 0
-4237 0
-4238 210 0
-4239 196 0
-4239 22 0
-196 -22 4239 0
-4240 198 0
-4240 60 0
-198 -60 4240 0
-4241 200 0
-4241 90 0
-200 -90 4241 0
-4242 202 0
-4242 120 0
-202 -120 4242 0
-4243 204 0
-4243 150 0
-204 -150 4243 0
-4244 206 0
-4244 180 0
-206 -180 4244 0
-4245 212 0
-4245 270 0
-212 -270 4245 0
-4246 214 0
-4246 300 0
-214 -300 4246 0
-4247 216 0
-4247 330 0
-216 -330 4247 0
-4248 218 0
-4248 360 0
-218 -360 4248 0
-4249 220 0
-4249 390 0
-220 -390 4249 0
-4250 222 0
-4250 420 0
-222 -420 4250 0
-4251 224 0
-4251 450 0
-224 -450 4251 0
-4238 -4239 0
-4238 -4240 0
-4238 -4241 0
-4238 -4242 0
-4238 -4243 0
-4238 -4244 0
-4238 -4245 0
-4238 -4246 0
-4238 -4247 0
-4238 -4248 0
-4238 -4249 0
-4238 -4250 0
-4238 -4251 0
-210 4238 4239 4240 4241 4242 4243 4244 4245 4246 4247 4248 4249 4250 4251 0
-4252 212 0
-4253 196 0
-4253 25 0
-196 -25 4253 0
-4254 198 0
-4254 62 0
-198 -62 4254 0
-4255 200 0
-4255 92 0
-200 -92 4255 0
-4256 202 0
-4256 122 0
-202 -122 4256 0
-4257 204 0
-4257 152 0
-204 -152 4257 0
-4258 206 0
-4258 182 0
-206 -182 4258 0
-4259 210 0
-4259 242 0
-210 -242 4259 0
-4260 214 0
-4260 302 0
-214 -302 4260 0
-4261 216 0
-4261 332 0
-216 -332 4261 0
-4262 218 0
-4262 362 0
-218 -362 4262 0
-4263 220 0
-4263 392 0
-220 -392 4263 0
-4264 222 0
-4264 422 0
-222 -422 4264 0
-4265 224 0
-4265 452 0
-224 -452 4265 0
-4252 -4253 0
-4252 -4254 0
-4252 -4255 0
-4252 -4256 0
-4252 -4257 0
-4252 -4258 0
-4252 -4259 0
-4252 -4260 0
-4252 -4261 0
-4252 -4262 0
-4252 -4263 0
-4252 -4264 0
-4252 -4265 0
-212 4252 4253 4254 4255 4256 4257 4258 4259 4260 4261 4262 4263 4264 4265 0
-4266 214 0
-4267 196 0
-4267 28 0
-196 -28 4267 0
-4268 198 0
-4268 64 0
-198 -64 4268 0
-4269 200 0
-4269 94 0
-200 -94 4269 0
-4270 202 0
-4270 124 0
-202 -124 4270 0
-4271 204 0
-4271 154 0
-204 -154 4271 0
-4272 206 0
-4272 184 0
-206 -184 4272 0
-4273 210 0
-4273 244 0
-210 -244 4273 0
-4274 212 0
-4274 274 0
-212 -274 4274 0
-4275 216 0
-4275 334 0
-216 -334 4275 0
-4276 218 0
-4276 364 0
-218 -364 4276 0
-4277 220 0
-4277 394 0
-220 -394 4277 0
-4278 222 0
-4278 424 0
-222 -424 4278 0
-4279 224 0
-4279 454 0
-224 -454 4279 0
-4266 -4267 0
-4266 -4268 0
-4266 -4269 0
-4266 -4270 0
-4266 -4271 0
-4266 -4272 0
-4266 -4273 0
-4266 -4274 0
-4266 -4275 0
-4266 -4276 0
-4266 -4277 0
-4266 -4278 0
-4266 -4279 0
-214 4266 4267 4268 4269 4270 4271 4272 4273 4274 4275 4276 4277 4278 4279 0
-4280 216 0
-4281 196 0
-4281 31 0
-196 -31 4281 0
-4282 198 0
-4282 66 0
-198 -66 4282 0
-4283 200 0
-4283 96 0
-200 -96 4283 0
-4284 202 0
-4284 126 0
-202 -126 4284 0
-4285 204 0
-4285 156 0
-204 -156 4285 0
-4286 206 0
-4286 186 0
-206 -186 4286 0
-4287 210 0
-4287 246 0
-210 -246 4287 0
-4288 212 0
-4288 276 0
-212 -276 4288 0
-4289 214 0
-4289 306 0
-214 -306 4289 0
-4290 218 0
-4290 366 0
-218 -366 4290 0
-4291 220 0
-4291 396 0
-220 -396 4291 0
-4292 222 0
-4292 426 0
-222 -426 4292 0
-4293 224 0
-4293 456 0
-224 -456 4293 0
-4280 -4281 0
-4280 -4282 0
-4280 -4283 0
-4280 -4284 0
-4280 -4285 0
-4280 -4286 0
-4280 -4287 0
-4280 -4288 0
-4280 -4289 0
-4280 -4290 0
-4280 -4291 0
-4280 -4292 0
-4280 -4293 0
-216 4280 4281 4282 4283 4284 4285 4286 4287 4288 4289 4290 4291 4292 4293 0
-4294 218 0
-4295 196 0
-4295 34 0
-196 -34 4295 0
-4296 198 0
-4296 68 0
-198 -68 4296 0
-4297 200 0
-4297 98 0
-200 -98 4297 0
-4298 202 0
-4298 128 0
-202 -128 4298 0
-4299 204 0
-4299 158 0
-204 -158 4299 0
-4300 206 0
-4300 188 0
-206 -188 4300 0
-4301 210 0
-4301 248 0
-210 -248 4301 0
-4302 212 0
-4302 278 0
-212 -278 4302 0
-4303 214 0
-4303 308 0
-214 -308 4303 0
-4304 216 0
-4304 338 0
-216 -338 4304 0
-4305 220 0
-4305 398 0
-220 -398 4305 0
-4306 222 0
-4306 428 0
-222 -428 4306 0
-4307 224 0
-4307 458 0
-224 -458 4307 0
-4294 -4295 0
-4294 -4296 0
-4294 -4297 0
-4294 -4298 0
-4294 -4299 0
-4294 -4300 0
-4294 -4301 0
-4294 -4302 0
-4294 -4303 0
-4294 -4304 0
-4294 -4305 0
-4294 -4306 0
-4294 -4307 0
-218 4294 4295 4296 4297 4298 4299 4300 4301 4302 4303 4304 4305 4306 4307 0
-4308 220 0
-4309 196 0
-4309 37 0
-196 -37 4309 0
-4310 198 0
-4310 70 0
-198 -70 4310 0
-4311 200 0
-4311 100 0
-200 -100 4311 0
-4312 202 0
-4312 130 0
-202 -130 4312 0
-4313 204 0
-4313 160 0
-204 -160 4313 0
-4314 206 0
-4314 190 0
-206 -190 4314 0
-4315 210 0
-4315 250 0
-210 -250 4315 0
-4316 212 0
-4316 280 0
-212 -280 4316 0
-4317 214 0
-4317 310 0
-214 -310 4317 0
-4318 216 0
-4318 340 0
-216 -340 4318 0
-4319 218 0
-4319 370 0
-218 -370 4319 0
-4320 222 0
-4320 430 0
-222 -430 4320 0
-4321 224 0
-4321 460 0
-224 -460 4321 0
-4308 -4309 0
-4308 -4310 0
-4308 -4311 0
-4308 -4312 0
-4308 -4313 0
-4308 -4314 0
-4308 -4315 0
-4308 -4316 0
-4308 -4317 0
-4308 -4318 0
-4308 -4319 0
-4308 -4320 0
-4308 -4321 0
-220 4308 4309 4310 4311 4312 4313 4314 4315 4316 4317 4318 4319 4320 4321 0
-4322 222 0
-4323 196 0
-4323 40 0
-196 -40 4323 0
-4324 198 0
-4324 72 0
-198 -72 4324 0
-4325 200 0
-4325 102 0
-200 -102 4325 0
-4326 202 0
-4326 132 0
-202 -132 4326 0
-4327 204 0
-4327 162 0
-204 -162 4327 0
-4328 206 0
-4328 192 0
-206 -192 4328 0
-4329 210 0
-4329 252 0
-210 -252 4329 0
-4330 212 0
-4330 282 0
-212 -282 4330 0
-4331 214 0
-4331 312 0
-214 -312 4331 0
-4332 216 0
-4332 342 0
-216 -342 4332 0
-4333 218 0
-4333 372 0
-218 -372 4333 0
-4334 220 0
-4334 402 0
-220 -402 4334 0
-4335 224 0
-4335 462 0
-224 -462 4335 0
-4322 -4323 0
-4322 -4324 0
-4322 -4325 0
-4322 -4326 0
-4322 -4327 0
-4322 -4328 0
-4322 -4329 0
-4322 -4330 0
-4322 -4331 0
-4322 -4332 0
-4322 -4333 0
-4322 -4334 0
-4322 -4335 0
-222 4322 4323 4324 4325 4326 4327 4328 4329 4330 4331 4332 4333 4334 4335 0
-4336 224 0
-4337 196 0
-4337 43 0
-196 -43 4337 0
-4338 198 0
-4338 74 0
-198 -74 4338 0
-4339 200 0
-4339 104 0
-200 -104 4339 0
-4340 202 0
-4340 134 0
-202 -134 4340 0
-4341 204 0
-4341 164 0
-204 -164 4341 0
-4342 206 0
-4342 194 0
-206 -194 4342 0
-4343 210 0
-4343 254 0
-210 -254 4343 0
-4344 212 0
-4344 284 0
-212 -284 4344 0
-4345 214 0
-4345 314 0
-214 -314 4345 0
-4346 216 0
-4346 344 0
-216 -344 4346 0
-4347 218 0
-4347 374 0
-218 -374 4347 0
-4348 220 0
-4348 404 0
-220 -404 4348 0
-4349 222 0
-4349 434 0
-222 -434 4349 0
-4336 -4337 0
-4336 -4338 0
-4336 -4339 0
-4336 -4340 0
-4336 -4341 0
-4336 -4342 0
-4336 -4343 0
-4336 -4344 0
-4336 -4345 0
-4336 -4346 0
-4336 -4347 0
-4336 -4348 0
-4336 -4349 0
-224 4336 4337 4338 4339 4340 4341 4342 4343 4344 4345 4346 4347 4348 4349 0
-4350 226 0
-4351 228 0
-4351 46 0
-228 -46 4351 0
-4352 230 0
-4352 76 0
-230 -76 4352 0
-4353 232 0
-4353 106 0
-232 -106 4353 0
-4354 234 0
-4354 136 0
-234 -136 4354 0
-4355 236 0
-4355 166 0
-236 -166 4355 0
-4356 238 0
-4356 196 0
-238 -196 4356 0
-4357 242 0
-4357 256 0
-242 -256 4357 0
-4358 244 0
-4358 286 0
-244 -286 4358 0
-4359 246 0
-4359 316 0
-246 -316 4359 0
-4360 248 0
-4360 346 0
-248 -346 4360 0
-4361 250 0
-4361 376 0
-250 -376 4361 0
-4362 252 0
-4362 406 0
-252 -406 4362 0
-4363 254 0
-4363 436 0
-254 -436 4363 0
-4350 -4351 0
-4350 -4352 0
-4350 -4353 0
-4350 -4354 0
-4350 -4355 0
-4350 -4356 0
-4350 -4357 0
-4350 -4358 0
-4350 -4359 0
-4350 -4360 0
-4350 -4361 0
-4350 -4362 0
-4350 -4363 0
-226 4350 4351 4352 4353 4354 4355 4356 4357 4358 4359 4360 4361 4362 4363 0
-4364 228 0
-4365 226 0
-4365 4 0
-226 -4 4365 0
-4366 230 0
-4366 78 0
-230 -78 4366 0
-4367 232 0
-4367 108 0
-232 -108 4367 0
-4368 234 0
-4368 138 0
-234 -138 4368 0
-4369 236 0
-4369 168 0
-236 -168 4369 0
-4370 238 0
-4370 198 0
-238 -198 4370 0
-4371 242 0
-4371 258 0
-242 -258 4371 0
-4372 244 0
-4372 288 0
-244 -288 4372 0
-4373 246 0
-4373 318 0
-246 -318 4373 0
-4374 248 0
-4374 348 0
-248 -348 4374 0
-4375 250 0
-4375 378 0
-250 -378 4375 0
-4376 252 0
-4376 408 0
-252 -408 4376 0
-4377 254 0
-4377 438 0
-254 -438 4377 0
-4364 -4365 0
-4364 -4366 0
-4364 -4367 0
-4364 -4368 0
-4364 -4369 0
-4364 -4370 0
-4364 -4371 0
-4364 -4372 0
-4364 -4373 0
-4364 -4374 0
-4364 -4375 0
-4364 -4376 0
-4364 -4377 0
-228 4364 4365 4366 4367 4368 4369 4370 4371 4372 4373 4374 4375 4376 4377 0
-4378 230 0
-4379 226 0
-4379 7 0
-226 -7 4379 0
-4380 228 0
-4380 50 0
-228 -50 4380 0
-4381 232 0
-4381 110 0
-232 -110 4381 0
-4382 234 0
-4382 140 0
-234 -140 4382 0
-4383 236 0
-4383 170 0
-236 -170 4383 0
-4384 238 0
-4384 200 0
-238 -200 4384 0
-4385 242 0
-4385 260 0
-242 -260 4385 0
-4386 244 0
-4386 290 0
-244 -290 4386 0
-4387 246 0
-4387 320 0
-246 -320 4387 0
-4388 248 0
-4388 350 0
-248 -350 4388 0
-4389 250 0
-4389 380 0
-250 -380 4389 0
-4390 252 0
-4390 410 0
-252 -410 4390 0
-4391 254 0
-4391 440 0
-254 -440 4391 0
-4378 -4379 0
-4378 -4380 0
-4378 -4381 0
-4378 -4382 0
-4378 -4383 0
-4378 -4384 0
-4378 -4385 0
-4378 -4386 0
-4378 -4387 0
-4378 -4388 0
-4378 -4389 0
-4378 -4390 0
-4378 -4391 0
-230 4378 4379 4380 4381 4382 4383 4384 4385 4386 4387 4388 4389 4390 4391 0
-4392 232 0
-4393 226 0
-4393 10 0
-226 -10 4393 0
-4394 228 0
-4394 52 0
-228 -52 4394 0
-4395 230 0
-4395 82 0
-230 -82 4395 0
-4396 234 0
-4396 142 0
-234 -142 4396 0
-4397 236 0
-4397 172 0
-236 -172 4397 0
-4398 238 0
-4398 202 0
-238 -202 4398 0
-4399 242 0
-4399 262 0
-242 -262 4399 0
-4400 244 0
-4400 292 0
-244 -292 4400 0
-4401 246 0
-4401 322 0
-246 -322 4401 0
-4402 248 0
-4402 352 0
-248 -352 4402 0
-4403 250 0
-4403 382 0
-250 -382 4403 0
-4404 252 0
-4404 412 0
-252 -412 4404 0
-4405 254 0
-4405 442 0
-254 -442 4405 0
-4392 -4393 0
-4392 -4394 0
-4392 -4395 0
-4392 -4396 0
-4392 -4397 0
-4392 -4398 0
-4392 -4399 0
-4392 -4400 0
-4392 -4401 0
-4392 -4402 0
-4392 -4403 0
-4392 -4404 0
-4392 -4405 0
-232 4392 4393 4394 4395 4396 4397 4398 4399 4400 4401 4402 4403 4404 4405 0
-4406 234 0
-4407 226 0
-4407 13 0
-226 -13 4407 0
-4408 228 0
-4408 54 0
-228 -54 4408 0
-4409 230 0
-4409 84 0
-230 -84 4409 0
-4410 232 0
-4410 114 0
-232 -114 4410 0
-4411 236 0
-4411 174 0
-236 -174 4411 0
-4412 238 0
-4412 204 0
-238 -204 4412 0
-4413 242 0
-4413 264 0
-242 -264 4413 0
-4414 244 0
-4414 294 0
-244 -294 4414 0
-4415 246 0
-4415 324 0
-246 -324 4415 0
-4416 248 0
-4416 354 0
-248 -354 4416 0
-4417 250 0
-4417 384 0
-250 -384 4417 0
-4418 252 0
-4418 414 0
-252 -414 4418 0
-4419 254 0
-4419 444 0
-254 -444 4419 0
-4406 -4407 0
-4406 -4408 0
-4406 -4409 0
-4406 -4410 0
-4406 -4411 0
-4406 -4412 0
-4406 -4413 0
-4406 -4414 0
-4406 -4415 0
-4406 -4416 0
-4406 -4417 0
-4406 -4418 0
-4406 -4419 0
-234 4406 4407 4408 4409 4410 4411 4412 4413 4414 4415 4416 4417 4418 4419 0
-4420 236 0
-4421 226 0
-4421 16 0
-226 -16 4421 0
-4422 228 0
-4422 56 0
-228 -56 4422 0
-4423 230 0
-4423 86 0
-230 -86 4423 0
-4424 232 0
-4424 116 0
-232 -116 4424 0
-4425 234 0
-4425 146 0
-234 -146 4425 0
-4426 238 0
-4426 206 0
-238 -206 4426 0
-4427 242 0
-4427 266 0
-242 -266 4427 0
-4428 244 0
-4428 296 0
-244 -296 4428 0
-4429 246 0
-4429 326 0
-246 -326 4429 0
-4430 248 0
-4430 356 0
-248 -356 4430 0
-4431 250 0
-4431 386 0
-250 -386 4431 0
-4432 252 0
-4432 416 0
-252 -416 4432 0
-4433 254 0
-4433 446 0
-254 -446 4433 0
-4420 -4421 0
-4420 -4422 0
-4420 -4423 0
-4420 -4424 0
-4420 -4425 0
-4420 -4426 0
-4420 -4427 0
-4420 -4428 0
-4420 -4429 0
-4420 -4430 0
-4420 -4431 0
-4420 -4432 0
-4420 -4433 0
-236 4420 4421 4422 4423 4424 4425 4426 4427 4428 4429 4430 4431 4432 4433 0
-4434 238 0
-4435 226 0
-4435 19 0
-226 -19 4435 0
-4436 228 0
-4436 58 0
-228 -58 4436 0
-4437 230 0
-4437 88 0
-230 -88 4437 0
-4438 232 0
-4438 118 0
-232 -118 4438 0
-4439 234 0
-4439 148 0
-234 -148 4439 0
-4440 236 0
-4440 178 0
-236 -178 4440 0
-4441 242 0
-4441 268 0
-242 -268 4441 0
-4442 244 0
-4442 298 0
-244 -298 4442 0
-4443 246 0
-4443 328 0
-246 -328 4443 0
-4444 248 0
-4444 358 0
-248 -358 4444 0
-4445 250 0
-4445 388 0
-250 -388 4445 0
-4446 252 0
-4446 418 0
-252 -418 4446 0
-4447 254 0
-4447 448 0
-254 -448 4447 0
-4434 -4435 0
-4434 -4436 0
-4434 -4437 0
-4434 -4438 0
-4434 -4439 0
-4434 -4440 0
-4434 -4441 0
-4434 -4442 0
-4434 -4443 0
-4434 -4444 0
-4434 -4445 0
-4434 -4446 0
-4434 -4447 0
-238 4434 4435 4436 4437 4438 4439 4440 4441 4442 4443 4444 4445 4446 4447 0
-4448 0
-4449 242 0
-4450 226 0
-4450 25 0
-226 -25 4450 0
-4451 228 0
-4451 62 0
-228 -62 4451 0
-4452 230 0
-4452 92 0
-230 -92 4452 0
-4453 232 0
-4453 122 0
-232 -122 4453 0
-4454 234 0
-4454 152 0
-234 -152 4454 0
-4455 236 0
-4455 182 0
-236 -182 4455 0
-4456 238 0
-4456 212 0
-238 -212 4456 0
-4457 244 0
-4457 302 0
-244 -302 4457 0
-4458 246 0
-4458 332 0
-246 -332 4458 0
-4459 248 0
-4459 362 0
-248 -362 4459 0
-4460 250 0
-4460 392 0
-250 -392 4460 0
-4461 252 0
-4461 422 0
-252 -422 4461 0
-4462 254 0
-4462 452 0
-254 -452 4462 0
-4449 -4450 0
-4449 -4451 0
-4449 -4452 0
-4449 -4453 0
-4449 -4454 0
-4449 -4455 0
-4449 -4456 0
-4449 -4457 0
-4449 -4458 0
-4449 -4459 0
-4449 -4460 0
-4449 -4461 0
-4449 -4462 0
-242 4449 4450 4451 4452 4453 4454 4455 4456 4457 4458 4459 4460 4461 4462 0
-4463 244 0
-4464 226 0
-4464 28 0
-226 -28 4464 0
-4465 228 0
-4465 64 0
-228 -64 4465 0
-4466 230 0
-4466 94 0
-230 -94 4466 0
-4467 232 0
-4467 124 0
-232 -124 4467 0
-4468 234 0
-4468 154 0
-234 -154 4468 0
-4469 236 0
-4469 184 0
-236 -184 4469 0
-4470 238 0
-4470 214 0
-238 -214 4470 0
-4471 242 0
-4471 274 0
-242 -274 4471 0
-4472 246 0
-4472 334 0
-246 -334 4472 0
-4473 248 0
-4473 364 0
-248 -364 4473 0
-4474 250 0
-4474 394 0
-250 -394 4474 0
-4475 252 0
-4475 424 0
-252 -424 4475 0
-4476 254 0
-4476 454 0
-254 -454 4476 0
-4463 -4464 0
-4463 -4465 0
-4463 -4466 0
-4463 -4467 0
-4463 -4468 0
-4463 -4469 0
-4463 -4470 0
-4463 -4471 0
-4463 -4472 0
-4463 -4473 0
-4463 -4474 0
-4463 -4475 0
-4463 -4476 0
-244 4463 4464 4465 4466 4467 4468 4469 4470 4471 4472 4473 4474 4475 4476 0
-4477 246 0
-4478 226 0
-4478 31 0
-226 -31 4478 0
-4479 228 0
-4479 66 0
-228 -66 4479 0
-4480 230 0
-4480 96 0
-230 -96 4480 0
-4481 232 0
-4481 126 0
-232 -126 4481 0
-4482 234 0
-4482 156 0
-234 -156 4482 0
-4483 236 0
-4483 186 0
-236 -186 4483 0
-4484 238 0
-4484 216 0
-238 -216 4484 0
-4485 242 0
-4485 276 0
-242 -276 4485 0
-4486 244 0
-4486 306 0
-244 -306 4486 0
-4487 248 0
-4487 366 0
-248 -366 4487 0
-4488 250 0
-4488 396 0
-250 -396 4488 0
-4489 252 0
-4489 426 0
-252 -426 4489 0
-4490 254 0
-4490 456 0
-254 -456 4490 0
-4477 -4478 0
-4477 -4479 0
-4477 -4480 0
-4477 -4481 0
-4477 -4482 0
-4477 -4483 0
-4477 -4484 0
-4477 -4485 0
-4477 -4486 0
-4477 -4487 0
-4477 -4488 0
-4477 -4489 0
-4477 -4490 0
-246 4477 4478 4479 4480 4481 4482 4483 4484 4485 4486 4487 4488 4489 4490 0
-4491 248 0
-4492 226 0
-4492 34 0
-226 -34 4492 0
-4493 228 0
-4493 68 0
-228 -68 4493 0
-4494 230 0
-4494 98 0
-230 -98 4494 0
-4495 232 0
-4495 128 0
-232 -128 4495 0
-4496 234 0
-4496 158 0
-234 -158 4496 0
-4497 236 0
-4497 188 0
-236 -188 4497 0
-4498 238 0
-4498 218 0
-238 -218 4498 0
-4499 242 0
-4499 278 0
-242 -278 4499 0
-4500 244 0
-4500 308 0
-244 -308 4500 0
-4501 246 0
-4501 338 0
-246 -338 4501 0
-4502 250 0
-4502 398 0
-250 -398 4502 0
-4503 252 0
-4503 428 0
-252 -428 4503 0
-4504 254 0
-4504 458 0
-254 -458 4504 0
-4491 -4492 0
-4491 -4493 0
-4491 -4494 0
-4491 -4495 0
-4491 -4496 0
-4491 -4497 0
-4491 -4498 0
-4491 -4499 0
-4491 -4500 0
-4491 -4501 0
-4491 -4502 0
-4491 -4503 0
-4491 -4504 0
-248 4491 4492 4493 4494 4495 4496 4497 4498 4499 4500 4501 4502 4503 4504 0
-4505 250 0
-4506 226 0
-4506 37 0
-226 -37 4506 0
-4507 228 0
-4507 70 0
-228 -70 4507 0
-4508 230 0
-4508 100 0
-230 -100 4508 0
-4509 232 0
-4509 130 0
-232 -130 4509 0
-4510 234 0
-4510 160 0
-234 -160 4510 0
-4511 236 0
-4511 190 0
-236 -190 4511 0
-4512 238 0
-4512 220 0
-238 -220 4512 0
-4513 242 0
-4513 280 0
-242 -280 4513 0
-4514 244 0
-4514 310 0
-244 -310 4514 0
-4515 246 0
-4515 340 0
-246 -340 4515 0
-4516 248 0
-4516 370 0
-248 -370 4516 0
-4517 252 0
-4517 430 0
-252 -430 4517 0
-4518 254 0
-4518 460 0
-254 -460 4518 0
-4505 -4506 0
-4505 -4507 0
-4505 -4508 0
-4505 -4509 0
-4505 -4510 0
-4505 -4511 0
-4505 -4512 0
-4505 -4513 0
-4505 -4514 0
-4505 -4515 0
-4505 -4516 0
-4505 -4517 0
-4505 -4518 0
-250 4505 4506 4507 4508 4509 4510 4511 4512 4513 4514 4515 4516 4517 4518 0
-4519 252 0
-4520 226 0
-4520 40 0
-226 -40 4520 0
-4521 228 0
-4521 72 0
-228 -72 4521 0
-4522 230 0
-4522 102 0
-230 -102 4522 0
-4523 232 0
-4523 132 0
-232 -132 4523 0
-4524 234 0
-4524 162 0
-234 -162 4524 0
-4525 236 0
-4525 192 0
-236 -192 4525 0
-4526 238 0
-4526 222 0
-238 -222 4526 0
-4527 242 0
-4527 282 0
-242 -282 4527 0
-4528 244 0
-4528 312 0
-244 -312 4528 0
-4529 246 0
-4529 342 0
-246 -342 4529 0
-4530 248 0
-4530 372 0
-248 -372 4530 0
-4531 250 0
-4531 402 0
-250 -402 4531 0
-4532 254 0
-4532 462 0
-254 -462 4532 0
-4519 -4520 0
-4519 -4521 0
-4519 -4522 0
-4519 -4523 0
-4519 -4524 0
-4519 -4525 0
-4519 -4526 0
-4519 -4527 0
-4519 -4528 0
-4519 -4529 0
-4519 -4530 0
-4519 -4531 0
-4519 -4532 0
-252 4519 4520 4521 4522 4523 4524 4525 4526 4527 4528 4529 4530 4531 4532 0
-4533 254 0
-4534 226 0
-4534 43 0
-226 -43 4534 0
-4535 228 0
-4535 74 0
-228 -74 4535 0
-4536 230 0
-4536 104 0
-230 -104 4536 0
-4537 232 0
-4537 134 0
-232 -134 4537 0
-4538 234 0
-4538 164 0
-234 -164 4538 0
-4539 236 0
-4539 194 0
-236 -194 4539 0
-4540 238 0
-4540 224 0
-238 -224 4540 0
-4541 242 0
-4541 284 0
-242 -284 4541 0
-4542 244 0
-4542 314 0
-244 -314 4542 0
-4543 246 0
-4543 344 0
-246 -344 4543 0
-4544 248 0
-4544 374 0
-248 -374 4544 0
-4545 250 0
-4545 404 0
-250 -404 4545 0
-4546 252 0
-4546 434 0
-252 -434 4546 0
-4533 -4534 0
-4533 -4535 0
-4533 -4536 0
-4533 -4537 0
-4533 -4538 0
-4533 -4539 0
-4533 -4540 0
-4533 -4541 0
-4533 -4542 0
-4533 -4543 0
-4533 -4544 0
-4533 -4545 0
-4533 -4546 0
-254 4533 4534 4535 4536 4537 4538 4539 4540 4541 4542 4543 4544 4545 4546 0
-4547 256 0
-4548 258 0
-4548 46 0
-258 -46 4548 0
-4549 260 0
-4549 76 0
-260 -76 4549 0
-4550 262 0
-4550 106 0
-262 -106 4550 0
-4551 264 0
-4551 136 0
-264 -136 4551 0
-4552 266 0
-4552 166 0
-266 -166 4552 0
-4553 268 0
-4553 196 0
-268 -196 4553 0
-4554 270 0
-4554 226 0
-270 -226 4554 0
-4555 274 0
-4555 286 0
-274 -286 4555 0
-4556 276 0
-4556 316 0
-276 -316 4556 0
-4557 278 0
-4557 346 0
-278 -346 4557 0
-4558 280 0
-4558 376 0
-280 -376 4558 0
-4559 282 0
-4559 406 0
-282 -406 4559 0
-4560 284 0
-4560 436 0
-284 -436 4560 0
-4547 -4548 0
-4547 -4549 0
-4547 -4550 0
-4547 -4551 0
-4547 -4552 0
-4547 -4553 0
-4547 -4554 0
-4547 -4555 0
-4547 -4556 0
-4547 -4557 0
-4547 -4558 0
-4547 -4559 0
-4547 -4560 0
-256 4547 4548 4549 4550 4551 4552 4553 4554 4555 4556 4557 4558 4559 4560 0
-4561 258 0
-4562 256 0
-4562 4 0
-256 -4 4562 0
-4563 260 0
-4563 78 0
-260 -78 4563 0
-4564 262 0
-4564 108 0
-262 -108 4564 0
-4565 264 0
-4565 138 0
-264 -138 4565 0
-4566 266 0
-4566 168 0
-266 -168 4566 0
-4567 268 0
-4567 198 0
-268 -198 4567 0
-4568 270 0
-4568 228 0
-270 -228 4568 0
-4569 274 0
-4569 288 0
-274 -288 4569 0
-4570 276 0
-4570 318 0
-276 -318 4570 0
-4571 278 0
-4571 348 0
-278 -348 4571 0
-4572 280 0
-4572 378 0
-280 -378 4572 0
-4573 282 0
-4573 408 0
-282 -408 4573 0
-4574 284 0
-4574 438 0
-284 -438 4574 0
-4561 -4562 0
-4561 -4563 0
-4561 -4564 0
-4561 -4565 0
-4561 -4566 0
-4561 -4567 0
-4561 -4568 0
-4561 -4569 0
-4561 -4570 0
-4561 -4571 0
-4561 -4572 0
-4561 -4573 0
-4561 -4574 0
-258 4561 4562 4563 4564 4565 4566 4567 4568 4569 4570 4571 4572 4573 4574 0
-4575 260 0
-4576 256 0
-4576 7 0
-256 -7 4576 0
-4577 258 0
-4577 50 0
-258 -50 4577 0
-4578 262 0
-4578 110 0
-262 -110 4578 0
-4579 264 0
-4579 140 0
-264 -140 4579 0
-4580 266 0
-4580 170 0
-266 -170 4580 0
-4581 268 0
-4581 200 0
-268 -200 4581 0
-4582 270 0
-4582 230 0
-270 -230 4582 0
-4583 274 0
-4583 290 0
-274 -290 4583 0
-4584 276 0
-4584 320 0
-276 -320 4584 0
-4585 278 0
-4585 350 0
-278 -350 4585 0
-4586 280 0
-4586 380 0
-280 -380 4586 0
-4587 282 0
-4587 410 0
-282 -410 4587 0
-4588 284 0
-4588 440 0
-284 -440 4588 0
-4575 -4576 0
-4575 -4577 0
-4575 -4578 0
-4575 -4579 0
-4575 -4580 0
-4575 -4581 0
-4575 -4582 0
-4575 -4583 0
-4575 -4584 0
-4575 -4585 0
-4575 -4586 0
-4575 -4587 0
-4575 -4588 0
-260 4575 4576 4577 4578 4579 4580 4581 4582 4583 4584 4585 4586 4587 4588 0
-4589 262 0
-4590 256 0
-4590 10 0
-256 -10 4590 0
-4591 258 0
-4591 52 0
-258 -52 4591 0
-4592 260 0
-4592 82 0
-260 -82 4592 0
-4593 264 0
-4593 142 0
-264 -142 4593 0
-4594 266 0
-4594 172 0
-266 -172 4594 0
-4595 268 0
-4595 202 0
-268 -202 4595 0
-4596 270 0
-4596 232 0
-270 -232 4596 0
-4597 274 0
-4597 292 0
-274 -292 4597 0
-4598 276 0
-4598 322 0
-276 -322 4598 0
-4599 278 0
-4599 352 0
-278 -352 4599 0
-4600 280 0
-4600 382 0
-280 -382 4600 0
-4601 282 0
-4601 412 0
-282 -412 4601 0
-4602 284 0
-4602 442 0
-284 -442 4602 0
-4589 -4590 0
-4589 -4591 0
-4589 -4592 0
-4589 -4593 0
-4589 -4594 0
-4589 -4595 0
-4589 -4596 0
-4589 -4597 0
-4589 -4598 0
-4589 -4599 0
-4589 -4600 0
-4589 -4601 0
-4589 -4602 0
-262 4589 4590 4591 4592 4593 4594 4595 4596 4597 4598 4599 4600 4601 4602 0
-4603 264 0
-4604 256 0
-4604 13 0
-256 -13 4604 0
-4605 258 0
-4605 54 0
-258 -54 4605 0
-4606 260 0
-4606 84 0
-260 -84 4606 0
-4607 262 0
-4607 114 0
-262 -114 4607 0
-4608 266 0
-4608 174 0
-266 -174 4608 0
-4609 268 0
-4609 204 0
-268 -204 4609 0
-4610 270 0
-4610 234 0
-270 -234 4610 0
-4611 274 0
-4611 294 0
-274 -294 4611 0
-4612 276 0
-4612 324 0
-276 -324 4612 0
-4613 278 0
-4613 354 0
-278 -354 4613 0
-4614 280 0
-4614 384 0
-280 -384 4614 0
-4615 282 0
-4615 414 0
-282 -414 4615 0
-4616 284 0
-4616 444 0
-284 -444 4616 0
-4603 -4604 0
-4603 -4605 0
-4603 -4606 0
-4603 -4607 0
-4603 -4608 0
-4603 -4609 0
-4603 -4610 0
-4603 -4611 0
-4603 -4612 0
-4603 -4613 0
-4603 -4614 0
-4603 -4615 0
-4603 -4616 0
-264 4603 4604 4605 4606 4607 4608 4609 4610 4611 4612 4613 4614 4615 4616 0
-4617 266 0
-4618 256 0
-4618 16 0
-256 -16 4618 0
-4619 258 0
-4619 56 0
-258 -56 4619 0
-4620 260 0
-4620 86 0
-260 -86 4620 0
-4621 262 0
-4621 116 0
-262 -116 4621 0
-4622 264 0
-4622 146 0
-264 -146 4622 0
-4623 268 0
-4623 206 0
-268 -206 4623 0
-4624 270 0
-4624 236 0
-270 -236 4624 0
-4625 274 0
-4625 296 0
-274 -296 4625 0
-4626 276 0
-4626 326 0
-276 -326 4626 0
-4627 278 0
-4627 356 0
-278 -356 4627 0
-4628 280 0
-4628 386 0
-280 -386 4628 0
-4629 282 0
-4629 416 0
-282 -416 4629 0
-4630 284 0
-4630 446 0
-284 -446 4630 0
-4617 -4618 0
-4617 -4619 0
-4617 -4620 0
-4617 -4621 0
-4617 -4622 0
-4617 -4623 0
-4617 -4624 0
-4617 -4625 0
-4617 -4626 0
-4617 -4627 0
-4617 -4628 0
-4617 -4629 0
-4617 -4630 0
-266 4617 4618 4619 4620 4621 4622 4623 4624 4625 4626 4627 4628 4629 4630 0
-4631 268 0
-4632 256 0
-4632 19 0
-256 -19 4632 0
-4633 258 0
-4633 58 0
-258 -58 4633 0
-4634 260 0
-4634 88 0
-260 -88 4634 0
-4635 262 0
-4635 118 0
-262 -118 4635 0
-4636 264 0
-4636 148 0
-264 -148 4636 0
-4637 266 0
-4637 178 0
-266 -178 4637 0
-4638 270 0
-4638 238 0
-270 -238 4638 0
-4639 274 0
-4639 298 0
-274 -298 4639 0
-4640 276 0
-4640 328 0
-276 -328 4640 0
-4641 278 0
-4641 358 0
-278 -358 4641 0
-4642 280 0
-4642 388 0
-280 -388 4642 0
-4643 282 0
-4643 418 0
-282 -418 4643 0
-4644 284 0
-4644 448 0
-284 -448 4644 0
-4631 -4632 0
-4631 -4633 0
-4631 -4634 0
-4631 -4635 0
-4631 -4636 0
-4631 -4637 0
-4631 -4638 0
-4631 -4639 0
-4631 -4640 0
-4631 -4641 0
-4631 -4642 0
-4631 -4643 0
-4631 -4644 0
-268 4631 4632 4633 4634 4635 4636 4637 4638 4639 4640 4641 4642 4643 4644 0
-4645 270 0
-4646 256 0
-4646 22 0
-256 -22 4646 0
-4647 258 0
-4647 60 0
-258 -60 4647 0
-4648 260 0
-4648 90 0
-260 -90 4648 0
-4649 262 0
-4649 120 0
-262 -120 4649 0
-4650 264 0
-4650 150 0
-264 -150 4650 0
-4651 266 0
-4651 180 0
-266 -180 4651 0
-4652 268 0
-4652 210 0
-268 -210 4652 0
-4653 274 0
-4653 300 0
-274 -300 4653 0
-4654 276 0
-4654 330 0
-276 -330 4654 0
-4655 278 0
-4655 360 0
-278 -360 4655 0
-4656 280 0
-4656 390 0
-280 -390 4656 0
-4657 282 0
-4657 420 0
-282 -420 4657 0
-4658 284 0
-4658 450 0
-284 -450 4658 0
-4645 -4646 0
-4645 -4647 0
-4645 -4648 0
-4645 -4649 0
-4645 -4650 0
-4645 -4651 0
-4645 -4652 0
-4645 -4653 0
-4645 -4654 0
-4645 -4655 0
-4645 -4656 0
-4645 -4657 0
-4645 -4658 0
-270 4645 4646 4647 4648 4649 4650 4651 4652 4653 4654 4655 4656 4657 4658 0
-4659 0
-4660 274 0
-4661 256 0
-4661 28 0
-256 -28 4661 0
-4662 258 0
-4662 64 0
-258 -64 4662 0
-4663 260 0
-4663 94 0
-260 -94 4663 0
-4664 262 0
-4664 124 0
-262 -124 4664 0
-4665 264 0
-4665 154 0
-264 -154 4665 0
-4666 266 0
-4666 184 0
-266 -184 4666 0
-4667 268 0
-4667 214 0
-268 -214 4667 0
-4668 270 0
-4668 244 0
-270 -244 4668 0
-4669 276 0
-4669 334 0
-276 -334 4669 0
-4670 278 0
-4670 364 0
-278 -364 4670 0
-4671 280 0
-4671 394 0
-280 -394 4671 0
-4672 282 0
-4672 424 0
-282 -424 4672 0
-4673 284 0
-4673 454 0
-284 -454 4673 0
-4660 -4661 0
-4660 -4662 0
-4660 -4663 0
-4660 -4664 0
-4660 -4665 0
-4660 -4666 0
-4660 -4667 0
-4660 -4668 0
-4660 -4669 0
-4660 -4670 0
-4660 -4671 0
-4660 -4672 0
-4660 -4673 0
-274 4660 4661 4662 4663 4664 4665 4666 4667 4668 4669 4670 4671 4672 4673 0
-4674 276 0
-4675 256 0
-4675 31 0
-256 -31 4675 0
-4676 258 0
-4676 66 0
-258 -66 4676 0
-4677 260 0
-4677 96 0
-260 -96 4677 0
-4678 262 0
-4678 126 0
-262 -126 4678 0
-4679 264 0
-4679 156 0
-264 -156 4679 0
-4680 266 0
-4680 186 0
-266 -186 4680 0
-4681 268 0
-4681 216 0
-268 -216 4681 0
-4682 270 0
-4682 246 0
-270 -246 4682 0
-4683 274 0
-4683 306 0
-274 -306 4683 0
-4684 278 0
-4684 366 0
-278 -366 4684 0
-4685 280 0
-4685 396 0
-280 -396 4685 0
-4686 282 0
-4686 426 0
-282 -426 4686 0
-4687 284 0
-4687 456 0
-284 -456 4687 0
-4674 -4675 0
-4674 -4676 0
-4674 -4677 0
-4674 -4678 0
-4674 -4679 0
-4674 -4680 0
-4674 -4681 0
-4674 -4682 0
-4674 -4683 0
-4674 -4684 0
-4674 -4685 0
-4674 -4686 0
-4674 -4687 0
-276 4674 4675 4676 4677 4678 4679 4680 4681 4682 4683 4684 4685 4686 4687 0
-4688 278 0
-4689 256 0
-4689 34 0
-256 -34 4689 0
-4690 258 0
-4690 68 0
-258 -68 4690 0
-4691 260 0
-4691 98 0
-260 -98 4691 0
-4692 262 0
-4692 128 0
-262 -128 4692 0
-4693 264 0
-4693 158 0
-264 -158 4693 0
-4694 266 0
-4694 188 0
-266 -188 4694 0
-4695 268 0
-4695 218 0
-268 -218 4695 0
-4696 270 0
-4696 248 0
-270 -248 4696 0
-4697 274 0
-4697 308 0
-274 -308 4697 0
-4698 276 0
-4698 338 0
-276 -338 4698 0
-4699 280 0
-4699 398 0
-280 -398 4699 0
-4700 282 0
-4700 428 0
-282 -428 4700 0
-4701 284 0
-4701 458 0
-284 -458 4701 0
-4688 -4689 0
-4688 -4690 0
-4688 -4691 0
-4688 -4692 0
-4688 -4693 0
-4688 -4694 0
-4688 -4695 0
-4688 -4696 0
-4688 -4697 0
-4688 -4698 0
-4688 -4699 0
-4688 -4700 0
-4688 -4701 0
-278 4688 4689 4690 4691 4692 4693 4694 4695 4696 4697 4698 4699 4700 4701 0
-4702 280 0
-4703 256 0
-4703 37 0
-256 -37 4703 0
-4704 258 0
-4704 70 0
-258 -70 4704 0
-4705 260 0
-4705 100 0
-260 -100 4705 0
-4706 262 0
-4706 130 0
-262 -130 4706 0
-4707 264 0
-4707 160 0
-264 -160 4707 0
-4708 266 0
-4708 190 0
-266 -190 4708 0
-4709 268 0
-4709 220 0
-268 -220 4709 0
-4710 270 0
-4710 250 0
-270 -250 4710 0
-4711 274 0
-4711 310 0
-274 -310 4711 0
-4712 276 0
-4712 340 0
-276 -340 4712 0
-4713 278 0
-4713 370 0
-278 -370 4713 0
-4714 282 0
-4714 430 0
-282 -430 4714 0
-4715 284 0
-4715 460 0
-284 -460 4715 0
-4702 -4703 0
-4702 -4704 0
-4702 -4705 0
-4702 -4706 0
-4702 -4707 0
-4702 -4708 0
-4702 -4709 0
-4702 -4710 0
-4702 -4711 0
-4702 -4712 0
-4702 -4713 0
-4702 -4714 0
-4702 -4715 0
-280 4702 4703 4704 4705 4706 4707 4708 4709 4710 4711 4712 4713 4714 4715 0
-4716 282 0
-4717 256 0
-4717 40 0
-256 -40 4717 0
-4718 258 0
-4718 72 0
-258 -72 4718 0
-4719 260 0
-4719 102 0
-260 -102 4719 0
-4720 262 0
-4720 132 0
-262 -132 4720 0
-4721 264 0
-4721 162 0
-264 -162 4721 0
-4722 266 0
-4722 192 0
-266 -192 4722 0
-4723 268 0
-4723 222 0
-268 -222 4723 0
-4724 270 0
-4724 252 0
-270 -252 4724 0
-4725 274 0
-4725 312 0
-274 -312 4725 0
-4726 276 0
-4726 342 0
-276 -342 4726 0
-4727 278 0
-4727 372 0
-278 -372 4727 0
-4728 280 0
-4728 402 0
-280 -402 4728 0
-4729 284 0
-4729 462 0
-284 -462 4729 0
-4716 -4717 0
-4716 -4718 0
-4716 -4719 0
-4716 -4720 0
-4716 -4721 0
-4716 -4722 0
-4716 -4723 0
-4716 -4724 0
-4716 -4725 0
-4716 -4726 0
-4716 -4727 0
-4716 -4728 0
-4716 -4729 0
-282 4716 4717 4718 4719 4720 4721 4722 4723 4724 4725 4726 4727 4728 4729 0
-4730 284 0
-4731 256 0
-4731 43 0
-256 -43 4731 0
-4732 258 0
-4732 74 0
-258 -74 4732 0
-4733 260 0
-4733 104 0
-260 -104 4733 0
-4734 262 0
-4734 134 0
-262 -134 4734 0
-4735 264 0
-4735 164 0
-264 -164 4735 0
-4736 266 0
-4736 194 0
-266 -194 4736 0
-4737 268 0
-4737 224 0
-268 -224 4737 0
-4738 270 0
-4738 254 0
-270 -254 4738 0
-4739 274 0
-4739 314 0
-274 -314 4739 0
-4740 276 0
-4740 344 0
-276 -344 4740 0
-4741 278 0
-4741 374 0
-278 -374 4741 0
-4742 280 0
-4742 404 0
-280 -404 4742 0
-4743 282 0
-4743 434 0
-282 -434 4743 0
-4730 -4731 0
-4730 -4732 0
-4730 -4733 0
-4730 -4734 0
-4730 -4735 0
-4730 -4736 0
-4730 -4737 0
-4730 -4738 0
-4730 -4739 0
-4730 -4740 0
-4730 -4741 0
-4730 -4742 0
-4730 -4743 0
-284 4730 4731 4732 4733 4734 4735 4736 4737 4738 4739 4740 4741 4742 4743 0
-4744 286 0
-4745 288 0
-4745 46 0
-288 -46 4745 0
-4746 290 0
-4746 76 0
-290 -76 4746 0
-4747 292 0
-4747 106 0
-292 -106 4747 0
-4748 294 0
-4748 136 0
-294 -136 4748 0
-4749 296 0
-4749 166 0
-296 -166 4749 0
-4750 298 0
-4750 196 0
-298 -196 4750 0
-4751 300 0
-4751 226 0
-300 -226 4751 0
-4752 302 0
-4752 256 0
-302 -256 4752 0
-4753 306 0
-4753 316 0
-306 -316 4753 0
-4754 308 0
-4754 346 0
-308 -346 4754 0
-4755 310 0
-4755 376 0
-310 -376 4755 0
-4756 312 0
-4756 406 0
-312 -406 4756 0
-4757 314 0
-4757 436 0
-314 -436 4757 0
-4744 -4745 0
-4744 -4746 0
-4744 -4747 0
-4744 -4748 0
-4744 -4749 0
-4744 -4750 0
-4744 -4751 0
-4744 -4752 0
-4744 -4753 0
-4744 -4754 0
-4744 -4755 0
-4744 -4756 0
-4744 -4757 0
-286 4744 4745 4746 4747 4748 4749 4750 4751 4752 4753 4754 4755 4756 4757 0
-4758 288 0
-4759 286 0
-4759 4 0
-286 -4 4759 0
-4760 290 0
-4760 78 0
-290 -78 4760 0
-4761 292 0
-4761 108 0
-292 -108 4761 0
-4762 294 0
-4762 138 0
-294 -138 4762 0
-4763 296 0
-4763 168 0
-296 -168 4763 0
-4764 298 0
-4764 198 0
-298 -198 4764 0
-4765 300 0
-4765 228 0
-300 -228 4765 0
-4766 302 0
-4766 258 0
-302 -258 4766 0
-4767 306 0
-4767 318 0
-306 -318 4767 0
-4768 308 0
-4768 348 0
-308 -348 4768 0
-4769 310 0
-4769 378 0
-310 -378 4769 0
-4770 312 0
-4770 408 0
-312 -408 4770 0
-4771 314 0
-4771 438 0
-314 -438 4771 0
-4758 -4759 0
-4758 -4760 0
-4758 -4761 0
-4758 -4762 0
-4758 -4763 0
-4758 -4764 0
-4758 -4765 0
-4758 -4766 0
-4758 -4767 0
-4758 -4768 0
-4758 -4769 0
-4758 -4770 0
-4758 -4771 0
-288 4758 4759 4760 4761 4762 4763 4764 4765 4766 4767 4768 4769 4770 4771 0
-4772 290 0
-4773 286 0
-4773 7 0
-286 -7 4773 0
-4774 288 0
-4774 50 0
-288 -50 4774 0
-4775 292 0
-4775 110 0
-292 -110 4775 0
-4776 294 0
-4776 140 0
-294 -140 4776 0
-4777 296 0
-4777 170 0
-296 -170 4777 0
-4778 298 0
-4778 200 0
-298 -200 4778 0
-4779 300 0
-4779 230 0
-300 -230 4779 0
-4780 302 0
-4780 260 0
-302 -260 4780 0
-4781 306 0
-4781 320 0
-306 -320 4781 0
-4782 308 0
-4782 350 0
-308 -350 4782 0
-4783 310 0
-4783 380 0
-310 -380 4783 0
-4784 312 0
-4784 410 0
-312 -410 4784 0
-4785 314 0
-4785 440 0
-314 -440 4785 0
-4772 -4773 0
-4772 -4774 0
-4772 -4775 0
-4772 -4776 0
-4772 -4777 0
-4772 -4778 0
-4772 -4779 0
-4772 -4780 0
-4772 -4781 0
-4772 -4782 0
-4772 -4783 0
-4772 -4784 0
-4772 -4785 0
-290 4772 4773 4774 4775 4776 4777 4778 4779 4780 4781 4782 4783 4784 4785 0
-4786 292 0
-4787 286 0
-4787 10 0
-286 -10 4787 0
-4788 288 0
-4788 52 0
-288 -52 4788 0
-4789 290 0
-4789 82 0
-290 -82 4789 0
-4790 294 0
-4790 142 0
-294 -142 4790 0
-4791 296 0
-4791 172 0
-296 -172 4791 0
-4792 298 0
-4792 202 0
-298 -202 4792 0
-4793 300 0
-4793 232 0
-300 -232 4793 0
-4794 302 0
-4794 262 0
-302 -262 4794 0
-4795 306 0
-4795 322 0
-306 -322 4795 0
-4796 308 0
-4796 352 0
-308 -352 4796 0
-4797 310 0
-4797 382 0
-310 -382 4797 0
-4798 312 0
-4798 412 0
-312 -412 4798 0
-4799 314 0
-4799 442 0
-314 -442 4799 0
-4786 -4787 0
-4786 -4788 0
-4786 -4789 0
-4786 -4790 0
-4786 -4791 0
-4786 -4792 0
-4786 -4793 0
-4786 -4794 0
-4786 -4795 0
-4786 -4796 0
-4786 -4797 0
-4786 -4798 0
-4786 -4799 0
-292 4786 4787 4788 4789 4790 4791 4792 4793 4794 4795 4796 4797 4798 4799 0
-4800 294 0
-4801 286 0
-4801 13 0
-286 -13 4801 0
-4802 288 0
-4802 54 0
-288 -54 4802 0
-4803 290 0
-4803 84 0
-290 -84 4803 0
-4804 292 0
-4804 114 0
-292 -114 4804 0
-4805 296 0
-4805 174 0
-296 -174 4805 0
-4806 298 0
-4806 204 0
-298 -204 4806 0
-4807 300 0
-4807 234 0
-300 -234 4807 0
-4808 302 0
-4808 264 0
-302 -264 4808 0
-4809 306 0
-4809 324 0
-306 -324 4809 0
-4810 308 0
-4810 354 0
-308 -354 4810 0
-4811 310 0
-4811 384 0
-310 -384 4811 0
-4812 312 0
-4812 414 0
-312 -414 4812 0
-4813 314 0
-4813 444 0
-314 -444 4813 0
-4800 -4801 0
-4800 -4802 0
-4800 -4803 0
-4800 -4804 0
-4800 -4805 0
-4800 -4806 0
-4800 -4807 0
-4800 -4808 0
-4800 -4809 0
-4800 -4810 0
-4800 -4811 0
-4800 -4812 0
-4800 -4813 0
-294 4800 4801 4802 4803 4804 4805 4806 4807 4808 4809 4810 4811 4812 4813 0
-4814 296 0
-4815 286 0
-4815 16 0
-286 -16 4815 0
-4816 288 0
-4816 56 0
-288 -56 4816 0
-4817 290 0
-4817 86 0
-290 -86 4817 0
-4818 292 0
-4818 116 0
-292 -116 4818 0
-4819 294 0
-4819 146 0
-294 -146 4819 0
-4820 298 0
-4820 206 0
-298 -206 4820 0
-4821 300 0
-4821 236 0
-300 -236 4821 0
-4822 302 0
-4822 266 0
-302 -266 4822 0
-4823 306 0
-4823 326 0
-306 -326 4823 0
-4824 308 0
-4824 356 0
-308 -356 4824 0
-4825 310 0
-4825 386 0
-310 -386 4825 0
-4826 312 0
-4826 416 0
-312 -416 4826 0
-4827 314 0
-4827 446 0
-314 -446 4827 0
-4814 -4815 0
-4814 -4816 0
-4814 -4817 0
-4814 -4818 0
-4814 -4819 0
-4814 -4820 0
-4814 -4821 0
-4814 -4822 0
-4814 -4823 0
-4814 -4824 0
-4814 -4825 0
-4814 -4826 0
-4814 -4827 0
-296 4814 4815 4816 4817 4818 4819 4820 4821 4822 4823 4824 4825 4826 4827 0
-4828 298 0
-4829 286 0
-4829 19 0
-286 -19 4829 0
-4830 288 0
-4830 58 0
-288 -58 4830 0
-4831 290 0
-4831 88 0
-290 -88 4831 0
-4832 292 0
-4832 118 0
-292 -118 4832 0
-4833 294 0
-4833 148 0
-294 -148 4833 0
-4834 296 0
-4834 178 0
-296 -178 4834 0
-4835 300 0
-4835 238 0
-300 -238 4835 0
-4836 302 0
-4836 268 0
-302 -268 4836 0
-4837 306 0
-4837 328 0
-306 -328 4837 0
-4838 308 0
-4838 358 0
-308 -358 4838 0
-4839 310 0
-4839 388 0
-310 -388 4839 0
-4840 312 0
-4840 418 0
-312 -418 4840 0
-4841 314 0
-4841 448 0
-314 -448 4841 0
-4828 -4829 0
-4828 -4830 0
-4828 -4831 0
-4828 -4832 0
-4828 -4833 0
-4828 -4834 0
-4828 -4835 0
-4828 -4836 0
-4828 -4837 0
-4828 -4838 0
-4828 -4839 0
-4828 -4840 0
-4828 -4841 0
-298 4828 4829 4830 4831 4832 4833 4834 4835 4836 4837 4838 4839 4840 4841 0
-4842 300 0
-4843 286 0
-4843 22 0
-286 -22 4843 0
-4844 288 0
-4844 60 0
-288 -60 4844 0
-4845 290 0
-4845 90 0
-290 -90 4845 0
-4846 292 0
-4846 120 0
-292 -120 4846 0
-4847 294 0
-4847 150 0
-294 -150 4847 0
-4848 296 0
-4848 180 0
-296 -180 4848 0
-4849 298 0
-4849 210 0
-298 -210 4849 0
-4850 302 0
-4850 270 0
-302 -270 4850 0
-4851 306 0
-4851 330 0
-306 -330 4851 0
-4852 308 0
-4852 360 0
-308 -360 4852 0
-4853 310 0
-4853 390 0
-310 -390 4853 0
-4854 312 0
-4854 420 0
-312 -420 4854 0
-4855 314 0
-4855 450 0
-314 -450 4855 0
-4842 -4843 0
-4842 -4844 0
-4842 -4845 0
-4842 -4846 0
-4842 -4847 0
-4842 -4848 0
-4842 -4849 0
-4842 -4850 0
-4842 -4851 0
-4842 -4852 0
-4842 -4853 0
-4842 -4854 0
-4842 -4855 0
-300 4842 4843 4844 4845 4846 4847 4848 4849 4850 4851 4852 4853 4854 4855 0
-4856 302 0
-4857 286 0
-4857 25 0
-286 -25 4857 0
-4858 288 0
-4858 62 0
-288 -62 4858 0
-4859 290 0
-4859 92 0
-290 -92 4859 0
-4860 292 0
-4860 122 0
-292 -122 4860 0
-4861 294 0
-4861 152 0
-294 -152 4861 0
-4862 296 0
-4862 182 0
-296 -182 4862 0
-4863 298 0
-4863 212 0
-298 -212 4863 0
-4864 300 0
-4864 242 0
-300 -242 4864 0
-4865 306 0
-4865 332 0
-306 -332 4865 0
-4866 308 0
-4866 362 0
-308 -362 4866 0
-4867 310 0
-4867 392 0
-310 -392 4867 0
-4868 312 0
-4868 422 0
-312 -422 4868 0
-4869 314 0
-4869 452 0
-314 -452 4869 0
-4856 -4857 0
-4856 -4858 0
-4856 -4859 0
-4856 -4860 0
-4856 -4861 0
-4856 -4862 0
-4856 -4863 0
-4856 -4864 0
-4856 -4865 0
-4856 -4866 0
-4856 -4867 0
-4856 -4868 0
-4856 -4869 0
-302 4856 4857 4858 4859 4860 4861 4862 4863 4864 4865 4866 4867 4868 4869 0
-4870 0
-4871 306 0
-4872 286 0
-4872 31 0
-286 -31 4872 0
-4873 288 0
-4873 66 0
-288 -66 4873 0
-4874 290 0
-4874 96 0
-290 -96 4874 0
-4875 292 0
-4875 126 0
-292 -126 4875 0
-4876 294 0
-4876 156 0
-294 -156 4876 0
-4877 296 0
-4877 186 0
-296 -186 4877 0
-4878 298 0
-4878 216 0
-298 -216 4878 0
-4879 300 0
-4879 246 0
-300 -246 4879 0
-4880 302 0
-4880 276 0
-302 -276 4880 0
-4881 308 0
-4881 366 0
-308 -366 4881 0
-4882 310 0
-4882 396 0
-310 -396 4882 0
-4883 312 0
-4883 426 0
-312 -426 4883 0
-4884 314 0
-4884 456 0
-314 -456 4884 0
-4871 -4872 0
-4871 -4873 0
-4871 -4874 0
-4871 -4875 0
-4871 -4876 0
-4871 -4877 0
-4871 -4878 0
-4871 -4879 0
-4871 -4880 0
-4871 -4881 0
-4871 -4882 0
-4871 -4883 0
-4871 -4884 0
-306 4871 4872 4873 4874 4875 4876 4877 4878 4879 4880 4881 4882 4883 4884 0
-4885 308 0
-4886 286 0
-4886 34 0
-286 -34 4886 0
-4887 288 0
-4887 68 0
-288 -68 4887 0
-4888 290 0
-4888 98 0
-290 -98 4888 0
-4889 292 0
-4889 128 0
-292 -128 4889 0
-4890 294 0
-4890 158 0
-294 -158 4890 0
-4891 296 0
-4891 188 0
-296 -188 4891 0
-4892 298 0
-4892 218 0
-298 -218 4892 0
-4893 300 0
-4893 248 0
-300 -248 4893 0
-4894 302 0
-4894 278 0
-302 -278 4894 0
-4895 306 0
-4895 338 0
-306 -338 4895 0
-4896 310 0
-4896 398 0
-310 -398 4896 0
-4897 312 0
-4897 428 0
-312 -428 4897 0
-4898 314 0
-4898 458 0
-314 -458 4898 0
-4885 -4886 0
-4885 -4887 0
-4885 -4888 0
-4885 -4889 0
-4885 -4890 0
-4885 -4891 0
-4885 -4892 0
-4885 -4893 0
-4885 -4894 0
-4885 -4895 0
-4885 -4896 0
-4885 -4897 0
-4885 -4898 0
-308 4885 4886 4887 4888 4889 4890 4891 4892 4893 4894 4895 4896 4897 4898 0
-4899 310 0
-4900 286 0
-4900 37 0
-286 -37 4900 0
-4901 288 0
-4901 70 0
-288 -70 4901 0
-4902 290 0
-4902 100 0
-290 -100 4902 0
-4903 292 0
-4903 130 0
-292 -130 4903 0
-4904 294 0
-4904 160 0
-294 -160 4904 0
-4905 296 0
-4905 190 0
-296 -190 4905 0
-4906 298 0
-4906 220 0
-298 -220 4906 0
-4907 300 0
-4907 250 0
-300 -250 4907 0
-4908 302 0
-4908 280 0
-302 -280 4908 0
-4909 306 0
-4909 340 0
-306 -340 4909 0
-4910 308 0
-4910 370 0
-308 -370 4910 0
-4911 312 0
-4911 430 0
-312 -430 4911 0
-4912 314 0
-4912 460 0
-314 -460 4912 0
-4899 -4900 0
-4899 -4901 0
-4899 -4902 0
-4899 -4903 0
-4899 -4904 0
-4899 -4905 0
-4899 -4906 0
-4899 -4907 0
-4899 -4908 0
-4899 -4909 0
-4899 -4910 0
-4899 -4911 0
-4899 -4912 0
-310 4899 4900 4901 4902 4903 4904 4905 4906 4907 4908 4909 4910 4911 4912 0
-4913 312 0
-4914 286 0
-4914 40 0
-286 -40 4914 0
-4915 288 0
-4915 72 0
-288 -72 4915 0
-4916 290 0
-4916 102 0
-290 -102 4916 0
-4917 292 0
-4917 132 0
-292 -132 4917 0
-4918 294 0
-4918 162 0
-294 -162 4918 0
-4919 296 0
-4919 192 0
-296 -192 4919 0
-4920 298 0
-4920 222 0
-298 -222 4920 0
-4921 300 0
-4921 252 0
-300 -252 4921 0
-4922 302 0
-4922 282 0
-302 -282 4922 0
-4923 306 0
-4923 342 0
-306 -342 4923 0
-4924 308 0
-4924 372 0
-308 -372 4924 0
-4925 310 0
-4925 402 0
-310 -402 4925 0
-4926 314 0
-4926 462 0
-314 -462 4926 0
-4913 -4914 0
-4913 -4915 0
-4913 -4916 0
-4913 -4917 0
-4913 -4918 0
-4913 -4919 0
-4913 -4920 0
-4913 -4921 0
-4913 -4922 0
-4913 -4923 0
-4913 -4924 0
-4913 -4925 0
-4913 -4926 0
-312 4913 4914 4915 4916 4917 4918 4919 4920 4921 4922 4923 4924 4925 4926 0
-4927 314 0
-4928 286 0
-4928 43 0
-286 -43 4928 0
-4929 288 0
-4929 74 0
-288 -74 4929 0
-4930 290 0
-4930 104 0
-290 -104 4930 0
-4931 292 0
-4931 134 0
-292 -134 4931 0
-4932 294 0
-4932 164 0
-294 -164 4932 0
-4933 296 0
-4933 194 0
-296 -194 4933 0
-4934 298 0
-4934 224 0
-298 -224 4934 0
-4935 300 0
-4935 254 0
-300 -254 4935 0
-4936 302 0
-4936 284 0
-302 -284 4936 0
-4937 306 0
-4937 344 0
-306 -344 4937 0
-4938 308 0
-4938 374 0
-308 -374 4938 0
-4939 310 0
-4939 404 0
-310 -404 4939 0
-4940 312 0
-4940 434 0
-312 -434 4940 0
-4927 -4928 0
-4927 -4929 0
-4927 -4930 0
-4927 -4931 0
-4927 -4932 0
-4927 -4933 0
-4927 -4934 0
-4927 -4935 0
-4927 -4936 0
-4927 -4937 0
-4927 -4938 0
-4927 -4939 0
-4927 -4940 0
-314 4927 4928 4929 4930 4931 4932 4933 4934 4935 4936 4937 4938 4939 4940 0
-4941 316 0
-4942 318 0
-4942 46 0
-318 -46 4942 0
-4943 320 0
-4943 76 0
-320 -76 4943 0
-4944 322 0
-4944 106 0
-322 -106 4944 0
-4945 324 0
-4945 136 0
-324 -136 4945 0
-4946 326 0
-4946 166 0
-326 -166 4946 0
-4947 328 0
-4947 196 0
-328 -196 4947 0
-4948 330 0
-4948 226 0
-330 -226 4948 0
-4949 332 0
-4949 256 0
-332 -256 4949 0
-4950 334 0
-4950 286 0
-334 -286 4950 0
-4951 338 0
-4951 346 0
-338 -346 4951 0
-4952 340 0
-4952 376 0
-340 -376 4952 0
-4953 342 0
-4953 406 0
-342 -406 4953 0
-4954 344 0
-4954 436 0
-344 -436 4954 0
-4941 -4942 0
-4941 -4943 0
-4941 -4944 0
-4941 -4945 0
-4941 -4946 0
-4941 -4947 0
-4941 -4948 0
-4941 -4949 0
-4941 -4950 0
-4941 -4951 0
-4941 -4952 0
-4941 -4953 0
-4941 -4954 0
-316 4941 4942 4943 4944 4945 4946 4947 4948 4949 4950 4951 4952 4953 4954 0
-4955 318 0
-4956 316 0
-4956 4 0
-316 -4 4956 0
-4957 320 0
-4957 78 0
-320 -78 4957 0
-4958 322 0
-4958 108 0
-322 -108 4958 0
-4959 324 0
-4959 138 0
-324 -138 4959 0
-4960 326 0
-4960 168 0
-326 -168 4960 0
-4961 328 0
-4961 198 0
-328 -198 4961 0
-4962 330 0
-4962 228 0
-330 -228 4962 0
-4963 332 0
-4963 258 0
-332 -258 4963 0
-4964 334 0
-4964 288 0
-334 -288 4964 0
-4965 338 0
-4965 348 0
-338 -348 4965 0
-4966 340 0
-4966 378 0
-340 -378 4966 0
-4967 342 0
-4967 408 0
-342 -408 4967 0
-4968 344 0
-4968 438 0
-344 -438 4968 0
-4955 -4956 0
-4955 -4957 0
-4955 -4958 0
-4955 -4959 0
-4955 -4960 0
-4955 -4961 0
-4955 -4962 0
-4955 -4963 0
-4955 -4964 0
-4955 -4965 0
-4955 -4966 0
-4955 -4967 0
-4955 -4968 0
-318 4955 4956 4957 4958 4959 4960 4961 4962 4963 4964 4965 4966 4967 4968 0
-4969 320 0
-4970 316 0
-4970 7 0
-316 -7 4970 0
-4971 318 0
-4971 50 0
-318 -50 4971 0
-4972 322 0
-4972 110 0
-322 -110 4972 0
-4973 324 0
-4973 140 0
-324 -140 4973 0
-4974 326 0
-4974 170 0
-326 -170 4974 0
-4975 328 0
-4975 200 0
-328 -200 4975 0
-4976 330 0
-4976 230 0
-330 -230 4976 0
-4977 332 0
-4977 260 0
-332 -260 4977 0
-4978 334 0
-4978 290 0
-334 -290 4978 0
-4979 338 0
-4979 350 0
-338 -350 4979 0
-4980 340 0
-4980 380 0
-340 -380 4980 0
-4981 342 0
-4981 410 0
-342 -410 4981 0
-4982 344 0
-4982 440 0
-344 -440 4982 0
-4969 -4970 0
-4969 -4971 0
-4969 -4972 0
-4969 -4973 0
-4969 -4974 0
-4969 -4975 0
-4969 -4976 0
-4969 -4977 0
-4969 -4978 0
-4969 -4979 0
-4969 -4980 0
-4969 -4981 0
-4969 -4982 0
-320 4969 4970 4971 4972 4973 4974 4975 4976 4977 4978 4979 4980 4981 4982 0
-4983 322 0
-4984 316 0
-4984 10 0
-316 -10 4984 0
-4985 318 0
-4985 52 0
-318 -52 4985 0
-4986 320 0
-4986 82 0
-320 -82 4986 0
-4987 324 0
-4987 142 0
-324 -142 4987 0
-4988 326 0
-4988 172 0
-326 -172 4988 0
-4989 328 0
-4989 202 0
-328 -202 4989 0
-4990 330 0
-4990 232 0
-330 -232 4990 0
-4991 332 0
-4991 262 0
-332 -262 4991 0
-4992 334 0
-4992 292 0
-334 -292 4992 0
-4993 338 0
-4993 352 0
-338 -352 4993 0
-4994 340 0
-4994 382 0
-340 -382 4994 0
-4995 342 0
-4995 412 0
-342 -412 4995 0
-4996 344 0
-4996 442 0
-344 -442 4996 0
-4983 -4984 0
-4983 -4985 0
-4983 -4986 0
-4983 -4987 0
-4983 -4988 0
-4983 -4989 0
-4983 -4990 0
-4983 -4991 0
-4983 -4992 0
-4983 -4993 0
-4983 -4994 0
-4983 -4995 0
-4983 -4996 0
-322 4983 4984 4985 4986 4987 4988 4989 4990 4991 4992 4993 4994 4995 4996 0
-4997 324 0
-4998 316 0
-4998 13 0
-316 -13 4998 0
-4999 318 0
-4999 54 0
-318 -54 4999 0
-5000 320 0
-5000 84 0
-320 -84 5000 0
-5001 322 0
-5001 114 0
-322 -114 5001 0
-5002 326 0
-5002 174 0
-326 -174 5002 0
-5003 328 0
-5003 204 0
-328 -204 5003 0
-5004 330 0
-5004 234 0
-330 -234 5004 0
-5005 332 0
-5005 264 0
-332 -264 5005 0
-5006 334 0
-5006 294 0
-334 -294 5006 0
-5007 338 0
-5007 354 0
-338 -354 5007 0
-5008 340 0
-5008 384 0
-340 -384 5008 0
-5009 342 0
-5009 414 0
-342 -414 5009 0
-5010 344 0
-5010 444 0
-344 -444 5010 0
-4997 -4998 0
-4997 -4999 0
-4997 -5000 0
-4997 -5001 0
-4997 -5002 0
-4997 -5003 0
-4997 -5004 0
-4997 -5005 0
-4997 -5006 0
-4997 -5007 0
-4997 -5008 0
-4997 -5009 0
-4997 -5010 0
-324 4997 4998 4999 5000 5001 5002 5003 5004 5005 5006 5007 5008 5009 5010 0
-5011 326 0
-5012 316 0
-5012 16 0
-316 -16 5012 0
-5013 318 0
-5013 56 0
-318 -56 5013 0
-5014 320 0
-5014 86 0
-320 -86 5014 0
-5015 322 0
-5015 116 0
-322 -116 5015 0
-5016 324 0
-5016 146 0
-324 -146 5016 0
-5017 328 0
-5017 206 0
-328 -206 5017 0
-5018 330 0
-5018 236 0
-330 -236 5018 0
-5019 332 0
-5019 266 0
-332 -266 5019 0
-5020 334 0
-5020 296 0
-334 -296 5020 0
-5021 338 0
-5021 356 0
-338 -356 5021 0
-5022 340 0
-5022 386 0
-340 -386 5022 0
-5023 342 0
-5023 416 0
-342 -416 5023 0
-5024 344 0
-5024 446 0
-344 -446 5024 0
-5011 -5012 0
-5011 -5013 0
-5011 -5014 0
-5011 -5015 0
-5011 -5016 0
-5011 -5017 0
-5011 -5018 0
-5011 -5019 0
-5011 -5020 0
-5011 -5021 0
-5011 -5022 0
-5011 -5023 0
-5011 -5024 0
-326 5011 5012 5013 5014 5015 5016 5017 5018 5019 5020 5021 5022 5023 5024 0
-5025 328 0
-5026 316 0
-5026 19 0
-316 -19 5026 0
-5027 318 0
-5027 58 0
-318 -58 5027 0
-5028 320 0
-5028 88 0
-320 -88 5028 0
-5029 322 0
-5029 118 0
-322 -118 5029 0
-5030 324 0
-5030 148 0
-324 -148 5030 0
-5031 326 0
-5031 178 0
-326 -178 5031 0
-5032 330 0
-5032 238 0
-330 -238 5032 0
-5033 332 0
-5033 268 0
-332 -268 5033 0
-5034 334 0
-5034 298 0
-334 -298 5034 0
-5035 338 0
-5035 358 0
-338 -358 5035 0
-5036 340 0
-5036 388 0
-340 -388 5036 0
-5037 342 0
-5037 418 0
-342 -418 5037 0
-5038 344 0
-5038 448 0
-344 -448 5038 0
-5025 -5026 0
-5025 -5027 0
-5025 -5028 0
-5025 -5029 0
-5025 -5030 0
-5025 -5031 0
-5025 -5032 0
-5025 -5033 0
-5025 -5034 0
-5025 -5035 0
-5025 -5036 0
-5025 -5037 0
-5025 -5038 0
-328 5025 5026 5027 5028 5029 5030 5031 5032 5033 5034 5035 5036 5037 5038 0
-5039 330 0
-5040 316 0
-5040 22 0
-316 -22 5040 0
-5041 318 0
-5041 60 0
-318 -60 5041 0
-5042 320 0
-5042 90 0
-320 -90 5042 0
-5043 322 0
-5043 120 0
-322 -120 5043 0
-5044 324 0
-5044 150 0
-324 -150 5044 0
-5045 326 0
-5045 180 0
-326 -180 5045 0
-5046 328 0
-5046 210 0
-328 -210 5046 0
-5047 332 0
-5047 270 0
-332 -270 5047 0
-5048 334 0
-5048 300 0
-334 -300 5048 0
-5049 338 0
-5049 360 0
-338 -360 5049 0
-5050 340 0
-5050 390 0
-340 -390 5050 0
-5051 342 0
-5051 420 0
-342 -420 5051 0
-5052 344 0
-5052 450 0
-344 -450 5052 0
-5039 -5040 0
-5039 -5041 0
-5039 -5042 0
-5039 -5043 0
-5039 -5044 0
-5039 -5045 0
-5039 -5046 0
-5039 -5047 0
-5039 -5048 0
-5039 -5049 0
-5039 -5050 0
-5039 -5051 0
-5039 -5052 0
-330 5039 5040 5041 5042 5043 5044 5045 5046 5047 5048 5049 5050 5051 5052 0
-5053 332 0
-5054 316 0
-5054 25 0
-316 -25 5054 0
-5055 318 0
-5055 62 0
-318 -62 5055 0
-5056 320 0
-5056 92 0
-320 -92 5056 0
-5057 322 0
-5057 122 0
-322 -122 5057 0
-5058 324 0
-5058 152 0
-324 -152 5058 0
-5059 326 0
-5059 182 0
-326 -182 5059 0
-5060 328 0
-5060 212 0
-328 -212 5060 0
-5061 330 0
-5061 242 0
-330 -242 5061 0
-5062 334 0
-5062 302 0
-334 -302 5062 0
-5063 338 0
-5063 362 0
-338 -362 5063 0
-5064 340 0
-5064 392 0
-340 -392 5064 0
-5065 342 0
-5065 422 0
-342 -422 5065 0
-5066 344 0
-5066 452 0
-344 -452 5066 0
-5053 -5054 0
-5053 -5055 0
-5053 -5056 0
-5053 -5057 0
-5053 -5058 0
-5053 -5059 0
-5053 -5060 0
-5053 -5061 0
-5053 -5062 0
-5053 -5063 0
-5053 -5064 0
-5053 -5065 0
-5053 -5066 0
-332 5053 5054 5055 5056 5057 5058 5059 5060 5061 5062 5063 5064 5065 5066 0
-5067 334 0
-5068 316 0
-5068 28 0
-316 -28 5068 0
-5069 318 0
-5069 64 0
-318 -64 5069 0
-5070 320 0
-5070 94 0
-320 -94 5070 0
-5071 322 0
-5071 124 0
-322 -124 5071 0
-5072 324 0
-5072 154 0
-324 -154 5072 0
-5073 326 0
-5073 184 0
-326 -184 5073 0
-5074 328 0
-5074 214 0
-328 -214 5074 0
-5075 330 0
-5075 244 0
-330 -244 5075 0
-5076 332 0
-5076 274 0
-332 -274 5076 0
-5077 338 0
-5077 364 0
-338 -364 5077 0
-5078 340 0
-5078 394 0
-340 -394 5078 0
-5079 342 0
-5079 424 0
-342 -424 5079 0
-5080 344 0
-5080 454 0
-344 -454 5080 0
-5067 -5068 0
-5067 -5069 0
-5067 -5070 0
-5067 -5071 0
-5067 -5072 0
-5067 -5073 0
-5067 -5074 0
-5067 -5075 0
-5067 -5076 0
-5067 -5077 0
-5067 -5078 0
-5067 -5079 0
-5067 -5080 0
-334 5067 5068 5069 5070 5071 5072 5073 5074 5075 5076 5077 5078 5079 5080 0
-5081 0
-5082 338 0
-5083 316 0
-5083 34 0
-316 -34 5083 0
-5084 318 0
-5084 68 0
-318 -68 5084 0
-5085 320 0
-5085 98 0
-320 -98 5085 0
-5086 322 0
-5086 128 0
-322 -128 5086 0
-5087 324 0
-5087 158 0
-324 -158 5087 0
-5088 326 0
-5088 188 0
-326 -188 5088 0
-5089 328 0
-5089 218 0
-328 -218 5089 0
-5090 330 0
-5090 248 0
-330 -248 5090 0
-5091 332 0
-5091 278 0
-332 -278 5091 0
-5092 334 0
-5092 308 0
-334 -308 5092 0
-5093 340 0
-5093 398 0
-340 -398 5093 0
-5094 342 0
-5094 428 0
-342 -428 5094 0
-5095 344 0
-5095 458 0
-344 -458 5095 0
-5082 -5083 0
-5082 -5084 0
-5082 -5085 0
-5082 -5086 0
-5082 -5087 0
-5082 -5088 0
-5082 -5089 0
-5082 -5090 0
-5082 -5091 0
-5082 -5092 0
-5082 -5093 0
-5082 -5094 0
-5082 -5095 0
-338 5082 5083 5084 5085 5086 5087 5088 5089 5090 5091 5092 5093 5094 5095 0
-5096 340 0
-5097 316 0
-5097 37 0
-316 -37 5097 0
-5098 318 0
-5098 70 0
-318 -70 5098 0
-5099 320 0
-5099 100 0
-320 -100 5099 0
-5100 322 0
-5100 130 0
-322 -130 5100 0
-5101 324 0
-5101 160 0
-324 -160 5101 0
-5102 326 0
-5102 190 0
-326 -190 5102 0
-5103 328 0
-5103 220 0
-328 -220 5103 0
-5104 330 0
-5104 250 0
-330 -250 5104 0
-5105 332 0
-5105 280 0
-332 -280 5105 0
-5106 334 0
-5106 310 0
-334 -310 5106 0
-5107 338 0
-5107 370 0
-338 -370 5107 0
-5108 342 0
-5108 430 0
-342 -430 5108 0
-5109 344 0
-5109 460 0
-344 -460 5109 0
-5096 -5097 0
-5096 -5098 0
-5096 -5099 0
-5096 -5100 0
-5096 -5101 0
-5096 -5102 0
-5096 -5103 0
-5096 -5104 0
-5096 -5105 0
-5096 -5106 0
-5096 -5107 0
-5096 -5108 0
-5096 -5109 0
-340 5096 5097 5098 5099 5100 5101 5102 5103 5104 5105 5106 5107 5108 5109 0
-5110 342 0
-5111 316 0
-5111 40 0
-316 -40 5111 0
-5112 318 0
-5112 72 0
-318 -72 5112 0
-5113 320 0
-5113 102 0
-320 -102 5113 0
-5114 322 0
-5114 132 0
-322 -132 5114 0
-5115 324 0
-5115 162 0
-324 -162 5115 0
-5116 326 0
-5116 192 0
-326 -192 5116 0
-5117 328 0
-5117 222 0
-328 -222 5117 0
-5118 330 0
-5118 252 0
-330 -252 5118 0
-5119 332 0
-5119 282 0
-332 -282 5119 0
-5120 334 0
-5120 312 0
-334 -312 5120 0
-5121 338 0
-5121 372 0
-338 -372 5121 0
-5122 340 0
-5122 402 0
-340 -402 5122 0
-5123 344 0
-5123 462 0
-344 -462 5123 0
-5110 -5111 0
-5110 -5112 0
-5110 -5113 0
-5110 -5114 0
-5110 -5115 0
-5110 -5116 0
-5110 -5117 0
-5110 -5118 0
-5110 -5119 0
-5110 -5120 0
-5110 -5121 0
-5110 -5122 0
-5110 -5123 0
-342 5110 5111 5112 5113 5114 5115 5116 5117 5118 5119 5120 5121 5122 5123 0
-5124 344 0
-5125 316 0
-5125 43 0
-316 -43 5125 0
-5126 318 0
-5126 74 0
-318 -74 5126 0
-5127 320 0
-5127 104 0
-320 -104 5127 0
-5128 322 0
-5128 134 0
-322 -134 5128 0
-5129 324 0
-5129 164 0
-324 -164 5129 0
-5130 326 0
-5130 194 0
-326 -194 5130 0
-5131 328 0
-5131 224 0
-328 -224 5131 0
-5132 330 0
-5132 254 0
-330 -254 5132 0
-5133 332 0
-5133 284 0
-332 -284 5133 0
-5134 334 0
-5134 314 0
-334 -314 5134 0
-5135 338 0
-5135 374 0
-338 -374 5135 0
-5136 340 0
-5136 404 0
-340 -404 5136 0
-5137 342 0
-5137 434 0
-342 -434 5137 0
-5124 -5125 0
-5124 -5126 0
-5124 -5127 0
-5124 -5128 0
-5124 -5129 0
-5124 -5130 0
-5124 -5131 0
-5124 -5132 0
-5124 -5133 0
-5124 -5134 0
-5124 -5135 0
-5124 -5136 0
-5124 -5137 0
-344 5124 5125 5126 5127 5128 5129 5130 5131 5132 5133 5134 5135 5136 5137 0
-5138 346 0
-5139 348 0
-5139 46 0
-348 -46 5139 0
-5140 350 0
-5140 76 0
-350 -76 5140 0
-5141 352 0
-5141 106 0
-352 -106 5141 0
-5142 354 0
-5142 136 0
-354 -136 5142 0
-5143 356 0
-5143 166 0
-356 -166 5143 0
-5144 358 0
-5144 196 0
-358 -196 5144 0
-5145 360 0
-5145 226 0
-360 -226 5145 0
-5146 362 0
-5146 256 0
-362 -256 5146 0
-5147 364 0
-5147 286 0
-364 -286 5147 0
-5148 366 0
-5148 316 0
-366 -316 5148 0
-5149 370 0
-5149 376 0
-370 -376 5149 0
-5150 372 0
-5150 406 0
-372 -406 5150 0
-5151 374 0
-5151 436 0
-374 -436 5151 0
-5138 -5139 0
-5138 -5140 0
-5138 -5141 0
-5138 -5142 0
-5138 -5143 0
-5138 -5144 0
-5138 -5145 0
-5138 -5146 0
-5138 -5147 0
-5138 -5148 0
-5138 -5149 0
-5138 -5150 0
-5138 -5151 0
-346 5138 5139 5140 5141 5142 5143 5144 5145 5146 5147 5148 5149 5150 5151 0
-5152 348 0
-5153 346 0
-5153 4 0
-346 -4 5153 0
-5154 350 0
-5154 78 0
-350 -78 5154 0
-5155 352 0
-5155 108 0
-352 -108 5155 0
-5156 354 0
-5156 138 0
-354 -138 5156 0
-5157 356 0
-5157 168 0
-356 -168 5157 0
-5158 358 0
-5158 198 0
-358 -198 5158 0
-5159 360 0
-5159 228 0
-360 -228 5159 0
-5160 362 0
-5160 258 0
-362 -258 5160 0
-5161 364 0
-5161 288 0
-364 -288 5161 0
-5162 366 0
-5162 318 0
-366 -318 5162 0
-5163 370 0
-5163 378 0
-370 -378 5163 0
-5164 372 0
-5164 408 0
-372 -408 5164 0
-5165 374 0
-5165 438 0
-374 -438 5165 0
-5152 -5153 0
-5152 -5154 0
-5152 -5155 0
-5152 -5156 0
-5152 -5157 0
-5152 -5158 0
-5152 -5159 0
-5152 -5160 0
-5152 -5161 0
-5152 -5162 0
-5152 -5163 0
-5152 -5164 0
-5152 -5165 0
-348 5152 5153 5154 5155 5156 5157 5158 5159 5160 5161 5162 5163 5164 5165 0
-5166 350 0
-5167 346 0
-5167 7 0
-346 -7 5167 0
-5168 348 0
-5168 50 0
-348 -50 5168 0
-5169 352 0
-5169 110 0
-352 -110 5169 0
-5170 354 0
-5170 140 0
-354 -140 5170 0
-5171 356 0
-5171 170 0
-356 -170 5171 0
-5172 358 0
-5172 200 0
-358 -200 5172 0
-5173 360 0
-5173 230 0
-360 -230 5173 0
-5174 362 0
-5174 260 0
-362 -260 5174 0
-5175 364 0
-5175 290 0
-364 -290 5175 0
-5176 366 0
-5176 320 0
-366 -320 5176 0
-5177 370 0
-5177 380 0
-370 -380 5177 0
-5178 372 0
-5178 410 0
-372 -410 5178 0
-5179 374 0
-5179 440 0
-374 -440 5179 0
-5166 -5167 0
-5166 -5168 0
-5166 -5169 0
-5166 -5170 0
-5166 -5171 0
-5166 -5172 0
-5166 -5173 0
-5166 -5174 0
-5166 -5175 0
-5166 -5176 0
-5166 -5177 0
-5166 -5178 0
-5166 -5179 0
-350 5166 5167 5168 5169 5170 5171 5172 5173 5174 5175 5176 5177 5178 5179 0
-5180 352 0
-5181 346 0
-5181 10 0
-346 -10 5181 0
-5182 348 0
-5182 52 0
-348 -52 5182 0
-5183 350 0
-5183 82 0
-350 -82 5183 0
-5184 354 0
-5184 142 0
-354 -142 5184 0
-5185 356 0
-5185 172 0
-356 -172 5185 0
-5186 358 0
-5186 202 0
-358 -202 5186 0
-5187 360 0
-5187 232 0
-360 -232 5187 0
-5188 362 0
-5188 262 0
-362 -262 5188 0
-5189 364 0
-5189 292 0
-364 -292 5189 0
-5190 366 0
-5190 322 0
-366 -322 5190 0
-5191 370 0
-5191 382 0
-370 -382 5191 0
-5192 372 0
-5192 412 0
-372 -412 5192 0
-5193 374 0
-5193 442 0
-374 -442 5193 0
-5180 -5181 0
-5180 -5182 0
-5180 -5183 0
-5180 -5184 0
-5180 -5185 0
-5180 -5186 0
-5180 -5187 0
-5180 -5188 0
-5180 -5189 0
-5180 -5190 0
-5180 -5191 0
-5180 -5192 0
-5180 -5193 0
-352 5180 5181 5182 5183 5184 5185 5186 5187 5188 5189 5190 5191 5192 5193 0
-5194 354 0
-5195 346 0
-5195 13 0
-346 -13 5195 0
-5196 348 0
-5196 54 0
-348 -54 5196 0
-5197 350 0
-5197 84 0
-350 -84 5197 0
-5198 352 0
-5198 114 0
-352 -114 5198 0
-5199 356 0
-5199 174 0
-356 -174 5199 0
-5200 358 0
-5200 204 0
-358 -204 5200 0
-5201 360 0
-5201 234 0
-360 -234 5201 0
-5202 362 0
-5202 264 0
-362 -264 5202 0
-5203 364 0
-5203 294 0
-364 -294 5203 0
-5204 366 0
-5204 324 0
-366 -324 5204 0
-5205 370 0
-5205 384 0
-370 -384 5205 0
-5206 372 0
-5206 414 0
-372 -414 5206 0
-5207 374 0
-5207 444 0
-374 -444 5207 0
-5194 -5195 0
-5194 -5196 0
-5194 -5197 0
-5194 -5198 0
-5194 -5199 0
-5194 -5200 0
-5194 -5201 0
-5194 -5202 0
-5194 -5203 0
-5194 -5204 0
-5194 -5205 0
-5194 -5206 0
-5194 -5207 0
-354 5194 5195 5196 5197 5198 5199 5200 5201 5202 5203 5204 5205 5206 5207 0
-5208 356 0
-5209 346 0
-5209 16 0
-346 -16 5209 0
-5210 348 0
-5210 56 0
-348 -56 5210 0
-5211 350 0
-5211 86 0
-350 -86 5211 0
-5212 352 0
-5212 116 0
-352 -116 5212 0
-5213 354 0
-5213 146 0
-354 -146 5213 0
-5214 358 0
-5214 206 0
-358 -206 5214 0
-5215 360 0
-5215 236 0
-360 -236 5215 0
-5216 362 0
-5216 266 0
-362 -266 5216 0
-5217 364 0
-5217 296 0
-364 -296 5217 0
-5218 366 0
-5218 326 0
-366 -326 5218 0
-5219 370 0
-5219 386 0
-370 -386 5219 0
-5220 372 0
-5220 416 0
-372 -416 5220 0
-5221 374 0
-5221 446 0
-374 -446 5221 0
-5208 -5209 0
-5208 -5210 0
-5208 -5211 0
-5208 -5212 0
-5208 -5213 0
-5208 -5214 0
-5208 -5215 0
-5208 -5216 0
-5208 -5217 0
-5208 -5218 0
-5208 -5219 0
-5208 -5220 0
-5208 -5221 0
-356 5208 5209 5210 5211 5212 5213 5214 5215 5216 5217 5218 5219 5220 5221 0
-5222 358 0
-5223 346 0
-5223 19 0
-346 -19 5223 0
-5224 348 0
-5224 58 0
-348 -58 5224 0
-5225 350 0
-5225 88 0
-350 -88 5225 0
-5226 352 0
-5226 118 0
-352 -118 5226 0
-5227 354 0
-5227 148 0
-354 -148 5227 0
-5228 356 0
-5228 178 0
-356 -178 5228 0
-5229 360 0
-5229 238 0
-360 -238 5229 0
-5230 362 0
-5230 268 0
-362 -268 5230 0
-5231 364 0
-5231 298 0
-364 -298 5231 0
-5232 366 0
-5232 328 0
-366 -328 5232 0
-5233 370 0
-5233 388 0
-370 -388 5233 0
-5234 372 0
-5234 418 0
-372 -418 5234 0
-5235 374 0
-5235 448 0
-374 -448 5235 0
-5222 -5223 0
-5222 -5224 0
-5222 -5225 0
-5222 -5226 0
-5222 -5227 0
-5222 -5228 0
-5222 -5229 0
-5222 -5230 0
-5222 -5231 0
-5222 -5232 0
-5222 -5233 0
-5222 -5234 0
-5222 -5235 0
-358 5222 5223 5224 5225 5226 5227 5228 5229 5230 5231 5232 5233 5234 5235 0
-5236 360 0
-5237 346 0
-5237 22 0
-346 -22 5237 0
-5238 348 0
-5238 60 0
-348 -60 5238 0
-5239 350 0
-5239 90 0
-350 -90 5239 0
-5240 352 0
-5240 120 0
-352 -120 5240 0
-5241 354 0
-5241 150 0
-354 -150 5241 0
-5242 356 0
-5242 180 0
-356 -180 5242 0
-5243 358 0
-5243 210 0
-358 -210 5243 0
-5244 362 0
-5244 270 0
-362 -270 5244 0
-5245 364 0
-5245 300 0
-364 -300 5245 0
-5246 366 0
-5246 330 0
-366 -330 5246 0
-5247 370 0
-5247 390 0
-370 -390 5247 0
-5248 372 0
-5248 420 0
-372 -420 5248 0
-5249 374 0
-5249 450 0
-374 -450 5249 0
-5236 -5237 0
-5236 -5238 0
-5236 -5239 0
-5236 -5240 0
-5236 -5241 0
-5236 -5242 0
-5236 -5243 0
-5236 -5244 0
-5236 -5245 0
-5236 -5246 0
-5236 -5247 0
-5236 -5248 0
-5236 -5249 0
-360 5236 5237 5238 5239 5240 5241 5242 5243 5244 5245 5246 5247 5248 5249 0
-5250 362 0
-5251 346 0
-5251 25 0
-346 -25 5251 0
-5252 348 0
-5252 62 0
-348 -62 5252 0
-5253 350 0
-5253 92 0
-350 -92 5253 0
-5254 352 0
-5254 122 0
-352 -122 5254 0
-5255 354 0
-5255 152 0
-354 -152 5255 0
-5256 356 0
-5256 182 0
-356 -182 5256 0
-5257 358 0
-5257 212 0
-358 -212 5257 0
-5258 360 0
-5258 242 0
-360 -242 5258 0
-5259 364 0
-5259 302 0
-364 -302 5259 0
-5260 366 0
-5260 332 0
-366 -332 5260 0
-5261 370 0
-5261 392 0
-370 -392 5261 0
-5262 372 0
-5262 422 0
-372 -422 5262 0
-5263 374 0
-5263 452 0
-374 -452 5263 0
-5250 -5251 0
-5250 -5252 0
-5250 -5253 0
-5250 -5254 0
-5250 -5255 0
-5250 -5256 0
-5250 -5257 0
-5250 -5258 0
-5250 -5259 0
-5250 -5260 0
-5250 -5261 0
-5250 -5262 0
-5250 -5263 0
-362 5250 5251 5252 5253 5254 5255 5256 5257 5258 5259 5260 5261 5262 5263 0
-5264 364 0
-5265 346 0
-5265 28 0
-346 -28 5265 0
-5266 348 0
-5266 64 0
-348 -64 5266 0
-5267 350 0
-5267 94 0
-350 -94 5267 0
-5268 352 0
-5268 124 0
-352 -124 5268 0
-5269 354 0
-5269 154 0
-354 -154 5269 0
-5270 356 0
-5270 184 0
-356 -184 5270 0
-5271 358 0
-5271 214 0
-358 -214 5271 0
-5272 360 0
-5272 244 0
-360 -244 5272 0
-5273 362 0
-5273 274 0
-362 -274 5273 0
-5274 366 0
-5274 334 0
-366 -334 5274 0
-5275 370 0
-5275 394 0
-370 -394 5275 0
-5276 372 0
-5276 424 0
-372 -424 5276 0
-5277 374 0
-5277 454 0
-374 -454 5277 0
-5264 -5265 0
-5264 -5266 0
-5264 -5267 0
-5264 -5268 0
-5264 -5269 0
-5264 -5270 0
-5264 -5271 0
-5264 -5272 0
-5264 -5273 0
-5264 -5274 0
-5264 -5275 0
-5264 -5276 0
-5264 -5277 0
-364 5264 5265 5266 5267 5268 5269 5270 5271 5272 5273 5274 5275 5276 5277 0
-5278 366 0
-5279 346 0
-5279 31 0
-346 -31 5279 0
-5280 348 0
-5280 66 0
-348 -66 5280 0
-5281 350 0
-5281 96 0
-350 -96 5281 0
-5282 352 0
-5282 126 0
-352 -126 5282 0
-5283 354 0
-5283 156 0
-354 -156 5283 0
-5284 356 0
-5284 186 0
-356 -186 5284 0
-5285 358 0
-5285 216 0
-358 -216 5285 0
-5286 360 0
-5286 246 0
-360 -246 5286 0
-5287 362 0
-5287 276 0
-362 -276 5287 0
-5288 364 0
-5288 306 0
-364 -306 5288 0
-5289 370 0
-5289 396 0
-370 -396 5289 0
-5290 372 0
-5290 426 0
-372 -426 5290 0
-5291 374 0
-5291 456 0
-374 -456 5291 0
-5278 -5279 0
-5278 -5280 0
-5278 -5281 0
-5278 -5282 0
-5278 -5283 0
-5278 -5284 0
-5278 -5285 0
-5278 -5286 0
-5278 -5287 0
-5278 -5288 0
-5278 -5289 0
-5278 -5290 0
-5278 -5291 0
-366 5278 5279 5280 5281 5282 5283 5284 5285 5286 5287 5288 5289 5290 5291 0
-5292 0
-5293 370 0
-5294 346 0
-5294 37 0
-346 -37 5294 0
-5295 348 0
-5295 70 0
-348 -70 5295 0
-5296 350 0
-5296 100 0
-350 -100 5296 0
-5297 352 0
-5297 130 0
-352 -130 5297 0
-5298 354 0
-5298 160 0
-354 -160 5298 0
-5299 356 0
-5299 190 0
-356 -190 5299 0
-5300 358 0
-5300 220 0
-358 -220 5300 0
-5301 360 0
-5301 250 0
-360 -250 5301 0
-5302 362 0
-5302 280 0
-362 -280 5302 0
-5303 364 0
-5303 310 0
-364 -310 5303 0
-5304 366 0
-5304 340 0
-366 -340 5304 0
-5305 372 0
-5305 430 0
-372 -430 5305 0
-5306 374 0
-5306 460 0
-374 -460 5306 0
-5293 -5294 0
-5293 -5295 0
-5293 -5296 0
-5293 -5297 0
-5293 -5298 0
-5293 -5299 0
-5293 -5300 0
-5293 -5301 0
-5293 -5302 0
-5293 -5303 0
-5293 -5304 0
-5293 -5305 0
-5293 -5306 0
-370 5293 5294 5295 5296 5297 5298 5299 5300 5301 5302 5303 5304 5305 5306 0
-5307 372 0
-5308 346 0
-5308 40 0
-346 -40 5308 0
-5309 348 0
-5309 72 0
-348 -72 5309 0
-5310 350 0
-5310 102 0
-350 -102 5310 0
-5311 352 0
-5311 132 0
-352 -132 5311 0
-5312 354 0
-5312 162 0
-354 -162 5312 0
-5313 356 0
-5313 192 0
-356 -192 5313 0
-5314 358 0
-5314 222 0
-358 -222 5314 0
-5315 360 0
-5315 252 0
-360 -252 5315 0
-5316 362 0
-5316 282 0
-362 -282 5316 0
-5317 364 0
-5317 312 0
-364 -312 5317 0
-5318 366 0
-5318 342 0
-366 -342 5318 0
-5319 370 0
-5319 402 0
-370 -402 5319 0
-5320 374 0
-5320 462 0
-374 -462 5320 0
-5307 -5308 0
-5307 -5309 0
-5307 -5310 0
-5307 -5311 0
-5307 -5312 0
-5307 -5313 0
-5307 -5314 0
-5307 -5315 0
-5307 -5316 0
-5307 -5317 0
-5307 -5318 0
-5307 -5319 0
-5307 -5320 0
-372 5307 5308 5309 5310 5311 5312 5313 5314 5315 5316 5317 5318 5319 5320 0
-5321 374 0
-5322 346 0
-5322 43 0
-346 -43 5322 0
-5323 348 0
-5323 74 0
-348 -74 5323 0
-5324 350 0
-5324 104 0
-350 -104 5324 0
-5325 352 0
-5325 134 0
-352 -134 5325 0
-5326 354 0
-5326 164 0
-354 -164 5326 0
-5327 356 0
-5327 194 0
-356 -194 5327 0
-5328 358 0
-5328 224 0
-358 -224 5328 0
-5329 360 0
-5329 254 0
-360 -254 5329 0
-5330 362 0
-5330 284 0
-362 -284 5330 0
-5331 364 0
-5331 314 0
-364 -314 5331 0
-5332 366 0
-5332 344 0
-366 -344 5332 0
-5333 370 0
-5333 404 0
-370 -404 5333 0
-5334 372 0
-5334 434 0
-372 -434 5334 0
-5321 -5322 0
-5321 -5323 0
-5321 -5324 0
-5321 -5325 0
-5321 -5326 0
-5321 -5327 0
-5321 -5328 0
-5321 -5329 0
-5321 -5330 0
-5321 -5331 0
-5321 -5332 0
-5321 -5333 0
-5321 -5334 0
-374 5321 5322 5323 5324 5325 5326 5327 5328 5329 5330 5331 5332 5333 5334 0
-5335 376 0
-5336 378 0
-5336 46 0
-378 -46 5336 0
-5337 380 0
-5337 76 0
-380 -76 5337 0
-5338 382 0
-5338 106 0
-382 -106 5338 0
-5339 384 0
-5339 136 0
-384 -136 5339 0
-5340 386 0
-5340 166 0
-386 -166 5340 0
-5341 388 0
-5341 196 0
-388 -196 5341 0
-5342 390 0
-5342 226 0
-390 -226 5342 0
-5343 392 0
-5343 256 0
-392 -256 5343 0
-5344 394 0
-5344 286 0
-394 -286 5344 0
-5345 396 0
-5345 316 0
-396 -316 5345 0
-5346 398 0
-5346 346 0
-398 -346 5346 0
-5347 402 0
-5347 406 0
-402 -406 5347 0
-5348 404 0
-5348 436 0
-404 -436 5348 0
-5335 -5336 0
-5335 -5337 0
-5335 -5338 0
-5335 -5339 0
-5335 -5340 0
-5335 -5341 0
-5335 -5342 0
-5335 -5343 0
-5335 -5344 0
-5335 -5345 0
-5335 -5346 0
-5335 -5347 0
-5335 -5348 0
-376 5335 5336 5337 5338 5339 5340 5341 5342 5343 5344 5345 5346 5347 5348 0
-5349 378 0
-5350 376 0
-5350 4 0
-376 -4 5350 0
-5351 380 0
-5351 78 0
-380 -78 5351 0
-5352 382 0
-5352 108 0
-382 -108 5352 0
-5353 384 0
-5353 138 0
-384 -138 5353 0
-5354 386 0
-5354 168 0
-386 -168 5354 0
-5355 388 0
-5355 198 0
-388 -198 5355 0
-5356 390 0
-5356 228 0
-390 -228 5356 0
-5357 392 0
-5357 258 0
-392 -258 5357 0
-5358 394 0
-5358 288 0
-394 -288 5358 0
-5359 396 0
-5359 318 0
-396 -318 5359 0
-5360 398 0
-5360 348 0
-398 -348 5360 0
-5361 402 0
-5361 408 0
-402 -408 5361 0
-5362 404 0
-5362 438 0
-404 -438 5362 0
-5349 -5350 0
-5349 -5351 0
-5349 -5352 0
-5349 -5353 0
-5349 -5354 0
-5349 -5355 0
-5349 -5356 0
-5349 -5357 0
-5349 -5358 0
-5349 -5359 0
-5349 -5360 0
-5349 -5361 0
-5349 -5362 0
-378 5349 5350 5351 5352 5353 5354 5355 5356 5357 5358 5359 5360 5361 5362 0
-5363 380 0
-5364 376 0
-5364 7 0
-376 -7 5364 0
-5365 378 0
-5365 50 0
-378 -50 5365 0
-5366 382 0
-5366 110 0
-382 -110 5366 0
-5367 384 0
-5367 140 0
-384 -140 5367 0
-5368 386 0
-5368 170 0
-386 -170 5368 0
-5369 388 0
-5369 200 0
-388 -200 5369 0
-5370 390 0
-5370 230 0
-390 -230 5370 0
-5371 392 0
-5371 260 0
-392 -260 5371 0
-5372 394 0
-5372 290 0
-394 -290 5372 0
-5373 396 0
-5373 320 0
-396 -320 5373 0
-5374 398 0
-5374 350 0
-398 -350 5374 0
-5375 402 0
-5375 410 0
-402 -410 5375 0
-5376 404 0
-5376 440 0
-404 -440 5376 0
-5363 -5364 0
-5363 -5365 0
-5363 -5366 0
-5363 -5367 0
-5363 -5368 0
-5363 -5369 0
-5363 -5370 0
-5363 -5371 0
-5363 -5372 0
-5363 -5373 0
-5363 -5374 0
-5363 -5375 0
-5363 -5376 0
-380 5363 5364 5365 5366 5367 5368 5369 5370 5371 5372 5373 5374 5375 5376 0
-5377 382 0
-5378 376 0
-5378 10 0
-376 -10 5378 0
-5379 378 0
-5379 52 0
-378 -52 5379 0
-5380 380 0
-5380 82 0
-380 -82 5380 0
-5381 384 0
-5381 142 0
-384 -142 5381 0
-5382 386 0
-5382 172 0
-386 -172 5382 0
-5383 388 0
-5383 202 0
-388 -202 5383 0
-5384 390 0
-5384 232 0
-390 -232 5384 0
-5385 392 0
-5385 262 0
-392 -262 5385 0
-5386 394 0
-5386 292 0
-394 -292 5386 0
-5387 396 0
-5387 322 0
-396 -322 5387 0
-5388 398 0
-5388 352 0
-398 -352 5388 0
-5389 402 0
-5389 412 0
-402 -412 5389 0
-5390 404 0
-5390 442 0
-404 -442 5390 0
-5377 -5378 0
-5377 -5379 0
-5377 -5380 0
-5377 -5381 0
-5377 -5382 0
-5377 -5383 0
-5377 -5384 0
-5377 -5385 0
-5377 -5386 0
-5377 -5387 0
-5377 -5388 0
-5377 -5389 0
-5377 -5390 0
-382 5377 5378 5379 5380 5381 5382 5383 5384 5385 5386 5387 5388 5389 5390 0
-5391 384 0
-5392 376 0
-5392 13 0
-376 -13 5392 0
-5393 378 0
-5393 54 0
-378 -54 5393 0
-5394 380 0
-5394 84 0
-380 -84 5394 0
-5395 382 0
-5395 114 0
-382 -114 5395 0
-5396 386 0
-5396 174 0
-386 -174 5396 0
-5397 388 0
-5397 204 0
-388 -204 5397 0
-5398 390 0
-5398 234 0
-390 -234 5398 0
-5399 392 0
-5399 264 0
-392 -264 5399 0
-5400 394 0
-5400 294 0
-394 -294 5400 0
-5401 396 0
-5401 324 0
-396 -324 5401 0
-5402 398 0
-5402 354 0
-398 -354 5402 0
-5403 402 0
-5403 414 0
-402 -414 5403 0
-5404 404 0
-5404 444 0
-404 -444 5404 0
-5391 -5392 0
-5391 -5393 0
-5391 -5394 0
-5391 -5395 0
-5391 -5396 0
-5391 -5397 0
-5391 -5398 0
-5391 -5399 0
-5391 -5400 0
-5391 -5401 0
-5391 -5402 0
-5391 -5403 0
-5391 -5404 0
-384 5391 5392 5393 5394 5395 5396 5397 5398 5399 5400 5401 5402 5403 5404 0
-5405 386 0
-5406 376 0
-5406 16 0
-376 -16 5406 0
-5407 378 0
-5407 56 0
-378 -56 5407 0
-5408 380 0
-5408 86 0
-380 -86 5408 0
-5409 382 0
-5409 116 0
-382 -116 5409 0
-5410 384 0
-5410 146 0
-384 -146 5410 0
-5411 388 0
-5411 206 0
-388 -206 5411 0
-5412 390 0
-5412 236 0
-390 -236 5412 0
-5413 392 0
-5413 266 0
-392 -266 5413 0
-5414 394 0
-5414 296 0
-394 -296 5414 0
-5415 396 0
-5415 326 0
-396 -326 5415 0
-5416 398 0
-5416 356 0
-398 -356 5416 0
-5417 402 0
-5417 416 0
-402 -416 5417 0
-5418 404 0
-5418 446 0
-404 -446 5418 0
-5405 -5406 0
-5405 -5407 0
-5405 -5408 0
-5405 -5409 0
-5405 -5410 0
-5405 -5411 0
-5405 -5412 0
-5405 -5413 0
-5405 -5414 0
-5405 -5415 0
-5405 -5416 0
-5405 -5417 0
-5405 -5418 0
-386 5405 5406 5407 5408 5409 5410 5411 5412 5413 5414 5415 5416 5417 5418 0
-5419 388 0
-5420 376 0
-5420 19 0
-376 -19 5420 0
-5421 378 0
-5421 58 0
-378 -58 5421 0
-5422 380 0
-5422 88 0
-380 -88 5422 0
-5423 382 0
-5423 118 0
-382 -118 5423 0
-5424 384 0
-5424 148 0
-384 -148 5424 0
-5425 386 0
-5425 178 0
-386 -178 5425 0
-5426 390 0
-5426 238 0
-390 -238 5426 0
-5427 392 0
-5427 268 0
-392 -268 5427 0
-5428 394 0
-5428 298 0
-394 -298 5428 0
-5429 396 0
-5429 328 0
-396 -328 5429 0
-5430 398 0
-5430 358 0
-398 -358 5430 0
-5431 402 0
-5431 418 0
-402 -418 5431 0
-5432 404 0
-5432 448 0
-404 -448 5432 0
-5419 -5420 0
-5419 -5421 0
-5419 -5422 0
-5419 -5423 0
-5419 -5424 0
-5419 -5425 0
-5419 -5426 0
-5419 -5427 0
-5419 -5428 0
-5419 -5429 0
-5419 -5430 0
-5419 -5431 0
-5419 -5432 0
-388 5419 5420 5421 5422 5423 5424 5425 5426 5427 5428 5429 5430 5431 5432 0
-5433 390 0
-5434 376 0
-5434 22 0
-376 -22 5434 0
-5435 378 0
-5435 60 0
-378 -60 5435 0
-5436 380 0
-5436 90 0
-380 -90 5436 0
-5437 382 0
-5437 120 0
-382 -120 5437 0
-5438 384 0
-5438 150 0
-384 -150 5438 0
-5439 386 0
-5439 180 0
-386 -180 5439 0
-5440 388 0
-5440 210 0
-388 -210 5440 0
-5441 392 0
-5441 270 0
-392 -270 5441 0
-5442 394 0
-5442 300 0
-394 -300 5442 0
-5443 396 0
-5443 330 0
-396 -330 5443 0
-5444 398 0
-5444 360 0
-398 -360 5444 0
-5445 402 0
-5445 420 0
-402 -420 5445 0
-5446 404 0
-5446 450 0
-404 -450 5446 0
-5433 -5434 0
-5433 -5435 0
-5433 -5436 0
-5433 -5437 0
-5433 -5438 0
-5433 -5439 0
-5433 -5440 0
-5433 -5441 0
-5433 -5442 0
-5433 -5443 0
-5433 -5444 0
-5433 -5445 0
-5433 -5446 0
-390 5433 5434 5435 5436 5437 5438 5439 5440 5441 5442 5443 5444 5445 5446 0
-5447 392 0
-5448 376 0
-5448 25 0
-376 -25 5448 0
-5449 378 0
-5449 62 0
-378 -62 5449 0
-5450 380 0
-5450 92 0
-380 -92 5450 0
-5451 382 0
-5451 122 0
-382 -122 5451 0
-5452 384 0
-5452 152 0
-384 -152 5452 0
-5453 386 0
-5453 182 0
-386 -182 5453 0
-5454 388 0
-5454 212 0
-388 -212 5454 0
-5455 390 0
-5455 242 0
-390 -242 5455 0
-5456 394 0
-5456 302 0
-394 -302 5456 0
-5457 396 0
-5457 332 0
-396 -332 5457 0
-5458 398 0
-5458 362 0
-398 -362 5458 0
-5459 402 0
-5459 422 0
-402 -422 5459 0
-5460 404 0
-5460 452 0
-404 -452 5460 0
-5447 -5448 0
-5447 -5449 0
-5447 -5450 0
-5447 -5451 0
-5447 -5452 0
-5447 -5453 0
-5447 -5454 0
-5447 -5455 0
-5447 -5456 0
-5447 -5457 0
-5447 -5458 0
-5447 -5459 0
-5447 -5460 0
-392 5447 5448 5449 5450 5451 5452 5453 5454 5455 5456 5457 5458 5459 5460 0
-5461 394 0
-5462 376 0
-5462 28 0
-376 -28 5462 0
-5463 378 0
-5463 64 0
-378 -64 5463 0
-5464 380 0
-5464 94 0
-380 -94 5464 0
-5465 382 0
-5465 124 0
-382 -124 5465 0
-5466 384 0
-5466 154 0
-384 -154 5466 0
-5467 386 0
-5467 184 0
-386 -184 5467 0
-5468 388 0
-5468 214 0
-388 -214 5468 0
-5469 390 0
-5469 244 0
-390 -244 5469 0
-5470 392 0
-5470 274 0
-392 -274 5470 0
-5471 396 0
-5471 334 0
-396 -334 5471 0
-5472 398 0
-5472 364 0
-398 -364 5472 0
-5473 402 0
-5473 424 0
-402 -424 5473 0
-5474 404 0
-5474 454 0
-404 -454 5474 0
-5461 -5462 0
-5461 -5463 0
-5461 -5464 0
-5461 -5465 0
-5461 -5466 0
-5461 -5467 0
-5461 -5468 0
-5461 -5469 0
-5461 -5470 0
-5461 -5471 0
-5461 -5472 0
-5461 -5473 0
-5461 -5474 0
-394 5461 5462 5463 5464 5465 5466 5467 5468 5469 5470 5471 5472 5473 5474 0
-5475 396 0
-5476 376 0
-5476 31 0
-376 -31 5476 0
-5477 378 0
-5477 66 0
-378 -66 5477 0
-5478 380 0
-5478 96 0
-380 -96 5478 0
-5479 382 0
-5479 126 0
-382 -126 5479 0
-5480 384 0
-5480 156 0
-384 -156 5480 0
-5481 386 0
-5481 186 0
-386 -186 5481 0
-5482 388 0
-5482 216 0
-388 -216 5482 0
-5483 390 0
-5483 246 0
-390 -246 5483 0
-5484 392 0
-5484 276 0
-392 -276 5484 0
-5485 394 0
-5485 306 0
-394 -306 5485 0
-5486 398 0
-5486 366 0
-398 -366 5486 0
-5487 402 0
-5487 426 0
-402 -426 5487 0
-5488 404 0
-5488 456 0
-404 -456 5488 0
-5475 -5476 0
-5475 -5477 0
-5475 -5478 0
-5475 -5479 0
-5475 -5480 0
-5475 -5481 0
-5475 -5482 0
-5475 -5483 0
-5475 -5484 0
-5475 -5485 0
-5475 -5486 0
-5475 -5487 0
-5475 -5488 0
-396 5475 5476 5477 5478 5479 5480 5481 5482 5483 5484 5485 5486 5487 5488 0
-5489 398 0
-5490 376 0
-5490 34 0
-376 -34 5490 0
-5491 378 0
-5491 68 0
-378 -68 5491 0
-5492 380 0
-5492 98 0
-380 -98 5492 0
-5493 382 0
-5493 128 0
-382 -128 5493 0
-5494 384 0
-5494 158 0
-384 -158 5494 0
-5495 386 0
-5495 188 0
-386 -188 5495 0
-5496 388 0
-5496 218 0
-388 -218 5496 0
-5497 390 0
-5497 248 0
-390 -248 5497 0
-5498 392 0
-5498 278 0
-392 -278 5498 0
-5499 394 0
-5499 308 0
-394 -308 5499 0
-5500 396 0
-5500 338 0
-396 -338 5500 0
-5501 402 0
-5501 428 0
-402 -428 5501 0
-5502 404 0
-5502 458 0
-404 -458 5502 0
-5489 -5490 0
-5489 -5491 0
-5489 -5492 0
-5489 -5493 0
-5489 -5494 0
-5489 -5495 0
-5489 -5496 0
-5489 -5497 0
-5489 -5498 0
-5489 -5499 0
-5489 -5500 0
-5489 -5501 0
-5489 -5502 0
-398 5489 5490 5491 5492 5493 5494 5495 5496 5497 5498 5499 5500 5501 5502 0
-5503 0
-5504 402 0
-5505 376 0
-5505 40 0
-376 -40 5505 0
-5506 378 0
-5506 72 0
-378 -72 5506 0
-5507 380 0
-5507 102 0
-380 -102 5507 0
-5508 382 0
-5508 132 0
-382 -132 5508 0
-5509 384 0
-5509 162 0
-384 -162 5509 0
-5510 386 0
-5510 192 0
-386 -192 5510 0
-5511 388 0
-5511 222 0
-388 -222 5511 0
-5512 390 0
-5512 252 0
-390 -252 5512 0
-5513 392 0
-5513 282 0
-392 -282 5513 0
-5514 394 0
-5514 312 0
-394 -312 5514 0
-5515 396 0
-5515 342 0
-396 -342 5515 0
-5516 398 0
-5516 372 0
-398 -372 5516 0
-5517 404 0
-5517 462 0
-404 -462 5517 0
-5504 -5505 0
-5504 -5506 0
-5504 -5507 0
-5504 -5508 0
-5504 -5509 0
-5504 -5510 0
-5504 -5511 0
-5504 -5512 0
-5504 -5513 0
-5504 -5514 0
-5504 -5515 0
-5504 -5516 0
-5504 -5517 0
-402 5504 5505 5506 5507 5508 5509 5510 5511 5512 5513 5514 5515 5516 5517 0
-5518 404 0
-5519 376 0
-5519 43 0
-376 -43 5519 0
-5520 378 0
-5520 74 0
-378 -74 5520 0
-5521 380 0
-5521 104 0
-380 -104 5521 0
-5522 382 0
-5522 134 0
-382 -134 5522 0
-5523 384 0
-5523 164 0
-384 -164 5523 0
-5524 386 0
-5524 194 0
-386 -194 5524 0
-5525 388 0
-5525 224 0
-388 -224 5525 0
-5526 390 0
-5526 254 0
-390 -254 5526 0
-5527 392 0
-5527 284 0
-392 -284 5527 0
-5528 394 0
-5528 314 0
-394 -314 5528 0
-5529 396 0
-5529 344 0
-396 -344 5529 0
-5530 398 0
-5530 374 0
-398 -374 5530 0
-5531 402 0
-5531 434 0
-402 -434 5531 0
-5518 -5519 0
-5518 -5520 0
-5518 -5521 0
-5518 -5522 0
-5518 -5523 0
-5518 -5524 0
-5518 -5525 0
-5518 -5526 0
-5518 -5527 0
-5518 -5528 0
-5518 -5529 0
-5518 -5530 0
-5518 -5531 0
-404 5518 5519 5520 5521 5522 5523 5524 5525 5526 5527 5528 5529 5530 5531 0
-5532 406 0
-5533 408 0
-5533 46 0
-408 -46 5533 0
-5534 410 0
-5534 76 0
-410 -76 5534 0
-5535 412 0
-5535 106 0
-412 -106 5535 0
-5536 414 0
-5536 136 0
-414 -136 5536 0
-5537 416 0
-5537 166 0
-416 -166 5537 0
-5538 418 0
-5538 196 0
-418 -196 5538 0
-5539 420 0
-5539 226 0
-420 -226 5539 0
-5540 422 0
-5540 256 0
-422 -256 5540 0
-5541 424 0
-5541 286 0
-424 -286 5541 0
-5542 426 0
-5542 316 0
-426 -316 5542 0
-5543 428 0
-5543 346 0
-428 -346 5543 0
-5544 430 0
-5544 376 0
-430 -376 5544 0
-5545 434 0
-5545 436 0
-434 -436 5545 0
-5532 -5533 0
-5532 -5534 0
-5532 -5535 0
-5532 -5536 0
-5532 -5537 0
-5532 -5538 0
-5532 -5539 0
-5532 -5540 0
-5532 -5541 0
-5532 -5542 0
-5532 -5543 0
-5532 -5544 0
-5532 -5545 0
-406 5532 5533 5534 5535 5536 5537 5538 5539 5540 5541 5542 5543 5544 5545 0
-5546 408 0
-5547 406 0
-5547 4 0
-406 -4 5547 0
-5548 410 0
-5548 78 0
-410 -78 5548 0
-5549 412 0
-5549 108 0
-412 -108 5549 0
-5550 414 0
-5550 138 0
-414 -138 5550 0
-5551 416 0
-5551 168 0
-416 -168 5551 0
-5552 418 0
-5552 198 0
-418 -198 5552 0
-5553 420 0
-5553 228 0
-420 -228 5553 0
-5554 422 0
-5554 258 0
-422 -258 5554 0
-5555 424 0
-5555 288 0
-424 -288 5555 0
-5556 426 0
-5556 318 0
-426 -318 5556 0
-5557 428 0
-5557 348 0
-428 -348 5557 0
-5558 430 0
-5558 378 0
-430 -378 5558 0
-5559 434 0
-5559 438 0
-434 -438 5559 0
-5546 -5547 0
-5546 -5548 0
-5546 -5549 0
-5546 -5550 0
-5546 -5551 0
-5546 -5552 0
-5546 -5553 0
-5546 -5554 0
-5546 -5555 0
-5546 -5556 0
-5546 -5557 0
-5546 -5558 0
-5546 -5559 0
-408 5546 5547 5548 5549 5550 5551 5552 5553 5554 5555 5556 5557 5558 5559 0
-5560 410 0
-5561 406 0
-5561 7 0
-406 -7 5561 0
-5562 408 0
-5562 50 0
-408 -50 5562 0
-5563 412 0
-5563 110 0
-412 -110 5563 0
-5564 414 0
-5564 140 0
-414 -140 5564 0
-5565 416 0
-5565 170 0
-416 -170 5565 0
-5566 418 0
-5566 200 0
-418 -200 5566 0
-5567 420 0
-5567 230 0
-420 -230 5567 0
-5568 422 0
-5568 260 0
-422 -260 5568 0
-5569 424 0
-5569 290 0
-424 -290 5569 0
-5570 426 0
-5570 320 0
-426 -320 5570 0
-5571 428 0
-5571 350 0
-428 -350 5571 0
-5572 430 0
-5572 380 0
-430 -380 5572 0
-5573 434 0
-5573 440 0
-434 -440 5573 0
-5560 -5561 0
-5560 -5562 0
-5560 -5563 0
-5560 -5564 0
-5560 -5565 0
-5560 -5566 0
-5560 -5567 0
-5560 -5568 0
-5560 -5569 0
-5560 -5570 0
-5560 -5571 0
-5560 -5572 0
-5560 -5573 0
-410 5560 5561 5562 5563 5564 5565 5566 5567 5568 5569 5570 5571 5572 5573 0
-5574 412 0
-5575 406 0
-5575 10 0
-406 -10 5575 0
-5576 408 0
-5576 52 0
-408 -52 5576 0
-5577 410 0
-5577 82 0
-410 -82 5577 0
-5578 414 0
-5578 142 0
-414 -142 5578 0
-5579 416 0
-5579 172 0
-416 -172 5579 0
-5580 418 0
-5580 202 0
-418 -202 5580 0
-5581 420 0
-5581 232 0
-420 -232 5581 0
-5582 422 0
-5582 262 0
-422 -262 5582 0
-5583 424 0
-5583 292 0
-424 -292 5583 0
-5584 426 0
-5584 322 0
-426 -322 5584 0
-5585 428 0
-5585 352 0
-428 -352 5585 0
-5586 430 0
-5586 382 0
-430 -382 5586 0
-5587 434 0
-5587 442 0
-434 -442 5587 0
-5574 -5575 0
-5574 -5576 0
-5574 -5577 0
-5574 -5578 0
-5574 -5579 0
-5574 -5580 0
-5574 -5581 0
-5574 -5582 0
-5574 -5583 0
-5574 -5584 0
-5574 -5585 0
-5574 -5586 0
-5574 -5587 0
-412 5574 5575 5576 5577 5578 5579 5580 5581 5582 5583 5584 5585 5586 5587 0
-5588 414 0
-5589 406 0
-5589 13 0
-406 -13 5589 0
-5590 408 0
-5590 54 0
-408 -54 5590 0
-5591 410 0
-5591 84 0
-410 -84 5591 0
-5592 412 0
-5592 114 0
-412 -114 5592 0
-5593 416 0
-5593 174 0
-416 -174 5593 0
-5594 418 0
-5594 204 0
-418 -204 5594 0
-5595 420 0
-5595 234 0
-420 -234 5595 0
-5596 422 0
-5596 264 0
-422 -264 5596 0
-5597 424 0
-5597 294 0
-424 -294 5597 0
-5598 426 0
-5598 324 0
-426 -324 5598 0
-5599 428 0
-5599 354 0
-428 -354 5599 0
-5600 430 0
-5600 384 0
-430 -384 5600 0
-5601 434 0
-5601 444 0
-434 -444 5601 0
-5588 -5589 0
-5588 -5590 0
-5588 -5591 0
-5588 -5592 0
-5588 -5593 0
-5588 -5594 0
-5588 -5595 0
-5588 -5596 0
-5588 -5597 0
-5588 -5598 0
-5588 -5599 0
-5588 -5600 0
-5588 -5601 0
-414 5588 5589 5590 5591 5592 5593 5594 5595 5596 5597 5598 5599 5600 5601 0
-5602 416 0
-5603 406 0
-5603 16 0
-406 -16 5603 0
-5604 408 0
-5604 56 0
-408 -56 5604 0
-5605 410 0
-5605 86 0
-410 -86 5605 0
-5606 412 0
-5606 116 0
-412 -116 5606 0
-5607 414 0
-5607 146 0
-414 -146 5607 0
-5608 418 0
-5608 206 0
-418 -206 5608 0
-5609 420 0
-5609 236 0
-420 -236 5609 0
-5610 422 0
-5610 266 0
-422 -266 5610 0
-5611 424 0
-5611 296 0
-424 -296 5611 0
-5612 426 0
-5612 326 0
-426 -326 5612 0
-5613 428 0
-5613 356 0
-428 -356 5613 0
-5614 430 0
-5614 386 0
-430 -386 5614 0
-5615 434 0
-5615 446 0
-434 -446 5615 0
-5602 -5603 0
-5602 -5604 0
-5602 -5605 0
-5602 -5606 0
-5602 -5607 0
-5602 -5608 0
-5602 -5609 0
-5602 -5610 0
-5602 -5611 0
-5602 -5612 0
-5602 -5613 0
-5602 -5614 0
-5602 -5615 0
-416 5602 5603 5604 5605 5606 5607 5608 5609 5610 5611 5612 5613 5614 5615 0
-5616 418 0
-5617 406 0
-5617 19 0
-406 -19 5617 0
-5618 408 0
-5618 58 0
-408 -58 5618 0
-5619 410 0
-5619 88 0
-410 -88 5619 0
-5620 412 0
-5620 118 0
-412 -118 5620 0
-5621 414 0
-5621 148 0
-414 -148 5621 0
-5622 416 0
-5622 178 0
-416 -178 5622 0
-5623 420 0
-5623 238 0
-420 -238 5623 0
-5624 422 0
-5624 268 0
-422 -268 5624 0
-5625 424 0
-5625 298 0
-424 -298 5625 0
-5626 426 0
-5626 328 0
-426 -328 5626 0
-5627 428 0
-5627 358 0
-428 -358 5627 0
-5628 430 0
-5628 388 0
-430 -388 5628 0
-5629 434 0
-5629 448 0
-434 -448 5629 0
-5616 -5617 0
-5616 -5618 0
-5616 -5619 0
-5616 -5620 0
-5616 -5621 0
-5616 -5622 0
-5616 -5623 0
-5616 -5624 0
-5616 -5625 0
-5616 -5626 0
-5616 -5627 0
-5616 -5628 0
-5616 -5629 0
-418 5616 5617 5618 5619 5620 5621 5622 5623 5624 5625 5626 5627 5628 5629 0
-5630 420 0
-5631 406 0
-5631 22 0
-406 -22 5631 0
-5632 408 0
-5632 60 0
-408 -60 5632 0
-5633 410 0
-5633 90 0
-410 -90 5633 0
-5634 412 0
-5634 120 0
-412 -120 5634 0
-5635 414 0
-5635 150 0
-414 -150 5635 0
-5636 416 0
-5636 180 0
-416 -180 5636 0
-5637 418 0
-5637 210 0
-418 -210 5637 0
-5638 422 0
-5638 270 0
-422 -270 5638 0
-5639 424 0
-5639 300 0
-424 -300 5639 0
-5640 426 0
-5640 330 0
-426 -330 5640 0
-5641 428 0
-5641 360 0
-428 -360 5641 0
-5642 430 0
-5642 390 0
-430 -390 5642 0
-5643 434 0
-5643 450 0
-434 -450 5643 0
-5630 -5631 0
-5630 -5632 0
-5630 -5633 0
-5630 -5634 0
-5630 -5635 0
-5630 -5636 0
-5630 -5637 0
-5630 -5638 0
-5630 -5639 0
-5630 -5640 0
-5630 -5641 0
-5630 -5642 0
-5630 -5643 0
-420 5630 5631 5632 5633 5634 5635 5636 5637 5638 5639 5640 5641 5642 5643 0
-5644 422 0
-5645 406 0
-5645 25 0
-406 -25 5645 0
-5646 408 0
-5646 62 0
-408 -62 5646 0
-5647 410 0
-5647 92 0
-410 -92 5647 0
-5648 412 0
-5648 122 0
-412 -122 5648 0
-5649 414 0
-5649 152 0
-414 -152 5649 0
-5650 416 0
-5650 182 0
-416 -182 5650 0
-5651 418 0
-5651 212 0
-418 -212 5651 0
-5652 420 0
-5652 242 0
-420 -242 5652 0
-5653 424 0
-5653 302 0
-424 -302 5653 0
-5654 426 0
-5654 332 0
-426 -332 5654 0
-5655 428 0
-5655 362 0
-428 -362 5655 0
-5656 430 0
-5656 392 0
-430 -392 5656 0
-5657 434 0
-5657 452 0
-434 -452 5657 0
-5644 -5645 0
-5644 -5646 0
-5644 -5647 0
-5644 -5648 0
-5644 -5649 0
-5644 -5650 0
-5644 -5651 0
-5644 -5652 0
-5644 -5653 0
-5644 -5654 0
-5644 -5655 0
-5644 -5656 0
-5644 -5657 0
-422 5644 5645 5646 5647 5648 5649 5650 5651 5652 5653 5654 5655 5656 5657 0
-5658 424 0
-5659 406 0
-5659 28 0
-406 -28 5659 0
-5660 408 0
-5660 64 0
-408 -64 5660 0
-5661 410 0
-5661 94 0
-410 -94 5661 0
-5662 412 0
-5662 124 0
-412 -124 5662 0
-5663 414 0
-5663 154 0
-414 -154 5663 0
-5664 416 0
-5664 184 0
-416 -184 5664 0
-5665 418 0
-5665 214 0
-418 -214 5665 0
-5666 420 0
-5666 244 0
-420 -244 5666 0
-5667 422 0
-5667 274 0
-422 -274 5667 0
-5668 426 0
-5668 334 0
-426 -334 5668 0
-5669 428 0
-5669 364 0
-428 -364 5669 0
-5670 430 0
-5670 394 0
-430 -394 5670 0
-5671 434 0
-5671 454 0
-434 -454 5671 0
-5658 -5659 0
-5658 -5660 0
-5658 -5661 0
-5658 -5662 0
-5658 -5663 0
-5658 -5664 0
-5658 -5665 0
-5658 -5666 0
-5658 -5667 0
-5658 -5668 0
-5658 -5669 0
-5658 -5670 0
-5658 -5671 0
-424 5658 5659 5660 5661 5662 5663 5664 5665 5666 5667 5668 5669 5670 5671 0
-5672 426 0
-5673 406 0
-5673 31 0
-406 -31 5673 0
-5674 408 0
-5674 66 0
-408 -66 5674 0
-5675 410 0
-5675 96 0
-410 -96 5675 0
-5676 412 0
-5676 126 0
-412 -126 5676 0
-5677 414 0
-5677 156 0
-414 -156 5677 0
-5678 416 0
-5678 186 0
-416 -186 5678 0
-5679 418 0
-5679 216 0
-418 -216 5679 0
-5680 420 0
-5680 246 0
-420 -246 5680 0
-5681 422 0
-5681 276 0
-422 -276 5681 0
-5682 424 0
-5682 306 0
-424 -306 5682 0
-5683 428 0
-5683 366 0
-428 -366 5683 0
-5684 430 0
-5684 396 0
-430 -396 5684 0
-5685 434 0
-5685 456 0
-434 -456 5685 0
-5672 -5673 0
-5672 -5674 0
-5672 -5675 0
-5672 -5676 0
-5672 -5677 0
-5672 -5678 0
-5672 -5679 0
-5672 -5680 0
-5672 -5681 0
-5672 -5682 0
-5672 -5683 0
-5672 -5684 0
-5672 -5685 0
-426 5672 5673 5674 5675 5676 5677 5678 5679 5680 5681 5682 5683 5684 5685 0
-5686 428 0
-5687 406 0
-5687 34 0
-406 -34 5687 0
-5688 408 0
-5688 68 0
-408 -68 5688 0
-5689 410 0
-5689 98 0
-410 -98 5689 0
-5690 412 0
-5690 128 0
-412 -128 5690 0
-5691 414 0
-5691 158 0
-414 -158 5691 0
-5692 416 0
-5692 188 0
-416 -188 5692 0
-5693 418 0
-5693 218 0
-418 -218 5693 0
-5694 420 0
-5694 248 0
-420 -248 5694 0
-5695 422 0
-5695 278 0
-422 -278 5695 0
-5696 424 0
-5696 308 0
-424 -308 5696 0
-5697 426 0
-5697 338 0
-426 -338 5697 0
-5698 430 0
-5698 398 0
-430 -398 5698 0
-5699 434 0
-5699 458 0
-434 -458 5699 0
-5686 -5687 0
-5686 -5688 0
-5686 -5689 0
-5686 -5690 0
-5686 -5691 0
-5686 -5692 0
-5686 -5693 0
-5686 -5694 0
-5686 -5695 0
-5686 -5696 0
-5686 -5697 0
-5686 -5698 0
-5686 -5699 0
-428 5686 5687 5688 5689 5690 5691 5692 5693 5694 5695 5696 5697 5698 5699 0
-5700 430 0
-5701 406 0
-5701 37 0
-406 -37 5701 0
-5702 408 0
-5702 70 0
-408 -70 5702 0
-5703 410 0
-5703 100 0
-410 -100 5703 0
-5704 412 0
-5704 130 0
-412 -130 5704 0
-5705 414 0
-5705 160 0
-414 -160 5705 0
-5706 416 0
-5706 190 0
-416 -190 5706 0
-5707 418 0
-5707 220 0
-418 -220 5707 0
-5708 420 0
-5708 250 0
-420 -250 5708 0
-5709 422 0
-5709 280 0
-422 -280 5709 0
-5710 424 0
-5710 310 0
-424 -310 5710 0
-5711 426 0
-5711 340 0
-426 -340 5711 0
-5712 428 0
-5712 370 0
-428 -370 5712 0
-5713 434 0
-5713 460 0
-434 -460 5713 0
-5700 -5701 0
-5700 -5702 0
-5700 -5703 0
-5700 -5704 0
-5700 -5705 0
-5700 -5706 0
-5700 -5707 0
-5700 -5708 0
-5700 -5709 0
-5700 -5710 0
-5700 -5711 0
-5700 -5712 0
-5700 -5713 0
-430 5700 5701 5702 5703 5704 5705 5706 5707 5708 5709 5710 5711 5712 5713 0
-5714 0
-5715 434 0
-5716 406 0
-5716 43 0
-406 -43 5716 0
-5717 408 0
-5717 74 0
-408 -74 5717 0
-5718 410 0
-5718 104 0
-410 -104 5718 0
-5719 412 0
-5719 134 0
-412 -134 5719 0
-5720 414 0
-5720 164 0
-414 -164 5720 0
-5721 416 0
-5721 194 0
-416 -194 5721 0
-5722 418 0
-5722 224 0
-418 -224 5722 0
-5723 420 0
-5723 254 0
-420 -254 5723 0
-5724 422 0
-5724 284 0
-422 -284 5724 0
-5725 424 0
-5725 314 0
-424 -314 5725 0
-5726 426 0
-5726 344 0
-426 -344 5726 0
-5727 428 0
-5727 374 0
-428 -374 5727 0
-5728 430 0
-5728 404 0
-430 -404 5728 0
-5715 -5716 0
-5715 -5717 0
-5715 -5718 0
-5715 -5719 0
-5715 -5720 0
-5715 -5721 0
-5715 -5722 0
-5715 -5723 0
-5715 -5724 0
-5715 -5725 0
-5715 -5726 0
-5715 -5727 0
-5715 -5728 0
-434 5715 5716 5717 5718 5719 5720 5721 5722 5723 5724 5725 5726 5727 5728 0
-5729 436 0
-5730 438 0
-5730 46 0
-438 -46 5730 0
-5731 440 0
-5731 76 0
-440 -76 5731 0
-5732 442 0
-5732 106 0
-442 -106 5732 0
-5733 444 0
-5733 136 0
-444 -136 5733 0
-5734 446 0
-5734 166 0
-446 -166 5734 0
-5735 448 0
-5735 196 0
-448 -196 5735 0
-5736 450 0
-5736 226 0
-450 -226 5736 0
-5737 452 0
-5737 256 0
-452 -256 5737 0
-5738 454 0
-5738 286 0
-454 -286 5738 0
-5739 456 0
-5739 316 0
-456 -316 5739 0
-5740 458 0
-5740 346 0
-458 -346 5740 0
-5741 460 0
-5741 376 0
-460 -376 5741 0
-5742 462 0
-5742 406 0
-462 -406 5742 0
-5729 -5730 0
-5729 -5731 0
-5729 -5732 0
-5729 -5733 0
-5729 -5734 0
-5729 -5735 0
-5729 -5736 0
-5729 -5737 0
-5729 -5738 0
-5729 -5739 0
-5729 -5740 0
-5729 -5741 0
-5729 -5742 0
-436 5729 5730 5731 5732 5733 5734 5735 5736 5737 5738 5739 5740 5741 5742 0
-5743 438 0
-5744 436 0
-5744 4 0
-436 -4 5744 0
-5745 440 0
-5745 78 0
-440 -78 5745 0
-5746 442 0
-5746 108 0
-442 -108 5746 0
-5747 444 0
-5747 138 0
-444 -138 5747 0
-5748 446 0
-5748 168 0
-446 -168 5748 0
-5749 448 0
-5749 198 0
-448 -198 5749 0
-5750 450 0
-5750 228 0
-450 -228 5750 0
-5751 452 0
-5751 258 0
-452 -258 5751 0
-5752 454 0
-5752 288 0
-454 -288 5752 0
-5753 456 0
-5753 318 0
-456 -318 5753 0
-5754 458 0
-5754 348 0
-458 -348 5754 0
-5755 460 0
-5755 378 0
-460 -378 5755 0
-5756 462 0
-5756 408 0
-462 -408 5756 0
-5743 -5744 0
-5743 -5745 0
-5743 -5746 0
-5743 -5747 0
-5743 -5748 0
-5743 -5749 0
-5743 -5750 0
-5743 -5751 0
-5743 -5752 0
-5743 -5753 0
-5743 -5754 0
-5743 -5755 0
-5743 -5756 0
-438 5743 5744 5745 5746 5747 5748 5749 5750 5751 5752 5753 5754 5755 5756 0
-5757 440 0
-5758 436 0
-5758 7 0
-436 -7 5758 0
-5759 438 0
-5759 50 0
-438 -50 5759 0
-5760 442 0
-5760 110 0
-442 -110 5760 0
-5761 444 0
-5761 140 0
-444 -140 5761 0
-5762 446 0
-5762 170 0
-446 -170 5762 0
-5763 448 0
-5763 200 0
-448 -200 5763 0
-5764 450 0
-5764 230 0
-450 -230 5764 0
-5765 452 0
-5765 260 0
-452 -260 5765 0
-5766 454 0
-5766 290 0
-454 -290 5766 0
-5767 456 0
-5767 320 0
-456 -320 5767 0
-5768 458 0
-5768 350 0
-458 -350 5768 0
-5769 460 0
-5769 380 0
-460 -380 5769 0
-5770 462 0
-5770 410 0
-462 -410 5770 0
-5757 -5758 0
-5757 -5759 0
-5757 -5760 0
-5757 -5761 0
-5757 -5762 0
-5757 -5763 0
-5757 -5764 0
-5757 -5765 0
-5757 -5766 0
-5757 -5767 0
-5757 -5768 0
-5757 -5769 0
-5757 -5770 0
-440 5757 5758 5759 5760 5761 5762 5763 5764 5765 5766 5767 5768 5769 5770 0
-5771 442 0
-5772 436 0
-5772 10 0
-436 -10 5772 0
-5773 438 0
-5773 52 0
-438 -52 5773 0
-5774 440 0
-5774 82 0
-440 -82 5774 0
-5775 444 0
-5775 142 0
-444 -142 5775 0
-5776 446 0
-5776 172 0
-446 -172 5776 0
-5777 448 0
-5777 202 0
-448 -202 5777 0
-5778 450 0
-5778 232 0
-450 -232 5778 0
-5779 452 0
-5779 262 0
-452 -262 5779 0
-5780 454 0
-5780 292 0
-454 -292 5780 0
-5781 456 0
-5781 322 0
-456 -322 5781 0
-5782 458 0
-5782 352 0
-458 -352 5782 0
-5783 460 0
-5783 382 0
-460 -382 5783 0
-5784 462 0
-5784 412 0
-462 -412 5784 0
-5771 -5772 0
-5771 -5773 0
-5771 -5774 0
-5771 -5775 0
-5771 -5776 0
-5771 -5777 0
-5771 -5778 0
-5771 -5779 0
-5771 -5780 0
-5771 -5781 0
-5771 -5782 0
-5771 -5783 0
-5771 -5784 0
-442 5771 5772 5773 5774 5775 5776 5777 5778 5779 5780 5781 5782 5783 5784 0
-5785 444 0
-5786 436 0
-5786 13 0
-436 -13 5786 0
-5787 438 0
-5787 54 0
-438 -54 5787 0
-5788 440 0
-5788 84 0
-440 -84 5788 0
-5789 442 0
-5789 114 0
-442 -114 5789 0
-5790 446 0
-5790 174 0
-446 -174 5790 0
-5791 448 0
-5791 204 0
-448 -204 5791 0
-5792 450 0
-5792 234 0
-450 -234 5792 0
-5793 452 0
-5793 264 0
-452 -264 5793 0
-5794 454 0
-5794 294 0
-454 -294 5794 0
-5795 456 0
-5795 324 0
-456 -324 5795 0
-5796 458 0
-5796 354 0
-458 -354 5796 0
-5797 460 0
-5797 384 0
-460 -384 5797 0
-5798 462 0
-5798 414 0
-462 -414 5798 0
-5785 -5786 0
-5785 -5787 0
-5785 -5788 0
-5785 -5789 0
-5785 -5790 0
-5785 -5791 0
-5785 -5792 0
-5785 -5793 0
-5785 -5794 0
-5785 -5795 0
-5785 -5796 0
-5785 -5797 0
-5785 -5798 0
-444 5785 5786 5787 5788 5789 5790 5791 5792 5793 5794 5795 5796 5797 5798 0
-5799 446 0
-5800 436 0
-5800 16 0
-436 -16 5800 0
-5801 438 0
-5801 56 0
-438 -56 5801 0
-5802 440 0
-5802 86 0
-440 -86 5802 0
-5803 442 0
-5803 116 0
-442 -116 5803 0
-5804 444 0
-5804 146 0
-444 -146 5804 0
-5805 448 0
-5805 206 0
-448 -206 5805 0
-5806 450 0
-5806 236 0
-450 -236 5806 0
-5807 452 0
-5807 266 0
-452 -266 5807 0
-5808 454 0
-5808 296 0
-454 -296 5808 0
-5809 456 0
-5809 326 0
-456 -326 5809 0
-5810 458 0
-5810 356 0
-458 -356 5810 0
-5811 460 0
-5811 386 0
-460 -386 5811 0
-5812 462 0
-5812 416 0
-462 -416 5812 0
-5799 -5800 0
-5799 -5801 0
-5799 -5802 0
-5799 -5803 0
-5799 -5804 0
-5799 -5805 0
-5799 -5806 0
-5799 -5807 0
-5799 -5808 0
-5799 -5809 0
-5799 -5810 0
-5799 -5811 0
-5799 -5812 0
-446 5799 5800 5801 5802 5803 5804 5805 5806 5807 5808 5809 5810 5811 5812 0
-5813 448 0
-5814 436 0
-5814 19 0
-436 -19 5814 0
-5815 438 0
-5815 58 0
-438 -58 5815 0
-5816 440 0
-5816 88 0
-440 -88 5816 0
-5817 442 0
-5817 118 0
-442 -118 5817 0
-5818 444 0
-5818 148 0
-444 -148 5818 0
-5819 446 0
-5819 178 0
-446 -178 5819 0
-5820 450 0
-5820 238 0
-450 -238 5820 0
-5821 452 0
-5821 268 0
-452 -268 5821 0
-5822 454 0
-5822 298 0
-454 -298 5822 0
-5823 456 0
-5823 328 0
-456 -328 5823 0
-5824 458 0
-5824 358 0
-458 -358 5824 0
-5825 460 0
-5825 388 0
-460 -388 5825 0
-5826 462 0
-5826 418 0
-462 -418 5826 0
-5813 -5814 0
-5813 -5815 0
-5813 -5816 0
-5813 -5817 0
-5813 -5818 0
-5813 -5819 0
-5813 -5820 0
-5813 -5821 0
-5813 -5822 0
-5813 -5823 0
-5813 -5824 0
-5813 -5825 0
-5813 -5826 0
-448 5813 5814 5815 5816 5817 5818 5819 5820 5821 5822 5823 5824 5825 5826 0
-5827 450 0
-5828 436 0
-5828 22 0
-436 -22 5828 0
-5829 438 0
-5829 60 0
-438 -60 5829 0
-5830 440 0
-5830 90 0
-440 -90 5830 0
-5831 442 0
-5831 120 0
-442 -120 5831 0
-5832 444 0
-5832 150 0
-444 -150 5832 0
-5833 446 0
-5833 180 0
-446 -180 5833 0
-5834 448 0
-5834 210 0
-448 -210 5834 0
-5835 452 0
-5835 270 0
-452 -270 5835 0
-5836 454 0
-5836 300 0
-454 -300 5836 0
-5837 456 0
-5837 330 0
-456 -330 5837 0
-5838 458 0
-5838 360 0
-458 -360 5838 0
-5839 460 0
-5839 390 0
-460 -390 5839 0
-5840 462 0
-5840 420 0
-462 -420 5840 0
-5827 -5828 0
-5827 -5829 0
-5827 -5830 0
-5827 -5831 0
-5827 -5832 0
-5827 -5833 0
-5827 -5834 0
-5827 -5835 0
-5827 -5836 0
-5827 -5837 0
-5827 -5838 0
-5827 -5839 0
-5827 -5840 0
-450 5827 5828 5829 5830 5831 5832 5833 5834 5835 5836 5837 5838 5839 5840 0
-5841 452 0
-5842 436 0
-5842 25 0
-436 -25 5842 0
-5843 438 0
-5843 62 0
-438 -62 5843 0
-5844 440 0
-5844 92 0
-440 -92 5844 0
-5845 442 0
-5845 122 0
-442 -122 5845 0
-5846 444 0
-5846 152 0
-444 -152 5846 0
-5847 446 0
-5847 182 0
-446 -182 5847 0
-5848 448 0
-5848 212 0
-448 -212 5848 0
-5849 450 0
-5849 242 0
-450 -242 5849 0
-5850 454 0
-5850 302 0
-454 -302 5850 0
-5851 456 0
-5851 332 0
-456 -332 5851 0
-5852 458 0
-5852 362 0
-458 -362 5852 0
-5853 460 0
-5853 392 0
-460 -392 5853 0
-5854 462 0
-5854 422 0
-462 -422 5854 0
-5841 -5842 0
-5841 -5843 0
-5841 -5844 0
-5841 -5845 0
-5841 -5846 0
-5841 -5847 0
-5841 -5848 0
-5841 -5849 0
-5841 -5850 0
-5841 -5851 0
-5841 -5852 0
-5841 -5853 0
-5841 -5854 0
-452 5841 5842 5843 5844 5845 5846 5847 5848 5849 5850 5851 5852 5853 5854 0
-5855 454 0
-5856 436 0
-5856 28 0
-436 -28 5856 0
-5857 438 0
-5857 64 0
-438 -64 5857 0
-5858 440 0
-5858 94 0
-440 -94 5858 0
-5859 442 0
-5859 124 0
-442 -124 5859 0
-5860 444 0
-5860 154 0
-444 -154 5860 0
-5861 446 0
-5861 184 0
-446 -184 5861 0
-5862 448 0
-5862 214 0
-448 -214 5862 0
-5863 450 0
-5863 244 0
-450 -244 5863 0
-5864 452 0
-5864 274 0
-452 -274 5864 0
-5865 456 0
-5865 334 0
-456 -334 5865 0
-5866 458 0
-5866 364 0
-458 -364 5866 0
-5867 460 0
-5867 394 0
-460 -394 5867 0
-5868 462 0
-5868 424 0
-462 -424 5868 0
-5855 -5856 0
-5855 -5857 0
-5855 -5858 0
-5855 -5859 0
-5855 -5860 0
-5855 -5861 0
-5855 -5862 0
-5855 -5863 0
-5855 -5864 0
-5855 -5865 0
-5855 -5866 0
-5855 -5867 0
-5855 -5868 0
-454 5855 5856 5857 5858 5859 5860 5861 5862 5863 5864 5865 5866 5867 5868 0
-5869 456 0
-5870 436 0
-5870 31 0
-436 -31 5870 0
-5871 438 0
-5871 66 0
-438 -66 5871 0
-5872 440 0
-5872 96 0
-440 -96 5872 0
-5873 442 0
-5873 126 0
-442 -126 5873 0
-5874 444 0
-5874 156 0
-444 -156 5874 0
-5875 446 0
-5875 186 0
-446 -186 5875 0
-5876 448 0
-5876 216 0
-448 -216 5876 0
-5877 450 0
-5877 246 0
-450 -246 5877 0
-5878 452 0
-5878 276 0
-452 -276 5878 0
-5879 454 0
-5879 306 0
-454 -306 5879 0
-5880 458 0
-5880 366 0
-458 -366 5880 0
-5881 460 0
-5881 396 0
-460 -396 5881 0
-5882 462 0
-5882 426 0
-462 -426 5882 0
-5869 -5870 0
-5869 -5871 0
-5869 -5872 0
-5869 -5873 0
-5869 -5874 0
-5869 -5875 0
-5869 -5876 0
-5869 -5877 0
-5869 -5878 0
-5869 -5879 0
-5869 -5880 0
-5869 -5881 0
-5869 -5882 0
-456 5869 5870 5871 5872 5873 5874 5875 5876 5877 5878 5879 5880 5881 5882 0
-5883 458 0
-5884 436 0
-5884 34 0
-436 -34 5884 0
-5885 438 0
-5885 68 0
-438 -68 5885 0
-5886 440 0
-5886 98 0
-440 -98 5886 0
-5887 442 0
-5887 128 0
-442 -128 5887 0
-5888 444 0
-5888 158 0
-444 -158 5888 0
-5889 446 0
-5889 188 0
-446 -188 5889 0
-5890 448 0
-5890 218 0
-448 -218 5890 0
-5891 450 0
-5891 248 0
-450 -248 5891 0
-5892 452 0
-5892 278 0
-452 -278 5892 0
-5893 454 0
-5893 308 0
-454 -308 5893 0
-5894 456 0
-5894 338 0
-456 -338 5894 0
-5895 460 0
-5895 398 0
-460 -398 5895 0
-5896 462 0
-5896 428 0
-462 -428 5896 0
-5883 -5884 0
-5883 -5885 0
-5883 -5886 0
-5883 -5887 0
-5883 -5888 0
-5883 -5889 0
-5883 -5890 0
-5883 -5891 0
-5883 -5892 0
-5883 -5893 0
-5883 -5894 0
-5883 -5895 0
-5883 -5896 0
-458 5883 5884 5885 5886 5887 5888 5889 5890 5891 5892 5893 5894 5895 5896 0
-5897 460 0
-5898 436 0
-5898 37 0
-436 -37 5898 0
-5899 438 0
-5899 70 0
-438 -70 5899 0
-5900 440 0
-5900 100 0
-440 -100 5900 0
-5901 442 0
-5901 130 0
-442 -130 5901 0
-5902 444 0
-5902 160 0
-444 -160 5902 0
-5903 446 0
-5903 190 0
-446 -190 5903 0
-5904 448 0
-5904 220 0
-448 -220 5904 0
-5905 450 0
-5905 250 0
-450 -250 5905 0
-5906 452 0
-5906 280 0
-452 -280 5906 0
-5907 454 0
-5907 310 0
-454 -310 5907 0
-5908 456 0
-5908 340 0
-456 -340 5908 0
-5909 458 0
-5909 370 0
-458 -370 5909 0
-5910 462 0
-5910 430 0
-462 -430 5910 0
-5897 -5898 0
-5897 -5899 0
-5897 -5900 0
-5897 -5901 0
-5897 -5902 0
-5897 -5903 0
-5897 -5904 0
-5897 -5905 0
-5897 -5906 0
-5897 -5907 0
-5897 -5908 0
-5897 -5909 0
-5897 -5910 0
-460 5897 5898 5899 5900 5901 5902 5903 5904 5905 5906 5907 5908 5909 5910 0
-5911 462 0
-5912 436 0
-5912 40 0
-436 -40 5912 0
-5913 438 0
-5913 72 0
-438 -72 5913 0
-5914 440 0
-5914 102 0
-440 -102 5914 0
-5915 442 0
-5915 132 0
-442 -132 5915 0
-5916 444 0
-5916 162 0
-444 -162 5916 0
-5917 446 0
-5917 192 0
-446 -192 5917 0
-5918 448 0
-5918 222 0
-448 -222 5918 0
-5919 450 0
-5919 252 0
-450 -252 5919 0
-5920 452 0
-5920 282 0
-452 -282 5920 0
-5921 454 0
-5921 312 0
-454 -312 5921 0
-5922 456 0
-5922 342 0
-456 -342 5922 0
-5923 458 0
-5923 372 0
-458 -372 5923 0
-5924 460 0
-5924 402 0
-460 -402 5924 0
-5911 -5912 0
-5911 -5913 0
-5911 -5914 0
-5911 -5915 0
-5911 -5916 0
-5911 -5917 0
-5911 -5918 0
-5911 -5919 0
-5911 -5920 0
-5911 -5921 0
-5911 -5922 0
-5911 -5923 0
-5911 -5924 0
-462 5911 5912 5913 5914 5915 5916 5917 5918 5919 5920 5921 5922 5923 5924 0
-5925 0
-5926 1 0
-5926 4 0
-5926 7 0
-5926 10 0
-5926 13 0
-5926 16 0
-5926 19 0
-5926 22 0
-5926 25 0
-5926 28 0
-5926 31 0
-5926 34 0
-5926 37 0
-5926 40 0
-5926 43 0
-1 -4 -7 -10 -13 -16 -19 -22 -25 -28 -31 -34 -37 -40 -43 5926 0
-5927 1 0
-5927 46 0
-5927 76 0
-5927 106 0
-5927 136 0
-5927 166 0
-5927 196 0
-5927 226 0
-5927 256 0
-5927 286 0
-5927 316 0
-5927 346 0
-5927 376 0
-5927 406 0
-5927 436 0
-1 -46 -76 -106 -136 -166 -196 -226 -256 -286 -316 -346 -376 -406 -436 5927 0
-5928 46 0
-5928 48 0
-5928 50 0
-5928 52 0
-5928 54 0
-5928 56 0
-5928 58 0
-5928 60 0
-5928 62 0
-5928 64 0
-5928 66 0
-5928 68 0
-5928 70 0
-5928 72 0
-5928 74 0
-46 -48 -50 -52 -54 -56 -58 -60 -62 -64 -66 -68 -70 -72 -74 5928 0
-5929 4 0
-5929 48 0
-5929 78 0
-5929 108 0
-5929 138 0
-5929 168 0
-5929 198 0
-5929 228 0
-5929 258 0
-5929 288 0
-5929 318 0
-5929 348 0
-5929 378 0
-5929 408 0
-5929 438 0
-4 -48 -78 -108 -138 -168 -198 -228 -258 -288 -318 -348 -378 -408 -438 5929 0
-5930 76 0
-5930 78 0
-5930 80 0
-5930 82 0
-5930 84 0
-5930 86 0
-5930 88 0
-5930 90 0
-5930 92 0
-5930 94 0
-5930 96 0
-5930 98 0
-5930 100 0
-5930 102 0
-5930 104 0
-76 -78 -80 -82 -84 -86 -88 -90 -92 -94 -96 -98 -100 -102 -104 5930 0
-5931 7 0
-5931 50 0
-5931 80 0
-5931 110 0
-5931 140 0
-5931 170 0
-5931 200 0
-5931 230 0
-5931 260 0
-5931 290 0
-5931 320 0
-5931 350 0
-5931 380 0
-5931 410 0
-5931 440 0
-7 -50 -80 -110 -140 -170 -200 -230 -260 -290 -320 -350 -380 -410 -440 5931 0
-5932 106 0
-5932 108 0
-5932 110 0
-5932 112 0
-5932 114 0
-5932 116 0
-5932 118 0
-5932 120 0
-5932 122 0
-5932 124 0
-5932 126 0
-5932 128 0
-5932 130 0
-5932 132 0
-5932 134 0
-106 -108 -110 -112 -114 -116 -118 -120 -122 -124 -126 -128 -130 -132 -134 5932 0
-5933 10 0
-5933 52 0
-5933 82 0
-5933 112 0
-5933 142 0
-5933 172 0
-5933 202 0
-5933 232 0
-5933 262 0
-5933 292 0
-5933 322 0
-5933 352 0
-5933 382 0
-5933 412 0
-5933 442 0
-10 -52 -82 -112 -142 -172 -202 -232 -262 -292 -322 -352 -382 -412 -442 5933 0
-5934 136 0
-5934 138 0
-5934 140 0
-5934 142 0
-5934 144 0
-5934 146 0
-5934 148 0
-5934 150 0
-5934 152 0
-5934 154 0
-5934 156 0
-5934 158 0
-5934 160 0
-5934 162 0
-5934 164 0
-136 -138 -140 -142 -144 -146 -148 -150 -152 -154 -156 -158 -160 -162 -164 5934 0
-5935 13 0
-5935 54 0
-5935 84 0
-5935 114 0
-5935 144 0
-5935 174 0
-5935 204 0
-5935 234 0
-5935 264 0
-5935 294 0
-5935 324 0
-5935 354 0
-5935 384 0
-5935 414 0
-5935 444 0
-13 -54 -84 -114 -144 -174 -204 -234 -264 -294 -324 -354 -384 -414 -444 5935 0
-5936 166 0
-5936 168 0
-5936 170 0
-5936 172 0
-5936 174 0
-5936 176 0
-5936 178 0
-5936 180 0
-5936 182 0
-5936 184 0
-5936 186 0
-5936 188 0
-5936 190 0
-5936 192 0
-5936 194 0
-166 -168 -170 -172 -174 -176 -178 -180 -182 -184 -186 -188 -190 -192 -194 5936 0
-5937 16 0
-5937 56 0
-5937 86 0
-5937 116 0
-5937 146 0
-5937 176 0
-5937 206 0
-5937 236 0
-5937 266 0
-5937 296 0
-5937 326 0
-5937 356 0
-5937 386 0
-5937 416 0
-5937 446 0
-16 -56 -86 -116 -146 -176 -206 -236 -266 -296 -326 -356 -386 -416 -446 5937 0
-5938 196 0
-5938 198 0
-5938 200 0
-5938 202 0
-5938 204 0
-5938 206 0
-5938 208 0
-5938 210 0
-5938 212 0
-5938 214 0
-5938 216 0
-5938 218 0
-5938 220 0
-5938 222 0
-5938 224 0
-196 -198 -200 -202 -204 -206 -208 -210 -212 -214 -216 -218 -220 -222 -224 5938 0
-5939 19 0
-5939 58 0
-5939 88 0
-5939 118 0
-5939 148 0
-5939 178 0
-5939 208 0
-5939 238 0
-5939 268 0
-5939 298 0
-5939 328 0
-5939 358 0
-5939 388 0
-5939 418 0
-5939 448 0
-19 -58 -88 -118 -148 -178 -208 -238 -268 -298 -328 -358 -388 -418 -448 5939 0
-5940 226 0
-5940 228 0
-5940 230 0
-5940 232 0
-5940 234 0
-5940 236 0
-5940 238 0
-5940 240 0
-5940 242 0
-5940 244 0
-5940 246 0
-5940 248 0
-5940 250 0
-5940 252 0
-5940 254 0
-226 -228 -230 -232 -234 -236 -238 -240 -242 -244 -246 -248 -250 -252 -254 5940 0
-5941 22 0
-5941 60 0
-5941 90 0
-5941 120 0
-5941 150 0
-5941 180 0
-5941 210 0
-5941 240 0
-5941 270 0
-5941 300 0
-5941 330 0
-5941 360 0
-5941 390 0
-5941 420 0
-5941 450 0
-22 -60 -90 -120 -150 -180 -210 -240 -270 -300 -330 -360 -390 -420 -450 5941 0
-5942 256 0
-5942 258 0
-5942 260 0
-5942 262 0
-5942 264 0
-5942 266 0
-5942 268 0
-5942 270 0
-5942 272 0
-5942 274 0
-5942 276 0
-5942 278 0
-5942 280 0
-5942 282 0
-5942 284 0
-256 -258 -260 -262 -264 -266 -268 -270 -272 -274 -276 -278 -280 -282 -284 5942 0
-5943 25 0
-5943 62 0
-5943 92 0
-5943 122 0
-5943 152 0
-5943 182 0
-5943 212 0
-5943 242 0
-5943 272 0
-5943 302 0
-5943 332 0
-5943 362 0
-5943 392 0
-5943 422 0
-5943 452 0
-25 -62 -92 -122 -152 -182 -212 -242 -272 -302 -332 -362 -392 -422 -452 5943 0
-5944 286 0
-5944 288 0
-5944 290 0
-5944 292 0
-5944 294 0
-5944 296 0
-5944 298 0
-5944 300 0
-5944 302 0
-5944 304 0
-5944 306 0
-5944 308 0
-5944 310 0
-5944 312 0
-5944 314 0
-286 -288 -290 -292 -294 -296 -298 -300 -302 -304 -306 -308 -310 -312 -314 5944 0
-5945 28 0
-5945 64 0
-5945 94 0
-5945 124 0
-5945 154 0
-5945 184 0
-5945 214 0
-5945 244 0
-5945 274 0
-5945 304 0
-5945 334 0
-5945 364 0
-5945 394 0
-5945 424 0
-5945 454 0
-28 -64 -94 -124 -154 -184 -214 -244 -274 -304 -334 -364 -394 -424 -454 5945 0
-5946 316 0
-5946 318 0
-5946 320 0
-5946 322 0
-5946 324 0
-5946 326 0
-5946 328 0
-5946 330 0
-5946 332 0
-5946 334 0
-5946 336 0
-5946 338 0
-5946 340 0
-5946 342 0
-5946 344 0
-316 -318 -320 -322 -324 -326 -328 -330 -332 -334 -336 -338 -340 -342 -344 5946 0
-5947 31 0
-5947 66 0
-5947 96 0
-5947 126 0
-5947 156 0
-5947 186 0
-5947 216 0
-5947 246 0
-5947 276 0
-5947 306 0
-5947 336 0
-5947 366 0
-5947 396 0
-5947 426 0
-5947 456 0
-31 -66 -96 -126 -156 -186 -216 -246 -276 -306 -336 -366 -396 -426 -456 5947 0
-5948 346 0
-5948 348 0
-5948 350 0
-5948 352 0
-5948 354 0
-5948 356 0
-5948 358 0
-5948 360 0
-5948 362 0
-5948 364 0
-5948 366 0
-5948 368 0
-5948 370 0
-5948 372 0
-5948 374 0
-346 -348 -350 -352 -354 -356 -358 -360 -362 -364 -366 -368 -370 -372 -374 5948 0
-5949 34 0
-5949 68 0
-5949 98 0
-5949 128 0
-5949 158 0
-5949 188 0
-5949 218 0
-5949 248 0
-5949 278 0
-5949 308 0
-5949 338 0
-5949 368 0
-5949 398 0
-5949 428 0
-5949 458 0
-34 -68 -98 -128 -158 -188 -218 -248 -278 -308 -338 -368 -398 -428 -458 5949 0
-5950 376 0
-5950 378 0
-5950 380 0
-5950 382 0
-5950 384 0
-5950 386 0
-5950 388 0
-5950 390 0
-5950 392 0
-5950 394 0
-5950 396 0
-5950 398 0
-5950 400 0
-5950 402 0
-5950 404 0
-376 -378 -380 -382 -384 -386 -388 -390 -392 -394 -396 -398 -400 -402 -404 5950 0
-5951 37 0
-5951 70 0
-5951 100 0
-5951 130 0
-5951 160 0
-5951 190 0
-5951 220 0
-5951 250 0
-5951 280 0
-5951 310 0
-5951 340 0
-5951 370 0
-5951 400 0
-5951 430 0
-5951 460 0
-37 -70 -100 -130 -160 -190 -220 -250 -280 -310 -340 -370 -400 -430 -460 5951 0
-5952 406 0
-5952 408 0
-5952 410 0
-5952 412 0
-5952 414 0
-5952 416 0
-5952 418 0
-5952 420 0
-5952 422 0
-5952 424 0
-5952 426 0
-5952 428 0
-5952 430 0
-5952 432 0
-5952 434 0
-406 -408 -410 -412 -414 -416 -418 -420 -422 -424 -426 -428 -430 -432 -434 5952 0
-5953 40 0
-5953 72 0
-5953 102 0
-5953 132 0
-5953 162 0
-5953 192 0
-5953 222 0
-5953 252 0
-5953 282 0
-5953 312 0
-5953 342 0
-5953 372 0
-5953 402 0
-5953 432 0
-5953 462 0
-40 -72 -102 -132 -162 -192 -222 -252 -282 -312 -342 -372 -402 -432 -462 5953 0
-5954 436 0
-5954 438 0
-5954 440 0
-5954 442 0
-5954 444 0
-5954 446 0
-5954 448 0
-5954 450 0
-5954 452 0
-5954 454 0
-5954 456 0
-5954 458 0
-5954 460 0
-5954 462 0
-5954 464 0
-436 -438 -440 -442 -444 -446 -448 -450 -452 -454 -456 -458 -460 -462 -464 5954 0
-5955 43 0
-5955 74 0
-5955 104 0
-5955 134 0
-5955 164 0
-5955 194 0
-5955 224 0
-5955 254 0
-5955 284 0
-5955 314 0
-5955 344 0
-5955 374 0
-5955 404 0
-5955 434 0
-5955 464 0
-43 -74 -104 -134 -164 -194 -224 -254 -284 -314 -344 -374 -404 -434 -464 5955 0
-2971 1846 0
-5927 -5926 1846 0
-1846 2971 5927 0
-1846 2971 5926 0
-2972 1848 0
-5927 -5928 1848 0
-1848 2972 5927 0
-1848 2972 5928 0
-2986 1850 0
-5927 -5930 1850 0
-1850 2986 5927 0
-1850 2986 5930 0
-3000 1852 0
-5927 -5932 1852 0
-1852 3000 5927 0
-1852 3000 5932 0
-3014 1854 0
-5927 -5934 1854 0
-1854 3014 5927 0
-1854 3014 5934 0
-3028 1856 0
-5927 -5936 1856 0
-1856 3028 5927 0
-1856 3028 5936 0
-3042 1858 0
-5927 -5938 1858 0
-1858 3042 5927 0
-1858 3042 5938 0
-3056 1860 0
-5927 -5940 1860 0
-1860 3056 5927 0
-1860 3056 5940 0
-3070 1862 0
-5927 -5942 1862 0
-1862 3070 5927 0
-1862 3070 5942 0
-3084 1864 0
-5927 -5944 1864 0
-1864 3084 5927 0
-1864 3084 5944 0
-3098 1866 0
-5927 -5946 1866 0
-1866 3098 5927 0
-1866 3098 5946 0
-3112 1868 0
-5927 -5948 1868 0
-1868 3112 5927 0
-1868 3112 5948 0
-3126 1870 0
-5927 -5950 1870 0
-1870 3126 5927 0
-1870 3126 5950 0
-3140 1872 0
-5927 -5952 1872 0
-1872 3140 5927 0
-1872 3140 5952 0
-3154 1874 0
-5927 -5954 1874 0
-1874 3154 5927 0
-1874 3154 5954 0
-3168 1876 0
-5929 -5926 1876 0
-1876 3168 5929 0
-1876 3168 5926 0
-3182 1878 0
-5929 -5928 1878 0
-1878 3182 5929 0
-1878 3182 5928 0
-3183 1880 0
-5929 -5930 1880 0
-1880 3183 5929 0
-1880 3183 5930 0
-3197 1882 0
-5929 -5932 1882 0
-1882 3197 5929 0
-1882 3197 5932 0
-3211 1884 0
-5929 -5934 1884 0
-1884 3211 5929 0
-1884 3211 5934 0
-3225 1886 0
-5929 -5936 1886 0
-1886 3225 5929 0
-1886 3225 5936 0
-3239 1888 0
-5929 -5938 1888 0
-1888 3239 5929 0
-1888 3239 5938 0
-3253 1890 0
-5929 -5940 1890 0
-1890 3253 5929 0
-1890 3253 5940 0
-3267 1892 0
-5929 -5942 1892 0
-1892 3267 5929 0
-1892 3267 5942 0
-3281 1894 0
-5929 -5944 1894 0
-1894 3281 5929 0
-1894 3281 5944 0
-3295 1896 0
-5929 -5946 1896 0
-1896 3295 5929 0
-1896 3295 5946 0
-3309 1898 0
-5929 -5948 1898 0
-1898 3309 5929 0
-1898 3309 5948 0
-3323 1900 0
-5929 -5950 1900 0
-1900 3323 5929 0
-1900 3323 5950 0
-3337 1902 0
-5929 -5952 1902 0
-1902 3337 5929 0
-1902 3337 5952 0
-3351 1904 0
-5929 -5954 1904 0
-1904 3351 5929 0
-1904 3351 5954 0
-3365 1906 0
-5931 -5926 1906 0
-1906 3365 5931 0
-1906 3365 5926 0
-3379 1908 0
-5931 -5928 1908 0
-1908 3379 5931 0
-1908 3379 5928 0
-3393 1910 0
-5931 -5930 1910 0
-1910 3393 5931 0
-1910 3393 5930 0
-3394 1912 0
-5931 -5932 1912 0
-1912 3394 5931 0
-1912 3394 5932 0
-3408 1914 0
-5931 -5934 1914 0
-1914 3408 5931 0
-1914 3408 5934 0
-3422 1916 0
-5931 -5936 1916 0
-1916 3422 5931 0
-1916 3422 5936 0
-3436 1918 0
-5931 -5938 1918 0
-1918 3436 5931 0
-1918 3436 5938 0
-3450 1920 0
-5931 -5940 1920 0
-1920 3450 5931 0
-1920 3450 5940 0
-3464 1922 0
-5931 -5942 1922 0
-1922 3464 5931 0
-1922 3464 5942 0
-3478 1924 0
-5931 -5944 1924 0
-1924 3478 5931 0
-1924 3478 5944 0
-3492 1926 0
-5931 -5946 1926 0
-1926 3492 5931 0
-1926 3492 5946 0
-3506 1928 0
-5931 -5948 1928 0
-1928 3506 5931 0
-1928 3506 5948 0
-3520 1930 0
-5931 -5950 1930 0
-1930 3520 5931 0
-1930 3520 5950 0
-3534 1932 0
-5931 -5952 1932 0
-1932 3534 5931 0
-1932 3534 5952 0
-3548 1934 0
-5931 -5954 1934 0
-1934 3548 5931 0
-1934 3548 5954 0
-3562 1936 0
-5933 -5926 1936 0
-1936 3562 5933 0
-1936 3562 5926 0
-3576 1938 0
-5933 -5928 1938 0
-1938 3576 5933 0
-1938 3576 5928 0
-3590 1940 0
-5933 -5930 1940 0
-1940 3590 5933 0
-1940 3590 5930 0
-3604 1942 0
-5933 -5932 1942 0
-1942 3604 5933 0
-1942 3604 5932 0
-3605 1944 0
-5933 -5934 1944 0
-1944 3605 5933 0
-1944 3605 5934 0
-3619 1946 0
-5933 -5936 1946 0
-1946 3619 5933 0
-1946 3619 5936 0
-3633 1948 0
-5933 -5938 1948 0
-1948 3633 5933 0
-1948 3633 5938 0
-3647 1950 0
-5933 -5940 1950 0
-1950 3647 5933 0
-1950 3647 5940 0
-3661 1952 0
-5933 -5942 1952 0
-1952 3661 5933 0
-1952 3661 5942 0
-3675 1954 0
-5933 -5944 1954 0
-1954 3675 5933 0
-1954 3675 5944 0
-3689 1956 0
-5933 -5946 1956 0
-1956 3689 5933 0
-1956 3689 5946 0
-3703 1958 0
-5933 -5948 1958 0
-1958 3703 5933 0
-1958 3703 5948 0
-3717 1960 0
-5933 -5950 1960 0
-1960 3717 5933 0
-1960 3717 5950 0
-3731 1962 0
-5933 -5952 1962 0
-1962 3731 5933 0
-1962 3731 5952 0
-3745 1964 0
-5933 -5954 1964 0
-1964 3745 5933 0
-1964 3745 5954 0
-3759 1966 0
-5935 -5926 1966 0
-1966 3759 5935 0
-1966 3759 5926 0
-3773 1968 0
-5935 -5928 1968 0
-1968 3773 5935 0
-1968 3773 5928 0
-3787 1970 0
-5935 -5930 1970 0
-1970 3787 5935 0
-1970 3787 5930 0
-3801 1972 0
-5935 -5932 1972 0
-1972 3801 5935 0
-1972 3801 5932 0
-3815 1974 0
-5935 -5934 1974 0
-1974 3815 5935 0
-1974 3815 5934 0
-3816 1976 0
-5935 -5936 1976 0
-1976 3816 5935 0
-1976 3816 5936 0
-3830 1978 0
-5935 -5938 1978 0
-1978 3830 5935 0
-1978 3830 5938 0
-3844 1980 0
-5935 -5940 1980 0
-1980 3844 5935 0
-1980 3844 5940 0
-3858 1982 0
-5935 -5942 1982 0
-1982 3858 5935 0
-1982 3858 5942 0
-3872 1984 0
-5935 -5944 1984 0
-1984 3872 5935 0
-1984 3872 5944 0
-3886 1986 0
-5935 -5946 1986 0
-1986 3886 5935 0
-1986 3886 5946 0
-3900 1988 0
-5935 -5948 1988 0
-1988 3900 5935 0
-1988 3900 5948 0
-3914 1990 0
-5935 -5950 1990 0
-1990 3914 5935 0
-1990 3914 5950 0
-3928 1992 0
-5935 -5952 1992 0
-1992 3928 5935 0
-1992 3928 5952 0
-3942 1994 0
-5935 -5954 1994 0
-1994 3942 5935 0
-1994 3942 5954 0
-3956 1996 0
-5937 -5926 1996 0
-1996 3956 5937 0
-1996 3956 5926 0
-3970 1998 0
-5937 -5928 1998 0
-1998 3970 5937 0
-1998 3970 5928 0
-3984 2000 0
-5937 -5930 2000 0
-2000 3984 5937 0
-2000 3984 5930 0
-3998 2002 0
-5937 -5932 2002 0
-2002 3998 5937 0
-2002 3998 5932 0
-4012 2004 0
-5937 -5934 2004 0
-2004 4012 5937 0
-2004 4012 5934 0
-4026 2006 0
-5937 -5936 2006 0
-2006 4026 5937 0
-2006 4026 5936 0
-4027 2008 0
-5937 -5938 2008 0
-2008 4027 5937 0
-2008 4027 5938 0
-4041 2010 0
-5937 -5940 2010 0
-2010 4041 5937 0
-2010 4041 5940 0
-4055 2012 0
-5937 -5942 2012 0
-2012 4055 5937 0
-2012 4055 5942 0
-4069 2014 0
-5937 -5944 2014 0
-2014 4069 5937 0
-2014 4069 5944 0
-4083 2016 0
-5937 -5946 2016 0
-2016 4083 5937 0
-2016 4083 5946 0
-4097 2018 0
-5937 -5948 2018 0
-2018 4097 5937 0
-2018 4097 5948 0
-4111 2020 0
-5937 -5950 2020 0
-2020 4111 5937 0
-2020 4111 5950 0
-4125 2022 0
-5937 -5952 2022 0
-2022 4125 5937 0
-2022 4125 5952 0
-4139 2024 0
-5937 -5954 2024 0
-2024 4139 5937 0
-2024 4139 5954 0
-4153 2026 0
-5939 -5926 2026 0
-2026 4153 5939 0
-2026 4153 5926 0
-4167 2028 0
-5939 -5928 2028 0
-2028 4167 5939 0
-2028 4167 5928 0
-4181 2030 0
-5939 -5930 2030 0
-2030 4181 5939 0
-2030 4181 5930 0
-4195 2032 0
-5939 -5932 2032 0
-2032 4195 5939 0
-2032 4195 5932 0
-4209 2034 0
-5939 -5934 2034 0
-2034 4209 5939 0
-2034 4209 5934 0
-4223 2036 0
-5939 -5936 2036 0
-2036 4223 5939 0
-2036 4223 5936 0
-4237 2038 0
-5939 -5938 2038 0
-2038 4237 5939 0
-2038 4237 5938 0
-4238 2040 0
-5939 -5940 2040 0
-2040 4238 5939 0
-2040 4238 5940 0
-4252 2042 0
-5939 -5942 2042 0
-2042 4252 5939 0
-2042 4252 5942 0
-4266 2044 0
-5939 -5944 2044 0
-2044 4266 5939 0
-2044 4266 5944 0
-4280 2046 0
-5939 -5946 2046 0
-2046 4280 5939 0
-2046 4280 5946 0
-4294 2048 0
-5939 -5948 2048 0
-2048 4294 5939 0
-2048 4294 5948 0
-4308 2050 0
-5939 -5950 2050 0
-2050 4308 5939 0
-2050 4308 5950 0
-4322 2052 0
-5939 -5952 2052 0
-2052 4322 5939 0
-2052 4322 5952 0
-4336 2054 0
-5939 -5954 2054 0
-2054 4336 5939 0
-2054 4336 5954 0
-4350 2056 0
-5941 -5926 2056 0
-2056 4350 5941 0
-2056 4350 5926 0
-4364 2058 0
-5941 -5928 2058 0
-2058 4364 5941 0
-2058 4364 5928 0
-4378 2060 0
-5941 -5930 2060 0
-2060 4378 5941 0
-2060 4378 5930 0
-4392 2062 0
-5941 -5932 2062 0
-2062 4392 5941 0
-2062 4392 5932 0
-4406 2064 0
-5941 -5934 2064 0
-2064 4406 5941 0
-2064 4406 5934 0
-4420 2066 0
-5941 -5936 2066 0
-2066 4420 5941 0
-2066 4420 5936 0
-4434 2068 0
-5941 -5938 2068 0
-2068 4434 5941 0
-2068 4434 5938 0
-4448 2070 0
-5941 -5940 2070 0
-2070 4448 5941 0
-2070 4448 5940 0
-4449 2072 0
-5941 -5942 2072 0
-2072 4449 5941 0
-2072 4449 5942 0
-4463 2074 0
-5941 -5944 2074 0
-2074 4463 5941 0
-2074 4463 5944 0
-4477 2076 0
-5941 -5946 2076 0
-2076 4477 5941 0
-2076 4477 5946 0
-4491 2078 0
-5941 -5948 2078 0
-2078 4491 5941 0
-2078 4491 5948 0
-4505 2080 0
-5941 -5950 2080 0
-2080 4505 5941 0
-2080 4505 5950 0
-4519 2082 0
-5941 -5952 2082 0
-2082 4519 5941 0
-2082 4519 5952 0
-4533 2084 0
-5941 -5954 2084 0
-2084 4533 5941 0
-2084 4533 5954 0
-4547 2086 0
-5943 -5926 2086 0
-2086 4547 5943 0
-2086 4547 5926 0
-4561 2088 0
-5943 -5928 2088 0
-2088 4561 5943 0
-2088 4561 5928 0
-4575 2090 0
-5943 -5930 2090 0
-2090 4575 5943 0
-2090 4575 5930 0
-4589 2092 0
-5943 -5932 2092 0
-2092 4589 5943 0
-2092 4589 5932 0
-4603 2094 0
-5943 -5934 2094 0
-2094 4603 5943 0
-2094 4603 5934 0
-4617 2096 0
-5943 -5936 2096 0
-2096 4617 5943 0
-2096 4617 5936 0
-4631 2098 0
-5943 -5938 2098 0
-2098 4631 5943 0
-2098 4631 5938 0
-4645 2100 0
-5943 -5940 2100 0
-2100 4645 5943 0
-2100 4645 5940 0
-4659 2102 0
-5943 -5942 2102 0
-2102 4659 5943 0
-2102 4659 5942 0
-4660 2104 0
-5943 -5944 2104 0
-2104 4660 5943 0
-2104 4660 5944 0
-4674 2106 0
-5943 -5946 2106 0
-2106 4674 5943 0
-2106 4674 5946 0
-4688 2108 0
-5943 -5948 2108 0
-2108 4688 5943 0
-2108 4688 5948 0
-4702 2110 0
-5943 -5950 2110 0
-2110 4702 5943 0
-2110 4702 5950 0
-4716 2112 0
-5943 -5952 2112 0
-2112 4716 5943 0
-2112 4716 5952 0
-4730 2114 0
-5943 -5954 2114 0
-2114 4730 5943 0
-2114 4730 5954 0
-4744 2116 0
-5945 -5926 2116 0
-2116 4744 5945 0
-2116 4744 5926 0
-4758 2118 0
-5945 -5928 2118 0
-2118 4758 5945 0
-2118 4758 5928 0
-4772 2120 0
-5945 -5930 2120 0
-2120 4772 5945 0
-2120 4772 5930 0
-4786 2122 0
-5945 -5932 2122 0
-2122 4786 5945 0
-2122 4786 5932 0
-4800 2124 0
-5945 -5934 2124 0
-2124 4800 5945 0
-2124 4800 5934 0
-4814 2126 0
-5945 -5936 2126 0
-2126 4814 5945 0
-2126 4814 5936 0
-4828 2128 0
-5945 -5938 2128 0
-2128 4828 5945 0
-2128 4828 5938 0
-4842 2130 0
-5945 -5940 2130 0
-2130 4842 5945 0
-2130 4842 5940 0
-4856 2132 0
-5945 -5942 2132 0
-2132 4856 5945 0
-2132 4856 5942 0
-4870 2134 0
-5945 -5944 2134 0
-2134 4870 5945 0
-2134 4870 5944 0
-4871 2136 0
-5945 -5946 2136 0
-2136 4871 5945 0
-2136 4871 5946 0
-4885 2138 0
-5945 -5948 2138 0
-2138 4885 5945 0
-2138 4885 5948 0
-4899 2140 0
-5945 -5950 2140 0
-2140 4899 5945 0
-2140 4899 5950 0
-4913 2142 0
-5945 -5952 2142 0
-2142 4913 5945 0
-2142 4913 5952 0
-4927 2144 0
-5945 -5954 2144 0
-2144 4927 5945 0
-2144 4927 5954 0
-4941 2146 0
-5947 -5926 2146 0
-2146 4941 5947 0
-2146 4941 5926 0
-4955 2148 0
-5947 -5928 2148 0
-2148 4955 5947 0
-2148 4955 5928 0
-4969 2150 0
-5947 -5930 2150 0
-2150 4969 5947 0
-2150 4969 5930 0
-4983 2152 0
-5947 -5932 2152 0
-2152 4983 5947 0
-2152 4983 5932 0
-4997 2154 0
-5947 -5934 2154 0
-2154 4997 5947 0
-2154 4997 5934 0
-5011 2156 0
-5947 -5936 2156 0
-2156 5011 5947 0
-2156 5011 5936 0
-5025 2158 0
-5947 -5938 2158 0
-2158 5025 5947 0
-2158 5025 5938 0
-5039 2160 0
-5947 -5940 2160 0
-2160 5039 5947 0
-2160 5039 5940 0
-5053 2162 0
-5947 -5942 2162 0
-2162 5053 5947 0
-2162 5053 5942 0
-5067 2164 0
-5947 -5944 2164 0
-2164 5067 5947 0
-2164 5067 5944 0
-5081 2166 0
-5947 -5946 2166 0
-2166 5081 5947 0
-2166 5081 5946 0
-5082 2168 0
-5947 -5948 2168 0
-2168 5082 5947 0
-2168 5082 5948 0
-5096 2170 0
-5947 -5950 2170 0
-2170 5096 5947 0
-2170 5096 5950 0
-5110 2172 0
-5947 -5952 2172 0
-2172 5110 5947 0
-2172 5110 5952 0
-5124 2174 0
-5947 -5954 2174 0
-2174 5124 5947 0
-2174 5124 5954 0
-5138 2176 0
-5949 -5926 2176 0
-2176 5138 5949 0
-2176 5138 5926 0
-5152 2178 0
-5949 -5928 2178 0
-2178 5152 5949 0
-2178 5152 5928 0
-5166 2180 0
-5949 -5930 2180 0
-2180 5166 5949 0
-2180 5166 5930 0
-5180 2182 0
-5949 -5932 2182 0
-2182 5180 5949 0
-2182 5180 5932 0
-5194 2184 0
-5949 -5934 2184 0
-2184 5194 5949 0
-2184 5194 5934 0
-5208 2186 0
-5949 -5936 2186 0
-2186 5208 5949 0
-2186 5208 5936 0
-5222 2188 0
-5949 -5938 2188 0
-2188 5222 5949 0
-2188 5222 5938 0
-5236 2190 0
-5949 -5940 2190 0
-2190 5236 5949 0
-2190 5236 5940 0
-5250 2192 0
-5949 -5942 2192 0
-2192 5250 5949 0
-2192 5250 5942 0
-5264 2194 0
-5949 -5944 2194 0
-2194 5264 5949 0
-2194 5264 5944 0
-5278 2196 0
-5949 -5946 2196 0
-2196 5278 5949 0
-2196 5278 5946 0
-5292 2198 0
-5949 -5948 2198 0
-2198 5292 5949 0
-2198 5292 5948 0
-5293 2200 0
-5949 -5950 2200 0
-2200 5293 5949 0
-2200 5293 5950 0
-5307 2202 0
-5949 -5952 2202 0
-2202 5307 5949 0
-2202 5307 5952 0
-5321 2204 0
-5949 -5954 2204 0
-2204 5321 5949 0
-2204 5321 5954 0
-5335 2206 0
-5951 -5926 2206 0
-2206 5335 5951 0
-2206 5335 5926 0
-5349 2208 0
-5951 -5928 2208 0
-2208 5349 5951 0
-2208 5349 5928 0
-5363 2210 0
-5951 -5930 2210 0
-2210 5363 5951 0
-2210 5363 5930 0
-5377 2212 0
-5951 -5932 2212 0
-2212 5377 5951 0
-2212 5377 5932 0
-5391 2214 0
-5951 -5934 2214 0
-2214 5391 5951 0
-2214 5391 5934 0
-5405 2216 0
-5951 -5936 2216 0
-2216 5405 5951 0
-2216 5405 5936 0
-5419 2218 0
-5951 -5938 2218 0
-2218 5419 5951 0
-2218 5419 5938 0
-5433 2220 0
-5951 -5940 2220 0
-2220 5433 5951 0
-2220 5433 5940 0
-5447 2222 0
-5951 -5942 2222 0
-2222 5447 5951 0
-2222 5447 5942 0
-5461 2224 0
-5951 -5944 2224 0
-2224 5461 5951 0
-2224 5461 5944 0
-5475 2226 0
-5951 -5946 2226 0
-2226 5475 5951 0
-2226 5475 5946 0
-5489 2228 0
-5951 -5948 2228 0
-2228 5489 5951 0
-2228 5489 5948 0
-5503 2230 0
-5951 -5950 2230 0
-2230 5503 5951 0
-2230 5503 5950 0
-5504 2232 0
-5951 -5952 2232 0
-2232 5504 5951 0
-2232 5504 5952 0
-5518 2234 0
-5951 -5954 2234 0
-2234 5518 5951 0
-2234 5518 5954 0
-5532 2236 0
-5953 -5926 2236 0
-2236 5532 5953 0
-2236 5532 5926 0
-5546 2238 0
-5953 -5928 2238 0
-2238 5546 5953 0
-2238 5546 5928 0
-5560 2240 0
-5953 -5930 2240 0
-2240 5560 5953 0
-2240 5560 5930 0
-5574 2242 0
-5953 -5932 2242 0
-2242 5574 5953 0
-2242 5574 5932 0
-5588 2244 0
-5953 -5934 2244 0
-2244 5588 5953 0
-2244 5588 5934 0
-5602 2246 0
-5953 -5936 2246 0
-2246 5602 5953 0
-2246 5602 5936 0
-5616 2248 0
-5953 -5938 2248 0
-2248 5616 5953 0
-2248 5616 5938 0
-5630 2250 0
-5953 -5940 2250 0
-2250 5630 5953 0
-2250 5630 5940 0
-5644 2252 0
-5953 -5942 2252 0
-2252 5644 5953 0
-2252 5644 5942 0
-5658 2254 0
-5953 -5944 2254 0
-2254 5658 5953 0
-2254 5658 5944 0
-5672 2256 0
-5953 -5946 2256 0
-2256 5672 5953 0
-2256 5672 5946 0
-5686 2258 0
-5953 -5948 2258 0
-2258 5686 5953 0
-2258 5686 5948 0
-5700 2260 0
-5953 -5950 2260 0
-2260 5700 5953 0
-2260 5700 5950 0
-5714 2262 0
-5953 -5952 2262 0
-2262 5714 5953 0
-2262 5714 5952 0
-5715 2264 0
-5953 -5954 2264 0
-2264 5715 5953 0
-2264 5715 5954 0
-5729 2266 0
-5955 -5926 2266 0
-2266 5729 5955 0
-2266 5729 5926 0
-5743 2268 0
-5955 -5928 2268 0
-2268 5743 5955 0
-2268 5743 5928 0
-5757 2270 0
-5955 -5930 2270 0
-2270 5757 5955 0
-2270 5757 5930 0
-5771 2272 0
-5955 -5932 2272 0
-2272 5771 5955 0
-2272 5771 5932 0
-5785 2274 0
-5955 -5934 2274 0
-2274 5785 5955 0
-2274 5785 5934 0
-5799 2276 0
-5955 -5936 2276 0
-2276 5799 5955 0
-2276 5799 5936 0
-5813 2278 0
-5955 -5938 2278 0
-2278 5813 5955 0
-2278 5813 5938 0
-5827 2280 0
-5955 -5940 2280 0
-2280 5827 5955 0
-2280 5827 5940 0
-5841 2282 0
-5955 -5942 2282 0
-2282 5841 5955 0
-2282 5841 5942 0
-5855 2284 0
-5955 -5944 2284 0
-2284 5855 5955 0
-2284 5855 5944 0
-5869 2286 0
-5955 -5946 2286 0
-2286 5869 5955 0
-2286 5869 5946 0
-5883 2288 0
-5955 -5948 2288 0
-2288 5883 5955 0
-2288 5883 5948 0
-5897 2290 0
-5955 -5950 2290 0
-2290 5897 5955 0
-2290 5897 5950 0
-5911 2292 0
-5955 -5952 2292 0
-2292 5911 5955 0
-2292 5911 5952 0
-5925 2294 0
-5955 -5954 2294 0
-2294 5925 5955 0
-2294 5925 5954 0
