p cnf 9522 40086
1 2 -2 -3 0
4 5 -2 -6 0
7 8 -2 -9 0
10 11 -2 -12 0
13 14 -2 -15 0
16 17 -2 -18 0
19 20 -2 -21 0
22 23 -2 -24 0
25 26 -2 -27 0
28 29 -2 -30 0
31 32 -2 -33 0
34 35 -2 -36 0
37 38 -2 -39 0
40 41 -2 -42 0
43 44 -2 -45 0
46 47 -2 -48 0
49 50 -2 -51 0
52 53 -2 -54 0
55 2 -5 -56 0
57 5 -5 -58 0
59 8 -5 -60 0
61 11 -5 -62 0
63 14 -5 -64 0
65 17 -5 -66 0
67 20 -5 -68 0
69 23 -5 -70 0
71 26 -5 -72 0
73 29 -5 -74 0
75 32 -5 -76 0
77 35 -5 -78 0
79 38 -5 -80 0
81 41 -5 -82 0
83 44 -5 -84 0
85 47 -5 -86 0
87 50 -5 -88 0
89 53 -5 -90 0
91 2 -8 -92 0
93 5 -8 -94 0
95 8 -8 -96 0
97 11 -8 -98 0
99 14 -8 -100 0
101 17 -8 -102 0
103 20 -8 -104 0
105 23 -8 -106 0
107 26 -8 -108 0
109 29 -8 -110 0
111 32 -8 -112 0
113 35 -8 -114 0
115 38 -8 -116 0
117 41 -8 -118 0
119 44 -8 -120 0
121 47 -8 -122 0
123 50 -8 -124 0
125 53 -8 -126 0
127 2 -11 -128 0
129 5 -11 -130 0
131 8 -11 -132 0
133 11 -11 -134 0
135 14 -11 -136 0
137 17 -11 -138 0
139 20 -11 -140 0
141 23 -11 -142 0
143 26 -11 -144 0
145 29 -11 -146 0
147 32 -11 -148 0
149 35 -11 -150 0
151 38 -11 -152 0
153 41 -11 -154 0
155 44 -11 -156 0
157 47 -11 -158 0
159 50 -11 -160 0
161 53 -11 -162 0
163 2 -14 -164 0
165 5 -14 -166 0
167 8 -14 -168 0
169 11 -14 -170 0
171 14 -14 -172 0
173 17 -14 -174 0
175 20 -14 -176 0
177 23 -14 -178 0
179 26 -14 -180 0
181 29 -14 -182 0
183 32 -14 -184 0
185 35 -14 -186 0
187 38 -14 -188 0
189 41 -14 -190 0
191 44 -14 -192 0
193 47 -14 -194 0
195 50 -14 -196 0
197 53 -14 -198 0
199 2 -17 -200 0
201 5 -17 -202 0
203 8 -17 -204 0
205 11 -17 -206 0
207 14 -17 -208 0
209 17 -17 -210 0
211 20 -17 -212 0
213 23 -17 -214 0
215 26 -17 -216 0
217 29 -17 -218 0
219 32 -17 -220 0
221 35 -17 -222 0
223 38 -17 -224 0
225 41 -17 -226 0
227 44 -17 -228 0
229 47 -17 -230 0
231 50 -17 -232 0
233 53 -17 -234 0
235 2 -20 -236 0
237 5 -20 -238 0
239 8 -20 -240 0
241 11 -20 -242 0
243 14 -20 -244 0
245 17 -20 -246 0
247 20 -20 -248 0
249 23 -20 -250 0
251 26 -20 -252 0
253 29 -20 -254 0
255 32 -20 -256 0
257 35 -20 -258 0
259 38 -20 -260 0
261 41 -20 -262 0
263 44 -20 -264 0
265 47 -20 -266 0
267 50 -20 -268 0
269 53 -20 -270 0
271 2 -23 -272 0
273 5 -23 -274 0
275 8 -23 -276 0
277 11 -23 -278 0
279 14 -23 -280 0
281 17 -23 -282 0
283 20 -23 -284 0
285 23 -23 -286 0
287 26 -23 -288 0
289 29 -23 -290 0
291 32 -23 -292 0
293 35 -23 -294 0
295 38 -23 -296 0
297 41 -23 -298 0
299 44 -23 -300 0
301 47 -23 -302 0
303 50 -23 -304 0
305 53 -23 -306 0
307 2 -26 -308 0
309 5 -26 -310 0
311 8 -26 -312 0
313 11 -26 -314 0
315 14 -26 -316 0
317 17 -26 -318 0
319 20 -26 -320 0
321 23 -26 -322 0
323 26 -26 -324 0
325 29 -26 -326 0
327 32 -26 -328 0
329 35 -26 -330 0
331 38 -26 -332 0
333 41 -26 -334 0
335 44 -26 -336 0
337 47 -26 -338 0
339 50 -26 -340 0
341 53 -26 -342 0
343 2 -29 -344 0
345 5 -29 -346 0
347 8 -29 -348 0
349 11 -29 -350 0
351 14 -29 -352 0
353 17 -29 -354 0
355 20 -29 -356 0
357 23 -29 -358 0
359 26 -29 -360 0
361 29 -29 -362 0
363 32 -29 -364 0
365 35 -29 -366 0
367 38 -29 -368 0
369 41 -29 -370 0
371 44 -29 -372 0
373 47 -29 -374 0
375 50 -29 -376 0
377 53 -29 -378 0
379 2 -32 -380 0
381 5 -32 -382 0
383 8 -32 -384 0
385 11 -32 -386 0
387 14 -32 -388 0
389 17 -32 -390 0
391 20 -32 -392 0
393 23 -32 -394 0
395 26 -32 -396 0
397 29 -32 -398 0
399 32 -32 -400 0
401 35 -32 -402 0
403 38 -32 -404 0
405 41 -32 -406 0
407 44 -32 -408 0
409 47 -32 -410 0
411 50 -32 -412 0
413 53 -32 -414 0
415 2 -35 -416 0
417 5 -35 -418 0
419 8 -35 -420 0
421 11 -35 -422 0
423 14 -35 -424 0
425 17 -35 -426 0
427 20 -35 -428 0
429 23 -35 -430 0
431 26 -35 -432 0
433 29 -35 -434 0
435 32 -35 -436 0
437 35 -35 -438 0
439 38 -35 -440 0
441 41 -35 -442 0
443 44 -35 -444 0
445 47 -35 -446 0
447 50 -35 -448 0
449 53 -35 -450 0
451 2 -38 -452 0
453 5 -38 -454 0
455 8 -38 -456 0
457 11 -38 -458 0
459 14 -38 -460 0
461 17 -38 -462 0
463 20 -38 -464 0
465 23 -38 -466 0
467 26 -38 -468 0
469 29 -38 -470 0
471 32 -38 -472 0
473 35 -38 -474 0
475 38 -38 -476 0
477 41 -38 -478 0
479 44 -38 -480 0
481 47 -38 -482 0
483 50 -38 -484 0
485 53 -38 -486 0
487 2 -41 -488 0
489 5 -41 -490 0
491 8 -41 -492 0
493 11 -41 -494 0
495 14 -41 -496 0
497 17 -41 -498 0
499 20 -41 -500 0
501 23 -41 -502 0
503 26 -41 -504 0
505 29 -41 -506 0
507 32 -41 -508 0
509 35 -41 -510 0
511 38 -41 -512 0
513 41 -41 -514 0
515 44 -41 -516 0
517 47 -41 -518 0
519 50 -41 -520 0
521 53 -41 -522 0
523 2 -44 -524 0
525 5 -44 -526 0
527 8 -44 -528 0
529 11 -44 -530 0
531 14 -44 -532 0
533 17 -44 -534 0
535 20 -44 -536 0
537 23 -44 -538 0
539 26 -44 -540 0
541 29 -44 -542 0
543 32 -44 -544 0
545 35 -44 -546 0
547 38 -44 -548 0
549 41 -44 -550 0
551 44 -44 -552 0
553 47 -44 -554 0
555 50 -44 -556 0
557 53 -44 -558 0
559 2 -47 -560 0
561 5 -47 -562 0
563 8 -47 -564 0
565 11 -47 -566 0
567 14 -47 -568 0
569 17 -47 -570 0
571 20 -47 -572 0
573 23 -47 -574 0
575 26 -47 -576 0
577 29 -47 -578 0
579 32 -47 -580 0
581 35 -47 -582 0
583 38 -47 -584 0
585 41 -47 -586 0
587 44 -47 -588 0
589 47 -47 -590 0
591 50 -47 -592 0
593 53 -47 -594 0
595 2 -50 -596 0
597 5 -50 -598 0
599 8 -50 -600 0
601 11 -50 -602 0
603 14 -50 -604 0
605 17 -50 -606 0
607 20 -50 -608 0
609 23 -50 -610 0
611 26 -50 -612 0
613 29 -50 -614 0
615 32 -50 -616 0
617 35 -50 -618 0
619 38 -50 -620 0
621 41 -50 -622 0
623 44 -50 -624 0
625 47 -50 -626 0
627 50 -50 -628 0
629 53 -50 -630 0
631 2 -53 -632 0
633 5 -53 -634 0
635 8 -53 -636 0
637 11 -53 -638 0
639 14 -53 -640 0
641 17 -53 -642 0
643 20 -53 -644 0
645 23 -53 -646 0
647 26 -53 -648 0
649 29 -53 -650 0
651 32 -53 -652 0
653 35 -53 -654 0
655 38 -53 -656 0
657 41 -53 -658 0
659 44 -53 -660 0
661 47 -53 -662 0
663 50 -53 -664 0
665 53 -53 -666 0
3 -1 0
6 -4 0
9 -7 0
12 -10 0
15 -13 0
18 -16 0
21 -19 0
24 -22 0
27 -25 0
30 -28 0
33 -31 0
36 -34 0
39 -37 0
42 -40 0
45 -43 0
48 -46 0
51 -49 0
54 -52 0
56 -55 0
58 -57 0
60 -59 0
62 -61 0
64 -63 0
66 -65 0
68 -67 0
70 -69 0
72 -71 0
74 -73 0
76 -75 0
78 -77 0
80 -79 0
82 -81 0
84 -83 0
86 -85 0
88 -87 0
90 -89 0
92 -91 0
94 -93 0
96 -95 0
98 -97 0
100 -99 0
102 -101 0
104 -103 0
106 -105 0
108 -107 0
110 -109 0
112 -111 0
114 -113 0
116 -115 0
118 -117 0
120 -119 0
122 -121 0
124 -123 0
126 -125 0
128 -127 0
130 -129 0
132 -131 0
134 -133 0
136 -135 0
138 -137 0
140 -139 0
142 -141 0
144 -143 0
146 -145 0
148 -147 0
150 -149 0
152 -151 0
154 -153 0
156 -155 0
158 -157 0
160 -159 0
162 -161 0
164 -163 0
166 -165 0
168 -167 0
170 -169 0
172 -171 0
174 -173 0
176 -175 0
178 -177 0
180 -179 0
182 -181 0
184 -183 0
186 -185 0
188 -187 0
190 -189 0
192 -191 0
194 -193 0
196 -195 0
198 -197 0
200 -199 0
202 -201 0
204 -203 0
206 -205 0
208 -207 0
210 -209 0
212 -211 0
214 -213 0
216 -215 0
218 -217 0
220 -219 0
222 -221 0
224 -223 0
226 -225 0
228 -227 0
230 -229 0
232 -231 0
234 -233 0
236 -235 0
238 -237 0
240 -239 0
242 -241 0
244 -243 0
246 -245 0
248 -247 0
250 -249 0
252 -251 0
254 -253 0
256 -255 0
258 -257 0
260 -259 0
262 -261 0
264 -263 0
266 -265 0
268 -267 0
270 -269 0
272 -271 0
274 -273 0
276 -275 0
278 -277 0
280 -279 0
282 -281 0
284 -283 0
286 -285 0
288 -287 0
290 -289 0
292 -291 0
294 -293 0
296 -295 0
298 -297 0
300 -299 0
302 -301 0
304 -303 0
306 -305 0
308 -307 0
310 -309 0
312 -311 0
314 -313 0
316 -315 0
318 -317 0
320 -319 0
322 -321 0
324 -323 0
326 -325 0
328 -327 0
330 -329 0
332 -331 0
334 -333 0
336 -335 0
338 -337 0
340 -339 0
342 -341 0
344 -343 0
346 -345 0
348 -347 0
350 -349 0
352 -351 0
354 -353 0
356 -355 0
358 -357 0
360 -359 0
362 -361 0
364 -363 0
366 -365 0
368 -367 0
370 -369 0
372 -371 0
374 -373 0
376 -375 0
378 -377 0
380 -379 0
382 -381 0
384 -383 0
386 -385 0
388 -387 0
390 -389 0
392 -391 0
394 -393 0
396 -395 0
398 -397 0
400 -399 0
402 -401 0
404 -403 0
406 -405 0
408 -407 0
410 -409 0
412 -411 0
414 -413 0
416 -415 0
418 -417 0
420 -419 0
422 -421 0
424 -423 0
426 -425 0
428 -427 0
430 -429 0
432 -431 0
434 -433 0
436 -435 0
438 -437 0
440 -439 0
442 -441 0
444 -443 0
446 -445 0
448 -447 0
450 -449 0
452 -451 0
454 -453 0
456 -455 0
458 -457 0
460 -459 0
462 -461 0
464 -463 0
466 -465 0
468 -467 0
470 -469 0
472 -471 0
474 -473 0
476 -475 0
478 -477 0
480 -479 0
482 -481 0
484 -483 0
486 -485 0
488 -487 0
490 -489 0
492 -491 0
494 -493 0
496 -495 0
498 -497 0
500 -499 0
502 -501 0
504 -503 0
506 -505 0
508 -507 0
510 -509 0
512 -511 0
514 -513 0
516 -515 0
518 -517 0
520 -519 0
522 -521 0
524 -523 0
526 -525 0
528 -527 0
530 -529 0
532 -531 0
534 -533 0
536 -535 0
538 -537 0
540 -539 0
542 -541 0
544 -543 0
546 -545 0
548 -547 0
550 -549 0
552 -551 0
554 -553 0
556 -555 0
558 -557 0
560 -559 0
562 -561 0
564 -563 0
566 -565 0
568 -567 0
570 -569 0
572 -571 0
574 -573 0
576 -575 0
578 -577 0
580 -579 0
582 -581 0
584 -583 0
586 -585 0
588 -587 0
590 -589 0
592 -591 0
594 -593 0
596 -595 0
598 -597 0
600 -599 0
602 -601 0
604 -603 0
606 -605 0
608 -607 0
610 -609 0
612 -611 0
614 -613 0
616 -615 0
618 -617 0
620 -619 0
622 -621 0
624 -623 0
626 -625 0
628 -627 0
630 -629 0
632 -631 0
634 -633 0
636 -635 0
638 -637 0
640 -639 0
642 -641 0
644 -643 0
646 -645 0
648 -647 0
650 -649 0
652 -651 0
654 -653 0
656 -655 0
658 -657 0
660 -659 0
662 -661 0
664 -663 0
666 -665 0
3 -2 0
6 -5 0
9 -8 0
12 -11 0
15 -14 0
18 -17 0
21 -20 0
24 -23 0
27 -26 0
30 -29 0
33 -32 0
36 -35 0
39 -38 0
42 -41 0
45 -44 0
48 -47 0
51 -50 0
54 -53 0
56 -2 0
58 -5 0
60 -8 0
62 -11 0
64 -14 0
66 -17 0
68 -20 0
70 -23 0
72 -26 0
74 -29 0
76 -32 0
78 -35 0
80 -38 0
82 -41 0
84 -44 0
86 -47 0
88 -50 0
90 -53 0
92 -2 0
94 -5 0
96 -8 0
98 -11 0
100 -14 0
102 -17 0
104 -20 0
106 -23 0
108 -26 0
110 -29 0
112 -32 0
114 -35 0
116 -38 0
118 -41 0
120 -44 0
122 -47 0
124 -50 0
126 -53 0
128 -2 0
130 -5 0
132 -8 0
134 -11 0
136 -14 0
138 -17 0
140 -20 0
142 -23 0
144 -26 0
146 -29 0
148 -32 0
150 -35 0
152 -38 0
154 -41 0
156 -44 0
158 -47 0
160 -50 0
162 -53 0
164 -2 0
166 -5 0
168 -8 0
170 -11 0
172 -14 0
174 -17 0
176 -20 0
178 -23 0
180 -26 0
182 -29 0
184 -32 0
186 -35 0
188 -38 0
190 -41 0
192 -44 0
194 -47 0
196 -50 0
198 -53 0
200 -2 0
202 -5 0
204 -8 0
206 -11 0
208 -14 0
210 -17 0
212 -20 0
214 -23 0
216 -26 0
218 -29 0
220 -32 0
222 -35 0
224 -38 0
226 -41 0
228 -44 0
230 -47 0
232 -50 0
234 -53 0
236 -2 0
238 -5 0
240 -8 0
242 -11 0
244 -14 0
246 -17 0
248 -20 0
250 -23 0
252 -26 0
254 -29 0
256 -32 0
258 -35 0
260 -38 0
262 -41 0
264 -44 0
266 -47 0
268 -50 0
270 -53 0
272 -2 0
274 -5 0
276 -8 0
278 -11 0
280 -14 0
282 -17 0
284 -20 0
286 -23 0
288 -26 0
290 -29 0
292 -32 0
294 -35 0
296 -38 0
298 -41 0
300 -44 0
302 -47 0
304 -50 0
306 -53 0
308 -2 0
310 -5 0
312 -8 0
314 -11 0
316 -14 0
318 -17 0
320 -20 0
322 -23 0
324 -26 0
326 -29 0
328 -32 0
330 -35 0
332 -38 0
334 -41 0
336 -44 0
338 -47 0
340 -50 0
342 -53 0
344 -2 0
346 -5 0
348 -8 0
350 -11 0
352 -14 0
354 -17 0
356 -20 0
358 -23 0
360 -26 0
362 -29 0
364 -32 0
366 -35 0
368 -38 0
370 -41 0
372 -44 0
374 -47 0
376 -50 0
378 -53 0
380 -2 0
382 -5 0
384 -8 0
386 -11 0
388 -14 0
390 -17 0
392 -20 0
394 -23 0
396 -26 0
398 -29 0
400 -32 0
402 -35 0
404 -38 0
406 -41 0
408 -44 0
410 -47 0
412 -50 0
414 -53 0
416 -2 0
418 -5 0
420 -8 0
422 -11 0
424 -14 0
426 -17 0
428 -20 0
430 -23 0
432 -26 0
434 -29 0
436 -32 0
438 -35 0
440 -38 0
442 -41 0
444 -44 0
446 -47 0
448 -50 0
450 -53 0
452 -2 0
454 -5 0
456 -8 0
458 -11 0
460 -14 0
462 -17 0
464 -20 0
466 -23 0
468 -26 0
470 -29 0
472 -32 0
474 -35 0
476 -38 0
478 -41 0
480 -44 0
482 -47 0
484 -50 0
486 -53 0
488 -2 0
490 -5 0
492 -8 0
494 -11 0
496 -14 0
498 -17 0
500 -20 0
502 -23 0
504 -26 0
506 -29 0
508 -32 0
510 -35 0
512 -38 0
514 -41 0
516 -44 0
518 -47 0
520 -50 0
522 -53 0
524 -2 0
526 -5 0
528 -8 0
530 -11 0
532 -14 0
534 -17 0
536 -20 0
538 -23 0
540 -26 0
542 -29 0
544 -32 0
546 -35 0
548 -38 0
550 -41 0
552 -44 0
554 -47 0
556 -50 0
558 -53 0
560 -2 0
562 -5 0
564 -8 0
566 -11 0
568 -14 0
570 -17 0
572 -20 0
574 -23 0
576 -26 0
578 -29 0
580 -32 0
582 -35 0
584 -38 0
586 -41 0
588 -44 0
590 -47 0
592 -50 0
594 -53 0
596 -2 0
598 -5 0
600 -8 0
602 -11 0
604 -14 0
606 -17 0
608 -20 0
610 -23 0
612 -26 0
614 -29 0
616 -32 0
618 -35 0
620 -38 0
622 -41 0
624 -44 0
626 -47 0
628 -50 0
630 -53 0
632 -2 0
634 -5 0
636 -8 0
638 -11 0
640 -14 0
642 -17 0
644 -20 0
646 -23 0
648 -26 0
650 -29 0
652 -32 0
654 -35 0
656 -38 0
658 -41 0
660 -44 0
662 -47 0
664 -50 0
666 -53 0
3 2 0
6 2 0
9 2 0
12 2 0
15 2 0
18 2 0
21 2 0
24 2 0
27 2 0
30 2 0
33 2 0
36 2 0
39 2 0
42 2 0
45 2 0
48 2 0
51 2 0
54 2 0
56 5 0
58 5 0
60 5 0
62 5 0
64 5 0
66 5 0
68 5 0
70 5 0
72 5 0
74 5 0
76 5 0
78 5 0
80 5 0
82 5 0
84 5 0
86 5 0
88 5 0
90 5 0
92 8 0
94 8 0
96 8 0
98 8 0
100 8 0
102 8 0
104 8 0
106 8 0
108 8 0
110 8 0
112 8 0
114 8 0
116 8 0
118 8 0
120 8 0
122 8 0
124 8 0
126 8 0
128 11 0
130 11 0
132 11 0
134 11 0
136 11 0
138 11 0
140 11 0
142 11 0
144 11 0
146 11 0
148 11 0
150 11 0
152 11 0
154 11 0
156 11 0
158 11 0
160 11 0
162 11 0
164 14 0
166 14 0
168 14 0
170 14 0
172 14 0
174 14 0
176 14 0
178 14 0
180 14 0
182 14 0
184 14 0
186 14 0
188 14 0
190 14 0
192 14 0
194 14 0
196 14 0
198 14 0
200 17 0
202 17 0
204 17 0
206 17 0
208 17 0
210 17 0
212 17 0
214 17 0
216 17 0
218 17 0
220 17 0
222 17 0
224 17 0
226 17 0
228 17 0
230 17 0
232 17 0
234 17 0
236 20 0
238 20 0
240 20 0
242 20 0
244 20 0
246 20 0
248 20 0
250 20 0
252 20 0
254 20 0
256 20 0
258 20 0
260 20 0
262 20 0
264 20 0
266 20 0
268 20 0
270 20 0
272 23 0
274 23 0
276 23 0
278 23 0
280 23 0
282 23 0
284 23 0
286 23 0
288 23 0
290 23 0
292 23 0
294 23 0
296 23 0
298 23 0
300 23 0
302 23 0
304 23 0
306 23 0
308 26 0
310 26 0
312 26 0
314 26 0
316 26 0
318 26 0
320 26 0
322 26 0
324 26 0
326 26 0
328 26 0
330 26 0
332 26 0
334 26 0
336 26 0
338 26 0
340 26 0
342 26 0
344 29 0
346 29 0
348 29 0
350 29 0
352 29 0
354 29 0
356 29 0
358 29 0
360 29 0
362 29 0
364 29 0
366 29 0
368 29 0
370 29 0
372 29 0
374 29 0
376 29 0
378 29 0
380 32 0
382 32 0
384 32 0
386 32 0
388 32 0
390 32 0
392 32 0
394 32 0
396 32 0
398 32 0
400 32 0
402 32 0
404 32 0
406 32 0
408 32 0
410 32 0
412 32 0
414 32 0
416 35 0
418 35 0
420 35 0
422 35 0
424 35 0
426 35 0
428 35 0
430 35 0
432 35 0
434 35 0
436 35 0
438 35 0
440 35 0
442 35 0
444 35 0
446 35 0
448 35 0
450 35 0
452 38 0
454 38 0
456 38 0
458 38 0
460 38 0
462 38 0
464 38 0
466 38 0
468 38 0
470 38 0
472 38 0
474 38 0
476 38 0
478 38 0
480 38 0
482 38 0
484 38 0
486 38 0
488 41 0
490 41 0
492 41 0
494 41 0
496 41 0
498 41 0
500 41 0
502 41 0
504 41 0
506 41 0
508 41 0
510 41 0
512 41 0
514 41 0
516 41 0
518 41 0
520 41 0
522 41 0
524 44 0
526 44 0
528 44 0
530 44 0
532 44 0
534 44 0
536 44 0
538 44 0
540 44 0
542 44 0
544 44 0
546 44 0
548 44 0
550 44 0
552 44 0
554 44 0
556 44 0
558 44 0
560 47 0
562 47 0
564 47 0
566 47 0
568 47 0
570 47 0
572 47 0
574 47 0
576 47 0
578 47 0
580 47 0
582 47 0
584 47 0
586 47 0
588 47 0
590 47 0
592 47 0
594 47 0
596 50 0
598 50 0
600 50 0
602 50 0
604 50 0
606 50 0
608 50 0
610 50 0
612 50 0
614 50 0
616 50 0
618 50 0
620 50 0
622 50 0
624 50 0
626 50 0
628 50 0
630 50 0
632 53 0
634 53 0
636 53 0
638 53 0
640 53 0
642 53 0
644 53 0
646 53 0
648 53 0
650 53 0
652 53 0
654 53 0
656 53 0
658 53 0
660 53 0
662 53 0
664 53 0
666 53 0
667 667 -668 -669 0
670 671 -672 -673 0
674 675 -676 -677 0
678 679 -680 -681 0
682 683 -684 -685 0
686 687 -688 -689 0
690 691 -692 -693 0
694 695 -696 -697 0
698 699 -700 -701 0
702 703 -704 -705 0
706 707 -708 -709 0
710 711 -712 -713 0
714 715 -716 -717 0
718 719 -720 -721 0
722 723 -724 -725 0
726 727 -728 -729 0
730 731 -732 -733 0
734 735 -736 -737 0
671 670 -738 -739 0
740 740 -741 -742 0
743 744 -745 -746 0
747 748 -749 -750 0
751 752 -753 -754 0
755 756 -757 -758 0
759 760 -761 -762 0
763 764 -765 -766 0
767 768 -769 -770 0
771 772 -773 -774 0
775 776 -777 -778 0
779 780 -781 -782 0
783 784 -785 -786 0
787 788 -789 -790 0
791 792 -793 -794 0
795 796 -797 -798 0
799 800 -801 -802 0
803 804 -805 -806 0
675 674 -807 -808 0
744 743 -809 -810 0
811 811 -812 -813 0
814 815 -816 -817 0
818 819 -820 -821 0
822 823 -824 -825 0
826 827 -828 -829 0
830 831 -832 -833 0
834 835 -836 -837 0
838 839 -840 -841 0
842 843 -844 -845 0
846 847 -848 -849 0
850 851 -852 -853 0
854 855 -856 -857 0
858 859 -860 -861 0
862 863 -864 -865 0
866 867 -868 -869 0
870 871 -872 -873 0
679 678 -874 -875 0
748 747 -876 -877 0
815 814 -878 -879 0
880 880 -881 -882 0
883 884 -885 -886 0
887 888 -889 -890 0
891 892 -893 -894 0
895 896 -897 -898 0
899 900 -901 -902 0
903 904 -905 -906 0
907 908 -909 -910 0
911 912 -913 -914 0
915 916 -917 -918 0
919 920 -921 -922 0
923 924 -925 -926 0
927 928 -929 -930 0
931 932 -933 -934 0
935 936 -937 -938 0
683 682 -939 -940 0
752 751 -941 -942 0
819 818 -943 -944 0
884 883 -945 -946 0
947 947 -948 -949 0
950 951 -952 -953 0
954 955 -956 -957 0
958 959 -960 -961 0
962 963 -964 -965 0
966 967 -968 -969 0
970 971 -972 -973 0
974 975 -976 -977 0
978 979 -980 -981 0
982 983 -984 -985 0
986 987 -988 -989 0
990 991 -992 -993 0
994 995 -996 -997 0
998 999 -1000 -1001 0
687 686 -1002 -1003 0
756 755 -1004 -1005 0
823 822 -1006 -1007 0
888 887 -1008 -1009 0
951 950 -1010 -1011 0
1012 1012 -1013 -1014 0
1015 1016 -1017 -1018 0
1019 1020 -1021 -1022 0
1023 1024 -1025 -1026 0
1027 1028 -1029 -1030 0
1031 1032 -1033 -1034 0
1035 1036 -1037 -1038 0
1039 1040 -1041 -1042 0
1043 1044 -1045 -1046 0
1047 1048 -1049 -1050 0
1051 1052 -1053 -1054 0
1055 1056 -1057 -1058 0
1059 1060 -1061 -1062 0
691 690 -1063 -1064 0
760 759 -1065 -1066 0
827 826 -1067 -1068 0
892 891 -1069 -1070 0
955 954 -1071 -1072 0
1016 1015 -1073 -1074 0
1075 1075 -1076 -1077 0
1078 1079 -1080 -1081 0
1082 1083 -1084 -1085 0
1086 1087 -1088 -1089 0
1090 1091 -1092 -1093 0
1094 1095 -1096 -1097 0
1098 1099 -1100 -1101 0
1102 1103 -1104 -1105 0
1106 1107 -1108 -1109 0
1110 1111 -1112 -1113 0
1114 1115 -1116 -1117 0
1118 1119 -1120 -1121 0
695 694 -1122 -1123 0
764 763 -1124 -1125 0
831 830 -1126 -1127 0
896 895 -1128 -1129 0
959 958 -1130 -1131 0
1020 1019 -1132 -1133 0
1079 1078 -1134 -1135 0
1136 1136 -1137 -1138 0
1139 1140 -1141 -1142 0
1143 1144 -1145 -1146 0
1147 1148 -1149 -1150 0
1151 1152 -1153 -1154 0
1155 1156 -1157 -1158 0
1159 1160 -1161 -1162 0
1163 1164 -1165 -1166 0
1167 1168 -1169 -1170 0
1171 1172 -1173 -1174 0
1175 1176 -1177 -1178 0
699 698 -1179 -1180 0
768 767 -1181 -1182 0
835 834 -1183 -1184 0
900 899 -1185 -1186 0
963 962 -1187 -1188 0
1024 1023 -1189 -1190 0
1083 1082 -1191 -1192 0
1140 1139 -1193 -1194 0
1195 1195 -1196 -1197 0
1198 1199 -1200 -1201 0
1202 1203 -1204 -1205 0
1206 1207 -1208 -1209 0
1210 1211 -1212 -1213 0
1214 1215 -1216 -1217 0
1218 1219 -1220 -1221 0
1222 1223 -1224 -1225 0
1226 1227 -1228 -1229 0
1230 1231 -1232 -1233 0
703 702 -1234 -1235 0
772 771 -1236 -1237 0
839 838 -1238 -1239 0
904 903 -1240 -1241 0
967 966 -1242 -1243 0
1028 1027 -1244 -1245 0
1087 1086 -1246 -1247 0
1144 1143 -1248 -1249 0
1199 1198 -1250 -1251 0
1252 1252 -1253 -1254 0
1255 1256 -1257 -1258 0
1259 1260 -1261 -1262 0
1263 1264 -1265 -1266 0
1267 1268 -1269 -1270 0
1271 1272 -1273 -1274 0
1275 1276 -1277 -1278 0
1279 1280 -1281 -1282 0
1283 1284 -1285 -1286 0
707 706 -1287 -1288 0
776 775 -1289 -1290 0
843 842 -1291 -1292 0
908 907 -1293 -1294 0
971 970 -1295 -1296 0
1032 1031 -1297 -1298 0
1091 1090 -1299 -1300 0
1148 1147 -1301 -1302 0
1203 1202 -1303 -1304 0
1256 1255 -1305 -1306 0
1307 1307 -1308 -1309 0
1310 1311 -1312 -1313 0
1314 1315 -1316 -1317 0
1318 1319 -1320 -1321 0
1322 1323 -1324 -1325 0
1326 1327 -1328 -1329 0
1330 1331 -1332 -1333 0
1334 1335 -1336 -1337 0
711 710 -1338 -1339 0
780 779 -1340 -1341 0
847 846 -1342 -1343 0
912 911 -1344 -1345 0
975 974 -1346 -1347 0
1036 1035 -1348 -1349 0
1095 1094 -1350 -1351 0
1152 1151 -1352 -1353 0
1207 1206 -1354 -1355 0
1260 1259 -1356 -1357 0
1311 1310 -1358 -1359 0
1360 1360 -1361 -1362 0
1363 1364 -1365 -1366 0
1367 1368 -1369 -1370 0
1371 1372 -1373 -1374 0
1375 1376 -1377 -1378 0
1379 1380 -1381 -1382 0
1383 1384 -1385 -1386 0
715 714 -1387 -1388 0
784 783 -1389 -1390 0
851 850 -1391 -1392 0
916 915 -1393 -1394 0
979 978 -1395 -1396 0
1040 1039 -1397 -1398 0
1099 1098 -1399 -1400 0
1156 1155 -1401 -1402 0
1211 1210 -1403 -1404 0
1264 1263 -1405 -1406 0
1315 1314 -1407 -1408 0
1364 1363 -1409 -1410 0
1411 1411 -1412 -1413 0
1414 1415 -1416 -1417 0
1418 1419 -1420 -1421 0
1422 1423 -1424 -1425 0
1426 1427 -1428 -1429 0
1430 1431 -1432 -1433 0
719 718 -1434 -1435 0
788 787 -1436 -1437 0
855 854 -1438 -1439 0
920 919 -1440 -1441 0
983 982 -1442 -1443 0
1044 1043 -1444 -1445 0
1103 1102 -1446 -1447 0
1160 1159 -1448 -1449 0
1215 1214 -1450 -1451 0
1268 1267 -1452 -1453 0
1319 1318 -1454 -1455 0
1368 1367 -1456 -1457 0
1415 1414 -1458 -1459 0
1460 1460 -1461 -1462 0
1463 1464 -1465 -1466 0
1467 1468 -1469 -1470 0
1471 1472 -1473 -1474 0
1475 1476 -1477 -1478 0
723 722 -1479 -1480 0
792 791 -1481 -1482 0
859 858 -1483 -1484 0
924 923 -1485 -1486 0
987 986 -1487 -1488 0
1048 1047 -1489 -1490 0
1107 1106 -1491 -1492 0
1164 1163 -1493 -1494 0
1219 1218 -1495 -1496 0
1272 1271 -1497 -1498 0
1323 1322 -1499 -1500 0
1372 1371 -1501 -1502 0
1419 1418 -1503 -1504 0
1464 1463 -1505 -1506 0
1507 1507 -1508 -1509 0
1510 1511 -1512 -1513 0
1514 1515 -1516 -1517 0
1518 1519 -1520 -1521 0
727 726 -1522 -1523 0
796 795 -1524 -1525 0
863 862 -1526 -1527 0
928 927 -1528 -1529 0
991 990 -1530 -1531 0
1052 1051 -1532 -1533 0
1111 1110 -1534 -1535 0
1168 1167 -1536 -1537 0
1223 1222 -1538 -1539 0
1276 1275 -1540 -1541 0
1327 1326 -1542 -1543 0
1376 1375 -1544 -1545 0
1423 1422 -1546 -1547 0
1468 1467 -1548 -1549 0
1511 1510 -1550 -1551 0
1552 1552 -1553 -1554 0
1555 1556 -1557 -1558 0
1559 1560 -1561 -1562 0
731 730 -1563 -1564 0
800 799 -1565 -1566 0
867 866 -1567 -1568 0
932 931 -1569 -1570 0
995 994 -1571 -1572 0
1056 1055 -1573 -1574 0
1115 1114 -1575 -1576 0
1172 1171 -1577 -1578 0
1227 1226 -1579 -1580 0
1280 1279 -1581 -1582 0
1331 1330 -1583 -1584 0
1380 1379 -1585 -1586 0
1427 1426 -1587 -1588 0
1472 1471 -1589 -1590 0
1515 1514 -1591 -1592 0
1556 1555 -1593 -1594 0
1595 1595 -1596 -1597 0
1598 1599 -1600 -1601 0
735 734 -1602 -1603 0
804 803 -1604 -1605 0
871 870 -1606 -1607 0
936 935 -1608 -1609 0
999 998 -1610 -1611 0
1060 1059 -1612 -1613 0
1119 1118 -1614 -1615 0
1176 1175 -1616 -1617 0
1231 1230 -1618 -1619 0
1284 1283 -1620 -1621 0
1335 1334 -1622 -1623 0
1384 1383 -1624 -1625 0
1431 1430 -1626 -1627 0
1476 1475 -1628 -1629 0
1519 1518 -1630 -1631 0
1560 1559 -1632 -1633 0
1599 1598 -1634 -1635 0
1636 1636 -1637 -1638 0
669 -667 0
673 -670 0
677 -674 0
681 -678 0
685 -682 0
689 -686 0
693 -690 0
697 -694 0
701 -698 0
705 -702 0
709 -706 0
713 -710 0
717 -714 0
721 -718 0
725 -722 0
729 -726 0
733 -730 0
737 -734 0
739 -671 0
742 -740 0
746 -743 0
750 -747 0
754 -751 0
758 -755 0
762 -759 0
766 -763 0
770 -767 0
774 -771 0
778 -775 0
782 -779 0
786 -783 0
790 -787 0
794 -791 0
798 -795 0
802 -799 0
806 -803 0
808 -675 0
810 -744 0
813 -811 0
817 -814 0
821 -818 0
825 -822 0
829 -826 0
833 -830 0
837 -834 0
841 -838 0
845 -842 0
849 -846 0
853 -850 0
857 -854 0
861 -858 0
865 -862 0
869 -866 0
873 -870 0
875 -679 0
877 -748 0
879 -815 0
882 -880 0
886 -883 0
890 -887 0
894 -891 0
898 -895 0
902 -899 0
906 -903 0
910 -907 0
914 -911 0
918 -915 0
922 -919 0
926 -923 0
930 -927 0
934 -931 0
938 -935 0
940 -683 0
942 -752 0
944 -819 0
946 -884 0
949 -947 0
953 -950 0
957 -954 0
961 -958 0
965 -962 0
969 -966 0
973 -970 0
977 -974 0
981 -978 0
985 -982 0
989 -986 0
993 -990 0
997 -994 0
1001 -998 0
1003 -687 0
1005 -756 0
1007 -823 0
1009 -888 0
1011 -951 0
1014 -1012 0
1018 -1015 0
1022 -1019 0
1026 -1023 0
1030 -1027 0
1034 -1031 0
1038 -1035 0
1042 -1039 0
1046 -1043 0
1050 -1047 0
1054 -1051 0
1058 -1055 0
1062 -1059 0
1064 -691 0
1066 -760 0
1068 -827 0
1070 -892 0
1072 -955 0
1074 -1016 0
1077 -1075 0
1081 -1078 0
1085 -1082 0
1089 -1086 0
1093 -1090 0
1097 -1094 0
1101 -1098 0
1105 -1102 0
1109 -1106 0
1113 -1110 0
1117 -1114 0
1121 -1118 0
1123 -695 0
1125 -764 0
1127 -831 0
1129 -896 0
1131 -959 0
1133 -1020 0
1135 -1079 0
1138 -1136 0
1142 -1139 0
1146 -1143 0
1150 -1147 0
1154 -1151 0
1158 -1155 0
1162 -1159 0
1166 -1163 0
1170 -1167 0
1174 -1171 0
1178 -1175 0
1180 -699 0
1182 -768 0
1184 -835 0
1186 -900 0
1188 -963 0
1190 -1024 0
1192 -1083 0
1194 -1140 0
1197 -1195 0
1201 -1198 0
1205 -1202 0
1209 -1206 0
1213 -1210 0
1217 -1214 0
1221 -1218 0
1225 -1222 0
1229 -1226 0
1233 -1230 0
1235 -703 0
1237 -772 0
1239 -839 0
1241 -904 0
1243 -967 0
1245 -1028 0
1247 -1087 0
1249 -1144 0
1251 -1199 0
1254 -1252 0
1258 -1255 0
1262 -1259 0
1266 -1263 0
1270 -1267 0
1274 -1271 0
1278 -1275 0
1282 -1279 0
1286 -1283 0
1288 -707 0
1290 -776 0
1292 -843 0
1294 -908 0
1296 -971 0
1298 -1032 0
1300 -1091 0
1302 -1148 0
1304 -1203 0
1306 -1256 0
1309 -1307 0
1313 -1310 0
1317 -1314 0
1321 -1318 0
1325 -1322 0
1329 -1326 0
1333 -1330 0
1337 -1334 0
1339 -711 0
1341 -780 0
1343 -847 0
1345 -912 0
1347 -975 0
1349 -1036 0
1351 -1095 0
1353 -1152 0
1355 -1207 0
1357 -1260 0
1359 -1311 0
1362 -1360 0
1366 -1363 0
1370 -1367 0
1374 -1371 0
1378 -1375 0
1382 -1379 0
1386 -1383 0
1388 -715 0
1390 -784 0
1392 -851 0
1394 -916 0
1396 -979 0
1398 -1040 0
1400 -1099 0
1402 -1156 0
1404 -1211 0
1406 -1264 0
1408 -1315 0
1410 -1364 0
1413 -1411 0
1417 -1414 0
1421 -1418 0
1425 -1422 0
1429 -1426 0
1433 -1430 0
1435 -719 0
1437 -788 0
1439 -855 0
1441 -920 0
1443 -983 0
1445 -1044 0
1447 -1103 0
1449 -1160 0
1451 -1215 0
1453 -1268 0
1455 -1319 0
1457 -1368 0
1459 -1415 0
1462 -1460 0
1466 -1463 0
1470 -1467 0
1474 -1471 0
1478 -1475 0
1480 -723 0
1482 -792 0
1484 -859 0
1486 -924 0
1488 -987 0
1490 -1048 0
1492 -1107 0
1494 -1164 0
1496 -1219 0
1498 -1272 0
1500 -1323 0
1502 -1372 0
1504 -1419 0
1506 -1464 0
1509 -1507 0
1513 -1510 0
1517 -1514 0
1521 -1518 0
1523 -727 0
1525 -796 0
1527 -863 0
1529 -928 0
1531 -991 0
1533 -1052 0
1535 -1111 0
1537 -1168 0
1539 -1223 0
1541 -1276 0
1543 -1327 0
1545 -1376 0
1547 -1423 0
1549 -1468 0
1551 -1511 0
1554 -1552 0
1558 -1555 0
1562 -1559 0
1564 -731 0
1566 -800 0
1568 -867 0
1570 -932 0
1572 -995 0
1574 -1056 0
1576 -1115 0
1578 -1172 0
1580 -1227 0
1582 -1280 0
1584 -1331 0
1586 -1380 0
1588 -1427 0
1590 -1472 0
1592 -1515 0
1594 -1556 0
1597 -1595 0
1601 -1598 0
1603 -735 0
1605 -804 0
1607 -871 0
1609 -936 0
1611 -999 0
1613 -1060 0
1615 -1119 0
1617 -1176 0
1619 -1231 0
1621 -1284 0
1623 -1335 0
1625 -1384 0
1627 -1431 0
1629 -1476 0
1631 -1519 0
1633 -1560 0
1635 -1599 0
1638 -1636 0
669 -667 0
673 -671 0
677 -675 0
681 -679 0
685 -683 0
689 -687 0
693 -691 0
697 -695 0
701 -699 0
705 -703 0
709 -707 0
713 -711 0
717 -715 0
721 -719 0
725 -723 0
729 -727 0
733 -731 0
737 -735 0
739 -670 0
742 -740 0
746 -744 0
750 -748 0
754 -752 0
758 -756 0
762 -760 0
766 -764 0
770 -768 0
774 -772 0
778 -776 0
782 -780 0
786 -784 0
790 -788 0
794 -792 0
798 -796 0
802 -800 0
806 -804 0
808 -674 0
810 -743 0
813 -811 0
817 -815 0
821 -819 0
825 -823 0
829 -827 0
833 -831 0
837 -835 0
841 -839 0
845 -843 0
849 -847 0
853 -851 0
857 -855 0
861 -859 0
865 -863 0
869 -867 0
873 -871 0
875 -678 0
877 -747 0
879 -814 0
882 -880 0
886 -884 0
890 -888 0
894 -892 0
898 -896 0
902 -900 0
906 -904 0
910 -908 0
914 -912 0
918 -916 0
922 -920 0
926 -924 0
930 -928 0
934 -932 0
938 -936 0
940 -682 0
942 -751 0
944 -818 0
946 -883 0
949 -947 0
953 -951 0
957 -955 0
961 -959 0
965 -963 0
969 -967 0
973 -971 0
977 -975 0
981 -979 0
985 -983 0
989 -987 0
993 -991 0
997 -995 0
1001 -999 0
1003 -686 0
1005 -755 0
1007 -822 0
1009 -887 0
1011 -950 0
1014 -1012 0
1018 -1016 0
1022 -1020 0
1026 -1024 0
1030 -1028 0
1034 -1032 0
1038 -1036 0
1042 -1040 0
1046 -1044 0
1050 -1048 0
1054 -1052 0
1058 -1056 0
1062 -1060 0
1064 -690 0
1066 -759 0
1068 -826 0
1070 -891 0
1072 -954 0
1074 -1015 0
1077 -1075 0
1081 -1079 0
1085 -1083 0
1089 -1087 0
1093 -1091 0
1097 -1095 0
1101 -1099 0
1105 -1103 0
1109 -1107 0
1113 -1111 0
1117 -1115 0
1121 -1119 0
1123 -694 0
1125 -763 0
1127 -830 0
1129 -895 0
1131 -958 0
1133 -1019 0
1135 -1078 0
1138 -1136 0
1142 -1140 0
1146 -1144 0
1150 -1148 0
1154 -1152 0
1158 -1156 0
1162 -1160 0
1166 -1164 0
1170 -1168 0
1174 -1172 0
1178 -1176 0
1180 -698 0
1182 -767 0
1184 -834 0
1186 -899 0
1188 -962 0
1190 -1023 0
1192 -1082 0
1194 -1139 0
1197 -1195 0
1201 -1199 0
1205 -1203 0
1209 -1207 0
1213 -1211 0
1217 -1215 0
1221 -1219 0
1225 -1223 0
1229 -1227 0
1233 -1231 0
1235 -702 0
1237 -771 0
1239 -838 0
1241 -903 0
1243 -966 0
1245 -1027 0
1247 -1086 0
1249 -1143 0
1251 -1198 0
1254 -1252 0
1258 -1256 0
1262 -1260 0
1266 -1264 0
1270 -1268 0
1274 -1272 0
1278 -1276 0
1282 -1280 0
1286 -1284 0
1288 -706 0
1290 -775 0
1292 -842 0
1294 -907 0
1296 -970 0
1298 -1031 0
1300 -1090 0
1302 -1147 0
1304 -1202 0
1306 -1255 0
1309 -1307 0
1313 -1311 0
1317 -1315 0
1321 -1319 0
1325 -1323 0
1329 -1327 0
1333 -1331 0
1337 -1335 0
1339 -710 0
1341 -779 0
1343 -846 0
1345 -911 0
1347 -974 0
1349 -1035 0
1351 -1094 0
1353 -1151 0
1355 -1206 0
1357 -1259 0
1359 -1310 0
1362 -1360 0
1366 -1364 0
1370 -1368 0
1374 -1372 0
1378 -1376 0
1382 -1380 0
1386 -1384 0
1388 -714 0
1390 -783 0
1392 -850 0
1394 -915 0
1396 -978 0
1398 -1039 0
1400 -1098 0
1402 -1155 0
1404 -1210 0
1406 -1263 0
1408 -1314 0
1410 -1363 0
1413 -1411 0
1417 -1415 0
1421 -1419 0
1425 -1423 0
1429 -1427 0
1433 -1431 0
1435 -718 0
1437 -787 0
1439 -854 0
1441 -919 0
1443 -982 0
1445 -1043 0
1447 -1102 0
1449 -1159 0
1451 -1214 0
1453 -1267 0
1455 -1318 0
1457 -1367 0
1459 -1414 0
1462 -1460 0
1466 -1464 0
1470 -1468 0
1474 -1472 0
1478 -1476 0
1480 -722 0
1482 -791 0
1484 -858 0
1486 -923 0
1488 -986 0
1490 -1047 0
1492 -1106 0
1494 -1163 0
1496 -1218 0
1498 -1271 0
1500 -1322 0
1502 -1371 0
1504 -1418 0
1506 -1463 0
1509 -1507 0
1513 -1511 0
1517 -1515 0
1521 -1519 0
1523 -726 0
1525 -795 0
1527 -862 0
1529 -927 0
1531 -990 0
1533 -1051 0
1535 -1110 0
1537 -1167 0
1539 -1222 0
1541 -1275 0
1543 -1326 0
1545 -1375 0
1547 -1422 0
1549 -1467 0
1551 -1510 0
1554 -1552 0
1558 -1556 0
1562 -1560 0
1564 -730 0
1566 -799 0
1568 -866 0
1570 -931 0
1572 -994 0
1574 -1055 0
1576 -1114 0
1578 -1171 0
1580 -1226 0
1582 -1279 0
1584 -1330 0
1586 -1379 0
1588 -1426 0
1590 -1471 0
1592 -1514 0
1594 -1555 0
1597 -1595 0
1601 -1599 0
1603 -734 0
1605 -803 0
1607 -870 0
1609 -935 0
1611 -998 0
1613 -1059 0
1615 -1118 0
1617 -1175 0
1619 -1230 0
1621 -1283 0
1623 -1334 0
1625 -1383 0
1627 -1430 0
1629 -1475 0
1631 -1518 0
1633 -1559 0
1635 -1598 0
1638 -1636 0
669 668 0
673 672 0
677 676 0
681 680 0
685 684 0
689 688 0
693 692 0
697 696 0
701 700 0
705 704 0
709 708 0
713 712 0
717 716 0
721 720 0
725 724 0
729 728 0
733 732 0
737 736 0
739 738 0
742 741 0
746 745 0
750 749 0
754 753 0
758 757 0
762 761 0
766 765 0
770 769 0
774 773 0
778 777 0
782 781 0
786 785 0
790 789 0
794 793 0
798 797 0
802 801 0
806 805 0
808 807 0
810 809 0
813 812 0
817 816 0
821 820 0
825 824 0
829 828 0
833 832 0
837 836 0
841 840 0
845 844 0
849 848 0
853 852 0
857 856 0
861 860 0
865 864 0
869 868 0
873 872 0
875 874 0
877 876 0
879 878 0
882 881 0
886 885 0
890 889 0
894 893 0
898 897 0
902 901 0
906 905 0
910 909 0
914 913 0
918 917 0
922 921 0
926 925 0
930 929 0
934 933 0
938 937 0
940 939 0
942 941 0
944 943 0
946 945 0
949 948 0
953 952 0
957 956 0
961 960 0
965 964 0
969 968 0
973 972 0
977 976 0
981 980 0
985 984 0
989 988 0
993 992 0
997 996 0
1001 1000 0
1003 1002 0
1005 1004 0
1007 1006 0
1009 1008 0
1011 1010 0
1014 1013 0
1018 1017 0
1022 1021 0
1026 1025 0
1030 1029 0
1034 1033 0
1038 1037 0
1042 1041 0
1046 1045 0
1050 1049 0
1054 1053 0
1058 1057 0
1062 1061 0
1064 1063 0
1066 1065 0
1068 1067 0
1070 1069 0
1072 1071 0
1074 1073 0
1077 1076 0
1081 1080 0
1085 1084 0
1089 1088 0
1093 1092 0
1097 1096 0
1101 1100 0
1105 1104 0
1109 1108 0
1113 1112 0
1117 1116 0
1121 1120 0
1123 1122 0
1125 1124 0
1127 1126 0
1129 1128 0
1131 1130 0
1133 1132 0
1135 1134 0
1138 1137 0
1142 1141 0
1146 1145 0
1150 1149 0
1154 1153 0
1158 1157 0
1162 1161 0
1166 1165 0
1170 1169 0
1174 1173 0
1178 1177 0
1180 1179 0
1182 1181 0
1184 1183 0
1186 1185 0
1188 1187 0
1190 1189 0
1192 1191 0
1194 1193 0
1197 1196 0
1201 1200 0
1205 1204 0
1209 1208 0
1213 1212 0
1217 1216 0
1221 1220 0
1225 1224 0
1229 1228 0
1233 1232 0
1235 1234 0
1237 1236 0
1239 1238 0
1241 1240 0
1243 1242 0
1245 1244 0
1247 1246 0
1249 1248 0
1251 1250 0
1254 1253 0
1258 1257 0
1262 1261 0
1266 1265 0
1270 1269 0
1274 1273 0
1278 1277 0
1282 1281 0
1286 1285 0
1288 1287 0
1290 1289 0
1292 1291 0
1294 1293 0
1296 1295 0
1298 1297 0
1300 1299 0
1302 1301 0
1304 1303 0
1306 1305 0
1309 1308 0
1313 1312 0
1317 1316 0
1321 1320 0
1325 1324 0
1329 1328 0
1333 1332 0
1337 1336 0
1339 1338 0
1341 1340 0
1343 1342 0
1345 1344 0
1347 1346 0
1349 1348 0
1351 1350 0
1353 1352 0
1355 1354 0
1357 1356 0
1359 1358 0
1362 1361 0
1366 1365 0
1370 1369 0
1374 1373 0
1378 1377 0
1382 1381 0
1386 1385 0
1388 1387 0
1390 1389 0
1392 1391 0
1394 1393 0
1396 1395 0
1398 1397 0
1400 1399 0
1402 1401 0
1404 1403 0
1406 1405 0
1408 1407 0
1410 1409 0
1413 1412 0
1417 1416 0
1421 1420 0
1425 1424 0
1429 1428 0
1433 1432 0
1435 1434 0
1437 1436 0
1439 1438 0
1441 1440 0
1443 1442 0
1445 1444 0
1447 1446 0
1449 1448 0
1451 1450 0
1453 1452 0
1455 1454 0
1457 1456 0
1459 1458 0
1462 1461 0
1466 1465 0
1470 1469 0
1474 1473 0
1478 1477 0
1480 1479 0
1482 1481 0
1484 1483 0
1486 1485 0
1488 1487 0
1490 1489 0
1492 1491 0
1494 1493 0
1496 1495 0
1498 1497 0
1500 1499 0
1502 1501 0
1504 1503 0
1506 1505 0
1509 1508 0
1513 1512 0
1517 1516 0
1521 1520 0
1523 1522 0
1525 1524 0
1527 1526 0
1529 1528 0
1531 1530 0
1533 1532 0
1535 1534 0
1537 1536 0
1539 1538 0
1541 1540 0
1543 1542 0
1545 1544 0
1547 1546 0
1549 1548 0
1551 1550 0
1554 1553 0
1558 1557 0
1562 1561 0
1564 1563 0
1566 1565 0
1568 1567 0
1570 1569 0
1572 1571 0
1574 1573 0
1576 1575 0
1578 1577 0
1580 1579 0
1582 1581 0
1584 1583 0
1586 1585 0
1588 1587 0
1590 1589 0
1592 1591 0
1594 1593 0
1597 1596 0
1601 1600 0
1603 1602 0
1605 1604 0
1607 1606 0
1609 1608 0
1611 1610 0
1613 1612 0
1615 1614 0
1617 1616 0
1619 1618 0
1621 1620 0
1623 1622 0
1625 1624 0
1627 1626 0
1629 1628 0
1631 1630 0
1633 1632 0
1635 1634 0
1638 1637 0
668 -1639 -1640 -1641 0
672 -1639 -1642 -1643 0
676 -1639 -1644 -1645 0
680 -1639 -1646 -1647 0
684 -1639 -1648 -1649 0
688 -1639 -1650 -1651 0
692 -1639 -1652 -1653 0
696 -1639 -1654 -1655 0
700 -1639 -1656 -1657 0
704 -1639 -1658 -1659 0
708 -1639 -1660 -1661 0
712 -1639 -1662 -1663 0
716 -1639 -1664 -1665 0
720 -1639 -1666 -1667 0
724 -1639 -1668 -1669 0
728 -1639 -1670 -1671 0
732 -1639 -1672 -1673 0
736 -1639 -1674 -1675 0
738 -1676 -1640 -1677 0
741 -1676 -1642 -1678 0
745 -1676 -1644 -1679 0
749 -1676 -1646 -1680 0
753 -1676 -1648 -1681 0
757 -1676 -1650 -1682 0
761 -1676 -1652 -1683 0
765 -1676 -1654 -1684 0
769 -1676 -1656 -1685 0
773 -1676 -1658 -1686 0
777 -1676 -1660 -1687 0
781 -1676 -1662 -1688 0
785 -1676 -1664 -1689 0
789 -1676 -1666 -1690 0
793 -1676 -1668 -1691 0
797 -1676 -1670 -1692 0
801 -1676 -1672 -1693 0
805 -1676 -1674 -1694 0
807 -1695 -1640 -1696 0
809 -1695 -1642 -1697 0
812 -1695 -1644 -1698 0
816 -1695 -1646 -1699 0
820 -1695 -1648 -1700 0
824 -1695 -1650 -1701 0
828 -1695 -1652 -1702 0
832 -1695 -1654 -1703 0
836 -1695 -1656 -1704 0
840 -1695 -1658 -1705 0
844 -1695 -1660 -1706 0
848 -1695 -1662 -1707 0
852 -1695 -1664 -1708 0
856 -1695 -1666 -1709 0
860 -1695 -1668 -1710 0
864 -1695 -1670 -1711 0
868 -1695 -1672 -1712 0
872 -1695 -1674 -1713 0
874 -1714 -1640 -1715 0
876 -1714 -1642 -1716 0
878 -1714 -1644 -1717 0
881 -1714 -1646 -1718 0
885 -1714 -1648 -1719 0
889 -1714 -1650 -1720 0
893 -1714 -1652 -1721 0
897 -1714 -1654 -1722 0
901 -1714 -1656 -1723 0
905 -1714 -1658 -1724 0
909 -1714 -1660 -1725 0
913 -1714 -1662 -1726 0
917 -1714 -1664 -1727 0
921 -1714 -1666 -1728 0
925 -1714 -1668 -1729 0
929 -1714 -1670 -1730 0
933 -1714 -1672 -1731 0
937 -1714 -1674 -1732 0
939 -1733 -1640 -1734 0
941 -1733 -1642 -1735 0
943 -1733 -1644 -1736 0
945 -1733 -1646 -1737 0
948 -1733 -1648 -1738 0
952 -1733 -1650 -1739 0
956 -1733 -1652 -1740 0
960 -1733 -1654 -1741 0
964 -1733 -1656 -1742 0
968 -1733 -1658 -1743 0
972 -1733 -1660 -1744 0
976 -1733 -1662 -1745 0
980 -1733 -1664 -1746 0
984 -1733 -1666 -1747 0
988 -1733 -1668 -1748 0
992 -1733 -1670 -1749 0
996 -1733 -1672 -1750 0
1000 -1733 -1674 -1751 0
1002 -1752 -1640 -1753 0
1004 -1752 -1642 -1754 0
1006 -1752 -1644 -1755 0
1008 -1752 -1646 -1756 0
1010 -1752 -1648 -1757 0
1013 -1752 -1650 -1758 0
1017 -1752 -1652 -1759 0
1021 -1752 -1654 -1760 0
1025 -1752 -1656 -1761 0
1029 -1752 -1658 -1762 0
1033 -1752 -1660 -1763 0
1037 -1752 -1662 -1764 0
1041 -1752 -1664 -1765 0
1045 -1752 -1666 -1766 0
1049 -1752 -1668 -1767 0
1053 -1752 -1670 -1768 0
1057 -1752 -1672 -1769 0
1061 -1752 -1674 -1770 0
1063 -1771 -1640 -1772 0
1065 -1771 -1642 -1773 0
1067 -1771 -1644 -1774 0
1069 -1771 -1646 -1775 0
1071 -1771 -1648 -1776 0
1073 -1771 -1650 -1777 0
1076 -1771 -1652 -1778 0
1080 -1771 -1654 -1779 0
1084 -1771 -1656 -1780 0
1088 -1771 -1658 -1781 0
1092 -1771 -1660 -1782 0
1096 -1771 -1662 -1783 0
1100 -1771 -1664 -1784 0
1104 -1771 -1666 -1785 0
1108 -1771 -1668 -1786 0
1112 -1771 -1670 -1787 0
1116 -1771 -1672 -1788 0
1120 -1771 -1674 -1789 0
1122 -1790 -1640 -1791 0
1124 -1790 -1642 -1792 0
1126 -1790 -1644 -1793 0
1128 -1790 -1646 -1794 0
1130 -1790 -1648 -1795 0
1132 -1790 -1650 -1796 0
1134 -1790 -1652 -1797 0
1137 -1790 -1654 -1798 0
1141 -1790 -1656 -1799 0
1145 -1790 -1658 -1800 0
1149 -1790 -1660 -1801 0
1153 -1790 -1662 -1802 0
1157 -1790 -1664 -1803 0
1161 -1790 -1666 -1804 0
1165 -1790 -1668 -1805 0
1169 -1790 -1670 -1806 0
1173 -1790 -1672 -1807 0
1177 -1790 -1674 -1808 0
1179 -1809 -1640 -1810 0
1181 -1809 -1642 -1811 0
1183 -1809 -1644 -1812 0
1185 -1809 -1646 -1813 0
1187 -1809 -1648 -1814 0
1189 -1809 -1650 -1815 0
1191 -1809 -1652 -1816 0
1193 -1809 -1654 -1817 0
1196 -1809 -1656 -1818 0
1200 -1809 -1658 -1819 0
1204 -1809 -1660 -1820 0
1208 -1809 -1662 -1821 0
1212 -1809 -1664 -1822 0
1216 -1809 -1666 -1823 0
1220 -1809 -1668 -1824 0
1224 -1809 -1670 -1825 0
1228 -1809 -1672 -1826 0
1232 -1809 -1674 -1827 0
1234 -1828 -1640 -1829 0
1236 -1828 -1642 -1830 0
1238 -1828 -1644 -1831 0
1240 -1828 -1646 -1832 0
1242 -1828 -1648 -1833 0
1244 -1828 -1650 -1834 0
1246 -1828 -1652 -1835 0
1248 -1828 -1654 -1836 0
1250 -1828 -1656 -1837 0
1253 -1828 -1658 -1838 0
1257 -1828 -1660 -1839 0
1261 -1828 -1662 -1840 0
1265 -1828 -1664 -1841 0
1269 -1828 -1666 -1842 0
1273 -1828 -1668 -1843 0
1277 -1828 -1670 -1844 0
1281 -1828 -1672 -1845 0
1285 -1828 -1674 -1846 0
1287 -1847 -1640 -1848 0
1289 -1847 -1642 -1849 0
1291 -1847 -1644 -1850 0
1293 -1847 -1646 -1851 0
1295 -1847 -1648 -1852 0
1297 -1847 -1650 -1853 0
1299 -1847 -1652 -1854 0
1301 -1847 -1654 -1855 0
1303 -1847 -1656 -1856 0
1305 -1847 -1658 -1857 0
1308 -1847 -1660 -1858 0
1312 -1847 -1662 -1859 0
1316 -1847 -1664 -1860 0
1320 -1847 -1666 -1861 0
1324 -1847 -1668 -1862 0
1328 -1847 -1670 -1863 0
1332 -1847 -1672 -1864 0
1336 -1847 -1674 -1865 0
1338 -1866 -1640 -1867 0
1340 -1866 -1642 -1868 0
1342 -1866 -1644 -1869 0
1344 -1866 -1646 -1870 0
1346 -1866 -1648 -1871 0
1348 -1866 -1650 -1872 0
1350 -1866 -1652 -1873 0
1352 -1866 -1654 -1874 0
1354 -1866 -1656 -1875 0
1356 -1866 -1658 -1876 0
1358 -1866 -1660 -1877 0
1361 -1866 -1662 -1878 0
1365 -1866 -1664 -1879 0
1369 -1866 -1666 -1880 0
1373 -1866 -1668 -1881 0
1377 -1866 -1670 -1882 0
1381 -1866 -1672 -1883 0
1385 -1866 -1674 -1884 0
1387 -1885 -1640 -1886 0
1389 -1885 -1642 -1887 0
1391 -1885 -1644 -1888 0
1393 -1885 -1646 -1889 0
1395 -1885 -1648 -1890 0
1397 -1885 -1650 -1891 0
1399 -1885 -1652 -1892 0
1401 -1885 -1654 -1893 0
1403 -1885 -1656 -1894 0
1405 -1885 -1658 -1895 0
1407 -1885 -1660 -1896 0
1409 -1885 -1662 -1897 0
1412 -1885 -1664 -1898 0
1416 -1885 -1666 -1899 0
1420 -1885 -1668 -1900 0
1424 -1885 -1670 -1901 0
1428 -1885 -1672 -1902 0
1432 -1885 -1674 -1903 0
1434 -1904 -1640 -1905 0
1436 -1904 -1642 -1906 0
1438 -1904 -1644 -1907 0
1440 -1904 -1646 -1908 0
1442 -1904 -1648 -1909 0
1444 -1904 -1650 -1910 0
1446 -1904 -1652 -1911 0
1448 -1904 -1654 -1912 0
1450 -1904 -1656 -1913 0
1452 -1904 -1658 -1914 0
1454 -1904 -1660 -1915 0
1456 -1904 -1662 -1916 0
1458 -1904 -1664 -1917 0
1461 -1904 -1666 -1918 0
1465 -1904 -1668 -1919 0
1469 -1904 -1670 -1920 0
1473 -1904 -1672 -1921 0
1477 -1904 -1674 -1922 0
1479 -1923 -1640 -1924 0
1481 -1923 -1642 -1925 0
1483 -1923 -1644 -1926 0
1485 -1923 -1646 -1927 0
1487 -1923 -1648 -1928 0
1489 -1923 -1650 -1929 0
1491 -1923 -1652 -1930 0
1493 -1923 -1654 -1931 0
1495 -1923 -1656 -1932 0
1497 -1923 -1658 -1933 0
1499 -1923 -1660 -1934 0
1501 -1923 -1662 -1935 0
1503 -1923 -1664 -1936 0
1505 -1923 -1666 -1937 0
1508 -1923 -1668 -1938 0
1512 -1923 -1670 -1939 0
1516 -1923 -1672 -1940 0
1520 -1923 -1674 -1941 0
1522 -1942 -1640 -1943 0
1524 -1942 -1642 -1944 0
1526 -1942 -1644 -1945 0
1528 -1942 -1646 -1946 0
1530 -1942 -1648 -1947 0
1532 -1942 -1650 -1948 0
1534 -1942 -1652 -1949 0
1536 -1942 -1654 -1950 0
1538 -1942 -1656 -1951 0
1540 -1942 -1658 -1952 0
1542 -1942 -1660 -1953 0
1544 -1942 -1662 -1954 0
1546 -1942 -1664 -1955 0
1548 -1942 -1666 -1956 0
1550 -1942 -1668 -1957 0
1553 -1942 -1670 -1958 0
1557 -1942 -1672 -1959 0
1561 -1942 -1674 -1960 0
1563 -1961 -1640 -1962 0
1565 -1961 -1642 -1963 0
1567 -1961 -1644 -1964 0
1569 -1961 -1646 -1965 0
1571 -1961 -1648 -1966 0
1573 -1961 -1650 -1967 0
1575 -1961 -1652 -1968 0
1577 -1961 -1654 -1969 0
1579 -1961 -1656 -1970 0
1581 -1961 -1658 -1971 0
1583 -1961 -1660 -1972 0
1585 -1961 -1662 -1973 0
1587 -1961 -1664 -1974 0
1589 -1961 -1666 -1975 0
1591 -1961 -1668 -1976 0
1593 -1961 -1670 -1977 0
1596 -1961 -1672 -1978 0
1600 -1961 -1674 -1979 0
1602 -1980 -1640 -1981 0
1604 -1980 -1642 -1982 0
1606 -1980 -1644 -1983 0
1608 -1980 -1646 -1984 0
1610 -1980 -1648 -1985 0
1612 -1980 -1650 -1986 0
1614 -1980 -1652 -1987 0
1616 -1980 -1654 -1988 0
1618 -1980 -1656 -1989 0
1620 -1980 -1658 -1990 0
1622 -1980 -1660 -1991 0
1624 -1980 -1662 -1992 0
1626 -1980 -1664 -1993 0
1628 -1980 -1666 -1994 0
1630 -1980 -1668 -1995 0
1632 -1980 -1670 -1996 0
1634 -1980 -1672 -1997 0
1637 -1980 -1674 -1998 0
1641 -668 0
1643 -672 0
1645 -676 0
1647 -680 0
1649 -684 0
1651 -688 0
1653 -692 0
1655 -696 0
1657 -700 0
1659 -704 0
1661 -708 0
1663 -712 0
1665 -716 0
1667 -720 0
1669 -724 0
1671 -728 0
1673 -732 0
1675 -736 0
1677 -738 0
1678 -741 0
1679 -745 0
1680 -749 0
1681 -753 0
1682 -757 0
1683 -761 0
1684 -765 0
1685 -769 0
1686 -773 0
1687 -777 0
1688 -781 0
1689 -785 0
1690 -789 0
1691 -793 0
1692 -797 0
1693 -801 0
1694 -805 0
1696 -807 0
1697 -809 0
1698 -812 0
1699 -816 0
1700 -820 0
1701 -824 0
1702 -828 0
1703 -832 0
1704 -836 0
1705 -840 0
1706 -844 0
1707 -848 0
1708 -852 0
1709 -856 0
1710 -860 0
1711 -864 0
1712 -868 0
1713 -872 0
1715 -874 0
1716 -876 0
1717 -878 0
1718 -881 0
1719 -885 0
1720 -889 0
1721 -893 0
1722 -897 0
1723 -901 0
1724 -905 0
1725 -909 0
1726 -913 0
1727 -917 0
1728 -921 0
1729 -925 0
1730 -929 0
1731 -933 0
1732 -937 0
1734 -939 0
1735 -941 0
1736 -943 0
1737 -945 0
1738 -948 0
1739 -952 0
1740 -956 0
1741 -960 0
1742 -964 0
1743 -968 0
1744 -972 0
1745 -976 0
1746 -980 0
1747 -984 0
1748 -988 0
1749 -992 0
1750 -996 0
1751 -1000 0
1753 -1002 0
1754 -1004 0
1755 -1006 0
1756 -1008 0
1757 -1010 0
1758 -1013 0
1759 -1017 0
1760 -1021 0
1761 -1025 0
1762 -1029 0
1763 -1033 0
1764 -1037 0
1765 -1041 0
1766 -1045 0
1767 -1049 0
1768 -1053 0
1769 -1057 0
1770 -1061 0
1772 -1063 0
1773 -1065 0
1774 -1067 0
1775 -1069 0
1776 -1071 0
1777 -1073 0
1778 -1076 0
1779 -1080 0
1780 -1084 0
1781 -1088 0
1782 -1092 0
1783 -1096 0
1784 -1100 0
1785 -1104 0
1786 -1108 0
1787 -1112 0
1788 -1116 0
1789 -1120 0
1791 -1122 0
1792 -1124 0
1793 -1126 0
1794 -1128 0
1795 -1130 0
1796 -1132 0
1797 -1134 0
1798 -1137 0
1799 -1141 0
1800 -1145 0
1801 -1149 0
1802 -1153 0
1803 -1157 0
1804 -1161 0
1805 -1165 0
1806 -1169 0
1807 -1173 0
1808 -1177 0
1810 -1179 0
1811 -1181 0
1812 -1183 0
1813 -1185 0
1814 -1187 0
1815 -1189 0
1816 -1191 0
1817 -1193 0
1818 -1196 0
1819 -1200 0
1820 -1204 0
1821 -1208 0
1822 -1212 0
1823 -1216 0
1824 -1220 0
1825 -1224 0
1826 -1228 0
1827 -1232 0
1829 -1234 0
1830 -1236 0
1831 -1238 0
1832 -1240 0
1833 -1242 0
1834 -1244 0
1835 -1246 0
1836 -1248 0
1837 -1250 0
1838 -1253 0
1839 -1257 0
1840 -1261 0
1841 -1265 0
1842 -1269 0
1843 -1273 0
1844 -1277 0
1845 -1281 0
1846 -1285 0
1848 -1287 0
1849 -1289 0
1850 -1291 0
1851 -1293 0
1852 -1295 0
1853 -1297 0
1854 -1299 0
1855 -1301 0
1856 -1303 0
1857 -1305 0
1858 -1308 0
1859 -1312 0
1860 -1316 0
1861 -1320 0
1862 -1324 0
1863 -1328 0
1864 -1332 0
1865 -1336 0
1867 -1338 0
1868 -1340 0
1869 -1342 0
1870 -1344 0
1871 -1346 0
1872 -1348 0
1873 -1350 0
1874 -1352 0
1875 -1354 0
1876 -1356 0
1877 -1358 0
1878 -1361 0
1879 -1365 0
1880 -1369 0
1881 -1373 0
1882 -1377 0
1883 -1381 0
1884 -1385 0
1886 -1387 0
1887 -1389 0
1888 -1391 0
1889 -1393 0
1890 -1395 0
1891 -1397 0
1892 -1399 0
1893 -1401 0
1894 -1403 0
1895 -1405 0
1896 -1407 0
1897 -1409 0
1898 -1412 0
1899 -1416 0
1900 -1420 0
1901 -1424 0
1902 -1428 0
1903 -1432 0
1905 -1434 0
1906 -1436 0
1907 -1438 0
1908 -1440 0
1909 -1442 0
1910 -1444 0
1911 -1446 0
1912 -1448 0
1913 -1450 0
1914 -1452 0
1915 -1454 0
1916 -1456 0
1917 -1458 0
1918 -1461 0
1919 -1465 0
1920 -1469 0
1921 -1473 0
1922 -1477 0
1924 -1479 0
1925 -1481 0
1926 -1483 0
1927 -1485 0
1928 -1487 0
1929 -1489 0
1930 -1491 0
1931 -1493 0
1932 -1495 0
1933 -1497 0
1934 -1499 0
1935 -1501 0
1936 -1503 0
1937 -1505 0
1938 -1508 0
1939 -1512 0
1940 -1516 0
1941 -1520 0
1943 -1522 0
1944 -1524 0
1945 -1526 0
1946 -1528 0
1947 -1530 0
1948 -1532 0
1949 -1534 0
1950 -1536 0
1951 -1538 0
1952 -1540 0
1953 -1542 0
1954 -1544 0
1955 -1546 0
1956 -1548 0
1957 -1550 0
1958 -1553 0
1959 -1557 0
1960 -1561 0
1962 -1563 0
1963 -1565 0
1964 -1567 0
1965 -1569 0
1966 -1571 0
1967 -1573 0
1968 -1575 0
1969 -1577 0
1970 -1579 0
1971 -1581 0
1972 -1583 0
1973 -1585 0
1974 -1587 0
1975 -1589 0
1976 -1591 0
1977 -1593 0
1978 -1596 0
1979 -1600 0
1981 -1602 0
1982 -1604 0
1983 -1606 0
1984 -1608 0
1985 -1610 0
1986 -1612 0
1987 -1614 0
1988 -1616 0
1989 -1618 0
1990 -1620 0
1991 -1622 0
1992 -1624 0
1993 -1626 0
1994 -1628 0
1995 -1630 0
1996 -1632 0
1997 -1634 0
1998 -1637 0
1641 1639 0
1643 1639 0
1645 1639 0
1647 1639 0
1649 1639 0
1651 1639 0
1653 1639 0
1655 1639 0
1657 1639 0
1659 1639 0
1661 1639 0
1663 1639 0
1665 1639 0
1667 1639 0
1669 1639 0
1671 1639 0
1673 1639 0
1675 1639 0
1677 1676 0
1678 1676 0
1679 1676 0
1680 1676 0
1681 1676 0
1682 1676 0
1683 1676 0
1684 1676 0
1685 1676 0
1686 1676 0
1687 1676 0
1688 1676 0
1689 1676 0
1690 1676 0
1691 1676 0
1692 1676 0
1693 1676 0
1694 1676 0
1696 1695 0
1697 1695 0
1698 1695 0
1699 1695 0
1700 1695 0
1701 1695 0
1702 1695 0
1703 1695 0
1704 1695 0
1705 1695 0
1706 1695 0
1707 1695 0
1708 1695 0
1709 1695 0
1710 1695 0
1711 1695 0
1712 1695 0
1713 1695 0
1715 1714 0
1716 1714 0
1717 1714 0
1718 1714 0
1719 1714 0
1720 1714 0
1721 1714 0
1722 1714 0
1723 1714 0
1724 1714 0
1725 1714 0
1726 1714 0
1727 1714 0
1728 1714 0
1729 1714 0
1730 1714 0
1731 1714 0
1732 1714 0
1734 1733 0
1735 1733 0
1736 1733 0
1737 1733 0
1738 1733 0
1739 1733 0
1740 1733 0
1741 1733 0
1742 1733 0
1743 1733 0
1744 1733 0
1745 1733 0
1746 1733 0
1747 1733 0
1748 1733 0
1749 1733 0
1750 1733 0
1751 1733 0
1753 1752 0
1754 1752 0
1755 1752 0
1756 1752 0
1757 1752 0
1758 1752 0
1759 1752 0
1760 1752 0
1761 1752 0
1762 1752 0
1763 1752 0
1764 1752 0
1765 1752 0
1766 1752 0
1767 1752 0
1768 1752 0
1769 1752 0
1770 1752 0
1772 1771 0
1773 1771 0
1774 1771 0
1775 1771 0
1776 1771 0
1777 1771 0
1778 1771 0
1779 1771 0
1780 1771 0
1781 1771 0
1782 1771 0
1783 1771 0
1784 1771 0
1785 1771 0
1786 1771 0
1787 1771 0
1788 1771 0
1789 1771 0
1791 1790 0
1792 1790 0
1793 1790 0
1794 1790 0
1795 1790 0
1796 1790 0
1797 1790 0
1798 1790 0
1799 1790 0
1800 1790 0
1801 1790 0
1802 1790 0
1803 1790 0
1804 1790 0
1805 1790 0
1806 1790 0
1807 1790 0
1808 1790 0
1810 1809 0
1811 1809 0
1812 1809 0
1813 1809 0
1814 1809 0
1815 1809 0
1816 1809 0
1817 1809 0
1818 1809 0
1819 1809 0
1820 1809 0
1821 1809 0
1822 1809 0
1823 1809 0
1824 1809 0
1825 1809 0
1826 1809 0
1827 1809 0
1829 1828 0
1830 1828 0
1831 1828 0
1832 1828 0
1833 1828 0
1834 1828 0
1835 1828 0
1836 1828 0
1837 1828 0
1838 1828 0
1839 1828 0
1840 1828 0
1841 1828 0
1842 1828 0
1843 1828 0
1844 1828 0
1845 1828 0
1846 1828 0
1848 1847 0
1849 1847 0
1850 1847 0
1851 1847 0
1852 1847 0
1853 1847 0
1854 1847 0
1855 1847 0
1856 1847 0
1857 1847 0
1858 1847 0
1859 1847 0
1860 1847 0
1861 1847 0
1862 1847 0
1863 1847 0
1864 1847 0
1865 1847 0
1867 1866 0
1868 1866 0
1869 1866 0
1870 1866 0
1871 1866 0
1872 1866 0
1873 1866 0
1874 1866 0
1875 1866 0
1876 1866 0
1877 1866 0
1878 1866 0
1879 1866 0
1880 1866 0
1881 1866 0
1882 1866 0
1883 1866 0
1884 1866 0
1886 1885 0
1887 1885 0
1888 1885 0
1889 1885 0
1890 1885 0
1891 1885 0
1892 1885 0
1893 1885 0
1894 1885 0
1895 1885 0
1896 1885 0
1897 1885 0
1898 1885 0
1899 1885 0
1900 1885 0
1901 1885 0
1902 1885 0
1903 1885 0
1905 1904 0
1906 1904 0
1907 1904 0
1908 1904 0
1909 1904 0
1910 1904 0
1911 1904 0
1912 1904 0
1913 1904 0
1914 1904 0
1915 1904 0
1916 1904 0
1917 1904 0
1918 1904 0
1919 1904 0
1920 1904 0
1921 1904 0
1922 1904 0
1924 1923 0
1925 1923 0
1926 1923 0
1927 1923 0
1928 1923 0
1929 1923 0
1930 1923 0
1931 1923 0
1932 1923 0
1933 1923 0
1934 1923 0
1935 1923 0
1936 1923 0
1937 1923 0
1938 1923 0
1939 1923 0
1940 1923 0
1941 1923 0
1943 1942 0
1944 1942 0
1945 1942 0
1946 1942 0
1947 1942 0
1948 1942 0
1949 1942 0
1950 1942 0
1951 1942 0
1952 1942 0
1953 1942 0
1954 1942 0
1955 1942 0
1956 1942 0
1957 1942 0
1958 1942 0
1959 1942 0
1960 1942 0
1962 1961 0
1963 1961 0
1964 1961 0
1965 1961 0
1966 1961 0
1967 1961 0
1968 1961 0
1969 1961 0
1970 1961 0
1971 1961 0
1972 1961 0
1973 1961 0
1974 1961 0
1975 1961 0
1976 1961 0
1977 1961 0
1978 1961 0
1979 1961 0
1981 1980 0
1982 1980 0
1983 1980 0
1984 1980 0
1985 1980 0
1986 1980 0
1987 1980 0
1988 1980 0
1989 1980 0
1990 1980 0
1991 1980 0
1992 1980 0
1993 1980 0
1994 1980 0
1995 1980 0
1996 1980 0
1997 1980 0
1998 1980 0
1641 1640 0
1643 1642 0
1645 1644 0
1647 1646 0
1649 1648 0
1651 1650 0
1653 1652 0
1655 1654 0
1657 1656 0
1659 1658 0
1661 1660 0
1663 1662 0
1665 1664 0
1667 1666 0
1669 1668 0
1671 1670 0
1673 1672 0
1675 1674 0
1677 1640 0
1678 1642 0
1679 1644 0
1680 1646 0
1681 1648 0
1682 1650 0
1683 1652 0
1684 1654 0
1685 1656 0
1686 1658 0
1687 1660 0
1688 1662 0
1689 1664 0
1690 1666 0
1691 1668 0
1692 1670 0
1693 1672 0
1694 1674 0
1696 1640 0
1697 1642 0
1698 1644 0
1699 1646 0
1700 1648 0
1701 1650 0
1702 1652 0
1703 1654 0
1704 1656 0
1705 1658 0
1706 1660 0
1707 1662 0
1708 1664 0
1709 1666 0
1710 1668 0
1711 1670 0
1712 1672 0
1713 1674 0
1715 1640 0
1716 1642 0
1717 1644 0
1718 1646 0
1719 1648 0
1720 1650 0
1721 1652 0
1722 1654 0
1723 1656 0
1724 1658 0
1725 1660 0
1726 1662 0
1727 1664 0
1728 1666 0
1729 1668 0
1730 1670 0
1731 1672 0
1732 1674 0
1734 1640 0
1735 1642 0
1736 1644 0
1737 1646 0
1738 1648 0
1739 1650 0
1740 1652 0
1741 1654 0
1742 1656 0
1743 1658 0
1744 1660 0
1745 1662 0
1746 1664 0
1747 1666 0
1748 1668 0
1749 1670 0
1750 1672 0
1751 1674 0
1753 1640 0
1754 1642 0
1755 1644 0
1756 1646 0
1757 1648 0
1758 1650 0
1759 1652 0
1760 1654 0
1761 1656 0
1762 1658 0
1763 1660 0
1764 1662 0
1765 1664 0
1766 1666 0
1767 1668 0
1768 1670 0
1769 1672 0
1770 1674 0
1772 1640 0
1773 1642 0
1774 1644 0
1775 1646 0
1776 1648 0
1777 1650 0
1778 1652 0
1779 1654 0
1780 1656 0
1781 1658 0
1782 1660 0
1783 1662 0
1784 1664 0
1785 1666 0
1786 1668 0
1787 1670 0
1788 1672 0
1789 1674 0
1791 1640 0
1792 1642 0
1793 1644 0
1794 1646 0
1795 1648 0
1796 1650 0
1797 1652 0
1798 1654 0
1799 1656 0
1800 1658 0
1801 1660 0
1802 1662 0
1803 1664 0
1804 1666 0
1805 1668 0
1806 1670 0
1807 1672 0
1808 1674 0
1810 1640 0
1811 1642 0
1812 1644 0
1813 1646 0
1814 1648 0
1815 1650 0
1816 1652 0
1817 1654 0
1818 1656 0
1819 1658 0
1820 1660 0
1821 1662 0
1822 1664 0
1823 1666 0
1824 1668 0
1825 1670 0
1826 1672 0
1827 1674 0
1829 1640 0
1830 1642 0
1831 1644 0
1832 1646 0
1833 1648 0
1834 1650 0
1835 1652 0
1836 1654 0
1837 1656 0
1838 1658 0
1839 1660 0
1840 1662 0
1841 1664 0
1842 1666 0
1843 1668 0
1844 1670 0
1845 1672 0
1846 1674 0
1848 1640 0
1849 1642 0
1850 1644 0
1851 1646 0
1852 1648 0
1853 1650 0
1854 1652 0
1855 1654 0
1856 1656 0
1857 1658 0
1858 1660 0
1859 1662 0
1860 1664 0
1861 1666 0
1862 1668 0
1863 1670 0
1864 1672 0
1865 1674 0
1867 1640 0
1868 1642 0
1869 1644 0
1870 1646 0
1871 1648 0
1872 1650 0
1873 1652 0
1874 1654 0
1875 1656 0
1876 1658 0
1877 1660 0
1878 1662 0
1879 1664 0
1880 1666 0
1881 1668 0
1882 1670 0
1883 1672 0
1884 1674 0
1886 1640 0
1887 1642 0
1888 1644 0
1889 1646 0
1890 1648 0
1891 1650 0
1892 1652 0
1893 1654 0
1894 1656 0
1895 1658 0
1896 1660 0
1897 1662 0
1898 1664 0
1899 1666 0
1900 1668 0
1901 1670 0
1902 1672 0
1903 1674 0
1905 1640 0
1906 1642 0
1907 1644 0
1908 1646 0
1909 1648 0
1910 1650 0
1911 1652 0
1912 1654 0
1913 1656 0
1914 1658 0
1915 1660 0
1916 1662 0
1917 1664 0
1918 1666 0
1919 1668 0
1920 1670 0
1921 1672 0
1922 1674 0
1924 1640 0
1925 1642 0
1926 1644 0
1927 1646 0
1928 1648 0
1929 1650 0
1930 1652 0
1931 1654 0
1932 1656 0
1933 1658 0
1934 1660 0
1935 1662 0
1936 1664 0
1937 1666 0
1938 1668 0
1939 1670 0
1940 1672 0
1941 1674 0
1943 1640 0
1944 1642 0
1945 1644 0
1946 1646 0
1947 1648 0
1948 1650 0
1949 1652 0
1950 1654 0
1951 1656 0
1952 1658 0
1953 1660 0
1954 1662 0
1955 1664 0
1956 1666 0
1957 1668 0
1958 1670 0
1959 1672 0
1960 1674 0
1962 1640 0
1963 1642 0
1964 1644 0
1965 1646 0
1966 1648 0
1967 1650 0
1968 1652 0
1969 1654 0
1970 1656 0
1971 1658 0
1972 1660 0
1973 1662 0
1974 1664 0
1975 1666 0
1976 1668 0
1977 1670 0
1978 1672 0
1979 1674 0
1981 1640 0
1982 1642 0
1983 1644 0
1984 1646 0
1985 1648 0
1986 1650 0
1987 1652 0
1988 1654 0
1989 1656 0
1990 1658 0
1991 1660 0
1992 1662 0
1993 1664 0
1994 1666 0
1995 1668 0
1996 1670 0
1997 1672 0
1998 1674 0
667 667 1999 0
670 671 2000 0
674 675 2001 0
678 679 2002 0
682 683 2003 0
686 687 2004 0
690 691 2005 0
694 695 2006 0
698 699 2007 0
702 703 2008 0
706 707 2009 0
710 711 2010 0
714 715 2011 0
718 719 2012 0
722 723 2013 0
726 727 2014 0
730 731 2015 0
734 735 2016 0
671 670 2017 0
740 740 2018 0
743 744 2019 0
747 748 2020 0
751 752 2021 0
755 756 2022 0
759 760 2023 0
763 764 2024 0
767 768 2025 0
771 772 2026 0
775 776 2027 0
779 780 2028 0
783 784 2029 0
787 788 2030 0
791 792 2031 0
795 796 2032 0
799 800 2033 0
803 804 2034 0
675 674 2035 0
744 743 2036 0
811 811 2037 0
814 815 2038 0
818 819 2039 0
822 823 2040 0
826 827 2041 0
830 831 2042 0
834 835 2043 0
838 839 2044 0
842 843 2045 0
846 847 2046 0
850 851 2047 0
854 855 2048 0
858 859 2049 0
862 863 2050 0
866 867 2051 0
870 871 2052 0
679 678 2053 0
748 747 2054 0
815 814 2055 0
880 880 2056 0
883 884 2057 0
887 888 2058 0
891 892 2059 0
895 896 2060 0
899 900 2061 0
903 904 2062 0
907 908 2063 0
911 912 2064 0
915 916 2065 0
919 920 2066 0
923 924 2067 0
927 928 2068 0
931 932 2069 0
935 936 2070 0
683 682 2071 0
752 751 2072 0
819 818 2073 0
884 883 2074 0
947 947 2075 0
950 951 2076 0
954 955 2077 0
958 959 2078 0
962 963 2079 0
966 967 2080 0
970 971 2081 0
974 975 2082 0
978 979 2083 0
982 983 2084 0
986 987 2085 0
990 991 2086 0
994 995 2087 0
998 999 2088 0
687 686 2089 0
756 755 2090 0
823 822 2091 0
888 887 2092 0
951 950 2093 0
1012 1012 2094 0
1015 1016 2095 0
1019 1020 2096 0
1023 1024 2097 0
1027 1028 2098 0
1031 1032 2099 0
1035 1036 2100 0
1039 1040 2101 0
1043 1044 2102 0
1047 1048 2103 0
1051 1052 2104 0
1055 1056 2105 0
1059 1060 2106 0
691 690 2107 0
760 759 2108 0
827 826 2109 0
892 891 2110 0
955 954 2111 0
1016 1015 2112 0
1075 1075 2113 0
1078 1079 2114 0
1082 1083 2115 0
1086 1087 2116 0
1090 1091 2117 0
1094 1095 2118 0
1098 1099 2119 0
1102 1103 2120 0
1106 1107 2121 0
1110 1111 2122 0
1114 1115 2123 0
1118 1119 2124 0
695 694 2125 0
764 763 2126 0
831 830 2127 0
896 895 2128 0
959 958 2129 0
1020 1019 2130 0
1079 1078 2131 0
1136 1136 2132 0
1139 1140 2133 0
1143 1144 2134 0
1147 1148 2135 0
1151 1152 2136 0
1155 1156 2137 0
1159 1160 2138 0
1163 1164 2139 0
1167 1168 2140 0
1171 1172 2141 0
1175 1176 2142 0
699 698 2143 0
768 767 2144 0
835 834 2145 0
900 899 2146 0
963 962 2147 0
1024 1023 2148 0
1083 1082 2149 0
1140 1139 2150 0
1195 1195 2151 0
1198 1199 2152 0
1202 1203 2153 0
1206 1207 2154 0
1210 1211 2155 0
1214 1215 2156 0
1218 1219 2157 0
1222 1223 2158 0
1226 1227 2159 0
1230 1231 2160 0
703 702 2161 0
772 771 2162 0
839 838 2163 0
904 903 2164 0
967 966 2165 0
1028 1027 2166 0
1087 1086 2167 0
1144 1143 2168 0
1199 1198 2169 0
1252 1252 2170 0
1255 1256 2171 0
1259 1260 2172 0
1263 1264 2173 0
1267 1268 2174 0
1271 1272 2175 0
1275 1276 2176 0
1279 1280 2177 0
1283 1284 2178 0
707 706 2179 0
776 775 2180 0
843 842 2181 0
908 907 2182 0
971 970 2183 0
1032 1031 2184 0
1091 1090 2185 0
1148 1147 2186 0
1203 1202 2187 0
1256 1255 2188 0
1307 1307 2189 0
1310 1311 2190 0
1314 1315 2191 0
1318 1319 2192 0
1322 1323 2193 0
1326 1327 2194 0
1330 1331 2195 0
1334 1335 2196 0
711 710 2197 0
780 779 2198 0
847 846 2199 0
912 911 2200 0
975 974 2201 0
1036 1035 2202 0
1095 1094 2203 0
1152 1151 2204 0
1207 1206 2205 0
1260 1259 2206 0
1311 1310 2207 0
1360 1360 2208 0
1363 1364 2209 0
1367 1368 2210 0
1371 1372 2211 0
1375 1376 2212 0
1379 1380 2213 0
1383 1384 2214 0
715 714 2215 0
784 783 2216 0
851 850 2217 0
916 915 2218 0
979 978 2219 0
1040 1039 2220 0
1099 1098 2221 0
1156 1155 2222 0
1211 1210 2223 0
1264 1263 2224 0
1315 1314 2225 0
1364 1363 2226 0
1411 1411 2227 0
1414 1415 2228 0
1418 1419 2229 0
1422 1423 2230 0
1426 1427 2231 0
1430 1431 2232 0
719 718 2233 0
788 787 2234 0
855 854 2235 0
920 919 2236 0
983 982 2237 0
1044 1043 2238 0
1103 1102 2239 0
1160 1159 2240 0
1215 1214 2241 0
1268 1267 2242 0
1319 1318 2243 0
1368 1367 2244 0
1415 1414 2245 0
1460 1460 2246 0
1463 1464 2247 0
1467 1468 2248 0
1471 1472 2249 0
1475 1476 2250 0
723 722 2251 0
792 791 2252 0
859 858 2253 0
924 923 2254 0
987 986 2255 0
1048 1047 2256 0
1107 1106 2257 0
1164 1163 2258 0
1219 1218 2259 0
1272 1271 2260 0
1323 1322 2261 0
1372 1371 2262 0
1419 1418 2263 0
1464 1463 2264 0
1507 1507 2265 0
1510 1511 2266 0
1514 1515 2267 0
1518 1519 2268 0
727 726 2269 0
796 795 2270 0
863 862 2271 0
928 927 2272 0
991 990 2273 0
1052 1051 2274 0
1111 1110 2275 0
1168 1167 2276 0
1223 1222 2277 0
1276 1275 2278 0
1327 1326 2279 0
1376 1375 2280 0
1423 1422 2281 0
1468 1467 2282 0
1511 1510 2283 0
1552 1552 2284 0
1555 1556 2285 0
1559 1560 2286 0
731 730 2287 0
800 799 2288 0
867 866 2289 0
932 931 2290 0
995 994 2291 0
1056 1055 2292 0
1115 1114 2293 0
1172 1171 2294 0
1227 1226 2295 0
1280 1279 2296 0
1331 1330 2297 0
1380 1379 2298 0
1427 1426 2299 0
1472 1471 2300 0
1515 1514 2301 0
1556 1555 2302 0
1595 1595 2303 0
1598 1599 2304 0
735 734 2305 0
804 803 2306 0
871 870 2307 0
936 935 2308 0
999 998 2309 0
1060 1059 2310 0
1119 1118 2311 0
1176 1175 2312 0
1231 1230 2313 0
1284 1283 2314 0
1335 1334 2315 0
1384 1383 2316 0
1431 1430 2317 0
1476 1475 2318 0
1519 1518 2319 0
1560 1559 2320 0
1599 1598 2321 0
1636 1636 2322 0
-1999 -667 0
-2000 -670 0
-2001 -674 0
-2002 -678 0
-2003 -682 0
-2004 -686 0
-2005 -690 0
-2006 -694 0
-2007 -698 0
-2008 -702 0
-2009 -706 0
-2010 -710 0
-2011 -714 0
-2012 -718 0
-2013 -722 0
-2014 -726 0
-2015 -730 0
-2016 -734 0
-2017 -671 0
-2018 -740 0
-2019 -743 0
-2020 -747 0
-2021 -751 0
-2022 -755 0
-2023 -759 0
-2024 -763 0
-2025 -767 0
-2026 -771 0
-2027 -775 0
-2028 -779 0
-2029 -783 0
-2030 -787 0
-2031 -791 0
-2032 -795 0
-2033 -799 0
-2034 -803 0
-2035 -675 0
-2036 -744 0
-2037 -811 0
-2038 -814 0
-2039 -818 0
-2040 -822 0
-2041 -826 0
-2042 -830 0
-2043 -834 0
-2044 -838 0
-2045 -842 0
-2046 -846 0
-2047 -850 0
-2048 -854 0
-2049 -858 0
-2050 -862 0
-2051 -866 0
-2052 -870 0
-2053 -679 0
-2054 -748 0
-2055 -815 0
-2056 -880 0
-2057 -883 0
-2058 -887 0
-2059 -891 0
-2060 -895 0
-2061 -899 0
-2062 -903 0
-2063 -907 0
-2064 -911 0
-2065 -915 0
-2066 -919 0
-2067 -923 0
-2068 -927 0
-2069 -931 0
-2070 -935 0
-2071 -683 0
-2072 -752 0
-2073 -819 0
-2074 -884 0
-2075 -947 0
-2076 -950 0
-2077 -954 0
-2078 -958 0
-2079 -962 0
-2080 -966 0
-2081 -970 0
-2082 -974 0
-2083 -978 0
-2084 -982 0
-2085 -986 0
-2086 -990 0
-2087 -994 0
-2088 -998 0
-2089 -687 0
-2090 -756 0
-2091 -823 0
-2092 -888 0
-2093 -951 0
-2094 -1012 0
-2095 -1015 0
-2096 -1019 0
-2097 -1023 0
-2098 -1027 0
-2099 -1031 0
-2100 -1035 0
-2101 -1039 0
-2102 -1043 0
-2103 -1047 0
-2104 -1051 0
-2105 -1055 0
-2106 -1059 0
-2107 -691 0
-2108 -760 0
-2109 -827 0
-2110 -892 0
-2111 -955 0
-2112 -1016 0
-2113 -1075 0
-2114 -1078 0
-2115 -1082 0
-2116 -1086 0
-2117 -1090 0
-2118 -1094 0
-2119 -1098 0
-2120 -1102 0
-2121 -1106 0
-2122 -1110 0
-2123 -1114 0
-2124 -1118 0
-2125 -695 0
-2126 -764 0
-2127 -831 0
-2128 -896 0
-2129 -959 0
-2130 -1020 0
-2131 -1079 0
-2132 -1136 0
-2133 -1139 0
-2134 -1143 0
-2135 -1147 0
-2136 -1151 0
-2137 -1155 0
-2138 -1159 0
-2139 -1163 0
-2140 -1167 0
-2141 -1171 0
-2142 -1175 0
-2143 -699 0
-2144 -768 0
-2145 -835 0
-2146 -900 0
-2147 -963 0
-2148 -1024 0
-2149 -1083 0
-2150 -1140 0
-2151 -1195 0
-2152 -1198 0
-2153 -1202 0
-2154 -1206 0
-2155 -1210 0
-2156 -1214 0
-2157 -1218 0
-2158 -1222 0
-2159 -1226 0
-2160 -1230 0
-2161 -703 0
-2162 -772 0
-2163 -839 0
-2164 -904 0
-2165 -967 0
-2166 -1028 0
-2167 -1087 0
-2168 -1144 0
-2169 -1199 0
-2170 -1252 0
-2171 -1255 0
-2172 -1259 0
-2173 -1263 0
-2174 -1267 0
-2175 -1271 0
-2176 -1275 0
-2177 -1279 0
-2178 -1283 0
-2179 -707 0
-2180 -776 0
-2181 -843 0
-2182 -908 0
-2183 -971 0
-2184 -1032 0
-2185 -1091 0
-2186 -1148 0
-2187 -1203 0
-2188 -1256 0
-2189 -1307 0
-2190 -1310 0
-2191 -1314 0
-2192 -1318 0
-2193 -1322 0
-2194 -1326 0
-2195 -1330 0
-2196 -1334 0
-2197 -711 0
-2198 -780 0
-2199 -847 0
-2200 -912 0
-2201 -975 0
-2202 -1036 0
-2203 -1095 0
-2204 -1152 0
-2205 -1207 0
-2206 -1260 0
-2207 -1311 0
-2208 -1360 0
-2209 -1363 0
-2210 -1367 0
-2211 -1371 0
-2212 -1375 0
-2213 -1379 0
-2214 -1383 0
-2215 -715 0
-2216 -784 0
-2217 -851 0
-2218 -916 0
-2219 -979 0
-2220 -1040 0
-2221 -1099 0
-2222 -1156 0
-2223 -1211 0
-2224 -1264 0
-2225 -1315 0
-2226 -1364 0
-2227 -1411 0
-2228 -1414 0
-2229 -1418 0
-2230 -1422 0
-2231 -1426 0
-2232 -1430 0
-2233 -719 0
-2234 -788 0
-2235 -855 0
-2236 -920 0
-2237 -983 0
-2238 -1044 0
-2239 -1103 0
-2240 -1160 0
-2241 -1215 0
-2242 -1268 0
-2243 -1319 0
-2244 -1368 0
-2245 -1415 0
-2246 -1460 0
-2247 -1463 0
-2248 -1467 0
-2249 -1471 0
-2250 -1475 0
-2251 -723 0
-2252 -792 0
-2253 -859 0
-2254 -924 0
-2255 -987 0
-2256 -1048 0
-2257 -1107 0
-2258 -1164 0
-2259 -1219 0
-2260 -1272 0
-2261 -1323 0
-2262 -1372 0
-2263 -1419 0
-2264 -1464 0
-2265 -1507 0
-2266 -1510 0
-2267 -1514 0
-2268 -1518 0
-2269 -727 0
-2270 -796 0
-2271 -863 0
-2272 -928 0
-2273 -991 0
-2274 -1052 0
-2275 -1111 0
-2276 -1168 0
-2277 -1223 0
-2278 -1276 0
-2279 -1327 0
-2280 -1376 0
-2281 -1423 0
-2282 -1468 0
-2283 -1511 0
-2284 -1552 0
-2285 -1555 0
-2286 -1559 0
-2287 -731 0
-2288 -800 0
-2289 -867 0
-2290 -932 0
-2291 -995 0
-2292 -1056 0
-2293 -1115 0
-2294 -1172 0
-2295 -1227 0
-2296 -1280 0
-2297 -1331 0
-2298 -1380 0
-2299 -1427 0
-2300 -1472 0
-2301 -1515 0
-2302 -1556 0
-2303 -1595 0
-2304 -1598 0
-2305 -735 0
-2306 -804 0
-2307 -871 0
-2308 -936 0
-2309 -999 0
-2310 -1060 0
-2311 -1119 0
-2312 -1176 0
-2313 -1231 0
-2314 -1284 0
-2315 -1335 0
-2316 -1384 0
-2317 -1431 0
-2318 -1476 0
-2319 -1519 0
-2320 -1560 0
-2321 -1599 0
-2322 -1636 0
-1999 -667 0
-2000 -671 0
-2001 -675 0
-2002 -679 0
-2003 -683 0
-2004 -687 0
-2005 -691 0
-2006 -695 0
-2007 -699 0
-2008 -703 0
-2009 -707 0
-2010 -711 0
-2011 -715 0
-2012 -719 0
-2013 -723 0
-2014 -727 0
-2015 -731 0
-2016 -735 0
-2017 -670 0
-2018 -740 0
-2019 -744 0
-2020 -748 0
-2021 -752 0
-2022 -756 0
-2023 -760 0
-2024 -764 0
-2025 -768 0
-2026 -772 0
-2027 -776 0
-2028 -780 0
-2029 -784 0
-2030 -788 0
-2031 -792 0
-2032 -796 0
-2033 -800 0
-2034 -804 0
-2035 -674 0
-2036 -743 0
-2037 -811 0
-2038 -815 0
-2039 -819 0
-2040 -823 0
-2041 -827 0
-2042 -831 0
-2043 -835 0
-2044 -839 0
-2045 -843 0
-2046 -847 0
-2047 -851 0
-2048 -855 0
-2049 -859 0
-2050 -863 0
-2051 -867 0
-2052 -871 0
-2053 -678 0
-2054 -747 0
-2055 -814 0
-2056 -880 0
-2057 -884 0
-2058 -888 0
-2059 -892 0
-2060 -896 0
-2061 -900 0
-2062 -904 0
-2063 -908 0
-2064 -912 0
-2065 -916 0
-2066 -920 0
-2067 -924 0
-2068 -928 0
-2069 -932 0
-2070 -936 0
-2071 -682 0
-2072 -751 0
-2073 -818 0
-2074 -883 0
-2075 -947 0
-2076 -951 0
-2077 -955 0
-2078 -959 0
-2079 -963 0
-2080 -967 0
-2081 -971 0
-2082 -975 0
-2083 -979 0
-2084 -983 0
-2085 -987 0
-2086 -991 0
-2087 -995 0
-2088 -999 0
-2089 -686 0
-2090 -755 0
-2091 -822 0
-2092 -887 0
-2093 -950 0
-2094 -1012 0
-2095 -1016 0
-2096 -1020 0
-2097 -1024 0
-2098 -1028 0
-2099 -1032 0
-2100 -1036 0
-2101 -1040 0
-2102 -1044 0
-2103 -1048 0
-2104 -1052 0
-2105 -1056 0
-2106 -1060 0
-2107 -690 0
-2108 -759 0
-2109 -826 0
-2110 -891 0
-2111 -954 0
-2112 -1015 0
-2113 -1075 0
-2114 -1079 0
-2115 -1083 0
-2116 -1087 0
-2117 -1091 0
-2118 -1095 0
-2119 -1099 0
-2120 -1103 0
-2121 -1107 0
-2122 -1111 0
-2123 -1115 0
-2124 -1119 0
-2125 -694 0
-2126 -763 0
-2127 -830 0
-2128 -895 0
-2129 -958 0
-2130 -1019 0
-2131 -1078 0
-2132 -1136 0
-2133 -1140 0
-2134 -1144 0
-2135 -1148 0
-2136 -1152 0
-2137 -1156 0
-2138 -1160 0
-2139 -1164 0
-2140 -1168 0
-2141 -1172 0
-2142 -1176 0
-2143 -698 0
-2144 -767 0
-2145 -834 0
-2146 -899 0
-2147 -962 0
-2148 -1023 0
-2149 -1082 0
-2150 -1139 0
-2151 -1195 0
-2152 -1199 0
-2153 -1203 0
-2154 -1207 0
-2155 -1211 0
-2156 -1215 0
-2157 -1219 0
-2158 -1223 0
-2159 -1227 0
-2160 -1231 0
-2161 -702 0
-2162 -771 0
-2163 -838 0
-2164 -903 0
-2165 -966 0
-2166 -1027 0
-2167 -1086 0
-2168 -1143 0
-2169 -1198 0
-2170 -1252 0
-2171 -1256 0
-2172 -1260 0
-2173 -1264 0
-2174 -1268 0
-2175 -1272 0
-2176 -1276 0
-2177 -1280 0
-2178 -1284 0
-2179 -706 0
-2180 -775 0
-2181 -842 0
-2182 -907 0
-2183 -970 0
-2184 -1031 0
-2185 -1090 0
-2186 -1147 0
-2187 -1202 0
-2188 -1255 0
-2189 -1307 0
-2190 -1311 0
-2191 -1315 0
-2192 -1319 0
-2193 -1323 0
-2194 -1327 0
-2195 -1331 0
-2196 -1335 0
-2197 -710 0
-2198 -779 0
-2199 -846 0
-2200 -911 0
-2201 -974 0
-2202 -1035 0
-2203 -1094 0
-2204 -1151 0
-2205 -1206 0
-2206 -1259 0
-2207 -1310 0
-2208 -1360 0
-2209 -1364 0
-2210 -1368 0
-2211 -1372 0
-2212 -1376 0
-2213 -1380 0
-2214 -1384 0
-2215 -714 0
-2216 -783 0
-2217 -850 0
-2218 -915 0
-2219 -978 0
-2220 -1039 0
-2221 -1098 0
-2222 -1155 0
-2223 -1210 0
-2224 -1263 0
-2225 -1314 0
-2226 -1363 0
-2227 -1411 0
-2228 -1415 0
-2229 -1419 0
-2230 -1423 0
-2231 -1427 0
-2232 -1431 0
-2233 -718 0
-2234 -787 0
-2235 -854 0
-2236 -919 0
-2237 -982 0
-2238 -1043 0
-2239 -1102 0
-2240 -1159 0
-2241 -1214 0
-2242 -1267 0
-2243 -1318 0
-2244 -1367 0
-2245 -1414 0
-2246 -1460 0
-2247 -1464 0
-2248 -1468 0
-2249 -1472 0
-2250 -1476 0
-2251 -722 0
-2252 -791 0
-2253 -858 0
-2254 -923 0
-2255 -986 0
-2256 -1047 0
-2257 -1106 0
-2258 -1163 0
-2259 -1218 0
-2260 -1271 0
-2261 -1322 0
-2262 -1371 0
-2263 -1418 0
-2264 -1463 0
-2265 -1507 0
-2266 -1511 0
-2267 -1515 0
-2268 -1519 0
-2269 -726 0
-2270 -795 0
-2271 -862 0
-2272 -927 0
-2273 -990 0
-2274 -1051 0
-2275 -1110 0
-2276 -1167 0
-2277 -1222 0
-2278 -1275 0
-2279 -1326 0
-2280 -1375 0
-2281 -1422 0
-2282 -1467 0
-2283 -1510 0
-2284 -1552 0
-2285 -1556 0
-2286 -1560 0
-2287 -730 0
-2288 -799 0
-2289 -866 0
-2290 -931 0
-2291 -994 0
-2292 -1055 0
-2293 -1114 0
-2294 -1171 0
-2295 -1226 0
-2296 -1279 0
-2297 -1330 0
-2298 -1379 0
-2299 -1426 0
-2300 -1471 0
-2301 -1514 0
-2302 -1555 0
-2303 -1595 0
-2304 -1599 0
-2305 -734 0
-2306 -803 0
-2307 -870 0
-2308 -935 0
-2309 -998 0
-2310 -1059 0
-2311 -1118 0
-2312 -1175 0
-2313 -1230 0
-2314 -1283 0
-2315 -1334 0
-2316 -1383 0
-2317 -1430 0
-2318 -1475 0
-2319 -1518 0
-2320 -1559 0
-2321 -1598 0
-2322 -1636 0
668 1999 -2323 0
672 2000 -2324 0
676 2001 -2325 0
680 2002 -2326 0
684 2003 -2327 0
688 2004 -2328 0
692 2005 -2329 0
696 2006 -2330 0
700 2007 -2331 0
704 2008 -2332 0
708 2009 -2333 0
712 2010 -2334 0
716 2011 -2335 0
720 2012 -2336 0
724 2013 -2337 0
728 2014 -2338 0
732 2015 -2339 0
736 2016 -2340 0
738 2017 -2341 0
741 2018 -2342 0
745 2019 -2343 0
749 2020 -2344 0
753 2021 -2345 0
757 2022 -2346 0
761 2023 -2347 0
765 2024 -2348 0
769 2025 -2349 0
773 2026 -2350 0
777 2027 -2351 0
781 2028 -2352 0
785 2029 -2353 0
789 2030 -2354 0
793 2031 -2355 0
797 2032 -2356 0
801 2033 -2357 0
805 2034 -2358 0
807 2035 -2359 0
809 2036 -2360 0
812 2037 -2361 0
816 2038 -2362 0
820 2039 -2363 0
824 2040 -2364 0
828 2041 -2365 0
832 2042 -2366 0
836 2043 -2367 0
840 2044 -2368 0
844 2045 -2369 0
848 2046 -2370 0
852 2047 -2371 0
856 2048 -2372 0
860 2049 -2373 0
864 2050 -2374 0
868 2051 -2375 0
872 2052 -2376 0
874 2053 -2377 0
876 2054 -2378 0
878 2055 -2379 0
881 2056 -2380 0
885 2057 -2381 0
889 2058 -2382 0
893 2059 -2383 0
897 2060 -2384 0
901 2061 -2385 0
905 2062 -2386 0
909 2063 -2387 0
913 2064 -2388 0
917 2065 -2389 0
921 2066 -2390 0
925 2067 -2391 0
929 2068 -2392 0
933 2069 -2393 0
937 2070 -2394 0
939 2071 -2395 0
941 2072 -2396 0
943 2073 -2397 0
945 2074 -2398 0
948 2075 -2399 0
952 2076 -2400 0
956 2077 -2401 0
960 2078 -2402 0
964 2079 -2403 0
968 2080 -2404 0
972 2081 -2405 0
976 2082 -2406 0
980 2083 -2407 0
984 2084 -2408 0
988 2085 -2409 0
992 2086 -2410 0
996 2087 -2411 0
1000 2088 -2412 0
1002 2089 -2413 0
1004 2090 -2414 0
1006 2091 -2415 0
1008 2092 -2416 0
1010 2093 -2417 0
1013 2094 -2418 0
1017 2095 -2419 0
1021 2096 -2420 0
1025 2097 -2421 0
1029 2098 -2422 0
1033 2099 -2423 0
1037 2100 -2424 0
1041 2101 -2425 0
1045 2102 -2426 0
1049 2103 -2427 0
1053 2104 -2428 0
1057 2105 -2429 0
1061 2106 -2430 0
1063 2107 -2431 0
1065 2108 -2432 0
1067 2109 -2433 0
1069 2110 -2434 0
1071 2111 -2435 0
1073 2112 -2436 0
1076 2113 -2437 0
1080 2114 -2438 0
1084 2115 -2439 0
1088 2116 -2440 0
1092 2117 -2441 0
1096 2118 -2442 0
1100 2119 -2443 0
1104 2120 -2444 0
1108 2121 -2445 0
1112 2122 -2446 0
1116 2123 -2447 0
1120 2124 -2448 0
1122 2125 -2449 0
1124 2126 -2450 0
1126 2127 -2451 0
1128 2128 -2452 0
1130 2129 -2453 0
1132 2130 -2454 0
1134 2131 -2455 0
1137 2132 -2456 0
1141 2133 -2457 0
1145 2134 -2458 0
1149 2135 -2459 0
1153 2136 -2460 0
1157 2137 -2461 0
1161 2138 -2462 0
1165 2139 -2463 0
1169 2140 -2464 0
1173 2141 -2465 0
1177 2142 -2466 0
1179 2143 -2467 0
1181 2144 -2468 0
1183 2145 -2469 0
1185 2146 -2470 0
1187 2147 -2471 0
1189 2148 -2472 0
1191 2149 -2473 0
1193 2150 -2474 0
1196 2151 -2475 0
1200 2152 -2476 0
1204 2153 -2477 0
1208 2154 -2478 0
1212 2155 -2479 0
1216 2156 -2480 0
1220 2157 -2481 0
1224 2158 -2482 0
1228 2159 -2483 0
1232 2160 -2484 0
1234 2161 -2485 0
1236 2162 -2486 0
1238 2163 -2487 0
1240 2164 -2488 0
1242 2165 -2489 0
1244 2166 -2490 0
1246 2167 -2491 0
1248 2168 -2492 0
1250 2169 -2493 0
1253 2170 -2494 0
1257 2171 -2495 0
1261 2172 -2496 0
1265 2173 -2497 0
1269 2174 -2498 0
1273 2175 -2499 0
1277 2176 -2500 0
1281 2177 -2501 0
1285 2178 -2502 0
1287 2179 -2503 0
1289 2180 -2504 0
1291 2181 -2505 0
1293 2182 -2506 0
1295 2183 -2507 0
1297 2184 -2508 0
1299 2185 -2509 0
1301 2186 -2510 0
1303 2187 -2511 0
1305 2188 -2512 0
1308 2189 -2513 0
1312 2190 -2514 0
1316 2191 -2515 0
1320 2192 -2516 0
1324 2193 -2517 0
1328 2194 -2518 0
1332 2195 -2519 0
1336 2196 -2520 0
1338 2197 -2521 0
1340 2198 -2522 0
1342 2199 -2523 0
1344 2200 -2524 0
1346 2201 -2525 0
1348 2202 -2526 0
1350 2203 -2527 0
1352 2204 -2528 0
1354 2205 -2529 0
1356 2206 -2530 0
1358 2207 -2531 0
1361 2208 -2532 0
1365 2209 -2533 0
1369 2210 -2534 0
1373 2211 -2535 0
1377 2212 -2536 0
1381 2213 -2537 0
1385 2214 -2538 0
1387 2215 -2539 0
1389 2216 -2540 0
1391 2217 -2541 0
1393 2218 -2542 0
1395 2219 -2543 0
1397 2220 -2544 0
1399 2221 -2545 0
1401 2222 -2546 0
1403 2223 -2547 0
1405 2224 -2548 0
1407 2225 -2549 0
1409 2226 -2550 0
1412 2227 -2551 0
1416 2228 -2552 0
1420 2229 -2553 0
1424 2230 -2554 0
1428 2231 -2555 0
1432 2232 -2556 0
1434 2233 -2557 0
1436 2234 -2558 0
1438 2235 -2559 0
1440 2236 -2560 0
1442 2237 -2561 0
1444 2238 -2562 0
1446 2239 -2563 0
1448 2240 -2564 0
1450 2241 -2565 0
1452 2242 -2566 0
1454 2243 -2567 0
1456 2244 -2568 0
1458 2245 -2569 0
1461 2246 -2570 0
1465 2247 -2571 0
1469 2248 -2572 0
1473 2249 -2573 0
1477 2250 -2574 0
1479 2251 -2575 0
1481 2252 -2576 0
1483 2253 -2577 0
1485 2254 -2578 0
1487 2255 -2579 0
1489 2256 -2580 0
1491 2257 -2581 0
1493 2258 -2582 0
1495 2259 -2583 0
1497 2260 -2584 0
1499 2261 -2585 0
1501 2262 -2586 0
1503 2263 -2587 0
1505 2264 -2588 0
1508 2265 -2589 0
1512 2266 -2590 0
1516 2267 -2591 0
1520 2268 -2592 0
1522 2269 -2593 0
1524 2270 -2594 0
1526 2271 -2595 0
1528 2272 -2596 0
1530 2273 -2597 0
1532 2274 -2598 0
1534 2275 -2599 0
1536 2276 -2600 0
1538 2277 -2601 0
1540 2278 -2602 0
1542 2279 -2603 0
1544 2280 -2604 0
1546 2281 -2605 0
1548 2282 -2606 0
1550 2283 -2607 0
1553 2284 -2608 0
1557 2285 -2609 0
1561 2286 -2610 0
1563 2287 -2611 0
1565 2288 -2612 0
1567 2289 -2613 0
1569 2290 -2614 0
1571 2291 -2615 0
1573 2292 -2616 0
1575 2293 -2617 0
1577 2294 -2618 0
1579 2295 -2619 0
1581 2296 -2620 0
1583 2297 -2621 0
1585 2298 -2622 0
1587 2299 -2623 0
1589 2300 -2624 0
1591 2301 -2625 0
1593 2302 -2626 0
1596 2303 -2627 0
1600 2304 -2628 0
1602 2305 -2629 0
1604 2306 -2630 0
1606 2307 -2631 0
1608 2308 -2632 0
1610 2309 -2633 0
1612 2310 -2634 0
1614 2311 -2635 0
1616 2312 -2636 0
1618 2313 -2637 0
1620 2314 -2638 0
1622 2315 -2639 0
1624 2316 -2640 0
1626 2317 -2641 0
1628 2318 -2642 0
1630 2319 -2643 0
1632 2320 -2644 0
1634 2321 -2645 0
1637 2322 -2646 0
2323 -668 0
2324 -672 0
2325 -676 0
2326 -680 0
2327 -684 0
2328 -688 0
2329 -692 0
2330 -696 0
2331 -700 0
2332 -704 0
2333 -708 0
2334 -712 0
2335 -716 0
2336 -720 0
2337 -724 0
2338 -728 0
2339 -732 0
2340 -736 0
2341 -738 0
2342 -741 0
2343 -745 0
2344 -749 0
2345 -753 0
2346 -757 0
2347 -761 0
2348 -765 0
2349 -769 0
2350 -773 0
2351 -777 0
2352 -781 0
2353 -785 0
2354 -789 0
2355 -793 0
2356 -797 0
2357 -801 0
2358 -805 0
2359 -807 0
2360 -809 0
2361 -812 0
2362 -816 0
2363 -820 0
2364 -824 0
2365 -828 0
2366 -832 0
2367 -836 0
2368 -840 0
2369 -844 0
2370 -848 0
2371 -852 0
2372 -856 0
2373 -860 0
2374 -864 0
2375 -868 0
2376 -872 0
2377 -874 0
2378 -876 0
2379 -878 0
2380 -881 0
2381 -885 0
2382 -889 0
2383 -893 0
2384 -897 0
2385 -901 0
2386 -905 0
2387 -909 0
2388 -913 0
2389 -917 0
2390 -921 0
2391 -925 0
2392 -929 0
2393 -933 0
2394 -937 0
2395 -939 0
2396 -941 0
2397 -943 0
2398 -945 0
2399 -948 0
2400 -952 0
2401 -956 0
2402 -960 0
2403 -964 0
2404 -968 0
2405 -972 0
2406 -976 0
2407 -980 0
2408 -984 0
2409 -988 0
2410 -992 0
2411 -996 0
2412 -1000 0
2413 -1002 0
2414 -1004 0
2415 -1006 0
2416 -1008 0
2417 -1010 0
2418 -1013 0
2419 -1017 0
2420 -1021 0
2421 -1025 0
2422 -1029 0
2423 -1033 0
2424 -1037 0
2425 -1041 0
2426 -1045 0
2427 -1049 0
2428 -1053 0
2429 -1057 0
2430 -1061 0
2431 -1063 0
2432 -1065 0
2433 -1067 0
2434 -1069 0
2435 -1071 0
2436 -1073 0
2437 -1076 0
2438 -1080 0
2439 -1084 0
2440 -1088 0
2441 -1092 0
2442 -1096 0
2443 -1100 0
2444 -1104 0
2445 -1108 0
2446 -1112 0
2447 -1116 0
2448 -1120 0
2449 -1122 0
2450 -1124 0
2451 -1126 0
2452 -1128 0
2453 -1130 0
2454 -1132 0
2455 -1134 0
2456 -1137 0
2457 -1141 0
2458 -1145 0
2459 -1149 0
2460 -1153 0
2461 -1157 0
2462 -1161 0
2463 -1165 0
2464 -1169 0
2465 -1173 0
2466 -1177 0
2467 -1179 0
2468 -1181 0
2469 -1183 0
2470 -1185 0
2471 -1187 0
2472 -1189 0
2473 -1191 0
2474 -1193 0
2475 -1196 0
2476 -1200 0
2477 -1204 0
2478 -1208 0
2479 -1212 0
2480 -1216 0
2481 -1220 0
2482 -1224 0
2483 -1228 0
2484 -1232 0
2485 -1234 0
2486 -1236 0
2487 -1238 0
2488 -1240 0
2489 -1242 0
2490 -1244 0
2491 -1246 0
2492 -1248 0
2493 -1250 0
2494 -1253 0
2495 -1257 0
2496 -1261 0
2497 -1265 0
2498 -1269 0
2499 -1273 0
2500 -1277 0
2501 -1281 0
2502 -1285 0
2503 -1287 0
2504 -1289 0
2505 -1291 0
2506 -1293 0
2507 -1295 0
2508 -1297 0
2509 -1299 0
2510 -1301 0
2511 -1303 0
2512 -1305 0
2513 -1308 0
2514 -1312 0
2515 -1316 0
2516 -1320 0
2517 -1324 0
2518 -1328 0
2519 -1332 0
2520 -1336 0
2521 -1338 0
2522 -1340 0
2523 -1342 0
2524 -1344 0
2525 -1346 0
2526 -1348 0
2527 -1350 0
2528 -1352 0
2529 -1354 0
2530 -1356 0
2531 -1358 0
2532 -1361 0
2533 -1365 0
2534 -1369 0
2535 -1373 0
2536 -1377 0
2537 -1381 0
2538 -1385 0
2539 -1387 0
2540 -1389 0
2541 -1391 0
2542 -1393 0
2543 -1395 0
2544 -1397 0
2545 -1399 0
2546 -1401 0
2547 -1403 0
2548 -1405 0
2549 -1407 0
2550 -1409 0
2551 -1412 0
2552 -1416 0
2553 -1420 0
2554 -1424 0
2555 -1428 0
2556 -1432 0
2557 -1434 0
2558 -1436 0
2559 -1438 0
2560 -1440 0
2561 -1442 0
2562 -1444 0
2563 -1446 0
2564 -1448 0
2565 -1450 0
2566 -1452 0
2567 -1454 0
2568 -1456 0
2569 -1458 0
2570 -1461 0
2571 -1465 0
2572 -1469 0
2573 -1473 0
2574 -1477 0
2575 -1479 0
2576 -1481 0
2577 -1483 0
2578 -1485 0
2579 -1487 0
2580 -1489 0
2581 -1491 0
2582 -1493 0
2583 -1495 0
2584 -1497 0
2585 -1499 0
2586 -1501 0
2587 -1503 0
2588 -1505 0
2589 -1508 0
2590 -1512 0
2591 -1516 0
2592 -1520 0
2593 -1522 0
2594 -1524 0
2595 -1526 0
2596 -1528 0
2597 -1530 0
2598 -1532 0
2599 -1534 0
2600 -1536 0
2601 -1538 0
2602 -1540 0
2603 -1542 0
2604 -1544 0
2605 -1546 0
2606 -1548 0
2607 -1550 0
2608 -1553 0
2609 -1557 0
2610 -1561 0
2611 -1563 0
2612 -1565 0
2613 -1567 0
2614 -1569 0
2615 -1571 0
2616 -1573 0
2617 -1575 0
2618 -1577 0
2619 -1579 0
2620 -1581 0
2621 -1583 0
2622 -1585 0
2623 -1587 0
2624 -1589 0
2625 -1591 0
2626 -1593 0
2627 -1596 0
2628 -1600 0
2629 -1602 0
2630 -1604 0
2631 -1606 0
2632 -1608 0
2633 -1610 0
2634 -1612 0
2635 -1614 0
2636 -1616 0
2637 -1618 0
2638 -1620 0
2639 -1622 0
2640 -1624 0
2641 -1626 0
2642 -1628 0
2643 -1630 0
2644 -1632 0
2645 -1634 0
2646 -1637 0
2323 -1999 0
2324 -2000 0
2325 -2001 0
2326 -2002 0
2327 -2003 0
2328 -2004 0
2329 -2005 0
2330 -2006 0
2331 -2007 0
2332 -2008 0
2333 -2009 0
2334 -2010 0
2335 -2011 0
2336 -2012 0
2337 -2013 0
2338 -2014 0
2339 -2015 0
2340 -2016 0
2341 -2017 0
2342 -2018 0
2343 -2019 0
2344 -2020 0
2345 -2021 0
2346 -2022 0
2347 -2023 0
2348 -2024 0
2349 -2025 0
2350 -2026 0
2351 -2027 0
2352 -2028 0
2353 -2029 0
2354 -2030 0
2355 -2031 0
2356 -2032 0
2357 -2033 0
2358 -2034 0
2359 -2035 0
2360 -2036 0
2361 -2037 0
2362 -2038 0
2363 -2039 0
2364 -2040 0
2365 -2041 0
2366 -2042 0
2367 -2043 0
2368 -2044 0
2369 -2045 0
2370 -2046 0
2371 -2047 0
2372 -2048 0
2373 -2049 0
2374 -2050 0
2375 -2051 0
2376 -2052 0
2377 -2053 0
2378 -2054 0
2379 -2055 0
2380 -2056 0
2381 -2057 0
2382 -2058 0
2383 -2059 0
2384 -2060 0
2385 -2061 0
2386 -2062 0
2387 -2063 0
2388 -2064 0
2389 -2065 0
2390 -2066 0
2391 -2067 0
2392 -2068 0
2393 -2069 0
2394 -2070 0
2395 -2071 0
2396 -2072 0
2397 -2073 0
2398 -2074 0
2399 -2075 0
2400 -2076 0
2401 -2077 0
2402 -2078 0
2403 -2079 0
2404 -2080 0
2405 -2081 0
2406 -2082 0
2407 -2083 0
2408 -2084 0
2409 -2085 0
2410 -2086 0
2411 -2087 0
2412 -2088 0
2413 -2089 0
2414 -2090 0
2415 -2091 0
2416 -2092 0
2417 -2093 0
2418 -2094 0
2419 -2095 0
2420 -2096 0
2421 -2097 0
2422 -2098 0
2423 -2099 0
2424 -2100 0
2425 -2101 0
2426 -2102 0
2427 -2103 0
2428 -2104 0
2429 -2105 0
2430 -2106 0
2431 -2107 0
2432 -2108 0
2433 -2109 0
2434 -2110 0
2435 -2111 0
2436 -2112 0
2437 -2113 0
2438 -2114 0
2439 -2115 0
2440 -2116 0
2441 -2117 0
2442 -2118 0
2443 -2119 0
2444 -2120 0
2445 -2121 0
2446 -2122 0
2447 -2123 0
2448 -2124 0
2449 -2125 0
2450 -2126 0
2451 -2127 0
2452 -2128 0
2453 -2129 0
2454 -2130 0
2455 -2131 0
2456 -2132 0
2457 -2133 0
2458 -2134 0
2459 -2135 0
2460 -2136 0
2461 -2137 0
2462 -2138 0
2463 -2139 0
2464 -2140 0
2465 -2141 0
2466 -2142 0
2467 -2143 0
2468 -2144 0
2469 -2145 0
2470 -2146 0
2471 -2147 0
2472 -2148 0
2473 -2149 0
2474 -2150 0
2475 -2151 0
2476 -2152 0
2477 -2153 0
2478 -2154 0
2479 -2155 0
2480 -2156 0
2481 -2157 0
2482 -2158 0
2483 -2159 0
2484 -2160 0
2485 -2161 0
2486 -2162 0
2487 -2163 0
2488 -2164 0
2489 -2165 0
2490 -2166 0
2491 -2167 0
2492 -2168 0
2493 -2169 0
2494 -2170 0
2495 -2171 0
2496 -2172 0
2497 -2173 0
2498 -2174 0
2499 -2175 0
2500 -2176 0
2501 -2177 0
2502 -2178 0
2503 -2179 0
2504 -2180 0
2505 -2181 0
2506 -2182 0
2507 -2183 0
2508 -2184 0
2509 -2185 0
2510 -2186 0
2511 -2187 0
2512 -2188 0
2513 -2189 0
2514 -2190 0
2515 -2191 0
2516 -2192 0
2517 -2193 0
2518 -2194 0
2519 -2195 0
2520 -2196 0
2521 -2197 0
2522 -2198 0
2523 -2199 0
2524 -2200 0
2525 -2201 0
2526 -2202 0
2527 -2203 0
2528 -2204 0
2529 -2205 0
2530 -2206 0
2531 -2207 0
2532 -2208 0
2533 -2209 0
2534 -2210 0
2535 -2211 0
2536 -2212 0
2537 -2213 0
2538 -2214 0
2539 -2215 0
2540 -2216 0
2541 -2217 0
2542 -2218 0
2543 -2219 0
2544 -2220 0
2545 -2221 0
2546 -2222 0
2547 -2223 0
2548 -2224 0
2549 -2225 0
2550 -2226 0
2551 -2227 0
2552 -2228 0
2553 -2229 0
2554 -2230 0
2555 -2231 0
2556 -2232 0
2557 -2233 0
2558 -2234 0
2559 -2235 0
2560 -2236 0
2561 -2237 0
2562 -2238 0
2563 -2239 0
2564 -2240 0
2565 -2241 0
2566 -2242 0
2567 -2243 0
2568 -2244 0
2569 -2245 0
2570 -2246 0
2571 -2247 0
2572 -2248 0
2573 -2249 0
2574 -2250 0
2575 -2251 0
2576 -2252 0
2577 -2253 0
2578 -2254 0
2579 -2255 0
2580 -2256 0
2581 -2257 0
2582 -2258 0
2583 -2259 0
2584 -2260 0
2585 -2261 0
2586 -2262 0
2587 -2263 0
2588 -2264 0
2589 -2265 0
2590 -2266 0
2591 -2267 0
2592 -2268 0
2593 -2269 0
2594 -2270 0
2595 -2271 0
2596 -2272 0
2597 -2273 0
2598 -2274 0
2599 -2275 0
2600 -2276 0
2601 -2277 0
2602 -2278 0
2603 -2279 0
2604 -2280 0
2605 -2281 0
2606 -2282 0
2607 -2283 0
2608 -2284 0
2609 -2285 0
2610 -2286 0
2611 -2287 0
2612 -2288 0
2613 -2289 0
2614 -2290 0
2615 -2291 0
2616 -2292 0
2617 -2293 0
2618 -2294 0
2619 -2295 0
2620 -2296 0
2621 -2297 0
2622 -2298 0
2623 -2299 0
2624 -2300 0
2625 -2301 0
2626 -2302 0
2627 -2303 0
2628 -2304 0
2629 -2305 0
2630 -2306 0
2631 -2307 0
2632 -2308 0
2633 -2309 0
2634 -2310 0
2635 -2311 0
2636 -2312 0
2637 -2313 0
2638 -2314 0
2639 -2315 0
2640 -2316 0
2641 -2317 0
2642 -2318 0
2643 -2319 0
2644 -2320 0
2645 -2321 0
2646 -2322 0
-2647 -2 -2 2648 0
-2649 -2 -5 2650 0
-2651 -2 -8 2652 0
-2653 -2 -11 2654 0
-2655 -2 -14 2656 0
-2657 -2 -17 2658 0
-2659 -2 -20 2660 0
-2661 -2 -23 2662 0
-2663 -2 -26 2664 0
-2665 -2 -29 2666 0
-2667 -2 -32 2668 0
-2669 -2 -35 2670 0
-2671 -2 -38 2672 0
-2673 -2 -41 2674 0
-2675 -2 -44 2676 0
-2677 -2 -47 2678 0
-2679 -2 -50 2680 0
-2681 -2 -53 2682 0
-2683 -5 -2 2684 0
-2685 -5 -5 2686 0
-2687 -5 -8 2688 0
-2689 -5 -11 2690 0
-2691 -5 -14 2692 0
-2693 -5 -17 2694 0
-2695 -5 -20 2696 0
-2697 -5 -23 2698 0
-2699 -5 -26 2700 0
-2701 -5 -29 2702 0
-2703 -5 -32 2704 0
-2705 -5 -35 2706 0
-2707 -5 -38 2708 0
-2709 -5 -41 2710 0
-2711 -5 -44 2712 0
-2713 -5 -47 2714 0
-2715 -5 -50 2716 0
-2717 -5 -53 2718 0
-2719 -8 -2 2720 0
-2721 -8 -5 2722 0
-2723 -8 -8 2724 0
-2725 -8 -11 2726 0
-2727 -8 -14 2728 0
-2729 -8 -17 2730 0
-2731 -8 -20 2732 0
-2733 -8 -23 2734 0
-2735 -8 -26 2736 0
-2737 -8 -29 2738 0
-2739 -8 -32 2740 0
-2741 -8 -35 2742 0
-2743 -8 -38 2744 0
-2745 -8 -41 2746 0
-2747 -8 -44 2748 0
-2749 -8 -47 2750 0
-2751 -8 -50 2752 0
-2753 -8 -53 2754 0
-2755 -11 -2 2756 0
-2757 -11 -5 2758 0
-2759 -11 -8 2760 0
-2761 -11 -11 2762 0
-2763 -11 -14 2764 0
-2765 -11 -17 2766 0
-2767 -11 -20 2768 0
-2769 -11 -23 2770 0
-2771 -11 -26 2772 0
-2773 -11 -29 2774 0
-2775 -11 -32 2776 0
-2777 -11 -35 2778 0
-2779 -11 -38 2780 0
-2781 -11 -41 2782 0
-2783 -11 -44 2784 0
-2785 -11 -47 2786 0
-2787 -11 -50 2788 0
-2789 -11 -53 2790 0
-2791 -14 -2 2792 0
-2793 -14 -5 2794 0
-2795 -14 -8 2796 0
-2797 -14 -11 2798 0
-2799 -14 -14 2800 0
-2801 -14 -17 2802 0
-2803 -14 -20 2804 0
-2805 -14 -23 2806 0
-2807 -14 -26 2808 0
-2809 -14 -29 2810 0
-2811 -14 -32 2812 0
-2813 -14 -35 2814 0
-2815 -14 -38 2816 0
-2817 -14 -41 2818 0
-2819 -14 -44 2820 0
-2821 -14 -47 2822 0
-2823 -14 -50 2824 0
-2825 -14 -53 2826 0
-2827 -17 -2 2828 0
-2829 -17 -5 2830 0
-2831 -17 -8 2832 0
-2833 -17 -11 2834 0
-2835 -17 -14 2836 0
-2837 -17 -17 2838 0
-2839 -17 -20 2840 0
-2841 -17 -23 2842 0
-2843 -17 -26 2844 0
-2845 -17 -29 2846 0
-2847 -17 -32 2848 0
-2849 -17 -35 2850 0
-2851 -17 -38 2852 0
-2853 -17 -41 2854 0
-2855 -17 -44 2856 0
-2857 -17 -47 2858 0
-2859 -17 -50 2860 0
-2861 -17 -53 2862 0
-2863 -20 -2 2864 0
-2865 -20 -5 2866 0
-2867 -20 -8 2868 0
-2869 -20 -11 2870 0
-2871 -20 -14 2872 0
-2873 -20 -17 2874 0
-2875 -20 -20 2876 0
-2877 -20 -23 2878 0
-2879 -20 -26 2880 0
-2881 -20 -29 2882 0
-2883 -20 -32 2884 0
-2885 -20 -35 2886 0
-2887 -20 -38 2888 0
-2889 -20 -41 2890 0
-2891 -20 -44 2892 0
-2893 -20 -47 2894 0
-2895 -20 -50 2896 0
-2897 -20 -53 2898 0
-2899 -23 -2 2900 0
-2901 -23 -5 2902 0
-2903 -23 -8 2904 0
-2905 -23 -11 2906 0
-2907 -23 -14 2908 0
-2909 -23 -17 2910 0
-2911 -23 -20 2912 0
-2913 -23 -23 2914 0
-2915 -23 -26 2916 0
-2917 -23 -29 2918 0
-2919 -23 -32 2920 0
-2921 -23 -35 2922 0
-2923 -23 -38 2924 0
-2925 -23 -41 2926 0
-2927 -23 -44 2928 0
-2929 -23 -47 2930 0
-2931 -23 -50 2932 0
-2933 -23 -53 2934 0
-2935 -26 -2 2936 0
-2937 -26 -5 2938 0
-2939 -26 -8 2940 0
-2941 -26 -11 2942 0
-2943 -26 -14 2944 0
-2945 -26 -17 2946 0
-2947 -26 -20 2948 0
-2949 -26 -23 2950 0
-2951 -26 -26 2952 0
-2953 -26 -29 2954 0
-2955 -26 -32 2956 0
-2957 -26 -35 2958 0
-2959 -26 -38 2960 0
-2961 -26 -41 2962 0
-2963 -26 -44 2964 0
-2965 -26 -47 2966 0
-2967 -26 -50 2968 0
-2969 -26 -53 2970 0
-2971 -29 -2 2972 0
-2973 -29 -5 2974 0
-2975 -29 -8 2976 0
-2977 -29 -11 2978 0
-2979 -29 -14 2980 0
-2981 -29 -17 2982 0
-2983 -29 -20 2984 0
-2985 -29 -23 2986 0
-2987 -29 -26 2988 0
-2989 -29 -29 2990 0
-2991 -29 -32 2992 0
-2993 -29 -35 2994 0
-2995 -29 -38 2996 0
-2997 -29 -41 2998 0
-2999 -29 -44 3000 0
-3001 -29 -47 3002 0
-3003 -29 -50 3004 0
-3005 -29 -53 3006 0
-3007 -32 -2 3008 0
-3009 -32 -5 3010 0
-3011 -32 -8 3012 0
-3013 -32 -11 3014 0
-3015 -32 -14 3016 0
-3017 -32 -17 3018 0
-3019 -32 -20 3020 0
-3021 -32 -23 3022 0
-3023 -32 -26 3024 0
-3025 -32 -29 3026 0
-3027 -32 -32 3028 0
-3029 -32 -35 3030 0
-3031 -32 -38 3032 0
-3033 -32 -41 3034 0
-3035 -32 -44 3036 0
-3037 -32 -47 3038 0
-3039 -32 -50 3040 0
-3041 -32 -53 3042 0
-3043 -35 -2 3044 0
-3045 -35 -5 3046 0
-3047 -35 -8 3048 0
-3049 -35 -11 3050 0
-3051 -35 -14 3052 0
-3053 -35 -17 3054 0
-3055 -35 -20 3056 0
-3057 -35 -23 3058 0
-3059 -35 -26 3060 0
-3061 -35 -29 3062 0
-3063 -35 -32 3064 0
-3065 -35 -35 3066 0
-3067 -35 -38 3068 0
-3069 -35 -41 3070 0
-3071 -35 -44 3072 0
-3073 -35 -47 3074 0
-3075 -35 -50 3076 0
-3077 -35 -53 3078 0
-3079 -38 -2 3080 0
-3081 -38 -5 3082 0
-3083 -38 -8 3084 0
-3085 -38 -11 3086 0
-3087 -38 -14 3088 0
-3089 -38 -17 3090 0
-3091 -38 -20 3092 0
-3093 -38 -23 3094 0
-3095 -38 -26 3096 0
-3097 -38 -29 3098 0
-3099 -38 -32 3100 0
-3101 -38 -35 3102 0
-3103 -38 -38 3104 0
-3105 -38 -41 3106 0
-3107 -38 -44 3108 0
-3109 -38 -47 3110 0
-3111 -38 -50 3112 0
-3113 -38 -53 3114 0
-3115 -41 -2 3116 0
-3117 -41 -5 3118 0
-3119 -41 -8 3120 0
-3121 -41 -11 3122 0
-3123 -41 -14 3124 0
-3125 -41 -17 3126 0
-3127 -41 -20 3128 0
-3129 -41 -23 3130 0
-3131 -41 -26 3132 0
-3133 -41 -29 3134 0
-3135 -41 -32 3136 0
-3137 -41 -35 3138 0
-3139 -41 -38 3140 0
-3141 -41 -41 3142 0
-3143 -41 -44 3144 0
-3145 -41 -47 3146 0
-3147 -41 -50 3148 0
-3149 -41 -53 3150 0
-3151 -44 -2 3152 0
-3153 -44 -5 3154 0
-3155 -44 -8 3156 0
-3157 -44 -11 3158 0
-3159 -44 -14 3160 0
-3161 -44 -17 3162 0
-3163 -44 -20 3164 0
-3165 -44 -23 3166 0
-3167 -44 -26 3168 0
-3169 -44 -29 3170 0
-3171 -44 -32 3172 0
-3173 -44 -35 3174 0
-3175 -44 -38 3176 0
-3177 -44 -41 3178 0
-3179 -44 -44 3180 0
-3181 -44 -47 3182 0
-3183 -44 -50 3184 0
-3185 -44 -53 3186 0
-3187 -47 -2 3188 0
-3189 -47 -5 3190 0
-3191 -47 -8 3192 0
-3193 -47 -11 3194 0
-3195 -47 -14 3196 0
-3197 -47 -17 3198 0
-3199 -47 -20 3200 0
-3201 -47 -23 3202 0
-3203 -47 -26 3204 0
-3205 -47 -29 3206 0
-3207 -47 -32 3208 0
-3209 -47 -35 3210 0
-3211 -47 -38 3212 0
-3213 -47 -41 3214 0
-3215 -47 -44 3216 0
-3217 -47 -47 3218 0
-3219 -47 -50 3220 0
-3221 -47 -53 3222 0
-3223 -50 -2 3224 0
-3225 -50 -5 3226 0
-3227 -50 -8 3228 0
-3229 -50 -11 3230 0
-3231 -50 -14 3232 0
-3233 -50 -17 3234 0
-3235 -50 -20 3236 0
-3237 -50 -23 3238 0
-3239 -50 -26 3240 0
-3241 -50 -29 3242 0
-3243 -50 -32 3244 0
-3245 -50 -35 3246 0
-3247 -50 -38 3248 0
-3249 -50 -41 3250 0
-3251 -50 -44 3252 0
-3253 -50 -47 3254 0
-3255 -50 -50 3256 0
-3257 -50 -53 3258 0
-3259 -53 -2 3260 0
-3261 -53 -5 3262 0
-3263 -53 -8 3264 0
-3265 -53 -11 3266 0
-3267 -53 -14 3268 0
-3269 -53 -17 3270 0
-3271 -53 -20 3272 0
-3273 -53 -23 3274 0
-3275 -53 -26 3276 0
-3277 -53 -29 3278 0
-3279 -53 -32 3280 0
-3281 -53 -35 3282 0
-3283 -53 -38 3284 0
-3285 -53 -41 3286 0
-3287 -53 -44 3288 0
-3289 -53 -47 3290 0
-3291 -53 -50 3292 0
-3293 -53 -53 3294 0
-2648 2647 0
-2650 2649 0
-2652 2651 0
-2654 2653 0
-2656 2655 0
-2658 2657 0
-2660 2659 0
-2662 2661 0
-2664 2663 0
-2666 2665 0
-2668 2667 0
-2670 2669 0
-2672 2671 0
-2674 2673 0
-2676 2675 0
-2678 2677 0
-2680 2679 0
-2682 2681 0
-2684 2683 0
-2686 2685 0
-2688 2687 0
-2690 2689 0
-2692 2691 0
-2694 2693 0
-2696 2695 0
-2698 2697 0
-2700 2699 0
-2702 2701 0
-2704 2703 0
-2706 2705 0
-2708 2707 0
-2710 2709 0
-2712 2711 0
-2714 2713 0
-2716 2715 0
-2718 2717 0
-2720 2719 0
-2722 2721 0
-2724 2723 0
-2726 2725 0
-2728 2727 0
-2730 2729 0
-2732 2731 0
-2734 2733 0
-2736 2735 0
-2738 2737 0
-2740 2739 0
-2742 2741 0
-2744 2743 0
-2746 2745 0
-2748 2747 0
-2750 2749 0
-2752 2751 0
-2754 2753 0
-2756 2755 0
-2758 2757 0
-2760 2759 0
-2762 2761 0
-2764 2763 0
-2766 2765 0
-2768 2767 0
-2770 2769 0
-2772 2771 0
-2774 2773 0
-2776 2775 0
-2778 2777 0
-2780 2779 0
-2782 2781 0
-2784 2783 0
-2786 2785 0
-2788 2787 0
-2790 2789 0
-2792 2791 0
-2794 2793 0
-2796 2795 0
-2798 2797 0
-2800 2799 0
-2802 2801 0
-2804 2803 0
-2806 2805 0
-2808 2807 0
-2810 2809 0
-2812 2811 0
-2814 2813 0
-2816 2815 0
-2818 2817 0
-2820 2819 0
-2822 2821 0
-2824 2823 0
-2826 2825 0
-2828 2827 0
-2830 2829 0
-2832 2831 0
-2834 2833 0
-2836 2835 0
-2838 2837 0
-2840 2839 0
-2842 2841 0
-2844 2843 0
-2846 2845 0
-2848 2847 0
-2850 2849 0
-2852 2851 0
-2854 2853 0
-2856 2855 0
-2858 2857 0
-2860 2859 0
-2862 2861 0
-2864 2863 0
-2866 2865 0
-2868 2867 0
-2870 2869 0
-2872 2871 0
-2874 2873 0
-2876 2875 0
-2878 2877 0
-2880 2879 0
-2882 2881 0
-2884 2883 0
-2886 2885 0
-2888 2887 0
-2890 2889 0
-2892 2891 0
-2894 2893 0
-2896 2895 0
-2898 2897 0
-2900 2899 0
-2902 2901 0
-2904 2903 0
-2906 2905 0
-2908 2907 0
-2910 2909 0
-2912 2911 0
-2914 2913 0
-2916 2915 0
-2918 2917 0
-2920 2919 0
-2922 2921 0
-2924 2923 0
-2926 2925 0
-2928 2927 0
-2930 2929 0
-2932 2931 0
-2934 2933 0
-2936 2935 0
-2938 2937 0
-2940 2939 0
-2942 2941 0
-2944 2943 0
-2946 2945 0
-2948 2947 0
-2950 2949 0
-2952 2951 0
-2954 2953 0
-2956 2955 0
-2958 2957 0
-2960 2959 0
-2962 2961 0
-2964 2963 0
-2966 2965 0
-2968 2967 0
-2970 2969 0
-2972 2971 0
-2974 2973 0
-2976 2975 0
-2978 2977 0
-2980 2979 0
-2982 2981 0
-2984 2983 0
-2986 2985 0
-2988 2987 0
-2990 2989 0
-2992 2991 0
-2994 2993 0
-2996 2995 0
-2998 2997 0
-3000 2999 0
-3002 3001 0
-3004 3003 0
-3006 3005 0
-3008 3007 0
-3010 3009 0
-3012 3011 0
-3014 3013 0
-3016 3015 0
-3018 3017 0
-3020 3019 0
-3022 3021 0
-3024 3023 0
-3026 3025 0
-3028 3027 0
-3030 3029 0
-3032 3031 0
-3034 3033 0
-3036 3035 0
-3038 3037 0
-3040 3039 0
-3042 3041 0
-3044 3043 0
-3046 3045 0
-3048 3047 0
-3050 3049 0
-3052 3051 0
-3054 3053 0
-3056 3055 0
-3058 3057 0
-3060 3059 0
-3062 3061 0
-3064 3063 0
-3066 3065 0
-3068 3067 0
-3070 3069 0
-3072 3071 0
-3074 3073 0
-3076 3075 0
-3078 3077 0
-3080 3079 0
-3082 3081 0
-3084 3083 0
-3086 3085 0
-3088 3087 0
-3090 3089 0
-3092 3091 0
-3094 3093 0
-3096 3095 0
-3098 3097 0
-3100 3099 0
-3102 3101 0
-3104 3103 0
-3106 3105 0
-3108 3107 0
-3110 3109 0
-3112 3111 0
-3114 3113 0
-3116 3115 0
-3118 3117 0
-3120 3119 0
-3122 3121 0
-3124 3123 0
-3126 3125 0
-3128 3127 0
-3130 3129 0
-3132 3131 0
-3134 3133 0
-3136 3135 0
-3138 3137 0
-3140 3139 0
-3142 3141 0
-3144 3143 0
-3146 3145 0
-3148 3147 0
-3150 3149 0
-3152 3151 0
-3154 3153 0
-3156 3155 0
-3158 3157 0
-3160 3159 0
-3162 3161 0
-3164 3163 0
-3166 3165 0
-3168 3167 0
-3170 3169 0
-3172 3171 0
-3174 3173 0
-3176 3175 0
-3178 3177 0
-3180 3179 0
-3182 3181 0
-3184 3183 0
-3186 3185 0
-3188 3187 0
-3190 3189 0
-3192 3191 0
-3194 3193 0
-3196 3195 0
-3198 3197 0
-3200 3199 0
-3202 3201 0
-3204 3203 0
-3206 3205 0
-3208 3207 0
-3210 3209 0
-3212 3211 0
-3214 3213 0
-3216 3215 0
-3218 3217 0
-3220 3219 0
-3222 3221 0
-3224 3223 0
-3226 3225 0
-3228 3227 0
-3230 3229 0
-3232 3231 0
-3234 3233 0
-3236 3235 0
-3238 3237 0
-3240 3239 0
-3242 3241 0
-3244 3243 0
-3246 3245 0
-3248 3247 0
-3250 3249 0
-3252 3251 0
-3254 3253 0
-3256 3255 0
-3258 3257 0
-3260 3259 0
-3262 3261 0
-3264 3263 0
-3266 3265 0
-3268 3267 0
-3270 3269 0
-3272 3271 0
-3274 3273 0
-3276 3275 0
-3278 3277 0
-3280 3279 0
-3282 3281 0
-3284 3283 0
-3286 3285 0
-3288 3287 0
-3290 3289 0
-3292 3291 0
-3294 3293 0
-2648 2 0
-2650 2 0
-2652 2 0
-2654 2 0
-2656 2 0
-2658 2 0
-2660 2 0
-2662 2 0
-2664 2 0
-2666 2 0
-2668 2 0
-2670 2 0
-2672 2 0
-2674 2 0
-2676 2 0
-2678 2 0
-2680 2 0
-2682 2 0
-2684 5 0
-2686 5 0
-2688 5 0
-2690 5 0
-2692 5 0
-2694 5 0
-2696 5 0
-2698 5 0
-2700 5 0
-2702 5 0
-2704 5 0
-2706 5 0
-2708 5 0
-2710 5 0
-2712 5 0
-2714 5 0
-2716 5 0
-2718 5 0
-2720 8 0
-2722 8 0
-2724 8 0
-2726 8 0
-2728 8 0
-2730 8 0
-2732 8 0
-2734 8 0
-2736 8 0
-2738 8 0
-2740 8 0
-2742 8 0
-2744 8 0
-2746 8 0
-2748 8 0
-2750 8 0
-2752 8 0
-2754 8 0
-2756 11 0
-2758 11 0
-2760 11 0
-2762 11 0
-2764 11 0
-2766 11 0
-2768 11 0
-2770 11 0
-2772 11 0
-2774 11 0
-2776 11 0
-2778 11 0
-2780 11 0
-2782 11 0
-2784 11 0
-2786 11 0
-2788 11 0
-2790 11 0
-2792 14 0
-2794 14 0
-2796 14 0
-2798 14 0
-2800 14 0
-2802 14 0
-2804 14 0
-2806 14 0
-2808 14 0
-2810 14 0
-2812 14 0
-2814 14 0
-2816 14 0
-2818 14 0
-2820 14 0
-2822 14 0
-2824 14 0
-2826 14 0
-2828 17 0
-2830 17 0
-2832 17 0
-2834 17 0
-2836 17 0
-2838 17 0
-2840 17 0
-2842 17 0
-2844 17 0
-2846 17 0
-2848 17 0
-2850 17 0
-2852 17 0
-2854 17 0
-2856 17 0
-2858 17 0
-2860 17 0
-2862 17 0
-2864 20 0
-2866 20 0
-2868 20 0
-2870 20 0
-2872 20 0
-2874 20 0
-2876 20 0
-2878 20 0
-2880 20 0
-2882 20 0
-2884 20 0
-2886 20 0
-2888 20 0
-2890 20 0
-2892 20 0
-2894 20 0
-2896 20 0
-2898 20 0
-2900 23 0
-2902 23 0
-2904 23 0
-2906 23 0
-2908 23 0
-2910 23 0
-2912 23 0
-2914 23 0
-2916 23 0
-2918 23 0
-2920 23 0
-2922 23 0
-2924 23 0
-2926 23 0
-2928 23 0
-2930 23 0
-2932 23 0
-2934 23 0
-2936 26 0
-2938 26 0
-2940 26 0
-2942 26 0
-2944 26 0
-2946 26 0
-2948 26 0
-2950 26 0
-2952 26 0
-2954 26 0
-2956 26 0
-2958 26 0
-2960 26 0
-2962 26 0
-2964 26 0
-2966 26 0
-2968 26 0
-2970 26 0
-2972 29 0
-2974 29 0
-2976 29 0
-2978 29 0
-2980 29 0
-2982 29 0
-2984 29 0
-2986 29 0
-2988 29 0
-2990 29 0
-2992 29 0
-2994 29 0
-2996 29 0
-2998 29 0
-3000 29 0
-3002 29 0
-3004 29 0
-3006 29 0
-3008 32 0
-3010 32 0
-3012 32 0
-3014 32 0
-3016 32 0
-3018 32 0
-3020 32 0
-3022 32 0
-3024 32 0
-3026 32 0
-3028 32 0
-3030 32 0
-3032 32 0
-3034 32 0
-3036 32 0
-3038 32 0
-3040 32 0
-3042 32 0
-3044 35 0
-3046 35 0
-3048 35 0
-3050 35 0
-3052 35 0
-3054 35 0
-3056 35 0
-3058 35 0
-3060 35 0
-3062 35 0
-3064 35 0
-3066 35 0
-3068 35 0
-3070 35 0
-3072 35 0
-3074 35 0
-3076 35 0
-3078 35 0
-3080 38 0
-3082 38 0
-3084 38 0
-3086 38 0
-3088 38 0
-3090 38 0
-3092 38 0
-3094 38 0
-3096 38 0
-3098 38 0
-3100 38 0
-3102 38 0
-3104 38 0
-3106 38 0
-3108 38 0
-3110 38 0
-3112 38 0
-3114 38 0
-3116 41 0
-3118 41 0
-3120 41 0
-3122 41 0
-3124 41 0
-3126 41 0
-3128 41 0
-3130 41 0
-3132 41 0
-3134 41 0
-3136 41 0
-3138 41 0
-3140 41 0
-3142 41 0
-3144 41 0
-3146 41 0
-3148 41 0
-3150 41 0
-3152 44 0
-3154 44 0
-3156 44 0
-3158 44 0
-3160 44 0
-3162 44 0
-3164 44 0
-3166 44 0
-3168 44 0
-3170 44 0
-3172 44 0
-3174 44 0
-3176 44 0
-3178 44 0
-3180 44 0
-3182 44 0
-3184 44 0
-3186 44 0
-3188 47 0
-3190 47 0
-3192 47 0
-3194 47 0
-3196 47 0
-3198 47 0
-3200 47 0
-3202 47 0
-3204 47 0
-3206 47 0
-3208 47 0
-3210 47 0
-3212 47 0
-3214 47 0
-3216 47 0
-3218 47 0
-3220 47 0
-3222 47 0
-3224 50 0
-3226 50 0
-3228 50 0
-3230 50 0
-3232 50 0
-3234 50 0
-3236 50 0
-3238 50 0
-3240 50 0
-3242 50 0
-3244 50 0
-3246 50 0
-3248 50 0
-3250 50 0
-3252 50 0
-3254 50 0
-3256 50 0
-3258 50 0
-3260 53 0
-3262 53 0
-3264 53 0
-3266 53 0
-3268 53 0
-3270 53 0
-3272 53 0
-3274 53 0
-3276 53 0
-3278 53 0
-3280 53 0
-3282 53 0
-3284 53 0
-3286 53 0
-3288 53 0
-3290 53 0
-3292 53 0
-3294 53 0
-2648 2 0
-2650 5 0
-2652 8 0
-2654 11 0
-2656 14 0
-2658 17 0
-2660 20 0
-2662 23 0
-2664 26 0
-2666 29 0
-2668 32 0
-2670 35 0
-2672 38 0
-2674 41 0
-2676 44 0
-2678 47 0
-2680 50 0
-2682 53 0
-2684 2 0
-2686 5 0
-2688 8 0
-2690 11 0
-2692 14 0
-2694 17 0
-2696 20 0
-2698 23 0
-2700 26 0
-2702 29 0
-2704 32 0
-2706 35 0
-2708 38 0
-2710 41 0
-2712 44 0
-2714 47 0
-2716 50 0
-2718 53 0
-2720 2 0
-2722 5 0
-2724 8 0
-2726 11 0
-2728 14 0
-2730 17 0
-2732 20 0
-2734 23 0
-2736 26 0
-2738 29 0
-2740 32 0
-2742 35 0
-2744 38 0
-2746 41 0
-2748 44 0
-2750 47 0
-2752 50 0
-2754 53 0
-2756 2 0
-2758 5 0
-2760 8 0
-2762 11 0
-2764 14 0
-2766 17 0
-2768 20 0
-2770 23 0
-2772 26 0
-2774 29 0
-2776 32 0
-2778 35 0
-2780 38 0
-2782 41 0
-2784 44 0
-2786 47 0
-2788 50 0
-2790 53 0
-2792 2 0
-2794 5 0
-2796 8 0
-2798 11 0
-2800 14 0
-2802 17 0
-2804 20 0
-2806 23 0
-2808 26 0
-2810 29 0
-2812 32 0
-2814 35 0
-2816 38 0
-2818 41 0
-2820 44 0
-2822 47 0
-2824 50 0
-2826 53 0
-2828 2 0
-2830 5 0
-2832 8 0
-2834 11 0
-2836 14 0
-2838 17 0
-2840 20 0
-2842 23 0
-2844 26 0
-2846 29 0
-2848 32 0
-2850 35 0
-2852 38 0
-2854 41 0
-2856 44 0
-2858 47 0
-2860 50 0
-2862 53 0
-2864 2 0
-2866 5 0
-2868 8 0
-2870 11 0
-2872 14 0
-2874 17 0
-2876 20 0
-2878 23 0
-2880 26 0
-2882 29 0
-2884 32 0
-2886 35 0
-2888 38 0
-2890 41 0
-2892 44 0
-2894 47 0
-2896 50 0
-2898 53 0
-2900 2 0
-2902 5 0
-2904 8 0
-2906 11 0
-2908 14 0
-2910 17 0
-2912 20 0
-2914 23 0
-2916 26 0
-2918 29 0
-2920 32 0
-2922 35 0
-2924 38 0
-2926 41 0
-2928 44 0
-2930 47 0
-2932 50 0
-2934 53 0
-2936 2 0
-2938 5 0
-2940 8 0
-2942 11 0
-2944 14 0
-2946 17 0
-2948 20 0
-2950 23 0
-2952 26 0
-2954 29 0
-2956 32 0
-2958 35 0
-2960 38 0
-2962 41 0
-2964 44 0
-2966 47 0
-2968 50 0
-2970 53 0
-2972 2 0
-2974 5 0
-2976 8 0
-2978 11 0
-2980 14 0
-2982 17 0
-2984 20 0
-2986 23 0
-2988 26 0
-2990 29 0
-2992 32 0
-2994 35 0
-2996 38 0
-2998 41 0
-3000 44 0
-3002 47 0
-3004 50 0
-3006 53 0
-3008 2 0
-3010 5 0
-3012 8 0
-3014 11 0
-3016 14 0
-3018 17 0
-3020 20 0
-3022 23 0
-3024 26 0
-3026 29 0
-3028 32 0
-3030 35 0
-3032 38 0
-3034 41 0
-3036 44 0
-3038 47 0
-3040 50 0
-3042 53 0
-3044 2 0
-3046 5 0
-3048 8 0
-3050 11 0
-3052 14 0
-3054 17 0
-3056 20 0
-3058 23 0
-3060 26 0
-3062 29 0
-3064 32 0
-3066 35 0
-3068 38 0
-3070 41 0
-3072 44 0
-3074 47 0
-3076 50 0
-3078 53 0
-3080 2 0
-3082 5 0
-3084 8 0
-3086 11 0
-3088 14 0
-3090 17 0
-3092 20 0
-3094 23 0
-3096 26 0
-3098 29 0
-3100 32 0
-3102 35 0
-3104 38 0
-3106 41 0
-3108 44 0
-3110 47 0
-3112 50 0
-3114 53 0
-3116 2 0
-3118 5 0
-3120 8 0
-3122 11 0
-3124 14 0
-3126 17 0
-3128 20 0
-3130 23 0
-3132 26 0
-3134 29 0
-3136 32 0
-3138 35 0
-3140 38 0
-3142 41 0
-3144 44 0
-3146 47 0
-3148 50 0
-3150 53 0
-3152 2 0
-3154 5 0
-3156 8 0
-3158 11 0
-3160 14 0
-3162 17 0
-3164 20 0
-3166 23 0
-3168 26 0
-3170 29 0
-3172 32 0
-3174 35 0
-3176 38 0
-3178 41 0
-3180 44 0
-3182 47 0
-3184 50 0
-3186 53 0
-3188 2 0
-3190 5 0
-3192 8 0
-3194 11 0
-3196 14 0
-3198 17 0
-3200 20 0
-3202 23 0
-3204 26 0
-3206 29 0
-3208 32 0
-3210 35 0
-3212 38 0
-3214 41 0
-3216 44 0
-3218 47 0
-3220 50 0
-3222 53 0
-3224 2 0
-3226 5 0
-3228 8 0
-3230 11 0
-3232 14 0
-3234 17 0
-3236 20 0
-3238 23 0
-3240 26 0
-3242 29 0
-3244 32 0
-3246 35 0
-3248 38 0
-3250 41 0
-3252 44 0
-3254 47 0
-3256 50 0
-3258 53 0
-3260 2 0
-3262 5 0
-3264 8 0
-3266 11 0
-3268 14 0
-3270 17 0
-3272 20 0
-3274 23 0
-3276 26 0
-3278 29 0
-3280 32 0
-3282 35 0
-3284 38 0
-3286 41 0
-3288 44 0
-3290 47 0
-3292 50 0
-3294 53 0
-667 2648 -3295 0
-670 2650 -3296 0
-674 2652 -3297 0
-678 2654 -3298 0
-682 2656 -3299 0
-686 2658 -3300 0
-690 2660 -3301 0
-694 2662 -3302 0
-698 2664 -3303 0
-702 2666 -3304 0
-706 2668 -3305 0
-710 2670 -3306 0
-714 2672 -3307 0
-718 2674 -3308 0
-722 2676 -3309 0
-726 2678 -3310 0
-730 2680 -3311 0
-734 2682 -3312 0
-671 2684 -3313 0
-740 2686 -3314 0
-743 2688 -3315 0
-747 2690 -3316 0
-751 2692 -3317 0
-755 2694 -3318 0
-759 2696 -3319 0
-763 2698 -3320 0
-767 2700 -3321 0
-771 2702 -3322 0
-775 2704 -3323 0
-779 2706 -3324 0
-783 2708 -3325 0
-787 2710 -3326 0
-791 2712 -3327 0
-795 2714 -3328 0
-799 2716 -3329 0
-803 2718 -3330 0
-675 2720 -3331 0
-744 2722 -3332 0
-811 2724 -3333 0
-814 2726 -3334 0
-818 2728 -3335 0
-822 2730 -3336 0
-826 2732 -3337 0
-830 2734 -3338 0
-834 2736 -3339 0
-838 2738 -3340 0
-842 2740 -3341 0
-846 2742 -3342 0
-850 2744 -3343 0
-854 2746 -3344 0
-858 2748 -3345 0
-862 2750 -3346 0
-866 2752 -3347 0
-870 2754 -3348 0
-679 2756 -3349 0
-748 2758 -3350 0
-815 2760 -3351 0
-880 2762 -3352 0
-883 2764 -3353 0
-887 2766 -3354 0
-891 2768 -3355 0
-895 2770 -3356 0
-899 2772 -3357 0
-903 2774 -3358 0
-907 2776 -3359 0
-911 2778 -3360 0
-915 2780 -3361 0
-919 2782 -3362 0
-923 2784 -3363 0
-927 2786 -3364 0
-931 2788 -3365 0
-935 2790 -3366 0
-683 2792 -3367 0
-752 2794 -3368 0
-819 2796 -3369 0
-884 2798 -3370 0
-947 2800 -3371 0
-950 2802 -3372 0
-954 2804 -3373 0
-958 2806 -3374 0
-962 2808 -3375 0
-966 2810 -3376 0
-970 2812 -3377 0
-974 2814 -3378 0
-978 2816 -3379 0
-982 2818 -3380 0
-986 2820 -3381 0
-990 2822 -3382 0
-994 2824 -3383 0
-998 2826 -3384 0
-687 2828 -3385 0
-756 2830 -3386 0
-823 2832 -3387 0
-888 2834 -3388 0
-951 2836 -3389 0
-1012 2838 -3390 0
-1015 2840 -3391 0
-1019 2842 -3392 0
-1023 2844 -3393 0
-1027 2846 -3394 0
-1031 2848 -3395 0
-1035 2850 -3396 0
-1039 2852 -3397 0
-1043 2854 -3398 0
-1047 2856 -3399 0
-1051 2858 -3400 0
-1055 2860 -3401 0
-1059 2862 -3402 0
-691 2864 -3403 0
-760 2866 -3404 0
-827 2868 -3405 0
-892 2870 -3406 0
-955 2872 -3407 0
-1016 2874 -3408 0
-1075 2876 -3409 0
-1078 2878 -3410 0
-1082 2880 -3411 0
-1086 2882 -3412 0
-1090 2884 -3413 0
-1094 2886 -3414 0
-1098 2888 -3415 0
-1102 2890 -3416 0
-1106 2892 -3417 0
-1110 2894 -3418 0
-1114 2896 -3419 0
-1118 2898 -3420 0
-695 2900 -3421 0
-764 2902 -3422 0
-831 2904 -3423 0
-896 2906 -3424 0
-959 2908 -3425 0
-1020 2910 -3426 0
-1079 2912 -3427 0
-1136 2914 -3428 0
-1139 2916 -3429 0
-1143 2918 -3430 0
-1147 2920 -3431 0
-1151 2922 -3432 0
-1155 2924 -3433 0
-1159 2926 -3434 0
-1163 2928 -3435 0
-1167 2930 -3436 0
-1171 2932 -3437 0
-1175 2934 -3438 0
-699 2936 -3439 0
-768 2938 -3440 0
-835 2940 -3441 0
-900 2942 -3442 0
-963 2944 -3443 0
-1024 2946 -3444 0
-1083 2948 -3445 0
-1140 2950 -3446 0
-1195 2952 -3447 0
-1198 2954 -3448 0
-1202 2956 -3449 0
-1206 2958 -3450 0
-1210 2960 -3451 0
-1214 2962 -3452 0
-1218 2964 -3453 0
-1222 2966 -3454 0
-1226 2968 -3455 0
-1230 2970 -3456 0
-703 2972 -3457 0
-772 2974 -3458 0
-839 2976 -3459 0
-904 2978 -3460 0
-967 2980 -3461 0
-1028 2982 -3462 0
-1087 2984 -3463 0
-1144 2986 -3464 0
-1199 2988 -3465 0
-1252 2990 -3466 0
-1255 2992 -3467 0
-1259 2994 -3468 0
-1263 2996 -3469 0
-1267 2998 -3470 0
-1271 3000 -3471 0
-1275 3002 -3472 0
-1279 3004 -3473 0
-1283 3006 -3474 0
-707 3008 -3475 0
-776 3010 -3476 0
-843 3012 -3477 0
-908 3014 -3478 0
-971 3016 -3479 0
-1032 3018 -3480 0
-1091 3020 -3481 0
-1148 3022 -3482 0
-1203 3024 -3483 0
-1256 3026 -3484 0
-1307 3028 -3485 0
-1310 3030 -3486 0
-1314 3032 -3487 0
-1318 3034 -3488 0
-1322 3036 -3489 0
-1326 3038 -3490 0
-1330 3040 -3491 0
-1334 3042 -3492 0
-711 3044 -3493 0
-780 3046 -3494 0
-847 3048 -3495 0
-912 3050 -3496 0
-975 3052 -3497 0
-1036 3054 -3498 0
-1095 3056 -3499 0
-1152 3058 -3500 0
-1207 3060 -3501 0
-1260 3062 -3502 0
-1311 3064 -3503 0
-1360 3066 -3504 0
-1363 3068 -3505 0
-1367 3070 -3506 0
-1371 3072 -3507 0
-1375 3074 -3508 0
-1379 3076 -3509 0
-1383 3078 -3510 0
-715 3080 -3511 0
-784 3082 -3512 0
-851 3084 -3513 0
-916 3086 -3514 0
-979 3088 -3515 0
-1040 3090 -3516 0
-1099 3092 -3517 0
-1156 3094 -3518 0
-1211 3096 -3519 0
-1264 3098 -3520 0
-1315 3100 -3521 0
-1364 3102 -3522 0
-1411 3104 -3523 0
-1414 3106 -3524 0
-1418 3108 -3525 0
-1422 3110 -3526 0
-1426 3112 -3527 0
-1430 3114 -3528 0
-719 3116 -3529 0
-788 3118 -3530 0
-855 3120 -3531 0
-920 3122 -3532 0
-983 3124 -3533 0
-1044 3126 -3534 0
-1103 3128 -3535 0
-1160 3130 -3536 0
-1215 3132 -3537 0
-1268 3134 -3538 0
-1319 3136 -3539 0
-1368 3138 -3540 0
-1415 3140 -3541 0
-1460 3142 -3542 0
-1463 3144 -3543 0
-1467 3146 -3544 0
-1471 3148 -3545 0
-1475 3150 -3546 0
-723 3152 -3547 0
-792 3154 -3548 0
-859 3156 -3549 0
-924 3158 -3550 0
-987 3160 -3551 0
-1048 3162 -3552 0
-1107 3164 -3553 0
-1164 3166 -3554 0
-1219 3168 -3555 0
-1272 3170 -3556 0
-1323 3172 -3557 0
-1372 3174 -3558 0
-1419 3176 -3559 0
-1464 3178 -3560 0
-1507 3180 -3561 0
-1510 3182 -3562 0
-1514 3184 -3563 0
-1518 3186 -3564 0
-727 3188 -3565 0
-796 3190 -3566 0
-863 3192 -3567 0
-928 3194 -3568 0
-991 3196 -3569 0
-1052 3198 -3570 0
-1111 3200 -3571 0
-1168 3202 -3572 0
-1223 3204 -3573 0
-1276 3206 -3574 0
-1327 3208 -3575 0
-1376 3210 -3576 0
-1423 3212 -3577 0
-1468 3214 -3578 0
-1511 3216 -3579 0
-1552 3218 -3580 0
-1555 3220 -3581 0
-1559 3222 -3582 0
-731 3224 -3583 0
-800 3226 -3584 0
-867 3228 -3585 0
-932 3230 -3586 0
-995 3232 -3587 0
-1056 3234 -3588 0
-1115 3236 -3589 0
-1172 3238 -3590 0
-1227 3240 -3591 0
-1280 3242 -3592 0
-1331 3244 -3593 0
-1380 3246 -3594 0
-1427 3248 -3595 0
-1472 3250 -3596 0
-1515 3252 -3597 0
-1556 3254 -3598 0
-1595 3256 -3599 0
-1598 3258 -3600 0
-735 3260 -3601 0
-804 3262 -3602 0
-871 3264 -3603 0
-936 3266 -3604 0
-999 3268 -3605 0
-1060 3270 -3606 0
-1119 3272 -3607 0
-1176 3274 -3608 0
-1231 3276 -3609 0
-1284 3278 -3610 0
-1335 3280 -3611 0
-1384 3282 -3612 0
-1431 3284 -3613 0
-1476 3286 -3614 0
-1519 3288 -3615 0
-1560 3290 -3616 0
-1599 3292 -3617 0
-1636 3294 -3618 0
3295 667 0
3296 670 0
3297 674 0
3298 678 0
3299 682 0
3300 686 0
3301 690 0
3302 694 0
3303 698 0
3304 702 0
3305 706 0
3306 710 0
3307 714 0
3308 718 0
3309 722 0
3310 726 0
3311 730 0
3312 734 0
3313 671 0
3314 740 0
3315 743 0
3316 747 0
3317 751 0
3318 755 0
3319 759 0
3320 763 0
3321 767 0
3322 771 0
3323 775 0
3324 779 0
3325 783 0
3326 787 0
3327 791 0
3328 795 0
3329 799 0
3330 803 0
3331 675 0
3332 744 0
3333 811 0
3334 814 0
3335 818 0
3336 822 0
3337 826 0
3338 830 0
3339 834 0
3340 838 0
3341 842 0
3342 846 0
3343 850 0
3344 854 0
3345 858 0
3346 862 0
3347 866 0
3348 870 0
3349 679 0
3350 748 0
3351 815 0
3352 880 0
3353 883 0
3354 887 0
3355 891 0
3356 895 0
3357 899 0
3358 903 0
3359 907 0
3360 911 0
3361 915 0
3362 919 0
3363 923 0
3364 927 0
3365 931 0
3366 935 0
3367 683 0
3368 752 0
3369 819 0
3370 884 0
3371 947 0
3372 950 0
3373 954 0
3374 958 0
3375 962 0
3376 966 0
3377 970 0
3378 974 0
3379 978 0
3380 982 0
3381 986 0
3382 990 0
3383 994 0
3384 998 0
3385 687 0
3386 756 0
3387 823 0
3388 888 0
3389 951 0
3390 1012 0
3391 1015 0
3392 1019 0
3393 1023 0
3394 1027 0
3395 1031 0
3396 1035 0
3397 1039 0
3398 1043 0
3399 1047 0
3400 1051 0
3401 1055 0
3402 1059 0
3403 691 0
3404 760 0
3405 827 0
3406 892 0
3407 955 0
3408 1016 0
3409 1075 0
3410 1078 0
3411 1082 0
3412 1086 0
3413 1090 0
3414 1094 0
3415 1098 0
3416 1102 0
3417 1106 0
3418 1110 0
3419 1114 0
3420 1118 0
3421 695 0
3422 764 0
3423 831 0
3424 896 0
3425 959 0
3426 1020 0
3427 1079 0
3428 1136 0
3429 1139 0
3430 1143 0
3431 1147 0
3432 1151 0
3433 1155 0
3434 1159 0
3435 1163 0
3436 1167 0
3437 1171 0
3438 1175 0
3439 699 0
3440 768 0
3441 835 0
3442 900 0
3443 963 0
3444 1024 0
3445 1083 0
3446 1140 0
3447 1195 0
3448 1198 0
3449 1202 0
3450 1206 0
3451 1210 0
3452 1214 0
3453 1218 0
3454 1222 0
3455 1226 0
3456 1230 0
3457 703 0
3458 772 0
3459 839 0
3460 904 0
3461 967 0
3462 1028 0
3463 1087 0
3464 1144 0
3465 1199 0
3466 1252 0
3467 1255 0
3468 1259 0
3469 1263 0
3470 1267 0
3471 1271 0
3472 1275 0
3473 1279 0
3474 1283 0
3475 707 0
3476 776 0
3477 843 0
3478 908 0
3479 971 0
3480 1032 0
3481 1091 0
3482 1148 0
3483 1203 0
3484 1256 0
3485 1307 0
3486 1310 0
3487 1314 0
3488 1318 0
3489 1322 0
3490 1326 0
3491 1330 0
3492 1334 0
3493 711 0
3494 780 0
3495 847 0
3496 912 0
3497 975 0
3498 1036 0
3499 1095 0
3500 1152 0
3501 1207 0
3502 1260 0
3503 1311 0
3504 1360 0
3505 1363 0
3506 1367 0
3507 1371 0
3508 1375 0
3509 1379 0
3510 1383 0
3511 715 0
3512 784 0
3513 851 0
3514 916 0
3515 979 0
3516 1040 0
3517 1099 0
3518 1156 0
3519 1211 0
3520 1264 0
3521 1315 0
3522 1364 0
3523 1411 0
3524 1414 0
3525 1418 0
3526 1422 0
3527 1426 0
3528 1430 0
3529 719 0
3530 788 0
3531 855 0
3532 920 0
3533 983 0
3534 1044 0
3535 1103 0
3536 1160 0
3537 1215 0
3538 1268 0
3539 1319 0
3540 1368 0
3541 1415 0
3542 1460 0
3543 1463 0
3544 1467 0
3545 1471 0
3546 1475 0
3547 723 0
3548 792 0
3549 859 0
3550 924 0
3551 987 0
3552 1048 0
3553 1107 0
3554 1164 0
3555 1219 0
3556 1272 0
3557 1323 0
3558 1372 0
3559 1419 0
3560 1464 0
3561 1507 0
3562 1510 0
3563 1514 0
3564 1518 0
3565 727 0
3566 796 0
3567 863 0
3568 928 0
3569 991 0
3570 1052 0
3571 1111 0
3572 1168 0
3573 1223 0
3574 1276 0
3575 1327 0
3576 1376 0
3577 1423 0
3578 1468 0
3579 1511 0
3580 1552 0
3581 1555 0
3582 1559 0
3583 731 0
3584 800 0
3585 867 0
3586 932 0
3587 995 0
3588 1056 0
3589 1115 0
3590 1172 0
3591 1227 0
3592 1280 0
3593 1331 0
3594 1380 0
3595 1427 0
3596 1472 0
3597 1515 0
3598 1556 0
3599 1595 0
3600 1598 0
3601 735 0
3602 804 0
3603 871 0
3604 936 0
3605 999 0
3606 1060 0
3607 1119 0
3608 1176 0
3609 1231 0
3610 1284 0
3611 1335 0
3612 1384 0
3613 1431 0
3614 1476 0
3615 1519 0
3616 1560 0
3617 1599 0
3618 1636 0
3295 -2648 0
3296 -2650 0
3297 -2652 0
3298 -2654 0
3299 -2656 0
3300 -2658 0
3301 -2660 0
3302 -2662 0
3303 -2664 0
3304 -2666 0
3305 -2668 0
3306 -2670 0
3307 -2672 0
3308 -2674 0
3309 -2676 0
3310 -2678 0
3311 -2680 0
3312 -2682 0
3313 -2684 0
3314 -2686 0
3315 -2688 0
3316 -2690 0
3317 -2692 0
3318 -2694 0
3319 -2696 0
3320 -2698 0
3321 -2700 0
3322 -2702 0
3323 -2704 0
3324 -2706 0
3325 -2708 0
3326 -2710 0
3327 -2712 0
3328 -2714 0
3329 -2716 0
3330 -2718 0
3331 -2720 0
3332 -2722 0
3333 -2724 0
3334 -2726 0
3335 -2728 0
3336 -2730 0
3337 -2732 0
3338 -2734 0
3339 -2736 0
3340 -2738 0
3341 -2740 0
3342 -2742 0
3343 -2744 0
3344 -2746 0
3345 -2748 0
3346 -2750 0
3347 -2752 0
3348 -2754 0
3349 -2756 0
3350 -2758 0
3351 -2760 0
3352 -2762 0
3353 -2764 0
3354 -2766 0
3355 -2768 0
3356 -2770 0
3357 -2772 0
3358 -2774 0
3359 -2776 0
3360 -2778 0
3361 -2780 0
3362 -2782 0
3363 -2784 0
3364 -2786 0
3365 -2788 0
3366 -2790 0
3367 -2792 0
3368 -2794 0
3369 -2796 0
3370 -2798 0
3371 -2800 0
3372 -2802 0
3373 -2804 0
3374 -2806 0
3375 -2808 0
3376 -2810 0
3377 -2812 0
3378 -2814 0
3379 -2816 0
3380 -2818 0
3381 -2820 0
3382 -2822 0
3383 -2824 0
3384 -2826 0
3385 -2828 0
3386 -2830 0
3387 -2832 0
3388 -2834 0
3389 -2836 0
3390 -2838 0
3391 -2840 0
3392 -2842 0
3393 -2844 0
3394 -2846 0
3395 -2848 0
3396 -2850 0
3397 -2852 0
3398 -2854 0
3399 -2856 0
3400 -2858 0
3401 -2860 0
3402 -2862 0
3403 -2864 0
3404 -2866 0
3405 -2868 0
3406 -2870 0
3407 -2872 0
3408 -2874 0
3409 -2876 0
3410 -2878 0
3411 -2880 0
3412 -2882 0
3413 -2884 0
3414 -2886 0
3415 -2888 0
3416 -2890 0
3417 -2892 0
3418 -2894 0
3419 -2896 0
3420 -2898 0
3421 -2900 0
3422 -2902 0
3423 -2904 0
3424 -2906 0
3425 -2908 0
3426 -2910 0
3427 -2912 0
3428 -2914 0
3429 -2916 0
3430 -2918 0
3431 -2920 0
3432 -2922 0
3433 -2924 0
3434 -2926 0
3435 -2928 0
3436 -2930 0
3437 -2932 0
3438 -2934 0
3439 -2936 0
3440 -2938 0
3441 -2940 0
3442 -2942 0
3443 -2944 0
3444 -2946 0
3445 -2948 0
3446 -2950 0
3447 -2952 0
3448 -2954 0
3449 -2956 0
3450 -2958 0
3451 -2960 0
3452 -2962 0
3453 -2964 0
3454 -2966 0
3455 -2968 0
3456 -2970 0
3457 -2972 0
3458 -2974 0
3459 -2976 0
3460 -2978 0
3461 -2980 0
3462 -2982 0
3463 -2984 0
3464 -2986 0
3465 -2988 0
3466 -2990 0
3467 -2992 0
3468 -2994 0
3469 -2996 0
3470 -2998 0
3471 -3000 0
3472 -3002 0
3473 -3004 0
3474 -3006 0
3475 -3008 0
3476 -3010 0
3477 -3012 0
3478 -3014 0
3479 -3016 0
3480 -3018 0
3481 -3020 0
3482 -3022 0
3483 -3024 0
3484 -3026 0
3485 -3028 0
3486 -3030 0
3487 -3032 0
3488 -3034 0
3489 -3036 0
3490 -3038 0
3491 -3040 0
3492 -3042 0
3493 -3044 0
3494 -3046 0
3495 -3048 0
3496 -3050 0
3497 -3052 0
3498 -3054 0
3499 -3056 0
3500 -3058 0
3501 -3060 0
3502 -3062 0
3503 -3064 0
3504 -3066 0
3505 -3068 0
3506 -3070 0
3507 -3072 0
3508 -3074 0
3509 -3076 0
3510 -3078 0
3511 -3080 0
3512 -3082 0
3513 -3084 0
3514 -3086 0
3515 -3088 0
3516 -3090 0
3517 -3092 0
3518 -3094 0
3519 -3096 0
3520 -3098 0
3521 -3100 0
3522 -3102 0
3523 -3104 0
3524 -3106 0
3525 -3108 0
3526 -3110 0
3527 -3112 0
3528 -3114 0
3529 -3116 0
3530 -3118 0
3531 -3120 0
3532 -3122 0
3533 -3124 0
3534 -3126 0
3535 -3128 0
3536 -3130 0
3537 -3132 0
3538 -3134 0
3539 -3136 0
3540 -3138 0
3541 -3140 0
3542 -3142 0
3543 -3144 0
3544 -3146 0
3545 -3148 0
3546 -3150 0
3547 -3152 0
3548 -3154 0
3549 -3156 0
3550 -3158 0
3551 -3160 0
3552 -3162 0
3553 -3164 0
3554 -3166 0
3555 -3168 0
3556 -3170 0
3557 -3172 0
3558 -3174 0
3559 -3176 0
3560 -3178 0
3561 -3180 0
3562 -3182 0
3563 -3184 0
3564 -3186 0
3565 -3188 0
3566 -3190 0
3567 -3192 0
3568 -3194 0
3569 -3196 0
3570 -3198 0
3571 -3200 0
3572 -3202 0
3573 -3204 0
3574 -3206 0
3575 -3208 0
3576 -3210 0
3577 -3212 0
3578 -3214 0
3579 -3216 0
3580 -3218 0
3581 -3220 0
3582 -3222 0
3583 -3224 0
3584 -3226 0
3585 -3228 0
3586 -3230 0
3587 -3232 0
3588 -3234 0
3589 -3236 0
3590 -3238 0
3591 -3240 0
3592 -3242 0
3593 -3244 0
3594 -3246 0
3595 -3248 0
3596 -3250 0
3597 -3252 0
3598 -3254 0
3599 -3256 0
3600 -3258 0
3601 -3260 0
3602 -3262 0
3603 -3264 0
3604 -3266 0
3605 -3268 0
3606 -3270 0
3607 -3272 0
3608 -3274 0
3609 -3276 0
3610 -3278 0
3611 -3280 0
3612 -3282 0
3613 -3284 0
3614 -3286 0
3615 -3288 0
3616 -3290 0
3617 -3292 0
3618 -3294 0
667 -2647 -2 -2 -3619 0
670 -2649 -2 -5 -3620 0
674 -2651 -2 -8 -3621 0
678 -2653 -2 -11 -3622 0
682 -2655 -2 -14 -3623 0
686 -2657 -2 -17 -3624 0
690 -2659 -2 -20 -3625 0
694 -2661 -2 -23 -3626 0
698 -2663 -2 -26 -3627 0
702 -2665 -2 -29 -3628 0
706 -2667 -2 -32 -3629 0
710 -2669 -2 -35 -3630 0
714 -2671 -2 -38 -3631 0
718 -2673 -2 -41 -3632 0
722 -2675 -2 -44 -3633 0
726 -2677 -2 -47 -3634 0
730 -2679 -2 -50 -3635 0
734 -2681 -2 -53 -3636 0
671 -2683 -5 -2 -3637 0
740 -2685 -5 -5 -3638 0
743 -2687 -5 -8 -3639 0
747 -2689 -5 -11 -3640 0
751 -2691 -5 -14 -3641 0
755 -2693 -5 -17 -3642 0
759 -2695 -5 -20 -3643 0
763 -2697 -5 -23 -3644 0
767 -2699 -5 -26 -3645 0
771 -2701 -5 -29 -3646 0
775 -2703 -5 -32 -3647 0
779 -2705 -5 -35 -3648 0
783 -2707 -5 -38 -3649 0
787 -2709 -5 -41 -3650 0
791 -2711 -5 -44 -3651 0
795 -2713 -5 -47 -3652 0
799 -2715 -5 -50 -3653 0
803 -2717 -5 -53 -3654 0
675 -2719 -8 -2 -3655 0
744 -2721 -8 -5 -3656 0
811 -2723 -8 -8 -3657 0
814 -2725 -8 -11 -3658 0
818 -2727 -8 -14 -3659 0
822 -2729 -8 -17 -3660 0
826 -2731 -8 -20 -3661 0
830 -2733 -8 -23 -3662 0
834 -2735 -8 -26 -3663 0
838 -2737 -8 -29 -3664 0
842 -2739 -8 -32 -3665 0
846 -2741 -8 -35 -3666 0
850 -2743 -8 -38 -3667 0
854 -2745 -8 -41 -3668 0
858 -2747 -8 -44 -3669 0
862 -2749 -8 -47 -3670 0
866 -2751 -8 -50 -3671 0
870 -2753 -8 -53 -3672 0
679 -2755 -11 -2 -3673 0
748 -2757 -11 -5 -3674 0
815 -2759 -11 -8 -3675 0
880 -2761 -11 -11 -3676 0
883 -2763 -11 -14 -3677 0
887 -2765 -11 -17 -3678 0
891 -2767 -11 -20 -3679 0
895 -2769 -11 -23 -3680 0
899 -2771 -11 -26 -3681 0
903 -2773 -11 -29 -3682 0
907 -2775 -11 -32 -3683 0
911 -2777 -11 -35 -3684 0
915 -2779 -11 -38 -3685 0
919 -2781 -11 -41 -3686 0
923 -2783 -11 -44 -3687 0
927 -2785 -11 -47 -3688 0
931 -2787 -11 -50 -3689 0
935 -2789 -11 -53 -3690 0
683 -2791 -14 -2 -3691 0
752 -2793 -14 -5 -3692 0
819 -2795 -14 -8 -3693 0
884 -2797 -14 -11 -3694 0
947 -2799 -14 -14 -3695 0
950 -2801 -14 -17 -3696 0
954 -2803 -14 -20 -3697 0
958 -2805 -14 -23 -3698 0
962 -2807 -14 -26 -3699 0
966 -2809 -14 -29 -3700 0
970 -2811 -14 -32 -3701 0
974 -2813 -14 -35 -3702 0
978 -2815 -14 -38 -3703 0
982 -2817 -14 -41 -3704 0
986 -2819 -14 -44 -3705 0
990 -2821 -14 -47 -3706 0
994 -2823 -14 -50 -3707 0
998 -2825 -14 -53 -3708 0
687 -2827 -17 -2 -3709 0
756 -2829 -17 -5 -3710 0
823 -2831 -17 -8 -3711 0
888 -2833 -17 -11 -3712 0
951 -2835 -17 -14 -3713 0
1012 -2837 -17 -17 -3714 0
1015 -2839 -17 -20 -3715 0
1019 -2841 -17 -23 -3716 0
1023 -2843 -17 -26 -3717 0
1027 -2845 -17 -29 -3718 0
1031 -2847 -17 -32 -3719 0
1035 -2849 -17 -35 -3720 0
1039 -2851 -17 -38 -3721 0
1043 -2853 -17 -41 -3722 0
1047 -2855 -17 -44 -3723 0
1051 -2857 -17 -47 -3724 0
1055 -2859 -17 -50 -3725 0
1059 -2861 -17 -53 -3726 0
691 -2863 -20 -2 -3727 0
760 -2865 -20 -5 -3728 0
827 -2867 -20 -8 -3729 0
892 -2869 -20 -11 -3730 0
955 -2871 -20 -14 -3731 0
1016 -2873 -20 -17 -3732 0
1075 -2875 -20 -20 -3733 0
1078 -2877 -20 -23 -3734 0
1082 -2879 -20 -26 -3735 0
1086 -2881 -20 -29 -3736 0
1090 -2883 -20 -32 -3737 0
1094 -2885 -20 -35 -3738 0
1098 -2887 -20 -38 -3739 0
1102 -2889 -20 -41 -3740 0
1106 -2891 -20 -44 -3741 0
1110 -2893 -20 -47 -3742 0
1114 -2895 -20 -50 -3743 0
1118 -2897 -20 -53 -3744 0
695 -2899 -23 -2 -3745 0
764 -2901 -23 -5 -3746 0
831 -2903 -23 -8 -3747 0
896 -2905 -23 -11 -3748 0
959 -2907 -23 -14 -3749 0
1020 -2909 -23 -17 -3750 0
1079 -2911 -23 -20 -3751 0
1136 -2913 -23 -23 -3752 0
1139 -2915 -23 -26 -3753 0
1143 -2917 -23 -29 -3754 0
1147 -2919 -23 -32 -3755 0
1151 -2921 -23 -35 -3756 0
1155 -2923 -23 -38 -3757 0
1159 -2925 -23 -41 -3758 0
1163 -2927 -23 -44 -3759 0
1167 -2929 -23 -47 -3760 0
1171 -2931 -23 -50 -3761 0
1175 -2933 -23 -53 -3762 0
699 -2935 -26 -2 -3763 0
768 -2937 -26 -5 -3764 0
835 -2939 -26 -8 -3765 0
900 -2941 -26 -11 -3766 0
963 -2943 -26 -14 -3767 0
1024 -2945 -26 -17 -3768 0
1083 -2947 -26 -20 -3769 0
1140 -2949 -26 -23 -3770 0
1195 -2951 -26 -26 -3771 0
1198 -2953 -26 -29 -3772 0
1202 -2955 -26 -32 -3773 0
1206 -2957 -26 -35 -3774 0
1210 -2959 -26 -38 -3775 0
1214 -2961 -26 -41 -3776 0
1218 -2963 -26 -44 -3777 0
1222 -2965 -26 -47 -3778 0
1226 -2967 -26 -50 -3779 0
1230 -2969 -26 -53 -3780 0
703 -2971 -29 -2 -3781 0
772 -2973 -29 -5 -3782 0
839 -2975 -29 -8 -3783 0
904 -2977 -29 -11 -3784 0
967 -2979 -29 -14 -3785 0
1028 -2981 -29 -17 -3786 0
1087 -2983 -29 -20 -3787 0
1144 -2985 -29 -23 -3788 0
1199 -2987 -29 -26 -3789 0
1252 -2989 -29 -29 -3790 0
1255 -2991 -29 -32 -3791 0
1259 -2993 -29 -35 -3792 0
1263 -2995 -29 -38 -3793 0
1267 -2997 -29 -41 -3794 0
1271 -2999 -29 -44 -3795 0
1275 -3001 -29 -47 -3796 0
1279 -3003 -29 -50 -3797 0
1283 -3005 -29 -53 -3798 0
707 -3007 -32 -2 -3799 0
776 -3009 -32 -5 -3800 0
843 -3011 -32 -8 -3801 0
908 -3013 -32 -11 -3802 0
971 -3015 -32 -14 -3803 0
1032 -3017 -32 -17 -3804 0
1091 -3019 -32 -20 -3805 0
1148 -3021 -32 -23 -3806 0
1203 -3023 -32 -26 -3807 0
1256 -3025 -32 -29 -3808 0
1307 -3027 -32 -32 -3809 0
1310 -3029 -32 -35 -3810 0
1314 -3031 -32 -38 -3811 0
1318 -3033 -32 -41 -3812 0
1322 -3035 -32 -44 -3813 0
1326 -3037 -32 -47 -3814 0
1330 -3039 -32 -50 -3815 0
1334 -3041 -32 -53 -3816 0
711 -3043 -35 -2 -3817 0
780 -3045 -35 -5 -3818 0
847 -3047 -35 -8 -3819 0
912 -3049 -35 -11 -3820 0
975 -3051 -35 -14 -3821 0
1036 -3053 -35 -17 -3822 0
1095 -3055 -35 -20 -3823 0
1152 -3057 -35 -23 -3824 0
1207 -3059 -35 -26 -3825 0
1260 -3061 -35 -29 -3826 0
1311 -3063 -35 -32 -3827 0
1360 -3065 -35 -35 -3828 0
1363 -3067 -35 -38 -3829 0
1367 -3069 -35 -41 -3830 0
1371 -3071 -35 -44 -3831 0
1375 -3073 -35 -47 -3832 0
1379 -3075 -35 -50 -3833 0
1383 -3077 -35 -53 -3834 0
715 -3079 -38 -2 -3835 0
784 -3081 -38 -5 -3836 0
851 -3083 -38 -8 -3837 0
916 -3085 -38 -11 -3838 0
979 -3087 -38 -14 -3839 0
1040 -3089 -38 -17 -3840 0
1099 -3091 -38 -20 -3841 0
1156 -3093 -38 -23 -3842 0
1211 -3095 -38 -26 -3843 0
1264 -3097 -38 -29 -3844 0
1315 -3099 -38 -32 -3845 0
1364 -3101 -38 -35 -3846 0
1411 -3103 -38 -38 -3847 0
1414 -3105 -38 -41 -3848 0
1418 -3107 -38 -44 -3849 0
1422 -3109 -38 -47 -3850 0
1426 -3111 -38 -50 -3851 0
1430 -3113 -38 -53 -3852 0
719 -3115 -41 -2 -3853 0
788 -3117 -41 -5 -3854 0
855 -3119 -41 -8 -3855 0
920 -3121 -41 -11 -3856 0
983 -3123 -41 -14 -3857 0
1044 -3125 -41 -17 -3858 0
1103 -3127 -41 -20 -3859 0
1160 -3129 -41 -23 -3860 0
1215 -3131 -41 -26 -3861 0
1268 -3133 -41 -29 -3862 0
1319 -3135 -41 -32 -3863 0
1368 -3137 -41 -35 -3864 0
1415 -3139 -41 -38 -3865 0
1460 -3141 -41 -41 -3866 0
1463 -3143 -41 -44 -3867 0
1467 -3145 -41 -47 -3868 0
1471 -3147 -41 -50 -3869 0
1475 -3149 -41 -53 -3870 0
723 -3151 -44 -2 -3871 0
792 -3153 -44 -5 -3872 0
859 -3155 -44 -8 -3873 0
924 -3157 -44 -11 -3874 0
987 -3159 -44 -14 -3875 0
1048 -3161 -44 -17 -3876 0
1107 -3163 -44 -20 -3877 0
1164 -3165 -44 -23 -3878 0
1219 -3167 -44 -26 -3879 0
1272 -3169 -44 -29 -3880 0
1323 -3171 -44 -32 -3881 0
1372 -3173 -44 -35 -3882 0
1419 -3175 -44 -38 -3883 0
1464 -3177 -44 -41 -3884 0
1507 -3179 -44 -44 -3885 0
1510 -3181 -44 -47 -3886 0
1514 -3183 -44 -50 -3887 0
1518 -3185 -44 -53 -3888 0
727 -3187 -47 -2 -3889 0
796 -3189 -47 -5 -3890 0
863 -3191 -47 -8 -3891 0
928 -3193 -47 -11 -3892 0
991 -3195 -47 -14 -3893 0
1052 -3197 -47 -17 -3894 0
1111 -3199 -47 -20 -3895 0
1168 -3201 -47 -23 -3896 0
1223 -3203 -47 -26 -3897 0
1276 -3205 -47 -29 -3898 0
1327 -3207 -47 -32 -3899 0
1376 -3209 -47 -35 -3900 0
1423 -3211 -47 -38 -3901 0
1468 -3213 -47 -41 -3902 0
1511 -3215 -47 -44 -3903 0
1552 -3217 -47 -47 -3904 0
1555 -3219 -47 -50 -3905 0
1559 -3221 -47 -53 -3906 0
731 -3223 -50 -2 -3907 0
800 -3225 -50 -5 -3908 0
867 -3227 -50 -8 -3909 0
932 -3229 -50 -11 -3910 0
995 -3231 -50 -14 -3911 0
1056 -3233 -50 -17 -3912 0
1115 -3235 -50 -20 -3913 0
1172 -3237 -50 -23 -3914 0
1227 -3239 -50 -26 -3915 0
1280 -3241 -50 -29 -3916 0
1331 -3243 -50 -32 -3917 0
1380 -3245 -50 -35 -3918 0
1427 -3247 -50 -38 -3919 0
1472 -3249 -50 -41 -3920 0
1515 -3251 -50 -44 -3921 0
1556 -3253 -50 -47 -3922 0
1595 -3255 -50 -50 -3923 0
1598 -3257 -50 -53 -3924 0
735 -3259 -53 -2 -3925 0
804 -3261 -53 -5 -3926 0
871 -3263 -53 -8 -3927 0
936 -3265 -53 -11 -3928 0
999 -3267 -53 -14 -3929 0
1060 -3269 -53 -17 -3930 0
1119 -3271 -53 -20 -3931 0
1176 -3273 -53 -23 -3932 0
1231 -3275 -53 -26 -3933 0
1284 -3277 -53 -29 -3934 0
1335 -3279 -53 -32 -3935 0
1384 -3281 -53 -35 -3936 0
1431 -3283 -53 -38 -3937 0
1476 -3285 -53 -41 -3938 0
1519 -3287 -53 -44 -3939 0
1560 -3289 -53 -47 -3940 0
1599 -3291 -53 -50 -3941 0
1636 -3293 -53 -53 -3942 0
3619 -667 0
3620 -670 0
3621 -674 0
3622 -678 0
3623 -682 0
3624 -686 0
3625 -690 0
3626 -694 0
3627 -698 0
3628 -702 0
3629 -706 0
3630 -710 0
3631 -714 0
3632 -718 0
3633 -722 0
3634 -726 0
3635 -730 0
3636 -734 0
3637 -671 0
3638 -740 0
3639 -743 0
3640 -747 0
3641 -751 0
3642 -755 0
3643 -759 0
3644 -763 0
3645 -767 0
3646 -771 0
3647 -775 0
3648 -779 0
3649 -783 0
3650 -787 0
3651 -791 0
3652 -795 0
3653 -799 0
3654 -803 0
3655 -675 0
3656 -744 0
3657 -811 0
3658 -814 0
3659 -818 0
3660 -822 0
3661 -826 0
3662 -830 0
3663 -834 0
3664 -838 0
3665 -842 0
3666 -846 0
3667 -850 0
3668 -854 0
3669 -858 0
3670 -862 0
3671 -866 0
3672 -870 0
3673 -679 0
3674 -748 0
3675 -815 0
3676 -880 0
3677 -883 0
3678 -887 0
3679 -891 0
3680 -895 0
3681 -899 0
3682 -903 0
3683 -907 0
3684 -911 0
3685 -915 0
3686 -919 0
3687 -923 0
3688 -927 0
3689 -931 0
3690 -935 0
3691 -683 0
3692 -752 0
3693 -819 0
3694 -884 0
3695 -947 0
3696 -950 0
3697 -954 0
3698 -958 0
3699 -962 0
3700 -966 0
3701 -970 0
3702 -974 0
3703 -978 0
3704 -982 0
3705 -986 0
3706 -990 0
3707 -994 0
3708 -998 0
3709 -687 0
3710 -756 0
3711 -823 0
3712 -888 0
3713 -951 0
3714 -1012 0
3715 -1015 0
3716 -1019 0
3717 -1023 0
3718 -1027 0
3719 -1031 0
3720 -1035 0
3721 -1039 0
3722 -1043 0
3723 -1047 0
3724 -1051 0
3725 -1055 0
3726 -1059 0
3727 -691 0
3728 -760 0
3729 -827 0
3730 -892 0
3731 -955 0
3732 -1016 0
3733 -1075 0
3734 -1078 0
3735 -1082 0
3736 -1086 0
3737 -1090 0
3738 -1094 0
3739 -1098 0
3740 -1102 0
3741 -1106 0
3742 -1110 0
3743 -1114 0
3744 -1118 0
3745 -695 0
3746 -764 0
3747 -831 0
3748 -896 0
3749 -959 0
3750 -1020 0
3751 -1079 0
3752 -1136 0
3753 -1139 0
3754 -1143 0
3755 -1147 0
3756 -1151 0
3757 -1155 0
3758 -1159 0
3759 -1163 0
3760 -1167 0
3761 -1171 0
3762 -1175 0
3763 -699 0
3764 -768 0
3765 -835 0
3766 -900 0
3767 -963 0
3768 -1024 0
3769 -1083 0
3770 -1140 0
3771 -1195 0
3772 -1198 0
3773 -1202 0
3774 -1206 0
3775 -1210 0
3776 -1214 0
3777 -1218 0
3778 -1222 0
3779 -1226 0
3780 -1230 0
3781 -703 0
3782 -772 0
3783 -839 0
3784 -904 0
3785 -967 0
3786 -1028 0
3787 -1087 0
3788 -1144 0
3789 -1199 0
3790 -1252 0
3791 -1255 0
3792 -1259 0
3793 -1263 0
3794 -1267 0
3795 -1271 0
3796 -1275 0
3797 -1279 0
3798 -1283 0
3799 -707 0
3800 -776 0
3801 -843 0
3802 -908 0
3803 -971 0
3804 -1032 0
3805 -1091 0
3806 -1148 0
3807 -1203 0
3808 -1256 0
3809 -1307 0
3810 -1310 0
3811 -1314 0
3812 -1318 0
3813 -1322 0
3814 -1326 0
3815 -1330 0
3816 -1334 0
3817 -711 0
3818 -780 0
3819 -847 0
3820 -912 0
3821 -975 0
3822 -1036 0
3823 -1095 0
3824 -1152 0
3825 -1207 0
3826 -1260 0
3827 -1311 0
3828 -1360 0
3829 -1363 0
3830 -1367 0
3831 -1371 0
3832 -1375 0
3833 -1379 0
3834 -1383 0
3835 -715 0
3836 -784 0
3837 -851 0
3838 -916 0
3839 -979 0
3840 -1040 0
3841 -1099 0
3842 -1156 0
3843 -1211 0
3844 -1264 0
3845 -1315 0
3846 -1364 0
3847 -1411 0
3848 -1414 0
3849 -1418 0
3850 -1422 0
3851 -1426 0
3852 -1430 0
3853 -719 0
3854 -788 0
3855 -855 0
3856 -920 0
3857 -983 0
3858 -1044 0
3859 -1103 0
3860 -1160 0
3861 -1215 0
3862 -1268 0
3863 -1319 0
3864 -1368 0
3865 -1415 0
3866 -1460 0
3867 -1463 0
3868 -1467 0
3869 -1471 0
3870 -1475 0
3871 -723 0
3872 -792 0
3873 -859 0
3874 -924 0
3875 -987 0
3876 -1048 0
3877 -1107 0
3878 -1164 0
3879 -1219 0
3880 -1272 0
3881 -1323 0
3882 -1372 0
3883 -1419 0
3884 -1464 0
3885 -1507 0
3886 -1510 0
3887 -1514 0
3888 -1518 0
3889 -727 0
3890 -796 0
3891 -863 0
3892 -928 0
3893 -991 0
3894 -1052 0
3895 -1111 0
3896 -1168 0
3897 -1223 0
3898 -1276 0
3899 -1327 0
3900 -1376 0
3901 -1423 0
3902 -1468 0
3903 -1511 0
3904 -1552 0
3905 -1555 0
3906 -1559 0
3907 -731 0
3908 -800 0
3909 -867 0
3910 -932 0
3911 -995 0
3912 -1056 0
3913 -1115 0
3914 -1172 0
3915 -1227 0
3916 -1280 0
3917 -1331 0
3918 -1380 0
3919 -1427 0
3920 -1472 0
3921 -1515 0
3922 -1556 0
3923 -1595 0
3924 -1598 0
3925 -735 0
3926 -804 0
3927 -871 0
3928 -936 0
3929 -999 0
3930 -1060 0
3931 -1119 0
3932 -1176 0
3933 -1231 0
3934 -1284 0
3935 -1335 0
3936 -1384 0
3937 -1431 0
3938 -1476 0
3939 -1519 0
3940 -1560 0
3941 -1599 0
3942 -1636 0
3619 2647 0
3620 2649 0
3621 2651 0
3622 2653 0
3623 2655 0
3624 2657 0
3625 2659 0
3626 2661 0
3627 2663 0
3628 2665 0
3629 2667 0
3630 2669 0
3631 2671 0
3632 2673 0
3633 2675 0
3634 2677 0
3635 2679 0
3636 2681 0
3637 2683 0
3638 2685 0
3639 2687 0
3640 2689 0
3641 2691 0
3642 2693 0
3643 2695 0
3644 2697 0
3645 2699 0
3646 2701 0
3647 2703 0
3648 2705 0
3649 2707 0
3650 2709 0
3651 2711 0
3652 2713 0
3653 2715 0
3654 2717 0
3655 2719 0
3656 2721 0
3657 2723 0
3658 2725 0
3659 2727 0
3660 2729 0
3661 2731 0
3662 2733 0
3663 2735 0
3664 2737 0
3665 2739 0
3666 2741 0
3667 2743 0
3668 2745 0
3669 2747 0
3670 2749 0
3671 2751 0
3672 2753 0
3673 2755 0
3674 2757 0
3675 2759 0
3676 2761 0
3677 2763 0
3678 2765 0
3679 2767 0
3680 2769 0
3681 2771 0
3682 2773 0
3683 2775 0
3684 2777 0
3685 2779 0
3686 2781 0
3687 2783 0
3688 2785 0
3689 2787 0
3690 2789 0
3691 2791 0
3692 2793 0
3693 2795 0
3694 2797 0
3695 2799 0
3696 2801 0
3697 2803 0
3698 2805 0
3699 2807 0
3700 2809 0
3701 2811 0
3702 2813 0
3703 2815 0
3704 2817 0
3705 2819 0
3706 2821 0
3707 2823 0
3708 2825 0
3709 2827 0
3710 2829 0
3711 2831 0
3712 2833 0
3713 2835 0
3714 2837 0
3715 2839 0
3716 2841 0
3717 2843 0
3718 2845 0
3719 2847 0
3720 2849 0
3721 2851 0
3722 2853 0
3723 2855 0
3724 2857 0
3725 2859 0
3726 2861 0
3727 2863 0
3728 2865 0
3729 2867 0
3730 2869 0
3731 2871 0
3732 2873 0
3733 2875 0
3734 2877 0
3735 2879 0
3736 2881 0
3737 2883 0
3738 2885 0
3739 2887 0
3740 2889 0
3741 2891 0
3742 2893 0
3743 2895 0
3744 2897 0
3745 2899 0
3746 2901 0
3747 2903 0
3748 2905 0
3749 2907 0
3750 2909 0
3751 2911 0
3752 2913 0
3753 2915 0
3754 2917 0
3755 2919 0
3756 2921 0
3757 2923 0
3758 2925 0
3759 2927 0
3760 2929 0
3761 2931 0
3762 2933 0
3763 2935 0
3764 2937 0
3765 2939 0
3766 2941 0
3767 2943 0
3768 2945 0
3769 2947 0
3770 2949 0
3771 2951 0
3772 2953 0
3773 2955 0
3774 2957 0
3775 2959 0
3776 2961 0
3777 2963 0
3778 2965 0
3779 2967 0
3780 2969 0
3781 2971 0
3782 2973 0
3783 2975 0
3784 2977 0
3785 2979 0
3786 2981 0
3787 2983 0
3788 2985 0
3789 2987 0
3790 2989 0
3791 2991 0
3792 2993 0
3793 2995 0
3794 2997 0
3795 2999 0
3796 3001 0
3797 3003 0
3798 3005 0
3799 3007 0
3800 3009 0
3801 3011 0
3802 3013 0
3803 3015 0
3804 3017 0
3805 3019 0
3806 3021 0
3807 3023 0
3808 3025 0
3809 3027 0
3810 3029 0
3811 3031 0
3812 3033 0
3813 3035 0
3814 3037 0
3815 3039 0
3816 3041 0
3817 3043 0
3818 3045 0
3819 3047 0
3820 3049 0
3821 3051 0
3822 3053 0
3823 3055 0
3824 3057 0
3825 3059 0
3826 3061 0
3827 3063 0
3828 3065 0
3829 3067 0
3830 3069 0
3831 3071 0
3832 3073 0
3833 3075 0
3834 3077 0
3835 3079 0
3836 3081 0
3837 3083 0
3838 3085 0
3839 3087 0
3840 3089 0
3841 3091 0
3842 3093 0
3843 3095 0
3844 3097 0
3845 3099 0
3846 3101 0
3847 3103 0
3848 3105 0
3849 3107 0
3850 3109 0
3851 3111 0
3852 3113 0
3853 3115 0
3854 3117 0
3855 3119 0
3856 3121 0
3857 3123 0
3858 3125 0
3859 3127 0
3860 3129 0
3861 3131 0
3862 3133 0
3863 3135 0
3864 3137 0
3865 3139 0
3866 3141 0
3867 3143 0
3868 3145 0
3869 3147 0
3870 3149 0
3871 3151 0
3872 3153 0
3873 3155 0
3874 3157 0
3875 3159 0
3876 3161 0
3877 3163 0
3878 3165 0
3879 3167 0
3880 3169 0
3881 3171 0
3882 3173 0
3883 3175 0
3884 3177 0
3885 3179 0
3886 3181 0
3887 3183 0
3888 3185 0
3889 3187 0
3890 3189 0
3891 3191 0
3892 3193 0
3893 3195 0
3894 3197 0
3895 3199 0
3896 3201 0
3897 3203 0
3898 3205 0
3899 3207 0
3900 3209 0
3901 3211 0
3902 3213 0
3903 3215 0
3904 3217 0
3905 3219 0
3906 3221 0
3907 3223 0
3908 3225 0
3909 3227 0
3910 3229 0
3911 3231 0
3912 3233 0
3913 3235 0
3914 3237 0
3915 3239 0
3916 3241 0
3917 3243 0
3918 3245 0
3919 3247 0
3920 3249 0
3921 3251 0
3922 3253 0
3923 3255 0
3924 3257 0
3925 3259 0
3926 3261 0
3927 3263 0
3928 3265 0
3929 3267 0
3930 3269 0
3931 3271 0
3932 3273 0
3933 3275 0
3934 3277 0
3935 3279 0
3936 3281 0
3937 3283 0
3938 3285 0
3939 3287 0
3940 3289 0
3941 3291 0
3942 3293 0
3619 2 0
3620 2 0
3621 2 0
3622 2 0
3623 2 0
3624 2 0
3625 2 0
3626 2 0
3627 2 0
3628 2 0
3629 2 0
3630 2 0
3631 2 0
3632 2 0
3633 2 0
3634 2 0
3635 2 0
3636 2 0
3637 5 0
3638 5 0
3639 5 0
3640 5 0
3641 5 0
3642 5 0
3643 5 0
3644 5 0
3645 5 0
3646 5 0
3647 5 0
3648 5 0
3649 5 0
3650 5 0
3651 5 0
3652 5 0
3653 5 0
3654 5 0
3655 8 0
3656 8 0
3657 8 0
3658 8 0
3659 8 0
3660 8 0
3661 8 0
3662 8 0
3663 8 0
3664 8 0
3665 8 0
3666 8 0
3667 8 0
3668 8 0
3669 8 0
3670 8 0
3671 8 0
3672 8 0
3673 11 0
3674 11 0
3675 11 0
3676 11 0
3677 11 0
3678 11 0
3679 11 0
3680 11 0
3681 11 0
3682 11 0
3683 11 0
3684 11 0
3685 11 0
3686 11 0
3687 11 0
3688 11 0
3689 11 0
3690 11 0
3691 14 0
3692 14 0
3693 14 0
3694 14 0
3695 14 0
3696 14 0
3697 14 0
3698 14 0
3699 14 0
3700 14 0
3701 14 0
3702 14 0
3703 14 0
3704 14 0
3705 14 0
3706 14 0
3707 14 0
3708 14 0
3709 17 0
3710 17 0
3711 17 0
3712 17 0
3713 17 0
3714 17 0
3715 17 0
3716 17 0
3717 17 0
3718 17 0
3719 17 0
3720 17 0
3721 17 0
3722 17 0
3723 17 0
3724 17 0
3725 17 0
3726 17 0
3727 20 0
3728 20 0
3729 20 0
3730 20 0
3731 20 0
3732 20 0
3733 20 0
3734 20 0
3735 20 0
3736 20 0
3737 20 0
3738 20 0
3739 20 0
3740 20 0
3741 20 0
3742 20 0
3743 20 0
3744 20 0
3745 23 0
3746 23 0
3747 23 0
3748 23 0
3749 23 0
3750 23 0
3751 23 0
3752 23 0
3753 23 0
3754 23 0
3755 23 0
3756 23 0
3757 23 0
3758 23 0
3759 23 0
3760 23 0
3761 23 0
3762 23 0
3763 26 0
3764 26 0
3765 26 0
3766 26 0
3767 26 0
3768 26 0
3769 26 0
3770 26 0
3771 26 0
3772 26 0
3773 26 0
3774 26 0
3775 26 0
3776 26 0
3777 26 0
3778 26 0
3779 26 0
3780 26 0
3781 29 0
3782 29 0
3783 29 0
3784 29 0
3785 29 0
3786 29 0
3787 29 0
3788 29 0
3789 29 0
3790 29 0
3791 29 0
3792 29 0
3793 29 0
3794 29 0
3795 29 0
3796 29 0
3797 29 0
3798 29 0
3799 32 0
3800 32 0
3801 32 0
3802 32 0
3803 32 0
3804 32 0
3805 32 0
3806 32 0
3807 32 0
3808 32 0
3809 32 0
3810 32 0
3811 32 0
3812 32 0
3813 32 0
3814 32 0
3815 32 0
3816 32 0
3817 35 0
3818 35 0
3819 35 0
3820 35 0
3821 35 0
3822 35 0
3823 35 0
3824 35 0
3825 35 0
3826 35 0
3827 35 0
3828 35 0
3829 35 0
3830 35 0
3831 35 0
3832 35 0
3833 35 0
3834 35 0
3835 38 0
3836 38 0
3837 38 0
3838 38 0
3839 38 0
3840 38 0
3841 38 0
3842 38 0
3843 38 0
3844 38 0
3845 38 0
3846 38 0
3847 38 0
3848 38 0
3849 38 0
3850 38 0
3851 38 0
3852 38 0
3853 41 0
3854 41 0
3855 41 0
3856 41 0
3857 41 0
3858 41 0
3859 41 0
3860 41 0
3861 41 0
3862 41 0
3863 41 0
3864 41 0
3865 41 0
3866 41 0
3867 41 0
3868 41 0
3869 41 0
3870 41 0
3871 44 0
3872 44 0
3873 44 0
3874 44 0
3875 44 0
3876 44 0
3877 44 0
3878 44 0
3879 44 0
3880 44 0
3881 44 0
3882 44 0
3883 44 0
3884 44 0
3885 44 0
3886 44 0
3887 44 0
3888 44 0
3889 47 0
3890 47 0
3891 47 0
3892 47 0
3893 47 0
3894 47 0
3895 47 0
3896 47 0
3897 47 0
3898 47 0
3899 47 0
3900 47 0
3901 47 0
3902 47 0
3903 47 0
3904 47 0
3905 47 0
3906 47 0
3907 50 0
3908 50 0
3909 50 0
3910 50 0
3911 50 0
3912 50 0
3913 50 0
3914 50 0
3915 50 0
3916 50 0
3917 50 0
3918 50 0
3919 50 0
3920 50 0
3921 50 0
3922 50 0
3923 50 0
3924 50 0
3925 53 0
3926 53 0
3927 53 0
3928 53 0
3929 53 0
3930 53 0
3931 53 0
3932 53 0
3933 53 0
3934 53 0
3935 53 0
3936 53 0
3937 53 0
3938 53 0
3939 53 0
3940 53 0
3941 53 0
3942 53 0
3619 2 0
3620 5 0
3621 8 0
3622 11 0
3623 14 0
3624 17 0
3625 20 0
3626 23 0
3627 26 0
3628 29 0
3629 32 0
3630 35 0
3631 38 0
3632 41 0
3633 44 0
3634 47 0
3635 50 0
3636 53 0
3637 2 0
3638 5 0
3639 8 0
3640 11 0
3641 14 0
3642 17 0
3643 20 0
3644 23 0
3645 26 0
3646 29 0
3647 32 0
3648 35 0
3649 38 0
3650 41 0
3651 44 0
3652 47 0
3653 50 0
3654 53 0
3655 2 0
3656 5 0
3657 8 0
3658 11 0
3659 14 0
3660 17 0
3661 20 0
3662 23 0
3663 26 0
3664 29 0
3665 32 0
3666 35 0
3667 38 0
3668 41 0
3669 44 0
3670 47 0
3671 50 0
3672 53 0
3673 2 0
3674 5 0
3675 8 0
3676 11 0
3677 14 0
3678 17 0
3679 20 0
3680 23 0
3681 26 0
3682 29 0
3683 32 0
3684 35 0
3685 38 0
3686 41 0
3687 44 0
3688 47 0
3689 50 0
3690 53 0
3691 2 0
3692 5 0
3693 8 0
3694 11 0
3695 14 0
3696 17 0
3697 20 0
3698 23 0
3699 26 0
3700 29 0
3701 32 0
3702 35 0
3703 38 0
3704 41 0
3705 44 0
3706 47 0
3707 50 0
3708 53 0
3709 2 0
3710 5 0
3711 8 0
3712 11 0
3713 14 0
3714 17 0
3715 20 0
3716 23 0
3717 26 0
3718 29 0
3719 32 0
3720 35 0
3721 38 0
3722 41 0
3723 44 0
3724 47 0
3725 50 0
3726 53 0
3727 2 0
3728 5 0
3729 8 0
3730 11 0
3731 14 0
3732 17 0
3733 20 0
3734 23 0
3735 26 0
3736 29 0
3737 32 0
3738 35 0
3739 38 0
3740 41 0
3741 44 0
3742 47 0
3743 50 0
3744 53 0
3745 2 0
3746 5 0
3747 8 0
3748 11 0
3749 14 0
3750 17 0
3751 20 0
3752 23 0
3753 26 0
3754 29 0
3755 32 0
3756 35 0
3757 38 0
3758 41 0
3759 44 0
3760 47 0
3761 50 0
3762 53 0
3763 2 0
3764 5 0
3765 8 0
3766 11 0
3767 14 0
3768 17 0
3769 20 0
3770 23 0
3771 26 0
3772 29 0
3773 32 0
3774 35 0
3775 38 0
3776 41 0
3777 44 0
3778 47 0
3779 50 0
3780 53 0
3781 2 0
3782 5 0
3783 8 0
3784 11 0
3785 14 0
3786 17 0
3787 20 0
3788 23 0
3789 26 0
3790 29 0
3791 32 0
3792 35 0
3793 38 0
3794 41 0
3795 44 0
3796 47 0
3797 50 0
3798 53 0
3799 2 0
3800 5 0
3801 8 0
3802 11 0
3803 14 0
3804 17 0
3805 20 0
3806 23 0
3807 26 0
3808 29 0
3809 32 0
3810 35 0
3811 38 0
3812 41 0
3813 44 0
3814 47 0
3815 50 0
3816 53 0
3817 2 0
3818 5 0
3819 8 0
3820 11 0
3821 14 0
3822 17 0
3823 20 0
3824 23 0
3825 26 0
3826 29 0
3827 32 0
3828 35 0
3829 38 0
3830 41 0
3831 44 0
3832 47 0
3833 50 0
3834 53 0
3835 2 0
3836 5 0
3837 8 0
3838 11 0
3839 14 0
3840 17 0
3841 20 0
3842 23 0
3843 26 0
3844 29 0
3845 32 0
3846 35 0
3847 38 0
3848 41 0
3849 44 0
3850 47 0
3851 50 0
3852 53 0
3853 2 0
3854 5 0
3855 8 0
3856 11 0
3857 14 0
3858 17 0
3859 20 0
3860 23 0
3861 26 0
3862 29 0
3863 32 0
3864 35 0
3865 38 0
3866 41 0
3867 44 0
3868 47 0
3869 50 0
3870 53 0
3871 2 0
3872 5 0
3873 8 0
3874 11 0
3875 14 0
3876 17 0
3877 20 0
3878 23 0
3879 26 0
3880 29 0
3881 32 0
3882 35 0
3883 38 0
3884 41 0
3885 44 0
3886 47 0
3887 50 0
3888 53 0
3889 2 0
3890 5 0
3891 8 0
3892 11 0
3893 14 0
3894 17 0
3895 20 0
3896 23 0
3897 26 0
3898 29 0
3899 32 0
3900 35 0
3901 38 0
3902 41 0
3903 44 0
3904 47 0
3905 50 0
3906 53 0
3907 2 0
3908 5 0
3909 8 0
3910 11 0
3911 14 0
3912 17 0
3913 20 0
3914 23 0
3915 26 0
3916 29 0
3917 32 0
3918 35 0
3919 38 0
3920 41 0
3921 44 0
3922 47 0
3923 50 0
3924 53 0
3925 2 0
3926 5 0
3927 8 0
3928 11 0
3929 14 0
3930 17 0
3931 20 0
3932 23 0
3933 26 0
3934 29 0
3935 32 0
3936 35 0
3937 38 0
3938 41 0
3939 44 0
3940 47 0
3941 50 0
3942 53 0
-3 -669 -1641 -2323 -3295 -3619 3943 0
-6 -673 -1643 -2324 -3296 -3620 3944 0
-9 -677 -1645 -2325 -3297 -3621 3945 0
-12 -681 -1647 -2326 -3298 -3622 3946 0
-15 -685 -1649 -2327 -3299 -3623 3947 0
-18 -689 -1651 -2328 -3300 -3624 3948 0
-21 -693 -1653 -2329 -3301 -3625 3949 0
-24 -697 -1655 -2330 -3302 -3626 3950 0
-27 -701 -1657 -2331 -3303 -3627 3951 0
-30 -705 -1659 -2332 -3304 -3628 3952 0
-33 -709 -1661 -2333 -3305 -3629 3953 0
-36 -713 -1663 -2334 -3306 -3630 3954 0
-39 -717 -1665 -2335 -3307 -3631 3955 0
-42 -721 -1667 -2336 -3308 -3632 3956 0
-45 -725 -1669 -2337 -3309 -3633 3957 0
-48 -729 -1671 -2338 -3310 -3634 3958 0
-51 -733 -1673 -2339 -3311 -3635 3959 0
-54 -737 -1675 -2340 -3312 -3636 3960 0
-56 -739 -1677 -2341 -3313 -3637 3961 0
-58 -742 -1678 -2342 -3314 -3638 3962 0
-60 -746 -1679 -2343 -3315 -3639 3963 0
-62 -750 -1680 -2344 -3316 -3640 3964 0
-64 -754 -1681 -2345 -3317 -3641 3965 0
-66 -758 -1682 -2346 -3318 -3642 3966 0
-68 -762 -1683 -2347 -3319 -3643 3967 0
-70 -766 -1684 -2348 -3320 -3644 3968 0
-72 -770 -1685 -2349 -3321 -3645 3969 0
-74 -774 -1686 -2350 -3322 -3646 3970 0
-76 -778 -1687 -2351 -3323 -3647 3971 0
-78 -782 -1688 -2352 -3324 -3648 3972 0
-80 -786 -1689 -2353 -3325 -3649 3973 0
-82 -790 -1690 -2354 -3326 -3650 3974 0
-84 -794 -1691 -2355 -3327 -3651 3975 0
-86 -798 -1692 -2356 -3328 -3652 3976 0
-88 -802 -1693 -2357 -3329 -3653 3977 0
-90 -806 -1694 -2358 -3330 -3654 3978 0
-92 -808 -1696 -2359 -3331 -3655 3979 0
-94 -810 -1697 -2360 -3332 -3656 3980 0
-96 -813 -1698 -2361 -3333 -3657 3981 0
-98 -817 -1699 -2362 -3334 -3658 3982 0
-100 -821 -1700 -2363 -3335 -3659 3983 0
-102 -825 -1701 -2364 -3336 -3660 3984 0
-104 -829 -1702 -2365 -3337 -3661 3985 0
-106 -833 -1703 -2366 -3338 -3662 3986 0
-108 -837 -1704 -2367 -3339 -3663 3987 0
-110 -841 -1705 -2368 -3340 -3664 3988 0
-112 -845 -1706 -2369 -3341 -3665 3989 0
-114 -849 -1707 -2370 -3342 -3666 3990 0
-116 -853 -1708 -2371 -3343 -3667 3991 0
-118 -857 -1709 -2372 -3344 -3668 3992 0
-120 -861 -1710 -2373 -3345 -3669 3993 0
-122 -865 -1711 -2374 -3346 -3670 3994 0
-124 -869 -1712 -2375 -3347 -3671 3995 0
-126 -873 -1713 -2376 -3348 -3672 3996 0
-128 -875 -1715 -2377 -3349 -3673 3997 0
-130 -877 -1716 -2378 -3350 -3674 3998 0
-132 -879 -1717 -2379 -3351 -3675 3999 0
-134 -882 -1718 -2380 -3352 -3676 4000 0
-136 -886 -1719 -2381 -3353 -3677 4001 0
-138 -890 -1720 -2382 -3354 -3678 4002 0
-140 -894 -1721 -2383 -3355 -3679 4003 0
-142 -898 -1722 -2384 -3356 -3680 4004 0
-144 -902 -1723 -2385 -3357 -3681 4005 0
-146 -906 -1724 -2386 -3358 -3682 4006 0
-148 -910 -1725 -2387 -3359 -3683 4007 0
-150 -914 -1726 -2388 -3360 -3684 4008 0
-152 -918 -1727 -2389 -3361 -3685 4009 0
-154 -922 -1728 -2390 -3362 -3686 4010 0
-156 -926 -1729 -2391 -3363 -3687 4011 0
-158 -930 -1730 -2392 -3364 -3688 4012 0
-160 -934 -1731 -2393 -3365 -3689 4013 0
-162 -938 -1732 -2394 -3366 -3690 4014 0
-164 -940 -1734 -2395 -3367 -3691 4015 0
-166 -942 -1735 -2396 -3368 -3692 4016 0
-168 -944 -1736 -2397 -3369 -3693 4017 0
-170 -946 -1737 -2398 -3370 -3694 4018 0
-172 -949 -1738 -2399 -3371 -3695 4019 0
-174 -953 -1739 -2400 -3372 -3696 4020 0
-176 -957 -1740 -2401 -3373 -3697 4021 0
-178 -961 -1741 -2402 -3374 -3698 4022 0
-180 -965 -1742 -2403 -3375 -3699 4023 0
-182 -969 -1743 -2404 -3376 -3700 4024 0
-184 -973 -1744 -2405 -3377 -3701 4025 0
-186 -977 -1745 -2406 -3378 -3702 4026 0
-188 -981 -1746 -2407 -3379 -3703 4027 0
-190 -985 -1747 -2408 -3380 -3704 4028 0
-192 -989 -1748 -2409 -3381 -3705 4029 0
-194 -993 -1749 -2410 -3382 -3706 4030 0
-196 -997 -1750 -2411 -3383 -3707 4031 0
-198 -1001 -1751 -2412 -3384 -3708 4032 0
-200 -1003 -1753 -2413 -3385 -3709 4033 0
-202 -1005 -1754 -2414 -3386 -3710 4034 0
-204 -1007 -1755 -2415 -3387 -3711 4035 0
-206 -1009 -1756 -2416 -3388 -3712 4036 0
-208 -1011 -1757 -2417 -3389 -3713 4037 0
-210 -1014 -1758 -2418 -3390 -3714 4038 0
-212 -1018 -1759 -2419 -3391 -3715 4039 0
-214 -1022 -1760 -2420 -3392 -3716 4040 0
-216 -1026 -1761 -2421 -3393 -3717 4041 0
-218 -1030 -1762 -2422 -3394 -3718 4042 0
-220 -1034 -1763 -2423 -3395 -3719 4043 0
-222 -1038 -1764 -2424 -3396 -3720 4044 0
-224 -1042 -1765 -2425 -3397 -3721 4045 0
-226 -1046 -1766 -2426 -3398 -3722 4046 0
-228 -1050 -1767 -2427 -3399 -3723 4047 0
-230 -1054 -1768 -2428 -3400 -3724 4048 0
-232 -1058 -1769 -2429 -3401 -3725 4049 0
-234 -1062 -1770 -2430 -3402 -3726 4050 0
-236 -1064 -1772 -2431 -3403 -3727 4051 0
-238 -1066 -1773 -2432 -3404 -3728 4052 0
-240 -1068 -1774 -2433 -3405 -3729 4053 0
-242 -1070 -1775 -2434 -3406 -3730 4054 0
-244 -1072 -1776 -2435 -3407 -3731 4055 0
-246 -1074 -1777 -2436 -3408 -3732 4056 0
-248 -1077 -1778 -2437 -3409 -3733 4057 0
-250 -1081 -1779 -2438 -3410 -3734 4058 0
-252 -1085 -1780 -2439 -3411 -3735 4059 0
-254 -1089 -1781 -2440 -3412 -3736 4060 0
-256 -1093 -1782 -2441 -3413 -3737 4061 0
-258 -1097 -1783 -2442 -3414 -3738 4062 0
-260 -1101 -1784 -2443 -3415 -3739 4063 0
-262 -1105 -1785 -2444 -3416 -3740 4064 0
-264 -1109 -1786 -2445 -3417 -3741 4065 0
-266 -1113 -1787 -2446 -3418 -3742 4066 0
-268 -1117 -1788 -2447 -3419 -3743 4067 0
-270 -1121 -1789 -2448 -3420 -3744 4068 0
-272 -1123 -1791 -2449 -3421 -3745 4069 0
-274 -1125 -1792 -2450 -3422 -3746 4070 0
-276 -1127 -1793 -2451 -3423 -3747 4071 0
-278 -1129 -1794 -2452 -3424 -3748 4072 0
-280 -1131 -1795 -2453 -3425 -3749 4073 0
-282 -1133 -1796 -2454 -3426 -3750 4074 0
-284 -1135 -1797 -2455 -3427 -3751 4075 0
-286 -1138 -1798 -2456 -3428 -3752 4076 0
-288 -1142 -1799 -2457 -3429 -3753 4077 0
-290 -1146 -1800 -2458 -3430 -3754 4078 0
-292 -1150 -1801 -2459 -3431 -3755 4079 0
-294 -1154 -1802 -2460 -3432 -3756 4080 0
-296 -1158 -1803 -2461 -3433 -3757 4081 0
-298 -1162 -1804 -2462 -3434 -3758 4082 0
-300 -1166 -1805 -2463 -3435 -3759 4083 0
-302 -1170 -1806 -2464 -3436 -3760 4084 0
-304 -1174 -1807 -2465 -3437 -3761 4085 0
-306 -1178 -1808 -2466 -3438 -3762 4086 0
-308 -1180 -1810 -2467 -3439 -3763 4087 0
-310 -1182 -1811 -2468 -3440 -3764 4088 0
-312 -1184 -1812 -2469 -3441 -3765 4089 0
-314 -1186 -1813 -2470 -3442 -3766 4090 0
-316 -1188 -1814 -2471 -3443 -3767 4091 0
-318 -1190 -1815 -2472 -3444 -3768 4092 0
-320 -1192 -1816 -2473 -3445 -3769 4093 0
-322 -1194 -1817 -2474 -3446 -3770 4094 0
-324 -1197 -1818 -2475 -3447 -3771 4095 0
-326 -1201 -1819 -2476 -3448 -3772 4096 0
-328 -1205 -1820 -2477 -3449 -3773 4097 0
-330 -1209 -1821 -2478 -3450 -3774 4098 0
-332 -1213 -1822 -2479 -3451 -3775 4099 0
-334 -1217 -1823 -2480 -3452 -3776 4100 0
-336 -1221 -1824 -2481 -3453 -3777 4101 0
-338 -1225 -1825 -2482 -3454 -3778 4102 0
-340 -1229 -1826 -2483 -3455 -3779 4103 0
-342 -1233 -1827 -2484 -3456 -3780 4104 0
-344 -1235 -1829 -2485 -3457 -3781 4105 0
-346 -1237 -1830 -2486 -3458 -3782 4106 0
-348 -1239 -1831 -2487 -3459 -3783 4107 0
-350 -1241 -1832 -2488 -3460 -3784 4108 0
-352 -1243 -1833 -2489 -3461 -3785 4109 0
-354 -1245 -1834 -2490 -3462 -3786 4110 0
-356 -1247 -1835 -2491 -3463 -3787 4111 0
-358 -1249 -1836 -2492 -3464 -3788 4112 0
-360 -1251 -1837 -2493 -3465 -3789 4113 0
-362 -1254 -1838 -2494 -3466 -3790 4114 0
-364 -1258 -1839 -2495 -3467 -3791 4115 0
-366 -1262 -1840 -2496 -3468 -3792 4116 0
-368 -1266 -1841 -2497 -3469 -3793 4117 0
-370 -1270 -1842 -2498 -3470 -3794 4118 0
-372 -1274 -1843 -2499 -3471 -3795 4119 0
-374 -1278 -1844 -2500 -3472 -3796 4120 0
-376 -1282 -1845 -2501 -3473 -3797 4121 0
-378 -1286 -1846 -2502 -3474 -3798 4122 0
-380 -1288 -1848 -2503 -3475 -3799 4123 0
-382 -1290 -1849 -2504 -3476 -3800 4124 0
-384 -1292 -1850 -2505 -3477 -3801 4125 0
-386 -1294 -1851 -2506 -3478 -3802 4126 0
-388 -1296 -1852 -2507 -3479 -3803 4127 0
-390 -1298 -1853 -2508 -3480 -3804 4128 0
-392 -1300 -1854 -2509 -3481 -3805 4129 0
-394 -1302 -1855 -2510 -3482 -3806 4130 0
-396 -1304 -1856 -2511 -3483 -3807 4131 0
-398 -1306 -1857 -2512 -3484 -3808 4132 0
-400 -1309 -1858 -2513 -3485 -3809 4133 0
-402 -1313 -1859 -2514 -3486 -3810 4134 0
-404 -1317 -1860 -2515 -3487 -3811 4135 0
-406 -1321 -1861 -2516 -3488 -3812 4136 0
-408 -1325 -1862 -2517 -3489 -3813 4137 0
-410 -1329 -1863 -2518 -3490 -3814 4138 0
-412 -1333 -1864 -2519 -3491 -3815 4139 0
-414 -1337 -1865 -2520 -3492 -3816 4140 0
-416 -1339 -1867 -2521 -3493 -3817 4141 0
-418 -1341 -1868 -2522 -3494 -3818 4142 0
-420 -1343 -1869 -2523 -3495 -3819 4143 0
-422 -1345 -1870 -2524 -3496 -3820 4144 0
-424 -1347 -1871 -2525 -3497 -3821 4145 0
-426 -1349 -1872 -2526 -3498 -3822 4146 0
-428 -1351 -1873 -2527 -3499 -3823 4147 0
-430 -1353 -1874 -2528 -3500 -3824 4148 0
-432 -1355 -1875 -2529 -3501 -3825 4149 0
-434 -1357 -1876 -2530 -3502 -3826 4150 0
-436 -1359 -1877 -2531 -3503 -3827 4151 0
-438 -1362 -1878 -2532 -3504 -3828 4152 0
-440 -1366 -1879 -2533 -3505 -3829 4153 0
-442 -1370 -1880 -2534 -3506 -3830 4154 0
-444 -1374 -1881 -2535 -3507 -3831 4155 0
-446 -1378 -1882 -2536 -3508 -3832 4156 0
-448 -1382 -1883 -2537 -3509 -3833 4157 0
-450 -1386 -1884 -2538 -3510 -3834 4158 0
-452 -1388 -1886 -2539 -3511 -3835 4159 0
-454 -1390 -1887 -2540 -3512 -3836 4160 0
-456 -1392 -1888 -2541 -3513 -3837 4161 0
-458 -1394 -1889 -2542 -3514 -3838 4162 0
-460 -1396 -1890 -2543 -3515 -3839 4163 0
-462 -1398 -1891 -2544 -3516 -3840 4164 0
-464 -1400 -1892 -2545 -3517 -3841 4165 0
-466 -1402 -1893 -2546 -3518 -3842 4166 0
-468 -1404 -1894 -2547 -3519 -3843 4167 0
-470 -1406 -1895 -2548 -3520 -3844 4168 0
-472 -1408 -1896 -2549 -3521 -3845 4169 0
-474 -1410 -1897 -2550 -3522 -3846 4170 0
-476 -1413 -1898 -2551 -3523 -3847 4171 0
-478 -1417 -1899 -2552 -3524 -3848 4172 0
-480 -1421 -1900 -2553 -3525 -3849 4173 0
-482 -1425 -1901 -2554 -3526 -3850 4174 0
-484 -1429 -1902 -2555 -3527 -3851 4175 0
-486 -1433 -1903 -2556 -3528 -3852 4176 0
-488 -1435 -1905 -2557 -3529 -3853 4177 0
-490 -1437 -1906 -2558 -3530 -3854 4178 0
-492 -1439 -1907 -2559 -3531 -3855 4179 0
-494 -1441 -1908 -2560 -3532 -3856 4180 0
-496 -1443 -1909 -2561 -3533 -3857 4181 0
-498 -1445 -1910 -2562 -3534 -3858 4182 0
-500 -1447 -1911 -2563 -3535 -3859 4183 0
-502 -1449 -1912 -2564 -3536 -3860 4184 0
-504 -1451 -1913 -2565 -3537 -3861 4185 0
-506 -1453 -1914 -2566 -3538 -3862 4186 0
-508 -1455 -1915 -2567 -3539 -3863 4187 0
-510 -1457 -1916 -2568 -3540 -3864 4188 0
-512 -1459 -1917 -2569 -3541 -3865 4189 0
-514 -1462 -1918 -2570 -3542 -3866 4190 0
-516 -1466 -1919 -2571 -3543 -3867 4191 0
-518 -1470 -1920 -2572 -3544 -3868 4192 0
-520 -1474 -1921 -2573 -3545 -3869 4193 0
-522 -1478 -1922 -2574 -3546 -3870 4194 0
-524 -1480 -1924 -2575 -3547 -3871 4195 0
-526 -1482 -1925 -2576 -3548 -3872 4196 0
-528 -1484 -1926 -2577 -3549 -3873 4197 0
-530 -1486 -1927 -2578 -3550 -3874 4198 0
-532 -1488 -1928 -2579 -3551 -3875 4199 0
-534 -1490 -1929 -2580 -3552 -3876 4200 0
-536 -1492 -1930 -2581 -3553 -3877 4201 0
-538 -1494 -1931 -2582 -3554 -3878 4202 0
-540 -1496 -1932 -2583 -3555 -3879 4203 0
-542 -1498 -1933 -2584 -3556 -3880 4204 0
-544 -1500 -1934 -2585 -3557 -3881 4205 0
-546 -1502 -1935 -2586 -3558 -3882 4206 0
-548 -1504 -1936 -2587 -3559 -3883 4207 0
-550 -1506 -1937 -2588 -3560 -3884 4208 0
-552 -1509 -1938 -2589 -3561 -3885 4209 0
-554 -1513 -1939 -2590 -3562 -3886 4210 0
-556 -1517 -1940 -2591 -3563 -3887 4211 0
-558 -1521 -1941 -2592 -3564 -3888 4212 0
-560 -1523 -1943 -2593 -3565 -3889 4213 0
-562 -1525 -1944 -2594 -3566 -3890 4214 0
-564 -1527 -1945 -2595 -3567 -3891 4215 0
-566 -1529 -1946 -2596 -3568 -3892 4216 0
-568 -1531 -1947 -2597 -3569 -3893 4217 0
-570 -1533 -1948 -2598 -3570 -3894 4218 0
-572 -1535 -1949 -2599 -3571 -3895 4219 0
-574 -1537 -1950 -2600 -3572 -3896 4220 0
-576 -1539 -1951 -2601 -3573 -3897 4221 0
-578 -1541 -1952 -2602 -3574 -3898 4222 0
-580 -1543 -1953 -2603 -3575 -3899 4223 0
-582 -1545 -1954 -2604 -3576 -3900 4224 0
-584 -1547 -1955 -2605 -3577 -3901 4225 0
-586 -1549 -1956 -2606 -3578 -3902 4226 0
-588 -1551 -1957 -2607 -3579 -3903 4227 0
-590 -1554 -1958 -2608 -3580 -3904 4228 0
-592 -1558 -1959 -2609 -3581 -3905 4229 0
-594 -1562 -1960 -2610 -3582 -3906 4230 0
-596 -1564 -1962 -2611 -3583 -3907 4231 0
-598 -1566 -1963 -2612 -3584 -3908 4232 0
-600 -1568 -1964 -2613 -3585 -3909 4233 0
-602 -1570 -1965 -2614 -3586 -3910 4234 0
-604 -1572 -1966 -2615 -3587 -3911 4235 0
-606 -1574 -1967 -2616 -3588 -3912 4236 0
-608 -1576 -1968 -2617 -3589 -3913 4237 0
-610 -1578 -1969 -2618 -3590 -3914 4238 0
-612 -1580 -1970 -2619 -3591 -3915 4239 0
-614 -1582 -1971 -2620 -3592 -3916 4240 0
-616 -1584 -1972 -2621 -3593 -3917 4241 0
-618 -1586 -1973 -2622 -3594 -3918 4242 0
-620 -1588 -1974 -2623 -3595 -3919 4243 0
-622 -1590 -1975 -2624 -3596 -3920 4244 0
-624 -1592 -1976 -2625 -3597 -3921 4245 0
-626 -1594 -1977 -2626 -3598 -3922 4246 0
-628 -1597 -1978 -2627 -3599 -3923 4247 0
-630 -1601 -1979 -2628 -3600 -3924 4248 0
-632 -1603 -1981 -2629 -3601 -3925 4249 0
-634 -1605 -1982 -2630 -3602 -3926 4250 0
-636 -1607 -1983 -2631 -3603 -3927 4251 0
-638 -1609 -1984 -2632 -3604 -3928 4252 0
-640 -1611 -1985 -2633 -3605 -3929 4253 0
-642 -1613 -1986 -2634 -3606 -3930 4254 0
-644 -1615 -1987 -2635 -3607 -3931 4255 0
-646 -1617 -1988 -2636 -3608 -3932 4256 0
-648 -1619 -1989 -2637 -3609 -3933 4257 0
-650 -1621 -1990 -2638 -3610 -3934 4258 0
-652 -1623 -1991 -2639 -3611 -3935 4259 0
-654 -1625 -1992 -2640 -3612 -3936 4260 0
-656 -1627 -1993 -2641 -3613 -3937 4261 0
-658 -1629 -1994 -2642 -3614 -3938 4262 0
-660 -1631 -1995 -2643 -3615 -3939 4263 0
-662 -1633 -1996 -2644 -3616 -3940 4264 0
-664 -1635 -1997 -2645 -3617 -3941 4265 0
-666 -1638 -1998 -2646 -3618 -3942 4266 0
-3943 3 0
-3944 6 0
-3945 9 0
-3946 12 0
-3947 15 0
-3948 18 0
-3949 21 0
-3950 24 0
-3951 27 0
-3952 30 0
-3953 33 0
-3954 36 0
-3955 39 0
-3956 42 0
-3957 45 0
-3958 48 0
-3959 51 0
-3960 54 0
-3961 56 0
-3962 58 0
-3963 60 0
-3964 62 0
-3965 64 0
-3966 66 0
-3967 68 0
-3968 70 0
-3969 72 0
-3970 74 0
-3971 76 0
-3972 78 0
-3973 80 0
-3974 82 0
-3975 84 0
-3976 86 0
-3977 88 0
-3978 90 0
-3979 92 0
-3980 94 0
-3981 96 0
-3982 98 0
-3983 100 0
-3984 102 0
-3985 104 0
-3986 106 0
-3987 108 0
-3988 110 0
-3989 112 0
-3990 114 0
-3991 116 0
-3992 118 0
-3993 120 0
-3994 122 0
-3995 124 0
-3996 126 0
-3997 128 0
-3998 130 0
-3999 132 0
-4000 134 0
-4001 136 0
-4002 138 0
-4003 140 0
-4004 142 0
-4005 144 0
-4006 146 0
-4007 148 0
-4008 150 0
-4009 152 0
-4010 154 0
-4011 156 0
-4012 158 0
-4013 160 0
-4014 162 0
-4015 164 0
-4016 166 0
-4017 168 0
-4018 170 0
-4019 172 0
-4020 174 0
-4021 176 0
-4022 178 0
-4023 180 0
-4024 182 0
-4025 184 0
-4026 186 0
-4027 188 0
-4028 190 0
-4029 192 0
-4030 194 0
-4031 196 0
-4032 198 0
-4033 200 0
-4034 202 0
-4035 204 0
-4036 206 0
-4037 208 0
-4038 210 0
-4039 212 0
-4040 214 0
-4041 216 0
-4042 218 0
-4043 220 0
-4044 222 0
-4045 224 0
-4046 226 0
-4047 228 0
-4048 230 0
-4049 232 0
-4050 234 0
-4051 236 0
-4052 238 0
-4053 240 0
-4054 242 0
-4055 244 0
-4056 246 0
-4057 248 0
-4058 250 0
-4059 252 0
-4060 254 0
-4061 256 0
-4062 258 0
-4063 260 0
-4064 262 0
-4065 264 0
-4066 266 0
-4067 268 0
-4068 270 0
-4069 272 0
-4070 274 0
-4071 276 0
-4072 278 0
-4073 280 0
-4074 282 0
-4075 284 0
-4076 286 0
-4077 288 0
-4078 290 0
-4079 292 0
-4080 294 0
-4081 296 0
-4082 298 0
-4083 300 0
-4084 302 0
-4085 304 0
-4086 306 0
-4087 308 0
-4088 310 0
-4089 312 0
-4090 314 0
-4091 316 0
-4092 318 0
-4093 320 0
-4094 322 0
-4095 324 0
-4096 326 0
-4097 328 0
-4098 330 0
-4099 332 0
-4100 334 0
-4101 336 0
-4102 338 0
-4103 340 0
-4104 342 0
-4105 344 0
-4106 346 0
-4107 348 0
-4108 350 0
-4109 352 0
-4110 354 0
-4111 356 0
-4112 358 0
-4113 360 0
-4114 362 0
-4115 364 0
-4116 366 0
-4117 368 0
-4118 370 0
-4119 372 0
-4120 374 0
-4121 376 0
-4122 378 0
-4123 380 0
-4124 382 0
-4125 384 0
-4126 386 0
-4127 388 0
-4128 390 0
-4129 392 0
-4130 394 0
-4131 396 0
-4132 398 0
-4133 400 0
-4134 402 0
-4135 404 0
-4136 406 0
-4137 408 0
-4138 410 0
-4139 412 0
-4140 414 0
-4141 416 0
-4142 418 0
-4143 420 0
-4144 422 0
-4145 424 0
-4146 426 0
-4147 428 0
-4148 430 0
-4149 432 0
-4150 434 0
-4151 436 0
-4152 438 0
-4153 440 0
-4154 442 0
-4155 444 0
-4156 446 0
-4157 448 0
-4158 450 0
-4159 452 0
-4160 454 0
-4161 456 0
-4162 458 0
-4163 460 0
-4164 462 0
-4165 464 0
-4166 466 0
-4167 468 0
-4168 470 0
-4169 472 0
-4170 474 0
-4171 476 0
-4172 478 0
-4173 480 0
-4174 482 0
-4175 484 0
-4176 486 0
-4177 488 0
-4178 490 0
-4179 492 0
-4180 494 0
-4181 496 0
-4182 498 0
-4183 500 0
-4184 502 0
-4185 504 0
-4186 506 0
-4187 508 0
-4188 510 0
-4189 512 0
-4190 514 0
-4191 516 0
-4192 518 0
-4193 520 0
-4194 522 0
-4195 524 0
-4196 526 0
-4197 528 0
-4198 530 0
-4199 532 0
-4200 534 0
-4201 536 0
-4202 538 0
-4203 540 0
-4204 542 0
-4205 544 0
-4206 546 0
-4207 548 0
-4208 550 0
-4209 552 0
-4210 554 0
-4211 556 0
-4212 558 0
-4213 560 0
-4214 562 0
-4215 564 0
-4216 566 0
-4217 568 0
-4218 570 0
-4219 572 0
-4220 574 0
-4221 576 0
-4222 578 0
-4223 580 0
-4224 582 0
-4225 584 0
-4226 586 0
-4227 588 0
-4228 590 0
-4229 592 0
-4230 594 0
-4231 596 0
-4232 598 0
-4233 600 0
-4234 602 0
-4235 604 0
-4236 606 0
-4237 608 0
-4238 610 0
-4239 612 0
-4240 614 0
-4241 616 0
-4242 618 0
-4243 620 0
-4244 622 0
-4245 624 0
-4246 626 0
-4247 628 0
-4248 630 0
-4249 632 0
-4250 634 0
-4251 636 0
-4252 638 0
-4253 640 0
-4254 642 0
-4255 644 0
-4256 646 0
-4257 648 0
-4258 650 0
-4259 652 0
-4260 654 0
-4261 656 0
-4262 658 0
-4263 660 0
-4264 662 0
-4265 664 0
-4266 666 0
-3943 669 0
-3944 673 0
-3945 677 0
-3946 681 0
-3947 685 0
-3948 689 0
-3949 693 0
-3950 697 0
-3951 701 0
-3952 705 0
-3953 709 0
-3954 713 0
-3955 717 0
-3956 721 0
-3957 725 0
-3958 729 0
-3959 733 0
-3960 737 0
-3961 739 0
-3962 742 0
-3963 746 0
-3964 750 0
-3965 754 0
-3966 758 0
-3967 762 0
-3968 766 0
-3969 770 0
-3970 774 0
-3971 778 0
-3972 782 0
-3973 786 0
-3974 790 0
-3975 794 0
-3976 798 0
-3977 802 0
-3978 806 0
-3979 808 0
-3980 810 0
-3981 813 0
-3982 817 0
-3983 821 0
-3984 825 0
-3985 829 0
-3986 833 0
-3987 837 0
-3988 841 0
-3989 845 0
-3990 849 0
-3991 853 0
-3992 857 0
-3993 861 0
-3994 865 0
-3995 869 0
-3996 873 0
-3997 875 0
-3998 877 0
-3999 879 0
-4000 882 0
-4001 886 0
-4002 890 0
-4003 894 0
-4004 898 0
-4005 902 0
-4006 906 0
-4007 910 0
-4008 914 0
-4009 918 0
-4010 922 0
-4011 926 0
-4012 930 0
-4013 934 0
-4014 938 0
-4015 940 0
-4016 942 0
-4017 944 0
-4018 946 0
-4019 949 0
-4020 953 0
-4021 957 0
-4022 961 0
-4023 965 0
-4024 969 0
-4025 973 0
-4026 977 0
-4027 981 0
-4028 985 0
-4029 989 0
-4030 993 0
-4031 997 0
-4032 1001 0
-4033 1003 0
-4034 1005 0
-4035 1007 0
-4036 1009 0
-4037 1011 0
-4038 1014 0
-4039 1018 0
-4040 1022 0
-4041 1026 0
-4042 1030 0
-4043 1034 0
-4044 1038 0
-4045 1042 0
-4046 1046 0
-4047 1050 0
-4048 1054 0
-4049 1058 0
-4050 1062 0
-4051 1064 0
-4052 1066 0
-4053 1068 0
-4054 1070 0
-4055 1072 0
-4056 1074 0
-4057 1077 0
-4058 1081 0
-4059 1085 0
-4060 1089 0
-4061 1093 0
-4062 1097 0
-4063 1101 0
-4064 1105 0
-4065 1109 0
-4066 1113 0
-4067 1117 0
-4068 1121 0
-4069 1123 0
-4070 1125 0
-4071 1127 0
-4072 1129 0
-4073 1131 0
-4074 1133 0
-4075 1135 0
-4076 1138 0
-4077 1142 0
-4078 1146 0
-4079 1150 0
-4080 1154 0
-4081 1158 0
-4082 1162 0
-4083 1166 0
-4084 1170 0
-4085 1174 0
-4086 1178 0
-4087 1180 0
-4088 1182 0
-4089 1184 0
-4090 1186 0
-4091 1188 0
-4092 1190 0
-4093 1192 0
-4094 1194 0
-4095 1197 0
-4096 1201 0
-4097 1205 0
-4098 1209 0
-4099 1213 0
-4100 1217 0
-4101 1221 0
-4102 1225 0
-4103 1229 0
-4104 1233 0
-4105 1235 0
-4106 1237 0
-4107 1239 0
-4108 1241 0
-4109 1243 0
-4110 1245 0
-4111 1247 0
-4112 1249 0
-4113 1251 0
-4114 1254 0
-4115 1258 0
-4116 1262 0
-4117 1266 0
-4118 1270 0
-4119 1274 0
-4120 1278 0
-4121 1282 0
-4122 1286 0
-4123 1288 0
-4124 1290 0
-4125 1292 0
-4126 1294 0
-4127 1296 0
-4128 1298 0
-4129 1300 0
-4130 1302 0
-4131 1304 0
-4132 1306 0
-4133 1309 0
-4134 1313 0
-4135 1317 0
-4136 1321 0
-4137 1325 0
-4138 1329 0
-4139 1333 0
-4140 1337 0
-4141 1339 0
-4142 1341 0
-4143 1343 0
-4144 1345 0
-4145 1347 0
-4146 1349 0
-4147 1351 0
-4148 1353 0
-4149 1355 0
-4150 1357 0
-4151 1359 0
-4152 1362 0
-4153 1366 0
-4154 1370 0
-4155 1374 0
-4156 1378 0
-4157 1382 0
-4158 1386 0
-4159 1388 0
-4160 1390 0
-4161 1392 0
-4162 1394 0
-4163 1396 0
-4164 1398 0
-4165 1400 0
-4166 1402 0
-4167 1404 0
-4168 1406 0
-4169 1408 0
-4170 1410 0
-4171 1413 0
-4172 1417 0
-4173 1421 0
-4174 1425 0
-4175 1429 0
-4176 1433 0
-4177 1435 0
-4178 1437 0
-4179 1439 0
-4180 1441 0
-4181 1443 0
-4182 1445 0
-4183 1447 0
-4184 1449 0
-4185 1451 0
-4186 1453 0
-4187 1455 0
-4188 1457 0
-4189 1459 0
-4190 1462 0
-4191 1466 0
-4192 1470 0
-4193 1474 0
-4194 1478 0
-4195 1480 0
-4196 1482 0
-4197 1484 0
-4198 1486 0
-4199 1488 0
-4200 1490 0
-4201 1492 0
-4202 1494 0
-4203 1496 0
-4204 1498 0
-4205 1500 0
-4206 1502 0
-4207 1504 0
-4208 1506 0
-4209 1509 0
-4210 1513 0
-4211 1517 0
-4212 1521 0
-4213 1523 0
-4214 1525 0
-4215 1527 0
-4216 1529 0
-4217 1531 0
-4218 1533 0
-4219 1535 0
-4220 1537 0
-4221 1539 0
-4222 1541 0
-4223 1543 0
-4224 1545 0
-4225 1547 0
-4226 1549 0
-4227 1551 0
-4228 1554 0
-4229 1558 0
-4230 1562 0
-4231 1564 0
-4232 1566 0
-4233 1568 0
-4234 1570 0
-4235 1572 0
-4236 1574 0
-4237 1576 0
-4238 1578 0
-4239 1580 0
-4240 1582 0
-4241 1584 0
-4242 1586 0
-4243 1588 0
-4244 1590 0
-4245 1592 0
-4246 1594 0
-4247 1597 0
-4248 1601 0
-4249 1603 0
-4250 1605 0
-4251 1607 0
-4252 1609 0
-4253 1611 0
-4254 1613 0
-4255 1615 0
-4256 1617 0
-4257 1619 0
-4258 1621 0
-4259 1623 0
-4260 1625 0
-4261 1627 0
-4262 1629 0
-4263 1631 0
-4264 1633 0
-4265 1635 0
-4266 1638 0
-3943 1641 0
-3944 1643 0
-3945 1645 0
-3946 1647 0
-3947 1649 0
-3948 1651 0
-3949 1653 0
-3950 1655 0
-3951 1657 0
-3952 1659 0
-3953 1661 0
-3954 1663 0
-3955 1665 0
-3956 1667 0
-3957 1669 0
-3958 1671 0
-3959 1673 0
-3960 1675 0
-3961 1677 0
-3962 1678 0
-3963 1679 0
-3964 1680 0
-3965 1681 0
-3966 1682 0
-3967 1683 0
-3968 1684 0
-3969 1685 0
-3970 1686 0
-3971 1687 0
-3972 1688 0
-3973 1689 0
-3974 1690 0
-3975 1691 0
-3976 1692 0
-3977 1693 0
-3978 1694 0
-3979 1696 0
-3980 1697 0
-3981 1698 0
-3982 1699 0
-3983 1700 0
-3984 1701 0
-3985 1702 0
-3986 1703 0
-3987 1704 0
-3988 1705 0
-3989 1706 0
-3990 1707 0
-3991 1708 0
-3992 1709 0
-3993 1710 0
-3994 1711 0
-3995 1712 0
-3996 1713 0
-3997 1715 0
-3998 1716 0
-3999 1717 0
-4000 1718 0
-4001 1719 0
-4002 1720 0
-4003 1721 0
-4004 1722 0
-4005 1723 0
-4006 1724 0
-4007 1725 0
-4008 1726 0
-4009 1727 0
-4010 1728 0
-4011 1729 0
-4012 1730 0
-4013 1731 0
-4014 1732 0
-4015 1734 0
-4016 1735 0
-4017 1736 0
-4018 1737 0
-4019 1738 0
-4020 1739 0
-4021 1740 0
-4022 1741 0
-4023 1742 0
-4024 1743 0
-4025 1744 0
-4026 1745 0
-4027 1746 0
-4028 1747 0
-4029 1748 0
-4030 1749 0
-4031 1750 0
-4032 1751 0
-4033 1753 0
-4034 1754 0
-4035 1755 0
-4036 1756 0
-4037 1757 0
-4038 1758 0
-4039 1759 0
-4040 1760 0
-4041 1761 0
-4042 1762 0
-4043 1763 0
-4044 1764 0
-4045 1765 0
-4046 1766 0
-4047 1767 0
-4048 1768 0
-4049 1769 0
-4050 1770 0
-4051 1772 0
-4052 1773 0
-4053 1774 0
-4054 1775 0
-4055 1776 0
-4056 1777 0
-4057 1778 0
-4058 1779 0
-4059 1780 0
-4060 1781 0
-4061 1782 0
-4062 1783 0
-4063 1784 0
-4064 1785 0
-4065 1786 0
-4066 1787 0
-4067 1788 0
-4068 1789 0
-4069 1791 0
-4070 1792 0
-4071 1793 0
-4072 1794 0
-4073 1795 0
-4074 1796 0
-4075 1797 0
-4076 1798 0
-4077 1799 0
-4078 1800 0
-4079 1801 0
-4080 1802 0
-4081 1803 0
-4082 1804 0
-4083 1805 0
-4084 1806 0
-4085 1807 0
-4086 1808 0
-4087 1810 0
-4088 1811 0
-4089 1812 0
-4090 1813 0
-4091 1814 0
-4092 1815 0
-4093 1816 0
-4094 1817 0
-4095 1818 0
-4096 1819 0
-4097 1820 0
-4098 1821 0
-4099 1822 0
-4100 1823 0
-4101 1824 0
-4102 1825 0
-4103 1826 0
-4104 1827 0
-4105 1829 0
-4106 1830 0
-4107 1831 0
-4108 1832 0
-4109 1833 0
-4110 1834 0
-4111 1835 0
-4112 1836 0
-4113 1837 0
-4114 1838 0
-4115 1839 0
-4116 1840 0
-4117 1841 0
-4118 1842 0
-4119 1843 0
-4120 1844 0
-4121 1845 0
-4122 1846 0
-4123 1848 0
-4124 1849 0
-4125 1850 0
-4126 1851 0
-4127 1852 0
-4128 1853 0
-4129 1854 0
-4130 1855 0
-4131 1856 0
-4132 1857 0
-4133 1858 0
-4134 1859 0
-4135 1860 0
-4136 1861 0
-4137 1862 0
-4138 1863 0
-4139 1864 0
-4140 1865 0
-4141 1867 0
-4142 1868 0
-4143 1869 0
-4144 1870 0
-4145 1871 0
-4146 1872 0
-4147 1873 0
-4148 1874 0
-4149 1875 0
-4150 1876 0
-4151 1877 0
-4152 1878 0
-4153 1879 0
-4154 1880 0
-4155 1881 0
-4156 1882 0
-4157 1883 0
-4158 1884 0
-4159 1886 0
-4160 1887 0
-4161 1888 0
-4162 1889 0
-4163 1890 0
-4164 1891 0
-4165 1892 0
-4166 1893 0
-4167 1894 0
-4168 1895 0
-4169 1896 0
-4170 1897 0
-4171 1898 0
-4172 1899 0
-4173 1900 0
-4174 1901 0
-4175 1902 0
-4176 1903 0
-4177 1905 0
-4178 1906 0
-4179 1907 0
-4180 1908 0
-4181 1909 0
-4182 1910 0
-4183 1911 0
-4184 1912 0
-4185 1913 0
-4186 1914 0
-4187 1915 0
-4188 1916 0
-4189 1917 0
-4190 1918 0
-4191 1919 0
-4192 1920 0
-4193 1921 0
-4194 1922 0
-4195 1924 0
-4196 1925 0
-4197 1926 0
-4198 1927 0
-4199 1928 0
-4200 1929 0
-4201 1930 0
-4202 1931 0
-4203 1932 0
-4204 1933 0
-4205 1934 0
-4206 1935 0
-4207 1936 0
-4208 1937 0
-4209 1938 0
-4210 1939 0
-4211 1940 0
-4212 1941 0
-4213 1943 0
-4214 1944 0
-4215 1945 0
-4216 1946 0
-4217 1947 0
-4218 1948 0
-4219 1949 0
-4220 1950 0
-4221 1951 0
-4222 1952 0
-4223 1953 0
-4224 1954 0
-4225 1955 0
-4226 1956 0
-4227 1957 0
-4228 1958 0
-4229 1959 0
-4230 1960 0
-4231 1962 0
-4232 1963 0
-4233 1964 0
-4234 1965 0
-4235 1966 0
-4236 1967 0
-4237 1968 0
-4238 1969 0
-4239 1970 0
-4240 1971 0
-4241 1972 0
-4242 1973 0
-4243 1974 0
-4244 1975 0
-4245 1976 0
-4246 1977 0
-4247 1978 0
-4248 1979 0
-4249 1981 0
-4250 1982 0
-4251 1983 0
-4252 1984 0
-4253 1985 0
-4254 1986 0
-4255 1987 0
-4256 1988 0
-4257 1989 0
-4258 1990 0
-4259 1991 0
-4260 1992 0
-4261 1993 0
-4262 1994 0
-4263 1995 0
-4264 1996 0
-4265 1997 0
-4266 1998 0
-3943 2323 0
-3944 2324 0
-3945 2325 0
-3946 2326 0
-3947 2327 0
-3948 2328 0
-3949 2329 0
-3950 2330 0
-3951 2331 0
-3952 2332 0
-3953 2333 0
-3954 2334 0
-3955 2335 0
-3956 2336 0
-3957 2337 0
-3958 2338 0
-3959 2339 0
-3960 2340 0
-3961 2341 0
-3962 2342 0
-3963 2343 0
-3964 2344 0
-3965 2345 0
-3966 2346 0
-3967 2347 0
-3968 2348 0
-3969 2349 0
-3970 2350 0
-3971 2351 0
-3972 2352 0
-3973 2353 0
-3974 2354 0
-3975 2355 0
-3976 2356 0
-3977 2357 0
-3978 2358 0
-3979 2359 0
-3980 2360 0
-3981 2361 0
-3982 2362 0
-3983 2363 0
-3984 2364 0
-3985 2365 0
-3986 2366 0
-3987 2367 0
-3988 2368 0
-3989 2369 0
-3990 2370 0
-3991 2371 0
-3992 2372 0
-3993 2373 0
-3994 2374 0
-3995 2375 0
-3996 2376 0
-3997 2377 0
-3998 2378 0
-3999 2379 0
-4000 2380 0
-4001 2381 0
-4002 2382 0
-4003 2383 0
-4004 2384 0
-4005 2385 0
-4006 2386 0
-4007 2387 0
-4008 2388 0
-4009 2389 0
-4010 2390 0
-4011 2391 0
-4012 2392 0
-4013 2393 0
-4014 2394 0
-4015 2395 0
-4016 2396 0
-4017 2397 0
-4018 2398 0
-4019 2399 0
-4020 2400 0
-4021 2401 0
-4022 2402 0
-4023 2403 0
-4024 2404 0
-4025 2405 0
-4026 2406 0
-4027 2407 0
-4028 2408 0
-4029 2409 0
-4030 2410 0
-4031 2411 0
-4032 2412 0
-4033 2413 0
-4034 2414 0
-4035 2415 0
-4036 2416 0
-4037 2417 0
-4038 2418 0
-4039 2419 0
-4040 2420 0
-4041 2421 0
-4042 2422 0
-4043 2423 0
-4044 2424 0
-4045 2425 0
-4046 2426 0
-4047 2427 0
-4048 2428 0
-4049 2429 0
-4050 2430 0
-4051 2431 0
-4052 2432 0
-4053 2433 0
-4054 2434 0
-4055 2435 0
-4056 2436 0
-4057 2437 0
-4058 2438 0
-4059 2439 0
-4060 2440 0
-4061 2441 0
-4062 2442 0
-4063 2443 0
-4064 2444 0
-4065 2445 0
-4066 2446 0
-4067 2447 0
-4068 2448 0
-4069 2449 0
-4070 2450 0
-4071 2451 0
-4072 2452 0
-4073 2453 0
-4074 2454 0
-4075 2455 0
-4076 2456 0
-4077 2457 0
-4078 2458 0
-4079 2459 0
-4080 2460 0
-4081 2461 0
-4082 2462 0
-4083 2463 0
-4084 2464 0
-4085 2465 0
-4086 2466 0
-4087 2467 0
-4088 2468 0
-4089 2469 0
-4090 2470 0
-4091 2471 0
-4092 2472 0
-4093 2473 0
-4094 2474 0
-4095 2475 0
-4096 2476 0
-4097 2477 0
-4098 2478 0
-4099 2479 0
-4100 2480 0
-4101 2481 0
-4102 2482 0
-4103 2483 0
-4104 2484 0
-4105 2485 0
-4106 2486 0
-4107 2487 0
-4108 2488 0
-4109 2489 0
-4110 2490 0
-4111 2491 0
-4112 2492 0
-4113 2493 0
-4114 2494 0
-4115 2495 0
-4116 2496 0
-4117 2497 0
-4118 2498 0
-4119 2499 0
-4120 2500 0
-4121 2501 0
-4122 2502 0
-4123 2503 0
-4124 2504 0
-4125 2505 0
-4126 2506 0
-4127 2507 0
-4128 2508 0
-4129 2509 0
-4130 2510 0
-4131 2511 0
-4132 2512 0
-4133 2513 0
-4134 2514 0
-4135 2515 0
-4136 2516 0
-4137 2517 0
-4138 2518 0
-4139 2519 0
-4140 2520 0
-4141 2521 0
-4142 2522 0
-4143 2523 0
-4144 2524 0
-4145 2525 0
-4146 2526 0
-4147 2527 0
-4148 2528 0
-4149 2529 0
-4150 2530 0
-4151 2531 0
-4152 2532 0
-4153 2533 0
-4154 2534 0
-4155 2535 0
-4156 2536 0
-4157 2537 0
-4158 2538 0
-4159 2539 0
-4160 2540 0
-4161 2541 0
-4162 2542 0
-4163 2543 0
-4164 2544 0
-4165 2545 0
-4166 2546 0
-4167 2547 0
-4168 2548 0
-4169 2549 0
-4170 2550 0
-4171 2551 0
-4172 2552 0
-4173 2553 0
-4174 2554 0
-4175 2555 0
-4176 2556 0
-4177 2557 0
-4178 2558 0
-4179 2559 0
-4180 2560 0
-4181 2561 0
-4182 2562 0
-4183 2563 0
-4184 2564 0
-4185 2565 0
-4186 2566 0
-4187 2567 0
-4188 2568 0
-4189 2569 0
-4190 2570 0
-4191 2571 0
-4192 2572 0
-4193 2573 0
-4194 2574 0
-4195 2575 0
-4196 2576 0
-4197 2577 0
-4198 2578 0
-4199 2579 0
-4200 2580 0
-4201 2581 0
-4202 2582 0
-4203 2583 0
-4204 2584 0
-4205 2585 0
-4206 2586 0
-4207 2587 0
-4208 2588 0
-4209 2589 0
-4210 2590 0
-4211 2591 0
-4212 2592 0
-4213 2593 0
-4214 2594 0
-4215 2595 0
-4216 2596 0
-4217 2597 0
-4218 2598 0
-4219 2599 0
-4220 2600 0
-4221 2601 0
-4222 2602 0
-4223 2603 0
-4224 2604 0
-4225 2605 0
-4226 2606 0
-4227 2607 0
-4228 2608 0
-4229 2609 0
-4230 2610 0
-4231 2611 0
-4232 2612 0
-4233 2613 0
-4234 2614 0
-4235 2615 0
-4236 2616 0
-4237 2617 0
-4238 2618 0
-4239 2619 0
-4240 2620 0
-4241 2621 0
-4242 2622 0
-4243 2623 0
-4244 2624 0
-4245 2625 0
-4246 2626 0
-4247 2627 0
-4248 2628 0
-4249 2629 0
-4250 2630 0
-4251 2631 0
-4252 2632 0
-4253 2633 0
-4254 2634 0
-4255 2635 0
-4256 2636 0
-4257 2637 0
-4258 2638 0
-4259 2639 0
-4260 2640 0
-4261 2641 0
-4262 2642 0
-4263 2643 0
-4264 2644 0
-4265 2645 0
-4266 2646 0
-3943 3295 0
-3944 3296 0
-3945 3297 0
-3946 3298 0
-3947 3299 0
-3948 3300 0
-3949 3301 0
-3950 3302 0
-3951 3303 0
-3952 3304 0
-3953 3305 0
-3954 3306 0
-3955 3307 0
-3956 3308 0
-3957 3309 0
-3958 3310 0
-3959 3311 0
-3960 3312 0
-3961 3313 0
-3962 3314 0
-3963 3315 0
-3964 3316 0
-3965 3317 0
-3966 3318 0
-3967 3319 0
-3968 3320 0
-3969 3321 0
-3970 3322 0
-3971 3323 0
-3972 3324 0
-3973 3325 0
-3974 3326 0
-3975 3327 0
-3976 3328 0
-3977 3329 0
-3978 3330 0
-3979 3331 0
-3980 3332 0
-3981 3333 0
-3982 3334 0
-3983 3335 0
-3984 3336 0
-3985 3337 0
-3986 3338 0
-3987 3339 0
-3988 3340 0
-3989 3341 0
-3990 3342 0
-3991 3343 0
-3992 3344 0
-3993 3345 0
-3994 3346 0
-3995 3347 0
-3996 3348 0
-3997 3349 0
-3998 3350 0
-3999 3351 0
-4000 3352 0
-4001 3353 0
-4002 3354 0
-4003 3355 0
-4004 3356 0
-4005 3357 0
-4006 3358 0
-4007 3359 0
-4008 3360 0
-4009 3361 0
-4010 3362 0
-4011 3363 0
-4012 3364 0
-4013 3365 0
-4014 3366 0
-4015 3367 0
-4016 3368 0
-4017 3369 0
-4018 3370 0
-4019 3371 0
-4020 3372 0
-4021 3373 0
-4022 3374 0
-4023 3375 0
-4024 3376 0
-4025 3377 0
-4026 3378 0
-4027 3379 0
-4028 3380 0
-4029 3381 0
-4030 3382 0
-4031 3383 0
-4032 3384 0
-4033 3385 0
-4034 3386 0
-4035 3387 0
-4036 3388 0
-4037 3389 0
-4038 3390 0
-4039 3391 0
-4040 3392 0
-4041 3393 0
-4042 3394 0
-4043 3395 0
-4044 3396 0
-4045 3397 0
-4046 3398 0
-4047 3399 0
-4048 3400 0
-4049 3401 0
-4050 3402 0
-4051 3403 0
-4052 3404 0
-4053 3405 0
-4054 3406 0
-4055 3407 0
-4056 3408 0
-4057 3409 0
-4058 3410 0
-4059 3411 0
-4060 3412 0
-4061 3413 0
-4062 3414 0
-4063 3415 0
-4064 3416 0
-4065 3417 0
-4066 3418 0
-4067 3419 0
-4068 3420 0
-4069 3421 0
-4070 3422 0
-4071 3423 0
-4072 3424 0
-4073 3425 0
-4074 3426 0
-4075 3427 0
-4076 3428 0
-4077 3429 0
-4078 3430 0
-4079 3431 0
-4080 3432 0
-4081 3433 0
-4082 3434 0
-4083 3435 0
-4084 3436 0
-4085 3437 0
-4086 3438 0
-4087 3439 0
-4088 3440 0
-4089 3441 0
-4090 3442 0
-4091 3443 0
-4092 3444 0
-4093 3445 0
-4094 3446 0
-4095 3447 0
-4096 3448 0
-4097 3449 0
-4098 3450 0
-4099 3451 0
-4100 3452 0
-4101 3453 0
-4102 3454 0
-4103 3455 0
-4104 3456 0
-4105 3457 0
-4106 3458 0
-4107 3459 0
-4108 3460 0
-4109 3461 0
-4110 3462 0
-4111 3463 0
-4112 3464 0
-4113 3465 0
-4114 3466 0
-4115 3467 0
-4116 3468 0
-4117 3469 0
-4118 3470 0
-4119 3471 0
-4120 3472 0
-4121 3473 0
-4122 3474 0
-4123 3475 0
-4124 3476 0
-4125 3477 0
-4126 3478 0
-4127 3479 0
-4128 3480 0
-4129 3481 0
-4130 3482 0
-4131 3483 0
-4132 3484 0
-4133 3485 0
-4134 3486 0
-4135 3487 0
-4136 3488 0
-4137 3489 0
-4138 3490 0
-4139 3491 0
-4140 3492 0
-4141 3493 0
-4142 3494 0
-4143 3495 0
-4144 3496 0
-4145 3497 0
-4146 3498 0
-4147 3499 0
-4148 3500 0
-4149 3501 0
-4150 3502 0
-4151 3503 0
-4152 3504 0
-4153 3505 0
-4154 3506 0
-4155 3507 0
-4156 3508 0
-4157 3509 0
-4158 3510 0
-4159 3511 0
-4160 3512 0
-4161 3513 0
-4162 3514 0
-4163 3515 0
-4164 3516 0
-4165 3517 0
-4166 3518 0
-4167 3519 0
-4168 3520 0
-4169 3521 0
-4170 3522 0
-4171 3523 0
-4172 3524 0
-4173 3525 0
-4174 3526 0
-4175 3527 0
-4176 3528 0
-4177 3529 0
-4178 3530 0
-4179 3531 0
-4180 3532 0
-4181 3533 0
-4182 3534 0
-4183 3535 0
-4184 3536 0
-4185 3537 0
-4186 3538 0
-4187 3539 0
-4188 3540 0
-4189 3541 0
-4190 3542 0
-4191 3543 0
-4192 3544 0
-4193 3545 0
-4194 3546 0
-4195 3547 0
-4196 3548 0
-4197 3549 0
-4198 3550 0
-4199 3551 0
-4200 3552 0
-4201 3553 0
-4202 3554 0
-4203 3555 0
-4204 3556 0
-4205 3557 0
-4206 3558 0
-4207 3559 0
-4208 3560 0
-4209 3561 0
-4210 3562 0
-4211 3563 0
-4212 3564 0
-4213 3565 0
-4214 3566 0
-4215 3567 0
-4216 3568 0
-4217 3569 0
-4218 3570 0
-4219 3571 0
-4220 3572 0
-4221 3573 0
-4222 3574 0
-4223 3575 0
-4224 3576 0
-4225 3577 0
-4226 3578 0
-4227 3579 0
-4228 3580 0
-4229 3581 0
-4230 3582 0
-4231 3583 0
-4232 3584 0
-4233 3585 0
-4234 3586 0
-4235 3587 0
-4236 3588 0
-4237 3589 0
-4238 3590 0
-4239 3591 0
-4240 3592 0
-4241 3593 0
-4242 3594 0
-4243 3595 0
-4244 3596 0
-4245 3597 0
-4246 3598 0
-4247 3599 0
-4248 3600 0
-4249 3601 0
-4250 3602 0
-4251 3603 0
-4252 3604 0
-4253 3605 0
-4254 3606 0
-4255 3607 0
-4256 3608 0
-4257 3609 0
-4258 3610 0
-4259 3611 0
-4260 3612 0
-4261 3613 0
-4262 3614 0
-4263 3615 0
-4264 3616 0
-4265 3617 0
-4266 3618 0
-3943 3619 0
-3944 3620 0
-3945 3621 0
-3946 3622 0
-3947 3623 0
-3948 3624 0
-3949 3625 0
-3950 3626 0
-3951 3627 0
-3952 3628 0
-3953 3629 0
-3954 3630 0
-3955 3631 0
-3956 3632 0
-3957 3633 0
-3958 3634 0
-3959 3635 0
-3960 3636 0
-3961 3637 0
-3962 3638 0
-3963 3639 0
-3964 3640 0
-3965 3641 0
-3966 3642 0
-3967 3643 0
-3968 3644 0
-3969 3645 0
-3970 3646 0
-3971 3647 0
-3972 3648 0
-3973 3649 0
-3974 3650 0
-3975 3651 0
-3976 3652 0
-3977 3653 0
-3978 3654 0
-3979 3655 0
-3980 3656 0
-3981 3657 0
-3982 3658 0
-3983 3659 0
-3984 3660 0
-3985 3661 0
-3986 3662 0
-3987 3663 0
-3988 3664 0
-3989 3665 0
-3990 3666 0
-3991 3667 0
-3992 3668 0
-3993 3669 0
-3994 3670 0
-3995 3671 0
-3996 3672 0
-3997 3673 0
-3998 3674 0
-3999 3675 0
-4000 3676 0
-4001 3677 0
-4002 3678 0
-4003 3679 0
-4004 3680 0
-4005 3681 0
-4006 3682 0
-4007 3683 0
-4008 3684 0
-4009 3685 0
-4010 3686 0
-4011 3687 0
-4012 3688 0
-4013 3689 0
-4014 3690 0
-4015 3691 0
-4016 3692 0
-4017 3693 0
-4018 3694 0
-4019 3695 0
-4020 3696 0
-4021 3697 0
-4022 3698 0
-4023 3699 0
-4024 3700 0
-4025 3701 0
-4026 3702 0
-4027 3703 0
-4028 3704 0
-4029 3705 0
-4030 3706 0
-4031 3707 0
-4032 3708 0
-4033 3709 0
-4034 3710 0
-4035 3711 0
-4036 3712 0
-4037 3713 0
-4038 3714 0
-4039 3715 0
-4040 3716 0
-4041 3717 0
-4042 3718 0
-4043 3719 0
-4044 3720 0
-4045 3721 0
-4046 3722 0
-4047 3723 0
-4048 3724 0
-4049 3725 0
-4050 3726 0
-4051 3727 0
-4052 3728 0
-4053 3729 0
-4054 3730 0
-4055 3731 0
-4056 3732 0
-4057 3733 0
-4058 3734 0
-4059 3735 0
-4060 3736 0
-4061 3737 0
-4062 3738 0
-4063 3739 0
-4064 3740 0
-4065 3741 0
-4066 3742 0
-4067 3743 0
-4068 3744 0
-4069 3745 0
-4070 3746 0
-4071 3747 0
-4072 3748 0
-4073 3749 0
-4074 3750 0
-4075 3751 0
-4076 3752 0
-4077 3753 0
-4078 3754 0
-4079 3755 0
-4080 3756 0
-4081 3757 0
-4082 3758 0
-4083 3759 0
-4084 3760 0
-4085 3761 0
-4086 3762 0
-4087 3763 0
-4088 3764 0
-4089 3765 0
-4090 3766 0
-4091 3767 0
-4092 3768 0
-4093 3769 0
-4094 3770 0
-4095 3771 0
-4096 3772 0
-4097 3773 0
-4098 3774 0
-4099 3775 0
-4100 3776 0
-4101 3777 0
-4102 3778 0
-4103 3779 0
-4104 3780 0
-4105 3781 0
-4106 3782 0
-4107 3783 0
-4108 3784 0
-4109 3785 0
-4110 3786 0
-4111 3787 0
-4112 3788 0
-4113 3789 0
-4114 3790 0
-4115 3791 0
-4116 3792 0
-4117 3793 0
-4118 3794 0
-4119 3795 0
-4120 3796 0
-4121 3797 0
-4122 3798 0
-4123 3799 0
-4124 3800 0
-4125 3801 0
-4126 3802 0
-4127 3803 0
-4128 3804 0
-4129 3805 0
-4130 3806 0
-4131 3807 0
-4132 3808 0
-4133 3809 0
-4134 3810 0
-4135 3811 0
-4136 3812 0
-4137 3813 0
-4138 3814 0
-4139 3815 0
-4140 3816 0
-4141 3817 0
-4142 3818 0
-4143 3819 0
-4144 3820 0
-4145 3821 0
-4146 3822 0
-4147 3823 0
-4148 3824 0
-4149 3825 0
-4150 3826 0
-4151 3827 0
-4152 3828 0
-4153 3829 0
-4154 3830 0
-4155 3831 0
-4156 3832 0
-4157 3833 0
-4158 3834 0
-4159 3835 0
-4160 3836 0
-4161 3837 0
-4162 3838 0
-4163 3839 0
-4164 3840 0
-4165 3841 0
-4166 3842 0
-4167 3843 0
-4168 3844 0
-4169 3845 0
-4170 3846 0
-4171 3847 0
-4172 3848 0
-4173 3849 0
-4174 3850 0
-4175 3851 0
-4176 3852 0
-4177 3853 0
-4178 3854 0
-4179 3855 0
-4180 3856 0
-4181 3857 0
-4182 3858 0
-4183 3859 0
-4184 3860 0
-4185 3861 0
-4186 3862 0
-4187 3863 0
-4188 3864 0
-4189 3865 0
-4190 3866 0
-4191 3867 0
-4192 3868 0
-4193 3869 0
-4194 3870 0
-4195 3871 0
-4196 3872 0
-4197 3873 0
-4198 3874 0
-4199 3875 0
-4200 3876 0
-4201 3877 0
-4202 3878 0
-4203 3879 0
-4204 3880 0
-4205 3881 0
-4206 3882 0
-4207 3883 0
-4208 3884 0
-4209 3885 0
-4210 3886 0
-4211 3887 0
-4212 3888 0
-4213 3889 0
-4214 3890 0
-4215 3891 0
-4216 3892 0
-4217 3893 0
-4218 3894 0
-4219 3895 0
-4220 3896 0
-4221 3897 0
-4222 3898 0
-4223 3899 0
-4224 3900 0
-4225 3901 0
-4226 3902 0
-4227 3903 0
-4228 3904 0
-4229 3905 0
-4230 3906 0
-4231 3907 0
-4232 3908 0
-4233 3909 0
-4234 3910 0
-4235 3911 0
-4236 3912 0
-4237 3913 0
-4238 3914 0
-4239 3915 0
-4240 3916 0
-4241 3917 0
-4242 3918 0
-4243 3919 0
-4244 3920 0
-4245 3921 0
-4246 3922 0
-4247 3923 0
-4248 3924 0
-4249 3925 0
-4250 3926 0
-4251 3927 0
-4252 3928 0
-4253 3929 0
-4254 3930 0
-4255 3931 0
-4256 3932 0
-4257 3933 0
-4258 3934 0
-4259 3935 0
-4260 3936 0
-4261 3937 0
-4262 3938 0
-4263 3939 0
-4264 3940 0
-4265 3941 0
-4266 3942 0
3943 0
3944 0
3945 0
3946 0
3947 0
3948 0
3949 0
3950 0
3951 0
3952 0
3953 0
3954 0
3955 0
3956 0
3957 0
3958 0
3959 0
3960 0
3961 0
3962 0
3963 0
3964 0
3965 0
3966 0
3967 0
3968 0
3969 0
3970 0
3971 0
3972 0
3973 0
3974 0
3975 0
3976 0
3977 0
3978 0
3979 0
3980 0
3981 0
3982 0
3983 0
3984 0
3985 0
3986 0
3987 0
3988 0
3989 0
3990 0
3991 0
3992 0
3993 0
3994 0
3995 0
3996 0
3997 0
3998 0
3999 0
4000 0
4001 0
4002 0
4003 0
4004 0
4005 0
4006 0
4007 0
4008 0
4009 0
4010 0
4011 0
4012 0
4013 0
4014 0
4015 0
4016 0
4017 0
4018 0
4019 0
4020 0
4021 0
4022 0
4023 0
4024 0
4025 0
4026 0
4027 0
4028 0
4029 0
4030 0
4031 0
4032 0
4033 0
4034 0
4035 0
4036 0
4037 0
4038 0
4039 0
4040 0
4041 0
4042 0
4043 0
4044 0
4045 0
4046 0
4047 0
4048 0
4049 0
4050 0
4051 0
4052 0
4053 0
4054 0
4055 0
4056 0
4057 0
4058 0
4059 0
4060 0
4061 0
4062 0
4063 0
4064 0
4065 0
4066 0
4067 0
4068 0
4069 0
4070 0
4071 0
4072 0
4073 0
4074 0
4075 0
4076 0
4077 0
4078 0
4079 0
4080 0
4081 0
4082 0
4083 0
4084 0
4085 0
4086 0
4087 0
4088 0
4089 0
4090 0
4091 0
4092 0
4093 0
4094 0
4095 0
4096 0
4097 0
4098 0
4099 0
4100 0
4101 0
4102 0
4103 0
4104 0
4105 0
4106 0
4107 0
4108 0
4109 0
4110 0
4111 0
4112 0
4113 0
4114 0
4115 0
4116 0
4117 0
4118 0
4119 0
4120 0
4121 0
4122 0
4123 0
4124 0
4125 0
4126 0
4127 0
4128 0
4129 0
4130 0
4131 0
4132 0
4133 0
4134 0
4135 0
4136 0
4137 0
4138 0
4139 0
4140 0
4141 0
4142 0
4143 0
4144 0
4145 0
4146 0
4147 0
4148 0
4149 0
4150 0
4151 0
4152 0
4153 0
4154 0
4155 0
4156 0
4157 0
4158 0
4159 0
4160 0
4161 0
4162 0
4163 0
4164 0
4165 0
4166 0
4167 0
4168 0
4169 0
4170 0
4171 0
4172 0
4173 0
4174 0
4175 0
4176 0
4177 0
4178 0
4179 0
4180 0
4181 0
4182 0
4183 0
4184 0
4185 0
4186 0
4187 0
4188 0
4189 0
4190 0
4191 0
4192 0
4193 0
4194 0
4195 0
4196 0
4197 0
4198 0
4199 0
4200 0
4201 0
4202 0
4203 0
4204 0
4205 0
4206 0
4207 0
4208 0
4209 0
4210 0
4211 0
4212 0
4213 0
4214 0
4215 0
4216 0
4217 0
4218 0
4219 0
4220 0
4221 0
4222 0
4223 0
4224 0
4225 0
4226 0
4227 0
4228 0
4229 0
4230 0
4231 0
4232 0
4233 0
4234 0
4235 0
4236 0
4237 0
4238 0
4239 0
4240 0
4241 0
4242 0
4243 0
4244 0
4245 0
4246 0
4247 0
4248 0
4249 0
4250 0
4251 0
4252 0
4253 0
4254 0
4255 0
4256 0
4257 0
4258 0
4259 0
4260 0
4261 0
4262 0
4263 0
4264 0
4265 0
4266 0
-1654 0
-1644 0
-1646 0
-1650 0
-1674 0
-1666 0
-1942 0
-1828 0
-1648 0
-1809 0
-1672 0
-1771 0
47 0
38 0
-1640 0
26 0
-1660 0
11 0
-1885 0
-1668 0
-1866 0
-1652 0
35 0
1639 0
53 0
8 0
17 0
-1695 0
41 0
14 0
-1658 0
-1714 0
-1752 0
-1980 0
23 0
-1904 0
50 0
32 0
-1733 0
-1670 0
-1961 0
-1656 0
-1847 0
5 0
2 0
-1790 0
-1664 0
44 0
-1676 0
-1662 0
1642 0
29 0
-1923 0
20 0
1 0
4 55 0
-4 -55 0
-4 -59 7 0
-4 -61 10 0
-4 -63 13 0
-4 -65 16 0
-4 -67 19 0
-4 -69 22 0
-4 -71 25 0
-4 -73 28 0
-4 -75 31 0
-4 -77 34 0
-4 -79 37 0
-4 -81 40 0
-4 -83 43 0
-4 -85 46 0
-4 -87 49 0
-4 -89 52 0
7 91 0
-7 -91 0
-7 -93 4 0
-7 -97 10 0
-7 -99 13 0
-7 -101 16 0
-7 -103 19 0
-7 -105 22 0
-7 -107 25 0
-7 -109 28 0
-7 -111 31 0
-7 -113 34 0
-7 -115 37 0
-7 -117 40 0
-7 -119 43 0
-7 -121 46 0
-7 -123 49 0
-7 -125 52 0
10 127 0
-10 -127 0
-10 -129 4 0
-10 -131 7 0
-10 -135 13 0
-10 -137 16 0
-10 -139 19 0
-10 -141 22 0
-10 -143 25 0
-10 -145 28 0
-10 -147 31 0
-10 -149 34 0
-10 -151 37 0
-10 -153 40 0
-10 -155 43 0
-10 -157 46 0
-10 -159 49 0
-10 -161 52 0
13 163 0
-13 -163 0
-13 -165 4 0
-13 -167 7 0
-13 -169 10 0
-13 -173 16 0
-13 -175 19 0
-13 -177 22 0
-13 -179 25 0
-13 -181 28 0
-13 -183 31 0
-13 -185 34 0
-13 -187 37 0
-13 -189 40 0
-13 -191 43 0
-13 -193 46 0
-13 -195 49 0
-13 -197 52 0
16 199 0
-16 -199 0
-16 -201 4 0
-16 -203 7 0
-16 -205 10 0
-16 -207 13 0
-16 -211 19 0
-16 -213 22 0
-16 -215 25 0
-16 -217 28 0
-16 -219 31 0
-16 -221 34 0
-16 -223 37 0
-16 -225 40 0
-16 -227 43 0
-16 -229 46 0
-16 -231 49 0
-16 -233 52 0
19 235 0
-19 -235 0
-19 -237 4 0
-19 -239 7 0
-19 -241 10 0
-19 -243 13 0
-19 -245 16 0
-19 -249 22 0
-19 -251 25 0
-19 -253 28 0
-19 -255 31 0
-19 -257 34 0
-19 -259 37 0
-19 -261 40 0
-19 -263 43 0
-19 -265 46 0
-19 -267 49 0
-19 -269 52 0
22 271 0
-22 -271 0
-22 -273 4 0
-22 -275 7 0
-22 -277 10 0
-22 -279 13 0
-22 -281 16 0
-22 -283 19 0
-22 -287 25 0
-22 -289 28 0
-22 -291 31 0
-22 -293 34 0
-22 -295 37 0
-22 -297 40 0
-22 -299 43 0
-22 -301 46 0
-22 -303 49 0
-22 -305 52 0
25 307 0
-25 -307 0
-25 -309 4 0
-25 -311 7 0
-25 -313 10 0
-25 -315 13 0
-25 -317 16 0
-25 -319 19 0
-25 -321 22 0
-25 -325 28 0
-25 -327 31 0
-25 -329 34 0
-25 -331 37 0
-25 -333 40 0
-25 -335 43 0
-25 -337 46 0
-25 -339 49 0
-25 -341 52 0
28 343 0
-28 -343 0
-28 -345 4 0
-28 -347 7 0
-28 -349 10 0
-28 -351 13 0
-28 -353 16 0
-28 -355 19 0
-28 -357 22 0
-28 -359 25 0
-28 -363 31 0
-28 -365 34 0
-28 -367 37 0
-28 -369 40 0
-28 -371 43 0
-28 -373 46 0
-28 -375 49 0
-28 -377 52 0
31 379 0
-31 -379 0
-31 -381 4 0
-31 -383 7 0
-31 -385 10 0
-31 -387 13 0
-31 -389 16 0
-31 -391 19 0
-31 -393 22 0
-31 -395 25 0
-31 -397 28 0
-31 -401 34 0
-31 -403 37 0
-31 -405 40 0
-31 -407 43 0
-31 -409 46 0
-31 -411 49 0
-31 -413 52 0
34 415 0
-34 -415 0
-34 -417 4 0
-34 -419 7 0
-34 -421 10 0
-34 -423 13 0
-34 -425 16 0
-34 -427 19 0
-34 -429 22 0
-34 -431 25 0
-34 -433 28 0
-34 -435 31 0
-34 -439 37 0
-34 -441 40 0
-34 -443 43 0
-34 -445 46 0
-34 -447 49 0
-34 -449 52 0
37 451 0
-37 -451 0
-37 -453 4 0
-37 -455 7 0
-37 -457 10 0
-37 -459 13 0
-37 -461 16 0
-37 -463 19 0
-37 -465 22 0
-37 -467 25 0
-37 -469 28 0
-37 -471 31 0
-37 -473 34 0
-37 -477 40 0
-37 -479 43 0
-37 -481 46 0
-37 -483 49 0
-37 -485 52 0
40 487 0
-40 -487 0
-40 -489 4 0
-40 -491 7 0
-40 -493 10 0
-40 -495 13 0
-40 -497 16 0
-40 -499 19 0
-40 -501 22 0
-40 -503 25 0
-40 -505 28 0
-40 -507 31 0
-40 -509 34 0
-40 -511 37 0
-40 -515 43 0
-40 -517 46 0
-40 -519 49 0
-40 -521 52 0
43 523 0
-43 -523 0
-43 -525 4 0
-43 -527 7 0
-43 -529 10 0
-43 -531 13 0
-43 -533 16 0
-43 -535 19 0
-43 -537 22 0
-43 -539 25 0
-43 -541 28 0
-43 -543 31 0
-43 -545 34 0
-43 -547 37 0
-43 -549 40 0
-43 -553 46 0
-43 -555 49 0
-43 -557 52 0
46 559 0
-46 -559 0
-46 -561 4 0
-46 -563 7 0
-46 -565 10 0
-46 -567 13 0
-46 -569 16 0
-46 -571 19 0
-46 -573 22 0
-46 -575 25 0
-46 -577 28 0
-46 -579 31 0
-46 -581 34 0
-46 -583 37 0
-46 -585 40 0
-46 -587 43 0
-46 -591 49 0
-46 -593 52 0
49 595 0
-49 -595 0
-49 -597 4 0
-49 -599 7 0
-49 -601 10 0
-49 -603 13 0
-49 -605 16 0
-49 -607 19 0
-49 -609 22 0
-49 -611 25 0
-49 -613 28 0
-49 -615 31 0
-49 -617 34 0
-49 -619 37 0
-49 -621 40 0
-49 -623 43 0
-49 -625 46 0
-49 -629 52 0
52 631 0
-52 -631 0
-52 -633 4 0
-52 -635 7 0
-52 -637 10 0
-52 -639 13 0
-52 -641 16 0
-52 -643 19 0
-52 -645 22 0
-52 -647 25 0
-52 -649 28 0
-52 -651 31 0
-52 -653 34 0
-52 -655 37 0
-52 -657 40 0
-52 -659 43 0
-52 -661 46 0
-52 -663 49 0
57 0
55 4 0
-55 -4 0
-55 -7 59 0
-55 -10 61 0
-55 -13 63 0
-55 -16 65 0
-55 -19 67 0
-55 -22 69 0
-55 -25 71 0
-55 -28 73 0
-55 -31 75 0
-55 -34 77 0
-55 -37 79 0
-55 -40 81 0
-55 -43 83 0
-55 -46 85 0
-55 -49 87 0
-55 -52 89 0
59 93 0
-59 -93 0
-59 -91 55 0
-59 -97 61 0
-59 -99 63 0
-59 -101 65 0
-59 -103 67 0
-59 -105 69 0
-59 -107 71 0
-59 -109 73 0
-59 -111 75 0
-59 -113 77 0
-59 -115 79 0
-59 -117 81 0
-59 -119 83 0
-59 -121 85 0
-59 -123 87 0
-59 -125 89 0
61 129 0
-61 -129 0
-61 -127 55 0
-61 -131 59 0
-61 -135 63 0
-61 -137 65 0
-61 -139 67 0
-61 -141 69 0
-61 -143 71 0
-61 -145 73 0
-61 -147 75 0
-61 -149 77 0
-61 -151 79 0
-61 -153 81 0
-61 -155 83 0
-61 -157 85 0
-61 -159 87 0
-61 -161 89 0
63 165 0
-63 -165 0
-63 -163 55 0
-63 -167 59 0
-63 -169 61 0
-63 -173 65 0
-63 -175 67 0
-63 -177 69 0
-63 -179 71 0
-63 -181 73 0
-63 -183 75 0
-63 -185 77 0
-63 -187 79 0
-63 -189 81 0
-63 -191 83 0
-63 -193 85 0
-63 -195 87 0
-63 -197 89 0
65 201 0
-65 -201 0
-65 -199 55 0
-65 -203 59 0
-65 -205 61 0
-65 -207 63 0
-65 -211 67 0
-65 -213 69 0
-65 -215 71 0
-65 -217 73 0
-65 -219 75 0
-65 -221 77 0
-65 -223 79 0
-65 -225 81 0
-65 -227 83 0
-65 -229 85 0
-65 -231 87 0
-65 -233 89 0
67 237 0
-67 -237 0
-67 -235 55 0
-67 -239 59 0
-67 -241 61 0
-67 -243 63 0
-67 -245 65 0
-67 -249 69 0
-67 -251 71 0
-67 -253 73 0
-67 -255 75 0
-67 -257 77 0
-67 -259 79 0
-67 -261 81 0
-67 -263 83 0
-67 -265 85 0
-67 -267 87 0
-67 -269 89 0
69 273 0
-69 -273 0
-69 -271 55 0
-69 -275 59 0
-69 -277 61 0
-69 -279 63 0
-69 -281 65 0
-69 -283 67 0
-69 -287 71 0
-69 -289 73 0
-69 -291 75 0
-69 -293 77 0
-69 -295 79 0
-69 -297 81 0
-69 -299 83 0
-69 -301 85 0
-69 -303 87 0
-69 -305 89 0
71 309 0
-71 -309 0
-71 -307 55 0
-71 -311 59 0
-71 -313 61 0
-71 -315 63 0
-71 -317 65 0
-71 -319 67 0
-71 -321 69 0
-71 -325 73 0
-71 -327 75 0
-71 -329 77 0
-71 -331 79 0
-71 -333 81 0
-71 -335 83 0
-71 -337 85 0
-71 -339 87 0
-71 -341 89 0
73 345 0
-73 -345 0
-73 -343 55 0
-73 -347 59 0
-73 -349 61 0
-73 -351 63 0
-73 -353 65 0
-73 -355 67 0
-73 -357 69 0
-73 -359 71 0
-73 -363 75 0
-73 -365 77 0
-73 -367 79 0
-73 -369 81 0
-73 -371 83 0
-73 -373 85 0
-73 -375 87 0
-73 -377 89 0
75 381 0
-75 -381 0
-75 -379 55 0
-75 -383 59 0
-75 -385 61 0
-75 -387 63 0
-75 -389 65 0
-75 -391 67 0
-75 -393 69 0
-75 -395 71 0
-75 -397 73 0
-75 -401 77 0
-75 -403 79 0
-75 -405 81 0
-75 -407 83 0
-75 -409 85 0
-75 -411 87 0
-75 -413 89 0
77 417 0
-77 -417 0
-77 -415 55 0
-77 -419 59 0
-77 -421 61 0
-77 -423 63 0
-77 -425 65 0
-77 -427 67 0
-77 -429 69 0
-77 -431 71 0
-77 -433 73 0
-77 -435 75 0
-77 -439 79 0
-77 -441 81 0
-77 -443 83 0
-77 -445 85 0
-77 -447 87 0
-77 -449 89 0
79 453 0
-79 -453 0
-79 -451 55 0
-79 -455 59 0
-79 -457 61 0
-79 -459 63 0
-79 -461 65 0
-79 -463 67 0
-79 -465 69 0
-79 -467 71 0
-79 -469 73 0
-79 -471 75 0
-79 -473 77 0
-79 -477 81 0
-79 -479 83 0
-79 -481 85 0
-79 -483 87 0
-79 -485 89 0
81 489 0
-81 -489 0
-81 -487 55 0
-81 -491 59 0
-81 -493 61 0
-81 -495 63 0
-81 -497 65 0
-81 -499 67 0
-81 -501 69 0
-81 -503 71 0
-81 -505 73 0
-81 -507 75 0
-81 -509 77 0
-81 -511 79 0
-81 -515 83 0
-81 -517 85 0
-81 -519 87 0
-81 -521 89 0
83 525 0
-83 -525 0
-83 -523 55 0
-83 -527 59 0
-83 -529 61 0
-83 -531 63 0
-83 -533 65 0
-83 -535 67 0
-83 -537 69 0
-83 -539 71 0
-83 -541 73 0
-83 -543 75 0
-83 -545 77 0
-83 -547 79 0
-83 -549 81 0
-83 -553 85 0
-83 -555 87 0
-83 -557 89 0
85 561 0
-85 -561 0
-85 -559 55 0
-85 -563 59 0
-85 -565 61 0
-85 -567 63 0
-85 -569 65 0
-85 -571 67 0
-85 -573 69 0
-85 -575 71 0
-85 -577 73 0
-85 -579 75 0
-85 -581 77 0
-85 -583 79 0
-85 -585 81 0
-85 -587 83 0
-85 -591 87 0
-85 -593 89 0
87 597 0
-87 -597 0
-87 -595 55 0
-87 -599 59 0
-87 -601 61 0
-87 -603 63 0
-87 -605 65 0
-87 -607 67 0
-87 -609 69 0
-87 -611 71 0
-87 -613 73 0
-87 -615 75 0
-87 -617 77 0
-87 -619 79 0
-87 -621 81 0
-87 -623 83 0
-87 -625 85 0
-87 -629 89 0
89 633 0
-89 -633 0
-89 -631 55 0
-89 -635 59 0
-89 -637 61 0
-89 -639 63 0
-89 -641 65 0
-89 -643 67 0
-89 -645 69 0
-89 -647 71 0
-89 -649 73 0
-89 -651 75 0
-89 -653 77 0
-89 -655 79 0
-89 -657 81 0
-89 -659 83 0
-89 -661 85 0
-89 -663 87 0
95 0
91 7 0
-91 -7 0
-91 -4 93 0
-91 -10 97 0
-91 -13 99 0
-91 -16 101 0
-91 -19 103 0
-91 -22 105 0
-91 -25 107 0
-91 -28 109 0
-91 -31 111 0
-91 -34 113 0
-91 -37 115 0
-91 -40 117 0
-91 -43 119 0
-91 -46 121 0
-91 -49 123 0
-91 -52 125 0
93 59 0
-93 -59 0
-93 -55 91 0
-93 -61 97 0
-93 -63 99 0
-93 -65 101 0
-93 -67 103 0
-93 -69 105 0
-93 -71 107 0
-93 -73 109 0
-93 -75 111 0
-93 -77 113 0
-93 -79 115 0
-93 -81 117 0
-93 -83 119 0
-93 -85 121 0
-93 -87 123 0
-93 -89 125 0
97 131 0
-97 -131 0
-97 -127 91 0
-97 -129 93 0
-97 -135 99 0
-97 -137 101 0
-97 -139 103 0
-97 -141 105 0
-97 -143 107 0
-97 -145 109 0
-97 -147 111 0
-97 -149 113 0
-97 -151 115 0
-97 -153 117 0
-97 -155 119 0
-97 -157 121 0
-97 -159 123 0
-97 -161 125 0
99 167 0
-99 -167 0
-99 -163 91 0
-99 -165 93 0
-99 -169 97 0
-99 -173 101 0
-99 -175 103 0
-99 -177 105 0
-99 -179 107 0
-99 -181 109 0
-99 -183 111 0
-99 -185 113 0
-99 -187 115 0
-99 -189 117 0
-99 -191 119 0
-99 -193 121 0
-99 -195 123 0
-99 -197 125 0
101 203 0
-101 -203 0
-101 -199 91 0
-101 -201 93 0
-101 -205 97 0
-101 -207 99 0
-101 -211 103 0
-101 -213 105 0
-101 -215 107 0
-101 -217 109 0
-101 -219 111 0
-101 -221 113 0
-101 -223 115 0
-101 -225 117 0
-101 -227 119 0
-101 -229 121 0
-101 -231 123 0
-101 -233 125 0
103 239 0
-103 -239 0
-103 -235 91 0
-103 -237 93 0
-103 -241 97 0
-103 -243 99 0
-103 -245 101 0
-103 -249 105 0
-103 -251 107 0
-103 -253 109 0
-103 -255 111 0
-103 -257 113 0
-103 -259 115 0
-103 -261 117 0
-103 -263 119 0
-103 -265 121 0
-103 -267 123 0
-103 -269 125 0
105 275 0
-105 -275 0
-105 -271 91 0
-105 -273 93 0
-105 -277 97 0
-105 -279 99 0
-105 -281 101 0
-105 -283 103 0
-105 -287 107 0
-105 -289 109 0
-105 -291 111 0
-105 -293 113 0
-105 -295 115 0
-105 -297 117 0
-105 -299 119 0
-105 -301 121 0
-105 -303 123 0
-105 -305 125 0
107 311 0
-107 -311 0
-107 -307 91 0
-107 -309 93 0
-107 -313 97 0
-107 -315 99 0
-107 -317 101 0
-107 -319 103 0
-107 -321 105 0
-107 -325 109 0
-107 -327 111 0
-107 -329 113 0
-107 -331 115 0
-107 -333 117 0
-107 -335 119 0
-107 -337 121 0
-107 -339 123 0
-107 -341 125 0
109 347 0
-109 -347 0
-109 -343 91 0
-109 -345 93 0
-109 -349 97 0
-109 -351 99 0
-109 -353 101 0
-109 -355 103 0
-109 -357 105 0
-109 -359 107 0
-109 -363 111 0
-109 -365 113 0
-109 -367 115 0
-109 -369 117 0
-109 -371 119 0
-109 -373 121 0
-109 -375 123 0
-109 -377 125 0
111 383 0
-111 -383 0
-111 -379 91 0
-111 -381 93 0
-111 -385 97 0
-111 -387 99 0
-111 -389 101 0
-111 -391 103 0
-111 -393 105 0
-111 -395 107 0
-111 -397 109 0
-111 -401 113 0
-111 -403 115 0
-111 -405 117 0
-111 -407 119 0
-111 -409 121 0
-111 -411 123 0
-111 -413 125 0
113 419 0
-113 -419 0
-113 -415 91 0
-113 -417 93 0
-113 -421 97 0
-113 -423 99 0
-113 -425 101 0
-113 -427 103 0
-113 -429 105 0
-113 -431 107 0
-113 -433 109 0
-113 -435 111 0
-113 -439 115 0
-113 -441 117 0
-113 -443 119 0
-113 -445 121 0
-113 -447 123 0
-113 -449 125 0
115 455 0
-115 -455 0
-115 -451 91 0
-115 -453 93 0
-115 -457 97 0
-115 -459 99 0
-115 -461 101 0
-115 -463 103 0
-115 -465 105 0
-115 -467 107 0
-115 -469 109 0
-115 -471 111 0
-115 -473 113 0
-115 -477 117 0
-115 -479 119 0
-115 -481 121 0
-115 -483 123 0
-115 -485 125 0
117 491 0
-117 -491 0
-117 -487 91 0
-117 -489 93 0
-117 -493 97 0
-117 -495 99 0
-117 -497 101 0
-117 -499 103 0
-117 -501 105 0
-117 -503 107 0
-117 -505 109 0
-117 -507 111 0
-117 -509 113 0
-117 -511 115 0
-117 -515 119 0
-117 -517 121 0
-117 -519 123 0
-117 -521 125 0
119 527 0
-119 -527 0
-119 -523 91 0
-119 -525 93 0
-119 -529 97 0
-119 -531 99 0
-119 -533 101 0
-119 -535 103 0
-119 -537 105 0
-119 -539 107 0
-119 -541 109 0
-119 -543 111 0
-119 -545 113 0
-119 -547 115 0
-119 -549 117 0
-119 -553 121 0
-119 -555 123 0
-119 -557 125 0
121 563 0
-121 -563 0
-121 -559 91 0
-121 -561 93 0
-121 -565 97 0
-121 -567 99 0
-121 -569 101 0
-121 -571 103 0
-121 -573 105 0
-121 -575 107 0
-121 -577 109 0
-121 -579 111 0
-121 -581 113 0
-121 -583 115 0
-121 -585 117 0
-121 -587 119 0
-121 -591 123 0
-121 -593 125 0
123 599 0
-123 -599 0
-123 -595 91 0
-123 -597 93 0
-123 -601 97 0
-123 -603 99 0
-123 -605 101 0
-123 -607 103 0
-123 -609 105 0
-123 -611 107 0
-123 -613 109 0
-123 -615 111 0
-123 -617 113 0
-123 -619 115 0
-123 -621 117 0
-123 -623 119 0
-123 -625 121 0
-123 -629 125 0
125 635 0
-125 -635 0
-125 -631 91 0
-125 -633 93 0
-125 -637 97 0
-125 -639 99 0
-125 -641 101 0
-125 -643 103 0
-125 -645 105 0
-125 -647 107 0
-125 -649 109 0
-125 -651 111 0
-125 -653 113 0
-125 -655 115 0
-125 -657 117 0
-125 -659 119 0
-125 -661 121 0
-125 -663 123 0
133 0
127 10 0
-127 -10 0
-127 -4 129 0
-127 -7 131 0
-127 -13 135 0
-127 -16 137 0
-127 -19 139 0
-127 -22 141 0
-127 -25 143 0
-127 -28 145 0
-127 -31 147 0
-127 -34 149 0
-127 -37 151 0
-127 -40 153 0
-127 -43 155 0
-127 -46 157 0
-127 -49 159 0
-127 -52 161 0
129 61 0
-129 -61 0
-129 -55 127 0
-129 -59 131 0
-129 -63 135 0
-129 -65 137 0
-129 -67 139 0
-129 -69 141 0
-129 -71 143 0
-129 -73 145 0
-129 -75 147 0
-129 -77 149 0
-129 -79 151 0
-129 -81 153 0
-129 -83 155 0
-129 -85 157 0
-129 -87 159 0
-129 -89 161 0
131 97 0
-131 -97 0
-131 -91 127 0
-131 -93 129 0
-131 -99 135 0
-131 -101 137 0
-131 -103 139 0
-131 -105 141 0
-131 -107 143 0
-131 -109 145 0
-131 -111 147 0
-131 -113 149 0
-131 -115 151 0
-131 -117 153 0
-131 -119 155 0
-131 -121 157 0
-131 -123 159 0
-131 -125 161 0
135 169 0
-135 -169 0
-135 -163 127 0
-135 -165 129 0
-135 -167 131 0
-135 -173 137 0
-135 -175 139 0
-135 -177 141 0
-135 -179 143 0
-135 -181 145 0
-135 -183 147 0
-135 -185 149 0
-135 -187 151 0
-135 -189 153 0
-135 -191 155 0
-135 -193 157 0
-135 -195 159 0
-135 -197 161 0
137 205 0
-137 -205 0
-137 -199 127 0
-137 -201 129 0
-137 -203 131 0
-137 -207 135 0
-137 -211 139 0
-137 -213 141 0
-137 -215 143 0
-137 -217 145 0
-137 -219 147 0
-137 -221 149 0
-137 -223 151 0
-137 -225 153 0
-137 -227 155 0
-137 -229 157 0
-137 -231 159 0
-137 -233 161 0
139 241 0
-139 -241 0
-139 -235 127 0
-139 -237 129 0
-139 -239 131 0
-139 -243 135 0
-139 -245 137 0
-139 -249 141 0
-139 -251 143 0
-139 -253 145 0
-139 -255 147 0
-139 -257 149 0
-139 -259 151 0
-139 -261 153 0
-139 -263 155 0
-139 -265 157 0
-139 -267 159 0
-139 -269 161 0
141 277 0
-141 -277 0
-141 -271 127 0
-141 -273 129 0
-141 -275 131 0
-141 -279 135 0
-141 -281 137 0
-141 -283 139 0
-141 -287 143 0
-141 -289 145 0
-141 -291 147 0
-141 -293 149 0
-141 -295 151 0
-141 -297 153 0
-141 -299 155 0
-141 -301 157 0
-141 -303 159 0
-141 -305 161 0
143 313 0
-143 -313 0
-143 -307 127 0
-143 -309 129 0
-143 -311 131 0
-143 -315 135 0
-143 -317 137 0
-143 -319 139 0
-143 -321 141 0
-143 -325 145 0
-143 -327 147 0
-143 -329 149 0
-143 -331 151 0
-143 -333 153 0
-143 -335 155 0
-143 -337 157 0
-143 -339 159 0
-143 -341 161 0
145 349 0
-145 -349 0
-145 -343 127 0
-145 -345 129 0
-145 -347 131 0
-145 -351 135 0
-145 -353 137 0
-145 -355 139 0
-145 -357 141 0
-145 -359 143 0
-145 -363 147 0
-145 -365 149 0
-145 -367 151 0
-145 -369 153 0
-145 -371 155 0
-145 -373 157 0
-145 -375 159 0
-145 -377 161 0
147 385 0
-147 -385 0
-147 -379 127 0
-147 -381 129 0
-147 -383 131 0
-147 -387 135 0
-147 -389 137 0
-147 -391 139 0
-147 -393 141 0
-147 -395 143 0
-147 -397 145 0
-147 -401 149 0
-147 -403 151 0
-147 -405 153 0
-147 -407 155 0
-147 -409 157 0
-147 -411 159 0
-147 -413 161 0
149 421 0
-149 -421 0
-149 -415 127 0
-149 -417 129 0
-149 -419 131 0
-149 -423 135 0
-149 -425 137 0
-149 -427 139 0
-149 -429 141 0
-149 -431 143 0
-149 -433 145 0
-149 -435 147 0
-149 -439 151 0
-149 -441 153 0
-149 -443 155 0
-149 -445 157 0
-149 -447 159 0
-149 -449 161 0
151 457 0
-151 -457 0
-151 -451 127 0
-151 -453 129 0
-151 -455 131 0
-151 -459 135 0
-151 -461 137 0
-151 -463 139 0
-151 -465 141 0
-151 -467 143 0
-151 -469 145 0
-151 -471 147 0
-151 -473 149 0
-151 -477 153 0
-151 -479 155 0
-151 -481 157 0
-151 -483 159 0
-151 -485 161 0
153 493 0
-153 -493 0
-153 -487 127 0
-153 -489 129 0
-153 -491 131 0
-153 -495 135 0
-153 -497 137 0
-153 -499 139 0
-153 -501 141 0
-153 -503 143 0
-153 -505 145 0
-153 -507 147 0
-153 -509 149 0
-153 -511 151 0
-153 -515 155 0
-153 -517 157 0
-153 -519 159 0
-153 -521 161 0
155 529 0
-155 -529 0
-155 -523 127 0
-155 -525 129 0
-155 -527 131 0
-155 -531 135 0
-155 -533 137 0
-155 -535 139 0
-155 -537 141 0
-155 -539 143 0
-155 -541 145 0
-155 -543 147 0
-155 -545 149 0
-155 -547 151 0
-155 -549 153 0
-155 -553 157 0
-155 -555 159 0
-155 -557 161 0
157 565 0
-157 -565 0
-157 -559 127 0
-157 -561 129 0
-157 -563 131 0
-157 -567 135 0
-157 -569 137 0
-157 -571 139 0
-157 -573 141 0
-157 -575 143 0
-157 -577 145 0
-157 -579 147 0
-157 -581 149 0
-157 -583 151 0
-157 -585 153 0
-157 -587 155 0
-157 -591 159 0
-157 -593 161 0
159 601 0
-159 -601 0
-159 -595 127 0
-159 -597 129 0
-159 -599 131 0
-159 -603 135 0
-159 -605 137 0
-159 -607 139 0
-159 -609 141 0
-159 -611 143 0
-159 -613 145 0
-159 -615 147 0
-159 -617 149 0
-159 -619 151 0
-159 -621 153 0
-159 -623 155 0
-159 -625 157 0
-159 -629 161 0
161 637 0
-161 -637 0
-161 -631 127 0
-161 -633 129 0
-161 -635 131 0
-161 -639 135 0
-161 -641 137 0
-161 -643 139 0
-161 -645 141 0
-161 -647 143 0
-161 -649 145 0
-161 -651 147 0
-161 -653 149 0
-161 -655 151 0
-161 -657 153 0
-161 -659 155 0
-161 -661 157 0
-161 -663 159 0
171 0
163 13 0
-163 -13 0
-163 -4 165 0
-163 -7 167 0
-163 -10 169 0
-163 -16 173 0
-163 -19 175 0
-163 -22 177 0
-163 -25 179 0
-163 -28 181 0
-163 -31 183 0
-163 -34 185 0
-163 -37 187 0
-163 -40 189 0
-163 -43 191 0
-163 -46 193 0
-163 -49 195 0
-163 -52 197 0
165 63 0
-165 -63 0
-165 -55 163 0
-165 -59 167 0
-165 -61 169 0
-165 -65 173 0
-165 -67 175 0
-165 -69 177 0
-165 -71 179 0
-165 -73 181 0
-165 -75 183 0
-165 -77 185 0
-165 -79 187 0
-165 -81 189 0
-165 -83 191 0
-165 -85 193 0
-165 -87 195 0
-165 -89 197 0
167 99 0
-167 -99 0
-167 -91 163 0
-167 -93 165 0
-167 -97 169 0
-167 -101 173 0
-167 -103 175 0
-167 -105 177 0
-167 -107 179 0
-167 -109 181 0
-167 -111 183 0
-167 -113 185 0
-167 -115 187 0
-167 -117 189 0
-167 -119 191 0
-167 -121 193 0
-167 -123 195 0
-167 -125 197 0
169 135 0
-169 -135 0
-169 -127 163 0
-169 -129 165 0
-169 -131 167 0
-169 -137 173 0
-169 -139 175 0
-169 -141 177 0
-169 -143 179 0
-169 -145 181 0
-169 -147 183 0
-169 -149 185 0
-169 -151 187 0
-169 -153 189 0
-169 -155 191 0
-169 -157 193 0
-169 -159 195 0
-169 -161 197 0
173 207 0
-173 -207 0
-173 -199 163 0
-173 -201 165 0
-173 -203 167 0
-173 -205 169 0
-173 -211 175 0
-173 -213 177 0
-173 -215 179 0
-173 -217 181 0
-173 -219 183 0
-173 -221 185 0
-173 -223 187 0
-173 -225 189 0
-173 -227 191 0
-173 -229 193 0
-173 -231 195 0
-173 -233 197 0
175 243 0
-175 -243 0
-175 -235 163 0
-175 -237 165 0
-175 -239 167 0
-175 -241 169 0
-175 -245 173 0
-175 -249 177 0
-175 -251 179 0
-175 -253 181 0
-175 -255 183 0
-175 -257 185 0
-175 -259 187 0
-175 -261 189 0
-175 -263 191 0
-175 -265 193 0
-175 -267 195 0
-175 -269 197 0
177 279 0
-177 -279 0
-177 -271 163 0
-177 -273 165 0
-177 -275 167 0
-177 -277 169 0
-177 -281 173 0
-177 -283 175 0
-177 -287 179 0
-177 -289 181 0
-177 -291 183 0
-177 -293 185 0
-177 -295 187 0
-177 -297 189 0
-177 -299 191 0
-177 -301 193 0
-177 -303 195 0
-177 -305 197 0
179 315 0
-179 -315 0
-179 -307 163 0
-179 -309 165 0
-179 -311 167 0
-179 -313 169 0
-179 -317 173 0
-179 -319 175 0
-179 -321 177 0
-179 -325 181 0
-179 -327 183 0
-179 -329 185 0
-179 -331 187 0
-179 -333 189 0
-179 -335 191 0
-179 -337 193 0
-179 -339 195 0
-179 -341 197 0
181 351 0
-181 -351 0
-181 -343 163 0
-181 -345 165 0
-181 -347 167 0
-181 -349 169 0
-181 -353 173 0
-181 -355 175 0
-181 -357 177 0
-181 -359 179 0
-181 -363 183 0
-181 -365 185 0
-181 -367 187 0
-181 -369 189 0
-181 -371 191 0
-181 -373 193 0
-181 -375 195 0
-181 -377 197 0
183 387 0
-183 -387 0
-183 -379 163 0
-183 -381 165 0
-183 -383 167 0
-183 -385 169 0
-183 -389 173 0
-183 -391 175 0
-183 -393 177 0
-183 -395 179 0
-183 -397 181 0
-183 -401 185 0
-183 -403 187 0
-183 -405 189 0
-183 -407 191 0
-183 -409 193 0
-183 -411 195 0
-183 -413 197 0
185 423 0
-185 -423 0
-185 -415 163 0
-185 -417 165 0
-185 -419 167 0
-185 -421 169 0
-185 -425 173 0
-185 -427 175 0
-185 -429 177 0
-185 -431 179 0
-185 -433 181 0
-185 -435 183 0
-185 -439 187 0
-185 -441 189 0
-185 -443 191 0
-185 -445 193 0
-185 -447 195 0
-185 -449 197 0
187 459 0
-187 -459 0
-187 -451 163 0
-187 -453 165 0
-187 -455 167 0
-187 -457 169 0
-187 -461 173 0
-187 -463 175 0
-187 -465 177 0
-187 -467 179 0
-187 -469 181 0
-187 -471 183 0
-187 -473 185 0
-187 -477 189 0
-187 -479 191 0
-187 -481 193 0
-187 -483 195 0
-187 -485 197 0
189 495 0
-189 -495 0
-189 -487 163 0
-189 -489 165 0
-189 -491 167 0
-189 -493 169 0
-189 -497 173 0
-189 -499 175 0
-189 -501 177 0
-189 -503 179 0
-189 -505 181 0
-189 -507 183 0
-189 -509 185 0
-189 -511 187 0
-189 -515 191 0
-189 -517 193 0
-189 -519 195 0
-189 -521 197 0
191 531 0
-191 -531 0
-191 -523 163 0
-191 -525 165 0
-191 -527 167 0
-191 -529 169 0
-191 -533 173 0
-191 -535 175 0
-191 -537 177 0
-191 -539 179 0
-191 -541 181 0
-191 -543 183 0
-191 -545 185 0
-191 -547 187 0
-191 -549 189 0
-191 -553 193 0
-191 -555 195 0
-191 -557 197 0
193 567 0
-193 -567 0
-193 -559 163 0
-193 -561 165 0
-193 -563 167 0
-193 -565 169 0
-193 -569 173 0
-193 -571 175 0
-193 -573 177 0
-193 -575 179 0
-193 -577 181 0
-193 -579 183 0
-193 -581 185 0
-193 -583 187 0
-193 -585 189 0
-193 -587 191 0
-193 -591 195 0
-193 -593 197 0
195 603 0
-195 -603 0
-195 -595 163 0
-195 -597 165 0
-195 -599 167 0
-195 -601 169 0
-195 -605 173 0
-195 -607 175 0
-195 -609 177 0
-195 -611 179 0
-195 -613 181 0
-195 -615 183 0
-195 -617 185 0
-195 -619 187 0
-195 -621 189 0
-195 -623 191 0
-195 -625 193 0
-195 -629 197 0
197 639 0
-197 -639 0
-197 -631 163 0
-197 -633 165 0
-197 -635 167 0
-197 -637 169 0
-197 -641 173 0
-197 -643 175 0
-197 -645 177 0
-197 -647 179 0
-197 -649 181 0
-197 -651 183 0
-197 -653 185 0
-197 -655 187 0
-197 -657 189 0
-197 -659 191 0
-197 -661 193 0
-197 -663 195 0
209 0
199 16 0
-199 -16 0
-199 -4 201 0
-199 -7 203 0
-199 -10 205 0
-199 -13 207 0
-199 -19 211 0
-199 -22 213 0
-199 -25 215 0
-199 -28 217 0
-199 -31 219 0
-199 -34 221 0
-199 -37 223 0
-199 -40 225 0
-199 -43 227 0
-199 -46 229 0
-199 -49 231 0
-199 -52 233 0
201 65 0
-201 -65 0
-201 -55 199 0
-201 -59 203 0
-201 -61 205 0
-201 -63 207 0
-201 -67 211 0
-201 -69 213 0
-201 -71 215 0
-201 -73 217 0
-201 -75 219 0
-201 -77 221 0
-201 -79 223 0
-201 -81 225 0
-201 -83 227 0
-201 -85 229 0
-201 -87 231 0
-201 -89 233 0
203 101 0
-203 -101 0
-203 -91 199 0
-203 -93 201 0
-203 -97 205 0
-203 -99 207 0
-203 -103 211 0
-203 -105 213 0
-203 -107 215 0
-203 -109 217 0
-203 -111 219 0
-203 -113 221 0
-203 -115 223 0
-203 -117 225 0
-203 -119 227 0
-203 -121 229 0
-203 -123 231 0
-203 -125 233 0
205 137 0
-205 -137 0
-205 -127 199 0
-205 -129 201 0
-205 -131 203 0
-205 -135 207 0
-205 -139 211 0
-205 -141 213 0
-205 -143 215 0
-205 -145 217 0
-205 -147 219 0
-205 -149 221 0
-205 -151 223 0
-205 -153 225 0
-205 -155 227 0
-205 -157 229 0
-205 -159 231 0
-205 -161 233 0
207 173 0
-207 -173 0
-207 -163 199 0
-207 -165 201 0
-207 -167 203 0
-207 -169 205 0
-207 -175 211 0
-207 -177 213 0
-207 -179 215 0
-207 -181 217 0
-207 -183 219 0
-207 -185 221 0
-207 -187 223 0
-207 -189 225 0
-207 -191 227 0
-207 -193 229 0
-207 -195 231 0
-207 -197 233 0
211 245 0
-211 -245 0
-211 -235 199 0
-211 -237 201 0
-211 -239 203 0
-211 -241 205 0
-211 -243 207 0
-211 -249 213 0
-211 -251 215 0
-211 -253 217 0
-211 -255 219 0
-211 -257 221 0
-211 -259 223 0
-211 -261 225 0
-211 -263 227 0
-211 -265 229 0
-211 -267 231 0
-211 -269 233 0
213 281 0
-213 -281 0
-213 -271 199 0
-213 -273 201 0
-213 -275 203 0
-213 -277 205 0
-213 -279 207 0
-213 -283 211 0
-213 -287 215 0
-213 -289 217 0
-213 -291 219 0
-213 -293 221 0
-213 -295 223 0
-213 -297 225 0
-213 -299 227 0
-213 -301 229 0
-213 -303 231 0
-213 -305 233 0
215 317 0
-215 -317 0
-215 -307 199 0
-215 -309 201 0
-215 -311 203 0
-215 -313 205 0
-215 -315 207 0
-215 -319 211 0
-215 -321 213 0
-215 -325 217 0
-215 -327 219 0
-215 -329 221 0
-215 -331 223 0
-215 -333 225 0
-215 -335 227 0
-215 -337 229 0
-215 -339 231 0
-215 -341 233 0
217 353 0
-217 -353 0
-217 -343 199 0
-217 -345 201 0
-217 -347 203 0
-217 -349 205 0
-217 -351 207 0
-217 -355 211 0
-217 -357 213 0
-217 -359 215 0
-217 -363 219 0
-217 -365 221 0
-217 -367 223 0
-217 -369 225 0
-217 -371 227 0
-217 -373 229 0
-217 -375 231 0
-217 -377 233 0
219 389 0
-219 -389 0
-219 -379 199 0
-219 -381 201 0
-219 -383 203 0
-219 -385 205 0
-219 -387 207 0
-219 -391 211 0
-219 -393 213 0
-219 -395 215 0
-219 -397 217 0
-219 -401 221 0
-219 -403 223 0
-219 -405 225 0
-219 -407 227 0
-219 -409 229 0
-219 -411 231 0
-219 -413 233 0
221 425 0
-221 -425 0
-221 -415 199 0
-221 -417 201 0
-221 -419 203 0
-221 -421 205 0
-221 -423 207 0
-221 -427 211 0
-221 -429 213 0
-221 -431 215 0
-221 -433 217 0
-221 -435 219 0
-221 -439 223 0
-221 -441 225 0
-221 -443 227 0
-221 -445 229 0
-221 -447 231 0
-221 -449 233 0
223 461 0
-223 -461 0
-223 -451 199 0
-223 -453 201 0
-223 -455 203 0
-223 -457 205 0
-223 -459 207 0
-223 -463 211 0
-223 -465 213 0
-223 -467 215 0
-223 -469 217 0
-223 -471 219 0
-223 -473 221 0
-223 -477 225 0
-223 -479 227 0
-223 -481 229 0
-223 -483 231 0
-223 -485 233 0
225 497 0
-225 -497 0
-225 -487 199 0
-225 -489 201 0
-225 -491 203 0
-225 -493 205 0
-225 -495 207 0
-225 -499 211 0
-225 -501 213 0
-225 -503 215 0
-225 -505 217 0
-225 -507 219 0
-225 -509 221 0
-225 -511 223 0
-225 -515 227 0
-225 -517 229 0
-225 -519 231 0
-225 -521 233 0
227 533 0
-227 -533 0
-227 -523 199 0
-227 -525 201 0
-227 -527 203 0
-227 -529 205 0
-227 -531 207 0
-227 -535 211 0
-227 -537 213 0
-227 -539 215 0
-227 -541 217 0
-227 -543 219 0
-227 -545 221 0
-227 -547 223 0
-227 -549 225 0
-227 -553 229 0
-227 -555 231 0
-227 -557 233 0
229 569 0
-229 -569 0
-229 -559 199 0
-229 -561 201 0
-229 -563 203 0
-229 -565 205 0
-229 -567 207 0
-229 -571 211 0
-229 -573 213 0
-229 -575 215 0
-229 -577 217 0
-229 -579 219 0
-229 -581 221 0
-229 -583 223 0
-229 -585 225 0
-229 -587 227 0
-229 -591 231 0
-229 -593 233 0
231 605 0
-231 -605 0
-231 -595 199 0
-231 -597 201 0
-231 -599 203 0
-231 -601 205 0
-231 -603 207 0
-231 -607 211 0
-231 -609 213 0
-231 -611 215 0
-231 -613 217 0
-231 -615 219 0
-231 -617 221 0
-231 -619 223 0
-231 -621 225 0
-231 -623 227 0
-231 -625 229 0
-231 -629 233 0
233 641 0
-233 -641 0
-233 -631 199 0
-233 -633 201 0
-233 -635 203 0
-233 -637 205 0
-233 -639 207 0
-233 -643 211 0
-233 -645 213 0
-233 -647 215 0
-233 -649 217 0
-233 -651 219 0
-233 -653 221 0
-233 -655 223 0
-233 -657 225 0
-233 -659 227 0
-233 -661 229 0
-233 -663 231 0
247 0
235 19 0
-235 -19 0
-235 -4 237 0
-235 -7 239 0
-235 -10 241 0
-235 -13 243 0
-235 -16 245 0
-235 -22 249 0
-235 -25 251 0
-235 -28 253 0
-235 -31 255 0
-235 -34 257 0
-235 -37 259 0
-235 -40 261 0
-235 -43 263 0
-235 -46 265 0
-235 -49 267 0
-235 -52 269 0
237 67 0
-237 -67 0
-237 -55 235 0
-237 -59 239 0
-237 -61 241 0
-237 -63 243 0
-237 -65 245 0
-237 -69 249 0
-237 -71 251 0
-237 -73 253 0
-237 -75 255 0
-237 -77 257 0
-237 -79 259 0
-237 -81 261 0
-237 -83 263 0
-237 -85 265 0
-237 -87 267 0
-237 -89 269 0
239 103 0
-239 -103 0
-239 -91 235 0
-239 -93 237 0
-239 -97 241 0
-239 -99 243 0
-239 -101 245 0
-239 -105 249 0
-239 -107 251 0
-239 -109 253 0
-239 -111 255 0
-239 -113 257 0
-239 -115 259 0
-239 -117 261 0
-239 -119 263 0
-239 -121 265 0
-239 -123 267 0
-239 -125 269 0
241 139 0
-241 -139 0
-241 -127 235 0
-241 -129 237 0
-241 -131 239 0
-241 -135 243 0
-241 -137 245 0
-241 -141 249 0
-241 -143 251 0
-241 -145 253 0
-241 -147 255 0
-241 -149 257 0
-241 -151 259 0
-241 -153 261 0
-241 -155 263 0
-241 -157 265 0
-241 -159 267 0
-241 -161 269 0
243 175 0
-243 -175 0
-243 -163 235 0
-243 -165 237 0
-243 -167 239 0
-243 -169 241 0
-243 -173 245 0
-243 -177 249 0
-243 -179 251 0
-243 -181 253 0
-243 -183 255 0
-243 -185 257 0
-243 -187 259 0
-243 -189 261 0
-243 -191 263 0
-243 -193 265 0
-243 -195 267 0
-243 -197 269 0
245 211 0
-245 -211 0
-245 -199 235 0
-245 -201 237 0
-245 -203 239 0
-245 -205 241 0
-245 -207 243 0
-245 -213 249 0
-245 -215 251 0
-245 -217 253 0
-245 -219 255 0
-245 -221 257 0
-245 -223 259 0
-245 -225 261 0
-245 -227 263 0
-245 -229 265 0
-245 -231 267 0
-245 -233 269 0
249 283 0
-249 -283 0
-249 -271 235 0
-249 -273 237 0
-249 -275 239 0
-249 -277 241 0
-249 -279 243 0
-249 -281 245 0
-249 -287 251 0
-249 -289 253 0
-249 -291 255 0
-249 -293 257 0
-249 -295 259 0
-249 -297 261 0
-249 -299 263 0
-249 -301 265 0
-249 -303 267 0
-249 -305 269 0
251 319 0
-251 -319 0
-251 -307 235 0
-251 -309 237 0
-251 -311 239 0
-251 -313 241 0
-251 -315 243 0
-251 -317 245 0
-251 -321 249 0
-251 -325 253 0
-251 -327 255 0
-251 -329 257 0
-251 -331 259 0
-251 -333 261 0
-251 -335 263 0
-251 -337 265 0
-251 -339 267 0
-251 -341 269 0
253 355 0
-253 -355 0
-253 -343 235 0
-253 -345 237 0
-253 -347 239 0
-253 -349 241 0
-253 -351 243 0
-253 -353 245 0
-253 -357 249 0
-253 -359 251 0
-253 -363 255 0
-253 -365 257 0
-253 -367 259 0
-253 -369 261 0
-253 -371 263 0
-253 -373 265 0
-253 -375 267 0
-253 -377 269 0
255 391 0
-255 -391 0
-255 -379 235 0
-255 -381 237 0
-255 -383 239 0
-255 -385 241 0
-255 -387 243 0
-255 -389 245 0
-255 -393 249 0
-255 -395 251 0
-255 -397 253 0
-255 -401 257 0
-255 -403 259 0
-255 -405 261 0
-255 -407 263 0
-255 -409 265 0
-255 -411 267 0
-255 -413 269 0
257 427 0
-257 -427 0
-257 -415 235 0
-257 -417 237 0
-257 -419 239 0
-257 -421 241 0
-257 -423 243 0
-257 -425 245 0
-257 -429 249 0
-257 -431 251 0
-257 -433 253 0
-257 -435 255 0
-257 -439 259 0
-257 -441 261 0
-257 -443 263 0
-257 -445 265 0
-257 -447 267 0
-257 -449 269 0
259 463 0
-259 -463 0
-259 -451 235 0
-259 -453 237 0
-259 -455 239 0
-259 -457 241 0
-259 -459 243 0
-259 -461 245 0
-259 -465 249 0
-259 -467 251 0
-259 -469 253 0
-259 -471 255 0
-259 -473 257 0
-259 -477 261 0
-259 -479 263 0
-259 -481 265 0
-259 -483 267 0
-259 -485 269 0
261 499 0
-261 -499 0
-261 -487 235 0
-261 -489 237 0
-261 -491 239 0
-261 -493 241 0
-261 -495 243 0
-261 -497 245 0
-261 -501 249 0
-261 -503 251 0
-261 -505 253 0
-261 -507 255 0
-261 -509 257 0
-261 -511 259 0
-261 -515 263 0
-261 -517 265 0
-261 -519 267 0
-261 -521 269 0
263 535 0
-263 -535 0
-263 -523 235 0
-263 -525 237 0
-263 -527 239 0
-263 -529 241 0
-263 -531 243 0
-263 -533 245 0
-263 -537 249 0
-263 -539 251 0
-263 -541 253 0
-263 -543 255 0
-263 -545 257 0
-263 -547 259 0
-263 -549 261 0
-263 -553 265 0
-263 -555 267 0
-263 -557 269 0
265 571 0
-265 -571 0
-265 -559 235 0
-265 -561 237 0
-265 -563 239 0
-265 -565 241 0
-265 -567 243 0
-265 -569 245 0
-265 -573 249 0
-265 -575 251 0
-265 -577 253 0
-265 -579 255 0
-265 -581 257 0
-265 -583 259 0
-265 -585 261 0
-265 -587 263 0
-265 -591 267 0
-265 -593 269 0
267 607 0
-267 -607 0
-267 -595 235 0
-267 -597 237 0
-267 -599 239 0
-267 -601 241 0
-267 -603 243 0
-267 -605 245 0
-267 -609 249 0
-267 -611 251 0
-267 -613 253 0
-267 -615 255 0
-267 -617 257 0
-267 -619 259 0
-267 -621 261 0
-267 -623 263 0
-267 -625 265 0
-267 -629 269 0
269 643 0
-269 -643 0
-269 -631 235 0
-269 -633 237 0
-269 -635 239 0
-269 -637 241 0
-269 -639 243 0
-269 -641 245 0
-269 -645 249 0
-269 -647 251 0
-269 -649 253 0
-269 -651 255 0
-269 -653 257 0
-269 -655 259 0
-269 -657 261 0
-269 -659 263 0
-269 -661 265 0
-269 -663 267 0
285 0
271 22 0
-271 -22 0
-271 -4 273 0
-271 -7 275 0
-271 -10 277 0
-271 -13 279 0
-271 -16 281 0
-271 -19 283 0
-271 -25 287 0
-271 -28 289 0
-271 -31 291 0
-271 -34 293 0
-271 -37 295 0
-271 -40 297 0
-271 -43 299 0
-271 -46 301 0
-271 -49 303 0
-271 -52 305 0
273 69 0
-273 -69 0
-273 -55 271 0
-273 -59 275 0
-273 -61 277 0
-273 -63 279 0
-273 -65 281 0
-273 -67 283 0
-273 -71 287 0
-273 -73 289 0
-273 -75 291 0
-273 -77 293 0
-273 -79 295 0
-273 -81 297 0
-273 -83 299 0
-273 -85 301 0
-273 -87 303 0
-273 -89 305 0
275 105 0
-275 -105 0
-275 -91 271 0
-275 -93 273 0
-275 -97 277 0
-275 -99 279 0
-275 -101 281 0
-275 -103 283 0
-275 -107 287 0
-275 -109 289 0
-275 -111 291 0
-275 -113 293 0
-275 -115 295 0
-275 -117 297 0
-275 -119 299 0
-275 -121 301 0
-275 -123 303 0
-275 -125 305 0
277 141 0
-277 -141 0
-277 -127 271 0
-277 -129 273 0
-277 -131 275 0
-277 -135 279 0
-277 -137 281 0
-277 -139 283 0
-277 -143 287 0
-277 -145 289 0
-277 -147 291 0
-277 -149 293 0
-277 -151 295 0
-277 -153 297 0
-277 -155 299 0
-277 -157 301 0
-277 -159 303 0
-277 -161 305 0
279 177 0
-279 -177 0
-279 -163 271 0
-279 -165 273 0
-279 -167 275 0
-279 -169 277 0
-279 -173 281 0
-279 -175 283 0
-279 -179 287 0
-279 -181 289 0
-279 -183 291 0
-279 -185 293 0
-279 -187 295 0
-279 -189 297 0
-279 -191 299 0
-279 -193 301 0
-279 -195 303 0
-279 -197 305 0
281 213 0
-281 -213 0
-281 -199 271 0
-281 -201 273 0
-281 -203 275 0
-281 -205 277 0
-281 -207 279 0
-281 -211 283 0
-281 -215 287 0
-281 -217 289 0
-281 -219 291 0
-281 -221 293 0
-281 -223 295 0
-281 -225 297 0
-281 -227 299 0
-281 -229 301 0
-281 -231 303 0
-281 -233 305 0
283 249 0
-283 -249 0
-283 -235 271 0
-283 -237 273 0
-283 -239 275 0
-283 -241 277 0
-283 -243 279 0
-283 -245 281 0
-283 -251 287 0
-283 -253 289 0
-283 -255 291 0
-283 -257 293 0
-283 -259 295 0
-283 -261 297 0
-283 -263 299 0
-283 -265 301 0
-283 -267 303 0
-283 -269 305 0
287 321 0
-287 -321 0
-287 -307 271 0
-287 -309 273 0
-287 -311 275 0
-287 -313 277 0
-287 -315 279 0
-287 -317 281 0
-287 -319 283 0
-287 -325 289 0
-287 -327 291 0
-287 -329 293 0
-287 -331 295 0
-287 -333 297 0
-287 -335 299 0
-287 -337 301 0
-287 -339 303 0
-287 -341 305 0
289 357 0
-289 -357 0
-289 -343 271 0
-289 -345 273 0
-289 -347 275 0
-289 -349 277 0
-289 -351 279 0
-289 -353 281 0
-289 -355 283 0
-289 -359 287 0
-289 -363 291 0
-289 -365 293 0
-289 -367 295 0
-289 -369 297 0
-289 -371 299 0
-289 -373 301 0
-289 -375 303 0
-289 -377 305 0
291 393 0
-291 -393 0
-291 -379 271 0
-291 -381 273 0
-291 -383 275 0
-291 -385 277 0
-291 -387 279 0
-291 -389 281 0
-291 -391 283 0
-291 -395 287 0
-291 -397 289 0
-291 -401 293 0
-291 -403 295 0
-291 -405 297 0
-291 -407 299 0
-291 -409 301 0
-291 -411 303 0
-291 -413 305 0
293 429 0
-293 -429 0
-293 -415 271 0
-293 -417 273 0
-293 -419 275 0
-293 -421 277 0
-293 -423 279 0
-293 -425 281 0
-293 -427 283 0
-293 -431 287 0
-293 -433 289 0
-293 -435 291 0
-293 -439 295 0
-293 -441 297 0
-293 -443 299 0
-293 -445 301 0
-293 -447 303 0
-293 -449 305 0
295 465 0
-295 -465 0
-295 -451 271 0
-295 -453 273 0
-295 -455 275 0
-295 -457 277 0
-295 -459 279 0
-295 -461 281 0
-295 -463 283 0
-295 -467 287 0
-295 -469 289 0
-295 -471 291 0
-295 -473 293 0
-295 -477 297 0
-295 -479 299 0
-295 -481 301 0
-295 -483 303 0
-295 -485 305 0
297 501 0
-297 -501 0
-297 -487 271 0
-297 -489 273 0
-297 -491 275 0
-297 -493 277 0
-297 -495 279 0
-297 -497 281 0
-297 -499 283 0
-297 -503 287 0
-297 -505 289 0
-297 -507 291 0
-297 -509 293 0
-297 -511 295 0
-297 -515 299 0
-297 -517 301 0
-297 -519 303 0
-297 -521 305 0
299 537 0
-299 -537 0
-299 -523 271 0
-299 -525 273 0
-299 -527 275 0
-299 -529 277 0
-299 -531 279 0
-299 -533 281 0
-299 -535 283 0
-299 -539 287 0
-299 -541 289 0
-299 -543 291 0
-299 -545 293 0
-299 -547 295 0
-299 -549 297 0
-299 -553 301 0
-299 -555 303 0
-299 -557 305 0
301 573 0
-301 -573 0
-301 -559 271 0
-301 -561 273 0
-301 -563 275 0
-301 -565 277 0
-301 -567 279 0
-301 -569 281 0
-301 -571 283 0
-301 -575 287 0
-301 -577 289 0
-301 -579 291 0
-301 -581 293 0
-301 -583 295 0
-301 -585 297 0
-301 -587 299 0
-301 -591 303 0
-301 -593 305 0
303 609 0
-303 -609 0
-303 -595 271 0
-303 -597 273 0
-303 -599 275 0
-303 -601 277 0
-303 -603 279 0
-303 -605 281 0
-303 -607 283 0
-303 -611 287 0
-303 -613 289 0
-303 -615 291 0
-303 -617 293 0
-303 -619 295 0
-303 -621 297 0
-303 -623 299 0
-303 -625 301 0
-303 -629 305 0
305 645 0
-305 -645 0
-305 -631 271 0
-305 -633 273 0
-305 -635 275 0
-305 -637 277 0
-305 -639 279 0
-305 -641 281 0
-305 -643 283 0
-305 -647 287 0
-305 -649 289 0
-305 -651 291 0
-305 -653 293 0
-305 -655 295 0
-305 -657 297 0
-305 -659 299 0
-305 -661 301 0
-305 -663 303 0
323 0
307 25 0
-307 -25 0
-307 -4 309 0
-307 -7 311 0
-307 -10 313 0
-307 -13 315 0
-307 -16 317 0
-307 -19 319 0
-307 -22 321 0
-307 -28 325 0
-307 -31 327 0
-307 -34 329 0
-307 -37 331 0
-307 -40 333 0
-307 -43 335 0
-307 -46 337 0
-307 -49 339 0
-307 -52 341 0
309 71 0
-309 -71 0
-309 -55 307 0
-309 -59 311 0
-309 -61 313 0
-309 -63 315 0
-309 -65 317 0
-309 -67 319 0
-309 -69 321 0
-309 -73 325 0
-309 -75 327 0
-309 -77 329 0
-309 -79 331 0
-309 -81 333 0
-309 -83 335 0
-309 -85 337 0
-309 -87 339 0
-309 -89 341 0
311 107 0
-311 -107 0
-311 -91 307 0
-311 -93 309 0
-311 -97 313 0
-311 -99 315 0
-311 -101 317 0
-311 -103 319 0
-311 -105 321 0
-311 -109 325 0
-311 -111 327 0
-311 -113 329 0
-311 -115 331 0
-311 -117 333 0
-311 -119 335 0
-311 -121 337 0
-311 -123 339 0
-311 -125 341 0
313 143 0
-313 -143 0
-313 -127 307 0
-313 -129 309 0
-313 -131 311 0
-313 -135 315 0
-313 -137 317 0
-313 -139 319 0
-313 -141 321 0
-313 -145 325 0
-313 -147 327 0
-313 -149 329 0
-313 -151 331 0
-313 -153 333 0
-313 -155 335 0
-313 -157 337 0
-313 -159 339 0
-313 -161 341 0
315 179 0
-315 -179 0
-315 -163 307 0
-315 -165 309 0
-315 -167 311 0
-315 -169 313 0
-315 -173 317 0
-315 -175 319 0
-315 -177 321 0
-315 -181 325 0
-315 -183 327 0
-315 -185 329 0
-315 -187 331 0
-315 -189 333 0
-315 -191 335 0
-315 -193 337 0
-315 -195 339 0
-315 -197 341 0
317 215 0
-317 -215 0
-317 -199 307 0
-317 -201 309 0
-317 -203 311 0
-317 -205 313 0
-317 -207 315 0
-317 -211 319 0
-317 -213 321 0
-317 -217 325 0
-317 -219 327 0
-317 -221 329 0
-317 -223 331 0
-317 -225 333 0
-317 -227 335 0
-317 -229 337 0
-317 -231 339 0
-317 -233 341 0
319 251 0
-319 -251 0
-319 -235 307 0
-319 -237 309 0
-319 -239 311 0
-319 -241 313 0
-319 -243 315 0
-319 -245 317 0
-319 -249 321 0
-319 -253 325 0
-319 -255 327 0
-319 -257 329 0
-319 -259 331 0
-319 -261 333 0
-319 -263 335 0
-319 -265 337 0
-319 -267 339 0
-319 -269 341 0
321 287 0
-321 -287 0
-321 -271 307 0
-321 -273 309 0
-321 -275 311 0
-321 -277 313 0
-321 -279 315 0
-321 -281 317 0
-321 -283 319 0
-321 -289 325 0
-321 -291 327 0
-321 -293 329 0
-321 -295 331 0
-321 -297 333 0
-321 -299 335 0
-321 -301 337 0
-321 -303 339 0
-321 -305 341 0
325 359 0
-325 -359 0
-325 -343 307 0
-325 -345 309 0
-325 -347 311 0
-325 -349 313 0
-325 -351 315 0
-325 -353 317 0
-325 -355 319 0
-325 -357 321 0
-325 -363 327 0
-325 -365 329 0
-325 -367 331 0
-325 -369 333 0
-325 -371 335 0
-325 -373 337 0
-325 -375 339 0
-325 -377 341 0
327 395 0
-327 -395 0
-327 -379 307 0
-327 -381 309 0
-327 -383 311 0
-327 -385 313 0
-327 -387 315 0
-327 -389 317 0
-327 -391 319 0
-327 -393 321 0
-327 -397 325 0
-327 -401 329 0
-327 -403 331 0
-327 -405 333 0
-327 -407 335 0
-327 -409 337 0
-327 -411 339 0
-327 -413 341 0
329 431 0
-329 -431 0
-329 -415 307 0
-329 -417 309 0
-329 -419 311 0
-329 -421 313 0
-329 -423 315 0
-329 -425 317 0
-329 -427 319 0
-329 -429 321 0
-329 -433 325 0
-329 -435 327 0
-329 -439 331 0
-329 -441 333 0
-329 -443 335 0
-329 -445 337 0
-329 -447 339 0
-329 -449 341 0
331 467 0
-331 -467 0
-331 -451 307 0
-331 -453 309 0
-331 -455 311 0
-331 -457 313 0
-331 -459 315 0
-331 -461 317 0
-331 -463 319 0
-331 -465 321 0
-331 -469 325 0
-331 -471 327 0
-331 -473 329 0
-331 -477 333 0
-331 -479 335 0
-331 -481 337 0
-331 -483 339 0
-331 -485 341 0
333 503 0
-333 -503 0
-333 -487 307 0
-333 -489 309 0
-333 -491 311 0
-333 -493 313 0
-333 -495 315 0
-333 -497 317 0
-333 -499 319 0
-333 -501 321 0
-333 -505 325 0
-333 -507 327 0
-333 -509 329 0
-333 -511 331 0
-333 -515 335 0
-333 -517 337 0
-333 -519 339 0
-333 -521 341 0
335 539 0
-335 -539 0
-335 -523 307 0
-335 -525 309 0
-335 -527 311 0
-335 -529 313 0
-335 -531 315 0
-335 -533 317 0
-335 -535 319 0
-335 -537 321 0
-335 -541 325 0
-335 -543 327 0
-335 -545 329 0
-335 -547 331 0
-335 -549 333 0
-335 -553 337 0
-335 -555 339 0
-335 -557 341 0
337 575 0
-337 -575 0
-337 -559 307 0
-337 -561 309 0
-337 -563 311 0
-337 -565 313 0
-337 -567 315 0
-337 -569 317 0
-337 -571 319 0
-337 -573 321 0
-337 -577 325 0
-337 -579 327 0
-337 -581 329 0
-337 -583 331 0
-337 -585 333 0
-337 -587 335 0
-337 -591 339 0
-337 -593 341 0
339 611 0
-339 -611 0
-339 -595 307 0
-339 -597 309 0
-339 -599 311 0
-339 -601 313 0
-339 -603 315 0
-339 -605 317 0
-339 -607 319 0
-339 -609 321 0
-339 -613 325 0
-339 -615 327 0
-339 -617 329 0
-339 -619 331 0
-339 -621 333 0
-339 -623 335 0
-339 -625 337 0
-339 -629 341 0
341 647 0
-341 -647 0
-341 -631 307 0
-341 -633 309 0
-341 -635 311 0
-341 -637 313 0
-341 -639 315 0
-341 -641 317 0
-341 -643 319 0
-341 -645 321 0
-341 -649 325 0
-341 -651 327 0
-341 -653 329 0
-341 -655 331 0
-341 -657 333 0
-341 -659 335 0
-341 -661 337 0
-341 -663 339 0
361 0
343 28 0
-343 -28 0
-343 -4 345 0
-343 -7 347 0
-343 -10 349 0
-343 -13 351 0
-343 -16 353 0
-343 -19 355 0
-343 -22 357 0
-343 -25 359 0
-343 -31 363 0
-343 -34 365 0
-343 -37 367 0
-343 -40 369 0
-343 -43 371 0
-343 -46 373 0
-343 -49 375 0
-343 -52 377 0
345 73 0
-345 -73 0
-345 -55 343 0
-345 -59 347 0
-345 -61 349 0
-345 -63 351 0
-345 -65 353 0
-345 -67 355 0
-345 -69 357 0
-345 -71 359 0
-345 -75 363 0
-345 -77 365 0
-345 -79 367 0
-345 -81 369 0
-345 -83 371 0
-345 -85 373 0
-345 -87 375 0
-345 -89 377 0
347 109 0
-347 -109 0
-347 -91 343 0
-347 -93 345 0
-347 -97 349 0
-347 -99 351 0
-347 -101 353 0
-347 -103 355 0
-347 -105 357 0
-347 -107 359 0
-347 -111 363 0
-347 -113 365 0
-347 -115 367 0
-347 -117 369 0
-347 -119 371 0
-347 -121 373 0
-347 -123 375 0
-347 -125 377 0
349 145 0
-349 -145 0
-349 -127 343 0
-349 -129 345 0
-349 -131 347 0
-349 -135 351 0
-349 -137 353 0
-349 -139 355 0
-349 -141 357 0
-349 -143 359 0
-349 -147 363 0
-349 -149 365 0
-349 -151 367 0
-349 -153 369 0
-349 -155 371 0
-349 -157 373 0
-349 -159 375 0
-349 -161 377 0
351 181 0
-351 -181 0
-351 -163 343 0
-351 -165 345 0
-351 -167 347 0
-351 -169 349 0
-351 -173 353 0
-351 -175 355 0
-351 -177 357 0
-351 -179 359 0
-351 -183 363 0
-351 -185 365 0
-351 -187 367 0
-351 -189 369 0
-351 -191 371 0
-351 -193 373 0
-351 -195 375 0
-351 -197 377 0
353 217 0
-353 -217 0
-353 -199 343 0
-353 -201 345 0
-353 -203 347 0
-353 -205 349 0
-353 -207 351 0
-353 -211 355 0
-353 -213 357 0
-353 -215 359 0
-353 -219 363 0
-353 -221 365 0
-353 -223 367 0
-353 -225 369 0
-353 -227 371 0
-353 -229 373 0
-353 -231 375 0
-353 -233 377 0
355 253 0
-355 -253 0
-355 -235 343 0
-355 -237 345 0
-355 -239 347 0
-355 -241 349 0
-355 -243 351 0
-355 -245 353 0
-355 -249 357 0
-355 -251 359 0
-355 -255 363 0
-355 -257 365 0
-355 -259 367 0
-355 -261 369 0
-355 -263 371 0
-355 -265 373 0
-355 -267 375 0
-355 -269 377 0
357 289 0
-357 -289 0
-357 -271 343 0
-357 -273 345 0
-357 -275 347 0
-357 -277 349 0
-357 -279 351 0
-357 -281 353 0
-357 -283 355 0
-357 -287 359 0
-357 -291 363 0
-357 -293 365 0
-357 -295 367 0
-357 -297 369 0
-357 -299 371 0
-357 -301 373 0
-357 -303 375 0
-357 -305 377 0
359 325 0
-359 -325 0
-359 -307 343 0
-359 -309 345 0
-359 -311 347 0
-359 -313 349 0
-359 -315 351 0
-359 -317 353 0
-359 -319 355 0
-359 -321 357 0
-359 -327 363 0
-359 -329 365 0
-359 -331 367 0
-359 -333 369 0
-359 -335 371 0
-359 -337 373 0
-359 -339 375 0
-359 -341 377 0
363 397 0
-363 -397 0
-363 -379 343 0
-363 -381 345 0
-363 -383 347 0
-363 -385 349 0
-363 -387 351 0
-363 -389 353 0
-363 -391 355 0
-363 -393 357 0
-363 -395 359 0
-363 -401 365 0
-363 -403 367 0
-363 -405 369 0
-363 -407 371 0
-363 -409 373 0
-363 -411 375 0
-363 -413 377 0
365 433 0
-365 -433 0
-365 -415 343 0
-365 -417 345 0
-365 -419 347 0
-365 -421 349 0
-365 -423 351 0
-365 -425 353 0
-365 -427 355 0
-365 -429 357 0
-365 -431 359 0
-365 -435 363 0
-365 -439 367 0
-365 -441 369 0
-365 -443 371 0
-365 -445 373 0
-365 -447 375 0
-365 -449 377 0
367 469 0
-367 -469 0
-367 -451 343 0
-367 -453 345 0
-367 -455 347 0
-367 -457 349 0
-367 -459 351 0
-367 -461 353 0
-367 -463 355 0
-367 -465 357 0
-367 -467 359 0
-367 -471 363 0
-367 -473 365 0
-367 -477 369 0
-367 -479 371 0
-367 -481 373 0
-367 -483 375 0
-367 -485 377 0
369 505 0
-369 -505 0
-369 -487 343 0
-369 -489 345 0
-369 -491 347 0
-369 -493 349 0
-369 -495 351 0
-369 -497 353 0
-369 -499 355 0
-369 -501 357 0
-369 -503 359 0
-369 -507 363 0
-369 -509 365 0
-369 -511 367 0
-369 -515 371 0
-369 -517 373 0
-369 -519 375 0
-369 -521 377 0
371 541 0
-371 -541 0
-371 -523 343 0
-371 -525 345 0
-371 -527 347 0
-371 -529 349 0
-371 -531 351 0
-371 -533 353 0
-371 -535 355 0
-371 -537 357 0
-371 -539 359 0
-371 -543 363 0
-371 -545 365 0
-371 -547 367 0
-371 -549 369 0
-371 -553 373 0
-371 -555 375 0
-371 -557 377 0
373 577 0
-373 -577 0
-373 -559 343 0
-373 -561 345 0
-373 -563 347 0
-373 -565 349 0
-373 -567 351 0
-373 -569 353 0
-373 -571 355 0
-373 -573 357 0
-373 -575 359 0
-373 -579 363 0
-373 -581 365 0
-373 -583 367 0
-373 -585 369 0
-373 -587 371 0
-373 -591 375 0
-373 -593 377 0
375 613 0
-375 -613 0
-375 -595 343 0
-375 -597 345 0
-375 -599 347 0
-375 -601 349 0
-375 -603 351 0
-375 -605 353 0
-375 -607 355 0
-375 -609 357 0
-375 -611 359 0
-375 -615 363 0
-375 -617 365 0
-375 -619 367 0
-375 -621 369 0
-375 -623 371 0
-375 -625 373 0
-375 -629 377 0
377 649 0
-377 -649 0
-377 -631 343 0
-377 -633 345 0
-377 -635 347 0
-377 -637 349 0
-377 -639 351 0
-377 -641 353 0
-377 -643 355 0
-377 -645 357 0
-377 -647 359 0
-377 -651 363 0
-377 -653 365 0
-377 -655 367 0
-377 -657 369 0
-377 -659 371 0
-377 -661 373 0
-377 -663 375 0
399 0
379 31 0
-379 -31 0
-379 -4 381 0
-379 -7 383 0
-379 -10 385 0
-379 -13 387 0
-379 -16 389 0
-379 -19 391 0
-379 -22 393 0
-379 -25 395 0
-379 -28 397 0
-379 -34 401 0
-379 -37 403 0
-379 -40 405 0
-379 -43 407 0
-379 -46 409 0
-379 -49 411 0
-379 -52 413 0
381 75 0
-381 -75 0
-381 -55 379 0
-381 -59 383 0
-381 -61 385 0
-381 -63 387 0
-381 -65 389 0
-381 -67 391 0
-381 -69 393 0
-381 -71 395 0
-381 -73 397 0
-381 -77 401 0
-381 -79 403 0
-381 -81 405 0
-381 -83 407 0
-381 -85 409 0
-381 -87 411 0
-381 -89 413 0
383 111 0
-383 -111 0
-383 -91 379 0
-383 -93 381 0
-383 -97 385 0
-383 -99 387 0
-383 -101 389 0
-383 -103 391 0
-383 -105 393 0
-383 -107 395 0
-383 -109 397 0
-383 -113 401 0
-383 -115 403 0
-383 -117 405 0
-383 -119 407 0
-383 -121 409 0
-383 -123 411 0
-383 -125 413 0
385 147 0
-385 -147 0
-385 -127 379 0
-385 -129 381 0
-385 -131 383 0
-385 -135 387 0
-385 -137 389 0
-385 -139 391 0
-385 -141 393 0
-385 -143 395 0
-385 -145 397 0
-385 -149 401 0
-385 -151 403 0
-385 -153 405 0
-385 -155 407 0
-385 -157 409 0
-385 -159 411 0
-385 -161 413 0
387 183 0
-387 -183 0
-387 -163 379 0
-387 -165 381 0
-387 -167 383 0
-387 -169 385 0
-387 -173 389 0
-387 -175 391 0
-387 -177 393 0
-387 -179 395 0
-387 -181 397 0
-387 -185 401 0
-387 -187 403 0
-387 -189 405 0
-387 -191 407 0
-387 -193 409 0
-387 -195 411 0
-387 -197 413 0
389 219 0
-389 -219 0
-389 -199 379 0
-389 -201 381 0
-389 -203 383 0
-389 -205 385 0
-389 -207 387 0
-389 -211 391 0
-389 -213 393 0
-389 -215 395 0
-389 -217 397 0
-389 -221 401 0
-389 -223 403 0
-389 -225 405 0
-389 -227 407 0
-389 -229 409 0
-389 -231 411 0
-389 -233 413 0
391 255 0
-391 -255 0
-391 -235 379 0
-391 -237 381 0
-391 -239 383 0
-391 -241 385 0
-391 -243 387 0
-391 -245 389 0
-391 -249 393 0
-391 -251 395 0
-391 -253 397 0
-391 -257 401 0
-391 -259 403 0
-391 -261 405 0
-391 -263 407 0
-391 -265 409 0
-391 -267 411 0
-391 -269 413 0
393 291 0
-393 -291 0
-393 -271 379 0
-393 -273 381 0
-393 -275 383 0
-393 -277 385 0
-393 -279 387 0
-393 -281 389 0
-393 -283 391 0
-393 -287 395 0
-393 -289 397 0
-393 -293 401 0
-393 -295 403 0
-393 -297 405 0
-393 -299 407 0
-393 -301 409 0
-393 -303 411 0
-393 -305 413 0
395 327 0
-395 -327 0
-395 -307 379 0
-395 -309 381 0
-395 -311 383 0
-395 -313 385 0
-395 -315 387 0
-395 -317 389 0
-395 -319 391 0
-395 -321 393 0
-395 -325 397 0
-395 -329 401 0
-395 -331 403 0
-395 -333 405 0
-395 -335 407 0
-395 -337 409 0
-395 -339 411 0
-395 -341 413 0
397 363 0
-397 -363 0
-397 -343 379 0
-397 -345 381 0
-397 -347 383 0
-397 -349 385 0
-397 -351 387 0
-397 -353 389 0
-397 -355 391 0
-397 -357 393 0
-397 -359 395 0
-397 -365 401 0
-397 -367 403 0
-397 -369 405 0
-397 -371 407 0
-397 -373 409 0
-397 -375 411 0
-397 -377 413 0
401 435 0
-401 -435 0
-401 -415 379 0
-401 -417 381 0
-401 -419 383 0
-401 -421 385 0
-401 -423 387 0
-401 -425 389 0
-401 -427 391 0
-401 -429 393 0
-401 -431 395 0
-401 -433 397 0
-401 -439 403 0
-401 -441 405 0
-401 -443 407 0
-401 -445 409 0
-401 -447 411 0
-401 -449 413 0
403 471 0
-403 -471 0
-403 -451 379 0
-403 -453 381 0
-403 -455 383 0
-403 -457 385 0
-403 -459 387 0
-403 -461 389 0
-403 -463 391 0
-403 -465 393 0
-403 -467 395 0
-403 -469 397 0
-403 -473 401 0
-403 -477 405 0
-403 -479 407 0
-403 -481 409 0
-403 -483 411 0
-403 -485 413 0
405 507 0
-405 -507 0
-405 -487 379 0
-405 -489 381 0
-405 -491 383 0
-405 -493 385 0
-405 -495 387 0
-405 -497 389 0
-405 -499 391 0
-405 -501 393 0
-405 -503 395 0
-405 -505 397 0
-405 -509 401 0
-405 -511 403 0
-405 -515 407 0
-405 -517 409 0
-405 -519 411 0
-405 -521 413 0
407 543 0
-407 -543 0
-407 -523 379 0
-407 -525 381 0
-407 -527 383 0
-407 -529 385 0
-407 -531 387 0
-407 -533 389 0
-407 -535 391 0
-407 -537 393 0
-407 -539 395 0
-407 -541 397 0
-407 -545 401 0
-407 -547 403 0
-407 -549 405 0
-407 -553 409 0
-407 -555 411 0
-407 -557 413 0
409 579 0
-409 -579 0
-409 -559 379 0
-409 -561 381 0
-409 -563 383 0
-409 -565 385 0
-409 -567 387 0
-409 -569 389 0
-409 -571 391 0
-409 -573 393 0
-409 -575 395 0
-409 -577 397 0
-409 -581 401 0
-409 -583 403 0
-409 -585 405 0
-409 -587 407 0
-409 -591 411 0
-409 -593 413 0
411 615 0
-411 -615 0
-411 -595 379 0
-411 -597 381 0
-411 -599 383 0
-411 -601 385 0
-411 -603 387 0
-411 -605 389 0
-411 -607 391 0
-411 -609 393 0
-411 -611 395 0
-411 -613 397 0
-411 -617 401 0
-411 -619 403 0
-411 -621 405 0
-411 -623 407 0
-411 -625 409 0
-411 -629 413 0
413 651 0
-413 -651 0
-413 -631 379 0
-413 -633 381 0
-413 -635 383 0
-413 -637 385 0
-413 -639 387 0
-413 -641 389 0
-413 -643 391 0
-413 -645 393 0
-413 -647 395 0
-413 -649 397 0
-413 -653 401 0
-413 -655 403 0
-413 -657 405 0
-413 -659 407 0
-413 -661 409 0
-413 -663 411 0
437 0
415 34 0
-415 -34 0
-415 -4 417 0
-415 -7 419 0
-415 -10 421 0
-415 -13 423 0
-415 -16 425 0
-415 -19 427 0
-415 -22 429 0
-415 -25 431 0
-415 -28 433 0
-415 -31 435 0
-415 -37 439 0
-415 -40 441 0
-415 -43 443 0
-415 -46 445 0
-415 -49 447 0
-415 -52 449 0
417 77 0
-417 -77 0
-417 -55 415 0
-417 -59 419 0
-417 -61 421 0
-417 -63 423 0
-417 -65 425 0
-417 -67 427 0
-417 -69 429 0
-417 -71 431 0
-417 -73 433 0
-417 -75 435 0
-417 -79 439 0
-417 -81 441 0
-417 -83 443 0
-417 -85 445 0
-417 -87 447 0
-417 -89 449 0
419 113 0
-419 -113 0
-419 -91 415 0
-419 -93 417 0
-419 -97 421 0
-419 -99 423 0
-419 -101 425 0
-419 -103 427 0
-419 -105 429 0
-419 -107 431 0
-419 -109 433 0
-419 -111 435 0
-419 -115 439 0
-419 -117 441 0
-419 -119 443 0
-419 -121 445 0
-419 -123 447 0
-419 -125 449 0
421 149 0
-421 -149 0
-421 -127 415 0
-421 -129 417 0
-421 -131 419 0
-421 -135 423 0
-421 -137 425 0
-421 -139 427 0
-421 -141 429 0
-421 -143 431 0
-421 -145 433 0
-421 -147 435 0
-421 -151 439 0
-421 -153 441 0
-421 -155 443 0
-421 -157 445 0
-421 -159 447 0
-421 -161 449 0
423 185 0
-423 -185 0
-423 -163 415 0
-423 -165 417 0
-423 -167 419 0
-423 -169 421 0
-423 -173 425 0
-423 -175 427 0
-423 -177 429 0
-423 -179 431 0
-423 -181 433 0
-423 -183 435 0
-423 -187 439 0
-423 -189 441 0
-423 -191 443 0
-423 -193 445 0
-423 -195 447 0
-423 -197 449 0
425 221 0
-425 -221 0
-425 -199 415 0
-425 -201 417 0
-425 -203 419 0
-425 -205 421 0
-425 -207 423 0
-425 -211 427 0
-425 -213 429 0
-425 -215 431 0
-425 -217 433 0
-425 -219 435 0
-425 -223 439 0
-425 -225 441 0
-425 -227 443 0
-425 -229 445 0
-425 -231 447 0
-425 -233 449 0
427 257 0
-427 -257 0
-427 -235 415 0
-427 -237 417 0
-427 -239 419 0
-427 -241 421 0
-427 -243 423 0
-427 -245 425 0
-427 -249 429 0
-427 -251 431 0
-427 -253 433 0
-427 -255 435 0
-427 -259 439 0
-427 -261 441 0
-427 -263 443 0
-427 -265 445 0
-427 -267 447 0
-427 -269 449 0
429 293 0
-429 -293 0
-429 -271 415 0
-429 -273 417 0
-429 -275 419 0
-429 -277 421 0
-429 -279 423 0
-429 -281 425 0
-429 -283 427 0
-429 -287 431 0
-429 -289 433 0
-429 -291 435 0
-429 -295 439 0
-429 -297 441 0
-429 -299 443 0
-429 -301 445 0
-429 -303 447 0
-429 -305 449 0
431 329 0
-431 -329 0
-431 -307 415 0
-431 -309 417 0
-431 -311 419 0
-431 -313 421 0
-431 -315 423 0
-431 -317 425 0
-431 -319 427 0
-431 -321 429 0
-431 -325 433 0
-431 -327 435 0
-431 -331 439 0
-431 -333 441 0
-431 -335 443 0
-431 -337 445 0
-431 -339 447 0
-431 -341 449 0
433 365 0
-433 -365 0
-433 -343 415 0
-433 -345 417 0
-433 -347 419 0
-433 -349 421 0
-433 -351 423 0
-433 -353 425 0
-433 -355 427 0
-433 -357 429 0
-433 -359 431 0
-433 -363 435 0
-433 -367 439 0
-433 -369 441 0
-433 -371 443 0
-433 -373 445 0
-433 -375 447 0
-433 -377 449 0
435 401 0
-435 -401 0
-435 -379 415 0
-435 -381 417 0
-435 -383 419 0
-435 -385 421 0
-435 -387 423 0
-435 -389 425 0
-435 -391 427 0
-435 -393 429 0
-435 -395 431 0
-435 -397 433 0
-435 -403 439 0
-435 -405 441 0
-435 -407 443 0
-435 -409 445 0
-435 -411 447 0
-435 -413 449 0
439 473 0
-439 -473 0
-439 -451 415 0
-439 -453 417 0
-439 -455 419 0
-439 -457 421 0
-439 -459 423 0
-439 -461 425 0
-439 -463 427 0
-439 -465 429 0
-439 -467 431 0
-439 -469 433 0
-439 -471 435 0
-439 -477 441 0
-439 -479 443 0
-439 -481 445 0
-439 -483 447 0
-439 -485 449 0
441 509 0
-441 -509 0
-441 -487 415 0
-441 -489 417 0
-441 -491 419 0
-441 -493 421 0
-441 -495 423 0
-441 -497 425 0
-441 -499 427 0
-441 -501 429 0
-441 -503 431 0
-441 -505 433 0
-441 -507 435 0
-441 -511 439 0
-441 -515 443 0
-441 -517 445 0
-441 -519 447 0
-441 -521 449 0
443 545 0
-443 -545 0
-443 -523 415 0
-443 -525 417 0
-443 -527 419 0
-443 -529 421 0
-443 -531 423 0
-443 -533 425 0
-443 -535 427 0
-443 -537 429 0
-443 -539 431 0
-443 -541 433 0
-443 -543 435 0
-443 -547 439 0
-443 -549 441 0
-443 -553 445 0
-443 -555 447 0
-443 -557 449 0
445 581 0
-445 -581 0
-445 -559 415 0
-445 -561 417 0
-445 -563 419 0
-445 -565 421 0
-445 -567 423 0
-445 -569 425 0
-445 -571 427 0
-445 -573 429 0
-445 -575 431 0
-445 -577 433 0
-445 -579 435 0
-445 -583 439 0
-445 -585 441 0
-445 -587 443 0
-445 -591 447 0
-445 -593 449 0
447 617 0
-447 -617 0
-447 -595 415 0
-447 -597 417 0
-447 -599 419 0
-447 -601 421 0
-447 -603 423 0
-447 -605 425 0
-447 -607 427 0
-447 -609 429 0
-447 -611 431 0
-447 -613 433 0
-447 -615 435 0
-447 -619 439 0
-447 -621 441 0
-447 -623 443 0
-447 -625 445 0
-447 -629 449 0
449 653 0
-449 -653 0
-449 -631 415 0
-449 -633 417 0
-449 -635 419 0
-449 -637 421 0
-449 -639 423 0
-449 -641 425 0
-449 -643 427 0
-449 -645 429 0
-449 -647 431 0
-449 -649 433 0
-449 -651 435 0
-449 -655 439 0
-449 -657 441 0
-449 -659 443 0
-449 -661 445 0
-449 -663 447 0
475 0
451 37 0
-451 -37 0
-451 -4 453 0
-451 -7 455 0
-451 -10 457 0
-451 -13 459 0
-451 -16 461 0
-451 -19 463 0
-451 -22 465 0
-451 -25 467 0
-451 -28 469 0
-451 -31 471 0
-451 -34 473 0
-451 -40 477 0
-451 -43 479 0
-451 -46 481 0
-451 -49 483 0
-451 -52 485 0
453 79 0
-453 -79 0
-453 -55 451 0
-453 -59 455 0
-453 -61 457 0
-453 -63 459 0
-453 -65 461 0
-453 -67 463 0
-453 -69 465 0
-453 -71 467 0
-453 -73 469 0
-453 -75 471 0
-453 -77 473 0
-453 -81 477 0
-453 -83 479 0
-453 -85 481 0
-453 -87 483 0
-453 -89 485 0
455 115 0
-455 -115 0
-455 -91 451 0
-455 -93 453 0
-455 -97 457 0
-455 -99 459 0
-455 -101 461 0
-455 -103 463 0
-455 -105 465 0
-455 -107 467 0
-455 -109 469 0
-455 -111 471 0
-455 -113 473 0
-455 -117 477 0
-455 -119 479 0
-455 -121 481 0
-455 -123 483 0
-455 -125 485 0
457 151 0
-457 -151 0
-457 -127 451 0
-457 -129 453 0
-457 -131 455 0
-457 -135 459 0
-457 -137 461 0
-457 -139 463 0
-457 -141 465 0
-457 -143 467 0
-457 -145 469 0
-457 -147 471 0
-457 -149 473 0
-457 -153 477 0
-457 -155 479 0
-457 -157 481 0
-457 -159 483 0
-457 -161 485 0
459 187 0
-459 -187 0
-459 -163 451 0
-459 -165 453 0
-459 -167 455 0
-459 -169 457 0
-459 -173 461 0
-459 -175 463 0
-459 -177 465 0
-459 -179 467 0
-459 -181 469 0
-459 -183 471 0
-459 -185 473 0
-459 -189 477 0
-459 -191 479 0
-459 -193 481 0
-459 -195 483 0
-459 -197 485 0
461 223 0
-461 -223 0
-461 -199 451 0
-461 -201 453 0
-461 -203 455 0
-461 -205 457 0
-461 -207 459 0
-461 -211 463 0
-461 -213 465 0
-461 -215 467 0
-461 -217 469 0
-461 -219 471 0
-461 -221 473 0
-461 -225 477 0
-461 -227 479 0
-461 -229 481 0
-461 -231 483 0
-461 -233 485 0
463 259 0
-463 -259 0
-463 -235 451 0
-463 -237 453 0
-463 -239 455 0
-463 -241 457 0
-463 -243 459 0
-463 -245 461 0
-463 -249 465 0
-463 -251 467 0
-463 -253 469 0
-463 -255 471 0
-463 -257 473 0
-463 -261 477 0
-463 -263 479 0
-463 -265 481 0
-463 -267 483 0
-463 -269 485 0
465 295 0
-465 -295 0
-465 -271 451 0
-465 -273 453 0
-465 -275 455 0
-465 -277 457 0
-465 -279 459 0
-465 -281 461 0
-465 -283 463 0
-465 -287 467 0
-465 -289 469 0
-465 -291 471 0
-465 -293 473 0
-465 -297 477 0
-465 -299 479 0
-465 -301 481 0
-465 -303 483 0
-465 -305 485 0
467 331 0
-467 -331 0
-467 -307 451 0
-467 -309 453 0
-467 -311 455 0
-467 -313 457 0
-467 -315 459 0
-467 -317 461 0
-467 -319 463 0
-467 -321 465 0
-467 -325 469 0
-467 -327 471 0
-467 -329 473 0
-467 -333 477 0
-467 -335 479 0
-467 -337 481 0
-467 -339 483 0
-467 -341 485 0
469 367 0
-469 -367 0
-469 -343 451 0
-469 -345 453 0
-469 -347 455 0
-469 -349 457 0
-469 -351 459 0
-469 -353 461 0
-469 -355 463 0
-469 -357 465 0
-469 -359 467 0
-469 -363 471 0
-469 -365 473 0
-469 -369 477 0
-469 -371 479 0
-469 -373 481 0
-469 -375 483 0
-469 -377 485 0
471 403 0
-471 -403 0
-471 -379 451 0
-471 -381 453 0
-471 -383 455 0
-471 -385 457 0
-471 -387 459 0
-471 -389 461 0
-471 -391 463 0
-471 -393 465 0
-471 -395 467 0
-471 -397 469 0
-471 -401 473 0
-471 -405 477 0
-471 -407 479 0
-471 -409 481 0
-471 -411 483 0
-471 -413 485 0
473 439 0
-473 -439 0
-473 -415 451 0
-473 -417 453 0
-473 -419 455 0
-473 -421 457 0
-473 -423 459 0
-473 -425 461 0
-473 -427 463 0
-473 -429 465 0
-473 -431 467 0
-473 -433 469 0
-473 -435 471 0
-473 -441 477 0
-473 -443 479 0
-473 -445 481 0
-473 -447 483 0
-473 -449 485 0
477 511 0
-477 -511 0
-477 -487 451 0
-477 -489 453 0
-477 -491 455 0
-477 -493 457 0
-477 -495 459 0
-477 -497 461 0
-477 -499 463 0
-477 -501 465 0
-477 -503 467 0
-477 -505 469 0
-477 -507 471 0
-477 -509 473 0
-477 -515 479 0
-477 -517 481 0
-477 -519 483 0
-477 -521 485 0
479 547 0
-479 -547 0
-479 -523 451 0
-479 -525 453 0
-479 -527 455 0
-479 -529 457 0
-479 -531 459 0
-479 -533 461 0
-479 -535 463 0
-479 -537 465 0
-479 -539 467 0
-479 -541 469 0
-479 -543 471 0
-479 -545 473 0
-479 -549 477 0
-479 -553 481 0
-479 -555 483 0
-479 -557 485 0
481 583 0
-481 -583 0
-481 -559 451 0
-481 -561 453 0
-481 -563 455 0
-481 -565 457 0
-481 -567 459 0
-481 -569 461 0
-481 -571 463 0
-481 -573 465 0
-481 -575 467 0
-481 -577 469 0
-481 -579 471 0
-481 -581 473 0
-481 -585 477 0
-481 -587 479 0
-481 -591 483 0
-481 -593 485 0
483 619 0
-483 -619 0
-483 -595 451 0
-483 -597 453 0
-483 -599 455 0
-483 -601 457 0
-483 -603 459 0
-483 -605 461 0
-483 -607 463 0
-483 -609 465 0
-483 -611 467 0
-483 -613 469 0
-483 -615 471 0
-483 -617 473 0
-483 -621 477 0
-483 -623 479 0
-483 -625 481 0
-483 -629 485 0
485 655 0
-485 -655 0
-485 -631 451 0
-485 -633 453 0
-485 -635 455 0
-485 -637 457 0
-485 -639 459 0
-485 -641 461 0
-485 -643 463 0
-485 -645 465 0
-485 -647 467 0
-485 -649 469 0
-485 -651 471 0
-485 -653 473 0
-485 -657 477 0
-485 -659 479 0
-485 -661 481 0
-485 -663 483 0
513 0
487 40 0
-487 -40 0
-487 -4 489 0
-487 -7 491 0
-487 -10 493 0
-487 -13 495 0
-487 -16 497 0
-487 -19 499 0
-487 -22 501 0
-487 -25 503 0
-487 -28 505 0
-487 -31 507 0
-487 -34 509 0
-487 -37 511 0
-487 -43 515 0
-487 -46 517 0
-487 -49 519 0
-487 -52 521 0
489 81 0
-489 -81 0
-489 -55 487 0
-489 -59 491 0
-489 -61 493 0
-489 -63 495 0
-489 -65 497 0
-489 -67 499 0
-489 -69 501 0
-489 -71 503 0
-489 -73 505 0
-489 -75 507 0
-489 -77 509 0
-489 -79 511 0
-489 -83 515 0
-489 -85 517 0
-489 -87 519 0
-489 -89 521 0
491 117 0
-491 -117 0
-491 -91 487 0
-491 -93 489 0
-491 -97 493 0
-491 -99 495 0
-491 -101 497 0
-491 -103 499 0
-491 -105 501 0
-491 -107 503 0
-491 -109 505 0
-491 -111 507 0
-491 -113 509 0
-491 -115 511 0
-491 -119 515 0
-491 -121 517 0
-491 -123 519 0
-491 -125 521 0
493 153 0
-493 -153 0
-493 -127 487 0
-493 -129 489 0
-493 -131 491 0
-493 -135 495 0
-493 -137 497 0
-493 -139 499 0
-493 -141 501 0
-493 -143 503 0
-493 -145 505 0
-493 -147 507 0
-493 -149 509 0
-493 -151 511 0
-493 -155 515 0
-493 -157 517 0
-493 -159 519 0
-493 -161 521 0
495 189 0
-495 -189 0
-495 -163 487 0
-495 -165 489 0
-495 -167 491 0
-495 -169 493 0
-495 -173 497 0
-495 -175 499 0
-495 -177 501 0
-495 -179 503 0
-495 -181 505 0
-495 -183 507 0
-495 -185 509 0
-495 -187 511 0
-495 -191 515 0
-495 -193 517 0
-495 -195 519 0
-495 -197 521 0
497 225 0
-497 -225 0
-497 -199 487 0
-497 -201 489 0
-497 -203 491 0
-497 -205 493 0
-497 -207 495 0
-497 -211 499 0
-497 -213 501 0
-497 -215 503 0
-497 -217 505 0
-497 -219 507 0
-497 -221 509 0
-497 -223 511 0
-497 -227 515 0
-497 -229 517 0
-497 -231 519 0
-497 -233 521 0
499 261 0
-499 -261 0
-499 -235 487 0
-499 -237 489 0
-499 -239 491 0
-499 -241 493 0
-499 -243 495 0
-499 -245 497 0
-499 -249 501 0
-499 -251 503 0
-499 -253 505 0
-499 -255 507 0
-499 -257 509 0
-499 -259 511 0
-499 -263 515 0
-499 -265 517 0
-499 -267 519 0
-499 -269 521 0
501 297 0
-501 -297 0
-501 -271 487 0
-501 -273 489 0
-501 -275 491 0
-501 -277 493 0
-501 -279 495 0
-501 -281 497 0
-501 -283 499 0
-501 -287 503 0
-501 -289 505 0
-501 -291 507 0
-501 -293 509 0
-501 -295 511 0
-501 -299 515 0
-501 -301 517 0
-501 -303 519 0
-501 -305 521 0
503 333 0
-503 -333 0
-503 -307 487 0
-503 -309 489 0
-503 -311 491 0
-503 -313 493 0
-503 -315 495 0
-503 -317 497 0
-503 -319 499 0
-503 -321 501 0
-503 -325 505 0
-503 -327 507 0
-503 -329 509 0
-503 -331 511 0
-503 -335 515 0
-503 -337 517 0
-503 -339 519 0
-503 -341 521 0
505 369 0
-505 -369 0
-505 -343 487 0
-505 -345 489 0
-505 -347 491 0
-505 -349 493 0
-505 -351 495 0
-505 -353 497 0
-505 -355 499 0
-505 -357 501 0
-505 -359 503 0
-505 -363 507 0
-505 -365 509 0
-505 -367 511 0
-505 -371 515 0
-505 -373 517 0
-505 -375 519 0
-505 -377 521 0
507 405 0
-507 -405 0
-507 -379 487 0
-507 -381 489 0
-507 -383 491 0
-507 -385 493 0
-507 -387 495 0
-507 -389 497 0
-507 -391 499 0
-507 -393 501 0
-507 -395 503 0
-507 -397 505 0
-507 -401 509 0
-507 -403 511 0
-507 -407 515 0
-507 -409 517 0
-507 -411 519 0
-507 -413 521 0
509 441 0
-509 -441 0
-509 -415 487 0
-509 -417 489 0
-509 -419 491 0
-509 -421 493 0
-509 -423 495 0
-509 -425 497 0
-509 -427 499 0
-509 -429 501 0
-509 -431 503 0
-509 -433 505 0
-509 -435 507 0
-509 -439 511 0
-509 -443 515 0
-509 -445 517 0
-509 -447 519 0
-509 -449 521 0
511 477 0
-511 -477 0
-511 -451 487 0
-511 -453 489 0
-511 -455 491 0
-511 -457 493 0
-511 -459 495 0
-511 -461 497 0
-511 -463 499 0
-511 -465 501 0
-511 -467 503 0
-511 -469 505 0
-511 -471 507 0
-511 -473 509 0
-511 -479 515 0
-511 -481 517 0
-511 -483 519 0
-511 -485 521 0
515 549 0
-515 -549 0
-515 -523 487 0
-515 -525 489 0
-515 -527 491 0
-515 -529 493 0
-515 -531 495 0
-515 -533 497 0
-515 -535 499 0
-515 -537 501 0
-515 -539 503 0
-515 -541 505 0
-515 -543 507 0
-515 -545 509 0
-515 -547 511 0
-515 -553 517 0
-515 -555 519 0
-515 -557 521 0
517 585 0
-517 -585 0
-517 -559 487 0
-517 -561 489 0
-517 -563 491 0
-517 -565 493 0
-517 -567 495 0
-517 -569 497 0
-517 -571 499 0
-517 -573 501 0
-517 -575 503 0
-517 -577 505 0
-517 -579 507 0
-517 -581 509 0
-517 -583 511 0
-517 -587 515 0
-517 -591 519 0
-517 -593 521 0
519 621 0
-519 -621 0
-519 -595 487 0
-519 -597 489 0
-519 -599 491 0
-519 -601 493 0
-519 -603 495 0
-519 -605 497 0
-519 -607 499 0
-519 -609 501 0
-519 -611 503 0
-519 -613 505 0
-519 -615 507 0
-519 -617 509 0
-519 -619 511 0
-519 -623 515 0
-519 -625 517 0
-519 -629 521 0
521 657 0
-521 -657 0
-521 -631 487 0
-521 -633 489 0
-521 -635 491 0
-521 -637 493 0
-521 -639 495 0
-521 -641 497 0
-521 -643 499 0
-521 -645 501 0
-521 -647 503 0
-521 -649 505 0
-521 -651 507 0
-521 -653 509 0
-521 -655 511 0
-521 -659 515 0
-521 -661 517 0
-521 -663 519 0
551 0
523 43 0
-523 -43 0
-523 -4 525 0
-523 -7 527 0
-523 -10 529 0
-523 -13 531 0
-523 -16 533 0
-523 -19 535 0
-523 -22 537 0
-523 -25 539 0
-523 -28 541 0
-523 -31 543 0
-523 -34 545 0
-523 -37 547 0
-523 -40 549 0
-523 -46 553 0
-523 -49 555 0
-523 -52 557 0
525 83 0
-525 -83 0
-525 -55 523 0
-525 -59 527 0
-525 -61 529 0
-525 -63 531 0
-525 -65 533 0
-525 -67 535 0
-525 -69 537 0
-525 -71 539 0
-525 -73 541 0
-525 -75 543 0
-525 -77 545 0
-525 -79 547 0
-525 -81 549 0
-525 -85 553 0
-525 -87 555 0
-525 -89 557 0
527 119 0
-527 -119 0
-527 -91 523 0
-527 -93 525 0
-527 -97 529 0
-527 -99 531 0
-527 -101 533 0
-527 -103 535 0
-527 -105 537 0
-527 -107 539 0
-527 -109 541 0
-527 -111 543 0
-527 -113 545 0
-527 -115 547 0
-527 -117 549 0
-527 -121 553 0
-527 -123 555 0
-527 -125 557 0
529 155 0
-529 -155 0
-529 -127 523 0
-529 -129 525 0
-529 -131 527 0
-529 -135 531 0
-529 -137 533 0
-529 -139 535 0
-529 -141 537 0
-529 -143 539 0
-529 -145 541 0
-529 -147 543 0
-529 -149 545 0
-529 -151 547 0
-529 -153 549 0
-529 -157 553 0
-529 -159 555 0
-529 -161 557 0
531 191 0
-531 -191 0
-531 -163 523 0
-531 -165 525 0
-531 -167 527 0
-531 -169 529 0
-531 -173 533 0
-531 -175 535 0
-531 -177 537 0
-531 -179 539 0
-531 -181 541 0
-531 -183 543 0
-531 -185 545 0
-531 -187 547 0
-531 -189 549 0
-531 -193 553 0
-531 -195 555 0
-531 -197 557 0
533 227 0
-533 -227 0
-533 -199 523 0
-533 -201 525 0
-533 -203 527 0
-533 -205 529 0
-533 -207 531 0
-533 -211 535 0
-533 -213 537 0
-533 -215 539 0
-533 -217 541 0
-533 -219 543 0
-533 -221 545 0
-533 -223 547 0
-533 -225 549 0
-533 -229 553 0
-533 -231 555 0
-533 -233 557 0
535 263 0
-535 -263 0
-535 -235 523 0
-535 -237 525 0
-535 -239 527 0
-535 -241 529 0
-535 -243 531 0
-535 -245 533 0
-535 -249 537 0
-535 -251 539 0
-535 -253 541 0
-535 -255 543 0
-535 -257 545 0
-535 -259 547 0
-535 -261 549 0
-535 -265 553 0
-535 -267 555 0
-535 -269 557 0
537 299 0
-537 -299 0
-537 -271 523 0
-537 -273 525 0
-537 -275 527 0
-537 -277 529 0
-537 -279 531 0
-537 -281 533 0
-537 -283 535 0
-537 -287 539 0
-537 -289 541 0
-537 -291 543 0
-537 -293 545 0
-537 -295 547 0
-537 -297 549 0
-537 -301 553 0
-537 -303 555 0
-537 -305 557 0
539 335 0
-539 -335 0
-539 -307 523 0
-539 -309 525 0
-539 -311 527 0
-539 -313 529 0
-539 -315 531 0
-539 -317 533 0
-539 -319 535 0
-539 -321 537 0
-539 -325 541 0
-539 -327 543 0
-539 -329 545 0
-539 -331 547 0
-539 -333 549 0
-539 -337 553 0
-539 -339 555 0
-539 -341 557 0
541 371 0
-541 -371 0
-541 -343 523 0
-541 -345 525 0
-541 -347 527 0
-541 -349 529 0
-541 -351 531 0
-541 -353 533 0
-541 -355 535 0
-541 -357 537 0
-541 -359 539 0
-541 -363 543 0
-541 -365 545 0
-541 -367 547 0
-541 -369 549 0
-541 -373 553 0
-541 -375 555 0
-541 -377 557 0
543 407 0
-543 -407 0
-543 -379 523 0
-543 -381 525 0
-543 -383 527 0
-543 -385 529 0
-543 -387 531 0
-543 -389 533 0
-543 -391 535 0
-543 -393 537 0
-543 -395 539 0
-543 -397 541 0
-543 -401 545 0
-543 -403 547 0
-543 -405 549 0
-543 -409 553 0
-543 -411 555 0
-543 -413 557 0
545 443 0
-545 -443 0
-545 -415 523 0
-545 -417 525 0
-545 -419 527 0
-545 -421 529 0
-545 -423 531 0
-545 -425 533 0
-545 -427 535 0
-545 -429 537 0
-545 -431 539 0
-545 -433 541 0
-545 -435 543 0
-545 -439 547 0
-545 -441 549 0
-545 -445 553 0
-545 -447 555 0
-545 -449 557 0
547 479 0
-547 -479 0
-547 -451 523 0
-547 -453 525 0
-547 -455 527 0
-547 -457 529 0
-547 -459 531 0
-547 -461 533 0
-547 -463 535 0
-547 -465 537 0
-547 -467 539 0
-547 -469 541 0
-547 -471 543 0
-547 -473 545 0
-547 -477 549 0
-547 -481 553 0
-547 -483 555 0
-547 -485 557 0
549 515 0
-549 -515 0
-549 -487 523 0
-549 -489 525 0
-549 -491 527 0
-549 -493 529 0
-549 -495 531 0
-549 -497 533 0
-549 -499 535 0
-549 -501 537 0
-549 -503 539 0
-549 -505 541 0
-549 -507 543 0
-549 -509 545 0
-549 -511 547 0
-549 -517 553 0
-549 -519 555 0
-549 -521 557 0
553 587 0
-553 -587 0
-553 -559 523 0
-553 -561 525 0
-553 -563 527 0
-553 -565 529 0
-553 -567 531 0
-553 -569 533 0
-553 -571 535 0
-553 -573 537 0
-553 -575 539 0
-553 -577 541 0
-553 -579 543 0
-553 -581 545 0
-553 -583 547 0
-553 -585 549 0
-553 -591 555 0
-553 -593 557 0
555 623 0
-555 -623 0
-555 -595 523 0
-555 -597 525 0
-555 -599 527 0
-555 -601 529 0
-555 -603 531 0
-555 -605 533 0
-555 -607 535 0
-555 -609 537 0
-555 -611 539 0
-555 -613 541 0
-555 -615 543 0
-555 -617 545 0
-555 -619 547 0
-555 -621 549 0
-555 -625 553 0
-555 -629 557 0
557 659 0
-557 -659 0
-557 -631 523 0
-557 -633 525 0
-557 -635 527 0
-557 -637 529 0
-557 -639 531 0
-557 -641 533 0
-557 -643 535 0
-557 -645 537 0
-557 -647 539 0
-557 -649 541 0
-557 -651 543 0
-557 -653 545 0
-557 -655 547 0
-557 -657 549 0
-557 -661 553 0
-557 -663 555 0
589 0
559 46 0
-559 -46 0
-559 -4 561 0
-559 -7 563 0
-559 -10 565 0
-559 -13 567 0
-559 -16 569 0
-559 -19 571 0
-559 -22 573 0
-559 -25 575 0
-559 -28 577 0
-559 -31 579 0
-559 -34 581 0
-559 -37 583 0
-559 -40 585 0
-559 -43 587 0
-559 -49 591 0
-559 -52 593 0
561 85 0
-561 -85 0
-561 -55 559 0
-561 -59 563 0
-561 -61 565 0
-561 -63 567 0
-561 -65 569 0
-561 -67 571 0
-561 -69 573 0
-561 -71 575 0
-561 -73 577 0
-561 -75 579 0
-561 -77 581 0
-561 -79 583 0
-561 -81 585 0
-561 -83 587 0
-561 -87 591 0
-561 -89 593 0
563 121 0
-563 -121 0
-563 -91 559 0
-563 -93 561 0
-563 -97 565 0
-563 -99 567 0
-563 -101 569 0
-563 -103 571 0
-563 -105 573 0
-563 -107 575 0
-563 -109 577 0
-563 -111 579 0
-563 -113 581 0
-563 -115 583 0
-563 -117 585 0
-563 -119 587 0
-563 -123 591 0
-563 -125 593 0
565 157 0
-565 -157 0
-565 -127 559 0
-565 -129 561 0
-565 -131 563 0
-565 -135 567 0
-565 -137 569 0
-565 -139 571 0
-565 -141 573 0
-565 -143 575 0
-565 -145 577 0
-565 -147 579 0
-565 -149 581 0
-565 -151 583 0
-565 -153 585 0
-565 -155 587 0
-565 -159 591 0
-565 -161 593 0
567 193 0
-567 -193 0
-567 -163 559 0
-567 -165 561 0
-567 -167 563 0
-567 -169 565 0
-567 -173 569 0
-567 -175 571 0
-567 -177 573 0
-567 -179 575 0
-567 -181 577 0
-567 -183 579 0
-567 -185 581 0
-567 -187 583 0
-567 -189 585 0
-567 -191 587 0
-567 -195 591 0
-567 -197 593 0
569 229 0
-569 -229 0
-569 -199 559 0
-569 -201 561 0
-569 -203 563 0
-569 -205 565 0
-569 -207 567 0
-569 -211 571 0
-569 -213 573 0
-569 -215 575 0
-569 -217 577 0
-569 -219 579 0
-569 -221 581 0
-569 -223 583 0
-569 -225 585 0
-569 -227 587 0
-569 -231 591 0
-569 -233 593 0
571 265 0
-571 -265 0
-571 -235 559 0
-571 -237 561 0
-571 -239 563 0
-571 -241 565 0
-571 -243 567 0
-571 -245 569 0
-571 -249 573 0
-571 -251 575 0
-571 -253 577 0
-571 -255 579 0
-571 -257 581 0
-571 -259 583 0
-571 -261 585 0
-571 -263 587 0
-571 -267 591 0
-571 -269 593 0
573 301 0
-573 -301 0
-573 -271 559 0
-573 -273 561 0
-573 -275 563 0
-573 -277 565 0
-573 -279 567 0
-573 -281 569 0
-573 -283 571 0
-573 -287 575 0
-573 -289 577 0
-573 -291 579 0
-573 -293 581 0
-573 -295 583 0
-573 -297 585 0
-573 -299 587 0
-573 -303 591 0
-573 -305 593 0
575 337 0
-575 -337 0
-575 -307 559 0
-575 -309 561 0
-575 -311 563 0
-575 -313 565 0
-575 -315 567 0
-575 -317 569 0
-575 -319 571 0
-575 -321 573 0
-575 -325 577 0
-575 -327 579 0
-575 -329 581 0
-575 -331 583 0
-575 -333 585 0
-575 -335 587 0
-575 -339 591 0
-575 -341 593 0
577 373 0
-577 -373 0
-577 -343 559 0
-577 -345 561 0
-577 -347 563 0
-577 -349 565 0
-577 -351 567 0
-577 -353 569 0
-577 -355 571 0
-577 -357 573 0
-577 -359 575 0
-577 -363 579 0
-577 -365 581 0
-577 -367 583 0
-577 -369 585 0
-577 -371 587 0
-577 -375 591 0
-577 -377 593 0
579 409 0
-579 -409 0
-579 -379 559 0
-579 -381 561 0
-579 -383 563 0
-579 -385 565 0
-579 -387 567 0
-579 -389 569 0
-579 -391 571 0
-579 -393 573 0
-579 -395 575 0
-579 -397 577 0
-579 -401 581 0
-579 -403 583 0
-579 -405 585 0
-579 -407 587 0
-579 -411 591 0
-579 -413 593 0
581 445 0
-581 -445 0
-581 -415 559 0
-581 -417 561 0
-581 -419 563 0
-581 -421 565 0
-581 -423 567 0
-581 -425 569 0
-581 -427 571 0
-581 -429 573 0
-581 -431 575 0
-581 -433 577 0
-581 -435 579 0
-581 -439 583 0
-581 -441 585 0
-581 -443 587 0
-581 -447 591 0
-581 -449 593 0
583 481 0
-583 -481 0
-583 -451 559 0
-583 -453 561 0
-583 -455 563 0
-583 -457 565 0
-583 -459 567 0
-583 -461 569 0
-583 -463 571 0
-583 -465 573 0
-583 -467 575 0
-583 -469 577 0
-583 -471 579 0
-583 -473 581 0
-583 -477 585 0
-583 -479 587 0
-583 -483 591 0
-583 -485 593 0
585 517 0
-585 -517 0
-585 -487 559 0
-585 -489 561 0
-585 -491 563 0
-585 -493 565 0
-585 -495 567 0
-585 -497 569 0
-585 -499 571 0
-585 -501 573 0
-585 -503 575 0
-585 -505 577 0
-585 -507 579 0
-585 -509 581 0
-585 -511 583 0
-585 -515 587 0
-585 -519 591 0
-585 -521 593 0
587 553 0
-587 -553 0
-587 -523 559 0
-587 -525 561 0
-587 -527 563 0
-587 -529 565 0
-587 -531 567 0
-587 -533 569 0
-587 -535 571 0
-587 -537 573 0
-587 -539 575 0
-587 -541 577 0
-587 -543 579 0
-587 -545 581 0
-587 -547 583 0
-587 -549 585 0
-587 -555 591 0
-587 -557 593 0
591 625 0
-591 -625 0
-591 -595 559 0
-591 -597 561 0
-591 -599 563 0
-591 -601 565 0
-591 -603 567 0
-591 -605 569 0
-591 -607 571 0
-591 -609 573 0
-591 -611 575 0
-591 -613 577 0
-591 -615 579 0
-591 -617 581 0
-591 -619 583 0
-591 -621 585 0
-591 -623 587 0
-591 -629 593 0
593 661 0
-593 -661 0
-593 -631 559 0
-593 -633 561 0
-593 -635 563 0
-593 -637 565 0
-593 -639 567 0
-593 -641 569 0
-593 -643 571 0
-593 -645 573 0
-593 -647 575 0
-593 -649 577 0
-593 -651 579 0
-593 -653 581 0
-593 -655 583 0
-593 -657 585 0
-593 -659 587 0
-593 -663 591 0
627 0
595 49 0
-595 -49 0
-595 -4 597 0
-595 -7 599 0
-595 -10 601 0
-595 -13 603 0
-595 -16 605 0
-595 -19 607 0
-595 -22 609 0
-595 -25 611 0
-595 -28 613 0
-595 -31 615 0
-595 -34 617 0
-595 -37 619 0
-595 -40 621 0
-595 -43 623 0
-595 -46 625 0
-595 -52 629 0
597 87 0
-597 -87 0
-597 -55 595 0
-597 -59 599 0
-597 -61 601 0
-597 -63 603 0
-597 -65 605 0
-597 -67 607 0
-597 -69 609 0
-597 -71 611 0
-597 -73 613 0
-597 -75 615 0
-597 -77 617 0
-597 -79 619 0
-597 -81 621 0
-597 -83 623 0
-597 -85 625 0
-597 -89 629 0
599 123 0
-599 -123 0
-599 -91 595 0
-599 -93 597 0
-599 -97 601 0
-599 -99 603 0
-599 -101 605 0
-599 -103 607 0
-599 -105 609 0
-599 -107 611 0
-599 -109 613 0
-599 -111 615 0
-599 -113 617 0
-599 -115 619 0
-599 -117 621 0
-599 -119 623 0
-599 -121 625 0
-599 -125 629 0
601 159 0
-601 -159 0
-601 -127 595 0
-601 -129 597 0
-601 -131 599 0
-601 -135 603 0
-601 -137 605 0
-601 -139 607 0
-601 -141 609 0
-601 -143 611 0
-601 -145 613 0
-601 -147 615 0
-601 -149 617 0
-601 -151 619 0
-601 -153 621 0
-601 -155 623 0
-601 -157 625 0
-601 -161 629 0
603 195 0
-603 -195 0
-603 -163 595 0
-603 -165 597 0
-603 -167 599 0
-603 -169 601 0
-603 -173 605 0
-603 -175 607 0
-603 -177 609 0
-603 -179 611 0
-603 -181 613 0
-603 -183 615 0
-603 -185 617 0
-603 -187 619 0
-603 -189 621 0
-603 -191 623 0
-603 -193 625 0
-603 -197 629 0
605 231 0
-605 -231 0
-605 -199 595 0
-605 -201 597 0
-605 -203 599 0
-605 -205 601 0
-605 -207 603 0
-605 -211 607 0
-605 -213 609 0
-605 -215 611 0
-605 -217 613 0
-605 -219 615 0
-605 -221 617 0
-605 -223 619 0
-605 -225 621 0
-605 -227 623 0
-605 -229 625 0
-605 -233 629 0
607 267 0
-607 -267 0
-607 -235 595 0
-607 -237 597 0
-607 -239 599 0
-607 -241 601 0
-607 -243 603 0
-607 -245 605 0
-607 -249 609 0
-607 -251 611 0
-607 -253 613 0
-607 -255 615 0
-607 -257 617 0
-607 -259 619 0
-607 -261 621 0
-607 -263 623 0
-607 -265 625 0
-607 -269 629 0
609 303 0
-609 -303 0
-609 -271 595 0
-609 -273 597 0
-609 -275 599 0
-609 -277 601 0
-609 -279 603 0
-609 -281 605 0
-609 -283 607 0
-609 -287 611 0
-609 -289 613 0
-609 -291 615 0
-609 -293 617 0
-609 -295 619 0
-609 -297 621 0
-609 -299 623 0
-609 -301 625 0
-609 -305 629 0
611 339 0
-611 -339 0
-611 -307 595 0
-611 -309 597 0
-611 -311 599 0
-611 -313 601 0
-611 -315 603 0
-611 -317 605 0
-611 -319 607 0
-611 -321 609 0
-611 -325 613 0
-611 -327 615 0
-611 -329 617 0
-611 -331 619 0
-611 -333 621 0
-611 -335 623 0
-611 -337 625 0
-611 -341 629 0
613 375 0
-613 -375 0
-613 -343 595 0
-613 -345 597 0
-613 -347 599 0
-613 -349 601 0
-613 -351 603 0
-613 -353 605 0
-613 -355 607 0
-613 -357 609 0
-613 -359 611 0
-613 -363 615 0
-613 -365 617 0
-613 -367 619 0
-613 -369 621 0
-613 -371 623 0
-613 -373 625 0
-613 -377 629 0
615 411 0
-615 -411 0
-615 -379 595 0
-615 -381 597 0
-615 -383 599 0
-615 -385 601 0
-615 -387 603 0
-615 -389 605 0
-615 -391 607 0
-615 -393 609 0
-615 -395 611 0
-615 -397 613 0
-615 -401 617 0
-615 -403 619 0
-615 -405 621 0
-615 -407 623 0
-615 -409 625 0
-615 -413 629 0
617 447 0
-617 -447 0
-617 -415 595 0
-617 -417 597 0
-617 -419 599 0
-617 -421 601 0
-617 -423 603 0
-617 -425 605 0
-617 -427 607 0
-617 -429 609 0
-617 -431 611 0
-617 -433 613 0
-617 -435 615 0
-617 -439 619 0
-617 -441 621 0
-617 -443 623 0
-617 -445 625 0
-617 -449 629 0
619 483 0
-619 -483 0
-619 -451 595 0
-619 -453 597 0
-619 -455 599 0
-619 -457 601 0
-619 -459 603 0
-619 -461 605 0
-619 -463 607 0
-619 -465 609 0
-619 -467 611 0
-619 -469 613 0
-619 -471 615 0
-619 -473 617 0
-619 -477 621 0
-619 -479 623 0
-619 -481 625 0
-619 -485 629 0
621 519 0
-621 -519 0
-621 -487 595 0
-621 -489 597 0
-621 -491 599 0
-621 -493 601 0
-621 -495 603 0
-621 -497 605 0
-621 -499 607 0
-621 -501 609 0
-621 -503 611 0
-621 -505 613 0
-621 -507 615 0
-621 -509 617 0
-621 -511 619 0
-621 -515 623 0
-621 -517 625 0
-621 -521 629 0
623 555 0
-623 -555 0
-623 -523 595 0
-623 -525 597 0
-623 -527 599 0
-623 -529 601 0
-623 -531 603 0
-623 -533 605 0
-623 -535 607 0
-623 -537 609 0
-623 -539 611 0
-623 -541 613 0
-623 -543 615 0
-623 -545 617 0
-623 -547 619 0
-623 -549 621 0
-623 -553 625 0
-623 -557 629 0
625 591 0
-625 -591 0
-625 -559 595 0
-625 -561 597 0
-625 -563 599 0
-625 -565 601 0
-625 -567 603 0
-625 -569 605 0
-625 -571 607 0
-625 -573 609 0
-625 -575 611 0
-625 -577 613 0
-625 -579 615 0
-625 -581 617 0
-625 -583 619 0
-625 -585 621 0
-625 -587 623 0
-625 -593 629 0
629 663 0
-629 -663 0
-629 -631 595 0
-629 -633 597 0
-629 -635 599 0
-629 -637 601 0
-629 -639 603 0
-629 -641 605 0
-629 -643 607 0
-629 -645 609 0
-629 -647 611 0
-629 -649 613 0
-629 -651 615 0
-629 -653 617 0
-629 -655 619 0
-629 -657 621 0
-629 -659 623 0
-629 -661 625 0
665 0
631 52 0
-631 -52 0
-631 -4 633 0
-631 -7 635 0
-631 -10 637 0
-631 -13 639 0
-631 -16 641 0
-631 -19 643 0
-631 -22 645 0
-631 -25 647 0
-631 -28 649 0
-631 -31 651 0
-631 -34 653 0
-631 -37 655 0
-631 -40 657 0
-631 -43 659 0
-631 -46 661 0
-631 -49 663 0
633 89 0
-633 -89 0
-633 -55 631 0
-633 -59 635 0
-633 -61 637 0
-633 -63 639 0
-633 -65 641 0
-633 -67 643 0
-633 -69 645 0
-633 -71 647 0
-633 -73 649 0
-633 -75 651 0
-633 -77 653 0
-633 -79 655 0
-633 -81 657 0
-633 -83 659 0
-633 -85 661 0
-633 -87 663 0
635 125 0
-635 -125 0
-635 -91 631 0
-635 -93 633 0
-635 -97 637 0
-635 -99 639 0
-635 -101 641 0
-635 -103 643 0
-635 -105 645 0
-635 -107 647 0
-635 -109 649 0
-635 -111 651 0
-635 -113 653 0
-635 -115 655 0
-635 -117 657 0
-635 -119 659 0
-635 -121 661 0
-635 -123 663 0
637 161 0
-637 -161 0
-637 -127 631 0
-637 -129 633 0
-637 -131 635 0
-637 -135 639 0
-637 -137 641 0
-637 -139 643 0
-637 -141 645 0
-637 -143 647 0
-637 -145 649 0
-637 -147 651 0
-637 -149 653 0
-637 -151 655 0
-637 -153 657 0
-637 -155 659 0
-637 -157 661 0
-637 -159 663 0
639 197 0
-639 -197 0
-639 -163 631 0
-639 -165 633 0
-639 -167 635 0
-639 -169 637 0
-639 -173 641 0
-639 -175 643 0
-639 -177 645 0
-639 -179 647 0
-639 -181 649 0
-639 -183 651 0
-639 -185 653 0
-639 -187 655 0
-639 -189 657 0
-639 -191 659 0
-639 -193 661 0
-639 -195 663 0
641 233 0
-641 -233 0
-641 -199 631 0
-641 -201 633 0
-641 -203 635 0
-641 -205 637 0
-641 -207 639 0
-641 -211 643 0
-641 -213 645 0
-641 -215 647 0
-641 -217 649 0
-641 -219 651 0
-641 -221 653 0
-641 -223 655 0
-641 -225 657 0
-641 -227 659 0
-641 -229 661 0
-641 -231 663 0
643 269 0
-643 -269 0
-643 -235 631 0
-643 -237 633 0
-643 -239 635 0
-643 -241 637 0
-643 -243 639 0
-643 -245 641 0
-643 -249 645 0
-643 -251 647 0
-643 -253 649 0
-643 -255 651 0
-643 -257 653 0
-643 -259 655 0
-643 -261 657 0
-643 -263 659 0
-643 -265 661 0
-643 -267 663 0
645 305 0
-645 -305 0
-645 -271 631 0
-645 -273 633 0
-645 -275 635 0
-645 -277 637 0
-645 -279 639 0
-645 -281 641 0
-645 -283 643 0
-645 -287 647 0
-645 -289 649 0
-645 -291 651 0
-645 -293 653 0
-645 -295 655 0
-645 -297 657 0
-645 -299 659 0
-645 -301 661 0
-645 -303 663 0
647 341 0
-647 -341 0
-647 -307 631 0
-647 -309 633 0
-647 -311 635 0
-647 -313 637 0
-647 -315 639 0
-647 -317 641 0
-647 -319 643 0
-647 -321 645 0
-647 -325 649 0
-647 -327 651 0
-647 -329 653 0
-647 -331 655 0
-647 -333 657 0
-647 -335 659 0
-647 -337 661 0
-647 -339 663 0
649 377 0
-649 -377 0
-649 -343 631 0
-649 -345 633 0
-649 -347 635 0
-649 -349 637 0
-649 -351 639 0
-649 -353 641 0
-649 -355 643 0
-649 -357 645 0
-649 -359 647 0
-649 -363 651 0
-649 -365 653 0
-649 -367 655 0
-649 -369 657 0
-649 -371 659 0
-649 -373 661 0
-649 -375 663 0
651 413 0
-651 -413 0
-651 -379 631 0
-651 -381 633 0
-651 -383 635 0
-651 -385 637 0
-651 -387 639 0
-651 -389 641 0
-651 -391 643 0
-651 -393 645 0
-651 -395 647 0
-651 -397 649 0
-651 -401 653 0
-651 -403 655 0
-651 -405 657 0
-651 -407 659 0
-651 -409 661 0
-651 -411 663 0
653 449 0
-653 -449 0
-653 -415 631 0
-653 -417 633 0
-653 -419 635 0
-653 -421 637 0
-653 -423 639 0
-653 -425 641 0
-653 -427 643 0
-653 -429 645 0
-653 -431 647 0
-653 -433 649 0
-653 -435 651 0
-653 -439 655 0
-653 -441 657 0
-653 -443 659 0
-653 -445 661 0
-653 -447 663 0
655 485 0
-655 -485 0
-655 -451 631 0
-655 -453 633 0
-655 -455 635 0
-655 -457 637 0
-655 -459 639 0
-655 -461 641 0
-655 -463 643 0
-655 -465 645 0
-655 -467 647 0
-655 -469 649 0
-655 -471 651 0
-655 -473 653 0
-655 -477 657 0
-655 -479 659 0
-655 -481 661 0
-655 -483 663 0
657 521 0
-657 -521 0
-657 -487 631 0
-657 -489 633 0
-657 -491 635 0
-657 -493 637 0
-657 -495 639 0
-657 -497 641 0
-657 -499 643 0
-657 -501 645 0
-657 -503 647 0
-657 -505 649 0
-657 -507 651 0
-657 -509 653 0
-657 -511 655 0
-657 -515 659 0
-657 -517 661 0
-657 -519 663 0
659 557 0
-659 -557 0
-659 -523 631 0
-659 -525 633 0
-659 -527 635 0
-659 -529 637 0
-659 -531 639 0
-659 -533 641 0
-659 -535 643 0
-659 -537 645 0
-659 -539 647 0
-659 -541 649 0
-659 -543 651 0
-659 -545 653 0
-659 -547 655 0
-659 -549 657 0
-659 -553 661 0
-659 -555 663 0
661 593 0
-661 -593 0
-661 -559 631 0
-661 -561 633 0
-661 -563 635 0
-661 -565 637 0
-661 -567 639 0
-661 -569 641 0
-661 -571 643 0
-661 -573 645 0
-661 -575 647 0
-661 -577 649 0
-661 -579 651 0
-661 -581 653 0
-661 -583 655 0
-661 -585 657 0
-661 -587 659 0
-661 -591 663 0
663 629 0
-663 -629 0
-663 -595 631 0
-663 -597 633 0
-663 -599 635 0
-663 -601 637 0
-663 -603 639 0
-663 -605 641 0
-663 -607 643 0
-663 -609 645 0
-663 -611 647 0
-663 -613 649 0
-663 -615 651 0
-663 -617 653 0
-663 -619 655 0
-663 -621 657 0
-663 -623 659 0
-663 -625 661 0
-4267 0
-4268 4 0
-4269 7 0
-4269 93 0
-7 -93 4269 0
-4270 10 0
-4270 129 0
-10 -129 4270 0
-4271 13 0
-4271 165 0
-13 -165 4271 0
-4272 16 0
-4272 201 0
-16 -201 4272 0
-4273 19 0
-4273 237 0
-19 -237 4273 0
-4274 22 0
-4274 273 0
-22 -273 4274 0
-4275 25 0
-4275 309 0
-25 -309 4275 0
-4276 28 0
-4276 345 0
-28 -345 4276 0
-4277 31 0
-4277 381 0
-31 -381 4277 0
-4278 34 0
-4278 417 0
-34 -417 4278 0
-4279 37 0
-4279 453 0
-37 -453 4279 0
-4280 40 0
-4280 489 0
-40 -489 4280 0
-4281 43 0
-4281 525 0
-43 -525 4281 0
-4282 46 0
-4282 561 0
-46 -561 4282 0
-4283 49 0
-4283 597 0
-49 -597 4283 0
-4284 52 0
-4284 633 0
-52 -633 4284 0
-4268 -4269 0
-4268 -4270 0
-4268 -4271 0
-4268 -4272 0
-4268 -4273 0
-4268 -4274 0
-4268 -4275 0
-4268 -4276 0
-4268 -4277 0
-4268 -4278 0
-4268 -4279 0
-4268 -4280 0
-4268 -4281 0
-4268 -4282 0
-4268 -4283 0
-4268 -4284 0
-4 4268 4269 4270 4271 4272 4273 4274 4275 4276 4277 4278 4279 4280 4281 4282 4283 4284 0
-4285 7 0
-4286 4 0
-4286 59 0
-4 -59 4286 0
-4287 10 0
-4287 131 0
-10 -131 4287 0
-4288 13 0
-4288 167 0
-13 -167 4288 0
-4289 16 0
-4289 203 0
-16 -203 4289 0
-4290 19 0
-4290 239 0
-19 -239 4290 0
-4291 22 0
-4291 275 0
-22 -275 4291 0
-4292 25 0
-4292 311 0
-25 -311 4292 0
-4293 28 0
-4293 347 0
-28 -347 4293 0
-4294 31 0
-4294 383 0
-31 -383 4294 0
-4295 34 0
-4295 419 0
-34 -419 4295 0
-4296 37 0
-4296 455 0
-37 -455 4296 0
-4297 40 0
-4297 491 0
-40 -491 4297 0
-4298 43 0
-4298 527 0
-43 -527 4298 0
-4299 46 0
-4299 563 0
-46 -563 4299 0
-4300 49 0
-4300 599 0
-49 -599 4300 0
-4301 52 0
-4301 635 0
-52 -635 4301 0
-4285 -4286 0
-4285 -4287 0
-4285 -4288 0
-4285 -4289 0
-4285 -4290 0
-4285 -4291 0
-4285 -4292 0
-4285 -4293 0
-4285 -4294 0
-4285 -4295 0
-4285 -4296 0
-4285 -4297 0
-4285 -4298 0
-4285 -4299 0
-4285 -4300 0
-4285 -4301 0
-7 4285 4286 4287 4288 4289 4290 4291 4292 4293 4294 4295 4296 4297 4298 4299 4300 4301 0
-4302 10 0
-4303 4 0
-4303 61 0
-4 -61 4303 0
-4304 7 0
-4304 97 0
-7 -97 4304 0
-4305 13 0
-4305 169 0
-13 -169 4305 0
-4306 16 0
-4306 205 0
-16 -205 4306 0
-4307 19 0
-4307 241 0
-19 -241 4307 0
-4308 22 0
-4308 277 0
-22 -277 4308 0
-4309 25 0
-4309 313 0
-25 -313 4309 0
-4310 28 0
-4310 349 0
-28 -349 4310 0
-4311 31 0
-4311 385 0
-31 -385 4311 0
-4312 34 0
-4312 421 0
-34 -421 4312 0
-4313 37 0
-4313 457 0
-37 -457 4313 0
-4314 40 0
-4314 493 0
-40 -493 4314 0
-4315 43 0
-4315 529 0
-43 -529 4315 0
-4316 46 0
-4316 565 0
-46 -565 4316 0
-4317 49 0
-4317 601 0
-49 -601 4317 0
-4318 52 0
-4318 637 0
-52 -637 4318 0
-4302 -4303 0
-4302 -4304 0
-4302 -4305 0
-4302 -4306 0
-4302 -4307 0
-4302 -4308 0
-4302 -4309 0
-4302 -4310 0
-4302 -4311 0
-4302 -4312 0
-4302 -4313 0
-4302 -4314 0
-4302 -4315 0
-4302 -4316 0
-4302 -4317 0
-4302 -4318 0
-10 4302 4303 4304 4305 4306 4307 4308 4309 4310 4311 4312 4313 4314 4315 4316 4317 4318 0
-4319 13 0
-4320 4 0
-4320 63 0
-4 -63 4320 0
-4321 7 0
-4321 99 0
-7 -99 4321 0
-4322 10 0
-4322 135 0
-10 -135 4322 0
-4323 16 0
-4323 207 0
-16 -207 4323 0
-4324 19 0
-4324 243 0
-19 -243 4324 0
-4325 22 0
-4325 279 0
-22 -279 4325 0
-4326 25 0
-4326 315 0
-25 -315 4326 0
-4327 28 0
-4327 351 0
-28 -351 4327 0
-4328 31 0
-4328 387 0
-31 -387 4328 0
-4329 34 0
-4329 423 0
-34 -423 4329 0
-4330 37 0
-4330 459 0
-37 -459 4330 0
-4331 40 0
-4331 495 0
-40 -495 4331 0
-4332 43 0
-4332 531 0
-43 -531 4332 0
-4333 46 0
-4333 567 0
-46 -567 4333 0
-4334 49 0
-4334 603 0
-49 -603 4334 0
-4335 52 0
-4335 639 0
-52 -639 4335 0
-4319 -4320 0
-4319 -4321 0
-4319 -4322 0
-4319 -4323 0
-4319 -4324 0
-4319 -4325 0
-4319 -4326 0
-4319 -4327 0
-4319 -4328 0
-4319 -4329 0
-4319 -4330 0
-4319 -4331 0
-4319 -4332 0
-4319 -4333 0
-4319 -4334 0
-4319 -4335 0
-13 4319 4320 4321 4322 4323 4324 4325 4326 4327 4328 4329 4330 4331 4332 4333 4334 4335 0
-4336 16 0
-4337 4 0
-4337 65 0
-4 -65 4337 0
-4338 7 0
-4338 101 0
-7 -101 4338 0
-4339 10 0
-4339 137 0
-10 -137 4339 0
-4340 13 0
-4340 173 0
-13 -173 4340 0
-4341 19 0
-4341 245 0
-19 -245 4341 0
-4342 22 0
-4342 281 0
-22 -281 4342 0
-4343 25 0
-4343 317 0
-25 -317 4343 0
-4344 28 0
-4344 353 0
-28 -353 4344 0
-4345 31 0
-4345 389 0
-31 -389 4345 0
-4346 34 0
-4346 425 0
-34 -425 4346 0
-4347 37 0
-4347 461 0
-37 -461 4347 0
-4348 40 0
-4348 497 0
-40 -497 4348 0
-4349 43 0
-4349 533 0
-43 -533 4349 0
-4350 46 0
-4350 569 0
-46 -569 4350 0
-4351 49 0
-4351 605 0
-49 -605 4351 0
-4352 52 0
-4352 641 0
-52 -641 4352 0
-4336 -4337 0
-4336 -4338 0
-4336 -4339 0
-4336 -4340 0
-4336 -4341 0
-4336 -4342 0
-4336 -4343 0
-4336 -4344 0
-4336 -4345 0
-4336 -4346 0
-4336 -4347 0
-4336 -4348 0
-4336 -4349 0
-4336 -4350 0
-4336 -4351 0
-4336 -4352 0
-16 4336 4337 4338 4339 4340 4341 4342 4343 4344 4345 4346 4347 4348 4349 4350 4351 4352 0
-4353 19 0
-4354 4 0
-4354 67 0
-4 -67 4354 0
-4355 7 0
-4355 103 0
-7 -103 4355 0
-4356 10 0
-4356 139 0
-10 -139 4356 0
-4357 13 0
-4357 175 0
-13 -175 4357 0
-4358 16 0
-4358 211 0
-16 -211 4358 0
-4359 22 0
-4359 283 0
-22 -283 4359 0
-4360 25 0
-4360 319 0
-25 -319 4360 0
-4361 28 0
-4361 355 0
-28 -355 4361 0
-4362 31 0
-4362 391 0
-31 -391 4362 0
-4363 34 0
-4363 427 0
-34 -427 4363 0
-4364 37 0
-4364 463 0
-37 -463 4364 0
-4365 40 0
-4365 499 0
-40 -499 4365 0
-4366 43 0
-4366 535 0
-43 -535 4366 0
-4367 46 0
-4367 571 0
-46 -571 4367 0
-4368 49 0
-4368 607 0
-49 -607 4368 0
-4369 52 0
-4369 643 0
-52 -643 4369 0
-4353 -4354 0
-4353 -4355 0
-4353 -4356 0
-4353 -4357 0
-4353 -4358 0
-4353 -4359 0
-4353 -4360 0
-4353 -4361 0
-4353 -4362 0
-4353 -4363 0
-4353 -4364 0
-4353 -4365 0
-4353 -4366 0
-4353 -4367 0
-4353 -4368 0
-4353 -4369 0
-19 4353 4354 4355 4356 4357 4358 4359 4360 4361 4362 4363 4364 4365 4366 4367 4368 4369 0
-4370 22 0
-4371 4 0
-4371 69 0
-4 -69 4371 0
-4372 7 0
-4372 105 0
-7 -105 4372 0
-4373 10 0
-4373 141 0
-10 -141 4373 0
-4374 13 0
-4374 177 0
-13 -177 4374 0
-4375 16 0
-4375 213 0
-16 -213 4375 0
-4376 19 0
-4376 249 0
-19 -249 4376 0
-4377 25 0
-4377 321 0
-25 -321 4377 0
-4378 28 0
-4378 357 0
-28 -357 4378 0
-4379 31 0
-4379 393 0
-31 -393 4379 0
-4380 34 0
-4380 429 0
-34 -429 4380 0
-4381 37 0
-4381 465 0
-37 -465 4381 0
-4382 40 0
-4382 501 0
-40 -501 4382 0
-4383 43 0
-4383 537 0
-43 -537 4383 0
-4384 46 0
-4384 573 0
-46 -573 4384 0
-4385 49 0
-4385 609 0
-49 -609 4385 0
-4386 52 0
-4386 645 0
-52 -645 4386 0
-4370 -4371 0
-4370 -4372 0
-4370 -4373 0
-4370 -4374 0
-4370 -4375 0
-4370 -4376 0
-4370 -4377 0
-4370 -4378 0
-4370 -4379 0
-4370 -4380 0
-4370 -4381 0
-4370 -4382 0
-4370 -4383 0
-4370 -4384 0
-4370 -4385 0
-4370 -4386 0
-22 4370 4371 4372 4373 4374 4375 4376 4377 4378 4379 4380 4381 4382 4383 4384 4385 4386 0
-4387 25 0
-4388 4 0
-4388 71 0
-4 -71 4388 0
-4389 7 0
-4389 107 0
-7 -107 4389 0
-4390 10 0
-4390 143 0
-10 -143 4390 0
-4391 13 0
-4391 179 0
-13 -179 4391 0
-4392 16 0
-4392 215 0
-16 -215 4392 0
-4393 19 0
-4393 251 0
-19 -251 4393 0
-4394 22 0
-4394 287 0
-22 -287 4394 0
-4395 28 0
-4395 359 0
-28 -359 4395 0
-4396 31 0
-4396 395 0
-31 -395 4396 0
-4397 34 0
-4397 431 0
-34 -431 4397 0
-4398 37 0
-4398 467 0
-37 -467 4398 0
-4399 40 0
-4399 503 0
-40 -503 4399 0
-4400 43 0
-4400 539 0
-43 -539 4400 0
-4401 46 0
-4401 575 0
-46 -575 4401 0
-4402 49 0
-4402 611 0
-49 -611 4402 0
-4403 52 0
-4403 647 0
-52 -647 4403 0
-4387 -4388 0
-4387 -4389 0
-4387 -4390 0
-4387 -4391 0
-4387 -4392 0
-4387 -4393 0
-4387 -4394 0
-4387 -4395 0
-4387 -4396 0
-4387 -4397 0
-4387 -4398 0
-4387 -4399 0
-4387 -4400 0
-4387 -4401 0
-4387 -4402 0
-4387 -4403 0
-25 4387 4388 4389 4390 4391 4392 4393 4394 4395 4396 4397 4398 4399 4400 4401 4402 4403 0
-4404 28 0
-4405 4 0
-4405 73 0
-4 -73 4405 0
-4406 7 0
-4406 109 0
-7 -109 4406 0
-4407 10 0
-4407 145 0
-10 -145 4407 0
-4408 13 0
-4408 181 0
-13 -181 4408 0
-4409 16 0
-4409 217 0
-16 -217 4409 0
-4410 19 0
-4410 253 0
-19 -253 4410 0
-4411 22 0
-4411 289 0
-22 -289 4411 0
-4412 25 0
-4412 325 0
-25 -325 4412 0
-4413 31 0
-4413 397 0
-31 -397 4413 0
-4414 34 0
-4414 433 0
-34 -433 4414 0
-4415 37 0
-4415 469 0
-37 -469 4415 0
-4416 40 0
-4416 505 0
-40 -505 4416 0
-4417 43 0
-4417 541 0
-43 -541 4417 0
-4418 46 0
-4418 577 0
-46 -577 4418 0
-4419 49 0
-4419 613 0
-49 -613 4419 0
-4420 52 0
-4420 649 0
-52 -649 4420 0
-4404 -4405 0
-4404 -4406 0
-4404 -4407 0
-4404 -4408 0
-4404 -4409 0
-4404 -4410 0
-4404 -4411 0
-4404 -4412 0
-4404 -4413 0
-4404 -4414 0
-4404 -4415 0
-4404 -4416 0
-4404 -4417 0
-4404 -4418 0
-4404 -4419 0
-4404 -4420 0
-28 4404 4405 4406 4407 4408 4409 4410 4411 4412 4413 4414 4415 4416 4417 4418 4419 4420 0
-4421 31 0
-4422 4 0
-4422 75 0
-4 -75 4422 0
-4423 7 0
-4423 111 0
-7 -111 4423 0
-4424 10 0
-4424 147 0
-10 -147 4424 0
-4425 13 0
-4425 183 0
-13 -183 4425 0
-4426 16 0
-4426 219 0
-16 -219 4426 0
-4427 19 0
-4427 255 0
-19 -255 4427 0
-4428 22 0
-4428 291 0
-22 -291 4428 0
-4429 25 0
-4429 327 0
-25 -327 4429 0
-4430 28 0
-4430 363 0
-28 -363 4430 0
-4431 34 0
-4431 435 0
-34 -435 4431 0
-4432 37 0
-4432 471 0
-37 -471 4432 0
-4433 40 0
-4433 507 0
-40 -507 4433 0
-4434 43 0
-4434 543 0
-43 -543 4434 0
-4435 46 0
-4435 579 0
-46 -579 4435 0
-4436 49 0
-4436 615 0
-49 -615 4436 0
-4437 52 0
-4437 651 0
-52 -651 4437 0
-4421 -4422 0
-4421 -4423 0
-4421 -4424 0
-4421 -4425 0
-4421 -4426 0
-4421 -4427 0
-4421 -4428 0
-4421 -4429 0
-4421 -4430 0
-4421 -4431 0
-4421 -4432 0
-4421 -4433 0
-4421 -4434 0
-4421 -4435 0
-4421 -4436 0
-4421 -4437 0
-31 4421 4422 4423 4424 4425 4426 4427 4428 4429 4430 4431 4432 4433 4434 4435 4436 4437 0
-4438 34 0
-4439 4 0
-4439 77 0
-4 -77 4439 0
-4440 7 0
-4440 113 0
-7 -113 4440 0
-4441 10 0
-4441 149 0
-10 -149 4441 0
-4442 13 0
-4442 185 0
-13 -185 4442 0
-4443 16 0
-4443 221 0
-16 -221 4443 0
-4444 19 0
-4444 257 0
-19 -257 4444 0
-4445 22 0
-4445 293 0
-22 -293 4445 0
-4446 25 0
-4446 329 0
-25 -329 4446 0
-4447 28 0
-4447 365 0
-28 -365 4447 0
-4448 31 0
-4448 401 0
-31 -401 4448 0
-4449 37 0
-4449 473 0
-37 -473 4449 0
-4450 40 0
-4450 509 0
-40 -509 4450 0
-4451 43 0
-4451 545 0
-43 -545 4451 0
-4452 46 0
-4452 581 0
-46 -581 4452 0
-4453 49 0
-4453 617 0
-49 -617 4453 0
-4454 52 0
-4454 653 0
-52 -653 4454 0
-4438 -4439 0
-4438 -4440 0
-4438 -4441 0
-4438 -4442 0
-4438 -4443 0
-4438 -4444 0
-4438 -4445 0
-4438 -4446 0
-4438 -4447 0
-4438 -4448 0
-4438 -4449 0
-4438 -4450 0
-4438 -4451 0
-4438 -4452 0
-4438 -4453 0
-4438 -4454 0
-34 4438 4439 4440 4441 4442 4443 4444 4445 4446 4447 4448 4449 4450 4451 4452 4453 4454 0
-4455 37 0
-4456 4 0
-4456 79 0
-4 -79 4456 0
-4457 7 0
-4457 115 0
-7 -115 4457 0
-4458 10 0
-4458 151 0
-10 -151 4458 0
-4459 13 0
-4459 187 0
-13 -187 4459 0
-4460 16 0
-4460 223 0
-16 -223 4460 0
-4461 19 0
-4461 259 0
-19 -259 4461 0
-4462 22 0
-4462 295 0
-22 -295 4462 0
-4463 25 0
-4463 331 0
-25 -331 4463 0
-4464 28 0
-4464 367 0
-28 -367 4464 0
-4465 31 0
-4465 403 0
-31 -403 4465 0
-4466 34 0
-4466 439 0
-34 -439 4466 0
-4467 40 0
-4467 511 0
-40 -511 4467 0
-4468 43 0
-4468 547 0
-43 -547 4468 0
-4469 46 0
-4469 583 0
-46 -583 4469 0
-4470 49 0
-4470 619 0
-49 -619 4470 0
-4471 52 0
-4471 655 0
-52 -655 4471 0
-4455 -4456 0
-4455 -4457 0
-4455 -4458 0
-4455 -4459 0
-4455 -4460 0
-4455 -4461 0
-4455 -4462 0
-4455 -4463 0
-4455 -4464 0
-4455 -4465 0
-4455 -4466 0
-4455 -4467 0
-4455 -4468 0
-4455 -4469 0
-4455 -4470 0
-4455 -4471 0
-37 4455 4456 4457 4458 4459 4460 4461 4462 4463 4464 4465 4466 4467 4468 4469 4470 4471 0
-4472 40 0
-4473 4 0
-4473 81 0
-4 -81 4473 0
-4474 7 0
-4474 117 0
-7 -117 4474 0
-4475 10 0
-4475 153 0
-10 -153 4475 0
-4476 13 0
-4476 189 0
-13 -189 4476 0
-4477 16 0
-4477 225 0
-16 -225 4477 0
-4478 19 0
-4478 261 0
-19 -261 4478 0
-4479 22 0
-4479 297 0
-22 -297 4479 0
-4480 25 0
-4480 333 0
-25 -333 4480 0
-4481 28 0
-4481 369 0
-28 -369 4481 0
-4482 31 0
-4482 405 0
-31 -405 4482 0
-4483 34 0
-4483 441 0
-34 -441 4483 0
-4484 37 0
-4484 477 0
-37 -477 4484 0
-4485 43 0
-4485 549 0
-43 -549 4485 0
-4486 46 0
-4486 585 0
-46 -585 4486 0
-4487 49 0
-4487 621 0
-49 -621 4487 0
-4488 52 0
-4488 657 0
-52 -657 4488 0
-4472 -4473 0
-4472 -4474 0
-4472 -4475 0
-4472 -4476 0
-4472 -4477 0
-4472 -4478 0
-4472 -4479 0
-4472 -4480 0
-4472 -4481 0
-4472 -4482 0
-4472 -4483 0
-4472 -4484 0
-4472 -4485 0
-4472 -4486 0
-4472 -4487 0
-4472 -4488 0
-40 4472 4473 4474 4475 4476 4477 4478 4479 4480 4481 4482 4483 4484 4485 4486 4487 4488 0
-4489 43 0
-4490 4 0
-4490 83 0
-4 -83 4490 0
-4491 7 0
-4491 119 0
-7 -119 4491 0
-4492 10 0
-4492 155 0
-10 -155 4492 0
-4493 13 0
-4493 191 0
-13 -191 4493 0
-4494 16 0
-4494 227 0
-16 -227 4494 0
-4495 19 0
-4495 263 0
-19 -263 4495 0
-4496 22 0
-4496 299 0
-22 -299 4496 0
-4497 25 0
-4497 335 0
-25 -335 4497 0
-4498 28 0
-4498 371 0
-28 -371 4498 0
-4499 31 0
-4499 407 0
-31 -407 4499 0
-4500 34 0
-4500 443 0
-34 -443 4500 0
-4501 37 0
-4501 479 0
-37 -479 4501 0
-4502 40 0
-4502 515 0
-40 -515 4502 0
-4503 46 0
-4503 587 0
-46 -587 4503 0
-4504 49 0
-4504 623 0
-49 -623 4504 0
-4505 52 0
-4505 659 0
-52 -659 4505 0
-4489 -4490 0
-4489 -4491 0
-4489 -4492 0
-4489 -4493 0
-4489 -4494 0
-4489 -4495 0
-4489 -4496 0
-4489 -4497 0
-4489 -4498 0
-4489 -4499 0
-4489 -4500 0
-4489 -4501 0
-4489 -4502 0
-4489 -4503 0
-4489 -4504 0
-4489 -4505 0
-43 4489 4490 4491 4492 4493 4494 4495 4496 4497 4498 4499 4500 4501 4502 4503 4504 4505 0
-4506 46 0
-4507 4 0
-4507 85 0
-4 -85 4507 0
-4508 7 0
-4508 121 0
-7 -121 4508 0
-4509 10 0
-4509 157 0
-10 -157 4509 0
-4510 13 0
-4510 193 0
-13 -193 4510 0
-4511 16 0
-4511 229 0
-16 -229 4511 0
-4512 19 0
-4512 265 0
-19 -265 4512 0
-4513 22 0
-4513 301 0
-22 -301 4513 0
-4514 25 0
-4514 337 0
-25 -337 4514 0
-4515 28 0
-4515 373 0
-28 -373 4515 0
-4516 31 0
-4516 409 0
-31 -409 4516 0
-4517 34 0
-4517 445 0
-34 -445 4517 0
-4518 37 0
-4518 481 0
-37 -481 4518 0
-4519 40 0
-4519 517 0
-40 -517 4519 0
-4520 43 0
-4520 553 0
-43 -553 4520 0
-4521 49 0
-4521 625 0
-49 -625 4521 0
-4522 52 0
-4522 661 0
-52 -661 4522 0
-4506 -4507 0
-4506 -4508 0
-4506 -4509 0
-4506 -4510 0
-4506 -4511 0
-4506 -4512 0
-4506 -4513 0
-4506 -4514 0
-4506 -4515 0
-4506 -4516 0
-4506 -4517 0
-4506 -4518 0
-4506 -4519 0
-4506 -4520 0
-4506 -4521 0
-4506 -4522 0
-46 4506 4507 4508 4509 4510 4511 4512 4513 4514 4515 4516 4517 4518 4519 4520 4521 4522 0
-4523 49 0
-4524 4 0
-4524 87 0
-4 -87 4524 0
-4525 7 0
-4525 123 0
-7 -123 4525 0
-4526 10 0
-4526 159 0
-10 -159 4526 0
-4527 13 0
-4527 195 0
-13 -195 4527 0
-4528 16 0
-4528 231 0
-16 -231 4528 0
-4529 19 0
-4529 267 0
-19 -267 4529 0
-4530 22 0
-4530 303 0
-22 -303 4530 0
-4531 25 0
-4531 339 0
-25 -339 4531 0
-4532 28 0
-4532 375 0
-28 -375 4532 0
-4533 31 0
-4533 411 0
-31 -411 4533 0
-4534 34 0
-4534 447 0
-34 -447 4534 0
-4535 37 0
-4535 483 0
-37 -483 4535 0
-4536 40 0
-4536 519 0
-40 -519 4536 0
-4537 43 0
-4537 555 0
-43 -555 4537 0
-4538 46 0
-4538 591 0
-46 -591 4538 0
-4539 52 0
-4539 663 0
-52 -663 4539 0
-4523 -4524 0
-4523 -4525 0
-4523 -4526 0
-4523 -4527 0
-4523 -4528 0
-4523 -4529 0
-4523 -4530 0
-4523 -4531 0
-4523 -4532 0
-4523 -4533 0
-4523 -4534 0
-4523 -4535 0
-4523 -4536 0
-4523 -4537 0
-4523 -4538 0
-4523 -4539 0
-49 4523 4524 4525 4526 4527 4528 4529 4530 4531 4532 4533 4534 4535 4536 4537 4538 4539 0
-4540 52 0
-4541 4 0
-4541 89 0
-4 -89 4541 0
-4542 7 0
-4542 125 0
-7 -125 4542 0
-4543 10 0
-4543 161 0
-10 -161 4543 0
-4544 13 0
-4544 197 0
-13 -197 4544 0
-4545 16 0
-4545 233 0
-16 -233 4545 0
-4546 19 0
-4546 269 0
-19 -269 4546 0
-4547 22 0
-4547 305 0
-22 -305 4547 0
-4548 25 0
-4548 341 0
-25 -341 4548 0
-4549 28 0
-4549 377 0
-28 -377 4549 0
-4550 31 0
-4550 413 0
-31 -413 4550 0
-4551 34 0
-4551 449 0
-34 -449 4551 0
-4552 37 0
-4552 485 0
-37 -485 4552 0
-4553 40 0
-4553 521 0
-40 -521 4553 0
-4554 43 0
-4554 557 0
-43 -557 4554 0
-4555 46 0
-4555 593 0
-46 -593 4555 0
-4556 49 0
-4556 629 0
-49 -629 4556 0
-4540 -4541 0
-4540 -4542 0
-4540 -4543 0
-4540 -4544 0
-4540 -4545 0
-4540 -4546 0
-4540 -4547 0
-4540 -4548 0
-4540 -4549 0
-4540 -4550 0
-4540 -4551 0
-4540 -4552 0
-4540 -4553 0
-4540 -4554 0
-4540 -4555 0
-4540 -4556 0
-52 4540 4541 4542 4543 4544 4545 4546 4547 4548 4549 4550 4551 4552 4553 4554 4555 4556 0
-4557 55 0
-4558 59 0
-4558 91 0
-59 -91 4558 0
-4559 61 0
-4559 127 0
-61 -127 4559 0
-4560 63 0
-4560 163 0
-63 -163 4560 0
-4561 65 0
-4561 199 0
-65 -199 4561 0
-4562 67 0
-4562 235 0
-67 -235 4562 0
-4563 69 0
-4563 271 0
-69 -271 4563 0
-4564 71 0
-4564 307 0
-71 -307 4564 0
-4565 73 0
-4565 343 0
-73 -343 4565 0
-4566 75 0
-4566 379 0
-75 -379 4566 0
-4567 77 0
-4567 415 0
-77 -415 4567 0
-4568 79 0
-4568 451 0
-79 -451 4568 0
-4569 81 0
-4569 487 0
-81 -487 4569 0
-4570 83 0
-4570 523 0
-83 -523 4570 0
-4571 85 0
-4571 559 0
-85 -559 4571 0
-4572 87 0
-4572 595 0
-87 -595 4572 0
-4573 89 0
-4573 631 0
-89 -631 4573 0
-4557 -4558 0
-4557 -4559 0
-4557 -4560 0
-4557 -4561 0
-4557 -4562 0
-4557 -4563 0
-4557 -4564 0
-4557 -4565 0
-4557 -4566 0
-4557 -4567 0
-4557 -4568 0
-4557 -4569 0
-4557 -4570 0
-4557 -4571 0
-4557 -4572 0
-4557 -4573 0
-55 4557 4558 4559 4560 4561 4562 4563 4564 4565 4566 4567 4568 4569 4570 4571 4572 4573 0
-4574 0
-4575 59 0
-4576 55 0
-4576 7 0
-55 -7 4576 0
-4577 61 0
-4577 131 0
-61 -131 4577 0
-4578 63 0
-4578 167 0
-63 -167 4578 0
-4579 65 0
-4579 203 0
-65 -203 4579 0
-4580 67 0
-4580 239 0
-67 -239 4580 0
-4581 69 0
-4581 275 0
-69 -275 4581 0
-4582 71 0
-4582 311 0
-71 -311 4582 0
-4583 73 0
-4583 347 0
-73 -347 4583 0
-4584 75 0
-4584 383 0
-75 -383 4584 0
-4585 77 0
-4585 419 0
-77 -419 4585 0
-4586 79 0
-4586 455 0
-79 -455 4586 0
-4587 81 0
-4587 491 0
-81 -491 4587 0
-4588 83 0
-4588 527 0
-83 -527 4588 0
-4589 85 0
-4589 563 0
-85 -563 4589 0
-4590 87 0
-4590 599 0
-87 -599 4590 0
-4591 89 0
-4591 635 0
-89 -635 4591 0
-4575 -4576 0
-4575 -4577 0
-4575 -4578 0
-4575 -4579 0
-4575 -4580 0
-4575 -4581 0
-4575 -4582 0
-4575 -4583 0
-4575 -4584 0
-4575 -4585 0
-4575 -4586 0
-4575 -4587 0
-4575 -4588 0
-4575 -4589 0
-4575 -4590 0
-4575 -4591 0
-59 4575 4576 4577 4578 4579 4580 4581 4582 4583 4584 4585 4586 4587 4588 4589 4590 4591 0
-4592 61 0
-4593 55 0
-4593 10 0
-55 -10 4593 0
-4594 59 0
-4594 97 0
-59 -97 4594 0
-4595 63 0
-4595 169 0
-63 -169 4595 0
-4596 65 0
-4596 205 0
-65 -205 4596 0
-4597 67 0
-4597 241 0
-67 -241 4597 0
-4598 69 0
-4598 277 0
-69 -277 4598 0
-4599 71 0
-4599 313 0
-71 -313 4599 0
-4600 73 0
-4600 349 0
-73 -349 4600 0
-4601 75 0
-4601 385 0
-75 -385 4601 0
-4602 77 0
-4602 421 0
-77 -421 4602 0
-4603 79 0
-4603 457 0
-79 -457 4603 0
-4604 81 0
-4604 493 0
-81 -493 4604 0
-4605 83 0
-4605 529 0
-83 -529 4605 0
-4606 85 0
-4606 565 0
-85 -565 4606 0
-4607 87 0
-4607 601 0
-87 -601 4607 0
-4608 89 0
-4608 637 0
-89 -637 4608 0
-4592 -4593 0
-4592 -4594 0
-4592 -4595 0
-4592 -4596 0
-4592 -4597 0
-4592 -4598 0
-4592 -4599 0
-4592 -4600 0
-4592 -4601 0
-4592 -4602 0
-4592 -4603 0
-4592 -4604 0
-4592 -4605 0
-4592 -4606 0
-4592 -4607 0
-4592 -4608 0
-61 4592 4593 4594 4595 4596 4597 4598 4599 4600 4601 4602 4603 4604 4605 4606 4607 4608 0
-4609 63 0
-4610 55 0
-4610 13 0
-55 -13 4610 0
-4611 59 0
-4611 99 0
-59 -99 4611 0
-4612 61 0
-4612 135 0
-61 -135 4612 0
-4613 65 0
-4613 207 0
-65 -207 4613 0
-4614 67 0
-4614 243 0
-67 -243 4614 0
-4615 69 0
-4615 279 0
-69 -279 4615 0
-4616 71 0
-4616 315 0
-71 -315 4616 0
-4617 73 0
-4617 351 0
-73 -351 4617 0
-4618 75 0
-4618 387 0
-75 -387 4618 0
-4619 77 0
-4619 423 0
-77 -423 4619 0
-4620 79 0
-4620 459 0
-79 -459 4620 0
-4621 81 0
-4621 495 0
-81 -495 4621 0
-4622 83 0
-4622 531 0
-83 -531 4622 0
-4623 85 0
-4623 567 0
-85 -567 4623 0
-4624 87 0
-4624 603 0
-87 -603 4624 0
-4625 89 0
-4625 639 0
-89 -639 4625 0
-4609 -4610 0
-4609 -4611 0
-4609 -4612 0
-4609 -4613 0
-4609 -4614 0
-4609 -4615 0
-4609 -4616 0
-4609 -4617 0
-4609 -4618 0
-4609 -4619 0
-4609 -4620 0
-4609 -4621 0
-4609 -4622 0
-4609 -4623 0
-4609 -4624 0
-4609 -4625 0
-63 4609 4610 4611 4612 4613 4614 4615 4616 4617 4618 4619 4620 4621 4622 4623 4624 4625 0
-4626 65 0
-4627 55 0
-4627 16 0
-55 -16 4627 0
-4628 59 0
-4628 101 0
-59 -101 4628 0
-4629 61 0
-4629 137 0
-61 -137 4629 0
-4630 63 0
-4630 173 0
-63 -173 4630 0
-4631 67 0
-4631 245 0
-67 -245 4631 0
-4632 69 0
-4632 281 0
-69 -281 4632 0
-4633 71 0
-4633 317 0
-71 -317 4633 0
-4634 73 0
-4634 353 0
-73 -353 4634 0
-4635 75 0
-4635 389 0
-75 -389 4635 0
-4636 77 0
-4636 425 0
-77 -425 4636 0
-4637 79 0
-4637 461 0
-79 -461 4637 0
-4638 81 0
-4638 497 0
-81 -497 4638 0
-4639 83 0
-4639 533 0
-83 -533 4639 0
-4640 85 0
-4640 569 0
-85 -569 4640 0
-4641 87 0
-4641 605 0
-87 -605 4641 0
-4642 89 0
-4642 641 0
-89 -641 4642 0
-4626 -4627 0
-4626 -4628 0
-4626 -4629 0
-4626 -4630 0
-4626 -4631 0
-4626 -4632 0
-4626 -4633 0
-4626 -4634 0
-4626 -4635 0
-4626 -4636 0
-4626 -4637 0
-4626 -4638 0
-4626 -4639 0
-4626 -4640 0
-4626 -4641 0
-4626 -4642 0
-65 4626 4627 4628 4629 4630 4631 4632 4633 4634 4635 4636 4637 4638 4639 4640 4641 4642 0
-4643 67 0
-4644 55 0
-4644 19 0
-55 -19 4644 0
-4645 59 0
-4645 103 0
-59 -103 4645 0
-4646 61 0
-4646 139 0
-61 -139 4646 0
-4647 63 0
-4647 175 0
-63 -175 4647 0
-4648 65 0
-4648 211 0
-65 -211 4648 0
-4649 69 0
-4649 283 0
-69 -283 4649 0
-4650 71 0
-4650 319 0
-71 -319 4650 0
-4651 73 0
-4651 355 0
-73 -355 4651 0
-4652 75 0
-4652 391 0
-75 -391 4652 0
-4653 77 0
-4653 427 0
-77 -427 4653 0
-4654 79 0
-4654 463 0
-79 -463 4654 0
-4655 81 0
-4655 499 0
-81 -499 4655 0
-4656 83 0
-4656 535 0
-83 -535 4656 0
-4657 85 0
-4657 571 0
-85 -571 4657 0
-4658 87 0
-4658 607 0
-87 -607 4658 0
-4659 89 0
-4659 643 0
-89 -643 4659 0
-4643 -4644 0
-4643 -4645 0
-4643 -4646 0
-4643 -4647 0
-4643 -4648 0
-4643 -4649 0
-4643 -4650 0
-4643 -4651 0
-4643 -4652 0
-4643 -4653 0
-4643 -4654 0
-4643 -4655 0
-4643 -4656 0
-4643 -4657 0
-4643 -4658 0
-4643 -4659 0
-67 4643 4644 4645 4646 4647 4648 4649 4650 4651 4652 4653 4654 4655 4656 4657 4658 4659 0
-4660 69 0
-4661 55 0
-4661 22 0
-55 -22 4661 0
-4662 59 0
-4662 105 0
-59 -105 4662 0
-4663 61 0
-4663 141 0
-61 -141 4663 0
-4664 63 0
-4664 177 0
-63 -177 4664 0
-4665 65 0
-4665 213 0
-65 -213 4665 0
-4666 67 0
-4666 249 0
-67 -249 4666 0
-4667 71 0
-4667 321 0
-71 -321 4667 0
-4668 73 0
-4668 357 0
-73 -357 4668 0
-4669 75 0
-4669 393 0
-75 -393 4669 0
-4670 77 0
-4670 429 0
-77 -429 4670 0
-4671 79 0
-4671 465 0
-79 -465 4671 0
-4672 81 0
-4672 501 0
-81 -501 4672 0
-4673 83 0
-4673 537 0
-83 -537 4673 0
-4674 85 0
-4674 573 0
-85 -573 4674 0
-4675 87 0
-4675 609 0
-87 -609 4675 0
-4676 89 0
-4676 645 0
-89 -645 4676 0
-4660 -4661 0
-4660 -4662 0
-4660 -4663 0
-4660 -4664 0
-4660 -4665 0
-4660 -4666 0
-4660 -4667 0
-4660 -4668 0
-4660 -4669 0
-4660 -4670 0
-4660 -4671 0
-4660 -4672 0
-4660 -4673 0
-4660 -4674 0
-4660 -4675 0
-4660 -4676 0
-69 4660 4661 4662 4663 4664 4665 4666 4667 4668 4669 4670 4671 4672 4673 4674 4675 4676 0
-4677 71 0
-4678 55 0
-4678 25 0
-55 -25 4678 0
-4679 59 0
-4679 107 0
-59 -107 4679 0
-4680 61 0
-4680 143 0
-61 -143 4680 0
-4681 63 0
-4681 179 0
-63 -179 4681 0
-4682 65 0
-4682 215 0
-65 -215 4682 0
-4683 67 0
-4683 251 0
-67 -251 4683 0
-4684 69 0
-4684 287 0
-69 -287 4684 0
-4685 73 0
-4685 359 0
-73 -359 4685 0
-4686 75 0
-4686 395 0
-75 -395 4686 0
-4687 77 0
-4687 431 0
-77 -431 4687 0
-4688 79 0
-4688 467 0
-79 -467 4688 0
-4689 81 0
-4689 503 0
-81 -503 4689 0
-4690 83 0
-4690 539 0
-83 -539 4690 0
-4691 85 0
-4691 575 0
-85 -575 4691 0
-4692 87 0
-4692 611 0
-87 -611 4692 0
-4693 89 0
-4693 647 0
-89 -647 4693 0
-4677 -4678 0
-4677 -4679 0
-4677 -4680 0
-4677 -4681 0
-4677 -4682 0
-4677 -4683 0
-4677 -4684 0
-4677 -4685 0
-4677 -4686 0
-4677 -4687 0
-4677 -4688 0
-4677 -4689 0
-4677 -4690 0
-4677 -4691 0
-4677 -4692 0
-4677 -4693 0
-71 4677 4678 4679 4680 4681 4682 4683 4684 4685 4686 4687 4688 4689 4690 4691 4692 4693 0
-4694 73 0
-4695 55 0
-4695 28 0
-55 -28 4695 0
-4696 59 0
-4696 109 0
-59 -109 4696 0
-4697 61 0
-4697 145 0
-61 -145 4697 0
-4698 63 0
-4698 181 0
-63 -181 4698 0
-4699 65 0
-4699 217 0
-65 -217 4699 0
-4700 67 0
-4700 253 0
-67 -253 4700 0
-4701 69 0
-4701 289 0
-69 -289 4701 0
-4702 71 0
-4702 325 0
-71 -325 4702 0
-4703 75 0
-4703 397 0
-75 -397 4703 0
-4704 77 0
-4704 433 0
-77 -433 4704 0
-4705 79 0
-4705 469 0
-79 -469 4705 0
-4706 81 0
-4706 505 0
-81 -505 4706 0
-4707 83 0
-4707 541 0
-83 -541 4707 0
-4708 85 0
-4708 577 0
-85 -577 4708 0
-4709 87 0
-4709 613 0
-87 -613 4709 0
-4710 89 0
-4710 649 0
-89 -649 4710 0
-4694 -4695 0
-4694 -4696 0
-4694 -4697 0
-4694 -4698 0
-4694 -4699 0
-4694 -4700 0
-4694 -4701 0
-4694 -4702 0
-4694 -4703 0
-4694 -4704 0
-4694 -4705 0
-4694 -4706 0
-4694 -4707 0
-4694 -4708 0
-4694 -4709 0
-4694 -4710 0
-73 4694 4695 4696 4697 4698 4699 4700 4701 4702 4703 4704 4705 4706 4707 4708 4709 4710 0
-4711 75 0
-4712 55 0
-4712 31 0
-55 -31 4712 0
-4713 59 0
-4713 111 0
-59 -111 4713 0
-4714 61 0
-4714 147 0
-61 -147 4714 0
-4715 63 0
-4715 183 0
-63 -183 4715 0
-4716 65 0
-4716 219 0
-65 -219 4716 0
-4717 67 0
-4717 255 0
-67 -255 4717 0
-4718 69 0
-4718 291 0
-69 -291 4718 0
-4719 71 0
-4719 327 0
-71 -327 4719 0
-4720 73 0
-4720 363 0
-73 -363 4720 0
-4721 77 0
-4721 435 0
-77 -435 4721 0
-4722 79 0
-4722 471 0
-79 -471 4722 0
-4723 81 0
-4723 507 0
-81 -507 4723 0
-4724 83 0
-4724 543 0
-83 -543 4724 0
-4725 85 0
-4725 579 0
-85 -579 4725 0
-4726 87 0
-4726 615 0
-87 -615 4726 0
-4727 89 0
-4727 651 0
-89 -651 4727 0
-4711 -4712 0
-4711 -4713 0
-4711 -4714 0
-4711 -4715 0
-4711 -4716 0
-4711 -4717 0
-4711 -4718 0
-4711 -4719 0
-4711 -4720 0
-4711 -4721 0
-4711 -4722 0
-4711 -4723 0
-4711 -4724 0
-4711 -4725 0
-4711 -4726 0
-4711 -4727 0
-75 4711 4712 4713 4714 4715 4716 4717 4718 4719 4720 4721 4722 4723 4724 4725 4726 4727 0
-4728 77 0
-4729 55 0
-4729 34 0
-55 -34 4729 0
-4730 59 0
-4730 113 0
-59 -113 4730 0
-4731 61 0
-4731 149 0
-61 -149 4731 0
-4732 63 0
-4732 185 0
-63 -185 4732 0
-4733 65 0
-4733 221 0
-65 -221 4733 0
-4734 67 0
-4734 257 0
-67 -257 4734 0
-4735 69 0
-4735 293 0
-69 -293 4735 0
-4736 71 0
-4736 329 0
-71 -329 4736 0
-4737 73 0
-4737 365 0
-73 -365 4737 0
-4738 75 0
-4738 401 0
-75 -401 4738 0
-4739 79 0
-4739 473 0
-79 -473 4739 0
-4740 81 0
-4740 509 0
-81 -509 4740 0
-4741 83 0
-4741 545 0
-83 -545 4741 0
-4742 85 0
-4742 581 0
-85 -581 4742 0
-4743 87 0
-4743 617 0
-87 -617 4743 0
-4744 89 0
-4744 653 0
-89 -653 4744 0
-4728 -4729 0
-4728 -4730 0
-4728 -4731 0
-4728 -4732 0
-4728 -4733 0
-4728 -4734 0
-4728 -4735 0
-4728 -4736 0
-4728 -4737 0
-4728 -4738 0
-4728 -4739 0
-4728 -4740 0
-4728 -4741 0
-4728 -4742 0
-4728 -4743 0
-4728 -4744 0
-77 4728 4729 4730 4731 4732 4733 4734 4735 4736 4737 4738 4739 4740 4741 4742 4743 4744 0
-4745 79 0
-4746 55 0
-4746 37 0
-55 -37 4746 0
-4747 59 0
-4747 115 0
-59 -115 4747 0
-4748 61 0
-4748 151 0
-61 -151 4748 0
-4749 63 0
-4749 187 0
-63 -187 4749 0
-4750 65 0
-4750 223 0
-65 -223 4750 0
-4751 67 0
-4751 259 0
-67 -259 4751 0
-4752 69 0
-4752 295 0
-69 -295 4752 0
-4753 71 0
-4753 331 0
-71 -331 4753 0
-4754 73 0
-4754 367 0
-73 -367 4754 0
-4755 75 0
-4755 403 0
-75 -403 4755 0
-4756 77 0
-4756 439 0
-77 -439 4756 0
-4757 81 0
-4757 511 0
-81 -511 4757 0
-4758 83 0
-4758 547 0
-83 -547 4758 0
-4759 85 0
-4759 583 0
-85 -583 4759 0
-4760 87 0
-4760 619 0
-87 -619 4760 0
-4761 89 0
-4761 655 0
-89 -655 4761 0
-4745 -4746 0
-4745 -4747 0
-4745 -4748 0
-4745 -4749 0
-4745 -4750 0
-4745 -4751 0
-4745 -4752 0
-4745 -4753 0
-4745 -4754 0
-4745 -4755 0
-4745 -4756 0
-4745 -4757 0
-4745 -4758 0
-4745 -4759 0
-4745 -4760 0
-4745 -4761 0
-79 4745 4746 4747 4748 4749 4750 4751 4752 4753 4754 4755 4756 4757 4758 4759 4760 4761 0
-4762 81 0
-4763 55 0
-4763 40 0
-55 -40 4763 0
-4764 59 0
-4764 117 0
-59 -117 4764 0
-4765 61 0
-4765 153 0
-61 -153 4765 0
-4766 63 0
-4766 189 0
-63 -189 4766 0
-4767 65 0
-4767 225 0
-65 -225 4767 0
-4768 67 0
-4768 261 0
-67 -261 4768 0
-4769 69 0
-4769 297 0
-69 -297 4769 0
-4770 71 0
-4770 333 0
-71 -333 4770 0
-4771 73 0
-4771 369 0
-73 -369 4771 0
-4772 75 0
-4772 405 0
-75 -405 4772 0
-4773 77 0
-4773 441 0
-77 -441 4773 0
-4774 79 0
-4774 477 0
-79 -477 4774 0
-4775 83 0
-4775 549 0
-83 -549 4775 0
-4776 85 0
-4776 585 0
-85 -585 4776 0
-4777 87 0
-4777 621 0
-87 -621 4777 0
-4778 89 0
-4778 657 0
-89 -657 4778 0
-4762 -4763 0
-4762 -4764 0
-4762 -4765 0
-4762 -4766 0
-4762 -4767 0
-4762 -4768 0
-4762 -4769 0
-4762 -4770 0
-4762 -4771 0
-4762 -4772 0
-4762 -4773 0
-4762 -4774 0
-4762 -4775 0
-4762 -4776 0
-4762 -4777 0
-4762 -4778 0
-81 4762 4763 4764 4765 4766 4767 4768 4769 4770 4771 4772 4773 4774 4775 4776 4777 4778 0
-4779 83 0
-4780 55 0
-4780 43 0
-55 -43 4780 0
-4781 59 0
-4781 119 0
-59 -119 4781 0
-4782 61 0
-4782 155 0
-61 -155 4782 0
-4783 63 0
-4783 191 0
-63 -191 4783 0
-4784 65 0
-4784 227 0
-65 -227 4784 0
-4785 67 0
-4785 263 0
-67 -263 4785 0
-4786 69 0
-4786 299 0
-69 -299 4786 0
-4787 71 0
-4787 335 0
-71 -335 4787 0
-4788 73 0
-4788 371 0
-73 -371 4788 0
-4789 75 0
-4789 407 0
-75 -407 4789 0
-4790 77 0
-4790 443 0
-77 -443 4790 0
-4791 79 0
-4791 479 0
-79 -479 4791 0
-4792 81 0
-4792 515 0
-81 -515 4792 0
-4793 85 0
-4793 587 0
-85 -587 4793 0
-4794 87 0
-4794 623 0
-87 -623 4794 0
-4795 89 0
-4795 659 0
-89 -659 4795 0
-4779 -4780 0
-4779 -4781 0
-4779 -4782 0
-4779 -4783 0
-4779 -4784 0
-4779 -4785 0
-4779 -4786 0
-4779 -4787 0
-4779 -4788 0
-4779 -4789 0
-4779 -4790 0
-4779 -4791 0
-4779 -4792 0
-4779 -4793 0
-4779 -4794 0
-4779 -4795 0
-83 4779 4780 4781 4782 4783 4784 4785 4786 4787 4788 4789 4790 4791 4792 4793 4794 4795 0
-4796 85 0
-4797 55 0
-4797 46 0
-55 -46 4797 0
-4798 59 0
-4798 121 0
-59 -121 4798 0
-4799 61 0
-4799 157 0
-61 -157 4799 0
-4800 63 0
-4800 193 0
-63 -193 4800 0
-4801 65 0
-4801 229 0
-65 -229 4801 0
-4802 67 0
-4802 265 0
-67 -265 4802 0
-4803 69 0
-4803 301 0
-69 -301 4803 0
-4804 71 0
-4804 337 0
-71 -337 4804 0
-4805 73 0
-4805 373 0
-73 -373 4805 0
-4806 75 0
-4806 409 0
-75 -409 4806 0
-4807 77 0
-4807 445 0
-77 -445 4807 0
-4808 79 0
-4808 481 0
-79 -481 4808 0
-4809 81 0
-4809 517 0
-81 -517 4809 0
-4810 83 0
-4810 553 0
-83 -553 4810 0
-4811 87 0
-4811 625 0
-87 -625 4811 0
-4812 89 0
-4812 661 0
-89 -661 4812 0
-4796 -4797 0
-4796 -4798 0
-4796 -4799 0
-4796 -4800 0
-4796 -4801 0
-4796 -4802 0
-4796 -4803 0
-4796 -4804 0
-4796 -4805 0
-4796 -4806 0
-4796 -4807 0
-4796 -4808 0
-4796 -4809 0
-4796 -4810 0
-4796 -4811 0
-4796 -4812 0
-85 4796 4797 4798 4799 4800 4801 4802 4803 4804 4805 4806 4807 4808 4809 4810 4811 4812 0
-4813 87 0
-4814 55 0
-4814 49 0
-55 -49 4814 0
-4815 59 0
-4815 123 0
-59 -123 4815 0
-4816 61 0
-4816 159 0
-61 -159 4816 0
-4817 63 0
-4817 195 0
-63 -195 4817 0
-4818 65 0
-4818 231 0
-65 -231 4818 0
-4819 67 0
-4819 267 0
-67 -267 4819 0
-4820 69 0
-4820 303 0
-69 -303 4820 0
-4821 71 0
-4821 339 0
-71 -339 4821 0
-4822 73 0
-4822 375 0
-73 -375 4822 0
-4823 75 0
-4823 411 0
-75 -411 4823 0
-4824 77 0
-4824 447 0
-77 -447 4824 0
-4825 79 0
-4825 483 0
-79 -483 4825 0
-4826 81 0
-4826 519 0
-81 -519 4826 0
-4827 83 0
-4827 555 0
-83 -555 4827 0
-4828 85 0
-4828 591 0
-85 -591 4828 0
-4829 89 0
-4829 663 0
-89 -663 4829 0
-4813 -4814 0
-4813 -4815 0
-4813 -4816 0
-4813 -4817 0
-4813 -4818 0
-4813 -4819 0
-4813 -4820 0
-4813 -4821 0
-4813 -4822 0
-4813 -4823 0
-4813 -4824 0
-4813 -4825 0
-4813 -4826 0
-4813 -4827 0
-4813 -4828 0
-4813 -4829 0
-87 4813 4814 4815 4816 4817 4818 4819 4820 4821 4822 4823 4824 4825 4826 4827 4828 4829 0
-4830 89 0
-4831 55 0
-4831 52 0
-55 -52 4831 0
-4832 59 0
-4832 125 0
-59 -125 4832 0
-4833 61 0
-4833 161 0
-61 -161 4833 0
-4834 63 0
-4834 197 0
-63 -197 4834 0
-4835 65 0
-4835 233 0
-65 -233 4835 0
-4836 67 0
-4836 269 0
-67 -269 4836 0
-4837 69 0
-4837 305 0
-69 -305 4837 0
-4838 71 0
-4838 341 0
-71 -341 4838 0
-4839 73 0
-4839 377 0
-73 -377 4839 0
-4840 75 0
-4840 413 0
-75 -413 4840 0
-4841 77 0
-4841 449 0
-77 -449 4841 0
-4842 79 0
-4842 485 0
-79 -485 4842 0
-4843 81 0
-4843 521 0
-81 -521 4843 0
-4844 83 0
-4844 557 0
-83 -557 4844 0
-4845 85 0
-4845 593 0
-85 -593 4845 0
-4846 87 0
-4846 629 0
-87 -629 4846 0
-4830 -4831 0
-4830 -4832 0
-4830 -4833 0
-4830 -4834 0
-4830 -4835 0
-4830 -4836 0
-4830 -4837 0
-4830 -4838 0
-4830 -4839 0
-4830 -4840 0
-4830 -4841 0
-4830 -4842 0
-4830 -4843 0
-4830 -4844 0
-4830 -4845 0
-4830 -4846 0
-89 4830 4831 4832 4833 4834 4835 4836 4837 4838 4839 4840 4841 4842 4843 4844 4845 4846 0
-4847 91 0
-4848 93 0
-4848 55 0
-93 -55 4848 0
-4849 97 0
-4849 127 0
-97 -127 4849 0
-4850 99 0
-4850 163 0
-99 -163 4850 0
-4851 101 0
-4851 199 0
-101 -199 4851 0
-4852 103 0
-4852 235 0
-103 -235 4852 0
-4853 105 0
-4853 271 0
-105 -271 4853 0
-4854 107 0
-4854 307 0
-107 -307 4854 0
-4855 109 0
-4855 343 0
-109 -343 4855 0
-4856 111 0
-4856 379 0
-111 -379 4856 0
-4857 113 0
-4857 415 0
-113 -415 4857 0
-4858 115 0
-4858 451 0
-115 -451 4858 0
-4859 117 0
-4859 487 0
-117 -487 4859 0
-4860 119 0
-4860 523 0
-119 -523 4860 0
-4861 121 0
-4861 559 0
-121 -559 4861 0
-4862 123 0
-4862 595 0
-123 -595 4862 0
-4863 125 0
-4863 631 0
-125 -631 4863 0
-4847 -4848 0
-4847 -4849 0
-4847 -4850 0
-4847 -4851 0
-4847 -4852 0
-4847 -4853 0
-4847 -4854 0
-4847 -4855 0
-4847 -4856 0
-4847 -4857 0
-4847 -4858 0
-4847 -4859 0
-4847 -4860 0
-4847 -4861 0
-4847 -4862 0
-4847 -4863 0
-91 4847 4848 4849 4850 4851 4852 4853 4854 4855 4856 4857 4858 4859 4860 4861 4862 4863 0
-4864 93 0
-4865 91 0
-4865 4 0
-91 -4 4865 0
-4866 97 0
-4866 129 0
-97 -129 4866 0
-4867 99 0
-4867 165 0
-99 -165 4867 0
-4868 101 0
-4868 201 0
-101 -201 4868 0
-4869 103 0
-4869 237 0
-103 -237 4869 0
-4870 105 0
-4870 273 0
-105 -273 4870 0
-4871 107 0
-4871 309 0
-107 -309 4871 0
-4872 109 0
-4872 345 0
-109 -345 4872 0
-4873 111 0
-4873 381 0
-111 -381 4873 0
-4874 113 0
-4874 417 0
-113 -417 4874 0
-4875 115 0
-4875 453 0
-115 -453 4875 0
-4876 117 0
-4876 489 0
-117 -489 4876 0
-4877 119 0
-4877 525 0
-119 -525 4877 0
-4878 121 0
-4878 561 0
-121 -561 4878 0
-4879 123 0
-4879 597 0
-123 -597 4879 0
-4880 125 0
-4880 633 0
-125 -633 4880 0
-4864 -4865 0
-4864 -4866 0
-4864 -4867 0
-4864 -4868 0
-4864 -4869 0
-4864 -4870 0
-4864 -4871 0
-4864 -4872 0
-4864 -4873 0
-4864 -4874 0
-4864 -4875 0
-4864 -4876 0
-4864 -4877 0
-4864 -4878 0
-4864 -4879 0
-4864 -4880 0
-93 4864 4865 4866 4867 4868 4869 4870 4871 4872 4873 4874 4875 4876 4877 4878 4879 4880 0
-4881 0
-4882 97 0
-4883 91 0
-4883 10 0
-91 -10 4883 0
-4884 93 0
-4884 61 0
-93 -61 4884 0
-4885 99 0
-4885 169 0
-99 -169 4885 0
-4886 101 0
-4886 205 0
-101 -205 4886 0
-4887 103 0
-4887 241 0
-103 -241 4887 0
-4888 105 0
-4888 277 0
-105 -277 4888 0
-4889 107 0
-4889 313 0
-107 -313 4889 0
-4890 109 0
-4890 349 0
-109 -349 4890 0
-4891 111 0
-4891 385 0
-111 -385 4891 0
-4892 113 0
-4892 421 0
-113 -421 4892 0
-4893 115 0
-4893 457 0
-115 -457 4893 0
-4894 117 0
-4894 493 0
-117 -493 4894 0
-4895 119 0
-4895 529 0
-119 -529 4895 0
-4896 121 0
-4896 565 0
-121 -565 4896 0
-4897 123 0
-4897 601 0
-123 -601 4897 0
-4898 125 0
-4898 637 0
-125 -637 4898 0
-4882 -4883 0
-4882 -4884 0
-4882 -4885 0
-4882 -4886 0
-4882 -4887 0
-4882 -4888 0
-4882 -4889 0
-4882 -4890 0
-4882 -4891 0
-4882 -4892 0
-4882 -4893 0
-4882 -4894 0
-4882 -4895 0
-4882 -4896 0
-4882 -4897 0
-4882 -4898 0
-97 4882 4883 4884 4885 4886 4887 4888 4889 4890 4891 4892 4893 4894 4895 4896 4897 4898 0
-4899 99 0
-4900 91 0
-4900 13 0
-91 -13 4900 0
-4901 93 0
-4901 63 0
-93 -63 4901 0
-4902 97 0
-4902 135 0
-97 -135 4902 0
-4903 101 0
-4903 207 0
-101 -207 4903 0
-4904 103 0
-4904 243 0
-103 -243 4904 0
-4905 105 0
-4905 279 0
-105 -279 4905 0
-4906 107 0
-4906 315 0
-107 -315 4906 0
-4907 109 0
-4907 351 0
-109 -351 4907 0
-4908 111 0
-4908 387 0
-111 -387 4908 0
-4909 113 0
-4909 423 0
-113 -423 4909 0
-4910 115 0
-4910 459 0
-115 -459 4910 0
-4911 117 0
-4911 495 0
-117 -495 4911 0
-4912 119 0
-4912 531 0
-119 -531 4912 0
-4913 121 0
-4913 567 0
-121 -567 4913 0
-4914 123 0
-4914 603 0
-123 -603 4914 0
-4915 125 0
-4915 639 0
-125 -639 4915 0
-4899 -4900 0
-4899 -4901 0
-4899 -4902 0
-4899 -4903 0
-4899 -4904 0
-4899 -4905 0
-4899 -4906 0
-4899 -4907 0
-4899 -4908 0
-4899 -4909 0
-4899 -4910 0
-4899 -4911 0
-4899 -4912 0
-4899 -4913 0
-4899 -4914 0
-4899 -4915 0
-99 4899 4900 4901 4902 4903 4904 4905 4906 4907 4908 4909 4910 4911 4912 4913 4914 4915 0
-4916 101 0
-4917 91 0
-4917 16 0
-91 -16 4917 0
-4918 93 0
-4918 65 0
-93 -65 4918 0
-4919 97 0
-4919 137 0
-97 -137 4919 0
-4920 99 0
-4920 173 0
-99 -173 4920 0
-4921 103 0
-4921 245 0
-103 -245 4921 0
-4922 105 0
-4922 281 0
-105 -281 4922 0
-4923 107 0
-4923 317 0
-107 -317 4923 0
-4924 109 0
-4924 353 0
-109 -353 4924 0
-4925 111 0
-4925 389 0
-111 -389 4925 0
-4926 113 0
-4926 425 0
-113 -425 4926 0
-4927 115 0
-4927 461 0
-115 -461 4927 0
-4928 117 0
-4928 497 0
-117 -497 4928 0
-4929 119 0
-4929 533 0
-119 -533 4929 0
-4930 121 0
-4930 569 0
-121 -569 4930 0
-4931 123 0
-4931 605 0
-123 -605 4931 0
-4932 125 0
-4932 641 0
-125 -641 4932 0
-4916 -4917 0
-4916 -4918 0
-4916 -4919 0
-4916 -4920 0
-4916 -4921 0
-4916 -4922 0
-4916 -4923 0
-4916 -4924 0
-4916 -4925 0
-4916 -4926 0
-4916 -4927 0
-4916 -4928 0
-4916 -4929 0
-4916 -4930 0
-4916 -4931 0
-4916 -4932 0
-101 4916 4917 4918 4919 4920 4921 4922 4923 4924 4925 4926 4927 4928 4929 4930 4931 4932 0
-4933 103 0
-4934 91 0
-4934 19 0
-91 -19 4934 0
-4935 93 0
-4935 67 0
-93 -67 4935 0
-4936 97 0
-4936 139 0
-97 -139 4936 0
-4937 99 0
-4937 175 0
-99 -175 4937 0
-4938 101 0
-4938 211 0
-101 -211 4938 0
-4939 105 0
-4939 283 0
-105 -283 4939 0
-4940 107 0
-4940 319 0
-107 -319 4940 0
-4941 109 0
-4941 355 0
-109 -355 4941 0
-4942 111 0
-4942 391 0
-111 -391 4942 0
-4943 113 0
-4943 427 0
-113 -427 4943 0
-4944 115 0
-4944 463 0
-115 -463 4944 0
-4945 117 0
-4945 499 0
-117 -499 4945 0
-4946 119 0
-4946 535 0
-119 -535 4946 0
-4947 121 0
-4947 571 0
-121 -571 4947 0
-4948 123 0
-4948 607 0
-123 -607 4948 0
-4949 125 0
-4949 643 0
-125 -643 4949 0
-4933 -4934 0
-4933 -4935 0
-4933 -4936 0
-4933 -4937 0
-4933 -4938 0
-4933 -4939 0
-4933 -4940 0
-4933 -4941 0
-4933 -4942 0
-4933 -4943 0
-4933 -4944 0
-4933 -4945 0
-4933 -4946 0
-4933 -4947 0
-4933 -4948 0
-4933 -4949 0
-103 4933 4934 4935 4936 4937 4938 4939 4940 4941 4942 4943 4944 4945 4946 4947 4948 4949 0
-4950 105 0
-4951 91 0
-4951 22 0
-91 -22 4951 0
-4952 93 0
-4952 69 0
-93 -69 4952 0
-4953 97 0
-4953 141 0
-97 -141 4953 0
-4954 99 0
-4954 177 0
-99 -177 4954 0
-4955 101 0
-4955 213 0
-101 -213 4955 0
-4956 103 0
-4956 249 0
-103 -249 4956 0
-4957 107 0
-4957 321 0
-107 -321 4957 0
-4958 109 0
-4958 357 0
-109 -357 4958 0
-4959 111 0
-4959 393 0
-111 -393 4959 0
-4960 113 0
-4960 429 0
-113 -429 4960 0
-4961 115 0
-4961 465 0
-115 -465 4961 0
-4962 117 0
-4962 501 0
-117 -501 4962 0
-4963 119 0
-4963 537 0
-119 -537 4963 0
-4964 121 0
-4964 573 0
-121 -573 4964 0
-4965 123 0
-4965 609 0
-123 -609 4965 0
-4966 125 0
-4966 645 0
-125 -645 4966 0
-4950 -4951 0
-4950 -4952 0
-4950 -4953 0
-4950 -4954 0
-4950 -4955 0
-4950 -4956 0
-4950 -4957 0
-4950 -4958 0
-4950 -4959 0
-4950 -4960 0
-4950 -4961 0
-4950 -4962 0
-4950 -4963 0
-4950 -4964 0
-4950 -4965 0
-4950 -4966 0
-105 4950 4951 4952 4953 4954 4955 4956 4957 4958 4959 4960 4961 4962 4963 4964 4965 4966 0
-4967 107 0
-4968 91 0
-4968 25 0
-91 -25 4968 0
-4969 93 0
-4969 71 0
-93 -71 4969 0
-4970 97 0
-4970 143 0
-97 -143 4970 0
-4971 99 0
-4971 179 0
-99 -179 4971 0
-4972 101 0
-4972 215 0
-101 -215 4972 0
-4973 103 0
-4973 251 0
-103 -251 4973 0
-4974 105 0
-4974 287 0
-105 -287 4974 0
-4975 109 0
-4975 359 0
-109 -359 4975 0
-4976 111 0
-4976 395 0
-111 -395 4976 0
-4977 113 0
-4977 431 0
-113 -431 4977 0
-4978 115 0
-4978 467 0
-115 -467 4978 0
-4979 117 0
-4979 503 0
-117 -503 4979 0
-4980 119 0
-4980 539 0
-119 -539 4980 0
-4981 121 0
-4981 575 0
-121 -575 4981 0
-4982 123 0
-4982 611 0
-123 -611 4982 0
-4983 125 0
-4983 647 0
-125 -647 4983 0
-4967 -4968 0
-4967 -4969 0
-4967 -4970 0
-4967 -4971 0
-4967 -4972 0
-4967 -4973 0
-4967 -4974 0
-4967 -4975 0
-4967 -4976 0
-4967 -4977 0
-4967 -4978 0
-4967 -4979 0
-4967 -4980 0
-4967 -4981 0
-4967 -4982 0
-4967 -4983 0
-107 4967 4968 4969 4970 4971 4972 4973 4974 4975 4976 4977 4978 4979 4980 4981 4982 4983 0
-4984 109 0
-4985 91 0
-4985 28 0
-91 -28 4985 0
-4986 93 0
-4986 73 0
-93 -73 4986 0
-4987 97 0
-4987 145 0
-97 -145 4987 0
-4988 99 0
-4988 181 0
-99 -181 4988 0
-4989 101 0
-4989 217 0
-101 -217 4989 0
-4990 103 0
-4990 253 0
-103 -253 4990 0
-4991 105 0
-4991 289 0
-105 -289 4991 0
-4992 107 0
-4992 325 0
-107 -325 4992 0
-4993 111 0
-4993 397 0
-111 -397 4993 0
-4994 113 0
-4994 433 0
-113 -433 4994 0
-4995 115 0
-4995 469 0
-115 -469 4995 0
-4996 117 0
-4996 505 0
-117 -505 4996 0
-4997 119 0
-4997 541 0
-119 -541 4997 0
-4998 121 0
-4998 577 0
-121 -577 4998 0
-4999 123 0
-4999 613 0
-123 -613 4999 0
-5000 125 0
-5000 649 0
-125 -649 5000 0
-4984 -4985 0
-4984 -4986 0
-4984 -4987 0
-4984 -4988 0
-4984 -4989 0
-4984 -4990 0
-4984 -4991 0
-4984 -4992 0
-4984 -4993 0
-4984 -4994 0
-4984 -4995 0
-4984 -4996 0
-4984 -4997 0
-4984 -4998 0
-4984 -4999 0
-4984 -5000 0
-109 4984 4985 4986 4987 4988 4989 4990 4991 4992 4993 4994 4995 4996 4997 4998 4999 5000 0
-5001 111 0
-5002 91 0
-5002 31 0
-91 -31 5002 0
-5003 93 0
-5003 75 0
-93 -75 5003 0
-5004 97 0
-5004 147 0
-97 -147 5004 0
-5005 99 0
-5005 183 0
-99 -183 5005 0
-5006 101 0
-5006 219 0
-101 -219 5006 0
-5007 103 0
-5007 255 0
-103 -255 5007 0
-5008 105 0
-5008 291 0
-105 -291 5008 0
-5009 107 0
-5009 327 0
-107 -327 5009 0
-5010 109 0
-5010 363 0
-109 -363 5010 0
-5011 113 0
-5011 435 0
-113 -435 5011 0
-5012 115 0
-5012 471 0
-115 -471 5012 0
-5013 117 0
-5013 507 0
-117 -507 5013 0
-5014 119 0
-5014 543 0
-119 -543 5014 0
-5015 121 0
-5015 579 0
-121 -579 5015 0
-5016 123 0
-5016 615 0
-123 -615 5016 0
-5017 125 0
-5017 651 0
-125 -651 5017 0
-5001 -5002 0
-5001 -5003 0
-5001 -5004 0
-5001 -5005 0
-5001 -5006 0
-5001 -5007 0
-5001 -5008 0
-5001 -5009 0
-5001 -5010 0
-5001 -5011 0
-5001 -5012 0
-5001 -5013 0
-5001 -5014 0
-5001 -5015 0
-5001 -5016 0
-5001 -5017 0
-111 5001 5002 5003 5004 5005 5006 5007 5008 5009 5010 5011 5012 5013 5014 5015 5016 5017 0
-5018 113 0
-5019 91 0
-5019 34 0
-91 -34 5019 0
-5020 93 0
-5020 77 0
-93 -77 5020 0
-5021 97 0
-5021 149 0
-97 -149 5021 0
-5022 99 0
-5022 185 0
-99 -185 5022 0
-5023 101 0
-5023 221 0
-101 -221 5023 0
-5024 103 0
-5024 257 0
-103 -257 5024 0
-5025 105 0
-5025 293 0
-105 -293 5025 0
-5026 107 0
-5026 329 0
-107 -329 5026 0
-5027 109 0
-5027 365 0
-109 -365 5027 0
-5028 111 0
-5028 401 0
-111 -401 5028 0
-5029 115 0
-5029 473 0
-115 -473 5029 0
-5030 117 0
-5030 509 0
-117 -509 5030 0
-5031 119 0
-5031 545 0
-119 -545 5031 0
-5032 121 0
-5032 581 0
-121 -581 5032 0
-5033 123 0
-5033 617 0
-123 -617 5033 0
-5034 125 0
-5034 653 0
-125 -653 5034 0
-5018 -5019 0
-5018 -5020 0
-5018 -5021 0
-5018 -5022 0
-5018 -5023 0
-5018 -5024 0
-5018 -5025 0
-5018 -5026 0
-5018 -5027 0
-5018 -5028 0
-5018 -5029 0
-5018 -5030 0
-5018 -5031 0
-5018 -5032 0
-5018 -5033 0
-5018 -5034 0
-113 5018 5019 5020 5021 5022 5023 5024 5025 5026 5027 5028 5029 5030 5031 5032 5033 5034 0
-5035 115 0
-5036 91 0
-5036 37 0
-91 -37 5036 0
-5037 93 0
-5037 79 0
-93 -79 5037 0
-5038 97 0
-5038 151 0
-97 -151 5038 0
-5039 99 0
-5039 187 0
-99 -187 5039 0
-5040 101 0
-5040 223 0
-101 -223 5040 0
-5041 103 0
-5041 259 0
-103 -259 5041 0
-5042 105 0
-5042 295 0
-105 -295 5042 0
-5043 107 0
-5043 331 0
-107 -331 5043 0
-5044 109 0
-5044 367 0
-109 -367 5044 0
-5045 111 0
-5045 403 0
-111 -403 5045 0
-5046 113 0
-5046 439 0
-113 -439 5046 0
-5047 117 0
-5047 511 0
-117 -511 5047 0
-5048 119 0
-5048 547 0
-119 -547 5048 0
-5049 121 0
-5049 583 0
-121 -583 5049 0
-5050 123 0
-5050 619 0
-123 -619 5050 0
-5051 125 0
-5051 655 0
-125 -655 5051 0
-5035 -5036 0
-5035 -5037 0
-5035 -5038 0
-5035 -5039 0
-5035 -5040 0
-5035 -5041 0
-5035 -5042 0
-5035 -5043 0
-5035 -5044 0
-5035 -5045 0
-5035 -5046 0
-5035 -5047 0
-5035 -5048 0
-5035 -5049 0
-5035 -5050 0
-5035 -5051 0
-115 5035 5036 5037 5038 5039 5040 5041 5042 5043 5044 5045 5046 5047 5048 5049 5050 5051 0
-5052 117 0
-5053 91 0
-5053 40 0
-91 -40 5053 0
-5054 93 0
-5054 81 0
-93 -81 5054 0
-5055 97 0
-5055 153 0
-97 -153 5055 0
-5056 99 0
-5056 189 0
-99 -189 5056 0
-5057 101 0
-5057 225 0
-101 -225 5057 0
-5058 103 0
-5058 261 0
-103 -261 5058 0
-5059 105 0
-5059 297 0
-105 -297 5059 0
-5060 107 0
-5060 333 0
-107 -333 5060 0
-5061 109 0
-5061 369 0
-109 -369 5061 0
-5062 111 0
-5062 405 0
-111 -405 5062 0
-5063 113 0
-5063 441 0
-113 -441 5063 0
-5064 115 0
-5064 477 0
-115 -477 5064 0
-5065 119 0
-5065 549 0
-119 -549 5065 0
-5066 121 0
-5066 585 0
-121 -585 5066 0
-5067 123 0
-5067 621 0
-123 -621 5067 0
-5068 125 0
-5068 657 0
-125 -657 5068 0
-5052 -5053 0
-5052 -5054 0
-5052 -5055 0
-5052 -5056 0
-5052 -5057 0
-5052 -5058 0
-5052 -5059 0
-5052 -5060 0
-5052 -5061 0
-5052 -5062 0
-5052 -5063 0
-5052 -5064 0
-5052 -5065 0
-5052 -5066 0
-5052 -5067 0
-5052 -5068 0
-117 5052 5053 5054 5055 5056 5057 5058 5059 5060 5061 5062 5063 5064 5065 5066 5067 5068 0
-5069 119 0
-5070 91 0
-5070 43 0
-91 -43 5070 0
-5071 93 0
-5071 83 0
-93 -83 5071 0
-5072 97 0
-5072 155 0
-97 -155 5072 0
-5073 99 0
-5073 191 0
-99 -191 5073 0
-5074 101 0
-5074 227 0
-101 -227 5074 0
-5075 103 0
-5075 263 0
-103 -263 5075 0
-5076 105 0
-5076 299 0
-105 -299 5076 0
-5077 107 0
-5077 335 0
-107 -335 5077 0
-5078 109 0
-5078 371 0
-109 -371 5078 0
-5079 111 0
-5079 407 0
-111 -407 5079 0
-5080 113 0
-5080 443 0
-113 -443 5080 0
-5081 115 0
-5081 479 0
-115 -479 5081 0
-5082 117 0
-5082 515 0
-117 -515 5082 0
-5083 121 0
-5083 587 0
-121 -587 5083 0
-5084 123 0
-5084 623 0
-123 -623 5084 0
-5085 125 0
-5085 659 0
-125 -659 5085 0
-5069 -5070 0
-5069 -5071 0
-5069 -5072 0
-5069 -5073 0
-5069 -5074 0
-5069 -5075 0
-5069 -5076 0
-5069 -5077 0
-5069 -5078 0
-5069 -5079 0
-5069 -5080 0
-5069 -5081 0
-5069 -5082 0
-5069 -5083 0
-5069 -5084 0
-5069 -5085 0
-119 5069 5070 5071 5072 5073 5074 5075 5076 5077 5078 5079 5080 5081 5082 5083 5084 5085 0
-5086 121 0
-5087 91 0
-5087 46 0
-91 -46 5087 0
-5088 93 0
-5088 85 0
-93 -85 5088 0
-5089 97 0
-5089 157 0
-97 -157 5089 0
-5090 99 0
-5090 193 0
-99 -193 5090 0
-5091 101 0
-5091 229 0
-101 -229 5091 0
-5092 103 0
-5092 265 0
-103 -265 5092 0
-5093 105 0
-5093 301 0
-105 -301 5093 0
-5094 107 0
-5094 337 0
-107 -337 5094 0
-5095 109 0
-5095 373 0
-109 -373 5095 0
-5096 111 0
-5096 409 0
-111 -409 5096 0
-5097 113 0
-5097 445 0
-113 -445 5097 0
-5098 115 0
-5098 481 0
-115 -481 5098 0
-5099 117 0
-5099 517 0
-117 -517 5099 0
-5100 119 0
-5100 553 0
-119 -553 5100 0
-5101 123 0
-5101 625 0
-123 -625 5101 0
-5102 125 0
-5102 661 0
-125 -661 5102 0
-5086 -5087 0
-5086 -5088 0
-5086 -5089 0
-5086 -5090 0
-5086 -5091 0
-5086 -5092 0
-5086 -5093 0
-5086 -5094 0
-5086 -5095 0
-5086 -5096 0
-5086 -5097 0
-5086 -5098 0
-5086 -5099 0
-5086 -5100 0
-5086 -5101 0
-5086 -5102 0
-121 5086 5087 5088 5089 5090 5091 5092 5093 5094 5095 5096 5097 5098 5099 5100 5101 5102 0
-5103 123 0
-5104 91 0
-5104 49 0
-91 -49 5104 0
-5105 93 0
-5105 87 0
-93 -87 5105 0
-5106 97 0
-5106 159 0
-97 -159 5106 0
-5107 99 0
-5107 195 0
-99 -195 5107 0
-5108 101 0
-5108 231 0
-101 -231 5108 0
-5109 103 0
-5109 267 0
-103 -267 5109 0
-5110 105 0
-5110 303 0
-105 -303 5110 0
-5111 107 0
-5111 339 0
-107 -339 5111 0
-5112 109 0
-5112 375 0
-109 -375 5112 0
-5113 111 0
-5113 411 0
-111 -411 5113 0
-5114 113 0
-5114 447 0
-113 -447 5114 0
-5115 115 0
-5115 483 0
-115 -483 5115 0
-5116 117 0
-5116 519 0
-117 -519 5116 0
-5117 119 0
-5117 555 0
-119 -555 5117 0
-5118 121 0
-5118 591 0
-121 -591 5118 0
-5119 125 0
-5119 663 0
-125 -663 5119 0
-5103 -5104 0
-5103 -5105 0
-5103 -5106 0
-5103 -5107 0
-5103 -5108 0
-5103 -5109 0
-5103 -5110 0
-5103 -5111 0
-5103 -5112 0
-5103 -5113 0
-5103 -5114 0
-5103 -5115 0
-5103 -5116 0
-5103 -5117 0
-5103 -5118 0
-5103 -5119 0
-123 5103 5104 5105 5106 5107 5108 5109 5110 5111 5112 5113 5114 5115 5116 5117 5118 5119 0
-5120 125 0
-5121 91 0
-5121 52 0
-91 -52 5121 0
-5122 93 0
-5122 89 0
-93 -89 5122 0
-5123 97 0
-5123 161 0
-97 -161 5123 0
-5124 99 0
-5124 197 0
-99 -197 5124 0
-5125 101 0
-5125 233 0
-101 -233 5125 0
-5126 103 0
-5126 269 0
-103 -269 5126 0
-5127 105 0
-5127 305 0
-105 -305 5127 0
-5128 107 0
-5128 341 0
-107 -341 5128 0
-5129 109 0
-5129 377 0
-109 -377 5129 0
-5130 111 0
-5130 413 0
-111 -413 5130 0
-5131 113 0
-5131 449 0
-113 -449 5131 0
-5132 115 0
-5132 485 0
-115 -485 5132 0
-5133 117 0
-5133 521 0
-117 -521 5133 0
-5134 119 0
-5134 557 0
-119 -557 5134 0
-5135 121 0
-5135 593 0
-121 -593 5135 0
-5136 123 0
-5136 629 0
-123 -629 5136 0
-5120 -5121 0
-5120 -5122 0
-5120 -5123 0
-5120 -5124 0
-5120 -5125 0
-5120 -5126 0
-5120 -5127 0
-5120 -5128 0
-5120 -5129 0
-5120 -5130 0
-5120 -5131 0
-5120 -5132 0
-5120 -5133 0
-5120 -5134 0
-5120 -5135 0
-5120 -5136 0
-125 5120 5121 5122 5123 5124 5125 5126 5127 5128 5129 5130 5131 5132 5133 5134 5135 5136 0
-5137 127 0
-5138 129 0
-5138 55 0
-129 -55 5138 0
-5139 131 0
-5139 91 0
-131 -91 5139 0
-5140 135 0
-5140 163 0
-135 -163 5140 0
-5141 137 0
-5141 199 0
-137 -199 5141 0
-5142 139 0
-5142 235 0
-139 -235 5142 0
-5143 141 0
-5143 271 0
-141 -271 5143 0
-5144 143 0
-5144 307 0
-143 -307 5144 0
-5145 145 0
-5145 343 0
-145 -343 5145 0
-5146 147 0
-5146 379 0
-147 -379 5146 0
-5147 149 0
-5147 415 0
-149 -415 5147 0
-5148 151 0
-5148 451 0
-151 -451 5148 0
-5149 153 0
-5149 487 0
-153 -487 5149 0
-5150 155 0
-5150 523 0
-155 -523 5150 0
-5151 157 0
-5151 559 0
-157 -559 5151 0
-5152 159 0
-5152 595 0
-159 -595 5152 0
-5153 161 0
-5153 631 0
-161 -631 5153 0
-5137 -5138 0
-5137 -5139 0
-5137 -5140 0
-5137 -5141 0
-5137 -5142 0
-5137 -5143 0
-5137 -5144 0
-5137 -5145 0
-5137 -5146 0
-5137 -5147 0
-5137 -5148 0
-5137 -5149 0
-5137 -5150 0
-5137 -5151 0
-5137 -5152 0
-5137 -5153 0
-127 5137 5138 5139 5140 5141 5142 5143 5144 5145 5146 5147 5148 5149 5150 5151 5152 5153 0
-5154 129 0
-5155 127 0
-5155 4 0
-127 -4 5155 0
-5156 131 0
-5156 93 0
-131 -93 5156 0
-5157 135 0
-5157 165 0
-135 -165 5157 0
-5158 137 0
-5158 201 0
-137 -201 5158 0
-5159 139 0
-5159 237 0
-139 -237 5159 0
-5160 141 0
-5160 273 0
-141 -273 5160 0
-5161 143 0
-5161 309 0
-143 -309 5161 0
-5162 145 0
-5162 345 0
-145 -345 5162 0
-5163 147 0
-5163 381 0
-147 -381 5163 0
-5164 149 0
-5164 417 0
-149 -417 5164 0
-5165 151 0
-5165 453 0
-151 -453 5165 0
-5166 153 0
-5166 489 0
-153 -489 5166 0
-5167 155 0
-5167 525 0
-155 -525 5167 0
-5168 157 0
-5168 561 0
-157 -561 5168 0
-5169 159 0
-5169 597 0
-159 -597 5169 0
-5170 161 0
-5170 633 0
-161 -633 5170 0
-5154 -5155 0
-5154 -5156 0
-5154 -5157 0
-5154 -5158 0
-5154 -5159 0
-5154 -5160 0
-5154 -5161 0
-5154 -5162 0
-5154 -5163 0
-5154 -5164 0
-5154 -5165 0
-5154 -5166 0
-5154 -5167 0
-5154 -5168 0
-5154 -5169 0
-5154 -5170 0
-129 5154 5155 5156 5157 5158 5159 5160 5161 5162 5163 5164 5165 5166 5167 5168 5169 5170 0
-5171 131 0
-5172 127 0
-5172 7 0
-127 -7 5172 0
-5173 129 0
-5173 59 0
-129 -59 5173 0
-5174 135 0
-5174 167 0
-135 -167 5174 0
-5175 137 0
-5175 203 0
-137 -203 5175 0
-5176 139 0
-5176 239 0
-139 -239 5176 0
-5177 141 0
-5177 275 0
-141 -275 5177 0
-5178 143 0
-5178 311 0
-143 -311 5178 0
-5179 145 0
-5179 347 0
-145 -347 5179 0
-5180 147 0
-5180 383 0
-147 -383 5180 0
-5181 149 0
-5181 419 0
-149 -419 5181 0
-5182 151 0
-5182 455 0
-151 -455 5182 0
-5183 153 0
-5183 491 0
-153 -491 5183 0
-5184 155 0
-5184 527 0
-155 -527 5184 0
-5185 157 0
-5185 563 0
-157 -563 5185 0
-5186 159 0
-5186 599 0
-159 -599 5186 0
-5187 161 0
-5187 635 0
-161 -635 5187 0
-5171 -5172 0
-5171 -5173 0
-5171 -5174 0
-5171 -5175 0
-5171 -5176 0
-5171 -5177 0
-5171 -5178 0
-5171 -5179 0
-5171 -5180 0
-5171 -5181 0
-5171 -5182 0
-5171 -5183 0
-5171 -5184 0
-5171 -5185 0
-5171 -5186 0
-5171 -5187 0
-131 5171 5172 5173 5174 5175 5176 5177 5178 5179 5180 5181 5182 5183 5184 5185 5186 5187 0
-5188 0
-5189 135 0
-5190 127 0
-5190 13 0
-127 -13 5190 0
-5191 129 0
-5191 63 0
-129 -63 5191 0
-5192 131 0
-5192 99 0
-131 -99 5192 0
-5193 137 0
-5193 207 0
-137 -207 5193 0
-5194 139 0
-5194 243 0
-139 -243 5194 0
-5195 141 0
-5195 279 0
-141 -279 5195 0
-5196 143 0
-5196 315 0
-143 -315 5196 0
-5197 145 0
-5197 351 0
-145 -351 5197 0
-5198 147 0
-5198 387 0
-147 -387 5198 0
-5199 149 0
-5199 423 0
-149 -423 5199 0
-5200 151 0
-5200 459 0
-151 -459 5200 0
-5201 153 0
-5201 495 0
-153 -495 5201 0
-5202 155 0
-5202 531 0
-155 -531 5202 0
-5203 157 0
-5203 567 0
-157 -567 5203 0
-5204 159 0
-5204 603 0
-159 -603 5204 0
-5205 161 0
-5205 639 0
-161 -639 5205 0
-5189 -5190 0
-5189 -5191 0
-5189 -5192 0
-5189 -5193 0
-5189 -5194 0
-5189 -5195 0
-5189 -5196 0
-5189 -5197 0
-5189 -5198 0
-5189 -5199 0
-5189 -5200 0
-5189 -5201 0
-5189 -5202 0
-5189 -5203 0
-5189 -5204 0
-5189 -5205 0
-135 5189 5190 5191 5192 5193 5194 5195 5196 5197 5198 5199 5200 5201 5202 5203 5204 5205 0
-5206 137 0
-5207 127 0
-5207 16 0
-127 -16 5207 0
-5208 129 0
-5208 65 0
-129 -65 5208 0
-5209 131 0
-5209 101 0
-131 -101 5209 0
-5210 135 0
-5210 173 0
-135 -173 5210 0
-5211 139 0
-5211 245 0
-139 -245 5211 0
-5212 141 0
-5212 281 0
-141 -281 5212 0
-5213 143 0
-5213 317 0
-143 -317 5213 0
-5214 145 0
-5214 353 0
-145 -353 5214 0
-5215 147 0
-5215 389 0
-147 -389 5215 0
-5216 149 0
-5216 425 0
-149 -425 5216 0
-5217 151 0
-5217 461 0
-151 -461 5217 0
-5218 153 0
-5218 497 0
-153 -497 5218 0
-5219 155 0
-5219 533 0
-155 -533 5219 0
-5220 157 0
-5220 569 0
-157 -569 5220 0
-5221 159 0
-5221 605 0
-159 -605 5221 0
-5222 161 0
-5222 641 0
-161 -641 5222 0
-5206 -5207 0
-5206 -5208 0
-5206 -5209 0
-5206 -5210 0
-5206 -5211 0
-5206 -5212 0
-5206 -5213 0
-5206 -5214 0
-5206 -5215 0
-5206 -5216 0
-5206 -5217 0
-5206 -5218 0
-5206 -5219 0
-5206 -5220 0
-5206 -5221 0
-5206 -5222 0
-137 5206 5207 5208 5209 5210 5211 5212 5213 5214 5215 5216 5217 5218 5219 5220 5221 5222 0
-5223 139 0
-5224 127 0
-5224 19 0
-127 -19 5224 0
-5225 129 0
-5225 67 0
-129 -67 5225 0
-5226 131 0
-5226 103 0
-131 -103 5226 0
-5227 135 0
-5227 175 0
-135 -175 5227 0
-5228 137 0
-5228 211 0
-137 -211 5228 0
-5229 141 0
-5229 283 0
-141 -283 5229 0
-5230 143 0
-5230 319 0
-143 -319 5230 0
-5231 145 0
-5231 355 0
-145 -355 5231 0
-5232 147 0
-5232 391 0
-147 -391 5232 0
-5233 149 0
-5233 427 0
-149 -427 5233 0
-5234 151 0
-5234 463 0
-151 -463 5234 0
-5235 153 0
-5235 499 0
-153 -499 5235 0
-5236 155 0
-5236 535 0
-155 -535 5236 0
-5237 157 0
-5237 571 0
-157 -571 5237 0
-5238 159 0
-5238 607 0
-159 -607 5238 0
-5239 161 0
-5239 643 0
-161 -643 5239 0
-5223 -5224 0
-5223 -5225 0
-5223 -5226 0
-5223 -5227 0
-5223 -5228 0
-5223 -5229 0
-5223 -5230 0
-5223 -5231 0
-5223 -5232 0
-5223 -5233 0
-5223 -5234 0
-5223 -5235 0
-5223 -5236 0
-5223 -5237 0
-5223 -5238 0
-5223 -5239 0
-139 5223 5224 5225 5226 5227 5228 5229 5230 5231 5232 5233 5234 5235 5236 5237 5238 5239 0
-5240 141 0
-5241 127 0
-5241 22 0
-127 -22 5241 0
-5242 129 0
-5242 69 0
-129 -69 5242 0
-5243 131 0
-5243 105 0
-131 -105 5243 0
-5244 135 0
-5244 177 0
-135 -177 5244 0
-5245 137 0
-5245 213 0
-137 -213 5245 0
-5246 139 0
-5246 249 0
-139 -249 5246 0
-5247 143 0
-5247 321 0
-143 -321 5247 0
-5248 145 0
-5248 357 0
-145 -357 5248 0
-5249 147 0
-5249 393 0
-147 -393 5249 0
-5250 149 0
-5250 429 0
-149 -429 5250 0
-5251 151 0
-5251 465 0
-151 -465 5251 0
-5252 153 0
-5252 501 0
-153 -501 5252 0
-5253 155 0
-5253 537 0
-155 -537 5253 0
-5254 157 0
-5254 573 0
-157 -573 5254 0
-5255 159 0
-5255 609 0
-159 -609 5255 0
-5256 161 0
-5256 645 0
-161 -645 5256 0
-5240 -5241 0
-5240 -5242 0
-5240 -5243 0
-5240 -5244 0
-5240 -5245 0
-5240 -5246 0
-5240 -5247 0
-5240 -5248 0
-5240 -5249 0
-5240 -5250 0
-5240 -5251 0
-5240 -5252 0
-5240 -5253 0
-5240 -5254 0
-5240 -5255 0
-5240 -5256 0
-141 5240 5241 5242 5243 5244 5245 5246 5247 5248 5249 5250 5251 5252 5253 5254 5255 5256 0
-5257 143 0
-5258 127 0
-5258 25 0
-127 -25 5258 0
-5259 129 0
-5259 71 0
-129 -71 5259 0
-5260 131 0
-5260 107 0
-131 -107 5260 0
-5261 135 0
-5261 179 0
-135 -179 5261 0
-5262 137 0
-5262 215 0
-137 -215 5262 0
-5263 139 0
-5263 251 0
-139 -251 5263 0
-5264 141 0
-5264 287 0
-141 -287 5264 0
-5265 145 0
-5265 359 0
-145 -359 5265 0
-5266 147 0
-5266 395 0
-147 -395 5266 0
-5267 149 0
-5267 431 0
-149 -431 5267 0
-5268 151 0
-5268 467 0
-151 -467 5268 0
-5269 153 0
-5269 503 0
-153 -503 5269 0
-5270 155 0
-5270 539 0
-155 -539 5270 0
-5271 157 0
-5271 575 0
-157 -575 5271 0
-5272 159 0
-5272 611 0
-159 -611 5272 0
-5273 161 0
-5273 647 0
-161 -647 5273 0
-5257 -5258 0
-5257 -5259 0
-5257 -5260 0
-5257 -5261 0
-5257 -5262 0
-5257 -5263 0
-5257 -5264 0
-5257 -5265 0
-5257 -5266 0
-5257 -5267 0
-5257 -5268 0
-5257 -5269 0
-5257 -5270 0
-5257 -5271 0
-5257 -5272 0
-5257 -5273 0
-143 5257 5258 5259 5260 5261 5262 5263 5264 5265 5266 5267 5268 5269 5270 5271 5272 5273 0
-5274 145 0
-5275 127 0
-5275 28 0
-127 -28 5275 0
-5276 129 0
-5276 73 0
-129 -73 5276 0
-5277 131 0
-5277 109 0
-131 -109 5277 0
-5278 135 0
-5278 181 0
-135 -181 5278 0
-5279 137 0
-5279 217 0
-137 -217 5279 0
-5280 139 0
-5280 253 0
-139 -253 5280 0
-5281 141 0
-5281 289 0
-141 -289 5281 0
-5282 143 0
-5282 325 0
-143 -325 5282 0
-5283 147 0
-5283 397 0
-147 -397 5283 0
-5284 149 0
-5284 433 0
-149 -433 5284 0
-5285 151 0
-5285 469 0
-151 -469 5285 0
-5286 153 0
-5286 505 0
-153 -505 5286 0
-5287 155 0
-5287 541 0
-155 -541 5287 0
-5288 157 0
-5288 577 0
-157 -577 5288 0
-5289 159 0
-5289 613 0
-159 -613 5289 0
-5290 161 0
-5290 649 0
-161 -649 5290 0
-5274 -5275 0
-5274 -5276 0
-5274 -5277 0
-5274 -5278 0
-5274 -5279 0
-5274 -5280 0
-5274 -5281 0
-5274 -5282 0
-5274 -5283 0
-5274 -5284 0
-5274 -5285 0
-5274 -5286 0
-5274 -5287 0
-5274 -5288 0
-5274 -5289 0
-5274 -5290 0
-145 5274 5275 5276 5277 5278 5279 5280 5281 5282 5283 5284 5285 5286 5287 5288 5289 5290 0
-5291 147 0
-5292 127 0
-5292 31 0
-127 -31 5292 0
-5293 129 0
-5293 75 0
-129 -75 5293 0
-5294 131 0
-5294 111 0
-131 -111 5294 0
-5295 135 0
-5295 183 0
-135 -183 5295 0
-5296 137 0
-5296 219 0
-137 -219 5296 0
-5297 139 0
-5297 255 0
-139 -255 5297 0
-5298 141 0
-5298 291 0
-141 -291 5298 0
-5299 143 0
-5299 327 0
-143 -327 5299 0
-5300 145 0
-5300 363 0
-145 -363 5300 0
-5301 149 0
-5301 435 0
-149 -435 5301 0
-5302 151 0
-5302 471 0
-151 -471 5302 0
-5303 153 0
-5303 507 0
-153 -507 5303 0
-5304 155 0
-5304 543 0
-155 -543 5304 0
-5305 157 0
-5305 579 0
-157 -579 5305 0
-5306 159 0
-5306 615 0
-159 -615 5306 0
-5307 161 0
-5307 651 0
-161 -651 5307 0
-5291 -5292 0
-5291 -5293 0
-5291 -5294 0
-5291 -5295 0
-5291 -5296 0
-5291 -5297 0
-5291 -5298 0
-5291 -5299 0
-5291 -5300 0
-5291 -5301 0
-5291 -5302 0
-5291 -5303 0
-5291 -5304 0
-5291 -5305 0
-5291 -5306 0
-5291 -5307 0
-147 5291 5292 5293 5294 5295 5296 5297 5298 5299 5300 5301 5302 5303 5304 5305 5306 5307 0
-5308 149 0
-5309 127 0
-5309 34 0
-127 -34 5309 0
-5310 129 0
-5310 77 0
-129 -77 5310 0
-5311 131 0
-5311 113 0
-131 -113 5311 0
-5312 135 0
-5312 185 0
-135 -185 5312 0
-5313 137 0
-5313 221 0
-137 -221 5313 0
-5314 139 0
-5314 257 0
-139 -257 5314 0
-5315 141 0
-5315 293 0
-141 -293 5315 0
-5316 143 0
-5316 329 0
-143 -329 5316 0
-5317 145 0
-5317 365 0
-145 -365 5317 0
-5318 147 0
-5318 401 0
-147 -401 5318 0
-5319 151 0
-5319 473 0
-151 -473 5319 0
-5320 153 0
-5320 509 0
-153 -509 5320 0
-5321 155 0
-5321 545 0
-155 -545 5321 0
-5322 157 0
-5322 581 0
-157 -581 5322 0
-5323 159 0
-5323 617 0
-159 -617 5323 0
-5324 161 0
-5324 653 0
-161 -653 5324 0
-5308 -5309 0
-5308 -5310 0
-5308 -5311 0
-5308 -5312 0
-5308 -5313 0
-5308 -5314 0
-5308 -5315 0
-5308 -5316 0
-5308 -5317 0
-5308 -5318 0
-5308 -5319 0
-5308 -5320 0
-5308 -5321 0
-5308 -5322 0
-5308 -5323 0
-5308 -5324 0
-149 5308 5309 5310 5311 5312 5313 5314 5315 5316 5317 5318 5319 5320 5321 5322 5323 5324 0
-5325 151 0
-5326 127 0
-5326 37 0
-127 -37 5326 0
-5327 129 0
-5327 79 0
-129 -79 5327 0
-5328 131 0
-5328 115 0
-131 -115 5328 0
-5329 135 0
-5329 187 0
-135 -187 5329 0
-5330 137 0
-5330 223 0
-137 -223 5330 0
-5331 139 0
-5331 259 0
-139 -259 5331 0
-5332 141 0
-5332 295 0
-141 -295 5332 0
-5333 143 0
-5333 331 0
-143 -331 5333 0
-5334 145 0
-5334 367 0
-145 -367 5334 0
-5335 147 0
-5335 403 0
-147 -403 5335 0
-5336 149 0
-5336 439 0
-149 -439 5336 0
-5337 153 0
-5337 511 0
-153 -511 5337 0
-5338 155 0
-5338 547 0
-155 -547 5338 0
-5339 157 0
-5339 583 0
-157 -583 5339 0
-5340 159 0
-5340 619 0
-159 -619 5340 0
-5341 161 0
-5341 655 0
-161 -655 5341 0
-5325 -5326 0
-5325 -5327 0
-5325 -5328 0
-5325 -5329 0
-5325 -5330 0
-5325 -5331 0
-5325 -5332 0
-5325 -5333 0
-5325 -5334 0
-5325 -5335 0
-5325 -5336 0
-5325 -5337 0
-5325 -5338 0
-5325 -5339 0
-5325 -5340 0
-5325 -5341 0
-151 5325 5326 5327 5328 5329 5330 5331 5332 5333 5334 5335 5336 5337 5338 5339 5340 5341 0
-5342 153 0
-5343 127 0
-5343 40 0
-127 -40 5343 0
-5344 129 0
-5344 81 0
-129 -81 5344 0
-5345 131 0
-5345 117 0
-131 -117 5345 0
-5346 135 0
-5346 189 0
-135 -189 5346 0
-5347 137 0
-5347 225 0
-137 -225 5347 0
-5348 139 0
-5348 261 0
-139 -261 5348 0
-5349 141 0
-5349 297 0
-141 -297 5349 0
-5350 143 0
-5350 333 0
-143 -333 5350 0
-5351 145 0
-5351 369 0
-145 -369 5351 0
-5352 147 0
-5352 405 0
-147 -405 5352 0
-5353 149 0
-5353 441 0
-149 -441 5353 0
-5354 151 0
-5354 477 0
-151 -477 5354 0
-5355 155 0
-5355 549 0
-155 -549 5355 0
-5356 157 0
-5356 585 0
-157 -585 5356 0
-5357 159 0
-5357 621 0
-159 -621 5357 0
-5358 161 0
-5358 657 0
-161 -657 5358 0
-5342 -5343 0
-5342 -5344 0
-5342 -5345 0
-5342 -5346 0
-5342 -5347 0
-5342 -5348 0
-5342 -5349 0
-5342 -5350 0
-5342 -5351 0
-5342 -5352 0
-5342 -5353 0
-5342 -5354 0
-5342 -5355 0
-5342 -5356 0
-5342 -5357 0
-5342 -5358 0
-153 5342 5343 5344 5345 5346 5347 5348 5349 5350 5351 5352 5353 5354 5355 5356 5357 5358 0
-5359 155 0
-5360 127 0
-5360 43 0
-127 -43 5360 0
-5361 129 0
-5361 83 0
-129 -83 5361 0
-5362 131 0
-5362 119 0
-131 -119 5362 0
-5363 135 0
-5363 191 0
-135 -191 5363 0
-5364 137 0
-5364 227 0
-137 -227 5364 0
-5365 139 0
-5365 263 0
-139 -263 5365 0
-5366 141 0
-5366 299 0
-141 -299 5366 0
-5367 143 0
-5367 335 0
-143 -335 5367 0
-5368 145 0
-5368 371 0
-145 -371 5368 0
-5369 147 0
-5369 407 0
-147 -407 5369 0
-5370 149 0
-5370 443 0
-149 -443 5370 0
-5371 151 0
-5371 479 0
-151 -479 5371 0
-5372 153 0
-5372 515 0
-153 -515 5372 0
-5373 157 0
-5373 587 0
-157 -587 5373 0
-5374 159 0
-5374 623 0
-159 -623 5374 0
-5375 161 0
-5375 659 0
-161 -659 5375 0
-5359 -5360 0
-5359 -5361 0
-5359 -5362 0
-5359 -5363 0
-5359 -5364 0
-5359 -5365 0
-5359 -5366 0
-5359 -5367 0
-5359 -5368 0
-5359 -5369 0
-5359 -5370 0
-5359 -5371 0
-5359 -5372 0
-5359 -5373 0
-5359 -5374 0
-5359 -5375 0
-155 5359 5360 5361 5362 5363 5364 5365 5366 5367 5368 5369 5370 5371 5372 5373 5374 5375 0
-5376 157 0
-5377 127 0
-5377 46 0
-127 -46 5377 0
-5378 129 0
-5378 85 0
-129 -85 5378 0
-5379 131 0
-5379 121 0
-131 -121 5379 0
-5380 135 0
-5380 193 0
-135 -193 5380 0
-5381 137 0
-5381 229 0
-137 -229 5381 0
-5382 139 0
-5382 265 0
-139 -265 5382 0
-5383 141 0
-5383 301 0
-141 -301 5383 0
-5384 143 0
-5384 337 0
-143 -337 5384 0
-5385 145 0
-5385 373 0
-145 -373 5385 0
-5386 147 0
-5386 409 0
-147 -409 5386 0
-5387 149 0
-5387 445 0
-149 -445 5387 0
-5388 151 0
-5388 481 0
-151 -481 5388 0
-5389 153 0
-5389 517 0
-153 -517 5389 0
-5390 155 0
-5390 553 0
-155 -553 5390 0
-5391 159 0
-5391 625 0
-159 -625 5391 0
-5392 161 0
-5392 661 0
-161 -661 5392 0
-5376 -5377 0
-5376 -5378 0
-5376 -5379 0
-5376 -5380 0
-5376 -5381 0
-5376 -5382 0
-5376 -5383 0
-5376 -5384 0
-5376 -5385 0
-5376 -5386 0
-5376 -5387 0
-5376 -5388 0
-5376 -5389 0
-5376 -5390 0
-5376 -5391 0
-5376 -5392 0
-157 5376 5377 5378 5379 5380 5381 5382 5383 5384 5385 5386 5387 5388 5389 5390 5391 5392 0
-5393 159 0
-5394 127 0
-5394 49 0
-127 -49 5394 0
-5395 129 0
-5395 87 0
-129 -87 5395 0
-5396 131 0
-5396 123 0
-131 -123 5396 0
-5397 135 0
-5397 195 0
-135 -195 5397 0
-5398 137 0
-5398 231 0
-137 -231 5398 0
-5399 139 0
-5399 267 0
-139 -267 5399 0
-5400 141 0
-5400 303 0
-141 -303 5400 0
-5401 143 0
-5401 339 0
-143 -339 5401 0
-5402 145 0
-5402 375 0
-145 -375 5402 0
-5403 147 0
-5403 411 0
-147 -411 5403 0
-5404 149 0
-5404 447 0
-149 -447 5404 0
-5405 151 0
-5405 483 0
-151 -483 5405 0
-5406 153 0
-5406 519 0
-153 -519 5406 0
-5407 155 0
-5407 555 0
-155 -555 5407 0
-5408 157 0
-5408 591 0
-157 -591 5408 0
-5409 161 0
-5409 663 0
-161 -663 5409 0
-5393 -5394 0
-5393 -5395 0
-5393 -5396 0
-5393 -5397 0
-5393 -5398 0
-5393 -5399 0
-5393 -5400 0
-5393 -5401 0
-5393 -5402 0
-5393 -5403 0
-5393 -5404 0
-5393 -5405 0
-5393 -5406 0
-5393 -5407 0
-5393 -5408 0
-5393 -5409 0
-159 5393 5394 5395 5396 5397 5398 5399 5400 5401 5402 5403 5404 5405 5406 5407 5408 5409 0
-5410 161 0
-5411 127 0
-5411 52 0
-127 -52 5411 0
-5412 129 0
-5412 89 0
-129 -89 5412 0
-5413 131 0
-5413 125 0
-131 -125 5413 0
-5414 135 0
-5414 197 0
-135 -197 5414 0
-5415 137 0
-5415 233 0
-137 -233 5415 0
-5416 139 0
-5416 269 0
-139 -269 5416 0
-5417 141 0
-5417 305 0
-141 -305 5417 0
-5418 143 0
-5418 341 0
-143 -341 5418 0
-5419 145 0
-5419 377 0
-145 -377 5419 0
-5420 147 0
-5420 413 0
-147 -413 5420 0
-5421 149 0
-5421 449 0
-149 -449 5421 0
-5422 151 0
-5422 485 0
-151 -485 5422 0
-5423 153 0
-5423 521 0
-153 -521 5423 0
-5424 155 0
-5424 557 0
-155 -557 5424 0
-5425 157 0
-5425 593 0
-157 -593 5425 0
-5426 159 0
-5426 629 0
-159 -629 5426 0
-5410 -5411 0
-5410 -5412 0
-5410 -5413 0
-5410 -5414 0
-5410 -5415 0
-5410 -5416 0
-5410 -5417 0
-5410 -5418 0
-5410 -5419 0
-5410 -5420 0
-5410 -5421 0
-5410 -5422 0
-5410 -5423 0
-5410 -5424 0
-5410 -5425 0
-5410 -5426 0
-161 5410 5411 5412 5413 5414 5415 5416 5417 5418 5419 5420 5421 5422 5423 5424 5425 5426 0
-5427 163 0
-5428 165 0
-5428 55 0
-165 -55 5428 0
-5429 167 0
-5429 91 0
-167 -91 5429 0
-5430 169 0
-5430 127 0
-169 -127 5430 0
-5431 173 0
-5431 199 0
-173 -199 5431 0
-5432 175 0
-5432 235 0
-175 -235 5432 0
-5433 177 0
-5433 271 0
-177 -271 5433 0
-5434 179 0
-5434 307 0
-179 -307 5434 0
-5435 181 0
-5435 343 0
-181 -343 5435 0
-5436 183 0
-5436 379 0
-183 -379 5436 0
-5437 185 0
-5437 415 0
-185 -415 5437 0
-5438 187 0
-5438 451 0
-187 -451 5438 0
-5439 189 0
-5439 487 0
-189 -487 5439 0
-5440 191 0
-5440 523 0
-191 -523 5440 0
-5441 193 0
-5441 559 0
-193 -559 5441 0
-5442 195 0
-5442 595 0
-195 -595 5442 0
-5443 197 0
-5443 631 0
-197 -631 5443 0
-5427 -5428 0
-5427 -5429 0
-5427 -5430 0
-5427 -5431 0
-5427 -5432 0
-5427 -5433 0
-5427 -5434 0
-5427 -5435 0
-5427 -5436 0
-5427 -5437 0
-5427 -5438 0
-5427 -5439 0
-5427 -5440 0
-5427 -5441 0
-5427 -5442 0
-5427 -5443 0
-163 5427 5428 5429 5430 5431 5432 5433 5434 5435 5436 5437 5438 5439 5440 5441 5442 5443 0
-5444 165 0
-5445 163 0
-5445 4 0
-163 -4 5445 0
-5446 167 0
-5446 93 0
-167 -93 5446 0
-5447 169 0
-5447 129 0
-169 -129 5447 0
-5448 173 0
-5448 201 0
-173 -201 5448 0
-5449 175 0
-5449 237 0
-175 -237 5449 0
-5450 177 0
-5450 273 0
-177 -273 5450 0
-5451 179 0
-5451 309 0
-179 -309 5451 0
-5452 181 0
-5452 345 0
-181 -345 5452 0
-5453 183 0
-5453 381 0
-183 -381 5453 0
-5454 185 0
-5454 417 0
-185 -417 5454 0
-5455 187 0
-5455 453 0
-187 -453 5455 0
-5456 189 0
-5456 489 0
-189 -489 5456 0
-5457 191 0
-5457 525 0
-191 -525 5457 0
-5458 193 0
-5458 561 0
-193 -561 5458 0
-5459 195 0
-5459 597 0
-195 -597 5459 0
-5460 197 0
-5460 633 0
-197 -633 5460 0
-5444 -5445 0
-5444 -5446 0
-5444 -5447 0
-5444 -5448 0
-5444 -5449 0
-5444 -5450 0
-5444 -5451 0
-5444 -5452 0
-5444 -5453 0
-5444 -5454 0
-5444 -5455 0
-5444 -5456 0
-5444 -5457 0
-5444 -5458 0
-5444 -5459 0
-5444 -5460 0
-165 5444 5445 5446 5447 5448 5449 5450 5451 5452 5453 5454 5455 5456 5457 5458 5459 5460 0
-5461 167 0
-5462 163 0
-5462 7 0
-163 -7 5462 0
-5463 165 0
-5463 59 0
-165 -59 5463 0
-5464 169 0
-5464 131 0
-169 -131 5464 0
-5465 173 0
-5465 203 0
-173 -203 5465 0
-5466 175 0
-5466 239 0
-175 -239 5466 0
-5467 177 0
-5467 275 0
-177 -275 5467 0
-5468 179 0
-5468 311 0
-179 -311 5468 0
-5469 181 0
-5469 347 0
-181 -347 5469 0
-5470 183 0
-5470 383 0
-183 -383 5470 0
-5471 185 0
-5471 419 0
-185 -419 5471 0
-5472 187 0
-5472 455 0
-187 -455 5472 0
-5473 189 0
-5473 491 0
-189 -491 5473 0
-5474 191 0
-5474 527 0
-191 -527 5474 0
-5475 193 0
-5475 563 0
-193 -563 5475 0
-5476 195 0
-5476 599 0
-195 -599 5476 0
-5477 197 0
-5477 635 0
-197 -635 5477 0
-5461 -5462 0
-5461 -5463 0
-5461 -5464 0
-5461 -5465 0
-5461 -5466 0
-5461 -5467 0
-5461 -5468 0
-5461 -5469 0
-5461 -5470 0
-5461 -5471 0
-5461 -5472 0
-5461 -5473 0
-5461 -5474 0
-5461 -5475 0
-5461 -5476 0
-5461 -5477 0
-167 5461 5462 5463 5464 5465 5466 5467 5468 5469 5470 5471 5472 5473 5474 5475 5476 5477 0
-5478 169 0
-5479 163 0
-5479 10 0
-163 -10 5479 0
-5480 165 0
-5480 61 0
-165 -61 5480 0
-5481 167 0
-5481 97 0
-167 -97 5481 0
-5482 173 0
-5482 205 0
-173 -205 5482 0
-5483 175 0
-5483 241 0
-175 -241 5483 0
-5484 177 0
-5484 277 0
-177 -277 5484 0
-5485 179 0
-5485 313 0
-179 -313 5485 0
-5486 181 0
-5486 349 0
-181 -349 5486 0
-5487 183 0
-5487 385 0
-183 -385 5487 0
-5488 185 0
-5488 421 0
-185 -421 5488 0
-5489 187 0
-5489 457 0
-187 -457 5489 0
-5490 189 0
-5490 493 0
-189 -493 5490 0
-5491 191 0
-5491 529 0
-191 -529 5491 0
-5492 193 0
-5492 565 0
-193 -565 5492 0
-5493 195 0
-5493 601 0
-195 -601 5493 0
-5494 197 0
-5494 637 0
-197 -637 5494 0
-5478 -5479 0
-5478 -5480 0
-5478 -5481 0
-5478 -5482 0
-5478 -5483 0
-5478 -5484 0
-5478 -5485 0
-5478 -5486 0
-5478 -5487 0
-5478 -5488 0
-5478 -5489 0
-5478 -5490 0
-5478 -5491 0
-5478 -5492 0
-5478 -5493 0
-5478 -5494 0
-169 5478 5479 5480 5481 5482 5483 5484 5485 5486 5487 5488 5489 5490 5491 5492 5493 5494 0
-5495 0
-5496 173 0
-5497 163 0
-5497 16 0
-163 -16 5497 0
-5498 165 0
-5498 65 0
-165 -65 5498 0
-5499 167 0
-5499 101 0
-167 -101 5499 0
-5500 169 0
-5500 137 0
-169 -137 5500 0
-5501 175 0
-5501 245 0
-175 -245 5501 0
-5502 177 0
-5502 281 0
-177 -281 5502 0
-5503 179 0
-5503 317 0
-179 -317 5503 0
-5504 181 0
-5504 353 0
-181 -353 5504 0
-5505 183 0
-5505 389 0
-183 -389 5505 0
-5506 185 0
-5506 425 0
-185 -425 5506 0
-5507 187 0
-5507 461 0
-187 -461 5507 0
-5508 189 0
-5508 497 0
-189 -497 5508 0
-5509 191 0
-5509 533 0
-191 -533 5509 0
-5510 193 0
-5510 569 0
-193 -569 5510 0
-5511 195 0
-5511 605 0
-195 -605 5511 0
-5512 197 0
-5512 641 0
-197 -641 5512 0
-5496 -5497 0
-5496 -5498 0
-5496 -5499 0
-5496 -5500 0
-5496 -5501 0
-5496 -5502 0
-5496 -5503 0
-5496 -5504 0
-5496 -5505 0
-5496 -5506 0
-5496 -5507 0
-5496 -5508 0
-5496 -5509 0
-5496 -5510 0
-5496 -5511 0
-5496 -5512 0
-173 5496 5497 5498 5499 5500 5501 5502 5503 5504 5505 5506 5507 5508 5509 5510 5511 5512 0
-5513 175 0
-5514 163 0
-5514 19 0
-163 -19 5514 0
-5515 165 0
-5515 67 0
-165 -67 5515 0
-5516 167 0
-5516 103 0
-167 -103 5516 0
-5517 169 0
-5517 139 0
-169 -139 5517 0
-5518 173 0
-5518 211 0
-173 -211 5518 0
-5519 177 0
-5519 283 0
-177 -283 5519 0
-5520 179 0
-5520 319 0
-179 -319 5520 0
-5521 181 0
-5521 355 0
-181 -355 5521 0
-5522 183 0
-5522 391 0
-183 -391 5522 0
-5523 185 0
-5523 427 0
-185 -427 5523 0
-5524 187 0
-5524 463 0
-187 -463 5524 0
-5525 189 0
-5525 499 0
-189 -499 5525 0
-5526 191 0
-5526 535 0
-191 -535 5526 0
-5527 193 0
-5527 571 0
-193 -571 5527 0
-5528 195 0
-5528 607 0
-195 -607 5528 0
-5529 197 0
-5529 643 0
-197 -643 5529 0
-5513 -5514 0
-5513 -5515 0
-5513 -5516 0
-5513 -5517 0
-5513 -5518 0
-5513 -5519 0
-5513 -5520 0
-5513 -5521 0
-5513 -5522 0
-5513 -5523 0
-5513 -5524 0
-5513 -5525 0
-5513 -5526 0
-5513 -5527 0
-5513 -5528 0
-5513 -5529 0
-175 5513 5514 5515 5516 5517 5518 5519 5520 5521 5522 5523 5524 5525 5526 5527 5528 5529 0
-5530 177 0
-5531 163 0
-5531 22 0
-163 -22 5531 0
-5532 165 0
-5532 69 0
-165 -69 5532 0
-5533 167 0
-5533 105 0
-167 -105 5533 0
-5534 169 0
-5534 141 0
-169 -141 5534 0
-5535 173 0
-5535 213 0
-173 -213 5535 0
-5536 175 0
-5536 249 0
-175 -249 5536 0
-5537 179 0
-5537 321 0
-179 -321 5537 0
-5538 181 0
-5538 357 0
-181 -357 5538 0
-5539 183 0
-5539 393 0
-183 -393 5539 0
-5540 185 0
-5540 429 0
-185 -429 5540 0
-5541 187 0
-5541 465 0
-187 -465 5541 0
-5542 189 0
-5542 501 0
-189 -501 5542 0
-5543 191 0
-5543 537 0
-191 -537 5543 0
-5544 193 0
-5544 573 0
-193 -573 5544 0
-5545 195 0
-5545 609 0
-195 -609 5545 0
-5546 197 0
-5546 645 0
-197 -645 5546 0
-5530 -5531 0
-5530 -5532 0
-5530 -5533 0
-5530 -5534 0
-5530 -5535 0
-5530 -5536 0
-5530 -5537 0
-5530 -5538 0
-5530 -5539 0
-5530 -5540 0
-5530 -5541 0
-5530 -5542 0
-5530 -5543 0
-5530 -5544 0
-5530 -5545 0
-5530 -5546 0
-177 5530 5531 5532 5533 5534 5535 5536 5537 5538 5539 5540 5541 5542 5543 5544 5545 5546 0
-5547 179 0
-5548 163 0
-5548 25 0
-163 -25 5548 0
-5549 165 0
-5549 71 0
-165 -71 5549 0
-5550 167 0
-5550 107 0
-167 -107 5550 0
-5551 169 0
-5551 143 0
-169 -143 5551 0
-5552 173 0
-5552 215 0
-173 -215 5552 0
-5553 175 0
-5553 251 0
-175 -251 5553 0
-5554 177 0
-5554 287 0
-177 -287 5554 0
-5555 181 0
-5555 359 0
-181 -359 5555 0
-5556 183 0
-5556 395 0
-183 -395 5556 0
-5557 185 0
-5557 431 0
-185 -431 5557 0
-5558 187 0
-5558 467 0
-187 -467 5558 0
-5559 189 0
-5559 503 0
-189 -503 5559 0
-5560 191 0
-5560 539 0
-191 -539 5560 0
-5561 193 0
-5561 575 0
-193 -575 5561 0
-5562 195 0
-5562 611 0
-195 -611 5562 0
-5563 197 0
-5563 647 0
-197 -647 5563 0
-5547 -5548 0
-5547 -5549 0
-5547 -5550 0
-5547 -5551 0
-5547 -5552 0
-5547 -5553 0
-5547 -5554 0
-5547 -5555 0
-5547 -5556 0
-5547 -5557 0
-5547 -5558 0
-5547 -5559 0
-5547 -5560 0
-5547 -5561 0
-5547 -5562 0
-5547 -5563 0
-179 5547 5548 5549 5550 5551 5552 5553 5554 5555 5556 5557 5558 5559 5560 5561 5562 5563 0
-5564 181 0
-5565 163 0
-5565 28 0
-163 -28 5565 0
-5566 165 0
-5566 73 0
-165 -73 5566 0
-5567 167 0
-5567 109 0
-167 -109 5567 0
-5568 169 0
-5568 145 0
-169 -145 5568 0
-5569 173 0
-5569 217 0
-173 -217 5569 0
-5570 175 0
-5570 253 0
-175 -253 5570 0
-5571 177 0
-5571 289 0
-177 -289 5571 0
-5572 179 0
-5572 325 0
-179 -325 5572 0
-5573 183 0
-5573 397 0
-183 -397 5573 0
-5574 185 0
-5574 433 0
-185 -433 5574 0
-5575 187 0
-5575 469 0
-187 -469 5575 0
-5576 189 0
-5576 505 0
-189 -505 5576 0
-5577 191 0
-5577 541 0
-191 -541 5577 0
-5578 193 0
-5578 577 0
-193 -577 5578 0
-5579 195 0
-5579 613 0
-195 -613 5579 0
-5580 197 0
-5580 649 0
-197 -649 5580 0
-5564 -5565 0
-5564 -5566 0
-5564 -5567 0
-5564 -5568 0
-5564 -5569 0
-5564 -5570 0
-5564 -5571 0
-5564 -5572 0
-5564 -5573 0
-5564 -5574 0
-5564 -5575 0
-5564 -5576 0
-5564 -5577 0
-5564 -5578 0
-5564 -5579 0
-5564 -5580 0
-181 5564 5565 5566 5567 5568 5569 5570 5571 5572 5573 5574 5575 5576 5577 5578 5579 5580 0
-5581 183 0
-5582 163 0
-5582 31 0
-163 -31 5582 0
-5583 165 0
-5583 75 0
-165 -75 5583 0
-5584 167 0
-5584 111 0
-167 -111 5584 0
-5585 169 0
-5585 147 0
-169 -147 5585 0
-5586 173 0
-5586 219 0
-173 -219 5586 0
-5587 175 0
-5587 255 0
-175 -255 5587 0
-5588 177 0
-5588 291 0
-177 -291 5588 0
-5589 179 0
-5589 327 0
-179 -327 5589 0
-5590 181 0
-5590 363 0
-181 -363 5590 0
-5591 185 0
-5591 435 0
-185 -435 5591 0
-5592 187 0
-5592 471 0
-187 -471 5592 0
-5593 189 0
-5593 507 0
-189 -507 5593 0
-5594 191 0
-5594 543 0
-191 -543 5594 0
-5595 193 0
-5595 579 0
-193 -579 5595 0
-5596 195 0
-5596 615 0
-195 -615 5596 0
-5597 197 0
-5597 651 0
-197 -651 5597 0
-5581 -5582 0
-5581 -5583 0
-5581 -5584 0
-5581 -5585 0
-5581 -5586 0
-5581 -5587 0
-5581 -5588 0
-5581 -5589 0
-5581 -5590 0
-5581 -5591 0
-5581 -5592 0
-5581 -5593 0
-5581 -5594 0
-5581 -5595 0
-5581 -5596 0
-5581 -5597 0
-183 5581 5582 5583 5584 5585 5586 5587 5588 5589 5590 5591 5592 5593 5594 5595 5596 5597 0
-5598 185 0
-5599 163 0
-5599 34 0
-163 -34 5599 0
-5600 165 0
-5600 77 0
-165 -77 5600 0
-5601 167 0
-5601 113 0
-167 -113 5601 0
-5602 169 0
-5602 149 0
-169 -149 5602 0
-5603 173 0
-5603 221 0
-173 -221 5603 0
-5604 175 0
-5604 257 0
-175 -257 5604 0
-5605 177 0
-5605 293 0
-177 -293 5605 0
-5606 179 0
-5606 329 0
-179 -329 5606 0
-5607 181 0
-5607 365 0
-181 -365 5607 0
-5608 183 0
-5608 401 0
-183 -401 5608 0
-5609 187 0
-5609 473 0
-187 -473 5609 0
-5610 189 0
-5610 509 0
-189 -509 5610 0
-5611 191 0
-5611 545 0
-191 -545 5611 0
-5612 193 0
-5612 581 0
-193 -581 5612 0
-5613 195 0
-5613 617 0
-195 -617 5613 0
-5614 197 0
-5614 653 0
-197 -653 5614 0
-5598 -5599 0
-5598 -5600 0
-5598 -5601 0
-5598 -5602 0
-5598 -5603 0
-5598 -5604 0
-5598 -5605 0
-5598 -5606 0
-5598 -5607 0
-5598 -5608 0
-5598 -5609 0
-5598 -5610 0
-5598 -5611 0
-5598 -5612 0
-5598 -5613 0
-5598 -5614 0
-185 5598 5599 5600 5601 5602 5603 5604 5605 5606 5607 5608 5609 5610 5611 5612 5613 5614 0
-5615 187 0
-5616 163 0
-5616 37 0
-163 -37 5616 0
-5617 165 0
-5617 79 0
-165 -79 5617 0
-5618 167 0
-5618 115 0
-167 -115 5618 0
-5619 169 0
-5619 151 0
-169 -151 5619 0
-5620 173 0
-5620 223 0
-173 -223 5620 0
-5621 175 0
-5621 259 0
-175 -259 5621 0
-5622 177 0
-5622 295 0
-177 -295 5622 0
-5623 179 0
-5623 331 0
-179 -331 5623 0
-5624 181 0
-5624 367 0
-181 -367 5624 0
-5625 183 0
-5625 403 0
-183 -403 5625 0
-5626 185 0
-5626 439 0
-185 -439 5626 0
-5627 189 0
-5627 511 0
-189 -511 5627 0
-5628 191 0
-5628 547 0
-191 -547 5628 0
-5629 193 0
-5629 583 0
-193 -583 5629 0
-5630 195 0
-5630 619 0
-195 -619 5630 0
-5631 197 0
-5631 655 0
-197 -655 5631 0
-5615 -5616 0
-5615 -5617 0
-5615 -5618 0
-5615 -5619 0
-5615 -5620 0
-5615 -5621 0
-5615 -5622 0
-5615 -5623 0
-5615 -5624 0
-5615 -5625 0
-5615 -5626 0
-5615 -5627 0
-5615 -5628 0
-5615 -5629 0
-5615 -5630 0
-5615 -5631 0
-187 5615 5616 5617 5618 5619 5620 5621 5622 5623 5624 5625 5626 5627 5628 5629 5630 5631 0
-5632 189 0
-5633 163 0
-5633 40 0
-163 -40 5633 0
-5634 165 0
-5634 81 0
-165 -81 5634 0
-5635 167 0
-5635 117 0
-167 -117 5635 0
-5636 169 0
-5636 153 0
-169 -153 5636 0
-5637 173 0
-5637 225 0
-173 -225 5637 0
-5638 175 0
-5638 261 0
-175 -261 5638 0
-5639 177 0
-5639 297 0
-177 -297 5639 0
-5640 179 0
-5640 333 0
-179 -333 5640 0
-5641 181 0
-5641 369 0
-181 -369 5641 0
-5642 183 0
-5642 405 0
-183 -405 5642 0
-5643 185 0
-5643 441 0
-185 -441 5643 0
-5644 187 0
-5644 477 0
-187 -477 5644 0
-5645 191 0
-5645 549 0
-191 -549 5645 0
-5646 193 0
-5646 585 0
-193 -585 5646 0
-5647 195 0
-5647 621 0
-195 -621 5647 0
-5648 197 0
-5648 657 0
-197 -657 5648 0
-5632 -5633 0
-5632 -5634 0
-5632 -5635 0
-5632 -5636 0
-5632 -5637 0
-5632 -5638 0
-5632 -5639 0
-5632 -5640 0
-5632 -5641 0
-5632 -5642 0
-5632 -5643 0
-5632 -5644 0
-5632 -5645 0
-5632 -5646 0
-5632 -5647 0
-5632 -5648 0
-189 5632 5633 5634 5635 5636 5637 5638 5639 5640 5641 5642 5643 5644 5645 5646 5647 5648 0
-5649 191 0
-5650 163 0
-5650 43 0
-163 -43 5650 0
-5651 165 0
-5651 83 0
-165 -83 5651 0
-5652 167 0
-5652 119 0
-167 -119 5652 0
-5653 169 0
-5653 155 0
-169 -155 5653 0
-5654 173 0
-5654 227 0
-173 -227 5654 0
-5655 175 0
-5655 263 0
-175 -263 5655 0
-5656 177 0
-5656 299 0
-177 -299 5656 0
-5657 179 0
-5657 335 0
-179 -335 5657 0
-5658 181 0
-5658 371 0
-181 -371 5658 0
-5659 183 0
-5659 407 0
-183 -407 5659 0
-5660 185 0
-5660 443 0
-185 -443 5660 0
-5661 187 0
-5661 479 0
-187 -479 5661 0
-5662 189 0
-5662 515 0
-189 -515 5662 0
-5663 193 0
-5663 587 0
-193 -587 5663 0
-5664 195 0
-5664 623 0
-195 -623 5664 0
-5665 197 0
-5665 659 0
-197 -659 5665 0
-5649 -5650 0
-5649 -5651 0
-5649 -5652 0
-5649 -5653 0
-5649 -5654 0
-5649 -5655 0
-5649 -5656 0
-5649 -5657 0
-5649 -5658 0
-5649 -5659 0
-5649 -5660 0
-5649 -5661 0
-5649 -5662 0
-5649 -5663 0
-5649 -5664 0
-5649 -5665 0
-191 5649 5650 5651 5652 5653 5654 5655 5656 5657 5658 5659 5660 5661 5662 5663 5664 5665 0
-5666 193 0
-5667 163 0
-5667 46 0
-163 -46 5667 0
-5668 165 0
-5668 85 0
-165 -85 5668 0
-5669 167 0
-5669 121 0
-167 -121 5669 0
-5670 169 0
-5670 157 0
-169 -157 5670 0
-5671 173 0
-5671 229 0
-173 -229 5671 0
-5672 175 0
-5672 265 0
-175 -265 5672 0
-5673 177 0
-5673 301 0
-177 -301 5673 0
-5674 179 0
-5674 337 0
-179 -337 5674 0
-5675 181 0
-5675 373 0
-181 -373 5675 0
-5676 183 0
-5676 409 0
-183 -409 5676 0
-5677 185 0
-5677 445 0
-185 -445 5677 0
-5678 187 0
-5678 481 0
-187 -481 5678 0
-5679 189 0
-5679 517 0
-189 -517 5679 0
-5680 191 0
-5680 553 0
-191 -553 5680 0
-5681 195 0
-5681 625 0
-195 -625 5681 0
-5682 197 0
-5682 661 0
-197 -661 5682 0
-5666 -5667 0
-5666 -5668 0
-5666 -5669 0
-5666 -5670 0
-5666 -5671 0
-5666 -5672 0
-5666 -5673 0
-5666 -5674 0
-5666 -5675 0
-5666 -5676 0
-5666 -5677 0
-5666 -5678 0
-5666 -5679 0
-5666 -5680 0
-5666 -5681 0
-5666 -5682 0
-193 5666 5667 5668 5669 5670 5671 5672 5673 5674 5675 5676 5677 5678 5679 5680 5681 5682 0
-5683 195 0
-5684 163 0
-5684 49 0
-163 -49 5684 0
-5685 165 0
-5685 87 0
-165 -87 5685 0
-5686 167 0
-5686 123 0
-167 -123 5686 0
-5687 169 0
-5687 159 0
-169 -159 5687 0
-5688 173 0
-5688 231 0
-173 -231 5688 0
-5689 175 0
-5689 267 0
-175 -267 5689 0
-5690 177 0
-5690 303 0
-177 -303 5690 0
-5691 179 0
-5691 339 0
-179 -339 5691 0
-5692 181 0
-5692 375 0
-181 -375 5692 0
-5693 183 0
-5693 411 0
-183 -411 5693 0
-5694 185 0
-5694 447 0
-185 -447 5694 0
-5695 187 0
-5695 483 0
-187 -483 5695 0
-5696 189 0
-5696 519 0
-189 -519 5696 0
-5697 191 0
-5697 555 0
-191 -555 5697 0
-5698 193 0
-5698 591 0
-193 -591 5698 0
-5699 197 0
-5699 663 0
-197 -663 5699 0
-5683 -5684 0
-5683 -5685 0
-5683 -5686 0
-5683 -5687 0
-5683 -5688 0
-5683 -5689 0
-5683 -5690 0
-5683 -5691 0
-5683 -5692 0
-5683 -5693 0
-5683 -5694 0
-5683 -5695 0
-5683 -5696 0
-5683 -5697 0
-5683 -5698 0
-5683 -5699 0
-195 5683 5684 5685 5686 5687 5688 5689 5690 5691 5692 5693 5694 5695 5696 5697 5698 5699 0
-5700 197 0
-5701 163 0
-5701 52 0
-163 -52 5701 0
-5702 165 0
-5702 89 0
-165 -89 5702 0
-5703 167 0
-5703 125 0
-167 -125 5703 0
-5704 169 0
-5704 161 0
-169 -161 5704 0
-5705 173 0
-5705 233 0
-173 -233 5705 0
-5706 175 0
-5706 269 0
-175 -269 5706 0
-5707 177 0
-5707 305 0
-177 -305 5707 0
-5708 179 0
-5708 341 0
-179 -341 5708 0
-5709 181 0
-5709 377 0
-181 -377 5709 0
-5710 183 0
-5710 413 0
-183 -413 5710 0
-5711 185 0
-5711 449 0
-185 -449 5711 0
-5712 187 0
-5712 485 0
-187 -485 5712 0
-5713 189 0
-5713 521 0
-189 -521 5713 0
-5714 191 0
-5714 557 0
-191 -557 5714 0
-5715 193 0
-5715 593 0
-193 -593 5715 0
-5716 195 0
-5716 629 0
-195 -629 5716 0
-5700 -5701 0
-5700 -5702 0
-5700 -5703 0
-5700 -5704 0
-5700 -5705 0
-5700 -5706 0
-5700 -5707 0
-5700 -5708 0
-5700 -5709 0
-5700 -5710 0
-5700 -5711 0
-5700 -5712 0
-5700 -5713 0
-5700 -5714 0
-5700 -5715 0
-5700 -5716 0
-197 5700 5701 5702 5703 5704 5705 5706 5707 5708 5709 5710 5711 5712 5713 5714 5715 5716 0
-5717 199 0
-5718 201 0
-5718 55 0
-201 -55 5718 0
-5719 203 0
-5719 91 0
-203 -91 5719 0
-5720 205 0
-5720 127 0
-205 -127 5720 0
-5721 207 0
-5721 163 0
-207 -163 5721 0
-5722 211 0
-5722 235 0
-211 -235 5722 0
-5723 213 0
-5723 271 0
-213 -271 5723 0
-5724 215 0
-5724 307 0
-215 -307 5724 0
-5725 217 0
-5725 343 0
-217 -343 5725 0
-5726 219 0
-5726 379 0
-219 -379 5726 0
-5727 221 0
-5727 415 0
-221 -415 5727 0
-5728 223 0
-5728 451 0
-223 -451 5728 0
-5729 225 0
-5729 487 0
-225 -487 5729 0
-5730 227 0
-5730 523 0
-227 -523 5730 0
-5731 229 0
-5731 559 0
-229 -559 5731 0
-5732 231 0
-5732 595 0
-231 -595 5732 0
-5733 233 0
-5733 631 0
-233 -631 5733 0
-5717 -5718 0
-5717 -5719 0
-5717 -5720 0
-5717 -5721 0
-5717 -5722 0
-5717 -5723 0
-5717 -5724 0
-5717 -5725 0
-5717 -5726 0
-5717 -5727 0
-5717 -5728 0
-5717 -5729 0
-5717 -5730 0
-5717 -5731 0
-5717 -5732 0
-5717 -5733 0
-199 5717 5718 5719 5720 5721 5722 5723 5724 5725 5726 5727 5728 5729 5730 5731 5732 5733 0
-5734 201 0
-5735 199 0
-5735 4 0
-199 -4 5735 0
-5736 203 0
-5736 93 0
-203 -93 5736 0
-5737 205 0
-5737 129 0
-205 -129 5737 0
-5738 207 0
-5738 165 0
-207 -165 5738 0
-5739 211 0
-5739 237 0
-211 -237 5739 0
-5740 213 0
-5740 273 0
-213 -273 5740 0
-5741 215 0
-5741 309 0
-215 -309 5741 0
-5742 217 0
-5742 345 0
-217 -345 5742 0
-5743 219 0
-5743 381 0
-219 -381 5743 0
-5744 221 0
-5744 417 0
-221 -417 5744 0
-5745 223 0
-5745 453 0
-223 -453 5745 0
-5746 225 0
-5746 489 0
-225 -489 5746 0
-5747 227 0
-5747 525 0
-227 -525 5747 0
-5748 229 0
-5748 561 0
-229 -561 5748 0
-5749 231 0
-5749 597 0
-231 -597 5749 0
-5750 233 0
-5750 633 0
-233 -633 5750 0
-5734 -5735 0
-5734 -5736 0
-5734 -5737 0
-5734 -5738 0
-5734 -5739 0
-5734 -5740 0
-5734 -5741 0
-5734 -5742 0
-5734 -5743 0
-5734 -5744 0
-5734 -5745 0
-5734 -5746 0
-5734 -5747 0
-5734 -5748 0
-5734 -5749 0
-5734 -5750 0
-201 5734 5735 5736 5737 5738 5739 5740 5741 5742 5743 5744 5745 5746 5747 5748 5749 5750 0
-5751 203 0
-5752 199 0
-5752 7 0
-199 -7 5752 0
-5753 201 0
-5753 59 0
-201 -59 5753 0
-5754 205 0
-5754 131 0
-205 -131 5754 0
-5755 207 0
-5755 167 0
-207 -167 5755 0
-5756 211 0
-5756 239 0
-211 -239 5756 0
-5757 213 0
-5757 275 0
-213 -275 5757 0
-5758 215 0
-5758 311 0
-215 -311 5758 0
-5759 217 0
-5759 347 0
-217 -347 5759 0
-5760 219 0
-5760 383 0
-219 -383 5760 0
-5761 221 0
-5761 419 0
-221 -419 5761 0
-5762 223 0
-5762 455 0
-223 -455 5762 0
-5763 225 0
-5763 491 0
-225 -491 5763 0
-5764 227 0
-5764 527 0
-227 -527 5764 0
-5765 229 0
-5765 563 0
-229 -563 5765 0
-5766 231 0
-5766 599 0
-231 -599 5766 0
-5767 233 0
-5767 635 0
-233 -635 5767 0
-5751 -5752 0
-5751 -5753 0
-5751 -5754 0
-5751 -5755 0
-5751 -5756 0
-5751 -5757 0
-5751 -5758 0
-5751 -5759 0
-5751 -5760 0
-5751 -5761 0
-5751 -5762 0
-5751 -5763 0
-5751 -5764 0
-5751 -5765 0
-5751 -5766 0
-5751 -5767 0
-203 5751 5752 5753 5754 5755 5756 5757 5758 5759 5760 5761 5762 5763 5764 5765 5766 5767 0
-5768 205 0
-5769 199 0
-5769 10 0
-199 -10 5769 0
-5770 201 0
-5770 61 0
-201 -61 5770 0
-5771 203 0
-5771 97 0
-203 -97 5771 0
-5772 207 0
-5772 169 0
-207 -169 5772 0
-5773 211 0
-5773 241 0
-211 -241 5773 0
-5774 213 0
-5774 277 0
-213 -277 5774 0
-5775 215 0
-5775 313 0
-215 -313 5775 0
-5776 217 0
-5776 349 0
-217 -349 5776 0
-5777 219 0
-5777 385 0
-219 -385 5777 0
-5778 221 0
-5778 421 0
-221 -421 5778 0
-5779 223 0
-5779 457 0
-223 -457 5779 0
-5780 225 0
-5780 493 0
-225 -493 5780 0
-5781 227 0
-5781 529 0
-227 -529 5781 0
-5782 229 0
-5782 565 0
-229 -565 5782 0
-5783 231 0
-5783 601 0
-231 -601 5783 0
-5784 233 0
-5784 637 0
-233 -637 5784 0
-5768 -5769 0
-5768 -5770 0
-5768 -5771 0
-5768 -5772 0
-5768 -5773 0
-5768 -5774 0
-5768 -5775 0
-5768 -5776 0
-5768 -5777 0
-5768 -5778 0
-5768 -5779 0
-5768 -5780 0
-5768 -5781 0
-5768 -5782 0
-5768 -5783 0
-5768 -5784 0
-205 5768 5769 5770 5771 5772 5773 5774 5775 5776 5777 5778 5779 5780 5781 5782 5783 5784 0
-5785 207 0
-5786 199 0
-5786 13 0
-199 -13 5786 0
-5787 201 0
-5787 63 0
-201 -63 5787 0
-5788 203 0
-5788 99 0
-203 -99 5788 0
-5789 205 0
-5789 135 0
-205 -135 5789 0
-5790 211 0
-5790 243 0
-211 -243 5790 0
-5791 213 0
-5791 279 0
-213 -279 5791 0
-5792 215 0
-5792 315 0
-215 -315 5792 0
-5793 217 0
-5793 351 0
-217 -351 5793 0
-5794 219 0
-5794 387 0
-219 -387 5794 0
-5795 221 0
-5795 423 0
-221 -423 5795 0
-5796 223 0
-5796 459 0
-223 -459 5796 0
-5797 225 0
-5797 495 0
-225 -495 5797 0
-5798 227 0
-5798 531 0
-227 -531 5798 0
-5799 229 0
-5799 567 0
-229 -567 5799 0
-5800 231 0
-5800 603 0
-231 -603 5800 0
-5801 233 0
-5801 639 0
-233 -639 5801 0
-5785 -5786 0
-5785 -5787 0
-5785 -5788 0
-5785 -5789 0
-5785 -5790 0
-5785 -5791 0
-5785 -5792 0
-5785 -5793 0
-5785 -5794 0
-5785 -5795 0
-5785 -5796 0
-5785 -5797 0
-5785 -5798 0
-5785 -5799 0
-5785 -5800 0
-5785 -5801 0
-207 5785 5786 5787 5788 5789 5790 5791 5792 5793 5794 5795 5796 5797 5798 5799 5800 5801 0
-5802 0
-5803 211 0
-5804 199 0
-5804 19 0
-199 -19 5804 0
-5805 201 0
-5805 67 0
-201 -67 5805 0
-5806 203 0
-5806 103 0
-203 -103 5806 0
-5807 205 0
-5807 139 0
-205 -139 5807 0
-5808 207 0
-5808 175 0
-207 -175 5808 0
-5809 213 0
-5809 283 0
-213 -283 5809 0
-5810 215 0
-5810 319 0
-215 -319 5810 0
-5811 217 0
-5811 355 0
-217 -355 5811 0
-5812 219 0
-5812 391 0
-219 -391 5812 0
-5813 221 0
-5813 427 0
-221 -427 5813 0
-5814 223 0
-5814 463 0
-223 -463 5814 0
-5815 225 0
-5815 499 0
-225 -499 5815 0
-5816 227 0
-5816 535 0
-227 -535 5816 0
-5817 229 0
-5817 571 0
-229 -571 5817 0
-5818 231 0
-5818 607 0
-231 -607 5818 0
-5819 233 0
-5819 643 0
-233 -643 5819 0
-5803 -5804 0
-5803 -5805 0
-5803 -5806 0
-5803 -5807 0
-5803 -5808 0
-5803 -5809 0
-5803 -5810 0
-5803 -5811 0
-5803 -5812 0
-5803 -5813 0
-5803 -5814 0
-5803 -5815 0
-5803 -5816 0
-5803 -5817 0
-5803 -5818 0
-5803 -5819 0
-211 5803 5804 5805 5806 5807 5808 5809 5810 5811 5812 5813 5814 5815 5816 5817 5818 5819 0
-5820 213 0
-5821 199 0
-5821 22 0
-199 -22 5821 0
-5822 201 0
-5822 69 0
-201 -69 5822 0
-5823 203 0
-5823 105 0
-203 -105 5823 0
-5824 205 0
-5824 141 0
-205 -141 5824 0
-5825 207 0
-5825 177 0
-207 -177 5825 0
-5826 211 0
-5826 249 0
-211 -249 5826 0
-5827 215 0
-5827 321 0
-215 -321 5827 0
-5828 217 0
-5828 357 0
-217 -357 5828 0
-5829 219 0
-5829 393 0
-219 -393 5829 0
-5830 221 0
-5830 429 0
-221 -429 5830 0
-5831 223 0
-5831 465 0
-223 -465 5831 0
-5832 225 0
-5832 501 0
-225 -501 5832 0
-5833 227 0
-5833 537 0
-227 -537 5833 0
-5834 229 0
-5834 573 0
-229 -573 5834 0
-5835 231 0
-5835 609 0
-231 -609 5835 0
-5836 233 0
-5836 645 0
-233 -645 5836 0
-5820 -5821 0
-5820 -5822 0
-5820 -5823 0
-5820 -5824 0
-5820 -5825 0
-5820 -5826 0
-5820 -5827 0
-5820 -5828 0
-5820 -5829 0
-5820 -5830 0
-5820 -5831 0
-5820 -5832 0
-5820 -5833 0
-5820 -5834 0
-5820 -5835 0
-5820 -5836 0
-213 5820 5821 5822 5823 5824 5825 5826 5827 5828 5829 5830 5831 5832 5833 5834 5835 5836 0
-5837 215 0
-5838 199 0
-5838 25 0
-199 -25 5838 0
-5839 201 0
-5839 71 0
-201 -71 5839 0
-5840 203 0
-5840 107 0
-203 -107 5840 0
-5841 205 0
-5841 143 0
-205 -143 5841 0
-5842 207 0
-5842 179 0
-207 -179 5842 0
-5843 211 0
-5843 251 0
-211 -251 5843 0
-5844 213 0
-5844 287 0
-213 -287 5844 0
-5845 217 0
-5845 359 0
-217 -359 5845 0
-5846 219 0
-5846 395 0
-219 -395 5846 0
-5847 221 0
-5847 431 0
-221 -431 5847 0
-5848 223 0
-5848 467 0
-223 -467 5848 0
-5849 225 0
-5849 503 0
-225 -503 5849 0
-5850 227 0
-5850 539 0
-227 -539 5850 0
-5851 229 0
-5851 575 0
-229 -575 5851 0
-5852 231 0
-5852 611 0
-231 -611 5852 0
-5853 233 0
-5853 647 0
-233 -647 5853 0
-5837 -5838 0
-5837 -5839 0
-5837 -5840 0
-5837 -5841 0
-5837 -5842 0
-5837 -5843 0
-5837 -5844 0
-5837 -5845 0
-5837 -5846 0
-5837 -5847 0
-5837 -5848 0
-5837 -5849 0
-5837 -5850 0
-5837 -5851 0
-5837 -5852 0
-5837 -5853 0
-215 5837 5838 5839 5840 5841 5842 5843 5844 5845 5846 5847 5848 5849 5850 5851 5852 5853 0
-5854 217 0
-5855 199 0
-5855 28 0
-199 -28 5855 0
-5856 201 0
-5856 73 0
-201 -73 5856 0
-5857 203 0
-5857 109 0
-203 -109 5857 0
-5858 205 0
-5858 145 0
-205 -145 5858 0
-5859 207 0
-5859 181 0
-207 -181 5859 0
-5860 211 0
-5860 253 0
-211 -253 5860 0
-5861 213 0
-5861 289 0
-213 -289 5861 0
-5862 215 0
-5862 325 0
-215 -325 5862 0
-5863 219 0
-5863 397 0
-219 -397 5863 0
-5864 221 0
-5864 433 0
-221 -433 5864 0
-5865 223 0
-5865 469 0
-223 -469 5865 0
-5866 225 0
-5866 505 0
-225 -505 5866 0
-5867 227 0
-5867 541 0
-227 -541 5867 0
-5868 229 0
-5868 577 0
-229 -577 5868 0
-5869 231 0
-5869 613 0
-231 -613 5869 0
-5870 233 0
-5870 649 0
-233 -649 5870 0
-5854 -5855 0
-5854 -5856 0
-5854 -5857 0
-5854 -5858 0
-5854 -5859 0
-5854 -5860 0
-5854 -5861 0
-5854 -5862 0
-5854 -5863 0
-5854 -5864 0
-5854 -5865 0
-5854 -5866 0
-5854 -5867 0
-5854 -5868 0
-5854 -5869 0
-5854 -5870 0
-217 5854 5855 5856 5857 5858 5859 5860 5861 5862 5863 5864 5865 5866 5867 5868 5869 5870 0
-5871 219 0
-5872 199 0
-5872 31 0
-199 -31 5872 0
-5873 201 0
-5873 75 0
-201 -75 5873 0
-5874 203 0
-5874 111 0
-203 -111 5874 0
-5875 205 0
-5875 147 0
-205 -147 5875 0
-5876 207 0
-5876 183 0
-207 -183 5876 0
-5877 211 0
-5877 255 0
-211 -255 5877 0
-5878 213 0
-5878 291 0
-213 -291 5878 0
-5879 215 0
-5879 327 0
-215 -327 5879 0
-5880 217 0
-5880 363 0
-217 -363 5880 0
-5881 221 0
-5881 435 0
-221 -435 5881 0
-5882 223 0
-5882 471 0
-223 -471 5882 0
-5883 225 0
-5883 507 0
-225 -507 5883 0
-5884 227 0
-5884 543 0
-227 -543 5884 0
-5885 229 0
-5885 579 0
-229 -579 5885 0
-5886 231 0
-5886 615 0
-231 -615 5886 0
-5887 233 0
-5887 651 0
-233 -651 5887 0
-5871 -5872 0
-5871 -5873 0
-5871 -5874 0
-5871 -5875 0
-5871 -5876 0
-5871 -5877 0
-5871 -5878 0
-5871 -5879 0
-5871 -5880 0
-5871 -5881 0
-5871 -5882 0
-5871 -5883 0
-5871 -5884 0
-5871 -5885 0
-5871 -5886 0
-5871 -5887 0
-219 5871 5872 5873 5874 5875 5876 5877 5878 5879 5880 5881 5882 5883 5884 5885 5886 5887 0
-5888 221 0
-5889 199 0
-5889 34 0
-199 -34 5889 0
-5890 201 0
-5890 77 0
-201 -77 5890 0
-5891 203 0
-5891 113 0
-203 -113 5891 0
-5892 205 0
-5892 149 0
-205 -149 5892 0
-5893 207 0
-5893 185 0
-207 -185 5893 0
-5894 211 0
-5894 257 0
-211 -257 5894 0
-5895 213 0
-5895 293 0
-213 -293 5895 0
-5896 215 0
-5896 329 0
-215 -329 5896 0
-5897 217 0
-5897 365 0
-217 -365 5897 0
-5898 219 0
-5898 401 0
-219 -401 5898 0
-5899 223 0
-5899 473 0
-223 -473 5899 0
-5900 225 0
-5900 509 0
-225 -509 5900 0
-5901 227 0
-5901 545 0
-227 -545 5901 0
-5902 229 0
-5902 581 0
-229 -581 5902 0
-5903 231 0
-5903 617 0
-231 -617 5903 0
-5904 233 0
-5904 653 0
-233 -653 5904 0
-5888 -5889 0
-5888 -5890 0
-5888 -5891 0
-5888 -5892 0
-5888 -5893 0
-5888 -5894 0
-5888 -5895 0
-5888 -5896 0
-5888 -5897 0
-5888 -5898 0
-5888 -5899 0
-5888 -5900 0
-5888 -5901 0
-5888 -5902 0
-5888 -5903 0
-5888 -5904 0
-221 5888 5889 5890 5891 5892 5893 5894 5895 5896 5897 5898 5899 5900 5901 5902 5903 5904 0
-5905 223 0
-5906 199 0
-5906 37 0
-199 -37 5906 0
-5907 201 0
-5907 79 0
-201 -79 5907 0
-5908 203 0
-5908 115 0
-203 -115 5908 0
-5909 205 0
-5909 151 0
-205 -151 5909 0
-5910 207 0
-5910 187 0
-207 -187 5910 0
-5911 211 0
-5911 259 0
-211 -259 5911 0
-5912 213 0
-5912 295 0
-213 -295 5912 0
-5913 215 0
-5913 331 0
-215 -331 5913 0
-5914 217 0
-5914 367 0
-217 -367 5914 0
-5915 219 0
-5915 403 0
-219 -403 5915 0
-5916 221 0
-5916 439 0
-221 -439 5916 0
-5917 225 0
-5917 511 0
-225 -511 5917 0
-5918 227 0
-5918 547 0
-227 -547 5918 0
-5919 229 0
-5919 583 0
-229 -583 5919 0
-5920 231 0
-5920 619 0
-231 -619 5920 0
-5921 233 0
-5921 655 0
-233 -655 5921 0
-5905 -5906 0
-5905 -5907 0
-5905 -5908 0
-5905 -5909 0
-5905 -5910 0
-5905 -5911 0
-5905 -5912 0
-5905 -5913 0
-5905 -5914 0
-5905 -5915 0
-5905 -5916 0
-5905 -5917 0
-5905 -5918 0
-5905 -5919 0
-5905 -5920 0
-5905 -5921 0
-223 5905 5906 5907 5908 5909 5910 5911 5912 5913 5914 5915 5916 5917 5918 5919 5920 5921 0
-5922 225 0
-5923 199 0
-5923 40 0
-199 -40 5923 0
-5924 201 0
-5924 81 0
-201 -81 5924 0
-5925 203 0
-5925 117 0
-203 -117 5925 0
-5926 205 0
-5926 153 0
-205 -153 5926 0
-5927 207 0
-5927 189 0
-207 -189 5927 0
-5928 211 0
-5928 261 0
-211 -261 5928 0
-5929 213 0
-5929 297 0
-213 -297 5929 0
-5930 215 0
-5930 333 0
-215 -333 5930 0
-5931 217 0
-5931 369 0
-217 -369 5931 0
-5932 219 0
-5932 405 0
-219 -405 5932 0
-5933 221 0
-5933 441 0
-221 -441 5933 0
-5934 223 0
-5934 477 0
-223 -477 5934 0
-5935 227 0
-5935 549 0
-227 -549 5935 0
-5936 229 0
-5936 585 0
-229 -585 5936 0
-5937 231 0
-5937 621 0
-231 -621 5937 0
-5938 233 0
-5938 657 0
-233 -657 5938 0
-5922 -5923 0
-5922 -5924 0
-5922 -5925 0
-5922 -5926 0
-5922 -5927 0
-5922 -5928 0
-5922 -5929 0
-5922 -5930 0
-5922 -5931 0
-5922 -5932 0
-5922 -5933 0
-5922 -5934 0
-5922 -5935 0
-5922 -5936 0
-5922 -5937 0
-5922 -5938 0
-225 5922 5923 5924 5925 5926 5927 5928 5929 5930 5931 5932 5933 5934 5935 5936 5937 5938 0
-5939 227 0
-5940 199 0
-5940 43 0
-199 -43 5940 0
-5941 201 0
-5941 83 0
-201 -83 5941 0
-5942 203 0
-5942 119 0
-203 -119 5942 0
-5943 205 0
-5943 155 0
-205 -155 5943 0
-5944 207 0
-5944 191 0
-207 -191 5944 0
-5945 211 0
-5945 263 0
-211 -263 5945 0
-5946 213 0
-5946 299 0
-213 -299 5946 0
-5947 215 0
-5947 335 0
-215 -335 5947 0
-5948 217 0
-5948 371 0
-217 -371 5948 0
-5949 219 0
-5949 407 0
-219 -407 5949 0
-5950 221 0
-5950 443 0
-221 -443 5950 0
-5951 223 0
-5951 479 0
-223 -479 5951 0
-5952 225 0
-5952 515 0
-225 -515 5952 0
-5953 229 0
-5953 587 0
-229 -587 5953 0
-5954 231 0
-5954 623 0
-231 -623 5954 0
-5955 233 0
-5955 659 0
-233 -659 5955 0
-5939 -5940 0
-5939 -5941 0
-5939 -5942 0
-5939 -5943 0
-5939 -5944 0
-5939 -5945 0
-5939 -5946 0
-5939 -5947 0
-5939 -5948 0
-5939 -5949 0
-5939 -5950 0
-5939 -5951 0
-5939 -5952 0
-5939 -5953 0
-5939 -5954 0
-5939 -5955 0
-227 5939 5940 5941 5942 5943 5944 5945 5946 5947 5948 5949 5950 5951 5952 5953 5954 5955 0
-5956 229 0
-5957 199 0
-5957 46 0
-199 -46 5957 0
-5958 201 0
-5958 85 0
-201 -85 5958 0
-5959 203 0
-5959 121 0
-203 -121 5959 0
-5960 205 0
-5960 157 0
-205 -157 5960 0
-5961 207 0
-5961 193 0
-207 -193 5961 0
-5962 211 0
-5962 265 0
-211 -265 5962 0
-5963 213 0
-5963 301 0
-213 -301 5963 0
-5964 215 0
-5964 337 0
-215 -337 5964 0
-5965 217 0
-5965 373 0
-217 -373 5965 0
-5966 219 0
-5966 409 0
-219 -409 5966 0
-5967 221 0
-5967 445 0
-221 -445 5967 0
-5968 223 0
-5968 481 0
-223 -481 5968 0
-5969 225 0
-5969 517 0
-225 -517 5969 0
-5970 227 0
-5970 553 0
-227 -553 5970 0
-5971 231 0
-5971 625 0
-231 -625 5971 0
-5972 233 0
-5972 661 0
-233 -661 5972 0
-5956 -5957 0
-5956 -5958 0
-5956 -5959 0
-5956 -5960 0
-5956 -5961 0
-5956 -5962 0
-5956 -5963 0
-5956 -5964 0
-5956 -5965 0
-5956 -5966 0
-5956 -5967 0
-5956 -5968 0
-5956 -5969 0
-5956 -5970 0
-5956 -5971 0
-5956 -5972 0
-229 5956 5957 5958 5959 5960 5961 5962 5963 5964 5965 5966 5967 5968 5969 5970 5971 5972 0
-5973 231 0
-5974 199 0
-5974 49 0
-199 -49 5974 0
-5975 201 0
-5975 87 0
-201 -87 5975 0
-5976 203 0
-5976 123 0
-203 -123 5976 0
-5977 205 0
-5977 159 0
-205 -159 5977 0
-5978 207 0
-5978 195 0
-207 -195 5978 0
-5979 211 0
-5979 267 0
-211 -267 5979 0
-5980 213 0
-5980 303 0
-213 -303 5980 0
-5981 215 0
-5981 339 0
-215 -339 5981 0
-5982 217 0
-5982 375 0
-217 -375 5982 0
-5983 219 0
-5983 411 0
-219 -411 5983 0
-5984 221 0
-5984 447 0
-221 -447 5984 0
-5985 223 0
-5985 483 0
-223 -483 5985 0
-5986 225 0
-5986 519 0
-225 -519 5986 0
-5987 227 0
-5987 555 0
-227 -555 5987 0
-5988 229 0
-5988 591 0
-229 -591 5988 0
-5989 233 0
-5989 663 0
-233 -663 5989 0
-5973 -5974 0
-5973 -5975 0
-5973 -5976 0
-5973 -5977 0
-5973 -5978 0
-5973 -5979 0
-5973 -5980 0
-5973 -5981 0
-5973 -5982 0
-5973 -5983 0
-5973 -5984 0
-5973 -5985 0
-5973 -5986 0
-5973 -5987 0
-5973 -5988 0
-5973 -5989 0
-231 5973 5974 5975 5976 5977 5978 5979 5980 5981 5982 5983 5984 5985 5986 5987 5988 5989 0
-5990 233 0
-5991 199 0
-5991 52 0
-199 -52 5991 0
-5992 201 0
-5992 89 0
-201 -89 5992 0
-5993 203 0
-5993 125 0
-203 -125 5993 0
-5994 205 0
-5994 161 0
-205 -161 5994 0
-5995 207 0
-5995 197 0
-207 -197 5995 0
-5996 211 0
-5996 269 0
-211 -269 5996 0
-5997 213 0
-5997 305 0
-213 -305 5997 0
-5998 215 0
-5998 341 0
-215 -341 5998 0
-5999 217 0
-5999 377 0
-217 -377 5999 0
-6000 219 0
-6000 413 0
-219 -413 6000 0
-6001 221 0
-6001 449 0
-221 -449 6001 0
-6002 223 0
-6002 485 0
-223 -485 6002 0
-6003 225 0
-6003 521 0
-225 -521 6003 0
-6004 227 0
-6004 557 0
-227 -557 6004 0
-6005 229 0
-6005 593 0
-229 -593 6005 0
-6006 231 0
-6006 629 0
-231 -629 6006 0
-5990 -5991 0
-5990 -5992 0
-5990 -5993 0
-5990 -5994 0
-5990 -5995 0
-5990 -5996 0
-5990 -5997 0
-5990 -5998 0
-5990 -5999 0
-5990 -6000 0
-5990 -6001 0
-5990 -6002 0
-5990 -6003 0
-5990 -6004 0
-5990 -6005 0
-5990 -6006 0
-233 5990 5991 5992 5993 5994 5995 5996 5997 5998 5999 6000 6001 6002 6003 6004 6005 6006 0
-6007 235 0
-6008 237 0
-6008 55 0
-237 -55 6008 0
-6009 239 0
-6009 91 0
-239 -91 6009 0
-6010 241 0
-6010 127 0
-241 -127 6010 0
-6011 243 0
-6011 163 0
-243 -163 6011 0
-6012 245 0
-6012 199 0
-245 -199 6012 0
-6013 249 0
-6013 271 0
-249 -271 6013 0
-6014 251 0
-6014 307 0
-251 -307 6014 0
-6015 253 0
-6015 343 0
-253 -343 6015 0
-6016 255 0
-6016 379 0
-255 -379 6016 0
-6017 257 0
-6017 415 0
-257 -415 6017 0
-6018 259 0
-6018 451 0
-259 -451 6018 0
-6019 261 0
-6019 487 0
-261 -487 6019 0
-6020 263 0
-6020 523 0
-263 -523 6020 0
-6021 265 0
-6021 559 0
-265 -559 6021 0
-6022 267 0
-6022 595 0
-267 -595 6022 0
-6023 269 0
-6023 631 0
-269 -631 6023 0
-6007 -6008 0
-6007 -6009 0
-6007 -6010 0
-6007 -6011 0
-6007 -6012 0
-6007 -6013 0
-6007 -6014 0
-6007 -6015 0
-6007 -6016 0
-6007 -6017 0
-6007 -6018 0
-6007 -6019 0
-6007 -6020 0
-6007 -6021 0
-6007 -6022 0
-6007 -6023 0
-235 6007 6008 6009 6010 6011 6012 6013 6014 6015 6016 6017 6018 6019 6020 6021 6022 6023 0
-6024 237 0
-6025 235 0
-6025 4 0
-235 -4 6025 0
-6026 239 0
-6026 93 0
-239 -93 6026 0
-6027 241 0
-6027 129 0
-241 -129 6027 0
-6028 243 0
-6028 165 0
-243 -165 6028 0
-6029 245 0
-6029 201 0
-245 -201 6029 0
-6030 249 0
-6030 273 0
-249 -273 6030 0
-6031 251 0
-6031 309 0
-251 -309 6031 0
-6032 253 0
-6032 345 0
-253 -345 6032 0
-6033 255 0
-6033 381 0
-255 -381 6033 0
-6034 257 0
-6034 417 0
-257 -417 6034 0
-6035 259 0
-6035 453 0
-259 -453 6035 0
-6036 261 0
-6036 489 0
-261 -489 6036 0
-6037 263 0
-6037 525 0
-263 -525 6037 0
-6038 265 0
-6038 561 0
-265 -561 6038 0
-6039 267 0
-6039 597 0
-267 -597 6039 0
-6040 269 0
-6040 633 0
-269 -633 6040 0
-6024 -6025 0
-6024 -6026 0
-6024 -6027 0
-6024 -6028 0
-6024 -6029 0
-6024 -6030 0
-6024 -6031 0
-6024 -6032 0
-6024 -6033 0
-6024 -6034 0
-6024 -6035 0
-6024 -6036 0
-6024 -6037 0
-6024 -6038 0
-6024 -6039 0
-6024 -6040 0
-237 6024 6025 6026 6027 6028 6029 6030 6031 6032 6033 6034 6035 6036 6037 6038 6039 6040 0
-6041 239 0
-6042 235 0
-6042 7 0
-235 -7 6042 0
-6043 237 0
-6043 59 0
-237 -59 6043 0
-6044 241 0
-6044 131 0
-241 -131 6044 0
-6045 243 0
-6045 167 0
-243 -167 6045 0
-6046 245 0
-6046 203 0
-245 -203 6046 0
-6047 249 0
-6047 275 0
-249 -275 6047 0
-6048 251 0
-6048 311 0
-251 -311 6048 0
-6049 253 0
-6049 347 0
-253 -347 6049 0
-6050 255 0
-6050 383 0
-255 -383 6050 0
-6051 257 0
-6051 419 0
-257 -419 6051 0
-6052 259 0
-6052 455 0
-259 -455 6052 0
-6053 261 0
-6053 491 0
-261 -491 6053 0
-6054 263 0
-6054 527 0
-263 -527 6054 0
-6055 265 0
-6055 563 0
-265 -563 6055 0
-6056 267 0
-6056 599 0
-267 -599 6056 0
-6057 269 0
-6057 635 0
-269 -635 6057 0
-6041 -6042 0
-6041 -6043 0
-6041 -6044 0
-6041 -6045 0
-6041 -6046 0
-6041 -6047 0
-6041 -6048 0
-6041 -6049 0
-6041 -6050 0
-6041 -6051 0
-6041 -6052 0
-6041 -6053 0
-6041 -6054 0
-6041 -6055 0
-6041 -6056 0
-6041 -6057 0
-239 6041 6042 6043 6044 6045 6046 6047 6048 6049 6050 6051 6052 6053 6054 6055 6056 6057 0
-6058 241 0
-6059 235 0
-6059 10 0
-235 -10 6059 0
-6060 237 0
-6060 61 0
-237 -61 6060 0
-6061 239 0
-6061 97 0
-239 -97 6061 0
-6062 243 0
-6062 169 0
-243 -169 6062 0
-6063 245 0
-6063 205 0
-245 -205 6063 0
-6064 249 0
-6064 277 0
-249 -277 6064 0
-6065 251 0
-6065 313 0
-251 -313 6065 0
-6066 253 0
-6066 349 0
-253 -349 6066 0
-6067 255 0
-6067 385 0
-255 -385 6067 0
-6068 257 0
-6068 421 0
-257 -421 6068 0
-6069 259 0
-6069 457 0
-259 -457 6069 0
-6070 261 0
-6070 493 0
-261 -493 6070 0
-6071 263 0
-6071 529 0
-263 -529 6071 0
-6072 265 0
-6072 565 0
-265 -565 6072 0
-6073 267 0
-6073 601 0
-267 -601 6073 0
-6074 269 0
-6074 637 0
-269 -637 6074 0
-6058 -6059 0
-6058 -6060 0
-6058 -6061 0
-6058 -6062 0
-6058 -6063 0
-6058 -6064 0
-6058 -6065 0
-6058 -6066 0
-6058 -6067 0
-6058 -6068 0
-6058 -6069 0
-6058 -6070 0
-6058 -6071 0
-6058 -6072 0
-6058 -6073 0
-6058 -6074 0
-241 6058 6059 6060 6061 6062 6063 6064 6065 6066 6067 6068 6069 6070 6071 6072 6073 6074 0
-6075 243 0
-6076 235 0
-6076 13 0
-235 -13 6076 0
-6077 237 0
-6077 63 0
-237 -63 6077 0
-6078 239 0
-6078 99 0
-239 -99 6078 0
-6079 241 0
-6079 135 0
-241 -135 6079 0
-6080 245 0
-6080 207 0
-245 -207 6080 0
-6081 249 0
-6081 279 0
-249 -279 6081 0
-6082 251 0
-6082 315 0
-251 -315 6082 0
-6083 253 0
-6083 351 0
-253 -351 6083 0
-6084 255 0
-6084 387 0
-255 -387 6084 0
-6085 257 0
-6085 423 0
-257 -423 6085 0
-6086 259 0
-6086 459 0
-259 -459 6086 0
-6087 261 0
-6087 495 0
-261 -495 6087 0
-6088 263 0
-6088 531 0
-263 -531 6088 0
-6089 265 0
-6089 567 0
-265 -567 6089 0
-6090 267 0
-6090 603 0
-267 -603 6090 0
-6091 269 0
-6091 639 0
-269 -639 6091 0
-6075 -6076 0
-6075 -6077 0
-6075 -6078 0
-6075 -6079 0
-6075 -6080 0
-6075 -6081 0
-6075 -6082 0
-6075 -6083 0
-6075 -6084 0
-6075 -6085 0
-6075 -6086 0
-6075 -6087 0
-6075 -6088 0
-6075 -6089 0
-6075 -6090 0
-6075 -6091 0
-243 6075 6076 6077 6078 6079 6080 6081 6082 6083 6084 6085 6086 6087 6088 6089 6090 6091 0
-6092 245 0
-6093 235 0
-6093 16 0
-235 -16 6093 0
-6094 237 0
-6094 65 0
-237 -65 6094 0
-6095 239 0
-6095 101 0
-239 -101 6095 0
-6096 241 0
-6096 137 0
-241 -137 6096 0
-6097 243 0
-6097 173 0
-243 -173 6097 0
-6098 249 0
-6098 281 0
-249 -281 6098 0
-6099 251 0
-6099 317 0
-251 -317 6099 0
-6100 253 0
-6100 353 0
-253 -353 6100 0
-6101 255 0
-6101 389 0
-255 -389 6101 0
-6102 257 0
-6102 425 0
-257 -425 6102 0
-6103 259 0
-6103 461 0
-259 -461 6103 0
-6104 261 0
-6104 497 0
-261 -497 6104 0
-6105 263 0
-6105 533 0
-263 -533 6105 0
-6106 265 0
-6106 569 0
-265 -569 6106 0
-6107 267 0
-6107 605 0
-267 -605 6107 0
-6108 269 0
-6108 641 0
-269 -641 6108 0
-6092 -6093 0
-6092 -6094 0
-6092 -6095 0
-6092 -6096 0
-6092 -6097 0
-6092 -6098 0
-6092 -6099 0
-6092 -6100 0
-6092 -6101 0
-6092 -6102 0
-6092 -6103 0
-6092 -6104 0
-6092 -6105 0
-6092 -6106 0
-6092 -6107 0
-6092 -6108 0
-245 6092 6093 6094 6095 6096 6097 6098 6099 6100 6101 6102 6103 6104 6105 6106 6107 6108 0
-6109 0
-6110 249 0
-6111 235 0
-6111 22 0
-235 -22 6111 0
-6112 237 0
-6112 69 0
-237 -69 6112 0
-6113 239 0
-6113 105 0
-239 -105 6113 0
-6114 241 0
-6114 141 0
-241 -141 6114 0
-6115 243 0
-6115 177 0
-243 -177 6115 0
-6116 245 0
-6116 213 0
-245 -213 6116 0
-6117 251 0
-6117 321 0
-251 -321 6117 0
-6118 253 0
-6118 357 0
-253 -357 6118 0
-6119 255 0
-6119 393 0
-255 -393 6119 0
-6120 257 0
-6120 429 0
-257 -429 6120 0
-6121 259 0
-6121 465 0
-259 -465 6121 0
-6122 261 0
-6122 501 0
-261 -501 6122 0
-6123 263 0
-6123 537 0
-263 -537 6123 0
-6124 265 0
-6124 573 0
-265 -573 6124 0
-6125 267 0
-6125 609 0
-267 -609 6125 0
-6126 269 0
-6126 645 0
-269 -645 6126 0
-6110 -6111 0
-6110 -6112 0
-6110 -6113 0
-6110 -6114 0
-6110 -6115 0
-6110 -6116 0
-6110 -6117 0
-6110 -6118 0
-6110 -6119 0
-6110 -6120 0
-6110 -6121 0
-6110 -6122 0
-6110 -6123 0
-6110 -6124 0
-6110 -6125 0
-6110 -6126 0
-249 6110 6111 6112 6113 6114 6115 6116 6117 6118 6119 6120 6121 6122 6123 6124 6125 6126 0
-6127 251 0
-6128 235 0
-6128 25 0
-235 -25 6128 0
-6129 237 0
-6129 71 0
-237 -71 6129 0
-6130 239 0
-6130 107 0
-239 -107 6130 0
-6131 241 0
-6131 143 0
-241 -143 6131 0
-6132 243 0
-6132 179 0
-243 -179 6132 0
-6133 245 0
-6133 215 0
-245 -215 6133 0
-6134 249 0
-6134 287 0
-249 -287 6134 0
-6135 253 0
-6135 359 0
-253 -359 6135 0
-6136 255 0
-6136 395 0
-255 -395 6136 0
-6137 257 0
-6137 431 0
-257 -431 6137 0
-6138 259 0
-6138 467 0
-259 -467 6138 0
-6139 261 0
-6139 503 0
-261 -503 6139 0
-6140 263 0
-6140 539 0
-263 -539 6140 0
-6141 265 0
-6141 575 0
-265 -575 6141 0
-6142 267 0
-6142 611 0
-267 -611 6142 0
-6143 269 0
-6143 647 0
-269 -647 6143 0
-6127 -6128 0
-6127 -6129 0
-6127 -6130 0
-6127 -6131 0
-6127 -6132 0
-6127 -6133 0
-6127 -6134 0
-6127 -6135 0
-6127 -6136 0
-6127 -6137 0
-6127 -6138 0
-6127 -6139 0
-6127 -6140 0
-6127 -6141 0
-6127 -6142 0
-6127 -6143 0
-251 6127 6128 6129 6130 6131 6132 6133 6134 6135 6136 6137 6138 6139 6140 6141 6142 6143 0
-6144 253 0
-6145 235 0
-6145 28 0
-235 -28 6145 0
-6146 237 0
-6146 73 0
-237 -73 6146 0
-6147 239 0
-6147 109 0
-239 -109 6147 0
-6148 241 0
-6148 145 0
-241 -145 6148 0
-6149 243 0
-6149 181 0
-243 -181 6149 0
-6150 245 0
-6150 217 0
-245 -217 6150 0
-6151 249 0
-6151 289 0
-249 -289 6151 0
-6152 251 0
-6152 325 0
-251 -325 6152 0
-6153 255 0
-6153 397 0
-255 -397 6153 0
-6154 257 0
-6154 433 0
-257 -433 6154 0
-6155 259 0
-6155 469 0
-259 -469 6155 0
-6156 261 0
-6156 505 0
-261 -505 6156 0
-6157 263 0
-6157 541 0
-263 -541 6157 0
-6158 265 0
-6158 577 0
-265 -577 6158 0
-6159 267 0
-6159 613 0
-267 -613 6159 0
-6160 269 0
-6160 649 0
-269 -649 6160 0
-6144 -6145 0
-6144 -6146 0
-6144 -6147 0
-6144 -6148 0
-6144 -6149 0
-6144 -6150 0
-6144 -6151 0
-6144 -6152 0
-6144 -6153 0
-6144 -6154 0
-6144 -6155 0
-6144 -6156 0
-6144 -6157 0
-6144 -6158 0
-6144 -6159 0
-6144 -6160 0
-253 6144 6145 6146 6147 6148 6149 6150 6151 6152 6153 6154 6155 6156 6157 6158 6159 6160 0
-6161 255 0
-6162 235 0
-6162 31 0
-235 -31 6162 0
-6163 237 0
-6163 75 0
-237 -75 6163 0
-6164 239 0
-6164 111 0
-239 -111 6164 0
-6165 241 0
-6165 147 0
-241 -147 6165 0
-6166 243 0
-6166 183 0
-243 -183 6166 0
-6167 245 0
-6167 219 0
-245 -219 6167 0
-6168 249 0
-6168 291 0
-249 -291 6168 0
-6169 251 0
-6169 327 0
-251 -327 6169 0
-6170 253 0
-6170 363 0
-253 -363 6170 0
-6171 257 0
-6171 435 0
-257 -435 6171 0
-6172 259 0
-6172 471 0
-259 -471 6172 0
-6173 261 0
-6173 507 0
-261 -507 6173 0
-6174 263 0
-6174 543 0
-263 -543 6174 0
-6175 265 0
-6175 579 0
-265 -579 6175 0
-6176 267 0
-6176 615 0
-267 -615 6176 0
-6177 269 0
-6177 651 0
-269 -651 6177 0
-6161 -6162 0
-6161 -6163 0
-6161 -6164 0
-6161 -6165 0
-6161 -6166 0
-6161 -6167 0
-6161 -6168 0
-6161 -6169 0
-6161 -6170 0
-6161 -6171 0
-6161 -6172 0
-6161 -6173 0
-6161 -6174 0
-6161 -6175 0
-6161 -6176 0
-6161 -6177 0
-255 6161 6162 6163 6164 6165 6166 6167 6168 6169 6170 6171 6172 6173 6174 6175 6176 6177 0
-6178 257 0
-6179 235 0
-6179 34 0
-235 -34 6179 0
-6180 237 0
-6180 77 0
-237 -77 6180 0
-6181 239 0
-6181 113 0
-239 -113 6181 0
-6182 241 0
-6182 149 0
-241 -149 6182 0
-6183 243 0
-6183 185 0
-243 -185 6183 0
-6184 245 0
-6184 221 0
-245 -221 6184 0
-6185 249 0
-6185 293 0
-249 -293 6185 0
-6186 251 0
-6186 329 0
-251 -329 6186 0
-6187 253 0
-6187 365 0
-253 -365 6187 0
-6188 255 0
-6188 401 0
-255 -401 6188 0
-6189 259 0
-6189 473 0
-259 -473 6189 0
-6190 261 0
-6190 509 0
-261 -509 6190 0
-6191 263 0
-6191 545 0
-263 -545 6191 0
-6192 265 0
-6192 581 0
-265 -581 6192 0
-6193 267 0
-6193 617 0
-267 -617 6193 0
-6194 269 0
-6194 653 0
-269 -653 6194 0
-6178 -6179 0
-6178 -6180 0
-6178 -6181 0
-6178 -6182 0
-6178 -6183 0
-6178 -6184 0
-6178 -6185 0
-6178 -6186 0
-6178 -6187 0
-6178 -6188 0
-6178 -6189 0
-6178 -6190 0
-6178 -6191 0
-6178 -6192 0
-6178 -6193 0
-6178 -6194 0
-257 6178 6179 6180 6181 6182 6183 6184 6185 6186 6187 6188 6189 6190 6191 6192 6193 6194 0
-6195 259 0
-6196 235 0
-6196 37 0
-235 -37 6196 0
-6197 237 0
-6197 79 0
-237 -79 6197 0
-6198 239 0
-6198 115 0
-239 -115 6198 0
-6199 241 0
-6199 151 0
-241 -151 6199 0
-6200 243 0
-6200 187 0
-243 -187 6200 0
-6201 245 0
-6201 223 0
-245 -223 6201 0
-6202 249 0
-6202 295 0
-249 -295 6202 0
-6203 251 0
-6203 331 0
-251 -331 6203 0
-6204 253 0
-6204 367 0
-253 -367 6204 0
-6205 255 0
-6205 403 0
-255 -403 6205 0
-6206 257 0
-6206 439 0
-257 -439 6206 0
-6207 261 0
-6207 511 0
-261 -511 6207 0
-6208 263 0
-6208 547 0
-263 -547 6208 0
-6209 265 0
-6209 583 0
-265 -583 6209 0
-6210 267 0
-6210 619 0
-267 -619 6210 0
-6211 269 0
-6211 655 0
-269 -655 6211 0
-6195 -6196 0
-6195 -6197 0
-6195 -6198 0
-6195 -6199 0
-6195 -6200 0
-6195 -6201 0
-6195 -6202 0
-6195 -6203 0
-6195 -6204 0
-6195 -6205 0
-6195 -6206 0
-6195 -6207 0
-6195 -6208 0
-6195 -6209 0
-6195 -6210 0
-6195 -6211 0
-259 6195 6196 6197 6198 6199 6200 6201 6202 6203 6204 6205 6206 6207 6208 6209 6210 6211 0
-6212 261 0
-6213 235 0
-6213 40 0
-235 -40 6213 0
-6214 237 0
-6214 81 0
-237 -81 6214 0
-6215 239 0
-6215 117 0
-239 -117 6215 0
-6216 241 0
-6216 153 0
-241 -153 6216 0
-6217 243 0
-6217 189 0
-243 -189 6217 0
-6218 245 0
-6218 225 0
-245 -225 6218 0
-6219 249 0
-6219 297 0
-249 -297 6219 0
-6220 251 0
-6220 333 0
-251 -333 6220 0
-6221 253 0
-6221 369 0
-253 -369 6221 0
-6222 255 0
-6222 405 0
-255 -405 6222 0
-6223 257 0
-6223 441 0
-257 -441 6223 0
-6224 259 0
-6224 477 0
-259 -477 6224 0
-6225 263 0
-6225 549 0
-263 -549 6225 0
-6226 265 0
-6226 585 0
-265 -585 6226 0
-6227 267 0
-6227 621 0
-267 -621 6227 0
-6228 269 0
-6228 657 0
-269 -657 6228 0
-6212 -6213 0
-6212 -6214 0
-6212 -6215 0
-6212 -6216 0
-6212 -6217 0
-6212 -6218 0
-6212 -6219 0
-6212 -6220 0
-6212 -6221 0
-6212 -6222 0
-6212 -6223 0
-6212 -6224 0
-6212 -6225 0
-6212 -6226 0
-6212 -6227 0
-6212 -6228 0
-261 6212 6213 6214 6215 6216 6217 6218 6219 6220 6221 6222 6223 6224 6225 6226 6227 6228 0
-6229 263 0
-6230 235 0
-6230 43 0
-235 -43 6230 0
-6231 237 0
-6231 83 0
-237 -83 6231 0
-6232 239 0
-6232 119 0
-239 -119 6232 0
-6233 241 0
-6233 155 0
-241 -155 6233 0
-6234 243 0
-6234 191 0
-243 -191 6234 0
-6235 245 0
-6235 227 0
-245 -227 6235 0
-6236 249 0
-6236 299 0
-249 -299 6236 0
-6237 251 0
-6237 335 0
-251 -335 6237 0
-6238 253 0
-6238 371 0
-253 -371 6238 0
-6239 255 0
-6239 407 0
-255 -407 6239 0
-6240 257 0
-6240 443 0
-257 -443 6240 0
-6241 259 0
-6241 479 0
-259 -479 6241 0
-6242 261 0
-6242 515 0
-261 -515 6242 0
-6243 265 0
-6243 587 0
-265 -587 6243 0
-6244 267 0
-6244 623 0
-267 -623 6244 0
-6245 269 0
-6245 659 0
-269 -659 6245 0
-6229 -6230 0
-6229 -6231 0
-6229 -6232 0
-6229 -6233 0
-6229 -6234 0
-6229 -6235 0
-6229 -6236 0
-6229 -6237 0
-6229 -6238 0
-6229 -6239 0
-6229 -6240 0
-6229 -6241 0
-6229 -6242 0
-6229 -6243 0
-6229 -6244 0
-6229 -6245 0
-263 6229 6230 6231 6232 6233 6234 6235 6236 6237 6238 6239 6240 6241 6242 6243 6244 6245 0
-6246 265 0
-6247 235 0
-6247 46 0
-235 -46 6247 0
-6248 237 0
-6248 85 0
-237 -85 6248 0
-6249 239 0
-6249 121 0
-239 -121 6249 0
-6250 241 0
-6250 157 0
-241 -157 6250 0
-6251 243 0
-6251 193 0
-243 -193 6251 0
-6252 245 0
-6252 229 0
-245 -229 6252 0
-6253 249 0
-6253 301 0
-249 -301 6253 0
-6254 251 0
-6254 337 0
-251 -337 6254 0
-6255 253 0
-6255 373 0
-253 -373 6255 0
-6256 255 0
-6256 409 0
-255 -409 6256 0
-6257 257 0
-6257 445 0
-257 -445 6257 0
-6258 259 0
-6258 481 0
-259 -481 6258 0
-6259 261 0
-6259 517 0
-261 -517 6259 0
-6260 263 0
-6260 553 0
-263 -553 6260 0
-6261 267 0
-6261 625 0
-267 -625 6261 0
-6262 269 0
-6262 661 0
-269 -661 6262 0
-6246 -6247 0
-6246 -6248 0
-6246 -6249 0
-6246 -6250 0
-6246 -6251 0
-6246 -6252 0
-6246 -6253 0
-6246 -6254 0
-6246 -6255 0
-6246 -6256 0
-6246 -6257 0
-6246 -6258 0
-6246 -6259 0
-6246 -6260 0
-6246 -6261 0
-6246 -6262 0
-265 6246 6247 6248 6249 6250 6251 6252 6253 6254 6255 6256 6257 6258 6259 6260 6261 6262 0
-6263 267 0
-6264 235 0
-6264 49 0
-235 -49 6264 0
-6265 237 0
-6265 87 0
-237 -87 6265 0
-6266 239 0
-6266 123 0
-239 -123 6266 0
-6267 241 0
-6267 159 0
-241 -159 6267 0
-6268 243 0
-6268 195 0
-243 -195 6268 0
-6269 245 0
-6269 231 0
-245 -231 6269 0
-6270 249 0
-6270 303 0
-249 -303 6270 0
-6271 251 0
-6271 339 0
-251 -339 6271 0
-6272 253 0
-6272 375 0
-253 -375 6272 0
-6273 255 0
-6273 411 0
-255 -411 6273 0
-6274 257 0
-6274 447 0
-257 -447 6274 0
-6275 259 0
-6275 483 0
-259 -483 6275 0
-6276 261 0
-6276 519 0
-261 -519 6276 0
-6277 263 0
-6277 555 0
-263 -555 6277 0
-6278 265 0
-6278 591 0
-265 -591 6278 0
-6279 269 0
-6279 663 0
-269 -663 6279 0
-6263 -6264 0
-6263 -6265 0
-6263 -6266 0
-6263 -6267 0
-6263 -6268 0
-6263 -6269 0
-6263 -6270 0
-6263 -6271 0
-6263 -6272 0
-6263 -6273 0
-6263 -6274 0
-6263 -6275 0
-6263 -6276 0
-6263 -6277 0
-6263 -6278 0
-6263 -6279 0
-267 6263 6264 6265 6266 6267 6268 6269 6270 6271 6272 6273 6274 6275 6276 6277 6278 6279 0
-6280 269 0
-6281 235 0
-6281 52 0
-235 -52 6281 0
-6282 237 0
-6282 89 0
-237 -89 6282 0
-6283 239 0
-6283 125 0
-239 -125 6283 0
-6284 241 0
-6284 161 0
-241 -161 6284 0
-6285 243 0
-6285 197 0
-243 -197 6285 0
-6286 245 0
-6286 233 0
-245 -233 6286 0
-6287 249 0
-6287 305 0
-249 -305 6287 0
-6288 251 0
-6288 341 0
-251 -341 6288 0
-6289 253 0
-6289 377 0
-253 -377 6289 0
-6290 255 0
-6290 413 0
-255 -413 6290 0
-6291 257 0
-6291 449 0
-257 -449 6291 0
-6292 259 0
-6292 485 0
-259 -485 6292 0
-6293 261 0
-6293 521 0
-261 -521 6293 0
-6294 263 0
-6294 557 0
-263 -557 6294 0
-6295 265 0
-6295 593 0
-265 -593 6295 0
-6296 267 0
-6296 629 0
-267 -629 6296 0
-6280 -6281 0
-6280 -6282 0
-6280 -6283 0
-6280 -6284 0
-6280 -6285 0
-6280 -6286 0
-6280 -6287 0
-6280 -6288 0
-6280 -6289 0
-6280 -6290 0
-6280 -6291 0
-6280 -6292 0
-6280 -6293 0
-6280 -6294 0
-6280 -6295 0
-6280 -6296 0
-269 6280 6281 6282 6283 6284 6285 6286 6287 6288 6289 6290 6291 6292 6293 6294 6295 6296 0
-6297 271 0
-6298 273 0
-6298 55 0
-273 -55 6298 0
-6299 275 0
-6299 91 0
-275 -91 6299 0
-6300 277 0
-6300 127 0
-277 -127 6300 0
-6301 279 0
-6301 163 0
-279 -163 6301 0
-6302 281 0
-6302 199 0
-281 -199 6302 0
-6303 283 0
-6303 235 0
-283 -235 6303 0
-6304 287 0
-6304 307 0
-287 -307 6304 0
-6305 289 0
-6305 343 0
-289 -343 6305 0
-6306 291 0
-6306 379 0
-291 -379 6306 0
-6307 293 0
-6307 415 0
-293 -415 6307 0
-6308 295 0
-6308 451 0
-295 -451 6308 0
-6309 297 0
-6309 487 0
-297 -487 6309 0
-6310 299 0
-6310 523 0
-299 -523 6310 0
-6311 301 0
-6311 559 0
-301 -559 6311 0
-6312 303 0
-6312 595 0
-303 -595 6312 0
-6313 305 0
-6313 631 0
-305 -631 6313 0
-6297 -6298 0
-6297 -6299 0
-6297 -6300 0
-6297 -6301 0
-6297 -6302 0
-6297 -6303 0
-6297 -6304 0
-6297 -6305 0
-6297 -6306 0
-6297 -6307 0
-6297 -6308 0
-6297 -6309 0
-6297 -6310 0
-6297 -6311 0
-6297 -6312 0
-6297 -6313 0
-271 6297 6298 6299 6300 6301 6302 6303 6304 6305 6306 6307 6308 6309 6310 6311 6312 6313 0
-6314 273 0
-6315 271 0
-6315 4 0
-271 -4 6315 0
-6316 275 0
-6316 93 0
-275 -93 6316 0
-6317 277 0
-6317 129 0
-277 -129 6317 0
-6318 279 0
-6318 165 0
-279 -165 6318 0
-6319 281 0
-6319 201 0
-281 -201 6319 0
-6320 283 0
-6320 237 0
-283 -237 6320 0
-6321 287 0
-6321 309 0
-287 -309 6321 0
-6322 289 0
-6322 345 0
-289 -345 6322 0
-6323 291 0
-6323 381 0
-291 -381 6323 0
-6324 293 0
-6324 417 0
-293 -417 6324 0
-6325 295 0
-6325 453 0
-295 -453 6325 0
-6326 297 0
-6326 489 0
-297 -489 6326 0
-6327 299 0
-6327 525 0
-299 -525 6327 0
-6328 301 0
-6328 561 0
-301 -561 6328 0
-6329 303 0
-6329 597 0
-303 -597 6329 0
-6330 305 0
-6330 633 0
-305 -633 6330 0
-6314 -6315 0
-6314 -6316 0
-6314 -6317 0
-6314 -6318 0
-6314 -6319 0
-6314 -6320 0
-6314 -6321 0
-6314 -6322 0
-6314 -6323 0
-6314 -6324 0
-6314 -6325 0
-6314 -6326 0
-6314 -6327 0
-6314 -6328 0
-6314 -6329 0
-6314 -6330 0
-273 6314 6315 6316 6317 6318 6319 6320 6321 6322 6323 6324 6325 6326 6327 6328 6329 6330 0
-6331 275 0
-6332 271 0
-6332 7 0
-271 -7 6332 0
-6333 273 0
-6333 59 0
-273 -59 6333 0
-6334 277 0
-6334 131 0
-277 -131 6334 0
-6335 279 0
-6335 167 0
-279 -167 6335 0
-6336 281 0
-6336 203 0
-281 -203 6336 0
-6337 283 0
-6337 239 0
-283 -239 6337 0
-6338 287 0
-6338 311 0
-287 -311 6338 0
-6339 289 0
-6339 347 0
-289 -347 6339 0
-6340 291 0
-6340 383 0
-291 -383 6340 0
-6341 293 0
-6341 419 0
-293 -419 6341 0
-6342 295 0
-6342 455 0
-295 -455 6342 0
-6343 297 0
-6343 491 0
-297 -491 6343 0
-6344 299 0
-6344 527 0
-299 -527 6344 0
-6345 301 0
-6345 563 0
-301 -563 6345 0
-6346 303 0
-6346 599 0
-303 -599 6346 0
-6347 305 0
-6347 635 0
-305 -635 6347 0
-6331 -6332 0
-6331 -6333 0
-6331 -6334 0
-6331 -6335 0
-6331 -6336 0
-6331 -6337 0
-6331 -6338 0
-6331 -6339 0
-6331 -6340 0
-6331 -6341 0
-6331 -6342 0
-6331 -6343 0
-6331 -6344 0
-6331 -6345 0
-6331 -6346 0
-6331 -6347 0
-275 6331 6332 6333 6334 6335 6336 6337 6338 6339 6340 6341 6342 6343 6344 6345 6346 6347 0
-6348 277 0
-6349 271 0
-6349 10 0
-271 -10 6349 0
-6350 273 0
-6350 61 0
-273 -61 6350 0
-6351 275 0
-6351 97 0
-275 -97 6351 0
-6352 279 0
-6352 169 0
-279 -169 6352 0
-6353 281 0
-6353 205 0
-281 -205 6353 0
-6354 283 0
-6354 241 0
-283 -241 6354 0
-6355 287 0
-6355 313 0
-287 -313 6355 0
-6356 289 0
-6356 349 0
-289 -349 6356 0
-6357 291 0
-6357 385 0
-291 -385 6357 0
-6358 293 0
-6358 421 0
-293 -421 6358 0
-6359 295 0
-6359 457 0
-295 -457 6359 0
-6360 297 0
-6360 493 0
-297 -493 6360 0
-6361 299 0
-6361 529 0
-299 -529 6361 0
-6362 301 0
-6362 565 0
-301 -565 6362 0
-6363 303 0
-6363 601 0
-303 -601 6363 0
-6364 305 0
-6364 637 0
-305 -637 6364 0
-6348 -6349 0
-6348 -6350 0
-6348 -6351 0
-6348 -6352 0
-6348 -6353 0
-6348 -6354 0
-6348 -6355 0
-6348 -6356 0
-6348 -6357 0
-6348 -6358 0
-6348 -6359 0
-6348 -6360 0
-6348 -6361 0
-6348 -6362 0
-6348 -6363 0
-6348 -6364 0
-277 6348 6349 6350 6351 6352 6353 6354 6355 6356 6357 6358 6359 6360 6361 6362 6363 6364 0
-6365 279 0
-6366 271 0
-6366 13 0
-271 -13 6366 0
-6367 273 0
-6367 63 0
-273 -63 6367 0
-6368 275 0
-6368 99 0
-275 -99 6368 0
-6369 277 0
-6369 135 0
-277 -135 6369 0
-6370 281 0
-6370 207 0
-281 -207 6370 0
-6371 283 0
-6371 243 0
-283 -243 6371 0
-6372 287 0
-6372 315 0
-287 -315 6372 0
-6373 289 0
-6373 351 0
-289 -351 6373 0
-6374 291 0
-6374 387 0
-291 -387 6374 0
-6375 293 0
-6375 423 0
-293 -423 6375 0
-6376 295 0
-6376 459 0
-295 -459 6376 0
-6377 297 0
-6377 495 0
-297 -495 6377 0
-6378 299 0
-6378 531 0
-299 -531 6378 0
-6379 301 0
-6379 567 0
-301 -567 6379 0
-6380 303 0
-6380 603 0
-303 -603 6380 0
-6381 305 0
-6381 639 0
-305 -639 6381 0
-6365 -6366 0
-6365 -6367 0
-6365 -6368 0
-6365 -6369 0
-6365 -6370 0
-6365 -6371 0
-6365 -6372 0
-6365 -6373 0
-6365 -6374 0
-6365 -6375 0
-6365 -6376 0
-6365 -6377 0
-6365 -6378 0
-6365 -6379 0
-6365 -6380 0
-6365 -6381 0
-279 6365 6366 6367 6368 6369 6370 6371 6372 6373 6374 6375 6376 6377 6378 6379 6380 6381 0
-6382 281 0
-6383 271 0
-6383 16 0
-271 -16 6383 0
-6384 273 0
-6384 65 0
-273 -65 6384 0
-6385 275 0
-6385 101 0
-275 -101 6385 0
-6386 277 0
-6386 137 0
-277 -137 6386 0
-6387 279 0
-6387 173 0
-279 -173 6387 0
-6388 283 0
-6388 245 0
-283 -245 6388 0
-6389 287 0
-6389 317 0
-287 -317 6389 0
-6390 289 0
-6390 353 0
-289 -353 6390 0
-6391 291 0
-6391 389 0
-291 -389 6391 0
-6392 293 0
-6392 425 0
-293 -425 6392 0
-6393 295 0
-6393 461 0
-295 -461 6393 0
-6394 297 0
-6394 497 0
-297 -497 6394 0
-6395 299 0
-6395 533 0
-299 -533 6395 0
-6396 301 0
-6396 569 0
-301 -569 6396 0
-6397 303 0
-6397 605 0
-303 -605 6397 0
-6398 305 0
-6398 641 0
-305 -641 6398 0
-6382 -6383 0
-6382 -6384 0
-6382 -6385 0
-6382 -6386 0
-6382 -6387 0
-6382 -6388 0
-6382 -6389 0
-6382 -6390 0
-6382 -6391 0
-6382 -6392 0
-6382 -6393 0
-6382 -6394 0
-6382 -6395 0
-6382 -6396 0
-6382 -6397 0
-6382 -6398 0
-281 6382 6383 6384 6385 6386 6387 6388 6389 6390 6391 6392 6393 6394 6395 6396 6397 6398 0
-6399 283 0
-6400 271 0
-6400 19 0
-271 -19 6400 0
-6401 273 0
-6401 67 0
-273 -67 6401 0
-6402 275 0
-6402 103 0
-275 -103 6402 0
-6403 277 0
-6403 139 0
-277 -139 6403 0
-6404 279 0
-6404 175 0
-279 -175 6404 0
-6405 281 0
-6405 211 0
-281 -211 6405 0
-6406 287 0
-6406 319 0
-287 -319 6406 0
-6407 289 0
-6407 355 0
-289 -355 6407 0
-6408 291 0
-6408 391 0
-291 -391 6408 0
-6409 293 0
-6409 427 0
-293 -427 6409 0
-6410 295 0
-6410 463 0
-295 -463 6410 0
-6411 297 0
-6411 499 0
-297 -499 6411 0
-6412 299 0
-6412 535 0
-299 -535 6412 0
-6413 301 0
-6413 571 0
-301 -571 6413 0
-6414 303 0
-6414 607 0
-303 -607 6414 0
-6415 305 0
-6415 643 0
-305 -643 6415 0
-6399 -6400 0
-6399 -6401 0
-6399 -6402 0
-6399 -6403 0
-6399 -6404 0
-6399 -6405 0
-6399 -6406 0
-6399 -6407 0
-6399 -6408 0
-6399 -6409 0
-6399 -6410 0
-6399 -6411 0
-6399 -6412 0
-6399 -6413 0
-6399 -6414 0
-6399 -6415 0
-283 6399 6400 6401 6402 6403 6404 6405 6406 6407 6408 6409 6410 6411 6412 6413 6414 6415 0
-6416 0
-6417 287 0
-6418 271 0
-6418 25 0
-271 -25 6418 0
-6419 273 0
-6419 71 0
-273 -71 6419 0
-6420 275 0
-6420 107 0
-275 -107 6420 0
-6421 277 0
-6421 143 0
-277 -143 6421 0
-6422 279 0
-6422 179 0
-279 -179 6422 0
-6423 281 0
-6423 215 0
-281 -215 6423 0
-6424 283 0
-6424 251 0
-283 -251 6424 0
-6425 289 0
-6425 359 0
-289 -359 6425 0
-6426 291 0
-6426 395 0
-291 -395 6426 0
-6427 293 0
-6427 431 0
-293 -431 6427 0
-6428 295 0
-6428 467 0
-295 -467 6428 0
-6429 297 0
-6429 503 0
-297 -503 6429 0
-6430 299 0
-6430 539 0
-299 -539 6430 0
-6431 301 0
-6431 575 0
-301 -575 6431 0
-6432 303 0
-6432 611 0
-303 -611 6432 0
-6433 305 0
-6433 647 0
-305 -647 6433 0
-6417 -6418 0
-6417 -6419 0
-6417 -6420 0
-6417 -6421 0
-6417 -6422 0
-6417 -6423 0
-6417 -6424 0
-6417 -6425 0
-6417 -6426 0
-6417 -6427 0
-6417 -6428 0
-6417 -6429 0
-6417 -6430 0
-6417 -6431 0
-6417 -6432 0
-6417 -6433 0
-287 6417 6418 6419 6420 6421 6422 6423 6424 6425 6426 6427 6428 6429 6430 6431 6432 6433 0
-6434 289 0
-6435 271 0
-6435 28 0
-271 -28 6435 0
-6436 273 0
-6436 73 0
-273 -73 6436 0
-6437 275 0
-6437 109 0
-275 -109 6437 0
-6438 277 0
-6438 145 0
-277 -145 6438 0
-6439 279 0
-6439 181 0
-279 -181 6439 0
-6440 281 0
-6440 217 0
-281 -217 6440 0
-6441 283 0
-6441 253 0
-283 -253 6441 0
-6442 287 0
-6442 325 0
-287 -325 6442 0
-6443 291 0
-6443 397 0
-291 -397 6443 0
-6444 293 0
-6444 433 0
-293 -433 6444 0
-6445 295 0
-6445 469 0
-295 -469 6445 0
-6446 297 0
-6446 505 0
-297 -505 6446 0
-6447 299 0
-6447 541 0
-299 -541 6447 0
-6448 301 0
-6448 577 0
-301 -577 6448 0
-6449 303 0
-6449 613 0
-303 -613 6449 0
-6450 305 0
-6450 649 0
-305 -649 6450 0
-6434 -6435 0
-6434 -6436 0
-6434 -6437 0
-6434 -6438 0
-6434 -6439 0
-6434 -6440 0
-6434 -6441 0
-6434 -6442 0
-6434 -6443 0
-6434 -6444 0
-6434 -6445 0
-6434 -6446 0
-6434 -6447 0
-6434 -6448 0
-6434 -6449 0
-6434 -6450 0
-289 6434 6435 6436 6437 6438 6439 6440 6441 6442 6443 6444 6445 6446 6447 6448 6449 6450 0
-6451 291 0
-6452 271 0
-6452 31 0
-271 -31 6452 0
-6453 273 0
-6453 75 0
-273 -75 6453 0
-6454 275 0
-6454 111 0
-275 -111 6454 0
-6455 277 0
-6455 147 0
-277 -147 6455 0
-6456 279 0
-6456 183 0
-279 -183 6456 0
-6457 281 0
-6457 219 0
-281 -219 6457 0
-6458 283 0
-6458 255 0
-283 -255 6458 0
-6459 287 0
-6459 327 0
-287 -327 6459 0
-6460 289 0
-6460 363 0
-289 -363 6460 0
-6461 293 0
-6461 435 0
-293 -435 6461 0
-6462 295 0
-6462 471 0
-295 -471 6462 0
-6463 297 0
-6463 507 0
-297 -507 6463 0
-6464 299 0
-6464 543 0
-299 -543 6464 0
-6465 301 0
-6465 579 0
-301 -579 6465 0
-6466 303 0
-6466 615 0
-303 -615 6466 0
-6467 305 0
-6467 651 0
-305 -651 6467 0
-6451 -6452 0
-6451 -6453 0
-6451 -6454 0
-6451 -6455 0
-6451 -6456 0
-6451 -6457 0
-6451 -6458 0
-6451 -6459 0
-6451 -6460 0
-6451 -6461 0
-6451 -6462 0
-6451 -6463 0
-6451 -6464 0
-6451 -6465 0
-6451 -6466 0
-6451 -6467 0
-291 6451 6452 6453 6454 6455 6456 6457 6458 6459 6460 6461 6462 6463 6464 6465 6466 6467 0
-6468 293 0
-6469 271 0
-6469 34 0
-271 -34 6469 0
-6470 273 0
-6470 77 0
-273 -77 6470 0
-6471 275 0
-6471 113 0
-275 -113 6471 0
-6472 277 0
-6472 149 0
-277 -149 6472 0
-6473 279 0
-6473 185 0
-279 -185 6473 0
-6474 281 0
-6474 221 0
-281 -221 6474 0
-6475 283 0
-6475 257 0
-283 -257 6475 0
-6476 287 0
-6476 329 0
-287 -329 6476 0
-6477 289 0
-6477 365 0
-289 -365 6477 0
-6478 291 0
-6478 401 0
-291 -401 6478 0
-6479 295 0
-6479 473 0
-295 -473 6479 0
-6480 297 0
-6480 509 0
-297 -509 6480 0
-6481 299 0
-6481 545 0
-299 -545 6481 0
-6482 301 0
-6482 581 0
-301 -581 6482 0
-6483 303 0
-6483 617 0
-303 -617 6483 0
-6484 305 0
-6484 653 0
-305 -653 6484 0
-6468 -6469 0
-6468 -6470 0
-6468 -6471 0
-6468 -6472 0
-6468 -6473 0
-6468 -6474 0
-6468 -6475 0
-6468 -6476 0
-6468 -6477 0
-6468 -6478 0
-6468 -6479 0
-6468 -6480 0
-6468 -6481 0
-6468 -6482 0
-6468 -6483 0
-6468 -6484 0
-293 6468 6469 6470 6471 6472 6473 6474 6475 6476 6477 6478 6479 6480 6481 6482 6483 6484 0
-6485 295 0
-6486 271 0
-6486 37 0
-271 -37 6486 0
-6487 273 0
-6487 79 0
-273 -79 6487 0
-6488 275 0
-6488 115 0
-275 -115 6488 0
-6489 277 0
-6489 151 0
-277 -151 6489 0
-6490 279 0
-6490 187 0
-279 -187 6490 0
-6491 281 0
-6491 223 0
-281 -223 6491 0
-6492 283 0
-6492 259 0
-283 -259 6492 0
-6493 287 0
-6493 331 0
-287 -331 6493 0
-6494 289 0
-6494 367 0
-289 -367 6494 0
-6495 291 0
-6495 403 0
-291 -403 6495 0
-6496 293 0
-6496 439 0
-293 -439 6496 0
-6497 297 0
-6497 511 0
-297 -511 6497 0
-6498 299 0
-6498 547 0
-299 -547 6498 0
-6499 301 0
-6499 583 0
-301 -583 6499 0
-6500 303 0
-6500 619 0
-303 -619 6500 0
-6501 305 0
-6501 655 0
-305 -655 6501 0
-6485 -6486 0
-6485 -6487 0
-6485 -6488 0
-6485 -6489 0
-6485 -6490 0
-6485 -6491 0
-6485 -6492 0
-6485 -6493 0
-6485 -6494 0
-6485 -6495 0
-6485 -6496 0
-6485 -6497 0
-6485 -6498 0
-6485 -6499 0
-6485 -6500 0
-6485 -6501 0
-295 6485 6486 6487 6488 6489 6490 6491 6492 6493 6494 6495 6496 6497 6498 6499 6500 6501 0
-6502 297 0
-6503 271 0
-6503 40 0
-271 -40 6503 0
-6504 273 0
-6504 81 0
-273 -81 6504 0
-6505 275 0
-6505 117 0
-275 -117 6505 0
-6506 277 0
-6506 153 0
-277 -153 6506 0
-6507 279 0
-6507 189 0
-279 -189 6507 0
-6508 281 0
-6508 225 0
-281 -225 6508 0
-6509 283 0
-6509 261 0
-283 -261 6509 0
-6510 287 0
-6510 333 0
-287 -333 6510 0
-6511 289 0
-6511 369 0
-289 -369 6511 0
-6512 291 0
-6512 405 0
-291 -405 6512 0
-6513 293 0
-6513 441 0
-293 -441 6513 0
-6514 295 0
-6514 477 0
-295 -477 6514 0
-6515 299 0
-6515 549 0
-299 -549 6515 0
-6516 301 0
-6516 585 0
-301 -585 6516 0
-6517 303 0
-6517 621 0
-303 -621 6517 0
-6518 305 0
-6518 657 0
-305 -657 6518 0
-6502 -6503 0
-6502 -6504 0
-6502 -6505 0
-6502 -6506 0
-6502 -6507 0
-6502 -6508 0
-6502 -6509 0
-6502 -6510 0
-6502 -6511 0
-6502 -6512 0
-6502 -6513 0
-6502 -6514 0
-6502 -6515 0
-6502 -6516 0
-6502 -6517 0
-6502 -6518 0
-297 6502 6503 6504 6505 6506 6507 6508 6509 6510 6511 6512 6513 6514 6515 6516 6517 6518 0
-6519 299 0
-6520 271 0
-6520 43 0
-271 -43 6520 0
-6521 273 0
-6521 83 0
-273 -83 6521 0
-6522 275 0
-6522 119 0
-275 -119 6522 0
-6523 277 0
-6523 155 0
-277 -155 6523 0
-6524 279 0
-6524 191 0
-279 -191 6524 0
-6525 281 0
-6525 227 0
-281 -227 6525 0
-6526 283 0
-6526 263 0
-283 -263 6526 0
-6527 287 0
-6527 335 0
-287 -335 6527 0
-6528 289 0
-6528 371 0
-289 -371 6528 0
-6529 291 0
-6529 407 0
-291 -407 6529 0
-6530 293 0
-6530 443 0
-293 -443 6530 0
-6531 295 0
-6531 479 0
-295 -479 6531 0
-6532 297 0
-6532 515 0
-297 -515 6532 0
-6533 301 0
-6533 587 0
-301 -587 6533 0
-6534 303 0
-6534 623 0
-303 -623 6534 0
-6535 305 0
-6535 659 0
-305 -659 6535 0
-6519 -6520 0
-6519 -6521 0
-6519 -6522 0
-6519 -6523 0
-6519 -6524 0
-6519 -6525 0
-6519 -6526 0
-6519 -6527 0
-6519 -6528 0
-6519 -6529 0
-6519 -6530 0
-6519 -6531 0
-6519 -6532 0
-6519 -6533 0
-6519 -6534 0
-6519 -6535 0
-299 6519 6520 6521 6522 6523 6524 6525 6526 6527 6528 6529 6530 6531 6532 6533 6534 6535 0
-6536 301 0
-6537 271 0
-6537 46 0
-271 -46 6537 0
-6538 273 0
-6538 85 0
-273 -85 6538 0
-6539 275 0
-6539 121 0
-275 -121 6539 0
-6540 277 0
-6540 157 0
-277 -157 6540 0
-6541 279 0
-6541 193 0
-279 -193 6541 0
-6542 281 0
-6542 229 0
-281 -229 6542 0
-6543 283 0
-6543 265 0
-283 -265 6543 0
-6544 287 0
-6544 337 0
-287 -337 6544 0
-6545 289 0
-6545 373 0
-289 -373 6545 0
-6546 291 0
-6546 409 0
-291 -409 6546 0
-6547 293 0
-6547 445 0
-293 -445 6547 0
-6548 295 0
-6548 481 0
-295 -481 6548 0
-6549 297 0
-6549 517 0
-297 -517 6549 0
-6550 299 0
-6550 553 0
-299 -553 6550 0
-6551 303 0
-6551 625 0
-303 -625 6551 0
-6552 305 0
-6552 661 0
-305 -661 6552 0
-6536 -6537 0
-6536 -6538 0
-6536 -6539 0
-6536 -6540 0
-6536 -6541 0
-6536 -6542 0
-6536 -6543 0
-6536 -6544 0
-6536 -6545 0
-6536 -6546 0
-6536 -6547 0
-6536 -6548 0
-6536 -6549 0
-6536 -6550 0
-6536 -6551 0
-6536 -6552 0
-301 6536 6537 6538 6539 6540 6541 6542 6543 6544 6545 6546 6547 6548 6549 6550 6551 6552 0
-6553 303 0
-6554 271 0
-6554 49 0
-271 -49 6554 0
-6555 273 0
-6555 87 0
-273 -87 6555 0
-6556 275 0
-6556 123 0
-275 -123 6556 0
-6557 277 0
-6557 159 0
-277 -159 6557 0
-6558 279 0
-6558 195 0
-279 -195 6558 0
-6559 281 0
-6559 231 0
-281 -231 6559 0
-6560 283 0
-6560 267 0
-283 -267 6560 0
-6561 287 0
-6561 339 0
-287 -339 6561 0
-6562 289 0
-6562 375 0
-289 -375 6562 0
-6563 291 0
-6563 411 0
-291 -411 6563 0
-6564 293 0
-6564 447 0
-293 -447 6564 0
-6565 295 0
-6565 483 0
-295 -483 6565 0
-6566 297 0
-6566 519 0
-297 -519 6566 0
-6567 299 0
-6567 555 0
-299 -555 6567 0
-6568 301 0
-6568 591 0
-301 -591 6568 0
-6569 305 0
-6569 663 0
-305 -663 6569 0
-6553 -6554 0
-6553 -6555 0
-6553 -6556 0
-6553 -6557 0
-6553 -6558 0
-6553 -6559 0
-6553 -6560 0
-6553 -6561 0
-6553 -6562 0
-6553 -6563 0
-6553 -6564 0
-6553 -6565 0
-6553 -6566 0
-6553 -6567 0
-6553 -6568 0
-6553 -6569 0
-303 6553 6554 6555 6556 6557 6558 6559 6560 6561 6562 6563 6564 6565 6566 6567 6568 6569 0
-6570 305 0
-6571 271 0
-6571 52 0
-271 -52 6571 0
-6572 273 0
-6572 89 0
-273 -89 6572 0
-6573 275 0
-6573 125 0
-275 -125 6573 0
-6574 277 0
-6574 161 0
-277 -161 6574 0
-6575 279 0
-6575 197 0
-279 -197 6575 0
-6576 281 0
-6576 233 0
-281 -233 6576 0
-6577 283 0
-6577 269 0
-283 -269 6577 0
-6578 287 0
-6578 341 0
-287 -341 6578 0
-6579 289 0
-6579 377 0
-289 -377 6579 0
-6580 291 0
-6580 413 0
-291 -413 6580 0
-6581 293 0
-6581 449 0
-293 -449 6581 0
-6582 295 0
-6582 485 0
-295 -485 6582 0
-6583 297 0
-6583 521 0
-297 -521 6583 0
-6584 299 0
-6584 557 0
-299 -557 6584 0
-6585 301 0
-6585 593 0
-301 -593 6585 0
-6586 303 0
-6586 629 0
-303 -629 6586 0
-6570 -6571 0
-6570 -6572 0
-6570 -6573 0
-6570 -6574 0
-6570 -6575 0
-6570 -6576 0
-6570 -6577 0
-6570 -6578 0
-6570 -6579 0
-6570 -6580 0
-6570 -6581 0
-6570 -6582 0
-6570 -6583 0
-6570 -6584 0
-6570 -6585 0
-6570 -6586 0
-305 6570 6571 6572 6573 6574 6575 6576 6577 6578 6579 6580 6581 6582 6583 6584 6585 6586 0
-6587 307 0
-6588 309 0
-6588 55 0
-309 -55 6588 0
-6589 311 0
-6589 91 0
-311 -91 6589 0
-6590 313 0
-6590 127 0
-313 -127 6590 0
-6591 315 0
-6591 163 0
-315 -163 6591 0
-6592 317 0
-6592 199 0
-317 -199 6592 0
-6593 319 0
-6593 235 0
-319 -235 6593 0
-6594 321 0
-6594 271 0
-321 -271 6594 0
-6595 325 0
-6595 343 0
-325 -343 6595 0
-6596 327 0
-6596 379 0
-327 -379 6596 0
-6597 329 0
-6597 415 0
-329 -415 6597 0
-6598 331 0
-6598 451 0
-331 -451 6598 0
-6599 333 0
-6599 487 0
-333 -487 6599 0
-6600 335 0
-6600 523 0
-335 -523 6600 0
-6601 337 0
-6601 559 0
-337 -559 6601 0
-6602 339 0
-6602 595 0
-339 -595 6602 0
-6603 341 0
-6603 631 0
-341 -631 6603 0
-6587 -6588 0
-6587 -6589 0
-6587 -6590 0
-6587 -6591 0
-6587 -6592 0
-6587 -6593 0
-6587 -6594 0
-6587 -6595 0
-6587 -6596 0
-6587 -6597 0
-6587 -6598 0
-6587 -6599 0
-6587 -6600 0
-6587 -6601 0
-6587 -6602 0
-6587 -6603 0
-307 6587 6588 6589 6590 6591 6592 6593 6594 6595 6596 6597 6598 6599 6600 6601 6602 6603 0
-6604 309 0
-6605 307 0
-6605 4 0
-307 -4 6605 0
-6606 311 0
-6606 93 0
-311 -93 6606 0
-6607 313 0
-6607 129 0
-313 -129 6607 0
-6608 315 0
-6608 165 0
-315 -165 6608 0
-6609 317 0
-6609 201 0
-317 -201 6609 0
-6610 319 0
-6610 237 0
-319 -237 6610 0
-6611 321 0
-6611 273 0
-321 -273 6611 0
-6612 325 0
-6612 345 0
-325 -345 6612 0
-6613 327 0
-6613 381 0
-327 -381 6613 0
-6614 329 0
-6614 417 0
-329 -417 6614 0
-6615 331 0
-6615 453 0
-331 -453 6615 0
-6616 333 0
-6616 489 0
-333 -489 6616 0
-6617 335 0
-6617 525 0
-335 -525 6617 0
-6618 337 0
-6618 561 0
-337 -561 6618 0
-6619 339 0
-6619 597 0
-339 -597 6619 0
-6620 341 0
-6620 633 0
-341 -633 6620 0
-6604 -6605 0
-6604 -6606 0
-6604 -6607 0
-6604 -6608 0
-6604 -6609 0
-6604 -6610 0
-6604 -6611 0
-6604 -6612 0
-6604 -6613 0
-6604 -6614 0
-6604 -6615 0
-6604 -6616 0
-6604 -6617 0
-6604 -6618 0
-6604 -6619 0
-6604 -6620 0
-309 6604 6605 6606 6607 6608 6609 6610 6611 6612 6613 6614 6615 6616 6617 6618 6619 6620 0
-6621 311 0
-6622 307 0
-6622 7 0
-307 -7 6622 0
-6623 309 0
-6623 59 0
-309 -59 6623 0
-6624 313 0
-6624 131 0
-313 -131 6624 0
-6625 315 0
-6625 167 0
-315 -167 6625 0
-6626 317 0
-6626 203 0
-317 -203 6626 0
-6627 319 0
-6627 239 0
-319 -239 6627 0
-6628 321 0
-6628 275 0
-321 -275 6628 0
-6629 325 0
-6629 347 0
-325 -347 6629 0
-6630 327 0
-6630 383 0
-327 -383 6630 0
-6631 329 0
-6631 419 0
-329 -419 6631 0
-6632 331 0
-6632 455 0
-331 -455 6632 0
-6633 333 0
-6633 491 0
-333 -491 6633 0
-6634 335 0
-6634 527 0
-335 -527 6634 0
-6635 337 0
-6635 563 0
-337 -563 6635 0
-6636 339 0
-6636 599 0
-339 -599 6636 0
-6637 341 0
-6637 635 0
-341 -635 6637 0
-6621 -6622 0
-6621 -6623 0
-6621 -6624 0
-6621 -6625 0
-6621 -6626 0
-6621 -6627 0
-6621 -6628 0
-6621 -6629 0
-6621 -6630 0
-6621 -6631 0
-6621 -6632 0
-6621 -6633 0
-6621 -6634 0
-6621 -6635 0
-6621 -6636 0
-6621 -6637 0
-311 6621 6622 6623 6624 6625 6626 6627 6628 6629 6630 6631 6632 6633 6634 6635 6636 6637 0
-6638 313 0
-6639 307 0
-6639 10 0
-307 -10 6639 0
-6640 309 0
-6640 61 0
-309 -61 6640 0
-6641 311 0
-6641 97 0
-311 -97 6641 0
-6642 315 0
-6642 169 0
-315 -169 6642 0
-6643 317 0
-6643 205 0
-317 -205 6643 0
-6644 319 0
-6644 241 0
-319 -241 6644 0
-6645 321 0
-6645 277 0
-321 -277 6645 0
-6646 325 0
-6646 349 0
-325 -349 6646 0
-6647 327 0
-6647 385 0
-327 -385 6647 0
-6648 329 0
-6648 421 0
-329 -421 6648 0
-6649 331 0
-6649 457 0
-331 -457 6649 0
-6650 333 0
-6650 493 0
-333 -493 6650 0
-6651 335 0
-6651 529 0
-335 -529 6651 0
-6652 337 0
-6652 565 0
-337 -565 6652 0
-6653 339 0
-6653 601 0
-339 -601 6653 0
-6654 341 0
-6654 637 0
-341 -637 6654 0
-6638 -6639 0
-6638 -6640 0
-6638 -6641 0
-6638 -6642 0
-6638 -6643 0
-6638 -6644 0
-6638 -6645 0
-6638 -6646 0
-6638 -6647 0
-6638 -6648 0
-6638 -6649 0
-6638 -6650 0
-6638 -6651 0
-6638 -6652 0
-6638 -6653 0
-6638 -6654 0
-313 6638 6639 6640 6641 6642 6643 6644 6645 6646 6647 6648 6649 6650 6651 6652 6653 6654 0
-6655 315 0
-6656 307 0
-6656 13 0
-307 -13 6656 0
-6657 309 0
-6657 63 0
-309 -63 6657 0
-6658 311 0
-6658 99 0
-311 -99 6658 0
-6659 313 0
-6659 135 0
-313 -135 6659 0
-6660 317 0
-6660 207 0
-317 -207 6660 0
-6661 319 0
-6661 243 0
-319 -243 6661 0
-6662 321 0
-6662 279 0
-321 -279 6662 0
-6663 325 0
-6663 351 0
-325 -351 6663 0
-6664 327 0
-6664 387 0
-327 -387 6664 0
-6665 329 0
-6665 423 0
-329 -423 6665 0
-6666 331 0
-6666 459 0
-331 -459 6666 0
-6667 333 0
-6667 495 0
-333 -495 6667 0
-6668 335 0
-6668 531 0
-335 -531 6668 0
-6669 337 0
-6669 567 0
-337 -567 6669 0
-6670 339 0
-6670 603 0
-339 -603 6670 0
-6671 341 0
-6671 639 0
-341 -639 6671 0
-6655 -6656 0
-6655 -6657 0
-6655 -6658 0
-6655 -6659 0
-6655 -6660 0
-6655 -6661 0
-6655 -6662 0
-6655 -6663 0
-6655 -6664 0
-6655 -6665 0
-6655 -6666 0
-6655 -6667 0
-6655 -6668 0
-6655 -6669 0
-6655 -6670 0
-6655 -6671 0
-315 6655 6656 6657 6658 6659 6660 6661 6662 6663 6664 6665 6666 6667 6668 6669 6670 6671 0
-6672 317 0
-6673 307 0
-6673 16 0
-307 -16 6673 0
-6674 309 0
-6674 65 0
-309 -65 6674 0
-6675 311 0
-6675 101 0
-311 -101 6675 0
-6676 313 0
-6676 137 0
-313 -137 6676 0
-6677 315 0
-6677 173 0
-315 -173 6677 0
-6678 319 0
-6678 245 0
-319 -245 6678 0
-6679 321 0
-6679 281 0
-321 -281 6679 0
-6680 325 0
-6680 353 0
-325 -353 6680 0
-6681 327 0
-6681 389 0
-327 -389 6681 0
-6682 329 0
-6682 425 0
-329 -425 6682 0
-6683 331 0
-6683 461 0
-331 -461 6683 0
-6684 333 0
-6684 497 0
-333 -497 6684 0
-6685 335 0
-6685 533 0
-335 -533 6685 0
-6686 337 0
-6686 569 0
-337 -569 6686 0
-6687 339 0
-6687 605 0
-339 -605 6687 0
-6688 341 0
-6688 641 0
-341 -641 6688 0
-6672 -6673 0
-6672 -6674 0
-6672 -6675 0
-6672 -6676 0
-6672 -6677 0
-6672 -6678 0
-6672 -6679 0
-6672 -6680 0
-6672 -6681 0
-6672 -6682 0
-6672 -6683 0
-6672 -6684 0
-6672 -6685 0
-6672 -6686 0
-6672 -6687 0
-6672 -6688 0
-317 6672 6673 6674 6675 6676 6677 6678 6679 6680 6681 6682 6683 6684 6685 6686 6687 6688 0
-6689 319 0
-6690 307 0
-6690 19 0
-307 -19 6690 0
-6691 309 0
-6691 67 0
-309 -67 6691 0
-6692 311 0
-6692 103 0
-311 -103 6692 0
-6693 313 0
-6693 139 0
-313 -139 6693 0
-6694 315 0
-6694 175 0
-315 -175 6694 0
-6695 317 0
-6695 211 0
-317 -211 6695 0
-6696 321 0
-6696 283 0
-321 -283 6696 0
-6697 325 0
-6697 355 0
-325 -355 6697 0
-6698 327 0
-6698 391 0
-327 -391 6698 0
-6699 329 0
-6699 427 0
-329 -427 6699 0
-6700 331 0
-6700 463 0
-331 -463 6700 0
-6701 333 0
-6701 499 0
-333 -499 6701 0
-6702 335 0
-6702 535 0
-335 -535 6702 0
-6703 337 0
-6703 571 0
-337 -571 6703 0
-6704 339 0
-6704 607 0
-339 -607 6704 0
-6705 341 0
-6705 643 0
-341 -643 6705 0
-6689 -6690 0
-6689 -6691 0
-6689 -6692 0
-6689 -6693 0
-6689 -6694 0
-6689 -6695 0
-6689 -6696 0
-6689 -6697 0
-6689 -6698 0
-6689 -6699 0
-6689 -6700 0
-6689 -6701 0
-6689 -6702 0
-6689 -6703 0
-6689 -6704 0
-6689 -6705 0
-319 6689 6690 6691 6692 6693 6694 6695 6696 6697 6698 6699 6700 6701 6702 6703 6704 6705 0
-6706 321 0
-6707 307 0
-6707 22 0
-307 -22 6707 0
-6708 309 0
-6708 69 0
-309 -69 6708 0
-6709 311 0
-6709 105 0
-311 -105 6709 0
-6710 313 0
-6710 141 0
-313 -141 6710 0
-6711 315 0
-6711 177 0
-315 -177 6711 0
-6712 317 0
-6712 213 0
-317 -213 6712 0
-6713 319 0
-6713 249 0
-319 -249 6713 0
-6714 325 0
-6714 357 0
-325 -357 6714 0
-6715 327 0
-6715 393 0
-327 -393 6715 0
-6716 329 0
-6716 429 0
-329 -429 6716 0
-6717 331 0
-6717 465 0
-331 -465 6717 0
-6718 333 0
-6718 501 0
-333 -501 6718 0
-6719 335 0
-6719 537 0
-335 -537 6719 0
-6720 337 0
-6720 573 0
-337 -573 6720 0
-6721 339 0
-6721 609 0
-339 -609 6721 0
-6722 341 0
-6722 645 0
-341 -645 6722 0
-6706 -6707 0
-6706 -6708 0
-6706 -6709 0
-6706 -6710 0
-6706 -6711 0
-6706 -6712 0
-6706 -6713 0
-6706 -6714 0
-6706 -6715 0
-6706 -6716 0
-6706 -6717 0
-6706 -6718 0
-6706 -6719 0
-6706 -6720 0
-6706 -6721 0
-6706 -6722 0
-321 6706 6707 6708 6709 6710 6711 6712 6713 6714 6715 6716 6717 6718 6719 6720 6721 6722 0
-6723 0
-6724 325 0
-6725 307 0
-6725 28 0
-307 -28 6725 0
-6726 309 0
-6726 73 0
-309 -73 6726 0
-6727 311 0
-6727 109 0
-311 -109 6727 0
-6728 313 0
-6728 145 0
-313 -145 6728 0
-6729 315 0
-6729 181 0
-315 -181 6729 0
-6730 317 0
-6730 217 0
-317 -217 6730 0
-6731 319 0
-6731 253 0
-319 -253 6731 0
-6732 321 0
-6732 289 0
-321 -289 6732 0
-6733 327 0
-6733 397 0
-327 -397 6733 0
-6734 329 0
-6734 433 0
-329 -433 6734 0
-6735 331 0
-6735 469 0
-331 -469 6735 0
-6736 333 0
-6736 505 0
-333 -505 6736 0
-6737 335 0
-6737 541 0
-335 -541 6737 0
-6738 337 0
-6738 577 0
-337 -577 6738 0
-6739 339 0
-6739 613 0
-339 -613 6739 0
-6740 341 0
-6740 649 0
-341 -649 6740 0
-6724 -6725 0
-6724 -6726 0
-6724 -6727 0
-6724 -6728 0
-6724 -6729 0
-6724 -6730 0
-6724 -6731 0
-6724 -6732 0
-6724 -6733 0
-6724 -6734 0
-6724 -6735 0
-6724 -6736 0
-6724 -6737 0
-6724 -6738 0
-6724 -6739 0
-6724 -6740 0
-325 6724 6725 6726 6727 6728 6729 6730 6731 6732 6733 6734 6735 6736 6737 6738 6739 6740 0
-6741 327 0
-6742 307 0
-6742 31 0
-307 -31 6742 0
-6743 309 0
-6743 75 0
-309 -75 6743 0
-6744 311 0
-6744 111 0
-311 -111 6744 0
-6745 313 0
-6745 147 0
-313 -147 6745 0
-6746 315 0
-6746 183 0
-315 -183 6746 0
-6747 317 0
-6747 219 0
-317 -219 6747 0
-6748 319 0
-6748 255 0
-319 -255 6748 0
-6749 321 0
-6749 291 0
-321 -291 6749 0
-6750 325 0
-6750 363 0
-325 -363 6750 0
-6751 329 0
-6751 435 0
-329 -435 6751 0
-6752 331 0
-6752 471 0
-331 -471 6752 0
-6753 333 0
-6753 507 0
-333 -507 6753 0
-6754 335 0
-6754 543 0
-335 -543 6754 0
-6755 337 0
-6755 579 0
-337 -579 6755 0
-6756 339 0
-6756 615 0
-339 -615 6756 0
-6757 341 0
-6757 651 0
-341 -651 6757 0
-6741 -6742 0
-6741 -6743 0
-6741 -6744 0
-6741 -6745 0
-6741 -6746 0
-6741 -6747 0
-6741 -6748 0
-6741 -6749 0
-6741 -6750 0
-6741 -6751 0
-6741 -6752 0
-6741 -6753 0
-6741 -6754 0
-6741 -6755 0
-6741 -6756 0
-6741 -6757 0
-327 6741 6742 6743 6744 6745 6746 6747 6748 6749 6750 6751 6752 6753 6754 6755 6756 6757 0
-6758 329 0
-6759 307 0
-6759 34 0
-307 -34 6759 0
-6760 309 0
-6760 77 0
-309 -77 6760 0
-6761 311 0
-6761 113 0
-311 -113 6761 0
-6762 313 0
-6762 149 0
-313 -149 6762 0
-6763 315 0
-6763 185 0
-315 -185 6763 0
-6764 317 0
-6764 221 0
-317 -221 6764 0
-6765 319 0
-6765 257 0
-319 -257 6765 0
-6766 321 0
-6766 293 0
-321 -293 6766 0
-6767 325 0
-6767 365 0
-325 -365 6767 0
-6768 327 0
-6768 401 0
-327 -401 6768 0
-6769 331 0
-6769 473 0
-331 -473 6769 0
-6770 333 0
-6770 509 0
-333 -509 6770 0
-6771 335 0
-6771 545 0
-335 -545 6771 0
-6772 337 0
-6772 581 0
-337 -581 6772 0
-6773 339 0
-6773 617 0
-339 -617 6773 0
-6774 341 0
-6774 653 0
-341 -653 6774 0
-6758 -6759 0
-6758 -6760 0
-6758 -6761 0
-6758 -6762 0
-6758 -6763 0
-6758 -6764 0
-6758 -6765 0
-6758 -6766 0
-6758 -6767 0
-6758 -6768 0
-6758 -6769 0
-6758 -6770 0
-6758 -6771 0
-6758 -6772 0
-6758 -6773 0
-6758 -6774 0
-329 6758 6759 6760 6761 6762 6763 6764 6765 6766 6767 6768 6769 6770 6771 6772 6773 6774 0
-6775 331 0
-6776 307 0
-6776 37 0
-307 -37 6776 0
-6777 309 0
-6777 79 0
-309 -79 6777 0
-6778 311 0
-6778 115 0
-311 -115 6778 0
-6779 313 0
-6779 151 0
-313 -151 6779 0
-6780 315 0
-6780 187 0
-315 -187 6780 0
-6781 317 0
-6781 223 0
-317 -223 6781 0
-6782 319 0
-6782 259 0
-319 -259 6782 0
-6783 321 0
-6783 295 0
-321 -295 6783 0
-6784 325 0
-6784 367 0
-325 -367 6784 0
-6785 327 0
-6785 403 0
-327 -403 6785 0
-6786 329 0
-6786 439 0
-329 -439 6786 0
-6787 333 0
-6787 511 0
-333 -511 6787 0
-6788 335 0
-6788 547 0
-335 -547 6788 0
-6789 337 0
-6789 583 0
-337 -583 6789 0
-6790 339 0
-6790 619 0
-339 -619 6790 0
-6791 341 0
-6791 655 0
-341 -655 6791 0
-6775 -6776 0
-6775 -6777 0
-6775 -6778 0
-6775 -6779 0
-6775 -6780 0
-6775 -6781 0
-6775 -6782 0
-6775 -6783 0
-6775 -6784 0
-6775 -6785 0
-6775 -6786 0
-6775 -6787 0
-6775 -6788 0
-6775 -6789 0
-6775 -6790 0
-6775 -6791 0
-331 6775 6776 6777 6778 6779 6780 6781 6782 6783 6784 6785 6786 6787 6788 6789 6790 6791 0
-6792 333 0
-6793 307 0
-6793 40 0
-307 -40 6793 0
-6794 309 0
-6794 81 0
-309 -81 6794 0
-6795 311 0
-6795 117 0
-311 -117 6795 0
-6796 313 0
-6796 153 0
-313 -153 6796 0
-6797 315 0
-6797 189 0
-315 -189 6797 0
-6798 317 0
-6798 225 0
-317 -225 6798 0
-6799 319 0
-6799 261 0
-319 -261 6799 0
-6800 321 0
-6800 297 0
-321 -297 6800 0
-6801 325 0
-6801 369 0
-325 -369 6801 0
-6802 327 0
-6802 405 0
-327 -405 6802 0
-6803 329 0
-6803 441 0
-329 -441 6803 0
-6804 331 0
-6804 477 0
-331 -477 6804 0
-6805 335 0
-6805 549 0
-335 -549 6805 0
-6806 337 0
-6806 585 0
-337 -585 6806 0
-6807 339 0
-6807 621 0
-339 -621 6807 0
-6808 341 0
-6808 657 0
-341 -657 6808 0
-6792 -6793 0
-6792 -6794 0
-6792 -6795 0
-6792 -6796 0
-6792 -6797 0
-6792 -6798 0
-6792 -6799 0
-6792 -6800 0
-6792 -6801 0
-6792 -6802 0
-6792 -6803 0
-6792 -6804 0
-6792 -6805 0
-6792 -6806 0
-6792 -6807 0
-6792 -6808 0
-333 6792 6793 6794 6795 6796 6797 6798 6799 6800 6801 6802 6803 6804 6805 6806 6807 6808 0
-6809 335 0
-6810 307 0
-6810 43 0
-307 -43 6810 0
-6811 309 0
-6811 83 0
-309 -83 6811 0
-6812 311 0
-6812 119 0
-311 -119 6812 0
-6813 313 0
-6813 155 0
-313 -155 6813 0
-6814 315 0
-6814 191 0
-315 -191 6814 0
-6815 317 0
-6815 227 0
-317 -227 6815 0
-6816 319 0
-6816 263 0
-319 -263 6816 0
-6817 321 0
-6817 299 0
-321 -299 6817 0
-6818 325 0
-6818 371 0
-325 -371 6818 0
-6819 327 0
-6819 407 0
-327 -407 6819 0
-6820 329 0
-6820 443 0
-329 -443 6820 0
-6821 331 0
-6821 479 0
-331 -479 6821 0
-6822 333 0
-6822 515 0
-333 -515 6822 0
-6823 337 0
-6823 587 0
-337 -587 6823 0
-6824 339 0
-6824 623 0
-339 -623 6824 0
-6825 341 0
-6825 659 0
-341 -659 6825 0
-6809 -6810 0
-6809 -6811 0
-6809 -6812 0
-6809 -6813 0
-6809 -6814 0
-6809 -6815 0
-6809 -6816 0
-6809 -6817 0
-6809 -6818 0
-6809 -6819 0
-6809 -6820 0
-6809 -6821 0
-6809 -6822 0
-6809 -6823 0
-6809 -6824 0
-6809 -6825 0
-335 6809 6810 6811 6812 6813 6814 6815 6816 6817 6818 6819 6820 6821 6822 6823 6824 6825 0
-6826 337 0
-6827 307 0
-6827 46 0
-307 -46 6827 0
-6828 309 0
-6828 85 0
-309 -85 6828 0
-6829 311 0
-6829 121 0
-311 -121 6829 0
-6830 313 0
-6830 157 0
-313 -157 6830 0
-6831 315 0
-6831 193 0
-315 -193 6831 0
-6832 317 0
-6832 229 0
-317 -229 6832 0
-6833 319 0
-6833 265 0
-319 -265 6833 0
-6834 321 0
-6834 301 0
-321 -301 6834 0
-6835 325 0
-6835 373 0
-325 -373 6835 0
-6836 327 0
-6836 409 0
-327 -409 6836 0
-6837 329 0
-6837 445 0
-329 -445 6837 0
-6838 331 0
-6838 481 0
-331 -481 6838 0
-6839 333 0
-6839 517 0
-333 -517 6839 0
-6840 335 0
-6840 553 0
-335 -553 6840 0
-6841 339 0
-6841 625 0
-339 -625 6841 0
-6842 341 0
-6842 661 0
-341 -661 6842 0
-6826 -6827 0
-6826 -6828 0
-6826 -6829 0
-6826 -6830 0
-6826 -6831 0
-6826 -6832 0
-6826 -6833 0
-6826 -6834 0
-6826 -6835 0
-6826 -6836 0
-6826 -6837 0
-6826 -6838 0
-6826 -6839 0
-6826 -6840 0
-6826 -6841 0
-6826 -6842 0
-337 6826 6827 6828 6829 6830 6831 6832 6833 6834 6835 6836 6837 6838 6839 6840 6841 6842 0
-6843 339 0
-6844 307 0
-6844 49 0
-307 -49 6844 0
-6845 309 0
-6845 87 0
-309 -87 6845 0
-6846 311 0
-6846 123 0
-311 -123 6846 0
-6847 313 0
-6847 159 0
-313 -159 6847 0
-6848 315 0
-6848 195 0
-315 -195 6848 0
-6849 317 0
-6849 231 0
-317 -231 6849 0
-6850 319 0
-6850 267 0
-319 -267 6850 0
-6851 321 0
-6851 303 0
-321 -303 6851 0
-6852 325 0
-6852 375 0
-325 -375 6852 0
-6853 327 0
-6853 411 0
-327 -411 6853 0
-6854 329 0
-6854 447 0
-329 -447 6854 0
-6855 331 0
-6855 483 0
-331 -483 6855 0
-6856 333 0
-6856 519 0
-333 -519 6856 0
-6857 335 0
-6857 555 0
-335 -555 6857 0
-6858 337 0
-6858 591 0
-337 -591 6858 0
-6859 341 0
-6859 663 0
-341 -663 6859 0
-6843 -6844 0
-6843 -6845 0
-6843 -6846 0
-6843 -6847 0
-6843 -6848 0
-6843 -6849 0
-6843 -6850 0
-6843 -6851 0
-6843 -6852 0
-6843 -6853 0
-6843 -6854 0
-6843 -6855 0
-6843 -6856 0
-6843 -6857 0
-6843 -6858 0
-6843 -6859 0
-339 6843 6844 6845 6846 6847 6848 6849 6850 6851 6852 6853 6854 6855 6856 6857 6858 6859 0
-6860 341 0
-6861 307 0
-6861 52 0
-307 -52 6861 0
-6862 309 0
-6862 89 0
-309 -89 6862 0
-6863 311 0
-6863 125 0
-311 -125 6863 0
-6864 313 0
-6864 161 0
-313 -161 6864 0
-6865 315 0
-6865 197 0
-315 -197 6865 0
-6866 317 0
-6866 233 0
-317 -233 6866 0
-6867 319 0
-6867 269 0
-319 -269 6867 0
-6868 321 0
-6868 305 0
-321 -305 6868 0
-6869 325 0
-6869 377 0
-325 -377 6869 0
-6870 327 0
-6870 413 0
-327 -413 6870 0
-6871 329 0
-6871 449 0
-329 -449 6871 0
-6872 331 0
-6872 485 0
-331 -485 6872 0
-6873 333 0
-6873 521 0
-333 -521 6873 0
-6874 335 0
-6874 557 0
-335 -557 6874 0
-6875 337 0
-6875 593 0
-337 -593 6875 0
-6876 339 0
-6876 629 0
-339 -629 6876 0
-6860 -6861 0
-6860 -6862 0
-6860 -6863 0
-6860 -6864 0
-6860 -6865 0
-6860 -6866 0
-6860 -6867 0
-6860 -6868 0
-6860 -6869 0
-6860 -6870 0
-6860 -6871 0
-6860 -6872 0
-6860 -6873 0
-6860 -6874 0
-6860 -6875 0
-6860 -6876 0
-341 6860 6861 6862 6863 6864 6865 6866 6867 6868 6869 6870 6871 6872 6873 6874 6875 6876 0
-6877 343 0
-6878 345 0
-6878 55 0
-345 -55 6878 0
-6879 347 0
-6879 91 0
-347 -91 6879 0
-6880 349 0
-6880 127 0
-349 -127 6880 0
-6881 351 0
-6881 163 0
-351 -163 6881 0
-6882 353 0
-6882 199 0
-353 -199 6882 0
-6883 355 0
-6883 235 0
-355 -235 6883 0
-6884 357 0
-6884 271 0
-357 -271 6884 0
-6885 359 0
-6885 307 0
-359 -307 6885 0
-6886 363 0
-6886 379 0
-363 -379 6886 0
-6887 365 0
-6887 415 0
-365 -415 6887 0
-6888 367 0
-6888 451 0
-367 -451 6888 0
-6889 369 0
-6889 487 0
-369 -487 6889 0
-6890 371 0
-6890 523 0
-371 -523 6890 0
-6891 373 0
-6891 559 0
-373 -559 6891 0
-6892 375 0
-6892 595 0
-375 -595 6892 0
-6893 377 0
-6893 631 0
-377 -631 6893 0
-6877 -6878 0
-6877 -6879 0
-6877 -6880 0
-6877 -6881 0
-6877 -6882 0
-6877 -6883 0
-6877 -6884 0
-6877 -6885 0
-6877 -6886 0
-6877 -6887 0
-6877 -6888 0
-6877 -6889 0
-6877 -6890 0
-6877 -6891 0
-6877 -6892 0
-6877 -6893 0
-343 6877 6878 6879 6880 6881 6882 6883 6884 6885 6886 6887 6888 6889 6890 6891 6892 6893 0
-6894 345 0
-6895 343 0
-6895 4 0
-343 -4 6895 0
-6896 347 0
-6896 93 0
-347 -93 6896 0
-6897 349 0
-6897 129 0
-349 -129 6897 0
-6898 351 0
-6898 165 0
-351 -165 6898 0
-6899 353 0
-6899 201 0
-353 -201 6899 0
-6900 355 0
-6900 237 0
-355 -237 6900 0
-6901 357 0
-6901 273 0
-357 -273 6901 0
-6902 359 0
-6902 309 0
-359 -309 6902 0
-6903 363 0
-6903 381 0
-363 -381 6903 0
-6904 365 0
-6904 417 0
-365 -417 6904 0
-6905 367 0
-6905 453 0
-367 -453 6905 0
-6906 369 0
-6906 489 0
-369 -489 6906 0
-6907 371 0
-6907 525 0
-371 -525 6907 0
-6908 373 0
-6908 561 0
-373 -561 6908 0
-6909 375 0
-6909 597 0
-375 -597 6909 0
-6910 377 0
-6910 633 0
-377 -633 6910 0
-6894 -6895 0
-6894 -6896 0
-6894 -6897 0
-6894 -6898 0
-6894 -6899 0
-6894 -6900 0
-6894 -6901 0
-6894 -6902 0
-6894 -6903 0
-6894 -6904 0
-6894 -6905 0
-6894 -6906 0
-6894 -6907 0
-6894 -6908 0
-6894 -6909 0
-6894 -6910 0
-345 6894 6895 6896 6897 6898 6899 6900 6901 6902 6903 6904 6905 6906 6907 6908 6909 6910 0
-6911 347 0
-6912 343 0
-6912 7 0
-343 -7 6912 0
-6913 345 0
-6913 59 0
-345 -59 6913 0
-6914 349 0
-6914 131 0
-349 -131 6914 0
-6915 351 0
-6915 167 0
-351 -167 6915 0
-6916 353 0
-6916 203 0
-353 -203 6916 0
-6917 355 0
-6917 239 0
-355 -239 6917 0
-6918 357 0
-6918 275 0
-357 -275 6918 0
-6919 359 0
-6919 311 0
-359 -311 6919 0
-6920 363 0
-6920 383 0
-363 -383 6920 0
-6921 365 0
-6921 419 0
-365 -419 6921 0
-6922 367 0
-6922 455 0
-367 -455 6922 0
-6923 369 0
-6923 491 0
-369 -491 6923 0
-6924 371 0
-6924 527 0
-371 -527 6924 0
-6925 373 0
-6925 563 0
-373 -563 6925 0
-6926 375 0
-6926 599 0
-375 -599 6926 0
-6927 377 0
-6927 635 0
-377 -635 6927 0
-6911 -6912 0
-6911 -6913 0
-6911 -6914 0
-6911 -6915 0
-6911 -6916 0
-6911 -6917 0
-6911 -6918 0
-6911 -6919 0
-6911 -6920 0
-6911 -6921 0
-6911 -6922 0
-6911 -6923 0
-6911 -6924 0
-6911 -6925 0
-6911 -6926 0
-6911 -6927 0
-347 6911 6912 6913 6914 6915 6916 6917 6918 6919 6920 6921 6922 6923 6924 6925 6926 6927 0
-6928 349 0
-6929 343 0
-6929 10 0
-343 -10 6929 0
-6930 345 0
-6930 61 0
-345 -61 6930 0
-6931 347 0
-6931 97 0
-347 -97 6931 0
-6932 351 0
-6932 169 0
-351 -169 6932 0
-6933 353 0
-6933 205 0
-353 -205 6933 0
-6934 355 0
-6934 241 0
-355 -241 6934 0
-6935 357 0
-6935 277 0
-357 -277 6935 0
-6936 359 0
-6936 313 0
-359 -313 6936 0
-6937 363 0
-6937 385 0
-363 -385 6937 0
-6938 365 0
-6938 421 0
-365 -421 6938 0
-6939 367 0
-6939 457 0
-367 -457 6939 0
-6940 369 0
-6940 493 0
-369 -493 6940 0
-6941 371 0
-6941 529 0
-371 -529 6941 0
-6942 373 0
-6942 565 0
-373 -565 6942 0
-6943 375 0
-6943 601 0
-375 -601 6943 0
-6944 377 0
-6944 637 0
-377 -637 6944 0
-6928 -6929 0
-6928 -6930 0
-6928 -6931 0
-6928 -6932 0
-6928 -6933 0
-6928 -6934 0
-6928 -6935 0
-6928 -6936 0
-6928 -6937 0
-6928 -6938 0
-6928 -6939 0
-6928 -6940 0
-6928 -6941 0
-6928 -6942 0
-6928 -6943 0
-6928 -6944 0
-349 6928 6929 6930 6931 6932 6933 6934 6935 6936 6937 6938 6939 6940 6941 6942 6943 6944 0
-6945 351 0
-6946 343 0
-6946 13 0
-343 -13 6946 0
-6947 345 0
-6947 63 0
-345 -63 6947 0
-6948 347 0
-6948 99 0
-347 -99 6948 0
-6949 349 0
-6949 135 0
-349 -135 6949 0
-6950 353 0
-6950 207 0
-353 -207 6950 0
-6951 355 0
-6951 243 0
-355 -243 6951 0
-6952 357 0
-6952 279 0
-357 -279 6952 0
-6953 359 0
-6953 315 0
-359 -315 6953 0
-6954 363 0
-6954 387 0
-363 -387 6954 0
-6955 365 0
-6955 423 0
-365 -423 6955 0
-6956 367 0
-6956 459 0
-367 -459 6956 0
-6957 369 0
-6957 495 0
-369 -495 6957 0
-6958 371 0
-6958 531 0
-371 -531 6958 0
-6959 373 0
-6959 567 0
-373 -567 6959 0
-6960 375 0
-6960 603 0
-375 -603 6960 0
-6961 377 0
-6961 639 0
-377 -639 6961 0
-6945 -6946 0
-6945 -6947 0
-6945 -6948 0
-6945 -6949 0
-6945 -6950 0
-6945 -6951 0
-6945 -6952 0
-6945 -6953 0
-6945 -6954 0
-6945 -6955 0
-6945 -6956 0
-6945 -6957 0
-6945 -6958 0
-6945 -6959 0
-6945 -6960 0
-6945 -6961 0
-351 6945 6946 6947 6948 6949 6950 6951 6952 6953 6954 6955 6956 6957 6958 6959 6960 6961 0
-6962 353 0
-6963 343 0
-6963 16 0
-343 -16 6963 0
-6964 345 0
-6964 65 0
-345 -65 6964 0
-6965 347 0
-6965 101 0
-347 -101 6965 0
-6966 349 0
-6966 137 0
-349 -137 6966 0
-6967 351 0
-6967 173 0
-351 -173 6967 0
-6968 355 0
-6968 245 0
-355 -245 6968 0
-6969 357 0
-6969 281 0
-357 -281 6969 0
-6970 359 0
-6970 317 0
-359 -317 6970 0
-6971 363 0
-6971 389 0
-363 -389 6971 0
-6972 365 0
-6972 425 0
-365 -425 6972 0
-6973 367 0
-6973 461 0
-367 -461 6973 0
-6974 369 0
-6974 497 0
-369 -497 6974 0
-6975 371 0
-6975 533 0
-371 -533 6975 0
-6976 373 0
-6976 569 0
-373 -569 6976 0
-6977 375 0
-6977 605 0
-375 -605 6977 0
-6978 377 0
-6978 641 0
-377 -641 6978 0
-6962 -6963 0
-6962 -6964 0
-6962 -6965 0
-6962 -6966 0
-6962 -6967 0
-6962 -6968 0
-6962 -6969 0
-6962 -6970 0
-6962 -6971 0
-6962 -6972 0
-6962 -6973 0
-6962 -6974 0
-6962 -6975 0
-6962 -6976 0
-6962 -6977 0
-6962 -6978 0
-353 6962 6963 6964 6965 6966 6967 6968 6969 6970 6971 6972 6973 6974 6975 6976 6977 6978 0
-6979 355 0
-6980 343 0
-6980 19 0
-343 -19 6980 0
-6981 345 0
-6981 67 0
-345 -67 6981 0
-6982 347 0
-6982 103 0
-347 -103 6982 0
-6983 349 0
-6983 139 0
-349 -139 6983 0
-6984 351 0
-6984 175 0
-351 -175 6984 0
-6985 353 0
-6985 211 0
-353 -211 6985 0
-6986 357 0
-6986 283 0
-357 -283 6986 0
-6987 359 0
-6987 319 0
-359 -319 6987 0
-6988 363 0
-6988 391 0
-363 -391 6988 0
-6989 365 0
-6989 427 0
-365 -427 6989 0
-6990 367 0
-6990 463 0
-367 -463 6990 0
-6991 369 0
-6991 499 0
-369 -499 6991 0
-6992 371 0
-6992 535 0
-371 -535 6992 0
-6993 373 0
-6993 571 0
-373 -571 6993 0
-6994 375 0
-6994 607 0
-375 -607 6994 0
-6995 377 0
-6995 643 0
-377 -643 6995 0
-6979 -6980 0
-6979 -6981 0
-6979 -6982 0
-6979 -6983 0
-6979 -6984 0
-6979 -6985 0
-6979 -6986 0
-6979 -6987 0
-6979 -6988 0
-6979 -6989 0
-6979 -6990 0
-6979 -6991 0
-6979 -6992 0
-6979 -6993 0
-6979 -6994 0
-6979 -6995 0
-355 6979 6980 6981 6982 6983 6984 6985 6986 6987 6988 6989 6990 6991 6992 6993 6994 6995 0
-6996 357 0
-6997 343 0
-6997 22 0
-343 -22 6997 0
-6998 345 0
-6998 69 0
-345 -69 6998 0
-6999 347 0
-6999 105 0
-347 -105 6999 0
-7000 349 0
-7000 141 0
-349 -141 7000 0
-7001 351 0
-7001 177 0
-351 -177 7001 0
-7002 353 0
-7002 213 0
-353 -213 7002 0
-7003 355 0
-7003 249 0
-355 -249 7003 0
-7004 359 0
-7004 321 0
-359 -321 7004 0
-7005 363 0
-7005 393 0
-363 -393 7005 0
-7006 365 0
-7006 429 0
-365 -429 7006 0
-7007 367 0
-7007 465 0
-367 -465 7007 0
-7008 369 0
-7008 501 0
-369 -501 7008 0
-7009 371 0
-7009 537 0
-371 -537 7009 0
-7010 373 0
-7010 573 0
-373 -573 7010 0
-7011 375 0
-7011 609 0
-375 -609 7011 0
-7012 377 0
-7012 645 0
-377 -645 7012 0
-6996 -6997 0
-6996 -6998 0
-6996 -6999 0
-6996 -7000 0
-6996 -7001 0
-6996 -7002 0
-6996 -7003 0
-6996 -7004 0
-6996 -7005 0
-6996 -7006 0
-6996 -7007 0
-6996 -7008 0
-6996 -7009 0
-6996 -7010 0
-6996 -7011 0
-6996 -7012 0
-357 6996 6997 6998 6999 7000 7001 7002 7003 7004 7005 7006 7007 7008 7009 7010 7011 7012 0
-7013 359 0
-7014 343 0
-7014 25 0
-343 -25 7014 0
-7015 345 0
-7015 71 0
-345 -71 7015 0
-7016 347 0
-7016 107 0
-347 -107 7016 0
-7017 349 0
-7017 143 0
-349 -143 7017 0
-7018 351 0
-7018 179 0
-351 -179 7018 0
-7019 353 0
-7019 215 0
-353 -215 7019 0
-7020 355 0
-7020 251 0
-355 -251 7020 0
-7021 357 0
-7021 287 0
-357 -287 7021 0
-7022 363 0
-7022 395 0
-363 -395 7022 0
-7023 365 0
-7023 431 0
-365 -431 7023 0
-7024 367 0
-7024 467 0
-367 -467 7024 0
-7025 369 0
-7025 503 0
-369 -503 7025 0
-7026 371 0
-7026 539 0
-371 -539 7026 0
-7027 373 0
-7027 575 0
-373 -575 7027 0
-7028 375 0
-7028 611 0
-375 -611 7028 0
-7029 377 0
-7029 647 0
-377 -647 7029 0
-7013 -7014 0
-7013 -7015 0
-7013 -7016 0
-7013 -7017 0
-7013 -7018 0
-7013 -7019 0
-7013 -7020 0
-7013 -7021 0
-7013 -7022 0
-7013 -7023 0
-7013 -7024 0
-7013 -7025 0
-7013 -7026 0
-7013 -7027 0
-7013 -7028 0
-7013 -7029 0
-359 7013 7014 7015 7016 7017 7018 7019 7020 7021 7022 7023 7024 7025 7026 7027 7028 7029 0
-7030 0
-7031 363 0
-7032 343 0
-7032 31 0
-343 -31 7032 0
-7033 345 0
-7033 75 0
-345 -75 7033 0
-7034 347 0
-7034 111 0
-347 -111 7034 0
-7035 349 0
-7035 147 0
-349 -147 7035 0
-7036 351 0
-7036 183 0
-351 -183 7036 0
-7037 353 0
-7037 219 0
-353 -219 7037 0
-7038 355 0
-7038 255 0
-355 -255 7038 0
-7039 357 0
-7039 291 0
-357 -291 7039 0
-7040 359 0
-7040 327 0
-359 -327 7040 0
-7041 365 0
-7041 435 0
-365 -435 7041 0
-7042 367 0
-7042 471 0
-367 -471 7042 0
-7043 369 0
-7043 507 0
-369 -507 7043 0
-7044 371 0
-7044 543 0
-371 -543 7044 0
-7045 373 0
-7045 579 0
-373 -579 7045 0
-7046 375 0
-7046 615 0
-375 -615 7046 0
-7047 377 0
-7047 651 0
-377 -651 7047 0
-7031 -7032 0
-7031 -7033 0
-7031 -7034 0
-7031 -7035 0
-7031 -7036 0
-7031 -7037 0
-7031 -7038 0
-7031 -7039 0
-7031 -7040 0
-7031 -7041 0
-7031 -7042 0
-7031 -7043 0
-7031 -7044 0
-7031 -7045 0
-7031 -7046 0
-7031 -7047 0
-363 7031 7032 7033 7034 7035 7036 7037 7038 7039 7040 7041 7042 7043 7044 7045 7046 7047 0
-7048 365 0
-7049 343 0
-7049 34 0
-343 -34 7049 0
-7050 345 0
-7050 77 0
-345 -77 7050 0
-7051 347 0
-7051 113 0
-347 -113 7051 0
-7052 349 0
-7052 149 0
-349 -149 7052 0
-7053 351 0
-7053 185 0
-351 -185 7053 0
-7054 353 0
-7054 221 0
-353 -221 7054 0
-7055 355 0
-7055 257 0
-355 -257 7055 0
-7056 357 0
-7056 293 0
-357 -293 7056 0
-7057 359 0
-7057 329 0
-359 -329 7057 0
-7058 363 0
-7058 401 0
-363 -401 7058 0
-7059 367 0
-7059 473 0
-367 -473 7059 0
-7060 369 0
-7060 509 0
-369 -509 7060 0
-7061 371 0
-7061 545 0
-371 -545 7061 0
-7062 373 0
-7062 581 0
-373 -581 7062 0
-7063 375 0
-7063 617 0
-375 -617 7063 0
-7064 377 0
-7064 653 0
-377 -653 7064 0
-7048 -7049 0
-7048 -7050 0
-7048 -7051 0
-7048 -7052 0
-7048 -7053 0
-7048 -7054 0
-7048 -7055 0
-7048 -7056 0
-7048 -7057 0
-7048 -7058 0
-7048 -7059 0
-7048 -7060 0
-7048 -7061 0
-7048 -7062 0
-7048 -7063 0
-7048 -7064 0
-365 7048 7049 7050 7051 7052 7053 7054 7055 7056 7057 7058 7059 7060 7061 7062 7063 7064 0
-7065 367 0
-7066 343 0
-7066 37 0
-343 -37 7066 0
-7067 345 0
-7067 79 0
-345 -79 7067 0
-7068 347 0
-7068 115 0
-347 -115 7068 0
-7069 349 0
-7069 151 0
-349 -151 7069 0
-7070 351 0
-7070 187 0
-351 -187 7070 0
-7071 353 0
-7071 223 0
-353 -223 7071 0
-7072 355 0
-7072 259 0
-355 -259 7072 0
-7073 357 0
-7073 295 0
-357 -295 7073 0
-7074 359 0
-7074 331 0
-359 -331 7074 0
-7075 363 0
-7075 403 0
-363 -403 7075 0
-7076 365 0
-7076 439 0
-365 -439 7076 0
-7077 369 0
-7077 511 0
-369 -511 7077 0
-7078 371 0
-7078 547 0
-371 -547 7078 0
-7079 373 0
-7079 583 0
-373 -583 7079 0
-7080 375 0
-7080 619 0
-375 -619 7080 0
-7081 377 0
-7081 655 0
-377 -655 7081 0
-7065 -7066 0
-7065 -7067 0
-7065 -7068 0
-7065 -7069 0
-7065 -7070 0
-7065 -7071 0
-7065 -7072 0
-7065 -7073 0
-7065 -7074 0
-7065 -7075 0
-7065 -7076 0
-7065 -7077 0
-7065 -7078 0
-7065 -7079 0
-7065 -7080 0
-7065 -7081 0
-367 7065 7066 7067 7068 7069 7070 7071 7072 7073 7074 7075 7076 7077 7078 7079 7080 7081 0
-7082 369 0
-7083 343 0
-7083 40 0
-343 -40 7083 0
-7084 345 0
-7084 81 0
-345 -81 7084 0
-7085 347 0
-7085 117 0
-347 -117 7085 0
-7086 349 0
-7086 153 0
-349 -153 7086 0
-7087 351 0
-7087 189 0
-351 -189 7087 0
-7088 353 0
-7088 225 0
-353 -225 7088 0
-7089 355 0
-7089 261 0
-355 -261 7089 0
-7090 357 0
-7090 297 0
-357 -297 7090 0
-7091 359 0
-7091 333 0
-359 -333 7091 0
-7092 363 0
-7092 405 0
-363 -405 7092 0
-7093 365 0
-7093 441 0
-365 -441 7093 0
-7094 367 0
-7094 477 0
-367 -477 7094 0
-7095 371 0
-7095 549 0
-371 -549 7095 0
-7096 373 0
-7096 585 0
-373 -585 7096 0
-7097 375 0
-7097 621 0
-375 -621 7097 0
-7098 377 0
-7098 657 0
-377 -657 7098 0
-7082 -7083 0
-7082 -7084 0
-7082 -7085 0
-7082 -7086 0
-7082 -7087 0
-7082 -7088 0
-7082 -7089 0
-7082 -7090 0
-7082 -7091 0
-7082 -7092 0
-7082 -7093 0
-7082 -7094 0
-7082 -7095 0
-7082 -7096 0
-7082 -7097 0
-7082 -7098 0
-369 7082 7083 7084 7085 7086 7087 7088 7089 7090 7091 7092 7093 7094 7095 7096 7097 7098 0
-7099 371 0
-7100 343 0
-7100 43 0
-343 -43 7100 0
-7101 345 0
-7101 83 0
-345 -83 7101 0
-7102 347 0
-7102 119 0
-347 -119 7102 0
-7103 349 0
-7103 155 0
-349 -155 7103 0
-7104 351 0
-7104 191 0
-351 -191 7104 0
-7105 353 0
-7105 227 0
-353 -227 7105 0
-7106 355 0
-7106 263 0
-355 -263 7106 0
-7107 357 0
-7107 299 0
-357 -299 7107 0
-7108 359 0
-7108 335 0
-359 -335 7108 0
-7109 363 0
-7109 407 0
-363 -407 7109 0
-7110 365 0
-7110 443 0
-365 -443 7110 0
-7111 367 0
-7111 479 0
-367 -479 7111 0
-7112 369 0
-7112 515 0
-369 -515 7112 0
-7113 373 0
-7113 587 0
-373 -587 7113 0
-7114 375 0
-7114 623 0
-375 -623 7114 0
-7115 377 0
-7115 659 0
-377 -659 7115 0
-7099 -7100 0
-7099 -7101 0
-7099 -7102 0
-7099 -7103 0
-7099 -7104 0
-7099 -7105 0
-7099 -7106 0
-7099 -7107 0
-7099 -7108 0
-7099 -7109 0
-7099 -7110 0
-7099 -7111 0
-7099 -7112 0
-7099 -7113 0
-7099 -7114 0
-7099 -7115 0
-371 7099 7100 7101 7102 7103 7104 7105 7106 7107 7108 7109 7110 7111 7112 7113 7114 7115 0
-7116 373 0
-7117 343 0
-7117 46 0
-343 -46 7117 0
-7118 345 0
-7118 85 0
-345 -85 7118 0
-7119 347 0
-7119 121 0
-347 -121 7119 0
-7120 349 0
-7120 157 0
-349 -157 7120 0
-7121 351 0
-7121 193 0
-351 -193 7121 0
-7122 353 0
-7122 229 0
-353 -229 7122 0
-7123 355 0
-7123 265 0
-355 -265 7123 0
-7124 357 0
-7124 301 0
-357 -301 7124 0
-7125 359 0
-7125 337 0
-359 -337 7125 0
-7126 363 0
-7126 409 0
-363 -409 7126 0
-7127 365 0
-7127 445 0
-365 -445 7127 0
-7128 367 0
-7128 481 0
-367 -481 7128 0
-7129 369 0
-7129 517 0
-369 -517 7129 0
-7130 371 0
-7130 553 0
-371 -553 7130 0
-7131 375 0
-7131 625 0
-375 -625 7131 0
-7132 377 0
-7132 661 0
-377 -661 7132 0
-7116 -7117 0
-7116 -7118 0
-7116 -7119 0
-7116 -7120 0
-7116 -7121 0
-7116 -7122 0
-7116 -7123 0
-7116 -7124 0
-7116 -7125 0
-7116 -7126 0
-7116 -7127 0
-7116 -7128 0
-7116 -7129 0
-7116 -7130 0
-7116 -7131 0
-7116 -7132 0
-373 7116 7117 7118 7119 7120 7121 7122 7123 7124 7125 7126 7127 7128 7129 7130 7131 7132 0
-7133 375 0
-7134 343 0
-7134 49 0
-343 -49 7134 0
-7135 345 0
-7135 87 0
-345 -87 7135 0
-7136 347 0
-7136 123 0
-347 -123 7136 0
-7137 349 0
-7137 159 0
-349 -159 7137 0
-7138 351 0
-7138 195 0
-351 -195 7138 0
-7139 353 0
-7139 231 0
-353 -231 7139 0
-7140 355 0
-7140 267 0
-355 -267 7140 0
-7141 357 0
-7141 303 0
-357 -303 7141 0
-7142 359 0
-7142 339 0
-359 -339 7142 0
-7143 363 0
-7143 411 0
-363 -411 7143 0
-7144 365 0
-7144 447 0
-365 -447 7144 0
-7145 367 0
-7145 483 0
-367 -483 7145 0
-7146 369 0
-7146 519 0
-369 -519 7146 0
-7147 371 0
-7147 555 0
-371 -555 7147 0
-7148 373 0
-7148 591 0
-373 -591 7148 0
-7149 377 0
-7149 663 0
-377 -663 7149 0
-7133 -7134 0
-7133 -7135 0
-7133 -7136 0
-7133 -7137 0
-7133 -7138 0
-7133 -7139 0
-7133 -7140 0
-7133 -7141 0
-7133 -7142 0
-7133 -7143 0
-7133 -7144 0
-7133 -7145 0
-7133 -7146 0
-7133 -7147 0
-7133 -7148 0
-7133 -7149 0
-375 7133 7134 7135 7136 7137 7138 7139 7140 7141 7142 7143 7144 7145 7146 7147 7148 7149 0
-7150 377 0
-7151 343 0
-7151 52 0
-343 -52 7151 0
-7152 345 0
-7152 89 0
-345 -89 7152 0
-7153 347 0
-7153 125 0
-347 -125 7153 0
-7154 349 0
-7154 161 0
-349 -161 7154 0
-7155 351 0
-7155 197 0
-351 -197 7155 0
-7156 353 0
-7156 233 0
-353 -233 7156 0
-7157 355 0
-7157 269 0
-355 -269 7157 0
-7158 357 0
-7158 305 0
-357 -305 7158 0
-7159 359 0
-7159 341 0
-359 -341 7159 0
-7160 363 0
-7160 413 0
-363 -413 7160 0
-7161 365 0
-7161 449 0
-365 -449 7161 0
-7162 367 0
-7162 485 0
-367 -485 7162 0
-7163 369 0
-7163 521 0
-369 -521 7163 0
-7164 371 0
-7164 557 0
-371 -557 7164 0
-7165 373 0
-7165 593 0
-373 -593 7165 0
-7166 375 0
-7166 629 0
-375 -629 7166 0
-7150 -7151 0
-7150 -7152 0
-7150 -7153 0
-7150 -7154 0
-7150 -7155 0
-7150 -7156 0
-7150 -7157 0
-7150 -7158 0
-7150 -7159 0
-7150 -7160 0
-7150 -7161 0
-7150 -7162 0
-7150 -7163 0
-7150 -7164 0
-7150 -7165 0
-7150 -7166 0
-377 7150 7151 7152 7153 7154 7155 7156 7157 7158 7159 7160 7161 7162 7163 7164 7165 7166 0
-7167 379 0
-7168 381 0
-7168 55 0
-381 -55 7168 0
-7169 383 0
-7169 91 0
-383 -91 7169 0
-7170 385 0
-7170 127 0
-385 -127 7170 0
-7171 387 0
-7171 163 0
-387 -163 7171 0
-7172 389 0
-7172 199 0
-389 -199 7172 0
-7173 391 0
-7173 235 0
-391 -235 7173 0
-7174 393 0
-7174 271 0
-393 -271 7174 0
-7175 395 0
-7175 307 0
-395 -307 7175 0
-7176 397 0
-7176 343 0
-397 -343 7176 0
-7177 401 0
-7177 415 0
-401 -415 7177 0
-7178 403 0
-7178 451 0
-403 -451 7178 0
-7179 405 0
-7179 487 0
-405 -487 7179 0
-7180 407 0
-7180 523 0
-407 -523 7180 0
-7181 409 0
-7181 559 0
-409 -559 7181 0
-7182 411 0
-7182 595 0
-411 -595 7182 0
-7183 413 0
-7183 631 0
-413 -631 7183 0
-7167 -7168 0
-7167 -7169 0
-7167 -7170 0
-7167 -7171 0
-7167 -7172 0
-7167 -7173 0
-7167 -7174 0
-7167 -7175 0
-7167 -7176 0
-7167 -7177 0
-7167 -7178 0
-7167 -7179 0
-7167 -7180 0
-7167 -7181 0
-7167 -7182 0
-7167 -7183 0
-379 7167 7168 7169 7170 7171 7172 7173 7174 7175 7176 7177 7178 7179 7180 7181 7182 7183 0
-7184 381 0
-7185 379 0
-7185 4 0
-379 -4 7185 0
-7186 383 0
-7186 93 0
-383 -93 7186 0
-7187 385 0
-7187 129 0
-385 -129 7187 0
-7188 387 0
-7188 165 0
-387 -165 7188 0
-7189 389 0
-7189 201 0
-389 -201 7189 0
-7190 391 0
-7190 237 0
-391 -237 7190 0
-7191 393 0
-7191 273 0
-393 -273 7191 0
-7192 395 0
-7192 309 0
-395 -309 7192 0
-7193 397 0
-7193 345 0
-397 -345 7193 0
-7194 401 0
-7194 417 0
-401 -417 7194 0
-7195 403 0
-7195 453 0
-403 -453 7195 0
-7196 405 0
-7196 489 0
-405 -489 7196 0
-7197 407 0
-7197 525 0
-407 -525 7197 0
-7198 409 0
-7198 561 0
-409 -561 7198 0
-7199 411 0
-7199 597 0
-411 -597 7199 0
-7200 413 0
-7200 633 0
-413 -633 7200 0
-7184 -7185 0
-7184 -7186 0
-7184 -7187 0
-7184 -7188 0
-7184 -7189 0
-7184 -7190 0
-7184 -7191 0
-7184 -7192 0
-7184 -7193 0
-7184 -7194 0
-7184 -7195 0
-7184 -7196 0
-7184 -7197 0
-7184 -7198 0
-7184 -7199 0
-7184 -7200 0
-381 7184 7185 7186 7187 7188 7189 7190 7191 7192 7193 7194 7195 7196 7197 7198 7199 7200 0
-7201 383 0
-7202 379 0
-7202 7 0
-379 -7 7202 0
-7203 381 0
-7203 59 0
-381 -59 7203 0
-7204 385 0
-7204 131 0
-385 -131 7204 0
-7205 387 0
-7205 167 0
-387 -167 7205 0
-7206 389 0
-7206 203 0
-389 -203 7206 0
-7207 391 0
-7207 239 0
-391 -239 7207 0
-7208 393 0
-7208 275 0
-393 -275 7208 0
-7209 395 0
-7209 311 0
-395 -311 7209 0
-7210 397 0
-7210 347 0
-397 -347 7210 0
-7211 401 0
-7211 419 0
-401 -419 7211 0
-7212 403 0
-7212 455 0
-403 -455 7212 0
-7213 405 0
-7213 491 0
-405 -491 7213 0
-7214 407 0
-7214 527 0
-407 -527 7214 0
-7215 409 0
-7215 563 0
-409 -563 7215 0
-7216 411 0
-7216 599 0
-411 -599 7216 0
-7217 413 0
-7217 635 0
-413 -635 7217 0
-7201 -7202 0
-7201 -7203 0
-7201 -7204 0
-7201 -7205 0
-7201 -7206 0
-7201 -7207 0
-7201 -7208 0
-7201 -7209 0
-7201 -7210 0
-7201 -7211 0
-7201 -7212 0
-7201 -7213 0
-7201 -7214 0
-7201 -7215 0
-7201 -7216 0
-7201 -7217 0
-383 7201 7202 7203 7204 7205 7206 7207 7208 7209 7210 7211 7212 7213 7214 7215 7216 7217 0
-7218 385 0
-7219 379 0
-7219 10 0
-379 -10 7219 0
-7220 381 0
-7220 61 0
-381 -61 7220 0
-7221 383 0
-7221 97 0
-383 -97 7221 0
-7222 387 0
-7222 169 0
-387 -169 7222 0
-7223 389 0
-7223 205 0
-389 -205 7223 0
-7224 391 0
-7224 241 0
-391 -241 7224 0
-7225 393 0
-7225 277 0
-393 -277 7225 0
-7226 395 0
-7226 313 0
-395 -313 7226 0
-7227 397 0
-7227 349 0
-397 -349 7227 0
-7228 401 0
-7228 421 0
-401 -421 7228 0
-7229 403 0
-7229 457 0
-403 -457 7229 0
-7230 405 0
-7230 493 0
-405 -493 7230 0
-7231 407 0
-7231 529 0
-407 -529 7231 0
-7232 409 0
-7232 565 0
-409 -565 7232 0
-7233 411 0
-7233 601 0
-411 -601 7233 0
-7234 413 0
-7234 637 0
-413 -637 7234 0
-7218 -7219 0
-7218 -7220 0
-7218 -7221 0
-7218 -7222 0
-7218 -7223 0
-7218 -7224 0
-7218 -7225 0
-7218 -7226 0
-7218 -7227 0
-7218 -7228 0
-7218 -7229 0
-7218 -7230 0
-7218 -7231 0
-7218 -7232 0
-7218 -7233 0
-7218 -7234 0
-385 7218 7219 7220 7221 7222 7223 7224 7225 7226 7227 7228 7229 7230 7231 7232 7233 7234 0
-7235 387 0
-7236 379 0
-7236 13 0
-379 -13 7236 0
-7237 381 0
-7237 63 0
-381 -63 7237 0
-7238 383 0
-7238 99 0
-383 -99 7238 0
-7239 385 0
-7239 135 0
-385 -135 7239 0
-7240 389 0
-7240 207 0
-389 -207 7240 0
-7241 391 0
-7241 243 0
-391 -243 7241 0
-7242 393 0
-7242 279 0
-393 -279 7242 0
-7243 395 0
-7243 315 0
-395 -315 7243 0
-7244 397 0
-7244 351 0
-397 -351 7244 0
-7245 401 0
-7245 423 0
-401 -423 7245 0
-7246 403 0
-7246 459 0
-403 -459 7246 0
-7247 405 0
-7247 495 0
-405 -495 7247 0
-7248 407 0
-7248 531 0
-407 -531 7248 0
-7249 409 0
-7249 567 0
-409 -567 7249 0
-7250 411 0
-7250 603 0
-411 -603 7250 0
-7251 413 0
-7251 639 0
-413 -639 7251 0
-7235 -7236 0
-7235 -7237 0
-7235 -7238 0
-7235 -7239 0
-7235 -7240 0
-7235 -7241 0
-7235 -7242 0
-7235 -7243 0
-7235 -7244 0
-7235 -7245 0
-7235 -7246 0
-7235 -7247 0
-7235 -7248 0
-7235 -7249 0
-7235 -7250 0
-7235 -7251 0
-387 7235 7236 7237 7238 7239 7240 7241 7242 7243 7244 7245 7246 7247 7248 7249 7250 7251 0
-7252 389 0
-7253 379 0
-7253 16 0
-379 -16 7253 0
-7254 381 0
-7254 65 0
-381 -65 7254 0
-7255 383 0
-7255 101 0
-383 -101 7255 0
-7256 385 0
-7256 137 0
-385 -137 7256 0
-7257 387 0
-7257 173 0
-387 -173 7257 0
-7258 391 0
-7258 245 0
-391 -245 7258 0
-7259 393 0
-7259 281 0
-393 -281 7259 0
-7260 395 0
-7260 317 0
-395 -317 7260 0
-7261 397 0
-7261 353 0
-397 -353 7261 0
-7262 401 0
-7262 425 0
-401 -425 7262 0
-7263 403 0
-7263 461 0
-403 -461 7263 0
-7264 405 0
-7264 497 0
-405 -497 7264 0
-7265 407 0
-7265 533 0
-407 -533 7265 0
-7266 409 0
-7266 569 0
-409 -569 7266 0
-7267 411 0
-7267 605 0
-411 -605 7267 0
-7268 413 0
-7268 641 0
-413 -641 7268 0
-7252 -7253 0
-7252 -7254 0
-7252 -7255 0
-7252 -7256 0
-7252 -7257 0
-7252 -7258 0
-7252 -7259 0
-7252 -7260 0
-7252 -7261 0
-7252 -7262 0
-7252 -7263 0
-7252 -7264 0
-7252 -7265 0
-7252 -7266 0
-7252 -7267 0
-7252 -7268 0
-389 7252 7253 7254 7255 7256 7257 7258 7259 7260 7261 7262 7263 7264 7265 7266 7267 7268 0
-7269 391 0
-7270 379 0
-7270 19 0
-379 -19 7270 0
-7271 381 0
-7271 67 0
-381 -67 7271 0
-7272 383 0
-7272 103 0
-383 -103 7272 0
-7273 385 0
-7273 139 0
-385 -139 7273 0
-7274 387 0
-7274 175 0
-387 -175 7274 0
-7275 389 0
-7275 211 0
-389 -211 7275 0
-7276 393 0
-7276 283 0
-393 -283 7276 0
-7277 395 0
-7277 319 0
-395 -319 7277 0
-7278 397 0
-7278 355 0
-397 -355 7278 0
-7279 401 0
-7279 427 0
-401 -427 7279 0
-7280 403 0
-7280 463 0
-403 -463 7280 0
-7281 405 0
-7281 499 0
-405 -499 7281 0
-7282 407 0
-7282 535 0
-407 -535 7282 0
-7283 409 0
-7283 571 0
-409 -571 7283 0
-7284 411 0
-7284 607 0
-411 -607 7284 0
-7285 413 0
-7285 643 0
-413 -643 7285 0
-7269 -7270 0
-7269 -7271 0
-7269 -7272 0
-7269 -7273 0
-7269 -7274 0
-7269 -7275 0
-7269 -7276 0
-7269 -7277 0
-7269 -7278 0
-7269 -7279 0
-7269 -7280 0
-7269 -7281 0
-7269 -7282 0
-7269 -7283 0
-7269 -7284 0
-7269 -7285 0
-391 7269 7270 7271 7272 7273 7274 7275 7276 7277 7278 7279 7280 7281 7282 7283 7284 7285 0
-7286 393 0
-7287 379 0
-7287 22 0
-379 -22 7287 0
-7288 381 0
-7288 69 0
-381 -69 7288 0
-7289 383 0
-7289 105 0
-383 -105 7289 0
-7290 385 0
-7290 141 0
-385 -141 7290 0
-7291 387 0
-7291 177 0
-387 -177 7291 0
-7292 389 0
-7292 213 0
-389 -213 7292 0
-7293 391 0
-7293 249 0
-391 -249 7293 0
-7294 395 0
-7294 321 0
-395 -321 7294 0
-7295 397 0
-7295 357 0
-397 -357 7295 0
-7296 401 0
-7296 429 0
-401 -429 7296 0
-7297 403 0
-7297 465 0
-403 -465 7297 0
-7298 405 0
-7298 501 0
-405 -501 7298 0
-7299 407 0
-7299 537 0
-407 -537 7299 0
-7300 409 0
-7300 573 0
-409 -573 7300 0
-7301 411 0
-7301 609 0
-411 -609 7301 0
-7302 413 0
-7302 645 0
-413 -645 7302 0
-7286 -7287 0
-7286 -7288 0
-7286 -7289 0
-7286 -7290 0
-7286 -7291 0
-7286 -7292 0
-7286 -7293 0
-7286 -7294 0
-7286 -7295 0
-7286 -7296 0
-7286 -7297 0
-7286 -7298 0
-7286 -7299 0
-7286 -7300 0
-7286 -7301 0
-7286 -7302 0
-393 7286 7287 7288 7289 7290 7291 7292 7293 7294 7295 7296 7297 7298 7299 7300 7301 7302 0
-7303 395 0
-7304 379 0
-7304 25 0
-379 -25 7304 0
-7305 381 0
-7305 71 0
-381 -71 7305 0
-7306 383 0
-7306 107 0
-383 -107 7306 0
-7307 385 0
-7307 143 0
-385 -143 7307 0
-7308 387 0
-7308 179 0
-387 -179 7308 0
-7309 389 0
-7309 215 0
-389 -215 7309 0
-7310 391 0
-7310 251 0
-391 -251 7310 0
-7311 393 0
-7311 287 0
-393 -287 7311 0
-7312 397 0
-7312 359 0
-397 -359 7312 0
-7313 401 0
-7313 431 0
-401 -431 7313 0
-7314 403 0
-7314 467 0
-403 -467 7314 0
-7315 405 0
-7315 503 0
-405 -503 7315 0
-7316 407 0
-7316 539 0
-407 -539 7316 0
-7317 409 0
-7317 575 0
-409 -575 7317 0
-7318 411 0
-7318 611 0
-411 -611 7318 0
-7319 413 0
-7319 647 0
-413 -647 7319 0
-7303 -7304 0
-7303 -7305 0
-7303 -7306 0
-7303 -7307 0
-7303 -7308 0
-7303 -7309 0
-7303 -7310 0
-7303 -7311 0
-7303 -7312 0
-7303 -7313 0
-7303 -7314 0
-7303 -7315 0
-7303 -7316 0
-7303 -7317 0
-7303 -7318 0
-7303 -7319 0
-395 7303 7304 7305 7306 7307 7308 7309 7310 7311 7312 7313 7314 7315 7316 7317 7318 7319 0
-7320 397 0
-7321 379 0
-7321 28 0
-379 -28 7321 0
-7322 381 0
-7322 73 0
-381 -73 7322 0
-7323 383 0
-7323 109 0
-383 -109 7323 0
-7324 385 0
-7324 145 0
-385 -145 7324 0
-7325 387 0
-7325 181 0
-387 -181 7325 0
-7326 389 0
-7326 217 0
-389 -217 7326 0
-7327 391 0
-7327 253 0
-391 -253 7327 0
-7328 393 0
-7328 289 0
-393 -289 7328 0
-7329 395 0
-7329 325 0
-395 -325 7329 0
-7330 401 0
-7330 433 0
-401 -433 7330 0
-7331 403 0
-7331 469 0
-403 -469 7331 0
-7332 405 0
-7332 505 0
-405 -505 7332 0
-7333 407 0
-7333 541 0
-407 -541 7333 0
-7334 409 0
-7334 577 0
-409 -577 7334 0
-7335 411 0
-7335 613 0
-411 -613 7335 0
-7336 413 0
-7336 649 0
-413 -649 7336 0
-7320 -7321 0
-7320 -7322 0
-7320 -7323 0
-7320 -7324 0
-7320 -7325 0
-7320 -7326 0
-7320 -7327 0
-7320 -7328 0
-7320 -7329 0
-7320 -7330 0
-7320 -7331 0
-7320 -7332 0
-7320 -7333 0
-7320 -7334 0
-7320 -7335 0
-7320 -7336 0
-397 7320 7321 7322 7323 7324 7325 7326 7327 7328 7329 7330 7331 7332 7333 7334 7335 7336 0
-7337 0
-7338 401 0
-7339 379 0
-7339 34 0
-379 -34 7339 0
-7340 381 0
-7340 77 0
-381 -77 7340 0
-7341 383 0
-7341 113 0
-383 -113 7341 0
-7342 385 0
-7342 149 0
-385 -149 7342 0
-7343 387 0
-7343 185 0
-387 -185 7343 0
-7344 389 0
-7344 221 0
-389 -221 7344 0
-7345 391 0
-7345 257 0
-391 -257 7345 0
-7346 393 0
-7346 293 0
-393 -293 7346 0
-7347 395 0
-7347 329 0
-395 -329 7347 0
-7348 397 0
-7348 365 0
-397 -365 7348 0
-7349 403 0
-7349 473 0
-403 -473 7349 0
-7350 405 0
-7350 509 0
-405 -509 7350 0
-7351 407 0
-7351 545 0
-407 -545 7351 0
-7352 409 0
-7352 581 0
-409 -581 7352 0
-7353 411 0
-7353 617 0
-411 -617 7353 0
-7354 413 0
-7354 653 0
-413 -653 7354 0
-7338 -7339 0
-7338 -7340 0
-7338 -7341 0
-7338 -7342 0
-7338 -7343 0
-7338 -7344 0
-7338 -7345 0
-7338 -7346 0
-7338 -7347 0
-7338 -7348 0
-7338 -7349 0
-7338 -7350 0
-7338 -7351 0
-7338 -7352 0
-7338 -7353 0
-7338 -7354 0
-401 7338 7339 7340 7341 7342 7343 7344 7345 7346 7347 7348 7349 7350 7351 7352 7353 7354 0
-7355 403 0
-7356 379 0
-7356 37 0
-379 -37 7356 0
-7357 381 0
-7357 79 0
-381 -79 7357 0
-7358 383 0
-7358 115 0
-383 -115 7358 0
-7359 385 0
-7359 151 0
-385 -151 7359 0
-7360 387 0
-7360 187 0
-387 -187 7360 0
-7361 389 0
-7361 223 0
-389 -223 7361 0
-7362 391 0
-7362 259 0
-391 -259 7362 0
-7363 393 0
-7363 295 0
-393 -295 7363 0
-7364 395 0
-7364 331 0
-395 -331 7364 0
-7365 397 0
-7365 367 0
-397 -367 7365 0
-7366 401 0
-7366 439 0
-401 -439 7366 0
-7367 405 0
-7367 511 0
-405 -511 7367 0
-7368 407 0
-7368 547 0
-407 -547 7368 0
-7369 409 0
-7369 583 0
-409 -583 7369 0
-7370 411 0
-7370 619 0
-411 -619 7370 0
-7371 413 0
-7371 655 0
-413 -655 7371 0
-7355 -7356 0
-7355 -7357 0
-7355 -7358 0
-7355 -7359 0
-7355 -7360 0
-7355 -7361 0
-7355 -7362 0
-7355 -7363 0
-7355 -7364 0
-7355 -7365 0
-7355 -7366 0
-7355 -7367 0
-7355 -7368 0
-7355 -7369 0
-7355 -7370 0
-7355 -7371 0
-403 7355 7356 7357 7358 7359 7360 7361 7362 7363 7364 7365 7366 7367 7368 7369 7370 7371 0
-7372 405 0
-7373 379 0
-7373 40 0
-379 -40 7373 0
-7374 381 0
-7374 81 0
-381 -81 7374 0
-7375 383 0
-7375 117 0
-383 -117 7375 0
-7376 385 0
-7376 153 0
-385 -153 7376 0
-7377 387 0
-7377 189 0
-387 -189 7377 0
-7378 389 0
-7378 225 0
-389 -225 7378 0
-7379 391 0
-7379 261 0
-391 -261 7379 0
-7380 393 0
-7380 297 0
-393 -297 7380 0
-7381 395 0
-7381 333 0
-395 -333 7381 0
-7382 397 0
-7382 369 0
-397 -369 7382 0
-7383 401 0
-7383 441 0
-401 -441 7383 0
-7384 403 0
-7384 477 0
-403 -477 7384 0
-7385 407 0
-7385 549 0
-407 -549 7385 0
-7386 409 0
-7386 585 0
-409 -585 7386 0
-7387 411 0
-7387 621 0
-411 -621 7387 0
-7388 413 0
-7388 657 0
-413 -657 7388 0
-7372 -7373 0
-7372 -7374 0
-7372 -7375 0
-7372 -7376 0
-7372 -7377 0
-7372 -7378 0
-7372 -7379 0
-7372 -7380 0
-7372 -7381 0
-7372 -7382 0
-7372 -7383 0
-7372 -7384 0
-7372 -7385 0
-7372 -7386 0
-7372 -7387 0
-7372 -7388 0
-405 7372 7373 7374 7375 7376 7377 7378 7379 7380 7381 7382 7383 7384 7385 7386 7387 7388 0
-7389 407 0
-7390 379 0
-7390 43 0
-379 -43 7390 0
-7391 381 0
-7391 83 0
-381 -83 7391 0
-7392 383 0
-7392 119 0
-383 -119 7392 0
-7393 385 0
-7393 155 0
-385 -155 7393 0
-7394 387 0
-7394 191 0
-387 -191 7394 0
-7395 389 0
-7395 227 0
-389 -227 7395 0
-7396 391 0
-7396 263 0
-391 -263 7396 0
-7397 393 0
-7397 299 0
-393 -299 7397 0
-7398 395 0
-7398 335 0
-395 -335 7398 0
-7399 397 0
-7399 371 0
-397 -371 7399 0
-7400 401 0
-7400 443 0
-401 -443 7400 0
-7401 403 0
-7401 479 0
-403 -479 7401 0
-7402 405 0
-7402 515 0
-405 -515 7402 0
-7403 409 0
-7403 587 0
-409 -587 7403 0
-7404 411 0
-7404 623 0
-411 -623 7404 0
-7405 413 0
-7405 659 0
-413 -659 7405 0
-7389 -7390 0
-7389 -7391 0
-7389 -7392 0
-7389 -7393 0
-7389 -7394 0
-7389 -7395 0
-7389 -7396 0
-7389 -7397 0
-7389 -7398 0
-7389 -7399 0
-7389 -7400 0
-7389 -7401 0
-7389 -7402 0
-7389 -7403 0
-7389 -7404 0
-7389 -7405 0
-407 7389 7390 7391 7392 7393 7394 7395 7396 7397 7398 7399 7400 7401 7402 7403 7404 7405 0
-7406 409 0
-7407 379 0
-7407 46 0
-379 -46 7407 0
-7408 381 0
-7408 85 0
-381 -85 7408 0
-7409 383 0
-7409 121 0
-383 -121 7409 0
-7410 385 0
-7410 157 0
-385 -157 7410 0
-7411 387 0
-7411 193 0
-387 -193 7411 0
-7412 389 0
-7412 229 0
-389 -229 7412 0
-7413 391 0
-7413 265 0
-391 -265 7413 0
-7414 393 0
-7414 301 0
-393 -301 7414 0
-7415 395 0
-7415 337 0
-395 -337 7415 0
-7416 397 0
-7416 373 0
-397 -373 7416 0
-7417 401 0
-7417 445 0
-401 -445 7417 0
-7418 403 0
-7418 481 0
-403 -481 7418 0
-7419 405 0
-7419 517 0
-405 -517 7419 0
-7420 407 0
-7420 553 0
-407 -553 7420 0
-7421 411 0
-7421 625 0
-411 -625 7421 0
-7422 413 0
-7422 661 0
-413 -661 7422 0
-7406 -7407 0
-7406 -7408 0
-7406 -7409 0
-7406 -7410 0
-7406 -7411 0
-7406 -7412 0
-7406 -7413 0
-7406 -7414 0
-7406 -7415 0
-7406 -7416 0
-7406 -7417 0
-7406 -7418 0
-7406 -7419 0
-7406 -7420 0
-7406 -7421 0
-7406 -7422 0
-409 7406 7407 7408 7409 7410 7411 7412 7413 7414 7415 7416 7417 7418 7419 7420 7421 7422 0
-7423 411 0
-7424 379 0
-7424 49 0
-379 -49 7424 0
-7425 381 0
-7425 87 0
-381 -87 7425 0
-7426 383 0
-7426 123 0
-383 -123 7426 0
-7427 385 0
-7427 159 0
-385 -159 7427 0
-7428 387 0
-7428 195 0
-387 -195 7428 0
-7429 389 0
-7429 231 0
-389 -231 7429 0
-7430 391 0
-7430 267 0
-391 -267 7430 0
-7431 393 0
-7431 303 0
-393 -303 7431 0
-7432 395 0
-7432 339 0
-395 -339 7432 0
-7433 397 0
-7433 375 0
-397 -375 7433 0
-7434 401 0
-7434 447 0
-401 -447 7434 0
-7435 403 0
-7435 483 0
-403 -483 7435 0
-7436 405 0
-7436 519 0
-405 -519 7436 0
-7437 407 0
-7437 555 0
-407 -555 7437 0
-7438 409 0
-7438 591 0
-409 -591 7438 0
-7439 413 0
-7439 663 0
-413 -663 7439 0
-7423 -7424 0
-7423 -7425 0
-7423 -7426 0
-7423 -7427 0
-7423 -7428 0
-7423 -7429 0
-7423 -7430 0
-7423 -7431 0
-7423 -7432 0
-7423 -7433 0
-7423 -7434 0
-7423 -7435 0
-7423 -7436 0
-7423 -7437 0
-7423 -7438 0
-7423 -7439 0
-411 7423 7424 7425 7426 7427 7428 7429 7430 7431 7432 7433 7434 7435 7436 7437 7438 7439 0
-7440 413 0
-7441 379 0
-7441 52 0
-379 -52 7441 0
-7442 381 0
-7442 89 0
-381 -89 7442 0
-7443 383 0
-7443 125 0
-383 -125 7443 0
-7444 385 0
-7444 161 0
-385 -161 7444 0
-7445 387 0
-7445 197 0
-387 -197 7445 0
-7446 389 0
-7446 233 0
-389 -233 7446 0
-7447 391 0
-7447 269 0
-391 -269 7447 0
-7448 393 0
-7448 305 0
-393 -305 7448 0
-7449 395 0
-7449 341 0
-395 -341 7449 0
-7450 397 0
-7450 377 0
-397 -377 7450 0
-7451 401 0
-7451 449 0
-401 -449 7451 0
-7452 403 0
-7452 485 0
-403 -485 7452 0
-7453 405 0
-7453 521 0
-405 -521 7453 0
-7454 407 0
-7454 557 0
-407 -557 7454 0
-7455 409 0
-7455 593 0
-409 -593 7455 0
-7456 411 0
-7456 629 0
-411 -629 7456 0
-7440 -7441 0
-7440 -7442 0
-7440 -7443 0
-7440 -7444 0
-7440 -7445 0
-7440 -7446 0
-7440 -7447 0
-7440 -7448 0
-7440 -7449 0
-7440 -7450 0
-7440 -7451 0
-7440 -7452 0
-7440 -7453 0
-7440 -7454 0
-7440 -7455 0
-7440 -7456 0
-413 7440 7441 7442 7443 7444 7445 7446 7447 7448 7449 7450 7451 7452 7453 7454 7455 7456 0
-7457 415 0
-7458 417 0
-7458 55 0
-417 -55 7458 0
-7459 419 0
-7459 91 0
-419 -91 7459 0
-7460 421 0
-7460 127 0
-421 -127 7460 0
-7461 423 0
-7461 163 0
-423 -163 7461 0
-7462 425 0
-7462 199 0
-425 -199 7462 0
-7463 427 0
-7463 235 0
-427 -235 7463 0
-7464 429 0
-7464 271 0
-429 -271 7464 0
-7465 431 0
-7465 307 0
-431 -307 7465 0
-7466 433 0
-7466 343 0
-433 -343 7466 0
-7467 435 0
-7467 379 0
-435 -379 7467 0
-7468 439 0
-7468 451 0
-439 -451 7468 0
-7469 441 0
-7469 487 0
-441 -487 7469 0
-7470 443 0
-7470 523 0
-443 -523 7470 0
-7471 445 0
-7471 559 0
-445 -559 7471 0
-7472 447 0
-7472 595 0
-447 -595 7472 0
-7473 449 0
-7473 631 0
-449 -631 7473 0
-7457 -7458 0
-7457 -7459 0
-7457 -7460 0
-7457 -7461 0
-7457 -7462 0
-7457 -7463 0
-7457 -7464 0
-7457 -7465 0
-7457 -7466 0
-7457 -7467 0
-7457 -7468 0
-7457 -7469 0
-7457 -7470 0
-7457 -7471 0
-7457 -7472 0
-7457 -7473 0
-415 7457 7458 7459 7460 7461 7462 7463 7464 7465 7466 7467 7468 7469 7470 7471 7472 7473 0
-7474 417 0
-7475 415 0
-7475 4 0
-415 -4 7475 0
-7476 419 0
-7476 93 0
-419 -93 7476 0
-7477 421 0
-7477 129 0
-421 -129 7477 0
-7478 423 0
-7478 165 0
-423 -165 7478 0
-7479 425 0
-7479 201 0
-425 -201 7479 0
-7480 427 0
-7480 237 0
-427 -237 7480 0
-7481 429 0
-7481 273 0
-429 -273 7481 0
-7482 431 0
-7482 309 0
-431 -309 7482 0
-7483 433 0
-7483 345 0
-433 -345 7483 0
-7484 435 0
-7484 381 0
-435 -381 7484 0
-7485 439 0
-7485 453 0
-439 -453 7485 0
-7486 441 0
-7486 489 0
-441 -489 7486 0
-7487 443 0
-7487 525 0
-443 -525 7487 0
-7488 445 0
-7488 561 0
-445 -561 7488 0
-7489 447 0
-7489 597 0
-447 -597 7489 0
-7490 449 0
-7490 633 0
-449 -633 7490 0
-7474 -7475 0
-7474 -7476 0
-7474 -7477 0
-7474 -7478 0
-7474 -7479 0
-7474 -7480 0
-7474 -7481 0
-7474 -7482 0
-7474 -7483 0
-7474 -7484 0
-7474 -7485 0
-7474 -7486 0
-7474 -7487 0
-7474 -7488 0
-7474 -7489 0
-7474 -7490 0
-417 7474 7475 7476 7477 7478 7479 7480 7481 7482 7483 7484 7485 7486 7487 7488 7489 7490 0
-7491 419 0
-7492 415 0
-7492 7 0
-415 -7 7492 0
-7493 417 0
-7493 59 0
-417 -59 7493 0
-7494 421 0
-7494 131 0
-421 -131 7494 0
-7495 423 0
-7495 167 0
-423 -167 7495 0
-7496 425 0
-7496 203 0
-425 -203 7496 0
-7497 427 0
-7497 239 0
-427 -239 7497 0
-7498 429 0
-7498 275 0
-429 -275 7498 0
-7499 431 0
-7499 311 0
-431 -311 7499 0
-7500 433 0
-7500 347 0
-433 -347 7500 0
-7501 435 0
-7501 383 0
-435 -383 7501 0
-7502 439 0
-7502 455 0
-439 -455 7502 0
-7503 441 0
-7503 491 0
-441 -491 7503 0
-7504 443 0
-7504 527 0
-443 -527 7504 0
-7505 445 0
-7505 563 0
-445 -563 7505 0
-7506 447 0
-7506 599 0
-447 -599 7506 0
-7507 449 0
-7507 635 0
-449 -635 7507 0
-7491 -7492 0
-7491 -7493 0
-7491 -7494 0
-7491 -7495 0
-7491 -7496 0
-7491 -7497 0
-7491 -7498 0
-7491 -7499 0
-7491 -7500 0
-7491 -7501 0
-7491 -7502 0
-7491 -7503 0
-7491 -7504 0
-7491 -7505 0
-7491 -7506 0
-7491 -7507 0
-419 7491 7492 7493 7494 7495 7496 7497 7498 7499 7500 7501 7502 7503 7504 7505 7506 7507 0
-7508 421 0
-7509 415 0
-7509 10 0
-415 -10 7509 0
-7510 417 0
-7510 61 0
-417 -61 7510 0
-7511 419 0
-7511 97 0
-419 -97 7511 0
-7512 423 0
-7512 169 0
-423 -169 7512 0
-7513 425 0
-7513 205 0
-425 -205 7513 0
-7514 427 0
-7514 241 0
-427 -241 7514 0
-7515 429 0
-7515 277 0
-429 -277 7515 0
-7516 431 0
-7516 313 0
-431 -313 7516 0
-7517 433 0
-7517 349 0
-433 -349 7517 0
-7518 435 0
-7518 385 0
-435 -385 7518 0
-7519 439 0
-7519 457 0
-439 -457 7519 0
-7520 441 0
-7520 493 0
-441 -493 7520 0
-7521 443 0
-7521 529 0
-443 -529 7521 0
-7522 445 0
-7522 565 0
-445 -565 7522 0
-7523 447 0
-7523 601 0
-447 -601 7523 0
-7524 449 0
-7524 637 0
-449 -637 7524 0
-7508 -7509 0
-7508 -7510 0
-7508 -7511 0
-7508 -7512 0
-7508 -7513 0
-7508 -7514 0
-7508 -7515 0
-7508 -7516 0
-7508 -7517 0
-7508 -7518 0
-7508 -7519 0
-7508 -7520 0
-7508 -7521 0
-7508 -7522 0
-7508 -7523 0
-7508 -7524 0
-421 7508 7509 7510 7511 7512 7513 7514 7515 7516 7517 7518 7519 7520 7521 7522 7523 7524 0
-7525 423 0
-7526 415 0
-7526 13 0
-415 -13 7526 0
-7527 417 0
-7527 63 0
-417 -63 7527 0
-7528 419 0
-7528 99 0
-419 -99 7528 0
-7529 421 0
-7529 135 0
-421 -135 7529 0
-7530 425 0
-7530 207 0
-425 -207 7530 0
-7531 427 0
-7531 243 0
-427 -243 7531 0
-7532 429 0
-7532 279 0
-429 -279 7532 0
-7533 431 0
-7533 315 0
-431 -315 7533 0
-7534 433 0
-7534 351 0
-433 -351 7534 0
-7535 435 0
-7535 387 0
-435 -387 7535 0
-7536 439 0
-7536 459 0
-439 -459 7536 0
-7537 441 0
-7537 495 0
-441 -495 7537 0
-7538 443 0
-7538 531 0
-443 -531 7538 0
-7539 445 0
-7539 567 0
-445 -567 7539 0
-7540 447 0
-7540 603 0
-447 -603 7540 0
-7541 449 0
-7541 639 0
-449 -639 7541 0
-7525 -7526 0
-7525 -7527 0
-7525 -7528 0
-7525 -7529 0
-7525 -7530 0
-7525 -7531 0
-7525 -7532 0
-7525 -7533 0
-7525 -7534 0
-7525 -7535 0
-7525 -7536 0
-7525 -7537 0
-7525 -7538 0
-7525 -7539 0
-7525 -7540 0
-7525 -7541 0
-423 7525 7526 7527 7528 7529 7530 7531 7532 7533 7534 7535 7536 7537 7538 7539 7540 7541 0
-7542 425 0
-7543 415 0
-7543 16 0
-415 -16 7543 0
-7544 417 0
-7544 65 0
-417 -65 7544 0
-7545 419 0
-7545 101 0
-419 -101 7545 0
-7546 421 0
-7546 137 0
-421 -137 7546 0
-7547 423 0
-7547 173 0
-423 -173 7547 0
-7548 427 0
-7548 245 0
-427 -245 7548 0
-7549 429 0
-7549 281 0
-429 -281 7549 0
-7550 431 0
-7550 317 0
-431 -317 7550 0
-7551 433 0
-7551 353 0
-433 -353 7551 0
-7552 435 0
-7552 389 0
-435 -389 7552 0
-7553 439 0
-7553 461 0
-439 -461 7553 0
-7554 441 0
-7554 497 0
-441 -497 7554 0
-7555 443 0
-7555 533 0
-443 -533 7555 0
-7556 445 0
-7556 569 0
-445 -569 7556 0
-7557 447 0
-7557 605 0
-447 -605 7557 0
-7558 449 0
-7558 641 0
-449 -641 7558 0
-7542 -7543 0
-7542 -7544 0
-7542 -7545 0
-7542 -7546 0
-7542 -7547 0
-7542 -7548 0
-7542 -7549 0
-7542 -7550 0
-7542 -7551 0
-7542 -7552 0
-7542 -7553 0
-7542 -7554 0
-7542 -7555 0
-7542 -7556 0
-7542 -7557 0
-7542 -7558 0
-425 7542 7543 7544 7545 7546 7547 7548 7549 7550 7551 7552 7553 7554 7555 7556 7557 7558 0
-7559 427 0
-7560 415 0
-7560 19 0
-415 -19 7560 0
-7561 417 0
-7561 67 0
-417 -67 7561 0
-7562 419 0
-7562 103 0
-419 -103 7562 0
-7563 421 0
-7563 139 0
-421 -139 7563 0
-7564 423 0
-7564 175 0
-423 -175 7564 0
-7565 425 0
-7565 211 0
-425 -211 7565 0
-7566 429 0
-7566 283 0
-429 -283 7566 0
-7567 431 0
-7567 319 0
-431 -319 7567 0
-7568 433 0
-7568 355 0
-433 -355 7568 0
-7569 435 0
-7569 391 0
-435 -391 7569 0
-7570 439 0
-7570 463 0
-439 -463 7570 0
-7571 441 0
-7571 499 0
-441 -499 7571 0
-7572 443 0
-7572 535 0
-443 -535 7572 0
-7573 445 0
-7573 571 0
-445 -571 7573 0
-7574 447 0
-7574 607 0
-447 -607 7574 0
-7575 449 0
-7575 643 0
-449 -643 7575 0
-7559 -7560 0
-7559 -7561 0
-7559 -7562 0
-7559 -7563 0
-7559 -7564 0
-7559 -7565 0
-7559 -7566 0
-7559 -7567 0
-7559 -7568 0
-7559 -7569 0
-7559 -7570 0
-7559 -7571 0
-7559 -7572 0
-7559 -7573 0
-7559 -7574 0
-7559 -7575 0
-427 7559 7560 7561 7562 7563 7564 7565 7566 7567 7568 7569 7570 7571 7572 7573 7574 7575 0
-7576 429 0
-7577 415 0
-7577 22 0
-415 -22 7577 0
-7578 417 0
-7578 69 0
-417 -69 7578 0
-7579 419 0
-7579 105 0
-419 -105 7579 0
-7580 421 0
-7580 141 0
-421 -141 7580 0
-7581 423 0
-7581 177 0
-423 -177 7581 0
-7582 425 0
-7582 213 0
-425 -213 7582 0
-7583 427 0
-7583 249 0
-427 -249 7583 0
-7584 431 0
-7584 321 0
-431 -321 7584 0
-7585 433 0
-7585 357 0
-433 -357 7585 0
-7586 435 0
-7586 393 0
-435 -393 7586 0
-7587 439 0
-7587 465 0
-439 -465 7587 0
-7588 441 0
-7588 501 0
-441 -501 7588 0
-7589 443 0
-7589 537 0
-443 -537 7589 0
-7590 445 0
-7590 573 0
-445 -573 7590 0
-7591 447 0
-7591 609 0
-447 -609 7591 0
-7592 449 0
-7592 645 0
-449 -645 7592 0
-7576 -7577 0
-7576 -7578 0
-7576 -7579 0
-7576 -7580 0
-7576 -7581 0
-7576 -7582 0
-7576 -7583 0
-7576 -7584 0
-7576 -7585 0
-7576 -7586 0
-7576 -7587 0
-7576 -7588 0
-7576 -7589 0
-7576 -7590 0
-7576 -7591 0
-7576 -7592 0
-429 7576 7577 7578 7579 7580 7581 7582 7583 7584 7585 7586 7587 7588 7589 7590 7591 7592 0
-7593 431 0
-7594 415 0
-7594 25 0
-415 -25 7594 0
-7595 417 0
-7595 71 0
-417 -71 7595 0
-7596 419 0
-7596 107 0
-419 -107 7596 0
-7597 421 0
-7597 143 0
-421 -143 7597 0
-7598 423 0
-7598 179 0
-423 -179 7598 0
-7599 425 0
-7599 215 0
-425 -215 7599 0
-7600 427 0
-7600 251 0
-427 -251 7600 0
-7601 429 0
-7601 287 0
-429 -287 7601 0
-7602 433 0
-7602 359 0
-433 -359 7602 0
-7603 435 0
-7603 395 0
-435 -395 7603 0
-7604 439 0
-7604 467 0
-439 -467 7604 0
-7605 441 0
-7605 503 0
-441 -503 7605 0
-7606 443 0
-7606 539 0
-443 -539 7606 0
-7607 445 0
-7607 575 0
-445 -575 7607 0
-7608 447 0
-7608 611 0
-447 -611 7608 0
-7609 449 0
-7609 647 0
-449 -647 7609 0
-7593 -7594 0
-7593 -7595 0
-7593 -7596 0
-7593 -7597 0
-7593 -7598 0
-7593 -7599 0
-7593 -7600 0
-7593 -7601 0
-7593 -7602 0
-7593 -7603 0
-7593 -7604 0
-7593 -7605 0
-7593 -7606 0
-7593 -7607 0
-7593 -7608 0
-7593 -7609 0
-431 7593 7594 7595 7596 7597 7598 7599 7600 7601 7602 7603 7604 7605 7606 7607 7608 7609 0
-7610 433 0
-7611 415 0
-7611 28 0
-415 -28 7611 0
-7612 417 0
-7612 73 0
-417 -73 7612 0
-7613 419 0
-7613 109 0
-419 -109 7613 0
-7614 421 0
-7614 145 0
-421 -145 7614 0
-7615 423 0
-7615 181 0
-423 -181 7615 0
-7616 425 0
-7616 217 0
-425 -217 7616 0
-7617 427 0
-7617 253 0
-427 -253 7617 0
-7618 429 0
-7618 289 0
-429 -289 7618 0
-7619 431 0
-7619 325 0
-431 -325 7619 0
-7620 435 0
-7620 397 0
-435 -397 7620 0
-7621 439 0
-7621 469 0
-439 -469 7621 0
-7622 441 0
-7622 505 0
-441 -505 7622 0
-7623 443 0
-7623 541 0
-443 -541 7623 0
-7624 445 0
-7624 577 0
-445 -577 7624 0
-7625 447 0
-7625 613 0
-447 -613 7625 0
-7626 449 0
-7626 649 0
-449 -649 7626 0
-7610 -7611 0
-7610 -7612 0
-7610 -7613 0
-7610 -7614 0
-7610 -7615 0
-7610 -7616 0
-7610 -7617 0
-7610 -7618 0
-7610 -7619 0
-7610 -7620 0
-7610 -7621 0
-7610 -7622 0
-7610 -7623 0
-7610 -7624 0
-7610 -7625 0
-7610 -7626 0
-433 7610 7611 7612 7613 7614 7615 7616 7617 7618 7619 7620 7621 7622 7623 7624 7625 7626 0
-7627 435 0
-7628 415 0
-7628 31 0
-415 -31 7628 0
-7629 417 0
-7629 75 0
-417 -75 7629 0
-7630 419 0
-7630 111 0
-419 -111 7630 0
-7631 421 0
-7631 147 0
-421 -147 7631 0
-7632 423 0
-7632 183 0
-423 -183 7632 0
-7633 425 0
-7633 219 0
-425 -219 7633 0
-7634 427 0
-7634 255 0
-427 -255 7634 0
-7635 429 0
-7635 291 0
-429 -291 7635 0
-7636 431 0
-7636 327 0
-431 -327 7636 0
-7637 433 0
-7637 363 0
-433 -363 7637 0
-7638 439 0
-7638 471 0
-439 -471 7638 0
-7639 441 0
-7639 507 0
-441 -507 7639 0
-7640 443 0
-7640 543 0
-443 -543 7640 0
-7641 445 0
-7641 579 0
-445 -579 7641 0
-7642 447 0
-7642 615 0
-447 -615 7642 0
-7643 449 0
-7643 651 0
-449 -651 7643 0
-7627 -7628 0
-7627 -7629 0
-7627 -7630 0
-7627 -7631 0
-7627 -7632 0
-7627 -7633 0
-7627 -7634 0
-7627 -7635 0
-7627 -7636 0
-7627 -7637 0
-7627 -7638 0
-7627 -7639 0
-7627 -7640 0
-7627 -7641 0
-7627 -7642 0
-7627 -7643 0
-435 7627 7628 7629 7630 7631 7632 7633 7634 7635 7636 7637 7638 7639 7640 7641 7642 7643 0
-7644 0
-7645 439 0
-7646 415 0
-7646 37 0
-415 -37 7646 0
-7647 417 0
-7647 79 0
-417 -79 7647 0
-7648 419 0
-7648 115 0
-419 -115 7648 0
-7649 421 0
-7649 151 0
-421 -151 7649 0
-7650 423 0
-7650 187 0
-423 -187 7650 0
-7651 425 0
-7651 223 0
-425 -223 7651 0
-7652 427 0
-7652 259 0
-427 -259 7652 0
-7653 429 0
-7653 295 0
-429 -295 7653 0
-7654 431 0
-7654 331 0
-431 -331 7654 0
-7655 433 0
-7655 367 0
-433 -367 7655 0
-7656 435 0
-7656 403 0
-435 -403 7656 0
-7657 441 0
-7657 511 0
-441 -511 7657 0
-7658 443 0
-7658 547 0
-443 -547 7658 0
-7659 445 0
-7659 583 0
-445 -583 7659 0
-7660 447 0
-7660 619 0
-447 -619 7660 0
-7661 449 0
-7661 655 0
-449 -655 7661 0
-7645 -7646 0
-7645 -7647 0
-7645 -7648 0
-7645 -7649 0
-7645 -7650 0
-7645 -7651 0
-7645 -7652 0
-7645 -7653 0
-7645 -7654 0
-7645 -7655 0
-7645 -7656 0
-7645 -7657 0
-7645 -7658 0
-7645 -7659 0
-7645 -7660 0
-7645 -7661 0
-439 7645 7646 7647 7648 7649 7650 7651 7652 7653 7654 7655 7656 7657 7658 7659 7660 7661 0
-7662 441 0
-7663 415 0
-7663 40 0
-415 -40 7663 0
-7664 417 0
-7664 81 0
-417 -81 7664 0
-7665 419 0
-7665 117 0
-419 -117 7665 0
-7666 421 0
-7666 153 0
-421 -153 7666 0
-7667 423 0
-7667 189 0
-423 -189 7667 0
-7668 425 0
-7668 225 0
-425 -225 7668 0
-7669 427 0
-7669 261 0
-427 -261 7669 0
-7670 429 0
-7670 297 0
-429 -297 7670 0
-7671 431 0
-7671 333 0
-431 -333 7671 0
-7672 433 0
-7672 369 0
-433 -369 7672 0
-7673 435 0
-7673 405 0
-435 -405 7673 0
-7674 439 0
-7674 477 0
-439 -477 7674 0
-7675 443 0
-7675 549 0
-443 -549 7675 0
-7676 445 0
-7676 585 0
-445 -585 7676 0
-7677 447 0
-7677 621 0
-447 -621 7677 0
-7678 449 0
-7678 657 0
-449 -657 7678 0
-7662 -7663 0
-7662 -7664 0
-7662 -7665 0
-7662 -7666 0
-7662 -7667 0
-7662 -7668 0
-7662 -7669 0
-7662 -7670 0
-7662 -7671 0
-7662 -7672 0
-7662 -7673 0
-7662 -7674 0
-7662 -7675 0
-7662 -7676 0
-7662 -7677 0
-7662 -7678 0
-441 7662 7663 7664 7665 7666 7667 7668 7669 7670 7671 7672 7673 7674 7675 7676 7677 7678 0
-7679 443 0
-7680 415 0
-7680 43 0
-415 -43 7680 0
-7681 417 0
-7681 83 0
-417 -83 7681 0
-7682 419 0
-7682 119 0
-419 -119 7682 0
-7683 421 0
-7683 155 0
-421 -155 7683 0
-7684 423 0
-7684 191 0
-423 -191 7684 0
-7685 425 0
-7685 227 0
-425 -227 7685 0
-7686 427 0
-7686 263 0
-427 -263 7686 0
-7687 429 0
-7687 299 0
-429 -299 7687 0
-7688 431 0
-7688 335 0
-431 -335 7688 0
-7689 433 0
-7689 371 0
-433 -371 7689 0
-7690 435 0
-7690 407 0
-435 -407 7690 0
-7691 439 0
-7691 479 0
-439 -479 7691 0
-7692 441 0
-7692 515 0
-441 -515 7692 0
-7693 445 0
-7693 587 0
-445 -587 7693 0
-7694 447 0
-7694 623 0
-447 -623 7694 0
-7695 449 0
-7695 659 0
-449 -659 7695 0
-7679 -7680 0
-7679 -7681 0
-7679 -7682 0
-7679 -7683 0
-7679 -7684 0
-7679 -7685 0
-7679 -7686 0
-7679 -7687 0
-7679 -7688 0
-7679 -7689 0
-7679 -7690 0
-7679 -7691 0
-7679 -7692 0
-7679 -7693 0
-7679 -7694 0
-7679 -7695 0
-443 7679 7680 7681 7682 7683 7684 7685 7686 7687 7688 7689 7690 7691 7692 7693 7694 7695 0
-7696 445 0
-7697 415 0
-7697 46 0
-415 -46 7697 0
-7698 417 0
-7698 85 0
-417 -85 7698 0
-7699 419 0
-7699 121 0
-419 -121 7699 0
-7700 421 0
-7700 157 0
-421 -157 7700 0
-7701 423 0
-7701 193 0
-423 -193 7701 0
-7702 425 0
-7702 229 0
-425 -229 7702 0
-7703 427 0
-7703 265 0
-427 -265 7703 0
-7704 429 0
-7704 301 0
-429 -301 7704 0
-7705 431 0
-7705 337 0
-431 -337 7705 0
-7706 433 0
-7706 373 0
-433 -373 7706 0
-7707 435 0
-7707 409 0
-435 -409 7707 0
-7708 439 0
-7708 481 0
-439 -481 7708 0
-7709 441 0
-7709 517 0
-441 -517 7709 0
-7710 443 0
-7710 553 0
-443 -553 7710 0
-7711 447 0
-7711 625 0
-447 -625 7711 0
-7712 449 0
-7712 661 0
-449 -661 7712 0
-7696 -7697 0
-7696 -7698 0
-7696 -7699 0
-7696 -7700 0
-7696 -7701 0
-7696 -7702 0
-7696 -7703 0
-7696 -7704 0
-7696 -7705 0
-7696 -7706 0
-7696 -7707 0
-7696 -7708 0
-7696 -7709 0
-7696 -7710 0
-7696 -7711 0
-7696 -7712 0
-445 7696 7697 7698 7699 7700 7701 7702 7703 7704 7705 7706 7707 7708 7709 7710 7711 7712 0
-7713 447 0
-7714 415 0
-7714 49 0
-415 -49 7714 0
-7715 417 0
-7715 87 0
-417 -87 7715 0
-7716 419 0
-7716 123 0
-419 -123 7716 0
-7717 421 0
-7717 159 0
-421 -159 7717 0
-7718 423 0
-7718 195 0
-423 -195 7718 0
-7719 425 0
-7719 231 0
-425 -231 7719 0
-7720 427 0
-7720 267 0
-427 -267 7720 0
-7721 429 0
-7721 303 0
-429 -303 7721 0
-7722 431 0
-7722 339 0
-431 -339 7722 0
-7723 433 0
-7723 375 0
-433 -375 7723 0
-7724 435 0
-7724 411 0
-435 -411 7724 0
-7725 439 0
-7725 483 0
-439 -483 7725 0
-7726 441 0
-7726 519 0
-441 -519 7726 0
-7727 443 0
-7727 555 0
-443 -555 7727 0
-7728 445 0
-7728 591 0
-445 -591 7728 0
-7729 449 0
-7729 663 0
-449 -663 7729 0
-7713 -7714 0
-7713 -7715 0
-7713 -7716 0
-7713 -7717 0
-7713 -7718 0
-7713 -7719 0
-7713 -7720 0
-7713 -7721 0
-7713 -7722 0
-7713 -7723 0
-7713 -7724 0
-7713 -7725 0
-7713 -7726 0
-7713 -7727 0
-7713 -7728 0
-7713 -7729 0
-447 7713 7714 7715 7716 7717 7718 7719 7720 7721 7722 7723 7724 7725 7726 7727 7728 7729 0
-7730 449 0
-7731 415 0
-7731 52 0
-415 -52 7731 0
-7732 417 0
-7732 89 0
-417 -89 7732 0
-7733 419 0
-7733 125 0
-419 -125 7733 0
-7734 421 0
-7734 161 0
-421 -161 7734 0
-7735 423 0
-7735 197 0
-423 -197 7735 0
-7736 425 0
-7736 233 0
-425 -233 7736 0
-7737 427 0
-7737 269 0
-427 -269 7737 0
-7738 429 0
-7738 305 0
-429 -305 7738 0
-7739 431 0
-7739 341 0
-431 -341 7739 0
-7740 433 0
-7740 377 0
-433 -377 7740 0
-7741 435 0
-7741 413 0
-435 -413 7741 0
-7742 439 0
-7742 485 0
-439 -485 7742 0
-7743 441 0
-7743 521 0
-441 -521 7743 0
-7744 443 0
-7744 557 0
-443 -557 7744 0
-7745 445 0
-7745 593 0
-445 -593 7745 0
-7746 447 0
-7746 629 0
-447 -629 7746 0
-7730 -7731 0
-7730 -7732 0
-7730 -7733 0
-7730 -7734 0
-7730 -7735 0
-7730 -7736 0
-7730 -7737 0
-7730 -7738 0
-7730 -7739 0
-7730 -7740 0
-7730 -7741 0
-7730 -7742 0
-7730 -7743 0
-7730 -7744 0
-7730 -7745 0
-7730 -7746 0
-449 7730 7731 7732 7733 7734 7735 7736 7737 7738 7739 7740 7741 7742 7743 7744 7745 7746 0
-7747 451 0
-7748 453 0
-7748 55 0
-453 -55 7748 0
-7749 455 0
-7749 91 0
-455 -91 7749 0
-7750 457 0
-7750 127 0
-457 -127 7750 0
-7751 459 0
-7751 163 0
-459 -163 7751 0
-7752 461 0
-7752 199 0
-461 -199 7752 0
-7753 463 0
-7753 235 0
-463 -235 7753 0
-7754 465 0
-7754 271 0
-465 -271 7754 0
-7755 467 0
-7755 307 0
-467 -307 7755 0
-7756 469 0
-7756 343 0
-469 -343 7756 0
-7757 471 0
-7757 379 0
-471 -379 7757 0
-7758 473 0
-7758 415 0
-473 -415 7758 0
-7759 477 0
-7759 487 0
-477 -487 7759 0
-7760 479 0
-7760 523 0
-479 -523 7760 0
-7761 481 0
-7761 559 0
-481 -559 7761 0
-7762 483 0
-7762 595 0
-483 -595 7762 0
-7763 485 0
-7763 631 0
-485 -631 7763 0
-7747 -7748 0
-7747 -7749 0
-7747 -7750 0
-7747 -7751 0
-7747 -7752 0
-7747 -7753 0
-7747 -7754 0
-7747 -7755 0
-7747 -7756 0
-7747 -7757 0
-7747 -7758 0
-7747 -7759 0
-7747 -7760 0
-7747 -7761 0
-7747 -7762 0
-7747 -7763 0
-451 7747 7748 7749 7750 7751 7752 7753 7754 7755 7756 7757 7758 7759 7760 7761 7762 7763 0
-7764 453 0
-7765 451 0
-7765 4 0
-451 -4 7765 0
-7766 455 0
-7766 93 0
-455 -93 7766 0
-7767 457 0
-7767 129 0
-457 -129 7767 0
-7768 459 0
-7768 165 0
-459 -165 7768 0
-7769 461 0
-7769 201 0
-461 -201 7769 0
-7770 463 0
-7770 237 0
-463 -237 7770 0
-7771 465 0
-7771 273 0
-465 -273 7771 0
-7772 467 0
-7772 309 0
-467 -309 7772 0
-7773 469 0
-7773 345 0
-469 -345 7773 0
-7774 471 0
-7774 381 0
-471 -381 7774 0
-7775 473 0
-7775 417 0
-473 -417 7775 0
-7776 477 0
-7776 489 0
-477 -489 7776 0
-7777 479 0
-7777 525 0
-479 -525 7777 0
-7778 481 0
-7778 561 0
-481 -561 7778 0
-7779 483 0
-7779 597 0
-483 -597 7779 0
-7780 485 0
-7780 633 0
-485 -633 7780 0
-7764 -7765 0
-7764 -7766 0
-7764 -7767 0
-7764 -7768 0
-7764 -7769 0
-7764 -7770 0
-7764 -7771 0
-7764 -7772 0
-7764 -7773 0
-7764 -7774 0
-7764 -7775 0
-7764 -7776 0
-7764 -7777 0
-7764 -7778 0
-7764 -7779 0
-7764 -7780 0
-453 7764 7765 7766 7767 7768 7769 7770 7771 7772 7773 7774 7775 7776 7777 7778 7779 7780 0
-7781 455 0
-7782 451 0
-7782 7 0
-451 -7 7782 0
-7783 453 0
-7783 59 0
-453 -59 7783 0
-7784 457 0
-7784 131 0
-457 -131 7784 0
-7785 459 0
-7785 167 0
-459 -167 7785 0
-7786 461 0
-7786 203 0
-461 -203 7786 0
-7787 463 0
-7787 239 0
-463 -239 7787 0
-7788 465 0
-7788 275 0
-465 -275 7788 0
-7789 467 0
-7789 311 0
-467 -311 7789 0
-7790 469 0
-7790 347 0
-469 -347 7790 0
-7791 471 0
-7791 383 0
-471 -383 7791 0
-7792 473 0
-7792 419 0
-473 -419 7792 0
-7793 477 0
-7793 491 0
-477 -491 7793 0
-7794 479 0
-7794 527 0
-479 -527 7794 0
-7795 481 0
-7795 563 0
-481 -563 7795 0
-7796 483 0
-7796 599 0
-483 -599 7796 0
-7797 485 0
-7797 635 0
-485 -635 7797 0
-7781 -7782 0
-7781 -7783 0
-7781 -7784 0
-7781 -7785 0
-7781 -7786 0
-7781 -7787 0
-7781 -7788 0
-7781 -7789 0
-7781 -7790 0
-7781 -7791 0
-7781 -7792 0
-7781 -7793 0
-7781 -7794 0
-7781 -7795 0
-7781 -7796 0
-7781 -7797 0
-455 7781 7782 7783 7784 7785 7786 7787 7788 7789 7790 7791 7792 7793 7794 7795 7796 7797 0
-7798 457 0
-7799 451 0
-7799 10 0
-451 -10 7799 0
-7800 453 0
-7800 61 0
-453 -61 7800 0
-7801 455 0
-7801 97 0
-455 -97 7801 0
-7802 459 0
-7802 169 0
-459 -169 7802 0
-7803 461 0
-7803 205 0
-461 -205 7803 0
-7804 463 0
-7804 241 0
-463 -241 7804 0
-7805 465 0
-7805 277 0
-465 -277 7805 0
-7806 467 0
-7806 313 0
-467 -313 7806 0
-7807 469 0
-7807 349 0
-469 -349 7807 0
-7808 471 0
-7808 385 0
-471 -385 7808 0
-7809 473 0
-7809 421 0
-473 -421 7809 0
-7810 477 0
-7810 493 0
-477 -493 7810 0
-7811 479 0
-7811 529 0
-479 -529 7811 0
-7812 481 0
-7812 565 0
-481 -565 7812 0
-7813 483 0
-7813 601 0
-483 -601 7813 0
-7814 485 0
-7814 637 0
-485 -637 7814 0
-7798 -7799 0
-7798 -7800 0
-7798 -7801 0
-7798 -7802 0
-7798 -7803 0
-7798 -7804 0
-7798 -7805 0
-7798 -7806 0
-7798 -7807 0
-7798 -7808 0
-7798 -7809 0
-7798 -7810 0
-7798 -7811 0
-7798 -7812 0
-7798 -7813 0
-7798 -7814 0
-457 7798 7799 7800 7801 7802 7803 7804 7805 7806 7807 7808 7809 7810 7811 7812 7813 7814 0
-7815 459 0
-7816 451 0
-7816 13 0
-451 -13 7816 0
-7817 453 0
-7817 63 0
-453 -63 7817 0
-7818 455 0
-7818 99 0
-455 -99 7818 0
-7819 457 0
-7819 135 0
-457 -135 7819 0
-7820 461 0
-7820 207 0
-461 -207 7820 0
-7821 463 0
-7821 243 0
-463 -243 7821 0
-7822 465 0
-7822 279 0
-465 -279 7822 0
-7823 467 0
-7823 315 0
-467 -315 7823 0
-7824 469 0
-7824 351 0
-469 -351 7824 0
-7825 471 0
-7825 387 0
-471 -387 7825 0
-7826 473 0
-7826 423 0
-473 -423 7826 0
-7827 477 0
-7827 495 0
-477 -495 7827 0
-7828 479 0
-7828 531 0
-479 -531 7828 0
-7829 481 0
-7829 567 0
-481 -567 7829 0
-7830 483 0
-7830 603 0
-483 -603 7830 0
-7831 485 0
-7831 639 0
-485 -639 7831 0
-7815 -7816 0
-7815 -7817 0
-7815 -7818 0
-7815 -7819 0
-7815 -7820 0
-7815 -7821 0
-7815 -7822 0
-7815 -7823 0
-7815 -7824 0
-7815 -7825 0
-7815 -7826 0
-7815 -7827 0
-7815 -7828 0
-7815 -7829 0
-7815 -7830 0
-7815 -7831 0
-459 7815 7816 7817 7818 7819 7820 7821 7822 7823 7824 7825 7826 7827 7828 7829 7830 7831 0
-7832 461 0
-7833 451 0
-7833 16 0
-451 -16 7833 0
-7834 453 0
-7834 65 0
-453 -65 7834 0
-7835 455 0
-7835 101 0
-455 -101 7835 0
-7836 457 0
-7836 137 0
-457 -137 7836 0
-7837 459 0
-7837 173 0
-459 -173 7837 0
-7838 463 0
-7838 245 0
-463 -245 7838 0
-7839 465 0
-7839 281 0
-465 -281 7839 0
-7840 467 0
-7840 317 0
-467 -317 7840 0
-7841 469 0
-7841 353 0
-469 -353 7841 0
-7842 471 0
-7842 389 0
-471 -389 7842 0
-7843 473 0
-7843 425 0
-473 -425 7843 0
-7844 477 0
-7844 497 0
-477 -497 7844 0
-7845 479 0
-7845 533 0
-479 -533 7845 0
-7846 481 0
-7846 569 0
-481 -569 7846 0
-7847 483 0
-7847 605 0
-483 -605 7847 0
-7848 485 0
-7848 641 0
-485 -641 7848 0
-7832 -7833 0
-7832 -7834 0
-7832 -7835 0
-7832 -7836 0
-7832 -7837 0
-7832 -7838 0
-7832 -7839 0
-7832 -7840 0
-7832 -7841 0
-7832 -7842 0
-7832 -7843 0
-7832 -7844 0
-7832 -7845 0
-7832 -7846 0
-7832 -7847 0
-7832 -7848 0
-461 7832 7833 7834 7835 7836 7837 7838 7839 7840 7841 7842 7843 7844 7845 7846 7847 7848 0
-7849 463 0
-7850 451 0
-7850 19 0
-451 -19 7850 0
-7851 453 0
-7851 67 0
-453 -67 7851 0
-7852 455 0
-7852 103 0
-455 -103 7852 0
-7853 457 0
-7853 139 0
-457 -139 7853 0
-7854 459 0
-7854 175 0
-459 -175 7854 0
-7855 461 0
-7855 211 0
-461 -211 7855 0
-7856 465 0
-7856 283 0
-465 -283 7856 0
-7857 467 0
-7857 319 0
-467 -319 7857 0
-7858 469 0
-7858 355 0
-469 -355 7858 0
-7859 471 0
-7859 391 0
-471 -391 7859 0
-7860 473 0
-7860 427 0
-473 -427 7860 0
-7861 477 0
-7861 499 0
-477 -499 7861 0
-7862 479 0
-7862 535 0
-479 -535 7862 0
-7863 481 0
-7863 571 0
-481 -571 7863 0
-7864 483 0
-7864 607 0
-483 -607 7864 0
-7865 485 0
-7865 643 0
-485 -643 7865 0
-7849 -7850 0
-7849 -7851 0
-7849 -7852 0
-7849 -7853 0
-7849 -7854 0
-7849 -7855 0
-7849 -7856 0
-7849 -7857 0
-7849 -7858 0
-7849 -7859 0
-7849 -7860 0
-7849 -7861 0
-7849 -7862 0
-7849 -7863 0
-7849 -7864 0
-7849 -7865 0
-463 7849 7850 7851 7852 7853 7854 7855 7856 7857 7858 7859 7860 7861 7862 7863 7864 7865 0
-7866 465 0
-7867 451 0
-7867 22 0
-451 -22 7867 0
-7868 453 0
-7868 69 0
-453 -69 7868 0
-7869 455 0
-7869 105 0
-455 -105 7869 0
-7870 457 0
-7870 141 0
-457 -141 7870 0
-7871 459 0
-7871 177 0
-459 -177 7871 0
-7872 461 0
-7872 213 0
-461 -213 7872 0
-7873 463 0
-7873 249 0
-463 -249 7873 0
-7874 467 0
-7874 321 0
-467 -321 7874 0
-7875 469 0
-7875 357 0
-469 -357 7875 0
-7876 471 0
-7876 393 0
-471 -393 7876 0
-7877 473 0
-7877 429 0
-473 -429 7877 0
-7878 477 0
-7878 501 0
-477 -501 7878 0
-7879 479 0
-7879 537 0
-479 -537 7879 0
-7880 481 0
-7880 573 0
-481 -573 7880 0
-7881 483 0
-7881 609 0
-483 -609 7881 0
-7882 485 0
-7882 645 0
-485 -645 7882 0
-7866 -7867 0
-7866 -7868 0
-7866 -7869 0
-7866 -7870 0
-7866 -7871 0
-7866 -7872 0
-7866 -7873 0
-7866 -7874 0
-7866 -7875 0
-7866 -7876 0
-7866 -7877 0
-7866 -7878 0
-7866 -7879 0
-7866 -7880 0
-7866 -7881 0
-7866 -7882 0
-465 7866 7867 7868 7869 7870 7871 7872 7873 7874 7875 7876 7877 7878 7879 7880 7881 7882 0
-7883 467 0
-7884 451 0
-7884 25 0
-451 -25 7884 0
-7885 453 0
-7885 71 0
-453 -71 7885 0
-7886 455 0
-7886 107 0
-455 -107 7886 0
-7887 457 0
-7887 143 0
-457 -143 7887 0
-7888 459 0
-7888 179 0
-459 -179 7888 0
-7889 461 0
-7889 215 0
-461 -215 7889 0
-7890 463 0
-7890 251 0
-463 -251 7890 0
-7891 465 0
-7891 287 0
-465 -287 7891 0
-7892 469 0
-7892 359 0
-469 -359 7892 0
-7893 471 0
-7893 395 0
-471 -395 7893 0
-7894 473 0
-7894 431 0
-473 -431 7894 0
-7895 477 0
-7895 503 0
-477 -503 7895 0
-7896 479 0
-7896 539 0
-479 -539 7896 0
-7897 481 0
-7897 575 0
-481 -575 7897 0
-7898 483 0
-7898 611 0
-483 -611 7898 0
-7899 485 0
-7899 647 0
-485 -647 7899 0
-7883 -7884 0
-7883 -7885 0
-7883 -7886 0
-7883 -7887 0
-7883 -7888 0
-7883 -7889 0
-7883 -7890 0
-7883 -7891 0
-7883 -7892 0
-7883 -7893 0
-7883 -7894 0
-7883 -7895 0
-7883 -7896 0
-7883 -7897 0
-7883 -7898 0
-7883 -7899 0
-467 7883 7884 7885 7886 7887 7888 7889 7890 7891 7892 7893 7894 7895 7896 7897 7898 7899 0
-7900 469 0
-7901 451 0
-7901 28 0
-451 -28 7901 0
-7902 453 0
-7902 73 0
-453 -73 7902 0
-7903 455 0
-7903 109 0
-455 -109 7903 0
-7904 457 0
-7904 145 0
-457 -145 7904 0
-7905 459 0
-7905 181 0
-459 -181 7905 0
-7906 461 0
-7906 217 0
-461 -217 7906 0
-7907 463 0
-7907 253 0
-463 -253 7907 0
-7908 465 0
-7908 289 0
-465 -289 7908 0
-7909 467 0
-7909 325 0
-467 -325 7909 0
-7910 471 0
-7910 397 0
-471 -397 7910 0
-7911 473 0
-7911 433 0
-473 -433 7911 0
-7912 477 0
-7912 505 0
-477 -505 7912 0
-7913 479 0
-7913 541 0
-479 -541 7913 0
-7914 481 0
-7914 577 0
-481 -577 7914 0
-7915 483 0
-7915 613 0
-483 -613 7915 0
-7916 485 0
-7916 649 0
-485 -649 7916 0
-7900 -7901 0
-7900 -7902 0
-7900 -7903 0
-7900 -7904 0
-7900 -7905 0
-7900 -7906 0
-7900 -7907 0
-7900 -7908 0
-7900 -7909 0
-7900 -7910 0
-7900 -7911 0
-7900 -7912 0
-7900 -7913 0
-7900 -7914 0
-7900 -7915 0
-7900 -7916 0
-469 7900 7901 7902 7903 7904 7905 7906 7907 7908 7909 7910 7911 7912 7913 7914 7915 7916 0
-7917 471 0
-7918 451 0
-7918 31 0
-451 -31 7918 0
-7919 453 0
-7919 75 0
-453 -75 7919 0
-7920 455 0
-7920 111 0
-455 -111 7920 0
-7921 457 0
-7921 147 0
-457 -147 7921 0
-7922 459 0
-7922 183 0
-459 -183 7922 0
-7923 461 0
-7923 219 0
-461 -219 7923 0
-7924 463 0
-7924 255 0
-463 -255 7924 0
-7925 465 0
-7925 291 0
-465 -291 7925 0
-7926 467 0
-7926 327 0
-467 -327 7926 0
-7927 469 0
-7927 363 0
-469 -363 7927 0
-7928 473 0
-7928 435 0
-473 -435 7928 0
-7929 477 0
-7929 507 0
-477 -507 7929 0
-7930 479 0
-7930 543 0
-479 -543 7930 0
-7931 481 0
-7931 579 0
-481 -579 7931 0
-7932 483 0
-7932 615 0
-483 -615 7932 0
-7933 485 0
-7933 651 0
-485 -651 7933 0
-7917 -7918 0
-7917 -7919 0
-7917 -7920 0
-7917 -7921 0
-7917 -7922 0
-7917 -7923 0
-7917 -7924 0
-7917 -7925 0
-7917 -7926 0
-7917 -7927 0
-7917 -7928 0
-7917 -7929 0
-7917 -7930 0
-7917 -7931 0
-7917 -7932 0
-7917 -7933 0
-471 7917 7918 7919 7920 7921 7922 7923 7924 7925 7926 7927 7928 7929 7930 7931 7932 7933 0
-7934 473 0
-7935 451 0
-7935 34 0
-451 -34 7935 0
-7936 453 0
-7936 77 0
-453 -77 7936 0
-7937 455 0
-7937 113 0
-455 -113 7937 0
-7938 457 0
-7938 149 0
-457 -149 7938 0
-7939 459 0
-7939 185 0
-459 -185 7939 0
-7940 461 0
-7940 221 0
-461 -221 7940 0
-7941 463 0
-7941 257 0
-463 -257 7941 0
-7942 465 0
-7942 293 0
-465 -293 7942 0
-7943 467 0
-7943 329 0
-467 -329 7943 0
-7944 469 0
-7944 365 0
-469 -365 7944 0
-7945 471 0
-7945 401 0
-471 -401 7945 0
-7946 477 0
-7946 509 0
-477 -509 7946 0
-7947 479 0
-7947 545 0
-479 -545 7947 0
-7948 481 0
-7948 581 0
-481 -581 7948 0
-7949 483 0
-7949 617 0
-483 -617 7949 0
-7950 485 0
-7950 653 0
-485 -653 7950 0
-7934 -7935 0
-7934 -7936 0
-7934 -7937 0
-7934 -7938 0
-7934 -7939 0
-7934 -7940 0
-7934 -7941 0
-7934 -7942 0
-7934 -7943 0
-7934 -7944 0
-7934 -7945 0
-7934 -7946 0
-7934 -7947 0
-7934 -7948 0
-7934 -7949 0
-7934 -7950 0
-473 7934 7935 7936 7937 7938 7939 7940 7941 7942 7943 7944 7945 7946 7947 7948 7949 7950 0
-7951 0
-7952 477 0
-7953 451 0
-7953 40 0
-451 -40 7953 0
-7954 453 0
-7954 81 0
-453 -81 7954 0
-7955 455 0
-7955 117 0
-455 -117 7955 0
-7956 457 0
-7956 153 0
-457 -153 7956 0
-7957 459 0
-7957 189 0
-459 -189 7957 0
-7958 461 0
-7958 225 0
-461 -225 7958 0
-7959 463 0
-7959 261 0
-463 -261 7959 0
-7960 465 0
-7960 297 0
-465 -297 7960 0
-7961 467 0
-7961 333 0
-467 -333 7961 0
-7962 469 0
-7962 369 0
-469 -369 7962 0
-7963 471 0
-7963 405 0
-471 -405 7963 0
-7964 473 0
-7964 441 0
-473 -441 7964 0
-7965 479 0
-7965 549 0
-479 -549 7965 0
-7966 481 0
-7966 585 0
-481 -585 7966 0
-7967 483 0
-7967 621 0
-483 -621 7967 0
-7968 485 0
-7968 657 0
-485 -657 7968 0
-7952 -7953 0
-7952 -7954 0
-7952 -7955 0
-7952 -7956 0
-7952 -7957 0
-7952 -7958 0
-7952 -7959 0
-7952 -7960 0
-7952 -7961 0
-7952 -7962 0
-7952 -7963 0
-7952 -7964 0
-7952 -7965 0
-7952 -7966 0
-7952 -7967 0
-7952 -7968 0
-477 7952 7953 7954 7955 7956 7957 7958 7959 7960 7961 7962 7963 7964 7965 7966 7967 7968 0
-7969 479 0
-7970 451 0
-7970 43 0
-451 -43 7970 0
-7971 453 0
-7971 83 0
-453 -83 7971 0
-7972 455 0
-7972 119 0
-455 -119 7972 0
-7973 457 0
-7973 155 0
-457 -155 7973 0
-7974 459 0
-7974 191 0
-459 -191 7974 0
-7975 461 0
-7975 227 0
-461 -227 7975 0
-7976 463 0
-7976 263 0
-463 -263 7976 0
-7977 465 0
-7977 299 0
-465 -299 7977 0
-7978 467 0
-7978 335 0
-467 -335 7978 0
-7979 469 0
-7979 371 0
-469 -371 7979 0
-7980 471 0
-7980 407 0
-471 -407 7980 0
-7981 473 0
-7981 443 0
-473 -443 7981 0
-7982 477 0
-7982 515 0
-477 -515 7982 0
-7983 481 0
-7983 587 0
-481 -587 7983 0
-7984 483 0
-7984 623 0
-483 -623 7984 0
-7985 485 0
-7985 659 0
-485 -659 7985 0
-7969 -7970 0
-7969 -7971 0
-7969 -7972 0
-7969 -7973 0
-7969 -7974 0
-7969 -7975 0
-7969 -7976 0
-7969 -7977 0
-7969 -7978 0
-7969 -7979 0
-7969 -7980 0
-7969 -7981 0
-7969 -7982 0
-7969 -7983 0
-7969 -7984 0
-7969 -7985 0
-479 7969 7970 7971 7972 7973 7974 7975 7976 7977 7978 7979 7980 7981 7982 7983 7984 7985 0
-7986 481 0
-7987 451 0
-7987 46 0
-451 -46 7987 0
-7988 453 0
-7988 85 0
-453 -85 7988 0
-7989 455 0
-7989 121 0
-455 -121 7989 0
-7990 457 0
-7990 157 0
-457 -157 7990 0
-7991 459 0
-7991 193 0
-459 -193 7991 0
-7992 461 0
-7992 229 0
-461 -229 7992 0
-7993 463 0
-7993 265 0
-463 -265 7993 0
-7994 465 0
-7994 301 0
-465 -301 7994 0
-7995 467 0
-7995 337 0
-467 -337 7995 0
-7996 469 0
-7996 373 0
-469 -373 7996 0
-7997 471 0
-7997 409 0
-471 -409 7997 0
-7998 473 0
-7998 445 0
-473 -445 7998 0
-7999 477 0
-7999 517 0
-477 -517 7999 0
-8000 479 0
-8000 553 0
-479 -553 8000 0
-8001 483 0
-8001 625 0
-483 -625 8001 0
-8002 485 0
-8002 661 0
-485 -661 8002 0
-7986 -7987 0
-7986 -7988 0
-7986 -7989 0
-7986 -7990 0
-7986 -7991 0
-7986 -7992 0
-7986 -7993 0
-7986 -7994 0
-7986 -7995 0
-7986 -7996 0
-7986 -7997 0
-7986 -7998 0
-7986 -7999 0
-7986 -8000 0
-7986 -8001 0
-7986 -8002 0
-481 7986 7987 7988 7989 7990 7991 7992 7993 7994 7995 7996 7997 7998 7999 8000 8001 8002 0
-8003 483 0
-8004 451 0
-8004 49 0
-451 -49 8004 0
-8005 453 0
-8005 87 0
-453 -87 8005 0
-8006 455 0
-8006 123 0
-455 -123 8006 0
-8007 457 0
-8007 159 0
-457 -159 8007 0
-8008 459 0
-8008 195 0
-459 -195 8008 0
-8009 461 0
-8009 231 0
-461 -231 8009 0
-8010 463 0
-8010 267 0
-463 -267 8010 0
-8011 465 0
-8011 303 0
-465 -303 8011 0
-8012 467 0
-8012 339 0
-467 -339 8012 0
-8013 469 0
-8013 375 0
-469 -375 8013 0
-8014 471 0
-8014 411 0
-471 -411 8014 0
-8015 473 0
-8015 447 0
-473 -447 8015 0
-8016 477 0
-8016 519 0
-477 -519 8016 0
-8017 479 0
-8017 555 0
-479 -555 8017 0
-8018 481 0
-8018 591 0
-481 -591 8018 0
-8019 485 0
-8019 663 0
-485 -663 8019 0
-8003 -8004 0
-8003 -8005 0
-8003 -8006 0
-8003 -8007 0
-8003 -8008 0
-8003 -8009 0
-8003 -8010 0
-8003 -8011 0
-8003 -8012 0
-8003 -8013 0
-8003 -8014 0
-8003 -8015 0
-8003 -8016 0
-8003 -8017 0
-8003 -8018 0
-8003 -8019 0
-483 8003 8004 8005 8006 8007 8008 8009 8010 8011 8012 8013 8014 8015 8016 8017 8018 8019 0
-8020 485 0
-8021 451 0
-8021 52 0
-451 -52 8021 0
-8022 453 0
-8022 89 0
-453 -89 8022 0
-8023 455 0
-8023 125 0
-455 -125 8023 0
-8024 457 0
-8024 161 0
-457 -161 8024 0
-8025 459 0
-8025 197 0
-459 -197 8025 0
-8026 461 0
-8026 233 0
-461 -233 8026 0
-8027 463 0
-8027 269 0
-463 -269 8027 0
-8028 465 0
-8028 305 0
-465 -305 8028 0
-8029 467 0
-8029 341 0
-467 -341 8029 0
-8030 469 0
-8030 377 0
-469 -377 8030 0
-8031 471 0
-8031 413 0
-471 -413 8031 0
-8032 473 0
-8032 449 0
-473 -449 8032 0
-8033 477 0
-8033 521 0
-477 -521 8033 0
-8034 479 0
-8034 557 0
-479 -557 8034 0
-8035 481 0
-8035 593 0
-481 -593 8035 0
-8036 483 0
-8036 629 0
-483 -629 8036 0
-8020 -8021 0
-8020 -8022 0
-8020 -8023 0
-8020 -8024 0
-8020 -8025 0
-8020 -8026 0
-8020 -8027 0
-8020 -8028 0
-8020 -8029 0
-8020 -8030 0
-8020 -8031 0
-8020 -8032 0
-8020 -8033 0
-8020 -8034 0
-8020 -8035 0
-8020 -8036 0
-485 8020 8021 8022 8023 8024 8025 8026 8027 8028 8029 8030 8031 8032 8033 8034 8035 8036 0
-8037 487 0
-8038 489 0
-8038 55 0
-489 -55 8038 0
-8039 491 0
-8039 91 0
-491 -91 8039 0
-8040 493 0
-8040 127 0
-493 -127 8040 0
-8041 495 0
-8041 163 0
-495 -163 8041 0
-8042 497 0
-8042 199 0
-497 -199 8042 0
-8043 499 0
-8043 235 0
-499 -235 8043 0
-8044 501 0
-8044 271 0
-501 -271 8044 0
-8045 503 0
-8045 307 0
-503 -307 8045 0
-8046 505 0
-8046 343 0
-505 -343 8046 0
-8047 507 0
-8047 379 0
-507 -379 8047 0
-8048 509 0
-8048 415 0
-509 -415 8048 0
-8049 511 0
-8049 451 0
-511 -451 8049 0
-8050 515 0
-8050 523 0
-515 -523 8050 0
-8051 517 0
-8051 559 0
-517 -559 8051 0
-8052 519 0
-8052 595 0
-519 -595 8052 0
-8053 521 0
-8053 631 0
-521 -631 8053 0
-8037 -8038 0
-8037 -8039 0
-8037 -8040 0
-8037 -8041 0
-8037 -8042 0
-8037 -8043 0
-8037 -8044 0
-8037 -8045 0
-8037 -8046 0
-8037 -8047 0
-8037 -8048 0
-8037 -8049 0
-8037 -8050 0
-8037 -8051 0
-8037 -8052 0
-8037 -8053 0
-487 8037 8038 8039 8040 8041 8042 8043 8044 8045 8046 8047 8048 8049 8050 8051 8052 8053 0
-8054 489 0
-8055 487 0
-8055 4 0
-487 -4 8055 0
-8056 491 0
-8056 93 0
-491 -93 8056 0
-8057 493 0
-8057 129 0
-493 -129 8057 0
-8058 495 0
-8058 165 0
-495 -165 8058 0
-8059 497 0
-8059 201 0
-497 -201 8059 0
-8060 499 0
-8060 237 0
-499 -237 8060 0
-8061 501 0
-8061 273 0
-501 -273 8061 0
-8062 503 0
-8062 309 0
-503 -309 8062 0
-8063 505 0
-8063 345 0
-505 -345 8063 0
-8064 507 0
-8064 381 0
-507 -381 8064 0
-8065 509 0
-8065 417 0
-509 -417 8065 0
-8066 511 0
-8066 453 0
-511 -453 8066 0
-8067 515 0
-8067 525 0
-515 -525 8067 0
-8068 517 0
-8068 561 0
-517 -561 8068 0
-8069 519 0
-8069 597 0
-519 -597 8069 0
-8070 521 0
-8070 633 0
-521 -633 8070 0
-8054 -8055 0
-8054 -8056 0
-8054 -8057 0
-8054 -8058 0
-8054 -8059 0
-8054 -8060 0
-8054 -8061 0
-8054 -8062 0
-8054 -8063 0
-8054 -8064 0
-8054 -8065 0
-8054 -8066 0
-8054 -8067 0
-8054 -8068 0
-8054 -8069 0
-8054 -8070 0
-489 8054 8055 8056 8057 8058 8059 8060 8061 8062 8063 8064 8065 8066 8067 8068 8069 8070 0
-8071 491 0
-8072 487 0
-8072 7 0
-487 -7 8072 0
-8073 489 0
-8073 59 0
-489 -59 8073 0
-8074 493 0
-8074 131 0
-493 -131 8074 0
-8075 495 0
-8075 167 0
-495 -167 8075 0
-8076 497 0
-8076 203 0
-497 -203 8076 0
-8077 499 0
-8077 239 0
-499 -239 8077 0
-8078 501 0
-8078 275 0
-501 -275 8078 0
-8079 503 0
-8079 311 0
-503 -311 8079 0
-8080 505 0
-8080 347 0
-505 -347 8080 0
-8081 507 0
-8081 383 0
-507 -383 8081 0
-8082 509 0
-8082 419 0
-509 -419 8082 0
-8083 511 0
-8083 455 0
-511 -455 8083 0
-8084 515 0
-8084 527 0
-515 -527 8084 0
-8085 517 0
-8085 563 0
-517 -563 8085 0
-8086 519 0
-8086 599 0
-519 -599 8086 0
-8087 521 0
-8087 635 0
-521 -635 8087 0
-8071 -8072 0
-8071 -8073 0
-8071 -8074 0
-8071 -8075 0
-8071 -8076 0
-8071 -8077 0
-8071 -8078 0
-8071 -8079 0
-8071 -8080 0
-8071 -8081 0
-8071 -8082 0
-8071 -8083 0
-8071 -8084 0
-8071 -8085 0
-8071 -8086 0
-8071 -8087 0
-491 8071 8072 8073 8074 8075 8076 8077 8078 8079 8080 8081 8082 8083 8084 8085 8086 8087 0
-8088 493 0
-8089 487 0
-8089 10 0
-487 -10 8089 0
-8090 489 0
-8090 61 0
-489 -61 8090 0
-8091 491 0
-8091 97 0
-491 -97 8091 0
-8092 495 0
-8092 169 0
-495 -169 8092 0
-8093 497 0
-8093 205 0
-497 -205 8093 0
-8094 499 0
-8094 241 0
-499 -241 8094 0
-8095 501 0
-8095 277 0
-501 -277 8095 0
-8096 503 0
-8096 313 0
-503 -313 8096 0
-8097 505 0
-8097 349 0
-505 -349 8097 0
-8098 507 0
-8098 385 0
-507 -385 8098 0
-8099 509 0
-8099 421 0
-509 -421 8099 0
-8100 511 0
-8100 457 0
-511 -457 8100 0
-8101 515 0
-8101 529 0
-515 -529 8101 0
-8102 517 0
-8102 565 0
-517 -565 8102 0
-8103 519 0
-8103 601 0
-519 -601 8103 0
-8104 521 0
-8104 637 0
-521 -637 8104 0
-8088 -8089 0
-8088 -8090 0
-8088 -8091 0
-8088 -8092 0
-8088 -8093 0
-8088 -8094 0
-8088 -8095 0
-8088 -8096 0
-8088 -8097 0
-8088 -8098 0
-8088 -8099 0
-8088 -8100 0
-8088 -8101 0
-8088 -8102 0
-8088 -8103 0
-8088 -8104 0
-493 8088 8089 8090 8091 8092 8093 8094 8095 8096 8097 8098 8099 8100 8101 8102 8103 8104 0
-8105 495 0
-8106 487 0
-8106 13 0
-487 -13 8106 0
-8107 489 0
-8107 63 0
-489 -63 8107 0
-8108 491 0
-8108 99 0
-491 -99 8108 0
-8109 493 0
-8109 135 0
-493 -135 8109 0
-8110 497 0
-8110 207 0
-497 -207 8110 0
-8111 499 0
-8111 243 0
-499 -243 8111 0
-8112 501 0
-8112 279 0
-501 -279 8112 0
-8113 503 0
-8113 315 0
-503 -315 8113 0
-8114 505 0
-8114 351 0
-505 -351 8114 0
-8115 507 0
-8115 387 0
-507 -387 8115 0
-8116 509 0
-8116 423 0
-509 -423 8116 0
-8117 511 0
-8117 459 0
-511 -459 8117 0
-8118 515 0
-8118 531 0
-515 -531 8118 0
-8119 517 0
-8119 567 0
-517 -567 8119 0
-8120 519 0
-8120 603 0
-519 -603 8120 0
-8121 521 0
-8121 639 0
-521 -639 8121 0
-8105 -8106 0
-8105 -8107 0
-8105 -8108 0
-8105 -8109 0
-8105 -8110 0
-8105 -8111 0
-8105 -8112 0
-8105 -8113 0
-8105 -8114 0
-8105 -8115 0
-8105 -8116 0
-8105 -8117 0
-8105 -8118 0
-8105 -8119 0
-8105 -8120 0
-8105 -8121 0
-495 8105 8106 8107 8108 8109 8110 8111 8112 8113 8114 8115 8116 8117 8118 8119 8120 8121 0
-8122 497 0
-8123 487 0
-8123 16 0
-487 -16 8123 0
-8124 489 0
-8124 65 0
-489 -65 8124 0
-8125 491 0
-8125 101 0
-491 -101 8125 0
-8126 493 0
-8126 137 0
-493 -137 8126 0
-8127 495 0
-8127 173 0
-495 -173 8127 0
-8128 499 0
-8128 245 0
-499 -245 8128 0
-8129 501 0
-8129 281 0
-501 -281 8129 0
-8130 503 0
-8130 317 0
-503 -317 8130 0
-8131 505 0
-8131 353 0
-505 -353 8131 0
-8132 507 0
-8132 389 0
-507 -389 8132 0
-8133 509 0
-8133 425 0
-509 -425 8133 0
-8134 511 0
-8134 461 0
-511 -461 8134 0
-8135 515 0
-8135 533 0
-515 -533 8135 0
-8136 517 0
-8136 569 0
-517 -569 8136 0
-8137 519 0
-8137 605 0
-519 -605 8137 0
-8138 521 0
-8138 641 0
-521 -641 8138 0
-8122 -8123 0
-8122 -8124 0
-8122 -8125 0
-8122 -8126 0
-8122 -8127 0
-8122 -8128 0
-8122 -8129 0
-8122 -8130 0
-8122 -8131 0
-8122 -8132 0
-8122 -8133 0
-8122 -8134 0
-8122 -8135 0
-8122 -8136 0
-8122 -8137 0
-8122 -8138 0
-497 8122 8123 8124 8125 8126 8127 8128 8129 8130 8131 8132 8133 8134 8135 8136 8137 8138 0
-8139 499 0
-8140 487 0
-8140 19 0
-487 -19 8140 0
-8141 489 0
-8141 67 0
-489 -67 8141 0
-8142 491 0
-8142 103 0
-491 -103 8142 0
-8143 493 0
-8143 139 0
-493 -139 8143 0
-8144 495 0
-8144 175 0
-495 -175 8144 0
-8145 497 0
-8145 211 0
-497 -211 8145 0
-8146 501 0
-8146 283 0
-501 -283 8146 0
-8147 503 0
-8147 319 0
-503 -319 8147 0
-8148 505 0
-8148 355 0
-505 -355 8148 0
-8149 507 0
-8149 391 0
-507 -391 8149 0
-8150 509 0
-8150 427 0
-509 -427 8150 0
-8151 511 0
-8151 463 0
-511 -463 8151 0
-8152 515 0
-8152 535 0
-515 -535 8152 0
-8153 517 0
-8153 571 0
-517 -571 8153 0
-8154 519 0
-8154 607 0
-519 -607 8154 0
-8155 521 0
-8155 643 0
-521 -643 8155 0
-8139 -8140 0
-8139 -8141 0
-8139 -8142 0
-8139 -8143 0
-8139 -8144 0
-8139 -8145 0
-8139 -8146 0
-8139 -8147 0
-8139 -8148 0
-8139 -8149 0
-8139 -8150 0
-8139 -8151 0
-8139 -8152 0
-8139 -8153 0
-8139 -8154 0
-8139 -8155 0
-499 8139 8140 8141 8142 8143 8144 8145 8146 8147 8148 8149 8150 8151 8152 8153 8154 8155 0
-8156 501 0
-8157 487 0
-8157 22 0
-487 -22 8157 0
-8158 489 0
-8158 69 0
-489 -69 8158 0
-8159 491 0
-8159 105 0
-491 -105 8159 0
-8160 493 0
-8160 141 0
-493 -141 8160 0
-8161 495 0
-8161 177 0
-495 -177 8161 0
-8162 497 0
-8162 213 0
-497 -213 8162 0
-8163 499 0
-8163 249 0
-499 -249 8163 0
-8164 503 0
-8164 321 0
-503 -321 8164 0
-8165 505 0
-8165 357 0
-505 -357 8165 0
-8166 507 0
-8166 393 0
-507 -393 8166 0
-8167 509 0
-8167 429 0
-509 -429 8167 0
-8168 511 0
-8168 465 0
-511 -465 8168 0
-8169 515 0
-8169 537 0
-515 -537 8169 0
-8170 517 0
-8170 573 0
-517 -573 8170 0
-8171 519 0
-8171 609 0
-519 -609 8171 0
-8172 521 0
-8172 645 0
-521 -645 8172 0
-8156 -8157 0
-8156 -8158 0
-8156 -8159 0
-8156 -8160 0
-8156 -8161 0
-8156 -8162 0
-8156 -8163 0
-8156 -8164 0
-8156 -8165 0
-8156 -8166 0
-8156 -8167 0
-8156 -8168 0
-8156 -8169 0
-8156 -8170 0
-8156 -8171 0
-8156 -8172 0
-501 8156 8157 8158 8159 8160 8161 8162 8163 8164 8165 8166 8167 8168 8169 8170 8171 8172 0
-8173 503 0
-8174 487 0
-8174 25 0
-487 -25 8174 0
-8175 489 0
-8175 71 0
-489 -71 8175 0
-8176 491 0
-8176 107 0
-491 -107 8176 0
-8177 493 0
-8177 143 0
-493 -143 8177 0
-8178 495 0
-8178 179 0
-495 -179 8178 0
-8179 497 0
-8179 215 0
-497 -215 8179 0
-8180 499 0
-8180 251 0
-499 -251 8180 0
-8181 501 0
-8181 287 0
-501 -287 8181 0
-8182 505 0
-8182 359 0
-505 -359 8182 0
-8183 507 0
-8183 395 0
-507 -395 8183 0
-8184 509 0
-8184 431 0
-509 -431 8184 0
-8185 511 0
-8185 467 0
-511 -467 8185 0
-8186 515 0
-8186 539 0
-515 -539 8186 0
-8187 517 0
-8187 575 0
-517 -575 8187 0
-8188 519 0
-8188 611 0
-519 -611 8188 0
-8189 521 0
-8189 647 0
-521 -647 8189 0
-8173 -8174 0
-8173 -8175 0
-8173 -8176 0
-8173 -8177 0
-8173 -8178 0
-8173 -8179 0
-8173 -8180 0
-8173 -8181 0
-8173 -8182 0
-8173 -8183 0
-8173 -8184 0
-8173 -8185 0
-8173 -8186 0
-8173 -8187 0
-8173 -8188 0
-8173 -8189 0
-503 8173 8174 8175 8176 8177 8178 8179 8180 8181 8182 8183 8184 8185 8186 8187 8188 8189 0
-8190 505 0
-8191 487 0
-8191 28 0
-487 -28 8191 0
-8192 489 0
-8192 73 0
-489 -73 8192 0
-8193 491 0
-8193 109 0
-491 -109 8193 0
-8194 493 0
-8194 145 0
-493 -145 8194 0
-8195 495 0
-8195 181 0
-495 -181 8195 0
-8196 497 0
-8196 217 0
-497 -217 8196 0
-8197 499 0
-8197 253 0
-499 -253 8197 0
-8198 501 0
-8198 289 0
-501 -289 8198 0
-8199 503 0
-8199 325 0
-503 -325 8199 0
-8200 507 0
-8200 397 0
-507 -397 8200 0
-8201 509 0
-8201 433 0
-509 -433 8201 0
-8202 511 0
-8202 469 0
-511 -469 8202 0
-8203 515 0
-8203 541 0
-515 -541 8203 0
-8204 517 0
-8204 577 0
-517 -577 8204 0
-8205 519 0
-8205 613 0
-519 -613 8205 0
-8206 521 0
-8206 649 0
-521 -649 8206 0
-8190 -8191 0
-8190 -8192 0
-8190 -8193 0
-8190 -8194 0
-8190 -8195 0
-8190 -8196 0
-8190 -8197 0
-8190 -8198 0
-8190 -8199 0
-8190 -8200 0
-8190 -8201 0
-8190 -8202 0
-8190 -8203 0
-8190 -8204 0
-8190 -8205 0
-8190 -8206 0
-505 8190 8191 8192 8193 8194 8195 8196 8197 8198 8199 8200 8201 8202 8203 8204 8205 8206 0
-8207 507 0
-8208 487 0
-8208 31 0
-487 -31 8208 0
-8209 489 0
-8209 75 0
-489 -75 8209 0
-8210 491 0
-8210 111 0
-491 -111 8210 0
-8211 493 0
-8211 147 0
-493 -147 8211 0
-8212 495 0
-8212 183 0
-495 -183 8212 0
-8213 497 0
-8213 219 0
-497 -219 8213 0
-8214 499 0
-8214 255 0
-499 -255 8214 0
-8215 501 0
-8215 291 0
-501 -291 8215 0
-8216 503 0
-8216 327 0
-503 -327 8216 0
-8217 505 0
-8217 363 0
-505 -363 8217 0
-8218 509 0
-8218 435 0
-509 -435 8218 0
-8219 511 0
-8219 471 0
-511 -471 8219 0
-8220 515 0
-8220 543 0
-515 -543 8220 0
-8221 517 0
-8221 579 0
-517 -579 8221 0
-8222 519 0
-8222 615 0
-519 -615 8222 0
-8223 521 0
-8223 651 0
-521 -651 8223 0
-8207 -8208 0
-8207 -8209 0
-8207 -8210 0
-8207 -8211 0
-8207 -8212 0
-8207 -8213 0
-8207 -8214 0
-8207 -8215 0
-8207 -8216 0
-8207 -8217 0
-8207 -8218 0
-8207 -8219 0
-8207 -8220 0
-8207 -8221 0
-8207 -8222 0
-8207 -8223 0
-507 8207 8208 8209 8210 8211 8212 8213 8214 8215 8216 8217 8218 8219 8220 8221 8222 8223 0
-8224 509 0
-8225 487 0
-8225 34 0
-487 -34 8225 0
-8226 489 0
-8226 77 0
-489 -77 8226 0
-8227 491 0
-8227 113 0
-491 -113 8227 0
-8228 493 0
-8228 149 0
-493 -149 8228 0
-8229 495 0
-8229 185 0
-495 -185 8229 0
-8230 497 0
-8230 221 0
-497 -221 8230 0
-8231 499 0
-8231 257 0
-499 -257 8231 0
-8232 501 0
-8232 293 0
-501 -293 8232 0
-8233 503 0
-8233 329 0
-503 -329 8233 0
-8234 505 0
-8234 365 0
-505 -365 8234 0
-8235 507 0
-8235 401 0
-507 -401 8235 0
-8236 511 0
-8236 473 0
-511 -473 8236 0
-8237 515 0
-8237 545 0
-515 -545 8237 0
-8238 517 0
-8238 581 0
-517 -581 8238 0
-8239 519 0
-8239 617 0
-519 -617 8239 0
-8240 521 0
-8240 653 0
-521 -653 8240 0
-8224 -8225 0
-8224 -8226 0
-8224 -8227 0
-8224 -8228 0
-8224 -8229 0
-8224 -8230 0
-8224 -8231 0
-8224 -8232 0
-8224 -8233 0
-8224 -8234 0
-8224 -8235 0
-8224 -8236 0
-8224 -8237 0
-8224 -8238 0
-8224 -8239 0
-8224 -8240 0
-509 8224 8225 8226 8227 8228 8229 8230 8231 8232 8233 8234 8235 8236 8237 8238 8239 8240 0
-8241 511 0
-8242 487 0
-8242 37 0
-487 -37 8242 0
-8243 489 0
-8243 79 0
-489 -79 8243 0
-8244 491 0
-8244 115 0
-491 -115 8244 0
-8245 493 0
-8245 151 0
-493 -151 8245 0
-8246 495 0
-8246 187 0
-495 -187 8246 0
-8247 497 0
-8247 223 0
-497 -223 8247 0
-8248 499 0
-8248 259 0
-499 -259 8248 0
-8249 501 0
-8249 295 0
-501 -295 8249 0
-8250 503 0
-8250 331 0
-503 -331 8250 0
-8251 505 0
-8251 367 0
-505 -367 8251 0
-8252 507 0
-8252 403 0
-507 -403 8252 0
-8253 509 0
-8253 439 0
-509 -439 8253 0
-8254 515 0
-8254 547 0
-515 -547 8254 0
-8255 517 0
-8255 583 0
-517 -583 8255 0
-8256 519 0
-8256 619 0
-519 -619 8256 0
-8257 521 0
-8257 655 0
-521 -655 8257 0
-8241 -8242 0
-8241 -8243 0
-8241 -8244 0
-8241 -8245 0
-8241 -8246 0
-8241 -8247 0
-8241 -8248 0
-8241 -8249 0
-8241 -8250 0
-8241 -8251 0
-8241 -8252 0
-8241 -8253 0
-8241 -8254 0
-8241 -8255 0
-8241 -8256 0
-8241 -8257 0
-511 8241 8242 8243 8244 8245 8246 8247 8248 8249 8250 8251 8252 8253 8254 8255 8256 8257 0
-8258 0
-8259 515 0
-8260 487 0
-8260 43 0
-487 -43 8260 0
-8261 489 0
-8261 83 0
-489 -83 8261 0
-8262 491 0
-8262 119 0
-491 -119 8262 0
-8263 493 0
-8263 155 0
-493 -155 8263 0
-8264 495 0
-8264 191 0
-495 -191 8264 0
-8265 497 0
-8265 227 0
-497 -227 8265 0
-8266 499 0
-8266 263 0
-499 -263 8266 0
-8267 501 0
-8267 299 0
-501 -299 8267 0
-8268 503 0
-8268 335 0
-503 -335 8268 0
-8269 505 0
-8269 371 0
-505 -371 8269 0
-8270 507 0
-8270 407 0
-507 -407 8270 0
-8271 509 0
-8271 443 0
-509 -443 8271 0
-8272 511 0
-8272 479 0
-511 -479 8272 0
-8273 517 0
-8273 587 0
-517 -587 8273 0
-8274 519 0
-8274 623 0
-519 -623 8274 0
-8275 521 0
-8275 659 0
-521 -659 8275 0
-8259 -8260 0
-8259 -8261 0
-8259 -8262 0
-8259 -8263 0
-8259 -8264 0
-8259 -8265 0
-8259 -8266 0
-8259 -8267 0
-8259 -8268 0
-8259 -8269 0
-8259 -8270 0
-8259 -8271 0
-8259 -8272 0
-8259 -8273 0
-8259 -8274 0
-8259 -8275 0
-515 8259 8260 8261 8262 8263 8264 8265 8266 8267 8268 8269 8270 8271 8272 8273 8274 8275 0
-8276 517 0
-8277 487 0
-8277 46 0
-487 -46 8277 0
-8278 489 0
-8278 85 0
-489 -85 8278 0
-8279 491 0
-8279 121 0
-491 -121 8279 0
-8280 493 0
-8280 157 0
-493 -157 8280 0
-8281 495 0
-8281 193 0
-495 -193 8281 0
-8282 497 0
-8282 229 0
-497 -229 8282 0
-8283 499 0
-8283 265 0
-499 -265 8283 0
-8284 501 0
-8284 301 0
-501 -301 8284 0
-8285 503 0
-8285 337 0
-503 -337 8285 0
-8286 505 0
-8286 373 0
-505 -373 8286 0
-8287 507 0
-8287 409 0
-507 -409 8287 0
-8288 509 0
-8288 445 0
-509 -445 8288 0
-8289 511 0
-8289 481 0
-511 -481 8289 0
-8290 515 0
-8290 553 0
-515 -553 8290 0
-8291 519 0
-8291 625 0
-519 -625 8291 0
-8292 521 0
-8292 661 0
-521 -661 8292 0
-8276 -8277 0
-8276 -8278 0
-8276 -8279 0
-8276 -8280 0
-8276 -8281 0
-8276 -8282 0
-8276 -8283 0
-8276 -8284 0
-8276 -8285 0
-8276 -8286 0
-8276 -8287 0
-8276 -8288 0
-8276 -8289 0
-8276 -8290 0
-8276 -8291 0
-8276 -8292 0
-517 8276 8277 8278 8279 8280 8281 8282 8283 8284 8285 8286 8287 8288 8289 8290 8291 8292 0
-8293 519 0
-8294 487 0
-8294 49 0
-487 -49 8294 0
-8295 489 0
-8295 87 0
-489 -87 8295 0
-8296 491 0
-8296 123 0
-491 -123 8296 0
-8297 493 0
-8297 159 0
-493 -159 8297 0
-8298 495 0
-8298 195 0
-495 -195 8298 0
-8299 497 0
-8299 231 0
-497 -231 8299 0
-8300 499 0
-8300 267 0
-499 -267 8300 0
-8301 501 0
-8301 303 0
-501 -303 8301 0
-8302 503 0
-8302 339 0
-503 -339 8302 0
-8303 505 0
-8303 375 0
-505 -375 8303 0
-8304 507 0
-8304 411 0
-507 -411 8304 0
-8305 509 0
-8305 447 0
-509 -447 8305 0
-8306 511 0
-8306 483 0
-511 -483 8306 0
-8307 515 0
-8307 555 0
-515 -555 8307 0
-8308 517 0
-8308 591 0
-517 -591 8308 0
-8309 521 0
-8309 663 0
-521 -663 8309 0
-8293 -8294 0
-8293 -8295 0
-8293 -8296 0
-8293 -8297 0
-8293 -8298 0
-8293 -8299 0
-8293 -8300 0
-8293 -8301 0
-8293 -8302 0
-8293 -8303 0
-8293 -8304 0
-8293 -8305 0
-8293 -8306 0
-8293 -8307 0
-8293 -8308 0
-8293 -8309 0
-519 8293 8294 8295 8296 8297 8298 8299 8300 8301 8302 8303 8304 8305 8306 8307 8308 8309 0
-8310 521 0
-8311 487 0
-8311 52 0
-487 -52 8311 0
-8312 489 0
-8312 89 0
-489 -89 8312 0
-8313 491 0
-8313 125 0
-491 -125 8313 0
-8314 493 0
-8314 161 0
-493 -161 8314 0
-8315 495 0
-8315 197 0
-495 -197 8315 0
-8316 497 0
-8316 233 0
-497 -233 8316 0
-8317 499 0
-8317 269 0
-499 -269 8317 0
-8318 501 0
-8318 305 0
-501 -305 8318 0
-8319 503 0
-8319 341 0
-503 -341 8319 0
-8320 505 0
-8320 377 0
-505 -377 8320 0
-8321 507 0
-8321 413 0
-507 -413 8321 0
-8322 509 0
-8322 449 0
-509 -449 8322 0
-8323 511 0
-8323 485 0
-511 -485 8323 0
-8324 515 0
-8324 557 0
-515 -557 8324 0
-8325 517 0
-8325 593 0
-517 -593 8325 0
-8326 519 0
-8326 629 0
-519 -629 8326 0
-8310 -8311 0
-8310 -8312 0
-8310 -8313 0
-8310 -8314 0
-8310 -8315 0
-8310 -8316 0
-8310 -8317 0
-8310 -8318 0
-8310 -8319 0
-8310 -8320 0
-8310 -8321 0
-8310 -8322 0
-8310 -8323 0
-8310 -8324 0
-8310 -8325 0
-8310 -8326 0
-521 8310 8311 8312 8313 8314 8315 8316 8317 8318 8319 8320 8321 8322 8323 8324 8325 8326 0
-8327 523 0
-8328 525 0
-8328 55 0
-525 -55 8328 0
-8329 527 0
-8329 91 0
-527 -91 8329 0
-8330 529 0
-8330 127 0
-529 -127 8330 0
-8331 531 0
-8331 163 0
-531 -163 8331 0
-8332 533 0
-8332 199 0
-533 -199 8332 0
-8333 535 0
-8333 235 0
-535 -235 8333 0
-8334 537 0
-8334 271 0
-537 -271 8334 0
-8335 539 0
-8335 307 0
-539 -307 8335 0
-8336 541 0
-8336 343 0
-541 -343 8336 0
-8337 543 0
-8337 379 0
-543 -379 8337 0
-8338 545 0
-8338 415 0
-545 -415 8338 0
-8339 547 0
-8339 451 0
-547 -451 8339 0
-8340 549 0
-8340 487 0
-549 -487 8340 0
-8341 553 0
-8341 559 0
-553 -559 8341 0
-8342 555 0
-8342 595 0
-555 -595 8342 0
-8343 557 0
-8343 631 0
-557 -631 8343 0
-8327 -8328 0
-8327 -8329 0
-8327 -8330 0
-8327 -8331 0
-8327 -8332 0
-8327 -8333 0
-8327 -8334 0
-8327 -8335 0
-8327 -8336 0
-8327 -8337 0
-8327 -8338 0
-8327 -8339 0
-8327 -8340 0
-8327 -8341 0
-8327 -8342 0
-8327 -8343 0
-523 8327 8328 8329 8330 8331 8332 8333 8334 8335 8336 8337 8338 8339 8340 8341 8342 8343 0
-8344 525 0
-8345 523 0
-8345 4 0
-523 -4 8345 0
-8346 527 0
-8346 93 0
-527 -93 8346 0
-8347 529 0
-8347 129 0
-529 -129 8347 0
-8348 531 0
-8348 165 0
-531 -165 8348 0
-8349 533 0
-8349 201 0
-533 -201 8349 0
-8350 535 0
-8350 237 0
-535 -237 8350 0
-8351 537 0
-8351 273 0
-537 -273 8351 0
-8352 539 0
-8352 309 0
-539 -309 8352 0
-8353 541 0
-8353 345 0
-541 -345 8353 0
-8354 543 0
-8354 381 0
-543 -381 8354 0
-8355 545 0
-8355 417 0
-545 -417 8355 0
-8356 547 0
-8356 453 0
-547 -453 8356 0
-8357 549 0
-8357 489 0
-549 -489 8357 0
-8358 553 0
-8358 561 0
-553 -561 8358 0
-8359 555 0
-8359 597 0
-555 -597 8359 0
-8360 557 0
-8360 633 0
-557 -633 8360 0
-8344 -8345 0
-8344 -8346 0
-8344 -8347 0
-8344 -8348 0
-8344 -8349 0
-8344 -8350 0
-8344 -8351 0
-8344 -8352 0
-8344 -8353 0
-8344 -8354 0
-8344 -8355 0
-8344 -8356 0
-8344 -8357 0
-8344 -8358 0
-8344 -8359 0
-8344 -8360 0
-525 8344 8345 8346 8347 8348 8349 8350 8351 8352 8353 8354 8355 8356 8357 8358 8359 8360 0
-8361 527 0
-8362 523 0
-8362 7 0
-523 -7 8362 0
-8363 525 0
-8363 59 0
-525 -59 8363 0
-8364 529 0
-8364 131 0
-529 -131 8364 0
-8365 531 0
-8365 167 0
-531 -167 8365 0
-8366 533 0
-8366 203 0
-533 -203 8366 0
-8367 535 0
-8367 239 0
-535 -239 8367 0
-8368 537 0
-8368 275 0
-537 -275 8368 0
-8369 539 0
-8369 311 0
-539 -311 8369 0
-8370 541 0
-8370 347 0
-541 -347 8370 0
-8371 543 0
-8371 383 0
-543 -383 8371 0
-8372 545 0
-8372 419 0
-545 -419 8372 0
-8373 547 0
-8373 455 0
-547 -455 8373 0
-8374 549 0
-8374 491 0
-549 -491 8374 0
-8375 553 0
-8375 563 0
-553 -563 8375 0
-8376 555 0
-8376 599 0
-555 -599 8376 0
-8377 557 0
-8377 635 0
-557 -635 8377 0
-8361 -8362 0
-8361 -8363 0
-8361 -8364 0
-8361 -8365 0
-8361 -8366 0
-8361 -8367 0
-8361 -8368 0
-8361 -8369 0
-8361 -8370 0
-8361 -8371 0
-8361 -8372 0
-8361 -8373 0
-8361 -8374 0
-8361 -8375 0
-8361 -8376 0
-8361 -8377 0
-527 8361 8362 8363 8364 8365 8366 8367 8368 8369 8370 8371 8372 8373 8374 8375 8376 8377 0
-8378 529 0
-8379 523 0
-8379 10 0
-523 -10 8379 0
-8380 525 0
-8380 61 0
-525 -61 8380 0
-8381 527 0
-8381 97 0
-527 -97 8381 0
-8382 531 0
-8382 169 0
-531 -169 8382 0
-8383 533 0
-8383 205 0
-533 -205 8383 0
-8384 535 0
-8384 241 0
-535 -241 8384 0
-8385 537 0
-8385 277 0
-537 -277 8385 0
-8386 539 0
-8386 313 0
-539 -313 8386 0
-8387 541 0
-8387 349 0
-541 -349 8387 0
-8388 543 0
-8388 385 0
-543 -385 8388 0
-8389 545 0
-8389 421 0
-545 -421 8389 0
-8390 547 0
-8390 457 0
-547 -457 8390 0
-8391 549 0
-8391 493 0
-549 -493 8391 0
-8392 553 0
-8392 565 0
-553 -565 8392 0
-8393 555 0
-8393 601 0
-555 -601 8393 0
-8394 557 0
-8394 637 0
-557 -637 8394 0
-8378 -8379 0
-8378 -8380 0
-8378 -8381 0
-8378 -8382 0
-8378 -8383 0
-8378 -8384 0
-8378 -8385 0
-8378 -8386 0
-8378 -8387 0
-8378 -8388 0
-8378 -8389 0
-8378 -8390 0
-8378 -8391 0
-8378 -8392 0
-8378 -8393 0
-8378 -8394 0
-529 8378 8379 8380 8381 8382 8383 8384 8385 8386 8387 8388 8389 8390 8391 8392 8393 8394 0
-8395 531 0
-8396 523 0
-8396 13 0
-523 -13 8396 0
-8397 525 0
-8397 63 0
-525 -63 8397 0
-8398 527 0
-8398 99 0
-527 -99 8398 0
-8399 529 0
-8399 135 0
-529 -135 8399 0
-8400 533 0
-8400 207 0
-533 -207 8400 0
-8401 535 0
-8401 243 0
-535 -243 8401 0
-8402 537 0
-8402 279 0
-537 -279 8402 0
-8403 539 0
-8403 315 0
-539 -315 8403 0
-8404 541 0
-8404 351 0
-541 -351 8404 0
-8405 543 0
-8405 387 0
-543 -387 8405 0
-8406 545 0
-8406 423 0
-545 -423 8406 0
-8407 547 0
-8407 459 0
-547 -459 8407 0
-8408 549 0
-8408 495 0
-549 -495 8408 0
-8409 553 0
-8409 567 0
-553 -567 8409 0
-8410 555 0
-8410 603 0
-555 -603 8410 0
-8411 557 0
-8411 639 0
-557 -639 8411 0
-8395 -8396 0
-8395 -8397 0
-8395 -8398 0
-8395 -8399 0
-8395 -8400 0
-8395 -8401 0
-8395 -8402 0
-8395 -8403 0
-8395 -8404 0
-8395 -8405 0
-8395 -8406 0
-8395 -8407 0
-8395 -8408 0
-8395 -8409 0
-8395 -8410 0
-8395 -8411 0
-531 8395 8396 8397 8398 8399 8400 8401 8402 8403 8404 8405 8406 8407 8408 8409 8410 8411 0
-8412 533 0
-8413 523 0
-8413 16 0
-523 -16 8413 0
-8414 525 0
-8414 65 0
-525 -65 8414 0
-8415 527 0
-8415 101 0
-527 -101 8415 0
-8416 529 0
-8416 137 0
-529 -137 8416 0
-8417 531 0
-8417 173 0
-531 -173 8417 0
-8418 535 0
-8418 245 0
-535 -245 8418 0
-8419 537 0
-8419 281 0
-537 -281 8419 0
-8420 539 0
-8420 317 0
-539 -317 8420 0
-8421 541 0
-8421 353 0
-541 -353 8421 0
-8422 543 0
-8422 389 0
-543 -389 8422 0
-8423 545 0
-8423 425 0
-545 -425 8423 0
-8424 547 0
-8424 461 0
-547 -461 8424 0
-8425 549 0
-8425 497 0
-549 -497 8425 0
-8426 553 0
-8426 569 0
-553 -569 8426 0
-8427 555 0
-8427 605 0
-555 -605 8427 0
-8428 557 0
-8428 641 0
-557 -641 8428 0
-8412 -8413 0
-8412 -8414 0
-8412 -8415 0
-8412 -8416 0
-8412 -8417 0
-8412 -8418 0
-8412 -8419 0
-8412 -8420 0
-8412 -8421 0
-8412 -8422 0
-8412 -8423 0
-8412 -8424 0
-8412 -8425 0
-8412 -8426 0
-8412 -8427 0
-8412 -8428 0
-533 8412 8413 8414 8415 8416 8417 8418 8419 8420 8421 8422 8423 8424 8425 8426 8427 8428 0
-8429 535 0
-8430 523 0
-8430 19 0
-523 -19 8430 0
-8431 525 0
-8431 67 0
-525 -67 8431 0
-8432 527 0
-8432 103 0
-527 -103 8432 0
-8433 529 0
-8433 139 0
-529 -139 8433 0
-8434 531 0
-8434 175 0
-531 -175 8434 0
-8435 533 0
-8435 211 0
-533 -211 8435 0
-8436 537 0
-8436 283 0
-537 -283 8436 0
-8437 539 0
-8437 319 0
-539 -319 8437 0
-8438 541 0
-8438 355 0
-541 -355 8438 0
-8439 543 0
-8439 391 0
-543 -391 8439 0
-8440 545 0
-8440 427 0
-545 -427 8440 0
-8441 547 0
-8441 463 0
-547 -463 8441 0
-8442 549 0
-8442 499 0
-549 -499 8442 0
-8443 553 0
-8443 571 0
-553 -571 8443 0
-8444 555 0
-8444 607 0
-555 -607 8444 0
-8445 557 0
-8445 643 0
-557 -643 8445 0
-8429 -8430 0
-8429 -8431 0
-8429 -8432 0
-8429 -8433 0
-8429 -8434 0
-8429 -8435 0
-8429 -8436 0
-8429 -8437 0
-8429 -8438 0
-8429 -8439 0
-8429 -8440 0
-8429 -8441 0
-8429 -8442 0
-8429 -8443 0
-8429 -8444 0
-8429 -8445 0
-535 8429 8430 8431 8432 8433 8434 8435 8436 8437 8438 8439 8440 8441 8442 8443 8444 8445 0
-8446 537 0
-8447 523 0
-8447 22 0
-523 -22 8447 0
-8448 525 0
-8448 69 0
-525 -69 8448 0
-8449 527 0
-8449 105 0
-527 -105 8449 0
-8450 529 0
-8450 141 0
-529 -141 8450 0
-8451 531 0
-8451 177 0
-531 -177 8451 0
-8452 533 0
-8452 213 0
-533 -213 8452 0
-8453 535 0
-8453 249 0
-535 -249 8453 0
-8454 539 0
-8454 321 0
-539 -321 8454 0
-8455 541 0
-8455 357 0
-541 -357 8455 0
-8456 543 0
-8456 393 0
-543 -393 8456 0
-8457 545 0
-8457 429 0
-545 -429 8457 0
-8458 547 0
-8458 465 0
-547 -465 8458 0
-8459 549 0
-8459 501 0
-549 -501 8459 0
-8460 553 0
-8460 573 0
-553 -573 8460 0
-8461 555 0
-8461 609 0
-555 -609 8461 0
-8462 557 0
-8462 645 0
-557 -645 8462 0
-8446 -8447 0
-8446 -8448 0
-8446 -8449 0
-8446 -8450 0
-8446 -8451 0
-8446 -8452 0
-8446 -8453 0
-8446 -8454 0
-8446 -8455 0
-8446 -8456 0
-8446 -8457 0
-8446 -8458 0
-8446 -8459 0
-8446 -8460 0
-8446 -8461 0
-8446 -8462 0
-537 8446 8447 8448 8449 8450 8451 8452 8453 8454 8455 8456 8457 8458 8459 8460 8461 8462 0
-8463 539 0
-8464 523 0
-8464 25 0
-523 -25 8464 0
-8465 525 0
-8465 71 0
-525 -71 8465 0
-8466 527 0
-8466 107 0
-527 -107 8466 0
-8467 529 0
-8467 143 0
-529 -143 8467 0
-8468 531 0
-8468 179 0
-531 -179 8468 0
-8469 533 0
-8469 215 0
-533 -215 8469 0
-8470 535 0
-8470 251 0
-535 -251 8470 0
-8471 537 0
-8471 287 0
-537 -287 8471 0
-8472 541 0
-8472 359 0
-541 -359 8472 0
-8473 543 0
-8473 395 0
-543 -395 8473 0
-8474 545 0
-8474 431 0
-545 -431 8474 0
-8475 547 0
-8475 467 0
-547 -467 8475 0
-8476 549 0
-8476 503 0
-549 -503 8476 0
-8477 553 0
-8477 575 0
-553 -575 8477 0
-8478 555 0
-8478 611 0
-555 -611 8478 0
-8479 557 0
-8479 647 0
-557 -647 8479 0
-8463 -8464 0
-8463 -8465 0
-8463 -8466 0
-8463 -8467 0
-8463 -8468 0
-8463 -8469 0
-8463 -8470 0
-8463 -8471 0
-8463 -8472 0
-8463 -8473 0
-8463 -8474 0
-8463 -8475 0
-8463 -8476 0
-8463 -8477 0
-8463 -8478 0
-8463 -8479 0
-539 8463 8464 8465 8466 8467 8468 8469 8470 8471 8472 8473 8474 8475 8476 8477 8478 8479 0
-8480 541 0
-8481 523 0
-8481 28 0
-523 -28 8481 0
-8482 525 0
-8482 73 0
-525 -73 8482 0
-8483 527 0
-8483 109 0
-527 -109 8483 0
-8484 529 0
-8484 145 0
-529 -145 8484 0
-8485 531 0
-8485 181 0
-531 -181 8485 0
-8486 533 0
-8486 217 0
-533 -217 8486 0
-8487 535 0
-8487 253 0
-535 -253 8487 0
-8488 537 0
-8488 289 0
-537 -289 8488 0
-8489 539 0
-8489 325 0
-539 -325 8489 0
-8490 543 0
-8490 397 0
-543 -397 8490 0
-8491 545 0
-8491 433 0
-545 -433 8491 0
-8492 547 0
-8492 469 0
-547 -469 8492 0
-8493 549 0
-8493 505 0
-549 -505 8493 0
-8494 553 0
-8494 577 0
-553 -577 8494 0
-8495 555 0
-8495 613 0
-555 -613 8495 0
-8496 557 0
-8496 649 0
-557 -649 8496 0
-8480 -8481 0
-8480 -8482 0
-8480 -8483 0
-8480 -8484 0
-8480 -8485 0
-8480 -8486 0
-8480 -8487 0
-8480 -8488 0
-8480 -8489 0
-8480 -8490 0
-8480 -8491 0
-8480 -8492 0
-8480 -8493 0
-8480 -8494 0
-8480 -8495 0
-8480 -8496 0
-541 8480 8481 8482 8483 8484 8485 8486 8487 8488 8489 8490 8491 8492 8493 8494 8495 8496 0
-8497 543 0
-8498 523 0
-8498 31 0
-523 -31 8498 0
-8499 525 0
-8499 75 0
-525 -75 8499 0
-8500 527 0
-8500 111 0
-527 -111 8500 0
-8501 529 0
-8501 147 0
-529 -147 8501 0
-8502 531 0
-8502 183 0
-531 -183 8502 0
-8503 533 0
-8503 219 0
-533 -219 8503 0
-8504 535 0
-8504 255 0
-535 -255 8504 0
-8505 537 0
-8505 291 0
-537 -291 8505 0
-8506 539 0
-8506 327 0
-539 -327 8506 0
-8507 541 0
-8507 363 0
-541 -363 8507 0
-8508 545 0
-8508 435 0
-545 -435 8508 0
-8509 547 0
-8509 471 0
-547 -471 8509 0
-8510 549 0
-8510 507 0
-549 -507 8510 0
-8511 553 0
-8511 579 0
-553 -579 8511 0
-8512 555 0
-8512 615 0
-555 -615 8512 0
-8513 557 0
-8513 651 0
-557 -651 8513 0
-8497 -8498 0
-8497 -8499 0
-8497 -8500 0
-8497 -8501 0
-8497 -8502 0
-8497 -8503 0
-8497 -8504 0
-8497 -8505 0
-8497 -8506 0
-8497 -8507 0
-8497 -8508 0
-8497 -8509 0
-8497 -8510 0
-8497 -8511 0
-8497 -8512 0
-8497 -8513 0
-543 8497 8498 8499 8500 8501 8502 8503 8504 8505 8506 8507 8508 8509 8510 8511 8512 8513 0
-8514 545 0
-8515 523 0
-8515 34 0
-523 -34 8515 0
-8516 525 0
-8516 77 0
-525 -77 8516 0
-8517 527 0
-8517 113 0
-527 -113 8517 0
-8518 529 0
-8518 149 0
-529 -149 8518 0
-8519 531 0
-8519 185 0
-531 -185 8519 0
-8520 533 0
-8520 221 0
-533 -221 8520 0
-8521 535 0
-8521 257 0
-535 -257 8521 0
-8522 537 0
-8522 293 0
-537 -293 8522 0
-8523 539 0
-8523 329 0
-539 -329 8523 0
-8524 541 0
-8524 365 0
-541 -365 8524 0
-8525 543 0
-8525 401 0
-543 -401 8525 0
-8526 547 0
-8526 473 0
-547 -473 8526 0
-8527 549 0
-8527 509 0
-549 -509 8527 0
-8528 553 0
-8528 581 0
-553 -581 8528 0
-8529 555 0
-8529 617 0
-555 -617 8529 0
-8530 557 0
-8530 653 0
-557 -653 8530 0
-8514 -8515 0
-8514 -8516 0
-8514 -8517 0
-8514 -8518 0
-8514 -8519 0
-8514 -8520 0
-8514 -8521 0
-8514 -8522 0
-8514 -8523 0
-8514 -8524 0
-8514 -8525 0
-8514 -8526 0
-8514 -8527 0
-8514 -8528 0
-8514 -8529 0
-8514 -8530 0
-545 8514 8515 8516 8517 8518 8519 8520 8521 8522 8523 8524 8525 8526 8527 8528 8529 8530 0
-8531 547 0
-8532 523 0
-8532 37 0
-523 -37 8532 0
-8533 525 0
-8533 79 0
-525 -79 8533 0
-8534 527 0
-8534 115 0
-527 -115 8534 0
-8535 529 0
-8535 151 0
-529 -151 8535 0
-8536 531 0
-8536 187 0
-531 -187 8536 0
-8537 533 0
-8537 223 0
-533 -223 8537 0
-8538 535 0
-8538 259 0
-535 -259 8538 0
-8539 537 0
-8539 295 0
-537 -295 8539 0
-8540 539 0
-8540 331 0
-539 -331 8540 0
-8541 541 0
-8541 367 0
-541 -367 8541 0
-8542 543 0
-8542 403 0
-543 -403 8542 0
-8543 545 0
-8543 439 0
-545 -439 8543 0
-8544 549 0
-8544 511 0
-549 -511 8544 0
-8545 553 0
-8545 583 0
-553 -583 8545 0
-8546 555 0
-8546 619 0
-555 -619 8546 0
-8547 557 0
-8547 655 0
-557 -655 8547 0
-8531 -8532 0
-8531 -8533 0
-8531 -8534 0
-8531 -8535 0
-8531 -8536 0
-8531 -8537 0
-8531 -8538 0
-8531 -8539 0
-8531 -8540 0
-8531 -8541 0
-8531 -8542 0
-8531 -8543 0
-8531 -8544 0
-8531 -8545 0
-8531 -8546 0
-8531 -8547 0
-547 8531 8532 8533 8534 8535 8536 8537 8538 8539 8540 8541 8542 8543 8544 8545 8546 8547 0
-8548 549 0
-8549 523 0
-8549 40 0
-523 -40 8549 0
-8550 525 0
-8550 81 0
-525 -81 8550 0
-8551 527 0
-8551 117 0
-527 -117 8551 0
-8552 529 0
-8552 153 0
-529 -153 8552 0
-8553 531 0
-8553 189 0
-531 -189 8553 0
-8554 533 0
-8554 225 0
-533 -225 8554 0
-8555 535 0
-8555 261 0
-535 -261 8555 0
-8556 537 0
-8556 297 0
-537 -297 8556 0
-8557 539 0
-8557 333 0
-539 -333 8557 0
-8558 541 0
-8558 369 0
-541 -369 8558 0
-8559 543 0
-8559 405 0
-543 -405 8559 0
-8560 545 0
-8560 441 0
-545 -441 8560 0
-8561 547 0
-8561 477 0
-547 -477 8561 0
-8562 553 0
-8562 585 0
-553 -585 8562 0
-8563 555 0
-8563 621 0
-555 -621 8563 0
-8564 557 0
-8564 657 0
-557 -657 8564 0
-8548 -8549 0
-8548 -8550 0
-8548 -8551 0
-8548 -8552 0
-8548 -8553 0
-8548 -8554 0
-8548 -8555 0
-8548 -8556 0
-8548 -8557 0
-8548 -8558 0
-8548 -8559 0
-8548 -8560 0
-8548 -8561 0
-8548 -8562 0
-8548 -8563 0
-8548 -8564 0
-549 8548 8549 8550 8551 8552 8553 8554 8555 8556 8557 8558 8559 8560 8561 8562 8563 8564 0
-8565 0
-8566 553 0
-8567 523 0
-8567 46 0
-523 -46 8567 0
-8568 525 0
-8568 85 0
-525 -85 8568 0
-8569 527 0
-8569 121 0
-527 -121 8569 0
-8570 529 0
-8570 157 0
-529 -157 8570 0
-8571 531 0
-8571 193 0
-531 -193 8571 0
-8572 533 0
-8572 229 0
-533 -229 8572 0
-8573 535 0
-8573 265 0
-535 -265 8573 0
-8574 537 0
-8574 301 0
-537 -301 8574 0
-8575 539 0
-8575 337 0
-539 -337 8575 0
-8576 541 0
-8576 373 0
-541 -373 8576 0
-8577 543 0
-8577 409 0
-543 -409 8577 0
-8578 545 0
-8578 445 0
-545 -445 8578 0
-8579 547 0
-8579 481 0
-547 -481 8579 0
-8580 549 0
-8580 517 0
-549 -517 8580 0
-8581 555 0
-8581 625 0
-555 -625 8581 0
-8582 557 0
-8582 661 0
-557 -661 8582 0
-8566 -8567 0
-8566 -8568 0
-8566 -8569 0
-8566 -8570 0
-8566 -8571 0
-8566 -8572 0
-8566 -8573 0
-8566 -8574 0
-8566 -8575 0
-8566 -8576 0
-8566 -8577 0
-8566 -8578 0
-8566 -8579 0
-8566 -8580 0
-8566 -8581 0
-8566 -8582 0
-553 8566 8567 8568 8569 8570 8571 8572 8573 8574 8575 8576 8577 8578 8579 8580 8581 8582 0
-8583 555 0
-8584 523 0
-8584 49 0
-523 -49 8584 0
-8585 525 0
-8585 87 0
-525 -87 8585 0
-8586 527 0
-8586 123 0
-527 -123 8586 0
-8587 529 0
-8587 159 0
-529 -159 8587 0
-8588 531 0
-8588 195 0
-531 -195 8588 0
-8589 533 0
-8589 231 0
-533 -231 8589 0
-8590 535 0
-8590 267 0
-535 -267 8590 0
-8591 537 0
-8591 303 0
-537 -303 8591 0
-8592 539 0
-8592 339 0
-539 -339 8592 0
-8593 541 0
-8593 375 0
-541 -375 8593 0
-8594 543 0
-8594 411 0
-543 -411 8594 0
-8595 545 0
-8595 447 0
-545 -447 8595 0
-8596 547 0
-8596 483 0
-547 -483 8596 0
-8597 549 0
-8597 519 0
-549 -519 8597 0
-8598 553 0
-8598 591 0
-553 -591 8598 0
-8599 557 0
-8599 663 0
-557 -663 8599 0
-8583 -8584 0
-8583 -8585 0
-8583 -8586 0
-8583 -8587 0
-8583 -8588 0
-8583 -8589 0
-8583 -8590 0
-8583 -8591 0
-8583 -8592 0
-8583 -8593 0
-8583 -8594 0
-8583 -8595 0
-8583 -8596 0
-8583 -8597 0
-8583 -8598 0
-8583 -8599 0
-555 8583 8584 8585 8586 8587 8588 8589 8590 8591 8592 8593 8594 8595 8596 8597 8598 8599 0
-8600 557 0
-8601 523 0
-8601 52 0
-523 -52 8601 0
-8602 525 0
-8602 89 0
-525 -89 8602 0
-8603 527 0
-8603 125 0
-527 -125 8603 0
-8604 529 0
-8604 161 0
-529 -161 8604 0
-8605 531 0
-8605 197 0
-531 -197 8605 0
-8606 533 0
-8606 233 0
-533 -233 8606 0
-8607 535 0
-8607 269 0
-535 -269 8607 0
-8608 537 0
-8608 305 0
-537 -305 8608 0
-8609 539 0
-8609 341 0
-539 -341 8609 0
-8610 541 0
-8610 377 0
-541 -377 8610 0
-8611 543 0
-8611 413 0
-543 -413 8611 0
-8612 545 0
-8612 449 0
-545 -449 8612 0
-8613 547 0
-8613 485 0
-547 -485 8613 0
-8614 549 0
-8614 521 0
-549 -521 8614 0
-8615 553 0
-8615 593 0
-553 -593 8615 0
-8616 555 0
-8616 629 0
-555 -629 8616 0
-8600 -8601 0
-8600 -8602 0
-8600 -8603 0
-8600 -8604 0
-8600 -8605 0
-8600 -8606 0
-8600 -8607 0
-8600 -8608 0
-8600 -8609 0
-8600 -8610 0
-8600 -8611 0
-8600 -8612 0
-8600 -8613 0
-8600 -8614 0
-8600 -8615 0
-8600 -8616 0
-557 8600 8601 8602 8603 8604 8605 8606 8607 8608 8609 8610 8611 8612 8613 8614 8615 8616 0
-8617 559 0
-8618 561 0
-8618 55 0
-561 -55 8618 0
-8619 563 0
-8619 91 0
-563 -91 8619 0
-8620 565 0
-8620 127 0
-565 -127 8620 0
-8621 567 0
-8621 163 0
-567 -163 8621 0
-8622 569 0
-8622 199 0
-569 -199 8622 0
-8623 571 0
-8623 235 0
-571 -235 8623 0
-8624 573 0
-8624 271 0
-573 -271 8624 0
-8625 575 0
-8625 307 0
-575 -307 8625 0
-8626 577 0
-8626 343 0
-577 -343 8626 0
-8627 579 0
-8627 379 0
-579 -379 8627 0
-8628 581 0
-8628 415 0
-581 -415 8628 0
-8629 583 0
-8629 451 0
-583 -451 8629 0
-8630 585 0
-8630 487 0
-585 -487 8630 0
-8631 587 0
-8631 523 0
-587 -523 8631 0
-8632 591 0
-8632 595 0
-591 -595 8632 0
-8633 593 0
-8633 631 0
-593 -631 8633 0
-8617 -8618 0
-8617 -8619 0
-8617 -8620 0
-8617 -8621 0
-8617 -8622 0
-8617 -8623 0
-8617 -8624 0
-8617 -8625 0
-8617 -8626 0
-8617 -8627 0
-8617 -8628 0
-8617 -8629 0
-8617 -8630 0
-8617 -8631 0
-8617 -8632 0
-8617 -8633 0
-559 8617 8618 8619 8620 8621 8622 8623 8624 8625 8626 8627 8628 8629 8630 8631 8632 8633 0
-8634 561 0
-8635 559 0
-8635 4 0
-559 -4 8635 0
-8636 563 0
-8636 93 0
-563 -93 8636 0
-8637 565 0
-8637 129 0
-565 -129 8637 0
-8638 567 0
-8638 165 0
-567 -165 8638 0
-8639 569 0
-8639 201 0
-569 -201 8639 0
-8640 571 0
-8640 237 0
-571 -237 8640 0
-8641 573 0
-8641 273 0
-573 -273 8641 0
-8642 575 0
-8642 309 0
-575 -309 8642 0
-8643 577 0
-8643 345 0
-577 -345 8643 0
-8644 579 0
-8644 381 0
-579 -381 8644 0
-8645 581 0
-8645 417 0
-581 -417 8645 0
-8646 583 0
-8646 453 0
-583 -453 8646 0
-8647 585 0
-8647 489 0
-585 -489 8647 0
-8648 587 0
-8648 525 0
-587 -525 8648 0
-8649 591 0
-8649 597 0
-591 -597 8649 0
-8650 593 0
-8650 633 0
-593 -633 8650 0
-8634 -8635 0
-8634 -8636 0
-8634 -8637 0
-8634 -8638 0
-8634 -8639 0
-8634 -8640 0
-8634 -8641 0
-8634 -8642 0
-8634 -8643 0
-8634 -8644 0
-8634 -8645 0
-8634 -8646 0
-8634 -8647 0
-8634 -8648 0
-8634 -8649 0
-8634 -8650 0
-561 8634 8635 8636 8637 8638 8639 8640 8641 8642 8643 8644 8645 8646 8647 8648 8649 8650 0
-8651 563 0
-8652 559 0
-8652 7 0
-559 -7 8652 0
-8653 561 0
-8653 59 0
-561 -59 8653 0
-8654 565 0
-8654 131 0
-565 -131 8654 0
-8655 567 0
-8655 167 0
-567 -167 8655 0
-8656 569 0
-8656 203 0
-569 -203 8656 0
-8657 571 0
-8657 239 0
-571 -239 8657 0
-8658 573 0
-8658 275 0
-573 -275 8658 0
-8659 575 0
-8659 311 0
-575 -311 8659 0
-8660 577 0
-8660 347 0
-577 -347 8660 0
-8661 579 0
-8661 383 0
-579 -383 8661 0
-8662 581 0
-8662 419 0
-581 -419 8662 0
-8663 583 0
-8663 455 0
-583 -455 8663 0
-8664 585 0
-8664 491 0
-585 -491 8664 0
-8665 587 0
-8665 527 0
-587 -527 8665 0
-8666 591 0
-8666 599 0
-591 -599 8666 0
-8667 593 0
-8667 635 0
-593 -635 8667 0
-8651 -8652 0
-8651 -8653 0
-8651 -8654 0
-8651 -8655 0
-8651 -8656 0
-8651 -8657 0
-8651 -8658 0
-8651 -8659 0
-8651 -8660 0
-8651 -8661 0
-8651 -8662 0
-8651 -8663 0
-8651 -8664 0
-8651 -8665 0
-8651 -8666 0
-8651 -8667 0
-563 8651 8652 8653 8654 8655 8656 8657 8658 8659 8660 8661 8662 8663 8664 8665 8666 8667 0
-8668 565 0
-8669 559 0
-8669 10 0
-559 -10 8669 0
-8670 561 0
-8670 61 0
-561 -61 8670 0
-8671 563 0
-8671 97 0
-563 -97 8671 0
-8672 567 0
-8672 169 0
-567 -169 8672 0
-8673 569 0
-8673 205 0
-569 -205 8673 0
-8674 571 0
-8674 241 0
-571 -241 8674 0
-8675 573 0
-8675 277 0
-573 -277 8675 0
-8676 575 0
-8676 313 0
-575 -313 8676 0
-8677 577 0
-8677 349 0
-577 -349 8677 0
-8678 579 0
-8678 385 0
-579 -385 8678 0
-8679 581 0
-8679 421 0
-581 -421 8679 0
-8680 583 0
-8680 457 0
-583 -457 8680 0
-8681 585 0
-8681 493 0
-585 -493 8681 0
-8682 587 0
-8682 529 0
-587 -529 8682 0
-8683 591 0
-8683 601 0
-591 -601 8683 0
-8684 593 0
-8684 637 0
-593 -637 8684 0
-8668 -8669 0
-8668 -8670 0
-8668 -8671 0
-8668 -8672 0
-8668 -8673 0
-8668 -8674 0
-8668 -8675 0
-8668 -8676 0
-8668 -8677 0
-8668 -8678 0
-8668 -8679 0
-8668 -8680 0
-8668 -8681 0
-8668 -8682 0
-8668 -8683 0
-8668 -8684 0
-565 8668 8669 8670 8671 8672 8673 8674 8675 8676 8677 8678 8679 8680 8681 8682 8683 8684 0
-8685 567 0
-8686 559 0
-8686 13 0
-559 -13 8686 0
-8687 561 0
-8687 63 0
-561 -63 8687 0
-8688 563 0
-8688 99 0
-563 -99 8688 0
-8689 565 0
-8689 135 0
-565 -135 8689 0
-8690 569 0
-8690 207 0
-569 -207 8690 0
-8691 571 0
-8691 243 0
-571 -243 8691 0
-8692 573 0
-8692 279 0
-573 -279 8692 0
-8693 575 0
-8693 315 0
-575 -315 8693 0
-8694 577 0
-8694 351 0
-577 -351 8694 0
-8695 579 0
-8695 387 0
-579 -387 8695 0
-8696 581 0
-8696 423 0
-581 -423 8696 0
-8697 583 0
-8697 459 0
-583 -459 8697 0
-8698 585 0
-8698 495 0
-585 -495 8698 0
-8699 587 0
-8699 531 0
-587 -531 8699 0
-8700 591 0
-8700 603 0
-591 -603 8700 0
-8701 593 0
-8701 639 0
-593 -639 8701 0
-8685 -8686 0
-8685 -8687 0
-8685 -8688 0
-8685 -8689 0
-8685 -8690 0
-8685 -8691 0
-8685 -8692 0
-8685 -8693 0
-8685 -8694 0
-8685 -8695 0
-8685 -8696 0
-8685 -8697 0
-8685 -8698 0
-8685 -8699 0
-8685 -8700 0
-8685 -8701 0
-567 8685 8686 8687 8688 8689 8690 8691 8692 8693 8694 8695 8696 8697 8698 8699 8700 8701 0
-8702 569 0
-8703 559 0
-8703 16 0
-559 -16 8703 0
-8704 561 0
-8704 65 0
-561 -65 8704 0
-8705 563 0
-8705 101 0
-563 -101 8705 0
-8706 565 0
-8706 137 0
-565 -137 8706 0
-8707 567 0
-8707 173 0
-567 -173 8707 0
-8708 571 0
-8708 245 0
-571 -245 8708 0
-8709 573 0
-8709 281 0
-573 -281 8709 0
-8710 575 0
-8710 317 0
-575 -317 8710 0
-8711 577 0
-8711 353 0
-577 -353 8711 0
-8712 579 0
-8712 389 0
-579 -389 8712 0
-8713 581 0
-8713 425 0
-581 -425 8713 0
-8714 583 0
-8714 461 0
-583 -461 8714 0
-8715 585 0
-8715 497 0
-585 -497 8715 0
-8716 587 0
-8716 533 0
-587 -533 8716 0
-8717 591 0
-8717 605 0
-591 -605 8717 0
-8718 593 0
-8718 641 0
-593 -641 8718 0
-8702 -8703 0
-8702 -8704 0
-8702 -8705 0
-8702 -8706 0
-8702 -8707 0
-8702 -8708 0
-8702 -8709 0
-8702 -8710 0
-8702 -8711 0
-8702 -8712 0
-8702 -8713 0
-8702 -8714 0
-8702 -8715 0
-8702 -8716 0
-8702 -8717 0
-8702 -8718 0
-569 8702 8703 8704 8705 8706 8707 8708 8709 8710 8711 8712 8713 8714 8715 8716 8717 8718 0
-8719 571 0
-8720 559 0
-8720 19 0
-559 -19 8720 0
-8721 561 0
-8721 67 0
-561 -67 8721 0
-8722 563 0
-8722 103 0
-563 -103 8722 0
-8723 565 0
-8723 139 0
-565 -139 8723 0
-8724 567 0
-8724 175 0
-567 -175 8724 0
-8725 569 0
-8725 211 0
-569 -211 8725 0
-8726 573 0
-8726 283 0
-573 -283 8726 0
-8727 575 0
-8727 319 0
-575 -319 8727 0
-8728 577 0
-8728 355 0
-577 -355 8728 0
-8729 579 0
-8729 391 0
-579 -391 8729 0
-8730 581 0
-8730 427 0
-581 -427 8730 0
-8731 583 0
-8731 463 0
-583 -463 8731 0
-8732 585 0
-8732 499 0
-585 -499 8732 0
-8733 587 0
-8733 535 0
-587 -535 8733 0
-8734 591 0
-8734 607 0
-591 -607 8734 0
-8735 593 0
-8735 643 0
-593 -643 8735 0
-8719 -8720 0
-8719 -8721 0
-8719 -8722 0
-8719 -8723 0
-8719 -8724 0
-8719 -8725 0
-8719 -8726 0
-8719 -8727 0
-8719 -8728 0
-8719 -8729 0
-8719 -8730 0
-8719 -8731 0
-8719 -8732 0
-8719 -8733 0
-8719 -8734 0
-8719 -8735 0
-571 8719 8720 8721 8722 8723 8724 8725 8726 8727 8728 8729 8730 8731 8732 8733 8734 8735 0
-8736 573 0
-8737 559 0
-8737 22 0
-559 -22 8737 0
-8738 561 0
-8738 69 0
-561 -69 8738 0
-8739 563 0
-8739 105 0
-563 -105 8739 0
-8740 565 0
-8740 141 0
-565 -141 8740 0
-8741 567 0
-8741 177 0
-567 -177 8741 0
-8742 569 0
-8742 213 0
-569 -213 8742 0
-8743 571 0
-8743 249 0
-571 -249 8743 0
-8744 575 0
-8744 321 0
-575 -321 8744 0
-8745 577 0
-8745 357 0
-577 -357 8745 0
-8746 579 0
-8746 393 0
-579 -393 8746 0
-8747 581 0
-8747 429 0
-581 -429 8747 0
-8748 583 0
-8748 465 0
-583 -465 8748 0
-8749 585 0
-8749 501 0
-585 -501 8749 0
-8750 587 0
-8750 537 0
-587 -537 8750 0
-8751 591 0
-8751 609 0
-591 -609 8751 0
-8752 593 0
-8752 645 0
-593 -645 8752 0
-8736 -8737 0
-8736 -8738 0
-8736 -8739 0
-8736 -8740 0
-8736 -8741 0
-8736 -8742 0
-8736 -8743 0
-8736 -8744 0
-8736 -8745 0
-8736 -8746 0
-8736 -8747 0
-8736 -8748 0
-8736 -8749 0
-8736 -8750 0
-8736 -8751 0
-8736 -8752 0
-573 8736 8737 8738 8739 8740 8741 8742 8743 8744 8745 8746 8747 8748 8749 8750 8751 8752 0
-8753 575 0
-8754 559 0
-8754 25 0
-559 -25 8754 0
-8755 561 0
-8755 71 0
-561 -71 8755 0
-8756 563 0
-8756 107 0
-563 -107 8756 0
-8757 565 0
-8757 143 0
-565 -143 8757 0
-8758 567 0
-8758 179 0
-567 -179 8758 0
-8759 569 0
-8759 215 0
-569 -215 8759 0
-8760 571 0
-8760 251 0
-571 -251 8760 0
-8761 573 0
-8761 287 0
-573 -287 8761 0
-8762 577 0
-8762 359 0
-577 -359 8762 0
-8763 579 0
-8763 395 0
-579 -395 8763 0
-8764 581 0
-8764 431 0
-581 -431 8764 0
-8765 583 0
-8765 467 0
-583 -467 8765 0
-8766 585 0
-8766 503 0
-585 -503 8766 0
-8767 587 0
-8767 539 0
-587 -539 8767 0
-8768 591 0
-8768 611 0
-591 -611 8768 0
-8769 593 0
-8769 647 0
-593 -647 8769 0
-8753 -8754 0
-8753 -8755 0
-8753 -8756 0
-8753 -8757 0
-8753 -8758 0
-8753 -8759 0
-8753 -8760 0
-8753 -8761 0
-8753 -8762 0
-8753 -8763 0
-8753 -8764 0
-8753 -8765 0
-8753 -8766 0
-8753 -8767 0
-8753 -8768 0
-8753 -8769 0
-575 8753 8754 8755 8756 8757 8758 8759 8760 8761 8762 8763 8764 8765 8766 8767 8768 8769 0
-8770 577 0
-8771 559 0
-8771 28 0
-559 -28 8771 0
-8772 561 0
-8772 73 0
-561 -73 8772 0
-8773 563 0
-8773 109 0
-563 -109 8773 0
-8774 565 0
-8774 145 0
-565 -145 8774 0
-8775 567 0
-8775 181 0
-567 -181 8775 0
-8776 569 0
-8776 217 0
-569 -217 8776 0
-8777 571 0
-8777 253 0
-571 -253 8777 0
-8778 573 0
-8778 289 0
-573 -289 8778 0
-8779 575 0
-8779 325 0
-575 -325 8779 0
-8780 579 0
-8780 397 0
-579 -397 8780 0
-8781 581 0
-8781 433 0
-581 -433 8781 0
-8782 583 0
-8782 469 0
-583 -469 8782 0
-8783 585 0
-8783 505 0
-585 -505 8783 0
-8784 587 0
-8784 541 0
-587 -541 8784 0
-8785 591 0
-8785 613 0
-591 -613 8785 0
-8786 593 0
-8786 649 0
-593 -649 8786 0
-8770 -8771 0
-8770 -8772 0
-8770 -8773 0
-8770 -8774 0
-8770 -8775 0
-8770 -8776 0
-8770 -8777 0
-8770 -8778 0
-8770 -8779 0
-8770 -8780 0
-8770 -8781 0
-8770 -8782 0
-8770 -8783 0
-8770 -8784 0
-8770 -8785 0
-8770 -8786 0
-577 8770 8771 8772 8773 8774 8775 8776 8777 8778 8779 8780 8781 8782 8783 8784 8785 8786 0
-8787 579 0
-8788 559 0
-8788 31 0
-559 -31 8788 0
-8789 561 0
-8789 75 0
-561 -75 8789 0
-8790 563 0
-8790 111 0
-563 -111 8790 0
-8791 565 0
-8791 147 0
-565 -147 8791 0
-8792 567 0
-8792 183 0
-567 -183 8792 0
-8793 569 0
-8793 219 0
-569 -219 8793 0
-8794 571 0
-8794 255 0
-571 -255 8794 0
-8795 573 0
-8795 291 0
-573 -291 8795 0
-8796 575 0
-8796 327 0
-575 -327 8796 0
-8797 577 0
-8797 363 0
-577 -363 8797 0
-8798 581 0
-8798 435 0
-581 -435 8798 0
-8799 583 0
-8799 471 0
-583 -471 8799 0
-8800 585 0
-8800 507 0
-585 -507 8800 0
-8801 587 0
-8801 543 0
-587 -543 8801 0
-8802 591 0
-8802 615 0
-591 -615 8802 0
-8803 593 0
-8803 651 0
-593 -651 8803 0
-8787 -8788 0
-8787 -8789 0
-8787 -8790 0
-8787 -8791 0
-8787 -8792 0
-8787 -8793 0
-8787 -8794 0
-8787 -8795 0
-8787 -8796 0
-8787 -8797 0
-8787 -8798 0
-8787 -8799 0
-8787 -8800 0
-8787 -8801 0
-8787 -8802 0
-8787 -8803 0
-579 8787 8788 8789 8790 8791 8792 8793 8794 8795 8796 8797 8798 8799 8800 8801 8802 8803 0
-8804 581 0
-8805 559 0
-8805 34 0
-559 -34 8805 0
-8806 561 0
-8806 77 0
-561 -77 8806 0
-8807 563 0
-8807 113 0
-563 -113 8807 0
-8808 565 0
-8808 149 0
-565 -149 8808 0
-8809 567 0
-8809 185 0
-567 -185 8809 0
-8810 569 0
-8810 221 0
-569 -221 8810 0
-8811 571 0
-8811 257 0
-571 -257 8811 0
-8812 573 0
-8812 293 0
-573 -293 8812 0
-8813 575 0
-8813 329 0
-575 -329 8813 0
-8814 577 0
-8814 365 0
-577 -365 8814 0
-8815 579 0
-8815 401 0
-579 -401 8815 0
-8816 583 0
-8816 473 0
-583 -473 8816 0
-8817 585 0
-8817 509 0
-585 -509 8817 0
-8818 587 0
-8818 545 0
-587 -545 8818 0
-8819 591 0
-8819 617 0
-591 -617 8819 0
-8820 593 0
-8820 653 0
-593 -653 8820 0
-8804 -8805 0
-8804 -8806 0
-8804 -8807 0
-8804 -8808 0
-8804 -8809 0
-8804 -8810 0
-8804 -8811 0
-8804 -8812 0
-8804 -8813 0
-8804 -8814 0
-8804 -8815 0
-8804 -8816 0
-8804 -8817 0
-8804 -8818 0
-8804 -8819 0
-8804 -8820 0
-581 8804 8805 8806 8807 8808 8809 8810 8811 8812 8813 8814 8815 8816 8817 8818 8819 8820 0
-8821 583 0
-8822 559 0
-8822 37 0
-559 -37 8822 0
-8823 561 0
-8823 79 0
-561 -79 8823 0
-8824 563 0
-8824 115 0
-563 -115 8824 0
-8825 565 0
-8825 151 0
-565 -151 8825 0
-8826 567 0
-8826 187 0
-567 -187 8826 0
-8827 569 0
-8827 223 0
-569 -223 8827 0
-8828 571 0
-8828 259 0
-571 -259 8828 0
-8829 573 0
-8829 295 0
-573 -295 8829 0
-8830 575 0
-8830 331 0
-575 -331 8830 0
-8831 577 0
-8831 367 0
-577 -367 8831 0
-8832 579 0
-8832 403 0
-579 -403 8832 0
-8833 581 0
-8833 439 0
-581 -439 8833 0
-8834 585 0
-8834 511 0
-585 -511 8834 0
-8835 587 0
-8835 547 0
-587 -547 8835 0
-8836 591 0
-8836 619 0
-591 -619 8836 0
-8837 593 0
-8837 655 0
-593 -655 8837 0
-8821 -8822 0
-8821 -8823 0
-8821 -8824 0
-8821 -8825 0
-8821 -8826 0
-8821 -8827 0
-8821 -8828 0
-8821 -8829 0
-8821 -8830 0
-8821 -8831 0
-8821 -8832 0
-8821 -8833 0
-8821 -8834 0
-8821 -8835 0
-8821 -8836 0
-8821 -8837 0
-583 8821 8822 8823 8824 8825 8826 8827 8828 8829 8830 8831 8832 8833 8834 8835 8836 8837 0
-8838 585 0
-8839 559 0
-8839 40 0
-559 -40 8839 0
-8840 561 0
-8840 81 0
-561 -81 8840 0
-8841 563 0
-8841 117 0
-563 -117 8841 0
-8842 565 0
-8842 153 0
-565 -153 8842 0
-8843 567 0
-8843 189 0
-567 -189 8843 0
-8844 569 0
-8844 225 0
-569 -225 8844 0
-8845 571 0
-8845 261 0
-571 -261 8845 0
-8846 573 0
-8846 297 0
-573 -297 8846 0
-8847 575 0
-8847 333 0
-575 -333 8847 0
-8848 577 0
-8848 369 0
-577 -369 8848 0
-8849 579 0
-8849 405 0
-579 -405 8849 0
-8850 581 0
-8850 441 0
-581 -441 8850 0
-8851 583 0
-8851 477 0
-583 -477 8851 0
-8852 587 0
-8852 549 0
-587 -549 8852 0
-8853 591 0
-8853 621 0
-591 -621 8853 0
-8854 593 0
-8854 657 0
-593 -657 8854 0
-8838 -8839 0
-8838 -8840 0
-8838 -8841 0
-8838 -8842 0
-8838 -8843 0
-8838 -8844 0
-8838 -8845 0
-8838 -8846 0
-8838 -8847 0
-8838 -8848 0
-8838 -8849 0
-8838 -8850 0
-8838 -8851 0
-8838 -8852 0
-8838 -8853 0
-8838 -8854 0
-585 8838 8839 8840 8841 8842 8843 8844 8845 8846 8847 8848 8849 8850 8851 8852 8853 8854 0
-8855 587 0
-8856 559 0
-8856 43 0
-559 -43 8856 0
-8857 561 0
-8857 83 0
-561 -83 8857 0
-8858 563 0
-8858 119 0
-563 -119 8858 0
-8859 565 0
-8859 155 0
-565 -155 8859 0
-8860 567 0
-8860 191 0
-567 -191 8860 0
-8861 569 0
-8861 227 0
-569 -227 8861 0
-8862 571 0
-8862 263 0
-571 -263 8862 0
-8863 573 0
-8863 299 0
-573 -299 8863 0
-8864 575 0
-8864 335 0
-575 -335 8864 0
-8865 577 0
-8865 371 0
-577 -371 8865 0
-8866 579 0
-8866 407 0
-579 -407 8866 0
-8867 581 0
-8867 443 0
-581 -443 8867 0
-8868 583 0
-8868 479 0
-583 -479 8868 0
-8869 585 0
-8869 515 0
-585 -515 8869 0
-8870 591 0
-8870 623 0
-591 -623 8870 0
-8871 593 0
-8871 659 0
-593 -659 8871 0
-8855 -8856 0
-8855 -8857 0
-8855 -8858 0
-8855 -8859 0
-8855 -8860 0
-8855 -8861 0
-8855 -8862 0
-8855 -8863 0
-8855 -8864 0
-8855 -8865 0
-8855 -8866 0
-8855 -8867 0
-8855 -8868 0
-8855 -8869 0
-8855 -8870 0
-8855 -8871 0
-587 8855 8856 8857 8858 8859 8860 8861 8862 8863 8864 8865 8866 8867 8868 8869 8870 8871 0
-8872 0
-8873 591 0
-8874 559 0
-8874 49 0
-559 -49 8874 0
-8875 561 0
-8875 87 0
-561 -87 8875 0
-8876 563 0
-8876 123 0
-563 -123 8876 0
-8877 565 0
-8877 159 0
-565 -159 8877 0
-8878 567 0
-8878 195 0
-567 -195 8878 0
-8879 569 0
-8879 231 0
-569 -231 8879 0
-8880 571 0
-8880 267 0
-571 -267 8880 0
-8881 573 0
-8881 303 0
-573 -303 8881 0
-8882 575 0
-8882 339 0
-575 -339 8882 0
-8883 577 0
-8883 375 0
-577 -375 8883 0
-8884 579 0
-8884 411 0
-579 -411 8884 0
-8885 581 0
-8885 447 0
-581 -447 8885 0
-8886 583 0
-8886 483 0
-583 -483 8886 0
-8887 585 0
-8887 519 0
-585 -519 8887 0
-8888 587 0
-8888 555 0
-587 -555 8888 0
-8889 593 0
-8889 663 0
-593 -663 8889 0
-8873 -8874 0
-8873 -8875 0
-8873 -8876 0
-8873 -8877 0
-8873 -8878 0
-8873 -8879 0
-8873 -8880 0
-8873 -8881 0
-8873 -8882 0
-8873 -8883 0
-8873 -8884 0
-8873 -8885 0
-8873 -8886 0
-8873 -8887 0
-8873 -8888 0
-8873 -8889 0
-591 8873 8874 8875 8876 8877 8878 8879 8880 8881 8882 8883 8884 8885 8886 8887 8888 8889 0
-8890 593 0
-8891 559 0
-8891 52 0
-559 -52 8891 0
-8892 561 0
-8892 89 0
-561 -89 8892 0
-8893 563 0
-8893 125 0
-563 -125 8893 0
-8894 565 0
-8894 161 0
-565 -161 8894 0
-8895 567 0
-8895 197 0
-567 -197 8895 0
-8896 569 0
-8896 233 0
-569 -233 8896 0
-8897 571 0
-8897 269 0
-571 -269 8897 0
-8898 573 0
-8898 305 0
-573 -305 8898 0
-8899 575 0
-8899 341 0
-575 -341 8899 0
-8900 577 0
-8900 377 0
-577 -377 8900 0
-8901 579 0
-8901 413 0
-579 -413 8901 0
-8902 581 0
-8902 449 0
-581 -449 8902 0
-8903 583 0
-8903 485 0
-583 -485 8903 0
-8904 585 0
-8904 521 0
-585 -521 8904 0
-8905 587 0
-8905 557 0
-587 -557 8905 0
-8906 591 0
-8906 629 0
-591 -629 8906 0
-8890 -8891 0
-8890 -8892 0
-8890 -8893 0
-8890 -8894 0
-8890 -8895 0
-8890 -8896 0
-8890 -8897 0
-8890 -8898 0
-8890 -8899 0
-8890 -8900 0
-8890 -8901 0
-8890 -8902 0
-8890 -8903 0
-8890 -8904 0
-8890 -8905 0
-8890 -8906 0
-593 8890 8891 8892 8893 8894 8895 8896 8897 8898 8899 8900 8901 8902 8903 8904 8905 8906 0
-8907 595 0
-8908 597 0
-8908 55 0
-597 -55 8908 0
-8909 599 0
-8909 91 0
-599 -91 8909 0
-8910 601 0
-8910 127 0
-601 -127 8910 0
-8911 603 0
-8911 163 0
-603 -163 8911 0
-8912 605 0
-8912 199 0
-605 -199 8912 0
-8913 607 0
-8913 235 0
-607 -235 8913 0
-8914 609 0
-8914 271 0
-609 -271 8914 0
-8915 611 0
-8915 307 0
-611 -307 8915 0
-8916 613 0
-8916 343 0
-613 -343 8916 0
-8917 615 0
-8917 379 0
-615 -379 8917 0
-8918 617 0
-8918 415 0
-617 -415 8918 0
-8919 619 0
-8919 451 0
-619 -451 8919 0
-8920 621 0
-8920 487 0
-621 -487 8920 0
-8921 623 0
-8921 523 0
-623 -523 8921 0
-8922 625 0
-8922 559 0
-625 -559 8922 0
-8923 629 0
-8923 631 0
-629 -631 8923 0
-8907 -8908 0
-8907 -8909 0
-8907 -8910 0
-8907 -8911 0
-8907 -8912 0
-8907 -8913 0
-8907 -8914 0
-8907 -8915 0
-8907 -8916 0
-8907 -8917 0
-8907 -8918 0
-8907 -8919 0
-8907 -8920 0
-8907 -8921 0
-8907 -8922 0
-8907 -8923 0
-595 8907 8908 8909 8910 8911 8912 8913 8914 8915 8916 8917 8918 8919 8920 8921 8922 8923 0
-8924 597 0
-8925 595 0
-8925 4 0
-595 -4 8925 0
-8926 599 0
-8926 93 0
-599 -93 8926 0
-8927 601 0
-8927 129 0
-601 -129 8927 0
-8928 603 0
-8928 165 0
-603 -165 8928 0
-8929 605 0
-8929 201 0
-605 -201 8929 0
-8930 607 0
-8930 237 0
-607 -237 8930 0
-8931 609 0
-8931 273 0
-609 -273 8931 0
-8932 611 0
-8932 309 0
-611 -309 8932 0
-8933 613 0
-8933 345 0
-613 -345 8933 0
-8934 615 0
-8934 381 0
-615 -381 8934 0
-8935 617 0
-8935 417 0
-617 -417 8935 0
-8936 619 0
-8936 453 0
-619 -453 8936 0
-8937 621 0
-8937 489 0
-621 -489 8937 0
-8938 623 0
-8938 525 0
-623 -525 8938 0
-8939 625 0
-8939 561 0
-625 -561 8939 0
-8940 629 0
-8940 633 0
-629 -633 8940 0
-8924 -8925 0
-8924 -8926 0
-8924 -8927 0
-8924 -8928 0
-8924 -8929 0
-8924 -8930 0
-8924 -8931 0
-8924 -8932 0
-8924 -8933 0
-8924 -8934 0
-8924 -8935 0
-8924 -8936 0
-8924 -8937 0
-8924 -8938 0
-8924 -8939 0
-8924 -8940 0
-597 8924 8925 8926 8927 8928 8929 8930 8931 8932 8933 8934 8935 8936 8937 8938 8939 8940 0
-8941 599 0
-8942 595 0
-8942 7 0
-595 -7 8942 0
-8943 597 0
-8943 59 0
-597 -59 8943 0
-8944 601 0
-8944 131 0
-601 -131 8944 0
-8945 603 0
-8945 167 0
-603 -167 8945 0
-8946 605 0
-8946 203 0
-605 -203 8946 0
-8947 607 0
-8947 239 0
-607 -239 8947 0
-8948 609 0
-8948 275 0
-609 -275 8948 0
-8949 611 0
-8949 311 0
-611 -311 8949 0
-8950 613 0
-8950 347 0
-613 -347 8950 0
-8951 615 0
-8951 383 0
-615 -383 8951 0
-8952 617 0
-8952 419 0
-617 -419 8952 0
-8953 619 0
-8953 455 0
-619 -455 8953 0
-8954 621 0
-8954 491 0
-621 -491 8954 0
-8955 623 0
-8955 527 0
-623 -527 8955 0
-8956 625 0
-8956 563 0
-625 -563 8956 0
-8957 629 0
-8957 635 0
-629 -635 8957 0
-8941 -8942 0
-8941 -8943 0
-8941 -8944 0
-8941 -8945 0
-8941 -8946 0
-8941 -8947 0
-8941 -8948 0
-8941 -8949 0
-8941 -8950 0
-8941 -8951 0
-8941 -8952 0
-8941 -8953 0
-8941 -8954 0
-8941 -8955 0
-8941 -8956 0
-8941 -8957 0
-599 8941 8942 8943 8944 8945 8946 8947 8948 8949 8950 8951 8952 8953 8954 8955 8956 8957 0
-8958 601 0
-8959 595 0
-8959 10 0
-595 -10 8959 0
-8960 597 0
-8960 61 0
-597 -61 8960 0
-8961 599 0
-8961 97 0
-599 -97 8961 0
-8962 603 0
-8962 169 0
-603 -169 8962 0
-8963 605 0
-8963 205 0
-605 -205 8963 0
-8964 607 0
-8964 241 0
-607 -241 8964 0
-8965 609 0
-8965 277 0
-609 -277 8965 0
-8966 611 0
-8966 313 0
-611 -313 8966 0
-8967 613 0
-8967 349 0
-613 -349 8967 0
-8968 615 0
-8968 385 0
-615 -385 8968 0
-8969 617 0
-8969 421 0
-617 -421 8969 0
-8970 619 0
-8970 457 0
-619 -457 8970 0
-8971 621 0
-8971 493 0
-621 -493 8971 0
-8972 623 0
-8972 529 0
-623 -529 8972 0
-8973 625 0
-8973 565 0
-625 -565 8973 0
-8974 629 0
-8974 637 0
-629 -637 8974 0
-8958 -8959 0
-8958 -8960 0
-8958 -8961 0
-8958 -8962 0
-8958 -8963 0
-8958 -8964 0
-8958 -8965 0
-8958 -8966 0
-8958 -8967 0
-8958 -8968 0
-8958 -8969 0
-8958 -8970 0
-8958 -8971 0
-8958 -8972 0
-8958 -8973 0
-8958 -8974 0
-601 8958 8959 8960 8961 8962 8963 8964 8965 8966 8967 8968 8969 8970 8971 8972 8973 8974 0
-8975 603 0
-8976 595 0
-8976 13 0
-595 -13 8976 0
-8977 597 0
-8977 63 0
-597 -63 8977 0
-8978 599 0
-8978 99 0
-599 -99 8978 0
-8979 601 0
-8979 135 0
-601 -135 8979 0
-8980 605 0
-8980 207 0
-605 -207 8980 0
-8981 607 0
-8981 243 0
-607 -243 8981 0
-8982 609 0
-8982 279 0
-609 -279 8982 0
-8983 611 0
-8983 315 0
-611 -315 8983 0
-8984 613 0
-8984 351 0
-613 -351 8984 0
-8985 615 0
-8985 387 0
-615 -387 8985 0
-8986 617 0
-8986 423 0
-617 -423 8986 0
-8987 619 0
-8987 459 0
-619 -459 8987 0
-8988 621 0
-8988 495 0
-621 -495 8988 0
-8989 623 0
-8989 531 0
-623 -531 8989 0
-8990 625 0
-8990 567 0
-625 -567 8990 0
-8991 629 0
-8991 639 0
-629 -639 8991 0
-8975 -8976 0
-8975 -8977 0
-8975 -8978 0
-8975 -8979 0
-8975 -8980 0
-8975 -8981 0
-8975 -8982 0
-8975 -8983 0
-8975 -8984 0
-8975 -8985 0
-8975 -8986 0
-8975 -8987 0
-8975 -8988 0
-8975 -8989 0
-8975 -8990 0
-8975 -8991 0
-603 8975 8976 8977 8978 8979 8980 8981 8982 8983 8984 8985 8986 8987 8988 8989 8990 8991 0
-8992 605 0
-8993 595 0
-8993 16 0
-595 -16 8993 0
-8994 597 0
-8994 65 0
-597 -65 8994 0
-8995 599 0
-8995 101 0
-599 -101 8995 0
-8996 601 0
-8996 137 0
-601 -137 8996 0
-8997 603 0
-8997 173 0
-603 -173 8997 0
-8998 607 0
-8998 245 0
-607 -245 8998 0
-8999 609 0
-8999 281 0
-609 -281 8999 0
-9000 611 0
-9000 317 0
-611 -317 9000 0
-9001 613 0
-9001 353 0
-613 -353 9001 0
-9002 615 0
-9002 389 0
-615 -389 9002 0
-9003 617 0
-9003 425 0
-617 -425 9003 0
-9004 619 0
-9004 461 0
-619 -461 9004 0
-9005 621 0
-9005 497 0
-621 -497 9005 0
-9006 623 0
-9006 533 0
-623 -533 9006 0
-9007 625 0
-9007 569 0
-625 -569 9007 0
-9008 629 0
-9008 641 0
-629 -641 9008 0
-8992 -8993 0
-8992 -8994 0
-8992 -8995 0
-8992 -8996 0
-8992 -8997 0
-8992 -8998 0
-8992 -8999 0
-8992 -9000 0
-8992 -9001 0
-8992 -9002 0
-8992 -9003 0
-8992 -9004 0
-8992 -9005 0
-8992 -9006 0
-8992 -9007 0
-8992 -9008 0
-605 8992 8993 8994 8995 8996 8997 8998 8999 9000 9001 9002 9003 9004 9005 9006 9007 9008 0
-9009 607 0
-9010 595 0
-9010 19 0
-595 -19 9010 0
-9011 597 0
-9011 67 0
-597 -67 9011 0
-9012 599 0
-9012 103 0
-599 -103 9012 0
-9013 601 0
-9013 139 0
-601 -139 9013 0
-9014 603 0
-9014 175 0
-603 -175 9014 0
-9015 605 0
-9015 211 0
-605 -211 9015 0
-9016 609 0
-9016 283 0
-609 -283 9016 0
-9017 611 0
-9017 319 0
-611 -319 9017 0
-9018 613 0
-9018 355 0
-613 -355 9018 0
-9019 615 0
-9019 391 0
-615 -391 9019 0
-9020 617 0
-9020 427 0
-617 -427 9020 0
-9021 619 0
-9021 463 0
-619 -463 9021 0
-9022 621 0
-9022 499 0
-621 -499 9022 0
-9023 623 0
-9023 535 0
-623 -535 9023 0
-9024 625 0
-9024 571 0
-625 -571 9024 0
-9025 629 0
-9025 643 0
-629 -643 9025 0
-9009 -9010 0
-9009 -9011 0
-9009 -9012 0
-9009 -9013 0
-9009 -9014 0
-9009 -9015 0
-9009 -9016 0
-9009 -9017 0
-9009 -9018 0
-9009 -9019 0
-9009 -9020 0
-9009 -9021 0
-9009 -9022 0
-9009 -9023 0
-9009 -9024 0
-9009 -9025 0
-607 9009 9010 9011 9012 9013 9014 9015 9016 9017 9018 9019 9020 9021 9022 9023 9024 9025 0
-9026 609 0
-9027 595 0
-9027 22 0
-595 -22 9027 0
-9028 597 0
-9028 69 0
-597 -69 9028 0
-9029 599 0
-9029 105 0
-599 -105 9029 0
-9030 601 0
-9030 141 0
-601 -141 9030 0
-9031 603 0
-9031 177 0
-603 -177 9031 0
-9032 605 0
-9032 213 0
-605 -213 9032 0
-9033 607 0
-9033 249 0
-607 -249 9033 0
-9034 611 0
-9034 321 0
-611 -321 9034 0
-9035 613 0
-9035 357 0
-613 -357 9035 0
-9036 615 0
-9036 393 0
-615 -393 9036 0
-9037 617 0
-9037 429 0
-617 -429 9037 0
-9038 619 0
-9038 465 0
-619 -465 9038 0
-9039 621 0
-9039 501 0
-621 -501 9039 0
-9040 623 0
-9040 537 0
-623 -537 9040 0
-9041 625 0
-9041 573 0
-625 -573 9041 0
-9042 629 0
-9042 645 0
-629 -645 9042 0
-9026 -9027 0
-9026 -9028 0
-9026 -9029 0
-9026 -9030 0
-9026 -9031 0
-9026 -9032 0
-9026 -9033 0
-9026 -9034 0
-9026 -9035 0
-9026 -9036 0
-9026 -9037 0
-9026 -9038 0
-9026 -9039 0
-9026 -9040 0
-9026 -9041 0
-9026 -9042 0
-609 9026 9027 9028 9029 9030 9031 9032 9033 9034 9035 9036 9037 9038 9039 9040 9041 9042 0
-9043 611 0
-9044 595 0
-9044 25 0
-595 -25 9044 0
-9045 597 0
-9045 71 0
-597 -71 9045 0
-9046 599 0
-9046 107 0
-599 -107 9046 0
-9047 601 0
-9047 143 0
-601 -143 9047 0
-9048 603 0
-9048 179 0
-603 -179 9048 0
-9049 605 0
-9049 215 0
-605 -215 9049 0
-9050 607 0
-9050 251 0
-607 -251 9050 0
-9051 609 0
-9051 287 0
-609 -287 9051 0
-9052 613 0
-9052 359 0
-613 -359 9052 0
-9053 615 0
-9053 395 0
-615 -395 9053 0
-9054 617 0
-9054 431 0
-617 -431 9054 0
-9055 619 0
-9055 467 0
-619 -467 9055 0
-9056 621 0
-9056 503 0
-621 -503 9056 0
-9057 623 0
-9057 539 0
-623 -539 9057 0
-9058 625 0
-9058 575 0
-625 -575 9058 0
-9059 629 0
-9059 647 0
-629 -647 9059 0
-9043 -9044 0
-9043 -9045 0
-9043 -9046 0
-9043 -9047 0
-9043 -9048 0
-9043 -9049 0
-9043 -9050 0
-9043 -9051 0
-9043 -9052 0
-9043 -9053 0
-9043 -9054 0
-9043 -9055 0
-9043 -9056 0
-9043 -9057 0
-9043 -9058 0
-9043 -9059 0
-611 9043 9044 9045 9046 9047 9048 9049 9050 9051 9052 9053 9054 9055 9056 9057 9058 9059 0
-9060 613 0
-9061 595 0
-9061 28 0
-595 -28 9061 0
-9062 597 0
-9062 73 0
-597 -73 9062 0
-9063 599 0
-9063 109 0
-599 -109 9063 0
-9064 601 0
-9064 145 0
-601 -145 9064 0
-9065 603 0
-9065 181 0
-603 -181 9065 0
-9066 605 0
-9066 217 0
-605 -217 9066 0
-9067 607 0
-9067 253 0
-607 -253 9067 0
-9068 609 0
-9068 289 0
-609 -289 9068 0
-9069 611 0
-9069 325 0
-611 -325 9069 0
-9070 615 0
-9070 397 0
-615 -397 9070 0
-9071 617 0
-9071 433 0
-617 -433 9071 0
-9072 619 0
-9072 469 0
-619 -469 9072 0
-9073 621 0
-9073 505 0
-621 -505 9073 0
-9074 623 0
-9074 541 0
-623 -541 9074 0
-9075 625 0
-9075 577 0
-625 -577 9075 0
-9076 629 0
-9076 649 0
-629 -649 9076 0
-9060 -9061 0
-9060 -9062 0
-9060 -9063 0
-9060 -9064 0
-9060 -9065 0
-9060 -9066 0
-9060 -9067 0
-9060 -9068 0
-9060 -9069 0
-9060 -9070 0
-9060 -9071 0
-9060 -9072 0
-9060 -9073 0
-9060 -9074 0
-9060 -9075 0
-9060 -9076 0
-613 9060 9061 9062 9063 9064 9065 9066 9067 9068 9069 9070 9071 9072 9073 9074 9075 9076 0
-9077 615 0
-9078 595 0
-9078 31 0
-595 -31 9078 0
-9079 597 0
-9079 75 0
-597 -75 9079 0
-9080 599 0
-9080 111 0
-599 -111 9080 0
-9081 601 0
-9081 147 0
-601 -147 9081 0
-9082 603 0
-9082 183 0
-603 -183 9082 0
-9083 605 0
-9083 219 0
-605 -219 9083 0
-9084 607 0
-9084 255 0
-607 -255 9084 0
-9085 609 0
-9085 291 0
-609 -291 9085 0
-9086 611 0
-9086 327 0
-611 -327 9086 0
-9087 613 0
-9087 363 0
-613 -363 9087 0
-9088 617 0
-9088 435 0
-617 -435 9088 0
-9089 619 0
-9089 471 0
-619 -471 9089 0
-9090 621 0
-9090 507 0
-621 -507 9090 0
-9091 623 0
-9091 543 0
-623 -543 9091 0
-9092 625 0
-9092 579 0
-625 -579 9092 0
-9093 629 0
-9093 651 0
-629 -651 9093 0
-9077 -9078 0
-9077 -9079 0
-9077 -9080 0
-9077 -9081 0
-9077 -9082 0
-9077 -9083 0
-9077 -9084 0
-9077 -9085 0
-9077 -9086 0
-9077 -9087 0
-9077 -9088 0
-9077 -9089 0
-9077 -9090 0
-9077 -9091 0
-9077 -9092 0
-9077 -9093 0
-615 9077 9078 9079 9080 9081 9082 9083 9084 9085 9086 9087 9088 9089 9090 9091 9092 9093 0
-9094 617 0
-9095 595 0
-9095 34 0
-595 -34 9095 0
-9096 597 0
-9096 77 0
-597 -77 9096 0
-9097 599 0
-9097 113 0
-599 -113 9097 0
-9098 601 0
-9098 149 0
-601 -149 9098 0
-9099 603 0
-9099 185 0
-603 -185 9099 0
-9100 605 0
-9100 221 0
-605 -221 9100 0
-9101 607 0
-9101 257 0
-607 -257 9101 0
-9102 609 0
-9102 293 0
-609 -293 9102 0
-9103 611 0
-9103 329 0
-611 -329 9103 0
-9104 613 0
-9104 365 0
-613 -365 9104 0
-9105 615 0
-9105 401 0
-615 -401 9105 0
-9106 619 0
-9106 473 0
-619 -473 9106 0
-9107 621 0
-9107 509 0
-621 -509 9107 0
-9108 623 0
-9108 545 0
-623 -545 9108 0
-9109 625 0
-9109 581 0
-625 -581 9109 0
-9110 629 0
-9110 653 0
-629 -653 9110 0
-9094 -9095 0
-9094 -9096 0
-9094 -9097 0
-9094 -9098 0
-9094 -9099 0
-9094 -9100 0
-9094 -9101 0
-9094 -9102 0
-9094 -9103 0
-9094 -9104 0
-9094 -9105 0
-9094 -9106 0
-9094 -9107 0
-9094 -9108 0
-9094 -9109 0
-9094 -9110 0
-617 9094 9095 9096 9097 9098 9099 9100 9101 9102 9103 9104 9105 9106 9107 9108 9109 9110 0
-9111 619 0
-9112 595 0
-9112 37 0
-595 -37 9112 0
-9113 597 0
-9113 79 0
-597 -79 9113 0
-9114 599 0
-9114 115 0
-599 -115 9114 0
-9115 601 0
-9115 151 0
-601 -151 9115 0
-9116 603 0
-9116 187 0
-603 -187 9116 0
-9117 605 0
-9117 223 0
-605 -223 9117 0
-9118 607 0
-9118 259 0
-607 -259 9118 0
-9119 609 0
-9119 295 0
-609 -295 9119 0
-9120 611 0
-9120 331 0
-611 -331 9120 0
-9121 613 0
-9121 367 0
-613 -367 9121 0
-9122 615 0
-9122 403 0
-615 -403 9122 0
-9123 617 0
-9123 439 0
-617 -439 9123 0
-9124 621 0
-9124 511 0
-621 -511 9124 0
-9125 623 0
-9125 547 0
-623 -547 9125 0
-9126 625 0
-9126 583 0
-625 -583 9126 0
-9127 629 0
-9127 655 0
-629 -655 9127 0
-9111 -9112 0
-9111 -9113 0
-9111 -9114 0
-9111 -9115 0
-9111 -9116 0
-9111 -9117 0
-9111 -9118 0
-9111 -9119 0
-9111 -9120 0
-9111 -9121 0
-9111 -9122 0
-9111 -9123 0
-9111 -9124 0
-9111 -9125 0
-9111 -9126 0
-9111 -9127 0
-619 9111 9112 9113 9114 9115 9116 9117 9118 9119 9120 9121 9122 9123 9124 9125 9126 9127 0
-9128 621 0
-9129 595 0
-9129 40 0
-595 -40 9129 0
-9130 597 0
-9130 81 0
-597 -81 9130 0
-9131 599 0
-9131 117 0
-599 -117 9131 0
-9132 601 0
-9132 153 0
-601 -153 9132 0
-9133 603 0
-9133 189 0
-603 -189 9133 0
-9134 605 0
-9134 225 0
-605 -225 9134 0
-9135 607 0
-9135 261 0
-607 -261 9135 0
-9136 609 0
-9136 297 0
-609 -297 9136 0
-9137 611 0
-9137 333 0
-611 -333 9137 0
-9138 613 0
-9138 369 0
-613 -369 9138 0
-9139 615 0
-9139 405 0
-615 -405 9139 0
-9140 617 0
-9140 441 0
-617 -441 9140 0
-9141 619 0
-9141 477 0
-619 -477 9141 0
-9142 623 0
-9142 549 0
-623 -549 9142 0
-9143 625 0
-9143 585 0
-625 -585 9143 0
-9144 629 0
-9144 657 0
-629 -657 9144 0
-9128 -9129 0
-9128 -9130 0
-9128 -9131 0
-9128 -9132 0
-9128 -9133 0
-9128 -9134 0
-9128 -9135 0
-9128 -9136 0
-9128 -9137 0
-9128 -9138 0
-9128 -9139 0
-9128 -9140 0
-9128 -9141 0
-9128 -9142 0
-9128 -9143 0
-9128 -9144 0
-621 9128 9129 9130 9131 9132 9133 9134 9135 9136 9137 9138 9139 9140 9141 9142 9143 9144 0
-9145 623 0
-9146 595 0
-9146 43 0
-595 -43 9146 0
-9147 597 0
-9147 83 0
-597 -83 9147 0
-9148 599 0
-9148 119 0
-599 -119 9148 0
-9149 601 0
-9149 155 0
-601 -155 9149 0
-9150 603 0
-9150 191 0
-603 -191 9150 0
-9151 605 0
-9151 227 0
-605 -227 9151 0
-9152 607 0
-9152 263 0
-607 -263 9152 0
-9153 609 0
-9153 299 0
-609 -299 9153 0
-9154 611 0
-9154 335 0
-611 -335 9154 0
-9155 613 0
-9155 371 0
-613 -371 9155 0
-9156 615 0
-9156 407 0
-615 -407 9156 0
-9157 617 0
-9157 443 0
-617 -443 9157 0
-9158 619 0
-9158 479 0
-619 -479 9158 0
-9159 621 0
-9159 515 0
-621 -515 9159 0
-9160 625 0
-9160 587 0
-625 -587 9160 0
-9161 629 0
-9161 659 0
-629 -659 9161 0
-9145 -9146 0
-9145 -9147 0
-9145 -9148 0
-9145 -9149 0
-9145 -9150 0
-9145 -9151 0
-9145 -9152 0
-9145 -9153 0
-9145 -9154 0
-9145 -9155 0
-9145 -9156 0
-9145 -9157 0
-9145 -9158 0
-9145 -9159 0
-9145 -9160 0
-9145 -9161 0
-623 9145 9146 9147 9148 9149 9150 9151 9152 9153 9154 9155 9156 9157 9158 9159 9160 9161 0
-9162 625 0
-9163 595 0
-9163 46 0
-595 -46 9163 0
-9164 597 0
-9164 85 0
-597 -85 9164 0
-9165 599 0
-9165 121 0
-599 -121 9165 0
-9166 601 0
-9166 157 0
-601 -157 9166 0
-9167 603 0
-9167 193 0
-603 -193 9167 0
-9168 605 0
-9168 229 0
-605 -229 9168 0
-9169 607 0
-9169 265 0
-607 -265 9169 0
-9170 609 0
-9170 301 0
-609 -301 9170 0
-9171 611 0
-9171 337 0
-611 -337 9171 0
-9172 613 0
-9172 373 0
-613 -373 9172 0
-9173 615 0
-9173 409 0
-615 -409 9173 0
-9174 617 0
-9174 445 0
-617 -445 9174 0
-9175 619 0
-9175 481 0
-619 -481 9175 0
-9176 621 0
-9176 517 0
-621 -517 9176 0
-9177 623 0
-9177 553 0
-623 -553 9177 0
-9178 629 0
-9178 661 0
-629 -661 9178 0
-9162 -9163 0
-9162 -9164 0
-9162 -9165 0
-9162 -9166 0
-9162 -9167 0
-9162 -9168 0
-9162 -9169 0
-9162 -9170 0
-9162 -9171 0
-9162 -9172 0
-9162 -9173 0
-9162 -9174 0
-9162 -9175 0
-9162 -9176 0
-9162 -9177 0
-9162 -9178 0
-625 9162 9163 9164 9165 9166 9167 9168 9169 9170 9171 9172 9173 9174 9175 9176 9177 9178 0
-9179 0
-9180 629 0
-9181 595 0
-9181 52 0
-595 -52 9181 0
-9182 597 0
-9182 89 0
-597 -89 9182 0
-9183 599 0
-9183 125 0
-599 -125 9183 0
-9184 601 0
-9184 161 0
-601 -161 9184 0
-9185 603 0
-9185 197 0
-603 -197 9185 0
-9186 605 0
-9186 233 0
-605 -233 9186 0
-9187 607 0
-9187 269 0
-607 -269 9187 0
-9188 609 0
-9188 305 0
-609 -305 9188 0
-9189 611 0
-9189 341 0
-611 -341 9189 0
-9190 613 0
-9190 377 0
-613 -377 9190 0
-9191 615 0
-9191 413 0
-615 -413 9191 0
-9192 617 0
-9192 449 0
-617 -449 9192 0
-9193 619 0
-9193 485 0
-619 -485 9193 0
-9194 621 0
-9194 521 0
-621 -521 9194 0
-9195 623 0
-9195 557 0
-623 -557 9195 0
-9196 625 0
-9196 593 0
-625 -593 9196 0
-9180 -9181 0
-9180 -9182 0
-9180 -9183 0
-9180 -9184 0
-9180 -9185 0
-9180 -9186 0
-9180 -9187 0
-9180 -9188 0
-9180 -9189 0
-9180 -9190 0
-9180 -9191 0
-9180 -9192 0
-9180 -9193 0
-9180 -9194 0
-9180 -9195 0
-9180 -9196 0
-629 9180 9181 9182 9183 9184 9185 9186 9187 9188 9189 9190 9191 9192 9193 9194 9195 9196 0
-9197 631 0
-9198 633 0
-9198 55 0
-633 -55 9198 0
-9199 635 0
-9199 91 0
-635 -91 9199 0
-9200 637 0
-9200 127 0
-637 -127 9200 0
-9201 639 0
-9201 163 0
-639 -163 9201 0
-9202 641 0
-9202 199 0
-641 -199 9202 0
-9203 643 0
-9203 235 0
-643 -235 9203 0
-9204 645 0
-9204 271 0
-645 -271 9204 0
-9205 647 0
-9205 307 0
-647 -307 9205 0
-9206 649 0
-9206 343 0
-649 -343 9206 0
-9207 651 0
-9207 379 0
-651 -379 9207 0
-9208 653 0
-9208 415 0
-653 -415 9208 0
-9209 655 0
-9209 451 0
-655 -451 9209 0
-9210 657 0
-9210 487 0
-657 -487 9210 0
-9211 659 0
-9211 523 0
-659 -523 9211 0
-9212 661 0
-9212 559 0
-661 -559 9212 0
-9213 663 0
-9213 595 0
-663 -595 9213 0
-9197 -9198 0
-9197 -9199 0
-9197 -9200 0
-9197 -9201 0
-9197 -9202 0
-9197 -9203 0
-9197 -9204 0
-9197 -9205 0
-9197 -9206 0
-9197 -9207 0
-9197 -9208 0
-9197 -9209 0
-9197 -9210 0
-9197 -9211 0
-9197 -9212 0
-9197 -9213 0
-631 9197 9198 9199 9200 9201 9202 9203 9204 9205 9206 9207 9208 9209 9210 9211 9212 9213 0
-9214 633 0
-9215 631 0
-9215 4 0
-631 -4 9215 0
-9216 635 0
-9216 93 0
-635 -93 9216 0
-9217 637 0
-9217 129 0
-637 -129 9217 0
-9218 639 0
-9218 165 0
-639 -165 9218 0
-9219 641 0
-9219 201 0
-641 -201 9219 0
-9220 643 0
-9220 237 0
-643 -237 9220 0
-9221 645 0
-9221 273 0
-645 -273 9221 0
-9222 647 0
-9222 309 0
-647 -309 9222 0
-9223 649 0
-9223 345 0
-649 -345 9223 0
-9224 651 0
-9224 381 0
-651 -381 9224 0
-9225 653 0
-9225 417 0
-653 -417 9225 0
-9226 655 0
-9226 453 0
-655 -453 9226 0
-9227 657 0
-9227 489 0
-657 -489 9227 0
-9228 659 0
-9228 525 0
-659 -525 9228 0
-9229 661 0
-9229 561 0
-661 -561 9229 0
-9230 663 0
-9230 597 0
-663 -597 9230 0
-9214 -9215 0
-9214 -9216 0
-9214 -9217 0
-9214 -9218 0
-9214 -9219 0
-9214 -9220 0
-9214 -9221 0
-9214 -9222 0
-9214 -9223 0
-9214 -9224 0
-9214 -9225 0
-9214 -9226 0
-9214 -9227 0
-9214 -9228 0
-9214 -9229 0
-9214 -9230 0
-633 9214 9215 9216 9217 9218 9219 9220 9221 9222 9223 9224 9225 9226 9227 9228 9229 9230 0
-9231 635 0
-9232 631 0
-9232 7 0
-631 -7 9232 0
-9233 633 0
-9233 59 0
-633 -59 9233 0
-9234 637 0
-9234 131 0
-637 -131 9234 0
-9235 639 0
-9235 167 0
-639 -167 9235 0
-9236 641 0
-9236 203 0
-641 -203 9236 0
-9237 643 0
-9237 239 0
-643 -239 9237 0
-9238 645 0
-9238 275 0
-645 -275 9238 0
-9239 647 0
-9239 311 0
-647 -311 9239 0
-9240 649 0
-9240 347 0
-649 -347 9240 0
-9241 651 0
-9241 383 0
-651 -383 9241 0
-9242 653 0
-9242 419 0
-653 -419 9242 0
-9243 655 0
-9243 455 0
-655 -455 9243 0
-9244 657 0
-9244 491 0
-657 -491 9244 0
-9245 659 0
-9245 527 0
-659 -527 9245 0
-9246 661 0
-9246 563 0
-661 -563 9246 0
-9247 663 0
-9247 599 0
-663 -599 9247 0
-9231 -9232 0
-9231 -9233 0
-9231 -9234 0
-9231 -9235 0
-9231 -9236 0
-9231 -9237 0
-9231 -9238 0
-9231 -9239 0
-9231 -9240 0
-9231 -9241 0
-9231 -9242 0
-9231 -9243 0
-9231 -9244 0
-9231 -9245 0
-9231 -9246 0
-9231 -9247 0
-635 9231 9232 9233 9234 9235 9236 9237 9238 9239 9240 9241 9242 9243 9244 9245 9246 9247 0
-9248 637 0
-9249 631 0
-9249 10 0
-631 -10 9249 0
-9250 633 0
-9250 61 0
-633 -61 9250 0
-9251 635 0
-9251 97 0
-635 -97 9251 0
-9252 639 0
-9252 169 0
-639 -169 9252 0
-9253 641 0
-9253 205 0
-641 -205 9253 0
-9254 643 0
-9254 241 0
-643 -241 9254 0
-9255 645 0
-9255 277 0
-645 -277 9255 0
-9256 647 0
-9256 313 0
-647 -313 9256 0
-9257 649 0
-9257 349 0
-649 -349 9257 0
-9258 651 0
-9258 385 0
-651 -385 9258 0
-9259 653 0
-9259 421 0
-653 -421 9259 0
-9260 655 0
-9260 457 0
-655 -457 9260 0
-9261 657 0
-9261 493 0
-657 -493 9261 0
-9262 659 0
-9262 529 0
-659 -529 9262 0
-9263 661 0
-9263 565 0
-661 -565 9263 0
-9264 663 0
-9264 601 0
-663 -601 9264 0
-9248 -9249 0
-9248 -9250 0
-9248 -9251 0
-9248 -9252 0
-9248 -9253 0
-9248 -9254 0
-9248 -9255 0
-9248 -9256 0
-9248 -9257 0
-9248 -9258 0
-9248 -9259 0
-9248 -9260 0
-9248 -9261 0
-9248 -9262 0
-9248 -9263 0
-9248 -9264 0
-637 9248 9249 9250 9251 9252 9253 9254 9255 9256 9257 9258 9259 9260 9261 9262 9263 9264 0
-9265 639 0
-9266 631 0
-9266 13 0
-631 -13 9266 0
-9267 633 0
-9267 63 0
-633 -63 9267 0
-9268 635 0
-9268 99 0
-635 -99 9268 0
-9269 637 0
-9269 135 0
-637 -135 9269 0
-9270 641 0
-9270 207 0
-641 -207 9270 0
-9271 643 0
-9271 243 0
-643 -243 9271 0
-9272 645 0
-9272 279 0
-645 -279 9272 0
-9273 647 0
-9273 315 0
-647 -315 9273 0
-9274 649 0
-9274 351 0
-649 -351 9274 0
-9275 651 0
-9275 387 0
-651 -387 9275 0
-9276 653 0
-9276 423 0
-653 -423 9276 0
-9277 655 0
-9277 459 0
-655 -459 9277 0
-9278 657 0
-9278 495 0
-657 -495 9278 0
-9279 659 0
-9279 531 0
-659 -531 9279 0
-9280 661 0
-9280 567 0
-661 -567 9280 0
-9281 663 0
-9281 603 0
-663 -603 9281 0
-9265 -9266 0
-9265 -9267 0
-9265 -9268 0
-9265 -9269 0
-9265 -9270 0
-9265 -9271 0
-9265 -9272 0
-9265 -9273 0
-9265 -9274 0
-9265 -9275 0
-9265 -9276 0
-9265 -9277 0
-9265 -9278 0
-9265 -9279 0
-9265 -9280 0
-9265 -9281 0
-639 9265 9266 9267 9268 9269 9270 9271 9272 9273 9274 9275 9276 9277 9278 9279 9280 9281 0
-9282 641 0
-9283 631 0
-9283 16 0
-631 -16 9283 0
-9284 633 0
-9284 65 0
-633 -65 9284 0
-9285 635 0
-9285 101 0
-635 -101 9285 0
-9286 637 0
-9286 137 0
-637 -137 9286 0
-9287 639 0
-9287 173 0
-639 -173 9287 0
-9288 643 0
-9288 245 0
-643 -245 9288 0
-9289 645 0
-9289 281 0
-645 -281 9289 0
-9290 647 0
-9290 317 0
-647 -317 9290 0
-9291 649 0
-9291 353 0
-649 -353 9291 0
-9292 651 0
-9292 389 0
-651 -389 9292 0
-9293 653 0
-9293 425 0
-653 -425 9293 0
-9294 655 0
-9294 461 0
-655 -461 9294 0
-9295 657 0
-9295 497 0
-657 -497 9295 0
-9296 659 0
-9296 533 0
-659 -533 9296 0
-9297 661 0
-9297 569 0
-661 -569 9297 0
-9298 663 0
-9298 605 0
-663 -605 9298 0
-9282 -9283 0
-9282 -9284 0
-9282 -9285 0
-9282 -9286 0
-9282 -9287 0
-9282 -9288 0
-9282 -9289 0
-9282 -9290 0
-9282 -9291 0
-9282 -9292 0
-9282 -9293 0
-9282 -9294 0
-9282 -9295 0
-9282 -9296 0
-9282 -9297 0
-9282 -9298 0
-641 9282 9283 9284 9285 9286 9287 9288 9289 9290 9291 9292 9293 9294 9295 9296 9297 9298 0
-9299 643 0
-9300 631 0
-9300 19 0
-631 -19 9300 0
-9301 633 0
-9301 67 0
-633 -67 9301 0
-9302 635 0
-9302 103 0
-635 -103 9302 0
-9303 637 0
-9303 139 0
-637 -139 9303 0
-9304 639 0
-9304 175 0
-639 -175 9304 0
-9305 641 0
-9305 211 0
-641 -211 9305 0
-9306 645 0
-9306 283 0
-645 -283 9306 0
-9307 647 0
-9307 319 0
-647 -319 9307 0
-9308 649 0
-9308 355 0
-649 -355 9308 0
-9309 651 0
-9309 391 0
-651 -391 9309 0
-9310 653 0
-9310 427 0
-653 -427 9310 0
-9311 655 0
-9311 463 0
-655 -463 9311 0
-9312 657 0
-9312 499 0
-657 -499 9312 0
-9313 659 0
-9313 535 0
-659 -535 9313 0
-9314 661 0
-9314 571 0
-661 -571 9314 0
-9315 663 0
-9315 607 0
-663 -607 9315 0
-9299 -9300 0
-9299 -9301 0
-9299 -9302 0
-9299 -9303 0
-9299 -9304 0
-9299 -9305 0
-9299 -9306 0
-9299 -9307 0
-9299 -9308 0
-9299 -9309 0
-9299 -9310 0
-9299 -9311 0
-9299 -9312 0
-9299 -9313 0
-9299 -9314 0
-9299 -9315 0
-643 9299 9300 9301 9302 9303 9304 9305 9306 9307 9308 9309 9310 9311 9312 9313 9314 9315 0
-9316 645 0
-9317 631 0
-9317 22 0
-631 -22 9317 0
-9318 633 0
-9318 69 0
-633 -69 9318 0
-9319 635 0
-9319 105 0
-635 -105 9319 0
-9320 637 0
-9320 141 0
-637 -141 9320 0
-9321 639 0
-9321 177 0
-639 -177 9321 0
-9322 641 0
-9322 213 0
-641 -213 9322 0
-9323 643 0
-9323 249 0
-643 -249 9323 0
-9324 647 0
-9324 321 0
-647 -321 9324 0
-9325 649 0
-9325 357 0
-649 -357 9325 0
-9326 651 0
-9326 393 0
-651 -393 9326 0
-9327 653 0
-9327 429 0
-653 -429 9327 0
-9328 655 0
-9328 465 0
-655 -465 9328 0
-9329 657 0
-9329 501 0
-657 -501 9329 0
-9330 659 0
-9330 537 0
-659 -537 9330 0
-9331 661 0
-9331 573 0
-661 -573 9331 0
-9332 663 0
-9332 609 0
-663 -609 9332 0
-9316 -9317 0
-9316 -9318 0
-9316 -9319 0
-9316 -9320 0
-9316 -9321 0
-9316 -9322 0
-9316 -9323 0
-9316 -9324 0
-9316 -9325 0
-9316 -9326 0
-9316 -9327 0
-9316 -9328 0
-9316 -9329 0
-9316 -9330 0
-9316 -9331 0
-9316 -9332 0
-645 9316 9317 9318 9319 9320 9321 9322 9323 9324 9325 9326 9327 9328 9329 9330 9331 9332 0
-9333 647 0
-9334 631 0
-9334 25 0
-631 -25 9334 0
-9335 633 0
-9335 71 0
-633 -71 9335 0
-9336 635 0
-9336 107 0
-635 -107 9336 0
-9337 637 0
-9337 143 0
-637 -143 9337 0
-9338 639 0
-9338 179 0
-639 -179 9338 0
-9339 641 0
-9339 215 0
-641 -215 9339 0
-9340 643 0
-9340 251 0
-643 -251 9340 0
-9341 645 0
-9341 287 0
-645 -287 9341 0
-9342 649 0
-9342 359 0
-649 -359 9342 0
-9343 651 0
-9343 395 0
-651 -395 9343 0
-9344 653 0
-9344 431 0
-653 -431 9344 0
-9345 655 0
-9345 467 0
-655 -467 9345 0
-9346 657 0
-9346 503 0
-657 -503 9346 0
-9347 659 0
-9347 539 0
-659 -539 9347 0
-9348 661 0
-9348 575 0
-661 -575 9348 0
-9349 663 0
-9349 611 0
-663 -611 9349 0
-9333 -9334 0
-9333 -9335 0
-9333 -9336 0
-9333 -9337 0
-9333 -9338 0
-9333 -9339 0
-9333 -9340 0
-9333 -9341 0
-9333 -9342 0
-9333 -9343 0
-9333 -9344 0
-9333 -9345 0
-9333 -9346 0
-9333 -9347 0
-9333 -9348 0
-9333 -9349 0
-647 9333 9334 9335 9336 9337 9338 9339 9340 9341 9342 9343 9344 9345 9346 9347 9348 9349 0
-9350 649 0
-9351 631 0
-9351 28 0
-631 -28 9351 0
-9352 633 0
-9352 73 0
-633 -73 9352 0
-9353 635 0
-9353 109 0
-635 -109 9353 0
-9354 637 0
-9354 145 0
-637 -145 9354 0
-9355 639 0
-9355 181 0
-639 -181 9355 0
-9356 641 0
-9356 217 0
-641 -217 9356 0
-9357 643 0
-9357 253 0
-643 -253 9357 0
-9358 645 0
-9358 289 0
-645 -289 9358 0
-9359 647 0
-9359 325 0
-647 -325 9359 0
-9360 651 0
-9360 397 0
-651 -397 9360 0
-9361 653 0
-9361 433 0
-653 -433 9361 0
-9362 655 0
-9362 469 0
-655 -469 9362 0
-9363 657 0
-9363 505 0
-657 -505 9363 0
-9364 659 0
-9364 541 0
-659 -541 9364 0
-9365 661 0
-9365 577 0
-661 -577 9365 0
-9366 663 0
-9366 613 0
-663 -613 9366 0
-9350 -9351 0
-9350 -9352 0
-9350 -9353 0
-9350 -9354 0
-9350 -9355 0
-9350 -9356 0
-9350 -9357 0
-9350 -9358 0
-9350 -9359 0
-9350 -9360 0
-9350 -9361 0
-9350 -9362 0
-9350 -9363 0
-9350 -9364 0
-9350 -9365 0
-9350 -9366 0
-649 9350 9351 9352 9353 9354 9355 9356 9357 9358 9359 9360 9361 9362 9363 9364 9365 9366 0
-9367 651 0
-9368 631 0
-9368 31 0
-631 -31 9368 0
-9369 633 0
-9369 75 0
-633 -75 9369 0
-9370 635 0
-9370 111 0
-635 -111 9370 0
-9371 637 0
-9371 147 0
-637 -147 9371 0
-9372 639 0
-9372 183 0
-639 -183 9372 0
-9373 641 0
-9373 219 0
-641 -219 9373 0
-9374 643 0
-9374 255 0
-643 -255 9374 0
-9375 645 0
-9375 291 0
-645 -291 9375 0
-9376 647 0
-9376 327 0
-647 -327 9376 0
-9377 649 0
-9377 363 0
-649 -363 9377 0
-9378 653 0
-9378 435 0
-653 -435 9378 0
-9379 655 0
-9379 471 0
-655 -471 9379 0
-9380 657 0
-9380 507 0
-657 -507 9380 0
-9381 659 0
-9381 543 0
-659 -543 9381 0
-9382 661 0
-9382 579 0
-661 -579 9382 0
-9383 663 0
-9383 615 0
-663 -615 9383 0
-9367 -9368 0
-9367 -9369 0
-9367 -9370 0
-9367 -9371 0
-9367 -9372 0
-9367 -9373 0
-9367 -9374 0
-9367 -9375 0
-9367 -9376 0
-9367 -9377 0
-9367 -9378 0
-9367 -9379 0
-9367 -9380 0
-9367 -9381 0
-9367 -9382 0
-9367 -9383 0
-651 9367 9368 9369 9370 9371 9372 9373 9374 9375 9376 9377 9378 9379 9380 9381 9382 9383 0
-9384 653 0
-9385 631 0
-9385 34 0
-631 -34 9385 0
-9386 633 0
-9386 77 0
-633 -77 9386 0
-9387 635 0
-9387 113 0
-635 -113 9387 0
-9388 637 0
-9388 149 0
-637 -149 9388 0
-9389 639 0
-9389 185 0
-639 -185 9389 0
-9390 641 0
-9390 221 0
-641 -221 9390 0
-9391 643 0
-9391 257 0
-643 -257 9391 0
-9392 645 0
-9392 293 0
-645 -293 9392 0
-9393 647 0
-9393 329 0
-647 -329 9393 0
-9394 649 0
-9394 365 0
-649 -365 9394 0
-9395 651 0
-9395 401 0
-651 -401 9395 0
-9396 655 0
-9396 473 0
-655 -473 9396 0
-9397 657 0
-9397 509 0
-657 -509 9397 0
-9398 659 0
-9398 545 0
-659 -545 9398 0
-9399 661 0
-9399 581 0
-661 -581 9399 0
-9400 663 0
-9400 617 0
-663 -617 9400 0
-9384 -9385 0
-9384 -9386 0
-9384 -9387 0
-9384 -9388 0
-9384 -9389 0
-9384 -9390 0
-9384 -9391 0
-9384 -9392 0
-9384 -9393 0
-9384 -9394 0
-9384 -9395 0
-9384 -9396 0
-9384 -9397 0
-9384 -9398 0
-9384 -9399 0
-9384 -9400 0
-653 9384 9385 9386 9387 9388 9389 9390 9391 9392 9393 9394 9395 9396 9397 9398 9399 9400 0
-9401 655 0
-9402 631 0
-9402 37 0
-631 -37 9402 0
-9403 633 0
-9403 79 0
-633 -79 9403 0
-9404 635 0
-9404 115 0
-635 -115 9404 0
-9405 637 0
-9405 151 0
-637 -151 9405 0
-9406 639 0
-9406 187 0
-639 -187 9406 0
-9407 641 0
-9407 223 0
-641 -223 9407 0
-9408 643 0
-9408 259 0
-643 -259 9408 0
-9409 645 0
-9409 295 0
-645 -295 9409 0
-9410 647 0
-9410 331 0
-647 -331 9410 0
-9411 649 0
-9411 367 0
-649 -367 9411 0
-9412 651 0
-9412 403 0
-651 -403 9412 0
-9413 653 0
-9413 439 0
-653 -439 9413 0
-9414 657 0
-9414 511 0
-657 -511 9414 0
-9415 659 0
-9415 547 0
-659 -547 9415 0
-9416 661 0
-9416 583 0
-661 -583 9416 0
-9417 663 0
-9417 619 0
-663 -619 9417 0
-9401 -9402 0
-9401 -9403 0
-9401 -9404 0
-9401 -9405 0
-9401 -9406 0
-9401 -9407 0
-9401 -9408 0
-9401 -9409 0
-9401 -9410 0
-9401 -9411 0
-9401 -9412 0
-9401 -9413 0
-9401 -9414 0
-9401 -9415 0
-9401 -9416 0
-9401 -9417 0
-655 9401 9402 9403 9404 9405 9406 9407 9408 9409 9410 9411 9412 9413 9414 9415 9416 9417 0
-9418 657 0
-9419 631 0
-9419 40 0
-631 -40 9419 0
-9420 633 0
-9420 81 0
-633 -81 9420 0
-9421 635 0
-9421 117 0
-635 -117 9421 0
-9422 637 0
-9422 153 0
-637 -153 9422 0
-9423 639 0
-9423 189 0
-639 -189 9423 0
-9424 641 0
-9424 225 0
-641 -225 9424 0
-9425 643 0
-9425 261 0
-643 -261 9425 0
-9426 645 0
-9426 297 0
-645 -297 9426 0
-9427 647 0
-9427 333 0
-647 -333 9427 0
-9428 649 0
-9428 369 0
-649 -369 9428 0
-9429 651 0
-9429 405 0
-651 -405 9429 0
-9430 653 0
-9430 441 0
-653 -441 9430 0
-9431 655 0
-9431 477 0
-655 -477 9431 0
-9432 659 0
-9432 549 0
-659 -549 9432 0
-9433 661 0
-9433 585 0
-661 -585 9433 0
-9434 663 0
-9434 621 0
-663 -621 9434 0
-9418 -9419 0
-9418 -9420 0
-9418 -9421 0
-9418 -9422 0
-9418 -9423 0
-9418 -9424 0
-9418 -9425 0
-9418 -9426 0
-9418 -9427 0
-9418 -9428 0
-9418 -9429 0
-9418 -9430 0
-9418 -9431 0
-9418 -9432 0
-9418 -9433 0
-9418 -9434 0
-657 9418 9419 9420 9421 9422 9423 9424 9425 9426 9427 9428 9429 9430 9431 9432 9433 9434 0
-9435 659 0
-9436 631 0
-9436 43 0
-631 -43 9436 0
-9437 633 0
-9437 83 0
-633 -83 9437 0
-9438 635 0
-9438 119 0
-635 -119 9438 0
-9439 637 0
-9439 155 0
-637 -155 9439 0
-9440 639 0
-9440 191 0
-639 -191 9440 0
-9441 641 0
-9441 227 0
-641 -227 9441 0
-9442 643 0
-9442 263 0
-643 -263 9442 0
-9443 645 0
-9443 299 0
-645 -299 9443 0
-9444 647 0
-9444 335 0
-647 -335 9444 0
-9445 649 0
-9445 371 0
-649 -371 9445 0
-9446 651 0
-9446 407 0
-651 -407 9446 0
-9447 653 0
-9447 443 0
-653 -443 9447 0
-9448 655 0
-9448 479 0
-655 -479 9448 0
-9449 657 0
-9449 515 0
-657 -515 9449 0
-9450 661 0
-9450 587 0
-661 -587 9450 0
-9451 663 0
-9451 623 0
-663 -623 9451 0
-9435 -9436 0
-9435 -9437 0
-9435 -9438 0
-9435 -9439 0
-9435 -9440 0
-9435 -9441 0
-9435 -9442 0
-9435 -9443 0
-9435 -9444 0
-9435 -9445 0
-9435 -9446 0
-9435 -9447 0
-9435 -9448 0
-9435 -9449 0
-9435 -9450 0
-9435 -9451 0
-659 9435 9436 9437 9438 9439 9440 9441 9442 9443 9444 9445 9446 9447 9448 9449 9450 9451 0
-9452 661 0
-9453 631 0
-9453 46 0
-631 -46 9453 0
-9454 633 0
-9454 85 0
-633 -85 9454 0
-9455 635 0
-9455 121 0
-635 -121 9455 0
-9456 637 0
-9456 157 0
-637 -157 9456 0
-9457 639 0
-9457 193 0
-639 -193 9457 0
-9458 641 0
-9458 229 0
-641 -229 9458 0
-9459 643 0
-9459 265 0
-643 -265 9459 0
-9460 645 0
-9460 301 0
-645 -301 9460 0
-9461 647 0
-9461 337 0
-647 -337 9461 0
-9462 649 0
-9462 373 0
-649 -373 9462 0
-9463 651 0
-9463 409 0
-651 -409 9463 0
-9464 653 0
-9464 445 0
-653 -445 9464 0
-9465 655 0
-9465 481 0
-655 -481 9465 0
-9466 657 0
-9466 517 0
-657 -517 9466 0
-9467 659 0
-9467 553 0
-659 -553 9467 0
-9468 663 0
-9468 625 0
-663 -625 9468 0
-9452 -9453 0
-9452 -9454 0
-9452 -9455 0
-9452 -9456 0
-9452 -9457 0
-9452 -9458 0
-9452 -9459 0
-9452 -9460 0
-9452 -9461 0
-9452 -9462 0
-9452 -9463 0
-9452 -9464 0
-9452 -9465 0
-9452 -9466 0
-9452 -9467 0
-9452 -9468 0
-661 9452 9453 9454 9455 9456 9457 9458 9459 9460 9461 9462 9463 9464 9465 9466 9467 9468 0
-9469 663 0
-9470 631 0
-9470 49 0
-631 -49 9470 0
-9471 633 0
-9471 87 0
-633 -87 9471 0
-9472 635 0
-9472 123 0
-635 -123 9472 0
-9473 637 0
-9473 159 0
-637 -159 9473 0
-9474 639 0
-9474 195 0
-639 -195 9474 0
-9475 641 0
-9475 231 0
-641 -231 9475 0
-9476 643 0
-9476 267 0
-643 -267 9476 0
-9477 645 0
-9477 303 0
-645 -303 9477 0
-9478 647 0
-9478 339 0
-647 -339 9478 0
-9479 649 0
-9479 375 0
-649 -375 9479 0
-9480 651 0
-9480 411 0
-651 -411 9480 0
-9481 653 0
-9481 447 0
-653 -447 9481 0
-9482 655 0
-9482 483 0
-655 -483 9482 0
-9483 657 0
-9483 519 0
-657 -519 9483 0
-9484 659 0
-9484 555 0
-659 -555 9484 0
-9485 661 0
-9485 591 0
-661 -591 9485 0
-9469 -9470 0
-9469 -9471 0
-9469 -9472 0
-9469 -9473 0
-9469 -9474 0
-9469 -9475 0
-9469 -9476 0
-9469 -9477 0
-9469 -9478 0
-9469 -9479 0
-9469 -9480 0
-9469 -9481 0
-9469 -9482 0
-9469 -9483 0
-9469 -9484 0
-9469 -9485 0
-663 9469 9470 9471 9472 9473 9474 9475 9476 9477 9478 9479 9480 9481 9482 9483 9484 9485 0
-9486 0
-9487 1 0
-9487 4 0
-9487 7 0
-9487 10 0
-9487 13 0
-9487 16 0
-9487 19 0
-9487 22 0
-9487 25 0
-9487 28 0
-9487 31 0
-9487 34 0
-9487 37 0
-9487 40 0
-9487 43 0
-9487 46 0
-9487 49 0
-9487 52 0
-1 -4 -7 -10 -13 -16 -19 -22 -25 -28 -31 -34 -37 -40 -43 -46 -49 -52 9487 0
-9488 1 0
-9488 55 0
-9488 91 0
-9488 127 0
-9488 163 0
-9488 199 0
-9488 235 0
-9488 271 0
-9488 307 0
-9488 343 0
-9488 379 0
-9488 415 0
-9488 451 0
-9488 487 0
-9488 523 0
-9488 559 0
-9488 595 0
-9488 631 0
-1 -55 -91 -127 -163 -199 -235 -271 -307 -343 -379 -415 -451 -487 -523 -559 -595 -631 9488 0
-9489 55 0
-9489 57 0
-9489 59 0
-9489 61 0
-9489 63 0
-9489 65 0
-9489 67 0
-9489 69 0
-9489 71 0
-9489 73 0
-9489 75 0
-9489 77 0
-9489 79 0
-9489 81 0
-9489 83 0
-9489 85 0
-9489 87 0
-9489 89 0
-55 -57 -59 -61 -63 -65 -67 -69 -71 -73 -75 -77 -79 -81 -83 -85 -87 -89 9489 0
-9490 4 0
-9490 57 0
-9490 93 0
-9490 129 0
-9490 165 0
-9490 201 0
-9490 237 0
-9490 273 0
-9490 309 0
-9490 345 0
-9490 381 0
-9490 417 0
-9490 453 0
-9490 489 0
-9490 525 0
-9490 561 0
-9490 597 0
-9490 633 0
-4 -57 -93 -129 -165 -201 -237 -273 -309 -345 -381 -417 -453 -489 -525 -561 -597 -633 9490 0
-9491 91 0
-9491 93 0
-9491 95 0
-9491 97 0
-9491 99 0
-9491 101 0
-9491 103 0
-9491 105 0
-9491 107 0
-9491 109 0
-9491 111 0
-9491 113 0
-9491 115 0
-9491 117 0
-9491 119 0
-9491 121 0
-9491 123 0
-9491 125 0
-91 -93 -95 -97 -99 -101 -103 -105 -107 -109 -111 -113 -115 -117 -119 -121 -123 -125 9491 0
-9492 7 0
-9492 59 0
-9492 95 0
-9492 131 0
-9492 167 0
-9492 203 0
-9492 239 0
-9492 275 0
-9492 311 0
-9492 347 0
-9492 383 0
-9492 419 0
-9492 455 0
-9492 491 0
-9492 527 0
-9492 563 0
-9492 599 0
-9492 635 0
-7 -59 -95 -131 -167 -203 -239 -275 -311 -347 -383 -419 -455 -491 -527 -563 -599 -635 9492 0
-9493 127 0
-9493 129 0
-9493 131 0
-9493 133 0
-9493 135 0
-9493 137 0
-9493 139 0
-9493 141 0
-9493 143 0
-9493 145 0
-9493 147 0
-9493 149 0
-9493 151 0
-9493 153 0
-9493 155 0
-9493 157 0
-9493 159 0
-9493 161 0
-127 -129 -131 -133 -135 -137 -139 -141 -143 -145 -147 -149 -151 -153 -155 -157 -159 -161 9493 0
-9494 10 0
-9494 61 0
-9494 97 0
-9494 133 0
-9494 169 0
-9494 205 0
-9494 241 0
-9494 277 0
-9494 313 0
-9494 349 0
-9494 385 0
-9494 421 0
-9494 457 0
-9494 493 0
-9494 529 0
-9494 565 0
-9494 601 0
-9494 637 0
-10 -61 -97 -133 -169 -205 -241 -277 -313 -349 -385 -421 -457 -493 -529 -565 -601 -637 9494 0
-9495 163 0
-9495 165 0
-9495 167 0
-9495 169 0
-9495 171 0
-9495 173 0
-9495 175 0
-9495 177 0
-9495 179 0
-9495 181 0
-9495 183 0
-9495 185 0
-9495 187 0
-9495 189 0
-9495 191 0
-9495 193 0
-9495 195 0
-9495 197 0
-163 -165 -167 -169 -171 -173 -175 -177 -179 -181 -183 -185 -187 -189 -191 -193 -195 -197 9495 0
-9496 13 0
-9496 63 0
-9496 99 0
-9496 135 0
-9496 171 0
-9496 207 0
-9496 243 0
-9496 279 0
-9496 315 0
-9496 351 0
-9496 387 0
-9496 423 0
-9496 459 0
-9496 495 0
-9496 531 0
-9496 567 0
-9496 603 0
-9496 639 0
-13 -63 -99 -135 -171 -207 -243 -279 -315 -351 -387 -423 -459 -495 -531 -567 -603 -639 9496 0
-9497 199 0
-9497 201 0
-9497 203 0
-9497 205 0
-9497 207 0
-9497 209 0
-9497 211 0
-9497 213 0
-9497 215 0
-9497 217 0
-9497 219 0
-9497 221 0
-9497 223 0
-9497 225 0
-9497 227 0
-9497 229 0
-9497 231 0
-9497 233 0
-199 -201 -203 -205 -207 -209 -211 -213 -215 -217 -219 -221 -223 -225 -227 -229 -231 -233 9497 0
-9498 16 0
-9498 65 0
-9498 101 0
-9498 137 0
-9498 173 0
-9498 209 0
-9498 245 0
-9498 281 0
-9498 317 0
-9498 353 0
-9498 389 0
-9498 425 0
-9498 461 0
-9498 497 0
-9498 533 0
-9498 569 0
-9498 605 0
-9498 641 0
-16 -65 -101 -137 -173 -209 -245 -281 -317 -353 -389 -425 -461 -497 -533 -569 -605 -641 9498 0
-9499 235 0
-9499 237 0
-9499 239 0
-9499 241 0
-9499 243 0
-9499 245 0
-9499 247 0
-9499 249 0
-9499 251 0
-9499 253 0
-9499 255 0
-9499 257 0
-9499 259 0
-9499 261 0
-9499 263 0
-9499 265 0
-9499 267 0
-9499 269 0
-235 -237 -239 -241 -243 -245 -247 -249 -251 -253 -255 -257 -259 -261 -263 -265 -267 -269 9499 0
-9500 19 0
-9500 67 0
-9500 103 0
-9500 139 0
-9500 175 0
-9500 211 0
-9500 247 0
-9500 283 0
-9500 319 0
-9500 355 0
-9500 391 0
-9500 427 0
-9500 463 0
-9500 499 0
-9500 535 0
-9500 571 0
-9500 607 0
-9500 643 0
-19 -67 -103 -139 -175 -211 -247 -283 -319 -355 -391 -427 -463 -499 -535 -571 -607 -643 9500 0
-9501 271 0
-9501 273 0
-9501 275 0
-9501 277 0
-9501 279 0
-9501 281 0
-9501 283 0
-9501 285 0
-9501 287 0
-9501 289 0
-9501 291 0
-9501 293 0
-9501 295 0
-9501 297 0
-9501 299 0
-9501 301 0
-9501 303 0
-9501 305 0
-271 -273 -275 -277 -279 -281 -283 -285 -287 -289 -291 -293 -295 -297 -299 -301 -303 -305 9501 0
-9502 22 0
-9502 69 0
-9502 105 0
-9502 141 0
-9502 177 0
-9502 213 0
-9502 249 0
-9502 285 0
-9502 321 0
-9502 357 0
-9502 393 0
-9502 429 0
-9502 465 0
-9502 501 0
-9502 537 0
-9502 573 0
-9502 609 0
-9502 645 0
-22 -69 -105 -141 -177 -213 -249 -285 -321 -357 -393 -429 -465 -501 -537 -573 -609 -645 9502 0
-9503 307 0
-9503 309 0
-9503 311 0
-9503 313 0
-9503 315 0
-9503 317 0
-9503 319 0
-9503 321 0
-9503 323 0
-9503 325 0
-9503 327 0
-9503 329 0
-9503 331 0
-9503 333 0
-9503 335 0
-9503 337 0
-9503 339 0
-9503 341 0
-307 -309 -311 -313 -315 -317 -319 -321 -323 -325 -327 -329 -331 -333 -335 -337 -339 -341 9503 0
-9504 25 0
-9504 71 0
-9504 107 0
-9504 143 0
-9504 179 0
-9504 215 0
-9504 251 0
-9504 287 0
-9504 323 0
-9504 359 0
-9504 395 0
-9504 431 0
-9504 467 0
-9504 503 0
-9504 539 0
-9504 575 0
-9504 611 0
-9504 647 0
-25 -71 -107 -143 -179 -215 -251 -287 -323 -359 -395 -431 -467 -503 -539 -575 -611 -647 9504 0
-9505 343 0
-9505 345 0
-9505 347 0
-9505 349 0
-9505 351 0
-9505 353 0
-9505 355 0
-9505 357 0
-9505 359 0
-9505 361 0
-9505 363 0
-9505 365 0
-9505 367 0
-9505 369 0
-9505 371 0
-9505 373 0
-9505 375 0
-9505 377 0
-343 -345 -347 -349 -351 -353 -355 -357 -359 -361 -363 -365 -367 -369 -371 -373 -375 -377 9505 0
-9506 28 0
-9506 73 0
-9506 109 0
-9506 145 0
-9506 181 0
-9506 217 0
-9506 253 0
-9506 289 0
-9506 325 0
-9506 361 0
-9506 397 0
-9506 433 0
-9506 469 0
-9506 505 0
-9506 541 0
-9506 577 0
-9506 613 0
-9506 649 0
-28 -73 -109 -145 -181 -217 -253 -289 -325 -361 -397 -433 -469 -505 -541 -577 -613 -649 9506 0
-9507 379 0
-9507 381 0
-9507 383 0
-9507 385 0
-9507 387 0
-9507 389 0
-9507 391 0
-9507 393 0
-9507 395 0
-9507 397 0
-9507 399 0
-9507 401 0
-9507 403 0
-9507 405 0
-9507 407 0
-9507 409 0
-9507 411 0
-9507 413 0
-379 -381 -383 -385 -387 -389 -391 -393 -395 -397 -399 -401 -403 -405 -407 -409 -411 -413 9507 0
-9508 31 0
-9508 75 0
-9508 111 0
-9508 147 0
-9508 183 0
-9508 219 0
-9508 255 0
-9508 291 0
-9508 327 0
-9508 363 0
-9508 399 0
-9508 435 0
-9508 471 0
-9508 507 0
-9508 543 0
-9508 579 0
-9508 615 0
-9508 651 0
-31 -75 -111 -147 -183 -219 -255 -291 -327 -363 -399 -435 -471 -507 -543 -579 -615 -651 9508 0
-9509 415 0
-9509 417 0
-9509 419 0
-9509 421 0
-9509 423 0
-9509 425 0
-9509 427 0
-9509 429 0
-9509 431 0
-9509 433 0
-9509 435 0
-9509 437 0
-9509 439 0
-9509 441 0
-9509 443 0
-9509 445 0
-9509 447 0
-9509 449 0
-415 -417 -419 -421 -423 -425 -427 -429 -431 -433 -435 -437 -439 -441 -443 -445 -447 -449 9509 0
-9510 34 0
-9510 77 0
-9510 113 0
-9510 149 0
-9510 185 0
-9510 221 0
-9510 257 0
-9510 293 0
-9510 329 0
-9510 365 0
-9510 401 0
-9510 437 0
-9510 473 0
-9510 509 0
-9510 545 0
-9510 581 0
-9510 617 0
-9510 653 0
-34 -77 -113 -149 -185 -221 -257 -293 -329 -365 -401 -437 -473 -509 -545 -581 -617 -653 9510 0
-9511 451 0
-9511 453 0
-9511 455 0
-9511 457 0
-9511 459 0
-9511 461 0
-9511 463 0
-9511 465 0
-9511 467 0
-9511 469 0
-9511 471 0
-9511 473 0
-9511 475 0
-9511 477 0
-9511 479 0
-9511 481 0
-9511 483 0
-9511 485 0
-451 -453 -455 -457 -459 -461 -463 -465 -467 -469 -471 -473 -475 -477 -479 -481 -483 -485 9511 0
-9512 37 0
-9512 79 0
-9512 115 0
-9512 151 0
-9512 187 0
-9512 223 0
-9512 259 0
-9512 295 0
-9512 331 0
-9512 367 0
-9512 403 0
-9512 439 0
-9512 475 0
-9512 511 0
-9512 547 0
-9512 583 0
-9512 619 0
-9512 655 0
-37 -79 -115 -151 -187 -223 -259 -295 -331 -367 -403 -439 -475 -511 -547 -583 -619 -655 9512 0
-9513 487 0
-9513 489 0
-9513 491 0
-9513 493 0
-9513 495 0
-9513 497 0
-9513 499 0
-9513 501 0
-9513 503 0
-9513 505 0
-9513 507 0
-9513 509 0
-9513 511 0
-9513 513 0
-9513 515 0
-9513 517 0
-9513 519 0
-9513 521 0
-487 -489 -491 -493 -495 -497 -499 -501 -503 -505 -507 -509 -511 -513 -515 -517 -519 -521 9513 0
-9514 40 0
-9514 81 0
-9514 117 0
-9514 153 0
-9514 189 0
-9514 225 0
-9514 261 0
-9514 297 0
-9514 333 0
-9514 369 0
-9514 405 0
-9514 441 0
-9514 477 0
-9514 513 0
-9514 549 0
-9514 585 0
-9514 621 0
-9514 657 0
-40 -81 -117 -153 -189 -225 -261 -297 -333 -369 -405 -441 -477 -513 -549 -585 -621 -657 9514 0
-9515 523 0
-9515 525 0
-9515 527 0
-9515 529 0
-9515 531 0
-9515 533 0
-9515 535 0
-9515 537 0
-9515 539 0
-9515 541 0
-9515 543 0
-9515 545 0
-9515 547 0
-9515 549 0
-9515 551 0
-9515 553 0
-9515 555 0
-9515 557 0
-523 -525 -527 -529 -531 -533 -535 -537 -539 -541 -543 -545 -547 -549 -551 -553 -555 -557 9515 0
-9516 43 0
-9516 83 0
-9516 119 0
-9516 155 0
-9516 191 0
-9516 227 0
-9516 263 0
-9516 299 0
-9516 335 0
-9516 371 0
-9516 407 0
-9516 443 0
-9516 479 0
-9516 515 0
-9516 551 0
-9516 587 0
-9516 623 0
-9516 659 0
-43 -83 -119 -155 -191 -227 -263 -299 -335 -371 -407 -443 -479 -515 -551 -587 -623 -659 9516 0
-9517 559 0
-9517 561 0
-9517 563 0
-9517 565 0
-9517 567 0
-9517 569 0
-9517 571 0
-9517 573 0
-9517 575 0
-9517 577 0
-9517 579 0
-9517 581 0
-9517 583 0
-9517 585 0
-9517 587 0
-9517 589 0
-9517 591 0
-9517 593 0
-559 -561 -563 -565 -567 -569 -571 -573 -575 -577 -579 -581 -583 -585 -587 -589 -591 -593 9517 0
-9518 46 0
-9518 85 0
-9518 121 0
-9518 157 0
-9518 193 0
-9518 229 0
-9518 265 0
-9518 301 0
-9518 337 0
-9518 373 0
-9518 409 0
-9518 445 0
-9518 481 0
-9518 517 0
-9518 553 0
-9518 589 0
-9518 625 0
-9518 661 0
-46 -85 -121 -157 -193 -229 -265 -301 -337 -373 -409 -445 -481 -517 -553 -589 -625 -661 9518 0
-9519 595 0
-9519 597 0
-9519 599 0
-9519 601 0
-9519 603 0
-9519 605 0
-9519 607 0
-9519 609 0
-9519 611 0
-9519 613 0
-9519 615 0
-9519 617 0
-9519 619 0
-9519 621 0
-9519 623 0
-9519 625 0
-9519 627 0
-9519 629 0
-595 -597 -599 -601 -603 -605 -607 -609 -611 -613 -615 -617 -619 -621 -623 -625 -627 -629 9519 0
-9520 49 0
-9520 87 0
-9520 123 0
-9520 159 0
-9520 195 0
-9520 231 0
-9520 267 0
-9520 303 0
-9520 339 0
-9520 375 0
-9520 411 0
-9520 447 0
-9520 483 0
-9520 519 0
-9520 555 0
-9520 591 0
-9520 627 0
-9520 663 0
-49 -87 -123 -159 -195 -231 -267 -303 -339 -375 -411 -447 -483 -519 -555 -591 -627 -663 9520 0
-9521 631 0
-9521 633 0
-9521 635 0
-9521 637 0
-9521 639 0
-9521 641 0
-9521 643 0
-9521 645 0
-9521 647 0
-9521 649 0
-9521 651 0
-9521 653 0
-9521 655 0
-9521 657 0
-9521 659 0
-9521 661 0
-9521 663 0
-9521 665 0
-631 -633 -635 -637 -639 -641 -643 -645 -647 -649 -651 -653 -655 -657 -659 -661 -663 -665 9521 0
-9522 52 0
-9522 89 0
-9522 125 0
-9522 161 0
-9522 197 0
-9522 233 0
-9522 269 0
-9522 305 0
-9522 341 0
-9522 377 0
-9522 413 0
-9522 449 0
-9522 485 0
-9522 521 0
-9522 557 0
-9522 593 0
-9522 629 0
-9522 665 0
-52 -89 -125 -161 -197 -233 -269 -305 -341 -377 -413 -449 -485 -521 -557 -593 -629 -665 9522 0
-4267 2647 0
-9488 -9487 2647 0
-2647 4267 9488 0
-2647 4267 9487 0
-4268 2649 0
-9488 -9489 2649 0
-2649 4268 9488 0
-2649 4268 9489 0
-4285 2651 0
-9488 -9491 2651 0
-2651 4285 9488 0
-2651 4285 9491 0
-4302 2653 0
-9488 -9493 2653 0
-2653 4302 9488 0
-2653 4302 9493 0
-4319 2655 0
-9488 -9495 2655 0
-2655 4319 9488 0
-2655 4319 9495 0
-4336 2657 0
-9488 -9497 2657 0
-2657 4336 9488 0
-2657 4336 9497 0
-4353 2659 0
-9488 -9499 2659 0
-2659 4353 9488 0
-2659 4353 9499 0
-4370 2661 0
-9488 -9501 2661 0
-2661 4370 9488 0
-2661 4370 9501 0
-4387 2663 0
-9488 -9503 2663 0
-2663 4387 9488 0
-2663 4387 9503 0
-4404 2665 0
-9488 -9505 2665 0
-2665 4404 9488 0
-2665 4404 9505 0
-4421 2667 0
-9488 -9507 2667 0
-2667 4421 9488 0
-2667 4421 9507 0
-4438 2669 0
-9488 -9509 2669 0
-2669 4438 9488 0
-2669 4438 9509 0
-4455 2671 0
-9488 -9511 2671 0
-2671 4455 9488 0
-2671 4455 9511 0
-4472 2673 0
-9488 -9513 2673 0
-2673 4472 9488 0
-2673 4472 9513 0
-4489 2675 0
-9488 -9515 2675 0
-2675 4489 9488 0
-2675 4489 9515 0
-4506 2677 0
-9488 -9517 2677 0
-2677 4506 9488 0
-2677 4506 9517 0
-4523 2679 0
-9488 -9519 2679 0
-2679 4523 9488 0
-2679 4523 9519 0
-4540 2681 0
-9488 -9521 2681 0
-2681 4540 9488 0
-2681 4540 9521 0
-4557 2683 0
-9490 -9487 2683 0
-2683 4557 9490 0
-2683 4557 9487 0
-4574 2685 0
-9490 -9489 2685 0
-2685 4574 9490 0
-2685 4574 9489 0
-4575 2687 0
-9490 -9491 2687 0
-2687 4575 9490 0
-2687 4575 9491 0
-4592 2689 0
-9490 -9493 2689 0
-2689 4592 9490 0
-2689 4592 9493 0
-4609 2691 0
-9490 -9495 2691 0
-2691 4609 9490 0
-2691 4609 9495 0
-4626 2693 0
-9490 -9497 2693 0
-2693 4626 9490 0
-2693 4626 9497 0
-4643 2695 0
-9490 -9499 2695 0
-2695 4643 9490 0
-2695 4643 9499 0
-4660 2697 0
-9490 -9501 2697 0
-2697 4660 9490 0
-2697 4660 9501 0
-4677 2699 0
-9490 -9503 2699 0
-2699 4677 9490 0
-2699 4677 9503 0
-4694 2701 0
-9490 -9505 2701 0
-2701 4694 9490 0
-2701 4694 9505 0
-4711 2703 0
-9490 -9507 2703 0
-2703 4711 9490 0
-2703 4711 9507 0
-4728 2705 0
-9490 -9509 2705 0
-2705 4728 9490 0
-2705 4728 9509 0
-4745 2707 0
-9490 -9511 2707 0
-2707 4745 9490 0
-2707 4745 9511 0
-4762 2709 0
-9490 -9513 2709 0
-2709 4762 9490 0
-2709 4762 9513 0
-4779 2711 0
-9490 -9515 2711 0
-2711 4779 9490 0
-2711 4779 9515 0
-4796 2713 0
-9490 -9517 2713 0
-2713 4796 9490 0
-2713 4796 9517 0
-4813 2715 0
-9490 -9519 2715 0
-2715 4813 9490 0
-2715 4813 9519 0
-4830 2717 0
-9490 -9521 2717 0
-2717 4830 9490 0
-2717 4830 9521 0
-4847 2719 0
-9492 -9487 2719 0
-2719 4847 9492 0
-2719 4847 9487 0
-4864 2721 0
-9492 -9489 2721 0
-2721 4864 9492 0
-2721 4864 9489 0
-4881 2723 0
-9492 -9491 2723 0
-2723 4881 9492 0
-2723 4881 9491 0
-4882 2725 0
-9492 -9493 2725 0
-2725 4882 9492 0
-2725 4882 9493 0
-4899 2727 0
-9492 -9495 2727 0
-2727 4899 9492 0
-2727 4899 9495 0
-4916 2729 0
-9492 -9497 2729 0
-2729 4916 9492 0
-2729 4916 9497 0
-4933 2731 0
-9492 -9499 2731 0
-2731 4933 9492 0
-2731 4933 9499 0
-4950 2733 0
-9492 -9501 2733 0
-2733 4950 9492 0
-2733 4950 9501 0
-4967 2735 0
-9492 -9503 2735 0
-2735 4967 9492 0
-2735 4967 9503 0
-4984 2737 0
-9492 -9505 2737 0
-2737 4984 9492 0
-2737 4984 9505 0
-5001 2739 0
-9492 -9507 2739 0
-2739 5001 9492 0
-2739 5001 9507 0
-5018 2741 0
-9492 -9509 2741 0
-2741 5018 9492 0
-2741 5018 9509 0
-5035 2743 0
-9492 -9511 2743 0
-2743 5035 9492 0
-2743 5035 9511 0
-5052 2745 0
-9492 -9513 2745 0
-2745 5052 9492 0
-2745 5052 9513 0
-5069 2747 0
-9492 -9515 2747 0
-2747 5069 9492 0
-2747 5069 9515 0
-5086 2749 0
-9492 -9517 2749 0
-2749 5086 9492 0
-2749 5086 9517 0
-5103 2751 0
-9492 -9519 2751 0
-2751 5103 9492 0
-2751 5103 9519 0
-5120 2753 0
-9492 -9521 2753 0
-2753 5120 9492 0
-2753 5120 9521 0
-5137 2755 0
-9494 -9487 2755 0
-2755 5137 9494 0
-2755 5137 9487 0
-5154 2757 0
-9494 -9489 2757 0
-2757 5154 9494 0
-2757 5154 9489 0
-5171 2759 0
-9494 -9491 2759 0
-2759 5171 9494 0
-2759 5171 9491 0
-5188 2761 0
-9494 -9493 2761 0
-2761 5188 9494 0
-2761 5188 9493 0
-5189 2763 0
-9494 -9495 2763 0
-2763 5189 9494 0
-2763 5189 9495 0
-5206 2765 0
-9494 -9497 2765 0
-2765 5206 9494 0
-2765 5206 9497 0
-5223 2767 0
-9494 -9499 2767 0
-2767 5223 9494 0
-2767 5223 9499 0
-5240 2769 0
-9494 -9501 2769 0
-2769 5240 9494 0
-2769 5240 9501 0
-5257 2771 0
-9494 -9503 2771 0
-2771 5257 9494 0
-2771 5257 9503 0
-5274 2773 0
-9494 -9505 2773 0
-2773 5274 9494 0
-2773 5274 9505 0
-5291 2775 0
-9494 -9507 2775 0
-2775 5291 9494 0
-2775 5291 9507 0
-5308 2777 0
-9494 -9509 2777 0
-2777 5308 9494 0
-2777 5308 9509 0
-5325 2779 0
-9494 -9511 2779 0
-2779 5325 9494 0
-2779 5325 9511 0
-5342 2781 0
-9494 -9513 2781 0
-2781 5342 9494 0
-2781 5342 9513 0
-5359 2783 0
-9494 -9515 2783 0
-2783 5359 9494 0
-2783 5359 9515 0
-5376 2785 0
-9494 -9517 2785 0
-2785 5376 9494 0
-2785 5376 9517 0
-5393 2787 0
-9494 -9519 2787 0
-2787 5393 9494 0
-2787 5393 9519 0
-5410 2789 0
-9494 -9521 2789 0
-2789 5410 9494 0
-2789 5410 9521 0
-5427 2791 0
-9496 -9487 2791 0
-2791 5427 9496 0
-2791 5427 9487 0
-5444 2793 0
-9496 -9489 2793 0
-2793 5444 9496 0
-2793 5444 9489 0
-5461 2795 0
-9496 -9491 2795 0
-2795 5461 9496 0
-2795 5461 9491 0
-5478 2797 0
-9496 -9493 2797 0
-2797 5478 9496 0
-2797 5478 9493 0
-5495 2799 0
-9496 -9495 2799 0
-2799 5495 9496 0
-2799 5495 9495 0
-5496 2801 0
-9496 -9497 2801 0
-2801 5496 9496 0
-2801 5496 9497 0
-5513 2803 0
-9496 -9499 2803 0
-2803 5513 9496 0
-2803 5513 9499 0
-5530 2805 0
-9496 -9501 2805 0
-2805 5530 9496 0
-2805 5530 9501 0
-5547 2807 0
-9496 -9503 2807 0
-2807 5547 9496 0
-2807 5547 9503 0
-5564 2809 0
-9496 -9505 2809 0
-2809 5564 9496 0
-2809 5564 9505 0
-5581 2811 0
-9496 -9507 2811 0
-2811 5581 9496 0
-2811 5581 9507 0
-5598 2813 0
-9496 -9509 2813 0
-2813 5598 9496 0
-2813 5598 9509 0
-5615 2815 0
-9496 -9511 2815 0
-2815 5615 9496 0
-2815 5615 9511 0
-5632 2817 0
-9496 -9513 2817 0
-2817 5632 9496 0
-2817 5632 9513 0
-5649 2819 0
-9496 -9515 2819 0
-2819 5649 9496 0
-2819 5649 9515 0
-5666 2821 0
-9496 -9517 2821 0
-2821 5666 9496 0
-2821 5666 9517 0
-5683 2823 0
-9496 -9519 2823 0
-2823 5683 9496 0
-2823 5683 9519 0
-5700 2825 0
-9496 -9521 2825 0
-2825 5700 9496 0
-2825 5700 9521 0
-5717 2827 0
-9498 -9487 2827 0
-2827 5717 9498 0
-2827 5717 9487 0
-5734 2829 0
-9498 -9489 2829 0
-2829 5734 9498 0
-2829 5734 9489 0
-5751 2831 0
-9498 -9491 2831 0
-2831 5751 9498 0
-2831 5751 9491 0
-5768 2833 0
-9498 -9493 2833 0
-2833 5768 9498 0
-2833 5768 9493 0
-5785 2835 0
-9498 -9495 2835 0
-2835 5785 9498 0
-2835 5785 9495 0
-5802 2837 0
-9498 -9497 2837 0
-2837 5802 9498 0
-2837 5802 9497 0
-5803 2839 0
-9498 -9499 2839 0
-2839 5803 9498 0
-2839 5803 9499 0
-5820 2841 0
-9498 -9501 2841 0
-2841 5820 9498 0
-2841 5820 9501 0
-5837 2843 0
-9498 -9503 2843 0
-2843 5837 9498 0
-2843 5837 9503 0
-5854 2845 0
-9498 -9505 2845 0
-2845 5854 9498 0
-2845 5854 9505 0
-5871 2847 0
-9498 -9507 2847 0
-2847 5871 9498 0
-2847 5871 9507 0
-5888 2849 0
-9498 -9509 2849 0
-2849 5888 9498 0
-2849 5888 9509 0
-5905 2851 0
-9498 -9511 2851 0
-2851 5905 9498 0
-2851 5905 9511 0
-5922 2853 0
-9498 -9513 2853 0
-2853 5922 9498 0
-2853 5922 9513 0
-5939 2855 0
-9498 -9515 2855 0
-2855 5939 9498 0
-2855 5939 9515 0
-5956 2857 0
-9498 -9517 2857 0
-2857 5956 9498 0
-2857 5956 9517 0
-5973 2859 0
-9498 -9519 2859 0
-2859 5973 9498 0
-2859 5973 9519 0
-5990 2861 0
-9498 -9521 2861 0
-2861 5990 9498 0
-2861 5990 9521 0
-6007 2863 0
-9500 -9487 2863 0
-2863 6007 9500 0
-2863 6007 9487 0
-6024 2865 0
-9500 -9489 2865 0
-2865 6024 9500 0
-2865 6024 9489 0
-6041 2867 0
-9500 -9491 2867 0
-2867 6041 9500 0
-2867 6041 9491 0
-6058 2869 0
-9500 -9493 2869 0
-2869 6058 9500 0
-2869 6058 9493 0
-6075 2871 0
-9500 -9495 2871 0
-2871 6075 9500 0
-2871 6075 9495 0
-6092 2873 0
-9500 -9497 2873 0
-2873 6092 9500 0
-2873 6092 9497 0
-6109 2875 0
-9500 -9499 2875 0
-2875 6109 9500 0
-2875 6109 9499 0
-6110 2877 0
-9500 -9501 2877 0
-2877 6110 9500 0
-2877 6110 9501 0
-6127 2879 0
-9500 -9503 2879 0
-2879 6127 9500 0
-2879 6127 9503 0
-6144 2881 0
-9500 -9505 2881 0
-2881 6144 9500 0
-2881 6144 9505 0
-6161 2883 0
-9500 -9507 2883 0
-2883 6161 9500 0
-2883 6161 9507 0
-6178 2885 0
-9500 -9509 2885 0
-2885 6178 9500 0
-2885 6178 9509 0
-6195 2887 0
-9500 -9511 2887 0
-2887 6195 9500 0
-2887 6195 9511 0
-6212 2889 0
-9500 -9513 2889 0
-2889 6212 9500 0
-2889 6212 9513 0
-6229 2891 0
-9500 -9515 2891 0
-2891 6229 9500 0
-2891 6229 9515 0
-6246 2893 0
-9500 -9517 2893 0
-2893 6246 9500 0
-2893 6246 9517 0
-6263 2895 0
-9500 -9519 2895 0
-2895 6263 9500 0
-2895 6263 9519 0
-6280 2897 0
-9500 -9521 2897 0
-2897 6280 9500 0
-2897 6280 9521 0
-6297 2899 0
-9502 -9487 2899 0
-2899 6297 9502 0
-2899 6297 9487 0
-6314 2901 0
-9502 -9489 2901 0
-2901 6314 9502 0
-2901 6314 9489 0
-6331 2903 0
-9502 -9491 2903 0
-2903 6331 9502 0
-2903 6331 9491 0
-6348 2905 0
-9502 -9493 2905 0
-2905 6348 9502 0
-2905 6348 9493 0
-6365 2907 0
-9502 -9495 2907 0
-2907 6365 9502 0
-2907 6365 9495 0
-6382 2909 0
-9502 -9497 2909 0
-2909 6382 9502 0
-2909 6382 9497 0
-6399 2911 0
-9502 -9499 2911 0
-2911 6399 9502 0
-2911 6399 9499 0
-6416 2913 0
-9502 -9501 2913 0
-2913 6416 9502 0
-2913 6416 9501 0
-6417 2915 0
-9502 -9503 2915 0
-2915 6417 9502 0
-2915 6417 9503 0
-6434 2917 0
-9502 -9505 2917 0
-2917 6434 9502 0
-2917 6434 9505 0
-6451 2919 0
-9502 -9507 2919 0
-2919 6451 9502 0
-2919 6451 9507 0
-6468 2921 0
-9502 -9509 2921 0
-2921 6468 9502 0
-2921 6468 9509 0
-6485 2923 0
-9502 -9511 2923 0
-2923 6485 9502 0
-2923 6485 9511 0
-6502 2925 0
-9502 -9513 2925 0
-2925 6502 9502 0
-2925 6502 9513 0
-6519 2927 0
-9502 -9515 2927 0
-2927 6519 9502 0
-2927 6519 9515 0
-6536 2929 0
-9502 -9517 2929 0
-2929 6536 9502 0
-2929 6536 9517 0
-6553 2931 0
-9502 -9519 2931 0
-2931 6553 9502 0
-2931 6553 9519 0
-6570 2933 0
-9502 -9521 2933 0
-2933 6570 9502 0
-2933 6570 9521 0
-6587 2935 0
-9504 -9487 2935 0
-2935 6587 9504 0
-2935 6587 9487 0
-6604 2937 0
-9504 -9489 2937 0
-2937 6604 9504 0
-2937 6604 9489 0
-6621 2939 0
-9504 -9491 2939 0
-2939 6621 9504 0
-2939 6621 9491 0
-6638 2941 0
-9504 -9493 2941 0
-2941 6638 9504 0
-2941 6638 9493 0
-6655 2943 0
-9504 -9495 2943 0
-2943 6655 9504 0
-2943 6655 9495 0
-6672 2945 0
-9504 -9497 2945 0
-2945 6672 9504 0
-2945 6672 9497 0
-6689 2947 0
-9504 -9499 2947 0
-2947 6689 9504 0
-2947 6689 9499 0
-6706 2949 0
-9504 -9501 2949 0
-2949 6706 9504 0
-2949 6706 9501 0
-6723 2951 0
-9504 -9503 2951 0
-2951 6723 9504 0
-2951 6723 9503 0
-6724 2953 0
-9504 -9505 2953 0
-2953 6724 9504 0
-2953 6724 9505 0
-6741 2955 0
-9504 -9507 2955 0
-2955 6741 9504 0
-2955 6741 9507 0
-6758 2957 0
-9504 -9509 2957 0
-2957 6758 9504 0
-2957 6758 9509 0
-6775 2959 0
-9504 -9511 2959 0
-2959 6775 9504 0
-2959 6775 9511 0
-6792 2961 0
-9504 -9513 2961 0
-2961 6792 9504 0
-2961 6792 9513 0
-6809 2963 0
-9504 -9515 2963 0
-2963 6809 9504 0
-2963 6809 9515 0
-6826 2965 0
-9504 -9517 2965 0
-2965 6826 9504 0
-2965 6826 9517 0
-6843 2967 0
-9504 -9519 2967 0
-2967 6843 9504 0
-2967 6843 9519 0
-6860 2969 0
-9504 -9521 2969 0
-2969 6860 9504 0
-2969 6860 9521 0
-6877 2971 0
-9506 -9487 2971 0
-2971 6877 9506 0
-2971 6877 9487 0
-6894 2973 0
-9506 -9489 2973 0
-2973 6894 9506 0
-2973 6894 9489 0
-6911 2975 0
-9506 -9491 2975 0
-2975 6911 9506 0
-2975 6911 9491 0
-6928 2977 0
-9506 -9493 2977 0
-2977 6928 9506 0
-2977 6928 9493 0
-6945 2979 0
-9506 -9495 2979 0
-2979 6945 9506 0
-2979 6945 9495 0
-6962 2981 0
-9506 -9497 2981 0
-2981 6962 9506 0
-2981 6962 9497 0
-6979 2983 0
-9506 -9499 2983 0
-2983 6979 9506 0
-2983 6979 9499 0
-6996 2985 0
-9506 -9501 2985 0
-2985 6996 9506 0
-2985 6996 9501 0
-7013 2987 0
-9506 -9503 2987 0
-2987 7013 9506 0
-2987 7013 9503 0
-7030 2989 0
-9506 -9505 2989 0
-2989 7030 9506 0
-2989 7030 9505 0
-7031 2991 0
-9506 -9507 2991 0
-2991 7031 9506 0
-2991 7031 9507 0
-7048 2993 0
-9506 -9509 2993 0
-2993 7048 9506 0
-2993 7048 9509 0
-7065 2995 0
-9506 -9511 2995 0
-2995 7065 9506 0
-2995 7065 9511 0
-7082 2997 0
-9506 -9513 2997 0
-2997 7082 9506 0
-2997 7082 9513 0
-7099 2999 0
-9506 -9515 2999 0
-2999 7099 9506 0
-2999 7099 9515 0
-7116 3001 0
-9506 -9517 3001 0
-3001 7116 9506 0
-3001 7116 9517 0
-7133 3003 0
-9506 -9519 3003 0
-3003 7133 9506 0
-3003 7133 9519 0
-7150 3005 0
-9506 -9521 3005 0
-3005 7150 9506 0
-3005 7150 9521 0
-7167 3007 0
-9508 -9487 3007 0
-3007 7167 9508 0
-3007 7167 9487 0
-7184 3009 0
-9508 -9489 3009 0
-3009 7184 9508 0
-3009 7184 9489 0
-7201 3011 0
-9508 -9491 3011 0
-3011 7201 9508 0
-3011 7201 9491 0
-7218 3013 0
-9508 -9493 3013 0
-3013 7218 9508 0
-3013 7218 9493 0
-7235 3015 0
-9508 -9495 3015 0
-3015 7235 9508 0
-3015 7235 9495 0
-7252 3017 0
-9508 -9497 3017 0
-3017 7252 9508 0
-3017 7252 9497 0
-7269 3019 0
-9508 -9499 3019 0
-3019 7269 9508 0
-3019 7269 9499 0
-7286 3021 0
-9508 -9501 3021 0
-3021 7286 9508 0
-3021 7286 9501 0
-7303 3023 0
-9508 -9503 3023 0
-3023 7303 9508 0
-3023 7303 9503 0
-7320 3025 0
-9508 -9505 3025 0
-3025 7320 9508 0
-3025 7320 9505 0
-7337 3027 0
-9508 -9507 3027 0
-3027 7337 9508 0
-3027 7337 9507 0
-7338 3029 0
-9508 -9509 3029 0
-3029 7338 9508 0
-3029 7338 9509 0
-7355 3031 0
-9508 -9511 3031 0
-3031 7355 9508 0
-3031 7355 9511 0
-7372 3033 0
-9508 -9513 3033 0
-3033 7372 9508 0
-3033 7372 9513 0
-7389 3035 0
-9508 -9515 3035 0
-3035 7389 9508 0
-3035 7389 9515 0
-7406 3037 0
-9508 -9517 3037 0
-3037 7406 9508 0
-3037 7406 9517 0
-7423 3039 0
-9508 -9519 3039 0
-3039 7423 9508 0
-3039 7423 9519 0
-7440 3041 0
-9508 -9521 3041 0
-3041 7440 9508 0
-3041 7440 9521 0
-7457 3043 0
-9510 -9487 3043 0
-3043 7457 9510 0
-3043 7457 9487 0
-7474 3045 0
-9510 -9489 3045 0
-3045 7474 9510 0
-3045 7474 9489 0
-7491 3047 0
-9510 -9491 3047 0
-3047 7491 9510 0
-3047 7491 9491 0
-7508 3049 0
-9510 -9493 3049 0
-3049 7508 9510 0
-3049 7508 9493 0
-7525 3051 0
-9510 -9495 3051 0
-3051 7525 9510 0
-3051 7525 9495 0
-7542 3053 0
-9510 -9497 3053 0
-3053 7542 9510 0
-3053 7542 9497 0
-7559 3055 0
-9510 -9499 3055 0
-3055 7559 9510 0
-3055 7559 9499 0
-7576 3057 0
-9510 -9501 3057 0
-3057 7576 9510 0
-3057 7576 9501 0
-7593 3059 0
-9510 -9503 3059 0
-3059 7593 9510 0
-3059 7593 9503 0
-7610 3061 0
-9510 -9505 3061 0
-3061 7610 9510 0
-3061 7610 9505 0
-7627 3063 0
-9510 -9507 3063 0
-3063 7627 9510 0
-3063 7627 9507 0
-7644 3065 0
-9510 -9509 3065 0
-3065 7644 9510 0
-3065 7644 9509 0
-7645 3067 0
-9510 -9511 3067 0
-3067 7645 9510 0
-3067 7645 9511 0
-7662 3069 0
-9510 -9513 3069 0
-3069 7662 9510 0
-3069 7662 9513 0
-7679 3071 0
-9510 -9515 3071 0
-3071 7679 9510 0
-3071 7679 9515 0
-7696 3073 0
-9510 -9517 3073 0
-3073 7696 9510 0
-3073 7696 9517 0
-7713 3075 0
-9510 -9519 3075 0
-3075 7713 9510 0
-3075 7713 9519 0
-7730 3077 0
-9510 -9521 3077 0
-3077 7730 9510 0
-3077 7730 9521 0
-7747 3079 0
-9512 -9487 3079 0
-3079 7747 9512 0
-3079 7747 9487 0
-7764 3081 0
-9512 -9489 3081 0
-3081 7764 9512 0
-3081 7764 9489 0
-7781 3083 0
-9512 -9491 3083 0
-3083 7781 9512 0
-3083 7781 9491 0
-7798 3085 0
-9512 -9493 3085 0
-3085 7798 9512 0
-3085 7798 9493 0
-7815 3087 0
-9512 -9495 3087 0
-3087 7815 9512 0
-3087 7815 9495 0
-7832 3089 0
-9512 -9497 3089 0
-3089 7832 9512 0
-3089 7832 9497 0
-7849 3091 0
-9512 -9499 3091 0
-3091 7849 9512 0
-3091 7849 9499 0
-7866 3093 0
-9512 -9501 3093 0
-3093 7866 9512 0
-3093 7866 9501 0
-7883 3095 0
-9512 -9503 3095 0
-3095 7883 9512 0
-3095 7883 9503 0
-7900 3097 0
-9512 -9505 3097 0
-3097 7900 9512 0
-3097 7900 9505 0
-7917 3099 0
-9512 -9507 3099 0
-3099 7917 9512 0
-3099 7917 9507 0
-7934 3101 0
-9512 -9509 3101 0
-3101 7934 9512 0
-3101 7934 9509 0
-7951 3103 0
-9512 -9511 3103 0
-3103 7951 9512 0
-3103 7951 9511 0
-7952 3105 0
-9512 -9513 3105 0
-3105 7952 9512 0
-3105 7952 9513 0
-7969 3107 0
-9512 -9515 3107 0
-3107 7969 9512 0
-3107 7969 9515 0
-7986 3109 0
-9512 -9517 3109 0
-3109 7986 9512 0
-3109 7986 9517 0
-8003 3111 0
-9512 -9519 3111 0
-3111 8003 9512 0
-3111 8003 9519 0
-8020 3113 0
-9512 -9521 3113 0
-3113 8020 9512 0
-3113 8020 9521 0
-8037 3115 0
-9514 -9487 3115 0
-3115 8037 9514 0
-3115 8037 9487 0
-8054 3117 0
-9514 -9489 3117 0
-3117 8054 9514 0
-3117 8054 9489 0
-8071 3119 0
-9514 -9491 3119 0
-3119 8071 9514 0
-3119 8071 9491 0
-8088 3121 0
-9514 -9493 3121 0
-3121 8088 9514 0
-3121 8088 9493 0
-8105 3123 0
-9514 -9495 3123 0
-3123 8105 9514 0
-3123 8105 9495 0
-8122 3125 0
-9514 -9497 3125 0
-3125 8122 9514 0
-3125 8122 9497 0
-8139 3127 0
-9514 -9499 3127 0
-3127 8139 9514 0
-3127 8139 9499 0
-8156 3129 0
-9514 -9501 3129 0
-3129 8156 9514 0
-3129 8156 9501 0
-8173 3131 0
-9514 -9503 3131 0
-3131 8173 9514 0
-3131 8173 9503 0
-8190 3133 0
-9514 -9505 3133 0
-3133 8190 9514 0
-3133 8190 9505 0
-8207 3135 0
-9514 -9507 3135 0
-3135 8207 9514 0
-3135 8207 9507 0
-8224 3137 0
-9514 -9509 3137 0
-3137 8224 9514 0
-3137 8224 9509 0
-8241 3139 0
-9514 -9511 3139 0
-3139 8241 9514 0
-3139 8241 9511 0
-8258 3141 0
-9514 -9513 3141 0
-3141 8258 9514 0
-3141 8258 9513 0
-8259 3143 0
-9514 -9515 3143 0
-3143 8259 9514 0
-3143 8259 9515 0
-8276 3145 0
-9514 -9517 3145 0
-3145 8276 9514 0
-3145 8276 9517 0
-8293 3147 0
-9514 -9519 3147 0
-3147 8293 9514 0
-3147 8293 9519 0
-8310 3149 0
-9514 -9521 3149 0
-3149 8310 9514 0
-3149 8310 9521 0
-8327 3151 0
-9516 -9487 3151 0
-3151 8327 9516 0
-3151 8327 9487 0
-8344 3153 0
-9516 -9489 3153 0
-3153 8344 9516 0
-3153 8344 9489 0
-8361 3155 0
-9516 -9491 3155 0
-3155 8361 9516 0
-3155 8361 9491 0
-8378 3157 0
-9516 -9493 3157 0
-3157 8378 9516 0
-3157 8378 9493 0
-8395 3159 0
-9516 -9495 3159 0
-3159 8395 9516 0
-3159 8395 9495 0
-8412 3161 0
-9516 -9497 3161 0
-3161 8412 9516 0
-3161 8412 9497 0
-8429 3163 0
-9516 -9499 3163 0
-3163 8429 9516 0
-3163 8429 9499 0
-8446 3165 0
-9516 -9501 3165 0
-3165 8446 9516 0
-3165 8446 9501 0
-8463 3167 0
-9516 -9503 3167 0
-3167 8463 9516 0
-3167 8463 9503 0
-8480 3169 0
-9516 -9505 3169 0
-3169 8480 9516 0
-3169 8480 9505 0
-8497 3171 0
-9516 -9507 3171 0
-3171 8497 9516 0
-3171 8497 9507 0
-8514 3173 0
-9516 -9509 3173 0
-3173 8514 9516 0
-3173 8514 9509 0
-8531 3175 0
-9516 -9511 3175 0
-3175 8531 9516 0
-3175 8531 9511 0
-8548 3177 0
-9516 -9513 3177 0
-3177 8548 9516 0
-3177 8548 9513 0
-8565 3179 0
-9516 -9515 3179 0
-3179 8565 9516 0
-3179 8565 9515 0
-8566 3181 0
-9516 -9517 3181 0
-3181 8566 9516 0
-3181 8566 9517 0
-8583 3183 0
-9516 -9519 3183 0
-3183 8583 9516 0
-3183 8583 9519 0
-8600 3185 0
-9516 -9521 3185 0
-3185 8600 9516 0
-3185 8600 9521 0
-8617 3187 0
-9518 -9487 3187 0
-3187 8617 9518 0
-3187 8617 9487 0
-8634 3189 0
-9518 -9489 3189 0
-3189 8634 9518 0
-3189 8634 9489 0
-8651 3191 0
-9518 -9491 3191 0
-3191 8651 9518 0
-3191 8651 9491 0
-8668 3193 0
-9518 -9493 3193 0
-3193 8668 9518 0
-3193 8668 9493 0
-8685 3195 0
-9518 -9495 3195 0
-3195 8685 9518 0
-3195 8685 9495 0
-8702 3197 0
-9518 -9497 3197 0
-3197 8702 9518 0
-3197 8702 9497 0
-8719 3199 0
-9518 -9499 3199 0
-3199 8719 9518 0
-3199 8719 9499 0
-8736 3201 0
-9518 -9501 3201 0
-3201 8736 9518 0
-3201 8736 9501 0
-8753 3203 0
-9518 -9503 3203 0
-3203 8753 9518 0
-3203 8753 9503 0
-8770 3205 0
-9518 -9505 3205 0
-3205 8770 9518 0
-3205 8770 9505 0
-8787 3207 0
-9518 -9507 3207 0
-3207 8787 9518 0
-3207 8787 9507 0
-8804 3209 0
-9518 -9509 3209 0
-3209 8804 9518 0
-3209 8804 9509 0
-8821 3211 0
-9518 -9511 3211 0
-3211 8821 9518 0
-3211 8821 9511 0
-8838 3213 0
-9518 -9513 3213 0
-3213 8838 9518 0
-3213 8838 9513 0
-8855 3215 0
-9518 -9515 3215 0
-3215 8855 9518 0
-3215 8855 9515 0
-8872 3217 0
-9518 -9517 3217 0
-3217 8872 9518 0
-3217 8872 9517 0
-8873 3219 0
-9518 -9519 3219 0
-3219 8873 9518 0
-3219 8873 9519 0
-8890 3221 0
-9518 -9521 3221 0
-3221 8890 9518 0
-3221 8890 9521 0
-8907 3223 0
-9520 -9487 3223 0
-3223 8907 9520 0
-3223 8907 9487 0
-8924 3225 0
-9520 -9489 3225 0
-3225 8924 9520 0
-3225 8924 9489 0
-8941 3227 0
-9520 -9491 3227 0
-3227 8941 9520 0
-3227 8941 9491 0
-8958 3229 0
-9520 -9493 3229 0
-3229 8958 9520 0
-3229 8958 9493 0
-8975 3231 0
-9520 -9495 3231 0
-3231 8975 9520 0
-3231 8975 9495 0
-8992 3233 0
-9520 -9497 3233 0
-3233 8992 9520 0
-3233 8992 9497 0
-9009 3235 0
-9520 -9499 3235 0
-3235 9009 9520 0
-3235 9009 9499 0
-9026 3237 0
-9520 -9501 3237 0
-3237 9026 9520 0
-3237 9026 9501 0
-9043 3239 0
-9520 -9503 3239 0
-3239 9043 9520 0
-3239 9043 9503 0
-9060 3241 0
-9520 -9505 3241 0
-3241 9060 9520 0
-3241 9060 9505 0
-9077 3243 0
-9520 -9507 3243 0
-3243 9077 9520 0
-3243 9077 9507 0
-9094 3245 0
-9520 -9509 3245 0
-3245 9094 9520 0
-3245 9094 9509 0
-9111 3247 0
-9520 -9511 3247 0
-3247 9111 9520 0
-3247 9111 9511 0
-9128 3249 0
-9520 -9513 3249 0
-3249 9128 9520 0
-3249 9128 9513 0
-9145 3251 0
-9520 -9515 3251 0
-3251 9145 9520 0
-3251 9145 9515 0
-9162 3253 0
-9520 -9517 3253 0
-3253 9162 9520 0
-3253 9162 9517 0
-9179 3255 0
-9520 -9519 3255 0
-3255 9179 9520 0
-3255 9179 9519 0
-9180 3257 0
-9520 -9521 3257 0
-3257 9180 9520 0
-3257 9180 9521 0
-9197 3259 0
-9522 -9487 3259 0
-3259 9197 9522 0
-3259 9197 9487 0
-9214 3261 0
-9522 -9489 3261 0
-3261 9214 9522 0
-3261 9214 9489 0
-9231 3263 0
-9522 -9491 3263 0
-3263 9231 9522 0
-3263 9231 9491 0
-9248 3265 0
-9522 -9493 3265 0
-3265 9248 9522 0
-3265 9248 9493 0
-9265 3267 0
-9522 -9495 3267 0
-3267 9265 9522 0
-3267 9265 9495 0
-9282 3269 0
-9522 -9497 3269 0
-3269 9282 9522 0
-3269 9282 9497 0
-9299 3271 0
-9522 -9499 3271 0
-3271 9299 9522 0
-3271 9299 9499 0
-9316 3273 0
-9522 -9501 3273 0
-3273 9316 9522 0
-3273 9316 9501 0
-9333 3275 0
-9522 -9503 3275 0
-3275 9333 9522 0
-3275 9333 9503 0
-9350 3277 0
-9522 -9505 3277 0
-3277 9350 9522 0
-3277 9350 9505 0
-9367 3279 0
-9522 -9507 3279 0
-3279 9367 9522 0
-3279 9367 9507 0
-9384 3281 0
-9522 -9509 3281 0
-3281 9384 9522 0
-3281 9384 9509 0
-9401 3283 0
-9522 -9511 3283 0
-3283 9401 9522 0
-3283 9401 9511 0
-9418 3285 0
-9522 -9513 3285 0
-3285 9418 9522 0
-3285 9418 9513 0
-9435 3287 0
-9522 -9515 3287 0
-3287 9435 9522 0
-3287 9435 9515 0
-9452 3289 0
-9522 -9517 3289 0
-3289 9452 9522 0
-3289 9452 9517 0
-9469 3291 0
-9522 -9519 3291 0
-3291 9469 9522 0
-3291 9469 9519 0
-9486 3293 0
-9522 -9521 3293 0
-3293 9486 9522 0
-3293 9486 9521 0
