c E(domain3,domain3) CIRCULAR_PRED(domain3,domain3) E(domain0,domain0) CIRCULAR_PRED(domain3,domain0) E(domain0,domain3) E(domain3,domain0) CIRCULAR_PRED(domain0,domain3) E(domain3,domain2) CIRCULAR_PRED(domain2,domain3) CIRCULAR_PRED(domain3,domain2) E(domain2,domain2) E(domain2,domain3) E(domain3,domain1) CIRCULAR_PRED(domain1,domain3) E(domain1,domain3) E(domain1,domain1) CIRCULAR_PRED(domain3,domain1) CIRCULAR_PRED(domain0,domain0) E(domain2,domain0) CIRCULAR_PRED(domain2,domain0) CIRCULAR_PRED(domain0,domain2) E(domain0,domain2) CIRCULAR_PRED(domain1,domain0) CIRCULAR_PRED(domain0,domain1) E(domain0,domain1) E(domain1,domain0) CIRCULAR_PRED(domain2,domain2) CIRCULAR_PRED(domain2,domain1) E(domain2,domain1) CIRCULAR_PRED(domain1,domain2) E(domain1,domain2) CIRCULAR_PRED(domain1,domain1) LEQ(domain0,domain0) LEQ(domain0,domain1) LEQ(domain0,domain2) LEQ(domain0,domain3) LEQ(domain1,domain0) LEQ(domain1,domain1) LEQ(domain1,domain2) LEQ(domain1,domain3) LEQ(domain2,domain0) LEQ(domain2,domain1) LEQ(domain2,domain2) LEQ(domain2,domain3) LEQ(domain3,domain0) LEQ(domain3,domain1) LEQ(domain3,domain2) LEQ(domain3,domain3) CC49(c) CC50(c) CC51(c) CC52(c) CC53(c) CC54(c) CC55(c) CC56(c) CC57(c) CC58(c) CC59(c) CC60(c) CC61(c) CC62(c) CC63(c) CC64(c) CC65(c) CC66(c) CC67(c) CC68(c) CC69(c) CC70(c) CC71(c) CC72(c) CC73(c) CC74(c) CC75(c) CC76(c) CC77(c) CC78(c) CC79(c) CC80(c) CC81(c) CC82(c) CC83(c) CC84(c) CC85(c) CC86(c) CC87(c) CC88(c) CC89(c) CC90(c) CC91(c) CC92(c) CC93(c) CC94(c) CC95(c) CC96(c) CC97(c) CC98(c) CC99(c) CC100(c) CC101(c) CC102(c) CC103(c) CC104(c)
c 1 2 3 4 5 6 7 8 9 10 11 12 13 14 15 16 17 18 19 20 21 22 23 24 25 26 27 28 29 30 31 32 33 34 35 36 37 38 39 40 41 42 43 44 45 46 47 48 49 50 51 52 53 54 55 56 57 58 59 60 61 62 63 64 65 66 67 68 69 70 71 72 73 74 75 76 77 78 79 80 81 82 83 84 85 86 87 88 89 90 91 92 93 94 95 96 97 98 99 100 101 102 103 104
p cnf 104 560
-3 0
-16 0
-11 0
-1 0
3 -18 0
3 -3 0
25 -24 0
25 -26 0
22 -21 0
22 -19 0
5 -7 0
5 -6 0
26 -23 0
26 -25 0
16 -32 0
16 -16 0
31 -30 0
31 -29 0
15 -14 0
15 -13 0
19 -20 0
19 -22 0
29 -28 0
29 -31 0
11 -27 0
11 -11 0
12 -9 0
12 -8 0
6 -4 0
6 -5 0
13 -17 0
13 -15 0
8 -10 0
8 -12 0
1 -2 0
1 -1 0
33 0
34 37 0
-34 -37 0
-34 -39 35 0
-34 -40 36 0
35 41 0
-35 -41 0
-35 -42 34 0
-35 -44 36 0
36 45 0
-36 -45 0
-36 -46 34 0
-36 -47 35 0
38 0
-37 -35 39 0
-37 -36 40 0
39 42 0
-39 -42 0
-39 -41 37 0
-39 -44 40 0
40 46 0
-40 -46 0
-40 -45 37 0
-40 -47 39 0
43 0
-41 -34 42 0
-41 -36 44 0
-42 -37 41 0
-42 -40 44 0
44 47 0
-44 -47 0
-44 -45 41 0
-44 -46 42 0
48 0
-45 -34 46 0
-45 -35 47 0
-46 -37 45 0
-46 -39 47 0
-47 -41 45 0
-47 -42 46 0
-18 0
18 23 20 4 0
18 24 21 7 0
-37 -23 35 -39 0
-37 -23 -35 39 0
-34 -24 35 -39 0
-34 -24 -35 39 0
-37 -23 36 -40 0
-37 -23 -36 40 0
-34 -24 36 -40 0
-34 -24 -36 40 0
-37 -20 34 -42 0
-37 -20 -34 42 0
-34 -21 34 -42 0
-34 -21 -34 42 0
-37 -20 36 -44 0
-37 -20 -36 44 0
-34 -21 36 -44 0
-34 -21 -36 44 0
-37 -4 34 -46 0
-37 -4 -34 46 0
-34 -7 34 -46 0
-34 -7 -34 46 0
-37 -4 35 -47 0
-37 -4 -35 47 0
-34 -7 35 -47 0
-34 -7 -35 47 0
-41 -23 35 -39 0
-41 -23 -35 39 0
-35 -24 35 -39 0
-35 -24 -35 39 0
-41 -23 36 -40 0
-41 -23 -36 40 0
-35 -24 36 -40 0
-35 -24 -36 40 0
-41 -20 34 -42 0
-41 -20 -34 42 0
-35 -21 34 -42 0
-35 -21 -34 42 0
-41 -20 36 -44 0
-41 -20 -36 44 0
-35 -21 36 -44 0
-35 -21 -36 44 0
-41 -4 34 -46 0
-41 -4 -34 46 0
-35 -7 34 -46 0
-35 -7 -34 46 0
-41 -4 35 -47 0
-41 -4 -35 47 0
-35 -7 35 -47 0
-35 -7 -35 47 0
-45 -23 35 -39 0
-45 -23 -35 39 0
-36 -24 35 -39 0
-36 -24 -35 39 0
-45 -23 36 -40 0
-45 -23 -36 40 0
-36 -24 36 -40 0
-36 -24 -36 40 0
-45 -20 34 -42 0
-45 -20 -34 42 0
-36 -21 34 -42 0
-36 -21 -34 42 0
-45 -20 36 -44 0
-45 -20 -36 44 0
-36 -21 36 -44 0
-36 -21 -36 44 0
-45 -4 34 -46 0
-45 -4 -34 46 0
-36 -7 34 -46 0
-36 -7 -34 46 0
-45 -4 35 -47 0
-45 -4 -35 47 0
-36 -7 35 -47 0
-36 -7 -35 47 0
-34 -35 -36 -23 34 0
-37 -41 -45 -24 37 0
-41 -23 37 0
-35 -24 34 0
-45 -23 37 0
-36 -24 34 0
-34 -35 -36 -20 35 0
-37 -41 -45 -21 41 0
-37 -20 41 0
-34 -21 35 0
-45 -20 41 0
-36 -21 35 0
-34 -35 -36 -4 36 0
-37 -41 -45 -7 45 0
-37 -4 45 0
-34 -7 36 0
-41 -4 45 0
-35 -7 36 0
-32 0
24 32 28 17 0
23 32 30 14 0
-34 -24 39 -35 0
-34 -24 -39 35 0
-37 -23 39 -35 0
-37 -23 -39 35 0
-34 -24 40 -36 0
-34 -24 -40 36 0
-37 -23 40 -36 0
-37 -23 -40 36 0
-34 -28 37 -41 0
-34 -28 -37 41 0
-37 -30 37 -41 0
-37 -30 -37 41 0
-34 -28 40 -44 0
-34 -28 -40 44 0
-37 -30 40 -44 0
-37 -30 -40 44 0
-34 -17 37 -45 0
-34 -17 -37 45 0
-37 -14 37 -45 0
-37 -14 -37 45 0
-34 -17 39 -47 0
-34 -17 -39 47 0
-37 -14 39 -47 0
-37 -14 -39 47 0
-42 -24 39 -35 0
-42 -24 -39 35 0
-39 -23 39 -35 0
-39 -23 -39 35 0
-42 -24 40 -36 0
-42 -24 -40 36 0
-39 -23 40 -36 0
-39 -23 -40 36 0
-42 -28 37 -41 0
-42 -28 -37 41 0
-39 -30 37 -41 0
-39 -30 -37 41 0
-42 -28 40 -44 0
-42 -28 -40 44 0
-39 -30 40 -44 0
-39 -30 -40 44 0
-42 -17 37 -45 0
-42 -17 -37 45 0
-39 -14 37 -45 0
-39 -14 -37 45 0
-42 -17 39 -47 0
-42 -17 -39 47 0
-39 -14 39 -47 0
-39 -14 -39 47 0
-46 -24 39 -35 0
-46 -24 -39 35 0
-40 -23 39 -35 0
-40 -23 -39 35 0
-46 -24 40 -36 0
-46 -24 -40 36 0
-40 -23 40 -36 0
-40 -23 -40 36 0
-46 -28 37 -41 0
-46 -28 -37 41 0
-40 -30 37 -41 0
-40 -30 -37 41 0
-46 -28 40 -44 0
-46 -28 -40 44 0
-40 -30 40 -44 0
-40 -30 -40 44 0
-46 -17 37 -45 0
-46 -17 -37 45 0
-40 -14 37 -45 0
-40 -14 -37 45 0
-46 -17 39 -47 0
-46 -17 -39 47 0
-40 -14 39 -47 0
-40 -14 -39 47 0
-37 -39 -40 -24 37 0
-34 -42 -46 -23 34 0
-42 -24 34 0
-39 -23 37 0
-46 -24 34 0
-40 -23 37 0
-37 -39 -40 -28 39 0
-34 -42 -46 -30 42 0
-34 -28 42 0
-37 -30 39 0
-46 -28 42 0
-40 -30 39 0
-37 -39 -40 -17 40 0
-34 -42 -46 -14 46 0
-34 -17 46 0
-37 -14 40 0
-42 -17 46 0
-39 -14 40 0
-27 0
21 30 27 10 0
20 28 27 9 0
-35 -21 42 -34 0
-35 -21 -42 34 0
-41 -20 42 -34 0
-41 -20 -42 34 0
-35 -21 44 -36 0
-35 -21 -44 36 0
-41 -20 44 -36 0
-41 -20 -44 36 0
-35 -30 41 -37 0
-35 -30 -41 37 0
-41 -28 41 -37 0
-41 -28 -41 37 0
-35 -30 44 -40 0
-35 -30 -44 40 0
-41 -28 44 -40 0
-41 -28 -44 40 0
-35 -10 41 -45 0
-35 -10 -41 45 0
-41 -9 41 -45 0
-41 -9 -41 45 0
-35 -10 42 -46 0
-35 -10 -42 46 0
-41 -9 42 -46 0
-41 -9 -42 46 0
-39 -21 42 -34 0
-39 -21 -42 34 0
-42 -20 42 -34 0
-42 -20 -42 34 0
-39 -21 44 -36 0
-39 -21 -44 36 0
-42 -20 44 -36 0
-42 -20 -44 36 0
-39 -30 41 -37 0
-39 -30 -41 37 0
-42 -28 41 -37 0
-42 -28 -41 37 0
-39 -30 44 -40 0
-39 -30 -44 40 0
-42 -28 44 -40 0
-42 -28 -44 40 0
-39 -10 41 -45 0
-39 -10 -41 45 0
-42 -9 41 -45 0
-42 -9 -41 45 0
-39 -10 42 -46 0
-39 -10 -42 46 0
-42 -9 42 -46 0
-42 -9 -42 46 0
-47 -21 42 -34 0
-47 -21 -42 34 0
-44 -20 42 -34 0
-44 -20 -42 34 0
-47 -21 44 -36 0
-47 -21 -44 36 0
-44 -20 44 -36 0
-44 -20 -44 36 0
-47 -30 41 -37 0
-47 -30 -41 37 0
-44 -28 41 -37 0
-44 -28 -41 37 0
-47 -30 44 -40 0
-47 -30 -44 40 0
-44 -28 44 -40 0
-44 -28 -44 40 0
-47 -10 41 -45 0
-47 -10 -41 45 0
-44 -9 41 -45 0
-44 -9 -41 45 0
-47 -10 42 -46 0
-47 -10 -42 46 0
-44 -9 42 -46 0
-44 -9 -42 46 0
-41 -42 -44 -21 41 0
-35 -39 -47 -20 35 0
-39 -21 35 0
-42 -20 41 0
-47 -21 35 0
-44 -20 41 0
-41 -42 -44 -30 42 0
-35 -39 -47 -28 39 0
-35 -30 39 0
-41 -28 42 0
-47 -30 39 0
-44 -28 42 0
-41 -42 -44 -10 44 0
-35 -39 -47 -9 47 0
-35 -10 47 0
-41 -9 44 0
-39 -10 47 0
-42 -9 44 0
-2 0
7 14 9 2 0
4 17 10 2 0
-36 -7 46 -34 0
-36 -7 -46 34 0
-45 -4 46 -34 0
-45 -4 -46 34 0
-36 -7 47 -35 0
-36 -7 -47 35 0
-45 -4 47 -35 0
-45 -4 -47 35 0
-36 -14 45 -37 0
-36 -14 -45 37 0
-45 -17 45 -37 0
-45 -17 -45 37 0
-36 -14 47 -39 0
-36 -14 -47 39 0
-45 -17 47 -39 0
-45 -17 -47 39 0
-36 -9 45 -41 0
-36 -9 -45 41 0
-45 -10 45 -41 0
-45 -10 -45 41 0
-36 -9 46 -42 0
-36 -9 -46 42 0
-45 -10 46 -42 0
-45 -10 -46 42 0
-40 -7 46 -34 0
-40 -7 -46 34 0
-46 -4 46 -34 0
-46 -4 -46 34 0
-40 -7 47 -35 0
-40 -7 -47 35 0
-46 -4 47 -35 0
-46 -4 -47 35 0
-40 -14 45 -37 0
-40 -14 -45 37 0
-46 -17 45 -37 0
-46 -17 -45 37 0
-40 -14 47 -39 0
-40 -14 -47 39 0
-46 -17 47 -39 0
-46 -17 -47 39 0
-40 -9 45 -41 0
-40 -9 -45 41 0
-46 -10 45 -41 0
-46 -10 -45 41 0
-40 -9 46 -42 0
-40 -9 -46 42 0
-46 -10 46 -42 0
-46 -10 -46 42 0
-44 -7 46 -34 0
-44 -7 -46 34 0
-47 -4 46 -34 0
-47 -4 -46 34 0
-44 -7 47 -35 0
-44 -7 -47 35 0
-47 -4 47 -35 0
-47 -4 -47 35 0
-44 -14 45 -37 0
-44 -14 -45 37 0
-47 -17 45 -37 0
-47 -17 -45 37 0
-44 -14 47 -39 0
-44 -14 -47 39 0
-47 -17 47 -39 0
-47 -17 -47 39 0
-44 -9 45 -41 0
-44 -9 -45 41 0
-47 -10 45 -41 0
-47 -10 -45 41 0
-44 -9 46 -42 0
-44 -9 -46 42 0
-47 -10 46 -42 0
-47 -10 -46 42 0
-45 -46 -47 -7 45 0
-36 -40 -44 -4 36 0
-40 -7 36 0
-46 -4 45 0
-44 -7 36 0
-47 -4 45 0
-45 -46 -47 -14 46 0
-36 -40 -44 -17 40 0
-36 -14 40 0
-45 -17 46 0
-44 -14 40 0
-47 -17 46 0
-45 -46 -47 -9 47 0
-36 -40 -44 -10 44 0
-36 -9 44 0
-45 -10 47 0
-40 -9 44 0
-46 -10 47 0
1 49 0
-49 50 0
3 -49 51 0
-51 52 0
5 -51 0
3 50 0
-50 53 0
5 -50 52 0
-52 54 0
6 -52 0
5 53 0
-53 55 0
6 -53 54 0
-54 56 0
8 -54 0
6 55 0
-55 57 0
8 -55 56 0
-56 58 0
11 -56 0
8 57 0
-57 59 0
11 -57 58 0
-58 60 0
12 -58 0
11 59 0
-59 61 0
12 -59 60 0
-60 62 0
13 -60 0
12 61 0
-61 63 0
13 -61 62 0
-62 64 0
15 -62 0
13 63 0
-63 65 0
15 -63 64 0
-64 66 0
16 -64 0
15 65 0
-65 67 0
16 -65 66 0
-66 68 0
19 -66 0
16 67 0
-67 69 0
19 -67 68 0
-68 70 0
22 -68 0
19 69 0
-69 71 0
22 -69 70 0
-70 72 0
25 -70 0
22 71 0
-71 73 0
25 -71 72 0
-72 74 0
26 -72 0
25 73 0
-73 75 0
26 -73 74 0
-74 76 0
29 -74 0
26 75 0
29 -75 76 0
31 -76 0
-1 77 0
-77 78 0
-3 -77 79 0
-79 80 0
-5 -79 81 0
-81 82 0
-6 -81 83 0
-83 84 0
-8 -83 85 0
-85 86 0
-11 -85 87 0
-87 88 0
-12 -87 89 0
-89 90 0
-13 -89 91 0
-91 92 0
-15 -91 93 0
-93 94 0
-16 -93 95 0
-95 96 0
-19 -95 97 0
-97 98 0
-22 -97 99 0
-99 100 0
-25 -99 101 0
-101 102 0
-26 -101 103 0
-103 104 0
-29 -103 0
-3 78 0
-5 -78 80 0
-6 -80 82 0
-8 -82 84 0
-11 -84 86 0
-12 -86 88 0
-13 -88 90 0
-15 -90 92 0
-16 -92 94 0
-19 -94 96 0
-22 -96 98 0
-25 -98 100 0
-26 -100 102 0
-29 -102 104 0
-31 -104 0
