p cnf 5340 13210
c ind 1 2 3 4 5 6 7 8 9 10 11 12 13 14 15 16 17 18 19 20 21 22 23 24 25 26 27 28 29 30 31 32 33 34 35 36 37 38 39 40 41 42 43 44 45 46 47 48 49 50 0
c ind 51 52 53 54 55 56 57 58 59 60 61 62 63 64 65 66 67 68 69 70 71 72 73 74 75 76 77 78 79 80 81 82 83 84 85 86 87 88 89 90 91 92 93 94 95 96 97 98 99 100 0
c ind 101 102 103 104 105 106 107 108 109 110 111 112 113 114 115 116 117 118 119 120 121 122 123 124 125 126 127 128 129 130 131 132 133 134 135 136 137 138 139 140 141 142 143 144 145 146 147 148 149 150 0
c ind 151 152 153 154 155 156 157 158 159 160 161 162 163 164 165 166 167 168 169 170 171 172 173 174 175 176 177 178 179 180 181 182 183 184 185 186 187 188 189 190 191 192 193 194 195 196 197 198 199 200 0
c ind 4401 4402 4403 4404 4405 4406 4407 4408 4409 4410 4411 4412 4413 4414 4415 4416 4417 4418 4419 4420 4421 4422 4423 4424 4425 4426 4427 4428 4429 4430 4431 4432 4433 4434 4435 4436 4437 4438 4439 4440 4441 4442 4443 4444 4445 4446 4447 4448 4449 4450 0
c ind 4451 4452 4453 4454 4455 4456 4457 4458 4459 4460 4461 4462 4463 4464 4465 4466 4467 4468 4469 4470 4471 4472 4473 4474 4475 4476 4477 4478 4479 4480 4481 4482 4483 4484 4485 4486 4487 4488 4489 4490 4491 4492 4493 4494 4495 4496 4497 4498 4499 4500 0
c ind 4501 4502 4503 4504 4505 4506 4507 4508 4509 4510 4511 4512 4513 4514 4515 4516 4517 4518 4519 4520 4521 4522 4523 4524 4525 4526 4527 4528 4529 4530 4531 4532 4533 4534 4535 4536 4537 4538 4539 4540 4541 4542 4543 4544 4545 4546 4547 4548 4549 4550 0
c ind 4551 4552 4553 4554 4555 4556 4557 4558 4559 4560 4561 4562 4563 4564 4565 4566 4567 4568 4569 4570 4571 4572 4573 4574 4575 4576 4577 4578 4579 4580 4581 4582 4583 4584 4585 4586 4587 4588 4589 4590 4591 4592 4593 4594 4595 4596 4597 4598 4599 4600 0
c ind 4601 4602 4603 4604 4605 4606 4607 4608 4609 4610 4611 4612 4613 4614 4615 4616 4617 4618 4619 4620 4621 4622 4623 4624 4625 4626 4627 4628 4629 4630 4631 4632 4633 4634 4635 4636 4637 4638 4639 4640 4641 4642 4643 4644 4645 4646 4647 4648 4649 4650 0
c ind 4651 4652 4653 4654 4655 4656 4657 4658 4659 4660 4661 4662 4663 4664 4665 4666 4667 4668 4669 4670 4671 4672 4673 4674 4675 4676 4677 4678 4679 4680 4681 4682 4683 4684 4685 4686 4687 4688 4689 4690 4691 4692 4693 4694 4695 4696 4697 4698 4699 4700 0
c ind 4701 4702 4703 4704 4705 4706 4707 4708 4709 4710 4711 4712 4713 4714 4715 4716 4717 4718 4719 4720 4721 4722 4723 4724 4725 4726 4727 4728 4729 4730 4731 4732 4733 4734 4735 4736 4737 4738 4739 4740 4741 4742 4743 4744 4745 4746 4747 4748 4749 4750 0
c ind 4751 4752 4753 4754 4755 4756 4757 4758 4759 4760 4761 4762 4763 4764 4765 4766 4767 4768 4769 4770 4771 4772 4773 4774 4775 4776 4777 4778 4779 4780 4781 4782 4783 4784 4785 4786 4787 4788 4789 4790 4791 4792 4793 4794 4795 4796 4797 4798 4799 4800 0
c ind 4801 4802 4803 4804 4805 4806 4807 4808 4809 4810 4811 4812 4813 4814 4815 4816 4817 4818 4819 4820 4821 4822 4823 4824 4825 4826 4827 4828 4829 4830 4831 4832 4833 4834 4835 4836 4837 4838 4839 4840 4841 4842 4843 4844 4845 4846 4847 4848 4849 4850 0
c ind 4851 4852 4853 4854 4855 4856 4857 4858 4859 4860 4861 4862 4863 4864 4865 4866 4867 4868 4869 4870 4871 4872 4873 4874 4875 4876 4877 4878 4879 4880 4881 4882 4883 4884 4885 4886 4887 4888 4889 4890 4891 4892 4893 4894 4895 4896 4897 4898 4899 4900 0
c ind 4901 4902 4903 4904 4905 4906 4907 4908 4909 4910 4911 4912 4913 4914 4915 4916 4917 4918 4919 4920 4921 4922 4923 4924 4925 4926 4927 4928 4929 4930 4931 4932 4933 4934 4935 4936 4937 4938 4939 4940 4941 4942 4943 4944 4945 4946 4947 4948 4949 4950 0
c ind 4951 4952 4953 4954 4955 4956 4957 4958 4959 4960 4961 4962 4963 4964 4965 4966 4967 4968 4969 4970 4971 4972 4973 4974 4975 4976 4977 4978 4979 4980 4981 4982 4983 4984 4985 4986 4987 4988 4989 4990 4991 4992 4993 4994 4995 4996 4997 4998 4999 5000 0
c ind 5001 5002 5003 5004 5005 5006 5007 5008 5009 5010 5011 5012 5013 5014 5015 5016 5017 5018 5019 5020 5021 5022 5023 5024 5025 5026 5027 5028 5029 5030 5031 5032 5033 5034 5035 5036 5037 5038 5039 5040 5041 5042 5043 5044 5045 5046 5047 5048 5049 5050 0
c ind 5051 5052 5053 5054 5055 5056 5057 5058 5059 5060 5061 5062 5063 5064 5065 5066 5067 5068 5069 5070 5071 5072 5073 5074 5075 5076 5077 5078 5079 5080 5081 5082 5083 5084 5085 5086 5087 5088 5089 5090 5091 5092 5093 5094 5095 5096 5097 5098 5099 5100 0
c ind 5101 5102 5103 5104 5105 5106 5107 5108 5109 5110 5111 5112 5113 5114 5115 5116 5117 5118 5119 5120 5121 5122 5123 5124 5125 5126 5127 5128 5129 5130 5131 5132 5133 5134 5135 5136 5137 5138 5139 5140 5141 5142 5143 5144 5145 5146 5147 5148 5149 5150 0
c ind 5151 5152 5153 5154 5155 5156 5157 5158 5159 5160 5161 5162 5163 5164 5165 5166 5167 5168 5169 5170 5171 5172 5173 5174 5175 5176 5177 5178 5179 5180 5181 5182 5183 5184 5185 5186 5187 5188 5189 5190 5191 5192 5193 5194 5195 5196 5197 5198 5199 5200 0
c ind 5201 5202 5203 5204 5205 5206 5207 5208 5209 5210 5211 5212 5213 5214 5215 5216 5217 5218 5219 5220 5221 5222 5223 5224 5225 5226 5227 5228 5229 5230 5231 5232 5233 5234 5235 5236 5237 5238 5239 5240 5241 5242 5243 5244 5245 5246 5247 5248 5249 5250 0
c ind 5251 5252 5253 5254 5255 5256 5257 5258 5259 5260 5261 5262 5263 5264 5265 5266 5267 5268 5269 5270 5271 5272 5273 5274 5275 5276 5277 5278 5279 5280 5281 5282 5283 5284 5285 5286 5287 5288 5289 5290 5291 5292 5293 5294 5295 5296 5297 5298 5299 5300 0
c ind 5301 5302 5303 5304 5305 5306 5307 5308 5309 5310 5311 5312 5313 5314 5315 5316 5317 5318 5319 5320 5321 5322 5323 5324 5325 5326 5327 5328 5329 5330 5331 5332 5333 5334 5335 5336 5337 5338 5339 5340 0
-1 0
-2 0
-3 0
-4 0
-5 0
-6 0
-7 0
-8 0
-9 0
-10 0
1 -11 0
12 -13 0
14 -15 0
16 -17 0
18 -19 0
20 -21 0
22 -23 0
24 -25 0
26 -27 0
28 -29 0
30 -31 0
2 -32 0
33 -34 0
35 -36 0
37 -38 0
39 -40 0
41 -42 0
43 -44 0
45 -46 0
47 -48 0
49 -50 0
51 -52 0
3 -53 0
54 -55 0
56 -57 0
58 -59 0
60 -61 0
62 -63 0
64 -65 0
66 -67 0
68 -69 0
70 -71 0
72 -73 0
4 -74 0
75 -76 0
77 -78 0
79 -80 0
81 -82 0
83 -84 0
85 -86 0
87 -88 0
89 -90 0
91 -92 0
93 -94 0
5 -95 0
96 -97 0
98 -99 0
100 -101 0
102 -103 0
104 -105 0
106 -107 0
108 -109 0
110 -111 0
112 -113 0
114 -115 0
6 -116 0
117 -118 0
119 -120 0
121 -122 0
123 -124 0
125 -126 0
127 -128 0
129 -130 0
131 -132 0
133 -134 0
135 -136 0
7 -137 0
138 -139 0
140 -141 0
142 -143 0
144 -145 0
146 -147 0
148 -149 0
150 -151 0
152 -153 0
154 -155 0
156 -157 0
8 -158 0
159 -160 0
161 -162 0
163 -164 0
165 -166 0
167 -168 0
169 -170 0
171 -172 0
173 -174 0
175 -176 0
177 -178 0
9 -179 0
180 -181 0
182 -183 0
184 -185 0
186 -187 0
188 -189 0
190 -191 0
192 -193 0
194 -195 0
196 -197 0
198 -199 0
10 -200 0
1 -1 0
30 -12 0
49 -14 0
68 -16 0
87 -18 0
106 -20 0
125 -22 0
144 -24 0
163 -26 0
182 -28 0
12 -30 0
2 -2 0
51 -33 0
70 -35 0
89 -37 0
108 -39 0
127 -41 0
146 -43 0
165 -45 0
184 -47 0
14 -49 0
33 -51 0
3 -3 0
72 -54 0
91 -56 0
110 -58 0
129 -60 0
148 -62 0
167 -64 0
186 -66 0
16 -68 0
35 -70 0
54 -72 0
4 -4 0
93 -75 0
112 -77 0
131 -79 0
150 -81 0
169 -83 0
188 -85 0
18 -87 0
37 -89 0
56 -91 0
75 -93 0
5 -5 0
114 -96 0
133 -98 0
152 -100 0
171 -102 0
190 -104 0
20 -106 0
39 -108 0
58 -110 0
77 -112 0
96 -114 0
6 -6 0
135 -117 0
154 -119 0
173 -121 0
192 -123 0
22 -125 0
41 -127 0
60 -129 0
79 -131 0
98 -133 0
117 -135 0
7 -7 0
156 -138 0
175 -140 0
194 -142 0
24 -144 0
43 -146 0
62 -148 0
81 -150 0
100 -152 0
119 -154 0
138 -156 0
8 -8 0
177 -159 0
196 -161 0
26 -163 0
45 -165 0
64 -167 0
83 -169 0
102 -171 0
121 -173 0
140 -175 0
159 -177 0
9 -9 0
198 -180 0
28 -182 0
47 -184 0
66 -186 0
85 -188 0
104 -190 0
123 -192 0
142 -194 0
161 -196 0
180 -198 0
10 -10 0
1 201 0
-201 202 0
12 -201 203 0
-203 204 0
14 -203 205 0
-205 206 0
16 -205 207 0
-207 208 0
18 -207 209 0
-209 210 0
20 -209 211 0
-211 212 0
22 -211 213 0
-213 214 0
24 -213 215 0
-215 216 0
26 -215 217 0
-217 218 0
28 -217 219 0
-219 220 0
30 -219 221 0
-221 222 0
2 -221 223 0
-223 224 0
33 -223 225 0
-225 226 0
35 -225 227 0
-227 228 0
37 -227 229 0
-229 230 0
39 -229 231 0
-231 232 0
41 -231 233 0
-233 234 0
43 -233 235 0
-235 236 0
45 -235 237 0
-237 238 0
47 -237 239 0
-239 240 0
49 -239 241 0
-241 242 0
51 -241 243 0
-243 244 0
3 -243 245 0
-245 246 0
54 -245 247 0
-247 248 0
56 -247 249 0
-249 250 0
58 -249 251 0
-251 252 0
60 -251 253 0
-253 254 0
62 -253 255 0
-255 256 0
64 -255 257 0
-257 258 0
66 -257 259 0
-259 260 0
68 -259 261 0
-261 262 0
70 -261 263 0
-263 264 0
72 -263 265 0
-265 266 0
4 -265 267 0
-267 268 0
75 -267 269 0
-269 270 0
77 -269 271 0
-271 272 0
79 -271 273 0
-273 274 0
81 -273 275 0
-275 276 0
83 -275 277 0
-277 278 0
85 -277 279 0
-279 280 0
87 -279 281 0
-281 282 0
89 -281 283 0
-283 284 0
91 -283 285 0
-285 286 0
93 -285 287 0
-287 288 0
5 -287 289 0
-289 290 0
96 -289 291 0
-291 292 0
98 -291 293 0
-293 294 0
100 -293 295 0
-295 296 0
102 -295 297 0
-297 298 0
104 -297 299 0
-299 300 0
106 -299 301 0
-301 302 0
108 -301 303 0
-303 304 0
110 -303 305 0
-305 306 0
112 -305 307 0
-307 308 0
114 -307 309 0
-309 310 0
6 -309 311 0
-311 312 0
117 -311 313 0
-313 314 0
119 -313 315 0
-315 316 0
121 -315 317 0
-317 318 0
123 -317 319 0
-319 320 0
125 -319 321 0
-321 322 0
127 -321 323 0
-323 324 0
129 -323 325 0
-325 326 0
131 -325 327 0
-327 328 0
133 -327 329 0
-329 330 0
135 -329 331 0
-331 332 0
7 -331 333 0
-333 334 0
138 -333 335 0
-335 336 0
140 -335 337 0
-337 338 0
142 -337 339 0
-339 340 0
144 -339 0
12 202 0
-202 341 0
14 -202 204 0
-204 342 0
16 -204 206 0
-206 343 0
18 -206 208 0
-208 344 0
20 -208 210 0
-210 345 0
22 -210 212 0
-212 346 0
24 -212 214 0
-214 347 0
26 -214 216 0
-216 348 0
28 -216 218 0
-218 349 0
30 -218 220 0
-220 350 0
2 -220 222 0
-222 351 0
33 -222 224 0
-224 352 0
35 -224 226 0
-226 353 0
37 -226 228 0
-228 354 0
39 -228 230 0
-230 355 0
41 -230 232 0
-232 356 0
43 -232 234 0
-234 357 0
45 -234 236 0
-236 358 0
47 -236 238 0
-238 359 0
49 -238 240 0
-240 360 0
51 -240 242 0
-242 361 0
3 -242 244 0
-244 362 0
54 -244 246 0
-246 363 0
56 -246 248 0
-248 364 0
58 -248 250 0
-250 365 0
60 -250 252 0
-252 366 0
62 -252 254 0
-254 367 0
64 -254 256 0
-256 368 0
66 -256 258 0
-258 369 0
68 -258 260 0
-260 370 0
70 -260 262 0
-262 371 0
72 -262 264 0
-264 372 0
4 -264 266 0
-266 373 0
75 -266 268 0
-268 374 0
77 -268 270 0
-270 375 0
79 -270 272 0
-272 376 0
81 -272 274 0
-274 377 0
83 -274 276 0
-276 378 0
85 -276 278 0
-278 379 0
87 -278 280 0
-280 380 0
89 -280 282 0
-282 381 0
91 -282 284 0
-284 382 0
93 -284 286 0
-286 383 0
5 -286 288 0
-288 384 0
96 -288 290 0
-290 385 0
98 -290 292 0
-292 386 0
100 -292 294 0
-294 387 0
102 -294 296 0
-296 388 0
104 -296 298 0
-298 389 0
106 -298 300 0
-300 390 0
108 -300 302 0
-302 391 0
110 -302 304 0
-304 392 0
112 -304 306 0
-306 393 0
114 -306 308 0
-308 394 0
6 -308 310 0
-310 395 0
117 -310 312 0
-312 396 0
119 -312 314 0
-314 397 0
121 -314 316 0
-316 398 0
123 -316 318 0
-318 399 0
125 -318 320 0
-320 400 0
127 -320 322 0
-322 401 0
129 -322 324 0
-324 402 0
131 -324 326 0
-326 403 0
133 -326 328 0
-328 404 0
135 -328 330 0
-330 405 0
7 -330 332 0
-332 406 0
138 -332 334 0
-334 407 0
140 -334 336 0
-336 408 0
142 -336 338 0
-338 409 0
144 -338 340 0
-340 410 0
146 -340 0
14 341 0
-341 411 0
16 -341 342 0
-342 412 0
18 -342 343 0
-343 413 0
20 -343 344 0
-344 414 0
22 -344 345 0
-345 415 0
24 -345 346 0
-346 416 0
26 -346 347 0
-347 417 0
28 -347 348 0
-348 418 0
30 -348 349 0
-349 419 0
2 -349 350 0
-350 420 0
33 -350 351 0
-351 421 0
35 -351 352 0
-352 422 0
37 -352 353 0
-353 423 0
39 -353 354 0
-354 424 0
41 -354 355 0
-355 425 0
43 -355 356 0
-356 426 0
45 -356 357 0
-357 427 0
47 -357 358 0
-358 428 0
49 -358 359 0
-359 429 0
51 -359 360 0
-360 430 0
3 -360 361 0
-361 431 0
54 -361 362 0
-362 432 0
56 -362 363 0
-363 433 0
58 -363 364 0
-364 434 0
60 -364 365 0
-365 435 0
62 -365 366 0
-366 436 0
64 -366 367 0
-367 437 0
66 -367 368 0
-368 438 0
68 -368 369 0
-369 439 0
70 -369 370 0
-370 440 0
72 -370 371 0
-371 441 0
4 -371 372 0
-372 442 0
75 -372 373 0
-373 443 0
77 -373 374 0
-374 444 0
79 -374 375 0
-375 445 0
81 -375 376 0
-376 446 0
83 -376 377 0
-377 447 0
85 -377 378 0
-378 448 0
87 -378 379 0
-379 449 0
89 -379 380 0
-380 450 0
91 -380 381 0
-381 451 0
93 -381 382 0
-382 452 0
5 -382 383 0
-383 453 0
96 -383 384 0
-384 454 0
98 -384 385 0
-385 455 0
100 -385 386 0
-386 456 0
102 -386 387 0
-387 457 0
104 -387 388 0
-388 458 0
106 -388 389 0
-389 459 0
108 -389 390 0
-390 460 0
110 -390 391 0
-391 461 0
112 -391 392 0
-392 462 0
114 -392 393 0
-393 463 0
6 -393 394 0
-394 464 0
117 -394 395 0
-395 465 0
119 -395 396 0
-396 466 0
121 -396 397 0
-397 467 0
123 -397 398 0
-398 468 0
125 -398 399 0
-399 469 0
127 -399 400 0
-400 470 0
129 -400 401 0
-401 471 0
131 -401 402 0
-402 472 0
133 -402 403 0
-403 473 0
135 -403 404 0
-404 474 0
7 -404 405 0
-405 475 0
138 -405 406 0
-406 476 0
140 -406 407 0
-407 477 0
142 -407 408 0
-408 478 0
144 -408 409 0
-409 479 0
146 -409 410 0
-410 480 0
148 -410 0
16 411 0
-411 481 0
18 -411 412 0
-412 482 0
20 -412 413 0
-413 483 0
22 -413 414 0
-414 484 0
24 -414 415 0
-415 485 0
26 -415 416 0
-416 486 0
28 -416 417 0
-417 487 0
30 -417 418 0
-418 488 0
2 -418 419 0
-419 489 0
33 -419 420 0
-420 490 0
35 -420 421 0
-421 491 0
37 -421 422 0
-422 492 0
39 -422 423 0
-423 493 0
41 -423 424 0
-424 494 0
43 -424 425 0
-425 495 0
45 -425 426 0
-426 496 0
47 -426 427 0
-427 497 0
49 -427 428 0
-428 498 0
51 -428 429 0
-429 499 0
3 -429 430 0
-430 500 0
54 -430 431 0
-431 501 0
56 -431 432 0
-432 502 0
58 -432 433 0
-433 503 0
60 -433 434 0
-434 504 0
62 -434 435 0
-435 505 0
64 -435 436 0
-436 506 0
66 -436 437 0
-437 507 0
68 -437 438 0
-438 508 0
70 -438 439 0
-439 509 0
72 -439 440 0
-440 510 0
4 -440 441 0
-441 511 0
75 -441 442 0
-442 512 0
77 -442 443 0
-443 513 0
79 -443 444 0
-444 514 0
81 -444 445 0
-445 515 0
83 -445 446 0
-446 516 0
85 -446 447 0
-447 517 0
87 -447 448 0
-448 518 0
89 -448 449 0
-449 519 0
91 -449 450 0
-450 520 0
93 -450 451 0
-451 521 0
5 -451 452 0
-452 522 0
96 -452 453 0
-453 523 0
98 -453 454 0
-454 524 0
100 -454 455 0
-455 525 0
102 -455 456 0
-456 526 0
104 -456 457 0
-457 527 0
106 -457 458 0
-458 528 0
108 -458 459 0
-459 529 0
110 -459 460 0
-460 530 0
112 -460 461 0
-461 531 0
114 -461 462 0
-462 532 0
6 -462 463 0
-463 533 0
117 -463 464 0
-464 534 0
119 -464 465 0
-465 535 0
121 -465 466 0
-466 536 0
123 -466 467 0
-467 537 0
125 -467 468 0
-468 538 0
127 -468 469 0
-469 539 0
129 -469 470 0
-470 540 0
131 -470 471 0
-471 541 0
133 -471 472 0
-472 542 0
135 -472 473 0
-473 543 0
7 -473 474 0
-474 544 0
138 -474 475 0
-475 545 0
140 -475 476 0
-476 546 0
142 -476 477 0
-477 547 0
144 -477 478 0
-478 548 0
146 -478 479 0
-479 549 0
148 -479 480 0
-480 550 0
150 -480 0
18 481 0
-481 551 0
20 -481 482 0
-482 552 0
22 -482 483 0
-483 553 0
24 -483 484 0
-484 554 0
26 -484 485 0
-485 555 0
28 -485 486 0
-486 556 0
30 -486 487 0
-487 557 0
2 -487 488 0
-488 558 0
33 -488 489 0
-489 559 0
35 -489 490 0
-490 560 0
37 -490 491 0
-491 561 0
39 -491 492 0
-492 562 0
41 -492 493 0
-493 563 0
43 -493 494 0
-494 564 0
45 -494 495 0
-495 565 0
47 -495 496 0
-496 566 0
49 -496 497 0
-497 567 0
51 -497 498 0
-498 568 0
3 -498 499 0
-499 569 0
54 -499 500 0
-500 570 0
56 -500 501 0
-501 571 0
58 -501 502 0
-502 572 0
60 -502 503 0
-503 573 0
62 -503 504 0
-504 574 0
64 -504 505 0
-505 575 0
66 -505 506 0
-506 576 0
68 -506 507 0
-507 577 0
70 -507 508 0
-508 578 0
72 -508 509 0
-509 579 0
4 -509 510 0
-510 580 0
75 -510 511 0
-511 581 0
77 -511 512 0
-512 582 0
79 -512 513 0
-513 583 0
81 -513 514 0
-514 584 0
83 -514 515 0
-515 585 0
85 -515 516 0
-516 586 0
87 -516 517 0
-517 587 0
89 -517 518 0
-518 588 0
91 -518 519 0
-519 589 0
93 -519 520 0
-520 590 0
5 -520 521 0
-521 591 0
96 -521 522 0
-522 592 0
98 -522 523 0
-523 593 0
100 -523 524 0
-524 594 0
102 -524 525 0
-525 595 0
104 -525 526 0
-526 596 0
106 -526 527 0
-527 597 0
108 -527 528 0
-528 598 0
110 -528 529 0
-529 599 0
112 -529 530 0
-530 600 0
114 -530 531 0
-531 601 0
6 -531 532 0
-532 602 0
117 -532 533 0
-533 603 0
119 -533 534 0
-534 604 0
121 -534 535 0
-535 605 0
123 -535 536 0
-536 606 0
125 -536 537 0
-537 607 0
127 -537 538 0
-538 608 0
129 -538 539 0
-539 609 0
131 -539 540 0
-540 610 0
133 -540 541 0
-541 611 0
135 -541 542 0
-542 612 0
7 -542 543 0
-543 613 0
138 -543 544 0
-544 614 0
140 -544 545 0
-545 615 0
142 -545 546 0
-546 616 0
144 -546 547 0
-547 617 0
146 -547 548 0
-548 618 0
148 -548 549 0
-549 619 0
150 -549 550 0
-550 620 0
152 -550 0
20 551 0
-551 621 0
22 -551 552 0
-552 622 0
24 -552 553 0
-553 623 0
26 -553 554 0
-554 624 0
28 -554 555 0
-555 625 0
30 -555 556 0
-556 626 0
2 -556 557 0
-557 627 0
33 -557 558 0
-558 628 0
35 -558 559 0
-559 629 0
37 -559 560 0
-560 630 0
39 -560 561 0
-561 631 0
41 -561 562 0
-562 632 0
43 -562 563 0
-563 633 0
45 -563 564 0
-564 634 0
47 -564 565 0
-565 635 0
49 -565 566 0
-566 636 0
51 -566 567 0
-567 637 0
3 -567 568 0
-568 638 0
54 -568 569 0
-569 639 0
56 -569 570 0
-570 640 0
58 -570 571 0
-571 641 0
60 -571 572 0
-572 642 0
62 -572 573 0
-573 643 0
64 -573 574 0
-574 644 0
66 -574 575 0
-575 645 0
68 -575 576 0
-576 646 0
70 -576 577 0
-577 647 0
72 -577 578 0
-578 648 0
4 -578 579 0
-579 649 0
75 -579 580 0
-580 650 0
77 -580 581 0
-581 651 0
79 -581 582 0
-582 652 0
81 -582 583 0
-583 653 0
83 -583 584 0
-584 654 0
85 -584 585 0
-585 655 0
87 -585 586 0
-586 656 0
89 -586 587 0
-587 657 0
91 -587 588 0
-588 658 0
93 -588 589 0
-589 659 0
5 -589 590 0
-590 660 0
96 -590 591 0
-591 661 0
98 -591 592 0
-592 662 0
100 -592 593 0
-593 663 0
102 -593 594 0
-594 664 0
104 -594 595 0
-595 665 0
106 -595 596 0
-596 666 0
108 -596 597 0
-597 667 0
110 -597 598 0
-598 668 0
112 -598 599 0
-599 669 0
114 -599 600 0
-600 670 0
6 -600 601 0
-601 671 0
117 -601 602 0
-602 672 0
119 -602 603 0
-603 673 0
121 -603 604 0
-604 674 0
123 -604 605 0
-605 675 0
125 -605 606 0
-606 676 0
127 -606 607 0
-607 677 0
129 -607 608 0
-608 678 0
131 -608 609 0
-609 679 0
133 -609 610 0
-610 680 0
135 -610 611 0
-611 681 0
7 -611 612 0
-612 682 0
138 -612 613 0
-613 683 0
140 -613 614 0
-614 684 0
142 -614 615 0
-615 685 0
144 -615 616 0
-616 686 0
146 -616 617 0
-617 687 0
148 -617 618 0
-618 688 0
150 -618 619 0
-619 689 0
152 -619 620 0
-620 690 0
154 -620 0
22 621 0
-621 691 0
24 -621 622 0
-622 692 0
26 -622 623 0
-623 693 0
28 -623 624 0
-624 694 0
30 -624 625 0
-625 695 0
2 -625 626 0
-626 696 0
33 -626 627 0
-627 697 0
35 -627 628 0
-628 698 0
37 -628 629 0
-629 699 0
39 -629 630 0
-630 700 0
41 -630 631 0
-631 701 0
43 -631 632 0
-632 702 0
45 -632 633 0
-633 703 0
47 -633 634 0
-634 704 0
49 -634 635 0
-635 705 0
51 -635 636 0
-636 706 0
3 -636 637 0
-637 707 0
54 -637 638 0
-638 708 0
56 -638 639 0
-639 709 0
58 -639 640 0
-640 710 0
60 -640 641 0
-641 711 0
62 -641 642 0
-642 712 0
64 -642 643 0
-643 713 0
66 -643 644 0
-644 714 0
68 -644 645 0
-645 715 0
70 -645 646 0
-646 716 0
72 -646 647 0
-647 717 0
4 -647 648 0
-648 718 0
75 -648 649 0
-649 719 0
77 -649 650 0
-650 720 0
79 -650 651 0
-651 721 0
81 -651 652 0
-652 722 0
83 -652 653 0
-653 723 0
85 -653 654 0
-654 724 0
87 -654 655 0
-655 725 0
89 -655 656 0
-656 726 0
91 -656 657 0
-657 727 0
93 -657 658 0
-658 728 0
5 -658 659 0
-659 729 0
96 -659 660 0
-660 730 0
98 -660 661 0
-661 731 0
100 -661 662 0
-662 732 0
102 -662 663 0
-663 733 0
104 -663 664 0
-664 734 0
106 -664 665 0
-665 735 0
108 -665 666 0
-666 736 0
110 -666 667 0
-667 737 0
112 -667 668 0
-668 738 0
114 -668 669 0
-669 739 0
6 -669 670 0
-670 740 0
117 -670 671 0
-671 741 0
119 -671 672 0
-672 742 0
121 -672 673 0
-673 743 0
123 -673 674 0
-674 744 0
125 -674 675 0
-675 745 0
127 -675 676 0
-676 746 0
129 -676 677 0
-677 747 0
131 -677 678 0
-678 748 0
133 -678 679 0
-679 749 0
135 -679 680 0
-680 750 0
7 -680 681 0
-681 751 0
138 -681 682 0
-682 752 0
140 -682 683 0
-683 753 0
142 -683 684 0
-684 754 0
144 -684 685 0
-685 755 0
146 -685 686 0
-686 756 0
148 -686 687 0
-687 757 0
150 -687 688 0
-688 758 0
152 -688 689 0
-689 759 0
154 -689 690 0
-690 760 0
156 -690 0
24 691 0
-691 761 0
26 -691 692 0
-692 762 0
28 -692 693 0
-693 763 0
30 -693 694 0
-694 764 0
2 -694 695 0
-695 765 0
33 -695 696 0
-696 766 0
35 -696 697 0
-697 767 0
37 -697 698 0
-698 768 0
39 -698 699 0
-699 769 0
41 -699 700 0
-700 770 0
43 -700 701 0
-701 771 0
45 -701 702 0
-702 772 0
47 -702 703 0
-703 773 0
49 -703 704 0
-704 774 0
51 -704 705 0
-705 775 0
3 -705 706 0
-706 776 0
54 -706 707 0
-707 777 0
56 -707 708 0
-708 778 0
58 -708 709 0
-709 779 0
60 -709 710 0
-710 780 0
62 -710 711 0
-711 781 0
64 -711 712 0
-712 782 0
66 -712 713 0
-713 783 0
68 -713 714 0
-714 784 0
70 -714 715 0
-715 785 0
72 -715 716 0
-716 786 0
4 -716 717 0
-717 787 0
75 -717 718 0
-718 788 0
77 -718 719 0
-719 789 0
79 -719 720 0
-720 790 0
81 -720 721 0
-721 791 0
83 -721 722 0
-722 792 0
85 -722 723 0
-723 793 0
87 -723 724 0
-724 794 0
89 -724 725 0
-725 795 0
91 -725 726 0
-726 796 0
93 -726 727 0
-727 797 0
5 -727 728 0
-728 798 0
96 -728 729 0
-729 799 0
98 -729 730 0
-730 800 0
100 -730 731 0
-731 801 0
102 -731 732 0
-732 802 0
104 -732 733 0
-733 803 0
106 -733 734 0
-734 804 0
108 -734 735 0
-735 805 0
110 -735 736 0
-736 806 0
112 -736 737 0
-737 807 0
114 -737 738 0
-738 808 0
6 -738 739 0
-739 809 0
117 -739 740 0
-740 810 0
119 -740 741 0
-741 811 0
121 -741 742 0
-742 812 0
123 -742 743 0
-743 813 0
125 -743 744 0
-744 814 0
127 -744 745 0
-745 815 0
129 -745 746 0
-746 816 0
131 -746 747 0
-747 817 0
133 -747 748 0
-748 818 0
135 -748 749 0
-749 819 0
7 -749 750 0
-750 820 0
138 -750 751 0
-751 821 0
140 -751 752 0
-752 822 0
142 -752 753 0
-753 823 0
144 -753 754 0
-754 824 0
146 -754 755 0
-755 825 0
148 -755 756 0
-756 826 0
150 -756 757 0
-757 827 0
152 -757 758 0
-758 828 0
154 -758 759 0
-759 829 0
156 -759 760 0
-760 830 0
8 -760 0
26 761 0
-761 831 0
28 -761 762 0
-762 832 0
30 -762 763 0
-763 833 0
2 -763 764 0
-764 834 0
33 -764 765 0
-765 835 0
35 -765 766 0
-766 836 0
37 -766 767 0
-767 837 0
39 -767 768 0
-768 838 0
41 -768 769 0
-769 839 0
43 -769 770 0
-770 840 0
45 -770 771 0
-771 841 0
47 -771 772 0
-772 842 0
49 -772 773 0
-773 843 0
51 -773 774 0
-774 844 0
3 -774 775 0
-775 845 0
54 -775 776 0
-776 846 0
56 -776 777 0
-777 847 0
58 -777 778 0
-778 848 0
60 -778 779 0
-779 849 0
62 -779 780 0
-780 850 0
64 -780 781 0
-781 851 0
66 -781 782 0
-782 852 0
68 -782 783 0
-783 853 0
70 -783 784 0
-784 854 0
72 -784 785 0
-785 855 0
4 -785 786 0
-786 856 0
75 -786 787 0
-787 857 0
77 -787 788 0
-788 858 0
79 -788 789 0
-789 859 0
81 -789 790 0
-790 860 0
83 -790 791 0
-791 861 0
85 -791 792 0
-792 862 0
87 -792 793 0
-793 863 0
89 -793 794 0
-794 864 0
91 -794 795 0
-795 865 0
93 -795 796 0
-796 866 0
5 -796 797 0
-797 867 0
96 -797 798 0
-798 868 0
98 -798 799 0
-799 869 0
100 -799 800 0
-800 870 0
102 -800 801 0
-801 871 0
104 -801 802 0
-802 872 0
106 -802 803 0
-803 873 0
108 -803 804 0
-804 874 0
110 -804 805 0
-805 875 0
112 -805 806 0
-806 876 0
114 -806 807 0
-807 877 0
6 -807 808 0
-808 878 0
117 -808 809 0
-809 879 0
119 -809 810 0
-810 880 0
121 -810 811 0
-811 881 0
123 -811 812 0
-812 882 0
125 -812 813 0
-813 883 0
127 -813 814 0
-814 884 0
129 -814 815 0
-815 885 0
131 -815 816 0
-816 886 0
133 -816 817 0
-817 887 0
135 -817 818 0
-818 888 0
7 -818 819 0
-819 889 0
138 -819 820 0
-820 890 0
140 -820 821 0
-821 891 0
142 -821 822 0
-822 892 0
144 -822 823 0
-823 893 0
146 -823 824 0
-824 894 0
148 -824 825 0
-825 895 0
150 -825 826 0
-826 896 0
152 -826 827 0
-827 897 0
154 -827 828 0
-828 898 0
156 -828 829 0
-829 899 0
8 -829 830 0
-830 900 0
159 -830 0
28 831 0
-831 901 0
30 -831 832 0
-832 902 0
2 -832 833 0
-833 903 0
33 -833 834 0
-834 904 0
35 -834 835 0
-835 905 0
37 -835 836 0
-836 906 0
39 -836 837 0
-837 907 0
41 -837 838 0
-838 908 0
43 -838 839 0
-839 909 0
45 -839 840 0
-840 910 0
47 -840 841 0
-841 911 0
49 -841 842 0
-842 912 0
51 -842 843 0
-843 913 0
3 -843 844 0
-844 914 0
54 -844 845 0
-845 915 0
56 -845 846 0
-846 916 0
58 -846 847 0
-847 917 0
60 -847 848 0
-848 918 0
62 -848 849 0
-849 919 0
64 -849 850 0
-850 920 0
66 -850 851 0
-851 921 0
68 -851 852 0
-852 922 0
70 -852 853 0
-853 923 0
72 -853 854 0
-854 924 0
4 -854 855 0
-855 925 0
75 -855 856 0
-856 926 0
77 -856 857 0
-857 927 0
79 -857 858 0
-858 928 0
81 -858 859 0
-859 929 0
83 -859 860 0
-860 930 0
85 -860 861 0
-861 931 0
87 -861 862 0
-862 932 0
89 -862 863 0
-863 933 0
91 -863 864 0
-864 934 0
93 -864 865 0
-865 935 0
5 -865 866 0
-866 936 0
96 -866 867 0
-867 937 0
98 -867 868 0
-868 938 0
100 -868 869 0
-869 939 0
102 -869 870 0
-870 940 0
104 -870 871 0
-871 941 0
106 -871 872 0
-872 942 0
108 -872 873 0
-873 943 0
110 -873 874 0
-874 944 0
112 -874 875 0
-875 945 0
114 -875 876 0
-876 946 0
6 -876 877 0
-877 947 0
117 -877 878 0
-878 948 0
119 -878 879 0
-879 949 0
121 -879 880 0
-880 950 0
123 -880 881 0
-881 951 0
125 -881 882 0
-882 952 0
127 -882 883 0
-883 953 0
129 -883 884 0
-884 954 0
131 -884 885 0
-885 955 0
133 -885 886 0
-886 956 0
135 -886 887 0
-887 957 0
7 -887 888 0
-888 958 0
138 -888 889 0
-889 959 0
140 -889 890 0
-890 960 0
142 -890 891 0
-891 961 0
144 -891 892 0
-892 962 0
146 -892 893 0
-893 963 0
148 -893 894 0
-894 964 0
150 -894 895 0
-895 965 0
152 -895 896 0
-896 966 0
154 -896 897 0
-897 967 0
156 -897 898 0
-898 968 0
8 -898 899 0
-899 969 0
159 -899 900 0
-900 970 0
161 -900 0
30 901 0
-901 971 0
2 -901 902 0
-902 972 0
33 -902 903 0
-903 973 0
35 -903 904 0
-904 974 0
37 -904 905 0
-905 975 0
39 -905 906 0
-906 976 0
41 -906 907 0
-907 977 0
43 -907 908 0
-908 978 0
45 -908 909 0
-909 979 0
47 -909 910 0
-910 980 0
49 -910 911 0
-911 981 0
51 -911 912 0
-912 982 0
3 -912 913 0
-913 983 0
54 -913 914 0
-914 984 0
56 -914 915 0
-915 985 0
58 -915 916 0
-916 986 0
60 -916 917 0
-917 987 0
62 -917 918 0
-918 988 0
64 -918 919 0
-919 989 0
66 -919 920 0
-920 990 0
68 -920 921 0
-921 991 0
70 -921 922 0
-922 992 0
72 -922 923 0
-923 993 0
4 -923 924 0
-924 994 0
75 -924 925 0
-925 995 0
77 -925 926 0
-926 996 0
79 -926 927 0
-927 997 0
81 -927 928 0
-928 998 0
83 -928 929 0
-929 999 0
85 -929 930 0
-930 1000 0
87 -930 931 0
-931 1001 0
89 -931 932 0
-932 1002 0
91 -932 933 0
-933 1003 0
93 -933 934 0
-934 1004 0
5 -934 935 0
-935 1005 0
96 -935 936 0
-936 1006 0
98 -936 937 0
-937 1007 0
100 -937 938 0
-938 1008 0
102 -938 939 0
-939 1009 0
104 -939 940 0
-940 1010 0
106 -940 941 0
-941 1011 0
108 -941 942 0
-942 1012 0
110 -942 943 0
-943 1013 0
112 -943 944 0
-944 1014 0
114 -944 945 0
-945 1015 0
6 -945 946 0
-946 1016 0
117 -946 947 0
-947 1017 0
119 -947 948 0
-948 1018 0
121 -948 949 0
-949 1019 0
123 -949 950 0
-950 1020 0
125 -950 951 0
-951 1021 0
127 -951 952 0
-952 1022 0
129 -952 953 0
-953 1023 0
131 -953 954 0
-954 1024 0
133 -954 955 0
-955 1025 0
135 -955 956 0
-956 1026 0
7 -956 957 0
-957 1027 0
138 -957 958 0
-958 1028 0
140 -958 959 0
-959 1029 0
142 -959 960 0
-960 1030 0
144 -960 961 0
-961 1031 0
146 -961 962 0
-962 1032 0
148 -962 963 0
-963 1033 0
150 -963 964 0
-964 1034 0
152 -964 965 0
-965 1035 0
154 -965 966 0
-966 1036 0
156 -966 967 0
-967 1037 0
8 -967 968 0
-968 1038 0
159 -968 969 0
-969 1039 0
161 -969 970 0
-970 1040 0
163 -970 0
2 971 0
-971 1041 0
33 -971 972 0
-972 1042 0
35 -972 973 0
-973 1043 0
37 -973 974 0
-974 1044 0
39 -974 975 0
-975 1045 0
41 -975 976 0
-976 1046 0
43 -976 977 0
-977 1047 0
45 -977 978 0
-978 1048 0
47 -978 979 0
-979 1049 0
49 -979 980 0
-980 1050 0
51 -980 981 0
-981 1051 0
3 -981 982 0
-982 1052 0
54 -982 983 0
-983 1053 0
56 -983 984 0
-984 1054 0
58 -984 985 0
-985 1055 0
60 -985 986 0
-986 1056 0
62 -986 987 0
-987 1057 0
64 -987 988 0
-988 1058 0
66 -988 989 0
-989 1059 0
68 -989 990 0
-990 1060 0
70 -990 991 0
-991 1061 0
72 -991 992 0
-992 1062 0
4 -992 993 0
-993 1063 0
75 -993 994 0
-994 1064 0
77 -994 995 0
-995 1065 0
79 -995 996 0
-996 1066 0
81 -996 997 0
-997 1067 0
83 -997 998 0
-998 1068 0
85 -998 999 0
-999 1069 0
87 -999 1000 0
-1000 1070 0
89 -1000 1001 0
-1001 1071 0
91 -1001 1002 0
-1002 1072 0
93 -1002 1003 0
-1003 1073 0
5 -1003 1004 0
-1004 1074 0
96 -1004 1005 0
-1005 1075 0
98 -1005 1006 0
-1006 1076 0
100 -1006 1007 0
-1007 1077 0
102 -1007 1008 0
-1008 1078 0
104 -1008 1009 0
-1009 1079 0
106 -1009 1010 0
-1010 1080 0
108 -1010 1011 0
-1011 1081 0
110 -1011 1012 0
-1012 1082 0
112 -1012 1013 0
-1013 1083 0
114 -1013 1014 0
-1014 1084 0
6 -1014 1015 0
-1015 1085 0
117 -1015 1016 0
-1016 1086 0
119 -1016 1017 0
-1017 1087 0
121 -1017 1018 0
-1018 1088 0
123 -1018 1019 0
-1019 1089 0
125 -1019 1020 0
-1020 1090 0
127 -1020 1021 0
-1021 1091 0
129 -1021 1022 0
-1022 1092 0
131 -1022 1023 0
-1023 1093 0
133 -1023 1024 0
-1024 1094 0
135 -1024 1025 0
-1025 1095 0
7 -1025 1026 0
-1026 1096 0
138 -1026 1027 0
-1027 1097 0
140 -1027 1028 0
-1028 1098 0
142 -1028 1029 0
-1029 1099 0
144 -1029 1030 0
-1030 1100 0
146 -1030 1031 0
-1031 1101 0
148 -1031 1032 0
-1032 1102 0
150 -1032 1033 0
-1033 1103 0
152 -1033 1034 0
-1034 1104 0
154 -1034 1035 0
-1035 1105 0
156 -1035 1036 0
-1036 1106 0
8 -1036 1037 0
-1037 1107 0
159 -1037 1038 0
-1038 1108 0
161 -1038 1039 0
-1039 1109 0
163 -1039 1040 0
-1040 1110 0
165 -1040 0
33 1041 0
-1041 1111 0
35 -1041 1042 0
-1042 1112 0
37 -1042 1043 0
-1043 1113 0
39 -1043 1044 0
-1044 1114 0
41 -1044 1045 0
-1045 1115 0
43 -1045 1046 0
-1046 1116 0
45 -1046 1047 0
-1047 1117 0
47 -1047 1048 0
-1048 1118 0
49 -1048 1049 0
-1049 1119 0
51 -1049 1050 0
-1050 1120 0
3 -1050 1051 0
-1051 1121 0
54 -1051 1052 0
-1052 1122 0
56 -1052 1053 0
-1053 1123 0
58 -1053 1054 0
-1054 1124 0
60 -1054 1055 0
-1055 1125 0
62 -1055 1056 0
-1056 1126 0
64 -1056 1057 0
-1057 1127 0
66 -1057 1058 0
-1058 1128 0
68 -1058 1059 0
-1059 1129 0
70 -1059 1060 0
-1060 1130 0
72 -1060 1061 0
-1061 1131 0
4 -1061 1062 0
-1062 1132 0
75 -1062 1063 0
-1063 1133 0
77 -1063 1064 0
-1064 1134 0
79 -1064 1065 0
-1065 1135 0
81 -1065 1066 0
-1066 1136 0
83 -1066 1067 0
-1067 1137 0
85 -1067 1068 0
-1068 1138 0
87 -1068 1069 0
-1069 1139 0
89 -1069 1070 0
-1070 1140 0
91 -1070 1071 0
-1071 1141 0
93 -1071 1072 0
-1072 1142 0
5 -1072 1073 0
-1073 1143 0
96 -1073 1074 0
-1074 1144 0
98 -1074 1075 0
-1075 1145 0
100 -1075 1076 0
-1076 1146 0
102 -1076 1077 0
-1077 1147 0
104 -1077 1078 0
-1078 1148 0
106 -1078 1079 0
-1079 1149 0
108 -1079 1080 0
-1080 1150 0
110 -1080 1081 0
-1081 1151 0
112 -1081 1082 0
-1082 1152 0
114 -1082 1083 0
-1083 1153 0
6 -1083 1084 0
-1084 1154 0
117 -1084 1085 0
-1085 1155 0
119 -1085 1086 0
-1086 1156 0
121 -1086 1087 0
-1087 1157 0
123 -1087 1088 0
-1088 1158 0
125 -1088 1089 0
-1089 1159 0
127 -1089 1090 0
-1090 1160 0
129 -1090 1091 0
-1091 1161 0
131 -1091 1092 0
-1092 1162 0
133 -1092 1093 0
-1093 1163 0
135 -1093 1094 0
-1094 1164 0
7 -1094 1095 0
-1095 1165 0
138 -1095 1096 0
-1096 1166 0
140 -1096 1097 0
-1097 1167 0
142 -1097 1098 0
-1098 1168 0
144 -1098 1099 0
-1099 1169 0
146 -1099 1100 0
-1100 1170 0
148 -1100 1101 0
-1101 1171 0
150 -1101 1102 0
-1102 1172 0
152 -1102 1103 0
-1103 1173 0
154 -1103 1104 0
-1104 1174 0
156 -1104 1105 0
-1105 1175 0
8 -1105 1106 0
-1106 1176 0
159 -1106 1107 0
-1107 1177 0
161 -1107 1108 0
-1108 1178 0
163 -1108 1109 0
-1109 1179 0
165 -1109 1110 0
-1110 1180 0
167 -1110 0
35 1111 0
-1111 1181 0
37 -1111 1112 0
-1112 1182 0
39 -1112 1113 0
-1113 1183 0
41 -1113 1114 0
-1114 1184 0
43 -1114 1115 0
-1115 1185 0
45 -1115 1116 0
-1116 1186 0
47 -1116 1117 0
-1117 1187 0
49 -1117 1118 0
-1118 1188 0
51 -1118 1119 0
-1119 1189 0
3 -1119 1120 0
-1120 1190 0
54 -1120 1121 0
-1121 1191 0
56 -1121 1122 0
-1122 1192 0
58 -1122 1123 0
-1123 1193 0
60 -1123 1124 0
-1124 1194 0
62 -1124 1125 0
-1125 1195 0
64 -1125 1126 0
-1126 1196 0
66 -1126 1127 0
-1127 1197 0
68 -1127 1128 0
-1128 1198 0
70 -1128 1129 0
-1129 1199 0
72 -1129 1130 0
-1130 1200 0
4 -1130 1131 0
-1131 1201 0
75 -1131 1132 0
-1132 1202 0
77 -1132 1133 0
-1133 1203 0
79 -1133 1134 0
-1134 1204 0
81 -1134 1135 0
-1135 1205 0
83 -1135 1136 0
-1136 1206 0
85 -1136 1137 0
-1137 1207 0
87 -1137 1138 0
-1138 1208 0
89 -1138 1139 0
-1139 1209 0
91 -1139 1140 0
-1140 1210 0
93 -1140 1141 0
-1141 1211 0
5 -1141 1142 0
-1142 1212 0
96 -1142 1143 0
-1143 1213 0
98 -1143 1144 0
-1144 1214 0
100 -1144 1145 0
-1145 1215 0
102 -1145 1146 0
-1146 1216 0
104 -1146 1147 0
-1147 1217 0
106 -1147 1148 0
-1148 1218 0
108 -1148 1149 0
-1149 1219 0
110 -1149 1150 0
-1150 1220 0
112 -1150 1151 0
-1151 1221 0
114 -1151 1152 0
-1152 1222 0
6 -1152 1153 0
-1153 1223 0
117 -1153 1154 0
-1154 1224 0
119 -1154 1155 0
-1155 1225 0
121 -1155 1156 0
-1156 1226 0
123 -1156 1157 0
-1157 1227 0
125 -1157 1158 0
-1158 1228 0
127 -1158 1159 0
-1159 1229 0
129 -1159 1160 0
-1160 1230 0
131 -1160 1161 0
-1161 1231 0
133 -1161 1162 0
-1162 1232 0
135 -1162 1163 0
-1163 1233 0
7 -1163 1164 0
-1164 1234 0
138 -1164 1165 0
-1165 1235 0
140 -1165 1166 0
-1166 1236 0
142 -1166 1167 0
-1167 1237 0
144 -1167 1168 0
-1168 1238 0
146 -1168 1169 0
-1169 1239 0
148 -1169 1170 0
-1170 1240 0
150 -1170 1171 0
-1171 1241 0
152 -1171 1172 0
-1172 1242 0
154 -1172 1173 0
-1173 1243 0
156 -1173 1174 0
-1174 1244 0
8 -1174 1175 0
-1175 1245 0
159 -1175 1176 0
-1176 1246 0
161 -1176 1177 0
-1177 1247 0
163 -1177 1178 0
-1178 1248 0
165 -1178 1179 0
-1179 1249 0
167 -1179 1180 0
-1180 1250 0
169 -1180 0
37 1181 0
-1181 1251 0
39 -1181 1182 0
-1182 1252 0
41 -1182 1183 0
-1183 1253 0
43 -1183 1184 0
-1184 1254 0
45 -1184 1185 0
-1185 1255 0
47 -1185 1186 0
-1186 1256 0
49 -1186 1187 0
-1187 1257 0
51 -1187 1188 0
-1188 1258 0
3 -1188 1189 0
-1189 1259 0
54 -1189 1190 0
-1190 1260 0
56 -1190 1191 0
-1191 1261 0
58 -1191 1192 0
-1192 1262 0
60 -1192 1193 0
-1193 1263 0
62 -1193 1194 0
-1194 1264 0
64 -1194 1195 0
-1195 1265 0
66 -1195 1196 0
-1196 1266 0
68 -1196 1197 0
-1197 1267 0
70 -1197 1198 0
-1198 1268 0
72 -1198 1199 0
-1199 1269 0
4 -1199 1200 0
-1200 1270 0
75 -1200 1201 0
-1201 1271 0
77 -1201 1202 0
-1202 1272 0
79 -1202 1203 0
-1203 1273 0
81 -1203 1204 0
-1204 1274 0
83 -1204 1205 0
-1205 1275 0
85 -1205 1206 0
-1206 1276 0
87 -1206 1207 0
-1207 1277 0
89 -1207 1208 0
-1208 1278 0
91 -1208 1209 0
-1209 1279 0
93 -1209 1210 0
-1210 1280 0
5 -1210 1211 0
-1211 1281 0
96 -1211 1212 0
-1212 1282 0
98 -1212 1213 0
-1213 1283 0
100 -1213 1214 0
-1214 1284 0
102 -1214 1215 0
-1215 1285 0
104 -1215 1216 0
-1216 1286 0
106 -1216 1217 0
-1217 1287 0
108 -1217 1218 0
-1218 1288 0
110 -1218 1219 0
-1219 1289 0
112 -1219 1220 0
-1220 1290 0
114 -1220 1221 0
-1221 1291 0
6 -1221 1222 0
-1222 1292 0
117 -1222 1223 0
-1223 1293 0
119 -1223 1224 0
-1224 1294 0
121 -1224 1225 0
-1225 1295 0
123 -1225 1226 0
-1226 1296 0
125 -1226 1227 0
-1227 1297 0
127 -1227 1228 0
-1228 1298 0
129 -1228 1229 0
-1229 1299 0
131 -1229 1230 0
-1230 1300 0
133 -1230 1231 0
-1231 1301 0
135 -1231 1232 0
-1232 1302 0
7 -1232 1233 0
-1233 1303 0
138 -1233 1234 0
-1234 1304 0
140 -1234 1235 0
-1235 1305 0
142 -1235 1236 0
-1236 1306 0
144 -1236 1237 0
-1237 1307 0
146 -1237 1238 0
-1238 1308 0
148 -1238 1239 0
-1239 1309 0
150 -1239 1240 0
-1240 1310 0
152 -1240 1241 0
-1241 1311 0
154 -1241 1242 0
-1242 1312 0
156 -1242 1243 0
-1243 1313 0
8 -1243 1244 0
-1244 1314 0
159 -1244 1245 0
-1245 1315 0
161 -1245 1246 0
-1246 1316 0
163 -1246 1247 0
-1247 1317 0
165 -1247 1248 0
-1248 1318 0
167 -1248 1249 0
-1249 1319 0
169 -1249 1250 0
-1250 1320 0
171 -1250 0
39 1251 0
-1251 1321 0
41 -1251 1252 0
-1252 1322 0
43 -1252 1253 0
-1253 1323 0
45 -1253 1254 0
-1254 1324 0
47 -1254 1255 0
-1255 1325 0
49 -1255 1256 0
-1256 1326 0
51 -1256 1257 0
-1257 1327 0
3 -1257 1258 0
-1258 1328 0
54 -1258 1259 0
-1259 1329 0
56 -1259 1260 0
-1260 1330 0
58 -1260 1261 0
-1261 1331 0
60 -1261 1262 0
-1262 1332 0
62 -1262 1263 0
-1263 1333 0
64 -1263 1264 0
-1264 1334 0
66 -1264 1265 0
-1265 1335 0
68 -1265 1266 0
-1266 1336 0
70 -1266 1267 0
-1267 1337 0
72 -1267 1268 0
-1268 1338 0
4 -1268 1269 0
-1269 1339 0
75 -1269 1270 0
-1270 1340 0
77 -1270 1271 0
-1271 1341 0
79 -1271 1272 0
-1272 1342 0
81 -1272 1273 0
-1273 1343 0
83 -1273 1274 0
-1274 1344 0
85 -1274 1275 0
-1275 1345 0
87 -1275 1276 0
-1276 1346 0
89 -1276 1277 0
-1277 1347 0
91 -1277 1278 0
-1278 1348 0
93 -1278 1279 0
-1279 1349 0
5 -1279 1280 0
-1280 1350 0
96 -1280 1281 0
-1281 1351 0
98 -1281 1282 0
-1282 1352 0
100 -1282 1283 0
-1283 1353 0
102 -1283 1284 0
-1284 1354 0
104 -1284 1285 0
-1285 1355 0
106 -1285 1286 0
-1286 1356 0
108 -1286 1287 0
-1287 1357 0
110 -1287 1288 0
-1288 1358 0
112 -1288 1289 0
-1289 1359 0
114 -1289 1290 0
-1290 1360 0
6 -1290 1291 0
-1291 1361 0
117 -1291 1292 0
-1292 1362 0
119 -1292 1293 0
-1293 1363 0
121 -1293 1294 0
-1294 1364 0
123 -1294 1295 0
-1295 1365 0
125 -1295 1296 0
-1296 1366 0
127 -1296 1297 0
-1297 1367 0
129 -1297 1298 0
-1298 1368 0
131 -1298 1299 0
-1299 1369 0
133 -1299 1300 0
-1300 1370 0
135 -1300 1301 0
-1301 1371 0
7 -1301 1302 0
-1302 1372 0
138 -1302 1303 0
-1303 1373 0
140 -1303 1304 0
-1304 1374 0
142 -1304 1305 0
-1305 1375 0
144 -1305 1306 0
-1306 1376 0
146 -1306 1307 0
-1307 1377 0
148 -1307 1308 0
-1308 1378 0
150 -1308 1309 0
-1309 1379 0
152 -1309 1310 0
-1310 1380 0
154 -1310 1311 0
-1311 1381 0
156 -1311 1312 0
-1312 1382 0
8 -1312 1313 0
-1313 1383 0
159 -1313 1314 0
-1314 1384 0
161 -1314 1315 0
-1315 1385 0
163 -1315 1316 0
-1316 1386 0
165 -1316 1317 0
-1317 1387 0
167 -1317 1318 0
-1318 1388 0
169 -1318 1319 0
-1319 1389 0
171 -1319 1320 0
-1320 1390 0
173 -1320 0
41 1321 0
-1321 1391 0
43 -1321 1322 0
-1322 1392 0
45 -1322 1323 0
-1323 1393 0
47 -1323 1324 0
-1324 1394 0
49 -1324 1325 0
-1325 1395 0
51 -1325 1326 0
-1326 1396 0
3 -1326 1327 0
-1327 1397 0
54 -1327 1328 0
-1328 1398 0
56 -1328 1329 0
-1329 1399 0
58 -1329 1330 0
-1330 1400 0
60 -1330 1331 0
-1331 1401 0
62 -1331 1332 0
-1332 1402 0
64 -1332 1333 0
-1333 1403 0
66 -1333 1334 0
-1334 1404 0
68 -1334 1335 0
-1335 1405 0
70 -1335 1336 0
-1336 1406 0
72 -1336 1337 0
-1337 1407 0
4 -1337 1338 0
-1338 1408 0
75 -1338 1339 0
-1339 1409 0
77 -1339 1340 0
-1340 1410 0
79 -1340 1341 0
-1341 1411 0
81 -1341 1342 0
-1342 1412 0
83 -1342 1343 0
-1343 1413 0
85 -1343 1344 0
-1344 1414 0
87 -1344 1345 0
-1345 1415 0
89 -1345 1346 0
-1346 1416 0
91 -1346 1347 0
-1347 1417 0
93 -1347 1348 0
-1348 1418 0
5 -1348 1349 0
-1349 1419 0
96 -1349 1350 0
-1350 1420 0
98 -1350 1351 0
-1351 1421 0
100 -1351 1352 0
-1352 1422 0
102 -1352 1353 0
-1353 1423 0
104 -1353 1354 0
-1354 1424 0
106 -1354 1355 0
-1355 1425 0
108 -1355 1356 0
-1356 1426 0
110 -1356 1357 0
-1357 1427 0
112 -1357 1358 0
-1358 1428 0
114 -1358 1359 0
-1359 1429 0
6 -1359 1360 0
-1360 1430 0
117 -1360 1361 0
-1361 1431 0
119 -1361 1362 0
-1362 1432 0
121 -1362 1363 0
-1363 1433 0
123 -1363 1364 0
-1364 1434 0
125 -1364 1365 0
-1365 1435 0
127 -1365 1366 0
-1366 1436 0
129 -1366 1367 0
-1367 1437 0
131 -1367 1368 0
-1368 1438 0
133 -1368 1369 0
-1369 1439 0
135 -1369 1370 0
-1370 1440 0
7 -1370 1371 0
-1371 1441 0
138 -1371 1372 0
-1372 1442 0
140 -1372 1373 0
-1373 1443 0
142 -1373 1374 0
-1374 1444 0
144 -1374 1375 0
-1375 1445 0
146 -1375 1376 0
-1376 1446 0
148 -1376 1377 0
-1377 1447 0
150 -1377 1378 0
-1378 1448 0
152 -1378 1379 0
-1379 1449 0
154 -1379 1380 0
-1380 1450 0
156 -1380 1381 0
-1381 1451 0
8 -1381 1382 0
-1382 1452 0
159 -1382 1383 0
-1383 1453 0
161 -1383 1384 0
-1384 1454 0
163 -1384 1385 0
-1385 1455 0
165 -1385 1386 0
-1386 1456 0
167 -1386 1387 0
-1387 1457 0
169 -1387 1388 0
-1388 1458 0
171 -1388 1389 0
-1389 1459 0
173 -1389 1390 0
-1390 1460 0
175 -1390 0
43 1391 0
-1391 1461 0
45 -1391 1392 0
-1392 1462 0
47 -1392 1393 0
-1393 1463 0
49 -1393 1394 0
-1394 1464 0
51 -1394 1395 0
-1395 1465 0
3 -1395 1396 0
-1396 1466 0
54 -1396 1397 0
-1397 1467 0
56 -1397 1398 0
-1398 1468 0
58 -1398 1399 0
-1399 1469 0
60 -1399 1400 0
-1400 1470 0
62 -1400 1401 0
-1401 1471 0
64 -1401 1402 0
-1402 1472 0
66 -1402 1403 0
-1403 1473 0
68 -1403 1404 0
-1404 1474 0
70 -1404 1405 0
-1405 1475 0
72 -1405 1406 0
-1406 1476 0
4 -1406 1407 0
-1407 1477 0
75 -1407 1408 0
-1408 1478 0
77 -1408 1409 0
-1409 1479 0
79 -1409 1410 0
-1410 1480 0
81 -1410 1411 0
-1411 1481 0
83 -1411 1412 0
-1412 1482 0
85 -1412 1413 0
-1413 1483 0
87 -1413 1414 0
-1414 1484 0
89 -1414 1415 0
-1415 1485 0
91 -1415 1416 0
-1416 1486 0
93 -1416 1417 0
-1417 1487 0
5 -1417 1418 0
-1418 1488 0
96 -1418 1419 0
-1419 1489 0
98 -1419 1420 0
-1420 1490 0
100 -1420 1421 0
-1421 1491 0
102 -1421 1422 0
-1422 1492 0
104 -1422 1423 0
-1423 1493 0
106 -1423 1424 0
-1424 1494 0
108 -1424 1425 0
-1425 1495 0
110 -1425 1426 0
-1426 1496 0
112 -1426 1427 0
-1427 1497 0
114 -1427 1428 0
-1428 1498 0
6 -1428 1429 0
-1429 1499 0
117 -1429 1430 0
-1430 1500 0
119 -1430 1431 0
-1431 1501 0
121 -1431 1432 0
-1432 1502 0
123 -1432 1433 0
-1433 1503 0
125 -1433 1434 0
-1434 1504 0
127 -1434 1435 0
-1435 1505 0
129 -1435 1436 0
-1436 1506 0
131 -1436 1437 0
-1437 1507 0
133 -1437 1438 0
-1438 1508 0
135 -1438 1439 0
-1439 1509 0
7 -1439 1440 0
-1440 1510 0
138 -1440 1441 0
-1441 1511 0
140 -1441 1442 0
-1442 1512 0
142 -1442 1443 0
-1443 1513 0
144 -1443 1444 0
-1444 1514 0
146 -1444 1445 0
-1445 1515 0
148 -1445 1446 0
-1446 1516 0
150 -1446 1447 0
-1447 1517 0
152 -1447 1448 0
-1448 1518 0
154 -1448 1449 0
-1449 1519 0
156 -1449 1450 0
-1450 1520 0
8 -1450 1451 0
-1451 1521 0
159 -1451 1452 0
-1452 1522 0
161 -1452 1453 0
-1453 1523 0
163 -1453 1454 0
-1454 1524 0
165 -1454 1455 0
-1455 1525 0
167 -1455 1456 0
-1456 1526 0
169 -1456 1457 0
-1457 1527 0
171 -1457 1458 0
-1458 1528 0
173 -1458 1459 0
-1459 1529 0
175 -1459 1460 0
-1460 1530 0
177 -1460 0
45 1461 0
-1461 1531 0
47 -1461 1462 0
-1462 1532 0
49 -1462 1463 0
-1463 1533 0
51 -1463 1464 0
-1464 1534 0
3 -1464 1465 0
-1465 1535 0
54 -1465 1466 0
-1466 1536 0
56 -1466 1467 0
-1467 1537 0
58 -1467 1468 0
-1468 1538 0
60 -1468 1469 0
-1469 1539 0
62 -1469 1470 0
-1470 1540 0
64 -1470 1471 0
-1471 1541 0
66 -1471 1472 0
-1472 1542 0
68 -1472 1473 0
-1473 1543 0
70 -1473 1474 0
-1474 1544 0
72 -1474 1475 0
-1475 1545 0
4 -1475 1476 0
-1476 1546 0
75 -1476 1477 0
-1477 1547 0
77 -1477 1478 0
-1478 1548 0
79 -1478 1479 0
-1479 1549 0
81 -1479 1480 0
-1480 1550 0
83 -1480 1481 0
-1481 1551 0
85 -1481 1482 0
-1482 1552 0
87 -1482 1483 0
-1483 1553 0
89 -1483 1484 0
-1484 1554 0
91 -1484 1485 0
-1485 1555 0
93 -1485 1486 0
-1486 1556 0
5 -1486 1487 0
-1487 1557 0
96 -1487 1488 0
-1488 1558 0
98 -1488 1489 0
-1489 1559 0
100 -1489 1490 0
-1490 1560 0
102 -1490 1491 0
-1491 1561 0
104 -1491 1492 0
-1492 1562 0
106 -1492 1493 0
-1493 1563 0
108 -1493 1494 0
-1494 1564 0
110 -1494 1495 0
-1495 1565 0
112 -1495 1496 0
-1496 1566 0
114 -1496 1497 0
-1497 1567 0
6 -1497 1498 0
-1498 1568 0
117 -1498 1499 0
-1499 1569 0
119 -1499 1500 0
-1500 1570 0
121 -1500 1501 0
-1501 1571 0
123 -1501 1502 0
-1502 1572 0
125 -1502 1503 0
-1503 1573 0
127 -1503 1504 0
-1504 1574 0
129 -1504 1505 0
-1505 1575 0
131 -1505 1506 0
-1506 1576 0
133 -1506 1507 0
-1507 1577 0
135 -1507 1508 0
-1508 1578 0
7 -1508 1509 0
-1509 1579 0
138 -1509 1510 0
-1510 1580 0
140 -1510 1511 0
-1511 1581 0
142 -1511 1512 0
-1512 1582 0
144 -1512 1513 0
-1513 1583 0
146 -1513 1514 0
-1514 1584 0
148 -1514 1515 0
-1515 1585 0
150 -1515 1516 0
-1516 1586 0
152 -1516 1517 0
-1517 1587 0
154 -1517 1518 0
-1518 1588 0
156 -1518 1519 0
-1519 1589 0
8 -1519 1520 0
-1520 1590 0
159 -1520 1521 0
-1521 1591 0
161 -1521 1522 0
-1522 1592 0
163 -1522 1523 0
-1523 1593 0
165 -1523 1524 0
-1524 1594 0
167 -1524 1525 0
-1525 1595 0
169 -1525 1526 0
-1526 1596 0
171 -1526 1527 0
-1527 1597 0
173 -1527 1528 0
-1528 1598 0
175 -1528 1529 0
-1529 1599 0
177 -1529 1530 0
-1530 1600 0
9 -1530 0
47 1531 0
-1531 1601 0
49 -1531 1532 0
-1532 1602 0
51 -1532 1533 0
-1533 1603 0
3 -1533 1534 0
-1534 1604 0
54 -1534 1535 0
-1535 1605 0
56 -1535 1536 0
-1536 1606 0
58 -1536 1537 0
-1537 1607 0
60 -1537 1538 0
-1538 1608 0
62 -1538 1539 0
-1539 1609 0
64 -1539 1540 0
-1540 1610 0
66 -1540 1541 0
-1541 1611 0
68 -1541 1542 0
-1542 1612 0
70 -1542 1543 0
-1543 1613 0
72 -1543 1544 0
-1544 1614 0
4 -1544 1545 0
-1545 1615 0
75 -1545 1546 0
-1546 1616 0
77 -1546 1547 0
-1547 1617 0
79 -1547 1548 0
-1548 1618 0
81 -1548 1549 0
-1549 1619 0
83 -1549 1550 0
-1550 1620 0
85 -1550 1551 0
-1551 1621 0
87 -1551 1552 0
-1552 1622 0
89 -1552 1553 0
-1553 1623 0
91 -1553 1554 0
-1554 1624 0
93 -1554 1555 0
-1555 1625 0
5 -1555 1556 0
-1556 1626 0
96 -1556 1557 0
-1557 1627 0
98 -1557 1558 0
-1558 1628 0
100 -1558 1559 0
-1559 1629 0
102 -1559 1560 0
-1560 1630 0
104 -1560 1561 0
-1561 1631 0
106 -1561 1562 0
-1562 1632 0
108 -1562 1563 0
-1563 1633 0
110 -1563 1564 0
-1564 1634 0
112 -1564 1565 0
-1565 1635 0
114 -1565 1566 0
-1566 1636 0
6 -1566 1567 0
-1567 1637 0
117 -1567 1568 0
-1568 1638 0
119 -1568 1569 0
-1569 1639 0
121 -1569 1570 0
-1570 1640 0
123 -1570 1571 0
-1571 1641 0
125 -1571 1572 0
-1572 1642 0
127 -1572 1573 0
-1573 1643 0
129 -1573 1574 0
-1574 1644 0
131 -1574 1575 0
-1575 1645 0
133 -1575 1576 0
-1576 1646 0
135 -1576 1577 0
-1577 1647 0
7 -1577 1578 0
-1578 1648 0
138 -1578 1579 0
-1579 1649 0
140 -1579 1580 0
-1580 1650 0
142 -1580 1581 0
-1581 1651 0
144 -1581 1582 0
-1582 1652 0
146 -1582 1583 0
-1583 1653 0
148 -1583 1584 0
-1584 1654 0
150 -1584 1585 0
-1585 1655 0
152 -1585 1586 0
-1586 1656 0
154 -1586 1587 0
-1587 1657 0
156 -1587 1588 0
-1588 1658 0
8 -1588 1589 0
-1589 1659 0
159 -1589 1590 0
-1590 1660 0
161 -1590 1591 0
-1591 1661 0
163 -1591 1592 0
-1592 1662 0
165 -1592 1593 0
-1593 1663 0
167 -1593 1594 0
-1594 1664 0
169 -1594 1595 0
-1595 1665 0
171 -1595 1596 0
-1596 1666 0
173 -1596 1597 0
-1597 1667 0
175 -1597 1598 0
-1598 1668 0
177 -1598 1599 0
-1599 1669 0
9 -1599 1600 0
-1600 1670 0
180 -1600 0
49 1601 0
-1601 1671 0
51 -1601 1602 0
-1602 1672 0
3 -1602 1603 0
-1603 1673 0
54 -1603 1604 0
-1604 1674 0
56 -1604 1605 0
-1605 1675 0
58 -1605 1606 0
-1606 1676 0
60 -1606 1607 0
-1607 1677 0
62 -1607 1608 0
-1608 1678 0
64 -1608 1609 0
-1609 1679 0
66 -1609 1610 0
-1610 1680 0
68 -1610 1611 0
-1611 1681 0
70 -1611 1612 0
-1612 1682 0
72 -1612 1613 0
-1613 1683 0
4 -1613 1614 0
-1614 1684 0
75 -1614 1615 0
-1615 1685 0
77 -1615 1616 0
-1616 1686 0
79 -1616 1617 0
-1617 1687 0
81 -1617 1618 0
-1618 1688 0
83 -1618 1619 0
-1619 1689 0
85 -1619 1620 0
-1620 1690 0
87 -1620 1621 0
-1621 1691 0
89 -1621 1622 0
-1622 1692 0
91 -1622 1623 0
-1623 1693 0
93 -1623 1624 0
-1624 1694 0
5 -1624 1625 0
-1625 1695 0
96 -1625 1626 0
-1626 1696 0
98 -1626 1627 0
-1627 1697 0
100 -1627 1628 0
-1628 1698 0
102 -1628 1629 0
-1629 1699 0
104 -1629 1630 0
-1630 1700 0
106 -1630 1631 0
-1631 1701 0
108 -1631 1632 0
-1632 1702 0
110 -1632 1633 0
-1633 1703 0
112 -1633 1634 0
-1634 1704 0
114 -1634 1635 0
-1635 1705 0
6 -1635 1636 0
-1636 1706 0
117 -1636 1637 0
-1637 1707 0
119 -1637 1638 0
-1638 1708 0
121 -1638 1639 0
-1639 1709 0
123 -1639 1640 0
-1640 1710 0
125 -1640 1641 0
-1641 1711 0
127 -1641 1642 0
-1642 1712 0
129 -1642 1643 0
-1643 1713 0
131 -1643 1644 0
-1644 1714 0
133 -1644 1645 0
-1645 1715 0
135 -1645 1646 0
-1646 1716 0
7 -1646 1647 0
-1647 1717 0
138 -1647 1648 0
-1648 1718 0
140 -1648 1649 0
-1649 1719 0
142 -1649 1650 0
-1650 1720 0
144 -1650 1651 0
-1651 1721 0
146 -1651 1652 0
-1652 1722 0
148 -1652 1653 0
-1653 1723 0
150 -1653 1654 0
-1654 1724 0
152 -1654 1655 0
-1655 1725 0
154 -1655 1656 0
-1656 1726 0
156 -1656 1657 0
-1657 1727 0
8 -1657 1658 0
-1658 1728 0
159 -1658 1659 0
-1659 1729 0
161 -1659 1660 0
-1660 1730 0
163 -1660 1661 0
-1661 1731 0
165 -1661 1662 0
-1662 1732 0
167 -1662 1663 0
-1663 1733 0
169 -1663 1664 0
-1664 1734 0
171 -1664 1665 0
-1665 1735 0
173 -1665 1666 0
-1666 1736 0
175 -1666 1667 0
-1667 1737 0
177 -1667 1668 0
-1668 1738 0
9 -1668 1669 0
-1669 1739 0
180 -1669 1670 0
-1670 1740 0
182 -1670 0
51 1671 0
-1671 1741 0
3 -1671 1672 0
-1672 1742 0
54 -1672 1673 0
-1673 1743 0
56 -1673 1674 0
-1674 1744 0
58 -1674 1675 0
-1675 1745 0
60 -1675 1676 0
-1676 1746 0
62 -1676 1677 0
-1677 1747 0
64 -1677 1678 0
-1678 1748 0
66 -1678 1679 0
-1679 1749 0
68 -1679 1680 0
-1680 1750 0
70 -1680 1681 0
-1681 1751 0
72 -1681 1682 0
-1682 1752 0
4 -1682 1683 0
-1683 1753 0
75 -1683 1684 0
-1684 1754 0
77 -1684 1685 0
-1685 1755 0
79 -1685 1686 0
-1686 1756 0
81 -1686 1687 0
-1687 1757 0
83 -1687 1688 0
-1688 1758 0
85 -1688 1689 0
-1689 1759 0
87 -1689 1690 0
-1690 1760 0
89 -1690 1691 0
-1691 1761 0
91 -1691 1692 0
-1692 1762 0
93 -1692 1693 0
-1693 1763 0
5 -1693 1694 0
-1694 1764 0
96 -1694 1695 0
-1695 1765 0
98 -1695 1696 0
-1696 1766 0
100 -1696 1697 0
-1697 1767 0
102 -1697 1698 0
-1698 1768 0
104 -1698 1699 0
-1699 1769 0
106 -1699 1700 0
-1700 1770 0
108 -1700 1701 0
-1701 1771 0
110 -1701 1702 0
-1702 1772 0
112 -1702 1703 0
-1703 1773 0
114 -1703 1704 0
-1704 1774 0
6 -1704 1705 0
-1705 1775 0
117 -1705 1706 0
-1706 1776 0
119 -1706 1707 0
-1707 1777 0
121 -1707 1708 0
-1708 1778 0
123 -1708 1709 0
-1709 1779 0
125 -1709 1710 0
-1710 1780 0
127 -1710 1711 0
-1711 1781 0
129 -1711 1712 0
-1712 1782 0
131 -1712 1713 0
-1713 1783 0
133 -1713 1714 0
-1714 1784 0
135 -1714 1715 0
-1715 1785 0
7 -1715 1716 0
-1716 1786 0
138 -1716 1717 0
-1717 1787 0
140 -1717 1718 0
-1718 1788 0
142 -1718 1719 0
-1719 1789 0
144 -1719 1720 0
-1720 1790 0
146 -1720 1721 0
-1721 1791 0
148 -1721 1722 0
-1722 1792 0
150 -1722 1723 0
-1723 1793 0
152 -1723 1724 0
-1724 1794 0
154 -1724 1725 0
-1725 1795 0
156 -1725 1726 0
-1726 1796 0
8 -1726 1727 0
-1727 1797 0
159 -1727 1728 0
-1728 1798 0
161 -1728 1729 0
-1729 1799 0
163 -1729 1730 0
-1730 1800 0
165 -1730 1731 0
-1731 1801 0
167 -1731 1732 0
-1732 1802 0
169 -1732 1733 0
-1733 1803 0
171 -1733 1734 0
-1734 1804 0
173 -1734 1735 0
-1735 1805 0
175 -1735 1736 0
-1736 1806 0
177 -1736 1737 0
-1737 1807 0
9 -1737 1738 0
-1738 1808 0
180 -1738 1739 0
-1739 1809 0
182 -1739 1740 0
-1740 1810 0
184 -1740 0
3 1741 0
-1741 1811 0
54 -1741 1742 0
-1742 1812 0
56 -1742 1743 0
-1743 1813 0
58 -1743 1744 0
-1744 1814 0
60 -1744 1745 0
-1745 1815 0
62 -1745 1746 0
-1746 1816 0
64 -1746 1747 0
-1747 1817 0
66 -1747 1748 0
-1748 1818 0
68 -1748 1749 0
-1749 1819 0
70 -1749 1750 0
-1750 1820 0
72 -1750 1751 0
-1751 1821 0
4 -1751 1752 0
-1752 1822 0
75 -1752 1753 0
-1753 1823 0
77 -1753 1754 0
-1754 1824 0
79 -1754 1755 0
-1755 1825 0
81 -1755 1756 0
-1756 1826 0
83 -1756 1757 0
-1757 1827 0
85 -1757 1758 0
-1758 1828 0
87 -1758 1759 0
-1759 1829 0
89 -1759 1760 0
-1760 1830 0
91 -1760 1761 0
-1761 1831 0
93 -1761 1762 0
-1762 1832 0
5 -1762 1763 0
-1763 1833 0
96 -1763 1764 0
-1764 1834 0
98 -1764 1765 0
-1765 1835 0
100 -1765 1766 0
-1766 1836 0
102 -1766 1767 0
-1767 1837 0
104 -1767 1768 0
-1768 1838 0
106 -1768 1769 0
-1769 1839 0
108 -1769 1770 0
-1770 1840 0
110 -1770 1771 0
-1771 1841 0
112 -1771 1772 0
-1772 1842 0
114 -1772 1773 0
-1773 1843 0
6 -1773 1774 0
-1774 1844 0
117 -1774 1775 0
-1775 1845 0
119 -1775 1776 0
-1776 1846 0
121 -1776 1777 0
-1777 1847 0
123 -1777 1778 0
-1778 1848 0
125 -1778 1779 0
-1779 1849 0
127 -1779 1780 0
-1780 1850 0
129 -1780 1781 0
-1781 1851 0
131 -1781 1782 0
-1782 1852 0
133 -1782 1783 0
-1783 1853 0
135 -1783 1784 0
-1784 1854 0
7 -1784 1785 0
-1785 1855 0
138 -1785 1786 0
-1786 1856 0
140 -1786 1787 0
-1787 1857 0
142 -1787 1788 0
-1788 1858 0
144 -1788 1789 0
-1789 1859 0
146 -1789 1790 0
-1790 1860 0
148 -1790 1791 0
-1791 1861 0
150 -1791 1792 0
-1792 1862 0
152 -1792 1793 0
-1793 1863 0
154 -1793 1794 0
-1794 1864 0
156 -1794 1795 0
-1795 1865 0
8 -1795 1796 0
-1796 1866 0
159 -1796 1797 0
-1797 1867 0
161 -1797 1798 0
-1798 1868 0
163 -1798 1799 0
-1799 1869 0
165 -1799 1800 0
-1800 1870 0
167 -1800 1801 0
-1801 1871 0
169 -1801 1802 0
-1802 1872 0
171 -1802 1803 0
-1803 1873 0
173 -1803 1804 0
-1804 1874 0
175 -1804 1805 0
-1805 1875 0
177 -1805 1806 0
-1806 1876 0
9 -1806 1807 0
-1807 1877 0
180 -1807 1808 0
-1808 1878 0
182 -1808 1809 0
-1809 1879 0
184 -1809 1810 0
-1810 1880 0
186 -1810 0
54 1811 0
-1811 1881 0
56 -1811 1812 0
-1812 1882 0
58 -1812 1813 0
-1813 1883 0
60 -1813 1814 0
-1814 1884 0
62 -1814 1815 0
-1815 1885 0
64 -1815 1816 0
-1816 1886 0
66 -1816 1817 0
-1817 1887 0
68 -1817 1818 0
-1818 1888 0
70 -1818 1819 0
-1819 1889 0
72 -1819 1820 0
-1820 1890 0
4 -1820 1821 0
-1821 1891 0
75 -1821 1822 0
-1822 1892 0
77 -1822 1823 0
-1823 1893 0
79 -1823 1824 0
-1824 1894 0
81 -1824 1825 0
-1825 1895 0
83 -1825 1826 0
-1826 1896 0
85 -1826 1827 0
-1827 1897 0
87 -1827 1828 0
-1828 1898 0
89 -1828 1829 0
-1829 1899 0
91 -1829 1830 0
-1830 1900 0
93 -1830 1831 0
-1831 1901 0
5 -1831 1832 0
-1832 1902 0
96 -1832 1833 0
-1833 1903 0
98 -1833 1834 0
-1834 1904 0
100 -1834 1835 0
-1835 1905 0
102 -1835 1836 0
-1836 1906 0
104 -1836 1837 0
-1837 1907 0
106 -1837 1838 0
-1838 1908 0
108 -1838 1839 0
-1839 1909 0
110 -1839 1840 0
-1840 1910 0
112 -1840 1841 0
-1841 1911 0
114 -1841 1842 0
-1842 1912 0
6 -1842 1843 0
-1843 1913 0
117 -1843 1844 0
-1844 1914 0
119 -1844 1845 0
-1845 1915 0
121 -1845 1846 0
-1846 1916 0
123 -1846 1847 0
-1847 1917 0
125 -1847 1848 0
-1848 1918 0
127 -1848 1849 0
-1849 1919 0
129 -1849 1850 0
-1850 1920 0
131 -1850 1851 0
-1851 1921 0
133 -1851 1852 0
-1852 1922 0
135 -1852 1853 0
-1853 1923 0
7 -1853 1854 0
-1854 1924 0
138 -1854 1855 0
-1855 1925 0
140 -1855 1856 0
-1856 1926 0
142 -1856 1857 0
-1857 1927 0
144 -1857 1858 0
-1858 1928 0
146 -1858 1859 0
-1859 1929 0
148 -1859 1860 0
-1860 1930 0
150 -1860 1861 0
-1861 1931 0
152 -1861 1862 0
-1862 1932 0
154 -1862 1863 0
-1863 1933 0
156 -1863 1864 0
-1864 1934 0
8 -1864 1865 0
-1865 1935 0
159 -1865 1866 0
-1866 1936 0
161 -1866 1867 0
-1867 1937 0
163 -1867 1868 0
-1868 1938 0
165 -1868 1869 0
-1869 1939 0
167 -1869 1870 0
-1870 1940 0
169 -1870 1871 0
-1871 1941 0
171 -1871 1872 0
-1872 1942 0
173 -1872 1873 0
-1873 1943 0
175 -1873 1874 0
-1874 1944 0
177 -1874 1875 0
-1875 1945 0
9 -1875 1876 0
-1876 1946 0
180 -1876 1877 0
-1877 1947 0
182 -1877 1878 0
-1878 1948 0
184 -1878 1879 0
-1879 1949 0
186 -1879 1880 0
-1880 1950 0
188 -1880 0
56 1881 0
-1881 1951 0
58 -1881 1882 0
-1882 1952 0
60 -1882 1883 0
-1883 1953 0
62 -1883 1884 0
-1884 1954 0
64 -1884 1885 0
-1885 1955 0
66 -1885 1886 0
-1886 1956 0
68 -1886 1887 0
-1887 1957 0
70 -1887 1888 0
-1888 1958 0
72 -1888 1889 0
-1889 1959 0
4 -1889 1890 0
-1890 1960 0
75 -1890 1891 0
-1891 1961 0
77 -1891 1892 0
-1892 1962 0
79 -1892 1893 0
-1893 1963 0
81 -1893 1894 0
-1894 1964 0
83 -1894 1895 0
-1895 1965 0
85 -1895 1896 0
-1896 1966 0
87 -1896 1897 0
-1897 1967 0
89 -1897 1898 0
-1898 1968 0
91 -1898 1899 0
-1899 1969 0
93 -1899 1900 0
-1900 1970 0
5 -1900 1901 0
-1901 1971 0
96 -1901 1902 0
-1902 1972 0
98 -1902 1903 0
-1903 1973 0
100 -1903 1904 0
-1904 1974 0
102 -1904 1905 0
-1905 1975 0
104 -1905 1906 0
-1906 1976 0
106 -1906 1907 0
-1907 1977 0
108 -1907 1908 0
-1908 1978 0
110 -1908 1909 0
-1909 1979 0
112 -1909 1910 0
-1910 1980 0
114 -1910 1911 0
-1911 1981 0
6 -1911 1912 0
-1912 1982 0
117 -1912 1913 0
-1913 1983 0
119 -1913 1914 0
-1914 1984 0
121 -1914 1915 0
-1915 1985 0
123 -1915 1916 0
-1916 1986 0
125 -1916 1917 0
-1917 1987 0
127 -1917 1918 0
-1918 1988 0
129 -1918 1919 0
-1919 1989 0
131 -1919 1920 0
-1920 1990 0
133 -1920 1921 0
-1921 1991 0
135 -1921 1922 0
-1922 1992 0
7 -1922 1923 0
-1923 1993 0
138 -1923 1924 0
-1924 1994 0
140 -1924 1925 0
-1925 1995 0
142 -1925 1926 0
-1926 1996 0
144 -1926 1927 0
-1927 1997 0
146 -1927 1928 0
-1928 1998 0
148 -1928 1929 0
-1929 1999 0
150 -1929 1930 0
-1930 2000 0
152 -1930 1931 0
-1931 2001 0
154 -1931 1932 0
-1932 2002 0
156 -1932 1933 0
-1933 2003 0
8 -1933 1934 0
-1934 2004 0
159 -1934 1935 0
-1935 2005 0
161 -1935 1936 0
-1936 2006 0
163 -1936 1937 0
-1937 2007 0
165 -1937 1938 0
-1938 2008 0
167 -1938 1939 0
-1939 2009 0
169 -1939 1940 0
-1940 2010 0
171 -1940 1941 0
-1941 2011 0
173 -1941 1942 0
-1942 2012 0
175 -1942 1943 0
-1943 2013 0
177 -1943 1944 0
-1944 2014 0
9 -1944 1945 0
-1945 2015 0
180 -1945 1946 0
-1946 2016 0
182 -1946 1947 0
-1947 2017 0
184 -1947 1948 0
-1948 2018 0
186 -1948 1949 0
-1949 2019 0
188 -1949 1950 0
-1950 2020 0
190 -1950 0
58 1951 0
-1951 2021 0
60 -1951 1952 0
-1952 2022 0
62 -1952 1953 0
-1953 2023 0
64 -1953 1954 0
-1954 2024 0
66 -1954 1955 0
-1955 2025 0
68 -1955 1956 0
-1956 2026 0
70 -1956 1957 0
-1957 2027 0
72 -1957 1958 0
-1958 2028 0
4 -1958 1959 0
-1959 2029 0
75 -1959 1960 0
-1960 2030 0
77 -1960 1961 0
-1961 2031 0
79 -1961 1962 0
-1962 2032 0
81 -1962 1963 0
-1963 2033 0
83 -1963 1964 0
-1964 2034 0
85 -1964 1965 0
-1965 2035 0
87 -1965 1966 0
-1966 2036 0
89 -1966 1967 0
-1967 2037 0
91 -1967 1968 0
-1968 2038 0
93 -1968 1969 0
-1969 2039 0
5 -1969 1970 0
-1970 2040 0
96 -1970 1971 0
-1971 2041 0
98 -1971 1972 0
-1972 2042 0
100 -1972 1973 0
-1973 2043 0
102 -1973 1974 0
-1974 2044 0
104 -1974 1975 0
-1975 2045 0
106 -1975 1976 0
-1976 2046 0
108 -1976 1977 0
-1977 2047 0
110 -1977 1978 0
-1978 2048 0
112 -1978 1979 0
-1979 2049 0
114 -1979 1980 0
-1980 2050 0
6 -1980 1981 0
-1981 2051 0
117 -1981 1982 0
-1982 2052 0
119 -1982 1983 0
-1983 2053 0
121 -1983 1984 0
-1984 2054 0
123 -1984 1985 0
-1985 2055 0
125 -1985 1986 0
-1986 2056 0
127 -1986 1987 0
-1987 2057 0
129 -1987 1988 0
-1988 2058 0
131 -1988 1989 0
-1989 2059 0
133 -1989 1990 0
-1990 2060 0
135 -1990 1991 0
-1991 2061 0
7 -1991 1992 0
-1992 2062 0
138 -1992 1993 0
-1993 2063 0
140 -1993 1994 0
-1994 2064 0
142 -1994 1995 0
-1995 2065 0
144 -1995 1996 0
-1996 2066 0
146 -1996 1997 0
-1997 2067 0
148 -1997 1998 0
-1998 2068 0
150 -1998 1999 0
-1999 2069 0
152 -1999 2000 0
-2000 2070 0
154 -2000 2001 0
-2001 2071 0
156 -2001 2002 0
-2002 2072 0
8 -2002 2003 0
-2003 2073 0
159 -2003 2004 0
-2004 2074 0
161 -2004 2005 0
-2005 2075 0
163 -2005 2006 0
-2006 2076 0
165 -2006 2007 0
-2007 2077 0
167 -2007 2008 0
-2008 2078 0
169 -2008 2009 0
-2009 2079 0
171 -2009 2010 0
-2010 2080 0
173 -2010 2011 0
-2011 2081 0
175 -2011 2012 0
-2012 2082 0
177 -2012 2013 0
-2013 2083 0
9 -2013 2014 0
-2014 2084 0
180 -2014 2015 0
-2015 2085 0
182 -2015 2016 0
-2016 2086 0
184 -2016 2017 0
-2017 2087 0
186 -2017 2018 0
-2018 2088 0
188 -2018 2019 0
-2019 2089 0
190 -2019 2020 0
-2020 2090 0
192 -2020 0
60 2021 0
-2021 2091 0
62 -2021 2022 0
-2022 2092 0
64 -2022 2023 0
-2023 2093 0
66 -2023 2024 0
-2024 2094 0
68 -2024 2025 0
-2025 2095 0
70 -2025 2026 0
-2026 2096 0
72 -2026 2027 0
-2027 2097 0
4 -2027 2028 0
-2028 2098 0
75 -2028 2029 0
-2029 2099 0
77 -2029 2030 0
-2030 2100 0
79 -2030 2031 0
-2031 2101 0
81 -2031 2032 0
-2032 2102 0
83 -2032 2033 0
-2033 2103 0
85 -2033 2034 0
-2034 2104 0
87 -2034 2035 0
-2035 2105 0
89 -2035 2036 0
-2036 2106 0
91 -2036 2037 0
-2037 2107 0
93 -2037 2038 0
-2038 2108 0
5 -2038 2039 0
-2039 2109 0
96 -2039 2040 0
-2040 2110 0
98 -2040 2041 0
-2041 2111 0
100 -2041 2042 0
-2042 2112 0
102 -2042 2043 0
-2043 2113 0
104 -2043 2044 0
-2044 2114 0
106 -2044 2045 0
-2045 2115 0
108 -2045 2046 0
-2046 2116 0
110 -2046 2047 0
-2047 2117 0
112 -2047 2048 0
-2048 2118 0
114 -2048 2049 0
-2049 2119 0
6 -2049 2050 0
-2050 2120 0
117 -2050 2051 0
-2051 2121 0
119 -2051 2052 0
-2052 2122 0
121 -2052 2053 0
-2053 2123 0
123 -2053 2054 0
-2054 2124 0
125 -2054 2055 0
-2055 2125 0
127 -2055 2056 0
-2056 2126 0
129 -2056 2057 0
-2057 2127 0
131 -2057 2058 0
-2058 2128 0
133 -2058 2059 0
-2059 2129 0
135 -2059 2060 0
-2060 2130 0
7 -2060 2061 0
-2061 2131 0
138 -2061 2062 0
-2062 2132 0
140 -2062 2063 0
-2063 2133 0
142 -2063 2064 0
-2064 2134 0
144 -2064 2065 0
-2065 2135 0
146 -2065 2066 0
-2066 2136 0
148 -2066 2067 0
-2067 2137 0
150 -2067 2068 0
-2068 2138 0
152 -2068 2069 0
-2069 2139 0
154 -2069 2070 0
-2070 2140 0
156 -2070 2071 0
-2071 2141 0
8 -2071 2072 0
-2072 2142 0
159 -2072 2073 0
-2073 2143 0
161 -2073 2074 0
-2074 2144 0
163 -2074 2075 0
-2075 2145 0
165 -2075 2076 0
-2076 2146 0
167 -2076 2077 0
-2077 2147 0
169 -2077 2078 0
-2078 2148 0
171 -2078 2079 0
-2079 2149 0
173 -2079 2080 0
-2080 2150 0
175 -2080 2081 0
-2081 2151 0
177 -2081 2082 0
-2082 2152 0
9 -2082 2083 0
-2083 2153 0
180 -2083 2084 0
-2084 2154 0
182 -2084 2085 0
-2085 2155 0
184 -2085 2086 0
-2086 2156 0
186 -2086 2087 0
-2087 2157 0
188 -2087 2088 0
-2088 2158 0
190 -2088 2089 0
-2089 2159 0
192 -2089 2090 0
-2090 2160 0
194 -2090 0
62 2091 0
-2091 2161 0
64 -2091 2092 0
-2092 2162 0
66 -2092 2093 0
-2093 2163 0
68 -2093 2094 0
-2094 2164 0
70 -2094 2095 0
-2095 2165 0
72 -2095 2096 0
-2096 2166 0
4 -2096 2097 0
-2097 2167 0
75 -2097 2098 0
-2098 2168 0
77 -2098 2099 0
-2099 2169 0
79 -2099 2100 0
-2100 2170 0
81 -2100 2101 0
-2101 2171 0
83 -2101 2102 0
-2102 2172 0
85 -2102 2103 0
-2103 2173 0
87 -2103 2104 0
-2104 2174 0
89 -2104 2105 0
-2105 2175 0
91 -2105 2106 0
-2106 2176 0
93 -2106 2107 0
-2107 2177 0
5 -2107 2108 0
-2108 2178 0
96 -2108 2109 0
-2109 2179 0
98 -2109 2110 0
-2110 2180 0
100 -2110 2111 0
-2111 2181 0
102 -2111 2112 0
-2112 2182 0
104 -2112 2113 0
-2113 2183 0
106 -2113 2114 0
-2114 2184 0
108 -2114 2115 0
-2115 2185 0
110 -2115 2116 0
-2116 2186 0
112 -2116 2117 0
-2117 2187 0
114 -2117 2118 0
-2118 2188 0
6 -2118 2119 0
-2119 2189 0
117 -2119 2120 0
-2120 2190 0
119 -2120 2121 0
-2121 2191 0
121 -2121 2122 0
-2122 2192 0
123 -2122 2123 0
-2123 2193 0
125 -2123 2124 0
-2124 2194 0
127 -2124 2125 0
-2125 2195 0
129 -2125 2126 0
-2126 2196 0
131 -2126 2127 0
-2127 2197 0
133 -2127 2128 0
-2128 2198 0
135 -2128 2129 0
-2129 2199 0
7 -2129 2130 0
-2130 2200 0
138 -2130 2131 0
-2131 2201 0
140 -2131 2132 0
-2132 2202 0
142 -2132 2133 0
-2133 2203 0
144 -2133 2134 0
-2134 2204 0
146 -2134 2135 0
-2135 2205 0
148 -2135 2136 0
-2136 2206 0
150 -2136 2137 0
-2137 2207 0
152 -2137 2138 0
-2138 2208 0
154 -2138 2139 0
-2139 2209 0
156 -2139 2140 0
-2140 2210 0
8 -2140 2141 0
-2141 2211 0
159 -2141 2142 0
-2142 2212 0
161 -2142 2143 0
-2143 2213 0
163 -2143 2144 0
-2144 2214 0
165 -2144 2145 0
-2145 2215 0
167 -2145 2146 0
-2146 2216 0
169 -2146 2147 0
-2147 2217 0
171 -2147 2148 0
-2148 2218 0
173 -2148 2149 0
-2149 2219 0
175 -2149 2150 0
-2150 2220 0
177 -2150 2151 0
-2151 2221 0
9 -2151 2152 0
-2152 2222 0
180 -2152 2153 0
-2153 2223 0
182 -2153 2154 0
-2154 2224 0
184 -2154 2155 0
-2155 2225 0
186 -2155 2156 0
-2156 2226 0
188 -2156 2157 0
-2157 2227 0
190 -2157 2158 0
-2158 2228 0
192 -2158 2159 0
-2159 2229 0
194 -2159 2160 0
-2160 2230 0
196 -2160 0
64 2161 0
-2161 2231 0
66 -2161 2162 0
-2162 2232 0
68 -2162 2163 0
-2163 2233 0
70 -2163 2164 0
-2164 2234 0
72 -2164 2165 0
-2165 2235 0
4 -2165 2166 0
-2166 2236 0
75 -2166 2167 0
-2167 2237 0
77 -2167 2168 0
-2168 2238 0
79 -2168 2169 0
-2169 2239 0
81 -2169 2170 0
-2170 2240 0
83 -2170 2171 0
-2171 2241 0
85 -2171 2172 0
-2172 2242 0
87 -2172 2173 0
-2173 2243 0
89 -2173 2174 0
-2174 2244 0
91 -2174 2175 0
-2175 2245 0
93 -2175 2176 0
-2176 2246 0
5 -2176 2177 0
-2177 2247 0
96 -2177 2178 0
-2178 2248 0
98 -2178 2179 0
-2179 2249 0
100 -2179 2180 0
-2180 2250 0
102 -2180 2181 0
-2181 2251 0
104 -2181 2182 0
-2182 2252 0
106 -2182 2183 0
-2183 2253 0
108 -2183 2184 0
-2184 2254 0
110 -2184 2185 0
-2185 2255 0
112 -2185 2186 0
-2186 2256 0
114 -2186 2187 0
-2187 2257 0
6 -2187 2188 0
-2188 2258 0
117 -2188 2189 0
-2189 2259 0
119 -2189 2190 0
-2190 2260 0
121 -2190 2191 0
-2191 2261 0
123 -2191 2192 0
-2192 2262 0
125 -2192 2193 0
-2193 2263 0
127 -2193 2194 0
-2194 2264 0
129 -2194 2195 0
-2195 2265 0
131 -2195 2196 0
-2196 2266 0
133 -2196 2197 0
-2197 2267 0
135 -2197 2198 0
-2198 2268 0
7 -2198 2199 0
-2199 2269 0
138 -2199 2200 0
-2200 2270 0
140 -2200 2201 0
-2201 2271 0
142 -2201 2202 0
-2202 2272 0
144 -2202 2203 0
-2203 2273 0
146 -2203 2204 0
-2204 2274 0
148 -2204 2205 0
-2205 2275 0
150 -2205 2206 0
-2206 2276 0
152 -2206 2207 0
-2207 2277 0
154 -2207 2208 0
-2208 2278 0
156 -2208 2209 0
-2209 2279 0
8 -2209 2210 0
-2210 2280 0
159 -2210 2211 0
-2211 2281 0
161 -2211 2212 0
-2212 2282 0
163 -2212 2213 0
-2213 2283 0
165 -2213 2214 0
-2214 2284 0
167 -2214 2215 0
-2215 2285 0
169 -2215 2216 0
-2216 2286 0
171 -2216 2217 0
-2217 2287 0
173 -2217 2218 0
-2218 2288 0
175 -2218 2219 0
-2219 2289 0
177 -2219 2220 0
-2220 2290 0
9 -2220 2221 0
-2221 2291 0
180 -2221 2222 0
-2222 2292 0
182 -2222 2223 0
-2223 2293 0
184 -2223 2224 0
-2224 2294 0
186 -2224 2225 0
-2225 2295 0
188 -2225 2226 0
-2226 2296 0
190 -2226 2227 0
-2227 2297 0
192 -2227 2228 0
-2228 2298 0
194 -2228 2229 0
-2229 2299 0
196 -2229 2230 0
-2230 2300 0
198 -2230 0
66 2231 0
68 -2231 2232 0
70 -2232 2233 0
72 -2233 2234 0
4 -2234 2235 0
75 -2235 2236 0
77 -2236 2237 0
79 -2237 2238 0
81 -2238 2239 0
83 -2239 2240 0
85 -2240 2241 0
87 -2241 2242 0
89 -2242 2243 0
91 -2243 2244 0
93 -2244 2245 0
5 -2245 2246 0
96 -2246 2247 0
98 -2247 2248 0
100 -2248 2249 0
102 -2249 2250 0
104 -2250 2251 0
106 -2251 2252 0
108 -2252 2253 0
110 -2253 2254 0
112 -2254 2255 0
114 -2255 2256 0
6 -2256 2257 0
117 -2257 2258 0
119 -2258 2259 0
121 -2259 2260 0
123 -2260 2261 0
125 -2261 2262 0
127 -2262 2263 0
129 -2263 2264 0
131 -2264 2265 0
133 -2265 2266 0
135 -2266 2267 0
7 -2267 2268 0
138 -2268 2269 0
140 -2269 2270 0
142 -2270 2271 0
144 -2271 2272 0
146 -2272 2273 0
148 -2273 2274 0
150 -2274 2275 0
152 -2275 2276 0
154 -2276 2277 0
156 -2277 2278 0
8 -2278 2279 0
159 -2279 2280 0
161 -2280 2281 0
163 -2281 2282 0
165 -2282 2283 0
167 -2283 2284 0
169 -2284 2285 0
171 -2285 2286 0
173 -2286 2287 0
175 -2287 2288 0
177 -2288 2289 0
9 -2289 2290 0
180 -2290 2291 0
182 -2291 2292 0
184 -2292 2293 0
186 -2293 2294 0
188 -2294 2295 0
190 -2295 2296 0
192 -2296 2297 0
194 -2297 2298 0
196 -2298 2299 0
198 -2299 2300 0
10 -2300 0
-1 2301 0
-2301 2302 0
-12 -2301 2303 0
-2303 2304 0
-14 -2303 2305 0
-2305 2306 0
-16 -2305 2307 0
-2307 2308 0
-18 -2307 2309 0
-2309 2310 0
-20 -2309 2311 0
-2311 2312 0
-22 -2311 2313 0
-2313 2314 0
-24 -2313 2315 0
-2315 2316 0
-26 -2315 2317 0
-2317 2318 0
-28 -2317 2319 0
-2319 2320 0
-30 -2319 2321 0
-2321 2322 0
-2 -2321 2323 0
-2323 2324 0
-33 -2323 2325 0
-2325 2326 0
-35 -2325 2327 0
-2327 2328 0
-37 -2327 2329 0
-2329 2330 0
-39 -2329 2331 0
-2331 2332 0
-41 -2331 2333 0
-2333 2334 0
-43 -2333 2335 0
-2335 2336 0
-45 -2335 2337 0
-2337 2338 0
-47 -2337 2339 0
-2339 2340 0
-49 -2339 2341 0
-2341 2342 0
-51 -2341 2343 0
-2343 2344 0
-3 -2343 2345 0
-2345 2346 0
-54 -2345 2347 0
-2347 2348 0
-56 -2347 2349 0
-2349 2350 0
-58 -2349 2351 0
-2351 2352 0
-60 -2351 2353 0
-2353 2354 0
-62 -2353 2355 0
-2355 2356 0
-64 -2355 2357 0
-2357 2358 0
-66 -2357 2359 0
-2359 2360 0
-68 -2359 0
-12 2302 0
-2302 2361 0
-14 -2302 2304 0
-2304 2362 0
-16 -2304 2306 0
-2306 2363 0
-18 -2306 2308 0
-2308 2364 0
-20 -2308 2310 0
-2310 2365 0
-22 -2310 2312 0
-2312 2366 0
-24 -2312 2314 0
-2314 2367 0
-26 -2314 2316 0
-2316 2368 0
-28 -2316 2318 0
-2318 2369 0
-30 -2318 2320 0
-2320 2370 0
-2 -2320 2322 0
-2322 2371 0
-33 -2322 2324 0
-2324 2372 0
-35 -2324 2326 0
-2326 2373 0
-37 -2326 2328 0
-2328 2374 0
-39 -2328 2330 0
-2330 2375 0
-41 -2330 2332 0
-2332 2376 0
-43 -2332 2334 0
-2334 2377 0
-45 -2334 2336 0
-2336 2378 0
-47 -2336 2338 0
-2338 2379 0
-49 -2338 2340 0
-2340 2380 0
-51 -2340 2342 0
-2342 2381 0
-3 -2342 2344 0
-2344 2382 0
-54 -2344 2346 0
-2346 2383 0
-56 -2346 2348 0
-2348 2384 0
-58 -2348 2350 0
-2350 2385 0
-60 -2350 2352 0
-2352 2386 0
-62 -2352 2354 0
-2354 2387 0
-64 -2354 2356 0
-2356 2388 0
-66 -2356 2358 0
-2358 2389 0
-68 -2358 2360 0
-2360 2390 0
-70 -2360 0
-14 2361 0
-2361 2391 0
-16 -2361 2362 0
-2362 2392 0
-18 -2362 2363 0
-2363 2393 0
-20 -2363 2364 0
-2364 2394 0
-22 -2364 2365 0
-2365 2395 0
-24 -2365 2366 0
-2366 2396 0
-26 -2366 2367 0
-2367 2397 0
-28 -2367 2368 0
-2368 2398 0
-30 -2368 2369 0
-2369 2399 0
-2 -2369 2370 0
-2370 2400 0
-33 -2370 2371 0
-2371 2401 0
-35 -2371 2372 0
-2372 2402 0
-37 -2372 2373 0
-2373 2403 0
-39 -2373 2374 0
-2374 2404 0
-41 -2374 2375 0
-2375 2405 0
-43 -2375 2376 0
-2376 2406 0
-45 -2376 2377 0
-2377 2407 0
-47 -2377 2378 0
-2378 2408 0
-49 -2378 2379 0
-2379 2409 0
-51 -2379 2380 0
-2380 2410 0
-3 -2380 2381 0
-2381 2411 0
-54 -2381 2382 0
-2382 2412 0
-56 -2382 2383 0
-2383 2413 0
-58 -2383 2384 0
-2384 2414 0
-60 -2384 2385 0
-2385 2415 0
-62 -2385 2386 0
-2386 2416 0
-64 -2386 2387 0
-2387 2417 0
-66 -2387 2388 0
-2388 2418 0
-68 -2388 2389 0
-2389 2419 0
-70 -2389 2390 0
-2390 2420 0
-72 -2390 0
-16 2391 0
-2391 2421 0
-18 -2391 2392 0
-2392 2422 0
-20 -2392 2393 0
-2393 2423 0
-22 -2393 2394 0
-2394 2424 0
-24 -2394 2395 0
-2395 2425 0
-26 -2395 2396 0
-2396 2426 0
-28 -2396 2397 0
-2397 2427 0
-30 -2397 2398 0
-2398 2428 0
-2 -2398 2399 0
-2399 2429 0
-33 -2399 2400 0
-2400 2430 0
-35 -2400 2401 0
-2401 2431 0
-37 -2401 2402 0
-2402 2432 0
-39 -2402 2403 0
-2403 2433 0
-41 -2403 2404 0
-2404 2434 0
-43 -2404 2405 0
-2405 2435 0
-45 -2405 2406 0
-2406 2436 0
-47 -2406 2407 0
-2407 2437 0
-49 -2407 2408 0
-2408 2438 0
-51 -2408 2409 0
-2409 2439 0
-3 -2409 2410 0
-2410 2440 0
-54 -2410 2411 0
-2411 2441 0
-56 -2411 2412 0
-2412 2442 0
-58 -2412 2413 0
-2413 2443 0
-60 -2413 2414 0
-2414 2444 0
-62 -2414 2415 0
-2415 2445 0
-64 -2415 2416 0
-2416 2446 0
-66 -2416 2417 0
-2417 2447 0
-68 -2417 2418 0
-2418 2448 0
-70 -2418 2419 0
-2419 2449 0
-72 -2419 2420 0
-2420 2450 0
-4 -2420 0
-18 2421 0
-2421 2451 0
-20 -2421 2422 0
-2422 2452 0
-22 -2422 2423 0
-2423 2453 0
-24 -2423 2424 0
-2424 2454 0
-26 -2424 2425 0
-2425 2455 0
-28 -2425 2426 0
-2426 2456 0
-30 -2426 2427 0
-2427 2457 0
-2 -2427 2428 0
-2428 2458 0
-33 -2428 2429 0
-2429 2459 0
-35 -2429 2430 0
-2430 2460 0
-37 -2430 2431 0
-2431 2461 0
-39 -2431 2432 0
-2432 2462 0
-41 -2432 2433 0
-2433 2463 0
-43 -2433 2434 0
-2434 2464 0
-45 -2434 2435 0
-2435 2465 0
-47 -2435 2436 0
-2436 2466 0
-49 -2436 2437 0
-2437 2467 0
-51 -2437 2438 0
-2438 2468 0
-3 -2438 2439 0
-2439 2469 0
-54 -2439 2440 0
-2440 2470 0
-56 -2440 2441 0
-2441 2471 0
-58 -2441 2442 0
-2442 2472 0
-60 -2442 2443 0
-2443 2473 0
-62 -2443 2444 0
-2444 2474 0
-64 -2444 2445 0
-2445 2475 0
-66 -2445 2446 0
-2446 2476 0
-68 -2446 2447 0
-2447 2477 0
-70 -2447 2448 0
-2448 2478 0
-72 -2448 2449 0
-2449 2479 0
-4 -2449 2450 0
-2450 2480 0
-75 -2450 0
-20 2451 0
-2451 2481 0
-22 -2451 2452 0
-2452 2482 0
-24 -2452 2453 0
-2453 2483 0
-26 -2453 2454 0
-2454 2484 0
-28 -2454 2455 0
-2455 2485 0
-30 -2455 2456 0
-2456 2486 0
-2 -2456 2457 0
-2457 2487 0
-33 -2457 2458 0
-2458 2488 0
-35 -2458 2459 0
-2459 2489 0
-37 -2459 2460 0
-2460 2490 0
-39 -2460 2461 0
-2461 2491 0
-41 -2461 2462 0
-2462 2492 0
-43 -2462 2463 0
-2463 2493 0
-45 -2463 2464 0
-2464 2494 0
-47 -2464 2465 0
-2465 2495 0
-49 -2465 2466 0
-2466 2496 0
-51 -2466 2467 0
-2467 2497 0
-3 -2467 2468 0
-2468 2498 0
-54 -2468 2469 0
-2469 2499 0
-56 -2469 2470 0
-2470 2500 0
-58 -2470 2471 0
-2471 2501 0
-60 -2471 2472 0
-2472 2502 0
-62 -2472 2473 0
-2473 2503 0
-64 -2473 2474 0
-2474 2504 0
-66 -2474 2475 0
-2475 2505 0
-68 -2475 2476 0
-2476 2506 0
-70 -2476 2477 0
-2477 2507 0
-72 -2477 2478 0
-2478 2508 0
-4 -2478 2479 0
-2479 2509 0
-75 -2479 2480 0
-2480 2510 0
-77 -2480 0
-22 2481 0
-2481 2511 0
-24 -2481 2482 0
-2482 2512 0
-26 -2482 2483 0
-2483 2513 0
-28 -2483 2484 0
-2484 2514 0
-30 -2484 2485 0
-2485 2515 0
-2 -2485 2486 0
-2486 2516 0
-33 -2486 2487 0
-2487 2517 0
-35 -2487 2488 0
-2488 2518 0
-37 -2488 2489 0
-2489 2519 0
-39 -2489 2490 0
-2490 2520 0
-41 -2490 2491 0
-2491 2521 0
-43 -2491 2492 0
-2492 2522 0
-45 -2492 2493 0
-2493 2523 0
-47 -2493 2494 0
-2494 2524 0
-49 -2494 2495 0
-2495 2525 0
-51 -2495 2496 0
-2496 2526 0
-3 -2496 2497 0
-2497 2527 0
-54 -2497 2498 0
-2498 2528 0
-56 -2498 2499 0
-2499 2529 0
-58 -2499 2500 0
-2500 2530 0
-60 -2500 2501 0
-2501 2531 0
-62 -2501 2502 0
-2502 2532 0
-64 -2502 2503 0
-2503 2533 0
-66 -2503 2504 0
-2504 2534 0
-68 -2504 2505 0
-2505 2535 0
-70 -2505 2506 0
-2506 2536 0
-72 -2506 2507 0
-2507 2537 0
-4 -2507 2508 0
-2508 2538 0
-75 -2508 2509 0
-2509 2539 0
-77 -2509 2510 0
-2510 2540 0
-79 -2510 0
-24 2511 0
-2511 2541 0
-26 -2511 2512 0
-2512 2542 0
-28 -2512 2513 0
-2513 2543 0
-30 -2513 2514 0
-2514 2544 0
-2 -2514 2515 0
-2515 2545 0
-33 -2515 2516 0
-2516 2546 0
-35 -2516 2517 0
-2517 2547 0
-37 -2517 2518 0
-2518 2548 0
-39 -2518 2519 0
-2519 2549 0
-41 -2519 2520 0
-2520 2550 0
-43 -2520 2521 0
-2521 2551 0
-45 -2521 2522 0
-2522 2552 0
-47 -2522 2523 0
-2523 2553 0
-49 -2523 2524 0
-2524 2554 0
-51 -2524 2525 0
-2525 2555 0
-3 -2525 2526 0
-2526 2556 0
-54 -2526 2527 0
-2527 2557 0
-56 -2527 2528 0
-2528 2558 0
-58 -2528 2529 0
-2529 2559 0
-60 -2529 2530 0
-2530 2560 0
-62 -2530 2531 0
-2531 2561 0
-64 -2531 2532 0
-2532 2562 0
-66 -2532 2533 0
-2533 2563 0
-68 -2533 2534 0
-2534 2564 0
-70 -2534 2535 0
-2535 2565 0
-72 -2535 2536 0
-2536 2566 0
-4 -2536 2537 0
-2537 2567 0
-75 -2537 2538 0
-2538 2568 0
-77 -2538 2539 0
-2539 2569 0
-79 -2539 2540 0
-2540 2570 0
-81 -2540 0
-26 2541 0
-2541 2571 0
-28 -2541 2542 0
-2542 2572 0
-30 -2542 2543 0
-2543 2573 0
-2 -2543 2544 0
-2544 2574 0
-33 -2544 2545 0
-2545 2575 0
-35 -2545 2546 0
-2546 2576 0
-37 -2546 2547 0
-2547 2577 0
-39 -2547 2548 0
-2548 2578 0
-41 -2548 2549 0
-2549 2579 0
-43 -2549 2550 0
-2550 2580 0
-45 -2550 2551 0
-2551 2581 0
-47 -2551 2552 0
-2552 2582 0
-49 -2552 2553 0
-2553 2583 0
-51 -2553 2554 0
-2554 2584 0
-3 -2554 2555 0
-2555 2585 0
-54 -2555 2556 0
-2556 2586 0
-56 -2556 2557 0
-2557 2587 0
-58 -2557 2558 0
-2558 2588 0
-60 -2558 2559 0
-2559 2589 0
-62 -2559 2560 0
-2560 2590 0
-64 -2560 2561 0
-2561 2591 0
-66 -2561 2562 0
-2562 2592 0
-68 -2562 2563 0
-2563 2593 0
-70 -2563 2564 0
-2564 2594 0
-72 -2564 2565 0
-2565 2595 0
-4 -2565 2566 0
-2566 2596 0
-75 -2566 2567 0
-2567 2597 0
-77 -2567 2568 0
-2568 2598 0
-79 -2568 2569 0
-2569 2599 0
-81 -2569 2570 0
-2570 2600 0
-83 -2570 0
-28 2571 0
-2571 2601 0
-30 -2571 2572 0
-2572 2602 0
-2 -2572 2573 0
-2573 2603 0
-33 -2573 2574 0
-2574 2604 0
-35 -2574 2575 0
-2575 2605 0
-37 -2575 2576 0
-2576 2606 0
-39 -2576 2577 0
-2577 2607 0
-41 -2577 2578 0
-2578 2608 0
-43 -2578 2579 0
-2579 2609 0
-45 -2579 2580 0
-2580 2610 0
-47 -2580 2581 0
-2581 2611 0
-49 -2581 2582 0
-2582 2612 0
-51 -2582 2583 0
-2583 2613 0
-3 -2583 2584 0
-2584 2614 0
-54 -2584 2585 0
-2585 2615 0
-56 -2585 2586 0
-2586 2616 0
-58 -2586 2587 0
-2587 2617 0
-60 -2587 2588 0
-2588 2618 0
-62 -2588 2589 0
-2589 2619 0
-64 -2589 2590 0
-2590 2620 0
-66 -2590 2591 0
-2591 2621 0
-68 -2591 2592 0
-2592 2622 0
-70 -2592 2593 0
-2593 2623 0
-72 -2593 2594 0
-2594 2624 0
-4 -2594 2595 0
-2595 2625 0
-75 -2595 2596 0
-2596 2626 0
-77 -2596 2597 0
-2597 2627 0
-79 -2597 2598 0
-2598 2628 0
-81 -2598 2599 0
-2599 2629 0
-83 -2599 2600 0
-2600 2630 0
-85 -2600 0
-30 2601 0
-2601 2631 0
-2 -2601 2602 0
-2602 2632 0
-33 -2602 2603 0
-2603 2633 0
-35 -2603 2604 0
-2604 2634 0
-37 -2604 2605 0
-2605 2635 0
-39 -2605 2606 0
-2606 2636 0
-41 -2606 2607 0
-2607 2637 0
-43 -2607 2608 0
-2608 2638 0
-45 -2608 2609 0
-2609 2639 0
-47 -2609 2610 0
-2610 2640 0
-49 -2610 2611 0
-2611 2641 0
-51 -2611 2612 0
-2612 2642 0
-3 -2612 2613 0
-2613 2643 0
-54 -2613 2614 0
-2614 2644 0
-56 -2614 2615 0
-2615 2645 0
-58 -2615 2616 0
-2616 2646 0
-60 -2616 2617 0
-2617 2647 0
-62 -2617 2618 0
-2618 2648 0
-64 -2618 2619 0
-2619 2649 0
-66 -2619 2620 0
-2620 2650 0
-68 -2620 2621 0
-2621 2651 0
-70 -2621 2622 0
-2622 2652 0
-72 -2622 2623 0
-2623 2653 0
-4 -2623 2624 0
-2624 2654 0
-75 -2624 2625 0
-2625 2655 0
-77 -2625 2626 0
-2626 2656 0
-79 -2626 2627 0
-2627 2657 0
-81 -2627 2628 0
-2628 2658 0
-83 -2628 2629 0
-2629 2659 0
-85 -2629 2630 0
-2630 2660 0
-87 -2630 0
-2 2631 0
-2631 2661 0
-33 -2631 2632 0
-2632 2662 0
-35 -2632 2633 0
-2633 2663 0
-37 -2633 2634 0
-2634 2664 0
-39 -2634 2635 0
-2635 2665 0
-41 -2635 2636 0
-2636 2666 0
-43 -2636 2637 0
-2637 2667 0
-45 -2637 2638 0
-2638 2668 0
-47 -2638 2639 0
-2639 2669 0
-49 -2639 2640 0
-2640 2670 0
-51 -2640 2641 0
-2641 2671 0
-3 -2641 2642 0
-2642 2672 0
-54 -2642 2643 0
-2643 2673 0
-56 -2643 2644 0
-2644 2674 0
-58 -2644 2645 0
-2645 2675 0
-60 -2645 2646 0
-2646 2676 0
-62 -2646 2647 0
-2647 2677 0
-64 -2647 2648 0
-2648 2678 0
-66 -2648 2649 0
-2649 2679 0
-68 -2649 2650 0
-2650 2680 0
-70 -2650 2651 0
-2651 2681 0
-72 -2651 2652 0
-2652 2682 0
-4 -2652 2653 0
-2653 2683 0
-75 -2653 2654 0
-2654 2684 0
-77 -2654 2655 0
-2655 2685 0
-79 -2655 2656 0
-2656 2686 0
-81 -2656 2657 0
-2657 2687 0
-83 -2657 2658 0
-2658 2688 0
-85 -2658 2659 0
-2659 2689 0
-87 -2659 2660 0
-2660 2690 0
-89 -2660 0
-33 2661 0
-2661 2691 0
-35 -2661 2662 0
-2662 2692 0
-37 -2662 2663 0
-2663 2693 0
-39 -2663 2664 0
-2664 2694 0
-41 -2664 2665 0
-2665 2695 0
-43 -2665 2666 0
-2666 2696 0
-45 -2666 2667 0
-2667 2697 0
-47 -2667 2668 0
-2668 2698 0
-49 -2668 2669 0
-2669 2699 0
-51 -2669 2670 0
-2670 2700 0
-3 -2670 2671 0
-2671 2701 0
-54 -2671 2672 0
-2672 2702 0
-56 -2672 2673 0
-2673 2703 0
-58 -2673 2674 0
-2674 2704 0
-60 -2674 2675 0
-2675 2705 0
-62 -2675 2676 0
-2676 2706 0
-64 -2676 2677 0
-2677 2707 0
-66 -2677 2678 0
-2678 2708 0
-68 -2678 2679 0
-2679 2709 0
-70 -2679 2680 0
-2680 2710 0
-72 -2680 2681 0
-2681 2711 0
-4 -2681 2682 0
-2682 2712 0
-75 -2682 2683 0
-2683 2713 0
-77 -2683 2684 0
-2684 2714 0
-79 -2684 2685 0
-2685 2715 0
-81 -2685 2686 0
-2686 2716 0
-83 -2686 2687 0
-2687 2717 0
-85 -2687 2688 0
-2688 2718 0
-87 -2688 2689 0
-2689 2719 0
-89 -2689 2690 0
-2690 2720 0
-91 -2690 0
-35 2691 0
-2691 2721 0
-37 -2691 2692 0
-2692 2722 0
-39 -2692 2693 0
-2693 2723 0
-41 -2693 2694 0
-2694 2724 0
-43 -2694 2695 0
-2695 2725 0
-45 -2695 2696 0
-2696 2726 0
-47 -2696 2697 0
-2697 2727 0
-49 -2697 2698 0
-2698 2728 0
-51 -2698 2699 0
-2699 2729 0
-3 -2699 2700 0
-2700 2730 0
-54 -2700 2701 0
-2701 2731 0
-56 -2701 2702 0
-2702 2732 0
-58 -2702 2703 0
-2703 2733 0
-60 -2703 2704 0
-2704 2734 0
-62 -2704 2705 0
-2705 2735 0
-64 -2705 2706 0
-2706 2736 0
-66 -2706 2707 0
-2707 2737 0
-68 -2707 2708 0
-2708 2738 0
-70 -2708 2709 0
-2709 2739 0
-72 -2709 2710 0
-2710 2740 0
-4 -2710 2711 0
-2711 2741 0
-75 -2711 2712 0
-2712 2742 0
-77 -2712 2713 0
-2713 2743 0
-79 -2713 2714 0
-2714 2744 0
-81 -2714 2715 0
-2715 2745 0
-83 -2715 2716 0
-2716 2746 0
-85 -2716 2717 0
-2717 2747 0
-87 -2717 2718 0
-2718 2748 0
-89 -2718 2719 0
-2719 2749 0
-91 -2719 2720 0
-2720 2750 0
-93 -2720 0
-37 2721 0
-2721 2751 0
-39 -2721 2722 0
-2722 2752 0
-41 -2722 2723 0
-2723 2753 0
-43 -2723 2724 0
-2724 2754 0
-45 -2724 2725 0
-2725 2755 0
-47 -2725 2726 0
-2726 2756 0
-49 -2726 2727 0
-2727 2757 0
-51 -2727 2728 0
-2728 2758 0
-3 -2728 2729 0
-2729 2759 0
-54 -2729 2730 0
-2730 2760 0
-56 -2730 2731 0
-2731 2761 0
-58 -2731 2732 0
-2732 2762 0
-60 -2732 2733 0
-2733 2763 0
-62 -2733 2734 0
-2734 2764 0
-64 -2734 2735 0
-2735 2765 0
-66 -2735 2736 0
-2736 2766 0
-68 -2736 2737 0
-2737 2767 0
-70 -2737 2738 0
-2738 2768 0
-72 -2738 2739 0
-2739 2769 0
-4 -2739 2740 0
-2740 2770 0
-75 -2740 2741 0
-2741 2771 0
-77 -2741 2742 0
-2742 2772 0
-79 -2742 2743 0
-2743 2773 0
-81 -2743 2744 0
-2744 2774 0
-83 -2744 2745 0
-2745 2775 0
-85 -2745 2746 0
-2746 2776 0
-87 -2746 2747 0
-2747 2777 0
-89 -2747 2748 0
-2748 2778 0
-91 -2748 2749 0
-2749 2779 0
-93 -2749 2750 0
-2750 2780 0
-5 -2750 0
-39 2751 0
-2751 2781 0
-41 -2751 2752 0
-2752 2782 0
-43 -2752 2753 0
-2753 2783 0
-45 -2753 2754 0
-2754 2784 0
-47 -2754 2755 0
-2755 2785 0
-49 -2755 2756 0
-2756 2786 0
-51 -2756 2757 0
-2757 2787 0
-3 -2757 2758 0
-2758 2788 0
-54 -2758 2759 0
-2759 2789 0
-56 -2759 2760 0
-2760 2790 0
-58 -2760 2761 0
-2761 2791 0
-60 -2761 2762 0
-2762 2792 0
-62 -2762 2763 0
-2763 2793 0
-64 -2763 2764 0
-2764 2794 0
-66 -2764 2765 0
-2765 2795 0
-68 -2765 2766 0
-2766 2796 0
-70 -2766 2767 0
-2767 2797 0
-72 -2767 2768 0
-2768 2798 0
-4 -2768 2769 0
-2769 2799 0
-75 -2769 2770 0
-2770 2800 0
-77 -2770 2771 0
-2771 2801 0
-79 -2771 2772 0
-2772 2802 0
-81 -2772 2773 0
-2773 2803 0
-83 -2773 2774 0
-2774 2804 0
-85 -2774 2775 0
-2775 2805 0
-87 -2775 2776 0
-2776 2806 0
-89 -2776 2777 0
-2777 2807 0
-91 -2777 2778 0
-2778 2808 0
-93 -2778 2779 0
-2779 2809 0
-5 -2779 2780 0
-2780 2810 0
-96 -2780 0
-41 2781 0
-2781 2811 0
-43 -2781 2782 0
-2782 2812 0
-45 -2782 2783 0
-2783 2813 0
-47 -2783 2784 0
-2784 2814 0
-49 -2784 2785 0
-2785 2815 0
-51 -2785 2786 0
-2786 2816 0
-3 -2786 2787 0
-2787 2817 0
-54 -2787 2788 0
-2788 2818 0
-56 -2788 2789 0
-2789 2819 0
-58 -2789 2790 0
-2790 2820 0
-60 -2790 2791 0
-2791 2821 0
-62 -2791 2792 0
-2792 2822 0
-64 -2792 2793 0
-2793 2823 0
-66 -2793 2794 0
-2794 2824 0
-68 -2794 2795 0
-2795 2825 0
-70 -2795 2796 0
-2796 2826 0
-72 -2796 2797 0
-2797 2827 0
-4 -2797 2798 0
-2798 2828 0
-75 -2798 2799 0
-2799 2829 0
-77 -2799 2800 0
-2800 2830 0
-79 -2800 2801 0
-2801 2831 0
-81 -2801 2802 0
-2802 2832 0
-83 -2802 2803 0
-2803 2833 0
-85 -2803 2804 0
-2804 2834 0
-87 -2804 2805 0
-2805 2835 0
-89 -2805 2806 0
-2806 2836 0
-91 -2806 2807 0
-2807 2837 0
-93 -2807 2808 0
-2808 2838 0
-5 -2808 2809 0
-2809 2839 0
-96 -2809 2810 0
-2810 2840 0
-98 -2810 0
-43 2811 0
-2811 2841 0
-45 -2811 2812 0
-2812 2842 0
-47 -2812 2813 0
-2813 2843 0
-49 -2813 2814 0
-2814 2844 0
-51 -2814 2815 0
-2815 2845 0
-3 -2815 2816 0
-2816 2846 0
-54 -2816 2817 0
-2817 2847 0
-56 -2817 2818 0
-2818 2848 0
-58 -2818 2819 0
-2819 2849 0
-60 -2819 2820 0
-2820 2850 0
-62 -2820 2821 0
-2821 2851 0
-64 -2821 2822 0
-2822 2852 0
-66 -2822 2823 0
-2823 2853 0
-68 -2823 2824 0
-2824 2854 0
-70 -2824 2825 0
-2825 2855 0
-72 -2825 2826 0
-2826 2856 0
-4 -2826 2827 0
-2827 2857 0
-75 -2827 2828 0
-2828 2858 0
-77 -2828 2829 0
-2829 2859 0
-79 -2829 2830 0
-2830 2860 0
-81 -2830 2831 0
-2831 2861 0
-83 -2831 2832 0
-2832 2862 0
-85 -2832 2833 0
-2833 2863 0
-87 -2833 2834 0
-2834 2864 0
-89 -2834 2835 0
-2835 2865 0
-91 -2835 2836 0
-2836 2866 0
-93 -2836 2837 0
-2837 2867 0
-5 -2837 2838 0
-2838 2868 0
-96 -2838 2839 0
-2839 2869 0
-98 -2839 2840 0
-2840 2870 0
-100 -2840 0
-45 2841 0
-2841 2871 0
-47 -2841 2842 0
-2842 2872 0
-49 -2842 2843 0
-2843 2873 0
-51 -2843 2844 0
-2844 2874 0
-3 -2844 2845 0
-2845 2875 0
-54 -2845 2846 0
-2846 2876 0
-56 -2846 2847 0
-2847 2877 0
-58 -2847 2848 0
-2848 2878 0
-60 -2848 2849 0
-2849 2879 0
-62 -2849 2850 0
-2850 2880 0
-64 -2850 2851 0
-2851 2881 0
-66 -2851 2852 0
-2852 2882 0
-68 -2852 2853 0
-2853 2883 0
-70 -2853 2854 0
-2854 2884 0
-72 -2854 2855 0
-2855 2885 0
-4 -2855 2856 0
-2856 2886 0
-75 -2856 2857 0
-2857 2887 0
-77 -2857 2858 0
-2858 2888 0
-79 -2858 2859 0
-2859 2889 0
-81 -2859 2860 0
-2860 2890 0
-83 -2860 2861 0
-2861 2891 0
-85 -2861 2862 0
-2862 2892 0
-87 -2862 2863 0
-2863 2893 0
-89 -2863 2864 0
-2864 2894 0
-91 -2864 2865 0
-2865 2895 0
-93 -2865 2866 0
-2866 2896 0
-5 -2866 2867 0
-2867 2897 0
-96 -2867 2868 0
-2868 2898 0
-98 -2868 2869 0
-2869 2899 0
-100 -2869 2870 0
-2870 2900 0
-102 -2870 0
-47 2871 0
-2871 2901 0
-49 -2871 2872 0
-2872 2902 0
-51 -2872 2873 0
-2873 2903 0
-3 -2873 2874 0
-2874 2904 0
-54 -2874 2875 0
-2875 2905 0
-56 -2875 2876 0
-2876 2906 0
-58 -2876 2877 0
-2877 2907 0
-60 -2877 2878 0
-2878 2908 0
-62 -2878 2879 0
-2879 2909 0
-64 -2879 2880 0
-2880 2910 0
-66 -2880 2881 0
-2881 2911 0
-68 -2881 2882 0
-2882 2912 0
-70 -2882 2883 0
-2883 2913 0
-72 -2883 2884 0
-2884 2914 0
-4 -2884 2885 0
-2885 2915 0
-75 -2885 2886 0
-2886 2916 0
-77 -2886 2887 0
-2887 2917 0
-79 -2887 2888 0
-2888 2918 0
-81 -2888 2889 0
-2889 2919 0
-83 -2889 2890 0
-2890 2920 0
-85 -2890 2891 0
-2891 2921 0
-87 -2891 2892 0
-2892 2922 0
-89 -2892 2893 0
-2893 2923 0
-91 -2893 2894 0
-2894 2924 0
-93 -2894 2895 0
-2895 2925 0
-5 -2895 2896 0
-2896 2926 0
-96 -2896 2897 0
-2897 2927 0
-98 -2897 2898 0
-2898 2928 0
-100 -2898 2899 0
-2899 2929 0
-102 -2899 2900 0
-2900 2930 0
-104 -2900 0
-49 2901 0
-2901 2931 0
-51 -2901 2902 0
-2902 2932 0
-3 -2902 2903 0
-2903 2933 0
-54 -2903 2904 0
-2904 2934 0
-56 -2904 2905 0
-2905 2935 0
-58 -2905 2906 0
-2906 2936 0
-60 -2906 2907 0
-2907 2937 0
-62 -2907 2908 0
-2908 2938 0
-64 -2908 2909 0
-2909 2939 0
-66 -2909 2910 0
-2910 2940 0
-68 -2910 2911 0
-2911 2941 0
-70 -2911 2912 0
-2912 2942 0
-72 -2912 2913 0
-2913 2943 0
-4 -2913 2914 0
-2914 2944 0
-75 -2914 2915 0
-2915 2945 0
-77 -2915 2916 0
-2916 2946 0
-79 -2916 2917 0
-2917 2947 0
-81 -2917 2918 0
-2918 2948 0
-83 -2918 2919 0
-2919 2949 0
-85 -2919 2920 0
-2920 2950 0
-87 -2920 2921 0
-2921 2951 0
-89 -2921 2922 0
-2922 2952 0
-91 -2922 2923 0
-2923 2953 0
-93 -2923 2924 0
-2924 2954 0
-5 -2924 2925 0
-2925 2955 0
-96 -2925 2926 0
-2926 2956 0
-98 -2926 2927 0
-2927 2957 0
-100 -2927 2928 0
-2928 2958 0
-102 -2928 2929 0
-2929 2959 0
-104 -2929 2930 0
-2930 2960 0
-106 -2930 0
-51 2931 0
-2931 2961 0
-3 -2931 2932 0
-2932 2962 0
-54 -2932 2933 0
-2933 2963 0
-56 -2933 2934 0
-2934 2964 0
-58 -2934 2935 0
-2935 2965 0
-60 -2935 2936 0
-2936 2966 0
-62 -2936 2937 0
-2937 2967 0
-64 -2937 2938 0
-2938 2968 0
-66 -2938 2939 0
-2939 2969 0
-68 -2939 2940 0
-2940 2970 0
-70 -2940 2941 0
-2941 2971 0
-72 -2941 2942 0
-2942 2972 0
-4 -2942 2943 0
-2943 2973 0
-75 -2943 2944 0
-2944 2974 0
-77 -2944 2945 0
-2945 2975 0
-79 -2945 2946 0
-2946 2976 0
-81 -2946 2947 0
-2947 2977 0
-83 -2947 2948 0
-2948 2978 0
-85 -2948 2949 0
-2949 2979 0
-87 -2949 2950 0
-2950 2980 0
-89 -2950 2951 0
-2951 2981 0
-91 -2951 2952 0
-2952 2982 0
-93 -2952 2953 0
-2953 2983 0
-5 -2953 2954 0
-2954 2984 0
-96 -2954 2955 0
-2955 2985 0
-98 -2955 2956 0
-2956 2986 0
-100 -2956 2957 0
-2957 2987 0
-102 -2957 2958 0
-2958 2988 0
-104 -2958 2959 0
-2959 2989 0
-106 -2959 2960 0
-2960 2990 0
-108 -2960 0
-3 2961 0
-2961 2991 0
-54 -2961 2962 0
-2962 2992 0
-56 -2962 2963 0
-2963 2993 0
-58 -2963 2964 0
-2964 2994 0
-60 -2964 2965 0
-2965 2995 0
-62 -2965 2966 0
-2966 2996 0
-64 -2966 2967 0
-2967 2997 0
-66 -2967 2968 0
-2968 2998 0
-68 -2968 2969 0
-2969 2999 0
-70 -2969 2970 0
-2970 3000 0
-72 -2970 2971 0
-2971 3001 0
-4 -2971 2972 0
-2972 3002 0
-75 -2972 2973 0
-2973 3003 0
-77 -2973 2974 0
-2974 3004 0
-79 -2974 2975 0
-2975 3005 0
-81 -2975 2976 0
-2976 3006 0
-83 -2976 2977 0
-2977 3007 0
-85 -2977 2978 0
-2978 3008 0
-87 -2978 2979 0
-2979 3009 0
-89 -2979 2980 0
-2980 3010 0
-91 -2980 2981 0
-2981 3011 0
-93 -2981 2982 0
-2982 3012 0
-5 -2982 2983 0
-2983 3013 0
-96 -2983 2984 0
-2984 3014 0
-98 -2984 2985 0
-2985 3015 0
-100 -2985 2986 0
-2986 3016 0
-102 -2986 2987 0
-2987 3017 0
-104 -2987 2988 0
-2988 3018 0
-106 -2988 2989 0
-2989 3019 0
-108 -2989 2990 0
-2990 3020 0
-110 -2990 0
-54 2991 0
-2991 3021 0
-56 -2991 2992 0
-2992 3022 0
-58 -2992 2993 0
-2993 3023 0
-60 -2993 2994 0
-2994 3024 0
-62 -2994 2995 0
-2995 3025 0
-64 -2995 2996 0
-2996 3026 0
-66 -2996 2997 0
-2997 3027 0
-68 -2997 2998 0
-2998 3028 0
-70 -2998 2999 0
-2999 3029 0
-72 -2999 3000 0
-3000 3030 0
-4 -3000 3001 0
-3001 3031 0
-75 -3001 3002 0
-3002 3032 0
-77 -3002 3003 0
-3003 3033 0
-79 -3003 3004 0
-3004 3034 0
-81 -3004 3005 0
-3005 3035 0
-83 -3005 3006 0
-3006 3036 0
-85 -3006 3007 0
-3007 3037 0
-87 -3007 3008 0
-3008 3038 0
-89 -3008 3009 0
-3009 3039 0
-91 -3009 3010 0
-3010 3040 0
-93 -3010 3011 0
-3011 3041 0
-5 -3011 3012 0
-3012 3042 0
-96 -3012 3013 0
-3013 3043 0
-98 -3013 3014 0
-3014 3044 0
-100 -3014 3015 0
-3015 3045 0
-102 -3015 3016 0
-3016 3046 0
-104 -3016 3017 0
-3017 3047 0
-106 -3017 3018 0
-3018 3048 0
-108 -3018 3019 0
-3019 3049 0
-110 -3019 3020 0
-3020 3050 0
-112 -3020 0
-56 3021 0
-3021 3051 0
-58 -3021 3022 0
-3022 3052 0
-60 -3022 3023 0
-3023 3053 0
-62 -3023 3024 0
-3024 3054 0
-64 -3024 3025 0
-3025 3055 0
-66 -3025 3026 0
-3026 3056 0
-68 -3026 3027 0
-3027 3057 0
-70 -3027 3028 0
-3028 3058 0
-72 -3028 3029 0
-3029 3059 0
-4 -3029 3030 0
-3030 3060 0
-75 -3030 3031 0
-3031 3061 0
-77 -3031 3032 0
-3032 3062 0
-79 -3032 3033 0
-3033 3063 0
-81 -3033 3034 0
-3034 3064 0
-83 -3034 3035 0
-3035 3065 0
-85 -3035 3036 0
-3036 3066 0
-87 -3036 3037 0
-3037 3067 0
-89 -3037 3038 0
-3038 3068 0
-91 -3038 3039 0
-3039 3069 0
-93 -3039 3040 0
-3040 3070 0
-5 -3040 3041 0
-3041 3071 0
-96 -3041 3042 0
-3042 3072 0
-98 -3042 3043 0
-3043 3073 0
-100 -3043 3044 0
-3044 3074 0
-102 -3044 3045 0
-3045 3075 0
-104 -3045 3046 0
-3046 3076 0
-106 -3046 3047 0
-3047 3077 0
-108 -3047 3048 0
-3048 3078 0
-110 -3048 3049 0
-3049 3079 0
-112 -3049 3050 0
-3050 3080 0
-114 -3050 0
-58 3051 0
-3051 3081 0
-60 -3051 3052 0
-3052 3082 0
-62 -3052 3053 0
-3053 3083 0
-64 -3053 3054 0
-3054 3084 0
-66 -3054 3055 0
-3055 3085 0
-68 -3055 3056 0
-3056 3086 0
-70 -3056 3057 0
-3057 3087 0
-72 -3057 3058 0
-3058 3088 0
-4 -3058 3059 0
-3059 3089 0
-75 -3059 3060 0
-3060 3090 0
-77 -3060 3061 0
-3061 3091 0
-79 -3061 3062 0
-3062 3092 0
-81 -3062 3063 0
-3063 3093 0
-83 -3063 3064 0
-3064 3094 0
-85 -3064 3065 0
-3065 3095 0
-87 -3065 3066 0
-3066 3096 0
-89 -3066 3067 0
-3067 3097 0
-91 -3067 3068 0
-3068 3098 0
-93 -3068 3069 0
-3069 3099 0
-5 -3069 3070 0
-3070 3100 0
-96 -3070 3071 0
-3071 3101 0
-98 -3071 3072 0
-3072 3102 0
-100 -3072 3073 0
-3073 3103 0
-102 -3073 3074 0
-3074 3104 0
-104 -3074 3075 0
-3075 3105 0
-106 -3075 3076 0
-3076 3106 0
-108 -3076 3077 0
-3077 3107 0
-110 -3077 3078 0
-3078 3108 0
-112 -3078 3079 0
-3079 3109 0
-114 -3079 3080 0
-3080 3110 0
-6 -3080 0
-60 3081 0
-3081 3111 0
-62 -3081 3082 0
-3082 3112 0
-64 -3082 3083 0
-3083 3113 0
-66 -3083 3084 0
-3084 3114 0
-68 -3084 3085 0
-3085 3115 0
-70 -3085 3086 0
-3086 3116 0
-72 -3086 3087 0
-3087 3117 0
-4 -3087 3088 0
-3088 3118 0
-75 -3088 3089 0
-3089 3119 0
-77 -3089 3090 0
-3090 3120 0
-79 -3090 3091 0
-3091 3121 0
-81 -3091 3092 0
-3092 3122 0
-83 -3092 3093 0
-3093 3123 0
-85 -3093 3094 0
-3094 3124 0
-87 -3094 3095 0
-3095 3125 0
-89 -3095 3096 0
-3096 3126 0
-91 -3096 3097 0
-3097 3127 0
-93 -3097 3098 0
-3098 3128 0
-5 -3098 3099 0
-3099 3129 0
-96 -3099 3100 0
-3100 3130 0
-98 -3100 3101 0
-3101 3131 0
-100 -3101 3102 0
-3102 3132 0
-102 -3102 3103 0
-3103 3133 0
-104 -3103 3104 0
-3104 3134 0
-106 -3104 3105 0
-3105 3135 0
-108 -3105 3106 0
-3106 3136 0
-110 -3106 3107 0
-3107 3137 0
-112 -3107 3108 0
-3108 3138 0
-114 -3108 3109 0
-3109 3139 0
-6 -3109 3110 0
-3110 3140 0
-117 -3110 0
-62 3111 0
-3111 3141 0
-64 -3111 3112 0
-3112 3142 0
-66 -3112 3113 0
-3113 3143 0
-68 -3113 3114 0
-3114 3144 0
-70 -3114 3115 0
-3115 3145 0
-72 -3115 3116 0
-3116 3146 0
-4 -3116 3117 0
-3117 3147 0
-75 -3117 3118 0
-3118 3148 0
-77 -3118 3119 0
-3119 3149 0
-79 -3119 3120 0
-3120 3150 0
-81 -3120 3121 0
-3121 3151 0
-83 -3121 3122 0
-3122 3152 0
-85 -3122 3123 0
-3123 3153 0
-87 -3123 3124 0
-3124 3154 0
-89 -3124 3125 0
-3125 3155 0
-91 -3125 3126 0
-3126 3156 0
-93 -3126 3127 0
-3127 3157 0
-5 -3127 3128 0
-3128 3158 0
-96 -3128 3129 0
-3129 3159 0
-98 -3129 3130 0
-3130 3160 0
-100 -3130 3131 0
-3131 3161 0
-102 -3131 3132 0
-3132 3162 0
-104 -3132 3133 0
-3133 3163 0
-106 -3133 3134 0
-3134 3164 0
-108 -3134 3135 0
-3135 3165 0
-110 -3135 3136 0
-3136 3166 0
-112 -3136 3137 0
-3137 3167 0
-114 -3137 3138 0
-3138 3168 0
-6 -3138 3139 0
-3139 3169 0
-117 -3139 3140 0
-3140 3170 0
-119 -3140 0
-64 3141 0
-3141 3171 0
-66 -3141 3142 0
-3142 3172 0
-68 -3142 3143 0
-3143 3173 0
-70 -3143 3144 0
-3144 3174 0
-72 -3144 3145 0
-3145 3175 0
-4 -3145 3146 0
-3146 3176 0
-75 -3146 3147 0
-3147 3177 0
-77 -3147 3148 0
-3148 3178 0
-79 -3148 3149 0
-3149 3179 0
-81 -3149 3150 0
-3150 3180 0
-83 -3150 3151 0
-3151 3181 0
-85 -3151 3152 0
-3152 3182 0
-87 -3152 3153 0
-3153 3183 0
-89 -3153 3154 0
-3154 3184 0
-91 -3154 3155 0
-3155 3185 0
-93 -3155 3156 0
-3156 3186 0
-5 -3156 3157 0
-3157 3187 0
-96 -3157 3158 0
-3158 3188 0
-98 -3158 3159 0
-3159 3189 0
-100 -3159 3160 0
-3160 3190 0
-102 -3160 3161 0
-3161 3191 0
-104 -3161 3162 0
-3162 3192 0
-106 -3162 3163 0
-3163 3193 0
-108 -3163 3164 0
-3164 3194 0
-110 -3164 3165 0
-3165 3195 0
-112 -3165 3166 0
-3166 3196 0
-114 -3166 3167 0
-3167 3197 0
-6 -3167 3168 0
-3168 3198 0
-117 -3168 3169 0
-3169 3199 0
-119 -3169 3170 0
-3170 3200 0
-121 -3170 0
-66 3171 0
-3171 3201 0
-68 -3171 3172 0
-3172 3202 0
-70 -3172 3173 0
-3173 3203 0
-72 -3173 3174 0
-3174 3204 0
-4 -3174 3175 0
-3175 3205 0
-75 -3175 3176 0
-3176 3206 0
-77 -3176 3177 0
-3177 3207 0
-79 -3177 3178 0
-3178 3208 0
-81 -3178 3179 0
-3179 3209 0
-83 -3179 3180 0
-3180 3210 0
-85 -3180 3181 0
-3181 3211 0
-87 -3181 3182 0
-3182 3212 0
-89 -3182 3183 0
-3183 3213 0
-91 -3183 3184 0
-3184 3214 0
-93 -3184 3185 0
-3185 3215 0
-5 -3185 3186 0
-3186 3216 0
-96 -3186 3187 0
-3187 3217 0
-98 -3187 3188 0
-3188 3218 0
-100 -3188 3189 0
-3189 3219 0
-102 -3189 3190 0
-3190 3220 0
-104 -3190 3191 0
-3191 3221 0
-106 -3191 3192 0
-3192 3222 0
-108 -3192 3193 0
-3193 3223 0
-110 -3193 3194 0
-3194 3224 0
-112 -3194 3195 0
-3195 3225 0
-114 -3195 3196 0
-3196 3226 0
-6 -3196 3197 0
-3197 3227 0
-117 -3197 3198 0
-3198 3228 0
-119 -3198 3199 0
-3199 3229 0
-121 -3199 3200 0
-3200 3230 0
-123 -3200 0
-68 3201 0
-3201 3231 0
-70 -3201 3202 0
-3202 3232 0
-72 -3202 3203 0
-3203 3233 0
-4 -3203 3204 0
-3204 3234 0
-75 -3204 3205 0
-3205 3235 0
-77 -3205 3206 0
-3206 3236 0
-79 -3206 3207 0
-3207 3237 0
-81 -3207 3208 0
-3208 3238 0
-83 -3208 3209 0
-3209 3239 0
-85 -3209 3210 0
-3210 3240 0
-87 -3210 3211 0
-3211 3241 0
-89 -3211 3212 0
-3212 3242 0
-91 -3212 3213 0
-3213 3243 0
-93 -3213 3214 0
-3214 3244 0
-5 -3214 3215 0
-3215 3245 0
-96 -3215 3216 0
-3216 3246 0
-98 -3216 3217 0
-3217 3247 0
-100 -3217 3218 0
-3218 3248 0
-102 -3218 3219 0
-3219 3249 0
-104 -3219 3220 0
-3220 3250 0
-106 -3220 3221 0
-3221 3251 0
-108 -3221 3222 0
-3222 3252 0
-110 -3222 3223 0
-3223 3253 0
-112 -3223 3224 0
-3224 3254 0
-114 -3224 3225 0
-3225 3255 0
-6 -3225 3226 0
-3226 3256 0
-117 -3226 3227 0
-3227 3257 0
-119 -3227 3228 0
-3228 3258 0
-121 -3228 3229 0
-3229 3259 0
-123 -3229 3230 0
-3230 3260 0
-125 -3230 0
-70 3231 0
-3231 3261 0
-72 -3231 3232 0
-3232 3262 0
-4 -3232 3233 0
-3233 3263 0
-75 -3233 3234 0
-3234 3264 0
-77 -3234 3235 0
-3235 3265 0
-79 -3235 3236 0
-3236 3266 0
-81 -3236 3237 0
-3237 3267 0
-83 -3237 3238 0
-3238 3268 0
-85 -3238 3239 0
-3239 3269 0
-87 -3239 3240 0
-3240 3270 0
-89 -3240 3241 0
-3241 3271 0
-91 -3241 3242 0
-3242 3272 0
-93 -3242 3243 0
-3243 3273 0
-5 -3243 3244 0
-3244 3274 0
-96 -3244 3245 0
-3245 3275 0
-98 -3245 3246 0
-3246 3276 0
-100 -3246 3247 0
-3247 3277 0
-102 -3247 3248 0
-3248 3278 0
-104 -3248 3249 0
-3249 3279 0
-106 -3249 3250 0
-3250 3280 0
-108 -3250 3251 0
-3251 3281 0
-110 -3251 3252 0
-3252 3282 0
-112 -3252 3253 0
-3253 3283 0
-114 -3253 3254 0
-3254 3284 0
-6 -3254 3255 0
-3255 3285 0
-117 -3255 3256 0
-3256 3286 0
-119 -3256 3257 0
-3257 3287 0
-121 -3257 3258 0
-3258 3288 0
-123 -3258 3259 0
-3259 3289 0
-125 -3259 3260 0
-3260 3290 0
-127 -3260 0
-72 3261 0
-3261 3291 0
-4 -3261 3262 0
-3262 3292 0
-75 -3262 3263 0
-3263 3293 0
-77 -3263 3264 0
-3264 3294 0
-79 -3264 3265 0
-3265 3295 0
-81 -3265 3266 0
-3266 3296 0
-83 -3266 3267 0
-3267 3297 0
-85 -3267 3268 0
-3268 3298 0
-87 -3268 3269 0
-3269 3299 0
-89 -3269 3270 0
-3270 3300 0
-91 -3270 3271 0
-3271 3301 0
-93 -3271 3272 0
-3272 3302 0
-5 -3272 3273 0
-3273 3303 0
-96 -3273 3274 0
-3274 3304 0
-98 -3274 3275 0
-3275 3305 0
-100 -3275 3276 0
-3276 3306 0
-102 -3276 3277 0
-3277 3307 0
-104 -3277 3278 0
-3278 3308 0
-106 -3278 3279 0
-3279 3309 0
-108 -3279 3280 0
-3280 3310 0
-110 -3280 3281 0
-3281 3311 0
-112 -3281 3282 0
-3282 3312 0
-114 -3282 3283 0
-3283 3313 0
-6 -3283 3284 0
-3284 3314 0
-117 -3284 3285 0
-3285 3315 0
-119 -3285 3286 0
-3286 3316 0
-121 -3286 3287 0
-3287 3317 0
-123 -3287 3288 0
-3288 3318 0
-125 -3288 3289 0
-3289 3319 0
-127 -3289 3290 0
-3290 3320 0
-129 -3290 0
-4 3291 0
-3291 3321 0
-75 -3291 3292 0
-3292 3322 0
-77 -3292 3293 0
-3293 3323 0
-79 -3293 3294 0
-3294 3324 0
-81 -3294 3295 0
-3295 3325 0
-83 -3295 3296 0
-3296 3326 0
-85 -3296 3297 0
-3297 3327 0
-87 -3297 3298 0
-3298 3328 0
-89 -3298 3299 0
-3299 3329 0
-91 -3299 3300 0
-3300 3330 0
-93 -3300 3301 0
-3301 3331 0
-5 -3301 3302 0
-3302 3332 0
-96 -3302 3303 0
-3303 3333 0
-98 -3303 3304 0
-3304 3334 0
-100 -3304 3305 0
-3305 3335 0
-102 -3305 3306 0
-3306 3336 0
-104 -3306 3307 0
-3307 3337 0
-106 -3307 3308 0
-3308 3338 0
-108 -3308 3309 0
-3309 3339 0
-110 -3309 3310 0
-3310 3340 0
-112 -3310 3311 0
-3311 3341 0
-114 -3311 3312 0
-3312 3342 0
-6 -3312 3313 0
-3313 3343 0
-117 -3313 3314 0
-3314 3344 0
-119 -3314 3315 0
-3315 3345 0
-121 -3315 3316 0
-3316 3346 0
-123 -3316 3317 0
-3317 3347 0
-125 -3317 3318 0
-3318 3348 0
-127 -3318 3319 0
-3319 3349 0
-129 -3319 3320 0
-3320 3350 0
-131 -3320 0
-75 3321 0
-3321 3351 0
-77 -3321 3322 0
-3322 3352 0
-79 -3322 3323 0
-3323 3353 0
-81 -3323 3324 0
-3324 3354 0
-83 -3324 3325 0
-3325 3355 0
-85 -3325 3326 0
-3326 3356 0
-87 -3326 3327 0
-3327 3357 0
-89 -3327 3328 0
-3328 3358 0
-91 -3328 3329 0
-3329 3359 0
-93 -3329 3330 0
-3330 3360 0
-5 -3330 3331 0
-3331 3361 0
-96 -3331 3332 0
-3332 3362 0
-98 -3332 3333 0
-3333 3363 0
-100 -3333 3334 0
-3334 3364 0
-102 -3334 3335 0
-3335 3365 0
-104 -3335 3336 0
-3336 3366 0
-106 -3336 3337 0
-3337 3367 0
-108 -3337 3338 0
-3338 3368 0
-110 -3338 3339 0
-3339 3369 0
-112 -3339 3340 0
-3340 3370 0
-114 -3340 3341 0
-3341 3371 0
-6 -3341 3342 0
-3342 3372 0
-117 -3342 3343 0
-3343 3373 0
-119 -3343 3344 0
-3344 3374 0
-121 -3344 3345 0
-3345 3375 0
-123 -3345 3346 0
-3346 3376 0
-125 -3346 3347 0
-3347 3377 0
-127 -3347 3348 0
-3348 3378 0
-129 -3348 3349 0
-3349 3379 0
-131 -3349 3350 0
-3350 3380 0
-133 -3350 0
-77 3351 0
-3351 3381 0
-79 -3351 3352 0
-3352 3382 0
-81 -3352 3353 0
-3353 3383 0
-83 -3353 3354 0
-3354 3384 0
-85 -3354 3355 0
-3355 3385 0
-87 -3355 3356 0
-3356 3386 0
-89 -3356 3357 0
-3357 3387 0
-91 -3357 3358 0
-3358 3388 0
-93 -3358 3359 0
-3359 3389 0
-5 -3359 3360 0
-3360 3390 0
-96 -3360 3361 0
-3361 3391 0
-98 -3361 3362 0
-3362 3392 0
-100 -3362 3363 0
-3363 3393 0
-102 -3363 3364 0
-3364 3394 0
-104 -3364 3365 0
-3365 3395 0
-106 -3365 3366 0
-3366 3396 0
-108 -3366 3367 0
-3367 3397 0
-110 -3367 3368 0
-3368 3398 0
-112 -3368 3369 0
-3369 3399 0
-114 -3369 3370 0
-3370 3400 0
-6 -3370 3371 0
-3371 3401 0
-117 -3371 3372 0
-3372 3402 0
-119 -3372 3373 0
-3373 3403 0
-121 -3373 3374 0
-3374 3404 0
-123 -3374 3375 0
-3375 3405 0
-125 -3375 3376 0
-3376 3406 0
-127 -3376 3377 0
-3377 3407 0
-129 -3377 3378 0
-3378 3408 0
-131 -3378 3379 0
-3379 3409 0
-133 -3379 3380 0
-3380 3410 0
-135 -3380 0
-79 3381 0
-3381 3411 0
-81 -3381 3382 0
-3382 3412 0
-83 -3382 3383 0
-3383 3413 0
-85 -3383 3384 0
-3384 3414 0
-87 -3384 3385 0
-3385 3415 0
-89 -3385 3386 0
-3386 3416 0
-91 -3386 3387 0
-3387 3417 0
-93 -3387 3388 0
-3388 3418 0
-5 -3388 3389 0
-3389 3419 0
-96 -3389 3390 0
-3390 3420 0
-98 -3390 3391 0
-3391 3421 0
-100 -3391 3392 0
-3392 3422 0
-102 -3392 3393 0
-3393 3423 0
-104 -3393 3394 0
-3394 3424 0
-106 -3394 3395 0
-3395 3425 0
-108 -3395 3396 0
-3396 3426 0
-110 -3396 3397 0
-3397 3427 0
-112 -3397 3398 0
-3398 3428 0
-114 -3398 3399 0
-3399 3429 0
-6 -3399 3400 0
-3400 3430 0
-117 -3400 3401 0
-3401 3431 0
-119 -3401 3402 0
-3402 3432 0
-121 -3402 3403 0
-3403 3433 0
-123 -3403 3404 0
-3404 3434 0
-125 -3404 3405 0
-3405 3435 0
-127 -3405 3406 0
-3406 3436 0
-129 -3406 3407 0
-3407 3437 0
-131 -3407 3408 0
-3408 3438 0
-133 -3408 3409 0
-3409 3439 0
-135 -3409 3410 0
-3410 3440 0
-7 -3410 0
-81 3411 0
-3411 3441 0
-83 -3411 3412 0
-3412 3442 0
-85 -3412 3413 0
-3413 3443 0
-87 -3413 3414 0
-3414 3444 0
-89 -3414 3415 0
-3415 3445 0
-91 -3415 3416 0
-3416 3446 0
-93 -3416 3417 0
-3417 3447 0
-5 -3417 3418 0
-3418 3448 0
-96 -3418 3419 0
-3419 3449 0
-98 -3419 3420 0
-3420 3450 0
-100 -3420 3421 0
-3421 3451 0
-102 -3421 3422 0
-3422 3452 0
-104 -3422 3423 0
-3423 3453 0
-106 -3423 3424 0
-3424 3454 0
-108 -3424 3425 0
-3425 3455 0
-110 -3425 3426 0
-3426 3456 0
-112 -3426 3427 0
-3427 3457 0
-114 -3427 3428 0
-3428 3458 0
-6 -3428 3429 0
-3429 3459 0
-117 -3429 3430 0
-3430 3460 0
-119 -3430 3431 0
-3431 3461 0
-121 -3431 3432 0
-3432 3462 0
-123 -3432 3433 0
-3433 3463 0
-125 -3433 3434 0
-3434 3464 0
-127 -3434 3435 0
-3435 3465 0
-129 -3435 3436 0
-3436 3466 0
-131 -3436 3437 0
-3437 3467 0
-133 -3437 3438 0
-3438 3468 0
-135 -3438 3439 0
-3439 3469 0
-7 -3439 3440 0
-3440 3470 0
-138 -3440 0
-83 3441 0
-3441 3471 0
-85 -3441 3442 0
-3442 3472 0
-87 -3442 3443 0
-3443 3473 0
-89 -3443 3444 0
-3444 3474 0
-91 -3444 3445 0
-3445 3475 0
-93 -3445 3446 0
-3446 3476 0
-5 -3446 3447 0
-3447 3477 0
-96 -3447 3448 0
-3448 3478 0
-98 -3448 3449 0
-3449 3479 0
-100 -3449 3450 0
-3450 3480 0
-102 -3450 3451 0
-3451 3481 0
-104 -3451 3452 0
-3452 3482 0
-106 -3452 3453 0
-3453 3483 0
-108 -3453 3454 0
-3454 3484 0
-110 -3454 3455 0
-3455 3485 0
-112 -3455 3456 0
-3456 3486 0
-114 -3456 3457 0
-3457 3487 0
-6 -3457 3458 0
-3458 3488 0
-117 -3458 3459 0
-3459 3489 0
-119 -3459 3460 0
-3460 3490 0
-121 -3460 3461 0
-3461 3491 0
-123 -3461 3462 0
-3462 3492 0
-125 -3462 3463 0
-3463 3493 0
-127 -3463 3464 0
-3464 3494 0
-129 -3464 3465 0
-3465 3495 0
-131 -3465 3466 0
-3466 3496 0
-133 -3466 3467 0
-3467 3497 0
-135 -3467 3468 0
-3468 3498 0
-7 -3468 3469 0
-3469 3499 0
-138 -3469 3470 0
-3470 3500 0
-140 -3470 0
-85 3471 0
-3471 3501 0
-87 -3471 3472 0
-3472 3502 0
-89 -3472 3473 0
-3473 3503 0
-91 -3473 3474 0
-3474 3504 0
-93 -3474 3475 0
-3475 3505 0
-5 -3475 3476 0
-3476 3506 0
-96 -3476 3477 0
-3477 3507 0
-98 -3477 3478 0
-3478 3508 0
-100 -3478 3479 0
-3479 3509 0
-102 -3479 3480 0
-3480 3510 0
-104 -3480 3481 0
-3481 3511 0
-106 -3481 3482 0
-3482 3512 0
-108 -3482 3483 0
-3483 3513 0
-110 -3483 3484 0
-3484 3514 0
-112 -3484 3485 0
-3485 3515 0
-114 -3485 3486 0
-3486 3516 0
-6 -3486 3487 0
-3487 3517 0
-117 -3487 3488 0
-3488 3518 0
-119 -3488 3489 0
-3489 3519 0
-121 -3489 3490 0
-3490 3520 0
-123 -3490 3491 0
-3491 3521 0
-125 -3491 3492 0
-3492 3522 0
-127 -3492 3493 0
-3493 3523 0
-129 -3493 3494 0
-3494 3524 0
-131 -3494 3495 0
-3495 3525 0
-133 -3495 3496 0
-3496 3526 0
-135 -3496 3497 0
-3497 3527 0
-7 -3497 3498 0
-3498 3528 0
-138 -3498 3499 0
-3499 3529 0
-140 -3499 3500 0
-3500 3530 0
-142 -3500 0
-87 3501 0
-3501 3531 0
-89 -3501 3502 0
-3502 3532 0
-91 -3502 3503 0
-3503 3533 0
-93 -3503 3504 0
-3504 3534 0
-5 -3504 3505 0
-3505 3535 0
-96 -3505 3506 0
-3506 3536 0
-98 -3506 3507 0
-3507 3537 0
-100 -3507 3508 0
-3508 3538 0
-102 -3508 3509 0
-3509 3539 0
-104 -3509 3510 0
-3510 3540 0
-106 -3510 3511 0
-3511 3541 0
-108 -3511 3512 0
-3512 3542 0
-110 -3512 3513 0
-3513 3543 0
-112 -3513 3514 0
-3514 3544 0
-114 -3514 3515 0
-3515 3545 0
-6 -3515 3516 0
-3516 3546 0
-117 -3516 3517 0
-3517 3547 0
-119 -3517 3518 0
-3518 3548 0
-121 -3518 3519 0
-3519 3549 0
-123 -3519 3520 0
-3520 3550 0
-125 -3520 3521 0
-3521 3551 0
-127 -3521 3522 0
-3522 3552 0
-129 -3522 3523 0
-3523 3553 0
-131 -3523 3524 0
-3524 3554 0
-133 -3524 3525 0
-3525 3555 0
-135 -3525 3526 0
-3526 3556 0
-7 -3526 3527 0
-3527 3557 0
-138 -3527 3528 0
-3528 3558 0
-140 -3528 3529 0
-3529 3559 0
-142 -3529 3530 0
-3530 3560 0
-144 -3530 0
-89 3531 0
-3531 3561 0
-91 -3531 3532 0
-3532 3562 0
-93 -3532 3533 0
-3533 3563 0
-5 -3533 3534 0
-3534 3564 0
-96 -3534 3535 0
-3535 3565 0
-98 -3535 3536 0
-3536 3566 0
-100 -3536 3537 0
-3537 3567 0
-102 -3537 3538 0
-3538 3568 0
-104 -3538 3539 0
-3539 3569 0
-106 -3539 3540 0
-3540 3570 0
-108 -3540 3541 0
-3541 3571 0
-110 -3541 3542 0
-3542 3572 0
-112 -3542 3543 0
-3543 3573 0
-114 -3543 3544 0
-3544 3574 0
-6 -3544 3545 0
-3545 3575 0
-117 -3545 3546 0
-3546 3576 0
-119 -3546 3547 0
-3547 3577 0
-121 -3547 3548 0
-3548 3578 0
-123 -3548 3549 0
-3549 3579 0
-125 -3549 3550 0
-3550 3580 0
-127 -3550 3551 0
-3551 3581 0
-129 -3551 3552 0
-3552 3582 0
-131 -3552 3553 0
-3553 3583 0
-133 -3553 3554 0
-3554 3584 0
-135 -3554 3555 0
-3555 3585 0
-7 -3555 3556 0
-3556 3586 0
-138 -3556 3557 0
-3557 3587 0
-140 -3557 3558 0
-3558 3588 0
-142 -3558 3559 0
-3559 3589 0
-144 -3559 3560 0
-3560 3590 0
-146 -3560 0
-91 3561 0
-3561 3591 0
-93 -3561 3562 0
-3562 3592 0
-5 -3562 3563 0
-3563 3593 0
-96 -3563 3564 0
-3564 3594 0
-98 -3564 3565 0
-3565 3595 0
-100 -3565 3566 0
-3566 3596 0
-102 -3566 3567 0
-3567 3597 0
-104 -3567 3568 0
-3568 3598 0
-106 -3568 3569 0
-3569 3599 0
-108 -3569 3570 0
-3570 3600 0
-110 -3570 3571 0
-3571 3601 0
-112 -3571 3572 0
-3572 3602 0
-114 -3572 3573 0
-3573 3603 0
-6 -3573 3574 0
-3574 3604 0
-117 -3574 3575 0
-3575 3605 0
-119 -3575 3576 0
-3576 3606 0
-121 -3576 3577 0
-3577 3607 0
-123 -3577 3578 0
-3578 3608 0
-125 -3578 3579 0
-3579 3609 0
-127 -3579 3580 0
-3580 3610 0
-129 -3580 3581 0
-3581 3611 0
-131 -3581 3582 0
-3582 3612 0
-133 -3582 3583 0
-3583 3613 0
-135 -3583 3584 0
-3584 3614 0
-7 -3584 3585 0
-3585 3615 0
-138 -3585 3586 0
-3586 3616 0
-140 -3586 3587 0
-3587 3617 0
-142 -3587 3588 0
-3588 3618 0
-144 -3588 3589 0
-3589 3619 0
-146 -3589 3590 0
-3590 3620 0
-148 -3590 0
-93 3591 0
-3591 3621 0
-5 -3591 3592 0
-3592 3622 0
-96 -3592 3593 0
-3593 3623 0
-98 -3593 3594 0
-3594 3624 0
-100 -3594 3595 0
-3595 3625 0
-102 -3595 3596 0
-3596 3626 0
-104 -3596 3597 0
-3597 3627 0
-106 -3597 3598 0
-3598 3628 0
-108 -3598 3599 0
-3599 3629 0
-110 -3599 3600 0
-3600 3630 0
-112 -3600 3601 0
-3601 3631 0
-114 -3601 3602 0
-3602 3632 0
-6 -3602 3603 0
-3603 3633 0
-117 -3603 3604 0
-3604 3634 0
-119 -3604 3605 0
-3605 3635 0
-121 -3605 3606 0
-3606 3636 0
-123 -3606 3607 0
-3607 3637 0
-125 -3607 3608 0
-3608 3638 0
-127 -3608 3609 0
-3609 3639 0
-129 -3609 3610 0
-3610 3640 0
-131 -3610 3611 0
-3611 3641 0
-133 -3611 3612 0
-3612 3642 0
-135 -3612 3613 0
-3613 3643 0
-7 -3613 3614 0
-3614 3644 0
-138 -3614 3615 0
-3615 3645 0
-140 -3615 3616 0
-3616 3646 0
-142 -3616 3617 0
-3617 3647 0
-144 -3617 3618 0
-3618 3648 0
-146 -3618 3619 0
-3619 3649 0
-148 -3619 3620 0
-3620 3650 0
-150 -3620 0
-5 3621 0
-3621 3651 0
-96 -3621 3622 0
-3622 3652 0
-98 -3622 3623 0
-3623 3653 0
-100 -3623 3624 0
-3624 3654 0
-102 -3624 3625 0
-3625 3655 0
-104 -3625 3626 0
-3626 3656 0
-106 -3626 3627 0
-3627 3657 0
-108 -3627 3628 0
-3628 3658 0
-110 -3628 3629 0
-3629 3659 0
-112 -3629 3630 0
-3630 3660 0
-114 -3630 3631 0
-3631 3661 0
-6 -3631 3632 0
-3632 3662 0
-117 -3632 3633 0
-3633 3663 0
-119 -3633 3634 0
-3634 3664 0
-121 -3634 3635 0
-3635 3665 0
-123 -3635 3636 0
-3636 3666 0
-125 -3636 3637 0
-3637 3667 0
-127 -3637 3638 0
-3638 3668 0
-129 -3638 3639 0
-3639 3669 0
-131 -3639 3640 0
-3640 3670 0
-133 -3640 3641 0
-3641 3671 0
-135 -3641 3642 0
-3642 3672 0
-7 -3642 3643 0
-3643 3673 0
-138 -3643 3644 0
-3644 3674 0
-140 -3644 3645 0
-3645 3675 0
-142 -3645 3646 0
-3646 3676 0
-144 -3646 3647 0
-3647 3677 0
-146 -3647 3648 0
-3648 3678 0
-148 -3648 3649 0
-3649 3679 0
-150 -3649 3650 0
-3650 3680 0
-152 -3650 0
-96 3651 0
-3651 3681 0
-98 -3651 3652 0
-3652 3682 0
-100 -3652 3653 0
-3653 3683 0
-102 -3653 3654 0
-3654 3684 0
-104 -3654 3655 0
-3655 3685 0
-106 -3655 3656 0
-3656 3686 0
-108 -3656 3657 0
-3657 3687 0
-110 -3657 3658 0
-3658 3688 0
-112 -3658 3659 0
-3659 3689 0
-114 -3659 3660 0
-3660 3690 0
-6 -3660 3661 0
-3661 3691 0
-117 -3661 3662 0
-3662 3692 0
-119 -3662 3663 0
-3663 3693 0
-121 -3663 3664 0
-3664 3694 0
-123 -3664 3665 0
-3665 3695 0
-125 -3665 3666 0
-3666 3696 0
-127 -3666 3667 0
-3667 3697 0
-129 -3667 3668 0
-3668 3698 0
-131 -3668 3669 0
-3669 3699 0
-133 -3669 3670 0
-3670 3700 0
-135 -3670 3671 0
-3671 3701 0
-7 -3671 3672 0
-3672 3702 0
-138 -3672 3673 0
-3673 3703 0
-140 -3673 3674 0
-3674 3704 0
-142 -3674 3675 0
-3675 3705 0
-144 -3675 3676 0
-3676 3706 0
-146 -3676 3677 0
-3677 3707 0
-148 -3677 3678 0
-3678 3708 0
-150 -3678 3679 0
-3679 3709 0
-152 -3679 3680 0
-3680 3710 0
-154 -3680 0
-98 3681 0
-3681 3711 0
-100 -3681 3682 0
-3682 3712 0
-102 -3682 3683 0
-3683 3713 0
-104 -3683 3684 0
-3684 3714 0
-106 -3684 3685 0
-3685 3715 0
-108 -3685 3686 0
-3686 3716 0
-110 -3686 3687 0
-3687 3717 0
-112 -3687 3688 0
-3688 3718 0
-114 -3688 3689 0
-3689 3719 0
-6 -3689 3690 0
-3690 3720 0
-117 -3690 3691 0
-3691 3721 0
-119 -3691 3692 0
-3692 3722 0
-121 -3692 3693 0
-3693 3723 0
-123 -3693 3694 0
-3694 3724 0
-125 -3694 3695 0
-3695 3725 0
-127 -3695 3696 0
-3696 3726 0
-129 -3696 3697 0
-3697 3727 0
-131 -3697 3698 0
-3698 3728 0
-133 -3698 3699 0
-3699 3729 0
-135 -3699 3700 0
-3700 3730 0
-7 -3700 3701 0
-3701 3731 0
-138 -3701 3702 0
-3702 3732 0
-140 -3702 3703 0
-3703 3733 0
-142 -3703 3704 0
-3704 3734 0
-144 -3704 3705 0
-3705 3735 0
-146 -3705 3706 0
-3706 3736 0
-148 -3706 3707 0
-3707 3737 0
-150 -3707 3708 0
-3708 3738 0
-152 -3708 3709 0
-3709 3739 0
-154 -3709 3710 0
-3710 3740 0
-156 -3710 0
-100 3711 0
-3711 3741 0
-102 -3711 3712 0
-3712 3742 0
-104 -3712 3713 0
-3713 3743 0
-106 -3713 3714 0
-3714 3744 0
-108 -3714 3715 0
-3715 3745 0
-110 -3715 3716 0
-3716 3746 0
-112 -3716 3717 0
-3717 3747 0
-114 -3717 3718 0
-3718 3748 0
-6 -3718 3719 0
-3719 3749 0
-117 -3719 3720 0
-3720 3750 0
-119 -3720 3721 0
-3721 3751 0
-121 -3721 3722 0
-3722 3752 0
-123 -3722 3723 0
-3723 3753 0
-125 -3723 3724 0
-3724 3754 0
-127 -3724 3725 0
-3725 3755 0
-129 -3725 3726 0
-3726 3756 0
-131 -3726 3727 0
-3727 3757 0
-133 -3727 3728 0
-3728 3758 0
-135 -3728 3729 0
-3729 3759 0
-7 -3729 3730 0
-3730 3760 0
-138 -3730 3731 0
-3731 3761 0
-140 -3731 3732 0
-3732 3762 0
-142 -3732 3733 0
-3733 3763 0
-144 -3733 3734 0
-3734 3764 0
-146 -3734 3735 0
-3735 3765 0
-148 -3735 3736 0
-3736 3766 0
-150 -3736 3737 0
-3737 3767 0
-152 -3737 3738 0
-3738 3768 0
-154 -3738 3739 0
-3739 3769 0
-156 -3739 3740 0
-3740 3770 0
-8 -3740 0
-102 3741 0
-3741 3771 0
-104 -3741 3742 0
-3742 3772 0
-106 -3742 3743 0
-3743 3773 0
-108 -3743 3744 0
-3744 3774 0
-110 -3744 3745 0
-3745 3775 0
-112 -3745 3746 0
-3746 3776 0
-114 -3746 3747 0
-3747 3777 0
-6 -3747 3748 0
-3748 3778 0
-117 -3748 3749 0
-3749 3779 0
-119 -3749 3750 0
-3750 3780 0
-121 -3750 3751 0
-3751 3781 0
-123 -3751 3752 0
-3752 3782 0
-125 -3752 3753 0
-3753 3783 0
-127 -3753 3754 0
-3754 3784 0
-129 -3754 3755 0
-3755 3785 0
-131 -3755 3756 0
-3756 3786 0
-133 -3756 3757 0
-3757 3787 0
-135 -3757 3758 0
-3758 3788 0
-7 -3758 3759 0
-3759 3789 0
-138 -3759 3760 0
-3760 3790 0
-140 -3760 3761 0
-3761 3791 0
-142 -3761 3762 0
-3762 3792 0
-144 -3762 3763 0
-3763 3793 0
-146 -3763 3764 0
-3764 3794 0
-148 -3764 3765 0
-3765 3795 0
-150 -3765 3766 0
-3766 3796 0
-152 -3766 3767 0
-3767 3797 0
-154 -3767 3768 0
-3768 3798 0
-156 -3768 3769 0
-3769 3799 0
-8 -3769 3770 0
-3770 3800 0
-159 -3770 0
-104 3771 0
-3771 3801 0
-106 -3771 3772 0
-3772 3802 0
-108 -3772 3773 0
-3773 3803 0
-110 -3773 3774 0
-3774 3804 0
-112 -3774 3775 0
-3775 3805 0
-114 -3775 3776 0
-3776 3806 0
-6 -3776 3777 0
-3777 3807 0
-117 -3777 3778 0
-3778 3808 0
-119 -3778 3779 0
-3779 3809 0
-121 -3779 3780 0
-3780 3810 0
-123 -3780 3781 0
-3781 3811 0
-125 -3781 3782 0
-3782 3812 0
-127 -3782 3783 0
-3783 3813 0
-129 -3783 3784 0
-3784 3814 0
-131 -3784 3785 0
-3785 3815 0
-133 -3785 3786 0
-3786 3816 0
-135 -3786 3787 0
-3787 3817 0
-7 -3787 3788 0
-3788 3818 0
-138 -3788 3789 0
-3789 3819 0
-140 -3789 3790 0
-3790 3820 0
-142 -3790 3791 0
-3791 3821 0
-144 -3791 3792 0
-3792 3822 0
-146 -3792 3793 0
-3793 3823 0
-148 -3793 3794 0
-3794 3824 0
-150 -3794 3795 0
-3795 3825 0
-152 -3795 3796 0
-3796 3826 0
-154 -3796 3797 0
-3797 3827 0
-156 -3797 3798 0
-3798 3828 0
-8 -3798 3799 0
-3799 3829 0
-159 -3799 3800 0
-3800 3830 0
-161 -3800 0
-106 3801 0
-3801 3831 0
-108 -3801 3802 0
-3802 3832 0
-110 -3802 3803 0
-3803 3833 0
-112 -3803 3804 0
-3804 3834 0
-114 -3804 3805 0
-3805 3835 0
-6 -3805 3806 0
-3806 3836 0
-117 -3806 3807 0
-3807 3837 0
-119 -3807 3808 0
-3808 3838 0
-121 -3808 3809 0
-3809 3839 0
-123 -3809 3810 0
-3810 3840 0
-125 -3810 3811 0
-3811 3841 0
-127 -3811 3812 0
-3812 3842 0
-129 -3812 3813 0
-3813 3843 0
-131 -3813 3814 0
-3814 3844 0
-133 -3814 3815 0
-3815 3845 0
-135 -3815 3816 0
-3816 3846 0
-7 -3816 3817 0
-3817 3847 0
-138 -3817 3818 0
-3818 3848 0
-140 -3818 3819 0
-3819 3849 0
-142 -3819 3820 0
-3820 3850 0
-144 -3820 3821 0
-3821 3851 0
-146 -3821 3822 0
-3822 3852 0
-148 -3822 3823 0
-3823 3853 0
-150 -3823 3824 0
-3824 3854 0
-152 -3824 3825 0
-3825 3855 0
-154 -3825 3826 0
-3826 3856 0
-156 -3826 3827 0
-3827 3857 0
-8 -3827 3828 0
-3828 3858 0
-159 -3828 3829 0
-3829 3859 0
-161 -3829 3830 0
-3830 3860 0
-163 -3830 0
-108 3831 0
-3831 3861 0
-110 -3831 3832 0
-3832 3862 0
-112 -3832 3833 0
-3833 3863 0
-114 -3833 3834 0
-3834 3864 0
-6 -3834 3835 0
-3835 3865 0
-117 -3835 3836 0
-3836 3866 0
-119 -3836 3837 0
-3837 3867 0
-121 -3837 3838 0
-3838 3868 0
-123 -3838 3839 0
-3839 3869 0
-125 -3839 3840 0
-3840 3870 0
-127 -3840 3841 0
-3841 3871 0
-129 -3841 3842 0
-3842 3872 0
-131 -3842 3843 0
-3843 3873 0
-133 -3843 3844 0
-3844 3874 0
-135 -3844 3845 0
-3845 3875 0
-7 -3845 3846 0
-3846 3876 0
-138 -3846 3847 0
-3847 3877 0
-140 -3847 3848 0
-3848 3878 0
-142 -3848 3849 0
-3849 3879 0
-144 -3849 3850 0
-3850 3880 0
-146 -3850 3851 0
-3851 3881 0
-148 -3851 3852 0
-3852 3882 0
-150 -3852 3853 0
-3853 3883 0
-152 -3853 3854 0
-3854 3884 0
-154 -3854 3855 0
-3855 3885 0
-156 -3855 3856 0
-3856 3886 0
-8 -3856 3857 0
-3857 3887 0
-159 -3857 3858 0
-3858 3888 0
-161 -3858 3859 0
-3859 3889 0
-163 -3859 3860 0
-3860 3890 0
-165 -3860 0
-110 3861 0
-3861 3891 0
-112 -3861 3862 0
-3862 3892 0
-114 -3862 3863 0
-3863 3893 0
-6 -3863 3864 0
-3864 3894 0
-117 -3864 3865 0
-3865 3895 0
-119 -3865 3866 0
-3866 3896 0
-121 -3866 3867 0
-3867 3897 0
-123 -3867 3868 0
-3868 3898 0
-125 -3868 3869 0
-3869 3899 0
-127 -3869 3870 0
-3870 3900 0
-129 -3870 3871 0
-3871 3901 0
-131 -3871 3872 0
-3872 3902 0
-133 -3872 3873 0
-3873 3903 0
-135 -3873 3874 0
-3874 3904 0
-7 -3874 3875 0
-3875 3905 0
-138 -3875 3876 0
-3876 3906 0
-140 -3876 3877 0
-3877 3907 0
-142 -3877 3878 0
-3878 3908 0
-144 -3878 3879 0
-3879 3909 0
-146 -3879 3880 0
-3880 3910 0
-148 -3880 3881 0
-3881 3911 0
-150 -3881 3882 0
-3882 3912 0
-152 -3882 3883 0
-3883 3913 0
-154 -3883 3884 0
-3884 3914 0
-156 -3884 3885 0
-3885 3915 0
-8 -3885 3886 0
-3886 3916 0
-159 -3886 3887 0
-3887 3917 0
-161 -3887 3888 0
-3888 3918 0
-163 -3888 3889 0
-3889 3919 0
-165 -3889 3890 0
-3890 3920 0
-167 -3890 0
-112 3891 0
-3891 3921 0
-114 -3891 3892 0
-3892 3922 0
-6 -3892 3893 0
-3893 3923 0
-117 -3893 3894 0
-3894 3924 0
-119 -3894 3895 0
-3895 3925 0
-121 -3895 3896 0
-3896 3926 0
-123 -3896 3897 0
-3897 3927 0
-125 -3897 3898 0
-3898 3928 0
-127 -3898 3899 0
-3899 3929 0
-129 -3899 3900 0
-3900 3930 0
-131 -3900 3901 0
-3901 3931 0
-133 -3901 3902 0
-3902 3932 0
-135 -3902 3903 0
-3903 3933 0
-7 -3903 3904 0
-3904 3934 0
-138 -3904 3905 0
-3905 3935 0
-140 -3905 3906 0
-3906 3936 0
-142 -3906 3907 0
-3907 3937 0
-144 -3907 3908 0
-3908 3938 0
-146 -3908 3909 0
-3909 3939 0
-148 -3909 3910 0
-3910 3940 0
-150 -3910 3911 0
-3911 3941 0
-152 -3911 3912 0
-3912 3942 0
-154 -3912 3913 0
-3913 3943 0
-156 -3913 3914 0
-3914 3944 0
-8 -3914 3915 0
-3915 3945 0
-159 -3915 3916 0
-3916 3946 0
-161 -3916 3917 0
-3917 3947 0
-163 -3917 3918 0
-3918 3948 0
-165 -3918 3919 0
-3919 3949 0
-167 -3919 3920 0
-3920 3950 0
-169 -3920 0
-114 3921 0
-3921 3951 0
-6 -3921 3922 0
-3922 3952 0
-117 -3922 3923 0
-3923 3953 0
-119 -3923 3924 0
-3924 3954 0
-121 -3924 3925 0
-3925 3955 0
-123 -3925 3926 0
-3926 3956 0
-125 -3926 3927 0
-3927 3957 0
-127 -3927 3928 0
-3928 3958 0
-129 -3928 3929 0
-3929 3959 0
-131 -3929 3930 0
-3930 3960 0
-133 -3930 3931 0
-3931 3961 0
-135 -3931 3932 0
-3932 3962 0
-7 -3932 3933 0
-3933 3963 0
-138 -3933 3934 0
-3934 3964 0
-140 -3934 3935 0
-3935 3965 0
-142 -3935 3936 0
-3936 3966 0
-144 -3936 3937 0
-3937 3967 0
-146 -3937 3938 0
-3938 3968 0
-148 -3938 3939 0
-3939 3969 0
-150 -3939 3940 0
-3940 3970 0
-152 -3940 3941 0
-3941 3971 0
-154 -3941 3942 0
-3942 3972 0
-156 -3942 3943 0
-3943 3973 0
-8 -3943 3944 0
-3944 3974 0
-159 -3944 3945 0
-3945 3975 0
-161 -3945 3946 0
-3946 3976 0
-163 -3946 3947 0
-3947 3977 0
-165 -3947 3948 0
-3948 3978 0
-167 -3948 3949 0
-3949 3979 0
-169 -3949 3950 0
-3950 3980 0
-171 -3950 0
-6 3951 0
-3951 3981 0
-117 -3951 3952 0
-3952 3982 0
-119 -3952 3953 0
-3953 3983 0
-121 -3953 3954 0
-3954 3984 0
-123 -3954 3955 0
-3955 3985 0
-125 -3955 3956 0
-3956 3986 0
-127 -3956 3957 0
-3957 3987 0
-129 -3957 3958 0
-3958 3988 0
-131 -3958 3959 0
-3959 3989 0
-133 -3959 3960 0
-3960 3990 0
-135 -3960 3961 0
-3961 3991 0
-7 -3961 3962 0
-3962 3992 0
-138 -3962 3963 0
-3963 3993 0
-140 -3963 3964 0
-3964 3994 0
-142 -3964 3965 0
-3965 3995 0
-144 -3965 3966 0
-3966 3996 0
-146 -3966 3967 0
-3967 3997 0
-148 -3967 3968 0
-3968 3998 0
-150 -3968 3969 0
-3969 3999 0
-152 -3969 3970 0
-3970 4000 0
-154 -3970 3971 0
-3971 4001 0
-156 -3971 3972 0
-3972 4002 0
-8 -3972 3973 0
-3973 4003 0
-159 -3973 3974 0
-3974 4004 0
-161 -3974 3975 0
-3975 4005 0
-163 -3975 3976 0
-3976 4006 0
-165 -3976 3977 0
-3977 4007 0
-167 -3977 3978 0
-3978 4008 0
-169 -3978 3979 0
-3979 4009 0
-171 -3979 3980 0
-3980 4010 0
-173 -3980 0
-117 3981 0
-3981 4011 0
-119 -3981 3982 0
-3982 4012 0
-121 -3982 3983 0
-3983 4013 0
-123 -3983 3984 0
-3984 4014 0
-125 -3984 3985 0
-3985 4015 0
-127 -3985 3986 0
-3986 4016 0
-129 -3986 3987 0
-3987 4017 0
-131 -3987 3988 0
-3988 4018 0
-133 -3988 3989 0
-3989 4019 0
-135 -3989 3990 0
-3990 4020 0
-7 -3990 3991 0
-3991 4021 0
-138 -3991 3992 0
-3992 4022 0
-140 -3992 3993 0
-3993 4023 0
-142 -3993 3994 0
-3994 4024 0
-144 -3994 3995 0
-3995 4025 0
-146 -3995 3996 0
-3996 4026 0
-148 -3996 3997 0
-3997 4027 0
-150 -3997 3998 0
-3998 4028 0
-152 -3998 3999 0
-3999 4029 0
-154 -3999 4000 0
-4000 4030 0
-156 -4000 4001 0
-4001 4031 0
-8 -4001 4002 0
-4002 4032 0
-159 -4002 4003 0
-4003 4033 0
-161 -4003 4004 0
-4004 4034 0
-163 -4004 4005 0
-4005 4035 0
-165 -4005 4006 0
-4006 4036 0
-167 -4006 4007 0
-4007 4037 0
-169 -4007 4008 0
-4008 4038 0
-171 -4008 4009 0
-4009 4039 0
-173 -4009 4010 0
-4010 4040 0
-175 -4010 0
-119 4011 0
-4011 4041 0
-121 -4011 4012 0
-4012 4042 0
-123 -4012 4013 0
-4013 4043 0
-125 -4013 4014 0
-4014 4044 0
-127 -4014 4015 0
-4015 4045 0
-129 -4015 4016 0
-4016 4046 0
-131 -4016 4017 0
-4017 4047 0
-133 -4017 4018 0
-4018 4048 0
-135 -4018 4019 0
-4019 4049 0
-7 -4019 4020 0
-4020 4050 0
-138 -4020 4021 0
-4021 4051 0
-140 -4021 4022 0
-4022 4052 0
-142 -4022 4023 0
-4023 4053 0
-144 -4023 4024 0
-4024 4054 0
-146 -4024 4025 0
-4025 4055 0
-148 -4025 4026 0
-4026 4056 0
-150 -4026 4027 0
-4027 4057 0
-152 -4027 4028 0
-4028 4058 0
-154 -4028 4029 0
-4029 4059 0
-156 -4029 4030 0
-4030 4060 0
-8 -4030 4031 0
-4031 4061 0
-159 -4031 4032 0
-4032 4062 0
-161 -4032 4033 0
-4033 4063 0
-163 -4033 4034 0
-4034 4064 0
-165 -4034 4035 0
-4035 4065 0
-167 -4035 4036 0
-4036 4066 0
-169 -4036 4037 0
-4037 4067 0
-171 -4037 4038 0
-4038 4068 0
-173 -4038 4039 0
-4039 4069 0
-175 -4039 4040 0
-4040 4070 0
-177 -4040 0
-121 4041 0
-4041 4071 0
-123 -4041 4042 0
-4042 4072 0
-125 -4042 4043 0
-4043 4073 0
-127 -4043 4044 0
-4044 4074 0
-129 -4044 4045 0
-4045 4075 0
-131 -4045 4046 0
-4046 4076 0
-133 -4046 4047 0
-4047 4077 0
-135 -4047 4048 0
-4048 4078 0
-7 -4048 4049 0
-4049 4079 0
-138 -4049 4050 0
-4050 4080 0
-140 -4050 4051 0
-4051 4081 0
-142 -4051 4052 0
-4052 4082 0
-144 -4052 4053 0
-4053 4083 0
-146 -4053 4054 0
-4054 4084 0
-148 -4054 4055 0
-4055 4085 0
-150 -4055 4056 0
-4056 4086 0
-152 -4056 4057 0
-4057 4087 0
-154 -4057 4058 0
-4058 4088 0
-156 -4058 4059 0
-4059 4089 0
-8 -4059 4060 0
-4060 4090 0
-159 -4060 4061 0
-4061 4091 0
-161 -4061 4062 0
-4062 4092 0
-163 -4062 4063 0
-4063 4093 0
-165 -4063 4064 0
-4064 4094 0
-167 -4064 4065 0
-4065 4095 0
-169 -4065 4066 0
-4066 4096 0
-171 -4066 4067 0
-4067 4097 0
-173 -4067 4068 0
-4068 4098 0
-175 -4068 4069 0
-4069 4099 0
-177 -4069 4070 0
-4070 4100 0
-9 -4070 0
-123 4071 0
-4071 4101 0
-125 -4071 4072 0
-4072 4102 0
-127 -4072 4073 0
-4073 4103 0
-129 -4073 4074 0
-4074 4104 0
-131 -4074 4075 0
-4075 4105 0
-133 -4075 4076 0
-4076 4106 0
-135 -4076 4077 0
-4077 4107 0
-7 -4077 4078 0
-4078 4108 0
-138 -4078 4079 0
-4079 4109 0
-140 -4079 4080 0
-4080 4110 0
-142 -4080 4081 0
-4081 4111 0
-144 -4081 4082 0
-4082 4112 0
-146 -4082 4083 0
-4083 4113 0
-148 -4083 4084 0
-4084 4114 0
-150 -4084 4085 0
-4085 4115 0
-152 -4085 4086 0
-4086 4116 0
-154 -4086 4087 0
-4087 4117 0
-156 -4087 4088 0
-4088 4118 0
-8 -4088 4089 0
-4089 4119 0
-159 -4089 4090 0
-4090 4120 0
-161 -4090 4091 0
-4091 4121 0
-163 -4091 4092 0
-4092 4122 0
-165 -4092 4093 0
-4093 4123 0
-167 -4093 4094 0
-4094 4124 0
-169 -4094 4095 0
-4095 4125 0
-171 -4095 4096 0
-4096 4126 0
-173 -4096 4097 0
-4097 4127 0
-175 -4097 4098 0
-4098 4128 0
-177 -4098 4099 0
-4099 4129 0
-9 -4099 4100 0
-4100 4130 0
-180 -4100 0
-125 4101 0
-4101 4131 0
-127 -4101 4102 0
-4102 4132 0
-129 -4102 4103 0
-4103 4133 0
-131 -4103 4104 0
-4104 4134 0
-133 -4104 4105 0
-4105 4135 0
-135 -4105 4106 0
-4106 4136 0
-7 -4106 4107 0
-4107 4137 0
-138 -4107 4108 0
-4108 4138 0
-140 -4108 4109 0
-4109 4139 0
-142 -4109 4110 0
-4110 4140 0
-144 -4110 4111 0
-4111 4141 0
-146 -4111 4112 0
-4112 4142 0
-148 -4112 4113 0
-4113 4143 0
-150 -4113 4114 0
-4114 4144 0
-152 -4114 4115 0
-4115 4145 0
-154 -4115 4116 0
-4116 4146 0
-156 -4116 4117 0
-4117 4147 0
-8 -4117 4118 0
-4118 4148 0
-159 -4118 4119 0
-4119 4149 0
-161 -4119 4120 0
-4120 4150 0
-163 -4120 4121 0
-4121 4151 0
-165 -4121 4122 0
-4122 4152 0
-167 -4122 4123 0
-4123 4153 0
-169 -4123 4124 0
-4124 4154 0
-171 -4124 4125 0
-4125 4155 0
-173 -4125 4126 0
-4126 4156 0
-175 -4126 4127 0
-4127 4157 0
-177 -4127 4128 0
-4128 4158 0
-9 -4128 4129 0
-4129 4159 0
-180 -4129 4130 0
-4130 4160 0
-182 -4130 0
-127 4131 0
-4131 4161 0
-129 -4131 4132 0
-4132 4162 0
-131 -4132 4133 0
-4133 4163 0
-133 -4133 4134 0
-4134 4164 0
-135 -4134 4135 0
-4135 4165 0
-7 -4135 4136 0
-4136 4166 0
-138 -4136 4137 0
-4137 4167 0
-140 -4137 4138 0
-4138 4168 0
-142 -4138 4139 0
-4139 4169 0
-144 -4139 4140 0
-4140 4170 0
-146 -4140 4141 0
-4141 4171 0
-148 -4141 4142 0
-4142 4172 0
-150 -4142 4143 0
-4143 4173 0
-152 -4143 4144 0
-4144 4174 0
-154 -4144 4145 0
-4145 4175 0
-156 -4145 4146 0
-4146 4176 0
-8 -4146 4147 0
-4147 4177 0
-159 -4147 4148 0
-4148 4178 0
-161 -4148 4149 0
-4149 4179 0
-163 -4149 4150 0
-4150 4180 0
-165 -4150 4151 0
-4151 4181 0
-167 -4151 4152 0
-4152 4182 0
-169 -4152 4153 0
-4153 4183 0
-171 -4153 4154 0
-4154 4184 0
-173 -4154 4155 0
-4155 4185 0
-175 -4155 4156 0
-4156 4186 0
-177 -4156 4157 0
-4157 4187 0
-9 -4157 4158 0
-4158 4188 0
-180 -4158 4159 0
-4159 4189 0
-182 -4159 4160 0
-4160 4190 0
-184 -4160 0
-129 4161 0
-4161 4191 0
-131 -4161 4162 0
-4162 4192 0
-133 -4162 4163 0
-4163 4193 0
-135 -4163 4164 0
-4164 4194 0
-7 -4164 4165 0
-4165 4195 0
-138 -4165 4166 0
-4166 4196 0
-140 -4166 4167 0
-4167 4197 0
-142 -4167 4168 0
-4168 4198 0
-144 -4168 4169 0
-4169 4199 0
-146 -4169 4170 0
-4170 4200 0
-148 -4170 4171 0
-4171 4201 0
-150 -4171 4172 0
-4172 4202 0
-152 -4172 4173 0
-4173 4203 0
-154 -4173 4174 0
-4174 4204 0
-156 -4174 4175 0
-4175 4205 0
-8 -4175 4176 0
-4176 4206 0
-159 -4176 4177 0
-4177 4207 0
-161 -4177 4178 0
-4178 4208 0
-163 -4178 4179 0
-4179 4209 0
-165 -4179 4180 0
-4180 4210 0
-167 -4180 4181 0
-4181 4211 0
-169 -4181 4182 0
-4182 4212 0
-171 -4182 4183 0
-4183 4213 0
-173 -4183 4184 0
-4184 4214 0
-175 -4184 4185 0
-4185 4215 0
-177 -4185 4186 0
-4186 4216 0
-9 -4186 4187 0
-4187 4217 0
-180 -4187 4188 0
-4188 4218 0
-182 -4188 4189 0
-4189 4219 0
-184 -4189 4190 0
-4190 4220 0
-186 -4190 0
-131 4191 0
-4191 4221 0
-133 -4191 4192 0
-4192 4222 0
-135 -4192 4193 0
-4193 4223 0
-7 -4193 4194 0
-4194 4224 0
-138 -4194 4195 0
-4195 4225 0
-140 -4195 4196 0
-4196 4226 0
-142 -4196 4197 0
-4197 4227 0
-144 -4197 4198 0
-4198 4228 0
-146 -4198 4199 0
-4199 4229 0
-148 -4199 4200 0
-4200 4230 0
-150 -4200 4201 0
-4201 4231 0
-152 -4201 4202 0
-4202 4232 0
-154 -4202 4203 0
-4203 4233 0
-156 -4203 4204 0
-4204 4234 0
-8 -4204 4205 0
-4205 4235 0
-159 -4205 4206 0
-4206 4236 0
-161 -4206 4207 0
-4207 4237 0
-163 -4207 4208 0
-4208 4238 0
-165 -4208 4209 0
-4209 4239 0
-167 -4209 4210 0
-4210 4240 0
-169 -4210 4211 0
-4211 4241 0
-171 -4211 4212 0
-4212 4242 0
-173 -4212 4213 0
-4213 4243 0
-175 -4213 4214 0
-4214 4244 0
-177 -4214 4215 0
-4215 4245 0
-9 -4215 4216 0
-4216 4246 0
-180 -4216 4217 0
-4217 4247 0
-182 -4217 4218 0
-4218 4248 0
-184 -4218 4219 0
-4219 4249 0
-186 -4219 4220 0
-4220 4250 0
-188 -4220 0
-133 4221 0
-4221 4251 0
-135 -4221 4222 0
-4222 4252 0
-7 -4222 4223 0
-4223 4253 0
-138 -4223 4224 0
-4224 4254 0
-140 -4224 4225 0
-4225 4255 0
-142 -4225 4226 0
-4226 4256 0
-144 -4226 4227 0
-4227 4257 0
-146 -4227 4228 0
-4228 4258 0
-148 -4228 4229 0
-4229 4259 0
-150 -4229 4230 0
-4230 4260 0
-152 -4230 4231 0
-4231 4261 0
-154 -4231 4232 0
-4232 4262 0
-156 -4232 4233 0
-4233 4263 0
-8 -4233 4234 0
-4234 4264 0
-159 -4234 4235 0
-4235 4265 0
-161 -4235 4236 0
-4236 4266 0
-163 -4236 4237 0
-4237 4267 0
-165 -4237 4238 0
-4238 4268 0
-167 -4238 4239 0
-4239 4269 0
-169 -4239 4240 0
-4240 4270 0
-171 -4240 4241 0
-4241 4271 0
-173 -4241 4242 0
-4242 4272 0
-175 -4242 4243 0
-4243 4273 0
-177 -4243 4244 0
-4244 4274 0
-9 -4244 4245 0
-4245 4275 0
-180 -4245 4246 0
-4246 4276 0
-182 -4246 4247 0
-4247 4277 0
-184 -4247 4248 0
-4248 4278 0
-186 -4248 4249 0
-4249 4279 0
-188 -4249 4250 0
-4250 4280 0
-190 -4250 0
-135 4251 0
-4251 4281 0
-7 -4251 4252 0
-4252 4282 0
-138 -4252 4253 0
-4253 4283 0
-140 -4253 4254 0
-4254 4284 0
-142 -4254 4255 0
-4255 4285 0
-144 -4255 4256 0
-4256 4286 0
-146 -4256 4257 0
-4257 4287 0
-148 -4257 4258 0
-4258 4288 0
-150 -4258 4259 0
-4259 4289 0
-152 -4259 4260 0
-4260 4290 0
-154 -4260 4261 0
-4261 4291 0
-156 -4261 4262 0
-4262 4292 0
-8 -4262 4263 0
-4263 4293 0
-159 -4263 4264 0
-4264 4294 0
-161 -4264 4265 0
-4265 4295 0
-163 -4265 4266 0
-4266 4296 0
-165 -4266 4267 0
-4267 4297 0
-167 -4267 4268 0
-4268 4298 0
-169 -4268 4269 0
-4269 4299 0
-171 -4269 4270 0
-4270 4300 0
-173 -4270 4271 0
-4271 4301 0
-175 -4271 4272 0
-4272 4302 0
-177 -4272 4273 0
-4273 4303 0
-9 -4273 4274 0
-4274 4304 0
-180 -4274 4275 0
-4275 4305 0
-182 -4275 4276 0
-4276 4306 0
-184 -4276 4277 0
-4277 4307 0
-186 -4277 4278 0
-4278 4308 0
-188 -4278 4279 0
-4279 4309 0
-190 -4279 4280 0
-4280 4310 0
-192 -4280 0
-7 4281 0
-4281 4311 0
-138 -4281 4282 0
-4282 4312 0
-140 -4282 4283 0
-4283 4313 0
-142 -4283 4284 0
-4284 4314 0
-144 -4284 4285 0
-4285 4315 0
-146 -4285 4286 0
-4286 4316 0
-148 -4286 4287 0
-4287 4317 0
-150 -4287 4288 0
-4288 4318 0
-152 -4288 4289 0
-4289 4319 0
-154 -4289 4290 0
-4290 4320 0
-156 -4290 4291 0
-4291 4321 0
-8 -4291 4292 0
-4292 4322 0
-159 -4292 4293 0
-4293 4323 0
-161 -4293 4294 0
-4294 4324 0
-163 -4294 4295 0
-4295 4325 0
-165 -4295 4296 0
-4296 4326 0
-167 -4296 4297 0
-4297 4327 0
-169 -4297 4298 0
-4298 4328 0
-171 -4298 4299 0
-4299 4329 0
-173 -4299 4300 0
-4300 4330 0
-175 -4300 4301 0
-4301 4331 0
-177 -4301 4302 0
-4302 4332 0
-9 -4302 4303 0
-4303 4333 0
-180 -4303 4304 0
-4304 4334 0
-182 -4304 4305 0
-4305 4335 0
-184 -4305 4306 0
-4306 4336 0
-186 -4306 4307 0
-4307 4337 0
-188 -4307 4308 0
-4308 4338 0
-190 -4308 4309 0
-4309 4339 0
-192 -4309 4310 0
-4310 4340 0
-194 -4310 0
-138 4311 0
-4311 4341 0
-140 -4311 4312 0
-4312 4342 0
-142 -4312 4313 0
-4313 4343 0
-144 -4313 4314 0
-4314 4344 0
-146 -4314 4315 0
-4315 4345 0
-148 -4315 4316 0
-4316 4346 0
-150 -4316 4317 0
-4317 4347 0
-152 -4317 4318 0
-4318 4348 0
-154 -4318 4319 0
-4319 4349 0
-156 -4319 4320 0
-4320 4350 0
-8 -4320 4321 0
-4321 4351 0
-159 -4321 4322 0
-4322 4352 0
-161 -4322 4323 0
-4323 4353 0
-163 -4323 4324 0
-4324 4354 0
-165 -4324 4325 0
-4325 4355 0
-167 -4325 4326 0
-4326 4356 0
-169 -4326 4327 0
-4327 4357 0
-171 -4327 4328 0
-4328 4358 0
-173 -4328 4329 0
-4329 4359 0
-175 -4329 4330 0
-4330 4360 0
-177 -4330 4331 0
-4331 4361 0
-9 -4331 4332 0
-4332 4362 0
-180 -4332 4333 0
-4333 4363 0
-182 -4333 4334 0
-4334 4364 0
-184 -4334 4335 0
-4335 4365 0
-186 -4335 4336 0
-4336 4366 0
-188 -4336 4337 0
-4337 4367 0
-190 -4337 4338 0
-4338 4368 0
-192 -4338 4339 0
-4339 4369 0
-194 -4339 4340 0
-4340 4370 0
-196 -4340 0
-140 4341 0
-4341 4371 0
-142 -4341 4342 0
-4342 4372 0
-144 -4342 4343 0
-4343 4373 0
-146 -4343 4344 0
-4344 4374 0
-148 -4344 4345 0
-4345 4375 0
-150 -4345 4346 0
-4346 4376 0
-152 -4346 4347 0
-4347 4377 0
-154 -4347 4348 0
-4348 4378 0
-156 -4348 4349 0
-4349 4379 0
-8 -4349 4350 0
-4350 4380 0
-159 -4350 4351 0
-4351 4381 0
-161 -4351 4352 0
-4352 4382 0
-163 -4352 4353 0
-4353 4383 0
-165 -4353 4354 0
-4354 4384 0
-167 -4354 4355 0
-4355 4385 0
-169 -4355 4356 0
-4356 4386 0
-171 -4356 4357 0
-4357 4387 0
-173 -4357 4358 0
-4358 4388 0
-175 -4358 4359 0
-4359 4389 0
-177 -4359 4360 0
-4360 4390 0
-9 -4360 4361 0
-4361 4391 0
-180 -4361 4362 0
-4362 4392 0
-182 -4362 4363 0
-4363 4393 0
-184 -4363 4364 0
-4364 4394 0
-186 -4364 4365 0
-4365 4395 0
-188 -4365 4366 0
-4366 4396 0
-190 -4366 4367 0
-4367 4397 0
-192 -4367 4368 0
-4368 4398 0
-194 -4368 4369 0
-4369 4399 0
-196 -4369 4370 0
-4370 4400 0
-198 -4370 0
-142 4371 0
-144 -4371 4372 0
-146 -4372 4373 0
-148 -4373 4374 0
-150 -4374 4375 0
-152 -4375 4376 0
-154 -4376 4377 0
-156 -4377 4378 0
-8 -4378 4379 0
-159 -4379 4380 0
-161 -4380 4381 0
-163 -4381 4382 0
-165 -4382 4383 0
-167 -4383 4384 0
-169 -4384 4385 0
-171 -4385 4386 0
-173 -4386 4387 0
-175 -4387 4388 0
-177 -4388 4389 0
-9 -4389 4390 0
-180 -4390 4391 0
-182 -4391 4392 0
-184 -4392 4393 0
-186 -4393 4394 0
-188 -4394 4395 0
-190 -4395 4396 0
-192 -4396 4397 0
-194 -4397 4398 0
-196 -4398 4399 0
-198 -4399 4400 0
-10 -4400 0
4401 0
4402 4403 0
-4402 -4403 0
-4402 -4404 4405 0
-4402 -4406 4407 0
-4402 -4408 4409 0
-4402 -4410 4411 0
-4402 -4412 4413 0
-4402 -4414 4415 0
-4402 -4416 4417 0
-4402 -4418 4419 0
4405 4420 0
-4405 -4420 0
-4405 -4421 4402 0
-4405 -4422 4407 0
-4405 -4423 4409 0
-4405 -4424 4411 0
-4405 -4425 4413 0
-4405 -4426 4415 0
-4405 -4427 4417 0
-4405 -4428 4419 0
4407 4429 0
-4407 -4429 0
-4407 -4430 4402 0
-4407 -4431 4405 0
-4407 -4432 4409 0
-4407 -4433 4411 0
-4407 -4434 4413 0
-4407 -4435 4415 0
-4407 -4436 4417 0
-4407 -4437 4419 0
4409 4438 0
-4409 -4438 0
-4409 -4439 4402 0
-4409 -4440 4405 0
-4409 -4441 4407 0
-4409 -4442 4411 0
-4409 -4443 4413 0
-4409 -4444 4415 0
-4409 -4445 4417 0
-4409 -4446 4419 0
4411 4447 0
-4411 -4447 0
-4411 -4448 4402 0
-4411 -4449 4405 0
-4411 -4450 4407 0
-4411 -4451 4409 0
-4411 -4452 4413 0
-4411 -4453 4415 0
-4411 -4454 4417 0
-4411 -4455 4419 0
4413 4456 0
-4413 -4456 0
-4413 -4457 4402 0
-4413 -4458 4405 0
-4413 -4459 4407 0
-4413 -4460 4409 0
-4413 -4461 4411 0
-4413 -4462 4415 0
-4413 -4463 4417 0
-4413 -4464 4419 0
4415 4465 0
-4415 -4465 0
-4415 -4466 4402 0
-4415 -4467 4405 0
-4415 -4468 4407 0
-4415 -4469 4409 0
-4415 -4470 4411 0
-4415 -4471 4413 0
-4415 -4472 4417 0
-4415 -4473 4419 0
4417 4474 0
-4417 -4474 0
-4417 -4475 4402 0
-4417 -4476 4405 0
-4417 -4477 4407 0
-4417 -4478 4409 0
-4417 -4479 4411 0
-4417 -4480 4413 0
-4417 -4481 4415 0
-4417 -4482 4419 0
4419 4483 0
-4419 -4483 0
-4419 -4484 4402 0
-4419 -4485 4405 0
-4419 -4486 4407 0
-4419 -4487 4409 0
-4419 -4488 4411 0
-4419 -4489 4413 0
-4419 -4490 4415 0
-4419 -4491 4417 0
4492 0
4403 4402 0
-4403 -4402 0
-4403 -4405 4404 0
-4403 -4407 4406 0
-4403 -4409 4408 0
-4403 -4411 4410 0
-4403 -4413 4412 0
-4403 -4415 4414 0
-4403 -4417 4416 0
-4403 -4419 4418 0
4404 4421 0
-4404 -4421 0
-4404 -4420 4403 0
-4404 -4422 4406 0
-4404 -4423 4408 0
-4404 -4424 4410 0
-4404 -4425 4412 0
-4404 -4426 4414 0
-4404 -4427 4416 0
-4404 -4428 4418 0
4406 4430 0
-4406 -4430 0
-4406 -4429 4403 0
-4406 -4431 4404 0
-4406 -4432 4408 0
-4406 -4433 4410 0
-4406 -4434 4412 0
-4406 -4435 4414 0
-4406 -4436 4416 0
-4406 -4437 4418 0
4408 4439 0
-4408 -4439 0
-4408 -4438 4403 0
-4408 -4440 4404 0
-4408 -4441 4406 0
-4408 -4442 4410 0
-4408 -4443 4412 0
-4408 -4444 4414 0
-4408 -4445 4416 0
-4408 -4446 4418 0
4410 4448 0
-4410 -4448 0
-4410 -4447 4403 0
-4410 -4449 4404 0
-4410 -4450 4406 0
-4410 -4451 4408 0
-4410 -4452 4412 0
-4410 -4453 4414 0
-4410 -4454 4416 0
-4410 -4455 4418 0
4412 4457 0
-4412 -4457 0
-4412 -4456 4403 0
-4412 -4458 4404 0
-4412 -4459 4406 0
-4412 -4460 4408 0
-4412 -4461 4410 0
-4412 -4462 4414 0
-4412 -4463 4416 0
-4412 -4464 4418 0
4414 4466 0
-4414 -4466 0
-4414 -4465 4403 0
-4414 -4467 4404 0
-4414 -4468 4406 0
-4414 -4469 4408 0
-4414 -4470 4410 0
-4414 -4471 4412 0
-4414 -4472 4416 0
-4414 -4473 4418 0
4416 4475 0
-4416 -4475 0
-4416 -4474 4403 0
-4416 -4476 4404 0
-4416 -4477 4406 0
-4416 -4478 4408 0
-4416 -4479 4410 0
-4416 -4480 4412 0
-4416 -4481 4414 0
-4416 -4482 4418 0
4418 4484 0
-4418 -4484 0
-4418 -4483 4403 0
-4418 -4485 4404 0
-4418 -4486 4406 0
-4418 -4487 4408 0
-4418 -4488 4410 0
-4418 -4489 4412 0
-4418 -4490 4414 0
-4418 -4491 4416 0
4493 0
4420 4405 0
-4420 -4405 0
-4420 -4402 4421 0
-4420 -4407 4422 0
-4420 -4409 4423 0
-4420 -4411 4424 0
-4420 -4413 4425 0
-4420 -4415 4426 0
-4420 -4417 4427 0
-4420 -4419 4428 0
4421 4404 0
-4421 -4404 0
-4421 -4403 4420 0
-4421 -4406 4422 0
-4421 -4408 4423 0
-4421 -4410 4424 0
-4421 -4412 4425 0
-4421 -4414 4426 0
-4421 -4416 4427 0
-4421 -4418 4428 0
4422 4431 0
-4422 -4431 0
-4422 -4429 4420 0
-4422 -4430 4421 0
-4422 -4432 4423 0
-4422 -4433 4424 0
-4422 -4434 4425 0
-4422 -4435 4426 0
-4422 -4436 4427 0
-4422 -4437 4428 0
4423 4440 0
-4423 -4440 0
-4423 -4438 4420 0
-4423 -4439 4421 0
-4423 -4441 4422 0
-4423 -4442 4424 0
-4423 -4443 4425 0
-4423 -4444 4426 0
-4423 -4445 4427 0
-4423 -4446 4428 0
4424 4449 0
-4424 -4449 0
-4424 -4447 4420 0
-4424 -4448 4421 0
-4424 -4450 4422 0
-4424 -4451 4423 0
-4424 -4452 4425 0
-4424 -4453 4426 0
-4424 -4454 4427 0
-4424 -4455 4428 0
4425 4458 0
-4425 -4458 0
-4425 -4456 4420 0
-4425 -4457 4421 0
-4425 -4459 4422 0
-4425 -4460 4423 0
-4425 -4461 4424 0
-4425 -4462 4426 0
-4425 -4463 4427 0
-4425 -4464 4428 0
4426 4467 0
-4426 -4467 0
-4426 -4465 4420 0
-4426 -4466 4421 0
-4426 -4468 4422 0
-4426 -4469 4423 0
-4426 -4470 4424 0
-4426 -4471 4425 0
-4426 -4472 4427 0
-4426 -4473 4428 0
4427 4476 0
-4427 -4476 0
-4427 -4474 4420 0
-4427 -4475 4421 0
-4427 -4477 4422 0
-4427 -4478 4423 0
-4427 -4479 4424 0
-4427 -4480 4425 0
-4427 -4481 4426 0
-4427 -4482 4428 0
4428 4485 0
-4428 -4485 0
-4428 -4483 4420 0
-4428 -4484 4421 0
-4428 -4486 4422 0
-4428 -4487 4423 0
-4428 -4488 4424 0
-4428 -4489 4425 0
-4428 -4490 4426 0
-4428 -4491 4427 0
4494 0
4429 4407 0
-4429 -4407 0
-4429 -4402 4430 0
-4429 -4405 4431 0
-4429 -4409 4432 0
-4429 -4411 4433 0
-4429 -4413 4434 0
-4429 -4415 4435 0
-4429 -4417 4436 0
-4429 -4419 4437 0
4430 4406 0
-4430 -4406 0
-4430 -4403 4429 0
-4430 -4404 4431 0
-4430 -4408 4432 0
-4430 -4410 4433 0
-4430 -4412 4434 0
-4430 -4414 4435 0
-4430 -4416 4436 0
-4430 -4418 4437 0
4431 4422 0
-4431 -4422 0
-4431 -4420 4429 0
-4431 -4421 4430 0
-4431 -4423 4432 0
-4431 -4424 4433 0
-4431 -4425 4434 0
-4431 -4426 4435 0
-4431 -4427 4436 0
-4431 -4428 4437 0
4432 4441 0
-4432 -4441 0
-4432 -4438 4429 0
-4432 -4439 4430 0
-4432 -4440 4431 0
-4432 -4442 4433 0
-4432 -4443 4434 0
-4432 -4444 4435 0
-4432 -4445 4436 0
-4432 -4446 4437 0
4433 4450 0
-4433 -4450 0
-4433 -4447 4429 0
-4433 -4448 4430 0
-4433 -4449 4431 0
-4433 -4451 4432 0
-4433 -4452 4434 0
-4433 -4453 4435 0
-4433 -4454 4436 0
-4433 -4455 4437 0
4434 4459 0
-4434 -4459 0
-4434 -4456 4429 0
-4434 -4457 4430 0
-4434 -4458 4431 0
-4434 -4460 4432 0
-4434 -4461 4433 0
-4434 -4462 4435 0
-4434 -4463 4436 0
-4434 -4464 4437 0
4435 4468 0
-4435 -4468 0
-4435 -4465 4429 0
-4435 -4466 4430 0
-4435 -4467 4431 0
-4435 -4469 4432 0
-4435 -4470 4433 0
-4435 -4471 4434 0
-4435 -4472 4436 0
-4435 -4473 4437 0
4436 4477 0
-4436 -4477 0
-4436 -4474 4429 0
-4436 -4475 4430 0
-4436 -4476 4431 0
-4436 -4478 4432 0
-4436 -4479 4433 0
-4436 -4480 4434 0
-4436 -4481 4435 0
-4436 -4482 4437 0
4437 4486 0
-4437 -4486 0
-4437 -4483 4429 0
-4437 -4484 4430 0
-4437 -4485 4431 0
-4437 -4487 4432 0
-4437 -4488 4433 0
-4437 -4489 4434 0
-4437 -4490 4435 0
-4437 -4491 4436 0
4495 0
4438 4409 0
-4438 -4409 0
-4438 -4402 4439 0
-4438 -4405 4440 0
-4438 -4407 4441 0
-4438 -4411 4442 0
-4438 -4413 4443 0
-4438 -4415 4444 0
-4438 -4417 4445 0
-4438 -4419 4446 0
4439 4408 0
-4439 -4408 0
-4439 -4403 4438 0
-4439 -4404 4440 0
-4439 -4406 4441 0
-4439 -4410 4442 0
-4439 -4412 4443 0
-4439 -4414 4444 0
-4439 -4416 4445 0
-4439 -4418 4446 0
4440 4423 0
-4440 -4423 0
-4440 -4420 4438 0
-4440 -4421 4439 0
-4440 -4422 4441 0
-4440 -4424 4442 0
-4440 -4425 4443 0
-4440 -4426 4444 0
-4440 -4427 4445 0
-4440 -4428 4446 0
4441 4432 0
-4441 -4432 0
-4441 -4429 4438 0
-4441 -4430 4439 0
-4441 -4431 4440 0
-4441 -4433 4442 0
-4441 -4434 4443 0
-4441 -4435 4444 0
-4441 -4436 4445 0
-4441 -4437 4446 0
4442 4451 0
-4442 -4451 0
-4442 -4447 4438 0
-4442 -4448 4439 0
-4442 -4449 4440 0
-4442 -4450 4441 0
-4442 -4452 4443 0
-4442 -4453 4444 0
-4442 -4454 4445 0
-4442 -4455 4446 0
4443 4460 0
-4443 -4460 0
-4443 -4456 4438 0
-4443 -4457 4439 0
-4443 -4458 4440 0
-4443 -4459 4441 0
-4443 -4461 4442 0
-4443 -4462 4444 0
-4443 -4463 4445 0
-4443 -4464 4446 0
4444 4469 0
-4444 -4469 0
-4444 -4465 4438 0
-4444 -4466 4439 0
-4444 -4467 4440 0
-4444 -4468 4441 0
-4444 -4470 4442 0
-4444 -4471 4443 0
-4444 -4472 4445 0
-4444 -4473 4446 0
4445 4478 0
-4445 -4478 0
-4445 -4474 4438 0
-4445 -4475 4439 0
-4445 -4476 4440 0
-4445 -4477 4441 0
-4445 -4479 4442 0
-4445 -4480 4443 0
-4445 -4481 4444 0
-4445 -4482 4446 0
4446 4487 0
-4446 -4487 0
-4446 -4483 4438 0
-4446 -4484 4439 0
-4446 -4485 4440 0
-4446 -4486 4441 0
-4446 -4488 4442 0
-4446 -4489 4443 0
-4446 -4490 4444 0
-4446 -4491 4445 0
4496 0
4447 4411 0
-4447 -4411 0
-4447 -4402 4448 0
-4447 -4405 4449 0
-4447 -4407 4450 0
-4447 -4409 4451 0
-4447 -4413 4452 0
-4447 -4415 4453 0
-4447 -4417 4454 0
-4447 -4419 4455 0
4448 4410 0
-4448 -4410 0
-4448 -4403 4447 0
-4448 -4404 4449 0
-4448 -4406 4450 0
-4448 -4408 4451 0
-4448 -4412 4452 0
-4448 -4414 4453 0
-4448 -4416 4454 0
-4448 -4418 4455 0
4449 4424 0
-4449 -4424 0
-4449 -4420 4447 0
-4449 -4421 4448 0
-4449 -4422 4450 0
-4449 -4423 4451 0
-4449 -4425 4452 0
-4449 -4426 4453 0
-4449 -4427 4454 0
-4449 -4428 4455 0
4450 4433 0
-4450 -4433 0
-4450 -4429 4447 0
-4450 -4430 4448 0
-4450 -4431 4449 0
-4450 -4432 4451 0
-4450 -4434 4452 0
-4450 -4435 4453 0
-4450 -4436 4454 0
-4450 -4437 4455 0
4451 4442 0
-4451 -4442 0
-4451 -4438 4447 0
-4451 -4439 4448 0
-4451 -4440 4449 0
-4451 -4441 4450 0
-4451 -4443 4452 0
-4451 -4444 4453 0
-4451 -4445 4454 0
-4451 -4446 4455 0
4452 4461 0
-4452 -4461 0
-4452 -4456 4447 0
-4452 -4457 4448 0
-4452 -4458 4449 0
-4452 -4459 4450 0
-4452 -4460 4451 0
-4452 -4462 4453 0
-4452 -4463 4454 0
-4452 -4464 4455 0
4453 4470 0
-4453 -4470 0
-4453 -4465 4447 0
-4453 -4466 4448 0
-4453 -4467 4449 0
-4453 -4468 4450 0
-4453 -4469 4451 0
-4453 -4471 4452 0
-4453 -4472 4454 0
-4453 -4473 4455 0
4454 4479 0
-4454 -4479 0
-4454 -4474 4447 0
-4454 -4475 4448 0
-4454 -4476 4449 0
-4454 -4477 4450 0
-4454 -4478 4451 0
-4454 -4480 4452 0
-4454 -4481 4453 0
-4454 -4482 4455 0
4455 4488 0
-4455 -4488 0
-4455 -4483 4447 0
-4455 -4484 4448 0
-4455 -4485 4449 0
-4455 -4486 4450 0
-4455 -4487 4451 0
-4455 -4489 4452 0
-4455 -4490 4453 0
-4455 -4491 4454 0
4497 0
4456 4413 0
-4456 -4413 0
-4456 -4402 4457 0
-4456 -4405 4458 0
-4456 -4407 4459 0
-4456 -4409 4460 0
-4456 -4411 4461 0
-4456 -4415 4462 0
-4456 -4417 4463 0
-4456 -4419 4464 0
4457 4412 0
-4457 -4412 0
-4457 -4403 4456 0
-4457 -4404 4458 0
-4457 -4406 4459 0
-4457 -4408 4460 0
-4457 -4410 4461 0
-4457 -4414 4462 0
-4457 -4416 4463 0
-4457 -4418 4464 0
4458 4425 0
-4458 -4425 0
-4458 -4420 4456 0
-4458 -4421 4457 0
-4458 -4422 4459 0
-4458 -4423 4460 0
-4458 -4424 4461 0
-4458 -4426 4462 0
-4458 -4427 4463 0
-4458 -4428 4464 0
4459 4434 0
-4459 -4434 0
-4459 -4429 4456 0
-4459 -4430 4457 0
-4459 -4431 4458 0
-4459 -4432 4460 0
-4459 -4433 4461 0
-4459 -4435 4462 0
-4459 -4436 4463 0
-4459 -4437 4464 0
4460 4443 0
-4460 -4443 0
-4460 -4438 4456 0
-4460 -4439 4457 0
-4460 -4440 4458 0
-4460 -4441 4459 0
-4460 -4442 4461 0
-4460 -4444 4462 0
-4460 -4445 4463 0
-4460 -4446 4464 0
4461 4452 0
-4461 -4452 0
-4461 -4447 4456 0
-4461 -4448 4457 0
-4461 -4449 4458 0
-4461 -4450 4459 0
-4461 -4451 4460 0
-4461 -4453 4462 0
-4461 -4454 4463 0
-4461 -4455 4464 0
4462 4471 0
-4462 -4471 0
-4462 -4465 4456 0
-4462 -4466 4457 0
-4462 -4467 4458 0
-4462 -4468 4459 0
-4462 -4469 4460 0
-4462 -4470 4461 0
-4462 -4472 4463 0
-4462 -4473 4464 0
4463 4480 0
-4463 -4480 0
-4463 -4474 4456 0
-4463 -4475 4457 0
-4463 -4476 4458 0
-4463 -4477 4459 0
-4463 -4478 4460 0
-4463 -4479 4461 0
-4463 -4481 4462 0
-4463 -4482 4464 0
4464 4489 0
-4464 -4489 0
-4464 -4483 4456 0
-4464 -4484 4457 0
-4464 -4485 4458 0
-4464 -4486 4459 0
-4464 -4487 4460 0
-4464 -4488 4461 0
-4464 -4490 4462 0
-4464 -4491 4463 0
4498 0
4465 4415 0
-4465 -4415 0
-4465 -4402 4466 0
-4465 -4405 4467 0
-4465 -4407 4468 0
-4465 -4409 4469 0
-4465 -4411 4470 0
-4465 -4413 4471 0
-4465 -4417 4472 0
-4465 -4419 4473 0
4466 4414 0
-4466 -4414 0
-4466 -4403 4465 0
-4466 -4404 4467 0
-4466 -4406 4468 0
-4466 -4408 4469 0
-4466 -4410 4470 0
-4466 -4412 4471 0
-4466 -4416 4472 0
-4466 -4418 4473 0
4467 4426 0
-4467 -4426 0
-4467 -4420 4465 0
-4467 -4421 4466 0
-4467 -4422 4468 0
-4467 -4423 4469 0
-4467 -4424 4470 0
-4467 -4425 4471 0
-4467 -4427 4472 0
-4467 -4428 4473 0
4468 4435 0
-4468 -4435 0
-4468 -4429 4465 0
-4468 -4430 4466 0
-4468 -4431 4467 0
-4468 -4432 4469 0
-4468 -4433 4470 0
-4468 -4434 4471 0
-4468 -4436 4472 0
-4468 -4437 4473 0
4469 4444 0
-4469 -4444 0
-4469 -4438 4465 0
-4469 -4439 4466 0
-4469 -4440 4467 0
-4469 -4441 4468 0
-4469 -4442 4470 0
-4469 -4443 4471 0
-4469 -4445 4472 0
-4469 -4446 4473 0
4470 4453 0
-4470 -4453 0
-4470 -4447 4465 0
-4470 -4448 4466 0
-4470 -4449 4467 0
-4470 -4450 4468 0
-4470 -4451 4469 0
-4470 -4452 4471 0
-4470 -4454 4472 0
-4470 -4455 4473 0
4471 4462 0
-4471 -4462 0
-4471 -4456 4465 0
-4471 -4457 4466 0
-4471 -4458 4467 0
-4471 -4459 4468 0
-4471 -4460 4469 0
-4471 -4461 4470 0
-4471 -4463 4472 0
-4471 -4464 4473 0
4472 4481 0
-4472 -4481 0
-4472 -4474 4465 0
-4472 -4475 4466 0
-4472 -4476 4467 0
-4472 -4477 4468 0
-4472 -4478 4469 0
-4472 -4479 4470 0
-4472 -4480 4471 0
-4472 -4482 4473 0
4473 4490 0
-4473 -4490 0
-4473 -4483 4465 0
-4473 -4484 4466 0
-4473 -4485 4467 0
-4473 -4486 4468 0
-4473 -4487 4469 0
-4473 -4488 4470 0
-4473 -4489 4471 0
-4473 -4491 4472 0
4499 0
4474 4417 0
-4474 -4417 0
-4474 -4402 4475 0
-4474 -4405 4476 0
-4474 -4407 4477 0
-4474 -4409 4478 0
-4474 -4411 4479 0
-4474 -4413 4480 0
-4474 -4415 4481 0
-4474 -4419 4482 0
4475 4416 0
-4475 -4416 0
-4475 -4403 4474 0
-4475 -4404 4476 0
-4475 -4406 4477 0
-4475 -4408 4478 0
-4475 -4410 4479 0
-4475 -4412 4480 0
-4475 -4414 4481 0
-4475 -4418 4482 0
4476 4427 0
-4476 -4427 0
-4476 -4420 4474 0
-4476 -4421 4475 0
-4476 -4422 4477 0
-4476 -4423 4478 0
-4476 -4424 4479 0
-4476 -4425 4480 0
-4476 -4426 4481 0
-4476 -4428 4482 0
4477 4436 0
-4477 -4436 0
-4477 -4429 4474 0
-4477 -4430 4475 0
-4477 -4431 4476 0
-4477 -4432 4478 0
-4477 -4433 4479 0
-4477 -4434 4480 0
-4477 -4435 4481 0
-4477 -4437 4482 0
4478 4445 0
-4478 -4445 0
-4478 -4438 4474 0
-4478 -4439 4475 0
-4478 -4440 4476 0
-4478 -4441 4477 0
-4478 -4442 4479 0
-4478 -4443 4480 0
-4478 -4444 4481 0
-4478 -4446 4482 0
4479 4454 0
-4479 -4454 0
-4479 -4447 4474 0
-4479 -4448 4475 0
-4479 -4449 4476 0
-4479 -4450 4477 0
-4479 -4451 4478 0
-4479 -4452 4480 0
-4479 -4453 4481 0
-4479 -4455 4482 0
4480 4463 0
-4480 -4463 0
-4480 -4456 4474 0
-4480 -4457 4475 0
-4480 -4458 4476 0
-4480 -4459 4477 0
-4480 -4460 4478 0
-4480 -4461 4479 0
-4480 -4462 4481 0
-4480 -4464 4482 0
4481 4472 0
-4481 -4472 0
-4481 -4465 4474 0
-4481 -4466 4475 0
-4481 -4467 4476 0
-4481 -4468 4477 0
-4481 -4469 4478 0
-4481 -4470 4479 0
-4481 -4471 4480 0
-4481 -4473 4482 0
4482 4491 0
-4482 -4491 0
-4482 -4483 4474 0
-4482 -4484 4475 0
-4482 -4485 4476 0
-4482 -4486 4477 0
-4482 -4487 4478 0
-4482 -4488 4479 0
-4482 -4489 4480 0
-4482 -4490 4481 0
4500 0
4483 4419 0
-4483 -4419 0
-4483 -4402 4484 0
-4483 -4405 4485 0
-4483 -4407 4486 0
-4483 -4409 4487 0
-4483 -4411 4488 0
-4483 -4413 4489 0
-4483 -4415 4490 0
-4483 -4417 4491 0
4484 4418 0
-4484 -4418 0
-4484 -4403 4483 0
-4484 -4404 4485 0
-4484 -4406 4486 0
-4484 -4408 4487 0
-4484 -4410 4488 0
-4484 -4412 4489 0
-4484 -4414 4490 0
-4484 -4416 4491 0
4485 4428 0
-4485 -4428 0
-4485 -4420 4483 0
-4485 -4421 4484 0
-4485 -4422 4486 0
-4485 -4423 4487 0
-4485 -4424 4488 0
-4485 -4425 4489 0
-4485 -4426 4490 0
-4485 -4427 4491 0
4486 4437 0
-4486 -4437 0
-4486 -4429 4483 0
-4486 -4430 4484 0
-4486 -4431 4485 0
-4486 -4432 4487 0
-4486 -4433 4488 0
-4486 -4434 4489 0
-4486 -4435 4490 0
-4486 -4436 4491 0
4487 4446 0
-4487 -4446 0
-4487 -4438 4483 0
-4487 -4439 4484 0
-4487 -4440 4485 0
-4487 -4441 4486 0
-4487 -4442 4488 0
-4487 -4443 4489 0
-4487 -4444 4490 0
-4487 -4445 4491 0
4488 4455 0
-4488 -4455 0
-4488 -4447 4483 0
-4488 -4448 4484 0
-4488 -4449 4485 0
-4488 -4450 4486 0
-4488 -4451 4487 0
-4488 -4452 4489 0
-4488 -4453 4490 0
-4488 -4454 4491 0
4489 4464 0
-4489 -4464 0
-4489 -4456 4483 0
-4489 -4457 4484 0
-4489 -4458 4485 0
-4489 -4459 4486 0
-4489 -4460 4487 0
-4489 -4461 4488 0
-4489 -4462 4490 0
-4489 -4463 4491 0
4490 4473 0
-4490 -4473 0
-4490 -4465 4483 0
-4490 -4466 4484 0
-4490 -4467 4485 0
-4490 -4468 4486 0
-4490 -4469 4487 0
-4490 -4470 4488 0
-4490 -4471 4489 0
-4490 -4472 4491 0
4491 4482 0
-4491 -4482 0
-4491 -4474 4483 0
-4491 -4475 4484 0
-4491 -4476 4485 0
-4491 -4477 4486 0
-4491 -4478 4487 0
-4491 -4479 4488 0
-4491 -4480 4489 0
-4491 -4481 4490 0
-4501 0
-4502 4402 0
-4503 4405 0
-4503 4421 0
-4405 -4421 4503 0
-4504 4407 0
-4504 4430 0
-4407 -4430 4504 0
-4505 4409 0
-4505 4439 0
-4409 -4439 4505 0
-4506 4411 0
-4506 4448 0
-4411 -4448 4506 0
-4507 4413 0
-4507 4457 0
-4413 -4457 4507 0
-4508 4415 0
-4508 4466 0
-4415 -4466 4508 0
-4509 4417 0
-4509 4475 0
-4417 -4475 4509 0
-4510 4419 0
-4510 4484 0
-4419 -4484 4510 0
-4502 -4503 0
-4502 -4504 0
-4502 -4505 0
-4502 -4506 0
-4502 -4507 0
-4502 -4508 0
-4502 -4509 0
-4502 -4510 0
-4402 4502 4503 4504 4505 4506 4507 4508 4509 4510 0
-4511 4405 0
-4512 4402 0
-4512 4404 0
-4402 -4404 4512 0
-4513 4407 0
-4513 4431 0
-4407 -4431 4513 0
-4514 4409 0
-4514 4440 0
-4409 -4440 4514 0
-4515 4411 0
-4515 4449 0
-4411 -4449 4515 0
-4516 4413 0
-4516 4458 0
-4413 -4458 4516 0
-4517 4415 0
-4517 4467 0
-4415 -4467 4517 0
-4518 4417 0
-4518 4476 0
-4417 -4476 4518 0
-4519 4419 0
-4519 4485 0
-4419 -4485 4519 0
-4511 -4512 0
-4511 -4513 0
-4511 -4514 0
-4511 -4515 0
-4511 -4516 0
-4511 -4517 0
-4511 -4518 0
-4511 -4519 0
-4405 4511 4512 4513 4514 4515 4516 4517 4518 4519 0
-4520 4407 0
-4521 4402 0
-4521 4406 0
-4402 -4406 4521 0
-4522 4405 0
-4522 4422 0
-4405 -4422 4522 0
-4523 4409 0
-4523 4441 0
-4409 -4441 4523 0
-4524 4411 0
-4524 4450 0
-4411 -4450 4524 0
-4525 4413 0
-4525 4459 0
-4413 -4459 4525 0
-4526 4415 0
-4526 4468 0
-4415 -4468 4526 0
-4527 4417 0
-4527 4477 0
-4417 -4477 4527 0
-4528 4419 0
-4528 4486 0
-4419 -4486 4528 0
-4520 -4521 0
-4520 -4522 0
-4520 -4523 0
-4520 -4524 0
-4520 -4525 0
-4520 -4526 0
-4520 -4527 0
-4520 -4528 0
-4407 4520 4521 4522 4523 4524 4525 4526 4527 4528 0
-4529 4409 0
-4530 4402 0
-4530 4408 0
-4402 -4408 4530 0
-4531 4405 0
-4531 4423 0
-4405 -4423 4531 0
-4532 4407 0
-4532 4432 0
-4407 -4432 4532 0
-4533 4411 0
-4533 4451 0
-4411 -4451 4533 0
-4534 4413 0
-4534 4460 0
-4413 -4460 4534 0
-4535 4415 0
-4535 4469 0
-4415 -4469 4535 0
-4536 4417 0
-4536 4478 0
-4417 -4478 4536 0
-4537 4419 0
-4537 4487 0
-4419 -4487 4537 0
-4529 -4530 0
-4529 -4531 0
-4529 -4532 0
-4529 -4533 0
-4529 -4534 0
-4529 -4535 0
-4529 -4536 0
-4529 -4537 0
-4409 4529 4530 4531 4532 4533 4534 4535 4536 4537 0
-4538 4411 0
-4539 4402 0
-4539 4410 0
-4402 -4410 4539 0
-4540 4405 0
-4540 4424 0
-4405 -4424 4540 0
-4541 4407 0
-4541 4433 0
-4407 -4433 4541 0
-4542 4409 0
-4542 4442 0
-4409 -4442 4542 0
-4543 4413 0
-4543 4461 0
-4413 -4461 4543 0
-4544 4415 0
-4544 4470 0
-4415 -4470 4544 0
-4545 4417 0
-4545 4479 0
-4417 -4479 4545 0
-4546 4419 0
-4546 4488 0
-4419 -4488 4546 0
-4538 -4539 0
-4538 -4540 0
-4538 -4541 0
-4538 -4542 0
-4538 -4543 0
-4538 -4544 0
-4538 -4545 0
-4538 -4546 0
-4411 4538 4539 4540 4541 4542 4543 4544 4545 4546 0
-4547 4413 0
-4548 4402 0
-4548 4412 0
-4402 -4412 4548 0
-4549 4405 0
-4549 4425 0
-4405 -4425 4549 0
-4550 4407 0
-4550 4434 0
-4407 -4434 4550 0
-4551 4409 0
-4551 4443 0
-4409 -4443 4551 0
-4552 4411 0
-4552 4452 0
-4411 -4452 4552 0
-4553 4415 0
-4553 4471 0
-4415 -4471 4553 0
-4554 4417 0
-4554 4480 0
-4417 -4480 4554 0
-4555 4419 0
-4555 4489 0
-4419 -4489 4555 0
-4547 -4548 0
-4547 -4549 0
-4547 -4550 0
-4547 -4551 0
-4547 -4552 0
-4547 -4553 0
-4547 -4554 0
-4547 -4555 0
-4413 4547 4548 4549 4550 4551 4552 4553 4554 4555 0
-4556 4415 0
-4557 4402 0
-4557 4414 0
-4402 -4414 4557 0
-4558 4405 0
-4558 4426 0
-4405 -4426 4558 0
-4559 4407 0
-4559 4435 0
-4407 -4435 4559 0
-4560 4409 0
-4560 4444 0
-4409 -4444 4560 0
-4561 4411 0
-4561 4453 0
-4411 -4453 4561 0
-4562 4413 0
-4562 4462 0
-4413 -4462 4562 0
-4563 4417 0
-4563 4481 0
-4417 -4481 4563 0
-4564 4419 0
-4564 4490 0
-4419 -4490 4564 0
-4556 -4557 0
-4556 -4558 0
-4556 -4559 0
-4556 -4560 0
-4556 -4561 0
-4556 -4562 0
-4556 -4563 0
-4556 -4564 0
-4415 4556 4557 4558 4559 4560 4561 4562 4563 4564 0
-4565 4417 0
-4566 4402 0
-4566 4416 0
-4402 -4416 4566 0
-4567 4405 0
-4567 4427 0
-4405 -4427 4567 0
-4568 4407 0
-4568 4436 0
-4407 -4436 4568 0
-4569 4409 0
-4569 4445 0
-4409 -4445 4569 0
-4570 4411 0
-4570 4454 0
-4411 -4454 4570 0
-4571 4413 0
-4571 4463 0
-4413 -4463 4571 0
-4572 4415 0
-4572 4472 0
-4415 -4472 4572 0
-4573 4419 0
-4573 4491 0
-4419 -4491 4573 0
-4565 -4566 0
-4565 -4567 0
-4565 -4568 0
-4565 -4569 0
-4565 -4570 0
-4565 -4571 0
-4565 -4572 0
-4565 -4573 0
-4417 4565 4566 4567 4568 4569 4570 4571 4572 4573 0
-4574 4419 0
-4575 4402 0
-4575 4418 0
-4402 -4418 4575 0
-4576 4405 0
-4576 4428 0
-4405 -4428 4576 0
-4577 4407 0
-4577 4437 0
-4407 -4437 4577 0
-4578 4409 0
-4578 4446 0
-4409 -4446 4578 0
-4579 4411 0
-4579 4455 0
-4411 -4455 4579 0
-4580 4413 0
-4580 4464 0
-4413 -4464 4580 0
-4581 4415 0
-4581 4473 0
-4415 -4473 4581 0
-4582 4417 0
-4582 4482 0
-4417 -4482 4582 0
-4574 -4575 0
-4574 -4576 0
-4574 -4577 0
-4574 -4578 0
-4574 -4579 0
-4574 -4580 0
-4574 -4581 0
-4574 -4582 0
-4419 4574 4575 4576 4577 4578 4579 4580 4581 4582 0
-4583 4403 0
-4584 4404 0
-4584 4420 0
-4404 -4420 4584 0
-4585 4406 0
-4585 4429 0
-4406 -4429 4585 0
-4586 4408 0
-4586 4438 0
-4408 -4438 4586 0
-4587 4410 0
-4587 4447 0
-4410 -4447 4587 0
-4588 4412 0
-4588 4456 0
-4412 -4456 4588 0
-4589 4414 0
-4589 4465 0
-4414 -4465 4589 0
-4590 4416 0
-4590 4474 0
-4416 -4474 4590 0
-4591 4418 0
-4591 4483 0
-4418 -4483 4591 0
-4583 -4584 0
-4583 -4585 0
-4583 -4586 0
-4583 -4587 0
-4583 -4588 0
-4583 -4589 0
-4583 -4590 0
-4583 -4591 0
-4403 4583 4584 4585 4586 4587 4588 4589 4590 4591 0
-4592 0
-4593 4404 0
-4594 4403 0
-4594 4405 0
-4403 -4405 4594 0
-4595 4406 0
-4595 4431 0
-4406 -4431 4595 0
-4596 4408 0
-4596 4440 0
-4408 -4440 4596 0
-4597 4410 0
-4597 4449 0
-4410 -4449 4597 0
-4598 4412 0
-4598 4458 0
-4412 -4458 4598 0
-4599 4414 0
-4599 4467 0
-4414 -4467 4599 0
-4600 4416 0
-4600 4476 0
-4416 -4476 4600 0
-4601 4418 0
-4601 4485 0
-4418 -4485 4601 0
-4593 -4594 0
-4593 -4595 0
-4593 -4596 0
-4593 -4597 0
-4593 -4598 0
-4593 -4599 0
-4593 -4600 0
-4593 -4601 0
-4404 4593 4594 4595 4596 4597 4598 4599 4600 4601 0
-4602 4406 0
-4603 4403 0
-4603 4407 0
-4403 -4407 4603 0
-4604 4404 0
-4604 4422 0
-4404 -4422 4604 0
-4605 4408 0
-4605 4441 0
-4408 -4441 4605 0
-4606 4410 0
-4606 4450 0
-4410 -4450 4606 0
-4607 4412 0
-4607 4459 0
-4412 -4459 4607 0
-4608 4414 0
-4608 4468 0
-4414 -4468 4608 0
-4609 4416 0
-4609 4477 0
-4416 -4477 4609 0
-4610 4418 0
-4610 4486 0
-4418 -4486 4610 0
-4602 -4603 0
-4602 -4604 0
-4602 -4605 0
-4602 -4606 0
-4602 -4607 0
-4602 -4608 0
-4602 -4609 0
-4602 -4610 0
-4406 4602 4603 4604 4605 4606 4607 4608 4609 4610 0
-4611 4408 0
-4612 4403 0
-4612 4409 0
-4403 -4409 4612 0
-4613 4404 0
-4613 4423 0
-4404 -4423 4613 0
-4614 4406 0
-4614 4432 0
-4406 -4432 4614 0
-4615 4410 0
-4615 4451 0
-4410 -4451 4615 0
-4616 4412 0
-4616 4460 0
-4412 -4460 4616 0
-4617 4414 0
-4617 4469 0
-4414 -4469 4617 0
-4618 4416 0
-4618 4478 0
-4416 -4478 4618 0
-4619 4418 0
-4619 4487 0
-4418 -4487 4619 0
-4611 -4612 0
-4611 -4613 0
-4611 -4614 0
-4611 -4615 0
-4611 -4616 0
-4611 -4617 0
-4611 -4618 0
-4611 -4619 0
-4408 4611 4612 4613 4614 4615 4616 4617 4618 4619 0
-4620 4410 0
-4621 4403 0
-4621 4411 0
-4403 -4411 4621 0
-4622 4404 0
-4622 4424 0
-4404 -4424 4622 0
-4623 4406 0
-4623 4433 0
-4406 -4433 4623 0
-4624 4408 0
-4624 4442 0
-4408 -4442 4624 0
-4625 4412 0
-4625 4461 0
-4412 -4461 4625 0
-4626 4414 0
-4626 4470 0
-4414 -4470 4626 0
-4627 4416 0
-4627 4479 0
-4416 -4479 4627 0
-4628 4418 0
-4628 4488 0
-4418 -4488 4628 0
-4620 -4621 0
-4620 -4622 0
-4620 -4623 0
-4620 -4624 0
-4620 -4625 0
-4620 -4626 0
-4620 -4627 0
-4620 -4628 0
-4410 4620 4621 4622 4623 4624 4625 4626 4627 4628 0
-4629 4412 0
-4630 4403 0
-4630 4413 0
-4403 -4413 4630 0
-4631 4404 0
-4631 4425 0
-4404 -4425 4631 0
-4632 4406 0
-4632 4434 0
-4406 -4434 4632 0
-4633 4408 0
-4633 4443 0
-4408 -4443 4633 0
-4634 4410 0
-4634 4452 0
-4410 -4452 4634 0
-4635 4414 0
-4635 4471 0
-4414 -4471 4635 0
-4636 4416 0
-4636 4480 0
-4416 -4480 4636 0
-4637 4418 0
-4637 4489 0
-4418 -4489 4637 0
-4629 -4630 0
-4629 -4631 0
-4629 -4632 0
-4629 -4633 0
-4629 -4634 0
-4629 -4635 0
-4629 -4636 0
-4629 -4637 0
-4412 4629 4630 4631 4632 4633 4634 4635 4636 4637 0
-4638 4414 0
-4639 4403 0
-4639 4415 0
-4403 -4415 4639 0
-4640 4404 0
-4640 4426 0
-4404 -4426 4640 0
-4641 4406 0
-4641 4435 0
-4406 -4435 4641 0
-4642 4408 0
-4642 4444 0
-4408 -4444 4642 0
-4643 4410 0
-4643 4453 0
-4410 -4453 4643 0
-4644 4412 0
-4644 4462 0
-4412 -4462 4644 0
-4645 4416 0
-4645 4481 0
-4416 -4481 4645 0
-4646 4418 0
-4646 4490 0
-4418 -4490 4646 0
-4638 -4639 0
-4638 -4640 0
-4638 -4641 0
-4638 -4642 0
-4638 -4643 0
-4638 -4644 0
-4638 -4645 0
-4638 -4646 0
-4414 4638 4639 4640 4641 4642 4643 4644 4645 4646 0
-4647 4416 0
-4648 4403 0
-4648 4417 0
-4403 -4417 4648 0
-4649 4404 0
-4649 4427 0
-4404 -4427 4649 0
-4650 4406 0
-4650 4436 0
-4406 -4436 4650 0
-4651 4408 0
-4651 4445 0
-4408 -4445 4651 0
-4652 4410 0
-4652 4454 0
-4410 -4454 4652 0
-4653 4412 0
-4653 4463 0
-4412 -4463 4653 0
-4654 4414 0
-4654 4472 0
-4414 -4472 4654 0
-4655 4418 0
-4655 4491 0
-4418 -4491 4655 0
-4647 -4648 0
-4647 -4649 0
-4647 -4650 0
-4647 -4651 0
-4647 -4652 0
-4647 -4653 0
-4647 -4654 0
-4647 -4655 0
-4416 4647 4648 4649 4650 4651 4652 4653 4654 4655 0
-4656 4418 0
-4657 4403 0
-4657 4419 0
-4403 -4419 4657 0
-4658 4404 0
-4658 4428 0
-4404 -4428 4658 0
-4659 4406 0
-4659 4437 0
-4406 -4437 4659 0
-4660 4408 0
-4660 4446 0
-4408 -4446 4660 0
-4661 4410 0
-4661 4455 0
-4410 -4455 4661 0
-4662 4412 0
-4662 4464 0
-4412 -4464 4662 0
-4663 4414 0
-4663 4473 0
-4414 -4473 4663 0
-4664 4416 0
-4664 4482 0
-4416 -4482 4664 0
-4656 -4657 0
-4656 -4658 0
-4656 -4659 0
-4656 -4660 0
-4656 -4661 0
-4656 -4662 0
-4656 -4663 0
-4656 -4664 0
-4418 4656 4657 4658 4659 4660 4661 4662 4663 4664 0
-4665 4420 0
-4666 4421 0
-4666 4403 0
-4421 -4403 4666 0
-4667 4422 0
-4667 4429 0
-4422 -4429 4667 0
-4668 4423 0
-4668 4438 0
-4423 -4438 4668 0
-4669 4424 0
-4669 4447 0
-4424 -4447 4669 0
-4670 4425 0
-4670 4456 0
-4425 -4456 4670 0
-4671 4426 0
-4671 4465 0
-4426 -4465 4671 0
-4672 4427 0
-4672 4474 0
-4427 -4474 4672 0
-4673 4428 0
-4673 4483 0
-4428 -4483 4673 0
-4665 -4666 0
-4665 -4667 0
-4665 -4668 0
-4665 -4669 0
-4665 -4670 0
-4665 -4671 0
-4665 -4672 0
-4665 -4673 0
-4420 4665 4666 4667 4668 4669 4670 4671 4672 4673 0
-4674 4421 0
-4675 4420 0
-4675 4402 0
-4420 -4402 4675 0
-4676 4422 0
-4676 4430 0
-4422 -4430 4676 0
-4677 4423 0
-4677 4439 0
-4423 -4439 4677 0
-4678 4424 0
-4678 4448 0
-4424 -4448 4678 0
-4679 4425 0
-4679 4457 0
-4425 -4457 4679 0
-4680 4426 0
-4680 4466 0
-4426 -4466 4680 0
-4681 4427 0
-4681 4475 0
-4427 -4475 4681 0
-4682 4428 0
-4682 4484 0
-4428 -4484 4682 0
-4674 -4675 0
-4674 -4676 0
-4674 -4677 0
-4674 -4678 0
-4674 -4679 0
-4674 -4680 0
-4674 -4681 0
-4674 -4682 0
-4421 4674 4675 4676 4677 4678 4679 4680 4681 4682 0
-4683 0
-4684 4422 0
-4685 4420 0
-4685 4407 0
-4420 -4407 4685 0
-4686 4421 0
-4686 4406 0
-4421 -4406 4686 0
-4687 4423 0
-4687 4441 0
-4423 -4441 4687 0
-4688 4424 0
-4688 4450 0
-4424 -4450 4688 0
-4689 4425 0
-4689 4459 0
-4425 -4459 4689 0
-4690 4426 0
-4690 4468 0
-4426 -4468 4690 0
-4691 4427 0
-4691 4477 0
-4427 -4477 4691 0
-4692 4428 0
-4692 4486 0
-4428 -4486 4692 0
-4684 -4685 0
-4684 -4686 0
-4684 -4687 0
-4684 -4688 0
-4684 -4689 0
-4684 -4690 0
-4684 -4691 0
-4684 -4692 0
-4422 4684 4685 4686 4687 4688 4689 4690 4691 4692 0
-4693 4423 0
-4694 4420 0
-4694 4409 0
-4420 -4409 4694 0
-4695 4421 0
-4695 4408 0
-4421 -4408 4695 0
-4696 4422 0
-4696 4432 0
-4422 -4432 4696 0
-4697 4424 0
-4697 4451 0
-4424 -4451 4697 0
-4698 4425 0
-4698 4460 0
-4425 -4460 4698 0
-4699 4426 0
-4699 4469 0
-4426 -4469 4699 0
-4700 4427 0
-4700 4478 0
-4427 -4478 4700 0
-4701 4428 0
-4701 4487 0
-4428 -4487 4701 0
-4693 -4694 0
-4693 -4695 0
-4693 -4696 0
-4693 -4697 0
-4693 -4698 0
-4693 -4699 0
-4693 -4700 0
-4693 -4701 0
-4423 4693 4694 4695 4696 4697 4698 4699 4700 4701 0
-4702 4424 0
-4703 4420 0
-4703 4411 0
-4420 -4411 4703 0
-4704 4421 0
-4704 4410 0
-4421 -4410 4704 0
-4705 4422 0
-4705 4433 0
-4422 -4433 4705 0
-4706 4423 0
-4706 4442 0
-4423 -4442 4706 0
-4707 4425 0
-4707 4461 0
-4425 -4461 4707 0
-4708 4426 0
-4708 4470 0
-4426 -4470 4708 0
-4709 4427 0
-4709 4479 0
-4427 -4479 4709 0
-4710 4428 0
-4710 4488 0
-4428 -4488 4710 0
-4702 -4703 0
-4702 -4704 0
-4702 -4705 0
-4702 -4706 0
-4702 -4707 0
-4702 -4708 0
-4702 -4709 0
-4702 -4710 0
-4424 4702 4703 4704 4705 4706 4707 4708 4709 4710 0
-4711 4425 0
-4712 4420 0
-4712 4413 0
-4420 -4413 4712 0
-4713 4421 0
-4713 4412 0
-4421 -4412 4713 0
-4714 4422 0
-4714 4434 0
-4422 -4434 4714 0
-4715 4423 0
-4715 4443 0
-4423 -4443 4715 0
-4716 4424 0
-4716 4452 0
-4424 -4452 4716 0
-4717 4426 0
-4717 4471 0
-4426 -4471 4717 0
-4718 4427 0
-4718 4480 0
-4427 -4480 4718 0
-4719 4428 0
-4719 4489 0
-4428 -4489 4719 0
-4711 -4712 0
-4711 -4713 0
-4711 -4714 0
-4711 -4715 0
-4711 -4716 0
-4711 -4717 0
-4711 -4718 0
-4711 -4719 0
-4425 4711 4712 4713 4714 4715 4716 4717 4718 4719 0
-4720 4426 0
-4721 4420 0
-4721 4415 0
-4420 -4415 4721 0
-4722 4421 0
-4722 4414 0
-4421 -4414 4722 0
-4723 4422 0
-4723 4435 0
-4422 -4435 4723 0
-4724 4423 0
-4724 4444 0
-4423 -4444 4724 0
-4725 4424 0
-4725 4453 0
-4424 -4453 4725 0
-4726 4425 0
-4726 4462 0
-4425 -4462 4726 0
-4727 4427 0
-4727 4481 0
-4427 -4481 4727 0
-4728 4428 0
-4728 4490 0
-4428 -4490 4728 0
-4720 -4721 0
-4720 -4722 0
-4720 -4723 0
-4720 -4724 0
-4720 -4725 0
-4720 -4726 0
-4720 -4727 0
-4720 -4728 0
-4426 4720 4721 4722 4723 4724 4725 4726 4727 4728 0
-4729 4427 0
-4730 4420 0
-4730 4417 0
-4420 -4417 4730 0
-4731 4421 0
-4731 4416 0
-4421 -4416 4731 0
-4732 4422 0
-4732 4436 0
-4422 -4436 4732 0
-4733 4423 0
-4733 4445 0
-4423 -4445 4733 0
-4734 4424 0
-4734 4454 0
-4424 -4454 4734 0
-4735 4425 0
-4735 4463 0
-4425 -4463 4735 0
-4736 4426 0
-4736 4472 0
-4426 -4472 4736 0
-4737 4428 0
-4737 4491 0
-4428 -4491 4737 0
-4729 -4730 0
-4729 -4731 0
-4729 -4732 0
-4729 -4733 0
-4729 -4734 0
-4729 -4735 0
-4729 -4736 0
-4729 -4737 0
-4427 4729 4730 4731 4732 4733 4734 4735 4736 4737 0
-4738 4428 0
-4739 4420 0
-4739 4419 0
-4420 -4419 4739 0
-4740 4421 0
-4740 4418 0
-4421 -4418 4740 0
-4741 4422 0
-4741 4437 0
-4422 -4437 4741 0
-4742 4423 0
-4742 4446 0
-4423 -4446 4742 0
-4743 4424 0
-4743 4455 0
-4424 -4455 4743 0
-4744 4425 0
-4744 4464 0
-4425 -4464 4744 0
-4745 4426 0
-4745 4473 0
-4426 -4473 4745 0
-4746 4427 0
-4746 4482 0
-4427 -4482 4746 0
-4738 -4739 0
-4738 -4740 0
-4738 -4741 0
-4738 -4742 0
-4738 -4743 0
-4738 -4744 0
-4738 -4745 0
-4738 -4746 0
-4428 4738 4739 4740 4741 4742 4743 4744 4745 4746 0
-4747 4429 0
-4748 4430 0
-4748 4403 0
-4430 -4403 4748 0
-4749 4431 0
-4749 4420 0
-4431 -4420 4749 0
-4750 4432 0
-4750 4438 0
-4432 -4438 4750 0
-4751 4433 0
-4751 4447 0
-4433 -4447 4751 0
-4752 4434 0
-4752 4456 0
-4434 -4456 4752 0
-4753 4435 0
-4753 4465 0
-4435 -4465 4753 0
-4754 4436 0
-4754 4474 0
-4436 -4474 4754 0
-4755 4437 0
-4755 4483 0
-4437 -4483 4755 0
-4747 -4748 0
-4747 -4749 0
-4747 -4750 0
-4747 -4751 0
-4747 -4752 0
-4747 -4753 0
-4747 -4754 0
-4747 -4755 0
-4429 4747 4748 4749 4750 4751 4752 4753 4754 4755 0
-4756 4430 0
-4757 4429 0
-4757 4402 0
-4429 -4402 4757 0
-4758 4431 0
-4758 4421 0
-4431 -4421 4758 0
-4759 4432 0
-4759 4439 0
-4432 -4439 4759 0
-4760 4433 0
-4760 4448 0
-4433 -4448 4760 0
-4761 4434 0
-4761 4457 0
-4434 -4457 4761 0
-4762 4435 0
-4762 4466 0
-4435 -4466 4762 0
-4763 4436 0
-4763 4475 0
-4436 -4475 4763 0
-4764 4437 0
-4764 4484 0
-4437 -4484 4764 0
-4756 -4757 0
-4756 -4758 0
-4756 -4759 0
-4756 -4760 0
-4756 -4761 0
-4756 -4762 0
-4756 -4763 0
-4756 -4764 0
-4430 4756 4757 4758 4759 4760 4761 4762 4763 4764 0
-4765 4431 0
-4766 4429 0
-4766 4405 0
-4429 -4405 4766 0
-4767 4430 0
-4767 4404 0
-4430 -4404 4767 0
-4768 4432 0
-4768 4440 0
-4432 -4440 4768 0
-4769 4433 0
-4769 4449 0
-4433 -4449 4769 0
-4770 4434 0
-4770 4458 0
-4434 -4458 4770 0
-4771 4435 0
-4771 4467 0
-4435 -4467 4771 0
-4772 4436 0
-4772 4476 0
-4436 -4476 4772 0
-4773 4437 0
-4773 4485 0
-4437 -4485 4773 0
-4765 -4766 0
-4765 -4767 0
-4765 -4768 0
-4765 -4769 0
-4765 -4770 0
-4765 -4771 0
-4765 -4772 0
-4765 -4773 0
-4431 4765 4766 4767 4768 4769 4770 4771 4772 4773 0
-4774 0
-4775 4432 0
-4776 4429 0
-4776 4409 0
-4429 -4409 4776 0
-4777 4430 0
-4777 4408 0
-4430 -4408 4777 0
-4778 4431 0
-4778 4423 0
-4431 -4423 4778 0
-4779 4433 0
-4779 4451 0
-4433 -4451 4779 0
-4780 4434 0
-4780 4460 0
-4434 -4460 4780 0
-4781 4435 0
-4781 4469 0
-4435 -4469 4781 0
-4782 4436 0
-4782 4478 0
-4436 -4478 4782 0
-4783 4437 0
-4783 4487 0
-4437 -4487 4783 0
-4775 -4776 0
-4775 -4777 0
-4775 -4778 0
-4775 -4779 0
-4775 -4780 0
-4775 -4781 0
-4775 -4782 0
-4775 -4783 0
-4432 4775 4776 4777 4778 4779 4780 4781 4782 4783 0
-4784 4433 0
-4785 4429 0
-4785 4411 0
-4429 -4411 4785 0
-4786 4430 0
-4786 4410 0
-4430 -4410 4786 0
-4787 4431 0
-4787 4424 0
-4431 -4424 4787 0
-4788 4432 0
-4788 4442 0
-4432 -4442 4788 0
-4789 4434 0
-4789 4461 0
-4434 -4461 4789 0
-4790 4435 0
-4790 4470 0
-4435 -4470 4790 0
-4791 4436 0
-4791 4479 0
-4436 -4479 4791 0
-4792 4437 0
-4792 4488 0
-4437 -4488 4792 0
-4784 -4785 0
-4784 -4786 0
-4784 -4787 0
-4784 -4788 0
-4784 -4789 0
-4784 -4790 0
-4784 -4791 0
-4784 -4792 0
-4433 4784 4785 4786 4787 4788 4789 4790 4791 4792 0
-4793 4434 0
-4794 4429 0
-4794 4413 0
-4429 -4413 4794 0
-4795 4430 0
-4795 4412 0
-4430 -4412 4795 0
-4796 4431 0
-4796 4425 0
-4431 -4425 4796 0
-4797 4432 0
-4797 4443 0
-4432 -4443 4797 0
-4798 4433 0
-4798 4452 0
-4433 -4452 4798 0
-4799 4435 0
-4799 4471 0
-4435 -4471 4799 0
-4800 4436 0
-4800 4480 0
-4436 -4480 4800 0
-4801 4437 0
-4801 4489 0
-4437 -4489 4801 0
-4793 -4794 0
-4793 -4795 0
-4793 -4796 0
-4793 -4797 0
-4793 -4798 0
-4793 -4799 0
-4793 -4800 0
-4793 -4801 0
-4434 4793 4794 4795 4796 4797 4798 4799 4800 4801 0
-4802 4435 0
-4803 4429 0
-4803 4415 0
-4429 -4415 4803 0
-4804 4430 0
-4804 4414 0
-4430 -4414 4804 0
-4805 4431 0
-4805 4426 0
-4431 -4426 4805 0
-4806 4432 0
-4806 4444 0
-4432 -4444 4806 0
-4807 4433 0
-4807 4453 0
-4433 -4453 4807 0
-4808 4434 0
-4808 4462 0
-4434 -4462 4808 0
-4809 4436 0
-4809 4481 0
-4436 -4481 4809 0
-4810 4437 0
-4810 4490 0
-4437 -4490 4810 0
-4802 -4803 0
-4802 -4804 0
-4802 -4805 0
-4802 -4806 0
-4802 -4807 0
-4802 -4808 0
-4802 -4809 0
-4802 -4810 0
-4435 4802 4803 4804 4805 4806 4807 4808 4809 4810 0
-4811 4436 0
-4812 4429 0
-4812 4417 0
-4429 -4417 4812 0
-4813 4430 0
-4813 4416 0
-4430 -4416 4813 0
-4814 4431 0
-4814 4427 0
-4431 -4427 4814 0
-4815 4432 0
-4815 4445 0
-4432 -4445 4815 0
-4816 4433 0
-4816 4454 0
-4433 -4454 4816 0
-4817 4434 0
-4817 4463 0
-4434 -4463 4817 0
-4818 4435 0
-4818 4472 0
-4435 -4472 4818 0
-4819 4437 0
-4819 4491 0
-4437 -4491 4819 0
-4811 -4812 0
-4811 -4813 0
-4811 -4814 0
-4811 -4815 0
-4811 -4816 0
-4811 -4817 0
-4811 -4818 0
-4811 -4819 0
-4436 4811 4812 4813 4814 4815 4816 4817 4818 4819 0
-4820 4437 0
-4821 4429 0
-4821 4419 0
-4429 -4419 4821 0
-4822 4430 0
-4822 4418 0
-4430 -4418 4822 0
-4823 4431 0
-4823 4428 0
-4431 -4428 4823 0
-4824 4432 0
-4824 4446 0
-4432 -4446 4824 0
-4825 4433 0
-4825 4455 0
-4433 -4455 4825 0
-4826 4434 0
-4826 4464 0
-4434 -4464 4826 0
-4827 4435 0
-4827 4473 0
-4435 -4473 4827 0
-4828 4436 0
-4828 4482 0
-4436 -4482 4828 0
-4820 -4821 0
-4820 -4822 0
-4820 -4823 0
-4820 -4824 0
-4820 -4825 0
-4820 -4826 0
-4820 -4827 0
-4820 -4828 0
-4437 4820 4821 4822 4823 4824 4825 4826 4827 4828 0
-4829 4438 0
-4830 4439 0
-4830 4403 0
-4439 -4403 4830 0
-4831 4440 0
-4831 4420 0
-4440 -4420 4831 0
-4832 4441 0
-4832 4429 0
-4441 -4429 4832 0
-4833 4442 0
-4833 4447 0
-4442 -4447 4833 0
-4834 4443 0
-4834 4456 0
-4443 -4456 4834 0
-4835 4444 0
-4835 4465 0
-4444 -4465 4835 0
-4836 4445 0
-4836 4474 0
-4445 -4474 4836 0
-4837 4446 0
-4837 4483 0
-4446 -4483 4837 0
-4829 -4830 0
-4829 -4831 0
-4829 -4832 0
-4829 -4833 0
-4829 -4834 0
-4829 -4835 0
-4829 -4836 0
-4829 -4837 0
-4438 4829 4830 4831 4832 4833 4834 4835 4836 4837 0
-4838 4439 0
-4839 4438 0
-4839 4402 0
-4438 -4402 4839 0
-4840 4440 0
-4840 4421 0
-4440 -4421 4840 0
-4841 4441 0
-4841 4430 0
-4441 -4430 4841 0
-4842 4442 0
-4842 4448 0
-4442 -4448 4842 0
-4843 4443 0
-4843 4457 0
-4443 -4457 4843 0
-4844 4444 0
-4844 4466 0
-4444 -4466 4844 0
-4845 4445 0
-4845 4475 0
-4445 -4475 4845 0
-4846 4446 0
-4846 4484 0
-4446 -4484 4846 0
-4838 -4839 0
-4838 -4840 0
-4838 -4841 0
-4838 -4842 0
-4838 -4843 0
-4838 -4844 0
-4838 -4845 0
-4838 -4846 0
-4439 4838 4839 4840 4841 4842 4843 4844 4845 4846 0
-4847 4440 0
-4848 4438 0
-4848 4405 0
-4438 -4405 4848 0
-4849 4439 0
-4849 4404 0
-4439 -4404 4849 0
-4850 4441 0
-4850 4431 0
-4441 -4431 4850 0
-4851 4442 0
-4851 4449 0
-4442 -4449 4851 0
-4852 4443 0
-4852 4458 0
-4443 -4458 4852 0
-4853 4444 0
-4853 4467 0
-4444 -4467 4853 0
-4854 4445 0
-4854 4476 0
-4445 -4476 4854 0
-4855 4446 0
-4855 4485 0
-4446 -4485 4855 0
-4847 -4848 0
-4847 -4849 0
-4847 -4850 0
-4847 -4851 0
-4847 -4852 0
-4847 -4853 0
-4847 -4854 0
-4847 -4855 0
-4440 4847 4848 4849 4850 4851 4852 4853 4854 4855 0
-4856 4441 0
-4857 4438 0
-4857 4407 0
-4438 -4407 4857 0
-4858 4439 0
-4858 4406 0
-4439 -4406 4858 0
-4859 4440 0
-4859 4422 0
-4440 -4422 4859 0
-4860 4442 0
-4860 4450 0
-4442 -4450 4860 0
-4861 4443 0
-4861 4459 0
-4443 -4459 4861 0
-4862 4444 0
-4862 4468 0
-4444 -4468 4862 0
-4863 4445 0
-4863 4477 0
-4445 -4477 4863 0
-4864 4446 0
-4864 4486 0
-4446 -4486 4864 0
-4856 -4857 0
-4856 -4858 0
-4856 -4859 0
-4856 -4860 0
-4856 -4861 0
-4856 -4862 0
-4856 -4863 0
-4856 -4864 0
-4441 4856 4857 4858 4859 4860 4861 4862 4863 4864 0
-4865 0
-4866 4442 0
-4867 4438 0
-4867 4411 0
-4438 -4411 4867 0
-4868 4439 0
-4868 4410 0
-4439 -4410 4868 0
-4869 4440 0
-4869 4424 0
-4440 -4424 4869 0
-4870 4441 0
-4870 4433 0
-4441 -4433 4870 0
-4871 4443 0
-4871 4461 0
-4443 -4461 4871 0
-4872 4444 0
-4872 4470 0
-4444 -4470 4872 0
-4873 4445 0
-4873 4479 0
-4445 -4479 4873 0
-4874 4446 0
-4874 4488 0
-4446 -4488 4874 0
-4866 -4867 0
-4866 -4868 0
-4866 -4869 0
-4866 -4870 0
-4866 -4871 0
-4866 -4872 0
-4866 -4873 0
-4866 -4874 0
-4442 4866 4867 4868 4869 4870 4871 4872 4873 4874 0
-4875 4443 0
-4876 4438 0
-4876 4413 0
-4438 -4413 4876 0
-4877 4439 0
-4877 4412 0
-4439 -4412 4877 0
-4878 4440 0
-4878 4425 0
-4440 -4425 4878 0
-4879 4441 0
-4879 4434 0
-4441 -4434 4879 0
-4880 4442 0
-4880 4452 0
-4442 -4452 4880 0
-4881 4444 0
-4881 4471 0
-4444 -4471 4881 0
-4882 4445 0
-4882 4480 0
-4445 -4480 4882 0
-4883 4446 0
-4883 4489 0
-4446 -4489 4883 0
-4875 -4876 0
-4875 -4877 0
-4875 -4878 0
-4875 -4879 0
-4875 -4880 0
-4875 -4881 0
-4875 -4882 0
-4875 -4883 0
-4443 4875 4876 4877 4878 4879 4880 4881 4882 4883 0
-4884 4444 0
-4885 4438 0
-4885 4415 0
-4438 -4415 4885 0
-4886 4439 0
-4886 4414 0
-4439 -4414 4886 0
-4887 4440 0
-4887 4426 0
-4440 -4426 4887 0
-4888 4441 0
-4888 4435 0
-4441 -4435 4888 0
-4889 4442 0
-4889 4453 0
-4442 -4453 4889 0
-4890 4443 0
-4890 4462 0
-4443 -4462 4890 0
-4891 4445 0
-4891 4481 0
-4445 -4481 4891 0
-4892 4446 0
-4892 4490 0
-4446 -4490 4892 0
-4884 -4885 0
-4884 -4886 0
-4884 -4887 0
-4884 -4888 0
-4884 -4889 0
-4884 -4890 0
-4884 -4891 0
-4884 -4892 0
-4444 4884 4885 4886 4887 4888 4889 4890 4891 4892 0
-4893 4445 0
-4894 4438 0
-4894 4417 0
-4438 -4417 4894 0
-4895 4439 0
-4895 4416 0
-4439 -4416 4895 0
-4896 4440 0
-4896 4427 0
-4440 -4427 4896 0
-4897 4441 0
-4897 4436 0
-4441 -4436 4897 0
-4898 4442 0
-4898 4454 0
-4442 -4454 4898 0
-4899 4443 0
-4899 4463 0
-4443 -4463 4899 0
-4900 4444 0
-4900 4472 0
-4444 -4472 4900 0
-4901 4446 0
-4901 4491 0
-4446 -4491 4901 0
-4893 -4894 0
-4893 -4895 0
-4893 -4896 0
-4893 -4897 0
-4893 -4898 0
-4893 -4899 0
-4893 -4900 0
-4893 -4901 0
-4445 4893 4894 4895 4896 4897 4898 4899 4900 4901 0
-4902 4446 0
-4903 4438 0
-4903 4419 0
-4438 -4419 4903 0
-4904 4439 0
-4904 4418 0
-4439 -4418 4904 0
-4905 4440 0
-4905 4428 0
-4440 -4428 4905 0
-4906 4441 0
-4906 4437 0
-4441 -4437 4906 0
-4907 4442 0
-4907 4455 0
-4442 -4455 4907 0
-4908 4443 0
-4908 4464 0
-4443 -4464 4908 0
-4909 4444 0
-4909 4473 0
-4444 -4473 4909 0
-4910 4445 0
-4910 4482 0
-4445 -4482 4910 0
-4902 -4903 0
-4902 -4904 0
-4902 -4905 0
-4902 -4906 0
-4902 -4907 0
-4902 -4908 0
-4902 -4909 0
-4902 -4910 0
-4446 4902 4903 4904 4905 4906 4907 4908 4909 4910 0
-4911 4447 0
-4912 4448 0
-4912 4403 0
-4448 -4403 4912 0
-4913 4449 0
-4913 4420 0
-4449 -4420 4913 0
-4914 4450 0
-4914 4429 0
-4450 -4429 4914 0
-4915 4451 0
-4915 4438 0
-4451 -4438 4915 0
-4916 4452 0
-4916 4456 0
-4452 -4456 4916 0
-4917 4453 0
-4917 4465 0
-4453 -4465 4917 0
-4918 4454 0
-4918 4474 0
-4454 -4474 4918 0
-4919 4455 0
-4919 4483 0
-4455 -4483 4919 0
-4911 -4912 0
-4911 -4913 0
-4911 -4914 0
-4911 -4915 0
-4911 -4916 0
-4911 -4917 0
-4911 -4918 0
-4911 -4919 0
-4447 4911 4912 4913 4914 4915 4916 4917 4918 4919 0
-4920 4448 0
-4921 4447 0
-4921 4402 0
-4447 -4402 4921 0
-4922 4449 0
-4922 4421 0
-4449 -4421 4922 0
-4923 4450 0
-4923 4430 0
-4450 -4430 4923 0
-4924 4451 0
-4924 4439 0
-4451 -4439 4924 0
-4925 4452 0
-4925 4457 0
-4452 -4457 4925 0
-4926 4453 0
-4926 4466 0
-4453 -4466 4926 0
-4927 4454 0
-4927 4475 0
-4454 -4475 4927 0
-4928 4455 0
-4928 4484 0
-4455 -4484 4928 0
-4920 -4921 0
-4920 -4922 0
-4920 -4923 0
-4920 -4924 0
-4920 -4925 0
-4920 -4926 0
-4920 -4927 0
-4920 -4928 0
-4448 4920 4921 4922 4923 4924 4925 4926 4927 4928 0
-4929 4449 0
-4930 4447 0
-4930 4405 0
-4447 -4405 4930 0
-4931 4448 0
-4931 4404 0
-4448 -4404 4931 0
-4932 4450 0
-4932 4431 0
-4450 -4431 4932 0
-4933 4451 0
-4933 4440 0
-4451 -4440 4933 0
-4934 4452 0
-4934 4458 0
-4452 -4458 4934 0
-4935 4453 0
-4935 4467 0
-4453 -4467 4935 0
-4936 4454 0
-4936 4476 0
-4454 -4476 4936 0
-4937 4455 0
-4937 4485 0
-4455 -4485 4937 0
-4929 -4930 0
-4929 -4931 0
-4929 -4932 0
-4929 -4933 0
-4929 -4934 0
-4929 -4935 0
-4929 -4936 0
-4929 -4937 0
-4449 4929 4930 4931 4932 4933 4934 4935 4936 4937 0
-4938 4450 0
-4939 4447 0
-4939 4407 0
-4447 -4407 4939 0
-4940 4448 0
-4940 4406 0
-4448 -4406 4940 0
-4941 4449 0
-4941 4422 0
-4449 -4422 4941 0
-4942 4451 0
-4942 4441 0
-4451 -4441 4942 0
-4943 4452 0
-4943 4459 0
-4452 -4459 4943 0
-4944 4453 0
-4944 4468 0
-4453 -4468 4944 0
-4945 4454 0
-4945 4477 0
-4454 -4477 4945 0
-4946 4455 0
-4946 4486 0
-4455 -4486 4946 0
-4938 -4939 0
-4938 -4940 0
-4938 -4941 0
-4938 -4942 0
-4938 -4943 0
-4938 -4944 0
-4938 -4945 0
-4938 -4946 0
-4450 4938 4939 4940 4941 4942 4943 4944 4945 4946 0
-4947 4451 0
-4948 4447 0
-4948 4409 0
-4447 -4409 4948 0
-4949 4448 0
-4949 4408 0
-4448 -4408 4949 0
-4950 4449 0
-4950 4423 0
-4449 -4423 4950 0
-4951 4450 0
-4951 4432 0
-4450 -4432 4951 0
-4952 4452 0
-4952 4460 0
-4452 -4460 4952 0
-4953 4453 0
-4953 4469 0
-4453 -4469 4953 0
-4954 4454 0
-4954 4478 0
-4454 -4478 4954 0
-4955 4455 0
-4955 4487 0
-4455 -4487 4955 0
-4947 -4948 0
-4947 -4949 0
-4947 -4950 0
-4947 -4951 0
-4947 -4952 0
-4947 -4953 0
-4947 -4954 0
-4947 -4955 0
-4451 4947 4948 4949 4950 4951 4952 4953 4954 4955 0
-4956 0
-4957 4452 0
-4958 4447 0
-4958 4413 0
-4447 -4413 4958 0
-4959 4448 0
-4959 4412 0
-4448 -4412 4959 0
-4960 4449 0
-4960 4425 0
-4449 -4425 4960 0
-4961 4450 0
-4961 4434 0
-4450 -4434 4961 0
-4962 4451 0
-4962 4443 0
-4451 -4443 4962 0
-4963 4453 0
-4963 4471 0
-4453 -4471 4963 0
-4964 4454 0
-4964 4480 0
-4454 -4480 4964 0
-4965 4455 0
-4965 4489 0
-4455 -4489 4965 0
-4957 -4958 0
-4957 -4959 0
-4957 -4960 0
-4957 -4961 0
-4957 -4962 0
-4957 -4963 0
-4957 -4964 0
-4957 -4965 0
-4452 4957 4958 4959 4960 4961 4962 4963 4964 4965 0
-4966 4453 0
-4967 4447 0
-4967 4415 0
-4447 -4415 4967 0
-4968 4448 0
-4968 4414 0
-4448 -4414 4968 0
-4969 4449 0
-4969 4426 0
-4449 -4426 4969 0
-4970 4450 0
-4970 4435 0
-4450 -4435 4970 0
-4971 4451 0
-4971 4444 0
-4451 -4444 4971 0
-4972 4452 0
-4972 4462 0
-4452 -4462 4972 0
-4973 4454 0
-4973 4481 0
-4454 -4481 4973 0
-4974 4455 0
-4974 4490 0
-4455 -4490 4974 0
-4966 -4967 0
-4966 -4968 0
-4966 -4969 0
-4966 -4970 0
-4966 -4971 0
-4966 -4972 0
-4966 -4973 0
-4966 -4974 0
-4453 4966 4967 4968 4969 4970 4971 4972 4973 4974 0
-4975 4454 0
-4976 4447 0
-4976 4417 0
-4447 -4417 4976 0
-4977 4448 0
-4977 4416 0
-4448 -4416 4977 0
-4978 4449 0
-4978 4427 0
-4449 -4427 4978 0
-4979 4450 0
-4979 4436 0
-4450 -4436 4979 0
-4980 4451 0
-4980 4445 0
-4451 -4445 4980 0
-4981 4452 0
-4981 4463 0
-4452 -4463 4981 0
-4982 4453 0
-4982 4472 0
-4453 -4472 4982 0
-4983 4455 0
-4983 4491 0
-4455 -4491 4983 0
-4975 -4976 0
-4975 -4977 0
-4975 -4978 0
-4975 -4979 0
-4975 -4980 0
-4975 -4981 0
-4975 -4982 0
-4975 -4983 0
-4454 4975 4976 4977 4978 4979 4980 4981 4982 4983 0
-4984 4455 0
-4985 4447 0
-4985 4419 0
-4447 -4419 4985 0
-4986 4448 0
-4986 4418 0
-4448 -4418 4986 0
-4987 4449 0
-4987 4428 0
-4449 -4428 4987 0
-4988 4450 0
-4988 4437 0
-4450 -4437 4988 0
-4989 4451 0
-4989 4446 0
-4451 -4446 4989 0
-4990 4452 0
-4990 4464 0
-4452 -4464 4990 0
-4991 4453 0
-4991 4473 0
-4453 -4473 4991 0
-4992 4454 0
-4992 4482 0
-4454 -4482 4992 0
-4984 -4985 0
-4984 -4986 0
-4984 -4987 0
-4984 -4988 0
-4984 -4989 0
-4984 -4990 0
-4984 -4991 0
-4984 -4992 0
-4455 4984 4985 4986 4987 4988 4989 4990 4991 4992 0
-4993 4456 0
-4994 4457 0
-4994 4403 0
-4457 -4403 4994 0
-4995 4458 0
-4995 4420 0
-4458 -4420 4995 0
-4996 4459 0
-4996 4429 0
-4459 -4429 4996 0
-4997 4460 0
-4997 4438 0
-4460 -4438 4997 0
-4998 4461 0
-4998 4447 0
-4461 -4447 4998 0
-4999 4462 0
-4999 4465 0
-4462 -4465 4999 0
-5000 4463 0
-5000 4474 0
-4463 -4474 5000 0
-5001 4464 0
-5001 4483 0
-4464 -4483 5001 0
-4993 -4994 0
-4993 -4995 0
-4993 -4996 0
-4993 -4997 0
-4993 -4998 0
-4993 -4999 0
-4993 -5000 0
-4993 -5001 0
-4456 4993 4994 4995 4996 4997 4998 4999 5000 5001 0
-5002 4457 0
-5003 4456 0
-5003 4402 0
-4456 -4402 5003 0
-5004 4458 0
-5004 4421 0
-4458 -4421 5004 0
-5005 4459 0
-5005 4430 0
-4459 -4430 5005 0
-5006 4460 0
-5006 4439 0
-4460 -4439 5006 0
-5007 4461 0
-5007 4448 0
-4461 -4448 5007 0
-5008 4462 0
-5008 4466 0
-4462 -4466 5008 0
-5009 4463 0
-5009 4475 0
-4463 -4475 5009 0
-5010 4464 0
-5010 4484 0
-4464 -4484 5010 0
-5002 -5003 0
-5002 -5004 0
-5002 -5005 0
-5002 -5006 0
-5002 -5007 0
-5002 -5008 0
-5002 -5009 0
-5002 -5010 0
-4457 5002 5003 5004 5005 5006 5007 5008 5009 5010 0
-5011 4458 0
-5012 4456 0
-5012 4405 0
-4456 -4405 5012 0
-5013 4457 0
-5013 4404 0
-4457 -4404 5013 0
-5014 4459 0
-5014 4431 0
-4459 -4431 5014 0
-5015 4460 0
-5015 4440 0
-4460 -4440 5015 0
-5016 4461 0
-5016 4449 0
-4461 -4449 5016 0
-5017 4462 0
-5017 4467 0
-4462 -4467 5017 0
-5018 4463 0
-5018 4476 0
-4463 -4476 5018 0
-5019 4464 0
-5019 4485 0
-4464 -4485 5019 0
-5011 -5012 0
-5011 -5013 0
-5011 -5014 0
-5011 -5015 0
-5011 -5016 0
-5011 -5017 0
-5011 -5018 0
-5011 -5019 0
-4458 5011 5012 5013 5014 5015 5016 5017 5018 5019 0
-5020 4459 0
-5021 4456 0
-5021 4407 0
-4456 -4407 5021 0
-5022 4457 0
-5022 4406 0
-4457 -4406 5022 0
-5023 4458 0
-5023 4422 0
-4458 -4422 5023 0
-5024 4460 0
-5024 4441 0
-4460 -4441 5024 0
-5025 4461 0
-5025 4450 0
-4461 -4450 5025 0
-5026 4462 0
-5026 4468 0
-4462 -4468 5026 0
-5027 4463 0
-5027 4477 0
-4463 -4477 5027 0
-5028 4464 0
-5028 4486 0
-4464 -4486 5028 0
-5020 -5021 0
-5020 -5022 0
-5020 -5023 0
-5020 -5024 0
-5020 -5025 0
-5020 -5026 0
-5020 -5027 0
-5020 -5028 0
-4459 5020 5021 5022 5023 5024 5025 5026 5027 5028 0
-5029 4460 0
-5030 4456 0
-5030 4409 0
-4456 -4409 5030 0
-5031 4457 0
-5031 4408 0
-4457 -4408 5031 0
-5032 4458 0
-5032 4423 0
-4458 -4423 5032 0
-5033 4459 0
-5033 4432 0
-4459 -4432 5033 0
-5034 4461 0
-5034 4451 0
-4461 -4451 5034 0
-5035 4462 0
-5035 4469 0
-4462 -4469 5035 0
-5036 4463 0
-5036 4478 0
-4463 -4478 5036 0
-5037 4464 0
-5037 4487 0
-4464 -4487 5037 0
-5029 -5030 0
-5029 -5031 0
-5029 -5032 0
-5029 -5033 0
-5029 -5034 0
-5029 -5035 0
-5029 -5036 0
-5029 -5037 0
-4460 5029 5030 5031 5032 5033 5034 5035 5036 5037 0
-5038 4461 0
-5039 4456 0
-5039 4411 0
-4456 -4411 5039 0
-5040 4457 0
-5040 4410 0
-4457 -4410 5040 0
-5041 4458 0
-5041 4424 0
-4458 -4424 5041 0
-5042 4459 0
-5042 4433 0
-4459 -4433 5042 0
-5043 4460 0
-5043 4442 0
-4460 -4442 5043 0
-5044 4462 0
-5044 4470 0
-4462 -4470 5044 0
-5045 4463 0
-5045 4479 0
-4463 -4479 5045 0
-5046 4464 0
-5046 4488 0
-4464 -4488 5046 0
-5038 -5039 0
-5038 -5040 0
-5038 -5041 0
-5038 -5042 0
-5038 -5043 0
-5038 -5044 0
-5038 -5045 0
-5038 -5046 0
-4461 5038 5039 5040 5041 5042 5043 5044 5045 5046 0
-5047 0
-5048 4462 0
-5049 4456 0
-5049 4415 0
-4456 -4415 5049 0
-5050 4457 0
-5050 4414 0
-4457 -4414 5050 0
-5051 4458 0
-5051 4426 0
-4458 -4426 5051 0
-5052 4459 0
-5052 4435 0
-4459 -4435 5052 0
-5053 4460 0
-5053 4444 0
-4460 -4444 5053 0
-5054 4461 0
-5054 4453 0
-4461 -4453 5054 0
-5055 4463 0
-5055 4481 0
-4463 -4481 5055 0
-5056 4464 0
-5056 4490 0
-4464 -4490 5056 0
-5048 -5049 0
-5048 -5050 0
-5048 -5051 0
-5048 -5052 0
-5048 -5053 0
-5048 -5054 0
-5048 -5055 0
-5048 -5056 0
-4462 5048 5049 5050 5051 5052 5053 5054 5055 5056 0
-5057 4463 0
-5058 4456 0
-5058 4417 0
-4456 -4417 5058 0
-5059 4457 0
-5059 4416 0
-4457 -4416 5059 0
-5060 4458 0
-5060 4427 0
-4458 -4427 5060 0
-5061 4459 0
-5061 4436 0
-4459 -4436 5061 0
-5062 4460 0
-5062 4445 0
-4460 -4445 5062 0
-5063 4461 0
-5063 4454 0
-4461 -4454 5063 0
-5064 4462 0
-5064 4472 0
-4462 -4472 5064 0
-5065 4464 0
-5065 4491 0
-4464 -4491 5065 0
-5057 -5058 0
-5057 -5059 0
-5057 -5060 0
-5057 -5061 0
-5057 -5062 0
-5057 -5063 0
-5057 -5064 0
-5057 -5065 0
-4463 5057 5058 5059 5060 5061 5062 5063 5064 5065 0
-5066 4464 0
-5067 4456 0
-5067 4419 0
-4456 -4419 5067 0
-5068 4457 0
-5068 4418 0
-4457 -4418 5068 0
-5069 4458 0
-5069 4428 0
-4458 -4428 5069 0
-5070 4459 0
-5070 4437 0
-4459 -4437 5070 0
-5071 4460 0
-5071 4446 0
-4460 -4446 5071 0
-5072 4461 0
-5072 4455 0
-4461 -4455 5072 0
-5073 4462 0
-5073 4473 0
-4462 -4473 5073 0
-5074 4463 0
-5074 4482 0
-4463 -4482 5074 0
-5066 -5067 0
-5066 -5068 0
-5066 -5069 0
-5066 -5070 0
-5066 -5071 0
-5066 -5072 0
-5066 -5073 0
-5066 -5074 0
-4464 5066 5067 5068 5069 5070 5071 5072 5073 5074 0
-5075 4465 0
-5076 4466 0
-5076 4403 0
-4466 -4403 5076 0
-5077 4467 0
-5077 4420 0
-4467 -4420 5077 0
-5078 4468 0
-5078 4429 0
-4468 -4429 5078 0
-5079 4469 0
-5079 4438 0
-4469 -4438 5079 0
-5080 4470 0
-5080 4447 0
-4470 -4447 5080 0
-5081 4471 0
-5081 4456 0
-4471 -4456 5081 0
-5082 4472 0
-5082 4474 0
-4472 -4474 5082 0
-5083 4473 0
-5083 4483 0
-4473 -4483 5083 0
-5075 -5076 0
-5075 -5077 0
-5075 -5078 0
-5075 -5079 0
-5075 -5080 0
-5075 -5081 0
-5075 -5082 0
-5075 -5083 0
-4465 5075 5076 5077 5078 5079 5080 5081 5082 5083 0
-5084 4466 0
-5085 4465 0
-5085 4402 0
-4465 -4402 5085 0
-5086 4467 0
-5086 4421 0
-4467 -4421 5086 0
-5087 4468 0
-5087 4430 0
-4468 -4430 5087 0
-5088 4469 0
-5088 4439 0
-4469 -4439 5088 0
-5089 4470 0
-5089 4448 0
-4470 -4448 5089 0
-5090 4471 0
-5090 4457 0
-4471 -4457 5090 0
-5091 4472 0
-5091 4475 0
-4472 -4475 5091 0
-5092 4473 0
-5092 4484 0
-4473 -4484 5092 0
-5084 -5085 0
-5084 -5086 0
-5084 -5087 0
-5084 -5088 0
-5084 -5089 0
-5084 -5090 0
-5084 -5091 0
-5084 -5092 0
-4466 5084 5085 5086 5087 5088 5089 5090 5091 5092 0
-5093 4467 0
-5094 4465 0
-5094 4405 0
-4465 -4405 5094 0
-5095 4466 0
-5095 4404 0
-4466 -4404 5095 0
-5096 4468 0
-5096 4431 0
-4468 -4431 5096 0
-5097 4469 0
-5097 4440 0
-4469 -4440 5097 0
-5098 4470 0
-5098 4449 0
-4470 -4449 5098 0
-5099 4471 0
-5099 4458 0
-4471 -4458 5099 0
-5100 4472 0
-5100 4476 0
-4472 -4476 5100 0
-5101 4473 0
-5101 4485 0
-4473 -4485 5101 0
-5093 -5094 0
-5093 -5095 0
-5093 -5096 0
-5093 -5097 0
-5093 -5098 0
-5093 -5099 0
-5093 -5100 0
-5093 -5101 0
-4467 5093 5094 5095 5096 5097 5098 5099 5100 5101 0
-5102 4468 0
-5103 4465 0
-5103 4407 0
-4465 -4407 5103 0
-5104 4466 0
-5104 4406 0
-4466 -4406 5104 0
-5105 4467 0
-5105 4422 0
-4467 -4422 5105 0
-5106 4469 0
-5106 4441 0
-4469 -4441 5106 0
-5107 4470 0
-5107 4450 0
-4470 -4450 5107 0
-5108 4471 0
-5108 4459 0
-4471 -4459 5108 0
-5109 4472 0
-5109 4477 0
-4472 -4477 5109 0
-5110 4473 0
-5110 4486 0
-4473 -4486 5110 0
-5102 -5103 0
-5102 -5104 0
-5102 -5105 0
-5102 -5106 0
-5102 -5107 0
-5102 -5108 0
-5102 -5109 0
-5102 -5110 0
-4468 5102 5103 5104 5105 5106 5107 5108 5109 5110 0
-5111 4469 0
-5112 4465 0
-5112 4409 0
-4465 -4409 5112 0
-5113 4466 0
-5113 4408 0
-4466 -4408 5113 0
-5114 4467 0
-5114 4423 0
-4467 -4423 5114 0
-5115 4468 0
-5115 4432 0
-4468 -4432 5115 0
-5116 4470 0
-5116 4451 0
-4470 -4451 5116 0
-5117 4471 0
-5117 4460 0
-4471 -4460 5117 0
-5118 4472 0
-5118 4478 0
-4472 -4478 5118 0
-5119 4473 0
-5119 4487 0
-4473 -4487 5119 0
-5111 -5112 0
-5111 -5113 0
-5111 -5114 0
-5111 -5115 0
-5111 -5116 0
-5111 -5117 0
-5111 -5118 0
-5111 -5119 0
-4469 5111 5112 5113 5114 5115 5116 5117 5118 5119 0
-5120 4470 0
-5121 4465 0
-5121 4411 0
-4465 -4411 5121 0
-5122 4466 0
-5122 4410 0
-4466 -4410 5122 0
-5123 4467 0
-5123 4424 0
-4467 -4424 5123 0
-5124 4468 0
-5124 4433 0
-4468 -4433 5124 0
-5125 4469 0
-5125 4442 0
-4469 -4442 5125 0
-5126 4471 0
-5126 4461 0
-4471 -4461 5126 0
-5127 4472 0
-5127 4479 0
-4472 -4479 5127 0
-5128 4473 0
-5128 4488 0
-4473 -4488 5128 0
-5120 -5121 0
-5120 -5122 0
-5120 -5123 0
-5120 -5124 0
-5120 -5125 0
-5120 -5126 0
-5120 -5127 0
-5120 -5128 0
-4470 5120 5121 5122 5123 5124 5125 5126 5127 5128 0
-5129 4471 0
-5130 4465 0
-5130 4413 0
-4465 -4413 5130 0
-5131 4466 0
-5131 4412 0
-4466 -4412 5131 0
-5132 4467 0
-5132 4425 0
-4467 -4425 5132 0
-5133 4468 0
-5133 4434 0
-4468 -4434 5133 0
-5134 4469 0
-5134 4443 0
-4469 -4443 5134 0
-5135 4470 0
-5135 4452 0
-4470 -4452 5135 0
-5136 4472 0
-5136 4480 0
-4472 -4480 5136 0
-5137 4473 0
-5137 4489 0
-4473 -4489 5137 0
-5129 -5130 0
-5129 -5131 0
-5129 -5132 0
-5129 -5133 0
-5129 -5134 0
-5129 -5135 0
-5129 -5136 0
-5129 -5137 0
-4471 5129 5130 5131 5132 5133 5134 5135 5136 5137 0
-5138 0
-5139 4472 0
-5140 4465 0
-5140 4417 0
-4465 -4417 5140 0
-5141 4466 0
-5141 4416 0
-4466 -4416 5141 0
-5142 4467 0
-5142 4427 0
-4467 -4427 5142 0
-5143 4468 0
-5143 4436 0
-4468 -4436 5143 0
-5144 4469 0
-5144 4445 0
-4469 -4445 5144 0
-5145 4470 0
-5145 4454 0
-4470 -4454 5145 0
-5146 4471 0
-5146 4463 0
-4471 -4463 5146 0
-5147 4473 0
-5147 4491 0
-4473 -4491 5147 0
-5139 -5140 0
-5139 -5141 0
-5139 -5142 0
-5139 -5143 0
-5139 -5144 0
-5139 -5145 0
-5139 -5146 0
-5139 -5147 0
-4472 5139 5140 5141 5142 5143 5144 5145 5146 5147 0
-5148 4473 0
-5149 4465 0
-5149 4419 0
-4465 -4419 5149 0
-5150 4466 0
-5150 4418 0
-4466 -4418 5150 0
-5151 4467 0
-5151 4428 0
-4467 -4428 5151 0
-5152 4468 0
-5152 4437 0
-4468 -4437 5152 0
-5153 4469 0
-5153 4446 0
-4469 -4446 5153 0
-5154 4470 0
-5154 4455 0
-4470 -4455 5154 0
-5155 4471 0
-5155 4464 0
-4471 -4464 5155 0
-5156 4472 0
-5156 4482 0
-4472 -4482 5156 0
-5148 -5149 0
-5148 -5150 0
-5148 -5151 0
-5148 -5152 0
-5148 -5153 0
-5148 -5154 0
-5148 -5155 0
-5148 -5156 0
-4473 5148 5149 5150 5151 5152 5153 5154 5155 5156 0
-5157 4474 0
-5158 4475 0
-5158 4403 0
-4475 -4403 5158 0
-5159 4476 0
-5159 4420 0
-4476 -4420 5159 0
-5160 4477 0
-5160 4429 0
-4477 -4429 5160 0
-5161 4478 0
-5161 4438 0
-4478 -4438 5161 0
-5162 4479 0
-5162 4447 0
-4479 -4447 5162 0
-5163 4480 0
-5163 4456 0
-4480 -4456 5163 0
-5164 4481 0
-5164 4465 0
-4481 -4465 5164 0
-5165 4482 0
-5165 4483 0
-4482 -4483 5165 0
-5157 -5158 0
-5157 -5159 0
-5157 -5160 0
-5157 -5161 0
-5157 -5162 0
-5157 -5163 0
-5157 -5164 0
-5157 -5165 0
-4474 5157 5158 5159 5160 5161 5162 5163 5164 5165 0
-5166 4475 0
-5167 4474 0
-5167 4402 0
-4474 -4402 5167 0
-5168 4476 0
-5168 4421 0
-4476 -4421 5168 0
-5169 4477 0
-5169 4430 0
-4477 -4430 5169 0
-5170 4478 0
-5170 4439 0
-4478 -4439 5170 0
-5171 4479 0
-5171 4448 0
-4479 -4448 5171 0
-5172 4480 0
-5172 4457 0
-4480 -4457 5172 0
-5173 4481 0
-5173 4466 0
-4481 -4466 5173 0
-5174 4482 0
-5174 4484 0
-4482 -4484 5174 0
-5166 -5167 0
-5166 -5168 0
-5166 -5169 0
-5166 -5170 0
-5166 -5171 0
-5166 -5172 0
-5166 -5173 0
-5166 -5174 0
-4475 5166 5167 5168 5169 5170 5171 5172 5173 5174 0
-5175 4476 0
-5176 4474 0
-5176 4405 0
-4474 -4405 5176 0
-5177 4475 0
-5177 4404 0
-4475 -4404 5177 0
-5178 4477 0
-5178 4431 0
-4477 -4431 5178 0
-5179 4478 0
-5179 4440 0
-4478 -4440 5179 0
-5180 4479 0
-5180 4449 0
-4479 -4449 5180 0
-5181 4480 0
-5181 4458 0
-4480 -4458 5181 0
-5182 4481 0
-5182 4467 0
-4481 -4467 5182 0
-5183 4482 0
-5183 4485 0
-4482 -4485 5183 0
-5175 -5176 0
-5175 -5177 0
-5175 -5178 0
-5175 -5179 0
-5175 -5180 0
-5175 -5181 0
-5175 -5182 0
-5175 -5183 0
-4476 5175 5176 5177 5178 5179 5180 5181 5182 5183 0
-5184 4477 0
-5185 4474 0
-5185 4407 0
-4474 -4407 5185 0
-5186 4475 0
-5186 4406 0
-4475 -4406 5186 0
-5187 4476 0
-5187 4422 0
-4476 -4422 5187 0
-5188 4478 0
-5188 4441 0
-4478 -4441 5188 0
-5189 4479 0
-5189 4450 0
-4479 -4450 5189 0
-5190 4480 0
-5190 4459 0
-4480 -4459 5190 0
-5191 4481 0
-5191 4468 0
-4481 -4468 5191 0
-5192 4482 0
-5192 4486 0
-4482 -4486 5192 0
-5184 -5185 0
-5184 -5186 0
-5184 -5187 0
-5184 -5188 0
-5184 -5189 0
-5184 -5190 0
-5184 -5191 0
-5184 -5192 0
-4477 5184 5185 5186 5187 5188 5189 5190 5191 5192 0
-5193 4478 0
-5194 4474 0
-5194 4409 0
-4474 -4409 5194 0
-5195 4475 0
-5195 4408 0
-4475 -4408 5195 0
-5196 4476 0
-5196 4423 0
-4476 -4423 5196 0
-5197 4477 0
-5197 4432 0
-4477 -4432 5197 0
-5198 4479 0
-5198 4451 0
-4479 -4451 5198 0
-5199 4480 0
-5199 4460 0
-4480 -4460 5199 0
-5200 4481 0
-5200 4469 0
-4481 -4469 5200 0
-5201 4482 0
-5201 4487 0
-4482 -4487 5201 0
-5193 -5194 0
-5193 -5195 0
-5193 -5196 0
-5193 -5197 0
-5193 -5198 0
-5193 -5199 0
-5193 -5200 0
-5193 -5201 0
-4478 5193 5194 5195 5196 5197 5198 5199 5200 5201 0
-5202 4479 0
-5203 4474 0
-5203 4411 0
-4474 -4411 5203 0
-5204 4475 0
-5204 4410 0
-4475 -4410 5204 0
-5205 4476 0
-5205 4424 0
-4476 -4424 5205 0
-5206 4477 0
-5206 4433 0
-4477 -4433 5206 0
-5207 4478 0
-5207 4442 0
-4478 -4442 5207 0
-5208 4480 0
-5208 4461 0
-4480 -4461 5208 0
-5209 4481 0
-5209 4470 0
-4481 -4470 5209 0
-5210 4482 0
-5210 4488 0
-4482 -4488 5210 0
-5202 -5203 0
-5202 -5204 0
-5202 -5205 0
-5202 -5206 0
-5202 -5207 0
-5202 -5208 0
-5202 -5209 0
-5202 -5210 0
-4479 5202 5203 5204 5205 5206 5207 5208 5209 5210 0
-5211 4480 0
-5212 4474 0
-5212 4413 0
-4474 -4413 5212 0
-5213 4475 0
-5213 4412 0
-4475 -4412 5213 0
-5214 4476 0
-5214 4425 0
-4476 -4425 5214 0
-5215 4477 0
-5215 4434 0
-4477 -4434 5215 0
-5216 4478 0
-5216 4443 0
-4478 -4443 5216 0
-5217 4479 0
-5217 4452 0
-4479 -4452 5217 0
-5218 4481 0
-5218 4471 0
-4481 -4471 5218 0
-5219 4482 0
-5219 4489 0
-4482 -4489 5219 0
-5211 -5212 0
-5211 -5213 0
-5211 -5214 0
-5211 -5215 0
-5211 -5216 0
-5211 -5217 0
-5211 -5218 0
-5211 -5219 0
-4480 5211 5212 5213 5214 5215 5216 5217 5218 5219 0
-5220 4481 0
-5221 4474 0
-5221 4415 0
-4474 -4415 5221 0
-5222 4475 0
-5222 4414 0
-4475 -4414 5222 0
-5223 4476 0
-5223 4426 0
-4476 -4426 5223 0
-5224 4477 0
-5224 4435 0
-4477 -4435 5224 0
-5225 4478 0
-5225 4444 0
-4478 -4444 5225 0
-5226 4479 0
-5226 4453 0
-4479 -4453 5226 0
-5227 4480 0
-5227 4462 0
-4480 -4462 5227 0
-5228 4482 0
-5228 4490 0
-4482 -4490 5228 0
-5220 -5221 0
-5220 -5222 0
-5220 -5223 0
-5220 -5224 0
-5220 -5225 0
-5220 -5226 0
-5220 -5227 0
-5220 -5228 0
-4481 5220 5221 5222 5223 5224 5225 5226 5227 5228 0
-5229 0
-5230 4482 0
-5231 4474 0
-5231 4419 0
-4474 -4419 5231 0
-5232 4475 0
-5232 4418 0
-4475 -4418 5232 0
-5233 4476 0
-5233 4428 0
-4476 -4428 5233 0
-5234 4477 0
-5234 4437 0
-4477 -4437 5234 0
-5235 4478 0
-5235 4446 0
-4478 -4446 5235 0
-5236 4479 0
-5236 4455 0
-4479 -4455 5236 0
-5237 4480 0
-5237 4464 0
-4480 -4464 5237 0
-5238 4481 0
-5238 4473 0
-4481 -4473 5238 0
-5230 -5231 0
-5230 -5232 0
-5230 -5233 0
-5230 -5234 0
-5230 -5235 0
-5230 -5236 0
-5230 -5237 0
-5230 -5238 0
-4482 5230 5231 5232 5233 5234 5235 5236 5237 5238 0
-5239 4483 0
-5240 4484 0
-5240 4403 0
-4484 -4403 5240 0
-5241 4485 0
-5241 4420 0
-4485 -4420 5241 0
-5242 4486 0
-5242 4429 0
-4486 -4429 5242 0
-5243 4487 0
-5243 4438 0
-4487 -4438 5243 0
-5244 4488 0
-5244 4447 0
-4488 -4447 5244 0
-5245 4489 0
-5245 4456 0
-4489 -4456 5245 0
-5246 4490 0
-5246 4465 0
-4490 -4465 5246 0
-5247 4491 0
-5247 4474 0
-4491 -4474 5247 0
-5239 -5240 0
-5239 -5241 0
-5239 -5242 0
-5239 -5243 0
-5239 -5244 0
-5239 -5245 0
-5239 -5246 0
-5239 -5247 0
-4483 5239 5240 5241 5242 5243 5244 5245 5246 5247 0
-5248 4484 0
-5249 4483 0
-5249 4402 0
-4483 -4402 5249 0
-5250 4485 0
-5250 4421 0
-4485 -4421 5250 0
-5251 4486 0
-5251 4430 0
-4486 -4430 5251 0
-5252 4487 0
-5252 4439 0
-4487 -4439 5252 0
-5253 4488 0
-5253 4448 0
-4488 -4448 5253 0
-5254 4489 0
-5254 4457 0
-4489 -4457 5254 0
-5255 4490 0
-5255 4466 0
-4490 -4466 5255 0
-5256 4491 0
-5256 4475 0
-4491 -4475 5256 0
-5248 -5249 0
-5248 -5250 0
-5248 -5251 0
-5248 -5252 0
-5248 -5253 0
-5248 -5254 0
-5248 -5255 0
-5248 -5256 0
-4484 5248 5249 5250 5251 5252 5253 5254 5255 5256 0
-5257 4485 0
-5258 4483 0
-5258 4405 0
-4483 -4405 5258 0
-5259 4484 0
-5259 4404 0
-4484 -4404 5259 0
-5260 4486 0
-5260 4431 0
-4486 -4431 5260 0
-5261 4487 0
-5261 4440 0
-4487 -4440 5261 0
-5262 4488 0
-5262 4449 0
-4488 -4449 5262 0
-5263 4489 0
-5263 4458 0
-4489 -4458 5263 0
-5264 4490 0
-5264 4467 0
-4490 -4467 5264 0
-5265 4491 0
-5265 4476 0
-4491 -4476 5265 0
-5257 -5258 0
-5257 -5259 0
-5257 -5260 0
-5257 -5261 0
-5257 -5262 0
-5257 -5263 0
-5257 -5264 0
-5257 -5265 0
-4485 5257 5258 5259 5260 5261 5262 5263 5264 5265 0
-5266 4486 0
-5267 4483 0
-5267 4407 0
-4483 -4407 5267 0
-5268 4484 0
-5268 4406 0
-4484 -4406 5268 0
-5269 4485 0
-5269 4422 0
-4485 -4422 5269 0
-5270 4487 0
-5270 4441 0
-4487 -4441 5270 0
-5271 4488 0
-5271 4450 0
-4488 -4450 5271 0
-5272 4489 0
-5272 4459 0
-4489 -4459 5272 0
-5273 4490 0
-5273 4468 0
-4490 -4468 5273 0
-5274 4491 0
-5274 4477 0
-4491 -4477 5274 0
-5266 -5267 0
-5266 -5268 0
-5266 -5269 0
-5266 -5270 0
-5266 -5271 0
-5266 -5272 0
-5266 -5273 0
-5266 -5274 0
-4486 5266 5267 5268 5269 5270 5271 5272 5273 5274 0
-5275 4487 0
-5276 4483 0
-5276 4409 0
-4483 -4409 5276 0
-5277 4484 0
-5277 4408 0
-4484 -4408 5277 0
-5278 4485 0
-5278 4423 0
-4485 -4423 5278 0
-5279 4486 0
-5279 4432 0
-4486 -4432 5279 0
-5280 4488 0
-5280 4451 0
-4488 -4451 5280 0
-5281 4489 0
-5281 4460 0
-4489 -4460 5281 0
-5282 4490 0
-5282 4469 0
-4490 -4469 5282 0
-5283 4491 0
-5283 4478 0
-4491 -4478 5283 0
-5275 -5276 0
-5275 -5277 0
-5275 -5278 0
-5275 -5279 0
-5275 -5280 0
-5275 -5281 0
-5275 -5282 0
-5275 -5283 0
-4487 5275 5276 5277 5278 5279 5280 5281 5282 5283 0
-5284 4488 0
-5285 4483 0
-5285 4411 0
-4483 -4411 5285 0
-5286 4484 0
-5286 4410 0
-4484 -4410 5286 0
-5287 4485 0
-5287 4424 0
-4485 -4424 5287 0
-5288 4486 0
-5288 4433 0
-4486 -4433 5288 0
-5289 4487 0
-5289 4442 0
-4487 -4442 5289 0
-5290 4489 0
-5290 4461 0
-4489 -4461 5290 0
-5291 4490 0
-5291 4470 0
-4490 -4470 5291 0
-5292 4491 0
-5292 4479 0
-4491 -4479 5292 0
-5284 -5285 0
-5284 -5286 0
-5284 -5287 0
-5284 -5288 0
-5284 -5289 0
-5284 -5290 0
-5284 -5291 0
-5284 -5292 0
-4488 5284 5285 5286 5287 5288 5289 5290 5291 5292 0
-5293 4489 0
-5294 4483 0
-5294 4413 0
-4483 -4413 5294 0
-5295 4484 0
-5295 4412 0
-4484 -4412 5295 0
-5296 4485 0
-5296 4425 0
-4485 -4425 5296 0
-5297 4486 0
-5297 4434 0
-4486 -4434 5297 0
-5298 4487 0
-5298 4443 0
-4487 -4443 5298 0
-5299 4488 0
-5299 4452 0
-4488 -4452 5299 0
-5300 4490 0
-5300 4471 0
-4490 -4471 5300 0
-5301 4491 0
-5301 4480 0
-4491 -4480 5301 0
-5293 -5294 0
-5293 -5295 0
-5293 -5296 0
-5293 -5297 0
-5293 -5298 0
-5293 -5299 0
-5293 -5300 0
-5293 -5301 0
-4489 5293 5294 5295 5296 5297 5298 5299 5300 5301 0
-5302 4490 0
-5303 4483 0
-5303 4415 0
-4483 -4415 5303 0
-5304 4484 0
-5304 4414 0
-4484 -4414 5304 0
-5305 4485 0
-5305 4426 0
-4485 -4426 5305 0
-5306 4486 0
-5306 4435 0
-4486 -4435 5306 0
-5307 4487 0
-5307 4444 0
-4487 -4444 5307 0
-5308 4488 0
-5308 4453 0
-4488 -4453 5308 0
-5309 4489 0
-5309 4462 0
-4489 -4462 5309 0
-5310 4491 0
-5310 4481 0
-4491 -4481 5310 0
-5302 -5303 0
-5302 -5304 0
-5302 -5305 0
-5302 -5306 0
-5302 -5307 0
-5302 -5308 0
-5302 -5309 0
-5302 -5310 0
-4490 5302 5303 5304 5305 5306 5307 5308 5309 5310 0
-5311 4491 0
-5312 4483 0
-5312 4417 0
-4483 -4417 5312 0
-5313 4484 0
-5313 4416 0
-4484 -4416 5313 0
-5314 4485 0
-5314 4427 0
-4485 -4427 5314 0
-5315 4486 0
-5315 4436 0
-4486 -4436 5315 0
-5316 4487 0
-5316 4445 0
-4487 -4445 5316 0
-5317 4488 0
-5317 4454 0
-4488 -4454 5317 0
-5318 4489 0
-5318 4463 0
-4489 -4463 5318 0
-5319 4490 0
-5319 4472 0
-4490 -4472 5319 0
-5311 -5312 0
-5311 -5313 0
-5311 -5314 0
-5311 -5315 0
-5311 -5316 0
-5311 -5317 0
-5311 -5318 0
-5311 -5319 0
-4491 5311 5312 5313 5314 5315 5316 5317 5318 5319 0
-5320 0
-5321 4401 0
-5321 4402 0
-5321 4405 0
-5321 4407 0
-5321 4409 0
-5321 4411 0
-5321 4413 0
-5321 4415 0
-5321 4417 0
-5321 4419 0
-4401 -4402 -4405 -4407 -4409 -4411 -4413 -4415 -4417 -4419 5321 0
-5322 4401 0
-5322 4403 0
-5322 4420 0
-5322 4429 0
-5322 4438 0
-5322 4447 0
-5322 4456 0
-5322 4465 0
-5322 4474 0
-5322 4483 0
-4401 -4403 -4420 -4429 -4438 -4447 -4456 -4465 -4474 -4483 5322 0
-5323 4403 0
-5323 4492 0
-5323 4404 0
-5323 4406 0
-5323 4408 0
-5323 4410 0
-5323 4412 0
-5323 4414 0
-5323 4416 0
-5323 4418 0
-4403 -4492 -4404 -4406 -4408 -4410 -4412 -4414 -4416 -4418 5323 0
-5324 4402 0
-5324 4492 0
-5324 4421 0
-5324 4430 0
-5324 4439 0
-5324 4448 0
-5324 4457 0
-5324 4466 0
-5324 4475 0
-5324 4484 0
-4402 -4492 -4421 -4430 -4439 -4448 -4457 -4466 -4475 -4484 5324 0
-5325 4420 0
-5325 4421 0
-5325 4493 0
-5325 4422 0
-5325 4423 0
-5325 4424 0
-5325 4425 0
-5325 4426 0
-5325 4427 0
-5325 4428 0
-4420 -4421 -4493 -4422 -4423 -4424 -4425 -4426 -4427 -4428 5325 0
-5326 4405 0
-5326 4404 0
-5326 4493 0
-5326 4431 0
-5326 4440 0
-5326 4449 0
-5326 4458 0
-5326 4467 0
-5326 4476 0
-5326 4485 0
-4405 -4404 -4493 -4431 -4440 -4449 -4458 -4467 -4476 -4485 5326 0
-5327 4429 0
-5327 4430 0
-5327 4431 0
-5327 4494 0
-5327 4432 0
-5327 4433 0
-5327 4434 0
-5327 4435 0
-5327 4436 0
-5327 4437 0
-4429 -4430 -4431 -4494 -4432 -4433 -4434 -4435 -4436 -4437 5327 0
-5328 4407 0
-5328 4406 0
-5328 4422 0
-5328 4494 0
-5328 4441 0
-5328 4450 0
-5328 4459 0
-5328 4468 0
-5328 4477 0
-5328 4486 0
-4407 -4406 -4422 -4494 -4441 -4450 -4459 -4468 -4477 -4486 5328 0
-5329 4438 0
-5329 4439 0
-5329 4440 0
-5329 4441 0
-5329 4495 0
-5329 4442 0
-5329 4443 0
-5329 4444 0
-5329 4445 0
-5329 4446 0
-4438 -4439 -4440 -4441 -4495 -4442 -4443 -4444 -4445 -4446 5329 0
-5330 4409 0
-5330 4408 0
-5330 4423 0
-5330 4432 0
-5330 4495 0
-5330 4451 0
-5330 4460 0
-5330 4469 0
-5330 4478 0
-5330 4487 0
-4409 -4408 -4423 -4432 -4495 -4451 -4460 -4469 -4478 -4487 5330 0
-5331 4447 0
-5331 4448 0
-5331 4449 0
-5331 4450 0
-5331 4451 0
-5331 4496 0
-5331 4452 0
-5331 4453 0
-5331 4454 0
-5331 4455 0
-4447 -4448 -4449 -4450 -4451 -4496 -4452 -4453 -4454 -4455 5331 0
-5332 4411 0
-5332 4410 0
-5332 4424 0
-5332 4433 0
-5332 4442 0
-5332 4496 0
-5332 4461 0
-5332 4470 0
-5332 4479 0
-5332 4488 0
-4411 -4410 -4424 -4433 -4442 -4496 -4461 -4470 -4479 -4488 5332 0
-5333 4456 0
-5333 4457 0
-5333 4458 0
-5333 4459 0
-5333 4460 0
-5333 4461 0
-5333 4497 0
-5333 4462 0
-5333 4463 0
-5333 4464 0
-4456 -4457 -4458 -4459 -4460 -4461 -4497 -4462 -4463 -4464 5333 0
-5334 4413 0
-5334 4412 0
-5334 4425 0
-5334 4434 0
-5334 4443 0
-5334 4452 0
-5334 4497 0
-5334 4471 0
-5334 4480 0
-5334 4489 0
-4413 -4412 -4425 -4434 -4443 -4452 -4497 -4471 -4480 -4489 5334 0
-5335 4465 0
-5335 4466 0
-5335 4467 0
-5335 4468 0
-5335 4469 0
-5335 4470 0
-5335 4471 0
-5335 4498 0
-5335 4472 0
-5335 4473 0
-4465 -4466 -4467 -4468 -4469 -4470 -4471 -4498 -4472 -4473 5335 0
-5336 4415 0
-5336 4414 0
-5336 4426 0
-5336 4435 0
-5336 4444 0
-5336 4453 0
-5336 4462 0
-5336 4498 0
-5336 4481 0
-5336 4490 0
-4415 -4414 -4426 -4435 -4444 -4453 -4462 -4498 -4481 -4490 5336 0
-5337 4474 0
-5337 4475 0
-5337 4476 0
-5337 4477 0
-5337 4478 0
-5337 4479 0
-5337 4480 0
-5337 4481 0
-5337 4499 0
-5337 4482 0
-4474 -4475 -4476 -4477 -4478 -4479 -4480 -4481 -4499 -4482 5337 0
-5338 4417 0
-5338 4416 0
-5338 4427 0
-5338 4436 0
-5338 4445 0
-5338 4454 0
-5338 4463 0
-5338 4472 0
-5338 4499 0
-5338 4491 0
-4417 -4416 -4427 -4436 -4445 -4454 -4463 -4472 -4499 -4491 5338 0
-5339 4483 0
-5339 4484 0
-5339 4485 0
-5339 4486 0
-5339 4487 0
-5339 4488 0
-5339 4489 0
-5339 4490 0
-5339 4491 0
-5339 4500 0
-4483 -4484 -4485 -4486 -4487 -4488 -4489 -4490 -4491 -4500 5339 0
-5340 4419 0
-5340 4418 0
-5340 4428 0
-5340 4437 0
-5340 4446 0
-5340 4455 0
-5340 4464 0
-5340 4473 0
-5340 4482 0
-5340 4500 0
-4419 -4418 -4428 -4437 -4446 -4455 -4464 -4473 -4482 -4500 5340 0
-4501 11 0
-5322 -5321 11 0
-11 4501 5322 0
-11 4501 5321 0
-4502 13 0
-5322 -5323 13 0
-13 4502 5322 0
-13 4502 5323 0
-4511 15 0
-5322 -5325 15 0
-15 4511 5322 0
-15 4511 5325 0
-4520 17 0
-5322 -5327 17 0
-17 4520 5322 0
-17 4520 5327 0
-4529 19 0
-5322 -5329 19 0
-19 4529 5322 0
-19 4529 5329 0
-4538 21 0
-5322 -5331 21 0
-21 4538 5322 0
-21 4538 5331 0
-4547 23 0
-5322 -5333 23 0
-23 4547 5322 0
-23 4547 5333 0
-4556 25 0
-5322 -5335 25 0
-25 4556 5322 0
-25 4556 5335 0
-4565 27 0
-5322 -5337 27 0
-27 4565 5322 0
-27 4565 5337 0
-4574 29 0
-5322 -5339 29 0
-29 4574 5322 0
-29 4574 5339 0
-4583 31 0
-5324 -5321 31 0
-31 4583 5324 0
-31 4583 5321 0
-4592 32 0
-5324 -5323 32 0
-32 4592 5324 0
-32 4592 5323 0
-4593 34 0
-5324 -5325 34 0
-34 4593 5324 0
-34 4593 5325 0
-4602 36 0
-5324 -5327 36 0
-36 4602 5324 0
-36 4602 5327 0
-4611 38 0
-5324 -5329 38 0
-38 4611 5324 0
-38 4611 5329 0
-4620 40 0
-5324 -5331 40 0
-40 4620 5324 0
-40 4620 5331 0
-4629 42 0
-5324 -5333 42 0
-42 4629 5324 0
-42 4629 5333 0
-4638 44 0
-5324 -5335 44 0
-44 4638 5324 0
-44 4638 5335 0
-4647 46 0
-5324 -5337 46 0
-46 4647 5324 0
-46 4647 5337 0
-4656 48 0
-5324 -5339 48 0
-48 4656 5324 0
-48 4656 5339 0
-4665 50 0
-5326 -5321 50 0
-50 4665 5326 0
-50 4665 5321 0
-4674 52 0
-5326 -5323 52 0
-52 4674 5326 0
-52 4674 5323 0
-4683 53 0
-5326 -5325 53 0
-53 4683 5326 0
-53 4683 5325 0
-4684 55 0
-5326 -5327 55 0
-55 4684 5326 0
-55 4684 5327 0
-4693 57 0
-5326 -5329 57 0
-57 4693 5326 0
-57 4693 5329 0
-4702 59 0
-5326 -5331 59 0
-59 4702 5326 0
-59 4702 5331 0
-4711 61 0
-5326 -5333 61 0
-61 4711 5326 0
-61 4711 5333 0
-4720 63 0
-5326 -5335 63 0
-63 4720 5326 0
-63 4720 5335 0
-4729 65 0
-5326 -5337 65 0
-65 4729 5326 0
-65 4729 5337 0
-4738 67 0
-5326 -5339 67 0
-67 4738 5326 0
-67 4738 5339 0
-4747 69 0
-5328 -5321 69 0
-69 4747 5328 0
-69 4747 5321 0
-4756 71 0
-5328 -5323 71 0
-71 4756 5328 0
-71 4756 5323 0
-4765 73 0
-5328 -5325 73 0
-73 4765 5328 0
-73 4765 5325 0
-4774 74 0
-5328 -5327 74 0
-74 4774 5328 0
-74 4774 5327 0
-4775 76 0
-5328 -5329 76 0
-76 4775 5328 0
-76 4775 5329 0
-4784 78 0
-5328 -5331 78 0
-78 4784 5328 0
-78 4784 5331 0
-4793 80 0
-5328 -5333 80 0
-80 4793 5328 0
-80 4793 5333 0
-4802 82 0
-5328 -5335 82 0
-82 4802 5328 0
-82 4802 5335 0
-4811 84 0
-5328 -5337 84 0
-84 4811 5328 0
-84 4811 5337 0
-4820 86 0
-5328 -5339 86 0
-86 4820 5328 0
-86 4820 5339 0
-4829 88 0
-5330 -5321 88 0
-88 4829 5330 0
-88 4829 5321 0
-4838 90 0
-5330 -5323 90 0
-90 4838 5330 0
-90 4838 5323 0
-4847 92 0
-5330 -5325 92 0
-92 4847 5330 0
-92 4847 5325 0
-4856 94 0
-5330 -5327 94 0
-94 4856 5330 0
-94 4856 5327 0
-4865 95 0
-5330 -5329 95 0
-95 4865 5330 0
-95 4865 5329 0
-4866 97 0
-5330 -5331 97 0
-97 4866 5330 0
-97 4866 5331 0
-4875 99 0
-5330 -5333 99 0
-99 4875 5330 0
-99 4875 5333 0
-4884 101 0
-5330 -5335 101 0
-101 4884 5330 0
-101 4884 5335 0
-4893 103 0
-5330 -5337 103 0
-103 4893 5330 0
-103 4893 5337 0
-4902 105 0
-5330 -5339 105 0
-105 4902 5330 0
-105 4902 5339 0
-4911 107 0
-5332 -5321 107 0
-107 4911 5332 0
-107 4911 5321 0
-4920 109 0
-5332 -5323 109 0
-109 4920 5332 0
-109 4920 5323 0
-4929 111 0
-5332 -5325 111 0
-111 4929 5332 0
-111 4929 5325 0
-4938 113 0
-5332 -5327 113 0
-113 4938 5332 0
-113 4938 5327 0
-4947 115 0
-5332 -5329 115 0
-115 4947 5332 0
-115 4947 5329 0
-4956 116 0
-5332 -5331 116 0
-116 4956 5332 0
-116 4956 5331 0
-4957 118 0
-5332 -5333 118 0
-118 4957 5332 0
-118 4957 5333 0
-4966 120 0
-5332 -5335 120 0
-120 4966 5332 0
-120 4966 5335 0
-4975 122 0
-5332 -5337 122 0
-122 4975 5332 0
-122 4975 5337 0
-4984 124 0
-5332 -5339 124 0
-124 4984 5332 0
-124 4984 5339 0
-4993 126 0
-5334 -5321 126 0
-126 4993 5334 0
-126 4993 5321 0
-5002 128 0
-5334 -5323 128 0
-128 5002 5334 0
-128 5002 5323 0
-5011 130 0
-5334 -5325 130 0
-130 5011 5334 0
-130 5011 5325 0
-5020 132 0
-5334 -5327 132 0
-132 5020 5334 0
-132 5020 5327 0
-5029 134 0
-5334 -5329 134 0
-134 5029 5334 0
-134 5029 5329 0
-5038 136 0
-5334 -5331 136 0
-136 5038 5334 0
-136 5038 5331 0
-5047 137 0
-5334 -5333 137 0
-137 5047 5334 0
-137 5047 5333 0
-5048 139 0
-5334 -5335 139 0
-139 5048 5334 0
-139 5048 5335 0
-5057 141 0
-5334 -5337 141 0
-141 5057 5334 0
-141 5057 5337 0
-5066 143 0
-5334 -5339 143 0
-143 5066 5334 0
-143 5066 5339 0
-5075 145 0
-5336 -5321 145 0
-145 5075 5336 0
-145 5075 5321 0
-5084 147 0
-5336 -5323 147 0
-147 5084 5336 0
-147 5084 5323 0
-5093 149 0
-5336 -5325 149 0
-149 5093 5336 0
-149 5093 5325 0
-5102 151 0
-5336 -5327 151 0
-151 5102 5336 0
-151 5102 5327 0
-5111 153 0
-5336 -5329 153 0
-153 5111 5336 0
-153 5111 5329 0
-5120 155 0
-5336 -5331 155 0
-155 5120 5336 0
-155 5120 5331 0
-5129 157 0
-5336 -5333 157 0
-157 5129 5336 0
-157 5129 5333 0
-5138 158 0
-5336 -5335 158 0
-158 5138 5336 0
-158 5138 5335 0
-5139 160 0
-5336 -5337 160 0
-160 5139 5336 0
-160 5139 5337 0
-5148 162 0
-5336 -5339 162 0
-162 5148 5336 0
-162 5148 5339 0
-5157 164 0
-5338 -5321 164 0
-164 5157 5338 0
-164 5157 5321 0
-5166 166 0
-5338 -5323 166 0
-166 5166 5338 0
-166 5166 5323 0
-5175 168 0
-5338 -5325 168 0
-168 5175 5338 0
-168 5175 5325 0
-5184 170 0
-5338 -5327 170 0
-170 5184 5338 0
-170 5184 5327 0
-5193 172 0
-5338 -5329 172 0
-172 5193 5338 0
-172 5193 5329 0
-5202 174 0
-5338 -5331 174 0
-174 5202 5338 0
-174 5202 5331 0
-5211 176 0
-5338 -5333 176 0
-176 5211 5338 0
-176 5211 5333 0
-5220 178 0
-5338 -5335 178 0
-178 5220 5338 0
-178 5220 5335 0
-5229 179 0
-5338 -5337 179 0
-179 5229 5338 0
-179 5229 5337 0
-5230 181 0
-5338 -5339 181 0
-181 5230 5338 0
-181 5230 5339 0
-5239 183 0
-5340 -5321 183 0
-183 5239 5340 0
-183 5239 5321 0
-5248 185 0
-5340 -5323 185 0
-185 5248 5340 0
-185 5248 5323 0
-5257 187 0
-5340 -5325 187 0
-187 5257 5340 0
-187 5257 5325 0
-5266 189 0
-5340 -5327 189 0
-189 5266 5340 0
-189 5266 5327 0
-5275 191 0
-5340 -5329 191 0
-191 5275 5340 0
-191 5275 5329 0
-5284 193 0
-5340 -5331 193 0
-193 5284 5340 0
-193 5284 5331 0
-5293 195 0
-5340 -5333 195 0
-195 5293 5340 0
-195 5293 5333 0
-5302 197 0
-5340 -5335 197 0
-197 5302 5340 0
-197 5302 5335 0
-5311 199 0
-5340 -5337 199 0
-199 5311 5340 0
-199 5311 5337 0
-5320 200 0
-5340 -5339 200 0
-200 5320 5340 0
-200 5320 5339 0
