p cnf 15932 39158
c ind 1 2 3 4 5 6 7 8 9 10 11 12 13 14 15 16 17 18 19 20 21 22 23 24 25 26 27 28 29 30 31 32 33 34 35 36 37 38 39 40 41 42 43 44 45 46 47 48 49 50 0
c ind 51 52 53 54 55 56 57 58 59 60 61 62 63 64 65 66 67 68 69 70 71 72 73 74 75 76 77 78 79 80 81 82 83 84 85 86 87 88 89 90 91 92 93 94 95 96 97 98 99 100 0
c ind 101 102 103 104 105 106 107 108 109 110 111 112 113 114 115 116 117 118 119 120 121 122 123 124 125 126 127 128 129 130 131 132 133 134 135 136 137 138 139 140 141 142 143 144 145 146 147 148 149 150 0
c ind 151 152 153 154 155 156 157 158 159 160 161 162 163 164 165 166 167 168 169 170 171 172 173 174 175 176 177 178 179 180 181 182 183 184 185 186 187 188 189 190 191 192 193 194 195 196 197 198 199 200 0
c ind 201 202 203 204 205 206 207 208 209 210 211 212 213 214 215 216 217 218 219 220 221 222 223 224 225 226 227 228 229 230 231 232 233 234 235 236 237 238 239 240 241 242 243 244 245 246 247 248 249 250 0
c ind 251 252 253 254 255 256 257 258 259 260 261 262 263 264 265 266 267 268 269 270 271 272 273 274 275 276 277 278 279 280 281 282 283 284 285 286 287 288 289 290 291 292 293 294 295 296 297 298 299 300 0
c ind 301 302 303 304 305 306 307 308 309 310 311 312 313 314 315 316 317 318 319 320 321 322 323 324 325 326 327 328 329 330 331 332 333 334 335 336 337 338 339 340 341 342 343 344 345 346 347 348 349 350 0
c ind 351 352 353 354 355 356 357 358 359 360 361 362 363 364 365 366 367 368 369 370 371 372 373 374 375 376 377 378 379 380 381 382 383 384 385 386 387 388 389 390 391 392 13329 13330 13331 13332 13333 13334 13335 13336 0
c ind 13337 13338 13339 13340 13341 13342 13343 13344 13345 13346 13347 13348 13349 13350 13351 13352 13353 13354 13355 13356 13357 13358 13359 13360 13361 13362 13363 13364 13365 13366 13367 13368 13369 13370 13371 13372 13373 13374 13375 13376 13377 13378 13379 13380 13381 13382 13383 13384 13385 13386 0
c ind 13387 13388 13389 13390 13391 13392 13393 13394 13395 13396 13397 13398 13399 13400 13401 13402 13403 13404 13405 13406 13407 13408 13409 13410 13411 13412 13413 13414 13415 13416 13417 13418 13419 13420 13421 13422 13423 13424 13425 13426 13427 13428 13429 13430 13431 13432 13433 13434 13435 13436 0
c ind 13437 13438 13439 13440 13441 13442 13443 13444 13445 13446 13447 13448 13449 13450 13451 13452 13453 13454 13455 13456 13457 13458 13459 13460 13461 13462 13463 13464 13465 13466 13467 13468 13469 13470 13471 13472 13473 13474 13475 13476 13477 13478 13479 13480 13481 13482 13483 13484 13485 13486 0
c ind 13487 13488 13489 13490 13491 13492 13493 13494 13495 13496 13497 13498 13499 13500 13501 13502 13503 13504 13505 13506 13507 13508 13509 13510 13511 13512 13513 13514 13515 13516 13517 13518 13519 13520 13521 13522 13523 13524 13525 13526 13527 13528 13529 13530 13531 13532 13533 13534 13535 13536 0
c ind 13537 13538 13539 13540 13541 13542 13543 13544 13545 13546 13547 13548 13549 13550 13551 13552 13553 13554 13555 13556 13557 13558 13559 13560 13561 13562 13563 13564 13565 13566 13567 13568 13569 13570 13571 13572 13573 13574 13575 13576 13577 13578 13579 13580 13581 13582 13583 13584 13585 13586 0
c ind 13587 13588 13589 13590 13591 13592 13593 13594 13595 13596 13597 13598 13599 13600 13601 13602 13603 13604 13605 13606 13607 13608 13609 13610 13611 13612 13613 13614 13615 13616 13617 13618 13619 13620 13621 13622 13623 13624 13625 13626 13627 13628 13629 13630 13631 13632 13633 13634 13635 13636 0
c ind 13637 13638 13639 13640 13641 13642 13643 13644 13645 13646 13647 13648 13649 13650 13651 13652 13653 13654 13655 13656 13657 13658 13659 13660 13661 13662 13663 13664 13665 13666 13667 13668 13669 13670 13671 13672 13673 13674 13675 13676 13677 13678 13679 13680 13681 13682 13683 13684 13685 13686 0
c ind 13687 13688 13689 13690 13691 13692 13693 13694 13695 13696 13697 13698 13699 13700 13701 13702 13703 13704 13705 13706 13707 13708 13709 13710 13711 13712 13713 13714 13715 13716 13717 13718 13719 13720 13721 13722 13723 13724 13725 13726 13727 13728 13729 13730 13731 13732 13733 13734 13735 13736 0
c ind 13737 13738 13739 13740 13741 13742 13743 13744 13745 13746 13747 13748 13749 13750 13751 13752 13753 13754 13755 13756 13757 13758 13759 13760 13761 13762 13763 13764 13765 13766 13767 13768 13769 13770 13771 13772 13773 13774 13775 13776 13777 13778 13779 13780 13781 13782 13783 13784 13785 13786 0
c ind 13787 13788 13789 13790 13791 13792 13793 13794 13795 13796 13797 13798 13799 13800 13801 13802 13803 13804 13805 13806 13807 13808 13809 13810 13811 13812 13813 13814 13815 13816 13817 13818 13819 13820 13821 13822 13823 13824 13825 13826 13827 13828 13829 13830 13831 13832 13833 13834 13835 13836 0
c ind 13837 13838 13839 13840 13841 13842 13843 13844 13845 13846 13847 13848 13849 13850 13851 13852 13853 13854 13855 13856 13857 13858 13859 13860 13861 13862 13863 13864 13865 13866 13867 13868 13869 13870 13871 13872 13873 13874 13875 13876 13877 13878 13879 13880 13881 13882 13883 13884 13885 13886 0
c ind 13887 13888 13889 13890 13891 13892 13893 13894 13895 13896 13897 13898 13899 13900 13901 13902 13903 13904 13905 13906 13907 13908 13909 13910 13911 13912 13913 13914 13915 13916 13917 13918 13919 13920 13921 13922 13923 13924 13925 13926 13927 13928 13929 13930 13931 13932 13933 13934 13935 13936 0
c ind 13937 13938 13939 13940 13941 13942 13943 13944 13945 13946 13947 13948 13949 13950 13951 13952 13953 13954 13955 13956 13957 13958 13959 13960 13961 13962 13963 13964 13965 13966 13967 13968 13969 13970 13971 13972 13973 13974 13975 13976 13977 13978 13979 13980 13981 13982 13983 13984 13985 13986 0
c ind 13987 13988 13989 13990 13991 13992 13993 13994 13995 13996 13997 13998 13999 14000 14001 14002 14003 14004 14005 14006 14007 14008 14009 14010 14011 14012 14013 14014 14015 14016 14017 14018 14019 14020 14021 14022 14023 14024 14025 14026 14027 14028 14029 14030 14031 14032 14033 14034 14035 14036 0
c ind 14037 14038 14039 14040 14041 14042 14043 14044 14045 14046 14047 14048 14049 14050 14051 14052 14053 14054 14055 14056 14057 14058 14059 14060 14061 14062 14063 14064 14065 14066 14067 14068 14069 14070 14071 14072 14073 14074 14075 14076 14077 14078 14079 14080 14081 14082 14083 14084 14085 14086 0
c ind 14087 14088 14089 14090 14091 14092 14093 14094 14095 14096 14097 14098 14099 14100 14101 14102 14103 14104 14105 14106 14107 14108 14109 14110 14111 14112 14113 14114 14115 14116 14117 14118 14119 14120 14121 14122 14123 14124 14125 14126 14127 14128 14129 14130 14131 14132 14133 14134 14135 14136 0
c ind 14137 14138 14139 14140 14141 14142 14143 14144 14145 14146 14147 14148 14149 14150 14151 14152 14153 14154 14155 14156 14157 14158 14159 14160 14161 14162 14163 14164 14165 14166 14167 14168 14169 14170 14171 14172 14173 14174 14175 14176 14177 14178 14179 14180 14181 14182 14183 14184 14185 14186 0
c ind 14187 14188 14189 14190 14191 14192 14193 14194 14195 14196 14197 14198 14199 14200 14201 14202 14203 14204 14205 14206 14207 14208 14209 14210 14211 14212 14213 14214 14215 14216 14217 14218 14219 14220 14221 14222 14223 14224 14225 14226 14227 14228 14229 14230 14231 14232 14233 14234 14235 14236 0
c ind 14237 14238 14239 14240 14241 14242 14243 14244 14245 14246 14247 14248 14249 14250 14251 14252 14253 14254 14255 14256 14257 14258 14259 14260 14261 14262 14263 14264 14265 14266 14267 14268 14269 14270 14271 14272 14273 14274 14275 14276 14277 14278 14279 14280 14281 14282 14283 14284 14285 14286 0
c ind 14287 14288 14289 14290 14291 14292 14293 14294 14295 14296 14297 14298 14299 14300 14301 14302 14303 14304 14305 14306 14307 14308 14309 14310 14311 14312 14313 14314 14315 14316 14317 14318 14319 14320 14321 14322 14323 14324 14325 14326 14327 14328 14329 14330 14331 14332 14333 14334 14335 14336 0
c ind 14337 14338 14339 14340 14341 14342 14343 14344 14345 14346 14347 14348 14349 14350 14351 14352 14353 14354 14355 14356 14357 14358 14359 14360 14361 14362 14363 14364 14365 14366 14367 14368 14369 14370 14371 14372 14373 14374 14375 14376 14377 14378 14379 14380 14381 14382 14383 14384 14385 14386 0
c ind 14387 14388 14389 14390 14391 14392 14393 14394 14395 14396 14397 14398 14399 14400 14401 14402 14403 14404 14405 14406 14407 14408 14409 14410 14411 14412 14413 14414 14415 14416 14417 14418 14419 14420 14421 14422 14423 14424 14425 14426 14427 14428 14429 14430 14431 14432 14433 14434 14435 14436 0
c ind 14437 14438 14439 14440 14441 14442 14443 14444 14445 14446 14447 14448 14449 14450 14451 14452 14453 14454 14455 14456 14457 14458 14459 14460 14461 14462 14463 14464 14465 14466 14467 14468 14469 14470 14471 14472 14473 14474 14475 14476 14477 14478 14479 14480 14481 14482 14483 14484 14485 14486 0
c ind 14487 14488 14489 14490 14491 14492 14493 14494 14495 14496 14497 14498 14499 14500 14501 14502 14503 14504 14505 14506 14507 14508 14509 14510 14511 14512 14513 14514 14515 14516 14517 14518 14519 14520 14521 14522 14523 14524 14525 14526 14527 14528 14529 14530 14531 14532 14533 14534 14535 14536 0
c ind 14537 14538 14539 14540 14541 14542 14543 14544 14545 14546 14547 14548 14549 14550 14551 14552 14553 14554 14555 14556 14557 14558 14559 14560 14561 14562 14563 14564 14565 14566 14567 14568 14569 14570 14571 14572 14573 14574 14575 14576 14577 14578 14579 14580 14581 14582 14583 14584 14585 14586 0
c ind 14587 14588 14589 14590 14591 14592 14593 14594 14595 14596 14597 14598 14599 14600 14601 14602 14603 14604 14605 14606 14607 14608 14609 14610 14611 14612 14613 14614 14615 14616 14617 14618 14619 14620 14621 14622 14623 14624 14625 14626 14627 14628 14629 14630 14631 14632 14633 14634 14635 14636 0
c ind 14637 14638 14639 14640 14641 14642 14643 14644 14645 14646 14647 14648 14649 14650 14651 14652 14653 14654 14655 14656 14657 14658 14659 14660 14661 14662 14663 14664 14665 14666 14667 14668 14669 14670 14671 14672 14673 14674 14675 14676 14677 14678 14679 14680 14681 14682 14683 14684 14685 14686 0
c ind 14687 14688 14689 14690 14691 14692 14693 14694 14695 14696 14697 14698 14699 14700 14701 14702 14703 14704 14705 14706 14707 14708 14709 14710 14711 14712 14713 14714 14715 14716 14717 14718 14719 14720 14721 14722 14723 14724 14725 14726 14727 14728 14729 14730 14731 14732 14733 14734 14735 14736 0
c ind 14737 14738 14739 14740 14741 14742 14743 14744 14745 14746 14747 14748 14749 14750 14751 14752 14753 14754 14755 14756 14757 14758 14759 14760 14761 14762 14763 14764 14765 14766 14767 14768 14769 14770 14771 14772 14773 14774 14775 14776 14777 14778 14779 14780 14781 14782 14783 14784 14785 14786 0
c ind 14787 14788 14789 14790 14791 14792 14793 14794 14795 14796 14797 14798 14799 14800 14801 14802 14803 14804 14805 14806 14807 14808 14809 14810 14811 14812 14813 14814 14815 14816 14817 14818 14819 14820 14821 14822 14823 14824 14825 14826 14827 14828 14829 14830 14831 14832 14833 14834 14835 14836 0
c ind 14837 14838 14839 14840 14841 14842 14843 14844 14845 14846 14847 14848 14849 14850 14851 14852 14853 14854 14855 14856 14857 14858 14859 14860 14861 14862 14863 14864 14865 14866 14867 14868 14869 14870 14871 14872 14873 14874 14875 14876 14877 14878 14879 14880 14881 14882 14883 14884 14885 14886 0
c ind 14887 14888 14889 14890 14891 14892 14893 14894 14895 14896 14897 14898 14899 14900 14901 14902 14903 14904 14905 14906 14907 14908 14909 14910 14911 14912 14913 14914 14915 14916 14917 14918 14919 14920 14921 14922 14923 14924 14925 14926 14927 14928 14929 14930 14931 14932 14933 14934 14935 14936 0
c ind 14937 14938 14939 14940 14941 14942 14943 14944 14945 14946 14947 14948 14949 14950 14951 14952 14953 14954 14955 14956 14957 14958 14959 14960 14961 14962 14963 14964 14965 14966 14967 14968 14969 14970 14971 14972 14973 14974 14975 14976 14977 14978 14979 14980 14981 14982 14983 14984 14985 14986 0
c ind 14987 14988 14989 14990 14991 14992 14993 14994 14995 14996 14997 14998 14999 15000 15001 15002 15003 15004 15005 15006 15007 15008 15009 15010 15011 15012 15013 15014 15015 15016 15017 15018 15019 15020 15021 15022 15023 15024 15025 15026 15027 15028 15029 15030 15031 15032 15033 15034 15035 15036 0
c ind 15037 15038 15039 15040 15041 15042 15043 15044 15045 15046 15047 15048 15049 15050 15051 15052 15053 15054 15055 15056 15057 15058 15059 15060 15061 15062 15063 15064 15065 15066 15067 15068 15069 15070 15071 15072 15073 15074 15075 15076 15077 15078 15079 15080 15081 15082 15083 15084 15085 15086 0
c ind 15087 15088 15089 15090 15091 15092 15093 15094 15095 15096 15097 15098 15099 15100 15101 15102 15103 15104 15105 15106 15107 15108 15109 15110 15111 15112 15113 15114 15115 15116 15117 15118 15119 15120 15121 15122 15123 15124 15125 15126 15127 15128 15129 15130 15131 15132 15133 15134 15135 15136 0
c ind 15137 15138 15139 15140 15141 15142 15143 15144 15145 15146 15147 15148 15149 15150 15151 15152 15153 15154 15155 15156 15157 15158 15159 15160 15161 15162 15163 15164 15165 15166 15167 15168 15169 15170 15171 15172 15173 15174 15175 15176 15177 15178 15179 15180 15181 15182 15183 15184 15185 15186 0
c ind 15187 15188 15189 15190 15191 15192 15193 15194 15195 15196 15197 15198 15199 15200 15201 15202 15203 15204 15205 15206 15207 15208 15209 15210 15211 15212 15213 15214 15215 15216 15217 15218 15219 15220 15221 15222 15223 15224 15225 15226 15227 15228 15229 15230 15231 15232 15233 15234 15235 15236 0
c ind 15237 15238 15239 15240 15241 15242 15243 15244 15245 15246 15247 15248 15249 15250 15251 15252 15253 15254 15255 15256 15257 15258 15259 15260 15261 15262 15263 15264 15265 15266 15267 15268 15269 15270 15271 15272 15273 15274 15275 15276 15277 15278 15279 15280 15281 15282 15283 15284 15285 15286 0
c ind 15287 15288 15289 15290 15291 15292 15293 15294 15295 15296 15297 15298 15299 15300 15301 15302 15303 15304 15305 15306 15307 15308 15309 15310 15311 15312 15313 15314 15315 15316 15317 15318 15319 15320 15321 15322 15323 15324 15325 15326 15327 15328 15329 15330 15331 15332 15333 15334 15335 15336 0
c ind 15337 15338 15339 15340 15341 15342 15343 15344 15345 15346 15347 15348 15349 15350 15351 15352 15353 15354 15355 15356 15357 15358 15359 15360 15361 15362 15363 15364 15365 15366 15367 15368 15369 15370 15371 15372 15373 15374 15375 15376 15377 15378 15379 15380 15381 15382 15383 15384 15385 15386 0
c ind 15387 15388 15389 15390 15391 15392 15393 15394 15395 15396 15397 15398 15399 15400 15401 15402 15403 15404 15405 15406 15407 15408 15409 15410 15411 15412 15413 15414 15415 15416 15417 15418 15419 15420 15421 15422 15423 15424 15425 15426 15427 15428 15429 15430 15431 15432 15433 15434 15435 15436 0
c ind 15437 15438 15439 15440 15441 15442 15443 15444 15445 15446 15447 15448 15449 15450 15451 15452 15453 15454 15455 15456 15457 15458 15459 15460 15461 15462 15463 15464 15465 15466 15467 15468 15469 15470 15471 15472 15473 15474 15475 15476 15477 15478 15479 15480 15481 15482 15483 15484 15485 15486 0
c ind 15487 15488 15489 15490 15491 15492 15493 15494 15495 15496 15497 15498 15499 15500 15501 15502 15503 15504 15505 15506 15507 15508 15509 15510 15511 15512 15513 15514 15515 15516 15517 15518 15519 15520 15521 15522 15523 15524 15525 15526 15527 15528 15529 15530 15531 15532 15533 15534 15535 15536 0
c ind 15537 15538 15539 15540 15541 15542 15543 15544 15545 15546 15547 15548 15549 15550 15551 15552 15553 15554 15555 15556 15557 15558 15559 15560 15561 15562 15563 15564 15565 15566 15567 15568 15569 15570 15571 15572 15573 15574 15575 15576 15577 15578 15579 15580 15581 15582 15583 15584 15585 15586 0
c ind 15587 15588 15589 15590 15591 15592 15593 15594 15595 15596 15597 15598 15599 15600 15601 15602 15603 15604 15605 15606 15607 15608 15609 15610 15611 15612 15613 15614 15615 15616 15617 15618 15619 15620 15621 15622 15623 15624 15625 15626 15627 15628 15629 15630 15631 15632 15633 15634 15635 15636 0
c ind 15637 15638 15639 15640 15641 15642 15643 15644 15645 15646 15647 15648 15649 15650 15651 15652 15653 15654 15655 15656 15657 15658 15659 15660 15661 15662 15663 15664 15665 15666 15667 15668 15669 15670 15671 15672 15673 15674 15675 15676 15677 15678 15679 15680 15681 15682 15683 15684 15685 15686 0
c ind 15687 15688 15689 15690 15691 15692 15693 15694 15695 15696 15697 15698 15699 15700 15701 15702 15703 15704 15705 15706 15707 15708 15709 15710 15711 15712 15713 15714 15715 15716 15717 15718 15719 15720 15721 15722 15723 15724 15725 15726 15727 15728 15729 15730 15731 15732 15733 15734 15735 15736 0
c ind 15737 15738 15739 15740 15741 15742 15743 15744 15745 15746 15747 15748 15749 15750 15751 15752 15753 15754 15755 15756 15757 15758 15759 15760 15761 15762 15763 15764 15765 15766 15767 15768 15769 15770 15771 15772 15773 15774 15775 15776 15777 15778 15779 15780 15781 15782 15783 15784 15785 15786 0
c ind 15787 15788 15789 15790 15791 15792 15793 15794 15795 15796 15797 15798 15799 15800 15801 15802 15803 15804 15805 15806 15807 15808 15809 15810 15811 15812 15813 15814 15815 15816 15817 15818 15819 15820 15821 15822 15823 15824 15825 15826 15827 15828 15829 15830 15831 15832 15833 15834 15835 15836 0
c ind 15837 15838 15839 15840 15841 15842 15843 15844 15845 15846 15847 15848 15849 15850 15851 15852 15853 15854 15855 15856 15857 15858 15859 15860 15861 15862 15863 15864 15865 15866 15867 15868 15869 15870 15871 15872 15873 15874 15875 15876 15877 15878 15879 15880 15881 15882 15883 15884 15885 15886 0
c ind 15887 15888 15889 15890 15891 15892 15893 15894 15895 15896 15897 15898 15899 15900 15901 15902 15903 15904 15905 15906 15907 15908 15909 15910 15911 15912 15913 15914 15915 15916 15917 15918 15919 15920 15921 15922 15923 15924 15925 15926 15927 15928 15929 15930 15931 15932 0
-1 0
-2 0
-3 0
-4 0
-5 0
-6 0
-7 0
-8 0
-9 0
-10 0
-11 0
-12 0
-13 0
-14 0
1 -15 0
16 -17 0
18 -19 0
20 -21 0
22 -23 0
24 -25 0
26 -27 0
28 -29 0
30 -31 0
32 -33 0
34 -35 0
36 -37 0
38 -39 0
40 -41 0
42 -43 0
2 -44 0
45 -46 0
47 -48 0
49 -50 0
51 -52 0
53 -54 0
55 -56 0
57 -58 0
59 -60 0
61 -62 0
63 -64 0
65 -66 0
67 -68 0
69 -70 0
71 -72 0
3 -73 0
74 -75 0
76 -77 0
78 -79 0
80 -81 0
82 -83 0
84 -85 0
86 -87 0
88 -89 0
90 -91 0
92 -93 0
94 -95 0
96 -97 0
98 -99 0
100 -101 0
4 -102 0
103 -104 0
105 -106 0
107 -108 0
109 -110 0
111 -112 0
113 -114 0
115 -116 0
117 -118 0
119 -120 0
121 -122 0
123 -124 0
125 -126 0
127 -128 0
129 -130 0
5 -131 0
132 -133 0
134 -135 0
136 -137 0
138 -139 0
140 -141 0
142 -143 0
144 -145 0
146 -147 0
148 -149 0
150 -151 0
152 -153 0
154 -155 0
156 -157 0
158 -159 0
6 -160 0
161 -162 0
163 -164 0
165 -166 0
167 -168 0
169 -170 0
171 -172 0
173 -174 0
175 -176 0
177 -178 0
179 -180 0
181 -182 0
183 -184 0
185 -186 0
187 -188 0
7 -189 0
190 -191 0
192 -193 0
194 -195 0
196 -197 0
198 -199 0
200 -201 0
202 -203 0
204 -205 0
206 -207 0
208 -209 0
210 -211 0
212 -213 0
214 -215 0
216 -217 0
8 -218 0
219 -220 0
221 -222 0
223 -224 0
225 -226 0
227 -228 0
229 -230 0
231 -232 0
233 -234 0
235 -236 0
237 -238 0
239 -240 0
241 -242 0
243 -244 0
245 -246 0
9 -247 0
248 -249 0
250 -251 0
252 -253 0
254 -255 0
256 -257 0
258 -259 0
260 -261 0
262 -263 0
264 -265 0
266 -267 0
268 -269 0
270 -271 0
272 -273 0
274 -275 0
10 -276 0
277 -278 0
279 -280 0
281 -282 0
283 -284 0
285 -286 0
287 -288 0
289 -290 0
291 -292 0
293 -294 0
295 -296 0
297 -298 0
299 -300 0
301 -302 0
303 -304 0
11 -305 0
306 -307 0
308 -309 0
310 -311 0
312 -313 0
314 -315 0
316 -317 0
318 -319 0
320 -321 0
322 -323 0
324 -325 0
326 -327 0
328 -329 0
330 -331 0
332 -333 0
12 -334 0
335 -336 0
337 -338 0
339 -340 0
341 -342 0
343 -344 0
345 -346 0
347 -348 0
349 -350 0
351 -352 0
353 -354 0
355 -356 0
357 -358 0
359 -360 0
361 -362 0
13 -363 0
364 -365 0
366 -367 0
368 -369 0
370 -371 0
372 -373 0
374 -375 0
376 -377 0
378 -379 0
380 -381 0
382 -383 0
384 -385 0
386 -387 0
388 -389 0
390 -391 0
14 -392 0
1 -1 0
42 -16 0
69 -18 0
96 -20 0
123 -22 0
150 -24 0
177 -26 0
204 -28 0
231 -30 0
258 -32 0
285 -34 0
312 -36 0
339 -38 0
366 -40 0
16 -42 0
2 -2 0
71 -45 0
98 -47 0
125 -49 0
152 -51 0
179 -53 0
206 -55 0
233 -57 0
260 -59 0
287 -61 0
314 -63 0
341 -65 0
368 -67 0
18 -69 0
45 -71 0
3 -3 0
100 -74 0
127 -76 0
154 -78 0
181 -80 0
208 -82 0
235 -84 0
262 -86 0
289 -88 0
316 -90 0
343 -92 0
370 -94 0
20 -96 0
47 -98 0
74 -100 0
4 -4 0
129 -103 0
156 -105 0
183 -107 0
210 -109 0
237 -111 0
264 -113 0
291 -115 0
318 -117 0
345 -119 0
372 -121 0
22 -123 0
49 -125 0
76 -127 0
103 -129 0
5 -5 0
158 -132 0
185 -134 0
212 -136 0
239 -138 0
266 -140 0
293 -142 0
320 -144 0
347 -146 0
374 -148 0
24 -150 0
51 -152 0
78 -154 0
105 -156 0
132 -158 0
6 -6 0
187 -161 0
214 -163 0
241 -165 0
268 -167 0
295 -169 0
322 -171 0
349 -173 0
376 -175 0
26 -177 0
53 -179 0
80 -181 0
107 -183 0
134 -185 0
161 -187 0
7 -7 0
216 -190 0
243 -192 0
270 -194 0
297 -196 0
324 -198 0
351 -200 0
378 -202 0
28 -204 0
55 -206 0
82 -208 0
109 -210 0
136 -212 0
163 -214 0
190 -216 0
8 -8 0
245 -219 0
272 -221 0
299 -223 0
326 -225 0
353 -227 0
380 -229 0
30 -231 0
57 -233 0
84 -235 0
111 -237 0
138 -239 0
165 -241 0
192 -243 0
219 -245 0
9 -9 0
274 -248 0
301 -250 0
328 -252 0
355 -254 0
382 -256 0
32 -258 0
59 -260 0
86 -262 0
113 -264 0
140 -266 0
167 -268 0
194 -270 0
221 -272 0
248 -274 0
10 -10 0
303 -277 0
330 -279 0
357 -281 0
384 -283 0
34 -285 0
61 -287 0
88 -289 0
115 -291 0
142 -293 0
169 -295 0
196 -297 0
223 -299 0
250 -301 0
277 -303 0
11 -11 0
332 -306 0
359 -308 0
386 -310 0
36 -312 0
63 -314 0
90 -316 0
117 -318 0
144 -320 0
171 -322 0
198 -324 0
225 -326 0
252 -328 0
279 -330 0
306 -332 0
12 -12 0
361 -335 0
388 -337 0
38 -339 0
65 -341 0
92 -343 0
119 -345 0
146 -347 0
173 -349 0
200 -351 0
227 -353 0
254 -355 0
281 -357 0
308 -359 0
335 -361 0
13 -13 0
390 -364 0
40 -366 0
67 -368 0
94 -370 0
121 -372 0
148 -374 0
175 -376 0
202 -378 0
229 -380 0
256 -382 0
283 -384 0
310 -386 0
337 -388 0
364 -390 0
14 -14 0
1 393 0
-393 394 0
16 -393 395 0
-395 396 0
18 -395 397 0
-397 398 0
20 -397 399 0
-399 400 0
22 -399 401 0
-401 402 0
24 -401 403 0
-403 404 0
26 -403 405 0
-405 406 0
28 -405 407 0
-407 408 0
30 -407 409 0
-409 410 0
32 -409 411 0
-411 412 0
34 -411 413 0
-413 414 0
36 -413 415 0
-415 416 0
38 -415 417 0
-417 418 0
40 -417 419 0
-419 420 0
42 -419 421 0
-421 422 0
2 -421 423 0
-423 424 0
45 -423 425 0
-425 426 0
47 -425 427 0
-427 428 0
49 -427 429 0
-429 430 0
51 -429 431 0
-431 432 0
53 -431 433 0
-433 434 0
55 -433 435 0
-435 436 0
57 -435 437 0
-437 438 0
59 -437 439 0
-439 440 0
61 -439 441 0
-441 442 0
63 -441 443 0
-443 444 0
65 -443 445 0
-445 446 0
67 -445 447 0
-447 448 0
69 -447 449 0
-449 450 0
71 -449 451 0
-451 452 0
3 -451 453 0
-453 454 0
74 -453 455 0
-455 456 0
76 -455 457 0
-457 458 0
78 -457 459 0
-459 460 0
80 -459 461 0
-461 462 0
82 -461 463 0
-463 464 0
84 -463 465 0
-465 466 0
86 -465 467 0
-467 468 0
88 -467 469 0
-469 470 0
90 -469 471 0
-471 472 0
92 -471 473 0
-473 474 0
94 -473 475 0
-475 476 0
96 -475 477 0
-477 478 0
98 -477 479 0
-479 480 0
100 -479 481 0
-481 482 0
4 -481 483 0
-483 484 0
103 -483 485 0
-485 486 0
105 -485 487 0
-487 488 0
107 -487 489 0
-489 490 0
109 -489 491 0
-491 492 0
111 -491 493 0
-493 494 0
113 -493 495 0
-495 496 0
115 -495 497 0
-497 498 0
117 -497 499 0
-499 500 0
119 -499 501 0
-501 502 0
121 -501 503 0
-503 504 0
123 -503 505 0
-505 506 0
125 -505 507 0
-507 508 0
127 -507 509 0
-509 510 0
129 -509 511 0
-511 512 0
5 -511 513 0
-513 514 0
132 -513 515 0
-515 516 0
134 -515 517 0
-517 518 0
136 -517 519 0
-519 520 0
138 -519 521 0
-521 522 0
140 -521 523 0
-523 524 0
142 -523 525 0
-525 526 0
144 -525 527 0
-527 528 0
146 -527 529 0
-529 530 0
148 -529 531 0
-531 532 0
150 -531 533 0
-533 534 0
152 -533 535 0
-535 536 0
154 -535 537 0
-537 538 0
156 -537 539 0
-539 540 0
158 -539 541 0
-541 542 0
6 -541 543 0
-543 544 0
161 -543 545 0
-545 546 0
163 -545 547 0
-547 548 0
165 -547 549 0
-549 550 0
167 -549 551 0
-551 552 0
169 -551 553 0
-553 554 0
171 -553 555 0
-555 556 0
173 -555 557 0
-557 558 0
175 -557 559 0
-559 560 0
177 -559 561 0
-561 562 0
179 -561 563 0
-563 564 0
181 -563 565 0
-565 566 0
183 -565 567 0
-567 568 0
185 -567 569 0
-569 570 0
187 -569 571 0
-571 572 0
7 -571 573 0
-573 574 0
190 -573 575 0
-575 576 0
192 -575 577 0
-577 578 0
194 -577 579 0
-579 580 0
196 -579 581 0
-581 582 0
198 -581 583 0
-583 584 0
200 -583 585 0
-585 586 0
202 -585 587 0
-587 588 0
204 -587 589 0
-589 590 0
206 -589 591 0
-591 592 0
208 -591 593 0
-593 594 0
210 -593 595 0
-595 596 0
212 -595 597 0
-597 598 0
214 -597 599 0
-599 600 0
216 -599 601 0
-601 602 0
8 -601 603 0
-603 604 0
219 -603 605 0
-605 606 0
221 -605 607 0
-607 608 0
223 -607 609 0
-609 610 0
225 -609 611 0
-611 612 0
227 -611 613 0
-613 614 0
229 -613 615 0
-615 616 0
231 -615 617 0
-617 618 0
233 -617 619 0
-619 620 0
235 -619 621 0
-621 622 0
237 -621 623 0
-623 624 0
239 -623 625 0
-625 626 0
241 -625 627 0
-627 628 0
243 -627 629 0
-629 630 0
245 -629 631 0
-631 632 0
9 -631 633 0
-633 634 0
248 -633 635 0
-635 636 0
250 -635 637 0
-637 638 0
252 -637 639 0
-639 640 0
254 -639 641 0
-641 642 0
256 -641 643 0
-643 644 0
258 -643 645 0
-645 646 0
260 -645 647 0
-647 648 0
262 -647 649 0
-649 650 0
264 -649 651 0
-651 652 0
266 -651 653 0
-653 654 0
268 -653 655 0
-655 656 0
270 -655 657 0
-657 658 0
272 -657 659 0
-659 660 0
274 -659 661 0
-661 662 0
10 -661 663 0
-663 664 0
277 -663 665 0
-665 666 0
279 -665 667 0
-667 668 0
281 -667 669 0
-669 670 0
283 -669 671 0
-671 672 0
285 -671 673 0
-673 674 0
287 -673 675 0
-675 676 0
289 -675 677 0
-677 678 0
291 -677 679 0
-679 680 0
293 -679 681 0
-681 682 0
295 -681 683 0
-683 684 0
297 -683 685 0
-685 686 0
299 -685 687 0
-687 688 0
301 -687 689 0
-689 690 0
303 -689 691 0
-691 692 0
11 -691 693 0
-693 694 0
306 -693 695 0
-695 696 0
308 -695 697 0
-697 698 0
310 -697 699 0
-699 700 0
312 -699 0
16 394 0
-394 701 0
18 -394 396 0
-396 702 0
20 -396 398 0
-398 703 0
22 -398 400 0
-400 704 0
24 -400 402 0
-402 705 0
26 -402 404 0
-404 706 0
28 -404 406 0
-406 707 0
30 -406 408 0
-408 708 0
32 -408 410 0
-410 709 0
34 -410 412 0
-412 710 0
36 -412 414 0
-414 711 0
38 -414 416 0
-416 712 0
40 -416 418 0
-418 713 0
42 -418 420 0
-420 714 0
2 -420 422 0
-422 715 0
45 -422 424 0
-424 716 0
47 -424 426 0
-426 717 0
49 -426 428 0
-428 718 0
51 -428 430 0
-430 719 0
53 -430 432 0
-432 720 0
55 -432 434 0
-434 721 0
57 -434 436 0
-436 722 0
59 -436 438 0
-438 723 0
61 -438 440 0
-440 724 0
63 -440 442 0
-442 725 0
65 -442 444 0
-444 726 0
67 -444 446 0
-446 727 0
69 -446 448 0
-448 728 0
71 -448 450 0
-450 729 0
3 -450 452 0
-452 730 0
74 -452 454 0
-454 731 0
76 -454 456 0
-456 732 0
78 -456 458 0
-458 733 0
80 -458 460 0
-460 734 0
82 -460 462 0
-462 735 0
84 -462 464 0
-464 736 0
86 -464 466 0
-466 737 0
88 -466 468 0
-468 738 0
90 -468 470 0
-470 739 0
92 -470 472 0
-472 740 0
94 -472 474 0
-474 741 0
96 -474 476 0
-476 742 0
98 -476 478 0
-478 743 0
100 -478 480 0
-480 744 0
4 -480 482 0
-482 745 0
103 -482 484 0
-484 746 0
105 -484 486 0
-486 747 0
107 -486 488 0
-488 748 0
109 -488 490 0
-490 749 0
111 -490 492 0
-492 750 0
113 -492 494 0
-494 751 0
115 -494 496 0
-496 752 0
117 -496 498 0
-498 753 0
119 -498 500 0
-500 754 0
121 -500 502 0
-502 755 0
123 -502 504 0
-504 756 0
125 -504 506 0
-506 757 0
127 -506 508 0
-508 758 0
129 -508 510 0
-510 759 0
5 -510 512 0
-512 760 0
132 -512 514 0
-514 761 0
134 -514 516 0
-516 762 0
136 -516 518 0
-518 763 0
138 -518 520 0
-520 764 0
140 -520 522 0
-522 765 0
142 -522 524 0
-524 766 0
144 -524 526 0
-526 767 0
146 -526 528 0
-528 768 0
148 -528 530 0
-530 769 0
150 -530 532 0
-532 770 0
152 -532 534 0
-534 771 0
154 -534 536 0
-536 772 0
156 -536 538 0
-538 773 0
158 -538 540 0
-540 774 0
6 -540 542 0
-542 775 0
161 -542 544 0
-544 776 0
163 -544 546 0
-546 777 0
165 -546 548 0
-548 778 0
167 -548 550 0
-550 779 0
169 -550 552 0
-552 780 0
171 -552 554 0
-554 781 0
173 -554 556 0
-556 782 0
175 -556 558 0
-558 783 0
177 -558 560 0
-560 784 0
179 -560 562 0
-562 785 0
181 -562 564 0
-564 786 0
183 -564 566 0
-566 787 0
185 -566 568 0
-568 788 0
187 -568 570 0
-570 789 0
7 -570 572 0
-572 790 0
190 -572 574 0
-574 791 0
192 -574 576 0
-576 792 0
194 -576 578 0
-578 793 0
196 -578 580 0
-580 794 0
198 -580 582 0
-582 795 0
200 -582 584 0
-584 796 0
202 -584 586 0
-586 797 0
204 -586 588 0
-588 798 0
206 -588 590 0
-590 799 0
208 -590 592 0
-592 800 0
210 -592 594 0
-594 801 0
212 -594 596 0
-596 802 0
214 -596 598 0
-598 803 0
216 -598 600 0
-600 804 0
8 -600 602 0
-602 805 0
219 -602 604 0
-604 806 0
221 -604 606 0
-606 807 0
223 -606 608 0
-608 808 0
225 -608 610 0
-610 809 0
227 -610 612 0
-612 810 0
229 -612 614 0
-614 811 0
231 -614 616 0
-616 812 0
233 -616 618 0
-618 813 0
235 -618 620 0
-620 814 0
237 -620 622 0
-622 815 0
239 -622 624 0
-624 816 0
241 -624 626 0
-626 817 0
243 -626 628 0
-628 818 0
245 -628 630 0
-630 819 0
9 -630 632 0
-632 820 0
248 -632 634 0
-634 821 0
250 -634 636 0
-636 822 0
252 -636 638 0
-638 823 0
254 -638 640 0
-640 824 0
256 -640 642 0
-642 825 0
258 -642 644 0
-644 826 0
260 -644 646 0
-646 827 0
262 -646 648 0
-648 828 0
264 -648 650 0
-650 829 0
266 -650 652 0
-652 830 0
268 -652 654 0
-654 831 0
270 -654 656 0
-656 832 0
272 -656 658 0
-658 833 0
274 -658 660 0
-660 834 0
10 -660 662 0
-662 835 0
277 -662 664 0
-664 836 0
279 -664 666 0
-666 837 0
281 -666 668 0
-668 838 0
283 -668 670 0
-670 839 0
285 -670 672 0
-672 840 0
287 -672 674 0
-674 841 0
289 -674 676 0
-676 842 0
291 -676 678 0
-678 843 0
293 -678 680 0
-680 844 0
295 -680 682 0
-682 845 0
297 -682 684 0
-684 846 0
299 -684 686 0
-686 847 0
301 -686 688 0
-688 848 0
303 -688 690 0
-690 849 0
11 -690 692 0
-692 850 0
306 -692 694 0
-694 851 0
308 -694 696 0
-696 852 0
310 -696 698 0
-698 853 0
312 -698 700 0
-700 854 0
314 -700 0
18 701 0
-701 855 0
20 -701 702 0
-702 856 0
22 -702 703 0
-703 857 0
24 -703 704 0
-704 858 0
26 -704 705 0
-705 859 0
28 -705 706 0
-706 860 0
30 -706 707 0
-707 861 0
32 -707 708 0
-708 862 0
34 -708 709 0
-709 863 0
36 -709 710 0
-710 864 0
38 -710 711 0
-711 865 0
40 -711 712 0
-712 866 0
42 -712 713 0
-713 867 0
2 -713 714 0
-714 868 0
45 -714 715 0
-715 869 0
47 -715 716 0
-716 870 0
49 -716 717 0
-717 871 0
51 -717 718 0
-718 872 0
53 -718 719 0
-719 873 0
55 -719 720 0
-720 874 0
57 -720 721 0
-721 875 0
59 -721 722 0
-722 876 0
61 -722 723 0
-723 877 0
63 -723 724 0
-724 878 0
65 -724 725 0
-725 879 0
67 -725 726 0
-726 880 0
69 -726 727 0
-727 881 0
71 -727 728 0
-728 882 0
3 -728 729 0
-729 883 0
74 -729 730 0
-730 884 0
76 -730 731 0
-731 885 0
78 -731 732 0
-732 886 0
80 -732 733 0
-733 887 0
82 -733 734 0
-734 888 0
84 -734 735 0
-735 889 0
86 -735 736 0
-736 890 0
88 -736 737 0
-737 891 0
90 -737 738 0
-738 892 0
92 -738 739 0
-739 893 0
94 -739 740 0
-740 894 0
96 -740 741 0
-741 895 0
98 -741 742 0
-742 896 0
100 -742 743 0
-743 897 0
4 -743 744 0
-744 898 0
103 -744 745 0
-745 899 0
105 -745 746 0
-746 900 0
107 -746 747 0
-747 901 0
109 -747 748 0
-748 902 0
111 -748 749 0
-749 903 0
113 -749 750 0
-750 904 0
115 -750 751 0
-751 905 0
117 -751 752 0
-752 906 0
119 -752 753 0
-753 907 0
121 -753 754 0
-754 908 0
123 -754 755 0
-755 909 0
125 -755 756 0
-756 910 0
127 -756 757 0
-757 911 0
129 -757 758 0
-758 912 0
5 -758 759 0
-759 913 0
132 -759 760 0
-760 914 0
134 -760 761 0
-761 915 0
136 -761 762 0
-762 916 0
138 -762 763 0
-763 917 0
140 -763 764 0
-764 918 0
142 -764 765 0
-765 919 0
144 -765 766 0
-766 920 0
146 -766 767 0
-767 921 0
148 -767 768 0
-768 922 0
150 -768 769 0
-769 923 0
152 -769 770 0
-770 924 0
154 -770 771 0
-771 925 0
156 -771 772 0
-772 926 0
158 -772 773 0
-773 927 0
6 -773 774 0
-774 928 0
161 -774 775 0
-775 929 0
163 -775 776 0
-776 930 0
165 -776 777 0
-777 931 0
167 -777 778 0
-778 932 0
169 -778 779 0
-779 933 0
171 -779 780 0
-780 934 0
173 -780 781 0
-781 935 0
175 -781 782 0
-782 936 0
177 -782 783 0
-783 937 0
179 -783 784 0
-784 938 0
181 -784 785 0
-785 939 0
183 -785 786 0
-786 940 0
185 -786 787 0
-787 941 0
187 -787 788 0
-788 942 0
7 -788 789 0
-789 943 0
190 -789 790 0
-790 944 0
192 -790 791 0
-791 945 0
194 -791 792 0
-792 946 0
196 -792 793 0
-793 947 0
198 -793 794 0
-794 948 0
200 -794 795 0
-795 949 0
202 -795 796 0
-796 950 0
204 -796 797 0
-797 951 0
206 -797 798 0
-798 952 0
208 -798 799 0
-799 953 0
210 -799 800 0
-800 954 0
212 -800 801 0
-801 955 0
214 -801 802 0
-802 956 0
216 -802 803 0
-803 957 0
8 -803 804 0
-804 958 0
219 -804 805 0
-805 959 0
221 -805 806 0
-806 960 0
223 -806 807 0
-807 961 0
225 -807 808 0
-808 962 0
227 -808 809 0
-809 963 0
229 -809 810 0
-810 964 0
231 -810 811 0
-811 965 0
233 -811 812 0
-812 966 0
235 -812 813 0
-813 967 0
237 -813 814 0
-814 968 0
239 -814 815 0
-815 969 0
241 -815 816 0
-816 970 0
243 -816 817 0
-817 971 0
245 -817 818 0
-818 972 0
9 -818 819 0
-819 973 0
248 -819 820 0
-820 974 0
250 -820 821 0
-821 975 0
252 -821 822 0
-822 976 0
254 -822 823 0
-823 977 0
256 -823 824 0
-824 978 0
258 -824 825 0
-825 979 0
260 -825 826 0
-826 980 0
262 -826 827 0
-827 981 0
264 -827 828 0
-828 982 0
266 -828 829 0
-829 983 0
268 -829 830 0
-830 984 0
270 -830 831 0
-831 985 0
272 -831 832 0
-832 986 0
274 -832 833 0
-833 987 0
10 -833 834 0
-834 988 0
277 -834 835 0
-835 989 0
279 -835 836 0
-836 990 0
281 -836 837 0
-837 991 0
283 -837 838 0
-838 992 0
285 -838 839 0
-839 993 0
287 -839 840 0
-840 994 0
289 -840 841 0
-841 995 0
291 -841 842 0
-842 996 0
293 -842 843 0
-843 997 0
295 -843 844 0
-844 998 0
297 -844 845 0
-845 999 0
299 -845 846 0
-846 1000 0
301 -846 847 0
-847 1001 0
303 -847 848 0
-848 1002 0
11 -848 849 0
-849 1003 0
306 -849 850 0
-850 1004 0
308 -850 851 0
-851 1005 0
310 -851 852 0
-852 1006 0
312 -852 853 0
-853 1007 0
314 -853 854 0
-854 1008 0
316 -854 0
20 855 0
-855 1009 0
22 -855 856 0
-856 1010 0
24 -856 857 0
-857 1011 0
26 -857 858 0
-858 1012 0
28 -858 859 0
-859 1013 0
30 -859 860 0
-860 1014 0
32 -860 861 0
-861 1015 0
34 -861 862 0
-862 1016 0
36 -862 863 0
-863 1017 0
38 -863 864 0
-864 1018 0
40 -864 865 0
-865 1019 0
42 -865 866 0
-866 1020 0
2 -866 867 0
-867 1021 0
45 -867 868 0
-868 1022 0
47 -868 869 0
-869 1023 0
49 -869 870 0
-870 1024 0
51 -870 871 0
-871 1025 0
53 -871 872 0
-872 1026 0
55 -872 873 0
-873 1027 0
57 -873 874 0
-874 1028 0
59 -874 875 0
-875 1029 0
61 -875 876 0
-876 1030 0
63 -876 877 0
-877 1031 0
65 -877 878 0
-878 1032 0
67 -878 879 0
-879 1033 0
69 -879 880 0
-880 1034 0
71 -880 881 0
-881 1035 0
3 -881 882 0
-882 1036 0
74 -882 883 0
-883 1037 0
76 -883 884 0
-884 1038 0
78 -884 885 0
-885 1039 0
80 -885 886 0
-886 1040 0
82 -886 887 0
-887 1041 0
84 -887 888 0
-888 1042 0
86 -888 889 0
-889 1043 0
88 -889 890 0
-890 1044 0
90 -890 891 0
-891 1045 0
92 -891 892 0
-892 1046 0
94 -892 893 0
-893 1047 0
96 -893 894 0
-894 1048 0
98 -894 895 0
-895 1049 0
100 -895 896 0
-896 1050 0
4 -896 897 0
-897 1051 0
103 -897 898 0
-898 1052 0
105 -898 899 0
-899 1053 0
107 -899 900 0
-900 1054 0
109 -900 901 0
-901 1055 0
111 -901 902 0
-902 1056 0
113 -902 903 0
-903 1057 0
115 -903 904 0
-904 1058 0
117 -904 905 0
-905 1059 0
119 -905 906 0
-906 1060 0
121 -906 907 0
-907 1061 0
123 -907 908 0
-908 1062 0
125 -908 909 0
-909 1063 0
127 -909 910 0
-910 1064 0
129 -910 911 0
-911 1065 0
5 -911 912 0
-912 1066 0
132 -912 913 0
-913 1067 0
134 -913 914 0
-914 1068 0
136 -914 915 0
-915 1069 0
138 -915 916 0
-916 1070 0
140 -916 917 0
-917 1071 0
142 -917 918 0
-918 1072 0
144 -918 919 0
-919 1073 0
146 -919 920 0
-920 1074 0
148 -920 921 0
-921 1075 0
150 -921 922 0
-922 1076 0
152 -922 923 0
-923 1077 0
154 -923 924 0
-924 1078 0
156 -924 925 0
-925 1079 0
158 -925 926 0
-926 1080 0
6 -926 927 0
-927 1081 0
161 -927 928 0
-928 1082 0
163 -928 929 0
-929 1083 0
165 -929 930 0
-930 1084 0
167 -930 931 0
-931 1085 0
169 -931 932 0
-932 1086 0
171 -932 933 0
-933 1087 0
173 -933 934 0
-934 1088 0
175 -934 935 0
-935 1089 0
177 -935 936 0
-936 1090 0
179 -936 937 0
-937 1091 0
181 -937 938 0
-938 1092 0
183 -938 939 0
-939 1093 0
185 -939 940 0
-940 1094 0
187 -940 941 0
-941 1095 0
7 -941 942 0
-942 1096 0
190 -942 943 0
-943 1097 0
192 -943 944 0
-944 1098 0
194 -944 945 0
-945 1099 0
196 -945 946 0
-946 1100 0
198 -946 947 0
-947 1101 0
200 -947 948 0
-948 1102 0
202 -948 949 0
-949 1103 0
204 -949 950 0
-950 1104 0
206 -950 951 0
-951 1105 0
208 -951 952 0
-952 1106 0
210 -952 953 0
-953 1107 0
212 -953 954 0
-954 1108 0
214 -954 955 0
-955 1109 0
216 -955 956 0
-956 1110 0
8 -956 957 0
-957 1111 0
219 -957 958 0
-958 1112 0
221 -958 959 0
-959 1113 0
223 -959 960 0
-960 1114 0
225 -960 961 0
-961 1115 0
227 -961 962 0
-962 1116 0
229 -962 963 0
-963 1117 0
231 -963 964 0
-964 1118 0
233 -964 965 0
-965 1119 0
235 -965 966 0
-966 1120 0
237 -966 967 0
-967 1121 0
239 -967 968 0
-968 1122 0
241 -968 969 0
-969 1123 0
243 -969 970 0
-970 1124 0
245 -970 971 0
-971 1125 0
9 -971 972 0
-972 1126 0
248 -972 973 0
-973 1127 0
250 -973 974 0
-974 1128 0
252 -974 975 0
-975 1129 0
254 -975 976 0
-976 1130 0
256 -976 977 0
-977 1131 0
258 -977 978 0
-978 1132 0
260 -978 979 0
-979 1133 0
262 -979 980 0
-980 1134 0
264 -980 981 0
-981 1135 0
266 -981 982 0
-982 1136 0
268 -982 983 0
-983 1137 0
270 -983 984 0
-984 1138 0
272 -984 985 0
-985 1139 0
274 -985 986 0
-986 1140 0
10 -986 987 0
-987 1141 0
277 -987 988 0
-988 1142 0
279 -988 989 0
-989 1143 0
281 -989 990 0
-990 1144 0
283 -990 991 0
-991 1145 0
285 -991 992 0
-992 1146 0
287 -992 993 0
-993 1147 0
289 -993 994 0
-994 1148 0
291 -994 995 0
-995 1149 0
293 -995 996 0
-996 1150 0
295 -996 997 0
-997 1151 0
297 -997 998 0
-998 1152 0
299 -998 999 0
-999 1153 0
301 -999 1000 0
-1000 1154 0
303 -1000 1001 0
-1001 1155 0
11 -1001 1002 0
-1002 1156 0
306 -1002 1003 0
-1003 1157 0
308 -1003 1004 0
-1004 1158 0
310 -1004 1005 0
-1005 1159 0
312 -1005 1006 0
-1006 1160 0
314 -1006 1007 0
-1007 1161 0
316 -1007 1008 0
-1008 1162 0
318 -1008 0
22 1009 0
-1009 1163 0
24 -1009 1010 0
-1010 1164 0
26 -1010 1011 0
-1011 1165 0
28 -1011 1012 0
-1012 1166 0
30 -1012 1013 0
-1013 1167 0
32 -1013 1014 0
-1014 1168 0
34 -1014 1015 0
-1015 1169 0
36 -1015 1016 0
-1016 1170 0
38 -1016 1017 0
-1017 1171 0
40 -1017 1018 0
-1018 1172 0
42 -1018 1019 0
-1019 1173 0
2 -1019 1020 0
-1020 1174 0
45 -1020 1021 0
-1021 1175 0
47 -1021 1022 0
-1022 1176 0
49 -1022 1023 0
-1023 1177 0
51 -1023 1024 0
-1024 1178 0
53 -1024 1025 0
-1025 1179 0
55 -1025 1026 0
-1026 1180 0
57 -1026 1027 0
-1027 1181 0
59 -1027 1028 0
-1028 1182 0
61 -1028 1029 0
-1029 1183 0
63 -1029 1030 0
-1030 1184 0
65 -1030 1031 0
-1031 1185 0
67 -1031 1032 0
-1032 1186 0
69 -1032 1033 0
-1033 1187 0
71 -1033 1034 0
-1034 1188 0
3 -1034 1035 0
-1035 1189 0
74 -1035 1036 0
-1036 1190 0
76 -1036 1037 0
-1037 1191 0
78 -1037 1038 0
-1038 1192 0
80 -1038 1039 0
-1039 1193 0
82 -1039 1040 0
-1040 1194 0
84 -1040 1041 0
-1041 1195 0
86 -1041 1042 0
-1042 1196 0
88 -1042 1043 0
-1043 1197 0
90 -1043 1044 0
-1044 1198 0
92 -1044 1045 0
-1045 1199 0
94 -1045 1046 0
-1046 1200 0
96 -1046 1047 0
-1047 1201 0
98 -1047 1048 0
-1048 1202 0
100 -1048 1049 0
-1049 1203 0
4 -1049 1050 0
-1050 1204 0
103 -1050 1051 0
-1051 1205 0
105 -1051 1052 0
-1052 1206 0
107 -1052 1053 0
-1053 1207 0
109 -1053 1054 0
-1054 1208 0
111 -1054 1055 0
-1055 1209 0
113 -1055 1056 0
-1056 1210 0
115 -1056 1057 0
-1057 1211 0
117 -1057 1058 0
-1058 1212 0
119 -1058 1059 0
-1059 1213 0
121 -1059 1060 0
-1060 1214 0
123 -1060 1061 0
-1061 1215 0
125 -1061 1062 0
-1062 1216 0
127 -1062 1063 0
-1063 1217 0
129 -1063 1064 0
-1064 1218 0
5 -1064 1065 0
-1065 1219 0
132 -1065 1066 0
-1066 1220 0
134 -1066 1067 0
-1067 1221 0
136 -1067 1068 0
-1068 1222 0
138 -1068 1069 0
-1069 1223 0
140 -1069 1070 0
-1070 1224 0
142 -1070 1071 0
-1071 1225 0
144 -1071 1072 0
-1072 1226 0
146 -1072 1073 0
-1073 1227 0
148 -1073 1074 0
-1074 1228 0
150 -1074 1075 0
-1075 1229 0
152 -1075 1076 0
-1076 1230 0
154 -1076 1077 0
-1077 1231 0
156 -1077 1078 0
-1078 1232 0
158 -1078 1079 0
-1079 1233 0
6 -1079 1080 0
-1080 1234 0
161 -1080 1081 0
-1081 1235 0
163 -1081 1082 0
-1082 1236 0
165 -1082 1083 0
-1083 1237 0
167 -1083 1084 0
-1084 1238 0
169 -1084 1085 0
-1085 1239 0
171 -1085 1086 0
-1086 1240 0
173 -1086 1087 0
-1087 1241 0
175 -1087 1088 0
-1088 1242 0
177 -1088 1089 0
-1089 1243 0
179 -1089 1090 0
-1090 1244 0
181 -1090 1091 0
-1091 1245 0
183 -1091 1092 0
-1092 1246 0
185 -1092 1093 0
-1093 1247 0
187 -1093 1094 0
-1094 1248 0
7 -1094 1095 0
-1095 1249 0
190 -1095 1096 0
-1096 1250 0
192 -1096 1097 0
-1097 1251 0
194 -1097 1098 0
-1098 1252 0
196 -1098 1099 0
-1099 1253 0
198 -1099 1100 0
-1100 1254 0
200 -1100 1101 0
-1101 1255 0
202 -1101 1102 0
-1102 1256 0
204 -1102 1103 0
-1103 1257 0
206 -1103 1104 0
-1104 1258 0
208 -1104 1105 0
-1105 1259 0
210 -1105 1106 0
-1106 1260 0
212 -1106 1107 0
-1107 1261 0
214 -1107 1108 0
-1108 1262 0
216 -1108 1109 0
-1109 1263 0
8 -1109 1110 0
-1110 1264 0
219 -1110 1111 0
-1111 1265 0
221 -1111 1112 0
-1112 1266 0
223 -1112 1113 0
-1113 1267 0
225 -1113 1114 0
-1114 1268 0
227 -1114 1115 0
-1115 1269 0
229 -1115 1116 0
-1116 1270 0
231 -1116 1117 0
-1117 1271 0
233 -1117 1118 0
-1118 1272 0
235 -1118 1119 0
-1119 1273 0
237 -1119 1120 0
-1120 1274 0
239 -1120 1121 0
-1121 1275 0
241 -1121 1122 0
-1122 1276 0
243 -1122 1123 0
-1123 1277 0
245 -1123 1124 0
-1124 1278 0
9 -1124 1125 0
-1125 1279 0
248 -1125 1126 0
-1126 1280 0
250 -1126 1127 0
-1127 1281 0
252 -1127 1128 0
-1128 1282 0
254 -1128 1129 0
-1129 1283 0
256 -1129 1130 0
-1130 1284 0
258 -1130 1131 0
-1131 1285 0
260 -1131 1132 0
-1132 1286 0
262 -1132 1133 0
-1133 1287 0
264 -1133 1134 0
-1134 1288 0
266 -1134 1135 0
-1135 1289 0
268 -1135 1136 0
-1136 1290 0
270 -1136 1137 0
-1137 1291 0
272 -1137 1138 0
-1138 1292 0
274 -1138 1139 0
-1139 1293 0
10 -1139 1140 0
-1140 1294 0
277 -1140 1141 0
-1141 1295 0
279 -1141 1142 0
-1142 1296 0
281 -1142 1143 0
-1143 1297 0
283 -1143 1144 0
-1144 1298 0
285 -1144 1145 0
-1145 1299 0
287 -1145 1146 0
-1146 1300 0
289 -1146 1147 0
-1147 1301 0
291 -1147 1148 0
-1148 1302 0
293 -1148 1149 0
-1149 1303 0
295 -1149 1150 0
-1150 1304 0
297 -1150 1151 0
-1151 1305 0
299 -1151 1152 0
-1152 1306 0
301 -1152 1153 0
-1153 1307 0
303 -1153 1154 0
-1154 1308 0
11 -1154 1155 0
-1155 1309 0
306 -1155 1156 0
-1156 1310 0
308 -1156 1157 0
-1157 1311 0
310 -1157 1158 0
-1158 1312 0
312 -1158 1159 0
-1159 1313 0
314 -1159 1160 0
-1160 1314 0
316 -1160 1161 0
-1161 1315 0
318 -1161 1162 0
-1162 1316 0
320 -1162 0
24 1163 0
-1163 1317 0
26 -1163 1164 0
-1164 1318 0
28 -1164 1165 0
-1165 1319 0
30 -1165 1166 0
-1166 1320 0
32 -1166 1167 0
-1167 1321 0
34 -1167 1168 0
-1168 1322 0
36 -1168 1169 0
-1169 1323 0
38 -1169 1170 0
-1170 1324 0
40 -1170 1171 0
-1171 1325 0
42 -1171 1172 0
-1172 1326 0
2 -1172 1173 0
-1173 1327 0
45 -1173 1174 0
-1174 1328 0
47 -1174 1175 0
-1175 1329 0
49 -1175 1176 0
-1176 1330 0
51 -1176 1177 0
-1177 1331 0
53 -1177 1178 0
-1178 1332 0
55 -1178 1179 0
-1179 1333 0
57 -1179 1180 0
-1180 1334 0
59 -1180 1181 0
-1181 1335 0
61 -1181 1182 0
-1182 1336 0
63 -1182 1183 0
-1183 1337 0
65 -1183 1184 0
-1184 1338 0
67 -1184 1185 0
-1185 1339 0
69 -1185 1186 0
-1186 1340 0
71 -1186 1187 0
-1187 1341 0
3 -1187 1188 0
-1188 1342 0
74 -1188 1189 0
-1189 1343 0
76 -1189 1190 0
-1190 1344 0
78 -1190 1191 0
-1191 1345 0
80 -1191 1192 0
-1192 1346 0
82 -1192 1193 0
-1193 1347 0
84 -1193 1194 0
-1194 1348 0
86 -1194 1195 0
-1195 1349 0
88 -1195 1196 0
-1196 1350 0
90 -1196 1197 0
-1197 1351 0
92 -1197 1198 0
-1198 1352 0
94 -1198 1199 0
-1199 1353 0
96 -1199 1200 0
-1200 1354 0
98 -1200 1201 0
-1201 1355 0
100 -1201 1202 0
-1202 1356 0
4 -1202 1203 0
-1203 1357 0
103 -1203 1204 0
-1204 1358 0
105 -1204 1205 0
-1205 1359 0
107 -1205 1206 0
-1206 1360 0
109 -1206 1207 0
-1207 1361 0
111 -1207 1208 0
-1208 1362 0
113 -1208 1209 0
-1209 1363 0
115 -1209 1210 0
-1210 1364 0
117 -1210 1211 0
-1211 1365 0
119 -1211 1212 0
-1212 1366 0
121 -1212 1213 0
-1213 1367 0
123 -1213 1214 0
-1214 1368 0
125 -1214 1215 0
-1215 1369 0
127 -1215 1216 0
-1216 1370 0
129 -1216 1217 0
-1217 1371 0
5 -1217 1218 0
-1218 1372 0
132 -1218 1219 0
-1219 1373 0
134 -1219 1220 0
-1220 1374 0
136 -1220 1221 0
-1221 1375 0
138 -1221 1222 0
-1222 1376 0
140 -1222 1223 0
-1223 1377 0
142 -1223 1224 0
-1224 1378 0
144 -1224 1225 0
-1225 1379 0
146 -1225 1226 0
-1226 1380 0
148 -1226 1227 0
-1227 1381 0
150 -1227 1228 0
-1228 1382 0
152 -1228 1229 0
-1229 1383 0
154 -1229 1230 0
-1230 1384 0
156 -1230 1231 0
-1231 1385 0
158 -1231 1232 0
-1232 1386 0
6 -1232 1233 0
-1233 1387 0
161 -1233 1234 0
-1234 1388 0
163 -1234 1235 0
-1235 1389 0
165 -1235 1236 0
-1236 1390 0
167 -1236 1237 0
-1237 1391 0
169 -1237 1238 0
-1238 1392 0
171 -1238 1239 0
-1239 1393 0
173 -1239 1240 0
-1240 1394 0
175 -1240 1241 0
-1241 1395 0
177 -1241 1242 0
-1242 1396 0
179 -1242 1243 0
-1243 1397 0
181 -1243 1244 0
-1244 1398 0
183 -1244 1245 0
-1245 1399 0
185 -1245 1246 0
-1246 1400 0
187 -1246 1247 0
-1247 1401 0
7 -1247 1248 0
-1248 1402 0
190 -1248 1249 0
-1249 1403 0
192 -1249 1250 0
-1250 1404 0
194 -1250 1251 0
-1251 1405 0
196 -1251 1252 0
-1252 1406 0
198 -1252 1253 0
-1253 1407 0
200 -1253 1254 0
-1254 1408 0
202 -1254 1255 0
-1255 1409 0
204 -1255 1256 0
-1256 1410 0
206 -1256 1257 0
-1257 1411 0
208 -1257 1258 0
-1258 1412 0
210 -1258 1259 0
-1259 1413 0
212 -1259 1260 0
-1260 1414 0
214 -1260 1261 0
-1261 1415 0
216 -1261 1262 0
-1262 1416 0
8 -1262 1263 0
-1263 1417 0
219 -1263 1264 0
-1264 1418 0
221 -1264 1265 0
-1265 1419 0
223 -1265 1266 0
-1266 1420 0
225 -1266 1267 0
-1267 1421 0
227 -1267 1268 0
-1268 1422 0
229 -1268 1269 0
-1269 1423 0
231 -1269 1270 0
-1270 1424 0
233 -1270 1271 0
-1271 1425 0
235 -1271 1272 0
-1272 1426 0
237 -1272 1273 0
-1273 1427 0
239 -1273 1274 0
-1274 1428 0
241 -1274 1275 0
-1275 1429 0
243 -1275 1276 0
-1276 1430 0
245 -1276 1277 0
-1277 1431 0
9 -1277 1278 0
-1278 1432 0
248 -1278 1279 0
-1279 1433 0
250 -1279 1280 0
-1280 1434 0
252 -1280 1281 0
-1281 1435 0
254 -1281 1282 0
-1282 1436 0
256 -1282 1283 0
-1283 1437 0
258 -1283 1284 0
-1284 1438 0
260 -1284 1285 0
-1285 1439 0
262 -1285 1286 0
-1286 1440 0
264 -1286 1287 0
-1287 1441 0
266 -1287 1288 0
-1288 1442 0
268 -1288 1289 0
-1289 1443 0
270 -1289 1290 0
-1290 1444 0
272 -1290 1291 0
-1291 1445 0
274 -1291 1292 0
-1292 1446 0
10 -1292 1293 0
-1293 1447 0
277 -1293 1294 0
-1294 1448 0
279 -1294 1295 0
-1295 1449 0
281 -1295 1296 0
-1296 1450 0
283 -1296 1297 0
-1297 1451 0
285 -1297 1298 0
-1298 1452 0
287 -1298 1299 0
-1299 1453 0
289 -1299 1300 0
-1300 1454 0
291 -1300 1301 0
-1301 1455 0
293 -1301 1302 0
-1302 1456 0
295 -1302 1303 0
-1303 1457 0
297 -1303 1304 0
-1304 1458 0
299 -1304 1305 0
-1305 1459 0
301 -1305 1306 0
-1306 1460 0
303 -1306 1307 0
-1307 1461 0
11 -1307 1308 0
-1308 1462 0
306 -1308 1309 0
-1309 1463 0
308 -1309 1310 0
-1310 1464 0
310 -1310 1311 0
-1311 1465 0
312 -1311 1312 0
-1312 1466 0
314 -1312 1313 0
-1313 1467 0
316 -1313 1314 0
-1314 1468 0
318 -1314 1315 0
-1315 1469 0
320 -1315 1316 0
-1316 1470 0
322 -1316 0
26 1317 0
-1317 1471 0
28 -1317 1318 0
-1318 1472 0
30 -1318 1319 0
-1319 1473 0
32 -1319 1320 0
-1320 1474 0
34 -1320 1321 0
-1321 1475 0
36 -1321 1322 0
-1322 1476 0
38 -1322 1323 0
-1323 1477 0
40 -1323 1324 0
-1324 1478 0
42 -1324 1325 0
-1325 1479 0
2 -1325 1326 0
-1326 1480 0
45 -1326 1327 0
-1327 1481 0
47 -1327 1328 0
-1328 1482 0
49 -1328 1329 0
-1329 1483 0
51 -1329 1330 0
-1330 1484 0
53 -1330 1331 0
-1331 1485 0
55 -1331 1332 0
-1332 1486 0
57 -1332 1333 0
-1333 1487 0
59 -1333 1334 0
-1334 1488 0
61 -1334 1335 0
-1335 1489 0
63 -1335 1336 0
-1336 1490 0
65 -1336 1337 0
-1337 1491 0
67 -1337 1338 0
-1338 1492 0
69 -1338 1339 0
-1339 1493 0
71 -1339 1340 0
-1340 1494 0
3 -1340 1341 0
-1341 1495 0
74 -1341 1342 0
-1342 1496 0
76 -1342 1343 0
-1343 1497 0
78 -1343 1344 0
-1344 1498 0
80 -1344 1345 0
-1345 1499 0
82 -1345 1346 0
-1346 1500 0
84 -1346 1347 0
-1347 1501 0
86 -1347 1348 0
-1348 1502 0
88 -1348 1349 0
-1349 1503 0
90 -1349 1350 0
-1350 1504 0
92 -1350 1351 0
-1351 1505 0
94 -1351 1352 0
-1352 1506 0
96 -1352 1353 0
-1353 1507 0
98 -1353 1354 0
-1354 1508 0
100 -1354 1355 0
-1355 1509 0
4 -1355 1356 0
-1356 1510 0
103 -1356 1357 0
-1357 1511 0
105 -1357 1358 0
-1358 1512 0
107 -1358 1359 0
-1359 1513 0
109 -1359 1360 0
-1360 1514 0
111 -1360 1361 0
-1361 1515 0
113 -1361 1362 0
-1362 1516 0
115 -1362 1363 0
-1363 1517 0
117 -1363 1364 0
-1364 1518 0
119 -1364 1365 0
-1365 1519 0
121 -1365 1366 0
-1366 1520 0
123 -1366 1367 0
-1367 1521 0
125 -1367 1368 0
-1368 1522 0
127 -1368 1369 0
-1369 1523 0
129 -1369 1370 0
-1370 1524 0
5 -1370 1371 0
-1371 1525 0
132 -1371 1372 0
-1372 1526 0
134 -1372 1373 0
-1373 1527 0
136 -1373 1374 0
-1374 1528 0
138 -1374 1375 0
-1375 1529 0
140 -1375 1376 0
-1376 1530 0
142 -1376 1377 0
-1377 1531 0
144 -1377 1378 0
-1378 1532 0
146 -1378 1379 0
-1379 1533 0
148 -1379 1380 0
-1380 1534 0
150 -1380 1381 0
-1381 1535 0
152 -1381 1382 0
-1382 1536 0
154 -1382 1383 0
-1383 1537 0
156 -1383 1384 0
-1384 1538 0
158 -1384 1385 0
-1385 1539 0
6 -1385 1386 0
-1386 1540 0
161 -1386 1387 0
-1387 1541 0
163 -1387 1388 0
-1388 1542 0
165 -1388 1389 0
-1389 1543 0
167 -1389 1390 0
-1390 1544 0
169 -1390 1391 0
-1391 1545 0
171 -1391 1392 0
-1392 1546 0
173 -1392 1393 0
-1393 1547 0
175 -1393 1394 0
-1394 1548 0
177 -1394 1395 0
-1395 1549 0
179 -1395 1396 0
-1396 1550 0
181 -1396 1397 0
-1397 1551 0
183 -1397 1398 0
-1398 1552 0
185 -1398 1399 0
-1399 1553 0
187 -1399 1400 0
-1400 1554 0
7 -1400 1401 0
-1401 1555 0
190 -1401 1402 0
-1402 1556 0
192 -1402 1403 0
-1403 1557 0
194 -1403 1404 0
-1404 1558 0
196 -1404 1405 0
-1405 1559 0
198 -1405 1406 0
-1406 1560 0
200 -1406 1407 0
-1407 1561 0
202 -1407 1408 0
-1408 1562 0
204 -1408 1409 0
-1409 1563 0
206 -1409 1410 0
-1410 1564 0
208 -1410 1411 0
-1411 1565 0
210 -1411 1412 0
-1412 1566 0
212 -1412 1413 0
-1413 1567 0
214 -1413 1414 0
-1414 1568 0
216 -1414 1415 0
-1415 1569 0
8 -1415 1416 0
-1416 1570 0
219 -1416 1417 0
-1417 1571 0
221 -1417 1418 0
-1418 1572 0
223 -1418 1419 0
-1419 1573 0
225 -1419 1420 0
-1420 1574 0
227 -1420 1421 0
-1421 1575 0
229 -1421 1422 0
-1422 1576 0
231 -1422 1423 0
-1423 1577 0
233 -1423 1424 0
-1424 1578 0
235 -1424 1425 0
-1425 1579 0
237 -1425 1426 0
-1426 1580 0
239 -1426 1427 0
-1427 1581 0
241 -1427 1428 0
-1428 1582 0
243 -1428 1429 0
-1429 1583 0
245 -1429 1430 0
-1430 1584 0
9 -1430 1431 0
-1431 1585 0
248 -1431 1432 0
-1432 1586 0
250 -1432 1433 0
-1433 1587 0
252 -1433 1434 0
-1434 1588 0
254 -1434 1435 0
-1435 1589 0
256 -1435 1436 0
-1436 1590 0
258 -1436 1437 0
-1437 1591 0
260 -1437 1438 0
-1438 1592 0
262 -1438 1439 0
-1439 1593 0
264 -1439 1440 0
-1440 1594 0
266 -1440 1441 0
-1441 1595 0
268 -1441 1442 0
-1442 1596 0
270 -1442 1443 0
-1443 1597 0
272 -1443 1444 0
-1444 1598 0
274 -1444 1445 0
-1445 1599 0
10 -1445 1446 0
-1446 1600 0
277 -1446 1447 0
-1447 1601 0
279 -1447 1448 0
-1448 1602 0
281 -1448 1449 0
-1449 1603 0
283 -1449 1450 0
-1450 1604 0
285 -1450 1451 0
-1451 1605 0
287 -1451 1452 0
-1452 1606 0
289 -1452 1453 0
-1453 1607 0
291 -1453 1454 0
-1454 1608 0
293 -1454 1455 0
-1455 1609 0
295 -1455 1456 0
-1456 1610 0
297 -1456 1457 0
-1457 1611 0
299 -1457 1458 0
-1458 1612 0
301 -1458 1459 0
-1459 1613 0
303 -1459 1460 0
-1460 1614 0
11 -1460 1461 0
-1461 1615 0
306 -1461 1462 0
-1462 1616 0
308 -1462 1463 0
-1463 1617 0
310 -1463 1464 0
-1464 1618 0
312 -1464 1465 0
-1465 1619 0
314 -1465 1466 0
-1466 1620 0
316 -1466 1467 0
-1467 1621 0
318 -1467 1468 0
-1468 1622 0
320 -1468 1469 0
-1469 1623 0
322 -1469 1470 0
-1470 1624 0
324 -1470 0
28 1471 0
-1471 1625 0
30 -1471 1472 0
-1472 1626 0
32 -1472 1473 0
-1473 1627 0
34 -1473 1474 0
-1474 1628 0
36 -1474 1475 0
-1475 1629 0
38 -1475 1476 0
-1476 1630 0
40 -1476 1477 0
-1477 1631 0
42 -1477 1478 0
-1478 1632 0
2 -1478 1479 0
-1479 1633 0
45 -1479 1480 0
-1480 1634 0
47 -1480 1481 0
-1481 1635 0
49 -1481 1482 0
-1482 1636 0
51 -1482 1483 0
-1483 1637 0
53 -1483 1484 0
-1484 1638 0
55 -1484 1485 0
-1485 1639 0
57 -1485 1486 0
-1486 1640 0
59 -1486 1487 0
-1487 1641 0
61 -1487 1488 0
-1488 1642 0
63 -1488 1489 0
-1489 1643 0
65 -1489 1490 0
-1490 1644 0
67 -1490 1491 0
-1491 1645 0
69 -1491 1492 0
-1492 1646 0
71 -1492 1493 0
-1493 1647 0
3 -1493 1494 0
-1494 1648 0
74 -1494 1495 0
-1495 1649 0
76 -1495 1496 0
-1496 1650 0
78 -1496 1497 0
-1497 1651 0
80 -1497 1498 0
-1498 1652 0
82 -1498 1499 0
-1499 1653 0
84 -1499 1500 0
-1500 1654 0
86 -1500 1501 0
-1501 1655 0
88 -1501 1502 0
-1502 1656 0
90 -1502 1503 0
-1503 1657 0
92 -1503 1504 0
-1504 1658 0
94 -1504 1505 0
-1505 1659 0
96 -1505 1506 0
-1506 1660 0
98 -1506 1507 0
-1507 1661 0
100 -1507 1508 0
-1508 1662 0
4 -1508 1509 0
-1509 1663 0
103 -1509 1510 0
-1510 1664 0
105 -1510 1511 0
-1511 1665 0
107 -1511 1512 0
-1512 1666 0
109 -1512 1513 0
-1513 1667 0
111 -1513 1514 0
-1514 1668 0
113 -1514 1515 0
-1515 1669 0
115 -1515 1516 0
-1516 1670 0
117 -1516 1517 0
-1517 1671 0
119 -1517 1518 0
-1518 1672 0
121 -1518 1519 0
-1519 1673 0
123 -1519 1520 0
-1520 1674 0
125 -1520 1521 0
-1521 1675 0
127 -1521 1522 0
-1522 1676 0
129 -1522 1523 0
-1523 1677 0
5 -1523 1524 0
-1524 1678 0
132 -1524 1525 0
-1525 1679 0
134 -1525 1526 0
-1526 1680 0
136 -1526 1527 0
-1527 1681 0
138 -1527 1528 0
-1528 1682 0
140 -1528 1529 0
-1529 1683 0
142 -1529 1530 0
-1530 1684 0
144 -1530 1531 0
-1531 1685 0
146 -1531 1532 0
-1532 1686 0
148 -1532 1533 0
-1533 1687 0
150 -1533 1534 0
-1534 1688 0
152 -1534 1535 0
-1535 1689 0
154 -1535 1536 0
-1536 1690 0
156 -1536 1537 0
-1537 1691 0
158 -1537 1538 0
-1538 1692 0
6 -1538 1539 0
-1539 1693 0
161 -1539 1540 0
-1540 1694 0
163 -1540 1541 0
-1541 1695 0
165 -1541 1542 0
-1542 1696 0
167 -1542 1543 0
-1543 1697 0
169 -1543 1544 0
-1544 1698 0
171 -1544 1545 0
-1545 1699 0
173 -1545 1546 0
-1546 1700 0
175 -1546 1547 0
-1547 1701 0
177 -1547 1548 0
-1548 1702 0
179 -1548 1549 0
-1549 1703 0
181 -1549 1550 0
-1550 1704 0
183 -1550 1551 0
-1551 1705 0
185 -1551 1552 0
-1552 1706 0
187 -1552 1553 0
-1553 1707 0
7 -1553 1554 0
-1554 1708 0
190 -1554 1555 0
-1555 1709 0
192 -1555 1556 0
-1556 1710 0
194 -1556 1557 0
-1557 1711 0
196 -1557 1558 0
-1558 1712 0
198 -1558 1559 0
-1559 1713 0
200 -1559 1560 0
-1560 1714 0
202 -1560 1561 0
-1561 1715 0
204 -1561 1562 0
-1562 1716 0
206 -1562 1563 0
-1563 1717 0
208 -1563 1564 0
-1564 1718 0
210 -1564 1565 0
-1565 1719 0
212 -1565 1566 0
-1566 1720 0
214 -1566 1567 0
-1567 1721 0
216 -1567 1568 0
-1568 1722 0
8 -1568 1569 0
-1569 1723 0
219 -1569 1570 0
-1570 1724 0
221 -1570 1571 0
-1571 1725 0
223 -1571 1572 0
-1572 1726 0
225 -1572 1573 0
-1573 1727 0
227 -1573 1574 0
-1574 1728 0
229 -1574 1575 0
-1575 1729 0
231 -1575 1576 0
-1576 1730 0
233 -1576 1577 0
-1577 1731 0
235 -1577 1578 0
-1578 1732 0
237 -1578 1579 0
-1579 1733 0
239 -1579 1580 0
-1580 1734 0
241 -1580 1581 0
-1581 1735 0
243 -1581 1582 0
-1582 1736 0
245 -1582 1583 0
-1583 1737 0
9 -1583 1584 0
-1584 1738 0
248 -1584 1585 0
-1585 1739 0
250 -1585 1586 0
-1586 1740 0
252 -1586 1587 0
-1587 1741 0
254 -1587 1588 0
-1588 1742 0
256 -1588 1589 0
-1589 1743 0
258 -1589 1590 0
-1590 1744 0
260 -1590 1591 0
-1591 1745 0
262 -1591 1592 0
-1592 1746 0
264 -1592 1593 0
-1593 1747 0
266 -1593 1594 0
-1594 1748 0
268 -1594 1595 0
-1595 1749 0
270 -1595 1596 0
-1596 1750 0
272 -1596 1597 0
-1597 1751 0
274 -1597 1598 0
-1598 1752 0
10 -1598 1599 0
-1599 1753 0
277 -1599 1600 0
-1600 1754 0
279 -1600 1601 0
-1601 1755 0
281 -1601 1602 0
-1602 1756 0
283 -1602 1603 0
-1603 1757 0
285 -1603 1604 0
-1604 1758 0
287 -1604 1605 0
-1605 1759 0
289 -1605 1606 0
-1606 1760 0
291 -1606 1607 0
-1607 1761 0
293 -1607 1608 0
-1608 1762 0
295 -1608 1609 0
-1609 1763 0
297 -1609 1610 0
-1610 1764 0
299 -1610 1611 0
-1611 1765 0
301 -1611 1612 0
-1612 1766 0
303 -1612 1613 0
-1613 1767 0
11 -1613 1614 0
-1614 1768 0
306 -1614 1615 0
-1615 1769 0
308 -1615 1616 0
-1616 1770 0
310 -1616 1617 0
-1617 1771 0
312 -1617 1618 0
-1618 1772 0
314 -1618 1619 0
-1619 1773 0
316 -1619 1620 0
-1620 1774 0
318 -1620 1621 0
-1621 1775 0
320 -1621 1622 0
-1622 1776 0
322 -1622 1623 0
-1623 1777 0
324 -1623 1624 0
-1624 1778 0
326 -1624 0
30 1625 0
-1625 1779 0
32 -1625 1626 0
-1626 1780 0
34 -1626 1627 0
-1627 1781 0
36 -1627 1628 0
-1628 1782 0
38 -1628 1629 0
-1629 1783 0
40 -1629 1630 0
-1630 1784 0
42 -1630 1631 0
-1631 1785 0
2 -1631 1632 0
-1632 1786 0
45 -1632 1633 0
-1633 1787 0
47 -1633 1634 0
-1634 1788 0
49 -1634 1635 0
-1635 1789 0
51 -1635 1636 0
-1636 1790 0
53 -1636 1637 0
-1637 1791 0
55 -1637 1638 0
-1638 1792 0
57 -1638 1639 0
-1639 1793 0
59 -1639 1640 0
-1640 1794 0
61 -1640 1641 0
-1641 1795 0
63 -1641 1642 0
-1642 1796 0
65 -1642 1643 0
-1643 1797 0
67 -1643 1644 0
-1644 1798 0
69 -1644 1645 0
-1645 1799 0
71 -1645 1646 0
-1646 1800 0
3 -1646 1647 0
-1647 1801 0
74 -1647 1648 0
-1648 1802 0
76 -1648 1649 0
-1649 1803 0
78 -1649 1650 0
-1650 1804 0
80 -1650 1651 0
-1651 1805 0
82 -1651 1652 0
-1652 1806 0
84 -1652 1653 0
-1653 1807 0
86 -1653 1654 0
-1654 1808 0
88 -1654 1655 0
-1655 1809 0
90 -1655 1656 0
-1656 1810 0
92 -1656 1657 0
-1657 1811 0
94 -1657 1658 0
-1658 1812 0
96 -1658 1659 0
-1659 1813 0
98 -1659 1660 0
-1660 1814 0
100 -1660 1661 0
-1661 1815 0
4 -1661 1662 0
-1662 1816 0
103 -1662 1663 0
-1663 1817 0
105 -1663 1664 0
-1664 1818 0
107 -1664 1665 0
-1665 1819 0
109 -1665 1666 0
-1666 1820 0
111 -1666 1667 0
-1667 1821 0
113 -1667 1668 0
-1668 1822 0
115 -1668 1669 0
-1669 1823 0
117 -1669 1670 0
-1670 1824 0
119 -1670 1671 0
-1671 1825 0
121 -1671 1672 0
-1672 1826 0
123 -1672 1673 0
-1673 1827 0
125 -1673 1674 0
-1674 1828 0
127 -1674 1675 0
-1675 1829 0
129 -1675 1676 0
-1676 1830 0
5 -1676 1677 0
-1677 1831 0
132 -1677 1678 0
-1678 1832 0
134 -1678 1679 0
-1679 1833 0
136 -1679 1680 0
-1680 1834 0
138 -1680 1681 0
-1681 1835 0
140 -1681 1682 0
-1682 1836 0
142 -1682 1683 0
-1683 1837 0
144 -1683 1684 0
-1684 1838 0
146 -1684 1685 0
-1685 1839 0
148 -1685 1686 0
-1686 1840 0
150 -1686 1687 0
-1687 1841 0
152 -1687 1688 0
-1688 1842 0
154 -1688 1689 0
-1689 1843 0
156 -1689 1690 0
-1690 1844 0
158 -1690 1691 0
-1691 1845 0
6 -1691 1692 0
-1692 1846 0
161 -1692 1693 0
-1693 1847 0
163 -1693 1694 0
-1694 1848 0
165 -1694 1695 0
-1695 1849 0
167 -1695 1696 0
-1696 1850 0
169 -1696 1697 0
-1697 1851 0
171 -1697 1698 0
-1698 1852 0
173 -1698 1699 0
-1699 1853 0
175 -1699 1700 0
-1700 1854 0
177 -1700 1701 0
-1701 1855 0
179 -1701 1702 0
-1702 1856 0
181 -1702 1703 0
-1703 1857 0
183 -1703 1704 0
-1704 1858 0
185 -1704 1705 0
-1705 1859 0
187 -1705 1706 0
-1706 1860 0
7 -1706 1707 0
-1707 1861 0
190 -1707 1708 0
-1708 1862 0
192 -1708 1709 0
-1709 1863 0
194 -1709 1710 0
-1710 1864 0
196 -1710 1711 0
-1711 1865 0
198 -1711 1712 0
-1712 1866 0
200 -1712 1713 0
-1713 1867 0
202 -1713 1714 0
-1714 1868 0
204 -1714 1715 0
-1715 1869 0
206 -1715 1716 0
-1716 1870 0
208 -1716 1717 0
-1717 1871 0
210 -1717 1718 0
-1718 1872 0
212 -1718 1719 0
-1719 1873 0
214 -1719 1720 0
-1720 1874 0
216 -1720 1721 0
-1721 1875 0
8 -1721 1722 0
-1722 1876 0
219 -1722 1723 0
-1723 1877 0
221 -1723 1724 0
-1724 1878 0
223 -1724 1725 0
-1725 1879 0
225 -1725 1726 0
-1726 1880 0
227 -1726 1727 0
-1727 1881 0
229 -1727 1728 0
-1728 1882 0
231 -1728 1729 0
-1729 1883 0
233 -1729 1730 0
-1730 1884 0
235 -1730 1731 0
-1731 1885 0
237 -1731 1732 0
-1732 1886 0
239 -1732 1733 0
-1733 1887 0
241 -1733 1734 0
-1734 1888 0
243 -1734 1735 0
-1735 1889 0
245 -1735 1736 0
-1736 1890 0
9 -1736 1737 0
-1737 1891 0
248 -1737 1738 0
-1738 1892 0
250 -1738 1739 0
-1739 1893 0
252 -1739 1740 0
-1740 1894 0
254 -1740 1741 0
-1741 1895 0
256 -1741 1742 0
-1742 1896 0
258 -1742 1743 0
-1743 1897 0
260 -1743 1744 0
-1744 1898 0
262 -1744 1745 0
-1745 1899 0
264 -1745 1746 0
-1746 1900 0
266 -1746 1747 0
-1747 1901 0
268 -1747 1748 0
-1748 1902 0
270 -1748 1749 0
-1749 1903 0
272 -1749 1750 0
-1750 1904 0
274 -1750 1751 0
-1751 1905 0
10 -1751 1752 0
-1752 1906 0
277 -1752 1753 0
-1753 1907 0
279 -1753 1754 0
-1754 1908 0
281 -1754 1755 0
-1755 1909 0
283 -1755 1756 0
-1756 1910 0
285 -1756 1757 0
-1757 1911 0
287 -1757 1758 0
-1758 1912 0
289 -1758 1759 0
-1759 1913 0
291 -1759 1760 0
-1760 1914 0
293 -1760 1761 0
-1761 1915 0
295 -1761 1762 0
-1762 1916 0
297 -1762 1763 0
-1763 1917 0
299 -1763 1764 0
-1764 1918 0
301 -1764 1765 0
-1765 1919 0
303 -1765 1766 0
-1766 1920 0
11 -1766 1767 0
-1767 1921 0
306 -1767 1768 0
-1768 1922 0
308 -1768 1769 0
-1769 1923 0
310 -1769 1770 0
-1770 1924 0
312 -1770 1771 0
-1771 1925 0
314 -1771 1772 0
-1772 1926 0
316 -1772 1773 0
-1773 1927 0
318 -1773 1774 0
-1774 1928 0
320 -1774 1775 0
-1775 1929 0
322 -1775 1776 0
-1776 1930 0
324 -1776 1777 0
-1777 1931 0
326 -1777 1778 0
-1778 1932 0
328 -1778 0
32 1779 0
-1779 1933 0
34 -1779 1780 0
-1780 1934 0
36 -1780 1781 0
-1781 1935 0
38 -1781 1782 0
-1782 1936 0
40 -1782 1783 0
-1783 1937 0
42 -1783 1784 0
-1784 1938 0
2 -1784 1785 0
-1785 1939 0
45 -1785 1786 0
-1786 1940 0
47 -1786 1787 0
-1787 1941 0
49 -1787 1788 0
-1788 1942 0
51 -1788 1789 0
-1789 1943 0
53 -1789 1790 0
-1790 1944 0
55 -1790 1791 0
-1791 1945 0
57 -1791 1792 0
-1792 1946 0
59 -1792 1793 0
-1793 1947 0
61 -1793 1794 0
-1794 1948 0
63 -1794 1795 0
-1795 1949 0
65 -1795 1796 0
-1796 1950 0
67 -1796 1797 0
-1797 1951 0
69 -1797 1798 0
-1798 1952 0
71 -1798 1799 0
-1799 1953 0
3 -1799 1800 0
-1800 1954 0
74 -1800 1801 0
-1801 1955 0
76 -1801 1802 0
-1802 1956 0
78 -1802 1803 0
-1803 1957 0
80 -1803 1804 0
-1804 1958 0
82 -1804 1805 0
-1805 1959 0
84 -1805 1806 0
-1806 1960 0
86 -1806 1807 0
-1807 1961 0
88 -1807 1808 0
-1808 1962 0
90 -1808 1809 0
-1809 1963 0
92 -1809 1810 0
-1810 1964 0
94 -1810 1811 0
-1811 1965 0
96 -1811 1812 0
-1812 1966 0
98 -1812 1813 0
-1813 1967 0
100 -1813 1814 0
-1814 1968 0
4 -1814 1815 0
-1815 1969 0
103 -1815 1816 0
-1816 1970 0
105 -1816 1817 0
-1817 1971 0
107 -1817 1818 0
-1818 1972 0
109 -1818 1819 0
-1819 1973 0
111 -1819 1820 0
-1820 1974 0
113 -1820 1821 0
-1821 1975 0
115 -1821 1822 0
-1822 1976 0
117 -1822 1823 0
-1823 1977 0
119 -1823 1824 0
-1824 1978 0
121 -1824 1825 0
-1825 1979 0
123 -1825 1826 0
-1826 1980 0
125 -1826 1827 0
-1827 1981 0
127 -1827 1828 0
-1828 1982 0
129 -1828 1829 0
-1829 1983 0
5 -1829 1830 0
-1830 1984 0
132 -1830 1831 0
-1831 1985 0
134 -1831 1832 0
-1832 1986 0
136 -1832 1833 0
-1833 1987 0
138 -1833 1834 0
-1834 1988 0
140 -1834 1835 0
-1835 1989 0
142 -1835 1836 0
-1836 1990 0
144 -1836 1837 0
-1837 1991 0
146 -1837 1838 0
-1838 1992 0
148 -1838 1839 0
-1839 1993 0
150 -1839 1840 0
-1840 1994 0
152 -1840 1841 0
-1841 1995 0
154 -1841 1842 0
-1842 1996 0
156 -1842 1843 0
-1843 1997 0
158 -1843 1844 0
-1844 1998 0
6 -1844 1845 0
-1845 1999 0
161 -1845 1846 0
-1846 2000 0
163 -1846 1847 0
-1847 2001 0
165 -1847 1848 0
-1848 2002 0
167 -1848 1849 0
-1849 2003 0
169 -1849 1850 0
-1850 2004 0
171 -1850 1851 0
-1851 2005 0
173 -1851 1852 0
-1852 2006 0
175 -1852 1853 0
-1853 2007 0
177 -1853 1854 0
-1854 2008 0
179 -1854 1855 0
-1855 2009 0
181 -1855 1856 0
-1856 2010 0
183 -1856 1857 0
-1857 2011 0
185 -1857 1858 0
-1858 2012 0
187 -1858 1859 0
-1859 2013 0
7 -1859 1860 0
-1860 2014 0
190 -1860 1861 0
-1861 2015 0
192 -1861 1862 0
-1862 2016 0
194 -1862 1863 0
-1863 2017 0
196 -1863 1864 0
-1864 2018 0
198 -1864 1865 0
-1865 2019 0
200 -1865 1866 0
-1866 2020 0
202 -1866 1867 0
-1867 2021 0
204 -1867 1868 0
-1868 2022 0
206 -1868 1869 0
-1869 2023 0
208 -1869 1870 0
-1870 2024 0
210 -1870 1871 0
-1871 2025 0
212 -1871 1872 0
-1872 2026 0
214 -1872 1873 0
-1873 2027 0
216 -1873 1874 0
-1874 2028 0
8 -1874 1875 0
-1875 2029 0
219 -1875 1876 0
-1876 2030 0
221 -1876 1877 0
-1877 2031 0
223 -1877 1878 0
-1878 2032 0
225 -1878 1879 0
-1879 2033 0
227 -1879 1880 0
-1880 2034 0
229 -1880 1881 0
-1881 2035 0
231 -1881 1882 0
-1882 2036 0
233 -1882 1883 0
-1883 2037 0
235 -1883 1884 0
-1884 2038 0
237 -1884 1885 0
-1885 2039 0
239 -1885 1886 0
-1886 2040 0
241 -1886 1887 0
-1887 2041 0
243 -1887 1888 0
-1888 2042 0
245 -1888 1889 0
-1889 2043 0
9 -1889 1890 0
-1890 2044 0
248 -1890 1891 0
-1891 2045 0
250 -1891 1892 0
-1892 2046 0
252 -1892 1893 0
-1893 2047 0
254 -1893 1894 0
-1894 2048 0
256 -1894 1895 0
-1895 2049 0
258 -1895 1896 0
-1896 2050 0
260 -1896 1897 0
-1897 2051 0
262 -1897 1898 0
-1898 2052 0
264 -1898 1899 0
-1899 2053 0
266 -1899 1900 0
-1900 2054 0
268 -1900 1901 0
-1901 2055 0
270 -1901 1902 0
-1902 2056 0
272 -1902 1903 0
-1903 2057 0
274 -1903 1904 0
-1904 2058 0
10 -1904 1905 0
-1905 2059 0
277 -1905 1906 0
-1906 2060 0
279 -1906 1907 0
-1907 2061 0
281 -1907 1908 0
-1908 2062 0
283 -1908 1909 0
-1909 2063 0
285 -1909 1910 0
-1910 2064 0
287 -1910 1911 0
-1911 2065 0
289 -1911 1912 0
-1912 2066 0
291 -1912 1913 0
-1913 2067 0
293 -1913 1914 0
-1914 2068 0
295 -1914 1915 0
-1915 2069 0
297 -1915 1916 0
-1916 2070 0
299 -1916 1917 0
-1917 2071 0
301 -1917 1918 0
-1918 2072 0
303 -1918 1919 0
-1919 2073 0
11 -1919 1920 0
-1920 2074 0
306 -1920 1921 0
-1921 2075 0
308 -1921 1922 0
-1922 2076 0
310 -1922 1923 0
-1923 2077 0
312 -1923 1924 0
-1924 2078 0
314 -1924 1925 0
-1925 2079 0
316 -1925 1926 0
-1926 2080 0
318 -1926 1927 0
-1927 2081 0
320 -1927 1928 0
-1928 2082 0
322 -1928 1929 0
-1929 2083 0
324 -1929 1930 0
-1930 2084 0
326 -1930 1931 0
-1931 2085 0
328 -1931 1932 0
-1932 2086 0
330 -1932 0
34 1933 0
-1933 2087 0
36 -1933 1934 0
-1934 2088 0
38 -1934 1935 0
-1935 2089 0
40 -1935 1936 0
-1936 2090 0
42 -1936 1937 0
-1937 2091 0
2 -1937 1938 0
-1938 2092 0
45 -1938 1939 0
-1939 2093 0
47 -1939 1940 0
-1940 2094 0
49 -1940 1941 0
-1941 2095 0
51 -1941 1942 0
-1942 2096 0
53 -1942 1943 0
-1943 2097 0
55 -1943 1944 0
-1944 2098 0
57 -1944 1945 0
-1945 2099 0
59 -1945 1946 0
-1946 2100 0
61 -1946 1947 0
-1947 2101 0
63 -1947 1948 0
-1948 2102 0
65 -1948 1949 0
-1949 2103 0
67 -1949 1950 0
-1950 2104 0
69 -1950 1951 0
-1951 2105 0
71 -1951 1952 0
-1952 2106 0
3 -1952 1953 0
-1953 2107 0
74 -1953 1954 0
-1954 2108 0
76 -1954 1955 0
-1955 2109 0
78 -1955 1956 0
-1956 2110 0
80 -1956 1957 0
-1957 2111 0
82 -1957 1958 0
-1958 2112 0
84 -1958 1959 0
-1959 2113 0
86 -1959 1960 0
-1960 2114 0
88 -1960 1961 0
-1961 2115 0
90 -1961 1962 0
-1962 2116 0
92 -1962 1963 0
-1963 2117 0
94 -1963 1964 0
-1964 2118 0
96 -1964 1965 0
-1965 2119 0
98 -1965 1966 0
-1966 2120 0
100 -1966 1967 0
-1967 2121 0
4 -1967 1968 0
-1968 2122 0
103 -1968 1969 0
-1969 2123 0
105 -1969 1970 0
-1970 2124 0
107 -1970 1971 0
-1971 2125 0
109 -1971 1972 0
-1972 2126 0
111 -1972 1973 0
-1973 2127 0
113 -1973 1974 0
-1974 2128 0
115 -1974 1975 0
-1975 2129 0
117 -1975 1976 0
-1976 2130 0
119 -1976 1977 0
-1977 2131 0
121 -1977 1978 0
-1978 2132 0
123 -1978 1979 0
-1979 2133 0
125 -1979 1980 0
-1980 2134 0
127 -1980 1981 0
-1981 2135 0
129 -1981 1982 0
-1982 2136 0
5 -1982 1983 0
-1983 2137 0
132 -1983 1984 0
-1984 2138 0
134 -1984 1985 0
-1985 2139 0
136 -1985 1986 0
-1986 2140 0
138 -1986 1987 0
-1987 2141 0
140 -1987 1988 0
-1988 2142 0
142 -1988 1989 0
-1989 2143 0
144 -1989 1990 0
-1990 2144 0
146 -1990 1991 0
-1991 2145 0
148 -1991 1992 0
-1992 2146 0
150 -1992 1993 0
-1993 2147 0
152 -1993 1994 0
-1994 2148 0
154 -1994 1995 0
-1995 2149 0
156 -1995 1996 0
-1996 2150 0
158 -1996 1997 0
-1997 2151 0
6 -1997 1998 0
-1998 2152 0
161 -1998 1999 0
-1999 2153 0
163 -1999 2000 0
-2000 2154 0
165 -2000 2001 0
-2001 2155 0
167 -2001 2002 0
-2002 2156 0
169 -2002 2003 0
-2003 2157 0
171 -2003 2004 0
-2004 2158 0
173 -2004 2005 0
-2005 2159 0
175 -2005 2006 0
-2006 2160 0
177 -2006 2007 0
-2007 2161 0
179 -2007 2008 0
-2008 2162 0
181 -2008 2009 0
-2009 2163 0
183 -2009 2010 0
-2010 2164 0
185 -2010 2011 0
-2011 2165 0
187 -2011 2012 0
-2012 2166 0
7 -2012 2013 0
-2013 2167 0
190 -2013 2014 0
-2014 2168 0
192 -2014 2015 0
-2015 2169 0
194 -2015 2016 0
-2016 2170 0
196 -2016 2017 0
-2017 2171 0
198 -2017 2018 0
-2018 2172 0
200 -2018 2019 0
-2019 2173 0
202 -2019 2020 0
-2020 2174 0
204 -2020 2021 0
-2021 2175 0
206 -2021 2022 0
-2022 2176 0
208 -2022 2023 0
-2023 2177 0
210 -2023 2024 0
-2024 2178 0
212 -2024 2025 0
-2025 2179 0
214 -2025 2026 0
-2026 2180 0
216 -2026 2027 0
-2027 2181 0
8 -2027 2028 0
-2028 2182 0
219 -2028 2029 0
-2029 2183 0
221 -2029 2030 0
-2030 2184 0
223 -2030 2031 0
-2031 2185 0
225 -2031 2032 0
-2032 2186 0
227 -2032 2033 0
-2033 2187 0
229 -2033 2034 0
-2034 2188 0
231 -2034 2035 0
-2035 2189 0
233 -2035 2036 0
-2036 2190 0
235 -2036 2037 0
-2037 2191 0
237 -2037 2038 0
-2038 2192 0
239 -2038 2039 0
-2039 2193 0
241 -2039 2040 0
-2040 2194 0
243 -2040 2041 0
-2041 2195 0
245 -2041 2042 0
-2042 2196 0
9 -2042 2043 0
-2043 2197 0
248 -2043 2044 0
-2044 2198 0
250 -2044 2045 0
-2045 2199 0
252 -2045 2046 0
-2046 2200 0
254 -2046 2047 0
-2047 2201 0
256 -2047 2048 0
-2048 2202 0
258 -2048 2049 0
-2049 2203 0
260 -2049 2050 0
-2050 2204 0
262 -2050 2051 0
-2051 2205 0
264 -2051 2052 0
-2052 2206 0
266 -2052 2053 0
-2053 2207 0
268 -2053 2054 0
-2054 2208 0
270 -2054 2055 0
-2055 2209 0
272 -2055 2056 0
-2056 2210 0
274 -2056 2057 0
-2057 2211 0
10 -2057 2058 0
-2058 2212 0
277 -2058 2059 0
-2059 2213 0
279 -2059 2060 0
-2060 2214 0
281 -2060 2061 0
-2061 2215 0
283 -2061 2062 0
-2062 2216 0
285 -2062 2063 0
-2063 2217 0
287 -2063 2064 0
-2064 2218 0
289 -2064 2065 0
-2065 2219 0
291 -2065 2066 0
-2066 2220 0
293 -2066 2067 0
-2067 2221 0
295 -2067 2068 0
-2068 2222 0
297 -2068 2069 0
-2069 2223 0
299 -2069 2070 0
-2070 2224 0
301 -2070 2071 0
-2071 2225 0
303 -2071 2072 0
-2072 2226 0
11 -2072 2073 0
-2073 2227 0
306 -2073 2074 0
-2074 2228 0
308 -2074 2075 0
-2075 2229 0
310 -2075 2076 0
-2076 2230 0
312 -2076 2077 0
-2077 2231 0
314 -2077 2078 0
-2078 2232 0
316 -2078 2079 0
-2079 2233 0
318 -2079 2080 0
-2080 2234 0
320 -2080 2081 0
-2081 2235 0
322 -2081 2082 0
-2082 2236 0
324 -2082 2083 0
-2083 2237 0
326 -2083 2084 0
-2084 2238 0
328 -2084 2085 0
-2085 2239 0
330 -2085 2086 0
-2086 2240 0
332 -2086 0
36 2087 0
-2087 2241 0
38 -2087 2088 0
-2088 2242 0
40 -2088 2089 0
-2089 2243 0
42 -2089 2090 0
-2090 2244 0
2 -2090 2091 0
-2091 2245 0
45 -2091 2092 0
-2092 2246 0
47 -2092 2093 0
-2093 2247 0
49 -2093 2094 0
-2094 2248 0
51 -2094 2095 0
-2095 2249 0
53 -2095 2096 0
-2096 2250 0
55 -2096 2097 0
-2097 2251 0
57 -2097 2098 0
-2098 2252 0
59 -2098 2099 0
-2099 2253 0
61 -2099 2100 0
-2100 2254 0
63 -2100 2101 0
-2101 2255 0
65 -2101 2102 0
-2102 2256 0
67 -2102 2103 0
-2103 2257 0
69 -2103 2104 0
-2104 2258 0
71 -2104 2105 0
-2105 2259 0
3 -2105 2106 0
-2106 2260 0
74 -2106 2107 0
-2107 2261 0
76 -2107 2108 0
-2108 2262 0
78 -2108 2109 0
-2109 2263 0
80 -2109 2110 0
-2110 2264 0
82 -2110 2111 0
-2111 2265 0
84 -2111 2112 0
-2112 2266 0
86 -2112 2113 0
-2113 2267 0
88 -2113 2114 0
-2114 2268 0
90 -2114 2115 0
-2115 2269 0
92 -2115 2116 0
-2116 2270 0
94 -2116 2117 0
-2117 2271 0
96 -2117 2118 0
-2118 2272 0
98 -2118 2119 0
-2119 2273 0
100 -2119 2120 0
-2120 2274 0
4 -2120 2121 0
-2121 2275 0
103 -2121 2122 0
-2122 2276 0
105 -2122 2123 0
-2123 2277 0
107 -2123 2124 0
-2124 2278 0
109 -2124 2125 0
-2125 2279 0
111 -2125 2126 0
-2126 2280 0
113 -2126 2127 0
-2127 2281 0
115 -2127 2128 0
-2128 2282 0
117 -2128 2129 0
-2129 2283 0
119 -2129 2130 0
-2130 2284 0
121 -2130 2131 0
-2131 2285 0
123 -2131 2132 0
-2132 2286 0
125 -2132 2133 0
-2133 2287 0
127 -2133 2134 0
-2134 2288 0
129 -2134 2135 0
-2135 2289 0
5 -2135 2136 0
-2136 2290 0
132 -2136 2137 0
-2137 2291 0
134 -2137 2138 0
-2138 2292 0
136 -2138 2139 0
-2139 2293 0
138 -2139 2140 0
-2140 2294 0
140 -2140 2141 0
-2141 2295 0
142 -2141 2142 0
-2142 2296 0
144 -2142 2143 0
-2143 2297 0
146 -2143 2144 0
-2144 2298 0
148 -2144 2145 0
-2145 2299 0
150 -2145 2146 0
-2146 2300 0
152 -2146 2147 0
-2147 2301 0
154 -2147 2148 0
-2148 2302 0
156 -2148 2149 0
-2149 2303 0
158 -2149 2150 0
-2150 2304 0
6 -2150 2151 0
-2151 2305 0
161 -2151 2152 0
-2152 2306 0
163 -2152 2153 0
-2153 2307 0
165 -2153 2154 0
-2154 2308 0
167 -2154 2155 0
-2155 2309 0
169 -2155 2156 0
-2156 2310 0
171 -2156 2157 0
-2157 2311 0
173 -2157 2158 0
-2158 2312 0
175 -2158 2159 0
-2159 2313 0
177 -2159 2160 0
-2160 2314 0
179 -2160 2161 0
-2161 2315 0
181 -2161 2162 0
-2162 2316 0
183 -2162 2163 0
-2163 2317 0
185 -2163 2164 0
-2164 2318 0
187 -2164 2165 0
-2165 2319 0
7 -2165 2166 0
-2166 2320 0
190 -2166 2167 0
-2167 2321 0
192 -2167 2168 0
-2168 2322 0
194 -2168 2169 0
-2169 2323 0
196 -2169 2170 0
-2170 2324 0
198 -2170 2171 0
-2171 2325 0
200 -2171 2172 0
-2172 2326 0
202 -2172 2173 0
-2173 2327 0
204 -2173 2174 0
-2174 2328 0
206 -2174 2175 0
-2175 2329 0
208 -2175 2176 0
-2176 2330 0
210 -2176 2177 0
-2177 2331 0
212 -2177 2178 0
-2178 2332 0
214 -2178 2179 0
-2179 2333 0
216 -2179 2180 0
-2180 2334 0
8 -2180 2181 0
-2181 2335 0
219 -2181 2182 0
-2182 2336 0
221 -2182 2183 0
-2183 2337 0
223 -2183 2184 0
-2184 2338 0
225 -2184 2185 0
-2185 2339 0
227 -2185 2186 0
-2186 2340 0
229 -2186 2187 0
-2187 2341 0
231 -2187 2188 0
-2188 2342 0
233 -2188 2189 0
-2189 2343 0
235 -2189 2190 0
-2190 2344 0
237 -2190 2191 0
-2191 2345 0
239 -2191 2192 0
-2192 2346 0
241 -2192 2193 0
-2193 2347 0
243 -2193 2194 0
-2194 2348 0
245 -2194 2195 0
-2195 2349 0
9 -2195 2196 0
-2196 2350 0
248 -2196 2197 0
-2197 2351 0
250 -2197 2198 0
-2198 2352 0
252 -2198 2199 0
-2199 2353 0
254 -2199 2200 0
-2200 2354 0
256 -2200 2201 0
-2201 2355 0
258 -2201 2202 0
-2202 2356 0
260 -2202 2203 0
-2203 2357 0
262 -2203 2204 0
-2204 2358 0
264 -2204 2205 0
-2205 2359 0
266 -2205 2206 0
-2206 2360 0
268 -2206 2207 0
-2207 2361 0
270 -2207 2208 0
-2208 2362 0
272 -2208 2209 0
-2209 2363 0
274 -2209 2210 0
-2210 2364 0
10 -2210 2211 0
-2211 2365 0
277 -2211 2212 0
-2212 2366 0
279 -2212 2213 0
-2213 2367 0
281 -2213 2214 0
-2214 2368 0
283 -2214 2215 0
-2215 2369 0
285 -2215 2216 0
-2216 2370 0
287 -2216 2217 0
-2217 2371 0
289 -2217 2218 0
-2218 2372 0
291 -2218 2219 0
-2219 2373 0
293 -2219 2220 0
-2220 2374 0
295 -2220 2221 0
-2221 2375 0
297 -2221 2222 0
-2222 2376 0
299 -2222 2223 0
-2223 2377 0
301 -2223 2224 0
-2224 2378 0
303 -2224 2225 0
-2225 2379 0
11 -2225 2226 0
-2226 2380 0
306 -2226 2227 0
-2227 2381 0
308 -2227 2228 0
-2228 2382 0
310 -2228 2229 0
-2229 2383 0
312 -2229 2230 0
-2230 2384 0
314 -2230 2231 0
-2231 2385 0
316 -2231 2232 0
-2232 2386 0
318 -2232 2233 0
-2233 2387 0
320 -2233 2234 0
-2234 2388 0
322 -2234 2235 0
-2235 2389 0
324 -2235 2236 0
-2236 2390 0
326 -2236 2237 0
-2237 2391 0
328 -2237 2238 0
-2238 2392 0
330 -2238 2239 0
-2239 2393 0
332 -2239 2240 0
-2240 2394 0
12 -2240 0
38 2241 0
-2241 2395 0
40 -2241 2242 0
-2242 2396 0
42 -2242 2243 0
-2243 2397 0
2 -2243 2244 0
-2244 2398 0
45 -2244 2245 0
-2245 2399 0
47 -2245 2246 0
-2246 2400 0
49 -2246 2247 0
-2247 2401 0
51 -2247 2248 0
-2248 2402 0
53 -2248 2249 0
-2249 2403 0
55 -2249 2250 0
-2250 2404 0
57 -2250 2251 0
-2251 2405 0
59 -2251 2252 0
-2252 2406 0
61 -2252 2253 0
-2253 2407 0
63 -2253 2254 0
-2254 2408 0
65 -2254 2255 0
-2255 2409 0
67 -2255 2256 0
-2256 2410 0
69 -2256 2257 0
-2257 2411 0
71 -2257 2258 0
-2258 2412 0
3 -2258 2259 0
-2259 2413 0
74 -2259 2260 0
-2260 2414 0
76 -2260 2261 0
-2261 2415 0
78 -2261 2262 0
-2262 2416 0
80 -2262 2263 0
-2263 2417 0
82 -2263 2264 0
-2264 2418 0
84 -2264 2265 0
-2265 2419 0
86 -2265 2266 0
-2266 2420 0
88 -2266 2267 0
-2267 2421 0
90 -2267 2268 0
-2268 2422 0
92 -2268 2269 0
-2269 2423 0
94 -2269 2270 0
-2270 2424 0
96 -2270 2271 0
-2271 2425 0
98 -2271 2272 0
-2272 2426 0
100 -2272 2273 0
-2273 2427 0
4 -2273 2274 0
-2274 2428 0
103 -2274 2275 0
-2275 2429 0
105 -2275 2276 0
-2276 2430 0
107 -2276 2277 0
-2277 2431 0
109 -2277 2278 0
-2278 2432 0
111 -2278 2279 0
-2279 2433 0
113 -2279 2280 0
-2280 2434 0
115 -2280 2281 0
-2281 2435 0
117 -2281 2282 0
-2282 2436 0
119 -2282 2283 0
-2283 2437 0
121 -2283 2284 0
-2284 2438 0
123 -2284 2285 0
-2285 2439 0
125 -2285 2286 0
-2286 2440 0
127 -2286 2287 0
-2287 2441 0
129 -2287 2288 0
-2288 2442 0
5 -2288 2289 0
-2289 2443 0
132 -2289 2290 0
-2290 2444 0
134 -2290 2291 0
-2291 2445 0
136 -2291 2292 0
-2292 2446 0
138 -2292 2293 0
-2293 2447 0
140 -2293 2294 0
-2294 2448 0
142 -2294 2295 0
-2295 2449 0
144 -2295 2296 0
-2296 2450 0
146 -2296 2297 0
-2297 2451 0
148 -2297 2298 0
-2298 2452 0
150 -2298 2299 0
-2299 2453 0
152 -2299 2300 0
-2300 2454 0
154 -2300 2301 0
-2301 2455 0
156 -2301 2302 0
-2302 2456 0
158 -2302 2303 0
-2303 2457 0
6 -2303 2304 0
-2304 2458 0
161 -2304 2305 0
-2305 2459 0
163 -2305 2306 0
-2306 2460 0
165 -2306 2307 0
-2307 2461 0
167 -2307 2308 0
-2308 2462 0
169 -2308 2309 0
-2309 2463 0
171 -2309 2310 0
-2310 2464 0
173 -2310 2311 0
-2311 2465 0
175 -2311 2312 0
-2312 2466 0
177 -2312 2313 0
-2313 2467 0
179 -2313 2314 0
-2314 2468 0
181 -2314 2315 0
-2315 2469 0
183 -2315 2316 0
-2316 2470 0
185 -2316 2317 0
-2317 2471 0
187 -2317 2318 0
-2318 2472 0
7 -2318 2319 0
-2319 2473 0
190 -2319 2320 0
-2320 2474 0
192 -2320 2321 0
-2321 2475 0
194 -2321 2322 0
-2322 2476 0
196 -2322 2323 0
-2323 2477 0
198 -2323 2324 0
-2324 2478 0
200 -2324 2325 0
-2325 2479 0
202 -2325 2326 0
-2326 2480 0
204 -2326 2327 0
-2327 2481 0
206 -2327 2328 0
-2328 2482 0
208 -2328 2329 0
-2329 2483 0
210 -2329 2330 0
-2330 2484 0
212 -2330 2331 0
-2331 2485 0
214 -2331 2332 0
-2332 2486 0
216 -2332 2333 0
-2333 2487 0
8 -2333 2334 0
-2334 2488 0
219 -2334 2335 0
-2335 2489 0
221 -2335 2336 0
-2336 2490 0
223 -2336 2337 0
-2337 2491 0
225 -2337 2338 0
-2338 2492 0
227 -2338 2339 0
-2339 2493 0
229 -2339 2340 0
-2340 2494 0
231 -2340 2341 0
-2341 2495 0
233 -2341 2342 0
-2342 2496 0
235 -2342 2343 0
-2343 2497 0
237 -2343 2344 0
-2344 2498 0
239 -2344 2345 0
-2345 2499 0
241 -2345 2346 0
-2346 2500 0
243 -2346 2347 0
-2347 2501 0
245 -2347 2348 0
-2348 2502 0
9 -2348 2349 0
-2349 2503 0
248 -2349 2350 0
-2350 2504 0
250 -2350 2351 0
-2351 2505 0
252 -2351 2352 0
-2352 2506 0
254 -2352 2353 0
-2353 2507 0
256 -2353 2354 0
-2354 2508 0
258 -2354 2355 0
-2355 2509 0
260 -2355 2356 0
-2356 2510 0
262 -2356 2357 0
-2357 2511 0
264 -2357 2358 0
-2358 2512 0
266 -2358 2359 0
-2359 2513 0
268 -2359 2360 0
-2360 2514 0
270 -2360 2361 0
-2361 2515 0
272 -2361 2362 0
-2362 2516 0
274 -2362 2363 0
-2363 2517 0
10 -2363 2364 0
-2364 2518 0
277 -2364 2365 0
-2365 2519 0
279 -2365 2366 0
-2366 2520 0
281 -2366 2367 0
-2367 2521 0
283 -2367 2368 0
-2368 2522 0
285 -2368 2369 0
-2369 2523 0
287 -2369 2370 0
-2370 2524 0
289 -2370 2371 0
-2371 2525 0
291 -2371 2372 0
-2372 2526 0
293 -2372 2373 0
-2373 2527 0
295 -2373 2374 0
-2374 2528 0
297 -2374 2375 0
-2375 2529 0
299 -2375 2376 0
-2376 2530 0
301 -2376 2377 0
-2377 2531 0
303 -2377 2378 0
-2378 2532 0
11 -2378 2379 0
-2379 2533 0
306 -2379 2380 0
-2380 2534 0
308 -2380 2381 0
-2381 2535 0
310 -2381 2382 0
-2382 2536 0
312 -2382 2383 0
-2383 2537 0
314 -2383 2384 0
-2384 2538 0
316 -2384 2385 0
-2385 2539 0
318 -2385 2386 0
-2386 2540 0
320 -2386 2387 0
-2387 2541 0
322 -2387 2388 0
-2388 2542 0
324 -2388 2389 0
-2389 2543 0
326 -2389 2390 0
-2390 2544 0
328 -2390 2391 0
-2391 2545 0
330 -2391 2392 0
-2392 2546 0
332 -2392 2393 0
-2393 2547 0
12 -2393 2394 0
-2394 2548 0
335 -2394 0
40 2395 0
-2395 2549 0
42 -2395 2396 0
-2396 2550 0
2 -2396 2397 0
-2397 2551 0
45 -2397 2398 0
-2398 2552 0
47 -2398 2399 0
-2399 2553 0
49 -2399 2400 0
-2400 2554 0
51 -2400 2401 0
-2401 2555 0
53 -2401 2402 0
-2402 2556 0
55 -2402 2403 0
-2403 2557 0
57 -2403 2404 0
-2404 2558 0
59 -2404 2405 0
-2405 2559 0
61 -2405 2406 0
-2406 2560 0
63 -2406 2407 0
-2407 2561 0
65 -2407 2408 0
-2408 2562 0
67 -2408 2409 0
-2409 2563 0
69 -2409 2410 0
-2410 2564 0
71 -2410 2411 0
-2411 2565 0
3 -2411 2412 0
-2412 2566 0
74 -2412 2413 0
-2413 2567 0
76 -2413 2414 0
-2414 2568 0
78 -2414 2415 0
-2415 2569 0
80 -2415 2416 0
-2416 2570 0
82 -2416 2417 0
-2417 2571 0
84 -2417 2418 0
-2418 2572 0
86 -2418 2419 0
-2419 2573 0
88 -2419 2420 0
-2420 2574 0
90 -2420 2421 0
-2421 2575 0
92 -2421 2422 0
-2422 2576 0
94 -2422 2423 0
-2423 2577 0
96 -2423 2424 0
-2424 2578 0
98 -2424 2425 0
-2425 2579 0
100 -2425 2426 0
-2426 2580 0
4 -2426 2427 0
-2427 2581 0
103 -2427 2428 0
-2428 2582 0
105 -2428 2429 0
-2429 2583 0
107 -2429 2430 0
-2430 2584 0
109 -2430 2431 0
-2431 2585 0
111 -2431 2432 0
-2432 2586 0
113 -2432 2433 0
-2433 2587 0
115 -2433 2434 0
-2434 2588 0
117 -2434 2435 0
-2435 2589 0
119 -2435 2436 0
-2436 2590 0
121 -2436 2437 0
-2437 2591 0
123 -2437 2438 0
-2438 2592 0
125 -2438 2439 0
-2439 2593 0
127 -2439 2440 0
-2440 2594 0
129 -2440 2441 0
-2441 2595 0
5 -2441 2442 0
-2442 2596 0
132 -2442 2443 0
-2443 2597 0
134 -2443 2444 0
-2444 2598 0
136 -2444 2445 0
-2445 2599 0
138 -2445 2446 0
-2446 2600 0
140 -2446 2447 0
-2447 2601 0
142 -2447 2448 0
-2448 2602 0
144 -2448 2449 0
-2449 2603 0
146 -2449 2450 0
-2450 2604 0
148 -2450 2451 0
-2451 2605 0
150 -2451 2452 0
-2452 2606 0
152 -2452 2453 0
-2453 2607 0
154 -2453 2454 0
-2454 2608 0
156 -2454 2455 0
-2455 2609 0
158 -2455 2456 0
-2456 2610 0
6 -2456 2457 0
-2457 2611 0
161 -2457 2458 0
-2458 2612 0
163 -2458 2459 0
-2459 2613 0
165 -2459 2460 0
-2460 2614 0
167 -2460 2461 0
-2461 2615 0
169 -2461 2462 0
-2462 2616 0
171 -2462 2463 0
-2463 2617 0
173 -2463 2464 0
-2464 2618 0
175 -2464 2465 0
-2465 2619 0
177 -2465 2466 0
-2466 2620 0
179 -2466 2467 0
-2467 2621 0
181 -2467 2468 0
-2468 2622 0
183 -2468 2469 0
-2469 2623 0
185 -2469 2470 0
-2470 2624 0
187 -2470 2471 0
-2471 2625 0
7 -2471 2472 0
-2472 2626 0
190 -2472 2473 0
-2473 2627 0
192 -2473 2474 0
-2474 2628 0
194 -2474 2475 0
-2475 2629 0
196 -2475 2476 0
-2476 2630 0
198 -2476 2477 0
-2477 2631 0
200 -2477 2478 0
-2478 2632 0
202 -2478 2479 0
-2479 2633 0
204 -2479 2480 0
-2480 2634 0
206 -2480 2481 0
-2481 2635 0
208 -2481 2482 0
-2482 2636 0
210 -2482 2483 0
-2483 2637 0
212 -2483 2484 0
-2484 2638 0
214 -2484 2485 0
-2485 2639 0
216 -2485 2486 0
-2486 2640 0
8 -2486 2487 0
-2487 2641 0
219 -2487 2488 0
-2488 2642 0
221 -2488 2489 0
-2489 2643 0
223 -2489 2490 0
-2490 2644 0
225 -2490 2491 0
-2491 2645 0
227 -2491 2492 0
-2492 2646 0
229 -2492 2493 0
-2493 2647 0
231 -2493 2494 0
-2494 2648 0
233 -2494 2495 0
-2495 2649 0
235 -2495 2496 0
-2496 2650 0
237 -2496 2497 0
-2497 2651 0
239 -2497 2498 0
-2498 2652 0
241 -2498 2499 0
-2499 2653 0
243 -2499 2500 0
-2500 2654 0
245 -2500 2501 0
-2501 2655 0
9 -2501 2502 0
-2502 2656 0
248 -2502 2503 0
-2503 2657 0
250 -2503 2504 0
-2504 2658 0
252 -2504 2505 0
-2505 2659 0
254 -2505 2506 0
-2506 2660 0
256 -2506 2507 0
-2507 2661 0
258 -2507 2508 0
-2508 2662 0
260 -2508 2509 0
-2509 2663 0
262 -2509 2510 0
-2510 2664 0
264 -2510 2511 0
-2511 2665 0
266 -2511 2512 0
-2512 2666 0
268 -2512 2513 0
-2513 2667 0
270 -2513 2514 0
-2514 2668 0
272 -2514 2515 0
-2515 2669 0
274 -2515 2516 0
-2516 2670 0
10 -2516 2517 0
-2517 2671 0
277 -2517 2518 0
-2518 2672 0
279 -2518 2519 0
-2519 2673 0
281 -2519 2520 0
-2520 2674 0
283 -2520 2521 0
-2521 2675 0
285 -2521 2522 0
-2522 2676 0
287 -2522 2523 0
-2523 2677 0
289 -2523 2524 0
-2524 2678 0
291 -2524 2525 0
-2525 2679 0
293 -2525 2526 0
-2526 2680 0
295 -2526 2527 0
-2527 2681 0
297 -2527 2528 0
-2528 2682 0
299 -2528 2529 0
-2529 2683 0
301 -2529 2530 0
-2530 2684 0
303 -2530 2531 0
-2531 2685 0
11 -2531 2532 0
-2532 2686 0
306 -2532 2533 0
-2533 2687 0
308 -2533 2534 0
-2534 2688 0
310 -2534 2535 0
-2535 2689 0
312 -2535 2536 0
-2536 2690 0
314 -2536 2537 0
-2537 2691 0
316 -2537 2538 0
-2538 2692 0
318 -2538 2539 0
-2539 2693 0
320 -2539 2540 0
-2540 2694 0
322 -2540 2541 0
-2541 2695 0
324 -2541 2542 0
-2542 2696 0
326 -2542 2543 0
-2543 2697 0
328 -2543 2544 0
-2544 2698 0
330 -2544 2545 0
-2545 2699 0
332 -2545 2546 0
-2546 2700 0
12 -2546 2547 0
-2547 2701 0
335 -2547 2548 0
-2548 2702 0
337 -2548 0
42 2549 0
-2549 2703 0
2 -2549 2550 0
-2550 2704 0
45 -2550 2551 0
-2551 2705 0
47 -2551 2552 0
-2552 2706 0
49 -2552 2553 0
-2553 2707 0
51 -2553 2554 0
-2554 2708 0
53 -2554 2555 0
-2555 2709 0
55 -2555 2556 0
-2556 2710 0
57 -2556 2557 0
-2557 2711 0
59 -2557 2558 0
-2558 2712 0
61 -2558 2559 0
-2559 2713 0
63 -2559 2560 0
-2560 2714 0
65 -2560 2561 0
-2561 2715 0
67 -2561 2562 0
-2562 2716 0
69 -2562 2563 0
-2563 2717 0
71 -2563 2564 0
-2564 2718 0
3 -2564 2565 0
-2565 2719 0
74 -2565 2566 0
-2566 2720 0
76 -2566 2567 0
-2567 2721 0
78 -2567 2568 0
-2568 2722 0
80 -2568 2569 0
-2569 2723 0
82 -2569 2570 0
-2570 2724 0
84 -2570 2571 0
-2571 2725 0
86 -2571 2572 0
-2572 2726 0
88 -2572 2573 0
-2573 2727 0
90 -2573 2574 0
-2574 2728 0
92 -2574 2575 0
-2575 2729 0
94 -2575 2576 0
-2576 2730 0
96 -2576 2577 0
-2577 2731 0
98 -2577 2578 0
-2578 2732 0
100 -2578 2579 0
-2579 2733 0
4 -2579 2580 0
-2580 2734 0
103 -2580 2581 0
-2581 2735 0
105 -2581 2582 0
-2582 2736 0
107 -2582 2583 0
-2583 2737 0
109 -2583 2584 0
-2584 2738 0
111 -2584 2585 0
-2585 2739 0
113 -2585 2586 0
-2586 2740 0
115 -2586 2587 0
-2587 2741 0
117 -2587 2588 0
-2588 2742 0
119 -2588 2589 0
-2589 2743 0
121 -2589 2590 0
-2590 2744 0
123 -2590 2591 0
-2591 2745 0
125 -2591 2592 0
-2592 2746 0
127 -2592 2593 0
-2593 2747 0
129 -2593 2594 0
-2594 2748 0
5 -2594 2595 0
-2595 2749 0
132 -2595 2596 0
-2596 2750 0
134 -2596 2597 0
-2597 2751 0
136 -2597 2598 0
-2598 2752 0
138 -2598 2599 0
-2599 2753 0
140 -2599 2600 0
-2600 2754 0
142 -2600 2601 0
-2601 2755 0
144 -2601 2602 0
-2602 2756 0
146 -2602 2603 0
-2603 2757 0
148 -2603 2604 0
-2604 2758 0
150 -2604 2605 0
-2605 2759 0
152 -2605 2606 0
-2606 2760 0
154 -2606 2607 0
-2607 2761 0
156 -2607 2608 0
-2608 2762 0
158 -2608 2609 0
-2609 2763 0
6 -2609 2610 0
-2610 2764 0
161 -2610 2611 0
-2611 2765 0
163 -2611 2612 0
-2612 2766 0
165 -2612 2613 0
-2613 2767 0
167 -2613 2614 0
-2614 2768 0
169 -2614 2615 0
-2615 2769 0
171 -2615 2616 0
-2616 2770 0
173 -2616 2617 0
-2617 2771 0
175 -2617 2618 0
-2618 2772 0
177 -2618 2619 0
-2619 2773 0
179 -2619 2620 0
-2620 2774 0
181 -2620 2621 0
-2621 2775 0
183 -2621 2622 0
-2622 2776 0
185 -2622 2623 0
-2623 2777 0
187 -2623 2624 0
-2624 2778 0
7 -2624 2625 0
-2625 2779 0
190 -2625 2626 0
-2626 2780 0
192 -2626 2627 0
-2627 2781 0
194 -2627 2628 0
-2628 2782 0
196 -2628 2629 0
-2629 2783 0
198 -2629 2630 0
-2630 2784 0
200 -2630 2631 0
-2631 2785 0
202 -2631 2632 0
-2632 2786 0
204 -2632 2633 0
-2633 2787 0
206 -2633 2634 0
-2634 2788 0
208 -2634 2635 0
-2635 2789 0
210 -2635 2636 0
-2636 2790 0
212 -2636 2637 0
-2637 2791 0
214 -2637 2638 0
-2638 2792 0
216 -2638 2639 0
-2639 2793 0
8 -2639 2640 0
-2640 2794 0
219 -2640 2641 0
-2641 2795 0
221 -2641 2642 0
-2642 2796 0
223 -2642 2643 0
-2643 2797 0
225 -2643 2644 0
-2644 2798 0
227 -2644 2645 0
-2645 2799 0
229 -2645 2646 0
-2646 2800 0
231 -2646 2647 0
-2647 2801 0
233 -2647 2648 0
-2648 2802 0
235 -2648 2649 0
-2649 2803 0
237 -2649 2650 0
-2650 2804 0
239 -2650 2651 0
-2651 2805 0
241 -2651 2652 0
-2652 2806 0
243 -2652 2653 0
-2653 2807 0
245 -2653 2654 0
-2654 2808 0
9 -2654 2655 0
-2655 2809 0
248 -2655 2656 0
-2656 2810 0
250 -2656 2657 0
-2657 2811 0
252 -2657 2658 0
-2658 2812 0
254 -2658 2659 0
-2659 2813 0
256 -2659 2660 0
-2660 2814 0
258 -2660 2661 0
-2661 2815 0
260 -2661 2662 0
-2662 2816 0
262 -2662 2663 0
-2663 2817 0
264 -2663 2664 0
-2664 2818 0
266 -2664 2665 0
-2665 2819 0
268 -2665 2666 0
-2666 2820 0
270 -2666 2667 0
-2667 2821 0
272 -2667 2668 0
-2668 2822 0
274 -2668 2669 0
-2669 2823 0
10 -2669 2670 0
-2670 2824 0
277 -2670 2671 0
-2671 2825 0
279 -2671 2672 0
-2672 2826 0
281 -2672 2673 0
-2673 2827 0
283 -2673 2674 0
-2674 2828 0
285 -2674 2675 0
-2675 2829 0
287 -2675 2676 0
-2676 2830 0
289 -2676 2677 0
-2677 2831 0
291 -2677 2678 0
-2678 2832 0
293 -2678 2679 0
-2679 2833 0
295 -2679 2680 0
-2680 2834 0
297 -2680 2681 0
-2681 2835 0
299 -2681 2682 0
-2682 2836 0
301 -2682 2683 0
-2683 2837 0
303 -2683 2684 0
-2684 2838 0
11 -2684 2685 0
-2685 2839 0
306 -2685 2686 0
-2686 2840 0
308 -2686 2687 0
-2687 2841 0
310 -2687 2688 0
-2688 2842 0
312 -2688 2689 0
-2689 2843 0
314 -2689 2690 0
-2690 2844 0
316 -2690 2691 0
-2691 2845 0
318 -2691 2692 0
-2692 2846 0
320 -2692 2693 0
-2693 2847 0
322 -2693 2694 0
-2694 2848 0
324 -2694 2695 0
-2695 2849 0
326 -2695 2696 0
-2696 2850 0
328 -2696 2697 0
-2697 2851 0
330 -2697 2698 0
-2698 2852 0
332 -2698 2699 0
-2699 2853 0
12 -2699 2700 0
-2700 2854 0
335 -2700 2701 0
-2701 2855 0
337 -2701 2702 0
-2702 2856 0
339 -2702 0
2 2703 0
-2703 2857 0
45 -2703 2704 0
-2704 2858 0
47 -2704 2705 0
-2705 2859 0
49 -2705 2706 0
-2706 2860 0
51 -2706 2707 0
-2707 2861 0
53 -2707 2708 0
-2708 2862 0
55 -2708 2709 0
-2709 2863 0
57 -2709 2710 0
-2710 2864 0
59 -2710 2711 0
-2711 2865 0
61 -2711 2712 0
-2712 2866 0
63 -2712 2713 0
-2713 2867 0
65 -2713 2714 0
-2714 2868 0
67 -2714 2715 0
-2715 2869 0
69 -2715 2716 0
-2716 2870 0
71 -2716 2717 0
-2717 2871 0
3 -2717 2718 0
-2718 2872 0
74 -2718 2719 0
-2719 2873 0
76 -2719 2720 0
-2720 2874 0
78 -2720 2721 0
-2721 2875 0
80 -2721 2722 0
-2722 2876 0
82 -2722 2723 0
-2723 2877 0
84 -2723 2724 0
-2724 2878 0
86 -2724 2725 0
-2725 2879 0
88 -2725 2726 0
-2726 2880 0
90 -2726 2727 0
-2727 2881 0
92 -2727 2728 0
-2728 2882 0
94 -2728 2729 0
-2729 2883 0
96 -2729 2730 0
-2730 2884 0
98 -2730 2731 0
-2731 2885 0
100 -2731 2732 0
-2732 2886 0
4 -2732 2733 0
-2733 2887 0
103 -2733 2734 0
-2734 2888 0
105 -2734 2735 0
-2735 2889 0
107 -2735 2736 0
-2736 2890 0
109 -2736 2737 0
-2737 2891 0
111 -2737 2738 0
-2738 2892 0
113 -2738 2739 0
-2739 2893 0
115 -2739 2740 0
-2740 2894 0
117 -2740 2741 0
-2741 2895 0
119 -2741 2742 0
-2742 2896 0
121 -2742 2743 0
-2743 2897 0
123 -2743 2744 0
-2744 2898 0
125 -2744 2745 0
-2745 2899 0
127 -2745 2746 0
-2746 2900 0
129 -2746 2747 0
-2747 2901 0
5 -2747 2748 0
-2748 2902 0
132 -2748 2749 0
-2749 2903 0
134 -2749 2750 0
-2750 2904 0
136 -2750 2751 0
-2751 2905 0
138 -2751 2752 0
-2752 2906 0
140 -2752 2753 0
-2753 2907 0
142 -2753 2754 0
-2754 2908 0
144 -2754 2755 0
-2755 2909 0
146 -2755 2756 0
-2756 2910 0
148 -2756 2757 0
-2757 2911 0
150 -2757 2758 0
-2758 2912 0
152 -2758 2759 0
-2759 2913 0
154 -2759 2760 0
-2760 2914 0
156 -2760 2761 0
-2761 2915 0
158 -2761 2762 0
-2762 2916 0
6 -2762 2763 0
-2763 2917 0
161 -2763 2764 0
-2764 2918 0
163 -2764 2765 0
-2765 2919 0
165 -2765 2766 0
-2766 2920 0
167 -2766 2767 0
-2767 2921 0
169 -2767 2768 0
-2768 2922 0
171 -2768 2769 0
-2769 2923 0
173 -2769 2770 0
-2770 2924 0
175 -2770 2771 0
-2771 2925 0
177 -2771 2772 0
-2772 2926 0
179 -2772 2773 0
-2773 2927 0
181 -2773 2774 0
-2774 2928 0
183 -2774 2775 0
-2775 2929 0
185 -2775 2776 0
-2776 2930 0
187 -2776 2777 0
-2777 2931 0
7 -2777 2778 0
-2778 2932 0
190 -2778 2779 0
-2779 2933 0
192 -2779 2780 0
-2780 2934 0
194 -2780 2781 0
-2781 2935 0
196 -2781 2782 0
-2782 2936 0
198 -2782 2783 0
-2783 2937 0
200 -2783 2784 0
-2784 2938 0
202 -2784 2785 0
-2785 2939 0
204 -2785 2786 0
-2786 2940 0
206 -2786 2787 0
-2787 2941 0
208 -2787 2788 0
-2788 2942 0
210 -2788 2789 0
-2789 2943 0
212 -2789 2790 0
-2790 2944 0
214 -2790 2791 0
-2791 2945 0
216 -2791 2792 0
-2792 2946 0
8 -2792 2793 0
-2793 2947 0
219 -2793 2794 0
-2794 2948 0
221 -2794 2795 0
-2795 2949 0
223 -2795 2796 0
-2796 2950 0
225 -2796 2797 0
-2797 2951 0
227 -2797 2798 0
-2798 2952 0
229 -2798 2799 0
-2799 2953 0
231 -2799 2800 0
-2800 2954 0
233 -2800 2801 0
-2801 2955 0
235 -2801 2802 0
-2802 2956 0
237 -2802 2803 0
-2803 2957 0
239 -2803 2804 0
-2804 2958 0
241 -2804 2805 0
-2805 2959 0
243 -2805 2806 0
-2806 2960 0
245 -2806 2807 0
-2807 2961 0
9 -2807 2808 0
-2808 2962 0
248 -2808 2809 0
-2809 2963 0
250 -2809 2810 0
-2810 2964 0
252 -2810 2811 0
-2811 2965 0
254 -2811 2812 0
-2812 2966 0
256 -2812 2813 0
-2813 2967 0
258 -2813 2814 0
-2814 2968 0
260 -2814 2815 0
-2815 2969 0
262 -2815 2816 0
-2816 2970 0
264 -2816 2817 0
-2817 2971 0
266 -2817 2818 0
-2818 2972 0
268 -2818 2819 0
-2819 2973 0
270 -2819 2820 0
-2820 2974 0
272 -2820 2821 0
-2821 2975 0
274 -2821 2822 0
-2822 2976 0
10 -2822 2823 0
-2823 2977 0
277 -2823 2824 0
-2824 2978 0
279 -2824 2825 0
-2825 2979 0
281 -2825 2826 0
-2826 2980 0
283 -2826 2827 0
-2827 2981 0
285 -2827 2828 0
-2828 2982 0
287 -2828 2829 0
-2829 2983 0
289 -2829 2830 0
-2830 2984 0
291 -2830 2831 0
-2831 2985 0
293 -2831 2832 0
-2832 2986 0
295 -2832 2833 0
-2833 2987 0
297 -2833 2834 0
-2834 2988 0
299 -2834 2835 0
-2835 2989 0
301 -2835 2836 0
-2836 2990 0
303 -2836 2837 0
-2837 2991 0
11 -2837 2838 0
-2838 2992 0
306 -2838 2839 0
-2839 2993 0
308 -2839 2840 0
-2840 2994 0
310 -2840 2841 0
-2841 2995 0
312 -2841 2842 0
-2842 2996 0
314 -2842 2843 0
-2843 2997 0
316 -2843 2844 0
-2844 2998 0
318 -2844 2845 0
-2845 2999 0
320 -2845 2846 0
-2846 3000 0
322 -2846 2847 0
-2847 3001 0
324 -2847 2848 0
-2848 3002 0
326 -2848 2849 0
-2849 3003 0
328 -2849 2850 0
-2850 3004 0
330 -2850 2851 0
-2851 3005 0
332 -2851 2852 0
-2852 3006 0
12 -2852 2853 0
-2853 3007 0
335 -2853 2854 0
-2854 3008 0
337 -2854 2855 0
-2855 3009 0
339 -2855 2856 0
-2856 3010 0
341 -2856 0
45 2857 0
-2857 3011 0
47 -2857 2858 0
-2858 3012 0
49 -2858 2859 0
-2859 3013 0
51 -2859 2860 0
-2860 3014 0
53 -2860 2861 0
-2861 3015 0
55 -2861 2862 0
-2862 3016 0
57 -2862 2863 0
-2863 3017 0
59 -2863 2864 0
-2864 3018 0
61 -2864 2865 0
-2865 3019 0
63 -2865 2866 0
-2866 3020 0
65 -2866 2867 0
-2867 3021 0
67 -2867 2868 0
-2868 3022 0
69 -2868 2869 0
-2869 3023 0
71 -2869 2870 0
-2870 3024 0
3 -2870 2871 0
-2871 3025 0
74 -2871 2872 0
-2872 3026 0
76 -2872 2873 0
-2873 3027 0
78 -2873 2874 0
-2874 3028 0
80 -2874 2875 0
-2875 3029 0
82 -2875 2876 0
-2876 3030 0
84 -2876 2877 0
-2877 3031 0
86 -2877 2878 0
-2878 3032 0
88 -2878 2879 0
-2879 3033 0
90 -2879 2880 0
-2880 3034 0
92 -2880 2881 0
-2881 3035 0
94 -2881 2882 0
-2882 3036 0
96 -2882 2883 0
-2883 3037 0
98 -2883 2884 0
-2884 3038 0
100 -2884 2885 0
-2885 3039 0
4 -2885 2886 0
-2886 3040 0
103 -2886 2887 0
-2887 3041 0
105 -2887 2888 0
-2888 3042 0
107 -2888 2889 0
-2889 3043 0
109 -2889 2890 0
-2890 3044 0
111 -2890 2891 0
-2891 3045 0
113 -2891 2892 0
-2892 3046 0
115 -2892 2893 0
-2893 3047 0
117 -2893 2894 0
-2894 3048 0
119 -2894 2895 0
-2895 3049 0
121 -2895 2896 0
-2896 3050 0
123 -2896 2897 0
-2897 3051 0
125 -2897 2898 0
-2898 3052 0
127 -2898 2899 0
-2899 3053 0
129 -2899 2900 0
-2900 3054 0
5 -2900 2901 0
-2901 3055 0
132 -2901 2902 0
-2902 3056 0
134 -2902 2903 0
-2903 3057 0
136 -2903 2904 0
-2904 3058 0
138 -2904 2905 0
-2905 3059 0
140 -2905 2906 0
-2906 3060 0
142 -2906 2907 0
-2907 3061 0
144 -2907 2908 0
-2908 3062 0
146 -2908 2909 0
-2909 3063 0
148 -2909 2910 0
-2910 3064 0
150 -2910 2911 0
-2911 3065 0
152 -2911 2912 0
-2912 3066 0
154 -2912 2913 0
-2913 3067 0
156 -2913 2914 0
-2914 3068 0
158 -2914 2915 0
-2915 3069 0
6 -2915 2916 0
-2916 3070 0
161 -2916 2917 0
-2917 3071 0
163 -2917 2918 0
-2918 3072 0
165 -2918 2919 0
-2919 3073 0
167 -2919 2920 0
-2920 3074 0
169 -2920 2921 0
-2921 3075 0
171 -2921 2922 0
-2922 3076 0
173 -2922 2923 0
-2923 3077 0
175 -2923 2924 0
-2924 3078 0
177 -2924 2925 0
-2925 3079 0
179 -2925 2926 0
-2926 3080 0
181 -2926 2927 0
-2927 3081 0
183 -2927 2928 0
-2928 3082 0
185 -2928 2929 0
-2929 3083 0
187 -2929 2930 0
-2930 3084 0
7 -2930 2931 0
-2931 3085 0
190 -2931 2932 0
-2932 3086 0
192 -2932 2933 0
-2933 3087 0
194 -2933 2934 0
-2934 3088 0
196 -2934 2935 0
-2935 3089 0
198 -2935 2936 0
-2936 3090 0
200 -2936 2937 0
-2937 3091 0
202 -2937 2938 0
-2938 3092 0
204 -2938 2939 0
-2939 3093 0
206 -2939 2940 0
-2940 3094 0
208 -2940 2941 0
-2941 3095 0
210 -2941 2942 0
-2942 3096 0
212 -2942 2943 0
-2943 3097 0
214 -2943 2944 0
-2944 3098 0
216 -2944 2945 0
-2945 3099 0
8 -2945 2946 0
-2946 3100 0
219 -2946 2947 0
-2947 3101 0
221 -2947 2948 0
-2948 3102 0
223 -2948 2949 0
-2949 3103 0
225 -2949 2950 0
-2950 3104 0
227 -2950 2951 0
-2951 3105 0
229 -2951 2952 0
-2952 3106 0
231 -2952 2953 0
-2953 3107 0
233 -2953 2954 0
-2954 3108 0
235 -2954 2955 0
-2955 3109 0
237 -2955 2956 0
-2956 3110 0
239 -2956 2957 0
-2957 3111 0
241 -2957 2958 0
-2958 3112 0
243 -2958 2959 0
-2959 3113 0
245 -2959 2960 0
-2960 3114 0
9 -2960 2961 0
-2961 3115 0
248 -2961 2962 0
-2962 3116 0
250 -2962 2963 0
-2963 3117 0
252 -2963 2964 0
-2964 3118 0
254 -2964 2965 0
-2965 3119 0
256 -2965 2966 0
-2966 3120 0
258 -2966 2967 0
-2967 3121 0
260 -2967 2968 0
-2968 3122 0
262 -2968 2969 0
-2969 3123 0
264 -2969 2970 0
-2970 3124 0
266 -2970 2971 0
-2971 3125 0
268 -2971 2972 0
-2972 3126 0
270 -2972 2973 0
-2973 3127 0
272 -2973 2974 0
-2974 3128 0
274 -2974 2975 0
-2975 3129 0
10 -2975 2976 0
-2976 3130 0
277 -2976 2977 0
-2977 3131 0
279 -2977 2978 0
-2978 3132 0
281 -2978 2979 0
-2979 3133 0
283 -2979 2980 0
-2980 3134 0
285 -2980 2981 0
-2981 3135 0
287 -2981 2982 0
-2982 3136 0
289 -2982 2983 0
-2983 3137 0
291 -2983 2984 0
-2984 3138 0
293 -2984 2985 0
-2985 3139 0
295 -2985 2986 0
-2986 3140 0
297 -2986 2987 0
-2987 3141 0
299 -2987 2988 0
-2988 3142 0
301 -2988 2989 0
-2989 3143 0
303 -2989 2990 0
-2990 3144 0
11 -2990 2991 0
-2991 3145 0
306 -2991 2992 0
-2992 3146 0
308 -2992 2993 0
-2993 3147 0
310 -2993 2994 0
-2994 3148 0
312 -2994 2995 0
-2995 3149 0
314 -2995 2996 0
-2996 3150 0
316 -2996 2997 0
-2997 3151 0
318 -2997 2998 0
-2998 3152 0
320 -2998 2999 0
-2999 3153 0
322 -2999 3000 0
-3000 3154 0
324 -3000 3001 0
-3001 3155 0
326 -3001 3002 0
-3002 3156 0
328 -3002 3003 0
-3003 3157 0
330 -3003 3004 0
-3004 3158 0
332 -3004 3005 0
-3005 3159 0
12 -3005 3006 0
-3006 3160 0
335 -3006 3007 0
-3007 3161 0
337 -3007 3008 0
-3008 3162 0
339 -3008 3009 0
-3009 3163 0
341 -3009 3010 0
-3010 3164 0
343 -3010 0
47 3011 0
-3011 3165 0
49 -3011 3012 0
-3012 3166 0
51 -3012 3013 0
-3013 3167 0
53 -3013 3014 0
-3014 3168 0
55 -3014 3015 0
-3015 3169 0
57 -3015 3016 0
-3016 3170 0
59 -3016 3017 0
-3017 3171 0
61 -3017 3018 0
-3018 3172 0
63 -3018 3019 0
-3019 3173 0
65 -3019 3020 0
-3020 3174 0
67 -3020 3021 0
-3021 3175 0
69 -3021 3022 0
-3022 3176 0
71 -3022 3023 0
-3023 3177 0
3 -3023 3024 0
-3024 3178 0
74 -3024 3025 0
-3025 3179 0
76 -3025 3026 0
-3026 3180 0
78 -3026 3027 0
-3027 3181 0
80 -3027 3028 0
-3028 3182 0
82 -3028 3029 0
-3029 3183 0
84 -3029 3030 0
-3030 3184 0
86 -3030 3031 0
-3031 3185 0
88 -3031 3032 0
-3032 3186 0
90 -3032 3033 0
-3033 3187 0
92 -3033 3034 0
-3034 3188 0
94 -3034 3035 0
-3035 3189 0
96 -3035 3036 0
-3036 3190 0
98 -3036 3037 0
-3037 3191 0
100 -3037 3038 0
-3038 3192 0
4 -3038 3039 0
-3039 3193 0
103 -3039 3040 0
-3040 3194 0
105 -3040 3041 0
-3041 3195 0
107 -3041 3042 0
-3042 3196 0
109 -3042 3043 0
-3043 3197 0
111 -3043 3044 0
-3044 3198 0
113 -3044 3045 0
-3045 3199 0
115 -3045 3046 0
-3046 3200 0
117 -3046 3047 0
-3047 3201 0
119 -3047 3048 0
-3048 3202 0
121 -3048 3049 0
-3049 3203 0
123 -3049 3050 0
-3050 3204 0
125 -3050 3051 0
-3051 3205 0
127 -3051 3052 0
-3052 3206 0
129 -3052 3053 0
-3053 3207 0
5 -3053 3054 0
-3054 3208 0
132 -3054 3055 0
-3055 3209 0
134 -3055 3056 0
-3056 3210 0
136 -3056 3057 0
-3057 3211 0
138 -3057 3058 0
-3058 3212 0
140 -3058 3059 0
-3059 3213 0
142 -3059 3060 0
-3060 3214 0
144 -3060 3061 0
-3061 3215 0
146 -3061 3062 0
-3062 3216 0
148 -3062 3063 0
-3063 3217 0
150 -3063 3064 0
-3064 3218 0
152 -3064 3065 0
-3065 3219 0
154 -3065 3066 0
-3066 3220 0
156 -3066 3067 0
-3067 3221 0
158 -3067 3068 0
-3068 3222 0
6 -3068 3069 0
-3069 3223 0
161 -3069 3070 0
-3070 3224 0
163 -3070 3071 0
-3071 3225 0
165 -3071 3072 0
-3072 3226 0
167 -3072 3073 0
-3073 3227 0
169 -3073 3074 0
-3074 3228 0
171 -3074 3075 0
-3075 3229 0
173 -3075 3076 0
-3076 3230 0
175 -3076 3077 0
-3077 3231 0
177 -3077 3078 0
-3078 3232 0
179 -3078 3079 0
-3079 3233 0
181 -3079 3080 0
-3080 3234 0
183 -3080 3081 0
-3081 3235 0
185 -3081 3082 0
-3082 3236 0
187 -3082 3083 0
-3083 3237 0
7 -3083 3084 0
-3084 3238 0
190 -3084 3085 0
-3085 3239 0
192 -3085 3086 0
-3086 3240 0
194 -3086 3087 0
-3087 3241 0
196 -3087 3088 0
-3088 3242 0
198 -3088 3089 0
-3089 3243 0
200 -3089 3090 0
-3090 3244 0
202 -3090 3091 0
-3091 3245 0
204 -3091 3092 0
-3092 3246 0
206 -3092 3093 0
-3093 3247 0
208 -3093 3094 0
-3094 3248 0
210 -3094 3095 0
-3095 3249 0
212 -3095 3096 0
-3096 3250 0
214 -3096 3097 0
-3097 3251 0
216 -3097 3098 0
-3098 3252 0
8 -3098 3099 0
-3099 3253 0
219 -3099 3100 0
-3100 3254 0
221 -3100 3101 0
-3101 3255 0
223 -3101 3102 0
-3102 3256 0
225 -3102 3103 0
-3103 3257 0
227 -3103 3104 0
-3104 3258 0
229 -3104 3105 0
-3105 3259 0
231 -3105 3106 0
-3106 3260 0
233 -3106 3107 0
-3107 3261 0
235 -3107 3108 0
-3108 3262 0
237 -3108 3109 0
-3109 3263 0
239 -3109 3110 0
-3110 3264 0
241 -3110 3111 0
-3111 3265 0
243 -3111 3112 0
-3112 3266 0
245 -3112 3113 0
-3113 3267 0
9 -3113 3114 0
-3114 3268 0
248 -3114 3115 0
-3115 3269 0
250 -3115 3116 0
-3116 3270 0
252 -3116 3117 0
-3117 3271 0
254 -3117 3118 0
-3118 3272 0
256 -3118 3119 0
-3119 3273 0
258 -3119 3120 0
-3120 3274 0
260 -3120 3121 0
-3121 3275 0
262 -3121 3122 0
-3122 3276 0
264 -3122 3123 0
-3123 3277 0
266 -3123 3124 0
-3124 3278 0
268 -3124 3125 0
-3125 3279 0
270 -3125 3126 0
-3126 3280 0
272 -3126 3127 0
-3127 3281 0
274 -3127 3128 0
-3128 3282 0
10 -3128 3129 0
-3129 3283 0
277 -3129 3130 0
-3130 3284 0
279 -3130 3131 0
-3131 3285 0
281 -3131 3132 0
-3132 3286 0
283 -3132 3133 0
-3133 3287 0
285 -3133 3134 0
-3134 3288 0
287 -3134 3135 0
-3135 3289 0
289 -3135 3136 0
-3136 3290 0
291 -3136 3137 0
-3137 3291 0
293 -3137 3138 0
-3138 3292 0
295 -3138 3139 0
-3139 3293 0
297 -3139 3140 0
-3140 3294 0
299 -3140 3141 0
-3141 3295 0
301 -3141 3142 0
-3142 3296 0
303 -3142 3143 0
-3143 3297 0
11 -3143 3144 0
-3144 3298 0
306 -3144 3145 0
-3145 3299 0
308 -3145 3146 0
-3146 3300 0
310 -3146 3147 0
-3147 3301 0
312 -3147 3148 0
-3148 3302 0
314 -3148 3149 0
-3149 3303 0
316 -3149 3150 0
-3150 3304 0
318 -3150 3151 0
-3151 3305 0
320 -3151 3152 0
-3152 3306 0
322 -3152 3153 0
-3153 3307 0
324 -3153 3154 0
-3154 3308 0
326 -3154 3155 0
-3155 3309 0
328 -3155 3156 0
-3156 3310 0
330 -3156 3157 0
-3157 3311 0
332 -3157 3158 0
-3158 3312 0
12 -3158 3159 0
-3159 3313 0
335 -3159 3160 0
-3160 3314 0
337 -3160 3161 0
-3161 3315 0
339 -3161 3162 0
-3162 3316 0
341 -3162 3163 0
-3163 3317 0
343 -3163 3164 0
-3164 3318 0
345 -3164 0
49 3165 0
-3165 3319 0
51 -3165 3166 0
-3166 3320 0
53 -3166 3167 0
-3167 3321 0
55 -3167 3168 0
-3168 3322 0
57 -3168 3169 0
-3169 3323 0
59 -3169 3170 0
-3170 3324 0
61 -3170 3171 0
-3171 3325 0
63 -3171 3172 0
-3172 3326 0
65 -3172 3173 0
-3173 3327 0
67 -3173 3174 0
-3174 3328 0
69 -3174 3175 0
-3175 3329 0
71 -3175 3176 0
-3176 3330 0
3 -3176 3177 0
-3177 3331 0
74 -3177 3178 0
-3178 3332 0
76 -3178 3179 0
-3179 3333 0
78 -3179 3180 0
-3180 3334 0
80 -3180 3181 0
-3181 3335 0
82 -3181 3182 0
-3182 3336 0
84 -3182 3183 0
-3183 3337 0
86 -3183 3184 0
-3184 3338 0
88 -3184 3185 0
-3185 3339 0
90 -3185 3186 0
-3186 3340 0
92 -3186 3187 0
-3187 3341 0
94 -3187 3188 0
-3188 3342 0
96 -3188 3189 0
-3189 3343 0
98 -3189 3190 0
-3190 3344 0
100 -3190 3191 0
-3191 3345 0
4 -3191 3192 0
-3192 3346 0
103 -3192 3193 0
-3193 3347 0
105 -3193 3194 0
-3194 3348 0
107 -3194 3195 0
-3195 3349 0
109 -3195 3196 0
-3196 3350 0
111 -3196 3197 0
-3197 3351 0
113 -3197 3198 0
-3198 3352 0
115 -3198 3199 0
-3199 3353 0
117 -3199 3200 0
-3200 3354 0
119 -3200 3201 0
-3201 3355 0
121 -3201 3202 0
-3202 3356 0
123 -3202 3203 0
-3203 3357 0
125 -3203 3204 0
-3204 3358 0
127 -3204 3205 0
-3205 3359 0
129 -3205 3206 0
-3206 3360 0
5 -3206 3207 0
-3207 3361 0
132 -3207 3208 0
-3208 3362 0
134 -3208 3209 0
-3209 3363 0
136 -3209 3210 0
-3210 3364 0
138 -3210 3211 0
-3211 3365 0
140 -3211 3212 0
-3212 3366 0
142 -3212 3213 0
-3213 3367 0
144 -3213 3214 0
-3214 3368 0
146 -3214 3215 0
-3215 3369 0
148 -3215 3216 0
-3216 3370 0
150 -3216 3217 0
-3217 3371 0
152 -3217 3218 0
-3218 3372 0
154 -3218 3219 0
-3219 3373 0
156 -3219 3220 0
-3220 3374 0
158 -3220 3221 0
-3221 3375 0
6 -3221 3222 0
-3222 3376 0
161 -3222 3223 0
-3223 3377 0
163 -3223 3224 0
-3224 3378 0
165 -3224 3225 0
-3225 3379 0
167 -3225 3226 0
-3226 3380 0
169 -3226 3227 0
-3227 3381 0
171 -3227 3228 0
-3228 3382 0
173 -3228 3229 0
-3229 3383 0
175 -3229 3230 0
-3230 3384 0
177 -3230 3231 0
-3231 3385 0
179 -3231 3232 0
-3232 3386 0
181 -3232 3233 0
-3233 3387 0
183 -3233 3234 0
-3234 3388 0
185 -3234 3235 0
-3235 3389 0
187 -3235 3236 0
-3236 3390 0
7 -3236 3237 0
-3237 3391 0
190 -3237 3238 0
-3238 3392 0
192 -3238 3239 0
-3239 3393 0
194 -3239 3240 0
-3240 3394 0
196 -3240 3241 0
-3241 3395 0
198 -3241 3242 0
-3242 3396 0
200 -3242 3243 0
-3243 3397 0
202 -3243 3244 0
-3244 3398 0
204 -3244 3245 0
-3245 3399 0
206 -3245 3246 0
-3246 3400 0
208 -3246 3247 0
-3247 3401 0
210 -3247 3248 0
-3248 3402 0
212 -3248 3249 0
-3249 3403 0
214 -3249 3250 0
-3250 3404 0
216 -3250 3251 0
-3251 3405 0
8 -3251 3252 0
-3252 3406 0
219 -3252 3253 0
-3253 3407 0
221 -3253 3254 0
-3254 3408 0
223 -3254 3255 0
-3255 3409 0
225 -3255 3256 0
-3256 3410 0
227 -3256 3257 0
-3257 3411 0
229 -3257 3258 0
-3258 3412 0
231 -3258 3259 0
-3259 3413 0
233 -3259 3260 0
-3260 3414 0
235 -3260 3261 0
-3261 3415 0
237 -3261 3262 0
-3262 3416 0
239 -3262 3263 0
-3263 3417 0
241 -3263 3264 0
-3264 3418 0
243 -3264 3265 0
-3265 3419 0
245 -3265 3266 0
-3266 3420 0
9 -3266 3267 0
-3267 3421 0
248 -3267 3268 0
-3268 3422 0
250 -3268 3269 0
-3269 3423 0
252 -3269 3270 0
-3270 3424 0
254 -3270 3271 0
-3271 3425 0
256 -3271 3272 0
-3272 3426 0
258 -3272 3273 0
-3273 3427 0
260 -3273 3274 0
-3274 3428 0
262 -3274 3275 0
-3275 3429 0
264 -3275 3276 0
-3276 3430 0
266 -3276 3277 0
-3277 3431 0
268 -3277 3278 0
-3278 3432 0
270 -3278 3279 0
-3279 3433 0
272 -3279 3280 0
-3280 3434 0
274 -3280 3281 0
-3281 3435 0
10 -3281 3282 0
-3282 3436 0
277 -3282 3283 0
-3283 3437 0
279 -3283 3284 0
-3284 3438 0
281 -3284 3285 0
-3285 3439 0
283 -3285 3286 0
-3286 3440 0
285 -3286 3287 0
-3287 3441 0
287 -3287 3288 0
-3288 3442 0
289 -3288 3289 0
-3289 3443 0
291 -3289 3290 0
-3290 3444 0
293 -3290 3291 0
-3291 3445 0
295 -3291 3292 0
-3292 3446 0
297 -3292 3293 0
-3293 3447 0
299 -3293 3294 0
-3294 3448 0
301 -3294 3295 0
-3295 3449 0
303 -3295 3296 0
-3296 3450 0
11 -3296 3297 0
-3297 3451 0
306 -3297 3298 0
-3298 3452 0
308 -3298 3299 0
-3299 3453 0
310 -3299 3300 0
-3300 3454 0
312 -3300 3301 0
-3301 3455 0
314 -3301 3302 0
-3302 3456 0
316 -3302 3303 0
-3303 3457 0
318 -3303 3304 0
-3304 3458 0
320 -3304 3305 0
-3305 3459 0
322 -3305 3306 0
-3306 3460 0
324 -3306 3307 0
-3307 3461 0
326 -3307 3308 0
-3308 3462 0
328 -3308 3309 0
-3309 3463 0
330 -3309 3310 0
-3310 3464 0
332 -3310 3311 0
-3311 3465 0
12 -3311 3312 0
-3312 3466 0
335 -3312 3313 0
-3313 3467 0
337 -3313 3314 0
-3314 3468 0
339 -3314 3315 0
-3315 3469 0
341 -3315 3316 0
-3316 3470 0
343 -3316 3317 0
-3317 3471 0
345 -3317 3318 0
-3318 3472 0
347 -3318 0
51 3319 0
-3319 3473 0
53 -3319 3320 0
-3320 3474 0
55 -3320 3321 0
-3321 3475 0
57 -3321 3322 0
-3322 3476 0
59 -3322 3323 0
-3323 3477 0
61 -3323 3324 0
-3324 3478 0
63 -3324 3325 0
-3325 3479 0
65 -3325 3326 0
-3326 3480 0
67 -3326 3327 0
-3327 3481 0
69 -3327 3328 0
-3328 3482 0
71 -3328 3329 0
-3329 3483 0
3 -3329 3330 0
-3330 3484 0
74 -3330 3331 0
-3331 3485 0
76 -3331 3332 0
-3332 3486 0
78 -3332 3333 0
-3333 3487 0
80 -3333 3334 0
-3334 3488 0
82 -3334 3335 0
-3335 3489 0
84 -3335 3336 0
-3336 3490 0
86 -3336 3337 0
-3337 3491 0
88 -3337 3338 0
-3338 3492 0
90 -3338 3339 0
-3339 3493 0
92 -3339 3340 0
-3340 3494 0
94 -3340 3341 0
-3341 3495 0
96 -3341 3342 0
-3342 3496 0
98 -3342 3343 0
-3343 3497 0
100 -3343 3344 0
-3344 3498 0
4 -3344 3345 0
-3345 3499 0
103 -3345 3346 0
-3346 3500 0
105 -3346 3347 0
-3347 3501 0
107 -3347 3348 0
-3348 3502 0
109 -3348 3349 0
-3349 3503 0
111 -3349 3350 0
-3350 3504 0
113 -3350 3351 0
-3351 3505 0
115 -3351 3352 0
-3352 3506 0
117 -3352 3353 0
-3353 3507 0
119 -3353 3354 0
-3354 3508 0
121 -3354 3355 0
-3355 3509 0
123 -3355 3356 0
-3356 3510 0
125 -3356 3357 0
-3357 3511 0
127 -3357 3358 0
-3358 3512 0
129 -3358 3359 0
-3359 3513 0
5 -3359 3360 0
-3360 3514 0
132 -3360 3361 0
-3361 3515 0
134 -3361 3362 0
-3362 3516 0
136 -3362 3363 0
-3363 3517 0
138 -3363 3364 0
-3364 3518 0
140 -3364 3365 0
-3365 3519 0
142 -3365 3366 0
-3366 3520 0
144 -3366 3367 0
-3367 3521 0
146 -3367 3368 0
-3368 3522 0
148 -3368 3369 0
-3369 3523 0
150 -3369 3370 0
-3370 3524 0
152 -3370 3371 0
-3371 3525 0
154 -3371 3372 0
-3372 3526 0
156 -3372 3373 0
-3373 3527 0
158 -3373 3374 0
-3374 3528 0
6 -3374 3375 0
-3375 3529 0
161 -3375 3376 0
-3376 3530 0
163 -3376 3377 0
-3377 3531 0
165 -3377 3378 0
-3378 3532 0
167 -3378 3379 0
-3379 3533 0
169 -3379 3380 0
-3380 3534 0
171 -3380 3381 0
-3381 3535 0
173 -3381 3382 0
-3382 3536 0
175 -3382 3383 0
-3383 3537 0
177 -3383 3384 0
-3384 3538 0
179 -3384 3385 0
-3385 3539 0
181 -3385 3386 0
-3386 3540 0
183 -3386 3387 0
-3387 3541 0
185 -3387 3388 0
-3388 3542 0
187 -3388 3389 0
-3389 3543 0
7 -3389 3390 0
-3390 3544 0
190 -3390 3391 0
-3391 3545 0
192 -3391 3392 0
-3392 3546 0
194 -3392 3393 0
-3393 3547 0
196 -3393 3394 0
-3394 3548 0
198 -3394 3395 0
-3395 3549 0
200 -3395 3396 0
-3396 3550 0
202 -3396 3397 0
-3397 3551 0
204 -3397 3398 0
-3398 3552 0
206 -3398 3399 0
-3399 3553 0
208 -3399 3400 0
-3400 3554 0
210 -3400 3401 0
-3401 3555 0
212 -3401 3402 0
-3402 3556 0
214 -3402 3403 0
-3403 3557 0
216 -3403 3404 0
-3404 3558 0
8 -3404 3405 0
-3405 3559 0
219 -3405 3406 0
-3406 3560 0
221 -3406 3407 0
-3407 3561 0
223 -3407 3408 0
-3408 3562 0
225 -3408 3409 0
-3409 3563 0
227 -3409 3410 0
-3410 3564 0
229 -3410 3411 0
-3411 3565 0
231 -3411 3412 0
-3412 3566 0
233 -3412 3413 0
-3413 3567 0
235 -3413 3414 0
-3414 3568 0
237 -3414 3415 0
-3415 3569 0
239 -3415 3416 0
-3416 3570 0
241 -3416 3417 0
-3417 3571 0
243 -3417 3418 0
-3418 3572 0
245 -3418 3419 0
-3419 3573 0
9 -3419 3420 0
-3420 3574 0
248 -3420 3421 0
-3421 3575 0
250 -3421 3422 0
-3422 3576 0
252 -3422 3423 0
-3423 3577 0
254 -3423 3424 0
-3424 3578 0
256 -3424 3425 0
-3425 3579 0
258 -3425 3426 0
-3426 3580 0
260 -3426 3427 0
-3427 3581 0
262 -3427 3428 0
-3428 3582 0
264 -3428 3429 0
-3429 3583 0
266 -3429 3430 0
-3430 3584 0
268 -3430 3431 0
-3431 3585 0
270 -3431 3432 0
-3432 3586 0
272 -3432 3433 0
-3433 3587 0
274 -3433 3434 0
-3434 3588 0
10 -3434 3435 0
-3435 3589 0
277 -3435 3436 0
-3436 3590 0
279 -3436 3437 0
-3437 3591 0
281 -3437 3438 0
-3438 3592 0
283 -3438 3439 0
-3439 3593 0
285 -3439 3440 0
-3440 3594 0
287 -3440 3441 0
-3441 3595 0
289 -3441 3442 0
-3442 3596 0
291 -3442 3443 0
-3443 3597 0
293 -3443 3444 0
-3444 3598 0
295 -3444 3445 0
-3445 3599 0
297 -3445 3446 0
-3446 3600 0
299 -3446 3447 0
-3447 3601 0
301 -3447 3448 0
-3448 3602 0
303 -3448 3449 0
-3449 3603 0
11 -3449 3450 0
-3450 3604 0
306 -3450 3451 0
-3451 3605 0
308 -3451 3452 0
-3452 3606 0
310 -3452 3453 0
-3453 3607 0
312 -3453 3454 0
-3454 3608 0
314 -3454 3455 0
-3455 3609 0
316 -3455 3456 0
-3456 3610 0
318 -3456 3457 0
-3457 3611 0
320 -3457 3458 0
-3458 3612 0
322 -3458 3459 0
-3459 3613 0
324 -3459 3460 0
-3460 3614 0
326 -3460 3461 0
-3461 3615 0
328 -3461 3462 0
-3462 3616 0
330 -3462 3463 0
-3463 3617 0
332 -3463 3464 0
-3464 3618 0
12 -3464 3465 0
-3465 3619 0
335 -3465 3466 0
-3466 3620 0
337 -3466 3467 0
-3467 3621 0
339 -3467 3468 0
-3468 3622 0
341 -3468 3469 0
-3469 3623 0
343 -3469 3470 0
-3470 3624 0
345 -3470 3471 0
-3471 3625 0
347 -3471 3472 0
-3472 3626 0
349 -3472 0
53 3473 0
-3473 3627 0
55 -3473 3474 0
-3474 3628 0
57 -3474 3475 0
-3475 3629 0
59 -3475 3476 0
-3476 3630 0
61 -3476 3477 0
-3477 3631 0
63 -3477 3478 0
-3478 3632 0
65 -3478 3479 0
-3479 3633 0
67 -3479 3480 0
-3480 3634 0
69 -3480 3481 0
-3481 3635 0
71 -3481 3482 0
-3482 3636 0
3 -3482 3483 0
-3483 3637 0
74 -3483 3484 0
-3484 3638 0
76 -3484 3485 0
-3485 3639 0
78 -3485 3486 0
-3486 3640 0
80 -3486 3487 0
-3487 3641 0
82 -3487 3488 0
-3488 3642 0
84 -3488 3489 0
-3489 3643 0
86 -3489 3490 0
-3490 3644 0
88 -3490 3491 0
-3491 3645 0
90 -3491 3492 0
-3492 3646 0
92 -3492 3493 0
-3493 3647 0
94 -3493 3494 0
-3494 3648 0
96 -3494 3495 0
-3495 3649 0
98 -3495 3496 0
-3496 3650 0
100 -3496 3497 0
-3497 3651 0
4 -3497 3498 0
-3498 3652 0
103 -3498 3499 0
-3499 3653 0
105 -3499 3500 0
-3500 3654 0
107 -3500 3501 0
-3501 3655 0
109 -3501 3502 0
-3502 3656 0
111 -3502 3503 0
-3503 3657 0
113 -3503 3504 0
-3504 3658 0
115 -3504 3505 0
-3505 3659 0
117 -3505 3506 0
-3506 3660 0
119 -3506 3507 0
-3507 3661 0
121 -3507 3508 0
-3508 3662 0
123 -3508 3509 0
-3509 3663 0
125 -3509 3510 0
-3510 3664 0
127 -3510 3511 0
-3511 3665 0
129 -3511 3512 0
-3512 3666 0
5 -3512 3513 0
-3513 3667 0
132 -3513 3514 0
-3514 3668 0
134 -3514 3515 0
-3515 3669 0
136 -3515 3516 0
-3516 3670 0
138 -3516 3517 0
-3517 3671 0
140 -3517 3518 0
-3518 3672 0
142 -3518 3519 0
-3519 3673 0
144 -3519 3520 0
-3520 3674 0
146 -3520 3521 0
-3521 3675 0
148 -3521 3522 0
-3522 3676 0
150 -3522 3523 0
-3523 3677 0
152 -3523 3524 0
-3524 3678 0
154 -3524 3525 0
-3525 3679 0
156 -3525 3526 0
-3526 3680 0
158 -3526 3527 0
-3527 3681 0
6 -3527 3528 0
-3528 3682 0
161 -3528 3529 0
-3529 3683 0
163 -3529 3530 0
-3530 3684 0
165 -3530 3531 0
-3531 3685 0
167 -3531 3532 0
-3532 3686 0
169 -3532 3533 0
-3533 3687 0
171 -3533 3534 0
-3534 3688 0
173 -3534 3535 0
-3535 3689 0
175 -3535 3536 0
-3536 3690 0
177 -3536 3537 0
-3537 3691 0
179 -3537 3538 0
-3538 3692 0
181 -3538 3539 0
-3539 3693 0
183 -3539 3540 0
-3540 3694 0
185 -3540 3541 0
-3541 3695 0
187 -3541 3542 0
-3542 3696 0
7 -3542 3543 0
-3543 3697 0
190 -3543 3544 0
-3544 3698 0
192 -3544 3545 0
-3545 3699 0
194 -3545 3546 0
-3546 3700 0
196 -3546 3547 0
-3547 3701 0
198 -3547 3548 0
-3548 3702 0
200 -3548 3549 0
-3549 3703 0
202 -3549 3550 0
-3550 3704 0
204 -3550 3551 0
-3551 3705 0
206 -3551 3552 0
-3552 3706 0
208 -3552 3553 0
-3553 3707 0
210 -3553 3554 0
-3554 3708 0
212 -3554 3555 0
-3555 3709 0
214 -3555 3556 0
-3556 3710 0
216 -3556 3557 0
-3557 3711 0
8 -3557 3558 0
-3558 3712 0
219 -3558 3559 0
-3559 3713 0
221 -3559 3560 0
-3560 3714 0
223 -3560 3561 0
-3561 3715 0
225 -3561 3562 0
-3562 3716 0
227 -3562 3563 0
-3563 3717 0
229 -3563 3564 0
-3564 3718 0
231 -3564 3565 0
-3565 3719 0
233 -3565 3566 0
-3566 3720 0
235 -3566 3567 0
-3567 3721 0
237 -3567 3568 0
-3568 3722 0
239 -3568 3569 0
-3569 3723 0
241 -3569 3570 0
-3570 3724 0
243 -3570 3571 0
-3571 3725 0
245 -3571 3572 0
-3572 3726 0
9 -3572 3573 0
-3573 3727 0
248 -3573 3574 0
-3574 3728 0
250 -3574 3575 0
-3575 3729 0
252 -3575 3576 0
-3576 3730 0
254 -3576 3577 0
-3577 3731 0
256 -3577 3578 0
-3578 3732 0
258 -3578 3579 0
-3579 3733 0
260 -3579 3580 0
-3580 3734 0
262 -3580 3581 0
-3581 3735 0
264 -3581 3582 0
-3582 3736 0
266 -3582 3583 0
-3583 3737 0
268 -3583 3584 0
-3584 3738 0
270 -3584 3585 0
-3585 3739 0
272 -3585 3586 0
-3586 3740 0
274 -3586 3587 0
-3587 3741 0
10 -3587 3588 0
-3588 3742 0
277 -3588 3589 0
-3589 3743 0
279 -3589 3590 0
-3590 3744 0
281 -3590 3591 0
-3591 3745 0
283 -3591 3592 0
-3592 3746 0
285 -3592 3593 0
-3593 3747 0
287 -3593 3594 0
-3594 3748 0
289 -3594 3595 0
-3595 3749 0
291 -3595 3596 0
-3596 3750 0
293 -3596 3597 0
-3597 3751 0
295 -3597 3598 0
-3598 3752 0
297 -3598 3599 0
-3599 3753 0
299 -3599 3600 0
-3600 3754 0
301 -3600 3601 0
-3601 3755 0
303 -3601 3602 0
-3602 3756 0
11 -3602 3603 0
-3603 3757 0
306 -3603 3604 0
-3604 3758 0
308 -3604 3605 0
-3605 3759 0
310 -3605 3606 0
-3606 3760 0
312 -3606 3607 0
-3607 3761 0
314 -3607 3608 0
-3608 3762 0
316 -3608 3609 0
-3609 3763 0
318 -3609 3610 0
-3610 3764 0
320 -3610 3611 0
-3611 3765 0
322 -3611 3612 0
-3612 3766 0
324 -3612 3613 0
-3613 3767 0
326 -3613 3614 0
-3614 3768 0
328 -3614 3615 0
-3615 3769 0
330 -3615 3616 0
-3616 3770 0
332 -3616 3617 0
-3617 3771 0
12 -3617 3618 0
-3618 3772 0
335 -3618 3619 0
-3619 3773 0
337 -3619 3620 0
-3620 3774 0
339 -3620 3621 0
-3621 3775 0
341 -3621 3622 0
-3622 3776 0
343 -3622 3623 0
-3623 3777 0
345 -3623 3624 0
-3624 3778 0
347 -3624 3625 0
-3625 3779 0
349 -3625 3626 0
-3626 3780 0
351 -3626 0
55 3627 0
-3627 3781 0
57 -3627 3628 0
-3628 3782 0
59 -3628 3629 0
-3629 3783 0
61 -3629 3630 0
-3630 3784 0
63 -3630 3631 0
-3631 3785 0
65 -3631 3632 0
-3632 3786 0
67 -3632 3633 0
-3633 3787 0
69 -3633 3634 0
-3634 3788 0
71 -3634 3635 0
-3635 3789 0
3 -3635 3636 0
-3636 3790 0
74 -3636 3637 0
-3637 3791 0
76 -3637 3638 0
-3638 3792 0
78 -3638 3639 0
-3639 3793 0
80 -3639 3640 0
-3640 3794 0
82 -3640 3641 0
-3641 3795 0
84 -3641 3642 0
-3642 3796 0
86 -3642 3643 0
-3643 3797 0
88 -3643 3644 0
-3644 3798 0
90 -3644 3645 0
-3645 3799 0
92 -3645 3646 0
-3646 3800 0
94 -3646 3647 0
-3647 3801 0
96 -3647 3648 0
-3648 3802 0
98 -3648 3649 0
-3649 3803 0
100 -3649 3650 0
-3650 3804 0
4 -3650 3651 0
-3651 3805 0
103 -3651 3652 0
-3652 3806 0
105 -3652 3653 0
-3653 3807 0
107 -3653 3654 0
-3654 3808 0
109 -3654 3655 0
-3655 3809 0
111 -3655 3656 0
-3656 3810 0
113 -3656 3657 0
-3657 3811 0
115 -3657 3658 0
-3658 3812 0
117 -3658 3659 0
-3659 3813 0
119 -3659 3660 0
-3660 3814 0
121 -3660 3661 0
-3661 3815 0
123 -3661 3662 0
-3662 3816 0
125 -3662 3663 0
-3663 3817 0
127 -3663 3664 0
-3664 3818 0
129 -3664 3665 0
-3665 3819 0
5 -3665 3666 0
-3666 3820 0
132 -3666 3667 0
-3667 3821 0
134 -3667 3668 0
-3668 3822 0
136 -3668 3669 0
-3669 3823 0
138 -3669 3670 0
-3670 3824 0
140 -3670 3671 0
-3671 3825 0
142 -3671 3672 0
-3672 3826 0
144 -3672 3673 0
-3673 3827 0
146 -3673 3674 0
-3674 3828 0
148 -3674 3675 0
-3675 3829 0
150 -3675 3676 0
-3676 3830 0
152 -3676 3677 0
-3677 3831 0
154 -3677 3678 0
-3678 3832 0
156 -3678 3679 0
-3679 3833 0
158 -3679 3680 0
-3680 3834 0
6 -3680 3681 0
-3681 3835 0
161 -3681 3682 0
-3682 3836 0
163 -3682 3683 0
-3683 3837 0
165 -3683 3684 0
-3684 3838 0
167 -3684 3685 0
-3685 3839 0
169 -3685 3686 0
-3686 3840 0
171 -3686 3687 0
-3687 3841 0
173 -3687 3688 0
-3688 3842 0
175 -3688 3689 0
-3689 3843 0
177 -3689 3690 0
-3690 3844 0
179 -3690 3691 0
-3691 3845 0
181 -3691 3692 0
-3692 3846 0
183 -3692 3693 0
-3693 3847 0
185 -3693 3694 0
-3694 3848 0
187 -3694 3695 0
-3695 3849 0
7 -3695 3696 0
-3696 3850 0
190 -3696 3697 0
-3697 3851 0
192 -3697 3698 0
-3698 3852 0
194 -3698 3699 0
-3699 3853 0
196 -3699 3700 0
-3700 3854 0
198 -3700 3701 0
-3701 3855 0
200 -3701 3702 0
-3702 3856 0
202 -3702 3703 0
-3703 3857 0
204 -3703 3704 0
-3704 3858 0
206 -3704 3705 0
-3705 3859 0
208 -3705 3706 0
-3706 3860 0
210 -3706 3707 0
-3707 3861 0
212 -3707 3708 0
-3708 3862 0
214 -3708 3709 0
-3709 3863 0
216 -3709 3710 0
-3710 3864 0
8 -3710 3711 0
-3711 3865 0
219 -3711 3712 0
-3712 3866 0
221 -3712 3713 0
-3713 3867 0
223 -3713 3714 0
-3714 3868 0
225 -3714 3715 0
-3715 3869 0
227 -3715 3716 0
-3716 3870 0
229 -3716 3717 0
-3717 3871 0
231 -3717 3718 0
-3718 3872 0
233 -3718 3719 0
-3719 3873 0
235 -3719 3720 0
-3720 3874 0
237 -3720 3721 0
-3721 3875 0
239 -3721 3722 0
-3722 3876 0
241 -3722 3723 0
-3723 3877 0
243 -3723 3724 0
-3724 3878 0
245 -3724 3725 0
-3725 3879 0
9 -3725 3726 0
-3726 3880 0
248 -3726 3727 0
-3727 3881 0
250 -3727 3728 0
-3728 3882 0
252 -3728 3729 0
-3729 3883 0
254 -3729 3730 0
-3730 3884 0
256 -3730 3731 0
-3731 3885 0
258 -3731 3732 0
-3732 3886 0
260 -3732 3733 0
-3733 3887 0
262 -3733 3734 0
-3734 3888 0
264 -3734 3735 0
-3735 3889 0
266 -3735 3736 0
-3736 3890 0
268 -3736 3737 0
-3737 3891 0
270 -3737 3738 0
-3738 3892 0
272 -3738 3739 0
-3739 3893 0
274 -3739 3740 0
-3740 3894 0
10 -3740 3741 0
-3741 3895 0
277 -3741 3742 0
-3742 3896 0
279 -3742 3743 0
-3743 3897 0
281 -3743 3744 0
-3744 3898 0
283 -3744 3745 0
-3745 3899 0
285 -3745 3746 0
-3746 3900 0
287 -3746 3747 0
-3747 3901 0
289 -3747 3748 0
-3748 3902 0
291 -3748 3749 0
-3749 3903 0
293 -3749 3750 0
-3750 3904 0
295 -3750 3751 0
-3751 3905 0
297 -3751 3752 0
-3752 3906 0
299 -3752 3753 0
-3753 3907 0
301 -3753 3754 0
-3754 3908 0
303 -3754 3755 0
-3755 3909 0
11 -3755 3756 0
-3756 3910 0
306 -3756 3757 0
-3757 3911 0
308 -3757 3758 0
-3758 3912 0
310 -3758 3759 0
-3759 3913 0
312 -3759 3760 0
-3760 3914 0
314 -3760 3761 0
-3761 3915 0
316 -3761 3762 0
-3762 3916 0
318 -3762 3763 0
-3763 3917 0
320 -3763 3764 0
-3764 3918 0
322 -3764 3765 0
-3765 3919 0
324 -3765 3766 0
-3766 3920 0
326 -3766 3767 0
-3767 3921 0
328 -3767 3768 0
-3768 3922 0
330 -3768 3769 0
-3769 3923 0
332 -3769 3770 0
-3770 3924 0
12 -3770 3771 0
-3771 3925 0
335 -3771 3772 0
-3772 3926 0
337 -3772 3773 0
-3773 3927 0
339 -3773 3774 0
-3774 3928 0
341 -3774 3775 0
-3775 3929 0
343 -3775 3776 0
-3776 3930 0
345 -3776 3777 0
-3777 3931 0
347 -3777 3778 0
-3778 3932 0
349 -3778 3779 0
-3779 3933 0
351 -3779 3780 0
-3780 3934 0
353 -3780 0
57 3781 0
-3781 3935 0
59 -3781 3782 0
-3782 3936 0
61 -3782 3783 0
-3783 3937 0
63 -3783 3784 0
-3784 3938 0
65 -3784 3785 0
-3785 3939 0
67 -3785 3786 0
-3786 3940 0
69 -3786 3787 0
-3787 3941 0
71 -3787 3788 0
-3788 3942 0
3 -3788 3789 0
-3789 3943 0
74 -3789 3790 0
-3790 3944 0
76 -3790 3791 0
-3791 3945 0
78 -3791 3792 0
-3792 3946 0
80 -3792 3793 0
-3793 3947 0
82 -3793 3794 0
-3794 3948 0
84 -3794 3795 0
-3795 3949 0
86 -3795 3796 0
-3796 3950 0
88 -3796 3797 0
-3797 3951 0
90 -3797 3798 0
-3798 3952 0
92 -3798 3799 0
-3799 3953 0
94 -3799 3800 0
-3800 3954 0
96 -3800 3801 0
-3801 3955 0
98 -3801 3802 0
-3802 3956 0
100 -3802 3803 0
-3803 3957 0
4 -3803 3804 0
-3804 3958 0
103 -3804 3805 0
-3805 3959 0
105 -3805 3806 0
-3806 3960 0
107 -3806 3807 0
-3807 3961 0
109 -3807 3808 0
-3808 3962 0
111 -3808 3809 0
-3809 3963 0
113 -3809 3810 0
-3810 3964 0
115 -3810 3811 0
-3811 3965 0
117 -3811 3812 0
-3812 3966 0
119 -3812 3813 0
-3813 3967 0
121 -3813 3814 0
-3814 3968 0
123 -3814 3815 0
-3815 3969 0
125 -3815 3816 0
-3816 3970 0
127 -3816 3817 0
-3817 3971 0
129 -3817 3818 0
-3818 3972 0
5 -3818 3819 0
-3819 3973 0
132 -3819 3820 0
-3820 3974 0
134 -3820 3821 0
-3821 3975 0
136 -3821 3822 0
-3822 3976 0
138 -3822 3823 0
-3823 3977 0
140 -3823 3824 0
-3824 3978 0
142 -3824 3825 0
-3825 3979 0
144 -3825 3826 0
-3826 3980 0
146 -3826 3827 0
-3827 3981 0
148 -3827 3828 0
-3828 3982 0
150 -3828 3829 0
-3829 3983 0
152 -3829 3830 0
-3830 3984 0
154 -3830 3831 0
-3831 3985 0
156 -3831 3832 0
-3832 3986 0
158 -3832 3833 0
-3833 3987 0
6 -3833 3834 0
-3834 3988 0
161 -3834 3835 0
-3835 3989 0
163 -3835 3836 0
-3836 3990 0
165 -3836 3837 0
-3837 3991 0
167 -3837 3838 0
-3838 3992 0
169 -3838 3839 0
-3839 3993 0
171 -3839 3840 0
-3840 3994 0
173 -3840 3841 0
-3841 3995 0
175 -3841 3842 0
-3842 3996 0
177 -3842 3843 0
-3843 3997 0
179 -3843 3844 0
-3844 3998 0
181 -3844 3845 0
-3845 3999 0
183 -3845 3846 0
-3846 4000 0
185 -3846 3847 0
-3847 4001 0
187 -3847 3848 0
-3848 4002 0
7 -3848 3849 0
-3849 4003 0
190 -3849 3850 0
-3850 4004 0
192 -3850 3851 0
-3851 4005 0
194 -3851 3852 0
-3852 4006 0
196 -3852 3853 0
-3853 4007 0
198 -3853 3854 0
-3854 4008 0
200 -3854 3855 0
-3855 4009 0
202 -3855 3856 0
-3856 4010 0
204 -3856 3857 0
-3857 4011 0
206 -3857 3858 0
-3858 4012 0
208 -3858 3859 0
-3859 4013 0
210 -3859 3860 0
-3860 4014 0
212 -3860 3861 0
-3861 4015 0
214 -3861 3862 0
-3862 4016 0
216 -3862 3863 0
-3863 4017 0
8 -3863 3864 0
-3864 4018 0
219 -3864 3865 0
-3865 4019 0
221 -3865 3866 0
-3866 4020 0
223 -3866 3867 0
-3867 4021 0
225 -3867 3868 0
-3868 4022 0
227 -3868 3869 0
-3869 4023 0
229 -3869 3870 0
-3870 4024 0
231 -3870 3871 0
-3871 4025 0
233 -3871 3872 0
-3872 4026 0
235 -3872 3873 0
-3873 4027 0
237 -3873 3874 0
-3874 4028 0
239 -3874 3875 0
-3875 4029 0
241 -3875 3876 0
-3876 4030 0
243 -3876 3877 0
-3877 4031 0
245 -3877 3878 0
-3878 4032 0
9 -3878 3879 0
-3879 4033 0
248 -3879 3880 0
-3880 4034 0
250 -3880 3881 0
-3881 4035 0
252 -3881 3882 0
-3882 4036 0
254 -3882 3883 0
-3883 4037 0
256 -3883 3884 0
-3884 4038 0
258 -3884 3885 0
-3885 4039 0
260 -3885 3886 0
-3886 4040 0
262 -3886 3887 0
-3887 4041 0
264 -3887 3888 0
-3888 4042 0
266 -3888 3889 0
-3889 4043 0
268 -3889 3890 0
-3890 4044 0
270 -3890 3891 0
-3891 4045 0
272 -3891 3892 0
-3892 4046 0
274 -3892 3893 0
-3893 4047 0
10 -3893 3894 0
-3894 4048 0
277 -3894 3895 0
-3895 4049 0
279 -3895 3896 0
-3896 4050 0
281 -3896 3897 0
-3897 4051 0
283 -3897 3898 0
-3898 4052 0
285 -3898 3899 0
-3899 4053 0
287 -3899 3900 0
-3900 4054 0
289 -3900 3901 0
-3901 4055 0
291 -3901 3902 0
-3902 4056 0
293 -3902 3903 0
-3903 4057 0
295 -3903 3904 0
-3904 4058 0
297 -3904 3905 0
-3905 4059 0
299 -3905 3906 0
-3906 4060 0
301 -3906 3907 0
-3907 4061 0
303 -3907 3908 0
-3908 4062 0
11 -3908 3909 0
-3909 4063 0
306 -3909 3910 0
-3910 4064 0
308 -3910 3911 0
-3911 4065 0
310 -3911 3912 0
-3912 4066 0
312 -3912 3913 0
-3913 4067 0
314 -3913 3914 0
-3914 4068 0
316 -3914 3915 0
-3915 4069 0
318 -3915 3916 0
-3916 4070 0
320 -3916 3917 0
-3917 4071 0
322 -3917 3918 0
-3918 4072 0
324 -3918 3919 0
-3919 4073 0
326 -3919 3920 0
-3920 4074 0
328 -3920 3921 0
-3921 4075 0
330 -3921 3922 0
-3922 4076 0
332 -3922 3923 0
-3923 4077 0
12 -3923 3924 0
-3924 4078 0
335 -3924 3925 0
-3925 4079 0
337 -3925 3926 0
-3926 4080 0
339 -3926 3927 0
-3927 4081 0
341 -3927 3928 0
-3928 4082 0
343 -3928 3929 0
-3929 4083 0
345 -3929 3930 0
-3930 4084 0
347 -3930 3931 0
-3931 4085 0
349 -3931 3932 0
-3932 4086 0
351 -3932 3933 0
-3933 4087 0
353 -3933 3934 0
-3934 4088 0
355 -3934 0
59 3935 0
-3935 4089 0
61 -3935 3936 0
-3936 4090 0
63 -3936 3937 0
-3937 4091 0
65 -3937 3938 0
-3938 4092 0
67 -3938 3939 0
-3939 4093 0
69 -3939 3940 0
-3940 4094 0
71 -3940 3941 0
-3941 4095 0
3 -3941 3942 0
-3942 4096 0
74 -3942 3943 0
-3943 4097 0
76 -3943 3944 0
-3944 4098 0
78 -3944 3945 0
-3945 4099 0
80 -3945 3946 0
-3946 4100 0
82 -3946 3947 0
-3947 4101 0
84 -3947 3948 0
-3948 4102 0
86 -3948 3949 0
-3949 4103 0
88 -3949 3950 0
-3950 4104 0
90 -3950 3951 0
-3951 4105 0
92 -3951 3952 0
-3952 4106 0
94 -3952 3953 0
-3953 4107 0
96 -3953 3954 0
-3954 4108 0
98 -3954 3955 0
-3955 4109 0
100 -3955 3956 0
-3956 4110 0
4 -3956 3957 0
-3957 4111 0
103 -3957 3958 0
-3958 4112 0
105 -3958 3959 0
-3959 4113 0
107 -3959 3960 0
-3960 4114 0
109 -3960 3961 0
-3961 4115 0
111 -3961 3962 0
-3962 4116 0
113 -3962 3963 0
-3963 4117 0
115 -3963 3964 0
-3964 4118 0
117 -3964 3965 0
-3965 4119 0
119 -3965 3966 0
-3966 4120 0
121 -3966 3967 0
-3967 4121 0
123 -3967 3968 0
-3968 4122 0
125 -3968 3969 0
-3969 4123 0
127 -3969 3970 0
-3970 4124 0
129 -3970 3971 0
-3971 4125 0
5 -3971 3972 0
-3972 4126 0
132 -3972 3973 0
-3973 4127 0
134 -3973 3974 0
-3974 4128 0
136 -3974 3975 0
-3975 4129 0
138 -3975 3976 0
-3976 4130 0
140 -3976 3977 0
-3977 4131 0
142 -3977 3978 0
-3978 4132 0
144 -3978 3979 0
-3979 4133 0
146 -3979 3980 0
-3980 4134 0
148 -3980 3981 0
-3981 4135 0
150 -3981 3982 0
-3982 4136 0
152 -3982 3983 0
-3983 4137 0
154 -3983 3984 0
-3984 4138 0
156 -3984 3985 0
-3985 4139 0
158 -3985 3986 0
-3986 4140 0
6 -3986 3987 0
-3987 4141 0
161 -3987 3988 0
-3988 4142 0
163 -3988 3989 0
-3989 4143 0
165 -3989 3990 0
-3990 4144 0
167 -3990 3991 0
-3991 4145 0
169 -3991 3992 0
-3992 4146 0
171 -3992 3993 0
-3993 4147 0
173 -3993 3994 0
-3994 4148 0
175 -3994 3995 0
-3995 4149 0
177 -3995 3996 0
-3996 4150 0
179 -3996 3997 0
-3997 4151 0
181 -3997 3998 0
-3998 4152 0
183 -3998 3999 0
-3999 4153 0
185 -3999 4000 0
-4000 4154 0
187 -4000 4001 0
-4001 4155 0
7 -4001 4002 0
-4002 4156 0
190 -4002 4003 0
-4003 4157 0
192 -4003 4004 0
-4004 4158 0
194 -4004 4005 0
-4005 4159 0
196 -4005 4006 0
-4006 4160 0
198 -4006 4007 0
-4007 4161 0
200 -4007 4008 0
-4008 4162 0
202 -4008 4009 0
-4009 4163 0
204 -4009 4010 0
-4010 4164 0
206 -4010 4011 0
-4011 4165 0
208 -4011 4012 0
-4012 4166 0
210 -4012 4013 0
-4013 4167 0
212 -4013 4014 0
-4014 4168 0
214 -4014 4015 0
-4015 4169 0
216 -4015 4016 0
-4016 4170 0
8 -4016 4017 0
-4017 4171 0
219 -4017 4018 0
-4018 4172 0
221 -4018 4019 0
-4019 4173 0
223 -4019 4020 0
-4020 4174 0
225 -4020 4021 0
-4021 4175 0
227 -4021 4022 0
-4022 4176 0
229 -4022 4023 0
-4023 4177 0
231 -4023 4024 0
-4024 4178 0
233 -4024 4025 0
-4025 4179 0
235 -4025 4026 0
-4026 4180 0
237 -4026 4027 0
-4027 4181 0
239 -4027 4028 0
-4028 4182 0
241 -4028 4029 0
-4029 4183 0
243 -4029 4030 0
-4030 4184 0
245 -4030 4031 0
-4031 4185 0
9 -4031 4032 0
-4032 4186 0
248 -4032 4033 0
-4033 4187 0
250 -4033 4034 0
-4034 4188 0
252 -4034 4035 0
-4035 4189 0
254 -4035 4036 0
-4036 4190 0
256 -4036 4037 0
-4037 4191 0
258 -4037 4038 0
-4038 4192 0
260 -4038 4039 0
-4039 4193 0
262 -4039 4040 0
-4040 4194 0
264 -4040 4041 0
-4041 4195 0
266 -4041 4042 0
-4042 4196 0
268 -4042 4043 0
-4043 4197 0
270 -4043 4044 0
-4044 4198 0
272 -4044 4045 0
-4045 4199 0
274 -4045 4046 0
-4046 4200 0
10 -4046 4047 0
-4047 4201 0
277 -4047 4048 0
-4048 4202 0
279 -4048 4049 0
-4049 4203 0
281 -4049 4050 0
-4050 4204 0
283 -4050 4051 0
-4051 4205 0
285 -4051 4052 0
-4052 4206 0
287 -4052 4053 0
-4053 4207 0
289 -4053 4054 0
-4054 4208 0
291 -4054 4055 0
-4055 4209 0
293 -4055 4056 0
-4056 4210 0
295 -4056 4057 0
-4057 4211 0
297 -4057 4058 0
-4058 4212 0
299 -4058 4059 0
-4059 4213 0
301 -4059 4060 0
-4060 4214 0
303 -4060 4061 0
-4061 4215 0
11 -4061 4062 0
-4062 4216 0
306 -4062 4063 0
-4063 4217 0
308 -4063 4064 0
-4064 4218 0
310 -4064 4065 0
-4065 4219 0
312 -4065 4066 0
-4066 4220 0
314 -4066 4067 0
-4067 4221 0
316 -4067 4068 0
-4068 4222 0
318 -4068 4069 0
-4069 4223 0
320 -4069 4070 0
-4070 4224 0
322 -4070 4071 0
-4071 4225 0
324 -4071 4072 0
-4072 4226 0
326 -4072 4073 0
-4073 4227 0
328 -4073 4074 0
-4074 4228 0
330 -4074 4075 0
-4075 4229 0
332 -4075 4076 0
-4076 4230 0
12 -4076 4077 0
-4077 4231 0
335 -4077 4078 0
-4078 4232 0
337 -4078 4079 0
-4079 4233 0
339 -4079 4080 0
-4080 4234 0
341 -4080 4081 0
-4081 4235 0
343 -4081 4082 0
-4082 4236 0
345 -4082 4083 0
-4083 4237 0
347 -4083 4084 0
-4084 4238 0
349 -4084 4085 0
-4085 4239 0
351 -4085 4086 0
-4086 4240 0
353 -4086 4087 0
-4087 4241 0
355 -4087 4088 0
-4088 4242 0
357 -4088 0
61 4089 0
-4089 4243 0
63 -4089 4090 0
-4090 4244 0
65 -4090 4091 0
-4091 4245 0
67 -4091 4092 0
-4092 4246 0
69 -4092 4093 0
-4093 4247 0
71 -4093 4094 0
-4094 4248 0
3 -4094 4095 0
-4095 4249 0
74 -4095 4096 0
-4096 4250 0
76 -4096 4097 0
-4097 4251 0
78 -4097 4098 0
-4098 4252 0
80 -4098 4099 0
-4099 4253 0
82 -4099 4100 0
-4100 4254 0
84 -4100 4101 0
-4101 4255 0
86 -4101 4102 0
-4102 4256 0
88 -4102 4103 0
-4103 4257 0
90 -4103 4104 0
-4104 4258 0
92 -4104 4105 0
-4105 4259 0
94 -4105 4106 0
-4106 4260 0
96 -4106 4107 0
-4107 4261 0
98 -4107 4108 0
-4108 4262 0
100 -4108 4109 0
-4109 4263 0
4 -4109 4110 0
-4110 4264 0
103 -4110 4111 0
-4111 4265 0
105 -4111 4112 0
-4112 4266 0
107 -4112 4113 0
-4113 4267 0
109 -4113 4114 0
-4114 4268 0
111 -4114 4115 0
-4115 4269 0
113 -4115 4116 0
-4116 4270 0
115 -4116 4117 0
-4117 4271 0
117 -4117 4118 0
-4118 4272 0
119 -4118 4119 0
-4119 4273 0
121 -4119 4120 0
-4120 4274 0
123 -4120 4121 0
-4121 4275 0
125 -4121 4122 0
-4122 4276 0
127 -4122 4123 0
-4123 4277 0
129 -4123 4124 0
-4124 4278 0
5 -4124 4125 0
-4125 4279 0
132 -4125 4126 0
-4126 4280 0
134 -4126 4127 0
-4127 4281 0
136 -4127 4128 0
-4128 4282 0
138 -4128 4129 0
-4129 4283 0
140 -4129 4130 0
-4130 4284 0
142 -4130 4131 0
-4131 4285 0
144 -4131 4132 0
-4132 4286 0
146 -4132 4133 0
-4133 4287 0
148 -4133 4134 0
-4134 4288 0
150 -4134 4135 0
-4135 4289 0
152 -4135 4136 0
-4136 4290 0
154 -4136 4137 0
-4137 4291 0
156 -4137 4138 0
-4138 4292 0
158 -4138 4139 0
-4139 4293 0
6 -4139 4140 0
-4140 4294 0
161 -4140 4141 0
-4141 4295 0
163 -4141 4142 0
-4142 4296 0
165 -4142 4143 0
-4143 4297 0
167 -4143 4144 0
-4144 4298 0
169 -4144 4145 0
-4145 4299 0
171 -4145 4146 0
-4146 4300 0
173 -4146 4147 0
-4147 4301 0
175 -4147 4148 0
-4148 4302 0
177 -4148 4149 0
-4149 4303 0
179 -4149 4150 0
-4150 4304 0
181 -4150 4151 0
-4151 4305 0
183 -4151 4152 0
-4152 4306 0
185 -4152 4153 0
-4153 4307 0
187 -4153 4154 0
-4154 4308 0
7 -4154 4155 0
-4155 4309 0
190 -4155 4156 0
-4156 4310 0
192 -4156 4157 0
-4157 4311 0
194 -4157 4158 0
-4158 4312 0
196 -4158 4159 0
-4159 4313 0
198 -4159 4160 0
-4160 4314 0
200 -4160 4161 0
-4161 4315 0
202 -4161 4162 0
-4162 4316 0
204 -4162 4163 0
-4163 4317 0
206 -4163 4164 0
-4164 4318 0
208 -4164 4165 0
-4165 4319 0
210 -4165 4166 0
-4166 4320 0
212 -4166 4167 0
-4167 4321 0
214 -4167 4168 0
-4168 4322 0
216 -4168 4169 0
-4169 4323 0
8 -4169 4170 0
-4170 4324 0
219 -4170 4171 0
-4171 4325 0
221 -4171 4172 0
-4172 4326 0
223 -4172 4173 0
-4173 4327 0
225 -4173 4174 0
-4174 4328 0
227 -4174 4175 0
-4175 4329 0
229 -4175 4176 0
-4176 4330 0
231 -4176 4177 0
-4177 4331 0
233 -4177 4178 0
-4178 4332 0
235 -4178 4179 0
-4179 4333 0
237 -4179 4180 0
-4180 4334 0
239 -4180 4181 0
-4181 4335 0
241 -4181 4182 0
-4182 4336 0
243 -4182 4183 0
-4183 4337 0
245 -4183 4184 0
-4184 4338 0
9 -4184 4185 0
-4185 4339 0
248 -4185 4186 0
-4186 4340 0
250 -4186 4187 0
-4187 4341 0
252 -4187 4188 0
-4188 4342 0
254 -4188 4189 0
-4189 4343 0
256 -4189 4190 0
-4190 4344 0
258 -4190 4191 0
-4191 4345 0
260 -4191 4192 0
-4192 4346 0
262 -4192 4193 0
-4193 4347 0
264 -4193 4194 0
-4194 4348 0
266 -4194 4195 0
-4195 4349 0
268 -4195 4196 0
-4196 4350 0
270 -4196 4197 0
-4197 4351 0
272 -4197 4198 0
-4198 4352 0
274 -4198 4199 0
-4199 4353 0
10 -4199 4200 0
-4200 4354 0
277 -4200 4201 0
-4201 4355 0
279 -4201 4202 0
-4202 4356 0
281 -4202 4203 0
-4203 4357 0
283 -4203 4204 0
-4204 4358 0
285 -4204 4205 0
-4205 4359 0
287 -4205 4206 0
-4206 4360 0
289 -4206 4207 0
-4207 4361 0
291 -4207 4208 0
-4208 4362 0
293 -4208 4209 0
-4209 4363 0
295 -4209 4210 0
-4210 4364 0
297 -4210 4211 0
-4211 4365 0
299 -4211 4212 0
-4212 4366 0
301 -4212 4213 0
-4213 4367 0
303 -4213 4214 0
-4214 4368 0
11 -4214 4215 0
-4215 4369 0
306 -4215 4216 0
-4216 4370 0
308 -4216 4217 0
-4217 4371 0
310 -4217 4218 0
-4218 4372 0
312 -4218 4219 0
-4219 4373 0
314 -4219 4220 0
-4220 4374 0
316 -4220 4221 0
-4221 4375 0
318 -4221 4222 0
-4222 4376 0
320 -4222 4223 0
-4223 4377 0
322 -4223 4224 0
-4224 4378 0
324 -4224 4225 0
-4225 4379 0
326 -4225 4226 0
-4226 4380 0
328 -4226 4227 0
-4227 4381 0
330 -4227 4228 0
-4228 4382 0
332 -4228 4229 0
-4229 4383 0
12 -4229 4230 0
-4230 4384 0
335 -4230 4231 0
-4231 4385 0
337 -4231 4232 0
-4232 4386 0
339 -4232 4233 0
-4233 4387 0
341 -4233 4234 0
-4234 4388 0
343 -4234 4235 0
-4235 4389 0
345 -4235 4236 0
-4236 4390 0
347 -4236 4237 0
-4237 4391 0
349 -4237 4238 0
-4238 4392 0
351 -4238 4239 0
-4239 4393 0
353 -4239 4240 0
-4240 4394 0
355 -4240 4241 0
-4241 4395 0
357 -4241 4242 0
-4242 4396 0
359 -4242 0
63 4243 0
-4243 4397 0
65 -4243 4244 0
-4244 4398 0
67 -4244 4245 0
-4245 4399 0
69 -4245 4246 0
-4246 4400 0
71 -4246 4247 0
-4247 4401 0
3 -4247 4248 0
-4248 4402 0
74 -4248 4249 0
-4249 4403 0
76 -4249 4250 0
-4250 4404 0
78 -4250 4251 0
-4251 4405 0
80 -4251 4252 0
-4252 4406 0
82 -4252 4253 0
-4253 4407 0
84 -4253 4254 0
-4254 4408 0
86 -4254 4255 0
-4255 4409 0
88 -4255 4256 0
-4256 4410 0
90 -4256 4257 0
-4257 4411 0
92 -4257 4258 0
-4258 4412 0
94 -4258 4259 0
-4259 4413 0
96 -4259 4260 0
-4260 4414 0
98 -4260 4261 0
-4261 4415 0
100 -4261 4262 0
-4262 4416 0
4 -4262 4263 0
-4263 4417 0
103 -4263 4264 0
-4264 4418 0
105 -4264 4265 0
-4265 4419 0
107 -4265 4266 0
-4266 4420 0
109 -4266 4267 0
-4267 4421 0
111 -4267 4268 0
-4268 4422 0
113 -4268 4269 0
-4269 4423 0
115 -4269 4270 0
-4270 4424 0
117 -4270 4271 0
-4271 4425 0
119 -4271 4272 0
-4272 4426 0
121 -4272 4273 0
-4273 4427 0
123 -4273 4274 0
-4274 4428 0
125 -4274 4275 0
-4275 4429 0
127 -4275 4276 0
-4276 4430 0
129 -4276 4277 0
-4277 4431 0
5 -4277 4278 0
-4278 4432 0
132 -4278 4279 0
-4279 4433 0
134 -4279 4280 0
-4280 4434 0
136 -4280 4281 0
-4281 4435 0
138 -4281 4282 0
-4282 4436 0
140 -4282 4283 0
-4283 4437 0
142 -4283 4284 0
-4284 4438 0
144 -4284 4285 0
-4285 4439 0
146 -4285 4286 0
-4286 4440 0
148 -4286 4287 0
-4287 4441 0
150 -4287 4288 0
-4288 4442 0
152 -4288 4289 0
-4289 4443 0
154 -4289 4290 0
-4290 4444 0
156 -4290 4291 0
-4291 4445 0
158 -4291 4292 0
-4292 4446 0
6 -4292 4293 0
-4293 4447 0
161 -4293 4294 0
-4294 4448 0
163 -4294 4295 0
-4295 4449 0
165 -4295 4296 0
-4296 4450 0
167 -4296 4297 0
-4297 4451 0
169 -4297 4298 0
-4298 4452 0
171 -4298 4299 0
-4299 4453 0
173 -4299 4300 0
-4300 4454 0
175 -4300 4301 0
-4301 4455 0
177 -4301 4302 0
-4302 4456 0
179 -4302 4303 0
-4303 4457 0
181 -4303 4304 0
-4304 4458 0
183 -4304 4305 0
-4305 4459 0
185 -4305 4306 0
-4306 4460 0
187 -4306 4307 0
-4307 4461 0
7 -4307 4308 0
-4308 4462 0
190 -4308 4309 0
-4309 4463 0
192 -4309 4310 0
-4310 4464 0
194 -4310 4311 0
-4311 4465 0
196 -4311 4312 0
-4312 4466 0
198 -4312 4313 0
-4313 4467 0
200 -4313 4314 0
-4314 4468 0
202 -4314 4315 0
-4315 4469 0
204 -4315 4316 0
-4316 4470 0
206 -4316 4317 0
-4317 4471 0
208 -4317 4318 0
-4318 4472 0
210 -4318 4319 0
-4319 4473 0
212 -4319 4320 0
-4320 4474 0
214 -4320 4321 0
-4321 4475 0
216 -4321 4322 0
-4322 4476 0
8 -4322 4323 0
-4323 4477 0
219 -4323 4324 0
-4324 4478 0
221 -4324 4325 0
-4325 4479 0
223 -4325 4326 0
-4326 4480 0
225 -4326 4327 0
-4327 4481 0
227 -4327 4328 0
-4328 4482 0
229 -4328 4329 0
-4329 4483 0
231 -4329 4330 0
-4330 4484 0
233 -4330 4331 0
-4331 4485 0
235 -4331 4332 0
-4332 4486 0
237 -4332 4333 0
-4333 4487 0
239 -4333 4334 0
-4334 4488 0
241 -4334 4335 0
-4335 4489 0
243 -4335 4336 0
-4336 4490 0
245 -4336 4337 0
-4337 4491 0
9 -4337 4338 0
-4338 4492 0
248 -4338 4339 0
-4339 4493 0
250 -4339 4340 0
-4340 4494 0
252 -4340 4341 0
-4341 4495 0
254 -4341 4342 0
-4342 4496 0
256 -4342 4343 0
-4343 4497 0
258 -4343 4344 0
-4344 4498 0
260 -4344 4345 0
-4345 4499 0
262 -4345 4346 0
-4346 4500 0
264 -4346 4347 0
-4347 4501 0
266 -4347 4348 0
-4348 4502 0
268 -4348 4349 0
-4349 4503 0
270 -4349 4350 0
-4350 4504 0
272 -4350 4351 0
-4351 4505 0
274 -4351 4352 0
-4352 4506 0
10 -4352 4353 0
-4353 4507 0
277 -4353 4354 0
-4354 4508 0
279 -4354 4355 0
-4355 4509 0
281 -4355 4356 0
-4356 4510 0
283 -4356 4357 0
-4357 4511 0
285 -4357 4358 0
-4358 4512 0
287 -4358 4359 0
-4359 4513 0
289 -4359 4360 0
-4360 4514 0
291 -4360 4361 0
-4361 4515 0
293 -4361 4362 0
-4362 4516 0
295 -4362 4363 0
-4363 4517 0
297 -4363 4364 0
-4364 4518 0
299 -4364 4365 0
-4365 4519 0
301 -4365 4366 0
-4366 4520 0
303 -4366 4367 0
-4367 4521 0
11 -4367 4368 0
-4368 4522 0
306 -4368 4369 0
-4369 4523 0
308 -4369 4370 0
-4370 4524 0
310 -4370 4371 0
-4371 4525 0
312 -4371 4372 0
-4372 4526 0
314 -4372 4373 0
-4373 4527 0
316 -4373 4374 0
-4374 4528 0
318 -4374 4375 0
-4375 4529 0
320 -4375 4376 0
-4376 4530 0
322 -4376 4377 0
-4377 4531 0
324 -4377 4378 0
-4378 4532 0
326 -4378 4379 0
-4379 4533 0
328 -4379 4380 0
-4380 4534 0
330 -4380 4381 0
-4381 4535 0
332 -4381 4382 0
-4382 4536 0
12 -4382 4383 0
-4383 4537 0
335 -4383 4384 0
-4384 4538 0
337 -4384 4385 0
-4385 4539 0
339 -4385 4386 0
-4386 4540 0
341 -4386 4387 0
-4387 4541 0
343 -4387 4388 0
-4388 4542 0
345 -4388 4389 0
-4389 4543 0
347 -4389 4390 0
-4390 4544 0
349 -4390 4391 0
-4391 4545 0
351 -4391 4392 0
-4392 4546 0
353 -4392 4393 0
-4393 4547 0
355 -4393 4394 0
-4394 4548 0
357 -4394 4395 0
-4395 4549 0
359 -4395 4396 0
-4396 4550 0
361 -4396 0
65 4397 0
-4397 4551 0
67 -4397 4398 0
-4398 4552 0
69 -4398 4399 0
-4399 4553 0
71 -4399 4400 0
-4400 4554 0
3 -4400 4401 0
-4401 4555 0
74 -4401 4402 0
-4402 4556 0
76 -4402 4403 0
-4403 4557 0
78 -4403 4404 0
-4404 4558 0
80 -4404 4405 0
-4405 4559 0
82 -4405 4406 0
-4406 4560 0
84 -4406 4407 0
-4407 4561 0
86 -4407 4408 0
-4408 4562 0
88 -4408 4409 0
-4409 4563 0
90 -4409 4410 0
-4410 4564 0
92 -4410 4411 0
-4411 4565 0
94 -4411 4412 0
-4412 4566 0
96 -4412 4413 0
-4413 4567 0
98 -4413 4414 0
-4414 4568 0
100 -4414 4415 0
-4415 4569 0
4 -4415 4416 0
-4416 4570 0
103 -4416 4417 0
-4417 4571 0
105 -4417 4418 0
-4418 4572 0
107 -4418 4419 0
-4419 4573 0
109 -4419 4420 0
-4420 4574 0
111 -4420 4421 0
-4421 4575 0
113 -4421 4422 0
-4422 4576 0
115 -4422 4423 0
-4423 4577 0
117 -4423 4424 0
-4424 4578 0
119 -4424 4425 0
-4425 4579 0
121 -4425 4426 0
-4426 4580 0
123 -4426 4427 0
-4427 4581 0
125 -4427 4428 0
-4428 4582 0
127 -4428 4429 0
-4429 4583 0
129 -4429 4430 0
-4430 4584 0
5 -4430 4431 0
-4431 4585 0
132 -4431 4432 0
-4432 4586 0
134 -4432 4433 0
-4433 4587 0
136 -4433 4434 0
-4434 4588 0
138 -4434 4435 0
-4435 4589 0
140 -4435 4436 0
-4436 4590 0
142 -4436 4437 0
-4437 4591 0
144 -4437 4438 0
-4438 4592 0
146 -4438 4439 0
-4439 4593 0
148 -4439 4440 0
-4440 4594 0
150 -4440 4441 0
-4441 4595 0
152 -4441 4442 0
-4442 4596 0
154 -4442 4443 0
-4443 4597 0
156 -4443 4444 0
-4444 4598 0
158 -4444 4445 0
-4445 4599 0
6 -4445 4446 0
-4446 4600 0
161 -4446 4447 0
-4447 4601 0
163 -4447 4448 0
-4448 4602 0
165 -4448 4449 0
-4449 4603 0
167 -4449 4450 0
-4450 4604 0
169 -4450 4451 0
-4451 4605 0
171 -4451 4452 0
-4452 4606 0
173 -4452 4453 0
-4453 4607 0
175 -4453 4454 0
-4454 4608 0
177 -4454 4455 0
-4455 4609 0
179 -4455 4456 0
-4456 4610 0
181 -4456 4457 0
-4457 4611 0
183 -4457 4458 0
-4458 4612 0
185 -4458 4459 0
-4459 4613 0
187 -4459 4460 0
-4460 4614 0
7 -4460 4461 0
-4461 4615 0
190 -4461 4462 0
-4462 4616 0
192 -4462 4463 0
-4463 4617 0
194 -4463 4464 0
-4464 4618 0
196 -4464 4465 0
-4465 4619 0
198 -4465 4466 0
-4466 4620 0
200 -4466 4467 0
-4467 4621 0
202 -4467 4468 0
-4468 4622 0
204 -4468 4469 0
-4469 4623 0
206 -4469 4470 0
-4470 4624 0
208 -4470 4471 0
-4471 4625 0
210 -4471 4472 0
-4472 4626 0
212 -4472 4473 0
-4473 4627 0
214 -4473 4474 0
-4474 4628 0
216 -4474 4475 0
-4475 4629 0
8 -4475 4476 0
-4476 4630 0
219 -4476 4477 0
-4477 4631 0
221 -4477 4478 0
-4478 4632 0
223 -4478 4479 0
-4479 4633 0
225 -4479 4480 0
-4480 4634 0
227 -4480 4481 0
-4481 4635 0
229 -4481 4482 0
-4482 4636 0
231 -4482 4483 0
-4483 4637 0
233 -4483 4484 0
-4484 4638 0
235 -4484 4485 0
-4485 4639 0
237 -4485 4486 0
-4486 4640 0
239 -4486 4487 0
-4487 4641 0
241 -4487 4488 0
-4488 4642 0
243 -4488 4489 0
-4489 4643 0
245 -4489 4490 0
-4490 4644 0
9 -4490 4491 0
-4491 4645 0
248 -4491 4492 0
-4492 4646 0
250 -4492 4493 0
-4493 4647 0
252 -4493 4494 0
-4494 4648 0
254 -4494 4495 0
-4495 4649 0
256 -4495 4496 0
-4496 4650 0
258 -4496 4497 0
-4497 4651 0
260 -4497 4498 0
-4498 4652 0
262 -4498 4499 0
-4499 4653 0
264 -4499 4500 0
-4500 4654 0
266 -4500 4501 0
-4501 4655 0
268 -4501 4502 0
-4502 4656 0
270 -4502 4503 0
-4503 4657 0
272 -4503 4504 0
-4504 4658 0
274 -4504 4505 0
-4505 4659 0
10 -4505 4506 0
-4506 4660 0
277 -4506 4507 0
-4507 4661 0
279 -4507 4508 0
-4508 4662 0
281 -4508 4509 0
-4509 4663 0
283 -4509 4510 0
-4510 4664 0
285 -4510 4511 0
-4511 4665 0
287 -4511 4512 0
-4512 4666 0
289 -4512 4513 0
-4513 4667 0
291 -4513 4514 0
-4514 4668 0
293 -4514 4515 0
-4515 4669 0
295 -4515 4516 0
-4516 4670 0
297 -4516 4517 0
-4517 4671 0
299 -4517 4518 0
-4518 4672 0
301 -4518 4519 0
-4519 4673 0
303 -4519 4520 0
-4520 4674 0
11 -4520 4521 0
-4521 4675 0
306 -4521 4522 0
-4522 4676 0
308 -4522 4523 0
-4523 4677 0
310 -4523 4524 0
-4524 4678 0
312 -4524 4525 0
-4525 4679 0
314 -4525 4526 0
-4526 4680 0
316 -4526 4527 0
-4527 4681 0
318 -4527 4528 0
-4528 4682 0
320 -4528 4529 0
-4529 4683 0
322 -4529 4530 0
-4530 4684 0
324 -4530 4531 0
-4531 4685 0
326 -4531 4532 0
-4532 4686 0
328 -4532 4533 0
-4533 4687 0
330 -4533 4534 0
-4534 4688 0
332 -4534 4535 0
-4535 4689 0
12 -4535 4536 0
-4536 4690 0
335 -4536 4537 0
-4537 4691 0
337 -4537 4538 0
-4538 4692 0
339 -4538 4539 0
-4539 4693 0
341 -4539 4540 0
-4540 4694 0
343 -4540 4541 0
-4541 4695 0
345 -4541 4542 0
-4542 4696 0
347 -4542 4543 0
-4543 4697 0
349 -4543 4544 0
-4544 4698 0
351 -4544 4545 0
-4545 4699 0
353 -4545 4546 0
-4546 4700 0
355 -4546 4547 0
-4547 4701 0
357 -4547 4548 0
-4548 4702 0
359 -4548 4549 0
-4549 4703 0
361 -4549 4550 0
-4550 4704 0
13 -4550 0
67 4551 0
-4551 4705 0
69 -4551 4552 0
-4552 4706 0
71 -4552 4553 0
-4553 4707 0
3 -4553 4554 0
-4554 4708 0
74 -4554 4555 0
-4555 4709 0
76 -4555 4556 0
-4556 4710 0
78 -4556 4557 0
-4557 4711 0
80 -4557 4558 0
-4558 4712 0
82 -4558 4559 0
-4559 4713 0
84 -4559 4560 0
-4560 4714 0
86 -4560 4561 0
-4561 4715 0
88 -4561 4562 0
-4562 4716 0
90 -4562 4563 0
-4563 4717 0
92 -4563 4564 0
-4564 4718 0
94 -4564 4565 0
-4565 4719 0
96 -4565 4566 0
-4566 4720 0
98 -4566 4567 0
-4567 4721 0
100 -4567 4568 0
-4568 4722 0
4 -4568 4569 0
-4569 4723 0
103 -4569 4570 0
-4570 4724 0
105 -4570 4571 0
-4571 4725 0
107 -4571 4572 0
-4572 4726 0
109 -4572 4573 0
-4573 4727 0
111 -4573 4574 0
-4574 4728 0
113 -4574 4575 0
-4575 4729 0
115 -4575 4576 0
-4576 4730 0
117 -4576 4577 0
-4577 4731 0
119 -4577 4578 0
-4578 4732 0
121 -4578 4579 0
-4579 4733 0
123 -4579 4580 0
-4580 4734 0
125 -4580 4581 0
-4581 4735 0
127 -4581 4582 0
-4582 4736 0
129 -4582 4583 0
-4583 4737 0
5 -4583 4584 0
-4584 4738 0
132 -4584 4585 0
-4585 4739 0
134 -4585 4586 0
-4586 4740 0
136 -4586 4587 0
-4587 4741 0
138 -4587 4588 0
-4588 4742 0
140 -4588 4589 0
-4589 4743 0
142 -4589 4590 0
-4590 4744 0
144 -4590 4591 0
-4591 4745 0
146 -4591 4592 0
-4592 4746 0
148 -4592 4593 0
-4593 4747 0
150 -4593 4594 0
-4594 4748 0
152 -4594 4595 0
-4595 4749 0
154 -4595 4596 0
-4596 4750 0
156 -4596 4597 0
-4597 4751 0
158 -4597 4598 0
-4598 4752 0
6 -4598 4599 0
-4599 4753 0
161 -4599 4600 0
-4600 4754 0
163 -4600 4601 0
-4601 4755 0
165 -4601 4602 0
-4602 4756 0
167 -4602 4603 0
-4603 4757 0
169 -4603 4604 0
-4604 4758 0
171 -4604 4605 0
-4605 4759 0
173 -4605 4606 0
-4606 4760 0
175 -4606 4607 0
-4607 4761 0
177 -4607 4608 0
-4608 4762 0
179 -4608 4609 0
-4609 4763 0
181 -4609 4610 0
-4610 4764 0
183 -4610 4611 0
-4611 4765 0
185 -4611 4612 0
-4612 4766 0
187 -4612 4613 0
-4613 4767 0
7 -4613 4614 0
-4614 4768 0
190 -4614 4615 0
-4615 4769 0
192 -4615 4616 0
-4616 4770 0
194 -4616 4617 0
-4617 4771 0
196 -4617 4618 0
-4618 4772 0
198 -4618 4619 0
-4619 4773 0
200 -4619 4620 0
-4620 4774 0
202 -4620 4621 0
-4621 4775 0
204 -4621 4622 0
-4622 4776 0
206 -4622 4623 0
-4623 4777 0
208 -4623 4624 0
-4624 4778 0
210 -4624 4625 0
-4625 4779 0
212 -4625 4626 0
-4626 4780 0
214 -4626 4627 0
-4627 4781 0
216 -4627 4628 0
-4628 4782 0
8 -4628 4629 0
-4629 4783 0
219 -4629 4630 0
-4630 4784 0
221 -4630 4631 0
-4631 4785 0
223 -4631 4632 0
-4632 4786 0
225 -4632 4633 0
-4633 4787 0
227 -4633 4634 0
-4634 4788 0
229 -4634 4635 0
-4635 4789 0
231 -4635 4636 0
-4636 4790 0
233 -4636 4637 0
-4637 4791 0
235 -4637 4638 0
-4638 4792 0
237 -4638 4639 0
-4639 4793 0
239 -4639 4640 0
-4640 4794 0
241 -4640 4641 0
-4641 4795 0
243 -4641 4642 0
-4642 4796 0
245 -4642 4643 0
-4643 4797 0
9 -4643 4644 0
-4644 4798 0
248 -4644 4645 0
-4645 4799 0
250 -4645 4646 0
-4646 4800 0
252 -4646 4647 0
-4647 4801 0
254 -4647 4648 0
-4648 4802 0
256 -4648 4649 0
-4649 4803 0
258 -4649 4650 0
-4650 4804 0
260 -4650 4651 0
-4651 4805 0
262 -4651 4652 0
-4652 4806 0
264 -4652 4653 0
-4653 4807 0
266 -4653 4654 0
-4654 4808 0
268 -4654 4655 0
-4655 4809 0
270 -4655 4656 0
-4656 4810 0
272 -4656 4657 0
-4657 4811 0
274 -4657 4658 0
-4658 4812 0
10 -4658 4659 0
-4659 4813 0
277 -4659 4660 0
-4660 4814 0
279 -4660 4661 0
-4661 4815 0
281 -4661 4662 0
-4662 4816 0
283 -4662 4663 0
-4663 4817 0
285 -4663 4664 0
-4664 4818 0
287 -4664 4665 0
-4665 4819 0
289 -4665 4666 0
-4666 4820 0
291 -4666 4667 0
-4667 4821 0
293 -4667 4668 0
-4668 4822 0
295 -4668 4669 0
-4669 4823 0
297 -4669 4670 0
-4670 4824 0
299 -4670 4671 0
-4671 4825 0
301 -4671 4672 0
-4672 4826 0
303 -4672 4673 0
-4673 4827 0
11 -4673 4674 0
-4674 4828 0
306 -4674 4675 0
-4675 4829 0
308 -4675 4676 0
-4676 4830 0
310 -4676 4677 0
-4677 4831 0
312 -4677 4678 0
-4678 4832 0
314 -4678 4679 0
-4679 4833 0
316 -4679 4680 0
-4680 4834 0
318 -4680 4681 0
-4681 4835 0
320 -4681 4682 0
-4682 4836 0
322 -4682 4683 0
-4683 4837 0
324 -4683 4684 0
-4684 4838 0
326 -4684 4685 0
-4685 4839 0
328 -4685 4686 0
-4686 4840 0
330 -4686 4687 0
-4687 4841 0
332 -4687 4688 0
-4688 4842 0
12 -4688 4689 0
-4689 4843 0
335 -4689 4690 0
-4690 4844 0
337 -4690 4691 0
-4691 4845 0
339 -4691 4692 0
-4692 4846 0
341 -4692 4693 0
-4693 4847 0
343 -4693 4694 0
-4694 4848 0
345 -4694 4695 0
-4695 4849 0
347 -4695 4696 0
-4696 4850 0
349 -4696 4697 0
-4697 4851 0
351 -4697 4698 0
-4698 4852 0
353 -4698 4699 0
-4699 4853 0
355 -4699 4700 0
-4700 4854 0
357 -4700 4701 0
-4701 4855 0
359 -4701 4702 0
-4702 4856 0
361 -4702 4703 0
-4703 4857 0
13 -4703 4704 0
-4704 4858 0
364 -4704 0
69 4705 0
-4705 4859 0
71 -4705 4706 0
-4706 4860 0
3 -4706 4707 0
-4707 4861 0
74 -4707 4708 0
-4708 4862 0
76 -4708 4709 0
-4709 4863 0
78 -4709 4710 0
-4710 4864 0
80 -4710 4711 0
-4711 4865 0
82 -4711 4712 0
-4712 4866 0
84 -4712 4713 0
-4713 4867 0
86 -4713 4714 0
-4714 4868 0
88 -4714 4715 0
-4715 4869 0
90 -4715 4716 0
-4716 4870 0
92 -4716 4717 0
-4717 4871 0
94 -4717 4718 0
-4718 4872 0
96 -4718 4719 0
-4719 4873 0
98 -4719 4720 0
-4720 4874 0
100 -4720 4721 0
-4721 4875 0
4 -4721 4722 0
-4722 4876 0
103 -4722 4723 0
-4723 4877 0
105 -4723 4724 0
-4724 4878 0
107 -4724 4725 0
-4725 4879 0
109 -4725 4726 0
-4726 4880 0
111 -4726 4727 0
-4727 4881 0
113 -4727 4728 0
-4728 4882 0
115 -4728 4729 0
-4729 4883 0
117 -4729 4730 0
-4730 4884 0
119 -4730 4731 0
-4731 4885 0
121 -4731 4732 0
-4732 4886 0
123 -4732 4733 0
-4733 4887 0
125 -4733 4734 0
-4734 4888 0
127 -4734 4735 0
-4735 4889 0
129 -4735 4736 0
-4736 4890 0
5 -4736 4737 0
-4737 4891 0
132 -4737 4738 0
-4738 4892 0
134 -4738 4739 0
-4739 4893 0
136 -4739 4740 0
-4740 4894 0
138 -4740 4741 0
-4741 4895 0
140 -4741 4742 0
-4742 4896 0
142 -4742 4743 0
-4743 4897 0
144 -4743 4744 0
-4744 4898 0
146 -4744 4745 0
-4745 4899 0
148 -4745 4746 0
-4746 4900 0
150 -4746 4747 0
-4747 4901 0
152 -4747 4748 0
-4748 4902 0
154 -4748 4749 0
-4749 4903 0
156 -4749 4750 0
-4750 4904 0
158 -4750 4751 0
-4751 4905 0
6 -4751 4752 0
-4752 4906 0
161 -4752 4753 0
-4753 4907 0
163 -4753 4754 0
-4754 4908 0
165 -4754 4755 0
-4755 4909 0
167 -4755 4756 0
-4756 4910 0
169 -4756 4757 0
-4757 4911 0
171 -4757 4758 0
-4758 4912 0
173 -4758 4759 0
-4759 4913 0
175 -4759 4760 0
-4760 4914 0
177 -4760 4761 0
-4761 4915 0
179 -4761 4762 0
-4762 4916 0
181 -4762 4763 0
-4763 4917 0
183 -4763 4764 0
-4764 4918 0
185 -4764 4765 0
-4765 4919 0
187 -4765 4766 0
-4766 4920 0
7 -4766 4767 0
-4767 4921 0
190 -4767 4768 0
-4768 4922 0
192 -4768 4769 0
-4769 4923 0
194 -4769 4770 0
-4770 4924 0
196 -4770 4771 0
-4771 4925 0
198 -4771 4772 0
-4772 4926 0
200 -4772 4773 0
-4773 4927 0
202 -4773 4774 0
-4774 4928 0
204 -4774 4775 0
-4775 4929 0
206 -4775 4776 0
-4776 4930 0
208 -4776 4777 0
-4777 4931 0
210 -4777 4778 0
-4778 4932 0
212 -4778 4779 0
-4779 4933 0
214 -4779 4780 0
-4780 4934 0
216 -4780 4781 0
-4781 4935 0
8 -4781 4782 0
-4782 4936 0
219 -4782 4783 0
-4783 4937 0
221 -4783 4784 0
-4784 4938 0
223 -4784 4785 0
-4785 4939 0
225 -4785 4786 0
-4786 4940 0
227 -4786 4787 0
-4787 4941 0
229 -4787 4788 0
-4788 4942 0
231 -4788 4789 0
-4789 4943 0
233 -4789 4790 0
-4790 4944 0
235 -4790 4791 0
-4791 4945 0
237 -4791 4792 0
-4792 4946 0
239 -4792 4793 0
-4793 4947 0
241 -4793 4794 0
-4794 4948 0
243 -4794 4795 0
-4795 4949 0
245 -4795 4796 0
-4796 4950 0
9 -4796 4797 0
-4797 4951 0
248 -4797 4798 0
-4798 4952 0
250 -4798 4799 0
-4799 4953 0
252 -4799 4800 0
-4800 4954 0
254 -4800 4801 0
-4801 4955 0
256 -4801 4802 0
-4802 4956 0
258 -4802 4803 0
-4803 4957 0
260 -4803 4804 0
-4804 4958 0
262 -4804 4805 0
-4805 4959 0
264 -4805 4806 0
-4806 4960 0
266 -4806 4807 0
-4807 4961 0
268 -4807 4808 0
-4808 4962 0
270 -4808 4809 0
-4809 4963 0
272 -4809 4810 0
-4810 4964 0
274 -4810 4811 0
-4811 4965 0
10 -4811 4812 0
-4812 4966 0
277 -4812 4813 0
-4813 4967 0
279 -4813 4814 0
-4814 4968 0
281 -4814 4815 0
-4815 4969 0
283 -4815 4816 0
-4816 4970 0
285 -4816 4817 0
-4817 4971 0
287 -4817 4818 0
-4818 4972 0
289 -4818 4819 0
-4819 4973 0
291 -4819 4820 0
-4820 4974 0
293 -4820 4821 0
-4821 4975 0
295 -4821 4822 0
-4822 4976 0
297 -4822 4823 0
-4823 4977 0
299 -4823 4824 0
-4824 4978 0
301 -4824 4825 0
-4825 4979 0
303 -4825 4826 0
-4826 4980 0
11 -4826 4827 0
-4827 4981 0
306 -4827 4828 0
-4828 4982 0
308 -4828 4829 0
-4829 4983 0
310 -4829 4830 0
-4830 4984 0
312 -4830 4831 0
-4831 4985 0
314 -4831 4832 0
-4832 4986 0
316 -4832 4833 0
-4833 4987 0
318 -4833 4834 0
-4834 4988 0
320 -4834 4835 0
-4835 4989 0
322 -4835 4836 0
-4836 4990 0
324 -4836 4837 0
-4837 4991 0
326 -4837 4838 0
-4838 4992 0
328 -4838 4839 0
-4839 4993 0
330 -4839 4840 0
-4840 4994 0
332 -4840 4841 0
-4841 4995 0
12 -4841 4842 0
-4842 4996 0
335 -4842 4843 0
-4843 4997 0
337 -4843 4844 0
-4844 4998 0
339 -4844 4845 0
-4845 4999 0
341 -4845 4846 0
-4846 5000 0
343 -4846 4847 0
-4847 5001 0
345 -4847 4848 0
-4848 5002 0
347 -4848 4849 0
-4849 5003 0
349 -4849 4850 0
-4850 5004 0
351 -4850 4851 0
-4851 5005 0
353 -4851 4852 0
-4852 5006 0
355 -4852 4853 0
-4853 5007 0
357 -4853 4854 0
-4854 5008 0
359 -4854 4855 0
-4855 5009 0
361 -4855 4856 0
-4856 5010 0
13 -4856 4857 0
-4857 5011 0
364 -4857 4858 0
-4858 5012 0
366 -4858 0
71 4859 0
-4859 5013 0
3 -4859 4860 0
-4860 5014 0
74 -4860 4861 0
-4861 5015 0
76 -4861 4862 0
-4862 5016 0
78 -4862 4863 0
-4863 5017 0
80 -4863 4864 0
-4864 5018 0
82 -4864 4865 0
-4865 5019 0
84 -4865 4866 0
-4866 5020 0
86 -4866 4867 0
-4867 5021 0
88 -4867 4868 0
-4868 5022 0
90 -4868 4869 0
-4869 5023 0
92 -4869 4870 0
-4870 5024 0
94 -4870 4871 0
-4871 5025 0
96 -4871 4872 0
-4872 5026 0
98 -4872 4873 0
-4873 5027 0
100 -4873 4874 0
-4874 5028 0
4 -4874 4875 0
-4875 5029 0
103 -4875 4876 0
-4876 5030 0
105 -4876 4877 0
-4877 5031 0
107 -4877 4878 0
-4878 5032 0
109 -4878 4879 0
-4879 5033 0
111 -4879 4880 0
-4880 5034 0
113 -4880 4881 0
-4881 5035 0
115 -4881 4882 0
-4882 5036 0
117 -4882 4883 0
-4883 5037 0
119 -4883 4884 0
-4884 5038 0
121 -4884 4885 0
-4885 5039 0
123 -4885 4886 0
-4886 5040 0
125 -4886 4887 0
-4887 5041 0
127 -4887 4888 0
-4888 5042 0
129 -4888 4889 0
-4889 5043 0
5 -4889 4890 0
-4890 5044 0
132 -4890 4891 0
-4891 5045 0
134 -4891 4892 0
-4892 5046 0
136 -4892 4893 0
-4893 5047 0
138 -4893 4894 0
-4894 5048 0
140 -4894 4895 0
-4895 5049 0
142 -4895 4896 0
-4896 5050 0
144 -4896 4897 0
-4897 5051 0
146 -4897 4898 0
-4898 5052 0
148 -4898 4899 0
-4899 5053 0
150 -4899 4900 0
-4900 5054 0
152 -4900 4901 0
-4901 5055 0
154 -4901 4902 0
-4902 5056 0
156 -4902 4903 0
-4903 5057 0
158 -4903 4904 0
-4904 5058 0
6 -4904 4905 0
-4905 5059 0
161 -4905 4906 0
-4906 5060 0
163 -4906 4907 0
-4907 5061 0
165 -4907 4908 0
-4908 5062 0
167 -4908 4909 0
-4909 5063 0
169 -4909 4910 0
-4910 5064 0
171 -4910 4911 0
-4911 5065 0
173 -4911 4912 0
-4912 5066 0
175 -4912 4913 0
-4913 5067 0
177 -4913 4914 0
-4914 5068 0
179 -4914 4915 0
-4915 5069 0
181 -4915 4916 0
-4916 5070 0
183 -4916 4917 0
-4917 5071 0
185 -4917 4918 0
-4918 5072 0
187 -4918 4919 0
-4919 5073 0
7 -4919 4920 0
-4920 5074 0
190 -4920 4921 0
-4921 5075 0
192 -4921 4922 0
-4922 5076 0
194 -4922 4923 0
-4923 5077 0
196 -4923 4924 0
-4924 5078 0
198 -4924 4925 0
-4925 5079 0
200 -4925 4926 0
-4926 5080 0
202 -4926 4927 0
-4927 5081 0
204 -4927 4928 0
-4928 5082 0
206 -4928 4929 0
-4929 5083 0
208 -4929 4930 0
-4930 5084 0
210 -4930 4931 0
-4931 5085 0
212 -4931 4932 0
-4932 5086 0
214 -4932 4933 0
-4933 5087 0
216 -4933 4934 0
-4934 5088 0
8 -4934 4935 0
-4935 5089 0
219 -4935 4936 0
-4936 5090 0
221 -4936 4937 0
-4937 5091 0
223 -4937 4938 0
-4938 5092 0
225 -4938 4939 0
-4939 5093 0
227 -4939 4940 0
-4940 5094 0
229 -4940 4941 0
-4941 5095 0
231 -4941 4942 0
-4942 5096 0
233 -4942 4943 0
-4943 5097 0
235 -4943 4944 0
-4944 5098 0
237 -4944 4945 0
-4945 5099 0
239 -4945 4946 0
-4946 5100 0
241 -4946 4947 0
-4947 5101 0
243 -4947 4948 0
-4948 5102 0
245 -4948 4949 0
-4949 5103 0
9 -4949 4950 0
-4950 5104 0
248 -4950 4951 0
-4951 5105 0
250 -4951 4952 0
-4952 5106 0
252 -4952 4953 0
-4953 5107 0
254 -4953 4954 0
-4954 5108 0
256 -4954 4955 0
-4955 5109 0
258 -4955 4956 0
-4956 5110 0
260 -4956 4957 0
-4957 5111 0
262 -4957 4958 0
-4958 5112 0
264 -4958 4959 0
-4959 5113 0
266 -4959 4960 0
-4960 5114 0
268 -4960 4961 0
-4961 5115 0
270 -4961 4962 0
-4962 5116 0
272 -4962 4963 0
-4963 5117 0
274 -4963 4964 0
-4964 5118 0
10 -4964 4965 0
-4965 5119 0
277 -4965 4966 0
-4966 5120 0
279 -4966 4967 0
-4967 5121 0
281 -4967 4968 0
-4968 5122 0
283 -4968 4969 0
-4969 5123 0
285 -4969 4970 0
-4970 5124 0
287 -4970 4971 0
-4971 5125 0
289 -4971 4972 0
-4972 5126 0
291 -4972 4973 0
-4973 5127 0
293 -4973 4974 0
-4974 5128 0
295 -4974 4975 0
-4975 5129 0
297 -4975 4976 0
-4976 5130 0
299 -4976 4977 0
-4977 5131 0
301 -4977 4978 0
-4978 5132 0
303 -4978 4979 0
-4979 5133 0
11 -4979 4980 0
-4980 5134 0
306 -4980 4981 0
-4981 5135 0
308 -4981 4982 0
-4982 5136 0
310 -4982 4983 0
-4983 5137 0
312 -4983 4984 0
-4984 5138 0
314 -4984 4985 0
-4985 5139 0
316 -4985 4986 0
-4986 5140 0
318 -4986 4987 0
-4987 5141 0
320 -4987 4988 0
-4988 5142 0
322 -4988 4989 0
-4989 5143 0
324 -4989 4990 0
-4990 5144 0
326 -4990 4991 0
-4991 5145 0
328 -4991 4992 0
-4992 5146 0
330 -4992 4993 0
-4993 5147 0
332 -4993 4994 0
-4994 5148 0
12 -4994 4995 0
-4995 5149 0
335 -4995 4996 0
-4996 5150 0
337 -4996 4997 0
-4997 5151 0
339 -4997 4998 0
-4998 5152 0
341 -4998 4999 0
-4999 5153 0
343 -4999 5000 0
-5000 5154 0
345 -5000 5001 0
-5001 5155 0
347 -5001 5002 0
-5002 5156 0
349 -5002 5003 0
-5003 5157 0
351 -5003 5004 0
-5004 5158 0
353 -5004 5005 0
-5005 5159 0
355 -5005 5006 0
-5006 5160 0
357 -5006 5007 0
-5007 5161 0
359 -5007 5008 0
-5008 5162 0
361 -5008 5009 0
-5009 5163 0
13 -5009 5010 0
-5010 5164 0
364 -5010 5011 0
-5011 5165 0
366 -5011 5012 0
-5012 5166 0
368 -5012 0
3 5013 0
-5013 5167 0
74 -5013 5014 0
-5014 5168 0
76 -5014 5015 0
-5015 5169 0
78 -5015 5016 0
-5016 5170 0
80 -5016 5017 0
-5017 5171 0
82 -5017 5018 0
-5018 5172 0
84 -5018 5019 0
-5019 5173 0
86 -5019 5020 0
-5020 5174 0
88 -5020 5021 0
-5021 5175 0
90 -5021 5022 0
-5022 5176 0
92 -5022 5023 0
-5023 5177 0
94 -5023 5024 0
-5024 5178 0
96 -5024 5025 0
-5025 5179 0
98 -5025 5026 0
-5026 5180 0
100 -5026 5027 0
-5027 5181 0
4 -5027 5028 0
-5028 5182 0
103 -5028 5029 0
-5029 5183 0
105 -5029 5030 0
-5030 5184 0
107 -5030 5031 0
-5031 5185 0
109 -5031 5032 0
-5032 5186 0
111 -5032 5033 0
-5033 5187 0
113 -5033 5034 0
-5034 5188 0
115 -5034 5035 0
-5035 5189 0
117 -5035 5036 0
-5036 5190 0
119 -5036 5037 0
-5037 5191 0
121 -5037 5038 0
-5038 5192 0
123 -5038 5039 0
-5039 5193 0
125 -5039 5040 0
-5040 5194 0
127 -5040 5041 0
-5041 5195 0
129 -5041 5042 0
-5042 5196 0
5 -5042 5043 0
-5043 5197 0
132 -5043 5044 0
-5044 5198 0
134 -5044 5045 0
-5045 5199 0
136 -5045 5046 0
-5046 5200 0
138 -5046 5047 0
-5047 5201 0
140 -5047 5048 0
-5048 5202 0
142 -5048 5049 0
-5049 5203 0
144 -5049 5050 0
-5050 5204 0
146 -5050 5051 0
-5051 5205 0
148 -5051 5052 0
-5052 5206 0
150 -5052 5053 0
-5053 5207 0
152 -5053 5054 0
-5054 5208 0
154 -5054 5055 0
-5055 5209 0
156 -5055 5056 0
-5056 5210 0
158 -5056 5057 0
-5057 5211 0
6 -5057 5058 0
-5058 5212 0
161 -5058 5059 0
-5059 5213 0
163 -5059 5060 0
-5060 5214 0
165 -5060 5061 0
-5061 5215 0
167 -5061 5062 0
-5062 5216 0
169 -5062 5063 0
-5063 5217 0
171 -5063 5064 0
-5064 5218 0
173 -5064 5065 0
-5065 5219 0
175 -5065 5066 0
-5066 5220 0
177 -5066 5067 0
-5067 5221 0
179 -5067 5068 0
-5068 5222 0
181 -5068 5069 0
-5069 5223 0
183 -5069 5070 0
-5070 5224 0
185 -5070 5071 0
-5071 5225 0
187 -5071 5072 0
-5072 5226 0
7 -5072 5073 0
-5073 5227 0
190 -5073 5074 0
-5074 5228 0
192 -5074 5075 0
-5075 5229 0
194 -5075 5076 0
-5076 5230 0
196 -5076 5077 0
-5077 5231 0
198 -5077 5078 0
-5078 5232 0
200 -5078 5079 0
-5079 5233 0
202 -5079 5080 0
-5080 5234 0
204 -5080 5081 0
-5081 5235 0
206 -5081 5082 0
-5082 5236 0
208 -5082 5083 0
-5083 5237 0
210 -5083 5084 0
-5084 5238 0
212 -5084 5085 0
-5085 5239 0
214 -5085 5086 0
-5086 5240 0
216 -5086 5087 0
-5087 5241 0
8 -5087 5088 0
-5088 5242 0
219 -5088 5089 0
-5089 5243 0
221 -5089 5090 0
-5090 5244 0
223 -5090 5091 0
-5091 5245 0
225 -5091 5092 0
-5092 5246 0
227 -5092 5093 0
-5093 5247 0
229 -5093 5094 0
-5094 5248 0
231 -5094 5095 0
-5095 5249 0
233 -5095 5096 0
-5096 5250 0
235 -5096 5097 0
-5097 5251 0
237 -5097 5098 0
-5098 5252 0
239 -5098 5099 0
-5099 5253 0
241 -5099 5100 0
-5100 5254 0
243 -5100 5101 0
-5101 5255 0
245 -5101 5102 0
-5102 5256 0
9 -5102 5103 0
-5103 5257 0
248 -5103 5104 0
-5104 5258 0
250 -5104 5105 0
-5105 5259 0
252 -5105 5106 0
-5106 5260 0
254 -5106 5107 0
-5107 5261 0
256 -5107 5108 0
-5108 5262 0
258 -5108 5109 0
-5109 5263 0
260 -5109 5110 0
-5110 5264 0
262 -5110 5111 0
-5111 5265 0
264 -5111 5112 0
-5112 5266 0
266 -5112 5113 0
-5113 5267 0
268 -5113 5114 0
-5114 5268 0
270 -5114 5115 0
-5115 5269 0
272 -5115 5116 0
-5116 5270 0
274 -5116 5117 0
-5117 5271 0
10 -5117 5118 0
-5118 5272 0
277 -5118 5119 0
-5119 5273 0
279 -5119 5120 0
-5120 5274 0
281 -5120 5121 0
-5121 5275 0
283 -5121 5122 0
-5122 5276 0
285 -5122 5123 0
-5123 5277 0
287 -5123 5124 0
-5124 5278 0
289 -5124 5125 0
-5125 5279 0
291 -5125 5126 0
-5126 5280 0
293 -5126 5127 0
-5127 5281 0
295 -5127 5128 0
-5128 5282 0
297 -5128 5129 0
-5129 5283 0
299 -5129 5130 0
-5130 5284 0
301 -5130 5131 0
-5131 5285 0
303 -5131 5132 0
-5132 5286 0
11 -5132 5133 0
-5133 5287 0
306 -5133 5134 0
-5134 5288 0
308 -5134 5135 0
-5135 5289 0
310 -5135 5136 0
-5136 5290 0
312 -5136 5137 0
-5137 5291 0
314 -5137 5138 0
-5138 5292 0
316 -5138 5139 0
-5139 5293 0
318 -5139 5140 0
-5140 5294 0
320 -5140 5141 0
-5141 5295 0
322 -5141 5142 0
-5142 5296 0
324 -5142 5143 0
-5143 5297 0
326 -5143 5144 0
-5144 5298 0
328 -5144 5145 0
-5145 5299 0
330 -5145 5146 0
-5146 5300 0
332 -5146 5147 0
-5147 5301 0
12 -5147 5148 0
-5148 5302 0
335 -5148 5149 0
-5149 5303 0
337 -5149 5150 0
-5150 5304 0
339 -5150 5151 0
-5151 5305 0
341 -5151 5152 0
-5152 5306 0
343 -5152 5153 0
-5153 5307 0
345 -5153 5154 0
-5154 5308 0
347 -5154 5155 0
-5155 5309 0
349 -5155 5156 0
-5156 5310 0
351 -5156 5157 0
-5157 5311 0
353 -5157 5158 0
-5158 5312 0
355 -5158 5159 0
-5159 5313 0
357 -5159 5160 0
-5160 5314 0
359 -5160 5161 0
-5161 5315 0
361 -5161 5162 0
-5162 5316 0
13 -5162 5163 0
-5163 5317 0
364 -5163 5164 0
-5164 5318 0
366 -5164 5165 0
-5165 5319 0
368 -5165 5166 0
-5166 5320 0
370 -5166 0
74 5167 0
-5167 5321 0
76 -5167 5168 0
-5168 5322 0
78 -5168 5169 0
-5169 5323 0
80 -5169 5170 0
-5170 5324 0
82 -5170 5171 0
-5171 5325 0
84 -5171 5172 0
-5172 5326 0
86 -5172 5173 0
-5173 5327 0
88 -5173 5174 0
-5174 5328 0
90 -5174 5175 0
-5175 5329 0
92 -5175 5176 0
-5176 5330 0
94 -5176 5177 0
-5177 5331 0
96 -5177 5178 0
-5178 5332 0
98 -5178 5179 0
-5179 5333 0
100 -5179 5180 0
-5180 5334 0
4 -5180 5181 0
-5181 5335 0
103 -5181 5182 0
-5182 5336 0
105 -5182 5183 0
-5183 5337 0
107 -5183 5184 0
-5184 5338 0
109 -5184 5185 0
-5185 5339 0
111 -5185 5186 0
-5186 5340 0
113 -5186 5187 0
-5187 5341 0
115 -5187 5188 0
-5188 5342 0
117 -5188 5189 0
-5189 5343 0
119 -5189 5190 0
-5190 5344 0
121 -5190 5191 0
-5191 5345 0
123 -5191 5192 0
-5192 5346 0
125 -5192 5193 0
-5193 5347 0
127 -5193 5194 0
-5194 5348 0
129 -5194 5195 0
-5195 5349 0
5 -5195 5196 0
-5196 5350 0
132 -5196 5197 0
-5197 5351 0
134 -5197 5198 0
-5198 5352 0
136 -5198 5199 0
-5199 5353 0
138 -5199 5200 0
-5200 5354 0
140 -5200 5201 0
-5201 5355 0
142 -5201 5202 0
-5202 5356 0
144 -5202 5203 0
-5203 5357 0
146 -5203 5204 0
-5204 5358 0
148 -5204 5205 0
-5205 5359 0
150 -5205 5206 0
-5206 5360 0
152 -5206 5207 0
-5207 5361 0
154 -5207 5208 0
-5208 5362 0
156 -5208 5209 0
-5209 5363 0
158 -5209 5210 0
-5210 5364 0
6 -5210 5211 0
-5211 5365 0
161 -5211 5212 0
-5212 5366 0
163 -5212 5213 0
-5213 5367 0
165 -5213 5214 0
-5214 5368 0
167 -5214 5215 0
-5215 5369 0
169 -5215 5216 0
-5216 5370 0
171 -5216 5217 0
-5217 5371 0
173 -5217 5218 0
-5218 5372 0
175 -5218 5219 0
-5219 5373 0
177 -5219 5220 0
-5220 5374 0
179 -5220 5221 0
-5221 5375 0
181 -5221 5222 0
-5222 5376 0
183 -5222 5223 0
-5223 5377 0
185 -5223 5224 0
-5224 5378 0
187 -5224 5225 0
-5225 5379 0
7 -5225 5226 0
-5226 5380 0
190 -5226 5227 0
-5227 5381 0
192 -5227 5228 0
-5228 5382 0
194 -5228 5229 0
-5229 5383 0
196 -5229 5230 0
-5230 5384 0
198 -5230 5231 0
-5231 5385 0
200 -5231 5232 0
-5232 5386 0
202 -5232 5233 0
-5233 5387 0
204 -5233 5234 0
-5234 5388 0
206 -5234 5235 0
-5235 5389 0
208 -5235 5236 0
-5236 5390 0
210 -5236 5237 0
-5237 5391 0
212 -5237 5238 0
-5238 5392 0
214 -5238 5239 0
-5239 5393 0
216 -5239 5240 0
-5240 5394 0
8 -5240 5241 0
-5241 5395 0
219 -5241 5242 0
-5242 5396 0
221 -5242 5243 0
-5243 5397 0
223 -5243 5244 0
-5244 5398 0
225 -5244 5245 0
-5245 5399 0
227 -5245 5246 0
-5246 5400 0
229 -5246 5247 0
-5247 5401 0
231 -5247 5248 0
-5248 5402 0
233 -5248 5249 0
-5249 5403 0
235 -5249 5250 0
-5250 5404 0
237 -5250 5251 0
-5251 5405 0
239 -5251 5252 0
-5252 5406 0
241 -5252 5253 0
-5253 5407 0
243 -5253 5254 0
-5254 5408 0
245 -5254 5255 0
-5255 5409 0
9 -5255 5256 0
-5256 5410 0
248 -5256 5257 0
-5257 5411 0
250 -5257 5258 0
-5258 5412 0
252 -5258 5259 0
-5259 5413 0
254 -5259 5260 0
-5260 5414 0
256 -5260 5261 0
-5261 5415 0
258 -5261 5262 0
-5262 5416 0
260 -5262 5263 0
-5263 5417 0
262 -5263 5264 0
-5264 5418 0
264 -5264 5265 0
-5265 5419 0
266 -5265 5266 0
-5266 5420 0
268 -5266 5267 0
-5267 5421 0
270 -5267 5268 0
-5268 5422 0
272 -5268 5269 0
-5269 5423 0
274 -5269 5270 0
-5270 5424 0
10 -5270 5271 0
-5271 5425 0
277 -5271 5272 0
-5272 5426 0
279 -5272 5273 0
-5273 5427 0
281 -5273 5274 0
-5274 5428 0
283 -5274 5275 0
-5275 5429 0
285 -5275 5276 0
-5276 5430 0
287 -5276 5277 0
-5277 5431 0
289 -5277 5278 0
-5278 5432 0
291 -5278 5279 0
-5279 5433 0
293 -5279 5280 0
-5280 5434 0
295 -5280 5281 0
-5281 5435 0
297 -5281 5282 0
-5282 5436 0
299 -5282 5283 0
-5283 5437 0
301 -5283 5284 0
-5284 5438 0
303 -5284 5285 0
-5285 5439 0
11 -5285 5286 0
-5286 5440 0
306 -5286 5287 0
-5287 5441 0
308 -5287 5288 0
-5288 5442 0
310 -5288 5289 0
-5289 5443 0
312 -5289 5290 0
-5290 5444 0
314 -5290 5291 0
-5291 5445 0
316 -5291 5292 0
-5292 5446 0
318 -5292 5293 0
-5293 5447 0
320 -5293 5294 0
-5294 5448 0
322 -5294 5295 0
-5295 5449 0
324 -5295 5296 0
-5296 5450 0
326 -5296 5297 0
-5297 5451 0
328 -5297 5298 0
-5298 5452 0
330 -5298 5299 0
-5299 5453 0
332 -5299 5300 0
-5300 5454 0
12 -5300 5301 0
-5301 5455 0
335 -5301 5302 0
-5302 5456 0
337 -5302 5303 0
-5303 5457 0
339 -5303 5304 0
-5304 5458 0
341 -5304 5305 0
-5305 5459 0
343 -5305 5306 0
-5306 5460 0
345 -5306 5307 0
-5307 5461 0
347 -5307 5308 0
-5308 5462 0
349 -5308 5309 0
-5309 5463 0
351 -5309 5310 0
-5310 5464 0
353 -5310 5311 0
-5311 5465 0
355 -5311 5312 0
-5312 5466 0
357 -5312 5313 0
-5313 5467 0
359 -5313 5314 0
-5314 5468 0
361 -5314 5315 0
-5315 5469 0
13 -5315 5316 0
-5316 5470 0
364 -5316 5317 0
-5317 5471 0
366 -5317 5318 0
-5318 5472 0
368 -5318 5319 0
-5319 5473 0
370 -5319 5320 0
-5320 5474 0
372 -5320 0
76 5321 0
-5321 5475 0
78 -5321 5322 0
-5322 5476 0
80 -5322 5323 0
-5323 5477 0
82 -5323 5324 0
-5324 5478 0
84 -5324 5325 0
-5325 5479 0
86 -5325 5326 0
-5326 5480 0
88 -5326 5327 0
-5327 5481 0
90 -5327 5328 0
-5328 5482 0
92 -5328 5329 0
-5329 5483 0
94 -5329 5330 0
-5330 5484 0
96 -5330 5331 0
-5331 5485 0
98 -5331 5332 0
-5332 5486 0
100 -5332 5333 0
-5333 5487 0
4 -5333 5334 0
-5334 5488 0
103 -5334 5335 0
-5335 5489 0
105 -5335 5336 0
-5336 5490 0
107 -5336 5337 0
-5337 5491 0
109 -5337 5338 0
-5338 5492 0
111 -5338 5339 0
-5339 5493 0
113 -5339 5340 0
-5340 5494 0
115 -5340 5341 0
-5341 5495 0
117 -5341 5342 0
-5342 5496 0
119 -5342 5343 0
-5343 5497 0
121 -5343 5344 0
-5344 5498 0
123 -5344 5345 0
-5345 5499 0
125 -5345 5346 0
-5346 5500 0
127 -5346 5347 0
-5347 5501 0
129 -5347 5348 0
-5348 5502 0
5 -5348 5349 0
-5349 5503 0
132 -5349 5350 0
-5350 5504 0
134 -5350 5351 0
-5351 5505 0
136 -5351 5352 0
-5352 5506 0
138 -5352 5353 0
-5353 5507 0
140 -5353 5354 0
-5354 5508 0
142 -5354 5355 0
-5355 5509 0
144 -5355 5356 0
-5356 5510 0
146 -5356 5357 0
-5357 5511 0
148 -5357 5358 0
-5358 5512 0
150 -5358 5359 0
-5359 5513 0
152 -5359 5360 0
-5360 5514 0
154 -5360 5361 0
-5361 5515 0
156 -5361 5362 0
-5362 5516 0
158 -5362 5363 0
-5363 5517 0
6 -5363 5364 0
-5364 5518 0
161 -5364 5365 0
-5365 5519 0
163 -5365 5366 0
-5366 5520 0
165 -5366 5367 0
-5367 5521 0
167 -5367 5368 0
-5368 5522 0
169 -5368 5369 0
-5369 5523 0
171 -5369 5370 0
-5370 5524 0
173 -5370 5371 0
-5371 5525 0
175 -5371 5372 0
-5372 5526 0
177 -5372 5373 0
-5373 5527 0
179 -5373 5374 0
-5374 5528 0
181 -5374 5375 0
-5375 5529 0
183 -5375 5376 0
-5376 5530 0
185 -5376 5377 0
-5377 5531 0
187 -5377 5378 0
-5378 5532 0
7 -5378 5379 0
-5379 5533 0
190 -5379 5380 0
-5380 5534 0
192 -5380 5381 0
-5381 5535 0
194 -5381 5382 0
-5382 5536 0
196 -5382 5383 0
-5383 5537 0
198 -5383 5384 0
-5384 5538 0
200 -5384 5385 0
-5385 5539 0
202 -5385 5386 0
-5386 5540 0
204 -5386 5387 0
-5387 5541 0
206 -5387 5388 0
-5388 5542 0
208 -5388 5389 0
-5389 5543 0
210 -5389 5390 0
-5390 5544 0
212 -5390 5391 0
-5391 5545 0
214 -5391 5392 0
-5392 5546 0
216 -5392 5393 0
-5393 5547 0
8 -5393 5394 0
-5394 5548 0
219 -5394 5395 0
-5395 5549 0
221 -5395 5396 0
-5396 5550 0
223 -5396 5397 0
-5397 5551 0
225 -5397 5398 0
-5398 5552 0
227 -5398 5399 0
-5399 5553 0
229 -5399 5400 0
-5400 5554 0
231 -5400 5401 0
-5401 5555 0
233 -5401 5402 0
-5402 5556 0
235 -5402 5403 0
-5403 5557 0
237 -5403 5404 0
-5404 5558 0
239 -5404 5405 0
-5405 5559 0
241 -5405 5406 0
-5406 5560 0
243 -5406 5407 0
-5407 5561 0
245 -5407 5408 0
-5408 5562 0
9 -5408 5409 0
-5409 5563 0
248 -5409 5410 0
-5410 5564 0
250 -5410 5411 0
-5411 5565 0
252 -5411 5412 0
-5412 5566 0
254 -5412 5413 0
-5413 5567 0
256 -5413 5414 0
-5414 5568 0
258 -5414 5415 0
-5415 5569 0
260 -5415 5416 0
-5416 5570 0
262 -5416 5417 0
-5417 5571 0
264 -5417 5418 0
-5418 5572 0
266 -5418 5419 0
-5419 5573 0
268 -5419 5420 0
-5420 5574 0
270 -5420 5421 0
-5421 5575 0
272 -5421 5422 0
-5422 5576 0
274 -5422 5423 0
-5423 5577 0
10 -5423 5424 0
-5424 5578 0
277 -5424 5425 0
-5425 5579 0
279 -5425 5426 0
-5426 5580 0
281 -5426 5427 0
-5427 5581 0
283 -5427 5428 0
-5428 5582 0
285 -5428 5429 0
-5429 5583 0
287 -5429 5430 0
-5430 5584 0
289 -5430 5431 0
-5431 5585 0
291 -5431 5432 0
-5432 5586 0
293 -5432 5433 0
-5433 5587 0
295 -5433 5434 0
-5434 5588 0
297 -5434 5435 0
-5435 5589 0
299 -5435 5436 0
-5436 5590 0
301 -5436 5437 0
-5437 5591 0
303 -5437 5438 0
-5438 5592 0
11 -5438 5439 0
-5439 5593 0
306 -5439 5440 0
-5440 5594 0
308 -5440 5441 0
-5441 5595 0
310 -5441 5442 0
-5442 5596 0
312 -5442 5443 0
-5443 5597 0
314 -5443 5444 0
-5444 5598 0
316 -5444 5445 0
-5445 5599 0
318 -5445 5446 0
-5446 5600 0
320 -5446 5447 0
-5447 5601 0
322 -5447 5448 0
-5448 5602 0
324 -5448 5449 0
-5449 5603 0
326 -5449 5450 0
-5450 5604 0
328 -5450 5451 0
-5451 5605 0
330 -5451 5452 0
-5452 5606 0
332 -5452 5453 0
-5453 5607 0
12 -5453 5454 0
-5454 5608 0
335 -5454 5455 0
-5455 5609 0
337 -5455 5456 0
-5456 5610 0
339 -5456 5457 0
-5457 5611 0
341 -5457 5458 0
-5458 5612 0
343 -5458 5459 0
-5459 5613 0
345 -5459 5460 0
-5460 5614 0
347 -5460 5461 0
-5461 5615 0
349 -5461 5462 0
-5462 5616 0
351 -5462 5463 0
-5463 5617 0
353 -5463 5464 0
-5464 5618 0
355 -5464 5465 0
-5465 5619 0
357 -5465 5466 0
-5466 5620 0
359 -5466 5467 0
-5467 5621 0
361 -5467 5468 0
-5468 5622 0
13 -5468 5469 0
-5469 5623 0
364 -5469 5470 0
-5470 5624 0
366 -5470 5471 0
-5471 5625 0
368 -5471 5472 0
-5472 5626 0
370 -5472 5473 0
-5473 5627 0
372 -5473 5474 0
-5474 5628 0
374 -5474 0
78 5475 0
-5475 5629 0
80 -5475 5476 0
-5476 5630 0
82 -5476 5477 0
-5477 5631 0
84 -5477 5478 0
-5478 5632 0
86 -5478 5479 0
-5479 5633 0
88 -5479 5480 0
-5480 5634 0
90 -5480 5481 0
-5481 5635 0
92 -5481 5482 0
-5482 5636 0
94 -5482 5483 0
-5483 5637 0
96 -5483 5484 0
-5484 5638 0
98 -5484 5485 0
-5485 5639 0
100 -5485 5486 0
-5486 5640 0
4 -5486 5487 0
-5487 5641 0
103 -5487 5488 0
-5488 5642 0
105 -5488 5489 0
-5489 5643 0
107 -5489 5490 0
-5490 5644 0
109 -5490 5491 0
-5491 5645 0
111 -5491 5492 0
-5492 5646 0
113 -5492 5493 0
-5493 5647 0
115 -5493 5494 0
-5494 5648 0
117 -5494 5495 0
-5495 5649 0
119 -5495 5496 0
-5496 5650 0
121 -5496 5497 0
-5497 5651 0
123 -5497 5498 0
-5498 5652 0
125 -5498 5499 0
-5499 5653 0
127 -5499 5500 0
-5500 5654 0
129 -5500 5501 0
-5501 5655 0
5 -5501 5502 0
-5502 5656 0
132 -5502 5503 0
-5503 5657 0
134 -5503 5504 0
-5504 5658 0
136 -5504 5505 0
-5505 5659 0
138 -5505 5506 0
-5506 5660 0
140 -5506 5507 0
-5507 5661 0
142 -5507 5508 0
-5508 5662 0
144 -5508 5509 0
-5509 5663 0
146 -5509 5510 0
-5510 5664 0
148 -5510 5511 0
-5511 5665 0
150 -5511 5512 0
-5512 5666 0
152 -5512 5513 0
-5513 5667 0
154 -5513 5514 0
-5514 5668 0
156 -5514 5515 0
-5515 5669 0
158 -5515 5516 0
-5516 5670 0
6 -5516 5517 0
-5517 5671 0
161 -5517 5518 0
-5518 5672 0
163 -5518 5519 0
-5519 5673 0
165 -5519 5520 0
-5520 5674 0
167 -5520 5521 0
-5521 5675 0
169 -5521 5522 0
-5522 5676 0
171 -5522 5523 0
-5523 5677 0
173 -5523 5524 0
-5524 5678 0
175 -5524 5525 0
-5525 5679 0
177 -5525 5526 0
-5526 5680 0
179 -5526 5527 0
-5527 5681 0
181 -5527 5528 0
-5528 5682 0
183 -5528 5529 0
-5529 5683 0
185 -5529 5530 0
-5530 5684 0
187 -5530 5531 0
-5531 5685 0
7 -5531 5532 0
-5532 5686 0
190 -5532 5533 0
-5533 5687 0
192 -5533 5534 0
-5534 5688 0
194 -5534 5535 0
-5535 5689 0
196 -5535 5536 0
-5536 5690 0
198 -5536 5537 0
-5537 5691 0
200 -5537 5538 0
-5538 5692 0
202 -5538 5539 0
-5539 5693 0
204 -5539 5540 0
-5540 5694 0
206 -5540 5541 0
-5541 5695 0
208 -5541 5542 0
-5542 5696 0
210 -5542 5543 0
-5543 5697 0
212 -5543 5544 0
-5544 5698 0
214 -5544 5545 0
-5545 5699 0
216 -5545 5546 0
-5546 5700 0
8 -5546 5547 0
-5547 5701 0
219 -5547 5548 0
-5548 5702 0
221 -5548 5549 0
-5549 5703 0
223 -5549 5550 0
-5550 5704 0
225 -5550 5551 0
-5551 5705 0
227 -5551 5552 0
-5552 5706 0
229 -5552 5553 0
-5553 5707 0
231 -5553 5554 0
-5554 5708 0
233 -5554 5555 0
-5555 5709 0
235 -5555 5556 0
-5556 5710 0
237 -5556 5557 0
-5557 5711 0
239 -5557 5558 0
-5558 5712 0
241 -5558 5559 0
-5559 5713 0
243 -5559 5560 0
-5560 5714 0
245 -5560 5561 0
-5561 5715 0
9 -5561 5562 0
-5562 5716 0
248 -5562 5563 0
-5563 5717 0
250 -5563 5564 0
-5564 5718 0
252 -5564 5565 0
-5565 5719 0
254 -5565 5566 0
-5566 5720 0
256 -5566 5567 0
-5567 5721 0
258 -5567 5568 0
-5568 5722 0
260 -5568 5569 0
-5569 5723 0
262 -5569 5570 0
-5570 5724 0
264 -5570 5571 0
-5571 5725 0
266 -5571 5572 0
-5572 5726 0
268 -5572 5573 0
-5573 5727 0
270 -5573 5574 0
-5574 5728 0
272 -5574 5575 0
-5575 5729 0
274 -5575 5576 0
-5576 5730 0
10 -5576 5577 0
-5577 5731 0
277 -5577 5578 0
-5578 5732 0
279 -5578 5579 0
-5579 5733 0
281 -5579 5580 0
-5580 5734 0
283 -5580 5581 0
-5581 5735 0
285 -5581 5582 0
-5582 5736 0
287 -5582 5583 0
-5583 5737 0
289 -5583 5584 0
-5584 5738 0
291 -5584 5585 0
-5585 5739 0
293 -5585 5586 0
-5586 5740 0
295 -5586 5587 0
-5587 5741 0
297 -5587 5588 0
-5588 5742 0
299 -5588 5589 0
-5589 5743 0
301 -5589 5590 0
-5590 5744 0
303 -5590 5591 0
-5591 5745 0
11 -5591 5592 0
-5592 5746 0
306 -5592 5593 0
-5593 5747 0
308 -5593 5594 0
-5594 5748 0
310 -5594 5595 0
-5595 5749 0
312 -5595 5596 0
-5596 5750 0
314 -5596 5597 0
-5597 5751 0
316 -5597 5598 0
-5598 5752 0
318 -5598 5599 0
-5599 5753 0
320 -5599 5600 0
-5600 5754 0
322 -5600 5601 0
-5601 5755 0
324 -5601 5602 0
-5602 5756 0
326 -5602 5603 0
-5603 5757 0
328 -5603 5604 0
-5604 5758 0
330 -5604 5605 0
-5605 5759 0
332 -5605 5606 0
-5606 5760 0
12 -5606 5607 0
-5607 5761 0
335 -5607 5608 0
-5608 5762 0
337 -5608 5609 0
-5609 5763 0
339 -5609 5610 0
-5610 5764 0
341 -5610 5611 0
-5611 5765 0
343 -5611 5612 0
-5612 5766 0
345 -5612 5613 0
-5613 5767 0
347 -5613 5614 0
-5614 5768 0
349 -5614 5615 0
-5615 5769 0
351 -5615 5616 0
-5616 5770 0
353 -5616 5617 0
-5617 5771 0
355 -5617 5618 0
-5618 5772 0
357 -5618 5619 0
-5619 5773 0
359 -5619 5620 0
-5620 5774 0
361 -5620 5621 0
-5621 5775 0
13 -5621 5622 0
-5622 5776 0
364 -5622 5623 0
-5623 5777 0
366 -5623 5624 0
-5624 5778 0
368 -5624 5625 0
-5625 5779 0
370 -5625 5626 0
-5626 5780 0
372 -5626 5627 0
-5627 5781 0
374 -5627 5628 0
-5628 5782 0
376 -5628 0
80 5629 0
-5629 5783 0
82 -5629 5630 0
-5630 5784 0
84 -5630 5631 0
-5631 5785 0
86 -5631 5632 0
-5632 5786 0
88 -5632 5633 0
-5633 5787 0
90 -5633 5634 0
-5634 5788 0
92 -5634 5635 0
-5635 5789 0
94 -5635 5636 0
-5636 5790 0
96 -5636 5637 0
-5637 5791 0
98 -5637 5638 0
-5638 5792 0
100 -5638 5639 0
-5639 5793 0
4 -5639 5640 0
-5640 5794 0
103 -5640 5641 0
-5641 5795 0
105 -5641 5642 0
-5642 5796 0
107 -5642 5643 0
-5643 5797 0
109 -5643 5644 0
-5644 5798 0
111 -5644 5645 0
-5645 5799 0
113 -5645 5646 0
-5646 5800 0
115 -5646 5647 0
-5647 5801 0
117 -5647 5648 0
-5648 5802 0
119 -5648 5649 0
-5649 5803 0
121 -5649 5650 0
-5650 5804 0
123 -5650 5651 0
-5651 5805 0
125 -5651 5652 0
-5652 5806 0
127 -5652 5653 0
-5653 5807 0
129 -5653 5654 0
-5654 5808 0
5 -5654 5655 0
-5655 5809 0
132 -5655 5656 0
-5656 5810 0
134 -5656 5657 0
-5657 5811 0
136 -5657 5658 0
-5658 5812 0
138 -5658 5659 0
-5659 5813 0
140 -5659 5660 0
-5660 5814 0
142 -5660 5661 0
-5661 5815 0
144 -5661 5662 0
-5662 5816 0
146 -5662 5663 0
-5663 5817 0
148 -5663 5664 0
-5664 5818 0
150 -5664 5665 0
-5665 5819 0
152 -5665 5666 0
-5666 5820 0
154 -5666 5667 0
-5667 5821 0
156 -5667 5668 0
-5668 5822 0
158 -5668 5669 0
-5669 5823 0
6 -5669 5670 0
-5670 5824 0
161 -5670 5671 0
-5671 5825 0
163 -5671 5672 0
-5672 5826 0
165 -5672 5673 0
-5673 5827 0
167 -5673 5674 0
-5674 5828 0
169 -5674 5675 0
-5675 5829 0
171 -5675 5676 0
-5676 5830 0
173 -5676 5677 0
-5677 5831 0
175 -5677 5678 0
-5678 5832 0
177 -5678 5679 0
-5679 5833 0
179 -5679 5680 0
-5680 5834 0
181 -5680 5681 0
-5681 5835 0
183 -5681 5682 0
-5682 5836 0
185 -5682 5683 0
-5683 5837 0
187 -5683 5684 0
-5684 5838 0
7 -5684 5685 0
-5685 5839 0
190 -5685 5686 0
-5686 5840 0
192 -5686 5687 0
-5687 5841 0
194 -5687 5688 0
-5688 5842 0
196 -5688 5689 0
-5689 5843 0
198 -5689 5690 0
-5690 5844 0
200 -5690 5691 0
-5691 5845 0
202 -5691 5692 0
-5692 5846 0
204 -5692 5693 0
-5693 5847 0
206 -5693 5694 0
-5694 5848 0
208 -5694 5695 0
-5695 5849 0
210 -5695 5696 0
-5696 5850 0
212 -5696 5697 0
-5697 5851 0
214 -5697 5698 0
-5698 5852 0
216 -5698 5699 0
-5699 5853 0
8 -5699 5700 0
-5700 5854 0
219 -5700 5701 0
-5701 5855 0
221 -5701 5702 0
-5702 5856 0
223 -5702 5703 0
-5703 5857 0
225 -5703 5704 0
-5704 5858 0
227 -5704 5705 0
-5705 5859 0
229 -5705 5706 0
-5706 5860 0
231 -5706 5707 0
-5707 5861 0
233 -5707 5708 0
-5708 5862 0
235 -5708 5709 0
-5709 5863 0
237 -5709 5710 0
-5710 5864 0
239 -5710 5711 0
-5711 5865 0
241 -5711 5712 0
-5712 5866 0
243 -5712 5713 0
-5713 5867 0
245 -5713 5714 0
-5714 5868 0
9 -5714 5715 0
-5715 5869 0
248 -5715 5716 0
-5716 5870 0
250 -5716 5717 0
-5717 5871 0
252 -5717 5718 0
-5718 5872 0
254 -5718 5719 0
-5719 5873 0
256 -5719 5720 0
-5720 5874 0
258 -5720 5721 0
-5721 5875 0
260 -5721 5722 0
-5722 5876 0
262 -5722 5723 0
-5723 5877 0
264 -5723 5724 0
-5724 5878 0
266 -5724 5725 0
-5725 5879 0
268 -5725 5726 0
-5726 5880 0
270 -5726 5727 0
-5727 5881 0
272 -5727 5728 0
-5728 5882 0
274 -5728 5729 0
-5729 5883 0
10 -5729 5730 0
-5730 5884 0
277 -5730 5731 0
-5731 5885 0
279 -5731 5732 0
-5732 5886 0
281 -5732 5733 0
-5733 5887 0
283 -5733 5734 0
-5734 5888 0
285 -5734 5735 0
-5735 5889 0
287 -5735 5736 0
-5736 5890 0
289 -5736 5737 0
-5737 5891 0
291 -5737 5738 0
-5738 5892 0
293 -5738 5739 0
-5739 5893 0
295 -5739 5740 0
-5740 5894 0
297 -5740 5741 0
-5741 5895 0
299 -5741 5742 0
-5742 5896 0
301 -5742 5743 0
-5743 5897 0
303 -5743 5744 0
-5744 5898 0
11 -5744 5745 0
-5745 5899 0
306 -5745 5746 0
-5746 5900 0
308 -5746 5747 0
-5747 5901 0
310 -5747 5748 0
-5748 5902 0
312 -5748 5749 0
-5749 5903 0
314 -5749 5750 0
-5750 5904 0
316 -5750 5751 0
-5751 5905 0
318 -5751 5752 0
-5752 5906 0
320 -5752 5753 0
-5753 5907 0
322 -5753 5754 0
-5754 5908 0
324 -5754 5755 0
-5755 5909 0
326 -5755 5756 0
-5756 5910 0
328 -5756 5757 0
-5757 5911 0
330 -5757 5758 0
-5758 5912 0
332 -5758 5759 0
-5759 5913 0
12 -5759 5760 0
-5760 5914 0
335 -5760 5761 0
-5761 5915 0
337 -5761 5762 0
-5762 5916 0
339 -5762 5763 0
-5763 5917 0
341 -5763 5764 0
-5764 5918 0
343 -5764 5765 0
-5765 5919 0
345 -5765 5766 0
-5766 5920 0
347 -5766 5767 0
-5767 5921 0
349 -5767 5768 0
-5768 5922 0
351 -5768 5769 0
-5769 5923 0
353 -5769 5770 0
-5770 5924 0
355 -5770 5771 0
-5771 5925 0
357 -5771 5772 0
-5772 5926 0
359 -5772 5773 0
-5773 5927 0
361 -5773 5774 0
-5774 5928 0
13 -5774 5775 0
-5775 5929 0
364 -5775 5776 0
-5776 5930 0
366 -5776 5777 0
-5777 5931 0
368 -5777 5778 0
-5778 5932 0
370 -5778 5779 0
-5779 5933 0
372 -5779 5780 0
-5780 5934 0
374 -5780 5781 0
-5781 5935 0
376 -5781 5782 0
-5782 5936 0
378 -5782 0
82 5783 0
-5783 5937 0
84 -5783 5784 0
-5784 5938 0
86 -5784 5785 0
-5785 5939 0
88 -5785 5786 0
-5786 5940 0
90 -5786 5787 0
-5787 5941 0
92 -5787 5788 0
-5788 5942 0
94 -5788 5789 0
-5789 5943 0
96 -5789 5790 0
-5790 5944 0
98 -5790 5791 0
-5791 5945 0
100 -5791 5792 0
-5792 5946 0
4 -5792 5793 0
-5793 5947 0
103 -5793 5794 0
-5794 5948 0
105 -5794 5795 0
-5795 5949 0
107 -5795 5796 0
-5796 5950 0
109 -5796 5797 0
-5797 5951 0
111 -5797 5798 0
-5798 5952 0
113 -5798 5799 0
-5799 5953 0
115 -5799 5800 0
-5800 5954 0
117 -5800 5801 0
-5801 5955 0
119 -5801 5802 0
-5802 5956 0
121 -5802 5803 0
-5803 5957 0
123 -5803 5804 0
-5804 5958 0
125 -5804 5805 0
-5805 5959 0
127 -5805 5806 0
-5806 5960 0
129 -5806 5807 0
-5807 5961 0
5 -5807 5808 0
-5808 5962 0
132 -5808 5809 0
-5809 5963 0
134 -5809 5810 0
-5810 5964 0
136 -5810 5811 0
-5811 5965 0
138 -5811 5812 0
-5812 5966 0
140 -5812 5813 0
-5813 5967 0
142 -5813 5814 0
-5814 5968 0
144 -5814 5815 0
-5815 5969 0
146 -5815 5816 0
-5816 5970 0
148 -5816 5817 0
-5817 5971 0
150 -5817 5818 0
-5818 5972 0
152 -5818 5819 0
-5819 5973 0
154 -5819 5820 0
-5820 5974 0
156 -5820 5821 0
-5821 5975 0
158 -5821 5822 0
-5822 5976 0
6 -5822 5823 0
-5823 5977 0
161 -5823 5824 0
-5824 5978 0
163 -5824 5825 0
-5825 5979 0
165 -5825 5826 0
-5826 5980 0
167 -5826 5827 0
-5827 5981 0
169 -5827 5828 0
-5828 5982 0
171 -5828 5829 0
-5829 5983 0
173 -5829 5830 0
-5830 5984 0
175 -5830 5831 0
-5831 5985 0
177 -5831 5832 0
-5832 5986 0
179 -5832 5833 0
-5833 5987 0
181 -5833 5834 0
-5834 5988 0
183 -5834 5835 0
-5835 5989 0
185 -5835 5836 0
-5836 5990 0
187 -5836 5837 0
-5837 5991 0
7 -5837 5838 0
-5838 5992 0
190 -5838 5839 0
-5839 5993 0
192 -5839 5840 0
-5840 5994 0
194 -5840 5841 0
-5841 5995 0
196 -5841 5842 0
-5842 5996 0
198 -5842 5843 0
-5843 5997 0
200 -5843 5844 0
-5844 5998 0
202 -5844 5845 0
-5845 5999 0
204 -5845 5846 0
-5846 6000 0
206 -5846 5847 0
-5847 6001 0
208 -5847 5848 0
-5848 6002 0
210 -5848 5849 0
-5849 6003 0
212 -5849 5850 0
-5850 6004 0
214 -5850 5851 0
-5851 6005 0
216 -5851 5852 0
-5852 6006 0
8 -5852 5853 0
-5853 6007 0
219 -5853 5854 0
-5854 6008 0
221 -5854 5855 0
-5855 6009 0
223 -5855 5856 0
-5856 6010 0
225 -5856 5857 0
-5857 6011 0
227 -5857 5858 0
-5858 6012 0
229 -5858 5859 0
-5859 6013 0
231 -5859 5860 0
-5860 6014 0
233 -5860 5861 0
-5861 6015 0
235 -5861 5862 0
-5862 6016 0
237 -5862 5863 0
-5863 6017 0
239 -5863 5864 0
-5864 6018 0
241 -5864 5865 0
-5865 6019 0
243 -5865 5866 0
-5866 6020 0
245 -5866 5867 0
-5867 6021 0
9 -5867 5868 0
-5868 6022 0
248 -5868 5869 0
-5869 6023 0
250 -5869 5870 0
-5870 6024 0
252 -5870 5871 0
-5871 6025 0
254 -5871 5872 0
-5872 6026 0
256 -5872 5873 0
-5873 6027 0
258 -5873 5874 0
-5874 6028 0
260 -5874 5875 0
-5875 6029 0
262 -5875 5876 0
-5876 6030 0
264 -5876 5877 0
-5877 6031 0
266 -5877 5878 0
-5878 6032 0
268 -5878 5879 0
-5879 6033 0
270 -5879 5880 0
-5880 6034 0
272 -5880 5881 0
-5881 6035 0
274 -5881 5882 0
-5882 6036 0
10 -5882 5883 0
-5883 6037 0
277 -5883 5884 0
-5884 6038 0
279 -5884 5885 0
-5885 6039 0
281 -5885 5886 0
-5886 6040 0
283 -5886 5887 0
-5887 6041 0
285 -5887 5888 0
-5888 6042 0
287 -5888 5889 0
-5889 6043 0
289 -5889 5890 0
-5890 6044 0
291 -5890 5891 0
-5891 6045 0
293 -5891 5892 0
-5892 6046 0
295 -5892 5893 0
-5893 6047 0
297 -5893 5894 0
-5894 6048 0
299 -5894 5895 0
-5895 6049 0
301 -5895 5896 0
-5896 6050 0
303 -5896 5897 0
-5897 6051 0
11 -5897 5898 0
-5898 6052 0
306 -5898 5899 0
-5899 6053 0
308 -5899 5900 0
-5900 6054 0
310 -5900 5901 0
-5901 6055 0
312 -5901 5902 0
-5902 6056 0
314 -5902 5903 0
-5903 6057 0
316 -5903 5904 0
-5904 6058 0
318 -5904 5905 0
-5905 6059 0
320 -5905 5906 0
-5906 6060 0
322 -5906 5907 0
-5907 6061 0
324 -5907 5908 0
-5908 6062 0
326 -5908 5909 0
-5909 6063 0
328 -5909 5910 0
-5910 6064 0
330 -5910 5911 0
-5911 6065 0
332 -5911 5912 0
-5912 6066 0
12 -5912 5913 0
-5913 6067 0
335 -5913 5914 0
-5914 6068 0
337 -5914 5915 0
-5915 6069 0
339 -5915 5916 0
-5916 6070 0
341 -5916 5917 0
-5917 6071 0
343 -5917 5918 0
-5918 6072 0
345 -5918 5919 0
-5919 6073 0
347 -5919 5920 0
-5920 6074 0
349 -5920 5921 0
-5921 6075 0
351 -5921 5922 0
-5922 6076 0
353 -5922 5923 0
-5923 6077 0
355 -5923 5924 0
-5924 6078 0
357 -5924 5925 0
-5925 6079 0
359 -5925 5926 0
-5926 6080 0
361 -5926 5927 0
-5927 6081 0
13 -5927 5928 0
-5928 6082 0
364 -5928 5929 0
-5929 6083 0
366 -5929 5930 0
-5930 6084 0
368 -5930 5931 0
-5931 6085 0
370 -5931 5932 0
-5932 6086 0
372 -5932 5933 0
-5933 6087 0
374 -5933 5934 0
-5934 6088 0
376 -5934 5935 0
-5935 6089 0
378 -5935 5936 0
-5936 6090 0
380 -5936 0
84 5937 0
-5937 6091 0
86 -5937 5938 0
-5938 6092 0
88 -5938 5939 0
-5939 6093 0
90 -5939 5940 0
-5940 6094 0
92 -5940 5941 0
-5941 6095 0
94 -5941 5942 0
-5942 6096 0
96 -5942 5943 0
-5943 6097 0
98 -5943 5944 0
-5944 6098 0
100 -5944 5945 0
-5945 6099 0
4 -5945 5946 0
-5946 6100 0
103 -5946 5947 0
-5947 6101 0
105 -5947 5948 0
-5948 6102 0
107 -5948 5949 0
-5949 6103 0
109 -5949 5950 0
-5950 6104 0
111 -5950 5951 0
-5951 6105 0
113 -5951 5952 0
-5952 6106 0
115 -5952 5953 0
-5953 6107 0
117 -5953 5954 0
-5954 6108 0
119 -5954 5955 0
-5955 6109 0
121 -5955 5956 0
-5956 6110 0
123 -5956 5957 0
-5957 6111 0
125 -5957 5958 0
-5958 6112 0
127 -5958 5959 0
-5959 6113 0
129 -5959 5960 0
-5960 6114 0
5 -5960 5961 0
-5961 6115 0
132 -5961 5962 0
-5962 6116 0
134 -5962 5963 0
-5963 6117 0
136 -5963 5964 0
-5964 6118 0
138 -5964 5965 0
-5965 6119 0
140 -5965 5966 0
-5966 6120 0
142 -5966 5967 0
-5967 6121 0
144 -5967 5968 0
-5968 6122 0
146 -5968 5969 0
-5969 6123 0
148 -5969 5970 0
-5970 6124 0
150 -5970 5971 0
-5971 6125 0
152 -5971 5972 0
-5972 6126 0
154 -5972 5973 0
-5973 6127 0
156 -5973 5974 0
-5974 6128 0
158 -5974 5975 0
-5975 6129 0
6 -5975 5976 0
-5976 6130 0
161 -5976 5977 0
-5977 6131 0
163 -5977 5978 0
-5978 6132 0
165 -5978 5979 0
-5979 6133 0
167 -5979 5980 0
-5980 6134 0
169 -5980 5981 0
-5981 6135 0
171 -5981 5982 0
-5982 6136 0
173 -5982 5983 0
-5983 6137 0
175 -5983 5984 0
-5984 6138 0
177 -5984 5985 0
-5985 6139 0
179 -5985 5986 0
-5986 6140 0
181 -5986 5987 0
-5987 6141 0
183 -5987 5988 0
-5988 6142 0
185 -5988 5989 0
-5989 6143 0
187 -5989 5990 0
-5990 6144 0
7 -5990 5991 0
-5991 6145 0
190 -5991 5992 0
-5992 6146 0
192 -5992 5993 0
-5993 6147 0
194 -5993 5994 0
-5994 6148 0
196 -5994 5995 0
-5995 6149 0
198 -5995 5996 0
-5996 6150 0
200 -5996 5997 0
-5997 6151 0
202 -5997 5998 0
-5998 6152 0
204 -5998 5999 0
-5999 6153 0
206 -5999 6000 0
-6000 6154 0
208 -6000 6001 0
-6001 6155 0
210 -6001 6002 0
-6002 6156 0
212 -6002 6003 0
-6003 6157 0
214 -6003 6004 0
-6004 6158 0
216 -6004 6005 0
-6005 6159 0
8 -6005 6006 0
-6006 6160 0
219 -6006 6007 0
-6007 6161 0
221 -6007 6008 0
-6008 6162 0
223 -6008 6009 0
-6009 6163 0
225 -6009 6010 0
-6010 6164 0
227 -6010 6011 0
-6011 6165 0
229 -6011 6012 0
-6012 6166 0
231 -6012 6013 0
-6013 6167 0
233 -6013 6014 0
-6014 6168 0
235 -6014 6015 0
-6015 6169 0
237 -6015 6016 0
-6016 6170 0
239 -6016 6017 0
-6017 6171 0
241 -6017 6018 0
-6018 6172 0
243 -6018 6019 0
-6019 6173 0
245 -6019 6020 0
-6020 6174 0
9 -6020 6021 0
-6021 6175 0
248 -6021 6022 0
-6022 6176 0
250 -6022 6023 0
-6023 6177 0
252 -6023 6024 0
-6024 6178 0
254 -6024 6025 0
-6025 6179 0
256 -6025 6026 0
-6026 6180 0
258 -6026 6027 0
-6027 6181 0
260 -6027 6028 0
-6028 6182 0
262 -6028 6029 0
-6029 6183 0
264 -6029 6030 0
-6030 6184 0
266 -6030 6031 0
-6031 6185 0
268 -6031 6032 0
-6032 6186 0
270 -6032 6033 0
-6033 6187 0
272 -6033 6034 0
-6034 6188 0
274 -6034 6035 0
-6035 6189 0
10 -6035 6036 0
-6036 6190 0
277 -6036 6037 0
-6037 6191 0
279 -6037 6038 0
-6038 6192 0
281 -6038 6039 0
-6039 6193 0
283 -6039 6040 0
-6040 6194 0
285 -6040 6041 0
-6041 6195 0
287 -6041 6042 0
-6042 6196 0
289 -6042 6043 0
-6043 6197 0
291 -6043 6044 0
-6044 6198 0
293 -6044 6045 0
-6045 6199 0
295 -6045 6046 0
-6046 6200 0
297 -6046 6047 0
-6047 6201 0
299 -6047 6048 0
-6048 6202 0
301 -6048 6049 0
-6049 6203 0
303 -6049 6050 0
-6050 6204 0
11 -6050 6051 0
-6051 6205 0
306 -6051 6052 0
-6052 6206 0
308 -6052 6053 0
-6053 6207 0
310 -6053 6054 0
-6054 6208 0
312 -6054 6055 0
-6055 6209 0
314 -6055 6056 0
-6056 6210 0
316 -6056 6057 0
-6057 6211 0
318 -6057 6058 0
-6058 6212 0
320 -6058 6059 0
-6059 6213 0
322 -6059 6060 0
-6060 6214 0
324 -6060 6061 0
-6061 6215 0
326 -6061 6062 0
-6062 6216 0
328 -6062 6063 0
-6063 6217 0
330 -6063 6064 0
-6064 6218 0
332 -6064 6065 0
-6065 6219 0
12 -6065 6066 0
-6066 6220 0
335 -6066 6067 0
-6067 6221 0
337 -6067 6068 0
-6068 6222 0
339 -6068 6069 0
-6069 6223 0
341 -6069 6070 0
-6070 6224 0
343 -6070 6071 0
-6071 6225 0
345 -6071 6072 0
-6072 6226 0
347 -6072 6073 0
-6073 6227 0
349 -6073 6074 0
-6074 6228 0
351 -6074 6075 0
-6075 6229 0
353 -6075 6076 0
-6076 6230 0
355 -6076 6077 0
-6077 6231 0
357 -6077 6078 0
-6078 6232 0
359 -6078 6079 0
-6079 6233 0
361 -6079 6080 0
-6080 6234 0
13 -6080 6081 0
-6081 6235 0
364 -6081 6082 0
-6082 6236 0
366 -6082 6083 0
-6083 6237 0
368 -6083 6084 0
-6084 6238 0
370 -6084 6085 0
-6085 6239 0
372 -6085 6086 0
-6086 6240 0
374 -6086 6087 0
-6087 6241 0
376 -6087 6088 0
-6088 6242 0
378 -6088 6089 0
-6089 6243 0
380 -6089 6090 0
-6090 6244 0
382 -6090 0
86 6091 0
-6091 6245 0
88 -6091 6092 0
-6092 6246 0
90 -6092 6093 0
-6093 6247 0
92 -6093 6094 0
-6094 6248 0
94 -6094 6095 0
-6095 6249 0
96 -6095 6096 0
-6096 6250 0
98 -6096 6097 0
-6097 6251 0
100 -6097 6098 0
-6098 6252 0
4 -6098 6099 0
-6099 6253 0
103 -6099 6100 0
-6100 6254 0
105 -6100 6101 0
-6101 6255 0
107 -6101 6102 0
-6102 6256 0
109 -6102 6103 0
-6103 6257 0
111 -6103 6104 0
-6104 6258 0
113 -6104 6105 0
-6105 6259 0
115 -6105 6106 0
-6106 6260 0
117 -6106 6107 0
-6107 6261 0
119 -6107 6108 0
-6108 6262 0
121 -6108 6109 0
-6109 6263 0
123 -6109 6110 0
-6110 6264 0
125 -6110 6111 0
-6111 6265 0
127 -6111 6112 0
-6112 6266 0
129 -6112 6113 0
-6113 6267 0
5 -6113 6114 0
-6114 6268 0
132 -6114 6115 0
-6115 6269 0
134 -6115 6116 0
-6116 6270 0
136 -6116 6117 0
-6117 6271 0
138 -6117 6118 0
-6118 6272 0
140 -6118 6119 0
-6119 6273 0
142 -6119 6120 0
-6120 6274 0
144 -6120 6121 0
-6121 6275 0
146 -6121 6122 0
-6122 6276 0
148 -6122 6123 0
-6123 6277 0
150 -6123 6124 0
-6124 6278 0
152 -6124 6125 0
-6125 6279 0
154 -6125 6126 0
-6126 6280 0
156 -6126 6127 0
-6127 6281 0
158 -6127 6128 0
-6128 6282 0
6 -6128 6129 0
-6129 6283 0
161 -6129 6130 0
-6130 6284 0
163 -6130 6131 0
-6131 6285 0
165 -6131 6132 0
-6132 6286 0
167 -6132 6133 0
-6133 6287 0
169 -6133 6134 0
-6134 6288 0
171 -6134 6135 0
-6135 6289 0
173 -6135 6136 0
-6136 6290 0
175 -6136 6137 0
-6137 6291 0
177 -6137 6138 0
-6138 6292 0
179 -6138 6139 0
-6139 6293 0
181 -6139 6140 0
-6140 6294 0
183 -6140 6141 0
-6141 6295 0
185 -6141 6142 0
-6142 6296 0
187 -6142 6143 0
-6143 6297 0
7 -6143 6144 0
-6144 6298 0
190 -6144 6145 0
-6145 6299 0
192 -6145 6146 0
-6146 6300 0
194 -6146 6147 0
-6147 6301 0
196 -6147 6148 0
-6148 6302 0
198 -6148 6149 0
-6149 6303 0
200 -6149 6150 0
-6150 6304 0
202 -6150 6151 0
-6151 6305 0
204 -6151 6152 0
-6152 6306 0
206 -6152 6153 0
-6153 6307 0
208 -6153 6154 0
-6154 6308 0
210 -6154 6155 0
-6155 6309 0
212 -6155 6156 0
-6156 6310 0
214 -6156 6157 0
-6157 6311 0
216 -6157 6158 0
-6158 6312 0
8 -6158 6159 0
-6159 6313 0
219 -6159 6160 0
-6160 6314 0
221 -6160 6161 0
-6161 6315 0
223 -6161 6162 0
-6162 6316 0
225 -6162 6163 0
-6163 6317 0
227 -6163 6164 0
-6164 6318 0
229 -6164 6165 0
-6165 6319 0
231 -6165 6166 0
-6166 6320 0
233 -6166 6167 0
-6167 6321 0
235 -6167 6168 0
-6168 6322 0
237 -6168 6169 0
-6169 6323 0
239 -6169 6170 0
-6170 6324 0
241 -6170 6171 0
-6171 6325 0
243 -6171 6172 0
-6172 6326 0
245 -6172 6173 0
-6173 6327 0
9 -6173 6174 0
-6174 6328 0
248 -6174 6175 0
-6175 6329 0
250 -6175 6176 0
-6176 6330 0
252 -6176 6177 0
-6177 6331 0
254 -6177 6178 0
-6178 6332 0
256 -6178 6179 0
-6179 6333 0
258 -6179 6180 0
-6180 6334 0
260 -6180 6181 0
-6181 6335 0
262 -6181 6182 0
-6182 6336 0
264 -6182 6183 0
-6183 6337 0
266 -6183 6184 0
-6184 6338 0
268 -6184 6185 0
-6185 6339 0
270 -6185 6186 0
-6186 6340 0
272 -6186 6187 0
-6187 6341 0
274 -6187 6188 0
-6188 6342 0
10 -6188 6189 0
-6189 6343 0
277 -6189 6190 0
-6190 6344 0
279 -6190 6191 0
-6191 6345 0
281 -6191 6192 0
-6192 6346 0
283 -6192 6193 0
-6193 6347 0
285 -6193 6194 0
-6194 6348 0
287 -6194 6195 0
-6195 6349 0
289 -6195 6196 0
-6196 6350 0
291 -6196 6197 0
-6197 6351 0
293 -6197 6198 0
-6198 6352 0
295 -6198 6199 0
-6199 6353 0
297 -6199 6200 0
-6200 6354 0
299 -6200 6201 0
-6201 6355 0
301 -6201 6202 0
-6202 6356 0
303 -6202 6203 0
-6203 6357 0
11 -6203 6204 0
-6204 6358 0
306 -6204 6205 0
-6205 6359 0
308 -6205 6206 0
-6206 6360 0
310 -6206 6207 0
-6207 6361 0
312 -6207 6208 0
-6208 6362 0
314 -6208 6209 0
-6209 6363 0
316 -6209 6210 0
-6210 6364 0
318 -6210 6211 0
-6211 6365 0
320 -6211 6212 0
-6212 6366 0
322 -6212 6213 0
-6213 6367 0
324 -6213 6214 0
-6214 6368 0
326 -6214 6215 0
-6215 6369 0
328 -6215 6216 0
-6216 6370 0
330 -6216 6217 0
-6217 6371 0
332 -6217 6218 0
-6218 6372 0
12 -6218 6219 0
-6219 6373 0
335 -6219 6220 0
-6220 6374 0
337 -6220 6221 0
-6221 6375 0
339 -6221 6222 0
-6222 6376 0
341 -6222 6223 0
-6223 6377 0
343 -6223 6224 0
-6224 6378 0
345 -6224 6225 0
-6225 6379 0
347 -6225 6226 0
-6226 6380 0
349 -6226 6227 0
-6227 6381 0
351 -6227 6228 0
-6228 6382 0
353 -6228 6229 0
-6229 6383 0
355 -6229 6230 0
-6230 6384 0
357 -6230 6231 0
-6231 6385 0
359 -6231 6232 0
-6232 6386 0
361 -6232 6233 0
-6233 6387 0
13 -6233 6234 0
-6234 6388 0
364 -6234 6235 0
-6235 6389 0
366 -6235 6236 0
-6236 6390 0
368 -6236 6237 0
-6237 6391 0
370 -6237 6238 0
-6238 6392 0
372 -6238 6239 0
-6239 6393 0
374 -6239 6240 0
-6240 6394 0
376 -6240 6241 0
-6241 6395 0
378 -6241 6242 0
-6242 6396 0
380 -6242 6243 0
-6243 6397 0
382 -6243 6244 0
-6244 6398 0
384 -6244 0
88 6245 0
-6245 6399 0
90 -6245 6246 0
-6246 6400 0
92 -6246 6247 0
-6247 6401 0
94 -6247 6248 0
-6248 6402 0
96 -6248 6249 0
-6249 6403 0
98 -6249 6250 0
-6250 6404 0
100 -6250 6251 0
-6251 6405 0
4 -6251 6252 0
-6252 6406 0
103 -6252 6253 0
-6253 6407 0
105 -6253 6254 0
-6254 6408 0
107 -6254 6255 0
-6255 6409 0
109 -6255 6256 0
-6256 6410 0
111 -6256 6257 0
-6257 6411 0
113 -6257 6258 0
-6258 6412 0
115 -6258 6259 0
-6259 6413 0
117 -6259 6260 0
-6260 6414 0
119 -6260 6261 0
-6261 6415 0
121 -6261 6262 0
-6262 6416 0
123 -6262 6263 0
-6263 6417 0
125 -6263 6264 0
-6264 6418 0
127 -6264 6265 0
-6265 6419 0
129 -6265 6266 0
-6266 6420 0
5 -6266 6267 0
-6267 6421 0
132 -6267 6268 0
-6268 6422 0
134 -6268 6269 0
-6269 6423 0
136 -6269 6270 0
-6270 6424 0
138 -6270 6271 0
-6271 6425 0
140 -6271 6272 0
-6272 6426 0
142 -6272 6273 0
-6273 6427 0
144 -6273 6274 0
-6274 6428 0
146 -6274 6275 0
-6275 6429 0
148 -6275 6276 0
-6276 6430 0
150 -6276 6277 0
-6277 6431 0
152 -6277 6278 0
-6278 6432 0
154 -6278 6279 0
-6279 6433 0
156 -6279 6280 0
-6280 6434 0
158 -6280 6281 0
-6281 6435 0
6 -6281 6282 0
-6282 6436 0
161 -6282 6283 0
-6283 6437 0
163 -6283 6284 0
-6284 6438 0
165 -6284 6285 0
-6285 6439 0
167 -6285 6286 0
-6286 6440 0
169 -6286 6287 0
-6287 6441 0
171 -6287 6288 0
-6288 6442 0
173 -6288 6289 0
-6289 6443 0
175 -6289 6290 0
-6290 6444 0
177 -6290 6291 0
-6291 6445 0
179 -6291 6292 0
-6292 6446 0
181 -6292 6293 0
-6293 6447 0
183 -6293 6294 0
-6294 6448 0
185 -6294 6295 0
-6295 6449 0
187 -6295 6296 0
-6296 6450 0
7 -6296 6297 0
-6297 6451 0
190 -6297 6298 0
-6298 6452 0
192 -6298 6299 0
-6299 6453 0
194 -6299 6300 0
-6300 6454 0
196 -6300 6301 0
-6301 6455 0
198 -6301 6302 0
-6302 6456 0
200 -6302 6303 0
-6303 6457 0
202 -6303 6304 0
-6304 6458 0
204 -6304 6305 0
-6305 6459 0
206 -6305 6306 0
-6306 6460 0
208 -6306 6307 0
-6307 6461 0
210 -6307 6308 0
-6308 6462 0
212 -6308 6309 0
-6309 6463 0
214 -6309 6310 0
-6310 6464 0
216 -6310 6311 0
-6311 6465 0
8 -6311 6312 0
-6312 6466 0
219 -6312 6313 0
-6313 6467 0
221 -6313 6314 0
-6314 6468 0
223 -6314 6315 0
-6315 6469 0
225 -6315 6316 0
-6316 6470 0
227 -6316 6317 0
-6317 6471 0
229 -6317 6318 0
-6318 6472 0
231 -6318 6319 0
-6319 6473 0
233 -6319 6320 0
-6320 6474 0
235 -6320 6321 0
-6321 6475 0
237 -6321 6322 0
-6322 6476 0
239 -6322 6323 0
-6323 6477 0
241 -6323 6324 0
-6324 6478 0
243 -6324 6325 0
-6325 6479 0
245 -6325 6326 0
-6326 6480 0
9 -6326 6327 0
-6327 6481 0
248 -6327 6328 0
-6328 6482 0
250 -6328 6329 0
-6329 6483 0
252 -6329 6330 0
-6330 6484 0
254 -6330 6331 0
-6331 6485 0
256 -6331 6332 0
-6332 6486 0
258 -6332 6333 0
-6333 6487 0
260 -6333 6334 0
-6334 6488 0
262 -6334 6335 0
-6335 6489 0
264 -6335 6336 0
-6336 6490 0
266 -6336 6337 0
-6337 6491 0
268 -6337 6338 0
-6338 6492 0
270 -6338 6339 0
-6339 6493 0
272 -6339 6340 0
-6340 6494 0
274 -6340 6341 0
-6341 6495 0
10 -6341 6342 0
-6342 6496 0
277 -6342 6343 0
-6343 6497 0
279 -6343 6344 0
-6344 6498 0
281 -6344 6345 0
-6345 6499 0
283 -6345 6346 0
-6346 6500 0
285 -6346 6347 0
-6347 6501 0
287 -6347 6348 0
-6348 6502 0
289 -6348 6349 0
-6349 6503 0
291 -6349 6350 0
-6350 6504 0
293 -6350 6351 0
-6351 6505 0
295 -6351 6352 0
-6352 6506 0
297 -6352 6353 0
-6353 6507 0
299 -6353 6354 0
-6354 6508 0
301 -6354 6355 0
-6355 6509 0
303 -6355 6356 0
-6356 6510 0
11 -6356 6357 0
-6357 6511 0
306 -6357 6358 0
-6358 6512 0
308 -6358 6359 0
-6359 6513 0
310 -6359 6360 0
-6360 6514 0
312 -6360 6361 0
-6361 6515 0
314 -6361 6362 0
-6362 6516 0
316 -6362 6363 0
-6363 6517 0
318 -6363 6364 0
-6364 6518 0
320 -6364 6365 0
-6365 6519 0
322 -6365 6366 0
-6366 6520 0
324 -6366 6367 0
-6367 6521 0
326 -6367 6368 0
-6368 6522 0
328 -6368 6369 0
-6369 6523 0
330 -6369 6370 0
-6370 6524 0
332 -6370 6371 0
-6371 6525 0
12 -6371 6372 0
-6372 6526 0
335 -6372 6373 0
-6373 6527 0
337 -6373 6374 0
-6374 6528 0
339 -6374 6375 0
-6375 6529 0
341 -6375 6376 0
-6376 6530 0
343 -6376 6377 0
-6377 6531 0
345 -6377 6378 0
-6378 6532 0
347 -6378 6379 0
-6379 6533 0
349 -6379 6380 0
-6380 6534 0
351 -6380 6381 0
-6381 6535 0
353 -6381 6382 0
-6382 6536 0
355 -6382 6383 0
-6383 6537 0
357 -6383 6384 0
-6384 6538 0
359 -6384 6385 0
-6385 6539 0
361 -6385 6386 0
-6386 6540 0
13 -6386 6387 0
-6387 6541 0
364 -6387 6388 0
-6388 6542 0
366 -6388 6389 0
-6389 6543 0
368 -6389 6390 0
-6390 6544 0
370 -6390 6391 0
-6391 6545 0
372 -6391 6392 0
-6392 6546 0
374 -6392 6393 0
-6393 6547 0
376 -6393 6394 0
-6394 6548 0
378 -6394 6395 0
-6395 6549 0
380 -6395 6396 0
-6396 6550 0
382 -6396 6397 0
-6397 6551 0
384 -6397 6398 0
-6398 6552 0
386 -6398 0
90 6399 0
-6399 6553 0
92 -6399 6400 0
-6400 6554 0
94 -6400 6401 0
-6401 6555 0
96 -6401 6402 0
-6402 6556 0
98 -6402 6403 0
-6403 6557 0
100 -6403 6404 0
-6404 6558 0
4 -6404 6405 0
-6405 6559 0
103 -6405 6406 0
-6406 6560 0
105 -6406 6407 0
-6407 6561 0
107 -6407 6408 0
-6408 6562 0
109 -6408 6409 0
-6409 6563 0
111 -6409 6410 0
-6410 6564 0
113 -6410 6411 0
-6411 6565 0
115 -6411 6412 0
-6412 6566 0
117 -6412 6413 0
-6413 6567 0
119 -6413 6414 0
-6414 6568 0
121 -6414 6415 0
-6415 6569 0
123 -6415 6416 0
-6416 6570 0
125 -6416 6417 0
-6417 6571 0
127 -6417 6418 0
-6418 6572 0
129 -6418 6419 0
-6419 6573 0
5 -6419 6420 0
-6420 6574 0
132 -6420 6421 0
-6421 6575 0
134 -6421 6422 0
-6422 6576 0
136 -6422 6423 0
-6423 6577 0
138 -6423 6424 0
-6424 6578 0
140 -6424 6425 0
-6425 6579 0
142 -6425 6426 0
-6426 6580 0
144 -6426 6427 0
-6427 6581 0
146 -6427 6428 0
-6428 6582 0
148 -6428 6429 0
-6429 6583 0
150 -6429 6430 0
-6430 6584 0
152 -6430 6431 0
-6431 6585 0
154 -6431 6432 0
-6432 6586 0
156 -6432 6433 0
-6433 6587 0
158 -6433 6434 0
-6434 6588 0
6 -6434 6435 0
-6435 6589 0
161 -6435 6436 0
-6436 6590 0
163 -6436 6437 0
-6437 6591 0
165 -6437 6438 0
-6438 6592 0
167 -6438 6439 0
-6439 6593 0
169 -6439 6440 0
-6440 6594 0
171 -6440 6441 0
-6441 6595 0
173 -6441 6442 0
-6442 6596 0
175 -6442 6443 0
-6443 6597 0
177 -6443 6444 0
-6444 6598 0
179 -6444 6445 0
-6445 6599 0
181 -6445 6446 0
-6446 6600 0
183 -6446 6447 0
-6447 6601 0
185 -6447 6448 0
-6448 6602 0
187 -6448 6449 0
-6449 6603 0
7 -6449 6450 0
-6450 6604 0
190 -6450 6451 0
-6451 6605 0
192 -6451 6452 0
-6452 6606 0
194 -6452 6453 0
-6453 6607 0
196 -6453 6454 0
-6454 6608 0
198 -6454 6455 0
-6455 6609 0
200 -6455 6456 0
-6456 6610 0
202 -6456 6457 0
-6457 6611 0
204 -6457 6458 0
-6458 6612 0
206 -6458 6459 0
-6459 6613 0
208 -6459 6460 0
-6460 6614 0
210 -6460 6461 0
-6461 6615 0
212 -6461 6462 0
-6462 6616 0
214 -6462 6463 0
-6463 6617 0
216 -6463 6464 0
-6464 6618 0
8 -6464 6465 0
-6465 6619 0
219 -6465 6466 0
-6466 6620 0
221 -6466 6467 0
-6467 6621 0
223 -6467 6468 0
-6468 6622 0
225 -6468 6469 0
-6469 6623 0
227 -6469 6470 0
-6470 6624 0
229 -6470 6471 0
-6471 6625 0
231 -6471 6472 0
-6472 6626 0
233 -6472 6473 0
-6473 6627 0
235 -6473 6474 0
-6474 6628 0
237 -6474 6475 0
-6475 6629 0
239 -6475 6476 0
-6476 6630 0
241 -6476 6477 0
-6477 6631 0
243 -6477 6478 0
-6478 6632 0
245 -6478 6479 0
-6479 6633 0
9 -6479 6480 0
-6480 6634 0
248 -6480 6481 0
-6481 6635 0
250 -6481 6482 0
-6482 6636 0
252 -6482 6483 0
-6483 6637 0
254 -6483 6484 0
-6484 6638 0
256 -6484 6485 0
-6485 6639 0
258 -6485 6486 0
-6486 6640 0
260 -6486 6487 0
-6487 6641 0
262 -6487 6488 0
-6488 6642 0
264 -6488 6489 0
-6489 6643 0
266 -6489 6490 0
-6490 6644 0
268 -6490 6491 0
-6491 6645 0
270 -6491 6492 0
-6492 6646 0
272 -6492 6493 0
-6493 6647 0
274 -6493 6494 0
-6494 6648 0
10 -6494 6495 0
-6495 6649 0
277 -6495 6496 0
-6496 6650 0
279 -6496 6497 0
-6497 6651 0
281 -6497 6498 0
-6498 6652 0
283 -6498 6499 0
-6499 6653 0
285 -6499 6500 0
-6500 6654 0
287 -6500 6501 0
-6501 6655 0
289 -6501 6502 0
-6502 6656 0
291 -6502 6503 0
-6503 6657 0
293 -6503 6504 0
-6504 6658 0
295 -6504 6505 0
-6505 6659 0
297 -6505 6506 0
-6506 6660 0
299 -6506 6507 0
-6507 6661 0
301 -6507 6508 0
-6508 6662 0
303 -6508 6509 0
-6509 6663 0
11 -6509 6510 0
-6510 6664 0
306 -6510 6511 0
-6511 6665 0
308 -6511 6512 0
-6512 6666 0
310 -6512 6513 0
-6513 6667 0
312 -6513 6514 0
-6514 6668 0
314 -6514 6515 0
-6515 6669 0
316 -6515 6516 0
-6516 6670 0
318 -6516 6517 0
-6517 6671 0
320 -6517 6518 0
-6518 6672 0
322 -6518 6519 0
-6519 6673 0
324 -6519 6520 0
-6520 6674 0
326 -6520 6521 0
-6521 6675 0
328 -6521 6522 0
-6522 6676 0
330 -6522 6523 0
-6523 6677 0
332 -6523 6524 0
-6524 6678 0
12 -6524 6525 0
-6525 6679 0
335 -6525 6526 0
-6526 6680 0
337 -6526 6527 0
-6527 6681 0
339 -6527 6528 0
-6528 6682 0
341 -6528 6529 0
-6529 6683 0
343 -6529 6530 0
-6530 6684 0
345 -6530 6531 0
-6531 6685 0
347 -6531 6532 0
-6532 6686 0
349 -6532 6533 0
-6533 6687 0
351 -6533 6534 0
-6534 6688 0
353 -6534 6535 0
-6535 6689 0
355 -6535 6536 0
-6536 6690 0
357 -6536 6537 0
-6537 6691 0
359 -6537 6538 0
-6538 6692 0
361 -6538 6539 0
-6539 6693 0
13 -6539 6540 0
-6540 6694 0
364 -6540 6541 0
-6541 6695 0
366 -6541 6542 0
-6542 6696 0
368 -6542 6543 0
-6543 6697 0
370 -6543 6544 0
-6544 6698 0
372 -6544 6545 0
-6545 6699 0
374 -6545 6546 0
-6546 6700 0
376 -6546 6547 0
-6547 6701 0
378 -6547 6548 0
-6548 6702 0
380 -6548 6549 0
-6549 6703 0
382 -6549 6550 0
-6550 6704 0
384 -6550 6551 0
-6551 6705 0
386 -6551 6552 0
-6552 6706 0
388 -6552 0
92 6553 0
-6553 6707 0
94 -6553 6554 0
-6554 6708 0
96 -6554 6555 0
-6555 6709 0
98 -6555 6556 0
-6556 6710 0
100 -6556 6557 0
-6557 6711 0
4 -6557 6558 0
-6558 6712 0
103 -6558 6559 0
-6559 6713 0
105 -6559 6560 0
-6560 6714 0
107 -6560 6561 0
-6561 6715 0
109 -6561 6562 0
-6562 6716 0
111 -6562 6563 0
-6563 6717 0
113 -6563 6564 0
-6564 6718 0
115 -6564 6565 0
-6565 6719 0
117 -6565 6566 0
-6566 6720 0
119 -6566 6567 0
-6567 6721 0
121 -6567 6568 0
-6568 6722 0
123 -6568 6569 0
-6569 6723 0
125 -6569 6570 0
-6570 6724 0
127 -6570 6571 0
-6571 6725 0
129 -6571 6572 0
-6572 6726 0
5 -6572 6573 0
-6573 6727 0
132 -6573 6574 0
-6574 6728 0
134 -6574 6575 0
-6575 6729 0
136 -6575 6576 0
-6576 6730 0
138 -6576 6577 0
-6577 6731 0
140 -6577 6578 0
-6578 6732 0
142 -6578 6579 0
-6579 6733 0
144 -6579 6580 0
-6580 6734 0
146 -6580 6581 0
-6581 6735 0
148 -6581 6582 0
-6582 6736 0
150 -6582 6583 0
-6583 6737 0
152 -6583 6584 0
-6584 6738 0
154 -6584 6585 0
-6585 6739 0
156 -6585 6586 0
-6586 6740 0
158 -6586 6587 0
-6587 6741 0
6 -6587 6588 0
-6588 6742 0
161 -6588 6589 0
-6589 6743 0
163 -6589 6590 0
-6590 6744 0
165 -6590 6591 0
-6591 6745 0
167 -6591 6592 0
-6592 6746 0
169 -6592 6593 0
-6593 6747 0
171 -6593 6594 0
-6594 6748 0
173 -6594 6595 0
-6595 6749 0
175 -6595 6596 0
-6596 6750 0
177 -6596 6597 0
-6597 6751 0
179 -6597 6598 0
-6598 6752 0
181 -6598 6599 0
-6599 6753 0
183 -6599 6600 0
-6600 6754 0
185 -6600 6601 0
-6601 6755 0
187 -6601 6602 0
-6602 6756 0
7 -6602 6603 0
-6603 6757 0
190 -6603 6604 0
-6604 6758 0
192 -6604 6605 0
-6605 6759 0
194 -6605 6606 0
-6606 6760 0
196 -6606 6607 0
-6607 6761 0
198 -6607 6608 0
-6608 6762 0
200 -6608 6609 0
-6609 6763 0
202 -6609 6610 0
-6610 6764 0
204 -6610 6611 0
-6611 6765 0
206 -6611 6612 0
-6612 6766 0
208 -6612 6613 0
-6613 6767 0
210 -6613 6614 0
-6614 6768 0
212 -6614 6615 0
-6615 6769 0
214 -6615 6616 0
-6616 6770 0
216 -6616 6617 0
-6617 6771 0
8 -6617 6618 0
-6618 6772 0
219 -6618 6619 0
-6619 6773 0
221 -6619 6620 0
-6620 6774 0
223 -6620 6621 0
-6621 6775 0
225 -6621 6622 0
-6622 6776 0
227 -6622 6623 0
-6623 6777 0
229 -6623 6624 0
-6624 6778 0
231 -6624 6625 0
-6625 6779 0
233 -6625 6626 0
-6626 6780 0
235 -6626 6627 0
-6627 6781 0
237 -6627 6628 0
-6628 6782 0
239 -6628 6629 0
-6629 6783 0
241 -6629 6630 0
-6630 6784 0
243 -6630 6631 0
-6631 6785 0
245 -6631 6632 0
-6632 6786 0
9 -6632 6633 0
-6633 6787 0
248 -6633 6634 0
-6634 6788 0
250 -6634 6635 0
-6635 6789 0
252 -6635 6636 0
-6636 6790 0
254 -6636 6637 0
-6637 6791 0
256 -6637 6638 0
-6638 6792 0
258 -6638 6639 0
-6639 6793 0
260 -6639 6640 0
-6640 6794 0
262 -6640 6641 0
-6641 6795 0
264 -6641 6642 0
-6642 6796 0
266 -6642 6643 0
-6643 6797 0
268 -6643 6644 0
-6644 6798 0
270 -6644 6645 0
-6645 6799 0
272 -6645 6646 0
-6646 6800 0
274 -6646 6647 0
-6647 6801 0
10 -6647 6648 0
-6648 6802 0
277 -6648 6649 0
-6649 6803 0
279 -6649 6650 0
-6650 6804 0
281 -6650 6651 0
-6651 6805 0
283 -6651 6652 0
-6652 6806 0
285 -6652 6653 0
-6653 6807 0
287 -6653 6654 0
-6654 6808 0
289 -6654 6655 0
-6655 6809 0
291 -6655 6656 0
-6656 6810 0
293 -6656 6657 0
-6657 6811 0
295 -6657 6658 0
-6658 6812 0
297 -6658 6659 0
-6659 6813 0
299 -6659 6660 0
-6660 6814 0
301 -6660 6661 0
-6661 6815 0
303 -6661 6662 0
-6662 6816 0
11 -6662 6663 0
-6663 6817 0
306 -6663 6664 0
-6664 6818 0
308 -6664 6665 0
-6665 6819 0
310 -6665 6666 0
-6666 6820 0
312 -6666 6667 0
-6667 6821 0
314 -6667 6668 0
-6668 6822 0
316 -6668 6669 0
-6669 6823 0
318 -6669 6670 0
-6670 6824 0
320 -6670 6671 0
-6671 6825 0
322 -6671 6672 0
-6672 6826 0
324 -6672 6673 0
-6673 6827 0
326 -6673 6674 0
-6674 6828 0
328 -6674 6675 0
-6675 6829 0
330 -6675 6676 0
-6676 6830 0
332 -6676 6677 0
-6677 6831 0
12 -6677 6678 0
-6678 6832 0
335 -6678 6679 0
-6679 6833 0
337 -6679 6680 0
-6680 6834 0
339 -6680 6681 0
-6681 6835 0
341 -6681 6682 0
-6682 6836 0
343 -6682 6683 0
-6683 6837 0
345 -6683 6684 0
-6684 6838 0
347 -6684 6685 0
-6685 6839 0
349 -6685 6686 0
-6686 6840 0
351 -6686 6687 0
-6687 6841 0
353 -6687 6688 0
-6688 6842 0
355 -6688 6689 0
-6689 6843 0
357 -6689 6690 0
-6690 6844 0
359 -6690 6691 0
-6691 6845 0
361 -6691 6692 0
-6692 6846 0
13 -6692 6693 0
-6693 6847 0
364 -6693 6694 0
-6694 6848 0
366 -6694 6695 0
-6695 6849 0
368 -6695 6696 0
-6696 6850 0
370 -6696 6697 0
-6697 6851 0
372 -6697 6698 0
-6698 6852 0
374 -6698 6699 0
-6699 6853 0
376 -6699 6700 0
-6700 6854 0
378 -6700 6701 0
-6701 6855 0
380 -6701 6702 0
-6702 6856 0
382 -6702 6703 0
-6703 6857 0
384 -6703 6704 0
-6704 6858 0
386 -6704 6705 0
-6705 6859 0
388 -6705 6706 0
-6706 6860 0
390 -6706 0
94 6707 0
96 -6707 6708 0
98 -6708 6709 0
100 -6709 6710 0
4 -6710 6711 0
103 -6711 6712 0
105 -6712 6713 0
107 -6713 6714 0
109 -6714 6715 0
111 -6715 6716 0
113 -6716 6717 0
115 -6717 6718 0
117 -6718 6719 0
119 -6719 6720 0
121 -6720 6721 0
123 -6721 6722 0
125 -6722 6723 0
127 -6723 6724 0
129 -6724 6725 0
5 -6725 6726 0
132 -6726 6727 0
134 -6727 6728 0
136 -6728 6729 0
138 -6729 6730 0
140 -6730 6731 0
142 -6731 6732 0
144 -6732 6733 0
146 -6733 6734 0
148 -6734 6735 0
150 -6735 6736 0
152 -6736 6737 0
154 -6737 6738 0
156 -6738 6739 0
158 -6739 6740 0
6 -6740 6741 0
161 -6741 6742 0
163 -6742 6743 0
165 -6743 6744 0
167 -6744 6745 0
169 -6745 6746 0
171 -6746 6747 0
173 -6747 6748 0
175 -6748 6749 0
177 -6749 6750 0
179 -6750 6751 0
181 -6751 6752 0
183 -6752 6753 0
185 -6753 6754 0
187 -6754 6755 0
7 -6755 6756 0
190 -6756 6757 0
192 -6757 6758 0
194 -6758 6759 0
196 -6759 6760 0
198 -6760 6761 0
200 -6761 6762 0
202 -6762 6763 0
204 -6763 6764 0
206 -6764 6765 0
208 -6765 6766 0
210 -6766 6767 0
212 -6767 6768 0
214 -6768 6769 0
216 -6769 6770 0
8 -6770 6771 0
219 -6771 6772 0
221 -6772 6773 0
223 -6773 6774 0
225 -6774 6775 0
227 -6775 6776 0
229 -6776 6777 0
231 -6777 6778 0
233 -6778 6779 0
235 -6779 6780 0
237 -6780 6781 0
239 -6781 6782 0
241 -6782 6783 0
243 -6783 6784 0
245 -6784 6785 0
9 -6785 6786 0
248 -6786 6787 0
250 -6787 6788 0
252 -6788 6789 0
254 -6789 6790 0
256 -6790 6791 0
258 -6791 6792 0
260 -6792 6793 0
262 -6793 6794 0
264 -6794 6795 0
266 -6795 6796 0
268 -6796 6797 0
270 -6797 6798 0
272 -6798 6799 0
274 -6799 6800 0
10 -6800 6801 0
277 -6801 6802 0
279 -6802 6803 0
281 -6803 6804 0
283 -6804 6805 0
285 -6805 6806 0
287 -6806 6807 0
289 -6807 6808 0
291 -6808 6809 0
293 -6809 6810 0
295 -6810 6811 0
297 -6811 6812 0
299 -6812 6813 0
301 -6813 6814 0
303 -6814 6815 0
11 -6815 6816 0
306 -6816 6817 0
308 -6817 6818 0
310 -6818 6819 0
312 -6819 6820 0
314 -6820 6821 0
316 -6821 6822 0
318 -6822 6823 0
320 -6823 6824 0
322 -6824 6825 0
324 -6825 6826 0
326 -6826 6827 0
328 -6827 6828 0
330 -6828 6829 0
332 -6829 6830 0
12 -6830 6831 0
335 -6831 6832 0
337 -6832 6833 0
339 -6833 6834 0
341 -6834 6835 0
343 -6835 6836 0
345 -6836 6837 0
347 -6837 6838 0
349 -6838 6839 0
351 -6839 6840 0
353 -6840 6841 0
355 -6841 6842 0
357 -6842 6843 0
359 -6843 6844 0
361 -6844 6845 0
13 -6845 6846 0
364 -6846 6847 0
366 -6847 6848 0
368 -6848 6849 0
370 -6849 6850 0
372 -6850 6851 0
374 -6851 6852 0
376 -6852 6853 0
378 -6853 6854 0
380 -6854 6855 0
382 -6855 6856 0
384 -6856 6857 0
386 -6857 6858 0
388 -6858 6859 0
390 -6859 6860 0
14 -6860 0
-1 6861 0
-6861 6862 0
-16 -6861 6863 0
-6863 6864 0
-18 -6863 6865 0
-6865 6866 0
-20 -6865 6867 0
-6867 6868 0
-22 -6867 6869 0
-6869 6870 0
-24 -6869 6871 0
-6871 6872 0
-26 -6871 6873 0
-6873 6874 0
-28 -6873 6875 0
-6875 6876 0
-30 -6875 6877 0
-6877 6878 0
-32 -6877 6879 0
-6879 6880 0
-34 -6879 6881 0
-6881 6882 0
-36 -6881 6883 0
-6883 6884 0
-38 -6883 6885 0
-6885 6886 0
-40 -6885 6887 0
-6887 6888 0
-42 -6887 6889 0
-6889 6890 0
-2 -6889 6891 0
-6891 6892 0
-45 -6891 6893 0
-6893 6894 0
-47 -6893 6895 0
-6895 6896 0
-49 -6895 6897 0
-6897 6898 0
-51 -6897 6899 0
-6899 6900 0
-53 -6899 6901 0
-6901 6902 0
-55 -6901 6903 0
-6903 6904 0
-57 -6903 6905 0
-6905 6906 0
-59 -6905 6907 0
-6907 6908 0
-61 -6907 6909 0
-6909 6910 0
-63 -6909 6911 0
-6911 6912 0
-65 -6911 6913 0
-6913 6914 0
-67 -6913 6915 0
-6915 6916 0
-69 -6915 6917 0
-6917 6918 0
-71 -6917 6919 0
-6919 6920 0
-3 -6919 6921 0
-6921 6922 0
-74 -6921 6923 0
-6923 6924 0
-76 -6923 6925 0
-6925 6926 0
-78 -6925 6927 0
-6927 6928 0
-80 -6927 6929 0
-6929 6930 0
-82 -6929 6931 0
-6931 6932 0
-84 -6931 6933 0
-6933 6934 0
-86 -6933 6935 0
-6935 6936 0
-88 -6935 6937 0
-6937 6938 0
-90 -6937 6939 0
-6939 6940 0
-92 -6939 6941 0
-6941 6942 0
-94 -6941 6943 0
-6943 6944 0
-96 -6943 0
-16 6862 0
-6862 6945 0
-18 -6862 6864 0
-6864 6946 0
-20 -6864 6866 0
-6866 6947 0
-22 -6866 6868 0
-6868 6948 0
-24 -6868 6870 0
-6870 6949 0
-26 -6870 6872 0
-6872 6950 0
-28 -6872 6874 0
-6874 6951 0
-30 -6874 6876 0
-6876 6952 0
-32 -6876 6878 0
-6878 6953 0
-34 -6878 6880 0
-6880 6954 0
-36 -6880 6882 0
-6882 6955 0
-38 -6882 6884 0
-6884 6956 0
-40 -6884 6886 0
-6886 6957 0
-42 -6886 6888 0
-6888 6958 0
-2 -6888 6890 0
-6890 6959 0
-45 -6890 6892 0
-6892 6960 0
-47 -6892 6894 0
-6894 6961 0
-49 -6894 6896 0
-6896 6962 0
-51 -6896 6898 0
-6898 6963 0
-53 -6898 6900 0
-6900 6964 0
-55 -6900 6902 0
-6902 6965 0
-57 -6902 6904 0
-6904 6966 0
-59 -6904 6906 0
-6906 6967 0
-61 -6906 6908 0
-6908 6968 0
-63 -6908 6910 0
-6910 6969 0
-65 -6910 6912 0
-6912 6970 0
-67 -6912 6914 0
-6914 6971 0
-69 -6914 6916 0
-6916 6972 0
-71 -6916 6918 0
-6918 6973 0
-3 -6918 6920 0
-6920 6974 0
-74 -6920 6922 0
-6922 6975 0
-76 -6922 6924 0
-6924 6976 0
-78 -6924 6926 0
-6926 6977 0
-80 -6926 6928 0
-6928 6978 0
-82 -6928 6930 0
-6930 6979 0
-84 -6930 6932 0
-6932 6980 0
-86 -6932 6934 0
-6934 6981 0
-88 -6934 6936 0
-6936 6982 0
-90 -6936 6938 0
-6938 6983 0
-92 -6938 6940 0
-6940 6984 0
-94 -6940 6942 0
-6942 6985 0
-96 -6942 6944 0
-6944 6986 0
-98 -6944 0
-18 6945 0
-6945 6987 0
-20 -6945 6946 0
-6946 6988 0
-22 -6946 6947 0
-6947 6989 0
-24 -6947 6948 0
-6948 6990 0
-26 -6948 6949 0
-6949 6991 0
-28 -6949 6950 0
-6950 6992 0
-30 -6950 6951 0
-6951 6993 0
-32 -6951 6952 0
-6952 6994 0
-34 -6952 6953 0
-6953 6995 0
-36 -6953 6954 0
-6954 6996 0
-38 -6954 6955 0
-6955 6997 0
-40 -6955 6956 0
-6956 6998 0
-42 -6956 6957 0
-6957 6999 0
-2 -6957 6958 0
-6958 7000 0
-45 -6958 6959 0
-6959 7001 0
-47 -6959 6960 0
-6960 7002 0
-49 -6960 6961 0
-6961 7003 0
-51 -6961 6962 0
-6962 7004 0
-53 -6962 6963 0
-6963 7005 0
-55 -6963 6964 0
-6964 7006 0
-57 -6964 6965 0
-6965 7007 0
-59 -6965 6966 0
-6966 7008 0
-61 -6966 6967 0
-6967 7009 0
-63 -6967 6968 0
-6968 7010 0
-65 -6968 6969 0
-6969 7011 0
-67 -6969 6970 0
-6970 7012 0
-69 -6970 6971 0
-6971 7013 0
-71 -6971 6972 0
-6972 7014 0
-3 -6972 6973 0
-6973 7015 0
-74 -6973 6974 0
-6974 7016 0
-76 -6974 6975 0
-6975 7017 0
-78 -6975 6976 0
-6976 7018 0
-80 -6976 6977 0
-6977 7019 0
-82 -6977 6978 0
-6978 7020 0
-84 -6978 6979 0
-6979 7021 0
-86 -6979 6980 0
-6980 7022 0
-88 -6980 6981 0
-6981 7023 0
-90 -6981 6982 0
-6982 7024 0
-92 -6982 6983 0
-6983 7025 0
-94 -6983 6984 0
-6984 7026 0
-96 -6984 6985 0
-6985 7027 0
-98 -6985 6986 0
-6986 7028 0
-100 -6986 0
-20 6987 0
-6987 7029 0
-22 -6987 6988 0
-6988 7030 0
-24 -6988 6989 0
-6989 7031 0
-26 -6989 6990 0
-6990 7032 0
-28 -6990 6991 0
-6991 7033 0
-30 -6991 6992 0
-6992 7034 0
-32 -6992 6993 0
-6993 7035 0
-34 -6993 6994 0
-6994 7036 0
-36 -6994 6995 0
-6995 7037 0
-38 -6995 6996 0
-6996 7038 0
-40 -6996 6997 0
-6997 7039 0
-42 -6997 6998 0
-6998 7040 0
-2 -6998 6999 0
-6999 7041 0
-45 -6999 7000 0
-7000 7042 0
-47 -7000 7001 0
-7001 7043 0
-49 -7001 7002 0
-7002 7044 0
-51 -7002 7003 0
-7003 7045 0
-53 -7003 7004 0
-7004 7046 0
-55 -7004 7005 0
-7005 7047 0
-57 -7005 7006 0
-7006 7048 0
-59 -7006 7007 0
-7007 7049 0
-61 -7007 7008 0
-7008 7050 0
-63 -7008 7009 0
-7009 7051 0
-65 -7009 7010 0
-7010 7052 0
-67 -7010 7011 0
-7011 7053 0
-69 -7011 7012 0
-7012 7054 0
-71 -7012 7013 0
-7013 7055 0
-3 -7013 7014 0
-7014 7056 0
-74 -7014 7015 0
-7015 7057 0
-76 -7015 7016 0
-7016 7058 0
-78 -7016 7017 0
-7017 7059 0
-80 -7017 7018 0
-7018 7060 0
-82 -7018 7019 0
-7019 7061 0
-84 -7019 7020 0
-7020 7062 0
-86 -7020 7021 0
-7021 7063 0
-88 -7021 7022 0
-7022 7064 0
-90 -7022 7023 0
-7023 7065 0
-92 -7023 7024 0
-7024 7066 0
-94 -7024 7025 0
-7025 7067 0
-96 -7025 7026 0
-7026 7068 0
-98 -7026 7027 0
-7027 7069 0
-100 -7027 7028 0
-7028 7070 0
-4 -7028 0
-22 7029 0
-7029 7071 0
-24 -7029 7030 0
-7030 7072 0
-26 -7030 7031 0
-7031 7073 0
-28 -7031 7032 0
-7032 7074 0
-30 -7032 7033 0
-7033 7075 0
-32 -7033 7034 0
-7034 7076 0
-34 -7034 7035 0
-7035 7077 0
-36 -7035 7036 0
-7036 7078 0
-38 -7036 7037 0
-7037 7079 0
-40 -7037 7038 0
-7038 7080 0
-42 -7038 7039 0
-7039 7081 0
-2 -7039 7040 0
-7040 7082 0
-45 -7040 7041 0
-7041 7083 0
-47 -7041 7042 0
-7042 7084 0
-49 -7042 7043 0
-7043 7085 0
-51 -7043 7044 0
-7044 7086 0
-53 -7044 7045 0
-7045 7087 0
-55 -7045 7046 0
-7046 7088 0
-57 -7046 7047 0
-7047 7089 0
-59 -7047 7048 0
-7048 7090 0
-61 -7048 7049 0
-7049 7091 0
-63 -7049 7050 0
-7050 7092 0
-65 -7050 7051 0
-7051 7093 0
-67 -7051 7052 0
-7052 7094 0
-69 -7052 7053 0
-7053 7095 0
-71 -7053 7054 0
-7054 7096 0
-3 -7054 7055 0
-7055 7097 0
-74 -7055 7056 0
-7056 7098 0
-76 -7056 7057 0
-7057 7099 0
-78 -7057 7058 0
-7058 7100 0
-80 -7058 7059 0
-7059 7101 0
-82 -7059 7060 0
-7060 7102 0
-84 -7060 7061 0
-7061 7103 0
-86 -7061 7062 0
-7062 7104 0
-88 -7062 7063 0
-7063 7105 0
-90 -7063 7064 0
-7064 7106 0
-92 -7064 7065 0
-7065 7107 0
-94 -7065 7066 0
-7066 7108 0
-96 -7066 7067 0
-7067 7109 0
-98 -7067 7068 0
-7068 7110 0
-100 -7068 7069 0
-7069 7111 0
-4 -7069 7070 0
-7070 7112 0
-103 -7070 0
-24 7071 0
-7071 7113 0
-26 -7071 7072 0
-7072 7114 0
-28 -7072 7073 0
-7073 7115 0
-30 -7073 7074 0
-7074 7116 0
-32 -7074 7075 0
-7075 7117 0
-34 -7075 7076 0
-7076 7118 0
-36 -7076 7077 0
-7077 7119 0
-38 -7077 7078 0
-7078 7120 0
-40 -7078 7079 0
-7079 7121 0
-42 -7079 7080 0
-7080 7122 0
-2 -7080 7081 0
-7081 7123 0
-45 -7081 7082 0
-7082 7124 0
-47 -7082 7083 0
-7083 7125 0
-49 -7083 7084 0
-7084 7126 0
-51 -7084 7085 0
-7085 7127 0
-53 -7085 7086 0
-7086 7128 0
-55 -7086 7087 0
-7087 7129 0
-57 -7087 7088 0
-7088 7130 0
-59 -7088 7089 0
-7089 7131 0
-61 -7089 7090 0
-7090 7132 0
-63 -7090 7091 0
-7091 7133 0
-65 -7091 7092 0
-7092 7134 0
-67 -7092 7093 0
-7093 7135 0
-69 -7093 7094 0
-7094 7136 0
-71 -7094 7095 0
-7095 7137 0
-3 -7095 7096 0
-7096 7138 0
-74 -7096 7097 0
-7097 7139 0
-76 -7097 7098 0
-7098 7140 0
-78 -7098 7099 0
-7099 7141 0
-80 -7099 7100 0
-7100 7142 0
-82 -7100 7101 0
-7101 7143 0
-84 -7101 7102 0
-7102 7144 0
-86 -7102 7103 0
-7103 7145 0
-88 -7103 7104 0
-7104 7146 0
-90 -7104 7105 0
-7105 7147 0
-92 -7105 7106 0
-7106 7148 0
-94 -7106 7107 0
-7107 7149 0
-96 -7107 7108 0
-7108 7150 0
-98 -7108 7109 0
-7109 7151 0
-100 -7109 7110 0
-7110 7152 0
-4 -7110 7111 0
-7111 7153 0
-103 -7111 7112 0
-7112 7154 0
-105 -7112 0
-26 7113 0
-7113 7155 0
-28 -7113 7114 0
-7114 7156 0
-30 -7114 7115 0
-7115 7157 0
-32 -7115 7116 0
-7116 7158 0
-34 -7116 7117 0
-7117 7159 0
-36 -7117 7118 0
-7118 7160 0
-38 -7118 7119 0
-7119 7161 0
-40 -7119 7120 0
-7120 7162 0
-42 -7120 7121 0
-7121 7163 0
-2 -7121 7122 0
-7122 7164 0
-45 -7122 7123 0
-7123 7165 0
-47 -7123 7124 0
-7124 7166 0
-49 -7124 7125 0
-7125 7167 0
-51 -7125 7126 0
-7126 7168 0
-53 -7126 7127 0
-7127 7169 0
-55 -7127 7128 0
-7128 7170 0
-57 -7128 7129 0
-7129 7171 0
-59 -7129 7130 0
-7130 7172 0
-61 -7130 7131 0
-7131 7173 0
-63 -7131 7132 0
-7132 7174 0
-65 -7132 7133 0
-7133 7175 0
-67 -7133 7134 0
-7134 7176 0
-69 -7134 7135 0
-7135 7177 0
-71 -7135 7136 0
-7136 7178 0
-3 -7136 7137 0
-7137 7179 0
-74 -7137 7138 0
-7138 7180 0
-76 -7138 7139 0
-7139 7181 0
-78 -7139 7140 0
-7140 7182 0
-80 -7140 7141 0
-7141 7183 0
-82 -7141 7142 0
-7142 7184 0
-84 -7142 7143 0
-7143 7185 0
-86 -7143 7144 0
-7144 7186 0
-88 -7144 7145 0
-7145 7187 0
-90 -7145 7146 0
-7146 7188 0
-92 -7146 7147 0
-7147 7189 0
-94 -7147 7148 0
-7148 7190 0
-96 -7148 7149 0
-7149 7191 0
-98 -7149 7150 0
-7150 7192 0
-100 -7150 7151 0
-7151 7193 0
-4 -7151 7152 0
-7152 7194 0
-103 -7152 7153 0
-7153 7195 0
-105 -7153 7154 0
-7154 7196 0
-107 -7154 0
-28 7155 0
-7155 7197 0
-30 -7155 7156 0
-7156 7198 0
-32 -7156 7157 0
-7157 7199 0
-34 -7157 7158 0
-7158 7200 0
-36 -7158 7159 0
-7159 7201 0
-38 -7159 7160 0
-7160 7202 0
-40 -7160 7161 0
-7161 7203 0
-42 -7161 7162 0
-7162 7204 0
-2 -7162 7163 0
-7163 7205 0
-45 -7163 7164 0
-7164 7206 0
-47 -7164 7165 0
-7165 7207 0
-49 -7165 7166 0
-7166 7208 0
-51 -7166 7167 0
-7167 7209 0
-53 -7167 7168 0
-7168 7210 0
-55 -7168 7169 0
-7169 7211 0
-57 -7169 7170 0
-7170 7212 0
-59 -7170 7171 0
-7171 7213 0
-61 -7171 7172 0
-7172 7214 0
-63 -7172 7173 0
-7173 7215 0
-65 -7173 7174 0
-7174 7216 0
-67 -7174 7175 0
-7175 7217 0
-69 -7175 7176 0
-7176 7218 0
-71 -7176 7177 0
-7177 7219 0
-3 -7177 7178 0
-7178 7220 0
-74 -7178 7179 0
-7179 7221 0
-76 -7179 7180 0
-7180 7222 0
-78 -7180 7181 0
-7181 7223 0
-80 -7181 7182 0
-7182 7224 0
-82 -7182 7183 0
-7183 7225 0
-84 -7183 7184 0
-7184 7226 0
-86 -7184 7185 0
-7185 7227 0
-88 -7185 7186 0
-7186 7228 0
-90 -7186 7187 0
-7187 7229 0
-92 -7187 7188 0
-7188 7230 0
-94 -7188 7189 0
-7189 7231 0
-96 -7189 7190 0
-7190 7232 0
-98 -7190 7191 0
-7191 7233 0
-100 -7191 7192 0
-7192 7234 0
-4 -7192 7193 0
-7193 7235 0
-103 -7193 7194 0
-7194 7236 0
-105 -7194 7195 0
-7195 7237 0
-107 -7195 7196 0
-7196 7238 0
-109 -7196 0
-30 7197 0
-7197 7239 0
-32 -7197 7198 0
-7198 7240 0
-34 -7198 7199 0
-7199 7241 0
-36 -7199 7200 0
-7200 7242 0
-38 -7200 7201 0
-7201 7243 0
-40 -7201 7202 0
-7202 7244 0
-42 -7202 7203 0
-7203 7245 0
-2 -7203 7204 0
-7204 7246 0
-45 -7204 7205 0
-7205 7247 0
-47 -7205 7206 0
-7206 7248 0
-49 -7206 7207 0
-7207 7249 0
-51 -7207 7208 0
-7208 7250 0
-53 -7208 7209 0
-7209 7251 0
-55 -7209 7210 0
-7210 7252 0
-57 -7210 7211 0
-7211 7253 0
-59 -7211 7212 0
-7212 7254 0
-61 -7212 7213 0
-7213 7255 0
-63 -7213 7214 0
-7214 7256 0
-65 -7214 7215 0
-7215 7257 0
-67 -7215 7216 0
-7216 7258 0
-69 -7216 7217 0
-7217 7259 0
-71 -7217 7218 0
-7218 7260 0
-3 -7218 7219 0
-7219 7261 0
-74 -7219 7220 0
-7220 7262 0
-76 -7220 7221 0
-7221 7263 0
-78 -7221 7222 0
-7222 7264 0
-80 -7222 7223 0
-7223 7265 0
-82 -7223 7224 0
-7224 7266 0
-84 -7224 7225 0
-7225 7267 0
-86 -7225 7226 0
-7226 7268 0
-88 -7226 7227 0
-7227 7269 0
-90 -7227 7228 0
-7228 7270 0
-92 -7228 7229 0
-7229 7271 0
-94 -7229 7230 0
-7230 7272 0
-96 -7230 7231 0
-7231 7273 0
-98 -7231 7232 0
-7232 7274 0
-100 -7232 7233 0
-7233 7275 0
-4 -7233 7234 0
-7234 7276 0
-103 -7234 7235 0
-7235 7277 0
-105 -7235 7236 0
-7236 7278 0
-107 -7236 7237 0
-7237 7279 0
-109 -7237 7238 0
-7238 7280 0
-111 -7238 0
-32 7239 0
-7239 7281 0
-34 -7239 7240 0
-7240 7282 0
-36 -7240 7241 0
-7241 7283 0
-38 -7241 7242 0
-7242 7284 0
-40 -7242 7243 0
-7243 7285 0
-42 -7243 7244 0
-7244 7286 0
-2 -7244 7245 0
-7245 7287 0
-45 -7245 7246 0
-7246 7288 0
-47 -7246 7247 0
-7247 7289 0
-49 -7247 7248 0
-7248 7290 0
-51 -7248 7249 0
-7249 7291 0
-53 -7249 7250 0
-7250 7292 0
-55 -7250 7251 0
-7251 7293 0
-57 -7251 7252 0
-7252 7294 0
-59 -7252 7253 0
-7253 7295 0
-61 -7253 7254 0
-7254 7296 0
-63 -7254 7255 0
-7255 7297 0
-65 -7255 7256 0
-7256 7298 0
-67 -7256 7257 0
-7257 7299 0
-69 -7257 7258 0
-7258 7300 0
-71 -7258 7259 0
-7259 7301 0
-3 -7259 7260 0
-7260 7302 0
-74 -7260 7261 0
-7261 7303 0
-76 -7261 7262 0
-7262 7304 0
-78 -7262 7263 0
-7263 7305 0
-80 -7263 7264 0
-7264 7306 0
-82 -7264 7265 0
-7265 7307 0
-84 -7265 7266 0
-7266 7308 0
-86 -7266 7267 0
-7267 7309 0
-88 -7267 7268 0
-7268 7310 0
-90 -7268 7269 0
-7269 7311 0
-92 -7269 7270 0
-7270 7312 0
-94 -7270 7271 0
-7271 7313 0
-96 -7271 7272 0
-7272 7314 0
-98 -7272 7273 0
-7273 7315 0
-100 -7273 7274 0
-7274 7316 0
-4 -7274 7275 0
-7275 7317 0
-103 -7275 7276 0
-7276 7318 0
-105 -7276 7277 0
-7277 7319 0
-107 -7277 7278 0
-7278 7320 0
-109 -7278 7279 0
-7279 7321 0
-111 -7279 7280 0
-7280 7322 0
-113 -7280 0
-34 7281 0
-7281 7323 0
-36 -7281 7282 0
-7282 7324 0
-38 -7282 7283 0
-7283 7325 0
-40 -7283 7284 0
-7284 7326 0
-42 -7284 7285 0
-7285 7327 0
-2 -7285 7286 0
-7286 7328 0
-45 -7286 7287 0
-7287 7329 0
-47 -7287 7288 0
-7288 7330 0
-49 -7288 7289 0
-7289 7331 0
-51 -7289 7290 0
-7290 7332 0
-53 -7290 7291 0
-7291 7333 0
-55 -7291 7292 0
-7292 7334 0
-57 -7292 7293 0
-7293 7335 0
-59 -7293 7294 0
-7294 7336 0
-61 -7294 7295 0
-7295 7337 0
-63 -7295 7296 0
-7296 7338 0
-65 -7296 7297 0
-7297 7339 0
-67 -7297 7298 0
-7298 7340 0
-69 -7298 7299 0
-7299 7341 0
-71 -7299 7300 0
-7300 7342 0
-3 -7300 7301 0
-7301 7343 0
-74 -7301 7302 0
-7302 7344 0
-76 -7302 7303 0
-7303 7345 0
-78 -7303 7304 0
-7304 7346 0
-80 -7304 7305 0
-7305 7347 0
-82 -7305 7306 0
-7306 7348 0
-84 -7306 7307 0
-7307 7349 0
-86 -7307 7308 0
-7308 7350 0
-88 -7308 7309 0
-7309 7351 0
-90 -7309 7310 0
-7310 7352 0
-92 -7310 7311 0
-7311 7353 0
-94 -7311 7312 0
-7312 7354 0
-96 -7312 7313 0
-7313 7355 0
-98 -7313 7314 0
-7314 7356 0
-100 -7314 7315 0
-7315 7357 0
-4 -7315 7316 0
-7316 7358 0
-103 -7316 7317 0
-7317 7359 0
-105 -7317 7318 0
-7318 7360 0
-107 -7318 7319 0
-7319 7361 0
-109 -7319 7320 0
-7320 7362 0
-111 -7320 7321 0
-7321 7363 0
-113 -7321 7322 0
-7322 7364 0
-115 -7322 0
-36 7323 0
-7323 7365 0
-38 -7323 7324 0
-7324 7366 0
-40 -7324 7325 0
-7325 7367 0
-42 -7325 7326 0
-7326 7368 0
-2 -7326 7327 0
-7327 7369 0
-45 -7327 7328 0
-7328 7370 0
-47 -7328 7329 0
-7329 7371 0
-49 -7329 7330 0
-7330 7372 0
-51 -7330 7331 0
-7331 7373 0
-53 -7331 7332 0
-7332 7374 0
-55 -7332 7333 0
-7333 7375 0
-57 -7333 7334 0
-7334 7376 0
-59 -7334 7335 0
-7335 7377 0
-61 -7335 7336 0
-7336 7378 0
-63 -7336 7337 0
-7337 7379 0
-65 -7337 7338 0
-7338 7380 0
-67 -7338 7339 0
-7339 7381 0
-69 -7339 7340 0
-7340 7382 0
-71 -7340 7341 0
-7341 7383 0
-3 -7341 7342 0
-7342 7384 0
-74 -7342 7343 0
-7343 7385 0
-76 -7343 7344 0
-7344 7386 0
-78 -7344 7345 0
-7345 7387 0
-80 -7345 7346 0
-7346 7388 0
-82 -7346 7347 0
-7347 7389 0
-84 -7347 7348 0
-7348 7390 0
-86 -7348 7349 0
-7349 7391 0
-88 -7349 7350 0
-7350 7392 0
-90 -7350 7351 0
-7351 7393 0
-92 -7351 7352 0
-7352 7394 0
-94 -7352 7353 0
-7353 7395 0
-96 -7353 7354 0
-7354 7396 0
-98 -7354 7355 0
-7355 7397 0
-100 -7355 7356 0
-7356 7398 0
-4 -7356 7357 0
-7357 7399 0
-103 -7357 7358 0
-7358 7400 0
-105 -7358 7359 0
-7359 7401 0
-107 -7359 7360 0
-7360 7402 0
-109 -7360 7361 0
-7361 7403 0
-111 -7361 7362 0
-7362 7404 0
-113 -7362 7363 0
-7363 7405 0
-115 -7363 7364 0
-7364 7406 0
-117 -7364 0
-38 7365 0
-7365 7407 0
-40 -7365 7366 0
-7366 7408 0
-42 -7366 7367 0
-7367 7409 0
-2 -7367 7368 0
-7368 7410 0
-45 -7368 7369 0
-7369 7411 0
-47 -7369 7370 0
-7370 7412 0
-49 -7370 7371 0
-7371 7413 0
-51 -7371 7372 0
-7372 7414 0
-53 -7372 7373 0
-7373 7415 0
-55 -7373 7374 0
-7374 7416 0
-57 -7374 7375 0
-7375 7417 0
-59 -7375 7376 0
-7376 7418 0
-61 -7376 7377 0
-7377 7419 0
-63 -7377 7378 0
-7378 7420 0
-65 -7378 7379 0
-7379 7421 0
-67 -7379 7380 0
-7380 7422 0
-69 -7380 7381 0
-7381 7423 0
-71 -7381 7382 0
-7382 7424 0
-3 -7382 7383 0
-7383 7425 0
-74 -7383 7384 0
-7384 7426 0
-76 -7384 7385 0
-7385 7427 0
-78 -7385 7386 0
-7386 7428 0
-80 -7386 7387 0
-7387 7429 0
-82 -7387 7388 0
-7388 7430 0
-84 -7388 7389 0
-7389 7431 0
-86 -7389 7390 0
-7390 7432 0
-88 -7390 7391 0
-7391 7433 0
-90 -7391 7392 0
-7392 7434 0
-92 -7392 7393 0
-7393 7435 0
-94 -7393 7394 0
-7394 7436 0
-96 -7394 7395 0
-7395 7437 0
-98 -7395 7396 0
-7396 7438 0
-100 -7396 7397 0
-7397 7439 0
-4 -7397 7398 0
-7398 7440 0
-103 -7398 7399 0
-7399 7441 0
-105 -7399 7400 0
-7400 7442 0
-107 -7400 7401 0
-7401 7443 0
-109 -7401 7402 0
-7402 7444 0
-111 -7402 7403 0
-7403 7445 0
-113 -7403 7404 0
-7404 7446 0
-115 -7404 7405 0
-7405 7447 0
-117 -7405 7406 0
-7406 7448 0
-119 -7406 0
-40 7407 0
-7407 7449 0
-42 -7407 7408 0
-7408 7450 0
-2 -7408 7409 0
-7409 7451 0
-45 -7409 7410 0
-7410 7452 0
-47 -7410 7411 0
-7411 7453 0
-49 -7411 7412 0
-7412 7454 0
-51 -7412 7413 0
-7413 7455 0
-53 -7413 7414 0
-7414 7456 0
-55 -7414 7415 0
-7415 7457 0
-57 -7415 7416 0
-7416 7458 0
-59 -7416 7417 0
-7417 7459 0
-61 -7417 7418 0
-7418 7460 0
-63 -7418 7419 0
-7419 7461 0
-65 -7419 7420 0
-7420 7462 0
-67 -7420 7421 0
-7421 7463 0
-69 -7421 7422 0
-7422 7464 0
-71 -7422 7423 0
-7423 7465 0
-3 -7423 7424 0
-7424 7466 0
-74 -7424 7425 0
-7425 7467 0
-76 -7425 7426 0
-7426 7468 0
-78 -7426 7427 0
-7427 7469 0
-80 -7427 7428 0
-7428 7470 0
-82 -7428 7429 0
-7429 7471 0
-84 -7429 7430 0
-7430 7472 0
-86 -7430 7431 0
-7431 7473 0
-88 -7431 7432 0
-7432 7474 0
-90 -7432 7433 0
-7433 7475 0
-92 -7433 7434 0
-7434 7476 0
-94 -7434 7435 0
-7435 7477 0
-96 -7435 7436 0
-7436 7478 0
-98 -7436 7437 0
-7437 7479 0
-100 -7437 7438 0
-7438 7480 0
-4 -7438 7439 0
-7439 7481 0
-103 -7439 7440 0
-7440 7482 0
-105 -7440 7441 0
-7441 7483 0
-107 -7441 7442 0
-7442 7484 0
-109 -7442 7443 0
-7443 7485 0
-111 -7443 7444 0
-7444 7486 0
-113 -7444 7445 0
-7445 7487 0
-115 -7445 7446 0
-7446 7488 0
-117 -7446 7447 0
-7447 7489 0
-119 -7447 7448 0
-7448 7490 0
-121 -7448 0
-42 7449 0
-7449 7491 0
-2 -7449 7450 0
-7450 7492 0
-45 -7450 7451 0
-7451 7493 0
-47 -7451 7452 0
-7452 7494 0
-49 -7452 7453 0
-7453 7495 0
-51 -7453 7454 0
-7454 7496 0
-53 -7454 7455 0
-7455 7497 0
-55 -7455 7456 0
-7456 7498 0
-57 -7456 7457 0
-7457 7499 0
-59 -7457 7458 0
-7458 7500 0
-61 -7458 7459 0
-7459 7501 0
-63 -7459 7460 0
-7460 7502 0
-65 -7460 7461 0
-7461 7503 0
-67 -7461 7462 0
-7462 7504 0
-69 -7462 7463 0
-7463 7505 0
-71 -7463 7464 0
-7464 7506 0
-3 -7464 7465 0
-7465 7507 0
-74 -7465 7466 0
-7466 7508 0
-76 -7466 7467 0
-7467 7509 0
-78 -7467 7468 0
-7468 7510 0
-80 -7468 7469 0
-7469 7511 0
-82 -7469 7470 0
-7470 7512 0
-84 -7470 7471 0
-7471 7513 0
-86 -7471 7472 0
-7472 7514 0
-88 -7472 7473 0
-7473 7515 0
-90 -7473 7474 0
-7474 7516 0
-92 -7474 7475 0
-7475 7517 0
-94 -7475 7476 0
-7476 7518 0
-96 -7476 7477 0
-7477 7519 0
-98 -7477 7478 0
-7478 7520 0
-100 -7478 7479 0
-7479 7521 0
-4 -7479 7480 0
-7480 7522 0
-103 -7480 7481 0
-7481 7523 0
-105 -7481 7482 0
-7482 7524 0
-107 -7482 7483 0
-7483 7525 0
-109 -7483 7484 0
-7484 7526 0
-111 -7484 7485 0
-7485 7527 0
-113 -7485 7486 0
-7486 7528 0
-115 -7486 7487 0
-7487 7529 0
-117 -7487 7488 0
-7488 7530 0
-119 -7488 7489 0
-7489 7531 0
-121 -7489 7490 0
-7490 7532 0
-123 -7490 0
-2 7491 0
-7491 7533 0
-45 -7491 7492 0
-7492 7534 0
-47 -7492 7493 0
-7493 7535 0
-49 -7493 7494 0
-7494 7536 0
-51 -7494 7495 0
-7495 7537 0
-53 -7495 7496 0
-7496 7538 0
-55 -7496 7497 0
-7497 7539 0
-57 -7497 7498 0
-7498 7540 0
-59 -7498 7499 0
-7499 7541 0
-61 -7499 7500 0
-7500 7542 0
-63 -7500 7501 0
-7501 7543 0
-65 -7501 7502 0
-7502 7544 0
-67 -7502 7503 0
-7503 7545 0
-69 -7503 7504 0
-7504 7546 0
-71 -7504 7505 0
-7505 7547 0
-3 -7505 7506 0
-7506 7548 0
-74 -7506 7507 0
-7507 7549 0
-76 -7507 7508 0
-7508 7550 0
-78 -7508 7509 0
-7509 7551 0
-80 -7509 7510 0
-7510 7552 0
-82 -7510 7511 0
-7511 7553 0
-84 -7511 7512 0
-7512 7554 0
-86 -7512 7513 0
-7513 7555 0
-88 -7513 7514 0
-7514 7556 0
-90 -7514 7515 0
-7515 7557 0
-92 -7515 7516 0
-7516 7558 0
-94 -7516 7517 0
-7517 7559 0
-96 -7517 7518 0
-7518 7560 0
-98 -7518 7519 0
-7519 7561 0
-100 -7519 7520 0
-7520 7562 0
-4 -7520 7521 0
-7521 7563 0
-103 -7521 7522 0
-7522 7564 0
-105 -7522 7523 0
-7523 7565 0
-107 -7523 7524 0
-7524 7566 0
-109 -7524 7525 0
-7525 7567 0
-111 -7525 7526 0
-7526 7568 0
-113 -7526 7527 0
-7527 7569 0
-115 -7527 7528 0
-7528 7570 0
-117 -7528 7529 0
-7529 7571 0
-119 -7529 7530 0
-7530 7572 0
-121 -7530 7531 0
-7531 7573 0
-123 -7531 7532 0
-7532 7574 0
-125 -7532 0
-45 7533 0
-7533 7575 0
-47 -7533 7534 0
-7534 7576 0
-49 -7534 7535 0
-7535 7577 0
-51 -7535 7536 0
-7536 7578 0
-53 -7536 7537 0
-7537 7579 0
-55 -7537 7538 0
-7538 7580 0
-57 -7538 7539 0
-7539 7581 0
-59 -7539 7540 0
-7540 7582 0
-61 -7540 7541 0
-7541 7583 0
-63 -7541 7542 0
-7542 7584 0
-65 -7542 7543 0
-7543 7585 0
-67 -7543 7544 0
-7544 7586 0
-69 -7544 7545 0
-7545 7587 0
-71 -7545 7546 0
-7546 7588 0
-3 -7546 7547 0
-7547 7589 0
-74 -7547 7548 0
-7548 7590 0
-76 -7548 7549 0
-7549 7591 0
-78 -7549 7550 0
-7550 7592 0
-80 -7550 7551 0
-7551 7593 0
-82 -7551 7552 0
-7552 7594 0
-84 -7552 7553 0
-7553 7595 0
-86 -7553 7554 0
-7554 7596 0
-88 -7554 7555 0
-7555 7597 0
-90 -7555 7556 0
-7556 7598 0
-92 -7556 7557 0
-7557 7599 0
-94 -7557 7558 0
-7558 7600 0
-96 -7558 7559 0
-7559 7601 0
-98 -7559 7560 0
-7560 7602 0
-100 -7560 7561 0
-7561 7603 0
-4 -7561 7562 0
-7562 7604 0
-103 -7562 7563 0
-7563 7605 0
-105 -7563 7564 0
-7564 7606 0
-107 -7564 7565 0
-7565 7607 0
-109 -7565 7566 0
-7566 7608 0
-111 -7566 7567 0
-7567 7609 0
-113 -7567 7568 0
-7568 7610 0
-115 -7568 7569 0
-7569 7611 0
-117 -7569 7570 0
-7570 7612 0
-119 -7570 7571 0
-7571 7613 0
-121 -7571 7572 0
-7572 7614 0
-123 -7572 7573 0
-7573 7615 0
-125 -7573 7574 0
-7574 7616 0
-127 -7574 0
-47 7575 0
-7575 7617 0
-49 -7575 7576 0
-7576 7618 0
-51 -7576 7577 0
-7577 7619 0
-53 -7577 7578 0
-7578 7620 0
-55 -7578 7579 0
-7579 7621 0
-57 -7579 7580 0
-7580 7622 0
-59 -7580 7581 0
-7581 7623 0
-61 -7581 7582 0
-7582 7624 0
-63 -7582 7583 0
-7583 7625 0
-65 -7583 7584 0
-7584 7626 0
-67 -7584 7585 0
-7585 7627 0
-69 -7585 7586 0
-7586 7628 0
-71 -7586 7587 0
-7587 7629 0
-3 -7587 7588 0
-7588 7630 0
-74 -7588 7589 0
-7589 7631 0
-76 -7589 7590 0
-7590 7632 0
-78 -7590 7591 0
-7591 7633 0
-80 -7591 7592 0
-7592 7634 0
-82 -7592 7593 0
-7593 7635 0
-84 -7593 7594 0
-7594 7636 0
-86 -7594 7595 0
-7595 7637 0
-88 -7595 7596 0
-7596 7638 0
-90 -7596 7597 0
-7597 7639 0
-92 -7597 7598 0
-7598 7640 0
-94 -7598 7599 0
-7599 7641 0
-96 -7599 7600 0
-7600 7642 0
-98 -7600 7601 0
-7601 7643 0
-100 -7601 7602 0
-7602 7644 0
-4 -7602 7603 0
-7603 7645 0
-103 -7603 7604 0
-7604 7646 0
-105 -7604 7605 0
-7605 7647 0
-107 -7605 7606 0
-7606 7648 0
-109 -7606 7607 0
-7607 7649 0
-111 -7607 7608 0
-7608 7650 0
-113 -7608 7609 0
-7609 7651 0
-115 -7609 7610 0
-7610 7652 0
-117 -7610 7611 0
-7611 7653 0
-119 -7611 7612 0
-7612 7654 0
-121 -7612 7613 0
-7613 7655 0
-123 -7613 7614 0
-7614 7656 0
-125 -7614 7615 0
-7615 7657 0
-127 -7615 7616 0
-7616 7658 0
-129 -7616 0
-49 7617 0
-7617 7659 0
-51 -7617 7618 0
-7618 7660 0
-53 -7618 7619 0
-7619 7661 0
-55 -7619 7620 0
-7620 7662 0
-57 -7620 7621 0
-7621 7663 0
-59 -7621 7622 0
-7622 7664 0
-61 -7622 7623 0
-7623 7665 0
-63 -7623 7624 0
-7624 7666 0
-65 -7624 7625 0
-7625 7667 0
-67 -7625 7626 0
-7626 7668 0
-69 -7626 7627 0
-7627 7669 0
-71 -7627 7628 0
-7628 7670 0
-3 -7628 7629 0
-7629 7671 0
-74 -7629 7630 0
-7630 7672 0
-76 -7630 7631 0
-7631 7673 0
-78 -7631 7632 0
-7632 7674 0
-80 -7632 7633 0
-7633 7675 0
-82 -7633 7634 0
-7634 7676 0
-84 -7634 7635 0
-7635 7677 0
-86 -7635 7636 0
-7636 7678 0
-88 -7636 7637 0
-7637 7679 0
-90 -7637 7638 0
-7638 7680 0
-92 -7638 7639 0
-7639 7681 0
-94 -7639 7640 0
-7640 7682 0
-96 -7640 7641 0
-7641 7683 0
-98 -7641 7642 0
-7642 7684 0
-100 -7642 7643 0
-7643 7685 0
-4 -7643 7644 0
-7644 7686 0
-103 -7644 7645 0
-7645 7687 0
-105 -7645 7646 0
-7646 7688 0
-107 -7646 7647 0
-7647 7689 0
-109 -7647 7648 0
-7648 7690 0
-111 -7648 7649 0
-7649 7691 0
-113 -7649 7650 0
-7650 7692 0
-115 -7650 7651 0
-7651 7693 0
-117 -7651 7652 0
-7652 7694 0
-119 -7652 7653 0
-7653 7695 0
-121 -7653 7654 0
-7654 7696 0
-123 -7654 7655 0
-7655 7697 0
-125 -7655 7656 0
-7656 7698 0
-127 -7656 7657 0
-7657 7699 0
-129 -7657 7658 0
-7658 7700 0
-5 -7658 0
-51 7659 0
-7659 7701 0
-53 -7659 7660 0
-7660 7702 0
-55 -7660 7661 0
-7661 7703 0
-57 -7661 7662 0
-7662 7704 0
-59 -7662 7663 0
-7663 7705 0
-61 -7663 7664 0
-7664 7706 0
-63 -7664 7665 0
-7665 7707 0
-65 -7665 7666 0
-7666 7708 0
-67 -7666 7667 0
-7667 7709 0
-69 -7667 7668 0
-7668 7710 0
-71 -7668 7669 0
-7669 7711 0
-3 -7669 7670 0
-7670 7712 0
-74 -7670 7671 0
-7671 7713 0
-76 -7671 7672 0
-7672 7714 0
-78 -7672 7673 0
-7673 7715 0
-80 -7673 7674 0
-7674 7716 0
-82 -7674 7675 0
-7675 7717 0
-84 -7675 7676 0
-7676 7718 0
-86 -7676 7677 0
-7677 7719 0
-88 -7677 7678 0
-7678 7720 0
-90 -7678 7679 0
-7679 7721 0
-92 -7679 7680 0
-7680 7722 0
-94 -7680 7681 0
-7681 7723 0
-96 -7681 7682 0
-7682 7724 0
-98 -7682 7683 0
-7683 7725 0
-100 -7683 7684 0
-7684 7726 0
-4 -7684 7685 0
-7685 7727 0
-103 -7685 7686 0
-7686 7728 0
-105 -7686 7687 0
-7687 7729 0
-107 -7687 7688 0
-7688 7730 0
-109 -7688 7689 0
-7689 7731 0
-111 -7689 7690 0
-7690 7732 0
-113 -7690 7691 0
-7691 7733 0
-115 -7691 7692 0
-7692 7734 0
-117 -7692 7693 0
-7693 7735 0
-119 -7693 7694 0
-7694 7736 0
-121 -7694 7695 0
-7695 7737 0
-123 -7695 7696 0
-7696 7738 0
-125 -7696 7697 0
-7697 7739 0
-127 -7697 7698 0
-7698 7740 0
-129 -7698 7699 0
-7699 7741 0
-5 -7699 7700 0
-7700 7742 0
-132 -7700 0
-53 7701 0
-7701 7743 0
-55 -7701 7702 0
-7702 7744 0
-57 -7702 7703 0
-7703 7745 0
-59 -7703 7704 0
-7704 7746 0
-61 -7704 7705 0
-7705 7747 0
-63 -7705 7706 0
-7706 7748 0
-65 -7706 7707 0
-7707 7749 0
-67 -7707 7708 0
-7708 7750 0
-69 -7708 7709 0
-7709 7751 0
-71 -7709 7710 0
-7710 7752 0
-3 -7710 7711 0
-7711 7753 0
-74 -7711 7712 0
-7712 7754 0
-76 -7712 7713 0
-7713 7755 0
-78 -7713 7714 0
-7714 7756 0
-80 -7714 7715 0
-7715 7757 0
-82 -7715 7716 0
-7716 7758 0
-84 -7716 7717 0
-7717 7759 0
-86 -7717 7718 0
-7718 7760 0
-88 -7718 7719 0
-7719 7761 0
-90 -7719 7720 0
-7720 7762 0
-92 -7720 7721 0
-7721 7763 0
-94 -7721 7722 0
-7722 7764 0
-96 -7722 7723 0
-7723 7765 0
-98 -7723 7724 0
-7724 7766 0
-100 -7724 7725 0
-7725 7767 0
-4 -7725 7726 0
-7726 7768 0
-103 -7726 7727 0
-7727 7769 0
-105 -7727 7728 0
-7728 7770 0
-107 -7728 7729 0
-7729 7771 0
-109 -7729 7730 0
-7730 7772 0
-111 -7730 7731 0
-7731 7773 0
-113 -7731 7732 0
-7732 7774 0
-115 -7732 7733 0
-7733 7775 0
-117 -7733 7734 0
-7734 7776 0
-119 -7734 7735 0
-7735 7777 0
-121 -7735 7736 0
-7736 7778 0
-123 -7736 7737 0
-7737 7779 0
-125 -7737 7738 0
-7738 7780 0
-127 -7738 7739 0
-7739 7781 0
-129 -7739 7740 0
-7740 7782 0
-5 -7740 7741 0
-7741 7783 0
-132 -7741 7742 0
-7742 7784 0
-134 -7742 0
-55 7743 0
-7743 7785 0
-57 -7743 7744 0
-7744 7786 0
-59 -7744 7745 0
-7745 7787 0
-61 -7745 7746 0
-7746 7788 0
-63 -7746 7747 0
-7747 7789 0
-65 -7747 7748 0
-7748 7790 0
-67 -7748 7749 0
-7749 7791 0
-69 -7749 7750 0
-7750 7792 0
-71 -7750 7751 0
-7751 7793 0
-3 -7751 7752 0
-7752 7794 0
-74 -7752 7753 0
-7753 7795 0
-76 -7753 7754 0
-7754 7796 0
-78 -7754 7755 0
-7755 7797 0
-80 -7755 7756 0
-7756 7798 0
-82 -7756 7757 0
-7757 7799 0
-84 -7757 7758 0
-7758 7800 0
-86 -7758 7759 0
-7759 7801 0
-88 -7759 7760 0
-7760 7802 0
-90 -7760 7761 0
-7761 7803 0
-92 -7761 7762 0
-7762 7804 0
-94 -7762 7763 0
-7763 7805 0
-96 -7763 7764 0
-7764 7806 0
-98 -7764 7765 0
-7765 7807 0
-100 -7765 7766 0
-7766 7808 0
-4 -7766 7767 0
-7767 7809 0
-103 -7767 7768 0
-7768 7810 0
-105 -7768 7769 0
-7769 7811 0
-107 -7769 7770 0
-7770 7812 0
-109 -7770 7771 0
-7771 7813 0
-111 -7771 7772 0
-7772 7814 0
-113 -7772 7773 0
-7773 7815 0
-115 -7773 7774 0
-7774 7816 0
-117 -7774 7775 0
-7775 7817 0
-119 -7775 7776 0
-7776 7818 0
-121 -7776 7777 0
-7777 7819 0
-123 -7777 7778 0
-7778 7820 0
-125 -7778 7779 0
-7779 7821 0
-127 -7779 7780 0
-7780 7822 0
-129 -7780 7781 0
-7781 7823 0
-5 -7781 7782 0
-7782 7824 0
-132 -7782 7783 0
-7783 7825 0
-134 -7783 7784 0
-7784 7826 0
-136 -7784 0
-57 7785 0
-7785 7827 0
-59 -7785 7786 0
-7786 7828 0
-61 -7786 7787 0
-7787 7829 0
-63 -7787 7788 0
-7788 7830 0
-65 -7788 7789 0
-7789 7831 0
-67 -7789 7790 0
-7790 7832 0
-69 -7790 7791 0
-7791 7833 0
-71 -7791 7792 0
-7792 7834 0
-3 -7792 7793 0
-7793 7835 0
-74 -7793 7794 0
-7794 7836 0
-76 -7794 7795 0
-7795 7837 0
-78 -7795 7796 0
-7796 7838 0
-80 -7796 7797 0
-7797 7839 0
-82 -7797 7798 0
-7798 7840 0
-84 -7798 7799 0
-7799 7841 0
-86 -7799 7800 0
-7800 7842 0
-88 -7800 7801 0
-7801 7843 0
-90 -7801 7802 0
-7802 7844 0
-92 -7802 7803 0
-7803 7845 0
-94 -7803 7804 0
-7804 7846 0
-96 -7804 7805 0
-7805 7847 0
-98 -7805 7806 0
-7806 7848 0
-100 -7806 7807 0
-7807 7849 0
-4 -7807 7808 0
-7808 7850 0
-103 -7808 7809 0
-7809 7851 0
-105 -7809 7810 0
-7810 7852 0
-107 -7810 7811 0
-7811 7853 0
-109 -7811 7812 0
-7812 7854 0
-111 -7812 7813 0
-7813 7855 0
-113 -7813 7814 0
-7814 7856 0
-115 -7814 7815 0
-7815 7857 0
-117 -7815 7816 0
-7816 7858 0
-119 -7816 7817 0
-7817 7859 0
-121 -7817 7818 0
-7818 7860 0
-123 -7818 7819 0
-7819 7861 0
-125 -7819 7820 0
-7820 7862 0
-127 -7820 7821 0
-7821 7863 0
-129 -7821 7822 0
-7822 7864 0
-5 -7822 7823 0
-7823 7865 0
-132 -7823 7824 0
-7824 7866 0
-134 -7824 7825 0
-7825 7867 0
-136 -7825 7826 0
-7826 7868 0
-138 -7826 0
-59 7827 0
-7827 7869 0
-61 -7827 7828 0
-7828 7870 0
-63 -7828 7829 0
-7829 7871 0
-65 -7829 7830 0
-7830 7872 0
-67 -7830 7831 0
-7831 7873 0
-69 -7831 7832 0
-7832 7874 0
-71 -7832 7833 0
-7833 7875 0
-3 -7833 7834 0
-7834 7876 0
-74 -7834 7835 0
-7835 7877 0
-76 -7835 7836 0
-7836 7878 0
-78 -7836 7837 0
-7837 7879 0
-80 -7837 7838 0
-7838 7880 0
-82 -7838 7839 0
-7839 7881 0
-84 -7839 7840 0
-7840 7882 0
-86 -7840 7841 0
-7841 7883 0
-88 -7841 7842 0
-7842 7884 0
-90 -7842 7843 0
-7843 7885 0
-92 -7843 7844 0
-7844 7886 0
-94 -7844 7845 0
-7845 7887 0
-96 -7845 7846 0
-7846 7888 0
-98 -7846 7847 0
-7847 7889 0
-100 -7847 7848 0
-7848 7890 0
-4 -7848 7849 0
-7849 7891 0
-103 -7849 7850 0
-7850 7892 0
-105 -7850 7851 0
-7851 7893 0
-107 -7851 7852 0
-7852 7894 0
-109 -7852 7853 0
-7853 7895 0
-111 -7853 7854 0
-7854 7896 0
-113 -7854 7855 0
-7855 7897 0
-115 -7855 7856 0
-7856 7898 0
-117 -7856 7857 0
-7857 7899 0
-119 -7857 7858 0
-7858 7900 0
-121 -7858 7859 0
-7859 7901 0
-123 -7859 7860 0
-7860 7902 0
-125 -7860 7861 0
-7861 7903 0
-127 -7861 7862 0
-7862 7904 0
-129 -7862 7863 0
-7863 7905 0
-5 -7863 7864 0
-7864 7906 0
-132 -7864 7865 0
-7865 7907 0
-134 -7865 7866 0
-7866 7908 0
-136 -7866 7867 0
-7867 7909 0
-138 -7867 7868 0
-7868 7910 0
-140 -7868 0
-61 7869 0
-7869 7911 0
-63 -7869 7870 0
-7870 7912 0
-65 -7870 7871 0
-7871 7913 0
-67 -7871 7872 0
-7872 7914 0
-69 -7872 7873 0
-7873 7915 0
-71 -7873 7874 0
-7874 7916 0
-3 -7874 7875 0
-7875 7917 0
-74 -7875 7876 0
-7876 7918 0
-76 -7876 7877 0
-7877 7919 0
-78 -7877 7878 0
-7878 7920 0
-80 -7878 7879 0
-7879 7921 0
-82 -7879 7880 0
-7880 7922 0
-84 -7880 7881 0
-7881 7923 0
-86 -7881 7882 0
-7882 7924 0
-88 -7882 7883 0
-7883 7925 0
-90 -7883 7884 0
-7884 7926 0
-92 -7884 7885 0
-7885 7927 0
-94 -7885 7886 0
-7886 7928 0
-96 -7886 7887 0
-7887 7929 0
-98 -7887 7888 0
-7888 7930 0
-100 -7888 7889 0
-7889 7931 0
-4 -7889 7890 0
-7890 7932 0
-103 -7890 7891 0
-7891 7933 0
-105 -7891 7892 0
-7892 7934 0
-107 -7892 7893 0
-7893 7935 0
-109 -7893 7894 0
-7894 7936 0
-111 -7894 7895 0
-7895 7937 0
-113 -7895 7896 0
-7896 7938 0
-115 -7896 7897 0
-7897 7939 0
-117 -7897 7898 0
-7898 7940 0
-119 -7898 7899 0
-7899 7941 0
-121 -7899 7900 0
-7900 7942 0
-123 -7900 7901 0
-7901 7943 0
-125 -7901 7902 0
-7902 7944 0
-127 -7902 7903 0
-7903 7945 0
-129 -7903 7904 0
-7904 7946 0
-5 -7904 7905 0
-7905 7947 0
-132 -7905 7906 0
-7906 7948 0
-134 -7906 7907 0
-7907 7949 0
-136 -7907 7908 0
-7908 7950 0
-138 -7908 7909 0
-7909 7951 0
-140 -7909 7910 0
-7910 7952 0
-142 -7910 0
-63 7911 0
-7911 7953 0
-65 -7911 7912 0
-7912 7954 0
-67 -7912 7913 0
-7913 7955 0
-69 -7913 7914 0
-7914 7956 0
-71 -7914 7915 0
-7915 7957 0
-3 -7915 7916 0
-7916 7958 0
-74 -7916 7917 0
-7917 7959 0
-76 -7917 7918 0
-7918 7960 0
-78 -7918 7919 0
-7919 7961 0
-80 -7919 7920 0
-7920 7962 0
-82 -7920 7921 0
-7921 7963 0
-84 -7921 7922 0
-7922 7964 0
-86 -7922 7923 0
-7923 7965 0
-88 -7923 7924 0
-7924 7966 0
-90 -7924 7925 0
-7925 7967 0
-92 -7925 7926 0
-7926 7968 0
-94 -7926 7927 0
-7927 7969 0
-96 -7927 7928 0
-7928 7970 0
-98 -7928 7929 0
-7929 7971 0
-100 -7929 7930 0
-7930 7972 0
-4 -7930 7931 0
-7931 7973 0
-103 -7931 7932 0
-7932 7974 0
-105 -7932 7933 0
-7933 7975 0
-107 -7933 7934 0
-7934 7976 0
-109 -7934 7935 0
-7935 7977 0
-111 -7935 7936 0
-7936 7978 0
-113 -7936 7937 0
-7937 7979 0
-115 -7937 7938 0
-7938 7980 0
-117 -7938 7939 0
-7939 7981 0
-119 -7939 7940 0
-7940 7982 0
-121 -7940 7941 0
-7941 7983 0
-123 -7941 7942 0
-7942 7984 0
-125 -7942 7943 0
-7943 7985 0
-127 -7943 7944 0
-7944 7986 0
-129 -7944 7945 0
-7945 7987 0
-5 -7945 7946 0
-7946 7988 0
-132 -7946 7947 0
-7947 7989 0
-134 -7947 7948 0
-7948 7990 0
-136 -7948 7949 0
-7949 7991 0
-138 -7949 7950 0
-7950 7992 0
-140 -7950 7951 0
-7951 7993 0
-142 -7951 7952 0
-7952 7994 0
-144 -7952 0
-65 7953 0
-7953 7995 0
-67 -7953 7954 0
-7954 7996 0
-69 -7954 7955 0
-7955 7997 0
-71 -7955 7956 0
-7956 7998 0
-3 -7956 7957 0
-7957 7999 0
-74 -7957 7958 0
-7958 8000 0
-76 -7958 7959 0
-7959 8001 0
-78 -7959 7960 0
-7960 8002 0
-80 -7960 7961 0
-7961 8003 0
-82 -7961 7962 0
-7962 8004 0
-84 -7962 7963 0
-7963 8005 0
-86 -7963 7964 0
-7964 8006 0
-88 -7964 7965 0
-7965 8007 0
-90 -7965 7966 0
-7966 8008 0
-92 -7966 7967 0
-7967 8009 0
-94 -7967 7968 0
-7968 8010 0
-96 -7968 7969 0
-7969 8011 0
-98 -7969 7970 0
-7970 8012 0
-100 -7970 7971 0
-7971 8013 0
-4 -7971 7972 0
-7972 8014 0
-103 -7972 7973 0
-7973 8015 0
-105 -7973 7974 0
-7974 8016 0
-107 -7974 7975 0
-7975 8017 0
-109 -7975 7976 0
-7976 8018 0
-111 -7976 7977 0
-7977 8019 0
-113 -7977 7978 0
-7978 8020 0
-115 -7978 7979 0
-7979 8021 0
-117 -7979 7980 0
-7980 8022 0
-119 -7980 7981 0
-7981 8023 0
-121 -7981 7982 0
-7982 8024 0
-123 -7982 7983 0
-7983 8025 0
-125 -7983 7984 0
-7984 8026 0
-127 -7984 7985 0
-7985 8027 0
-129 -7985 7986 0
-7986 8028 0
-5 -7986 7987 0
-7987 8029 0
-132 -7987 7988 0
-7988 8030 0
-134 -7988 7989 0
-7989 8031 0
-136 -7989 7990 0
-7990 8032 0
-138 -7990 7991 0
-7991 8033 0
-140 -7991 7992 0
-7992 8034 0
-142 -7992 7993 0
-7993 8035 0
-144 -7993 7994 0
-7994 8036 0
-146 -7994 0
-67 7995 0
-7995 8037 0
-69 -7995 7996 0
-7996 8038 0
-71 -7996 7997 0
-7997 8039 0
-3 -7997 7998 0
-7998 8040 0
-74 -7998 7999 0
-7999 8041 0
-76 -7999 8000 0
-8000 8042 0
-78 -8000 8001 0
-8001 8043 0
-80 -8001 8002 0
-8002 8044 0
-82 -8002 8003 0
-8003 8045 0
-84 -8003 8004 0
-8004 8046 0
-86 -8004 8005 0
-8005 8047 0
-88 -8005 8006 0
-8006 8048 0
-90 -8006 8007 0
-8007 8049 0
-92 -8007 8008 0
-8008 8050 0
-94 -8008 8009 0
-8009 8051 0
-96 -8009 8010 0
-8010 8052 0
-98 -8010 8011 0
-8011 8053 0
-100 -8011 8012 0
-8012 8054 0
-4 -8012 8013 0
-8013 8055 0
-103 -8013 8014 0
-8014 8056 0
-105 -8014 8015 0
-8015 8057 0
-107 -8015 8016 0
-8016 8058 0
-109 -8016 8017 0
-8017 8059 0
-111 -8017 8018 0
-8018 8060 0
-113 -8018 8019 0
-8019 8061 0
-115 -8019 8020 0
-8020 8062 0
-117 -8020 8021 0
-8021 8063 0
-119 -8021 8022 0
-8022 8064 0
-121 -8022 8023 0
-8023 8065 0
-123 -8023 8024 0
-8024 8066 0
-125 -8024 8025 0
-8025 8067 0
-127 -8025 8026 0
-8026 8068 0
-129 -8026 8027 0
-8027 8069 0
-5 -8027 8028 0
-8028 8070 0
-132 -8028 8029 0
-8029 8071 0
-134 -8029 8030 0
-8030 8072 0
-136 -8030 8031 0
-8031 8073 0
-138 -8031 8032 0
-8032 8074 0
-140 -8032 8033 0
-8033 8075 0
-142 -8033 8034 0
-8034 8076 0
-144 -8034 8035 0
-8035 8077 0
-146 -8035 8036 0
-8036 8078 0
-148 -8036 0
-69 8037 0
-8037 8079 0
-71 -8037 8038 0
-8038 8080 0
-3 -8038 8039 0
-8039 8081 0
-74 -8039 8040 0
-8040 8082 0
-76 -8040 8041 0
-8041 8083 0
-78 -8041 8042 0
-8042 8084 0
-80 -8042 8043 0
-8043 8085 0
-82 -8043 8044 0
-8044 8086 0
-84 -8044 8045 0
-8045 8087 0
-86 -8045 8046 0
-8046 8088 0
-88 -8046 8047 0
-8047 8089 0
-90 -8047 8048 0
-8048 8090 0
-92 -8048 8049 0
-8049 8091 0
-94 -8049 8050 0
-8050 8092 0
-96 -8050 8051 0
-8051 8093 0
-98 -8051 8052 0
-8052 8094 0
-100 -8052 8053 0
-8053 8095 0
-4 -8053 8054 0
-8054 8096 0
-103 -8054 8055 0
-8055 8097 0
-105 -8055 8056 0
-8056 8098 0
-107 -8056 8057 0
-8057 8099 0
-109 -8057 8058 0
-8058 8100 0
-111 -8058 8059 0
-8059 8101 0
-113 -8059 8060 0
-8060 8102 0
-115 -8060 8061 0
-8061 8103 0
-117 -8061 8062 0
-8062 8104 0
-119 -8062 8063 0
-8063 8105 0
-121 -8063 8064 0
-8064 8106 0
-123 -8064 8065 0
-8065 8107 0
-125 -8065 8066 0
-8066 8108 0
-127 -8066 8067 0
-8067 8109 0
-129 -8067 8068 0
-8068 8110 0
-5 -8068 8069 0
-8069 8111 0
-132 -8069 8070 0
-8070 8112 0
-134 -8070 8071 0
-8071 8113 0
-136 -8071 8072 0
-8072 8114 0
-138 -8072 8073 0
-8073 8115 0
-140 -8073 8074 0
-8074 8116 0
-142 -8074 8075 0
-8075 8117 0
-144 -8075 8076 0
-8076 8118 0
-146 -8076 8077 0
-8077 8119 0
-148 -8077 8078 0
-8078 8120 0
-150 -8078 0
-71 8079 0
-8079 8121 0
-3 -8079 8080 0
-8080 8122 0
-74 -8080 8081 0
-8081 8123 0
-76 -8081 8082 0
-8082 8124 0
-78 -8082 8083 0
-8083 8125 0
-80 -8083 8084 0
-8084 8126 0
-82 -8084 8085 0
-8085 8127 0
-84 -8085 8086 0
-8086 8128 0
-86 -8086 8087 0
-8087 8129 0
-88 -8087 8088 0
-8088 8130 0
-90 -8088 8089 0
-8089 8131 0
-92 -8089 8090 0
-8090 8132 0
-94 -8090 8091 0
-8091 8133 0
-96 -8091 8092 0
-8092 8134 0
-98 -8092 8093 0
-8093 8135 0
-100 -8093 8094 0
-8094 8136 0
-4 -8094 8095 0
-8095 8137 0
-103 -8095 8096 0
-8096 8138 0
-105 -8096 8097 0
-8097 8139 0
-107 -8097 8098 0
-8098 8140 0
-109 -8098 8099 0
-8099 8141 0
-111 -8099 8100 0
-8100 8142 0
-113 -8100 8101 0
-8101 8143 0
-115 -8101 8102 0
-8102 8144 0
-117 -8102 8103 0
-8103 8145 0
-119 -8103 8104 0
-8104 8146 0
-121 -8104 8105 0
-8105 8147 0
-123 -8105 8106 0
-8106 8148 0
-125 -8106 8107 0
-8107 8149 0
-127 -8107 8108 0
-8108 8150 0
-129 -8108 8109 0
-8109 8151 0
-5 -8109 8110 0
-8110 8152 0
-132 -8110 8111 0
-8111 8153 0
-134 -8111 8112 0
-8112 8154 0
-136 -8112 8113 0
-8113 8155 0
-138 -8113 8114 0
-8114 8156 0
-140 -8114 8115 0
-8115 8157 0
-142 -8115 8116 0
-8116 8158 0
-144 -8116 8117 0
-8117 8159 0
-146 -8117 8118 0
-8118 8160 0
-148 -8118 8119 0
-8119 8161 0
-150 -8119 8120 0
-8120 8162 0
-152 -8120 0
-3 8121 0
-8121 8163 0
-74 -8121 8122 0
-8122 8164 0
-76 -8122 8123 0
-8123 8165 0
-78 -8123 8124 0
-8124 8166 0
-80 -8124 8125 0
-8125 8167 0
-82 -8125 8126 0
-8126 8168 0
-84 -8126 8127 0
-8127 8169 0
-86 -8127 8128 0
-8128 8170 0
-88 -8128 8129 0
-8129 8171 0
-90 -8129 8130 0
-8130 8172 0
-92 -8130 8131 0
-8131 8173 0
-94 -8131 8132 0
-8132 8174 0
-96 -8132 8133 0
-8133 8175 0
-98 -8133 8134 0
-8134 8176 0
-100 -8134 8135 0
-8135 8177 0
-4 -8135 8136 0
-8136 8178 0
-103 -8136 8137 0
-8137 8179 0
-105 -8137 8138 0
-8138 8180 0
-107 -8138 8139 0
-8139 8181 0
-109 -8139 8140 0
-8140 8182 0
-111 -8140 8141 0
-8141 8183 0
-113 -8141 8142 0
-8142 8184 0
-115 -8142 8143 0
-8143 8185 0
-117 -8143 8144 0
-8144 8186 0
-119 -8144 8145 0
-8145 8187 0
-121 -8145 8146 0
-8146 8188 0
-123 -8146 8147 0
-8147 8189 0
-125 -8147 8148 0
-8148 8190 0
-127 -8148 8149 0
-8149 8191 0
-129 -8149 8150 0
-8150 8192 0
-5 -8150 8151 0
-8151 8193 0
-132 -8151 8152 0
-8152 8194 0
-134 -8152 8153 0
-8153 8195 0
-136 -8153 8154 0
-8154 8196 0
-138 -8154 8155 0
-8155 8197 0
-140 -8155 8156 0
-8156 8198 0
-142 -8156 8157 0
-8157 8199 0
-144 -8157 8158 0
-8158 8200 0
-146 -8158 8159 0
-8159 8201 0
-148 -8159 8160 0
-8160 8202 0
-150 -8160 8161 0
-8161 8203 0
-152 -8161 8162 0
-8162 8204 0
-154 -8162 0
-74 8163 0
-8163 8205 0
-76 -8163 8164 0
-8164 8206 0
-78 -8164 8165 0
-8165 8207 0
-80 -8165 8166 0
-8166 8208 0
-82 -8166 8167 0
-8167 8209 0
-84 -8167 8168 0
-8168 8210 0
-86 -8168 8169 0
-8169 8211 0
-88 -8169 8170 0
-8170 8212 0
-90 -8170 8171 0
-8171 8213 0
-92 -8171 8172 0
-8172 8214 0
-94 -8172 8173 0
-8173 8215 0
-96 -8173 8174 0
-8174 8216 0
-98 -8174 8175 0
-8175 8217 0
-100 -8175 8176 0
-8176 8218 0
-4 -8176 8177 0
-8177 8219 0
-103 -8177 8178 0
-8178 8220 0
-105 -8178 8179 0
-8179 8221 0
-107 -8179 8180 0
-8180 8222 0
-109 -8180 8181 0
-8181 8223 0
-111 -8181 8182 0
-8182 8224 0
-113 -8182 8183 0
-8183 8225 0
-115 -8183 8184 0
-8184 8226 0
-117 -8184 8185 0
-8185 8227 0
-119 -8185 8186 0
-8186 8228 0
-121 -8186 8187 0
-8187 8229 0
-123 -8187 8188 0
-8188 8230 0
-125 -8188 8189 0
-8189 8231 0
-127 -8189 8190 0
-8190 8232 0
-129 -8190 8191 0
-8191 8233 0
-5 -8191 8192 0
-8192 8234 0
-132 -8192 8193 0
-8193 8235 0
-134 -8193 8194 0
-8194 8236 0
-136 -8194 8195 0
-8195 8237 0
-138 -8195 8196 0
-8196 8238 0
-140 -8196 8197 0
-8197 8239 0
-142 -8197 8198 0
-8198 8240 0
-144 -8198 8199 0
-8199 8241 0
-146 -8199 8200 0
-8200 8242 0
-148 -8200 8201 0
-8201 8243 0
-150 -8201 8202 0
-8202 8244 0
-152 -8202 8203 0
-8203 8245 0
-154 -8203 8204 0
-8204 8246 0
-156 -8204 0
-76 8205 0
-8205 8247 0
-78 -8205 8206 0
-8206 8248 0
-80 -8206 8207 0
-8207 8249 0
-82 -8207 8208 0
-8208 8250 0
-84 -8208 8209 0
-8209 8251 0
-86 -8209 8210 0
-8210 8252 0
-88 -8210 8211 0
-8211 8253 0
-90 -8211 8212 0
-8212 8254 0
-92 -8212 8213 0
-8213 8255 0
-94 -8213 8214 0
-8214 8256 0
-96 -8214 8215 0
-8215 8257 0
-98 -8215 8216 0
-8216 8258 0
-100 -8216 8217 0
-8217 8259 0
-4 -8217 8218 0
-8218 8260 0
-103 -8218 8219 0
-8219 8261 0
-105 -8219 8220 0
-8220 8262 0
-107 -8220 8221 0
-8221 8263 0
-109 -8221 8222 0
-8222 8264 0
-111 -8222 8223 0
-8223 8265 0
-113 -8223 8224 0
-8224 8266 0
-115 -8224 8225 0
-8225 8267 0
-117 -8225 8226 0
-8226 8268 0
-119 -8226 8227 0
-8227 8269 0
-121 -8227 8228 0
-8228 8270 0
-123 -8228 8229 0
-8229 8271 0
-125 -8229 8230 0
-8230 8272 0
-127 -8230 8231 0
-8231 8273 0
-129 -8231 8232 0
-8232 8274 0
-5 -8232 8233 0
-8233 8275 0
-132 -8233 8234 0
-8234 8276 0
-134 -8234 8235 0
-8235 8277 0
-136 -8235 8236 0
-8236 8278 0
-138 -8236 8237 0
-8237 8279 0
-140 -8237 8238 0
-8238 8280 0
-142 -8238 8239 0
-8239 8281 0
-144 -8239 8240 0
-8240 8282 0
-146 -8240 8241 0
-8241 8283 0
-148 -8241 8242 0
-8242 8284 0
-150 -8242 8243 0
-8243 8285 0
-152 -8243 8244 0
-8244 8286 0
-154 -8244 8245 0
-8245 8287 0
-156 -8245 8246 0
-8246 8288 0
-158 -8246 0
-78 8247 0
-8247 8289 0
-80 -8247 8248 0
-8248 8290 0
-82 -8248 8249 0
-8249 8291 0
-84 -8249 8250 0
-8250 8292 0
-86 -8250 8251 0
-8251 8293 0
-88 -8251 8252 0
-8252 8294 0
-90 -8252 8253 0
-8253 8295 0
-92 -8253 8254 0
-8254 8296 0
-94 -8254 8255 0
-8255 8297 0
-96 -8255 8256 0
-8256 8298 0
-98 -8256 8257 0
-8257 8299 0
-100 -8257 8258 0
-8258 8300 0
-4 -8258 8259 0
-8259 8301 0
-103 -8259 8260 0
-8260 8302 0
-105 -8260 8261 0
-8261 8303 0
-107 -8261 8262 0
-8262 8304 0
-109 -8262 8263 0
-8263 8305 0
-111 -8263 8264 0
-8264 8306 0
-113 -8264 8265 0
-8265 8307 0
-115 -8265 8266 0
-8266 8308 0
-117 -8266 8267 0
-8267 8309 0
-119 -8267 8268 0
-8268 8310 0
-121 -8268 8269 0
-8269 8311 0
-123 -8269 8270 0
-8270 8312 0
-125 -8270 8271 0
-8271 8313 0
-127 -8271 8272 0
-8272 8314 0
-129 -8272 8273 0
-8273 8315 0
-5 -8273 8274 0
-8274 8316 0
-132 -8274 8275 0
-8275 8317 0
-134 -8275 8276 0
-8276 8318 0
-136 -8276 8277 0
-8277 8319 0
-138 -8277 8278 0
-8278 8320 0
-140 -8278 8279 0
-8279 8321 0
-142 -8279 8280 0
-8280 8322 0
-144 -8280 8281 0
-8281 8323 0
-146 -8281 8282 0
-8282 8324 0
-148 -8282 8283 0
-8283 8325 0
-150 -8283 8284 0
-8284 8326 0
-152 -8284 8285 0
-8285 8327 0
-154 -8285 8286 0
-8286 8328 0
-156 -8286 8287 0
-8287 8329 0
-158 -8287 8288 0
-8288 8330 0
-6 -8288 0
-80 8289 0
-8289 8331 0
-82 -8289 8290 0
-8290 8332 0
-84 -8290 8291 0
-8291 8333 0
-86 -8291 8292 0
-8292 8334 0
-88 -8292 8293 0
-8293 8335 0
-90 -8293 8294 0
-8294 8336 0
-92 -8294 8295 0
-8295 8337 0
-94 -8295 8296 0
-8296 8338 0
-96 -8296 8297 0
-8297 8339 0
-98 -8297 8298 0
-8298 8340 0
-100 -8298 8299 0
-8299 8341 0
-4 -8299 8300 0
-8300 8342 0
-103 -8300 8301 0
-8301 8343 0
-105 -8301 8302 0
-8302 8344 0
-107 -8302 8303 0
-8303 8345 0
-109 -8303 8304 0
-8304 8346 0
-111 -8304 8305 0
-8305 8347 0
-113 -8305 8306 0
-8306 8348 0
-115 -8306 8307 0
-8307 8349 0
-117 -8307 8308 0
-8308 8350 0
-119 -8308 8309 0
-8309 8351 0
-121 -8309 8310 0
-8310 8352 0
-123 -8310 8311 0
-8311 8353 0
-125 -8311 8312 0
-8312 8354 0
-127 -8312 8313 0
-8313 8355 0
-129 -8313 8314 0
-8314 8356 0
-5 -8314 8315 0
-8315 8357 0
-132 -8315 8316 0
-8316 8358 0
-134 -8316 8317 0
-8317 8359 0
-136 -8317 8318 0
-8318 8360 0
-138 -8318 8319 0
-8319 8361 0
-140 -8319 8320 0
-8320 8362 0
-142 -8320 8321 0
-8321 8363 0
-144 -8321 8322 0
-8322 8364 0
-146 -8322 8323 0
-8323 8365 0
-148 -8323 8324 0
-8324 8366 0
-150 -8324 8325 0
-8325 8367 0
-152 -8325 8326 0
-8326 8368 0
-154 -8326 8327 0
-8327 8369 0
-156 -8327 8328 0
-8328 8370 0
-158 -8328 8329 0
-8329 8371 0
-6 -8329 8330 0
-8330 8372 0
-161 -8330 0
-82 8331 0
-8331 8373 0
-84 -8331 8332 0
-8332 8374 0
-86 -8332 8333 0
-8333 8375 0
-88 -8333 8334 0
-8334 8376 0
-90 -8334 8335 0
-8335 8377 0
-92 -8335 8336 0
-8336 8378 0
-94 -8336 8337 0
-8337 8379 0
-96 -8337 8338 0
-8338 8380 0
-98 -8338 8339 0
-8339 8381 0
-100 -8339 8340 0
-8340 8382 0
-4 -8340 8341 0
-8341 8383 0
-103 -8341 8342 0
-8342 8384 0
-105 -8342 8343 0
-8343 8385 0
-107 -8343 8344 0
-8344 8386 0
-109 -8344 8345 0
-8345 8387 0
-111 -8345 8346 0
-8346 8388 0
-113 -8346 8347 0
-8347 8389 0
-115 -8347 8348 0
-8348 8390 0
-117 -8348 8349 0
-8349 8391 0
-119 -8349 8350 0
-8350 8392 0
-121 -8350 8351 0
-8351 8393 0
-123 -8351 8352 0
-8352 8394 0
-125 -8352 8353 0
-8353 8395 0
-127 -8353 8354 0
-8354 8396 0
-129 -8354 8355 0
-8355 8397 0
-5 -8355 8356 0
-8356 8398 0
-132 -8356 8357 0
-8357 8399 0
-134 -8357 8358 0
-8358 8400 0
-136 -8358 8359 0
-8359 8401 0
-138 -8359 8360 0
-8360 8402 0
-140 -8360 8361 0
-8361 8403 0
-142 -8361 8362 0
-8362 8404 0
-144 -8362 8363 0
-8363 8405 0
-146 -8363 8364 0
-8364 8406 0
-148 -8364 8365 0
-8365 8407 0
-150 -8365 8366 0
-8366 8408 0
-152 -8366 8367 0
-8367 8409 0
-154 -8367 8368 0
-8368 8410 0
-156 -8368 8369 0
-8369 8411 0
-158 -8369 8370 0
-8370 8412 0
-6 -8370 8371 0
-8371 8413 0
-161 -8371 8372 0
-8372 8414 0
-163 -8372 0
-84 8373 0
-8373 8415 0
-86 -8373 8374 0
-8374 8416 0
-88 -8374 8375 0
-8375 8417 0
-90 -8375 8376 0
-8376 8418 0
-92 -8376 8377 0
-8377 8419 0
-94 -8377 8378 0
-8378 8420 0
-96 -8378 8379 0
-8379 8421 0
-98 -8379 8380 0
-8380 8422 0
-100 -8380 8381 0
-8381 8423 0
-4 -8381 8382 0
-8382 8424 0
-103 -8382 8383 0
-8383 8425 0
-105 -8383 8384 0
-8384 8426 0
-107 -8384 8385 0
-8385 8427 0
-109 -8385 8386 0
-8386 8428 0
-111 -8386 8387 0
-8387 8429 0
-113 -8387 8388 0
-8388 8430 0
-115 -8388 8389 0
-8389 8431 0
-117 -8389 8390 0
-8390 8432 0
-119 -8390 8391 0
-8391 8433 0
-121 -8391 8392 0
-8392 8434 0
-123 -8392 8393 0
-8393 8435 0
-125 -8393 8394 0
-8394 8436 0
-127 -8394 8395 0
-8395 8437 0
-129 -8395 8396 0
-8396 8438 0
-5 -8396 8397 0
-8397 8439 0
-132 -8397 8398 0
-8398 8440 0
-134 -8398 8399 0
-8399 8441 0
-136 -8399 8400 0
-8400 8442 0
-138 -8400 8401 0
-8401 8443 0
-140 -8401 8402 0
-8402 8444 0
-142 -8402 8403 0
-8403 8445 0
-144 -8403 8404 0
-8404 8446 0
-146 -8404 8405 0
-8405 8447 0
-148 -8405 8406 0
-8406 8448 0
-150 -8406 8407 0
-8407 8449 0
-152 -8407 8408 0
-8408 8450 0
-154 -8408 8409 0
-8409 8451 0
-156 -8409 8410 0
-8410 8452 0
-158 -8410 8411 0
-8411 8453 0
-6 -8411 8412 0
-8412 8454 0
-161 -8412 8413 0
-8413 8455 0
-163 -8413 8414 0
-8414 8456 0
-165 -8414 0
-86 8415 0
-8415 8457 0
-88 -8415 8416 0
-8416 8458 0
-90 -8416 8417 0
-8417 8459 0
-92 -8417 8418 0
-8418 8460 0
-94 -8418 8419 0
-8419 8461 0
-96 -8419 8420 0
-8420 8462 0
-98 -8420 8421 0
-8421 8463 0
-100 -8421 8422 0
-8422 8464 0
-4 -8422 8423 0
-8423 8465 0
-103 -8423 8424 0
-8424 8466 0
-105 -8424 8425 0
-8425 8467 0
-107 -8425 8426 0
-8426 8468 0
-109 -8426 8427 0
-8427 8469 0
-111 -8427 8428 0
-8428 8470 0
-113 -8428 8429 0
-8429 8471 0
-115 -8429 8430 0
-8430 8472 0
-117 -8430 8431 0
-8431 8473 0
-119 -8431 8432 0
-8432 8474 0
-121 -8432 8433 0
-8433 8475 0
-123 -8433 8434 0
-8434 8476 0
-125 -8434 8435 0
-8435 8477 0
-127 -8435 8436 0
-8436 8478 0
-129 -8436 8437 0
-8437 8479 0
-5 -8437 8438 0
-8438 8480 0
-132 -8438 8439 0
-8439 8481 0
-134 -8439 8440 0
-8440 8482 0
-136 -8440 8441 0
-8441 8483 0
-138 -8441 8442 0
-8442 8484 0
-140 -8442 8443 0
-8443 8485 0
-142 -8443 8444 0
-8444 8486 0
-144 -8444 8445 0
-8445 8487 0
-146 -8445 8446 0
-8446 8488 0
-148 -8446 8447 0
-8447 8489 0
-150 -8447 8448 0
-8448 8490 0
-152 -8448 8449 0
-8449 8491 0
-154 -8449 8450 0
-8450 8492 0
-156 -8450 8451 0
-8451 8493 0
-158 -8451 8452 0
-8452 8494 0
-6 -8452 8453 0
-8453 8495 0
-161 -8453 8454 0
-8454 8496 0
-163 -8454 8455 0
-8455 8497 0
-165 -8455 8456 0
-8456 8498 0
-167 -8456 0
-88 8457 0
-8457 8499 0
-90 -8457 8458 0
-8458 8500 0
-92 -8458 8459 0
-8459 8501 0
-94 -8459 8460 0
-8460 8502 0
-96 -8460 8461 0
-8461 8503 0
-98 -8461 8462 0
-8462 8504 0
-100 -8462 8463 0
-8463 8505 0
-4 -8463 8464 0
-8464 8506 0
-103 -8464 8465 0
-8465 8507 0
-105 -8465 8466 0
-8466 8508 0
-107 -8466 8467 0
-8467 8509 0
-109 -8467 8468 0
-8468 8510 0
-111 -8468 8469 0
-8469 8511 0
-113 -8469 8470 0
-8470 8512 0
-115 -8470 8471 0
-8471 8513 0
-117 -8471 8472 0
-8472 8514 0
-119 -8472 8473 0
-8473 8515 0
-121 -8473 8474 0
-8474 8516 0
-123 -8474 8475 0
-8475 8517 0
-125 -8475 8476 0
-8476 8518 0
-127 -8476 8477 0
-8477 8519 0
-129 -8477 8478 0
-8478 8520 0
-5 -8478 8479 0
-8479 8521 0
-132 -8479 8480 0
-8480 8522 0
-134 -8480 8481 0
-8481 8523 0
-136 -8481 8482 0
-8482 8524 0
-138 -8482 8483 0
-8483 8525 0
-140 -8483 8484 0
-8484 8526 0
-142 -8484 8485 0
-8485 8527 0
-144 -8485 8486 0
-8486 8528 0
-146 -8486 8487 0
-8487 8529 0
-148 -8487 8488 0
-8488 8530 0
-150 -8488 8489 0
-8489 8531 0
-152 -8489 8490 0
-8490 8532 0
-154 -8490 8491 0
-8491 8533 0
-156 -8491 8492 0
-8492 8534 0
-158 -8492 8493 0
-8493 8535 0
-6 -8493 8494 0
-8494 8536 0
-161 -8494 8495 0
-8495 8537 0
-163 -8495 8496 0
-8496 8538 0
-165 -8496 8497 0
-8497 8539 0
-167 -8497 8498 0
-8498 8540 0
-169 -8498 0
-90 8499 0
-8499 8541 0
-92 -8499 8500 0
-8500 8542 0
-94 -8500 8501 0
-8501 8543 0
-96 -8501 8502 0
-8502 8544 0
-98 -8502 8503 0
-8503 8545 0
-100 -8503 8504 0
-8504 8546 0
-4 -8504 8505 0
-8505 8547 0
-103 -8505 8506 0
-8506 8548 0
-105 -8506 8507 0
-8507 8549 0
-107 -8507 8508 0
-8508 8550 0
-109 -8508 8509 0
-8509 8551 0
-111 -8509 8510 0
-8510 8552 0
-113 -8510 8511 0
-8511 8553 0
-115 -8511 8512 0
-8512 8554 0
-117 -8512 8513 0
-8513 8555 0
-119 -8513 8514 0
-8514 8556 0
-121 -8514 8515 0
-8515 8557 0
-123 -8515 8516 0
-8516 8558 0
-125 -8516 8517 0
-8517 8559 0
-127 -8517 8518 0
-8518 8560 0
-129 -8518 8519 0
-8519 8561 0
-5 -8519 8520 0
-8520 8562 0
-132 -8520 8521 0
-8521 8563 0
-134 -8521 8522 0
-8522 8564 0
-136 -8522 8523 0
-8523 8565 0
-138 -8523 8524 0
-8524 8566 0
-140 -8524 8525 0
-8525 8567 0
-142 -8525 8526 0
-8526 8568 0
-144 -8526 8527 0
-8527 8569 0
-146 -8527 8528 0
-8528 8570 0
-148 -8528 8529 0
-8529 8571 0
-150 -8529 8530 0
-8530 8572 0
-152 -8530 8531 0
-8531 8573 0
-154 -8531 8532 0
-8532 8574 0
-156 -8532 8533 0
-8533 8575 0
-158 -8533 8534 0
-8534 8576 0
-6 -8534 8535 0
-8535 8577 0
-161 -8535 8536 0
-8536 8578 0
-163 -8536 8537 0
-8537 8579 0
-165 -8537 8538 0
-8538 8580 0
-167 -8538 8539 0
-8539 8581 0
-169 -8539 8540 0
-8540 8582 0
-171 -8540 0
-92 8541 0
-8541 8583 0
-94 -8541 8542 0
-8542 8584 0
-96 -8542 8543 0
-8543 8585 0
-98 -8543 8544 0
-8544 8586 0
-100 -8544 8545 0
-8545 8587 0
-4 -8545 8546 0
-8546 8588 0
-103 -8546 8547 0
-8547 8589 0
-105 -8547 8548 0
-8548 8590 0
-107 -8548 8549 0
-8549 8591 0
-109 -8549 8550 0
-8550 8592 0
-111 -8550 8551 0
-8551 8593 0
-113 -8551 8552 0
-8552 8594 0
-115 -8552 8553 0
-8553 8595 0
-117 -8553 8554 0
-8554 8596 0
-119 -8554 8555 0
-8555 8597 0
-121 -8555 8556 0
-8556 8598 0
-123 -8556 8557 0
-8557 8599 0
-125 -8557 8558 0
-8558 8600 0
-127 -8558 8559 0
-8559 8601 0
-129 -8559 8560 0
-8560 8602 0
-5 -8560 8561 0
-8561 8603 0
-132 -8561 8562 0
-8562 8604 0
-134 -8562 8563 0
-8563 8605 0
-136 -8563 8564 0
-8564 8606 0
-138 -8564 8565 0
-8565 8607 0
-140 -8565 8566 0
-8566 8608 0
-142 -8566 8567 0
-8567 8609 0
-144 -8567 8568 0
-8568 8610 0
-146 -8568 8569 0
-8569 8611 0
-148 -8569 8570 0
-8570 8612 0
-150 -8570 8571 0
-8571 8613 0
-152 -8571 8572 0
-8572 8614 0
-154 -8572 8573 0
-8573 8615 0
-156 -8573 8574 0
-8574 8616 0
-158 -8574 8575 0
-8575 8617 0
-6 -8575 8576 0
-8576 8618 0
-161 -8576 8577 0
-8577 8619 0
-163 -8577 8578 0
-8578 8620 0
-165 -8578 8579 0
-8579 8621 0
-167 -8579 8580 0
-8580 8622 0
-169 -8580 8581 0
-8581 8623 0
-171 -8581 8582 0
-8582 8624 0
-173 -8582 0
-94 8583 0
-8583 8625 0
-96 -8583 8584 0
-8584 8626 0
-98 -8584 8585 0
-8585 8627 0
-100 -8585 8586 0
-8586 8628 0
-4 -8586 8587 0
-8587 8629 0
-103 -8587 8588 0
-8588 8630 0
-105 -8588 8589 0
-8589 8631 0
-107 -8589 8590 0
-8590 8632 0
-109 -8590 8591 0
-8591 8633 0
-111 -8591 8592 0
-8592 8634 0
-113 -8592 8593 0
-8593 8635 0
-115 -8593 8594 0
-8594 8636 0
-117 -8594 8595 0
-8595 8637 0
-119 -8595 8596 0
-8596 8638 0
-121 -8596 8597 0
-8597 8639 0
-123 -8597 8598 0
-8598 8640 0
-125 -8598 8599 0
-8599 8641 0
-127 -8599 8600 0
-8600 8642 0
-129 -8600 8601 0
-8601 8643 0
-5 -8601 8602 0
-8602 8644 0
-132 -8602 8603 0
-8603 8645 0
-134 -8603 8604 0
-8604 8646 0
-136 -8604 8605 0
-8605 8647 0
-138 -8605 8606 0
-8606 8648 0
-140 -8606 8607 0
-8607 8649 0
-142 -8607 8608 0
-8608 8650 0
-144 -8608 8609 0
-8609 8651 0
-146 -8609 8610 0
-8610 8652 0
-148 -8610 8611 0
-8611 8653 0
-150 -8611 8612 0
-8612 8654 0
-152 -8612 8613 0
-8613 8655 0
-154 -8613 8614 0
-8614 8656 0
-156 -8614 8615 0
-8615 8657 0
-158 -8615 8616 0
-8616 8658 0
-6 -8616 8617 0
-8617 8659 0
-161 -8617 8618 0
-8618 8660 0
-163 -8618 8619 0
-8619 8661 0
-165 -8619 8620 0
-8620 8662 0
-167 -8620 8621 0
-8621 8663 0
-169 -8621 8622 0
-8622 8664 0
-171 -8622 8623 0
-8623 8665 0
-173 -8623 8624 0
-8624 8666 0
-175 -8624 0
-96 8625 0
-8625 8667 0
-98 -8625 8626 0
-8626 8668 0
-100 -8626 8627 0
-8627 8669 0
-4 -8627 8628 0
-8628 8670 0
-103 -8628 8629 0
-8629 8671 0
-105 -8629 8630 0
-8630 8672 0
-107 -8630 8631 0
-8631 8673 0
-109 -8631 8632 0
-8632 8674 0
-111 -8632 8633 0
-8633 8675 0
-113 -8633 8634 0
-8634 8676 0
-115 -8634 8635 0
-8635 8677 0
-117 -8635 8636 0
-8636 8678 0
-119 -8636 8637 0
-8637 8679 0
-121 -8637 8638 0
-8638 8680 0
-123 -8638 8639 0
-8639 8681 0
-125 -8639 8640 0
-8640 8682 0
-127 -8640 8641 0
-8641 8683 0
-129 -8641 8642 0
-8642 8684 0
-5 -8642 8643 0
-8643 8685 0
-132 -8643 8644 0
-8644 8686 0
-134 -8644 8645 0
-8645 8687 0
-136 -8645 8646 0
-8646 8688 0
-138 -8646 8647 0
-8647 8689 0
-140 -8647 8648 0
-8648 8690 0
-142 -8648 8649 0
-8649 8691 0
-144 -8649 8650 0
-8650 8692 0
-146 -8650 8651 0
-8651 8693 0
-148 -8651 8652 0
-8652 8694 0
-150 -8652 8653 0
-8653 8695 0
-152 -8653 8654 0
-8654 8696 0
-154 -8654 8655 0
-8655 8697 0
-156 -8655 8656 0
-8656 8698 0
-158 -8656 8657 0
-8657 8699 0
-6 -8657 8658 0
-8658 8700 0
-161 -8658 8659 0
-8659 8701 0
-163 -8659 8660 0
-8660 8702 0
-165 -8660 8661 0
-8661 8703 0
-167 -8661 8662 0
-8662 8704 0
-169 -8662 8663 0
-8663 8705 0
-171 -8663 8664 0
-8664 8706 0
-173 -8664 8665 0
-8665 8707 0
-175 -8665 8666 0
-8666 8708 0
-177 -8666 0
-98 8667 0
-8667 8709 0
-100 -8667 8668 0
-8668 8710 0
-4 -8668 8669 0
-8669 8711 0
-103 -8669 8670 0
-8670 8712 0
-105 -8670 8671 0
-8671 8713 0
-107 -8671 8672 0
-8672 8714 0
-109 -8672 8673 0
-8673 8715 0
-111 -8673 8674 0
-8674 8716 0
-113 -8674 8675 0
-8675 8717 0
-115 -8675 8676 0
-8676 8718 0
-117 -8676 8677 0
-8677 8719 0
-119 -8677 8678 0
-8678 8720 0
-121 -8678 8679 0
-8679 8721 0
-123 -8679 8680 0
-8680 8722 0
-125 -8680 8681 0
-8681 8723 0
-127 -8681 8682 0
-8682 8724 0
-129 -8682 8683 0
-8683 8725 0
-5 -8683 8684 0
-8684 8726 0
-132 -8684 8685 0
-8685 8727 0
-134 -8685 8686 0
-8686 8728 0
-136 -8686 8687 0
-8687 8729 0
-138 -8687 8688 0
-8688 8730 0
-140 -8688 8689 0
-8689 8731 0
-142 -8689 8690 0
-8690 8732 0
-144 -8690 8691 0
-8691 8733 0
-146 -8691 8692 0
-8692 8734 0
-148 -8692 8693 0
-8693 8735 0
-150 -8693 8694 0
-8694 8736 0
-152 -8694 8695 0
-8695 8737 0
-154 -8695 8696 0
-8696 8738 0
-156 -8696 8697 0
-8697 8739 0
-158 -8697 8698 0
-8698 8740 0
-6 -8698 8699 0
-8699 8741 0
-161 -8699 8700 0
-8700 8742 0
-163 -8700 8701 0
-8701 8743 0
-165 -8701 8702 0
-8702 8744 0
-167 -8702 8703 0
-8703 8745 0
-169 -8703 8704 0
-8704 8746 0
-171 -8704 8705 0
-8705 8747 0
-173 -8705 8706 0
-8706 8748 0
-175 -8706 8707 0
-8707 8749 0
-177 -8707 8708 0
-8708 8750 0
-179 -8708 0
-100 8709 0
-8709 8751 0
-4 -8709 8710 0
-8710 8752 0
-103 -8710 8711 0
-8711 8753 0
-105 -8711 8712 0
-8712 8754 0
-107 -8712 8713 0
-8713 8755 0
-109 -8713 8714 0
-8714 8756 0
-111 -8714 8715 0
-8715 8757 0
-113 -8715 8716 0
-8716 8758 0
-115 -8716 8717 0
-8717 8759 0
-117 -8717 8718 0
-8718 8760 0
-119 -8718 8719 0
-8719 8761 0
-121 -8719 8720 0
-8720 8762 0
-123 -8720 8721 0
-8721 8763 0
-125 -8721 8722 0
-8722 8764 0
-127 -8722 8723 0
-8723 8765 0
-129 -8723 8724 0
-8724 8766 0
-5 -8724 8725 0
-8725 8767 0
-132 -8725 8726 0
-8726 8768 0
-134 -8726 8727 0
-8727 8769 0
-136 -8727 8728 0
-8728 8770 0
-138 -8728 8729 0
-8729 8771 0
-140 -8729 8730 0
-8730 8772 0
-142 -8730 8731 0
-8731 8773 0
-144 -8731 8732 0
-8732 8774 0
-146 -8732 8733 0
-8733 8775 0
-148 -8733 8734 0
-8734 8776 0
-150 -8734 8735 0
-8735 8777 0
-152 -8735 8736 0
-8736 8778 0
-154 -8736 8737 0
-8737 8779 0
-156 -8737 8738 0
-8738 8780 0
-158 -8738 8739 0
-8739 8781 0
-6 -8739 8740 0
-8740 8782 0
-161 -8740 8741 0
-8741 8783 0
-163 -8741 8742 0
-8742 8784 0
-165 -8742 8743 0
-8743 8785 0
-167 -8743 8744 0
-8744 8786 0
-169 -8744 8745 0
-8745 8787 0
-171 -8745 8746 0
-8746 8788 0
-173 -8746 8747 0
-8747 8789 0
-175 -8747 8748 0
-8748 8790 0
-177 -8748 8749 0
-8749 8791 0
-179 -8749 8750 0
-8750 8792 0
-181 -8750 0
-4 8751 0
-8751 8793 0
-103 -8751 8752 0
-8752 8794 0
-105 -8752 8753 0
-8753 8795 0
-107 -8753 8754 0
-8754 8796 0
-109 -8754 8755 0
-8755 8797 0
-111 -8755 8756 0
-8756 8798 0
-113 -8756 8757 0
-8757 8799 0
-115 -8757 8758 0
-8758 8800 0
-117 -8758 8759 0
-8759 8801 0
-119 -8759 8760 0
-8760 8802 0
-121 -8760 8761 0
-8761 8803 0
-123 -8761 8762 0
-8762 8804 0
-125 -8762 8763 0
-8763 8805 0
-127 -8763 8764 0
-8764 8806 0
-129 -8764 8765 0
-8765 8807 0
-5 -8765 8766 0
-8766 8808 0
-132 -8766 8767 0
-8767 8809 0
-134 -8767 8768 0
-8768 8810 0
-136 -8768 8769 0
-8769 8811 0
-138 -8769 8770 0
-8770 8812 0
-140 -8770 8771 0
-8771 8813 0
-142 -8771 8772 0
-8772 8814 0
-144 -8772 8773 0
-8773 8815 0
-146 -8773 8774 0
-8774 8816 0
-148 -8774 8775 0
-8775 8817 0
-150 -8775 8776 0
-8776 8818 0
-152 -8776 8777 0
-8777 8819 0
-154 -8777 8778 0
-8778 8820 0
-156 -8778 8779 0
-8779 8821 0
-158 -8779 8780 0
-8780 8822 0
-6 -8780 8781 0
-8781 8823 0
-161 -8781 8782 0
-8782 8824 0
-163 -8782 8783 0
-8783 8825 0
-165 -8783 8784 0
-8784 8826 0
-167 -8784 8785 0
-8785 8827 0
-169 -8785 8786 0
-8786 8828 0
-171 -8786 8787 0
-8787 8829 0
-173 -8787 8788 0
-8788 8830 0
-175 -8788 8789 0
-8789 8831 0
-177 -8789 8790 0
-8790 8832 0
-179 -8790 8791 0
-8791 8833 0
-181 -8791 8792 0
-8792 8834 0
-183 -8792 0
-103 8793 0
-8793 8835 0
-105 -8793 8794 0
-8794 8836 0
-107 -8794 8795 0
-8795 8837 0
-109 -8795 8796 0
-8796 8838 0
-111 -8796 8797 0
-8797 8839 0
-113 -8797 8798 0
-8798 8840 0
-115 -8798 8799 0
-8799 8841 0
-117 -8799 8800 0
-8800 8842 0
-119 -8800 8801 0
-8801 8843 0
-121 -8801 8802 0
-8802 8844 0
-123 -8802 8803 0
-8803 8845 0
-125 -8803 8804 0
-8804 8846 0
-127 -8804 8805 0
-8805 8847 0
-129 -8805 8806 0
-8806 8848 0
-5 -8806 8807 0
-8807 8849 0
-132 -8807 8808 0
-8808 8850 0
-134 -8808 8809 0
-8809 8851 0
-136 -8809 8810 0
-8810 8852 0
-138 -8810 8811 0
-8811 8853 0
-140 -8811 8812 0
-8812 8854 0
-142 -8812 8813 0
-8813 8855 0
-144 -8813 8814 0
-8814 8856 0
-146 -8814 8815 0
-8815 8857 0
-148 -8815 8816 0
-8816 8858 0
-150 -8816 8817 0
-8817 8859 0
-152 -8817 8818 0
-8818 8860 0
-154 -8818 8819 0
-8819 8861 0
-156 -8819 8820 0
-8820 8862 0
-158 -8820 8821 0
-8821 8863 0
-6 -8821 8822 0
-8822 8864 0
-161 -8822 8823 0
-8823 8865 0
-163 -8823 8824 0
-8824 8866 0
-165 -8824 8825 0
-8825 8867 0
-167 -8825 8826 0
-8826 8868 0
-169 -8826 8827 0
-8827 8869 0
-171 -8827 8828 0
-8828 8870 0
-173 -8828 8829 0
-8829 8871 0
-175 -8829 8830 0
-8830 8872 0
-177 -8830 8831 0
-8831 8873 0
-179 -8831 8832 0
-8832 8874 0
-181 -8832 8833 0
-8833 8875 0
-183 -8833 8834 0
-8834 8876 0
-185 -8834 0
-105 8835 0
-8835 8877 0
-107 -8835 8836 0
-8836 8878 0
-109 -8836 8837 0
-8837 8879 0
-111 -8837 8838 0
-8838 8880 0
-113 -8838 8839 0
-8839 8881 0
-115 -8839 8840 0
-8840 8882 0
-117 -8840 8841 0
-8841 8883 0
-119 -8841 8842 0
-8842 8884 0
-121 -8842 8843 0
-8843 8885 0
-123 -8843 8844 0
-8844 8886 0
-125 -8844 8845 0
-8845 8887 0
-127 -8845 8846 0
-8846 8888 0
-129 -8846 8847 0
-8847 8889 0
-5 -8847 8848 0
-8848 8890 0
-132 -8848 8849 0
-8849 8891 0
-134 -8849 8850 0
-8850 8892 0
-136 -8850 8851 0
-8851 8893 0
-138 -8851 8852 0
-8852 8894 0
-140 -8852 8853 0
-8853 8895 0
-142 -8853 8854 0
-8854 8896 0
-144 -8854 8855 0
-8855 8897 0
-146 -8855 8856 0
-8856 8898 0
-148 -8856 8857 0
-8857 8899 0
-150 -8857 8858 0
-8858 8900 0
-152 -8858 8859 0
-8859 8901 0
-154 -8859 8860 0
-8860 8902 0
-156 -8860 8861 0
-8861 8903 0
-158 -8861 8862 0
-8862 8904 0
-6 -8862 8863 0
-8863 8905 0
-161 -8863 8864 0
-8864 8906 0
-163 -8864 8865 0
-8865 8907 0
-165 -8865 8866 0
-8866 8908 0
-167 -8866 8867 0
-8867 8909 0
-169 -8867 8868 0
-8868 8910 0
-171 -8868 8869 0
-8869 8911 0
-173 -8869 8870 0
-8870 8912 0
-175 -8870 8871 0
-8871 8913 0
-177 -8871 8872 0
-8872 8914 0
-179 -8872 8873 0
-8873 8915 0
-181 -8873 8874 0
-8874 8916 0
-183 -8874 8875 0
-8875 8917 0
-185 -8875 8876 0
-8876 8918 0
-187 -8876 0
-107 8877 0
-8877 8919 0
-109 -8877 8878 0
-8878 8920 0
-111 -8878 8879 0
-8879 8921 0
-113 -8879 8880 0
-8880 8922 0
-115 -8880 8881 0
-8881 8923 0
-117 -8881 8882 0
-8882 8924 0
-119 -8882 8883 0
-8883 8925 0
-121 -8883 8884 0
-8884 8926 0
-123 -8884 8885 0
-8885 8927 0
-125 -8885 8886 0
-8886 8928 0
-127 -8886 8887 0
-8887 8929 0
-129 -8887 8888 0
-8888 8930 0
-5 -8888 8889 0
-8889 8931 0
-132 -8889 8890 0
-8890 8932 0
-134 -8890 8891 0
-8891 8933 0
-136 -8891 8892 0
-8892 8934 0
-138 -8892 8893 0
-8893 8935 0
-140 -8893 8894 0
-8894 8936 0
-142 -8894 8895 0
-8895 8937 0
-144 -8895 8896 0
-8896 8938 0
-146 -8896 8897 0
-8897 8939 0
-148 -8897 8898 0
-8898 8940 0
-150 -8898 8899 0
-8899 8941 0
-152 -8899 8900 0
-8900 8942 0
-154 -8900 8901 0
-8901 8943 0
-156 -8901 8902 0
-8902 8944 0
-158 -8902 8903 0
-8903 8945 0
-6 -8903 8904 0
-8904 8946 0
-161 -8904 8905 0
-8905 8947 0
-163 -8905 8906 0
-8906 8948 0
-165 -8906 8907 0
-8907 8949 0
-167 -8907 8908 0
-8908 8950 0
-169 -8908 8909 0
-8909 8951 0
-171 -8909 8910 0
-8910 8952 0
-173 -8910 8911 0
-8911 8953 0
-175 -8911 8912 0
-8912 8954 0
-177 -8912 8913 0
-8913 8955 0
-179 -8913 8914 0
-8914 8956 0
-181 -8914 8915 0
-8915 8957 0
-183 -8915 8916 0
-8916 8958 0
-185 -8916 8917 0
-8917 8959 0
-187 -8917 8918 0
-8918 8960 0
-7 -8918 0
-109 8919 0
-8919 8961 0
-111 -8919 8920 0
-8920 8962 0
-113 -8920 8921 0
-8921 8963 0
-115 -8921 8922 0
-8922 8964 0
-117 -8922 8923 0
-8923 8965 0
-119 -8923 8924 0
-8924 8966 0
-121 -8924 8925 0
-8925 8967 0
-123 -8925 8926 0
-8926 8968 0
-125 -8926 8927 0
-8927 8969 0
-127 -8927 8928 0
-8928 8970 0
-129 -8928 8929 0
-8929 8971 0
-5 -8929 8930 0
-8930 8972 0
-132 -8930 8931 0
-8931 8973 0
-134 -8931 8932 0
-8932 8974 0
-136 -8932 8933 0
-8933 8975 0
-138 -8933 8934 0
-8934 8976 0
-140 -8934 8935 0
-8935 8977 0
-142 -8935 8936 0
-8936 8978 0
-144 -8936 8937 0
-8937 8979 0
-146 -8937 8938 0
-8938 8980 0
-148 -8938 8939 0
-8939 8981 0
-150 -8939 8940 0
-8940 8982 0
-152 -8940 8941 0
-8941 8983 0
-154 -8941 8942 0
-8942 8984 0
-156 -8942 8943 0
-8943 8985 0
-158 -8943 8944 0
-8944 8986 0
-6 -8944 8945 0
-8945 8987 0
-161 -8945 8946 0
-8946 8988 0
-163 -8946 8947 0
-8947 8989 0
-165 -8947 8948 0
-8948 8990 0
-167 -8948 8949 0
-8949 8991 0
-169 -8949 8950 0
-8950 8992 0
-171 -8950 8951 0
-8951 8993 0
-173 -8951 8952 0
-8952 8994 0
-175 -8952 8953 0
-8953 8995 0
-177 -8953 8954 0
-8954 8996 0
-179 -8954 8955 0
-8955 8997 0
-181 -8955 8956 0
-8956 8998 0
-183 -8956 8957 0
-8957 8999 0
-185 -8957 8958 0
-8958 9000 0
-187 -8958 8959 0
-8959 9001 0
-7 -8959 8960 0
-8960 9002 0
-190 -8960 0
-111 8961 0
-8961 9003 0
-113 -8961 8962 0
-8962 9004 0
-115 -8962 8963 0
-8963 9005 0
-117 -8963 8964 0
-8964 9006 0
-119 -8964 8965 0
-8965 9007 0
-121 -8965 8966 0
-8966 9008 0
-123 -8966 8967 0
-8967 9009 0
-125 -8967 8968 0
-8968 9010 0
-127 -8968 8969 0
-8969 9011 0
-129 -8969 8970 0
-8970 9012 0
-5 -8970 8971 0
-8971 9013 0
-132 -8971 8972 0
-8972 9014 0
-134 -8972 8973 0
-8973 9015 0
-136 -8973 8974 0
-8974 9016 0
-138 -8974 8975 0
-8975 9017 0
-140 -8975 8976 0
-8976 9018 0
-142 -8976 8977 0
-8977 9019 0
-144 -8977 8978 0
-8978 9020 0
-146 -8978 8979 0
-8979 9021 0
-148 -8979 8980 0
-8980 9022 0
-150 -8980 8981 0
-8981 9023 0
-152 -8981 8982 0
-8982 9024 0
-154 -8982 8983 0
-8983 9025 0
-156 -8983 8984 0
-8984 9026 0
-158 -8984 8985 0
-8985 9027 0
-6 -8985 8986 0
-8986 9028 0
-161 -8986 8987 0
-8987 9029 0
-163 -8987 8988 0
-8988 9030 0
-165 -8988 8989 0
-8989 9031 0
-167 -8989 8990 0
-8990 9032 0
-169 -8990 8991 0
-8991 9033 0
-171 -8991 8992 0
-8992 9034 0
-173 -8992 8993 0
-8993 9035 0
-175 -8993 8994 0
-8994 9036 0
-177 -8994 8995 0
-8995 9037 0
-179 -8995 8996 0
-8996 9038 0
-181 -8996 8997 0
-8997 9039 0
-183 -8997 8998 0
-8998 9040 0
-185 -8998 8999 0
-8999 9041 0
-187 -8999 9000 0
-9000 9042 0
-7 -9000 9001 0
-9001 9043 0
-190 -9001 9002 0
-9002 9044 0
-192 -9002 0
-113 9003 0
-9003 9045 0
-115 -9003 9004 0
-9004 9046 0
-117 -9004 9005 0
-9005 9047 0
-119 -9005 9006 0
-9006 9048 0
-121 -9006 9007 0
-9007 9049 0
-123 -9007 9008 0
-9008 9050 0
-125 -9008 9009 0
-9009 9051 0
-127 -9009 9010 0
-9010 9052 0
-129 -9010 9011 0
-9011 9053 0
-5 -9011 9012 0
-9012 9054 0
-132 -9012 9013 0
-9013 9055 0
-134 -9013 9014 0
-9014 9056 0
-136 -9014 9015 0
-9015 9057 0
-138 -9015 9016 0
-9016 9058 0
-140 -9016 9017 0
-9017 9059 0
-142 -9017 9018 0
-9018 9060 0
-144 -9018 9019 0
-9019 9061 0
-146 -9019 9020 0
-9020 9062 0
-148 -9020 9021 0
-9021 9063 0
-150 -9021 9022 0
-9022 9064 0
-152 -9022 9023 0
-9023 9065 0
-154 -9023 9024 0
-9024 9066 0
-156 -9024 9025 0
-9025 9067 0
-158 -9025 9026 0
-9026 9068 0
-6 -9026 9027 0
-9027 9069 0
-161 -9027 9028 0
-9028 9070 0
-163 -9028 9029 0
-9029 9071 0
-165 -9029 9030 0
-9030 9072 0
-167 -9030 9031 0
-9031 9073 0
-169 -9031 9032 0
-9032 9074 0
-171 -9032 9033 0
-9033 9075 0
-173 -9033 9034 0
-9034 9076 0
-175 -9034 9035 0
-9035 9077 0
-177 -9035 9036 0
-9036 9078 0
-179 -9036 9037 0
-9037 9079 0
-181 -9037 9038 0
-9038 9080 0
-183 -9038 9039 0
-9039 9081 0
-185 -9039 9040 0
-9040 9082 0
-187 -9040 9041 0
-9041 9083 0
-7 -9041 9042 0
-9042 9084 0
-190 -9042 9043 0
-9043 9085 0
-192 -9043 9044 0
-9044 9086 0
-194 -9044 0
-115 9045 0
-9045 9087 0
-117 -9045 9046 0
-9046 9088 0
-119 -9046 9047 0
-9047 9089 0
-121 -9047 9048 0
-9048 9090 0
-123 -9048 9049 0
-9049 9091 0
-125 -9049 9050 0
-9050 9092 0
-127 -9050 9051 0
-9051 9093 0
-129 -9051 9052 0
-9052 9094 0
-5 -9052 9053 0
-9053 9095 0
-132 -9053 9054 0
-9054 9096 0
-134 -9054 9055 0
-9055 9097 0
-136 -9055 9056 0
-9056 9098 0
-138 -9056 9057 0
-9057 9099 0
-140 -9057 9058 0
-9058 9100 0
-142 -9058 9059 0
-9059 9101 0
-144 -9059 9060 0
-9060 9102 0
-146 -9060 9061 0
-9061 9103 0
-148 -9061 9062 0
-9062 9104 0
-150 -9062 9063 0
-9063 9105 0
-152 -9063 9064 0
-9064 9106 0
-154 -9064 9065 0
-9065 9107 0
-156 -9065 9066 0
-9066 9108 0
-158 -9066 9067 0
-9067 9109 0
-6 -9067 9068 0
-9068 9110 0
-161 -9068 9069 0
-9069 9111 0
-163 -9069 9070 0
-9070 9112 0
-165 -9070 9071 0
-9071 9113 0
-167 -9071 9072 0
-9072 9114 0
-169 -9072 9073 0
-9073 9115 0
-171 -9073 9074 0
-9074 9116 0
-173 -9074 9075 0
-9075 9117 0
-175 -9075 9076 0
-9076 9118 0
-177 -9076 9077 0
-9077 9119 0
-179 -9077 9078 0
-9078 9120 0
-181 -9078 9079 0
-9079 9121 0
-183 -9079 9080 0
-9080 9122 0
-185 -9080 9081 0
-9081 9123 0
-187 -9081 9082 0
-9082 9124 0
-7 -9082 9083 0
-9083 9125 0
-190 -9083 9084 0
-9084 9126 0
-192 -9084 9085 0
-9085 9127 0
-194 -9085 9086 0
-9086 9128 0
-196 -9086 0
-117 9087 0
-9087 9129 0
-119 -9087 9088 0
-9088 9130 0
-121 -9088 9089 0
-9089 9131 0
-123 -9089 9090 0
-9090 9132 0
-125 -9090 9091 0
-9091 9133 0
-127 -9091 9092 0
-9092 9134 0
-129 -9092 9093 0
-9093 9135 0
-5 -9093 9094 0
-9094 9136 0
-132 -9094 9095 0
-9095 9137 0
-134 -9095 9096 0
-9096 9138 0
-136 -9096 9097 0
-9097 9139 0
-138 -9097 9098 0
-9098 9140 0
-140 -9098 9099 0
-9099 9141 0
-142 -9099 9100 0
-9100 9142 0
-144 -9100 9101 0
-9101 9143 0
-146 -9101 9102 0
-9102 9144 0
-148 -9102 9103 0
-9103 9145 0
-150 -9103 9104 0
-9104 9146 0
-152 -9104 9105 0
-9105 9147 0
-154 -9105 9106 0
-9106 9148 0
-156 -9106 9107 0
-9107 9149 0
-158 -9107 9108 0
-9108 9150 0
-6 -9108 9109 0
-9109 9151 0
-161 -9109 9110 0
-9110 9152 0
-163 -9110 9111 0
-9111 9153 0
-165 -9111 9112 0
-9112 9154 0
-167 -9112 9113 0
-9113 9155 0
-169 -9113 9114 0
-9114 9156 0
-171 -9114 9115 0
-9115 9157 0
-173 -9115 9116 0
-9116 9158 0
-175 -9116 9117 0
-9117 9159 0
-177 -9117 9118 0
-9118 9160 0
-179 -9118 9119 0
-9119 9161 0
-181 -9119 9120 0
-9120 9162 0
-183 -9120 9121 0
-9121 9163 0
-185 -9121 9122 0
-9122 9164 0
-187 -9122 9123 0
-9123 9165 0
-7 -9123 9124 0
-9124 9166 0
-190 -9124 9125 0
-9125 9167 0
-192 -9125 9126 0
-9126 9168 0
-194 -9126 9127 0
-9127 9169 0
-196 -9127 9128 0
-9128 9170 0
-198 -9128 0
-119 9129 0
-9129 9171 0
-121 -9129 9130 0
-9130 9172 0
-123 -9130 9131 0
-9131 9173 0
-125 -9131 9132 0
-9132 9174 0
-127 -9132 9133 0
-9133 9175 0
-129 -9133 9134 0
-9134 9176 0
-5 -9134 9135 0
-9135 9177 0
-132 -9135 9136 0
-9136 9178 0
-134 -9136 9137 0
-9137 9179 0
-136 -9137 9138 0
-9138 9180 0
-138 -9138 9139 0
-9139 9181 0
-140 -9139 9140 0
-9140 9182 0
-142 -9140 9141 0
-9141 9183 0
-144 -9141 9142 0
-9142 9184 0
-146 -9142 9143 0
-9143 9185 0
-148 -9143 9144 0
-9144 9186 0
-150 -9144 9145 0
-9145 9187 0
-152 -9145 9146 0
-9146 9188 0
-154 -9146 9147 0
-9147 9189 0
-156 -9147 9148 0
-9148 9190 0
-158 -9148 9149 0
-9149 9191 0
-6 -9149 9150 0
-9150 9192 0
-161 -9150 9151 0
-9151 9193 0
-163 -9151 9152 0
-9152 9194 0
-165 -9152 9153 0
-9153 9195 0
-167 -9153 9154 0
-9154 9196 0
-169 -9154 9155 0
-9155 9197 0
-171 -9155 9156 0
-9156 9198 0
-173 -9156 9157 0
-9157 9199 0
-175 -9157 9158 0
-9158 9200 0
-177 -9158 9159 0
-9159 9201 0
-179 -9159 9160 0
-9160 9202 0
-181 -9160 9161 0
-9161 9203 0
-183 -9161 9162 0
-9162 9204 0
-185 -9162 9163 0
-9163 9205 0
-187 -9163 9164 0
-9164 9206 0
-7 -9164 9165 0
-9165 9207 0
-190 -9165 9166 0
-9166 9208 0
-192 -9166 9167 0
-9167 9209 0
-194 -9167 9168 0
-9168 9210 0
-196 -9168 9169 0
-9169 9211 0
-198 -9169 9170 0
-9170 9212 0
-200 -9170 0
-121 9171 0
-9171 9213 0
-123 -9171 9172 0
-9172 9214 0
-125 -9172 9173 0
-9173 9215 0
-127 -9173 9174 0
-9174 9216 0
-129 -9174 9175 0
-9175 9217 0
-5 -9175 9176 0
-9176 9218 0
-132 -9176 9177 0
-9177 9219 0
-134 -9177 9178 0
-9178 9220 0
-136 -9178 9179 0
-9179 9221 0
-138 -9179 9180 0
-9180 9222 0
-140 -9180 9181 0
-9181 9223 0
-142 -9181 9182 0
-9182 9224 0
-144 -9182 9183 0
-9183 9225 0
-146 -9183 9184 0
-9184 9226 0
-148 -9184 9185 0
-9185 9227 0
-150 -9185 9186 0
-9186 9228 0
-152 -9186 9187 0
-9187 9229 0
-154 -9187 9188 0
-9188 9230 0
-156 -9188 9189 0
-9189 9231 0
-158 -9189 9190 0
-9190 9232 0
-6 -9190 9191 0
-9191 9233 0
-161 -9191 9192 0
-9192 9234 0
-163 -9192 9193 0
-9193 9235 0
-165 -9193 9194 0
-9194 9236 0
-167 -9194 9195 0
-9195 9237 0
-169 -9195 9196 0
-9196 9238 0
-171 -9196 9197 0
-9197 9239 0
-173 -9197 9198 0
-9198 9240 0
-175 -9198 9199 0
-9199 9241 0
-177 -9199 9200 0
-9200 9242 0
-179 -9200 9201 0
-9201 9243 0
-181 -9201 9202 0
-9202 9244 0
-183 -9202 9203 0
-9203 9245 0
-185 -9203 9204 0
-9204 9246 0
-187 -9204 9205 0
-9205 9247 0
-7 -9205 9206 0
-9206 9248 0
-190 -9206 9207 0
-9207 9249 0
-192 -9207 9208 0
-9208 9250 0
-194 -9208 9209 0
-9209 9251 0
-196 -9209 9210 0
-9210 9252 0
-198 -9210 9211 0
-9211 9253 0
-200 -9211 9212 0
-9212 9254 0
-202 -9212 0
-123 9213 0
-9213 9255 0
-125 -9213 9214 0
-9214 9256 0
-127 -9214 9215 0
-9215 9257 0
-129 -9215 9216 0
-9216 9258 0
-5 -9216 9217 0
-9217 9259 0
-132 -9217 9218 0
-9218 9260 0
-134 -9218 9219 0
-9219 9261 0
-136 -9219 9220 0
-9220 9262 0
-138 -9220 9221 0
-9221 9263 0
-140 -9221 9222 0
-9222 9264 0
-142 -9222 9223 0
-9223 9265 0
-144 -9223 9224 0
-9224 9266 0
-146 -9224 9225 0
-9225 9267 0
-148 -9225 9226 0
-9226 9268 0
-150 -9226 9227 0
-9227 9269 0
-152 -9227 9228 0
-9228 9270 0
-154 -9228 9229 0
-9229 9271 0
-156 -9229 9230 0
-9230 9272 0
-158 -9230 9231 0
-9231 9273 0
-6 -9231 9232 0
-9232 9274 0
-161 -9232 9233 0
-9233 9275 0
-163 -9233 9234 0
-9234 9276 0
-165 -9234 9235 0
-9235 9277 0
-167 -9235 9236 0
-9236 9278 0
-169 -9236 9237 0
-9237 9279 0
-171 -9237 9238 0
-9238 9280 0
-173 -9238 9239 0
-9239 9281 0
-175 -9239 9240 0
-9240 9282 0
-177 -9240 9241 0
-9241 9283 0
-179 -9241 9242 0
-9242 9284 0
-181 -9242 9243 0
-9243 9285 0
-183 -9243 9244 0
-9244 9286 0
-185 -9244 9245 0
-9245 9287 0
-187 -9245 9246 0
-9246 9288 0
-7 -9246 9247 0
-9247 9289 0
-190 -9247 9248 0
-9248 9290 0
-192 -9248 9249 0
-9249 9291 0
-194 -9249 9250 0
-9250 9292 0
-196 -9250 9251 0
-9251 9293 0
-198 -9251 9252 0
-9252 9294 0
-200 -9252 9253 0
-9253 9295 0
-202 -9253 9254 0
-9254 9296 0
-204 -9254 0
-125 9255 0
-9255 9297 0
-127 -9255 9256 0
-9256 9298 0
-129 -9256 9257 0
-9257 9299 0
-5 -9257 9258 0
-9258 9300 0
-132 -9258 9259 0
-9259 9301 0
-134 -9259 9260 0
-9260 9302 0
-136 -9260 9261 0
-9261 9303 0
-138 -9261 9262 0
-9262 9304 0
-140 -9262 9263 0
-9263 9305 0
-142 -9263 9264 0
-9264 9306 0
-144 -9264 9265 0
-9265 9307 0
-146 -9265 9266 0
-9266 9308 0
-148 -9266 9267 0
-9267 9309 0
-150 -9267 9268 0
-9268 9310 0
-152 -9268 9269 0
-9269 9311 0
-154 -9269 9270 0
-9270 9312 0
-156 -9270 9271 0
-9271 9313 0
-158 -9271 9272 0
-9272 9314 0
-6 -9272 9273 0
-9273 9315 0
-161 -9273 9274 0
-9274 9316 0
-163 -9274 9275 0
-9275 9317 0
-165 -9275 9276 0
-9276 9318 0
-167 -9276 9277 0
-9277 9319 0
-169 -9277 9278 0
-9278 9320 0
-171 -9278 9279 0
-9279 9321 0
-173 -9279 9280 0
-9280 9322 0
-175 -9280 9281 0
-9281 9323 0
-177 -9281 9282 0
-9282 9324 0
-179 -9282 9283 0
-9283 9325 0
-181 -9283 9284 0
-9284 9326 0
-183 -9284 9285 0
-9285 9327 0
-185 -9285 9286 0
-9286 9328 0
-187 -9286 9287 0
-9287 9329 0
-7 -9287 9288 0
-9288 9330 0
-190 -9288 9289 0
-9289 9331 0
-192 -9289 9290 0
-9290 9332 0
-194 -9290 9291 0
-9291 9333 0
-196 -9291 9292 0
-9292 9334 0
-198 -9292 9293 0
-9293 9335 0
-200 -9293 9294 0
-9294 9336 0
-202 -9294 9295 0
-9295 9337 0
-204 -9295 9296 0
-9296 9338 0
-206 -9296 0
-127 9297 0
-9297 9339 0
-129 -9297 9298 0
-9298 9340 0
-5 -9298 9299 0
-9299 9341 0
-132 -9299 9300 0
-9300 9342 0
-134 -9300 9301 0
-9301 9343 0
-136 -9301 9302 0
-9302 9344 0
-138 -9302 9303 0
-9303 9345 0
-140 -9303 9304 0
-9304 9346 0
-142 -9304 9305 0
-9305 9347 0
-144 -9305 9306 0
-9306 9348 0
-146 -9306 9307 0
-9307 9349 0
-148 -9307 9308 0
-9308 9350 0
-150 -9308 9309 0
-9309 9351 0
-152 -9309 9310 0
-9310 9352 0
-154 -9310 9311 0
-9311 9353 0
-156 -9311 9312 0
-9312 9354 0
-158 -9312 9313 0
-9313 9355 0
-6 -9313 9314 0
-9314 9356 0
-161 -9314 9315 0
-9315 9357 0
-163 -9315 9316 0
-9316 9358 0
-165 -9316 9317 0
-9317 9359 0
-167 -9317 9318 0
-9318 9360 0
-169 -9318 9319 0
-9319 9361 0
-171 -9319 9320 0
-9320 9362 0
-173 -9320 9321 0
-9321 9363 0
-175 -9321 9322 0
-9322 9364 0
-177 -9322 9323 0
-9323 9365 0
-179 -9323 9324 0
-9324 9366 0
-181 -9324 9325 0
-9325 9367 0
-183 -9325 9326 0
-9326 9368 0
-185 -9326 9327 0
-9327 9369 0
-187 -9327 9328 0
-9328 9370 0
-7 -9328 9329 0
-9329 9371 0
-190 -9329 9330 0
-9330 9372 0
-192 -9330 9331 0
-9331 9373 0
-194 -9331 9332 0
-9332 9374 0
-196 -9332 9333 0
-9333 9375 0
-198 -9333 9334 0
-9334 9376 0
-200 -9334 9335 0
-9335 9377 0
-202 -9335 9336 0
-9336 9378 0
-204 -9336 9337 0
-9337 9379 0
-206 -9337 9338 0
-9338 9380 0
-208 -9338 0
-129 9339 0
-9339 9381 0
-5 -9339 9340 0
-9340 9382 0
-132 -9340 9341 0
-9341 9383 0
-134 -9341 9342 0
-9342 9384 0
-136 -9342 9343 0
-9343 9385 0
-138 -9343 9344 0
-9344 9386 0
-140 -9344 9345 0
-9345 9387 0
-142 -9345 9346 0
-9346 9388 0
-144 -9346 9347 0
-9347 9389 0
-146 -9347 9348 0
-9348 9390 0
-148 -9348 9349 0
-9349 9391 0
-150 -9349 9350 0
-9350 9392 0
-152 -9350 9351 0
-9351 9393 0
-154 -9351 9352 0
-9352 9394 0
-156 -9352 9353 0
-9353 9395 0
-158 -9353 9354 0
-9354 9396 0
-6 -9354 9355 0
-9355 9397 0
-161 -9355 9356 0
-9356 9398 0
-163 -9356 9357 0
-9357 9399 0
-165 -9357 9358 0
-9358 9400 0
-167 -9358 9359 0
-9359 9401 0
-169 -9359 9360 0
-9360 9402 0
-171 -9360 9361 0
-9361 9403 0
-173 -9361 9362 0
-9362 9404 0
-175 -9362 9363 0
-9363 9405 0
-177 -9363 9364 0
-9364 9406 0
-179 -9364 9365 0
-9365 9407 0
-181 -9365 9366 0
-9366 9408 0
-183 -9366 9367 0
-9367 9409 0
-185 -9367 9368 0
-9368 9410 0
-187 -9368 9369 0
-9369 9411 0
-7 -9369 9370 0
-9370 9412 0
-190 -9370 9371 0
-9371 9413 0
-192 -9371 9372 0
-9372 9414 0
-194 -9372 9373 0
-9373 9415 0
-196 -9373 9374 0
-9374 9416 0
-198 -9374 9375 0
-9375 9417 0
-200 -9375 9376 0
-9376 9418 0
-202 -9376 9377 0
-9377 9419 0
-204 -9377 9378 0
-9378 9420 0
-206 -9378 9379 0
-9379 9421 0
-208 -9379 9380 0
-9380 9422 0
-210 -9380 0
-5 9381 0
-9381 9423 0
-132 -9381 9382 0
-9382 9424 0
-134 -9382 9383 0
-9383 9425 0
-136 -9383 9384 0
-9384 9426 0
-138 -9384 9385 0
-9385 9427 0
-140 -9385 9386 0
-9386 9428 0
-142 -9386 9387 0
-9387 9429 0
-144 -9387 9388 0
-9388 9430 0
-146 -9388 9389 0
-9389 9431 0
-148 -9389 9390 0
-9390 9432 0
-150 -9390 9391 0
-9391 9433 0
-152 -9391 9392 0
-9392 9434 0
-154 -9392 9393 0
-9393 9435 0
-156 -9393 9394 0
-9394 9436 0
-158 -9394 9395 0
-9395 9437 0
-6 -9395 9396 0
-9396 9438 0
-161 -9396 9397 0
-9397 9439 0
-163 -9397 9398 0
-9398 9440 0
-165 -9398 9399 0
-9399 9441 0
-167 -9399 9400 0
-9400 9442 0
-169 -9400 9401 0
-9401 9443 0
-171 -9401 9402 0
-9402 9444 0
-173 -9402 9403 0
-9403 9445 0
-175 -9403 9404 0
-9404 9446 0
-177 -9404 9405 0
-9405 9447 0
-179 -9405 9406 0
-9406 9448 0
-181 -9406 9407 0
-9407 9449 0
-183 -9407 9408 0
-9408 9450 0
-185 -9408 9409 0
-9409 9451 0
-187 -9409 9410 0
-9410 9452 0
-7 -9410 9411 0
-9411 9453 0
-190 -9411 9412 0
-9412 9454 0
-192 -9412 9413 0
-9413 9455 0
-194 -9413 9414 0
-9414 9456 0
-196 -9414 9415 0
-9415 9457 0
-198 -9415 9416 0
-9416 9458 0
-200 -9416 9417 0
-9417 9459 0
-202 -9417 9418 0
-9418 9460 0
-204 -9418 9419 0
-9419 9461 0
-206 -9419 9420 0
-9420 9462 0
-208 -9420 9421 0
-9421 9463 0
-210 -9421 9422 0
-9422 9464 0
-212 -9422 0
-132 9423 0
-9423 9465 0
-134 -9423 9424 0
-9424 9466 0
-136 -9424 9425 0
-9425 9467 0
-138 -9425 9426 0
-9426 9468 0
-140 -9426 9427 0
-9427 9469 0
-142 -9427 9428 0
-9428 9470 0
-144 -9428 9429 0
-9429 9471 0
-146 -9429 9430 0
-9430 9472 0
-148 -9430 9431 0
-9431 9473 0
-150 -9431 9432 0
-9432 9474 0
-152 -9432 9433 0
-9433 9475 0
-154 -9433 9434 0
-9434 9476 0
-156 -9434 9435 0
-9435 9477 0
-158 -9435 9436 0
-9436 9478 0
-6 -9436 9437 0
-9437 9479 0
-161 -9437 9438 0
-9438 9480 0
-163 -9438 9439 0
-9439 9481 0
-165 -9439 9440 0
-9440 9482 0
-167 -9440 9441 0
-9441 9483 0
-169 -9441 9442 0
-9442 9484 0
-171 -9442 9443 0
-9443 9485 0
-173 -9443 9444 0
-9444 9486 0
-175 -9444 9445 0
-9445 9487 0
-177 -9445 9446 0
-9446 9488 0
-179 -9446 9447 0
-9447 9489 0
-181 -9447 9448 0
-9448 9490 0
-183 -9448 9449 0
-9449 9491 0
-185 -9449 9450 0
-9450 9492 0
-187 -9450 9451 0
-9451 9493 0
-7 -9451 9452 0
-9452 9494 0
-190 -9452 9453 0
-9453 9495 0
-192 -9453 9454 0
-9454 9496 0
-194 -9454 9455 0
-9455 9497 0
-196 -9455 9456 0
-9456 9498 0
-198 -9456 9457 0
-9457 9499 0
-200 -9457 9458 0
-9458 9500 0
-202 -9458 9459 0
-9459 9501 0
-204 -9459 9460 0
-9460 9502 0
-206 -9460 9461 0
-9461 9503 0
-208 -9461 9462 0
-9462 9504 0
-210 -9462 9463 0
-9463 9505 0
-212 -9463 9464 0
-9464 9506 0
-214 -9464 0
-134 9465 0
-9465 9507 0
-136 -9465 9466 0
-9466 9508 0
-138 -9466 9467 0
-9467 9509 0
-140 -9467 9468 0
-9468 9510 0
-142 -9468 9469 0
-9469 9511 0
-144 -9469 9470 0
-9470 9512 0
-146 -9470 9471 0
-9471 9513 0
-148 -9471 9472 0
-9472 9514 0
-150 -9472 9473 0
-9473 9515 0
-152 -9473 9474 0
-9474 9516 0
-154 -9474 9475 0
-9475 9517 0
-156 -9475 9476 0
-9476 9518 0
-158 -9476 9477 0
-9477 9519 0
-6 -9477 9478 0
-9478 9520 0
-161 -9478 9479 0
-9479 9521 0
-163 -9479 9480 0
-9480 9522 0
-165 -9480 9481 0
-9481 9523 0
-167 -9481 9482 0
-9482 9524 0
-169 -9482 9483 0
-9483 9525 0
-171 -9483 9484 0
-9484 9526 0
-173 -9484 9485 0
-9485 9527 0
-175 -9485 9486 0
-9486 9528 0
-177 -9486 9487 0
-9487 9529 0
-179 -9487 9488 0
-9488 9530 0
-181 -9488 9489 0
-9489 9531 0
-183 -9489 9490 0
-9490 9532 0
-185 -9490 9491 0
-9491 9533 0
-187 -9491 9492 0
-9492 9534 0
-7 -9492 9493 0
-9493 9535 0
-190 -9493 9494 0
-9494 9536 0
-192 -9494 9495 0
-9495 9537 0
-194 -9495 9496 0
-9496 9538 0
-196 -9496 9497 0
-9497 9539 0
-198 -9497 9498 0
-9498 9540 0
-200 -9498 9499 0
-9499 9541 0
-202 -9499 9500 0
-9500 9542 0
-204 -9500 9501 0
-9501 9543 0
-206 -9501 9502 0
-9502 9544 0
-208 -9502 9503 0
-9503 9545 0
-210 -9503 9504 0
-9504 9546 0
-212 -9504 9505 0
-9505 9547 0
-214 -9505 9506 0
-9506 9548 0
-216 -9506 0
-136 9507 0
-9507 9549 0
-138 -9507 9508 0
-9508 9550 0
-140 -9508 9509 0
-9509 9551 0
-142 -9509 9510 0
-9510 9552 0
-144 -9510 9511 0
-9511 9553 0
-146 -9511 9512 0
-9512 9554 0
-148 -9512 9513 0
-9513 9555 0
-150 -9513 9514 0
-9514 9556 0
-152 -9514 9515 0
-9515 9557 0
-154 -9515 9516 0
-9516 9558 0
-156 -9516 9517 0
-9517 9559 0
-158 -9517 9518 0
-9518 9560 0
-6 -9518 9519 0
-9519 9561 0
-161 -9519 9520 0
-9520 9562 0
-163 -9520 9521 0
-9521 9563 0
-165 -9521 9522 0
-9522 9564 0
-167 -9522 9523 0
-9523 9565 0
-169 -9523 9524 0
-9524 9566 0
-171 -9524 9525 0
-9525 9567 0
-173 -9525 9526 0
-9526 9568 0
-175 -9526 9527 0
-9527 9569 0
-177 -9527 9528 0
-9528 9570 0
-179 -9528 9529 0
-9529 9571 0
-181 -9529 9530 0
-9530 9572 0
-183 -9530 9531 0
-9531 9573 0
-185 -9531 9532 0
-9532 9574 0
-187 -9532 9533 0
-9533 9575 0
-7 -9533 9534 0
-9534 9576 0
-190 -9534 9535 0
-9535 9577 0
-192 -9535 9536 0
-9536 9578 0
-194 -9536 9537 0
-9537 9579 0
-196 -9537 9538 0
-9538 9580 0
-198 -9538 9539 0
-9539 9581 0
-200 -9539 9540 0
-9540 9582 0
-202 -9540 9541 0
-9541 9583 0
-204 -9541 9542 0
-9542 9584 0
-206 -9542 9543 0
-9543 9585 0
-208 -9543 9544 0
-9544 9586 0
-210 -9544 9545 0
-9545 9587 0
-212 -9545 9546 0
-9546 9588 0
-214 -9546 9547 0
-9547 9589 0
-216 -9547 9548 0
-9548 9590 0
-8 -9548 0
-138 9549 0
-9549 9591 0
-140 -9549 9550 0
-9550 9592 0
-142 -9550 9551 0
-9551 9593 0
-144 -9551 9552 0
-9552 9594 0
-146 -9552 9553 0
-9553 9595 0
-148 -9553 9554 0
-9554 9596 0
-150 -9554 9555 0
-9555 9597 0
-152 -9555 9556 0
-9556 9598 0
-154 -9556 9557 0
-9557 9599 0
-156 -9557 9558 0
-9558 9600 0
-158 -9558 9559 0
-9559 9601 0
-6 -9559 9560 0
-9560 9602 0
-161 -9560 9561 0
-9561 9603 0
-163 -9561 9562 0
-9562 9604 0
-165 -9562 9563 0
-9563 9605 0
-167 -9563 9564 0
-9564 9606 0
-169 -9564 9565 0
-9565 9607 0
-171 -9565 9566 0
-9566 9608 0
-173 -9566 9567 0
-9567 9609 0
-175 -9567 9568 0
-9568 9610 0
-177 -9568 9569 0
-9569 9611 0
-179 -9569 9570 0
-9570 9612 0
-181 -9570 9571 0
-9571 9613 0
-183 -9571 9572 0
-9572 9614 0
-185 -9572 9573 0
-9573 9615 0
-187 -9573 9574 0
-9574 9616 0
-7 -9574 9575 0
-9575 9617 0
-190 -9575 9576 0
-9576 9618 0
-192 -9576 9577 0
-9577 9619 0
-194 -9577 9578 0
-9578 9620 0
-196 -9578 9579 0
-9579 9621 0
-198 -9579 9580 0
-9580 9622 0
-200 -9580 9581 0
-9581 9623 0
-202 -9581 9582 0
-9582 9624 0
-204 -9582 9583 0
-9583 9625 0
-206 -9583 9584 0
-9584 9626 0
-208 -9584 9585 0
-9585 9627 0
-210 -9585 9586 0
-9586 9628 0
-212 -9586 9587 0
-9587 9629 0
-214 -9587 9588 0
-9588 9630 0
-216 -9588 9589 0
-9589 9631 0
-8 -9589 9590 0
-9590 9632 0
-219 -9590 0
-140 9591 0
-9591 9633 0
-142 -9591 9592 0
-9592 9634 0
-144 -9592 9593 0
-9593 9635 0
-146 -9593 9594 0
-9594 9636 0
-148 -9594 9595 0
-9595 9637 0
-150 -9595 9596 0
-9596 9638 0
-152 -9596 9597 0
-9597 9639 0
-154 -9597 9598 0
-9598 9640 0
-156 -9598 9599 0
-9599 9641 0
-158 -9599 9600 0
-9600 9642 0
-6 -9600 9601 0
-9601 9643 0
-161 -9601 9602 0
-9602 9644 0
-163 -9602 9603 0
-9603 9645 0
-165 -9603 9604 0
-9604 9646 0
-167 -9604 9605 0
-9605 9647 0
-169 -9605 9606 0
-9606 9648 0
-171 -9606 9607 0
-9607 9649 0
-173 -9607 9608 0
-9608 9650 0
-175 -9608 9609 0
-9609 9651 0
-177 -9609 9610 0
-9610 9652 0
-179 -9610 9611 0
-9611 9653 0
-181 -9611 9612 0
-9612 9654 0
-183 -9612 9613 0
-9613 9655 0
-185 -9613 9614 0
-9614 9656 0
-187 -9614 9615 0
-9615 9657 0
-7 -9615 9616 0
-9616 9658 0
-190 -9616 9617 0
-9617 9659 0
-192 -9617 9618 0
-9618 9660 0
-194 -9618 9619 0
-9619 9661 0
-196 -9619 9620 0
-9620 9662 0
-198 -9620 9621 0
-9621 9663 0
-200 -9621 9622 0
-9622 9664 0
-202 -9622 9623 0
-9623 9665 0
-204 -9623 9624 0
-9624 9666 0
-206 -9624 9625 0
-9625 9667 0
-208 -9625 9626 0
-9626 9668 0
-210 -9626 9627 0
-9627 9669 0
-212 -9627 9628 0
-9628 9670 0
-214 -9628 9629 0
-9629 9671 0
-216 -9629 9630 0
-9630 9672 0
-8 -9630 9631 0
-9631 9673 0
-219 -9631 9632 0
-9632 9674 0
-221 -9632 0
-142 9633 0
-9633 9675 0
-144 -9633 9634 0
-9634 9676 0
-146 -9634 9635 0
-9635 9677 0
-148 -9635 9636 0
-9636 9678 0
-150 -9636 9637 0
-9637 9679 0
-152 -9637 9638 0
-9638 9680 0
-154 -9638 9639 0
-9639 9681 0
-156 -9639 9640 0
-9640 9682 0
-158 -9640 9641 0
-9641 9683 0
-6 -9641 9642 0
-9642 9684 0
-161 -9642 9643 0
-9643 9685 0
-163 -9643 9644 0
-9644 9686 0
-165 -9644 9645 0
-9645 9687 0
-167 -9645 9646 0
-9646 9688 0
-169 -9646 9647 0
-9647 9689 0
-171 -9647 9648 0
-9648 9690 0
-173 -9648 9649 0
-9649 9691 0
-175 -9649 9650 0
-9650 9692 0
-177 -9650 9651 0
-9651 9693 0
-179 -9651 9652 0
-9652 9694 0
-181 -9652 9653 0
-9653 9695 0
-183 -9653 9654 0
-9654 9696 0
-185 -9654 9655 0
-9655 9697 0
-187 -9655 9656 0
-9656 9698 0
-7 -9656 9657 0
-9657 9699 0
-190 -9657 9658 0
-9658 9700 0
-192 -9658 9659 0
-9659 9701 0
-194 -9659 9660 0
-9660 9702 0
-196 -9660 9661 0
-9661 9703 0
-198 -9661 9662 0
-9662 9704 0
-200 -9662 9663 0
-9663 9705 0
-202 -9663 9664 0
-9664 9706 0
-204 -9664 9665 0
-9665 9707 0
-206 -9665 9666 0
-9666 9708 0
-208 -9666 9667 0
-9667 9709 0
-210 -9667 9668 0
-9668 9710 0
-212 -9668 9669 0
-9669 9711 0
-214 -9669 9670 0
-9670 9712 0
-216 -9670 9671 0
-9671 9713 0
-8 -9671 9672 0
-9672 9714 0
-219 -9672 9673 0
-9673 9715 0
-221 -9673 9674 0
-9674 9716 0
-223 -9674 0
-144 9675 0
-9675 9717 0
-146 -9675 9676 0
-9676 9718 0
-148 -9676 9677 0
-9677 9719 0
-150 -9677 9678 0
-9678 9720 0
-152 -9678 9679 0
-9679 9721 0
-154 -9679 9680 0
-9680 9722 0
-156 -9680 9681 0
-9681 9723 0
-158 -9681 9682 0
-9682 9724 0
-6 -9682 9683 0
-9683 9725 0
-161 -9683 9684 0
-9684 9726 0
-163 -9684 9685 0
-9685 9727 0
-165 -9685 9686 0
-9686 9728 0
-167 -9686 9687 0
-9687 9729 0
-169 -9687 9688 0
-9688 9730 0
-171 -9688 9689 0
-9689 9731 0
-173 -9689 9690 0
-9690 9732 0
-175 -9690 9691 0
-9691 9733 0
-177 -9691 9692 0
-9692 9734 0
-179 -9692 9693 0
-9693 9735 0
-181 -9693 9694 0
-9694 9736 0
-183 -9694 9695 0
-9695 9737 0
-185 -9695 9696 0
-9696 9738 0
-187 -9696 9697 0
-9697 9739 0
-7 -9697 9698 0
-9698 9740 0
-190 -9698 9699 0
-9699 9741 0
-192 -9699 9700 0
-9700 9742 0
-194 -9700 9701 0
-9701 9743 0
-196 -9701 9702 0
-9702 9744 0
-198 -9702 9703 0
-9703 9745 0
-200 -9703 9704 0
-9704 9746 0
-202 -9704 9705 0
-9705 9747 0
-204 -9705 9706 0
-9706 9748 0
-206 -9706 9707 0
-9707 9749 0
-208 -9707 9708 0
-9708 9750 0
-210 -9708 9709 0
-9709 9751 0
-212 -9709 9710 0
-9710 9752 0
-214 -9710 9711 0
-9711 9753 0
-216 -9711 9712 0
-9712 9754 0
-8 -9712 9713 0
-9713 9755 0
-219 -9713 9714 0
-9714 9756 0
-221 -9714 9715 0
-9715 9757 0
-223 -9715 9716 0
-9716 9758 0
-225 -9716 0
-146 9717 0
-9717 9759 0
-148 -9717 9718 0
-9718 9760 0
-150 -9718 9719 0
-9719 9761 0
-152 -9719 9720 0
-9720 9762 0
-154 -9720 9721 0
-9721 9763 0
-156 -9721 9722 0
-9722 9764 0
-158 -9722 9723 0
-9723 9765 0
-6 -9723 9724 0
-9724 9766 0
-161 -9724 9725 0
-9725 9767 0
-163 -9725 9726 0
-9726 9768 0
-165 -9726 9727 0
-9727 9769 0
-167 -9727 9728 0
-9728 9770 0
-169 -9728 9729 0
-9729 9771 0
-171 -9729 9730 0
-9730 9772 0
-173 -9730 9731 0
-9731 9773 0
-175 -9731 9732 0
-9732 9774 0
-177 -9732 9733 0
-9733 9775 0
-179 -9733 9734 0
-9734 9776 0
-181 -9734 9735 0
-9735 9777 0
-183 -9735 9736 0
-9736 9778 0
-185 -9736 9737 0
-9737 9779 0
-187 -9737 9738 0
-9738 9780 0
-7 -9738 9739 0
-9739 9781 0
-190 -9739 9740 0
-9740 9782 0
-192 -9740 9741 0
-9741 9783 0
-194 -9741 9742 0
-9742 9784 0
-196 -9742 9743 0
-9743 9785 0
-198 -9743 9744 0
-9744 9786 0
-200 -9744 9745 0
-9745 9787 0
-202 -9745 9746 0
-9746 9788 0
-204 -9746 9747 0
-9747 9789 0
-206 -9747 9748 0
-9748 9790 0
-208 -9748 9749 0
-9749 9791 0
-210 -9749 9750 0
-9750 9792 0
-212 -9750 9751 0
-9751 9793 0
-214 -9751 9752 0
-9752 9794 0
-216 -9752 9753 0
-9753 9795 0
-8 -9753 9754 0
-9754 9796 0
-219 -9754 9755 0
-9755 9797 0
-221 -9755 9756 0
-9756 9798 0
-223 -9756 9757 0
-9757 9799 0
-225 -9757 9758 0
-9758 9800 0
-227 -9758 0
-148 9759 0
-9759 9801 0
-150 -9759 9760 0
-9760 9802 0
-152 -9760 9761 0
-9761 9803 0
-154 -9761 9762 0
-9762 9804 0
-156 -9762 9763 0
-9763 9805 0
-158 -9763 9764 0
-9764 9806 0
-6 -9764 9765 0
-9765 9807 0
-161 -9765 9766 0
-9766 9808 0
-163 -9766 9767 0
-9767 9809 0
-165 -9767 9768 0
-9768 9810 0
-167 -9768 9769 0
-9769 9811 0
-169 -9769 9770 0
-9770 9812 0
-171 -9770 9771 0
-9771 9813 0
-173 -9771 9772 0
-9772 9814 0
-175 -9772 9773 0
-9773 9815 0
-177 -9773 9774 0
-9774 9816 0
-179 -9774 9775 0
-9775 9817 0
-181 -9775 9776 0
-9776 9818 0
-183 -9776 9777 0
-9777 9819 0
-185 -9777 9778 0
-9778 9820 0
-187 -9778 9779 0
-9779 9821 0
-7 -9779 9780 0
-9780 9822 0
-190 -9780 9781 0
-9781 9823 0
-192 -9781 9782 0
-9782 9824 0
-194 -9782 9783 0
-9783 9825 0
-196 -9783 9784 0
-9784 9826 0
-198 -9784 9785 0
-9785 9827 0
-200 -9785 9786 0
-9786 9828 0
-202 -9786 9787 0
-9787 9829 0
-204 -9787 9788 0
-9788 9830 0
-206 -9788 9789 0
-9789 9831 0
-208 -9789 9790 0
-9790 9832 0
-210 -9790 9791 0
-9791 9833 0
-212 -9791 9792 0
-9792 9834 0
-214 -9792 9793 0
-9793 9835 0
-216 -9793 9794 0
-9794 9836 0
-8 -9794 9795 0
-9795 9837 0
-219 -9795 9796 0
-9796 9838 0
-221 -9796 9797 0
-9797 9839 0
-223 -9797 9798 0
-9798 9840 0
-225 -9798 9799 0
-9799 9841 0
-227 -9799 9800 0
-9800 9842 0
-229 -9800 0
-150 9801 0
-9801 9843 0
-152 -9801 9802 0
-9802 9844 0
-154 -9802 9803 0
-9803 9845 0
-156 -9803 9804 0
-9804 9846 0
-158 -9804 9805 0
-9805 9847 0
-6 -9805 9806 0
-9806 9848 0
-161 -9806 9807 0
-9807 9849 0
-163 -9807 9808 0
-9808 9850 0
-165 -9808 9809 0
-9809 9851 0
-167 -9809 9810 0
-9810 9852 0
-169 -9810 9811 0
-9811 9853 0
-171 -9811 9812 0
-9812 9854 0
-173 -9812 9813 0
-9813 9855 0
-175 -9813 9814 0
-9814 9856 0
-177 -9814 9815 0
-9815 9857 0
-179 -9815 9816 0
-9816 9858 0
-181 -9816 9817 0
-9817 9859 0
-183 -9817 9818 0
-9818 9860 0
-185 -9818 9819 0
-9819 9861 0
-187 -9819 9820 0
-9820 9862 0
-7 -9820 9821 0
-9821 9863 0
-190 -9821 9822 0
-9822 9864 0
-192 -9822 9823 0
-9823 9865 0
-194 -9823 9824 0
-9824 9866 0
-196 -9824 9825 0
-9825 9867 0
-198 -9825 9826 0
-9826 9868 0
-200 -9826 9827 0
-9827 9869 0
-202 -9827 9828 0
-9828 9870 0
-204 -9828 9829 0
-9829 9871 0
-206 -9829 9830 0
-9830 9872 0
-208 -9830 9831 0
-9831 9873 0
-210 -9831 9832 0
-9832 9874 0
-212 -9832 9833 0
-9833 9875 0
-214 -9833 9834 0
-9834 9876 0
-216 -9834 9835 0
-9835 9877 0
-8 -9835 9836 0
-9836 9878 0
-219 -9836 9837 0
-9837 9879 0
-221 -9837 9838 0
-9838 9880 0
-223 -9838 9839 0
-9839 9881 0
-225 -9839 9840 0
-9840 9882 0
-227 -9840 9841 0
-9841 9883 0
-229 -9841 9842 0
-9842 9884 0
-231 -9842 0
-152 9843 0
-9843 9885 0
-154 -9843 9844 0
-9844 9886 0
-156 -9844 9845 0
-9845 9887 0
-158 -9845 9846 0
-9846 9888 0
-6 -9846 9847 0
-9847 9889 0
-161 -9847 9848 0
-9848 9890 0
-163 -9848 9849 0
-9849 9891 0
-165 -9849 9850 0
-9850 9892 0
-167 -9850 9851 0
-9851 9893 0
-169 -9851 9852 0
-9852 9894 0
-171 -9852 9853 0
-9853 9895 0
-173 -9853 9854 0
-9854 9896 0
-175 -9854 9855 0
-9855 9897 0
-177 -9855 9856 0
-9856 9898 0
-179 -9856 9857 0
-9857 9899 0
-181 -9857 9858 0
-9858 9900 0
-183 -9858 9859 0
-9859 9901 0
-185 -9859 9860 0
-9860 9902 0
-187 -9860 9861 0
-9861 9903 0
-7 -9861 9862 0
-9862 9904 0
-190 -9862 9863 0
-9863 9905 0
-192 -9863 9864 0
-9864 9906 0
-194 -9864 9865 0
-9865 9907 0
-196 -9865 9866 0
-9866 9908 0
-198 -9866 9867 0
-9867 9909 0
-200 -9867 9868 0
-9868 9910 0
-202 -9868 9869 0
-9869 9911 0
-204 -9869 9870 0
-9870 9912 0
-206 -9870 9871 0
-9871 9913 0
-208 -9871 9872 0
-9872 9914 0
-210 -9872 9873 0
-9873 9915 0
-212 -9873 9874 0
-9874 9916 0
-214 -9874 9875 0
-9875 9917 0
-216 -9875 9876 0
-9876 9918 0
-8 -9876 9877 0
-9877 9919 0
-219 -9877 9878 0
-9878 9920 0
-221 -9878 9879 0
-9879 9921 0
-223 -9879 9880 0
-9880 9922 0
-225 -9880 9881 0
-9881 9923 0
-227 -9881 9882 0
-9882 9924 0
-229 -9882 9883 0
-9883 9925 0
-231 -9883 9884 0
-9884 9926 0
-233 -9884 0
-154 9885 0
-9885 9927 0
-156 -9885 9886 0
-9886 9928 0
-158 -9886 9887 0
-9887 9929 0
-6 -9887 9888 0
-9888 9930 0
-161 -9888 9889 0
-9889 9931 0
-163 -9889 9890 0
-9890 9932 0
-165 -9890 9891 0
-9891 9933 0
-167 -9891 9892 0
-9892 9934 0
-169 -9892 9893 0
-9893 9935 0
-171 -9893 9894 0
-9894 9936 0
-173 -9894 9895 0
-9895 9937 0
-175 -9895 9896 0
-9896 9938 0
-177 -9896 9897 0
-9897 9939 0
-179 -9897 9898 0
-9898 9940 0
-181 -9898 9899 0
-9899 9941 0
-183 -9899 9900 0
-9900 9942 0
-185 -9900 9901 0
-9901 9943 0
-187 -9901 9902 0
-9902 9944 0
-7 -9902 9903 0
-9903 9945 0
-190 -9903 9904 0
-9904 9946 0
-192 -9904 9905 0
-9905 9947 0
-194 -9905 9906 0
-9906 9948 0
-196 -9906 9907 0
-9907 9949 0
-198 -9907 9908 0
-9908 9950 0
-200 -9908 9909 0
-9909 9951 0
-202 -9909 9910 0
-9910 9952 0
-204 -9910 9911 0
-9911 9953 0
-206 -9911 9912 0
-9912 9954 0
-208 -9912 9913 0
-9913 9955 0
-210 -9913 9914 0
-9914 9956 0
-212 -9914 9915 0
-9915 9957 0
-214 -9915 9916 0
-9916 9958 0
-216 -9916 9917 0
-9917 9959 0
-8 -9917 9918 0
-9918 9960 0
-219 -9918 9919 0
-9919 9961 0
-221 -9919 9920 0
-9920 9962 0
-223 -9920 9921 0
-9921 9963 0
-225 -9921 9922 0
-9922 9964 0
-227 -9922 9923 0
-9923 9965 0
-229 -9923 9924 0
-9924 9966 0
-231 -9924 9925 0
-9925 9967 0
-233 -9925 9926 0
-9926 9968 0
-235 -9926 0
-156 9927 0
-9927 9969 0
-158 -9927 9928 0
-9928 9970 0
-6 -9928 9929 0
-9929 9971 0
-161 -9929 9930 0
-9930 9972 0
-163 -9930 9931 0
-9931 9973 0
-165 -9931 9932 0
-9932 9974 0
-167 -9932 9933 0
-9933 9975 0
-169 -9933 9934 0
-9934 9976 0
-171 -9934 9935 0
-9935 9977 0
-173 -9935 9936 0
-9936 9978 0
-175 -9936 9937 0
-9937 9979 0
-177 -9937 9938 0
-9938 9980 0
-179 -9938 9939 0
-9939 9981 0
-181 -9939 9940 0
-9940 9982 0
-183 -9940 9941 0
-9941 9983 0
-185 -9941 9942 0
-9942 9984 0
-187 -9942 9943 0
-9943 9985 0
-7 -9943 9944 0
-9944 9986 0
-190 -9944 9945 0
-9945 9987 0
-192 -9945 9946 0
-9946 9988 0
-194 -9946 9947 0
-9947 9989 0
-196 -9947 9948 0
-9948 9990 0
-198 -9948 9949 0
-9949 9991 0
-200 -9949 9950 0
-9950 9992 0
-202 -9950 9951 0
-9951 9993 0
-204 -9951 9952 0
-9952 9994 0
-206 -9952 9953 0
-9953 9995 0
-208 -9953 9954 0
-9954 9996 0
-210 -9954 9955 0
-9955 9997 0
-212 -9955 9956 0
-9956 9998 0
-214 -9956 9957 0
-9957 9999 0
-216 -9957 9958 0
-9958 10000 0
-8 -9958 9959 0
-9959 10001 0
-219 -9959 9960 0
-9960 10002 0
-221 -9960 9961 0
-9961 10003 0
-223 -9961 9962 0
-9962 10004 0
-225 -9962 9963 0
-9963 10005 0
-227 -9963 9964 0
-9964 10006 0
-229 -9964 9965 0
-9965 10007 0
-231 -9965 9966 0
-9966 10008 0
-233 -9966 9967 0
-9967 10009 0
-235 -9967 9968 0
-9968 10010 0
-237 -9968 0
-158 9969 0
-9969 10011 0
-6 -9969 9970 0
-9970 10012 0
-161 -9970 9971 0
-9971 10013 0
-163 -9971 9972 0
-9972 10014 0
-165 -9972 9973 0
-9973 10015 0
-167 -9973 9974 0
-9974 10016 0
-169 -9974 9975 0
-9975 10017 0
-171 -9975 9976 0
-9976 10018 0
-173 -9976 9977 0
-9977 10019 0
-175 -9977 9978 0
-9978 10020 0
-177 -9978 9979 0
-9979 10021 0
-179 -9979 9980 0
-9980 10022 0
-181 -9980 9981 0
-9981 10023 0
-183 -9981 9982 0
-9982 10024 0
-185 -9982 9983 0
-9983 10025 0
-187 -9983 9984 0
-9984 10026 0
-7 -9984 9985 0
-9985 10027 0
-190 -9985 9986 0
-9986 10028 0
-192 -9986 9987 0
-9987 10029 0
-194 -9987 9988 0
-9988 10030 0
-196 -9988 9989 0
-9989 10031 0
-198 -9989 9990 0
-9990 10032 0
-200 -9990 9991 0
-9991 10033 0
-202 -9991 9992 0
-9992 10034 0
-204 -9992 9993 0
-9993 10035 0
-206 -9993 9994 0
-9994 10036 0
-208 -9994 9995 0
-9995 10037 0
-210 -9995 9996 0
-9996 10038 0
-212 -9996 9997 0
-9997 10039 0
-214 -9997 9998 0
-9998 10040 0
-216 -9998 9999 0
-9999 10041 0
-8 -9999 10000 0
-10000 10042 0
-219 -10000 10001 0
-10001 10043 0
-221 -10001 10002 0
-10002 10044 0
-223 -10002 10003 0
-10003 10045 0
-225 -10003 10004 0
-10004 10046 0
-227 -10004 10005 0
-10005 10047 0
-229 -10005 10006 0
-10006 10048 0
-231 -10006 10007 0
-10007 10049 0
-233 -10007 10008 0
-10008 10050 0
-235 -10008 10009 0
-10009 10051 0
-237 -10009 10010 0
-10010 10052 0
-239 -10010 0
-6 10011 0
-10011 10053 0
-161 -10011 10012 0
-10012 10054 0
-163 -10012 10013 0
-10013 10055 0
-165 -10013 10014 0
-10014 10056 0
-167 -10014 10015 0
-10015 10057 0
-169 -10015 10016 0
-10016 10058 0
-171 -10016 10017 0
-10017 10059 0
-173 -10017 10018 0
-10018 10060 0
-175 -10018 10019 0
-10019 10061 0
-177 -10019 10020 0
-10020 10062 0
-179 -10020 10021 0
-10021 10063 0
-181 -10021 10022 0
-10022 10064 0
-183 -10022 10023 0
-10023 10065 0
-185 -10023 10024 0
-10024 10066 0
-187 -10024 10025 0
-10025 10067 0
-7 -10025 10026 0
-10026 10068 0
-190 -10026 10027 0
-10027 10069 0
-192 -10027 10028 0
-10028 10070 0
-194 -10028 10029 0
-10029 10071 0
-196 -10029 10030 0
-10030 10072 0
-198 -10030 10031 0
-10031 10073 0
-200 -10031 10032 0
-10032 10074 0
-202 -10032 10033 0
-10033 10075 0
-204 -10033 10034 0
-10034 10076 0
-206 -10034 10035 0
-10035 10077 0
-208 -10035 10036 0
-10036 10078 0
-210 -10036 10037 0
-10037 10079 0
-212 -10037 10038 0
-10038 10080 0
-214 -10038 10039 0
-10039 10081 0
-216 -10039 10040 0
-10040 10082 0
-8 -10040 10041 0
-10041 10083 0
-219 -10041 10042 0
-10042 10084 0
-221 -10042 10043 0
-10043 10085 0
-223 -10043 10044 0
-10044 10086 0
-225 -10044 10045 0
-10045 10087 0
-227 -10045 10046 0
-10046 10088 0
-229 -10046 10047 0
-10047 10089 0
-231 -10047 10048 0
-10048 10090 0
-233 -10048 10049 0
-10049 10091 0
-235 -10049 10050 0
-10050 10092 0
-237 -10050 10051 0
-10051 10093 0
-239 -10051 10052 0
-10052 10094 0
-241 -10052 0
-161 10053 0
-10053 10095 0
-163 -10053 10054 0
-10054 10096 0
-165 -10054 10055 0
-10055 10097 0
-167 -10055 10056 0
-10056 10098 0
-169 -10056 10057 0
-10057 10099 0
-171 -10057 10058 0
-10058 10100 0
-173 -10058 10059 0
-10059 10101 0
-175 -10059 10060 0
-10060 10102 0
-177 -10060 10061 0
-10061 10103 0
-179 -10061 10062 0
-10062 10104 0
-181 -10062 10063 0
-10063 10105 0
-183 -10063 10064 0
-10064 10106 0
-185 -10064 10065 0
-10065 10107 0
-187 -10065 10066 0
-10066 10108 0
-7 -10066 10067 0
-10067 10109 0
-190 -10067 10068 0
-10068 10110 0
-192 -10068 10069 0
-10069 10111 0
-194 -10069 10070 0
-10070 10112 0
-196 -10070 10071 0
-10071 10113 0
-198 -10071 10072 0
-10072 10114 0
-200 -10072 10073 0
-10073 10115 0
-202 -10073 10074 0
-10074 10116 0
-204 -10074 10075 0
-10075 10117 0
-206 -10075 10076 0
-10076 10118 0
-208 -10076 10077 0
-10077 10119 0
-210 -10077 10078 0
-10078 10120 0
-212 -10078 10079 0
-10079 10121 0
-214 -10079 10080 0
-10080 10122 0
-216 -10080 10081 0
-10081 10123 0
-8 -10081 10082 0
-10082 10124 0
-219 -10082 10083 0
-10083 10125 0
-221 -10083 10084 0
-10084 10126 0
-223 -10084 10085 0
-10085 10127 0
-225 -10085 10086 0
-10086 10128 0
-227 -10086 10087 0
-10087 10129 0
-229 -10087 10088 0
-10088 10130 0
-231 -10088 10089 0
-10089 10131 0
-233 -10089 10090 0
-10090 10132 0
-235 -10090 10091 0
-10091 10133 0
-237 -10091 10092 0
-10092 10134 0
-239 -10092 10093 0
-10093 10135 0
-241 -10093 10094 0
-10094 10136 0
-243 -10094 0
-163 10095 0
-10095 10137 0
-165 -10095 10096 0
-10096 10138 0
-167 -10096 10097 0
-10097 10139 0
-169 -10097 10098 0
-10098 10140 0
-171 -10098 10099 0
-10099 10141 0
-173 -10099 10100 0
-10100 10142 0
-175 -10100 10101 0
-10101 10143 0
-177 -10101 10102 0
-10102 10144 0
-179 -10102 10103 0
-10103 10145 0
-181 -10103 10104 0
-10104 10146 0
-183 -10104 10105 0
-10105 10147 0
-185 -10105 10106 0
-10106 10148 0
-187 -10106 10107 0
-10107 10149 0
-7 -10107 10108 0
-10108 10150 0
-190 -10108 10109 0
-10109 10151 0
-192 -10109 10110 0
-10110 10152 0
-194 -10110 10111 0
-10111 10153 0
-196 -10111 10112 0
-10112 10154 0
-198 -10112 10113 0
-10113 10155 0
-200 -10113 10114 0
-10114 10156 0
-202 -10114 10115 0
-10115 10157 0
-204 -10115 10116 0
-10116 10158 0
-206 -10116 10117 0
-10117 10159 0
-208 -10117 10118 0
-10118 10160 0
-210 -10118 10119 0
-10119 10161 0
-212 -10119 10120 0
-10120 10162 0
-214 -10120 10121 0
-10121 10163 0
-216 -10121 10122 0
-10122 10164 0
-8 -10122 10123 0
-10123 10165 0
-219 -10123 10124 0
-10124 10166 0
-221 -10124 10125 0
-10125 10167 0
-223 -10125 10126 0
-10126 10168 0
-225 -10126 10127 0
-10127 10169 0
-227 -10127 10128 0
-10128 10170 0
-229 -10128 10129 0
-10129 10171 0
-231 -10129 10130 0
-10130 10172 0
-233 -10130 10131 0
-10131 10173 0
-235 -10131 10132 0
-10132 10174 0
-237 -10132 10133 0
-10133 10175 0
-239 -10133 10134 0
-10134 10176 0
-241 -10134 10135 0
-10135 10177 0
-243 -10135 10136 0
-10136 10178 0
-245 -10136 0
-165 10137 0
-10137 10179 0
-167 -10137 10138 0
-10138 10180 0
-169 -10138 10139 0
-10139 10181 0
-171 -10139 10140 0
-10140 10182 0
-173 -10140 10141 0
-10141 10183 0
-175 -10141 10142 0
-10142 10184 0
-177 -10142 10143 0
-10143 10185 0
-179 -10143 10144 0
-10144 10186 0
-181 -10144 10145 0
-10145 10187 0
-183 -10145 10146 0
-10146 10188 0
-185 -10146 10147 0
-10147 10189 0
-187 -10147 10148 0
-10148 10190 0
-7 -10148 10149 0
-10149 10191 0
-190 -10149 10150 0
-10150 10192 0
-192 -10150 10151 0
-10151 10193 0
-194 -10151 10152 0
-10152 10194 0
-196 -10152 10153 0
-10153 10195 0
-198 -10153 10154 0
-10154 10196 0
-200 -10154 10155 0
-10155 10197 0
-202 -10155 10156 0
-10156 10198 0
-204 -10156 10157 0
-10157 10199 0
-206 -10157 10158 0
-10158 10200 0
-208 -10158 10159 0
-10159 10201 0
-210 -10159 10160 0
-10160 10202 0
-212 -10160 10161 0
-10161 10203 0
-214 -10161 10162 0
-10162 10204 0
-216 -10162 10163 0
-10163 10205 0
-8 -10163 10164 0
-10164 10206 0
-219 -10164 10165 0
-10165 10207 0
-221 -10165 10166 0
-10166 10208 0
-223 -10166 10167 0
-10167 10209 0
-225 -10167 10168 0
-10168 10210 0
-227 -10168 10169 0
-10169 10211 0
-229 -10169 10170 0
-10170 10212 0
-231 -10170 10171 0
-10171 10213 0
-233 -10171 10172 0
-10172 10214 0
-235 -10172 10173 0
-10173 10215 0
-237 -10173 10174 0
-10174 10216 0
-239 -10174 10175 0
-10175 10217 0
-241 -10175 10176 0
-10176 10218 0
-243 -10176 10177 0
-10177 10219 0
-245 -10177 10178 0
-10178 10220 0
-9 -10178 0
-167 10179 0
-10179 10221 0
-169 -10179 10180 0
-10180 10222 0
-171 -10180 10181 0
-10181 10223 0
-173 -10181 10182 0
-10182 10224 0
-175 -10182 10183 0
-10183 10225 0
-177 -10183 10184 0
-10184 10226 0
-179 -10184 10185 0
-10185 10227 0
-181 -10185 10186 0
-10186 10228 0
-183 -10186 10187 0
-10187 10229 0
-185 -10187 10188 0
-10188 10230 0
-187 -10188 10189 0
-10189 10231 0
-7 -10189 10190 0
-10190 10232 0
-190 -10190 10191 0
-10191 10233 0
-192 -10191 10192 0
-10192 10234 0
-194 -10192 10193 0
-10193 10235 0
-196 -10193 10194 0
-10194 10236 0
-198 -10194 10195 0
-10195 10237 0
-200 -10195 10196 0
-10196 10238 0
-202 -10196 10197 0
-10197 10239 0
-204 -10197 10198 0
-10198 10240 0
-206 -10198 10199 0
-10199 10241 0
-208 -10199 10200 0
-10200 10242 0
-210 -10200 10201 0
-10201 10243 0
-212 -10201 10202 0
-10202 10244 0
-214 -10202 10203 0
-10203 10245 0
-216 -10203 10204 0
-10204 10246 0
-8 -10204 10205 0
-10205 10247 0
-219 -10205 10206 0
-10206 10248 0
-221 -10206 10207 0
-10207 10249 0
-223 -10207 10208 0
-10208 10250 0
-225 -10208 10209 0
-10209 10251 0
-227 -10209 10210 0
-10210 10252 0
-229 -10210 10211 0
-10211 10253 0
-231 -10211 10212 0
-10212 10254 0
-233 -10212 10213 0
-10213 10255 0
-235 -10213 10214 0
-10214 10256 0
-237 -10214 10215 0
-10215 10257 0
-239 -10215 10216 0
-10216 10258 0
-241 -10216 10217 0
-10217 10259 0
-243 -10217 10218 0
-10218 10260 0
-245 -10218 10219 0
-10219 10261 0
-9 -10219 10220 0
-10220 10262 0
-248 -10220 0
-169 10221 0
-10221 10263 0
-171 -10221 10222 0
-10222 10264 0
-173 -10222 10223 0
-10223 10265 0
-175 -10223 10224 0
-10224 10266 0
-177 -10224 10225 0
-10225 10267 0
-179 -10225 10226 0
-10226 10268 0
-181 -10226 10227 0
-10227 10269 0
-183 -10227 10228 0
-10228 10270 0
-185 -10228 10229 0
-10229 10271 0
-187 -10229 10230 0
-10230 10272 0
-7 -10230 10231 0
-10231 10273 0
-190 -10231 10232 0
-10232 10274 0
-192 -10232 10233 0
-10233 10275 0
-194 -10233 10234 0
-10234 10276 0
-196 -10234 10235 0
-10235 10277 0
-198 -10235 10236 0
-10236 10278 0
-200 -10236 10237 0
-10237 10279 0
-202 -10237 10238 0
-10238 10280 0
-204 -10238 10239 0
-10239 10281 0
-206 -10239 10240 0
-10240 10282 0
-208 -10240 10241 0
-10241 10283 0
-210 -10241 10242 0
-10242 10284 0
-212 -10242 10243 0
-10243 10285 0
-214 -10243 10244 0
-10244 10286 0
-216 -10244 10245 0
-10245 10287 0
-8 -10245 10246 0
-10246 10288 0
-219 -10246 10247 0
-10247 10289 0
-221 -10247 10248 0
-10248 10290 0
-223 -10248 10249 0
-10249 10291 0
-225 -10249 10250 0
-10250 10292 0
-227 -10250 10251 0
-10251 10293 0
-229 -10251 10252 0
-10252 10294 0
-231 -10252 10253 0
-10253 10295 0
-233 -10253 10254 0
-10254 10296 0
-235 -10254 10255 0
-10255 10297 0
-237 -10255 10256 0
-10256 10298 0
-239 -10256 10257 0
-10257 10299 0
-241 -10257 10258 0
-10258 10300 0
-243 -10258 10259 0
-10259 10301 0
-245 -10259 10260 0
-10260 10302 0
-9 -10260 10261 0
-10261 10303 0
-248 -10261 10262 0
-10262 10304 0
-250 -10262 0
-171 10263 0
-10263 10305 0
-173 -10263 10264 0
-10264 10306 0
-175 -10264 10265 0
-10265 10307 0
-177 -10265 10266 0
-10266 10308 0
-179 -10266 10267 0
-10267 10309 0
-181 -10267 10268 0
-10268 10310 0
-183 -10268 10269 0
-10269 10311 0
-185 -10269 10270 0
-10270 10312 0
-187 -10270 10271 0
-10271 10313 0
-7 -10271 10272 0
-10272 10314 0
-190 -10272 10273 0
-10273 10315 0
-192 -10273 10274 0
-10274 10316 0
-194 -10274 10275 0
-10275 10317 0
-196 -10275 10276 0
-10276 10318 0
-198 -10276 10277 0
-10277 10319 0
-200 -10277 10278 0
-10278 10320 0
-202 -10278 10279 0
-10279 10321 0
-204 -10279 10280 0
-10280 10322 0
-206 -10280 10281 0
-10281 10323 0
-208 -10281 10282 0
-10282 10324 0
-210 -10282 10283 0
-10283 10325 0
-212 -10283 10284 0
-10284 10326 0
-214 -10284 10285 0
-10285 10327 0
-216 -10285 10286 0
-10286 10328 0
-8 -10286 10287 0
-10287 10329 0
-219 -10287 10288 0
-10288 10330 0
-221 -10288 10289 0
-10289 10331 0
-223 -10289 10290 0
-10290 10332 0
-225 -10290 10291 0
-10291 10333 0
-227 -10291 10292 0
-10292 10334 0
-229 -10292 10293 0
-10293 10335 0
-231 -10293 10294 0
-10294 10336 0
-233 -10294 10295 0
-10295 10337 0
-235 -10295 10296 0
-10296 10338 0
-237 -10296 10297 0
-10297 10339 0
-239 -10297 10298 0
-10298 10340 0
-241 -10298 10299 0
-10299 10341 0
-243 -10299 10300 0
-10300 10342 0
-245 -10300 10301 0
-10301 10343 0
-9 -10301 10302 0
-10302 10344 0
-248 -10302 10303 0
-10303 10345 0
-250 -10303 10304 0
-10304 10346 0
-252 -10304 0
-173 10305 0
-10305 10347 0
-175 -10305 10306 0
-10306 10348 0
-177 -10306 10307 0
-10307 10349 0
-179 -10307 10308 0
-10308 10350 0
-181 -10308 10309 0
-10309 10351 0
-183 -10309 10310 0
-10310 10352 0
-185 -10310 10311 0
-10311 10353 0
-187 -10311 10312 0
-10312 10354 0
-7 -10312 10313 0
-10313 10355 0
-190 -10313 10314 0
-10314 10356 0
-192 -10314 10315 0
-10315 10357 0
-194 -10315 10316 0
-10316 10358 0
-196 -10316 10317 0
-10317 10359 0
-198 -10317 10318 0
-10318 10360 0
-200 -10318 10319 0
-10319 10361 0
-202 -10319 10320 0
-10320 10362 0
-204 -10320 10321 0
-10321 10363 0
-206 -10321 10322 0
-10322 10364 0
-208 -10322 10323 0
-10323 10365 0
-210 -10323 10324 0
-10324 10366 0
-212 -10324 10325 0
-10325 10367 0
-214 -10325 10326 0
-10326 10368 0
-216 -10326 10327 0
-10327 10369 0
-8 -10327 10328 0
-10328 10370 0
-219 -10328 10329 0
-10329 10371 0
-221 -10329 10330 0
-10330 10372 0
-223 -10330 10331 0
-10331 10373 0
-225 -10331 10332 0
-10332 10374 0
-227 -10332 10333 0
-10333 10375 0
-229 -10333 10334 0
-10334 10376 0
-231 -10334 10335 0
-10335 10377 0
-233 -10335 10336 0
-10336 10378 0
-235 -10336 10337 0
-10337 10379 0
-237 -10337 10338 0
-10338 10380 0
-239 -10338 10339 0
-10339 10381 0
-241 -10339 10340 0
-10340 10382 0
-243 -10340 10341 0
-10341 10383 0
-245 -10341 10342 0
-10342 10384 0
-9 -10342 10343 0
-10343 10385 0
-248 -10343 10344 0
-10344 10386 0
-250 -10344 10345 0
-10345 10387 0
-252 -10345 10346 0
-10346 10388 0
-254 -10346 0
-175 10347 0
-10347 10389 0
-177 -10347 10348 0
-10348 10390 0
-179 -10348 10349 0
-10349 10391 0
-181 -10349 10350 0
-10350 10392 0
-183 -10350 10351 0
-10351 10393 0
-185 -10351 10352 0
-10352 10394 0
-187 -10352 10353 0
-10353 10395 0
-7 -10353 10354 0
-10354 10396 0
-190 -10354 10355 0
-10355 10397 0
-192 -10355 10356 0
-10356 10398 0
-194 -10356 10357 0
-10357 10399 0
-196 -10357 10358 0
-10358 10400 0
-198 -10358 10359 0
-10359 10401 0
-200 -10359 10360 0
-10360 10402 0
-202 -10360 10361 0
-10361 10403 0
-204 -10361 10362 0
-10362 10404 0
-206 -10362 10363 0
-10363 10405 0
-208 -10363 10364 0
-10364 10406 0
-210 -10364 10365 0
-10365 10407 0
-212 -10365 10366 0
-10366 10408 0
-214 -10366 10367 0
-10367 10409 0
-216 -10367 10368 0
-10368 10410 0
-8 -10368 10369 0
-10369 10411 0
-219 -10369 10370 0
-10370 10412 0
-221 -10370 10371 0
-10371 10413 0
-223 -10371 10372 0
-10372 10414 0
-225 -10372 10373 0
-10373 10415 0
-227 -10373 10374 0
-10374 10416 0
-229 -10374 10375 0
-10375 10417 0
-231 -10375 10376 0
-10376 10418 0
-233 -10376 10377 0
-10377 10419 0
-235 -10377 10378 0
-10378 10420 0
-237 -10378 10379 0
-10379 10421 0
-239 -10379 10380 0
-10380 10422 0
-241 -10380 10381 0
-10381 10423 0
-243 -10381 10382 0
-10382 10424 0
-245 -10382 10383 0
-10383 10425 0
-9 -10383 10384 0
-10384 10426 0
-248 -10384 10385 0
-10385 10427 0
-250 -10385 10386 0
-10386 10428 0
-252 -10386 10387 0
-10387 10429 0
-254 -10387 10388 0
-10388 10430 0
-256 -10388 0
-177 10389 0
-10389 10431 0
-179 -10389 10390 0
-10390 10432 0
-181 -10390 10391 0
-10391 10433 0
-183 -10391 10392 0
-10392 10434 0
-185 -10392 10393 0
-10393 10435 0
-187 -10393 10394 0
-10394 10436 0
-7 -10394 10395 0
-10395 10437 0
-190 -10395 10396 0
-10396 10438 0
-192 -10396 10397 0
-10397 10439 0
-194 -10397 10398 0
-10398 10440 0
-196 -10398 10399 0
-10399 10441 0
-198 -10399 10400 0
-10400 10442 0
-200 -10400 10401 0
-10401 10443 0
-202 -10401 10402 0
-10402 10444 0
-204 -10402 10403 0
-10403 10445 0
-206 -10403 10404 0
-10404 10446 0
-208 -10404 10405 0
-10405 10447 0
-210 -10405 10406 0
-10406 10448 0
-212 -10406 10407 0
-10407 10449 0
-214 -10407 10408 0
-10408 10450 0
-216 -10408 10409 0
-10409 10451 0
-8 -10409 10410 0
-10410 10452 0
-219 -10410 10411 0
-10411 10453 0
-221 -10411 10412 0
-10412 10454 0
-223 -10412 10413 0
-10413 10455 0
-225 -10413 10414 0
-10414 10456 0
-227 -10414 10415 0
-10415 10457 0
-229 -10415 10416 0
-10416 10458 0
-231 -10416 10417 0
-10417 10459 0
-233 -10417 10418 0
-10418 10460 0
-235 -10418 10419 0
-10419 10461 0
-237 -10419 10420 0
-10420 10462 0
-239 -10420 10421 0
-10421 10463 0
-241 -10421 10422 0
-10422 10464 0
-243 -10422 10423 0
-10423 10465 0
-245 -10423 10424 0
-10424 10466 0
-9 -10424 10425 0
-10425 10467 0
-248 -10425 10426 0
-10426 10468 0
-250 -10426 10427 0
-10427 10469 0
-252 -10427 10428 0
-10428 10470 0
-254 -10428 10429 0
-10429 10471 0
-256 -10429 10430 0
-10430 10472 0
-258 -10430 0
-179 10431 0
-10431 10473 0
-181 -10431 10432 0
-10432 10474 0
-183 -10432 10433 0
-10433 10475 0
-185 -10433 10434 0
-10434 10476 0
-187 -10434 10435 0
-10435 10477 0
-7 -10435 10436 0
-10436 10478 0
-190 -10436 10437 0
-10437 10479 0
-192 -10437 10438 0
-10438 10480 0
-194 -10438 10439 0
-10439 10481 0
-196 -10439 10440 0
-10440 10482 0
-198 -10440 10441 0
-10441 10483 0
-200 -10441 10442 0
-10442 10484 0
-202 -10442 10443 0
-10443 10485 0
-204 -10443 10444 0
-10444 10486 0
-206 -10444 10445 0
-10445 10487 0
-208 -10445 10446 0
-10446 10488 0
-210 -10446 10447 0
-10447 10489 0
-212 -10447 10448 0
-10448 10490 0
-214 -10448 10449 0
-10449 10491 0
-216 -10449 10450 0
-10450 10492 0
-8 -10450 10451 0
-10451 10493 0
-219 -10451 10452 0
-10452 10494 0
-221 -10452 10453 0
-10453 10495 0
-223 -10453 10454 0
-10454 10496 0
-225 -10454 10455 0
-10455 10497 0
-227 -10455 10456 0
-10456 10498 0
-229 -10456 10457 0
-10457 10499 0
-231 -10457 10458 0
-10458 10500 0
-233 -10458 10459 0
-10459 10501 0
-235 -10459 10460 0
-10460 10502 0
-237 -10460 10461 0
-10461 10503 0
-239 -10461 10462 0
-10462 10504 0
-241 -10462 10463 0
-10463 10505 0
-243 -10463 10464 0
-10464 10506 0
-245 -10464 10465 0
-10465 10507 0
-9 -10465 10466 0
-10466 10508 0
-248 -10466 10467 0
-10467 10509 0
-250 -10467 10468 0
-10468 10510 0
-252 -10468 10469 0
-10469 10511 0
-254 -10469 10470 0
-10470 10512 0
-256 -10470 10471 0
-10471 10513 0
-258 -10471 10472 0
-10472 10514 0
-260 -10472 0
-181 10473 0
-10473 10515 0
-183 -10473 10474 0
-10474 10516 0
-185 -10474 10475 0
-10475 10517 0
-187 -10475 10476 0
-10476 10518 0
-7 -10476 10477 0
-10477 10519 0
-190 -10477 10478 0
-10478 10520 0
-192 -10478 10479 0
-10479 10521 0
-194 -10479 10480 0
-10480 10522 0
-196 -10480 10481 0
-10481 10523 0
-198 -10481 10482 0
-10482 10524 0
-200 -10482 10483 0
-10483 10525 0
-202 -10483 10484 0
-10484 10526 0
-204 -10484 10485 0
-10485 10527 0
-206 -10485 10486 0
-10486 10528 0
-208 -10486 10487 0
-10487 10529 0
-210 -10487 10488 0
-10488 10530 0
-212 -10488 10489 0
-10489 10531 0
-214 -10489 10490 0
-10490 10532 0
-216 -10490 10491 0
-10491 10533 0
-8 -10491 10492 0
-10492 10534 0
-219 -10492 10493 0
-10493 10535 0
-221 -10493 10494 0
-10494 10536 0
-223 -10494 10495 0
-10495 10537 0
-225 -10495 10496 0
-10496 10538 0
-227 -10496 10497 0
-10497 10539 0
-229 -10497 10498 0
-10498 10540 0
-231 -10498 10499 0
-10499 10541 0
-233 -10499 10500 0
-10500 10542 0
-235 -10500 10501 0
-10501 10543 0
-237 -10501 10502 0
-10502 10544 0
-239 -10502 10503 0
-10503 10545 0
-241 -10503 10504 0
-10504 10546 0
-243 -10504 10505 0
-10505 10547 0
-245 -10505 10506 0
-10506 10548 0
-9 -10506 10507 0
-10507 10549 0
-248 -10507 10508 0
-10508 10550 0
-250 -10508 10509 0
-10509 10551 0
-252 -10509 10510 0
-10510 10552 0
-254 -10510 10511 0
-10511 10553 0
-256 -10511 10512 0
-10512 10554 0
-258 -10512 10513 0
-10513 10555 0
-260 -10513 10514 0
-10514 10556 0
-262 -10514 0
-183 10515 0
-10515 10557 0
-185 -10515 10516 0
-10516 10558 0
-187 -10516 10517 0
-10517 10559 0
-7 -10517 10518 0
-10518 10560 0
-190 -10518 10519 0
-10519 10561 0
-192 -10519 10520 0
-10520 10562 0
-194 -10520 10521 0
-10521 10563 0
-196 -10521 10522 0
-10522 10564 0
-198 -10522 10523 0
-10523 10565 0
-200 -10523 10524 0
-10524 10566 0
-202 -10524 10525 0
-10525 10567 0
-204 -10525 10526 0
-10526 10568 0
-206 -10526 10527 0
-10527 10569 0
-208 -10527 10528 0
-10528 10570 0
-210 -10528 10529 0
-10529 10571 0
-212 -10529 10530 0
-10530 10572 0
-214 -10530 10531 0
-10531 10573 0
-216 -10531 10532 0
-10532 10574 0
-8 -10532 10533 0
-10533 10575 0
-219 -10533 10534 0
-10534 10576 0
-221 -10534 10535 0
-10535 10577 0
-223 -10535 10536 0
-10536 10578 0
-225 -10536 10537 0
-10537 10579 0
-227 -10537 10538 0
-10538 10580 0
-229 -10538 10539 0
-10539 10581 0
-231 -10539 10540 0
-10540 10582 0
-233 -10540 10541 0
-10541 10583 0
-235 -10541 10542 0
-10542 10584 0
-237 -10542 10543 0
-10543 10585 0
-239 -10543 10544 0
-10544 10586 0
-241 -10544 10545 0
-10545 10587 0
-243 -10545 10546 0
-10546 10588 0
-245 -10546 10547 0
-10547 10589 0
-9 -10547 10548 0
-10548 10590 0
-248 -10548 10549 0
-10549 10591 0
-250 -10549 10550 0
-10550 10592 0
-252 -10550 10551 0
-10551 10593 0
-254 -10551 10552 0
-10552 10594 0
-256 -10552 10553 0
-10553 10595 0
-258 -10553 10554 0
-10554 10596 0
-260 -10554 10555 0
-10555 10597 0
-262 -10555 10556 0
-10556 10598 0
-264 -10556 0
-185 10557 0
-10557 10599 0
-187 -10557 10558 0
-10558 10600 0
-7 -10558 10559 0
-10559 10601 0
-190 -10559 10560 0
-10560 10602 0
-192 -10560 10561 0
-10561 10603 0
-194 -10561 10562 0
-10562 10604 0
-196 -10562 10563 0
-10563 10605 0
-198 -10563 10564 0
-10564 10606 0
-200 -10564 10565 0
-10565 10607 0
-202 -10565 10566 0
-10566 10608 0
-204 -10566 10567 0
-10567 10609 0
-206 -10567 10568 0
-10568 10610 0
-208 -10568 10569 0
-10569 10611 0
-210 -10569 10570 0
-10570 10612 0
-212 -10570 10571 0
-10571 10613 0
-214 -10571 10572 0
-10572 10614 0
-216 -10572 10573 0
-10573 10615 0
-8 -10573 10574 0
-10574 10616 0
-219 -10574 10575 0
-10575 10617 0
-221 -10575 10576 0
-10576 10618 0
-223 -10576 10577 0
-10577 10619 0
-225 -10577 10578 0
-10578 10620 0
-227 -10578 10579 0
-10579 10621 0
-229 -10579 10580 0
-10580 10622 0
-231 -10580 10581 0
-10581 10623 0
-233 -10581 10582 0
-10582 10624 0
-235 -10582 10583 0
-10583 10625 0
-237 -10583 10584 0
-10584 10626 0
-239 -10584 10585 0
-10585 10627 0
-241 -10585 10586 0
-10586 10628 0
-243 -10586 10587 0
-10587 10629 0
-245 -10587 10588 0
-10588 10630 0
-9 -10588 10589 0
-10589 10631 0
-248 -10589 10590 0
-10590 10632 0
-250 -10590 10591 0
-10591 10633 0
-252 -10591 10592 0
-10592 10634 0
-254 -10592 10593 0
-10593 10635 0
-256 -10593 10594 0
-10594 10636 0
-258 -10594 10595 0
-10595 10637 0
-260 -10595 10596 0
-10596 10638 0
-262 -10596 10597 0
-10597 10639 0
-264 -10597 10598 0
-10598 10640 0
-266 -10598 0
-187 10599 0
-10599 10641 0
-7 -10599 10600 0
-10600 10642 0
-190 -10600 10601 0
-10601 10643 0
-192 -10601 10602 0
-10602 10644 0
-194 -10602 10603 0
-10603 10645 0
-196 -10603 10604 0
-10604 10646 0
-198 -10604 10605 0
-10605 10647 0
-200 -10605 10606 0
-10606 10648 0
-202 -10606 10607 0
-10607 10649 0
-204 -10607 10608 0
-10608 10650 0
-206 -10608 10609 0
-10609 10651 0
-208 -10609 10610 0
-10610 10652 0
-210 -10610 10611 0
-10611 10653 0
-212 -10611 10612 0
-10612 10654 0
-214 -10612 10613 0
-10613 10655 0
-216 -10613 10614 0
-10614 10656 0
-8 -10614 10615 0
-10615 10657 0
-219 -10615 10616 0
-10616 10658 0
-221 -10616 10617 0
-10617 10659 0
-223 -10617 10618 0
-10618 10660 0
-225 -10618 10619 0
-10619 10661 0
-227 -10619 10620 0
-10620 10662 0
-229 -10620 10621 0
-10621 10663 0
-231 -10621 10622 0
-10622 10664 0
-233 -10622 10623 0
-10623 10665 0
-235 -10623 10624 0
-10624 10666 0
-237 -10624 10625 0
-10625 10667 0
-239 -10625 10626 0
-10626 10668 0
-241 -10626 10627 0
-10627 10669 0
-243 -10627 10628 0
-10628 10670 0
-245 -10628 10629 0
-10629 10671 0
-9 -10629 10630 0
-10630 10672 0
-248 -10630 10631 0
-10631 10673 0
-250 -10631 10632 0
-10632 10674 0
-252 -10632 10633 0
-10633 10675 0
-254 -10633 10634 0
-10634 10676 0
-256 -10634 10635 0
-10635 10677 0
-258 -10635 10636 0
-10636 10678 0
-260 -10636 10637 0
-10637 10679 0
-262 -10637 10638 0
-10638 10680 0
-264 -10638 10639 0
-10639 10681 0
-266 -10639 10640 0
-10640 10682 0
-268 -10640 0
-7 10641 0
-10641 10683 0
-190 -10641 10642 0
-10642 10684 0
-192 -10642 10643 0
-10643 10685 0
-194 -10643 10644 0
-10644 10686 0
-196 -10644 10645 0
-10645 10687 0
-198 -10645 10646 0
-10646 10688 0
-200 -10646 10647 0
-10647 10689 0
-202 -10647 10648 0
-10648 10690 0
-204 -10648 10649 0
-10649 10691 0
-206 -10649 10650 0
-10650 10692 0
-208 -10650 10651 0
-10651 10693 0
-210 -10651 10652 0
-10652 10694 0
-212 -10652 10653 0
-10653 10695 0
-214 -10653 10654 0
-10654 10696 0
-216 -10654 10655 0
-10655 10697 0
-8 -10655 10656 0
-10656 10698 0
-219 -10656 10657 0
-10657 10699 0
-221 -10657 10658 0
-10658 10700 0
-223 -10658 10659 0
-10659 10701 0
-225 -10659 10660 0
-10660 10702 0
-227 -10660 10661 0
-10661 10703 0
-229 -10661 10662 0
-10662 10704 0
-231 -10662 10663 0
-10663 10705 0
-233 -10663 10664 0
-10664 10706 0
-235 -10664 10665 0
-10665 10707 0
-237 -10665 10666 0
-10666 10708 0
-239 -10666 10667 0
-10667 10709 0
-241 -10667 10668 0
-10668 10710 0
-243 -10668 10669 0
-10669 10711 0
-245 -10669 10670 0
-10670 10712 0
-9 -10670 10671 0
-10671 10713 0
-248 -10671 10672 0
-10672 10714 0
-250 -10672 10673 0
-10673 10715 0
-252 -10673 10674 0
-10674 10716 0
-254 -10674 10675 0
-10675 10717 0
-256 -10675 10676 0
-10676 10718 0
-258 -10676 10677 0
-10677 10719 0
-260 -10677 10678 0
-10678 10720 0
-262 -10678 10679 0
-10679 10721 0
-264 -10679 10680 0
-10680 10722 0
-266 -10680 10681 0
-10681 10723 0
-268 -10681 10682 0
-10682 10724 0
-270 -10682 0
-190 10683 0
-10683 10725 0
-192 -10683 10684 0
-10684 10726 0
-194 -10684 10685 0
-10685 10727 0
-196 -10685 10686 0
-10686 10728 0
-198 -10686 10687 0
-10687 10729 0
-200 -10687 10688 0
-10688 10730 0
-202 -10688 10689 0
-10689 10731 0
-204 -10689 10690 0
-10690 10732 0
-206 -10690 10691 0
-10691 10733 0
-208 -10691 10692 0
-10692 10734 0
-210 -10692 10693 0
-10693 10735 0
-212 -10693 10694 0
-10694 10736 0
-214 -10694 10695 0
-10695 10737 0
-216 -10695 10696 0
-10696 10738 0
-8 -10696 10697 0
-10697 10739 0
-219 -10697 10698 0
-10698 10740 0
-221 -10698 10699 0
-10699 10741 0
-223 -10699 10700 0
-10700 10742 0
-225 -10700 10701 0
-10701 10743 0
-227 -10701 10702 0
-10702 10744 0
-229 -10702 10703 0
-10703 10745 0
-231 -10703 10704 0
-10704 10746 0
-233 -10704 10705 0
-10705 10747 0
-235 -10705 10706 0
-10706 10748 0
-237 -10706 10707 0
-10707 10749 0
-239 -10707 10708 0
-10708 10750 0
-241 -10708 10709 0
-10709 10751 0
-243 -10709 10710 0
-10710 10752 0
-245 -10710 10711 0
-10711 10753 0
-9 -10711 10712 0
-10712 10754 0
-248 -10712 10713 0
-10713 10755 0
-250 -10713 10714 0
-10714 10756 0
-252 -10714 10715 0
-10715 10757 0
-254 -10715 10716 0
-10716 10758 0
-256 -10716 10717 0
-10717 10759 0
-258 -10717 10718 0
-10718 10760 0
-260 -10718 10719 0
-10719 10761 0
-262 -10719 10720 0
-10720 10762 0
-264 -10720 10721 0
-10721 10763 0
-266 -10721 10722 0
-10722 10764 0
-268 -10722 10723 0
-10723 10765 0
-270 -10723 10724 0
-10724 10766 0
-272 -10724 0
-192 10725 0
-10725 10767 0
-194 -10725 10726 0
-10726 10768 0
-196 -10726 10727 0
-10727 10769 0
-198 -10727 10728 0
-10728 10770 0
-200 -10728 10729 0
-10729 10771 0
-202 -10729 10730 0
-10730 10772 0
-204 -10730 10731 0
-10731 10773 0
-206 -10731 10732 0
-10732 10774 0
-208 -10732 10733 0
-10733 10775 0
-210 -10733 10734 0
-10734 10776 0
-212 -10734 10735 0
-10735 10777 0
-214 -10735 10736 0
-10736 10778 0
-216 -10736 10737 0
-10737 10779 0
-8 -10737 10738 0
-10738 10780 0
-219 -10738 10739 0
-10739 10781 0
-221 -10739 10740 0
-10740 10782 0
-223 -10740 10741 0
-10741 10783 0
-225 -10741 10742 0
-10742 10784 0
-227 -10742 10743 0
-10743 10785 0
-229 -10743 10744 0
-10744 10786 0
-231 -10744 10745 0
-10745 10787 0
-233 -10745 10746 0
-10746 10788 0
-235 -10746 10747 0
-10747 10789 0
-237 -10747 10748 0
-10748 10790 0
-239 -10748 10749 0
-10749 10791 0
-241 -10749 10750 0
-10750 10792 0
-243 -10750 10751 0
-10751 10793 0
-245 -10751 10752 0
-10752 10794 0
-9 -10752 10753 0
-10753 10795 0
-248 -10753 10754 0
-10754 10796 0
-250 -10754 10755 0
-10755 10797 0
-252 -10755 10756 0
-10756 10798 0
-254 -10756 10757 0
-10757 10799 0
-256 -10757 10758 0
-10758 10800 0
-258 -10758 10759 0
-10759 10801 0
-260 -10759 10760 0
-10760 10802 0
-262 -10760 10761 0
-10761 10803 0
-264 -10761 10762 0
-10762 10804 0
-266 -10762 10763 0
-10763 10805 0
-268 -10763 10764 0
-10764 10806 0
-270 -10764 10765 0
-10765 10807 0
-272 -10765 10766 0
-10766 10808 0
-274 -10766 0
-194 10767 0
-10767 10809 0
-196 -10767 10768 0
-10768 10810 0
-198 -10768 10769 0
-10769 10811 0
-200 -10769 10770 0
-10770 10812 0
-202 -10770 10771 0
-10771 10813 0
-204 -10771 10772 0
-10772 10814 0
-206 -10772 10773 0
-10773 10815 0
-208 -10773 10774 0
-10774 10816 0
-210 -10774 10775 0
-10775 10817 0
-212 -10775 10776 0
-10776 10818 0
-214 -10776 10777 0
-10777 10819 0
-216 -10777 10778 0
-10778 10820 0
-8 -10778 10779 0
-10779 10821 0
-219 -10779 10780 0
-10780 10822 0
-221 -10780 10781 0
-10781 10823 0
-223 -10781 10782 0
-10782 10824 0
-225 -10782 10783 0
-10783 10825 0
-227 -10783 10784 0
-10784 10826 0
-229 -10784 10785 0
-10785 10827 0
-231 -10785 10786 0
-10786 10828 0
-233 -10786 10787 0
-10787 10829 0
-235 -10787 10788 0
-10788 10830 0
-237 -10788 10789 0
-10789 10831 0
-239 -10789 10790 0
-10790 10832 0
-241 -10790 10791 0
-10791 10833 0
-243 -10791 10792 0
-10792 10834 0
-245 -10792 10793 0
-10793 10835 0
-9 -10793 10794 0
-10794 10836 0
-248 -10794 10795 0
-10795 10837 0
-250 -10795 10796 0
-10796 10838 0
-252 -10796 10797 0
-10797 10839 0
-254 -10797 10798 0
-10798 10840 0
-256 -10798 10799 0
-10799 10841 0
-258 -10799 10800 0
-10800 10842 0
-260 -10800 10801 0
-10801 10843 0
-262 -10801 10802 0
-10802 10844 0
-264 -10802 10803 0
-10803 10845 0
-266 -10803 10804 0
-10804 10846 0
-268 -10804 10805 0
-10805 10847 0
-270 -10805 10806 0
-10806 10848 0
-272 -10806 10807 0
-10807 10849 0
-274 -10807 10808 0
-10808 10850 0
-10 -10808 0
-196 10809 0
-10809 10851 0
-198 -10809 10810 0
-10810 10852 0
-200 -10810 10811 0
-10811 10853 0
-202 -10811 10812 0
-10812 10854 0
-204 -10812 10813 0
-10813 10855 0
-206 -10813 10814 0
-10814 10856 0
-208 -10814 10815 0
-10815 10857 0
-210 -10815 10816 0
-10816 10858 0
-212 -10816 10817 0
-10817 10859 0
-214 -10817 10818 0
-10818 10860 0
-216 -10818 10819 0
-10819 10861 0
-8 -10819 10820 0
-10820 10862 0
-219 -10820 10821 0
-10821 10863 0
-221 -10821 10822 0
-10822 10864 0
-223 -10822 10823 0
-10823 10865 0
-225 -10823 10824 0
-10824 10866 0
-227 -10824 10825 0
-10825 10867 0
-229 -10825 10826 0
-10826 10868 0
-231 -10826 10827 0
-10827 10869 0
-233 -10827 10828 0
-10828 10870 0
-235 -10828 10829 0
-10829 10871 0
-237 -10829 10830 0
-10830 10872 0
-239 -10830 10831 0
-10831 10873 0
-241 -10831 10832 0
-10832 10874 0
-243 -10832 10833 0
-10833 10875 0
-245 -10833 10834 0
-10834 10876 0
-9 -10834 10835 0
-10835 10877 0
-248 -10835 10836 0
-10836 10878 0
-250 -10836 10837 0
-10837 10879 0
-252 -10837 10838 0
-10838 10880 0
-254 -10838 10839 0
-10839 10881 0
-256 -10839 10840 0
-10840 10882 0
-258 -10840 10841 0
-10841 10883 0
-260 -10841 10842 0
-10842 10884 0
-262 -10842 10843 0
-10843 10885 0
-264 -10843 10844 0
-10844 10886 0
-266 -10844 10845 0
-10845 10887 0
-268 -10845 10846 0
-10846 10888 0
-270 -10846 10847 0
-10847 10889 0
-272 -10847 10848 0
-10848 10890 0
-274 -10848 10849 0
-10849 10891 0
-10 -10849 10850 0
-10850 10892 0
-277 -10850 0
-198 10851 0
-10851 10893 0
-200 -10851 10852 0
-10852 10894 0
-202 -10852 10853 0
-10853 10895 0
-204 -10853 10854 0
-10854 10896 0
-206 -10854 10855 0
-10855 10897 0
-208 -10855 10856 0
-10856 10898 0
-210 -10856 10857 0
-10857 10899 0
-212 -10857 10858 0
-10858 10900 0
-214 -10858 10859 0
-10859 10901 0
-216 -10859 10860 0
-10860 10902 0
-8 -10860 10861 0
-10861 10903 0
-219 -10861 10862 0
-10862 10904 0
-221 -10862 10863 0
-10863 10905 0
-223 -10863 10864 0
-10864 10906 0
-225 -10864 10865 0
-10865 10907 0
-227 -10865 10866 0
-10866 10908 0
-229 -10866 10867 0
-10867 10909 0
-231 -10867 10868 0
-10868 10910 0
-233 -10868 10869 0
-10869 10911 0
-235 -10869 10870 0
-10870 10912 0
-237 -10870 10871 0
-10871 10913 0
-239 -10871 10872 0
-10872 10914 0
-241 -10872 10873 0
-10873 10915 0
-243 -10873 10874 0
-10874 10916 0
-245 -10874 10875 0
-10875 10917 0
-9 -10875 10876 0
-10876 10918 0
-248 -10876 10877 0
-10877 10919 0
-250 -10877 10878 0
-10878 10920 0
-252 -10878 10879 0
-10879 10921 0
-254 -10879 10880 0
-10880 10922 0
-256 -10880 10881 0
-10881 10923 0
-258 -10881 10882 0
-10882 10924 0
-260 -10882 10883 0
-10883 10925 0
-262 -10883 10884 0
-10884 10926 0
-264 -10884 10885 0
-10885 10927 0
-266 -10885 10886 0
-10886 10928 0
-268 -10886 10887 0
-10887 10929 0
-270 -10887 10888 0
-10888 10930 0
-272 -10888 10889 0
-10889 10931 0
-274 -10889 10890 0
-10890 10932 0
-10 -10890 10891 0
-10891 10933 0
-277 -10891 10892 0
-10892 10934 0
-279 -10892 0
-200 10893 0
-10893 10935 0
-202 -10893 10894 0
-10894 10936 0
-204 -10894 10895 0
-10895 10937 0
-206 -10895 10896 0
-10896 10938 0
-208 -10896 10897 0
-10897 10939 0
-210 -10897 10898 0
-10898 10940 0
-212 -10898 10899 0
-10899 10941 0
-214 -10899 10900 0
-10900 10942 0
-216 -10900 10901 0
-10901 10943 0
-8 -10901 10902 0
-10902 10944 0
-219 -10902 10903 0
-10903 10945 0
-221 -10903 10904 0
-10904 10946 0
-223 -10904 10905 0
-10905 10947 0
-225 -10905 10906 0
-10906 10948 0
-227 -10906 10907 0
-10907 10949 0
-229 -10907 10908 0
-10908 10950 0
-231 -10908 10909 0
-10909 10951 0
-233 -10909 10910 0
-10910 10952 0
-235 -10910 10911 0
-10911 10953 0
-237 -10911 10912 0
-10912 10954 0
-239 -10912 10913 0
-10913 10955 0
-241 -10913 10914 0
-10914 10956 0
-243 -10914 10915 0
-10915 10957 0
-245 -10915 10916 0
-10916 10958 0
-9 -10916 10917 0
-10917 10959 0
-248 -10917 10918 0
-10918 10960 0
-250 -10918 10919 0
-10919 10961 0
-252 -10919 10920 0
-10920 10962 0
-254 -10920 10921 0
-10921 10963 0
-256 -10921 10922 0
-10922 10964 0
-258 -10922 10923 0
-10923 10965 0
-260 -10923 10924 0
-10924 10966 0
-262 -10924 10925 0
-10925 10967 0
-264 -10925 10926 0
-10926 10968 0
-266 -10926 10927 0
-10927 10969 0
-268 -10927 10928 0
-10928 10970 0
-270 -10928 10929 0
-10929 10971 0
-272 -10929 10930 0
-10930 10972 0
-274 -10930 10931 0
-10931 10973 0
-10 -10931 10932 0
-10932 10974 0
-277 -10932 10933 0
-10933 10975 0
-279 -10933 10934 0
-10934 10976 0
-281 -10934 0
-202 10935 0
-10935 10977 0
-204 -10935 10936 0
-10936 10978 0
-206 -10936 10937 0
-10937 10979 0
-208 -10937 10938 0
-10938 10980 0
-210 -10938 10939 0
-10939 10981 0
-212 -10939 10940 0
-10940 10982 0
-214 -10940 10941 0
-10941 10983 0
-216 -10941 10942 0
-10942 10984 0
-8 -10942 10943 0
-10943 10985 0
-219 -10943 10944 0
-10944 10986 0
-221 -10944 10945 0
-10945 10987 0
-223 -10945 10946 0
-10946 10988 0
-225 -10946 10947 0
-10947 10989 0
-227 -10947 10948 0
-10948 10990 0
-229 -10948 10949 0
-10949 10991 0
-231 -10949 10950 0
-10950 10992 0
-233 -10950 10951 0
-10951 10993 0
-235 -10951 10952 0
-10952 10994 0
-237 -10952 10953 0
-10953 10995 0
-239 -10953 10954 0
-10954 10996 0
-241 -10954 10955 0
-10955 10997 0
-243 -10955 10956 0
-10956 10998 0
-245 -10956 10957 0
-10957 10999 0
-9 -10957 10958 0
-10958 11000 0
-248 -10958 10959 0
-10959 11001 0
-250 -10959 10960 0
-10960 11002 0
-252 -10960 10961 0
-10961 11003 0
-254 -10961 10962 0
-10962 11004 0
-256 -10962 10963 0
-10963 11005 0
-258 -10963 10964 0
-10964 11006 0
-260 -10964 10965 0
-10965 11007 0
-262 -10965 10966 0
-10966 11008 0
-264 -10966 10967 0
-10967 11009 0
-266 -10967 10968 0
-10968 11010 0
-268 -10968 10969 0
-10969 11011 0
-270 -10969 10970 0
-10970 11012 0
-272 -10970 10971 0
-10971 11013 0
-274 -10971 10972 0
-10972 11014 0
-10 -10972 10973 0
-10973 11015 0
-277 -10973 10974 0
-10974 11016 0
-279 -10974 10975 0
-10975 11017 0
-281 -10975 10976 0
-10976 11018 0
-283 -10976 0
-204 10977 0
-10977 11019 0
-206 -10977 10978 0
-10978 11020 0
-208 -10978 10979 0
-10979 11021 0
-210 -10979 10980 0
-10980 11022 0
-212 -10980 10981 0
-10981 11023 0
-214 -10981 10982 0
-10982 11024 0
-216 -10982 10983 0
-10983 11025 0
-8 -10983 10984 0
-10984 11026 0
-219 -10984 10985 0
-10985 11027 0
-221 -10985 10986 0
-10986 11028 0
-223 -10986 10987 0
-10987 11029 0
-225 -10987 10988 0
-10988 11030 0
-227 -10988 10989 0
-10989 11031 0
-229 -10989 10990 0
-10990 11032 0
-231 -10990 10991 0
-10991 11033 0
-233 -10991 10992 0
-10992 11034 0
-235 -10992 10993 0
-10993 11035 0
-237 -10993 10994 0
-10994 11036 0
-239 -10994 10995 0
-10995 11037 0
-241 -10995 10996 0
-10996 11038 0
-243 -10996 10997 0
-10997 11039 0
-245 -10997 10998 0
-10998 11040 0
-9 -10998 10999 0
-10999 11041 0
-248 -10999 11000 0
-11000 11042 0
-250 -11000 11001 0
-11001 11043 0
-252 -11001 11002 0
-11002 11044 0
-254 -11002 11003 0
-11003 11045 0
-256 -11003 11004 0
-11004 11046 0
-258 -11004 11005 0
-11005 11047 0
-260 -11005 11006 0
-11006 11048 0
-262 -11006 11007 0
-11007 11049 0
-264 -11007 11008 0
-11008 11050 0
-266 -11008 11009 0
-11009 11051 0
-268 -11009 11010 0
-11010 11052 0
-270 -11010 11011 0
-11011 11053 0
-272 -11011 11012 0
-11012 11054 0
-274 -11012 11013 0
-11013 11055 0
-10 -11013 11014 0
-11014 11056 0
-277 -11014 11015 0
-11015 11057 0
-279 -11015 11016 0
-11016 11058 0
-281 -11016 11017 0
-11017 11059 0
-283 -11017 11018 0
-11018 11060 0
-285 -11018 0
-206 11019 0
-11019 11061 0
-208 -11019 11020 0
-11020 11062 0
-210 -11020 11021 0
-11021 11063 0
-212 -11021 11022 0
-11022 11064 0
-214 -11022 11023 0
-11023 11065 0
-216 -11023 11024 0
-11024 11066 0
-8 -11024 11025 0
-11025 11067 0
-219 -11025 11026 0
-11026 11068 0
-221 -11026 11027 0
-11027 11069 0
-223 -11027 11028 0
-11028 11070 0
-225 -11028 11029 0
-11029 11071 0
-227 -11029 11030 0
-11030 11072 0
-229 -11030 11031 0
-11031 11073 0
-231 -11031 11032 0
-11032 11074 0
-233 -11032 11033 0
-11033 11075 0
-235 -11033 11034 0
-11034 11076 0
-237 -11034 11035 0
-11035 11077 0
-239 -11035 11036 0
-11036 11078 0
-241 -11036 11037 0
-11037 11079 0
-243 -11037 11038 0
-11038 11080 0
-245 -11038 11039 0
-11039 11081 0
-9 -11039 11040 0
-11040 11082 0
-248 -11040 11041 0
-11041 11083 0
-250 -11041 11042 0
-11042 11084 0
-252 -11042 11043 0
-11043 11085 0
-254 -11043 11044 0
-11044 11086 0
-256 -11044 11045 0
-11045 11087 0
-258 -11045 11046 0
-11046 11088 0
-260 -11046 11047 0
-11047 11089 0
-262 -11047 11048 0
-11048 11090 0
-264 -11048 11049 0
-11049 11091 0
-266 -11049 11050 0
-11050 11092 0
-268 -11050 11051 0
-11051 11093 0
-270 -11051 11052 0
-11052 11094 0
-272 -11052 11053 0
-11053 11095 0
-274 -11053 11054 0
-11054 11096 0
-10 -11054 11055 0
-11055 11097 0
-277 -11055 11056 0
-11056 11098 0
-279 -11056 11057 0
-11057 11099 0
-281 -11057 11058 0
-11058 11100 0
-283 -11058 11059 0
-11059 11101 0
-285 -11059 11060 0
-11060 11102 0
-287 -11060 0
-208 11061 0
-11061 11103 0
-210 -11061 11062 0
-11062 11104 0
-212 -11062 11063 0
-11063 11105 0
-214 -11063 11064 0
-11064 11106 0
-216 -11064 11065 0
-11065 11107 0
-8 -11065 11066 0
-11066 11108 0
-219 -11066 11067 0
-11067 11109 0
-221 -11067 11068 0
-11068 11110 0
-223 -11068 11069 0
-11069 11111 0
-225 -11069 11070 0
-11070 11112 0
-227 -11070 11071 0
-11071 11113 0
-229 -11071 11072 0
-11072 11114 0
-231 -11072 11073 0
-11073 11115 0
-233 -11073 11074 0
-11074 11116 0
-235 -11074 11075 0
-11075 11117 0
-237 -11075 11076 0
-11076 11118 0
-239 -11076 11077 0
-11077 11119 0
-241 -11077 11078 0
-11078 11120 0
-243 -11078 11079 0
-11079 11121 0
-245 -11079 11080 0
-11080 11122 0
-9 -11080 11081 0
-11081 11123 0
-248 -11081 11082 0
-11082 11124 0
-250 -11082 11083 0
-11083 11125 0
-252 -11083 11084 0
-11084 11126 0
-254 -11084 11085 0
-11085 11127 0
-256 -11085 11086 0
-11086 11128 0
-258 -11086 11087 0
-11087 11129 0
-260 -11087 11088 0
-11088 11130 0
-262 -11088 11089 0
-11089 11131 0
-264 -11089 11090 0
-11090 11132 0
-266 -11090 11091 0
-11091 11133 0
-268 -11091 11092 0
-11092 11134 0
-270 -11092 11093 0
-11093 11135 0
-272 -11093 11094 0
-11094 11136 0
-274 -11094 11095 0
-11095 11137 0
-10 -11095 11096 0
-11096 11138 0
-277 -11096 11097 0
-11097 11139 0
-279 -11097 11098 0
-11098 11140 0
-281 -11098 11099 0
-11099 11141 0
-283 -11099 11100 0
-11100 11142 0
-285 -11100 11101 0
-11101 11143 0
-287 -11101 11102 0
-11102 11144 0
-289 -11102 0
-210 11103 0
-11103 11145 0
-212 -11103 11104 0
-11104 11146 0
-214 -11104 11105 0
-11105 11147 0
-216 -11105 11106 0
-11106 11148 0
-8 -11106 11107 0
-11107 11149 0
-219 -11107 11108 0
-11108 11150 0
-221 -11108 11109 0
-11109 11151 0
-223 -11109 11110 0
-11110 11152 0
-225 -11110 11111 0
-11111 11153 0
-227 -11111 11112 0
-11112 11154 0
-229 -11112 11113 0
-11113 11155 0
-231 -11113 11114 0
-11114 11156 0
-233 -11114 11115 0
-11115 11157 0
-235 -11115 11116 0
-11116 11158 0
-237 -11116 11117 0
-11117 11159 0
-239 -11117 11118 0
-11118 11160 0
-241 -11118 11119 0
-11119 11161 0
-243 -11119 11120 0
-11120 11162 0
-245 -11120 11121 0
-11121 11163 0
-9 -11121 11122 0
-11122 11164 0
-248 -11122 11123 0
-11123 11165 0
-250 -11123 11124 0
-11124 11166 0
-252 -11124 11125 0
-11125 11167 0
-254 -11125 11126 0
-11126 11168 0
-256 -11126 11127 0
-11127 11169 0
-258 -11127 11128 0
-11128 11170 0
-260 -11128 11129 0
-11129 11171 0
-262 -11129 11130 0
-11130 11172 0
-264 -11130 11131 0
-11131 11173 0
-266 -11131 11132 0
-11132 11174 0
-268 -11132 11133 0
-11133 11175 0
-270 -11133 11134 0
-11134 11176 0
-272 -11134 11135 0
-11135 11177 0
-274 -11135 11136 0
-11136 11178 0
-10 -11136 11137 0
-11137 11179 0
-277 -11137 11138 0
-11138 11180 0
-279 -11138 11139 0
-11139 11181 0
-281 -11139 11140 0
-11140 11182 0
-283 -11140 11141 0
-11141 11183 0
-285 -11141 11142 0
-11142 11184 0
-287 -11142 11143 0
-11143 11185 0
-289 -11143 11144 0
-11144 11186 0
-291 -11144 0
-212 11145 0
-11145 11187 0
-214 -11145 11146 0
-11146 11188 0
-216 -11146 11147 0
-11147 11189 0
-8 -11147 11148 0
-11148 11190 0
-219 -11148 11149 0
-11149 11191 0
-221 -11149 11150 0
-11150 11192 0
-223 -11150 11151 0
-11151 11193 0
-225 -11151 11152 0
-11152 11194 0
-227 -11152 11153 0
-11153 11195 0
-229 -11153 11154 0
-11154 11196 0
-231 -11154 11155 0
-11155 11197 0
-233 -11155 11156 0
-11156 11198 0
-235 -11156 11157 0
-11157 11199 0
-237 -11157 11158 0
-11158 11200 0
-239 -11158 11159 0
-11159 11201 0
-241 -11159 11160 0
-11160 11202 0
-243 -11160 11161 0
-11161 11203 0
-245 -11161 11162 0
-11162 11204 0
-9 -11162 11163 0
-11163 11205 0
-248 -11163 11164 0
-11164 11206 0
-250 -11164 11165 0
-11165 11207 0
-252 -11165 11166 0
-11166 11208 0
-254 -11166 11167 0
-11167 11209 0
-256 -11167 11168 0
-11168 11210 0
-258 -11168 11169 0
-11169 11211 0
-260 -11169 11170 0
-11170 11212 0
-262 -11170 11171 0
-11171 11213 0
-264 -11171 11172 0
-11172 11214 0
-266 -11172 11173 0
-11173 11215 0
-268 -11173 11174 0
-11174 11216 0
-270 -11174 11175 0
-11175 11217 0
-272 -11175 11176 0
-11176 11218 0
-274 -11176 11177 0
-11177 11219 0
-10 -11177 11178 0
-11178 11220 0
-277 -11178 11179 0
-11179 11221 0
-279 -11179 11180 0
-11180 11222 0
-281 -11180 11181 0
-11181 11223 0
-283 -11181 11182 0
-11182 11224 0
-285 -11182 11183 0
-11183 11225 0
-287 -11183 11184 0
-11184 11226 0
-289 -11184 11185 0
-11185 11227 0
-291 -11185 11186 0
-11186 11228 0
-293 -11186 0
-214 11187 0
-11187 11229 0
-216 -11187 11188 0
-11188 11230 0
-8 -11188 11189 0
-11189 11231 0
-219 -11189 11190 0
-11190 11232 0
-221 -11190 11191 0
-11191 11233 0
-223 -11191 11192 0
-11192 11234 0
-225 -11192 11193 0
-11193 11235 0
-227 -11193 11194 0
-11194 11236 0
-229 -11194 11195 0
-11195 11237 0
-231 -11195 11196 0
-11196 11238 0
-233 -11196 11197 0
-11197 11239 0
-235 -11197 11198 0
-11198 11240 0
-237 -11198 11199 0
-11199 11241 0
-239 -11199 11200 0
-11200 11242 0
-241 -11200 11201 0
-11201 11243 0
-243 -11201 11202 0
-11202 11244 0
-245 -11202 11203 0
-11203 11245 0
-9 -11203 11204 0
-11204 11246 0
-248 -11204 11205 0
-11205 11247 0
-250 -11205 11206 0
-11206 11248 0
-252 -11206 11207 0
-11207 11249 0
-254 -11207 11208 0
-11208 11250 0
-256 -11208 11209 0
-11209 11251 0
-258 -11209 11210 0
-11210 11252 0
-260 -11210 11211 0
-11211 11253 0
-262 -11211 11212 0
-11212 11254 0
-264 -11212 11213 0
-11213 11255 0
-266 -11213 11214 0
-11214 11256 0
-268 -11214 11215 0
-11215 11257 0
-270 -11215 11216 0
-11216 11258 0
-272 -11216 11217 0
-11217 11259 0
-274 -11217 11218 0
-11218 11260 0
-10 -11218 11219 0
-11219 11261 0
-277 -11219 11220 0
-11220 11262 0
-279 -11220 11221 0
-11221 11263 0
-281 -11221 11222 0
-11222 11264 0
-283 -11222 11223 0
-11223 11265 0
-285 -11223 11224 0
-11224 11266 0
-287 -11224 11225 0
-11225 11267 0
-289 -11225 11226 0
-11226 11268 0
-291 -11226 11227 0
-11227 11269 0
-293 -11227 11228 0
-11228 11270 0
-295 -11228 0
-216 11229 0
-11229 11271 0
-8 -11229 11230 0
-11230 11272 0
-219 -11230 11231 0
-11231 11273 0
-221 -11231 11232 0
-11232 11274 0
-223 -11232 11233 0
-11233 11275 0
-225 -11233 11234 0
-11234 11276 0
-227 -11234 11235 0
-11235 11277 0
-229 -11235 11236 0
-11236 11278 0
-231 -11236 11237 0
-11237 11279 0
-233 -11237 11238 0
-11238 11280 0
-235 -11238 11239 0
-11239 11281 0
-237 -11239 11240 0
-11240 11282 0
-239 -11240 11241 0
-11241 11283 0
-241 -11241 11242 0
-11242 11284 0
-243 -11242 11243 0
-11243 11285 0
-245 -11243 11244 0
-11244 11286 0
-9 -11244 11245 0
-11245 11287 0
-248 -11245 11246 0
-11246 11288 0
-250 -11246 11247 0
-11247 11289 0
-252 -11247 11248 0
-11248 11290 0
-254 -11248 11249 0
-11249 11291 0
-256 -11249 11250 0
-11250 11292 0
-258 -11250 11251 0
-11251 11293 0
-260 -11251 11252 0
-11252 11294 0
-262 -11252 11253 0
-11253 11295 0
-264 -11253 11254 0
-11254 11296 0
-266 -11254 11255 0
-11255 11297 0
-268 -11255 11256 0
-11256 11298 0
-270 -11256 11257 0
-11257 11299 0
-272 -11257 11258 0
-11258 11300 0
-274 -11258 11259 0
-11259 11301 0
-10 -11259 11260 0
-11260 11302 0
-277 -11260 11261 0
-11261 11303 0
-279 -11261 11262 0
-11262 11304 0
-281 -11262 11263 0
-11263 11305 0
-283 -11263 11264 0
-11264 11306 0
-285 -11264 11265 0
-11265 11307 0
-287 -11265 11266 0
-11266 11308 0
-289 -11266 11267 0
-11267 11309 0
-291 -11267 11268 0
-11268 11310 0
-293 -11268 11269 0
-11269 11311 0
-295 -11269 11270 0
-11270 11312 0
-297 -11270 0
-8 11271 0
-11271 11313 0
-219 -11271 11272 0
-11272 11314 0
-221 -11272 11273 0
-11273 11315 0
-223 -11273 11274 0
-11274 11316 0
-225 -11274 11275 0
-11275 11317 0
-227 -11275 11276 0
-11276 11318 0
-229 -11276 11277 0
-11277 11319 0
-231 -11277 11278 0
-11278 11320 0
-233 -11278 11279 0
-11279 11321 0
-235 -11279 11280 0
-11280 11322 0
-237 -11280 11281 0
-11281 11323 0
-239 -11281 11282 0
-11282 11324 0
-241 -11282 11283 0
-11283 11325 0
-243 -11283 11284 0
-11284 11326 0
-245 -11284 11285 0
-11285 11327 0
-9 -11285 11286 0
-11286 11328 0
-248 -11286 11287 0
-11287 11329 0
-250 -11287 11288 0
-11288 11330 0
-252 -11288 11289 0
-11289 11331 0
-254 -11289 11290 0
-11290 11332 0
-256 -11290 11291 0
-11291 11333 0
-258 -11291 11292 0
-11292 11334 0
-260 -11292 11293 0
-11293 11335 0
-262 -11293 11294 0
-11294 11336 0
-264 -11294 11295 0
-11295 11337 0
-266 -11295 11296 0
-11296 11338 0
-268 -11296 11297 0
-11297 11339 0
-270 -11297 11298 0
-11298 11340 0
-272 -11298 11299 0
-11299 11341 0
-274 -11299 11300 0
-11300 11342 0
-10 -11300 11301 0
-11301 11343 0
-277 -11301 11302 0
-11302 11344 0
-279 -11302 11303 0
-11303 11345 0
-281 -11303 11304 0
-11304 11346 0
-283 -11304 11305 0
-11305 11347 0
-285 -11305 11306 0
-11306 11348 0
-287 -11306 11307 0
-11307 11349 0
-289 -11307 11308 0
-11308 11350 0
-291 -11308 11309 0
-11309 11351 0
-293 -11309 11310 0
-11310 11352 0
-295 -11310 11311 0
-11311 11353 0
-297 -11311 11312 0
-11312 11354 0
-299 -11312 0
-219 11313 0
-11313 11355 0
-221 -11313 11314 0
-11314 11356 0
-223 -11314 11315 0
-11315 11357 0
-225 -11315 11316 0
-11316 11358 0
-227 -11316 11317 0
-11317 11359 0
-229 -11317 11318 0
-11318 11360 0
-231 -11318 11319 0
-11319 11361 0
-233 -11319 11320 0
-11320 11362 0
-235 -11320 11321 0
-11321 11363 0
-237 -11321 11322 0
-11322 11364 0
-239 -11322 11323 0
-11323 11365 0
-241 -11323 11324 0
-11324 11366 0
-243 -11324 11325 0
-11325 11367 0
-245 -11325 11326 0
-11326 11368 0
-9 -11326 11327 0
-11327 11369 0
-248 -11327 11328 0
-11328 11370 0
-250 -11328 11329 0
-11329 11371 0
-252 -11329 11330 0
-11330 11372 0
-254 -11330 11331 0
-11331 11373 0
-256 -11331 11332 0
-11332 11374 0
-258 -11332 11333 0
-11333 11375 0
-260 -11333 11334 0
-11334 11376 0
-262 -11334 11335 0
-11335 11377 0
-264 -11335 11336 0
-11336 11378 0
-266 -11336 11337 0
-11337 11379 0
-268 -11337 11338 0
-11338 11380 0
-270 -11338 11339 0
-11339 11381 0
-272 -11339 11340 0
-11340 11382 0
-274 -11340 11341 0
-11341 11383 0
-10 -11341 11342 0
-11342 11384 0
-277 -11342 11343 0
-11343 11385 0
-279 -11343 11344 0
-11344 11386 0
-281 -11344 11345 0
-11345 11387 0
-283 -11345 11346 0
-11346 11388 0
-285 -11346 11347 0
-11347 11389 0
-287 -11347 11348 0
-11348 11390 0
-289 -11348 11349 0
-11349 11391 0
-291 -11349 11350 0
-11350 11392 0
-293 -11350 11351 0
-11351 11393 0
-295 -11351 11352 0
-11352 11394 0
-297 -11352 11353 0
-11353 11395 0
-299 -11353 11354 0
-11354 11396 0
-301 -11354 0
-221 11355 0
-11355 11397 0
-223 -11355 11356 0
-11356 11398 0
-225 -11356 11357 0
-11357 11399 0
-227 -11357 11358 0
-11358 11400 0
-229 -11358 11359 0
-11359 11401 0
-231 -11359 11360 0
-11360 11402 0
-233 -11360 11361 0
-11361 11403 0
-235 -11361 11362 0
-11362 11404 0
-237 -11362 11363 0
-11363 11405 0
-239 -11363 11364 0
-11364 11406 0
-241 -11364 11365 0
-11365 11407 0
-243 -11365 11366 0
-11366 11408 0
-245 -11366 11367 0
-11367 11409 0
-9 -11367 11368 0
-11368 11410 0
-248 -11368 11369 0
-11369 11411 0
-250 -11369 11370 0
-11370 11412 0
-252 -11370 11371 0
-11371 11413 0
-254 -11371 11372 0
-11372 11414 0
-256 -11372 11373 0
-11373 11415 0
-258 -11373 11374 0
-11374 11416 0
-260 -11374 11375 0
-11375 11417 0
-262 -11375 11376 0
-11376 11418 0
-264 -11376 11377 0
-11377 11419 0
-266 -11377 11378 0
-11378 11420 0
-268 -11378 11379 0
-11379 11421 0
-270 -11379 11380 0
-11380 11422 0
-272 -11380 11381 0
-11381 11423 0
-274 -11381 11382 0
-11382 11424 0
-10 -11382 11383 0
-11383 11425 0
-277 -11383 11384 0
-11384 11426 0
-279 -11384 11385 0
-11385 11427 0
-281 -11385 11386 0
-11386 11428 0
-283 -11386 11387 0
-11387 11429 0
-285 -11387 11388 0
-11388 11430 0
-287 -11388 11389 0
-11389 11431 0
-289 -11389 11390 0
-11390 11432 0
-291 -11390 11391 0
-11391 11433 0
-293 -11391 11392 0
-11392 11434 0
-295 -11392 11393 0
-11393 11435 0
-297 -11393 11394 0
-11394 11436 0
-299 -11394 11395 0
-11395 11437 0
-301 -11395 11396 0
-11396 11438 0
-303 -11396 0
-223 11397 0
-11397 11439 0
-225 -11397 11398 0
-11398 11440 0
-227 -11398 11399 0
-11399 11441 0
-229 -11399 11400 0
-11400 11442 0
-231 -11400 11401 0
-11401 11443 0
-233 -11401 11402 0
-11402 11444 0
-235 -11402 11403 0
-11403 11445 0
-237 -11403 11404 0
-11404 11446 0
-239 -11404 11405 0
-11405 11447 0
-241 -11405 11406 0
-11406 11448 0
-243 -11406 11407 0
-11407 11449 0
-245 -11407 11408 0
-11408 11450 0
-9 -11408 11409 0
-11409 11451 0
-248 -11409 11410 0
-11410 11452 0
-250 -11410 11411 0
-11411 11453 0
-252 -11411 11412 0
-11412 11454 0
-254 -11412 11413 0
-11413 11455 0
-256 -11413 11414 0
-11414 11456 0
-258 -11414 11415 0
-11415 11457 0
-260 -11415 11416 0
-11416 11458 0
-262 -11416 11417 0
-11417 11459 0
-264 -11417 11418 0
-11418 11460 0
-266 -11418 11419 0
-11419 11461 0
-268 -11419 11420 0
-11420 11462 0
-270 -11420 11421 0
-11421 11463 0
-272 -11421 11422 0
-11422 11464 0
-274 -11422 11423 0
-11423 11465 0
-10 -11423 11424 0
-11424 11466 0
-277 -11424 11425 0
-11425 11467 0
-279 -11425 11426 0
-11426 11468 0
-281 -11426 11427 0
-11427 11469 0
-283 -11427 11428 0
-11428 11470 0
-285 -11428 11429 0
-11429 11471 0
-287 -11429 11430 0
-11430 11472 0
-289 -11430 11431 0
-11431 11473 0
-291 -11431 11432 0
-11432 11474 0
-293 -11432 11433 0
-11433 11475 0
-295 -11433 11434 0
-11434 11476 0
-297 -11434 11435 0
-11435 11477 0
-299 -11435 11436 0
-11436 11478 0
-301 -11436 11437 0
-11437 11479 0
-303 -11437 11438 0
-11438 11480 0
-11 -11438 0
-225 11439 0
-11439 11481 0
-227 -11439 11440 0
-11440 11482 0
-229 -11440 11441 0
-11441 11483 0
-231 -11441 11442 0
-11442 11484 0
-233 -11442 11443 0
-11443 11485 0
-235 -11443 11444 0
-11444 11486 0
-237 -11444 11445 0
-11445 11487 0
-239 -11445 11446 0
-11446 11488 0
-241 -11446 11447 0
-11447 11489 0
-243 -11447 11448 0
-11448 11490 0
-245 -11448 11449 0
-11449 11491 0
-9 -11449 11450 0
-11450 11492 0
-248 -11450 11451 0
-11451 11493 0
-250 -11451 11452 0
-11452 11494 0
-252 -11452 11453 0
-11453 11495 0
-254 -11453 11454 0
-11454 11496 0
-256 -11454 11455 0
-11455 11497 0
-258 -11455 11456 0
-11456 11498 0
-260 -11456 11457 0
-11457 11499 0
-262 -11457 11458 0
-11458 11500 0
-264 -11458 11459 0
-11459 11501 0
-266 -11459 11460 0
-11460 11502 0
-268 -11460 11461 0
-11461 11503 0
-270 -11461 11462 0
-11462 11504 0
-272 -11462 11463 0
-11463 11505 0
-274 -11463 11464 0
-11464 11506 0
-10 -11464 11465 0
-11465 11507 0
-277 -11465 11466 0
-11466 11508 0
-279 -11466 11467 0
-11467 11509 0
-281 -11467 11468 0
-11468 11510 0
-283 -11468 11469 0
-11469 11511 0
-285 -11469 11470 0
-11470 11512 0
-287 -11470 11471 0
-11471 11513 0
-289 -11471 11472 0
-11472 11514 0
-291 -11472 11473 0
-11473 11515 0
-293 -11473 11474 0
-11474 11516 0
-295 -11474 11475 0
-11475 11517 0
-297 -11475 11476 0
-11476 11518 0
-299 -11476 11477 0
-11477 11519 0
-301 -11477 11478 0
-11478 11520 0
-303 -11478 11479 0
-11479 11521 0
-11 -11479 11480 0
-11480 11522 0
-306 -11480 0
-227 11481 0
-11481 11523 0
-229 -11481 11482 0
-11482 11524 0
-231 -11482 11483 0
-11483 11525 0
-233 -11483 11484 0
-11484 11526 0
-235 -11484 11485 0
-11485 11527 0
-237 -11485 11486 0
-11486 11528 0
-239 -11486 11487 0
-11487 11529 0
-241 -11487 11488 0
-11488 11530 0
-243 -11488 11489 0
-11489 11531 0
-245 -11489 11490 0
-11490 11532 0
-9 -11490 11491 0
-11491 11533 0
-248 -11491 11492 0
-11492 11534 0
-250 -11492 11493 0
-11493 11535 0
-252 -11493 11494 0
-11494 11536 0
-254 -11494 11495 0
-11495 11537 0
-256 -11495 11496 0
-11496 11538 0
-258 -11496 11497 0
-11497 11539 0
-260 -11497 11498 0
-11498 11540 0
-262 -11498 11499 0
-11499 11541 0
-264 -11499 11500 0
-11500 11542 0
-266 -11500 11501 0
-11501 11543 0
-268 -11501 11502 0
-11502 11544 0
-270 -11502 11503 0
-11503 11545 0
-272 -11503 11504 0
-11504 11546 0
-274 -11504 11505 0
-11505 11547 0
-10 -11505 11506 0
-11506 11548 0
-277 -11506 11507 0
-11507 11549 0
-279 -11507 11508 0
-11508 11550 0
-281 -11508 11509 0
-11509 11551 0
-283 -11509 11510 0
-11510 11552 0
-285 -11510 11511 0
-11511 11553 0
-287 -11511 11512 0
-11512 11554 0
-289 -11512 11513 0
-11513 11555 0
-291 -11513 11514 0
-11514 11556 0
-293 -11514 11515 0
-11515 11557 0
-295 -11515 11516 0
-11516 11558 0
-297 -11516 11517 0
-11517 11559 0
-299 -11517 11518 0
-11518 11560 0
-301 -11518 11519 0
-11519 11561 0
-303 -11519 11520 0
-11520 11562 0
-11 -11520 11521 0
-11521 11563 0
-306 -11521 11522 0
-11522 11564 0
-308 -11522 0
-229 11523 0
-11523 11565 0
-231 -11523 11524 0
-11524 11566 0
-233 -11524 11525 0
-11525 11567 0
-235 -11525 11526 0
-11526 11568 0
-237 -11526 11527 0
-11527 11569 0
-239 -11527 11528 0
-11528 11570 0
-241 -11528 11529 0
-11529 11571 0
-243 -11529 11530 0
-11530 11572 0
-245 -11530 11531 0
-11531 11573 0
-9 -11531 11532 0
-11532 11574 0
-248 -11532 11533 0
-11533 11575 0
-250 -11533 11534 0
-11534 11576 0
-252 -11534 11535 0
-11535 11577 0
-254 -11535 11536 0
-11536 11578 0
-256 -11536 11537 0
-11537 11579 0
-258 -11537 11538 0
-11538 11580 0
-260 -11538 11539 0
-11539 11581 0
-262 -11539 11540 0
-11540 11582 0
-264 -11540 11541 0
-11541 11583 0
-266 -11541 11542 0
-11542 11584 0
-268 -11542 11543 0
-11543 11585 0
-270 -11543 11544 0
-11544 11586 0
-272 -11544 11545 0
-11545 11587 0
-274 -11545 11546 0
-11546 11588 0
-10 -11546 11547 0
-11547 11589 0
-277 -11547 11548 0
-11548 11590 0
-279 -11548 11549 0
-11549 11591 0
-281 -11549 11550 0
-11550 11592 0
-283 -11550 11551 0
-11551 11593 0
-285 -11551 11552 0
-11552 11594 0
-287 -11552 11553 0
-11553 11595 0
-289 -11553 11554 0
-11554 11596 0
-291 -11554 11555 0
-11555 11597 0
-293 -11555 11556 0
-11556 11598 0
-295 -11556 11557 0
-11557 11599 0
-297 -11557 11558 0
-11558 11600 0
-299 -11558 11559 0
-11559 11601 0
-301 -11559 11560 0
-11560 11602 0
-303 -11560 11561 0
-11561 11603 0
-11 -11561 11562 0
-11562 11604 0
-306 -11562 11563 0
-11563 11605 0
-308 -11563 11564 0
-11564 11606 0
-310 -11564 0
-231 11565 0
-11565 11607 0
-233 -11565 11566 0
-11566 11608 0
-235 -11566 11567 0
-11567 11609 0
-237 -11567 11568 0
-11568 11610 0
-239 -11568 11569 0
-11569 11611 0
-241 -11569 11570 0
-11570 11612 0
-243 -11570 11571 0
-11571 11613 0
-245 -11571 11572 0
-11572 11614 0
-9 -11572 11573 0
-11573 11615 0
-248 -11573 11574 0
-11574 11616 0
-250 -11574 11575 0
-11575 11617 0
-252 -11575 11576 0
-11576 11618 0
-254 -11576 11577 0
-11577 11619 0
-256 -11577 11578 0
-11578 11620 0
-258 -11578 11579 0
-11579 11621 0
-260 -11579 11580 0
-11580 11622 0
-262 -11580 11581 0
-11581 11623 0
-264 -11581 11582 0
-11582 11624 0
-266 -11582 11583 0
-11583 11625 0
-268 -11583 11584 0
-11584 11626 0
-270 -11584 11585 0
-11585 11627 0
-272 -11585 11586 0
-11586 11628 0
-274 -11586 11587 0
-11587 11629 0
-10 -11587 11588 0
-11588 11630 0
-277 -11588 11589 0
-11589 11631 0
-279 -11589 11590 0
-11590 11632 0
-281 -11590 11591 0
-11591 11633 0
-283 -11591 11592 0
-11592 11634 0
-285 -11592 11593 0
-11593 11635 0
-287 -11593 11594 0
-11594 11636 0
-289 -11594 11595 0
-11595 11637 0
-291 -11595 11596 0
-11596 11638 0
-293 -11596 11597 0
-11597 11639 0
-295 -11597 11598 0
-11598 11640 0
-297 -11598 11599 0
-11599 11641 0
-299 -11599 11600 0
-11600 11642 0
-301 -11600 11601 0
-11601 11643 0
-303 -11601 11602 0
-11602 11644 0
-11 -11602 11603 0
-11603 11645 0
-306 -11603 11604 0
-11604 11646 0
-308 -11604 11605 0
-11605 11647 0
-310 -11605 11606 0
-11606 11648 0
-312 -11606 0
-233 11607 0
-11607 11649 0
-235 -11607 11608 0
-11608 11650 0
-237 -11608 11609 0
-11609 11651 0
-239 -11609 11610 0
-11610 11652 0
-241 -11610 11611 0
-11611 11653 0
-243 -11611 11612 0
-11612 11654 0
-245 -11612 11613 0
-11613 11655 0
-9 -11613 11614 0
-11614 11656 0
-248 -11614 11615 0
-11615 11657 0
-250 -11615 11616 0
-11616 11658 0
-252 -11616 11617 0
-11617 11659 0
-254 -11617 11618 0
-11618 11660 0
-256 -11618 11619 0
-11619 11661 0
-258 -11619 11620 0
-11620 11662 0
-260 -11620 11621 0
-11621 11663 0
-262 -11621 11622 0
-11622 11664 0
-264 -11622 11623 0
-11623 11665 0
-266 -11623 11624 0
-11624 11666 0
-268 -11624 11625 0
-11625 11667 0
-270 -11625 11626 0
-11626 11668 0
-272 -11626 11627 0
-11627 11669 0
-274 -11627 11628 0
-11628 11670 0
-10 -11628 11629 0
-11629 11671 0
-277 -11629 11630 0
-11630 11672 0
-279 -11630 11631 0
-11631 11673 0
-281 -11631 11632 0
-11632 11674 0
-283 -11632 11633 0
-11633 11675 0
-285 -11633 11634 0
-11634 11676 0
-287 -11634 11635 0
-11635 11677 0
-289 -11635 11636 0
-11636 11678 0
-291 -11636 11637 0
-11637 11679 0
-293 -11637 11638 0
-11638 11680 0
-295 -11638 11639 0
-11639 11681 0
-297 -11639 11640 0
-11640 11682 0
-299 -11640 11641 0
-11641 11683 0
-301 -11641 11642 0
-11642 11684 0
-303 -11642 11643 0
-11643 11685 0
-11 -11643 11644 0
-11644 11686 0
-306 -11644 11645 0
-11645 11687 0
-308 -11645 11646 0
-11646 11688 0
-310 -11646 11647 0
-11647 11689 0
-312 -11647 11648 0
-11648 11690 0
-314 -11648 0
-235 11649 0
-11649 11691 0
-237 -11649 11650 0
-11650 11692 0
-239 -11650 11651 0
-11651 11693 0
-241 -11651 11652 0
-11652 11694 0
-243 -11652 11653 0
-11653 11695 0
-245 -11653 11654 0
-11654 11696 0
-9 -11654 11655 0
-11655 11697 0
-248 -11655 11656 0
-11656 11698 0
-250 -11656 11657 0
-11657 11699 0
-252 -11657 11658 0
-11658 11700 0
-254 -11658 11659 0
-11659 11701 0
-256 -11659 11660 0
-11660 11702 0
-258 -11660 11661 0
-11661 11703 0
-260 -11661 11662 0
-11662 11704 0
-262 -11662 11663 0
-11663 11705 0
-264 -11663 11664 0
-11664 11706 0
-266 -11664 11665 0
-11665 11707 0
-268 -11665 11666 0
-11666 11708 0
-270 -11666 11667 0
-11667 11709 0
-272 -11667 11668 0
-11668 11710 0
-274 -11668 11669 0
-11669 11711 0
-10 -11669 11670 0
-11670 11712 0
-277 -11670 11671 0
-11671 11713 0
-279 -11671 11672 0
-11672 11714 0
-281 -11672 11673 0
-11673 11715 0
-283 -11673 11674 0
-11674 11716 0
-285 -11674 11675 0
-11675 11717 0
-287 -11675 11676 0
-11676 11718 0
-289 -11676 11677 0
-11677 11719 0
-291 -11677 11678 0
-11678 11720 0
-293 -11678 11679 0
-11679 11721 0
-295 -11679 11680 0
-11680 11722 0
-297 -11680 11681 0
-11681 11723 0
-299 -11681 11682 0
-11682 11724 0
-301 -11682 11683 0
-11683 11725 0
-303 -11683 11684 0
-11684 11726 0
-11 -11684 11685 0
-11685 11727 0
-306 -11685 11686 0
-11686 11728 0
-308 -11686 11687 0
-11687 11729 0
-310 -11687 11688 0
-11688 11730 0
-312 -11688 11689 0
-11689 11731 0
-314 -11689 11690 0
-11690 11732 0
-316 -11690 0
-237 11691 0
-11691 11733 0
-239 -11691 11692 0
-11692 11734 0
-241 -11692 11693 0
-11693 11735 0
-243 -11693 11694 0
-11694 11736 0
-245 -11694 11695 0
-11695 11737 0
-9 -11695 11696 0
-11696 11738 0
-248 -11696 11697 0
-11697 11739 0
-250 -11697 11698 0
-11698 11740 0
-252 -11698 11699 0
-11699 11741 0
-254 -11699 11700 0
-11700 11742 0
-256 -11700 11701 0
-11701 11743 0
-258 -11701 11702 0
-11702 11744 0
-260 -11702 11703 0
-11703 11745 0
-262 -11703 11704 0
-11704 11746 0
-264 -11704 11705 0
-11705 11747 0
-266 -11705 11706 0
-11706 11748 0
-268 -11706 11707 0
-11707 11749 0
-270 -11707 11708 0
-11708 11750 0
-272 -11708 11709 0
-11709 11751 0
-274 -11709 11710 0
-11710 11752 0
-10 -11710 11711 0
-11711 11753 0
-277 -11711 11712 0
-11712 11754 0
-279 -11712 11713 0
-11713 11755 0
-281 -11713 11714 0
-11714 11756 0
-283 -11714 11715 0
-11715 11757 0
-285 -11715 11716 0
-11716 11758 0
-287 -11716 11717 0
-11717 11759 0
-289 -11717 11718 0
-11718 11760 0
-291 -11718 11719 0
-11719 11761 0
-293 -11719 11720 0
-11720 11762 0
-295 -11720 11721 0
-11721 11763 0
-297 -11721 11722 0
-11722 11764 0
-299 -11722 11723 0
-11723 11765 0
-301 -11723 11724 0
-11724 11766 0
-303 -11724 11725 0
-11725 11767 0
-11 -11725 11726 0
-11726 11768 0
-306 -11726 11727 0
-11727 11769 0
-308 -11727 11728 0
-11728 11770 0
-310 -11728 11729 0
-11729 11771 0
-312 -11729 11730 0
-11730 11772 0
-314 -11730 11731 0
-11731 11773 0
-316 -11731 11732 0
-11732 11774 0
-318 -11732 0
-239 11733 0
-11733 11775 0
-241 -11733 11734 0
-11734 11776 0
-243 -11734 11735 0
-11735 11777 0
-245 -11735 11736 0
-11736 11778 0
-9 -11736 11737 0
-11737 11779 0
-248 -11737 11738 0
-11738 11780 0
-250 -11738 11739 0
-11739 11781 0
-252 -11739 11740 0
-11740 11782 0
-254 -11740 11741 0
-11741 11783 0
-256 -11741 11742 0
-11742 11784 0
-258 -11742 11743 0
-11743 11785 0
-260 -11743 11744 0
-11744 11786 0
-262 -11744 11745 0
-11745 11787 0
-264 -11745 11746 0
-11746 11788 0
-266 -11746 11747 0
-11747 11789 0
-268 -11747 11748 0
-11748 11790 0
-270 -11748 11749 0
-11749 11791 0
-272 -11749 11750 0
-11750 11792 0
-274 -11750 11751 0
-11751 11793 0
-10 -11751 11752 0
-11752 11794 0
-277 -11752 11753 0
-11753 11795 0
-279 -11753 11754 0
-11754 11796 0
-281 -11754 11755 0
-11755 11797 0
-283 -11755 11756 0
-11756 11798 0
-285 -11756 11757 0
-11757 11799 0
-287 -11757 11758 0
-11758 11800 0
-289 -11758 11759 0
-11759 11801 0
-291 -11759 11760 0
-11760 11802 0
-293 -11760 11761 0
-11761 11803 0
-295 -11761 11762 0
-11762 11804 0
-297 -11762 11763 0
-11763 11805 0
-299 -11763 11764 0
-11764 11806 0
-301 -11764 11765 0
-11765 11807 0
-303 -11765 11766 0
-11766 11808 0
-11 -11766 11767 0
-11767 11809 0
-306 -11767 11768 0
-11768 11810 0
-308 -11768 11769 0
-11769 11811 0
-310 -11769 11770 0
-11770 11812 0
-312 -11770 11771 0
-11771 11813 0
-314 -11771 11772 0
-11772 11814 0
-316 -11772 11773 0
-11773 11815 0
-318 -11773 11774 0
-11774 11816 0
-320 -11774 0
-241 11775 0
-11775 11817 0
-243 -11775 11776 0
-11776 11818 0
-245 -11776 11777 0
-11777 11819 0
-9 -11777 11778 0
-11778 11820 0
-248 -11778 11779 0
-11779 11821 0
-250 -11779 11780 0
-11780 11822 0
-252 -11780 11781 0
-11781 11823 0
-254 -11781 11782 0
-11782 11824 0
-256 -11782 11783 0
-11783 11825 0
-258 -11783 11784 0
-11784 11826 0
-260 -11784 11785 0
-11785 11827 0
-262 -11785 11786 0
-11786 11828 0
-264 -11786 11787 0
-11787 11829 0
-266 -11787 11788 0
-11788 11830 0
-268 -11788 11789 0
-11789 11831 0
-270 -11789 11790 0
-11790 11832 0
-272 -11790 11791 0
-11791 11833 0
-274 -11791 11792 0
-11792 11834 0
-10 -11792 11793 0
-11793 11835 0
-277 -11793 11794 0
-11794 11836 0
-279 -11794 11795 0
-11795 11837 0
-281 -11795 11796 0
-11796 11838 0
-283 -11796 11797 0
-11797 11839 0
-285 -11797 11798 0
-11798 11840 0
-287 -11798 11799 0
-11799 11841 0
-289 -11799 11800 0
-11800 11842 0
-291 -11800 11801 0
-11801 11843 0
-293 -11801 11802 0
-11802 11844 0
-295 -11802 11803 0
-11803 11845 0
-297 -11803 11804 0
-11804 11846 0
-299 -11804 11805 0
-11805 11847 0
-301 -11805 11806 0
-11806 11848 0
-303 -11806 11807 0
-11807 11849 0
-11 -11807 11808 0
-11808 11850 0
-306 -11808 11809 0
-11809 11851 0
-308 -11809 11810 0
-11810 11852 0
-310 -11810 11811 0
-11811 11853 0
-312 -11811 11812 0
-11812 11854 0
-314 -11812 11813 0
-11813 11855 0
-316 -11813 11814 0
-11814 11856 0
-318 -11814 11815 0
-11815 11857 0
-320 -11815 11816 0
-11816 11858 0
-322 -11816 0
-243 11817 0
-11817 11859 0
-245 -11817 11818 0
-11818 11860 0
-9 -11818 11819 0
-11819 11861 0
-248 -11819 11820 0
-11820 11862 0
-250 -11820 11821 0
-11821 11863 0
-252 -11821 11822 0
-11822 11864 0
-254 -11822 11823 0
-11823 11865 0
-256 -11823 11824 0
-11824 11866 0
-258 -11824 11825 0
-11825 11867 0
-260 -11825 11826 0
-11826 11868 0
-262 -11826 11827 0
-11827 11869 0
-264 -11827 11828 0
-11828 11870 0
-266 -11828 11829 0
-11829 11871 0
-268 -11829 11830 0
-11830 11872 0
-270 -11830 11831 0
-11831 11873 0
-272 -11831 11832 0
-11832 11874 0
-274 -11832 11833 0
-11833 11875 0
-10 -11833 11834 0
-11834 11876 0
-277 -11834 11835 0
-11835 11877 0
-279 -11835 11836 0
-11836 11878 0
-281 -11836 11837 0
-11837 11879 0
-283 -11837 11838 0
-11838 11880 0
-285 -11838 11839 0
-11839 11881 0
-287 -11839 11840 0
-11840 11882 0
-289 -11840 11841 0
-11841 11883 0
-291 -11841 11842 0
-11842 11884 0
-293 -11842 11843 0
-11843 11885 0
-295 -11843 11844 0
-11844 11886 0
-297 -11844 11845 0
-11845 11887 0
-299 -11845 11846 0
-11846 11888 0
-301 -11846 11847 0
-11847 11889 0
-303 -11847 11848 0
-11848 11890 0
-11 -11848 11849 0
-11849 11891 0
-306 -11849 11850 0
-11850 11892 0
-308 -11850 11851 0
-11851 11893 0
-310 -11851 11852 0
-11852 11894 0
-312 -11852 11853 0
-11853 11895 0
-314 -11853 11854 0
-11854 11896 0
-316 -11854 11855 0
-11855 11897 0
-318 -11855 11856 0
-11856 11898 0
-320 -11856 11857 0
-11857 11899 0
-322 -11857 11858 0
-11858 11900 0
-324 -11858 0
-245 11859 0
-11859 11901 0
-9 -11859 11860 0
-11860 11902 0
-248 -11860 11861 0
-11861 11903 0
-250 -11861 11862 0
-11862 11904 0
-252 -11862 11863 0
-11863 11905 0
-254 -11863 11864 0
-11864 11906 0
-256 -11864 11865 0
-11865 11907 0
-258 -11865 11866 0
-11866 11908 0
-260 -11866 11867 0
-11867 11909 0
-262 -11867 11868 0
-11868 11910 0
-264 -11868 11869 0
-11869 11911 0
-266 -11869 11870 0
-11870 11912 0
-268 -11870 11871 0
-11871 11913 0
-270 -11871 11872 0
-11872 11914 0
-272 -11872 11873 0
-11873 11915 0
-274 -11873 11874 0
-11874 11916 0
-10 -11874 11875 0
-11875 11917 0
-277 -11875 11876 0
-11876 11918 0
-279 -11876 11877 0
-11877 11919 0
-281 -11877 11878 0
-11878 11920 0
-283 -11878 11879 0
-11879 11921 0
-285 -11879 11880 0
-11880 11922 0
-287 -11880 11881 0
-11881 11923 0
-289 -11881 11882 0
-11882 11924 0
-291 -11882 11883 0
-11883 11925 0
-293 -11883 11884 0
-11884 11926 0
-295 -11884 11885 0
-11885 11927 0
-297 -11885 11886 0
-11886 11928 0
-299 -11886 11887 0
-11887 11929 0
-301 -11887 11888 0
-11888 11930 0
-303 -11888 11889 0
-11889 11931 0
-11 -11889 11890 0
-11890 11932 0
-306 -11890 11891 0
-11891 11933 0
-308 -11891 11892 0
-11892 11934 0
-310 -11892 11893 0
-11893 11935 0
-312 -11893 11894 0
-11894 11936 0
-314 -11894 11895 0
-11895 11937 0
-316 -11895 11896 0
-11896 11938 0
-318 -11896 11897 0
-11897 11939 0
-320 -11897 11898 0
-11898 11940 0
-322 -11898 11899 0
-11899 11941 0
-324 -11899 11900 0
-11900 11942 0
-326 -11900 0
-9 11901 0
-11901 11943 0
-248 -11901 11902 0
-11902 11944 0
-250 -11902 11903 0
-11903 11945 0
-252 -11903 11904 0
-11904 11946 0
-254 -11904 11905 0
-11905 11947 0
-256 -11905 11906 0
-11906 11948 0
-258 -11906 11907 0
-11907 11949 0
-260 -11907 11908 0
-11908 11950 0
-262 -11908 11909 0
-11909 11951 0
-264 -11909 11910 0
-11910 11952 0
-266 -11910 11911 0
-11911 11953 0
-268 -11911 11912 0
-11912 11954 0
-270 -11912 11913 0
-11913 11955 0
-272 -11913 11914 0
-11914 11956 0
-274 -11914 11915 0
-11915 11957 0
-10 -11915 11916 0
-11916 11958 0
-277 -11916 11917 0
-11917 11959 0
-279 -11917 11918 0
-11918 11960 0
-281 -11918 11919 0
-11919 11961 0
-283 -11919 11920 0
-11920 11962 0
-285 -11920 11921 0
-11921 11963 0
-287 -11921 11922 0
-11922 11964 0
-289 -11922 11923 0
-11923 11965 0
-291 -11923 11924 0
-11924 11966 0
-293 -11924 11925 0
-11925 11967 0
-295 -11925 11926 0
-11926 11968 0
-297 -11926 11927 0
-11927 11969 0
-299 -11927 11928 0
-11928 11970 0
-301 -11928 11929 0
-11929 11971 0
-303 -11929 11930 0
-11930 11972 0
-11 -11930 11931 0
-11931 11973 0
-306 -11931 11932 0
-11932 11974 0
-308 -11932 11933 0
-11933 11975 0
-310 -11933 11934 0
-11934 11976 0
-312 -11934 11935 0
-11935 11977 0
-314 -11935 11936 0
-11936 11978 0
-316 -11936 11937 0
-11937 11979 0
-318 -11937 11938 0
-11938 11980 0
-320 -11938 11939 0
-11939 11981 0
-322 -11939 11940 0
-11940 11982 0
-324 -11940 11941 0
-11941 11983 0
-326 -11941 11942 0
-11942 11984 0
-328 -11942 0
-248 11943 0
-11943 11985 0
-250 -11943 11944 0
-11944 11986 0
-252 -11944 11945 0
-11945 11987 0
-254 -11945 11946 0
-11946 11988 0
-256 -11946 11947 0
-11947 11989 0
-258 -11947 11948 0
-11948 11990 0
-260 -11948 11949 0
-11949 11991 0
-262 -11949 11950 0
-11950 11992 0
-264 -11950 11951 0
-11951 11993 0
-266 -11951 11952 0
-11952 11994 0
-268 -11952 11953 0
-11953 11995 0
-270 -11953 11954 0
-11954 11996 0
-272 -11954 11955 0
-11955 11997 0
-274 -11955 11956 0
-11956 11998 0
-10 -11956 11957 0
-11957 11999 0
-277 -11957 11958 0
-11958 12000 0
-279 -11958 11959 0
-11959 12001 0
-281 -11959 11960 0
-11960 12002 0
-283 -11960 11961 0
-11961 12003 0
-285 -11961 11962 0
-11962 12004 0
-287 -11962 11963 0
-11963 12005 0
-289 -11963 11964 0
-11964 12006 0
-291 -11964 11965 0
-11965 12007 0
-293 -11965 11966 0
-11966 12008 0
-295 -11966 11967 0
-11967 12009 0
-297 -11967 11968 0
-11968 12010 0
-299 -11968 11969 0
-11969 12011 0
-301 -11969 11970 0
-11970 12012 0
-303 -11970 11971 0
-11971 12013 0
-11 -11971 11972 0
-11972 12014 0
-306 -11972 11973 0
-11973 12015 0
-308 -11973 11974 0
-11974 12016 0
-310 -11974 11975 0
-11975 12017 0
-312 -11975 11976 0
-11976 12018 0
-314 -11976 11977 0
-11977 12019 0
-316 -11977 11978 0
-11978 12020 0
-318 -11978 11979 0
-11979 12021 0
-320 -11979 11980 0
-11980 12022 0
-322 -11980 11981 0
-11981 12023 0
-324 -11981 11982 0
-11982 12024 0
-326 -11982 11983 0
-11983 12025 0
-328 -11983 11984 0
-11984 12026 0
-330 -11984 0
-250 11985 0
-11985 12027 0
-252 -11985 11986 0
-11986 12028 0
-254 -11986 11987 0
-11987 12029 0
-256 -11987 11988 0
-11988 12030 0
-258 -11988 11989 0
-11989 12031 0
-260 -11989 11990 0
-11990 12032 0
-262 -11990 11991 0
-11991 12033 0
-264 -11991 11992 0
-11992 12034 0
-266 -11992 11993 0
-11993 12035 0
-268 -11993 11994 0
-11994 12036 0
-270 -11994 11995 0
-11995 12037 0
-272 -11995 11996 0
-11996 12038 0
-274 -11996 11997 0
-11997 12039 0
-10 -11997 11998 0
-11998 12040 0
-277 -11998 11999 0
-11999 12041 0
-279 -11999 12000 0
-12000 12042 0
-281 -12000 12001 0
-12001 12043 0
-283 -12001 12002 0
-12002 12044 0
-285 -12002 12003 0
-12003 12045 0
-287 -12003 12004 0
-12004 12046 0
-289 -12004 12005 0
-12005 12047 0
-291 -12005 12006 0
-12006 12048 0
-293 -12006 12007 0
-12007 12049 0
-295 -12007 12008 0
-12008 12050 0
-297 -12008 12009 0
-12009 12051 0
-299 -12009 12010 0
-12010 12052 0
-301 -12010 12011 0
-12011 12053 0
-303 -12011 12012 0
-12012 12054 0
-11 -12012 12013 0
-12013 12055 0
-306 -12013 12014 0
-12014 12056 0
-308 -12014 12015 0
-12015 12057 0
-310 -12015 12016 0
-12016 12058 0
-312 -12016 12017 0
-12017 12059 0
-314 -12017 12018 0
-12018 12060 0
-316 -12018 12019 0
-12019 12061 0
-318 -12019 12020 0
-12020 12062 0
-320 -12020 12021 0
-12021 12063 0
-322 -12021 12022 0
-12022 12064 0
-324 -12022 12023 0
-12023 12065 0
-326 -12023 12024 0
-12024 12066 0
-328 -12024 12025 0
-12025 12067 0
-330 -12025 12026 0
-12026 12068 0
-332 -12026 0
-252 12027 0
-12027 12069 0
-254 -12027 12028 0
-12028 12070 0
-256 -12028 12029 0
-12029 12071 0
-258 -12029 12030 0
-12030 12072 0
-260 -12030 12031 0
-12031 12073 0
-262 -12031 12032 0
-12032 12074 0
-264 -12032 12033 0
-12033 12075 0
-266 -12033 12034 0
-12034 12076 0
-268 -12034 12035 0
-12035 12077 0
-270 -12035 12036 0
-12036 12078 0
-272 -12036 12037 0
-12037 12079 0
-274 -12037 12038 0
-12038 12080 0
-10 -12038 12039 0
-12039 12081 0
-277 -12039 12040 0
-12040 12082 0
-279 -12040 12041 0
-12041 12083 0
-281 -12041 12042 0
-12042 12084 0
-283 -12042 12043 0
-12043 12085 0
-285 -12043 12044 0
-12044 12086 0
-287 -12044 12045 0
-12045 12087 0
-289 -12045 12046 0
-12046 12088 0
-291 -12046 12047 0
-12047 12089 0
-293 -12047 12048 0
-12048 12090 0
-295 -12048 12049 0
-12049 12091 0
-297 -12049 12050 0
-12050 12092 0
-299 -12050 12051 0
-12051 12093 0
-301 -12051 12052 0
-12052 12094 0
-303 -12052 12053 0
-12053 12095 0
-11 -12053 12054 0
-12054 12096 0
-306 -12054 12055 0
-12055 12097 0
-308 -12055 12056 0
-12056 12098 0
-310 -12056 12057 0
-12057 12099 0
-312 -12057 12058 0
-12058 12100 0
-314 -12058 12059 0
-12059 12101 0
-316 -12059 12060 0
-12060 12102 0
-318 -12060 12061 0
-12061 12103 0
-320 -12061 12062 0
-12062 12104 0
-322 -12062 12063 0
-12063 12105 0
-324 -12063 12064 0
-12064 12106 0
-326 -12064 12065 0
-12065 12107 0
-328 -12065 12066 0
-12066 12108 0
-330 -12066 12067 0
-12067 12109 0
-332 -12067 12068 0
-12068 12110 0
-12 -12068 0
-254 12069 0
-12069 12111 0
-256 -12069 12070 0
-12070 12112 0
-258 -12070 12071 0
-12071 12113 0
-260 -12071 12072 0
-12072 12114 0
-262 -12072 12073 0
-12073 12115 0
-264 -12073 12074 0
-12074 12116 0
-266 -12074 12075 0
-12075 12117 0
-268 -12075 12076 0
-12076 12118 0
-270 -12076 12077 0
-12077 12119 0
-272 -12077 12078 0
-12078 12120 0
-274 -12078 12079 0
-12079 12121 0
-10 -12079 12080 0
-12080 12122 0
-277 -12080 12081 0
-12081 12123 0
-279 -12081 12082 0
-12082 12124 0
-281 -12082 12083 0
-12083 12125 0
-283 -12083 12084 0
-12084 12126 0
-285 -12084 12085 0
-12085 12127 0
-287 -12085 12086 0
-12086 12128 0
-289 -12086 12087 0
-12087 12129 0
-291 -12087 12088 0
-12088 12130 0
-293 -12088 12089 0
-12089 12131 0
-295 -12089 12090 0
-12090 12132 0
-297 -12090 12091 0
-12091 12133 0
-299 -12091 12092 0
-12092 12134 0
-301 -12092 12093 0
-12093 12135 0
-303 -12093 12094 0
-12094 12136 0
-11 -12094 12095 0
-12095 12137 0
-306 -12095 12096 0
-12096 12138 0
-308 -12096 12097 0
-12097 12139 0
-310 -12097 12098 0
-12098 12140 0
-312 -12098 12099 0
-12099 12141 0
-314 -12099 12100 0
-12100 12142 0
-316 -12100 12101 0
-12101 12143 0
-318 -12101 12102 0
-12102 12144 0
-320 -12102 12103 0
-12103 12145 0
-322 -12103 12104 0
-12104 12146 0
-324 -12104 12105 0
-12105 12147 0
-326 -12105 12106 0
-12106 12148 0
-328 -12106 12107 0
-12107 12149 0
-330 -12107 12108 0
-12108 12150 0
-332 -12108 12109 0
-12109 12151 0
-12 -12109 12110 0
-12110 12152 0
-335 -12110 0
-256 12111 0
-12111 12153 0
-258 -12111 12112 0
-12112 12154 0
-260 -12112 12113 0
-12113 12155 0
-262 -12113 12114 0
-12114 12156 0
-264 -12114 12115 0
-12115 12157 0
-266 -12115 12116 0
-12116 12158 0
-268 -12116 12117 0
-12117 12159 0
-270 -12117 12118 0
-12118 12160 0
-272 -12118 12119 0
-12119 12161 0
-274 -12119 12120 0
-12120 12162 0
-10 -12120 12121 0
-12121 12163 0
-277 -12121 12122 0
-12122 12164 0
-279 -12122 12123 0
-12123 12165 0
-281 -12123 12124 0
-12124 12166 0
-283 -12124 12125 0
-12125 12167 0
-285 -12125 12126 0
-12126 12168 0
-287 -12126 12127 0
-12127 12169 0
-289 -12127 12128 0
-12128 12170 0
-291 -12128 12129 0
-12129 12171 0
-293 -12129 12130 0
-12130 12172 0
-295 -12130 12131 0
-12131 12173 0
-297 -12131 12132 0
-12132 12174 0
-299 -12132 12133 0
-12133 12175 0
-301 -12133 12134 0
-12134 12176 0
-303 -12134 12135 0
-12135 12177 0
-11 -12135 12136 0
-12136 12178 0
-306 -12136 12137 0
-12137 12179 0
-308 -12137 12138 0
-12138 12180 0
-310 -12138 12139 0
-12139 12181 0
-312 -12139 12140 0
-12140 12182 0
-314 -12140 12141 0
-12141 12183 0
-316 -12141 12142 0
-12142 12184 0
-318 -12142 12143 0
-12143 12185 0
-320 -12143 12144 0
-12144 12186 0
-322 -12144 12145 0
-12145 12187 0
-324 -12145 12146 0
-12146 12188 0
-326 -12146 12147 0
-12147 12189 0
-328 -12147 12148 0
-12148 12190 0
-330 -12148 12149 0
-12149 12191 0
-332 -12149 12150 0
-12150 12192 0
-12 -12150 12151 0
-12151 12193 0
-335 -12151 12152 0
-12152 12194 0
-337 -12152 0
-258 12153 0
-12153 12195 0
-260 -12153 12154 0
-12154 12196 0
-262 -12154 12155 0
-12155 12197 0
-264 -12155 12156 0
-12156 12198 0
-266 -12156 12157 0
-12157 12199 0
-268 -12157 12158 0
-12158 12200 0
-270 -12158 12159 0
-12159 12201 0
-272 -12159 12160 0
-12160 12202 0
-274 -12160 12161 0
-12161 12203 0
-10 -12161 12162 0
-12162 12204 0
-277 -12162 12163 0
-12163 12205 0
-279 -12163 12164 0
-12164 12206 0
-281 -12164 12165 0
-12165 12207 0
-283 -12165 12166 0
-12166 12208 0
-285 -12166 12167 0
-12167 12209 0
-287 -12167 12168 0
-12168 12210 0
-289 -12168 12169 0
-12169 12211 0
-291 -12169 12170 0
-12170 12212 0
-293 -12170 12171 0
-12171 12213 0
-295 -12171 12172 0
-12172 12214 0
-297 -12172 12173 0
-12173 12215 0
-299 -12173 12174 0
-12174 12216 0
-301 -12174 12175 0
-12175 12217 0
-303 -12175 12176 0
-12176 12218 0
-11 -12176 12177 0
-12177 12219 0
-306 -12177 12178 0
-12178 12220 0
-308 -12178 12179 0
-12179 12221 0
-310 -12179 12180 0
-12180 12222 0
-312 -12180 12181 0
-12181 12223 0
-314 -12181 12182 0
-12182 12224 0
-316 -12182 12183 0
-12183 12225 0
-318 -12183 12184 0
-12184 12226 0
-320 -12184 12185 0
-12185 12227 0
-322 -12185 12186 0
-12186 12228 0
-324 -12186 12187 0
-12187 12229 0
-326 -12187 12188 0
-12188 12230 0
-328 -12188 12189 0
-12189 12231 0
-330 -12189 12190 0
-12190 12232 0
-332 -12190 12191 0
-12191 12233 0
-12 -12191 12192 0
-12192 12234 0
-335 -12192 12193 0
-12193 12235 0
-337 -12193 12194 0
-12194 12236 0
-339 -12194 0
-260 12195 0
-12195 12237 0
-262 -12195 12196 0
-12196 12238 0
-264 -12196 12197 0
-12197 12239 0
-266 -12197 12198 0
-12198 12240 0
-268 -12198 12199 0
-12199 12241 0
-270 -12199 12200 0
-12200 12242 0
-272 -12200 12201 0
-12201 12243 0
-274 -12201 12202 0
-12202 12244 0
-10 -12202 12203 0
-12203 12245 0
-277 -12203 12204 0
-12204 12246 0
-279 -12204 12205 0
-12205 12247 0
-281 -12205 12206 0
-12206 12248 0
-283 -12206 12207 0
-12207 12249 0
-285 -12207 12208 0
-12208 12250 0
-287 -12208 12209 0
-12209 12251 0
-289 -12209 12210 0
-12210 12252 0
-291 -12210 12211 0
-12211 12253 0
-293 -12211 12212 0
-12212 12254 0
-295 -12212 12213 0
-12213 12255 0
-297 -12213 12214 0
-12214 12256 0
-299 -12214 12215 0
-12215 12257 0
-301 -12215 12216 0
-12216 12258 0
-303 -12216 12217 0
-12217 12259 0
-11 -12217 12218 0
-12218 12260 0
-306 -12218 12219 0
-12219 12261 0
-308 -12219 12220 0
-12220 12262 0
-310 -12220 12221 0
-12221 12263 0
-312 -12221 12222 0
-12222 12264 0
-314 -12222 12223 0
-12223 12265 0
-316 -12223 12224 0
-12224 12266 0
-318 -12224 12225 0
-12225 12267 0
-320 -12225 12226 0
-12226 12268 0
-322 -12226 12227 0
-12227 12269 0
-324 -12227 12228 0
-12228 12270 0
-326 -12228 12229 0
-12229 12271 0
-328 -12229 12230 0
-12230 12272 0
-330 -12230 12231 0
-12231 12273 0
-332 -12231 12232 0
-12232 12274 0
-12 -12232 12233 0
-12233 12275 0
-335 -12233 12234 0
-12234 12276 0
-337 -12234 12235 0
-12235 12277 0
-339 -12235 12236 0
-12236 12278 0
-341 -12236 0
-262 12237 0
-12237 12279 0
-264 -12237 12238 0
-12238 12280 0
-266 -12238 12239 0
-12239 12281 0
-268 -12239 12240 0
-12240 12282 0
-270 -12240 12241 0
-12241 12283 0
-272 -12241 12242 0
-12242 12284 0
-274 -12242 12243 0
-12243 12285 0
-10 -12243 12244 0
-12244 12286 0
-277 -12244 12245 0
-12245 12287 0
-279 -12245 12246 0
-12246 12288 0
-281 -12246 12247 0
-12247 12289 0
-283 -12247 12248 0
-12248 12290 0
-285 -12248 12249 0
-12249 12291 0
-287 -12249 12250 0
-12250 12292 0
-289 -12250 12251 0
-12251 12293 0
-291 -12251 12252 0
-12252 12294 0
-293 -12252 12253 0
-12253 12295 0
-295 -12253 12254 0
-12254 12296 0
-297 -12254 12255 0
-12255 12297 0
-299 -12255 12256 0
-12256 12298 0
-301 -12256 12257 0
-12257 12299 0
-303 -12257 12258 0
-12258 12300 0
-11 -12258 12259 0
-12259 12301 0
-306 -12259 12260 0
-12260 12302 0
-308 -12260 12261 0
-12261 12303 0
-310 -12261 12262 0
-12262 12304 0
-312 -12262 12263 0
-12263 12305 0
-314 -12263 12264 0
-12264 12306 0
-316 -12264 12265 0
-12265 12307 0
-318 -12265 12266 0
-12266 12308 0
-320 -12266 12267 0
-12267 12309 0
-322 -12267 12268 0
-12268 12310 0
-324 -12268 12269 0
-12269 12311 0
-326 -12269 12270 0
-12270 12312 0
-328 -12270 12271 0
-12271 12313 0
-330 -12271 12272 0
-12272 12314 0
-332 -12272 12273 0
-12273 12315 0
-12 -12273 12274 0
-12274 12316 0
-335 -12274 12275 0
-12275 12317 0
-337 -12275 12276 0
-12276 12318 0
-339 -12276 12277 0
-12277 12319 0
-341 -12277 12278 0
-12278 12320 0
-343 -12278 0
-264 12279 0
-12279 12321 0
-266 -12279 12280 0
-12280 12322 0
-268 -12280 12281 0
-12281 12323 0
-270 -12281 12282 0
-12282 12324 0
-272 -12282 12283 0
-12283 12325 0
-274 -12283 12284 0
-12284 12326 0
-10 -12284 12285 0
-12285 12327 0
-277 -12285 12286 0
-12286 12328 0
-279 -12286 12287 0
-12287 12329 0
-281 -12287 12288 0
-12288 12330 0
-283 -12288 12289 0
-12289 12331 0
-285 -12289 12290 0
-12290 12332 0
-287 -12290 12291 0
-12291 12333 0
-289 -12291 12292 0
-12292 12334 0
-291 -12292 12293 0
-12293 12335 0
-293 -12293 12294 0
-12294 12336 0
-295 -12294 12295 0
-12295 12337 0
-297 -12295 12296 0
-12296 12338 0
-299 -12296 12297 0
-12297 12339 0
-301 -12297 12298 0
-12298 12340 0
-303 -12298 12299 0
-12299 12341 0
-11 -12299 12300 0
-12300 12342 0
-306 -12300 12301 0
-12301 12343 0
-308 -12301 12302 0
-12302 12344 0
-310 -12302 12303 0
-12303 12345 0
-312 -12303 12304 0
-12304 12346 0
-314 -12304 12305 0
-12305 12347 0
-316 -12305 12306 0
-12306 12348 0
-318 -12306 12307 0
-12307 12349 0
-320 -12307 12308 0
-12308 12350 0
-322 -12308 12309 0
-12309 12351 0
-324 -12309 12310 0
-12310 12352 0
-326 -12310 12311 0
-12311 12353 0
-328 -12311 12312 0
-12312 12354 0
-330 -12312 12313 0
-12313 12355 0
-332 -12313 12314 0
-12314 12356 0
-12 -12314 12315 0
-12315 12357 0
-335 -12315 12316 0
-12316 12358 0
-337 -12316 12317 0
-12317 12359 0
-339 -12317 12318 0
-12318 12360 0
-341 -12318 12319 0
-12319 12361 0
-343 -12319 12320 0
-12320 12362 0
-345 -12320 0
-266 12321 0
-12321 12363 0
-268 -12321 12322 0
-12322 12364 0
-270 -12322 12323 0
-12323 12365 0
-272 -12323 12324 0
-12324 12366 0
-274 -12324 12325 0
-12325 12367 0
-10 -12325 12326 0
-12326 12368 0
-277 -12326 12327 0
-12327 12369 0
-279 -12327 12328 0
-12328 12370 0
-281 -12328 12329 0
-12329 12371 0
-283 -12329 12330 0
-12330 12372 0
-285 -12330 12331 0
-12331 12373 0
-287 -12331 12332 0
-12332 12374 0
-289 -12332 12333 0
-12333 12375 0
-291 -12333 12334 0
-12334 12376 0
-293 -12334 12335 0
-12335 12377 0
-295 -12335 12336 0
-12336 12378 0
-297 -12336 12337 0
-12337 12379 0
-299 -12337 12338 0
-12338 12380 0
-301 -12338 12339 0
-12339 12381 0
-303 -12339 12340 0
-12340 12382 0
-11 -12340 12341 0
-12341 12383 0
-306 -12341 12342 0
-12342 12384 0
-308 -12342 12343 0
-12343 12385 0
-310 -12343 12344 0
-12344 12386 0
-312 -12344 12345 0
-12345 12387 0
-314 -12345 12346 0
-12346 12388 0
-316 -12346 12347 0
-12347 12389 0
-318 -12347 12348 0
-12348 12390 0
-320 -12348 12349 0
-12349 12391 0
-322 -12349 12350 0
-12350 12392 0
-324 -12350 12351 0
-12351 12393 0
-326 -12351 12352 0
-12352 12394 0
-328 -12352 12353 0
-12353 12395 0
-330 -12353 12354 0
-12354 12396 0
-332 -12354 12355 0
-12355 12397 0
-12 -12355 12356 0
-12356 12398 0
-335 -12356 12357 0
-12357 12399 0
-337 -12357 12358 0
-12358 12400 0
-339 -12358 12359 0
-12359 12401 0
-341 -12359 12360 0
-12360 12402 0
-343 -12360 12361 0
-12361 12403 0
-345 -12361 12362 0
-12362 12404 0
-347 -12362 0
-268 12363 0
-12363 12405 0
-270 -12363 12364 0
-12364 12406 0
-272 -12364 12365 0
-12365 12407 0
-274 -12365 12366 0
-12366 12408 0
-10 -12366 12367 0
-12367 12409 0
-277 -12367 12368 0
-12368 12410 0
-279 -12368 12369 0
-12369 12411 0
-281 -12369 12370 0
-12370 12412 0
-283 -12370 12371 0
-12371 12413 0
-285 -12371 12372 0
-12372 12414 0
-287 -12372 12373 0
-12373 12415 0
-289 -12373 12374 0
-12374 12416 0
-291 -12374 12375 0
-12375 12417 0
-293 -12375 12376 0
-12376 12418 0
-295 -12376 12377 0
-12377 12419 0
-297 -12377 12378 0
-12378 12420 0
-299 -12378 12379 0
-12379 12421 0
-301 -12379 12380 0
-12380 12422 0
-303 -12380 12381 0
-12381 12423 0
-11 -12381 12382 0
-12382 12424 0
-306 -12382 12383 0
-12383 12425 0
-308 -12383 12384 0
-12384 12426 0
-310 -12384 12385 0
-12385 12427 0
-312 -12385 12386 0
-12386 12428 0
-314 -12386 12387 0
-12387 12429 0
-316 -12387 12388 0
-12388 12430 0
-318 -12388 12389 0
-12389 12431 0
-320 -12389 12390 0
-12390 12432 0
-322 -12390 12391 0
-12391 12433 0
-324 -12391 12392 0
-12392 12434 0
-326 -12392 12393 0
-12393 12435 0
-328 -12393 12394 0
-12394 12436 0
-330 -12394 12395 0
-12395 12437 0
-332 -12395 12396 0
-12396 12438 0
-12 -12396 12397 0
-12397 12439 0
-335 -12397 12398 0
-12398 12440 0
-337 -12398 12399 0
-12399 12441 0
-339 -12399 12400 0
-12400 12442 0
-341 -12400 12401 0
-12401 12443 0
-343 -12401 12402 0
-12402 12444 0
-345 -12402 12403 0
-12403 12445 0
-347 -12403 12404 0
-12404 12446 0
-349 -12404 0
-270 12405 0
-12405 12447 0
-272 -12405 12406 0
-12406 12448 0
-274 -12406 12407 0
-12407 12449 0
-10 -12407 12408 0
-12408 12450 0
-277 -12408 12409 0
-12409 12451 0
-279 -12409 12410 0
-12410 12452 0
-281 -12410 12411 0
-12411 12453 0
-283 -12411 12412 0
-12412 12454 0
-285 -12412 12413 0
-12413 12455 0
-287 -12413 12414 0
-12414 12456 0
-289 -12414 12415 0
-12415 12457 0
-291 -12415 12416 0
-12416 12458 0
-293 -12416 12417 0
-12417 12459 0
-295 -12417 12418 0
-12418 12460 0
-297 -12418 12419 0
-12419 12461 0
-299 -12419 12420 0
-12420 12462 0
-301 -12420 12421 0
-12421 12463 0
-303 -12421 12422 0
-12422 12464 0
-11 -12422 12423 0
-12423 12465 0
-306 -12423 12424 0
-12424 12466 0
-308 -12424 12425 0
-12425 12467 0
-310 -12425 12426 0
-12426 12468 0
-312 -12426 12427 0
-12427 12469 0
-314 -12427 12428 0
-12428 12470 0
-316 -12428 12429 0
-12429 12471 0
-318 -12429 12430 0
-12430 12472 0
-320 -12430 12431 0
-12431 12473 0
-322 -12431 12432 0
-12432 12474 0
-324 -12432 12433 0
-12433 12475 0
-326 -12433 12434 0
-12434 12476 0
-328 -12434 12435 0
-12435 12477 0
-330 -12435 12436 0
-12436 12478 0
-332 -12436 12437 0
-12437 12479 0
-12 -12437 12438 0
-12438 12480 0
-335 -12438 12439 0
-12439 12481 0
-337 -12439 12440 0
-12440 12482 0
-339 -12440 12441 0
-12441 12483 0
-341 -12441 12442 0
-12442 12484 0
-343 -12442 12443 0
-12443 12485 0
-345 -12443 12444 0
-12444 12486 0
-347 -12444 12445 0
-12445 12487 0
-349 -12445 12446 0
-12446 12488 0
-351 -12446 0
-272 12447 0
-12447 12489 0
-274 -12447 12448 0
-12448 12490 0
-10 -12448 12449 0
-12449 12491 0
-277 -12449 12450 0
-12450 12492 0
-279 -12450 12451 0
-12451 12493 0
-281 -12451 12452 0
-12452 12494 0
-283 -12452 12453 0
-12453 12495 0
-285 -12453 12454 0
-12454 12496 0
-287 -12454 12455 0
-12455 12497 0
-289 -12455 12456 0
-12456 12498 0
-291 -12456 12457 0
-12457 12499 0
-293 -12457 12458 0
-12458 12500 0
-295 -12458 12459 0
-12459 12501 0
-297 -12459 12460 0
-12460 12502 0
-299 -12460 12461 0
-12461 12503 0
-301 -12461 12462 0
-12462 12504 0
-303 -12462 12463 0
-12463 12505 0
-11 -12463 12464 0
-12464 12506 0
-306 -12464 12465 0
-12465 12507 0
-308 -12465 12466 0
-12466 12508 0
-310 -12466 12467 0
-12467 12509 0
-312 -12467 12468 0
-12468 12510 0
-314 -12468 12469 0
-12469 12511 0
-316 -12469 12470 0
-12470 12512 0
-318 -12470 12471 0
-12471 12513 0
-320 -12471 12472 0
-12472 12514 0
-322 -12472 12473 0
-12473 12515 0
-324 -12473 12474 0
-12474 12516 0
-326 -12474 12475 0
-12475 12517 0
-328 -12475 12476 0
-12476 12518 0
-330 -12476 12477 0
-12477 12519 0
-332 -12477 12478 0
-12478 12520 0
-12 -12478 12479 0
-12479 12521 0
-335 -12479 12480 0
-12480 12522 0
-337 -12480 12481 0
-12481 12523 0
-339 -12481 12482 0
-12482 12524 0
-341 -12482 12483 0
-12483 12525 0
-343 -12483 12484 0
-12484 12526 0
-345 -12484 12485 0
-12485 12527 0
-347 -12485 12486 0
-12486 12528 0
-349 -12486 12487 0
-12487 12529 0
-351 -12487 12488 0
-12488 12530 0
-353 -12488 0
-274 12489 0
-12489 12531 0
-10 -12489 12490 0
-12490 12532 0
-277 -12490 12491 0
-12491 12533 0
-279 -12491 12492 0
-12492 12534 0
-281 -12492 12493 0
-12493 12535 0
-283 -12493 12494 0
-12494 12536 0
-285 -12494 12495 0
-12495 12537 0
-287 -12495 12496 0
-12496 12538 0
-289 -12496 12497 0
-12497 12539 0
-291 -12497 12498 0
-12498 12540 0
-293 -12498 12499 0
-12499 12541 0
-295 -12499 12500 0
-12500 12542 0
-297 -12500 12501 0
-12501 12543 0
-299 -12501 12502 0
-12502 12544 0
-301 -12502 12503 0
-12503 12545 0
-303 -12503 12504 0
-12504 12546 0
-11 -12504 12505 0
-12505 12547 0
-306 -12505 12506 0
-12506 12548 0
-308 -12506 12507 0
-12507 12549 0
-310 -12507 12508 0
-12508 12550 0
-312 -12508 12509 0
-12509 12551 0
-314 -12509 12510 0
-12510 12552 0
-316 -12510 12511 0
-12511 12553 0
-318 -12511 12512 0
-12512 12554 0
-320 -12512 12513 0
-12513 12555 0
-322 -12513 12514 0
-12514 12556 0
-324 -12514 12515 0
-12515 12557 0
-326 -12515 12516 0
-12516 12558 0
-328 -12516 12517 0
-12517 12559 0
-330 -12517 12518 0
-12518 12560 0
-332 -12518 12519 0
-12519 12561 0
-12 -12519 12520 0
-12520 12562 0
-335 -12520 12521 0
-12521 12563 0
-337 -12521 12522 0
-12522 12564 0
-339 -12522 12523 0
-12523 12565 0
-341 -12523 12524 0
-12524 12566 0
-343 -12524 12525 0
-12525 12567 0
-345 -12525 12526 0
-12526 12568 0
-347 -12526 12527 0
-12527 12569 0
-349 -12527 12528 0
-12528 12570 0
-351 -12528 12529 0
-12529 12571 0
-353 -12529 12530 0
-12530 12572 0
-355 -12530 0
-10 12531 0
-12531 12573 0
-277 -12531 12532 0
-12532 12574 0
-279 -12532 12533 0
-12533 12575 0
-281 -12533 12534 0
-12534 12576 0
-283 -12534 12535 0
-12535 12577 0
-285 -12535 12536 0
-12536 12578 0
-287 -12536 12537 0
-12537 12579 0
-289 -12537 12538 0
-12538 12580 0
-291 -12538 12539 0
-12539 12581 0
-293 -12539 12540 0
-12540 12582 0
-295 -12540 12541 0
-12541 12583 0
-297 -12541 12542 0
-12542 12584 0
-299 -12542 12543 0
-12543 12585 0
-301 -12543 12544 0
-12544 12586 0
-303 -12544 12545 0
-12545 12587 0
-11 -12545 12546 0
-12546 12588 0
-306 -12546 12547 0
-12547 12589 0
-308 -12547 12548 0
-12548 12590 0
-310 -12548 12549 0
-12549 12591 0
-312 -12549 12550 0
-12550 12592 0
-314 -12550 12551 0
-12551 12593 0
-316 -12551 12552 0
-12552 12594 0
-318 -12552 12553 0
-12553 12595 0
-320 -12553 12554 0
-12554 12596 0
-322 -12554 12555 0
-12555 12597 0
-324 -12555 12556 0
-12556 12598 0
-326 -12556 12557 0
-12557 12599 0
-328 -12557 12558 0
-12558 12600 0
-330 -12558 12559 0
-12559 12601 0
-332 -12559 12560 0
-12560 12602 0
-12 -12560 12561 0
-12561 12603 0
-335 -12561 12562 0
-12562 12604 0
-337 -12562 12563 0
-12563 12605 0
-339 -12563 12564 0
-12564 12606 0
-341 -12564 12565 0
-12565 12607 0
-343 -12565 12566 0
-12566 12608 0
-345 -12566 12567 0
-12567 12609 0
-347 -12567 12568 0
-12568 12610 0
-349 -12568 12569 0
-12569 12611 0
-351 -12569 12570 0
-12570 12612 0
-353 -12570 12571 0
-12571 12613 0
-355 -12571 12572 0
-12572 12614 0
-357 -12572 0
-277 12573 0
-12573 12615 0
-279 -12573 12574 0
-12574 12616 0
-281 -12574 12575 0
-12575 12617 0
-283 -12575 12576 0
-12576 12618 0
-285 -12576 12577 0
-12577 12619 0
-287 -12577 12578 0
-12578 12620 0
-289 -12578 12579 0
-12579 12621 0
-291 -12579 12580 0
-12580 12622 0
-293 -12580 12581 0
-12581 12623 0
-295 -12581 12582 0
-12582 12624 0
-297 -12582 12583 0
-12583 12625 0
-299 -12583 12584 0
-12584 12626 0
-301 -12584 12585 0
-12585 12627 0
-303 -12585 12586 0
-12586 12628 0
-11 -12586 12587 0
-12587 12629 0
-306 -12587 12588 0
-12588 12630 0
-308 -12588 12589 0
-12589 12631 0
-310 -12589 12590 0
-12590 12632 0
-312 -12590 12591 0
-12591 12633 0
-314 -12591 12592 0
-12592 12634 0
-316 -12592 12593 0
-12593 12635 0
-318 -12593 12594 0
-12594 12636 0
-320 -12594 12595 0
-12595 12637 0
-322 -12595 12596 0
-12596 12638 0
-324 -12596 12597 0
-12597 12639 0
-326 -12597 12598 0
-12598 12640 0
-328 -12598 12599 0
-12599 12641 0
-330 -12599 12600 0
-12600 12642 0
-332 -12600 12601 0
-12601 12643 0
-12 -12601 12602 0
-12602 12644 0
-335 -12602 12603 0
-12603 12645 0
-337 -12603 12604 0
-12604 12646 0
-339 -12604 12605 0
-12605 12647 0
-341 -12605 12606 0
-12606 12648 0
-343 -12606 12607 0
-12607 12649 0
-345 -12607 12608 0
-12608 12650 0
-347 -12608 12609 0
-12609 12651 0
-349 -12609 12610 0
-12610 12652 0
-351 -12610 12611 0
-12611 12653 0
-353 -12611 12612 0
-12612 12654 0
-355 -12612 12613 0
-12613 12655 0
-357 -12613 12614 0
-12614 12656 0
-359 -12614 0
-279 12615 0
-12615 12657 0
-281 -12615 12616 0
-12616 12658 0
-283 -12616 12617 0
-12617 12659 0
-285 -12617 12618 0
-12618 12660 0
-287 -12618 12619 0
-12619 12661 0
-289 -12619 12620 0
-12620 12662 0
-291 -12620 12621 0
-12621 12663 0
-293 -12621 12622 0
-12622 12664 0
-295 -12622 12623 0
-12623 12665 0
-297 -12623 12624 0
-12624 12666 0
-299 -12624 12625 0
-12625 12667 0
-301 -12625 12626 0
-12626 12668 0
-303 -12626 12627 0
-12627 12669 0
-11 -12627 12628 0
-12628 12670 0
-306 -12628 12629 0
-12629 12671 0
-308 -12629 12630 0
-12630 12672 0
-310 -12630 12631 0
-12631 12673 0
-312 -12631 12632 0
-12632 12674 0
-314 -12632 12633 0
-12633 12675 0
-316 -12633 12634 0
-12634 12676 0
-318 -12634 12635 0
-12635 12677 0
-320 -12635 12636 0
-12636 12678 0
-322 -12636 12637 0
-12637 12679 0
-324 -12637 12638 0
-12638 12680 0
-326 -12638 12639 0
-12639 12681 0
-328 -12639 12640 0
-12640 12682 0
-330 -12640 12641 0
-12641 12683 0
-332 -12641 12642 0
-12642 12684 0
-12 -12642 12643 0
-12643 12685 0
-335 -12643 12644 0
-12644 12686 0
-337 -12644 12645 0
-12645 12687 0
-339 -12645 12646 0
-12646 12688 0
-341 -12646 12647 0
-12647 12689 0
-343 -12647 12648 0
-12648 12690 0
-345 -12648 12649 0
-12649 12691 0
-347 -12649 12650 0
-12650 12692 0
-349 -12650 12651 0
-12651 12693 0
-351 -12651 12652 0
-12652 12694 0
-353 -12652 12653 0
-12653 12695 0
-355 -12653 12654 0
-12654 12696 0
-357 -12654 12655 0
-12655 12697 0
-359 -12655 12656 0
-12656 12698 0
-361 -12656 0
-281 12657 0
-12657 12699 0
-283 -12657 12658 0
-12658 12700 0
-285 -12658 12659 0
-12659 12701 0
-287 -12659 12660 0
-12660 12702 0
-289 -12660 12661 0
-12661 12703 0
-291 -12661 12662 0
-12662 12704 0
-293 -12662 12663 0
-12663 12705 0
-295 -12663 12664 0
-12664 12706 0
-297 -12664 12665 0
-12665 12707 0
-299 -12665 12666 0
-12666 12708 0
-301 -12666 12667 0
-12667 12709 0
-303 -12667 12668 0
-12668 12710 0
-11 -12668 12669 0
-12669 12711 0
-306 -12669 12670 0
-12670 12712 0
-308 -12670 12671 0
-12671 12713 0
-310 -12671 12672 0
-12672 12714 0
-312 -12672 12673 0
-12673 12715 0
-314 -12673 12674 0
-12674 12716 0
-316 -12674 12675 0
-12675 12717 0
-318 -12675 12676 0
-12676 12718 0
-320 -12676 12677 0
-12677 12719 0
-322 -12677 12678 0
-12678 12720 0
-324 -12678 12679 0
-12679 12721 0
-326 -12679 12680 0
-12680 12722 0
-328 -12680 12681 0
-12681 12723 0
-330 -12681 12682 0
-12682 12724 0
-332 -12682 12683 0
-12683 12725 0
-12 -12683 12684 0
-12684 12726 0
-335 -12684 12685 0
-12685 12727 0
-337 -12685 12686 0
-12686 12728 0
-339 -12686 12687 0
-12687 12729 0
-341 -12687 12688 0
-12688 12730 0
-343 -12688 12689 0
-12689 12731 0
-345 -12689 12690 0
-12690 12732 0
-347 -12690 12691 0
-12691 12733 0
-349 -12691 12692 0
-12692 12734 0
-351 -12692 12693 0
-12693 12735 0
-353 -12693 12694 0
-12694 12736 0
-355 -12694 12695 0
-12695 12737 0
-357 -12695 12696 0
-12696 12738 0
-359 -12696 12697 0
-12697 12739 0
-361 -12697 12698 0
-12698 12740 0
-13 -12698 0
-283 12699 0
-12699 12741 0
-285 -12699 12700 0
-12700 12742 0
-287 -12700 12701 0
-12701 12743 0
-289 -12701 12702 0
-12702 12744 0
-291 -12702 12703 0
-12703 12745 0
-293 -12703 12704 0
-12704 12746 0
-295 -12704 12705 0
-12705 12747 0
-297 -12705 12706 0
-12706 12748 0
-299 -12706 12707 0
-12707 12749 0
-301 -12707 12708 0
-12708 12750 0
-303 -12708 12709 0
-12709 12751 0
-11 -12709 12710 0
-12710 12752 0
-306 -12710 12711 0
-12711 12753 0
-308 -12711 12712 0
-12712 12754 0
-310 -12712 12713 0
-12713 12755 0
-312 -12713 12714 0
-12714 12756 0
-314 -12714 12715 0
-12715 12757 0
-316 -12715 12716 0
-12716 12758 0
-318 -12716 12717 0
-12717 12759 0
-320 -12717 12718 0
-12718 12760 0
-322 -12718 12719 0
-12719 12761 0
-324 -12719 12720 0
-12720 12762 0
-326 -12720 12721 0
-12721 12763 0
-328 -12721 12722 0
-12722 12764 0
-330 -12722 12723 0
-12723 12765 0
-332 -12723 12724 0
-12724 12766 0
-12 -12724 12725 0
-12725 12767 0
-335 -12725 12726 0
-12726 12768 0
-337 -12726 12727 0
-12727 12769 0
-339 -12727 12728 0
-12728 12770 0
-341 -12728 12729 0
-12729 12771 0
-343 -12729 12730 0
-12730 12772 0
-345 -12730 12731 0
-12731 12773 0
-347 -12731 12732 0
-12732 12774 0
-349 -12732 12733 0
-12733 12775 0
-351 -12733 12734 0
-12734 12776 0
-353 -12734 12735 0
-12735 12777 0
-355 -12735 12736 0
-12736 12778 0
-357 -12736 12737 0
-12737 12779 0
-359 -12737 12738 0
-12738 12780 0
-361 -12738 12739 0
-12739 12781 0
-13 -12739 12740 0
-12740 12782 0
-364 -12740 0
-285 12741 0
-12741 12783 0
-287 -12741 12742 0
-12742 12784 0
-289 -12742 12743 0
-12743 12785 0
-291 -12743 12744 0
-12744 12786 0
-293 -12744 12745 0
-12745 12787 0
-295 -12745 12746 0
-12746 12788 0
-297 -12746 12747 0
-12747 12789 0
-299 -12747 12748 0
-12748 12790 0
-301 -12748 12749 0
-12749 12791 0
-303 -12749 12750 0
-12750 12792 0
-11 -12750 12751 0
-12751 12793 0
-306 -12751 12752 0
-12752 12794 0
-308 -12752 12753 0
-12753 12795 0
-310 -12753 12754 0
-12754 12796 0
-312 -12754 12755 0
-12755 12797 0
-314 -12755 12756 0
-12756 12798 0
-316 -12756 12757 0
-12757 12799 0
-318 -12757 12758 0
-12758 12800 0
-320 -12758 12759 0
-12759 12801 0
-322 -12759 12760 0
-12760 12802 0
-324 -12760 12761 0
-12761 12803 0
-326 -12761 12762 0
-12762 12804 0
-328 -12762 12763 0
-12763 12805 0
-330 -12763 12764 0
-12764 12806 0
-332 -12764 12765 0
-12765 12807 0
-12 -12765 12766 0
-12766 12808 0
-335 -12766 12767 0
-12767 12809 0
-337 -12767 12768 0
-12768 12810 0
-339 -12768 12769 0
-12769 12811 0
-341 -12769 12770 0
-12770 12812 0
-343 -12770 12771 0
-12771 12813 0
-345 -12771 12772 0
-12772 12814 0
-347 -12772 12773 0
-12773 12815 0
-349 -12773 12774 0
-12774 12816 0
-351 -12774 12775 0
-12775 12817 0
-353 -12775 12776 0
-12776 12818 0
-355 -12776 12777 0
-12777 12819 0
-357 -12777 12778 0
-12778 12820 0
-359 -12778 12779 0
-12779 12821 0
-361 -12779 12780 0
-12780 12822 0
-13 -12780 12781 0
-12781 12823 0
-364 -12781 12782 0
-12782 12824 0
-366 -12782 0
-287 12783 0
-12783 12825 0
-289 -12783 12784 0
-12784 12826 0
-291 -12784 12785 0
-12785 12827 0
-293 -12785 12786 0
-12786 12828 0
-295 -12786 12787 0
-12787 12829 0
-297 -12787 12788 0
-12788 12830 0
-299 -12788 12789 0
-12789 12831 0
-301 -12789 12790 0
-12790 12832 0
-303 -12790 12791 0
-12791 12833 0
-11 -12791 12792 0
-12792 12834 0
-306 -12792 12793 0
-12793 12835 0
-308 -12793 12794 0
-12794 12836 0
-310 -12794 12795 0
-12795 12837 0
-312 -12795 12796 0
-12796 12838 0
-314 -12796 12797 0
-12797 12839 0
-316 -12797 12798 0
-12798 12840 0
-318 -12798 12799 0
-12799 12841 0
-320 -12799 12800 0
-12800 12842 0
-322 -12800 12801 0
-12801 12843 0
-324 -12801 12802 0
-12802 12844 0
-326 -12802 12803 0
-12803 12845 0
-328 -12803 12804 0
-12804 12846 0
-330 -12804 12805 0
-12805 12847 0
-332 -12805 12806 0
-12806 12848 0
-12 -12806 12807 0
-12807 12849 0
-335 -12807 12808 0
-12808 12850 0
-337 -12808 12809 0
-12809 12851 0
-339 -12809 12810 0
-12810 12852 0
-341 -12810 12811 0
-12811 12853 0
-343 -12811 12812 0
-12812 12854 0
-345 -12812 12813 0
-12813 12855 0
-347 -12813 12814 0
-12814 12856 0
-349 -12814 12815 0
-12815 12857 0
-351 -12815 12816 0
-12816 12858 0
-353 -12816 12817 0
-12817 12859 0
-355 -12817 12818 0
-12818 12860 0
-357 -12818 12819 0
-12819 12861 0
-359 -12819 12820 0
-12820 12862 0
-361 -12820 12821 0
-12821 12863 0
-13 -12821 12822 0
-12822 12864 0
-364 -12822 12823 0
-12823 12865 0
-366 -12823 12824 0
-12824 12866 0
-368 -12824 0
-289 12825 0
-12825 12867 0
-291 -12825 12826 0
-12826 12868 0
-293 -12826 12827 0
-12827 12869 0
-295 -12827 12828 0
-12828 12870 0
-297 -12828 12829 0
-12829 12871 0
-299 -12829 12830 0
-12830 12872 0
-301 -12830 12831 0
-12831 12873 0
-303 -12831 12832 0
-12832 12874 0
-11 -12832 12833 0
-12833 12875 0
-306 -12833 12834 0
-12834 12876 0
-308 -12834 12835 0
-12835 12877 0
-310 -12835 12836 0
-12836 12878 0
-312 -12836 12837 0
-12837 12879 0
-314 -12837 12838 0
-12838 12880 0
-316 -12838 12839 0
-12839 12881 0
-318 -12839 12840 0
-12840 12882 0
-320 -12840 12841 0
-12841 12883 0
-322 -12841 12842 0
-12842 12884 0
-324 -12842 12843 0
-12843 12885 0
-326 -12843 12844 0
-12844 12886 0
-328 -12844 12845 0
-12845 12887 0
-330 -12845 12846 0
-12846 12888 0
-332 -12846 12847 0
-12847 12889 0
-12 -12847 12848 0
-12848 12890 0
-335 -12848 12849 0
-12849 12891 0
-337 -12849 12850 0
-12850 12892 0
-339 -12850 12851 0
-12851 12893 0
-341 -12851 12852 0
-12852 12894 0
-343 -12852 12853 0
-12853 12895 0
-345 -12853 12854 0
-12854 12896 0
-347 -12854 12855 0
-12855 12897 0
-349 -12855 12856 0
-12856 12898 0
-351 -12856 12857 0
-12857 12899 0
-353 -12857 12858 0
-12858 12900 0
-355 -12858 12859 0
-12859 12901 0
-357 -12859 12860 0
-12860 12902 0
-359 -12860 12861 0
-12861 12903 0
-361 -12861 12862 0
-12862 12904 0
-13 -12862 12863 0
-12863 12905 0
-364 -12863 12864 0
-12864 12906 0
-366 -12864 12865 0
-12865 12907 0
-368 -12865 12866 0
-12866 12908 0
-370 -12866 0
-291 12867 0
-12867 12909 0
-293 -12867 12868 0
-12868 12910 0
-295 -12868 12869 0
-12869 12911 0
-297 -12869 12870 0
-12870 12912 0
-299 -12870 12871 0
-12871 12913 0
-301 -12871 12872 0
-12872 12914 0
-303 -12872 12873 0
-12873 12915 0
-11 -12873 12874 0
-12874 12916 0
-306 -12874 12875 0
-12875 12917 0
-308 -12875 12876 0
-12876 12918 0
-310 -12876 12877 0
-12877 12919 0
-312 -12877 12878 0
-12878 12920 0
-314 -12878 12879 0
-12879 12921 0
-316 -12879 12880 0
-12880 12922 0
-318 -12880 12881 0
-12881 12923 0
-320 -12881 12882 0
-12882 12924 0
-322 -12882 12883 0
-12883 12925 0
-324 -12883 12884 0
-12884 12926 0
-326 -12884 12885 0
-12885 12927 0
-328 -12885 12886 0
-12886 12928 0
-330 -12886 12887 0
-12887 12929 0
-332 -12887 12888 0
-12888 12930 0
-12 -12888 12889 0
-12889 12931 0
-335 -12889 12890 0
-12890 12932 0
-337 -12890 12891 0
-12891 12933 0
-339 -12891 12892 0
-12892 12934 0
-341 -12892 12893 0
-12893 12935 0
-343 -12893 12894 0
-12894 12936 0
-345 -12894 12895 0
-12895 12937 0
-347 -12895 12896 0
-12896 12938 0
-349 -12896 12897 0
-12897 12939 0
-351 -12897 12898 0
-12898 12940 0
-353 -12898 12899 0
-12899 12941 0
-355 -12899 12900 0
-12900 12942 0
-357 -12900 12901 0
-12901 12943 0
-359 -12901 12902 0
-12902 12944 0
-361 -12902 12903 0
-12903 12945 0
-13 -12903 12904 0
-12904 12946 0
-364 -12904 12905 0
-12905 12947 0
-366 -12905 12906 0
-12906 12948 0
-368 -12906 12907 0
-12907 12949 0
-370 -12907 12908 0
-12908 12950 0
-372 -12908 0
-293 12909 0
-12909 12951 0
-295 -12909 12910 0
-12910 12952 0
-297 -12910 12911 0
-12911 12953 0
-299 -12911 12912 0
-12912 12954 0
-301 -12912 12913 0
-12913 12955 0
-303 -12913 12914 0
-12914 12956 0
-11 -12914 12915 0
-12915 12957 0
-306 -12915 12916 0
-12916 12958 0
-308 -12916 12917 0
-12917 12959 0
-310 -12917 12918 0
-12918 12960 0
-312 -12918 12919 0
-12919 12961 0
-314 -12919 12920 0
-12920 12962 0
-316 -12920 12921 0
-12921 12963 0
-318 -12921 12922 0
-12922 12964 0
-320 -12922 12923 0
-12923 12965 0
-322 -12923 12924 0
-12924 12966 0
-324 -12924 12925 0
-12925 12967 0
-326 -12925 12926 0
-12926 12968 0
-328 -12926 12927 0
-12927 12969 0
-330 -12927 12928 0
-12928 12970 0
-332 -12928 12929 0
-12929 12971 0
-12 -12929 12930 0
-12930 12972 0
-335 -12930 12931 0
-12931 12973 0
-337 -12931 12932 0
-12932 12974 0
-339 -12932 12933 0
-12933 12975 0
-341 -12933 12934 0
-12934 12976 0
-343 -12934 12935 0
-12935 12977 0
-345 -12935 12936 0
-12936 12978 0
-347 -12936 12937 0
-12937 12979 0
-349 -12937 12938 0
-12938 12980 0
-351 -12938 12939 0
-12939 12981 0
-353 -12939 12940 0
-12940 12982 0
-355 -12940 12941 0
-12941 12983 0
-357 -12941 12942 0
-12942 12984 0
-359 -12942 12943 0
-12943 12985 0
-361 -12943 12944 0
-12944 12986 0
-13 -12944 12945 0
-12945 12987 0
-364 -12945 12946 0
-12946 12988 0
-366 -12946 12947 0
-12947 12989 0
-368 -12947 12948 0
-12948 12990 0
-370 -12948 12949 0
-12949 12991 0
-372 -12949 12950 0
-12950 12992 0
-374 -12950 0
-295 12951 0
-12951 12993 0
-297 -12951 12952 0
-12952 12994 0
-299 -12952 12953 0
-12953 12995 0
-301 -12953 12954 0
-12954 12996 0
-303 -12954 12955 0
-12955 12997 0
-11 -12955 12956 0
-12956 12998 0
-306 -12956 12957 0
-12957 12999 0
-308 -12957 12958 0
-12958 13000 0
-310 -12958 12959 0
-12959 13001 0
-312 -12959 12960 0
-12960 13002 0
-314 -12960 12961 0
-12961 13003 0
-316 -12961 12962 0
-12962 13004 0
-318 -12962 12963 0
-12963 13005 0
-320 -12963 12964 0
-12964 13006 0
-322 -12964 12965 0
-12965 13007 0
-324 -12965 12966 0
-12966 13008 0
-326 -12966 12967 0
-12967 13009 0
-328 -12967 12968 0
-12968 13010 0
-330 -12968 12969 0
-12969 13011 0
-332 -12969 12970 0
-12970 13012 0
-12 -12970 12971 0
-12971 13013 0
-335 -12971 12972 0
-12972 13014 0
-337 -12972 12973 0
-12973 13015 0
-339 -12973 12974 0
-12974 13016 0
-341 -12974 12975 0
-12975 13017 0
-343 -12975 12976 0
-12976 13018 0
-345 -12976 12977 0
-12977 13019 0
-347 -12977 12978 0
-12978 13020 0
-349 -12978 12979 0
-12979 13021 0
-351 -12979 12980 0
-12980 13022 0
-353 -12980 12981 0
-12981 13023 0
-355 -12981 12982 0
-12982 13024 0
-357 -12982 12983 0
-12983 13025 0
-359 -12983 12984 0
-12984 13026 0
-361 -12984 12985 0
-12985 13027 0
-13 -12985 12986 0
-12986 13028 0
-364 -12986 12987 0
-12987 13029 0
-366 -12987 12988 0
-12988 13030 0
-368 -12988 12989 0
-12989 13031 0
-370 -12989 12990 0
-12990 13032 0
-372 -12990 12991 0
-12991 13033 0
-374 -12991 12992 0
-12992 13034 0
-376 -12992 0
-297 12993 0
-12993 13035 0
-299 -12993 12994 0
-12994 13036 0
-301 -12994 12995 0
-12995 13037 0
-303 -12995 12996 0
-12996 13038 0
-11 -12996 12997 0
-12997 13039 0
-306 -12997 12998 0
-12998 13040 0
-308 -12998 12999 0
-12999 13041 0
-310 -12999 13000 0
-13000 13042 0
-312 -13000 13001 0
-13001 13043 0
-314 -13001 13002 0
-13002 13044 0
-316 -13002 13003 0
-13003 13045 0
-318 -13003 13004 0
-13004 13046 0
-320 -13004 13005 0
-13005 13047 0
-322 -13005 13006 0
-13006 13048 0
-324 -13006 13007 0
-13007 13049 0
-326 -13007 13008 0
-13008 13050 0
-328 -13008 13009 0
-13009 13051 0
-330 -13009 13010 0
-13010 13052 0
-332 -13010 13011 0
-13011 13053 0
-12 -13011 13012 0
-13012 13054 0
-335 -13012 13013 0
-13013 13055 0
-337 -13013 13014 0
-13014 13056 0
-339 -13014 13015 0
-13015 13057 0
-341 -13015 13016 0
-13016 13058 0
-343 -13016 13017 0
-13017 13059 0
-345 -13017 13018 0
-13018 13060 0
-347 -13018 13019 0
-13019 13061 0
-349 -13019 13020 0
-13020 13062 0
-351 -13020 13021 0
-13021 13063 0
-353 -13021 13022 0
-13022 13064 0
-355 -13022 13023 0
-13023 13065 0
-357 -13023 13024 0
-13024 13066 0
-359 -13024 13025 0
-13025 13067 0
-361 -13025 13026 0
-13026 13068 0
-13 -13026 13027 0
-13027 13069 0
-364 -13027 13028 0
-13028 13070 0
-366 -13028 13029 0
-13029 13071 0
-368 -13029 13030 0
-13030 13072 0
-370 -13030 13031 0
-13031 13073 0
-372 -13031 13032 0
-13032 13074 0
-374 -13032 13033 0
-13033 13075 0
-376 -13033 13034 0
-13034 13076 0
-378 -13034 0
-299 13035 0
-13035 13077 0
-301 -13035 13036 0
-13036 13078 0
-303 -13036 13037 0
-13037 13079 0
-11 -13037 13038 0
-13038 13080 0
-306 -13038 13039 0
-13039 13081 0
-308 -13039 13040 0
-13040 13082 0
-310 -13040 13041 0
-13041 13083 0
-312 -13041 13042 0
-13042 13084 0
-314 -13042 13043 0
-13043 13085 0
-316 -13043 13044 0
-13044 13086 0
-318 -13044 13045 0
-13045 13087 0
-320 -13045 13046 0
-13046 13088 0
-322 -13046 13047 0
-13047 13089 0
-324 -13047 13048 0
-13048 13090 0
-326 -13048 13049 0
-13049 13091 0
-328 -13049 13050 0
-13050 13092 0
-330 -13050 13051 0
-13051 13093 0
-332 -13051 13052 0
-13052 13094 0
-12 -13052 13053 0
-13053 13095 0
-335 -13053 13054 0
-13054 13096 0
-337 -13054 13055 0
-13055 13097 0
-339 -13055 13056 0
-13056 13098 0
-341 -13056 13057 0
-13057 13099 0
-343 -13057 13058 0
-13058 13100 0
-345 -13058 13059 0
-13059 13101 0
-347 -13059 13060 0
-13060 13102 0
-349 -13060 13061 0
-13061 13103 0
-351 -13061 13062 0
-13062 13104 0
-353 -13062 13063 0
-13063 13105 0
-355 -13063 13064 0
-13064 13106 0
-357 -13064 13065 0
-13065 13107 0
-359 -13065 13066 0
-13066 13108 0
-361 -13066 13067 0
-13067 13109 0
-13 -13067 13068 0
-13068 13110 0
-364 -13068 13069 0
-13069 13111 0
-366 -13069 13070 0
-13070 13112 0
-368 -13070 13071 0
-13071 13113 0
-370 -13071 13072 0
-13072 13114 0
-372 -13072 13073 0
-13073 13115 0
-374 -13073 13074 0
-13074 13116 0
-376 -13074 13075 0
-13075 13117 0
-378 -13075 13076 0
-13076 13118 0
-380 -13076 0
-301 13077 0
-13077 13119 0
-303 -13077 13078 0
-13078 13120 0
-11 -13078 13079 0
-13079 13121 0
-306 -13079 13080 0
-13080 13122 0
-308 -13080 13081 0
-13081 13123 0
-310 -13081 13082 0
-13082 13124 0
-312 -13082 13083 0
-13083 13125 0
-314 -13083 13084 0
-13084 13126 0
-316 -13084 13085 0
-13085 13127 0
-318 -13085 13086 0
-13086 13128 0
-320 -13086 13087 0
-13087 13129 0
-322 -13087 13088 0
-13088 13130 0
-324 -13088 13089 0
-13089 13131 0
-326 -13089 13090 0
-13090 13132 0
-328 -13090 13091 0
-13091 13133 0
-330 -13091 13092 0
-13092 13134 0
-332 -13092 13093 0
-13093 13135 0
-12 -13093 13094 0
-13094 13136 0
-335 -13094 13095 0
-13095 13137 0
-337 -13095 13096 0
-13096 13138 0
-339 -13096 13097 0
-13097 13139 0
-341 -13097 13098 0
-13098 13140 0
-343 -13098 13099 0
-13099 13141 0
-345 -13099 13100 0
-13100 13142 0
-347 -13100 13101 0
-13101 13143 0
-349 -13101 13102 0
-13102 13144 0
-351 -13102 13103 0
-13103 13145 0
-353 -13103 13104 0
-13104 13146 0
-355 -13104 13105 0
-13105 13147 0
-357 -13105 13106 0
-13106 13148 0
-359 -13106 13107 0
-13107 13149 0
-361 -13107 13108 0
-13108 13150 0
-13 -13108 13109 0
-13109 13151 0
-364 -13109 13110 0
-13110 13152 0
-366 -13110 13111 0
-13111 13153 0
-368 -13111 13112 0
-13112 13154 0
-370 -13112 13113 0
-13113 13155 0
-372 -13113 13114 0
-13114 13156 0
-374 -13114 13115 0
-13115 13157 0
-376 -13115 13116 0
-13116 13158 0
-378 -13116 13117 0
-13117 13159 0
-380 -13117 13118 0
-13118 13160 0
-382 -13118 0
-303 13119 0
-13119 13161 0
-11 -13119 13120 0
-13120 13162 0
-306 -13120 13121 0
-13121 13163 0
-308 -13121 13122 0
-13122 13164 0
-310 -13122 13123 0
-13123 13165 0
-312 -13123 13124 0
-13124 13166 0
-314 -13124 13125 0
-13125 13167 0
-316 -13125 13126 0
-13126 13168 0
-318 -13126 13127 0
-13127 13169 0
-320 -13127 13128 0
-13128 13170 0
-322 -13128 13129 0
-13129 13171 0
-324 -13129 13130 0
-13130 13172 0
-326 -13130 13131 0
-13131 13173 0
-328 -13131 13132 0
-13132 13174 0
-330 -13132 13133 0
-13133 13175 0
-332 -13133 13134 0
-13134 13176 0
-12 -13134 13135 0
-13135 13177 0
-335 -13135 13136 0
-13136 13178 0
-337 -13136 13137 0
-13137 13179 0
-339 -13137 13138 0
-13138 13180 0
-341 -13138 13139 0
-13139 13181 0
-343 -13139 13140 0
-13140 13182 0
-345 -13140 13141 0
-13141 13183 0
-347 -13141 13142 0
-13142 13184 0
-349 -13142 13143 0
-13143 13185 0
-351 -13143 13144 0
-13144 13186 0
-353 -13144 13145 0
-13145 13187 0
-355 -13145 13146 0
-13146 13188 0
-357 -13146 13147 0
-13147 13189 0
-359 -13147 13148 0
-13148 13190 0
-361 -13148 13149 0
-13149 13191 0
-13 -13149 13150 0
-13150 13192 0
-364 -13150 13151 0
-13151 13193 0
-366 -13151 13152 0
-13152 13194 0
-368 -13152 13153 0
-13153 13195 0
-370 -13153 13154 0
-13154 13196 0
-372 -13154 13155 0
-13155 13197 0
-374 -13155 13156 0
-13156 13198 0
-376 -13156 13157 0
-13157 13199 0
-378 -13157 13158 0
-13158 13200 0
-380 -13158 13159 0
-13159 13201 0
-382 -13159 13160 0
-13160 13202 0
-384 -13160 0
-11 13161 0
-13161 13203 0
-306 -13161 13162 0
-13162 13204 0
-308 -13162 13163 0
-13163 13205 0
-310 -13163 13164 0
-13164 13206 0
-312 -13164 13165 0
-13165 13207 0
-314 -13165 13166 0
-13166 13208 0
-316 -13166 13167 0
-13167 13209 0
-318 -13167 13168 0
-13168 13210 0
-320 -13168 13169 0
-13169 13211 0
-322 -13169 13170 0
-13170 13212 0
-324 -13170 13171 0
-13171 13213 0
-326 -13171 13172 0
-13172 13214 0
-328 -13172 13173 0
-13173 13215 0
-330 -13173 13174 0
-13174 13216 0
-332 -13174 13175 0
-13175 13217 0
-12 -13175 13176 0
-13176 13218 0
-335 -13176 13177 0
-13177 13219 0
-337 -13177 13178 0
-13178 13220 0
-339 -13178 13179 0
-13179 13221 0
-341 -13179 13180 0
-13180 13222 0
-343 -13180 13181 0
-13181 13223 0
-345 -13181 13182 0
-13182 13224 0
-347 -13182 13183 0
-13183 13225 0
-349 -13183 13184 0
-13184 13226 0
-351 -13184 13185 0
-13185 13227 0
-353 -13185 13186 0
-13186 13228 0
-355 -13186 13187 0
-13187 13229 0
-357 -13187 13188 0
-13188 13230 0
-359 -13188 13189 0
-13189 13231 0
-361 -13189 13190 0
-13190 13232 0
-13 -13190 13191 0
-13191 13233 0
-364 -13191 13192 0
-13192 13234 0
-366 -13192 13193 0
-13193 13235 0
-368 -13193 13194 0
-13194 13236 0
-370 -13194 13195 0
-13195 13237 0
-372 -13195 13196 0
-13196 13238 0
-374 -13196 13197 0
-13197 13239 0
-376 -13197 13198 0
-13198 13240 0
-378 -13198 13199 0
-13199 13241 0
-380 -13199 13200 0
-13200 13242 0
-382 -13200 13201 0
-13201 13243 0
-384 -13201 13202 0
-13202 13244 0
-386 -13202 0
-306 13203 0
-13203 13245 0
-308 -13203 13204 0
-13204 13246 0
-310 -13204 13205 0
-13205 13247 0
-312 -13205 13206 0
-13206 13248 0
-314 -13206 13207 0
-13207 13249 0
-316 -13207 13208 0
-13208 13250 0
-318 -13208 13209 0
-13209 13251 0
-320 -13209 13210 0
-13210 13252 0
-322 -13210 13211 0
-13211 13253 0
-324 -13211 13212 0
-13212 13254 0
-326 -13212 13213 0
-13213 13255 0
-328 -13213 13214 0
-13214 13256 0
-330 -13214 13215 0
-13215 13257 0
-332 -13215 13216 0
-13216 13258 0
-12 -13216 13217 0
-13217 13259 0
-335 -13217 13218 0
-13218 13260 0
-337 -13218 13219 0
-13219 13261 0
-339 -13219 13220 0
-13220 13262 0
-341 -13220 13221 0
-13221 13263 0
-343 -13221 13222 0
-13222 13264 0
-345 -13222 13223 0
-13223 13265 0
-347 -13223 13224 0
-13224 13266 0
-349 -13224 13225 0
-13225 13267 0
-351 -13225 13226 0
-13226 13268 0
-353 -13226 13227 0
-13227 13269 0
-355 -13227 13228 0
-13228 13270 0
-357 -13228 13229 0
-13229 13271 0
-359 -13229 13230 0
-13230 13272 0
-361 -13230 13231 0
-13231 13273 0
-13 -13231 13232 0
-13232 13274 0
-364 -13232 13233 0
-13233 13275 0
-366 -13233 13234 0
-13234 13276 0
-368 -13234 13235 0
-13235 13277 0
-370 -13235 13236 0
-13236 13278 0
-372 -13236 13237 0
-13237 13279 0
-374 -13237 13238 0
-13238 13280 0
-376 -13238 13239 0
-13239 13281 0
-378 -13239 13240 0
-13240 13282 0
-380 -13240 13241 0
-13241 13283 0
-382 -13241 13242 0
-13242 13284 0
-384 -13242 13243 0
-13243 13285 0
-386 -13243 13244 0
-13244 13286 0
-388 -13244 0
-308 13245 0
-13245 13287 0
-310 -13245 13246 0
-13246 13288 0
-312 -13246 13247 0
-13247 13289 0
-314 -13247 13248 0
-13248 13290 0
-316 -13248 13249 0
-13249 13291 0
-318 -13249 13250 0
-13250 13292 0
-320 -13250 13251 0
-13251 13293 0
-322 -13251 13252 0
-13252 13294 0
-324 -13252 13253 0
-13253 13295 0
-326 -13253 13254 0
-13254 13296 0
-328 -13254 13255 0
-13255 13297 0
-330 -13255 13256 0
-13256 13298 0
-332 -13256 13257 0
-13257 13299 0
-12 -13257 13258 0
-13258 13300 0
-335 -13258 13259 0
-13259 13301 0
-337 -13259 13260 0
-13260 13302 0
-339 -13260 13261 0
-13261 13303 0
-341 -13261 13262 0
-13262 13304 0
-343 -13262 13263 0
-13263 13305 0
-345 -13263 13264 0
-13264 13306 0
-347 -13264 13265 0
-13265 13307 0
-349 -13265 13266 0
-13266 13308 0
-351 -13266 13267 0
-13267 13309 0
-353 -13267 13268 0
-13268 13310 0
-355 -13268 13269 0
-13269 13311 0
-357 -13269 13270 0
-13270 13312 0
-359 -13270 13271 0
-13271 13313 0
-361 -13271 13272 0
-13272 13314 0
-13 -13272 13273 0
-13273 13315 0
-364 -13273 13274 0
-13274 13316 0
-366 -13274 13275 0
-13275 13317 0
-368 -13275 13276 0
-13276 13318 0
-370 -13276 13277 0
-13277 13319 0
-372 -13277 13278 0
-13278 13320 0
-374 -13278 13279 0
-13279 13321 0
-376 -13279 13280 0
-13280 13322 0
-378 -13280 13281 0
-13281 13323 0
-380 -13281 13282 0
-13282 13324 0
-382 -13282 13283 0
-13283 13325 0
-384 -13283 13284 0
-13284 13326 0
-386 -13284 13285 0
-13285 13327 0
-388 -13285 13286 0
-13286 13328 0
-390 -13286 0
-310 13287 0
-312 -13287 13288 0
-314 -13288 13289 0
-316 -13289 13290 0
-318 -13290 13291 0
-320 -13291 13292 0
-322 -13292 13293 0
-324 -13293 13294 0
-326 -13294 13295 0
-328 -13295 13296 0
-330 -13296 13297 0
-332 -13297 13298 0
-12 -13298 13299 0
-335 -13299 13300 0
-337 -13300 13301 0
-339 -13301 13302 0
-341 -13302 13303 0
-343 -13303 13304 0
-345 -13304 13305 0
-347 -13305 13306 0
-349 -13306 13307 0
-351 -13307 13308 0
-353 -13308 13309 0
-355 -13309 13310 0
-357 -13310 13311 0
-359 -13311 13312 0
-361 -13312 13313 0
-13 -13313 13314 0
-364 -13314 13315 0
-366 -13315 13316 0
-368 -13316 13317 0
-370 -13317 13318 0
-372 -13318 13319 0
-374 -13319 13320 0
-376 -13320 13321 0
-378 -13321 13322 0
-380 -13322 13323 0
-382 -13323 13324 0
-384 -13324 13325 0
-386 -13325 13326 0
-388 -13326 13327 0
-390 -13327 13328 0
-14 -13328 0
13329 0
13330 13331 0
-13330 -13331 0
-13330 -13332 13333 0
-13330 -13334 13335 0
-13330 -13336 13337 0
-13330 -13338 13339 0
-13330 -13340 13341 0
-13330 -13342 13343 0
-13330 -13344 13345 0
-13330 -13346 13347 0
-13330 -13348 13349 0
-13330 -13350 13351 0
-13330 -13352 13353 0
-13330 -13354 13355 0
13333 13356 0
-13333 -13356 0
-13333 -13357 13330 0
-13333 -13358 13335 0
-13333 -13359 13337 0
-13333 -13360 13339 0
-13333 -13361 13341 0
-13333 -13362 13343 0
-13333 -13363 13345 0
-13333 -13364 13347 0
-13333 -13365 13349 0
-13333 -13366 13351 0
-13333 -13367 13353 0
-13333 -13368 13355 0
13335 13369 0
-13335 -13369 0
-13335 -13370 13330 0
-13335 -13371 13333 0
-13335 -13372 13337 0
-13335 -13373 13339 0
-13335 -13374 13341 0
-13335 -13375 13343 0
-13335 -13376 13345 0
-13335 -13377 13347 0
-13335 -13378 13349 0
-13335 -13379 13351 0
-13335 -13380 13353 0
-13335 -13381 13355 0
13337 13382 0
-13337 -13382 0
-13337 -13383 13330 0
-13337 -13384 13333 0
-13337 -13385 13335 0
-13337 -13386 13339 0
-13337 -13387 13341 0
-13337 -13388 13343 0
-13337 -13389 13345 0
-13337 -13390 13347 0
-13337 -13391 13349 0
-13337 -13392 13351 0
-13337 -13393 13353 0
-13337 -13394 13355 0
13339 13395 0
-13339 -13395 0
-13339 -13396 13330 0
-13339 -13397 13333 0
-13339 -13398 13335 0
-13339 -13399 13337 0
-13339 -13400 13341 0
-13339 -13401 13343 0
-13339 -13402 13345 0
-13339 -13403 13347 0
-13339 -13404 13349 0
-13339 -13405 13351 0
-13339 -13406 13353 0
-13339 -13407 13355 0
13341 13408 0
-13341 -13408 0
-13341 -13409 13330 0
-13341 -13410 13333 0
-13341 -13411 13335 0
-13341 -13412 13337 0
-13341 -13413 13339 0
-13341 -13414 13343 0
-13341 -13415 13345 0
-13341 -13416 13347 0
-13341 -13417 13349 0
-13341 -13418 13351 0
-13341 -13419 13353 0
-13341 -13420 13355 0
13343 13421 0
-13343 -13421 0
-13343 -13422 13330 0
-13343 -13423 13333 0
-13343 -13424 13335 0
-13343 -13425 13337 0
-13343 -13426 13339 0
-13343 -13427 13341 0
-13343 -13428 13345 0
-13343 -13429 13347 0
-13343 -13430 13349 0
-13343 -13431 13351 0
-13343 -13432 13353 0
-13343 -13433 13355 0
13345 13434 0
-13345 -13434 0
-13345 -13435 13330 0
-13345 -13436 13333 0
-13345 -13437 13335 0
-13345 -13438 13337 0
-13345 -13439 13339 0
-13345 -13440 13341 0
-13345 -13441 13343 0
-13345 -13442 13347 0
-13345 -13443 13349 0
-13345 -13444 13351 0
-13345 -13445 13353 0
-13345 -13446 13355 0
13347 13447 0
-13347 -13447 0
-13347 -13448 13330 0
-13347 -13449 13333 0
-13347 -13450 13335 0
-13347 -13451 13337 0
-13347 -13452 13339 0
-13347 -13453 13341 0
-13347 -13454 13343 0
-13347 -13455 13345 0
-13347 -13456 13349 0
-13347 -13457 13351 0
-13347 -13458 13353 0
-13347 -13459 13355 0
13349 13460 0
-13349 -13460 0
-13349 -13461 13330 0
-13349 -13462 13333 0
-13349 -13463 13335 0
-13349 -13464 13337 0
-13349 -13465 13339 0
-13349 -13466 13341 0
-13349 -13467 13343 0
-13349 -13468 13345 0
-13349 -13469 13347 0
-13349 -13470 13351 0
-13349 -13471 13353 0
-13349 -13472 13355 0
13351 13473 0
-13351 -13473 0
-13351 -13474 13330 0
-13351 -13475 13333 0
-13351 -13476 13335 0
-13351 -13477 13337 0
-13351 -13478 13339 0
-13351 -13479 13341 0
-13351 -13480 13343 0
-13351 -13481 13345 0
-13351 -13482 13347 0
-13351 -13483 13349 0
-13351 -13484 13353 0
-13351 -13485 13355 0
13353 13486 0
-13353 -13486 0
-13353 -13487 13330 0
-13353 -13488 13333 0
-13353 -13489 13335 0
-13353 -13490 13337 0
-13353 -13491 13339 0
-13353 -13492 13341 0
-13353 -13493 13343 0
-13353 -13494 13345 0
-13353 -13495 13347 0
-13353 -13496 13349 0
-13353 -13497 13351 0
-13353 -13498 13355 0
13355 13499 0
-13355 -13499 0
-13355 -13500 13330 0
-13355 -13501 13333 0
-13355 -13502 13335 0
-13355 -13503 13337 0
-13355 -13504 13339 0
-13355 -13505 13341 0
-13355 -13506 13343 0
-13355 -13507 13345 0
-13355 -13508 13347 0
-13355 -13509 13349 0
-13355 -13510 13351 0
-13355 -13511 13353 0
13512 0
13331 13330 0
-13331 -13330 0
-13331 -13333 13332 0
-13331 -13335 13334 0
-13331 -13337 13336 0
-13331 -13339 13338 0
-13331 -13341 13340 0
-13331 -13343 13342 0
-13331 -13345 13344 0
-13331 -13347 13346 0
-13331 -13349 13348 0
-13331 -13351 13350 0
-13331 -13353 13352 0
-13331 -13355 13354 0
13332 13357 0
-13332 -13357 0
-13332 -13356 13331 0
-13332 -13358 13334 0
-13332 -13359 13336 0
-13332 -13360 13338 0
-13332 -13361 13340 0
-13332 -13362 13342 0
-13332 -13363 13344 0
-13332 -13364 13346 0
-13332 -13365 13348 0
-13332 -13366 13350 0
-13332 -13367 13352 0
-13332 -13368 13354 0
13334 13370 0
-13334 -13370 0
-13334 -13369 13331 0
-13334 -13371 13332 0
-13334 -13372 13336 0
-13334 -13373 13338 0
-13334 -13374 13340 0
-13334 -13375 13342 0
-13334 -13376 13344 0
-13334 -13377 13346 0
-13334 -13378 13348 0
-13334 -13379 13350 0
-13334 -13380 13352 0
-13334 -13381 13354 0
13336 13383 0
-13336 -13383 0
-13336 -13382 13331 0
-13336 -13384 13332 0
-13336 -13385 13334 0
-13336 -13386 13338 0
-13336 -13387 13340 0
-13336 -13388 13342 0
-13336 -13389 13344 0
-13336 -13390 13346 0
-13336 -13391 13348 0
-13336 -13392 13350 0
-13336 -13393 13352 0
-13336 -13394 13354 0
13338 13396 0
-13338 -13396 0
-13338 -13395 13331 0
-13338 -13397 13332 0
-13338 -13398 13334 0
-13338 -13399 13336 0
-13338 -13400 13340 0
-13338 -13401 13342 0
-13338 -13402 13344 0
-13338 -13403 13346 0
-13338 -13404 13348 0
-13338 -13405 13350 0
-13338 -13406 13352 0
-13338 -13407 13354 0
13340 13409 0
-13340 -13409 0
-13340 -13408 13331 0
-13340 -13410 13332 0
-13340 -13411 13334 0
-13340 -13412 13336 0
-13340 -13413 13338 0
-13340 -13414 13342 0
-13340 -13415 13344 0
-13340 -13416 13346 0
-13340 -13417 13348 0
-13340 -13418 13350 0
-13340 -13419 13352 0
-13340 -13420 13354 0
13342 13422 0
-13342 -13422 0
-13342 -13421 13331 0
-13342 -13423 13332 0
-13342 -13424 13334 0
-13342 -13425 13336 0
-13342 -13426 13338 0
-13342 -13427 13340 0
-13342 -13428 13344 0
-13342 -13429 13346 0
-13342 -13430 13348 0
-13342 -13431 13350 0
-13342 -13432 13352 0
-13342 -13433 13354 0
13344 13435 0
-13344 -13435 0
-13344 -13434 13331 0
-13344 -13436 13332 0
-13344 -13437 13334 0
-13344 -13438 13336 0
-13344 -13439 13338 0
-13344 -13440 13340 0
-13344 -13441 13342 0
-13344 -13442 13346 0
-13344 -13443 13348 0
-13344 -13444 13350 0
-13344 -13445 13352 0
-13344 -13446 13354 0
13346 13448 0
-13346 -13448 0
-13346 -13447 13331 0
-13346 -13449 13332 0
-13346 -13450 13334 0
-13346 -13451 13336 0
-13346 -13452 13338 0
-13346 -13453 13340 0
-13346 -13454 13342 0
-13346 -13455 13344 0
-13346 -13456 13348 0
-13346 -13457 13350 0
-13346 -13458 13352 0
-13346 -13459 13354 0
13348 13461 0
-13348 -13461 0
-13348 -13460 13331 0
-13348 -13462 13332 0
-13348 -13463 13334 0
-13348 -13464 13336 0
-13348 -13465 13338 0
-13348 -13466 13340 0
-13348 -13467 13342 0
-13348 -13468 13344 0
-13348 -13469 13346 0
-13348 -13470 13350 0
-13348 -13471 13352 0
-13348 -13472 13354 0
13350 13474 0
-13350 -13474 0
-13350 -13473 13331 0
-13350 -13475 13332 0
-13350 -13476 13334 0
-13350 -13477 13336 0
-13350 -13478 13338 0
-13350 -13479 13340 0
-13350 -13480 13342 0
-13350 -13481 13344 0
-13350 -13482 13346 0
-13350 -13483 13348 0
-13350 -13484 13352 0
-13350 -13485 13354 0
13352 13487 0
-13352 -13487 0
-13352 -13486 13331 0
-13352 -13488 13332 0
-13352 -13489 13334 0
-13352 -13490 13336 0
-13352 -13491 13338 0
-13352 -13492 13340 0
-13352 -13493 13342 0
-13352 -13494 13344 0
-13352 -13495 13346 0
-13352 -13496 13348 0
-13352 -13497 13350 0
-13352 -13498 13354 0
13354 13500 0
-13354 -13500 0
-13354 -13499 13331 0
-13354 -13501 13332 0
-13354 -13502 13334 0
-13354 -13503 13336 0
-13354 -13504 13338 0
-13354 -13505 13340 0
-13354 -13506 13342 0
-13354 -13507 13344 0
-13354 -13508 13346 0
-13354 -13509 13348 0
-13354 -13510 13350 0
-13354 -13511 13352 0
13513 0
13356 13333 0
-13356 -13333 0
-13356 -13330 13357 0
-13356 -13335 13358 0
-13356 -13337 13359 0
-13356 -13339 13360 0
-13356 -13341 13361 0
-13356 -13343 13362 0
-13356 -13345 13363 0
-13356 -13347 13364 0
-13356 -13349 13365 0
-13356 -13351 13366 0
-13356 -13353 13367 0
-13356 -13355 13368 0
13357 13332 0
-13357 -13332 0
-13357 -13331 13356 0
-13357 -13334 13358 0
-13357 -13336 13359 0
-13357 -13338 13360 0
-13357 -13340 13361 0
-13357 -13342 13362 0
-13357 -13344 13363 0
-13357 -13346 13364 0
-13357 -13348 13365 0
-13357 -13350 13366 0
-13357 -13352 13367 0
-13357 -13354 13368 0
13358 13371 0
-13358 -13371 0
-13358 -13369 13356 0
-13358 -13370 13357 0
-13358 -13372 13359 0
-13358 -13373 13360 0
-13358 -13374 13361 0
-13358 -13375 13362 0
-13358 -13376 13363 0
-13358 -13377 13364 0
-13358 -13378 13365 0
-13358 -13379 13366 0
-13358 -13380 13367 0
-13358 -13381 13368 0
13359 13384 0
-13359 -13384 0
-13359 -13382 13356 0
-13359 -13383 13357 0
-13359 -13385 13358 0
-13359 -13386 13360 0
-13359 -13387 13361 0
-13359 -13388 13362 0
-13359 -13389 13363 0
-13359 -13390 13364 0
-13359 -13391 13365 0
-13359 -13392 13366 0
-13359 -13393 13367 0
-13359 -13394 13368 0
13360 13397 0
-13360 -13397 0
-13360 -13395 13356 0
-13360 -13396 13357 0
-13360 -13398 13358 0
-13360 -13399 13359 0
-13360 -13400 13361 0
-13360 -13401 13362 0
-13360 -13402 13363 0
-13360 -13403 13364 0
-13360 -13404 13365 0
-13360 -13405 13366 0
-13360 -13406 13367 0
-13360 -13407 13368 0
13361 13410 0
-13361 -13410 0
-13361 -13408 13356 0
-13361 -13409 13357 0
-13361 -13411 13358 0
-13361 -13412 13359 0
-13361 -13413 13360 0
-13361 -13414 13362 0
-13361 -13415 13363 0
-13361 -13416 13364 0
-13361 -13417 13365 0
-13361 -13418 13366 0
-13361 -13419 13367 0
-13361 -13420 13368 0
13362 13423 0
-13362 -13423 0
-13362 -13421 13356 0
-13362 -13422 13357 0
-13362 -13424 13358 0
-13362 -13425 13359 0
-13362 -13426 13360 0
-13362 -13427 13361 0
-13362 -13428 13363 0
-13362 -13429 13364 0
-13362 -13430 13365 0
-13362 -13431 13366 0
-13362 -13432 13367 0
-13362 -13433 13368 0
13363 13436 0
-13363 -13436 0
-13363 -13434 13356 0
-13363 -13435 13357 0
-13363 -13437 13358 0
-13363 -13438 13359 0
-13363 -13439 13360 0
-13363 -13440 13361 0
-13363 -13441 13362 0
-13363 -13442 13364 0
-13363 -13443 13365 0
-13363 -13444 13366 0
-13363 -13445 13367 0
-13363 -13446 13368 0
13364 13449 0
-13364 -13449 0
-13364 -13447 13356 0
-13364 -13448 13357 0
-13364 -13450 13358 0
-13364 -13451 13359 0
-13364 -13452 13360 0
-13364 -13453 13361 0
-13364 -13454 13362 0
-13364 -13455 13363 0
-13364 -13456 13365 0
-13364 -13457 13366 0
-13364 -13458 13367 0
-13364 -13459 13368 0
13365 13462 0
-13365 -13462 0
-13365 -13460 13356 0
-13365 -13461 13357 0
-13365 -13463 13358 0
-13365 -13464 13359 0
-13365 -13465 13360 0
-13365 -13466 13361 0
-13365 -13467 13362 0
-13365 -13468 13363 0
-13365 -13469 13364 0
-13365 -13470 13366 0
-13365 -13471 13367 0
-13365 -13472 13368 0
13366 13475 0
-13366 -13475 0
-13366 -13473 13356 0
-13366 -13474 13357 0
-13366 -13476 13358 0
-13366 -13477 13359 0
-13366 -13478 13360 0
-13366 -13479 13361 0
-13366 -13480 13362 0
-13366 -13481 13363 0
-13366 -13482 13364 0
-13366 -13483 13365 0
-13366 -13484 13367 0
-13366 -13485 13368 0
13367 13488 0
-13367 -13488 0
-13367 -13486 13356 0
-13367 -13487 13357 0
-13367 -13489 13358 0
-13367 -13490 13359 0
-13367 -13491 13360 0
-13367 -13492 13361 0
-13367 -13493 13362 0
-13367 -13494 13363 0
-13367 -13495 13364 0
-13367 -13496 13365 0
-13367 -13497 13366 0
-13367 -13498 13368 0
13368 13501 0
-13368 -13501 0
-13368 -13499 13356 0
-13368 -13500 13357 0
-13368 -13502 13358 0
-13368 -13503 13359 0
-13368 -13504 13360 0
-13368 -13505 13361 0
-13368 -13506 13362 0
-13368 -13507 13363 0
-13368 -13508 13364 0
-13368 -13509 13365 0
-13368 -13510 13366 0
-13368 -13511 13367 0
13514 0
13369 13335 0
-13369 -13335 0
-13369 -13330 13370 0
-13369 -13333 13371 0
-13369 -13337 13372 0
-13369 -13339 13373 0
-13369 -13341 13374 0
-13369 -13343 13375 0
-13369 -13345 13376 0
-13369 -13347 13377 0
-13369 -13349 13378 0
-13369 -13351 13379 0
-13369 -13353 13380 0
-13369 -13355 13381 0
13370 13334 0
-13370 -13334 0
-13370 -13331 13369 0
-13370 -13332 13371 0
-13370 -13336 13372 0
-13370 -13338 13373 0
-13370 -13340 13374 0
-13370 -13342 13375 0
-13370 -13344 13376 0
-13370 -13346 13377 0
-13370 -13348 13378 0
-13370 -13350 13379 0
-13370 -13352 13380 0
-13370 -13354 13381 0
13371 13358 0
-13371 -13358 0
-13371 -13356 13369 0
-13371 -13357 13370 0
-13371 -13359 13372 0
-13371 -13360 13373 0
-13371 -13361 13374 0
-13371 -13362 13375 0
-13371 -13363 13376 0
-13371 -13364 13377 0
-13371 -13365 13378 0
-13371 -13366 13379 0
-13371 -13367 13380 0
-13371 -13368 13381 0
13372 13385 0
-13372 -13385 0
-13372 -13382 13369 0
-13372 -13383 13370 0
-13372 -13384 13371 0
-13372 -13386 13373 0
-13372 -13387 13374 0
-13372 -13388 13375 0
-13372 -13389 13376 0
-13372 -13390 13377 0
-13372 -13391 13378 0
-13372 -13392 13379 0
-13372 -13393 13380 0
-13372 -13394 13381 0
13373 13398 0
-13373 -13398 0
-13373 -13395 13369 0
-13373 -13396 13370 0
-13373 -13397 13371 0
-13373 -13399 13372 0
-13373 -13400 13374 0
-13373 -13401 13375 0
-13373 -13402 13376 0
-13373 -13403 13377 0
-13373 -13404 13378 0
-13373 -13405 13379 0
-13373 -13406 13380 0
-13373 -13407 13381 0
13374 13411 0
-13374 -13411 0
-13374 -13408 13369 0
-13374 -13409 13370 0
-13374 -13410 13371 0
-13374 -13412 13372 0
-13374 -13413 13373 0
-13374 -13414 13375 0
-13374 -13415 13376 0
-13374 -13416 13377 0
-13374 -13417 13378 0
-13374 -13418 13379 0
-13374 -13419 13380 0
-13374 -13420 13381 0
13375 13424 0
-13375 -13424 0
-13375 -13421 13369 0
-13375 -13422 13370 0
-13375 -13423 13371 0
-13375 -13425 13372 0
-13375 -13426 13373 0
-13375 -13427 13374 0
-13375 -13428 13376 0
-13375 -13429 13377 0
-13375 -13430 13378 0
-13375 -13431 13379 0
-13375 -13432 13380 0
-13375 -13433 13381 0
13376 13437 0
-13376 -13437 0
-13376 -13434 13369 0
-13376 -13435 13370 0
-13376 -13436 13371 0
-13376 -13438 13372 0
-13376 -13439 13373 0
-13376 -13440 13374 0
-13376 -13441 13375 0
-13376 -13442 13377 0
-13376 -13443 13378 0
-13376 -13444 13379 0
-13376 -13445 13380 0
-13376 -13446 13381 0
13377 13450 0
-13377 -13450 0
-13377 -13447 13369 0
-13377 -13448 13370 0
-13377 -13449 13371 0
-13377 -13451 13372 0
-13377 -13452 13373 0
-13377 -13453 13374 0
-13377 -13454 13375 0
-13377 -13455 13376 0
-13377 -13456 13378 0
-13377 -13457 13379 0
-13377 -13458 13380 0
-13377 -13459 13381 0
13378 13463 0
-13378 -13463 0
-13378 -13460 13369 0
-13378 -13461 13370 0
-13378 -13462 13371 0
-13378 -13464 13372 0
-13378 -13465 13373 0
-13378 -13466 13374 0
-13378 -13467 13375 0
-13378 -13468 13376 0
-13378 -13469 13377 0
-13378 -13470 13379 0
-13378 -13471 13380 0
-13378 -13472 13381 0
13379 13476 0
-13379 -13476 0
-13379 -13473 13369 0
-13379 -13474 13370 0
-13379 -13475 13371 0
-13379 -13477 13372 0
-13379 -13478 13373 0
-13379 -13479 13374 0
-13379 -13480 13375 0
-13379 -13481 13376 0
-13379 -13482 13377 0
-13379 -13483 13378 0
-13379 -13484 13380 0
-13379 -13485 13381 0
13380 13489 0
-13380 -13489 0
-13380 -13486 13369 0
-13380 -13487 13370 0
-13380 -13488 13371 0
-13380 -13490 13372 0
-13380 -13491 13373 0
-13380 -13492 13374 0
-13380 -13493 13375 0
-13380 -13494 13376 0
-13380 -13495 13377 0
-13380 -13496 13378 0
-13380 -13497 13379 0
-13380 -13498 13381 0
13381 13502 0
-13381 -13502 0
-13381 -13499 13369 0
-13381 -13500 13370 0
-13381 -13501 13371 0
-13381 -13503 13372 0
-13381 -13504 13373 0
-13381 -13505 13374 0
-13381 -13506 13375 0
-13381 -13507 13376 0
-13381 -13508 13377 0
-13381 -13509 13378 0
-13381 -13510 13379 0
-13381 -13511 13380 0
13515 0
13382 13337 0
-13382 -13337 0
-13382 -13330 13383 0
-13382 -13333 13384 0
-13382 -13335 13385 0
-13382 -13339 13386 0
-13382 -13341 13387 0
-13382 -13343 13388 0
-13382 -13345 13389 0
-13382 -13347 13390 0
-13382 -13349 13391 0
-13382 -13351 13392 0
-13382 -13353 13393 0
-13382 -13355 13394 0
13383 13336 0
-13383 -13336 0
-13383 -13331 13382 0
-13383 -13332 13384 0
-13383 -13334 13385 0
-13383 -13338 13386 0
-13383 -13340 13387 0
-13383 -13342 13388 0
-13383 -13344 13389 0
-13383 -13346 13390 0
-13383 -13348 13391 0
-13383 -13350 13392 0
-13383 -13352 13393 0
-13383 -13354 13394 0
13384 13359 0
-13384 -13359 0
-13384 -13356 13382 0
-13384 -13357 13383 0
-13384 -13358 13385 0
-13384 -13360 13386 0
-13384 -13361 13387 0
-13384 -13362 13388 0
-13384 -13363 13389 0
-13384 -13364 13390 0
-13384 -13365 13391 0
-13384 -13366 13392 0
-13384 -13367 13393 0
-13384 -13368 13394 0
13385 13372 0
-13385 -13372 0
-13385 -13369 13382 0
-13385 -13370 13383 0
-13385 -13371 13384 0
-13385 -13373 13386 0
-13385 -13374 13387 0
-13385 -13375 13388 0
-13385 -13376 13389 0
-13385 -13377 13390 0
-13385 -13378 13391 0
-13385 -13379 13392 0
-13385 -13380 13393 0
-13385 -13381 13394 0
13386 13399 0
-13386 -13399 0
-13386 -13395 13382 0
-13386 -13396 13383 0
-13386 -13397 13384 0
-13386 -13398 13385 0
-13386 -13400 13387 0
-13386 -13401 13388 0
-13386 -13402 13389 0
-13386 -13403 13390 0
-13386 -13404 13391 0
-13386 -13405 13392 0
-13386 -13406 13393 0
-13386 -13407 13394 0
13387 13412 0
-13387 -13412 0
-13387 -13408 13382 0
-13387 -13409 13383 0
-13387 -13410 13384 0
-13387 -13411 13385 0
-13387 -13413 13386 0
-13387 -13414 13388 0
-13387 -13415 13389 0
-13387 -13416 13390 0
-13387 -13417 13391 0
-13387 -13418 13392 0
-13387 -13419 13393 0
-13387 -13420 13394 0
13388 13425 0
-13388 -13425 0
-13388 -13421 13382 0
-13388 -13422 13383 0
-13388 -13423 13384 0
-13388 -13424 13385 0
-13388 -13426 13386 0
-13388 -13427 13387 0
-13388 -13428 13389 0
-13388 -13429 13390 0
-13388 -13430 13391 0
-13388 -13431 13392 0
-13388 -13432 13393 0
-13388 -13433 13394 0
13389 13438 0
-13389 -13438 0
-13389 -13434 13382 0
-13389 -13435 13383 0
-13389 -13436 13384 0
-13389 -13437 13385 0
-13389 -13439 13386 0
-13389 -13440 13387 0
-13389 -13441 13388 0
-13389 -13442 13390 0
-13389 -13443 13391 0
-13389 -13444 13392 0
-13389 -13445 13393 0
-13389 -13446 13394 0
13390 13451 0
-13390 -13451 0
-13390 -13447 13382 0
-13390 -13448 13383 0
-13390 -13449 13384 0
-13390 -13450 13385 0
-13390 -13452 13386 0
-13390 -13453 13387 0
-13390 -13454 13388 0
-13390 -13455 13389 0
-13390 -13456 13391 0
-13390 -13457 13392 0
-13390 -13458 13393 0
-13390 -13459 13394 0
13391 13464 0
-13391 -13464 0
-13391 -13460 13382 0
-13391 -13461 13383 0
-13391 -13462 13384 0
-13391 -13463 13385 0
-13391 -13465 13386 0
-13391 -13466 13387 0
-13391 -13467 13388 0
-13391 -13468 13389 0
-13391 -13469 13390 0
-13391 -13470 13392 0
-13391 -13471 13393 0
-13391 -13472 13394 0
13392 13477 0
-13392 -13477 0
-13392 -13473 13382 0
-13392 -13474 13383 0
-13392 -13475 13384 0
-13392 -13476 13385 0
-13392 -13478 13386 0
-13392 -13479 13387 0
-13392 -13480 13388 0
-13392 -13481 13389 0
-13392 -13482 13390 0
-13392 -13483 13391 0
-13392 -13484 13393 0
-13392 -13485 13394 0
13393 13490 0
-13393 -13490 0
-13393 -13486 13382 0
-13393 -13487 13383 0
-13393 -13488 13384 0
-13393 -13489 13385 0
-13393 -13491 13386 0
-13393 -13492 13387 0
-13393 -13493 13388 0
-13393 -13494 13389 0
-13393 -13495 13390 0
-13393 -13496 13391 0
-13393 -13497 13392 0
-13393 -13498 13394 0
13394 13503 0
-13394 -13503 0
-13394 -13499 13382 0
-13394 -13500 13383 0
-13394 -13501 13384 0
-13394 -13502 13385 0
-13394 -13504 13386 0
-13394 -13505 13387 0
-13394 -13506 13388 0
-13394 -13507 13389 0
-13394 -13508 13390 0
-13394 -13509 13391 0
-13394 -13510 13392 0
-13394 -13511 13393 0
13516 0
13395 13339 0
-13395 -13339 0
-13395 -13330 13396 0
-13395 -13333 13397 0
-13395 -13335 13398 0
-13395 -13337 13399 0
-13395 -13341 13400 0
-13395 -13343 13401 0
-13395 -13345 13402 0
-13395 -13347 13403 0
-13395 -13349 13404 0
-13395 -13351 13405 0
-13395 -13353 13406 0
-13395 -13355 13407 0
13396 13338 0
-13396 -13338 0
-13396 -13331 13395 0
-13396 -13332 13397 0
-13396 -13334 13398 0
-13396 -13336 13399 0
-13396 -13340 13400 0
-13396 -13342 13401 0
-13396 -13344 13402 0
-13396 -13346 13403 0
-13396 -13348 13404 0
-13396 -13350 13405 0
-13396 -13352 13406 0
-13396 -13354 13407 0
13397 13360 0
-13397 -13360 0
-13397 -13356 13395 0
-13397 -13357 13396 0
-13397 -13358 13398 0
-13397 -13359 13399 0
-13397 -13361 13400 0
-13397 -13362 13401 0
-13397 -13363 13402 0
-13397 -13364 13403 0
-13397 -13365 13404 0
-13397 -13366 13405 0
-13397 -13367 13406 0
-13397 -13368 13407 0
13398 13373 0
-13398 -13373 0
-13398 -13369 13395 0
-13398 -13370 13396 0
-13398 -13371 13397 0
-13398 -13372 13399 0
-13398 -13374 13400 0
-13398 -13375 13401 0
-13398 -13376 13402 0
-13398 -13377 13403 0
-13398 -13378 13404 0
-13398 -13379 13405 0
-13398 -13380 13406 0
-13398 -13381 13407 0
13399 13386 0
-13399 -13386 0
-13399 -13382 13395 0
-13399 -13383 13396 0
-13399 -13384 13397 0
-13399 -13385 13398 0
-13399 -13387 13400 0
-13399 -13388 13401 0
-13399 -13389 13402 0
-13399 -13390 13403 0
-13399 -13391 13404 0
-13399 -13392 13405 0
-13399 -13393 13406 0
-13399 -13394 13407 0
13400 13413 0
-13400 -13413 0
-13400 -13408 13395 0
-13400 -13409 13396 0
-13400 -13410 13397 0
-13400 -13411 13398 0
-13400 -13412 13399 0
-13400 -13414 13401 0
-13400 -13415 13402 0
-13400 -13416 13403 0
-13400 -13417 13404 0
-13400 -13418 13405 0
-13400 -13419 13406 0
-13400 -13420 13407 0
13401 13426 0
-13401 -13426 0
-13401 -13421 13395 0
-13401 -13422 13396 0
-13401 -13423 13397 0
-13401 -13424 13398 0
-13401 -13425 13399 0
-13401 -13427 13400 0
-13401 -13428 13402 0
-13401 -13429 13403 0
-13401 -13430 13404 0
-13401 -13431 13405 0
-13401 -13432 13406 0
-13401 -13433 13407 0
13402 13439 0
-13402 -13439 0
-13402 -13434 13395 0
-13402 -13435 13396 0
-13402 -13436 13397 0
-13402 -13437 13398 0
-13402 -13438 13399 0
-13402 -13440 13400 0
-13402 -13441 13401 0
-13402 -13442 13403 0
-13402 -13443 13404 0
-13402 -13444 13405 0
-13402 -13445 13406 0
-13402 -13446 13407 0
13403 13452 0
-13403 -13452 0
-13403 -13447 13395 0
-13403 -13448 13396 0
-13403 -13449 13397 0
-13403 -13450 13398 0
-13403 -13451 13399 0
-13403 -13453 13400 0
-13403 -13454 13401 0
-13403 -13455 13402 0
-13403 -13456 13404 0
-13403 -13457 13405 0
-13403 -13458 13406 0
-13403 -13459 13407 0
13404 13465 0
-13404 -13465 0
-13404 -13460 13395 0
-13404 -13461 13396 0
-13404 -13462 13397 0
-13404 -13463 13398 0
-13404 -13464 13399 0
-13404 -13466 13400 0
-13404 -13467 13401 0
-13404 -13468 13402 0
-13404 -13469 13403 0
-13404 -13470 13405 0
-13404 -13471 13406 0
-13404 -13472 13407 0
13405 13478 0
-13405 -13478 0
-13405 -13473 13395 0
-13405 -13474 13396 0
-13405 -13475 13397 0
-13405 -13476 13398 0
-13405 -13477 13399 0
-13405 -13479 13400 0
-13405 -13480 13401 0
-13405 -13481 13402 0
-13405 -13482 13403 0
-13405 -13483 13404 0
-13405 -13484 13406 0
-13405 -13485 13407 0
13406 13491 0
-13406 -13491 0
-13406 -13486 13395 0
-13406 -13487 13396 0
-13406 -13488 13397 0
-13406 -13489 13398 0
-13406 -13490 13399 0
-13406 -13492 13400 0
-13406 -13493 13401 0
-13406 -13494 13402 0
-13406 -13495 13403 0
-13406 -13496 13404 0
-13406 -13497 13405 0
-13406 -13498 13407 0
13407 13504 0
-13407 -13504 0
-13407 -13499 13395 0
-13407 -13500 13396 0
-13407 -13501 13397 0
-13407 -13502 13398 0
-13407 -13503 13399 0
-13407 -13505 13400 0
-13407 -13506 13401 0
-13407 -13507 13402 0
-13407 -13508 13403 0
-13407 -13509 13404 0
-13407 -13510 13405 0
-13407 -13511 13406 0
13517 0
13408 13341 0
-13408 -13341 0
-13408 -13330 13409 0
-13408 -13333 13410 0
-13408 -13335 13411 0
-13408 -13337 13412 0
-13408 -13339 13413 0
-13408 -13343 13414 0
-13408 -13345 13415 0
-13408 -13347 13416 0
-13408 -13349 13417 0
-13408 -13351 13418 0
-13408 -13353 13419 0
-13408 -13355 13420 0
13409 13340 0
-13409 -13340 0
-13409 -13331 13408 0
-13409 -13332 13410 0
-13409 -13334 13411 0
-13409 -13336 13412 0
-13409 -13338 13413 0
-13409 -13342 13414 0
-13409 -13344 13415 0
-13409 -13346 13416 0
-13409 -13348 13417 0
-13409 -13350 13418 0
-13409 -13352 13419 0
-13409 -13354 13420 0
13410 13361 0
-13410 -13361 0
-13410 -13356 13408 0
-13410 -13357 13409 0
-13410 -13358 13411 0
-13410 -13359 13412 0
-13410 -13360 13413 0
-13410 -13362 13414 0
-13410 -13363 13415 0
-13410 -13364 13416 0
-13410 -13365 13417 0
-13410 -13366 13418 0
-13410 -13367 13419 0
-13410 -13368 13420 0
13411 13374 0
-13411 -13374 0
-13411 -13369 13408 0
-13411 -13370 13409 0
-13411 -13371 13410 0
-13411 -13372 13412 0
-13411 -13373 13413 0
-13411 -13375 13414 0
-13411 -13376 13415 0
-13411 -13377 13416 0
-13411 -13378 13417 0
-13411 -13379 13418 0
-13411 -13380 13419 0
-13411 -13381 13420 0
13412 13387 0
-13412 -13387 0
-13412 -13382 13408 0
-13412 -13383 13409 0
-13412 -13384 13410 0
-13412 -13385 13411 0
-13412 -13386 13413 0
-13412 -13388 13414 0
-13412 -13389 13415 0
-13412 -13390 13416 0
-13412 -13391 13417 0
-13412 -13392 13418 0
-13412 -13393 13419 0
-13412 -13394 13420 0
13413 13400 0
-13413 -13400 0
-13413 -13395 13408 0
-13413 -13396 13409 0
-13413 -13397 13410 0
-13413 -13398 13411 0
-13413 -13399 13412 0
-13413 -13401 13414 0
-13413 -13402 13415 0
-13413 -13403 13416 0
-13413 -13404 13417 0
-13413 -13405 13418 0
-13413 -13406 13419 0
-13413 -13407 13420 0
13414 13427 0
-13414 -13427 0
-13414 -13421 13408 0
-13414 -13422 13409 0
-13414 -13423 13410 0
-13414 -13424 13411 0
-13414 -13425 13412 0
-13414 -13426 13413 0
-13414 -13428 13415 0
-13414 -13429 13416 0
-13414 -13430 13417 0
-13414 -13431 13418 0
-13414 -13432 13419 0
-13414 -13433 13420 0
13415 13440 0
-13415 -13440 0
-13415 -13434 13408 0
-13415 -13435 13409 0
-13415 -13436 13410 0
-13415 -13437 13411 0
-13415 -13438 13412 0
-13415 -13439 13413 0
-13415 -13441 13414 0
-13415 -13442 13416 0
-13415 -13443 13417 0
-13415 -13444 13418 0
-13415 -13445 13419 0
-13415 -13446 13420 0
13416 13453 0
-13416 -13453 0
-13416 -13447 13408 0
-13416 -13448 13409 0
-13416 -13449 13410 0
-13416 -13450 13411 0
-13416 -13451 13412 0
-13416 -13452 13413 0
-13416 -13454 13414 0
-13416 -13455 13415 0
-13416 -13456 13417 0
-13416 -13457 13418 0
-13416 -13458 13419 0
-13416 -13459 13420 0
13417 13466 0
-13417 -13466 0
-13417 -13460 13408 0
-13417 -13461 13409 0
-13417 -13462 13410 0
-13417 -13463 13411 0
-13417 -13464 13412 0
-13417 -13465 13413 0
-13417 -13467 13414 0
-13417 -13468 13415 0
-13417 -13469 13416 0
-13417 -13470 13418 0
-13417 -13471 13419 0
-13417 -13472 13420 0
13418 13479 0
-13418 -13479 0
-13418 -13473 13408 0
-13418 -13474 13409 0
-13418 -13475 13410 0
-13418 -13476 13411 0
-13418 -13477 13412 0
-13418 -13478 13413 0
-13418 -13480 13414 0
-13418 -13481 13415 0
-13418 -13482 13416 0
-13418 -13483 13417 0
-13418 -13484 13419 0
-13418 -13485 13420 0
13419 13492 0
-13419 -13492 0
-13419 -13486 13408 0
-13419 -13487 13409 0
-13419 -13488 13410 0
-13419 -13489 13411 0
-13419 -13490 13412 0
-13419 -13491 13413 0
-13419 -13493 13414 0
-13419 -13494 13415 0
-13419 -13495 13416 0
-13419 -13496 13417 0
-13419 -13497 13418 0
-13419 -13498 13420 0
13420 13505 0
-13420 -13505 0
-13420 -13499 13408 0
-13420 -13500 13409 0
-13420 -13501 13410 0
-13420 -13502 13411 0
-13420 -13503 13412 0
-13420 -13504 13413 0
-13420 -13506 13414 0
-13420 -13507 13415 0
-13420 -13508 13416 0
-13420 -13509 13417 0
-13420 -13510 13418 0
-13420 -13511 13419 0
13518 0
13421 13343 0
-13421 -13343 0
-13421 -13330 13422 0
-13421 -13333 13423 0
-13421 -13335 13424 0
-13421 -13337 13425 0
-13421 -13339 13426 0
-13421 -13341 13427 0
-13421 -13345 13428 0
-13421 -13347 13429 0
-13421 -13349 13430 0
-13421 -13351 13431 0
-13421 -13353 13432 0
-13421 -13355 13433 0
13422 13342 0
-13422 -13342 0
-13422 -13331 13421 0
-13422 -13332 13423 0
-13422 -13334 13424 0
-13422 -13336 13425 0
-13422 -13338 13426 0
-13422 -13340 13427 0
-13422 -13344 13428 0
-13422 -13346 13429 0
-13422 -13348 13430 0
-13422 -13350 13431 0
-13422 -13352 13432 0
-13422 -13354 13433 0
13423 13362 0
-13423 -13362 0
-13423 -13356 13421 0
-13423 -13357 13422 0
-13423 -13358 13424 0
-13423 -13359 13425 0
-13423 -13360 13426 0
-13423 -13361 13427 0
-13423 -13363 13428 0
-13423 -13364 13429 0
-13423 -13365 13430 0
-13423 -13366 13431 0
-13423 -13367 13432 0
-13423 -13368 13433 0
13424 13375 0
-13424 -13375 0
-13424 -13369 13421 0
-13424 -13370 13422 0
-13424 -13371 13423 0
-13424 -13372 13425 0
-13424 -13373 13426 0
-13424 -13374 13427 0
-13424 -13376 13428 0
-13424 -13377 13429 0
-13424 -13378 13430 0
-13424 -13379 13431 0
-13424 -13380 13432 0
-13424 -13381 13433 0
13425 13388 0
-13425 -13388 0
-13425 -13382 13421 0
-13425 -13383 13422 0
-13425 -13384 13423 0
-13425 -13385 13424 0
-13425 -13386 13426 0
-13425 -13387 13427 0
-13425 -13389 13428 0
-13425 -13390 13429 0
-13425 -13391 13430 0
-13425 -13392 13431 0
-13425 -13393 13432 0
-13425 -13394 13433 0
13426 13401 0
-13426 -13401 0
-13426 -13395 13421 0
-13426 -13396 13422 0
-13426 -13397 13423 0
-13426 -13398 13424 0
-13426 -13399 13425 0
-13426 -13400 13427 0
-13426 -13402 13428 0
-13426 -13403 13429 0
-13426 -13404 13430 0
-13426 -13405 13431 0
-13426 -13406 13432 0
-13426 -13407 13433 0
13427 13414 0
-13427 -13414 0
-13427 -13408 13421 0
-13427 -13409 13422 0
-13427 -13410 13423 0
-13427 -13411 13424 0
-13427 -13412 13425 0
-13427 -13413 13426 0
-13427 -13415 13428 0
-13427 -13416 13429 0
-13427 -13417 13430 0
-13427 -13418 13431 0
-13427 -13419 13432 0
-13427 -13420 13433 0
13428 13441 0
-13428 -13441 0
-13428 -13434 13421 0
-13428 -13435 13422 0
-13428 -13436 13423 0
-13428 -13437 13424 0
-13428 -13438 13425 0
-13428 -13439 13426 0
-13428 -13440 13427 0
-13428 -13442 13429 0
-13428 -13443 13430 0
-13428 -13444 13431 0
-13428 -13445 13432 0
-13428 -13446 13433 0
13429 13454 0
-13429 -13454 0
-13429 -13447 13421 0
-13429 -13448 13422 0
-13429 -13449 13423 0
-13429 -13450 13424 0
-13429 -13451 13425 0
-13429 -13452 13426 0
-13429 -13453 13427 0
-13429 -13455 13428 0
-13429 -13456 13430 0
-13429 -13457 13431 0
-13429 -13458 13432 0
-13429 -13459 13433 0
13430 13467 0
-13430 -13467 0
-13430 -13460 13421 0
-13430 -13461 13422 0
-13430 -13462 13423 0
-13430 -13463 13424 0
-13430 -13464 13425 0
-13430 -13465 13426 0
-13430 -13466 13427 0
-13430 -13468 13428 0
-13430 -13469 13429 0
-13430 -13470 13431 0
-13430 -13471 13432 0
-13430 -13472 13433 0
13431 13480 0
-13431 -13480 0
-13431 -13473 13421 0
-13431 -13474 13422 0
-13431 -13475 13423 0
-13431 -13476 13424 0
-13431 -13477 13425 0
-13431 -13478 13426 0
-13431 -13479 13427 0
-13431 -13481 13428 0
-13431 -13482 13429 0
-13431 -13483 13430 0
-13431 -13484 13432 0
-13431 -13485 13433 0
13432 13493 0
-13432 -13493 0
-13432 -13486 13421 0
-13432 -13487 13422 0
-13432 -13488 13423 0
-13432 -13489 13424 0
-13432 -13490 13425 0
-13432 -13491 13426 0
-13432 -13492 13427 0
-13432 -13494 13428 0
-13432 -13495 13429 0
-13432 -13496 13430 0
-13432 -13497 13431 0
-13432 -13498 13433 0
13433 13506 0
-13433 -13506 0
-13433 -13499 13421 0
-13433 -13500 13422 0
-13433 -13501 13423 0
-13433 -13502 13424 0
-13433 -13503 13425 0
-13433 -13504 13426 0
-13433 -13505 13427 0
-13433 -13507 13428 0
-13433 -13508 13429 0
-13433 -13509 13430 0
-13433 -13510 13431 0
-13433 -13511 13432 0
13519 0
13434 13345 0
-13434 -13345 0
-13434 -13330 13435 0
-13434 -13333 13436 0
-13434 -13335 13437 0
-13434 -13337 13438 0
-13434 -13339 13439 0
-13434 -13341 13440 0
-13434 -13343 13441 0
-13434 -13347 13442 0
-13434 -13349 13443 0
-13434 -13351 13444 0
-13434 -13353 13445 0
-13434 -13355 13446 0
13435 13344 0
-13435 -13344 0
-13435 -13331 13434 0
-13435 -13332 13436 0
-13435 -13334 13437 0
-13435 -13336 13438 0
-13435 -13338 13439 0
-13435 -13340 13440 0
-13435 -13342 13441 0
-13435 -13346 13442 0
-13435 -13348 13443 0
-13435 -13350 13444 0
-13435 -13352 13445 0
-13435 -13354 13446 0
13436 13363 0
-13436 -13363 0
-13436 -13356 13434 0
-13436 -13357 13435 0
-13436 -13358 13437 0
-13436 -13359 13438 0
-13436 -13360 13439 0
-13436 -13361 13440 0
-13436 -13362 13441 0
-13436 -13364 13442 0
-13436 -13365 13443 0
-13436 -13366 13444 0
-13436 -13367 13445 0
-13436 -13368 13446 0
13437 13376 0
-13437 -13376 0
-13437 -13369 13434 0
-13437 -13370 13435 0
-13437 -13371 13436 0
-13437 -13372 13438 0
-13437 -13373 13439 0
-13437 -13374 13440 0
-13437 -13375 13441 0
-13437 -13377 13442 0
-13437 -13378 13443 0
-13437 -13379 13444 0
-13437 -13380 13445 0
-13437 -13381 13446 0
13438 13389 0
-13438 -13389 0
-13438 -13382 13434 0
-13438 -13383 13435 0
-13438 -13384 13436 0
-13438 -13385 13437 0
-13438 -13386 13439 0
-13438 -13387 13440 0
-13438 -13388 13441 0
-13438 -13390 13442 0
-13438 -13391 13443 0
-13438 -13392 13444 0
-13438 -13393 13445 0
-13438 -13394 13446 0
13439 13402 0
-13439 -13402 0
-13439 -13395 13434 0
-13439 -13396 13435 0
-13439 -13397 13436 0
-13439 -13398 13437 0
-13439 -13399 13438 0
-13439 -13400 13440 0
-13439 -13401 13441 0
-13439 -13403 13442 0
-13439 -13404 13443 0
-13439 -13405 13444 0
-13439 -13406 13445 0
-13439 -13407 13446 0
13440 13415 0
-13440 -13415 0
-13440 -13408 13434 0
-13440 -13409 13435 0
-13440 -13410 13436 0
-13440 -13411 13437 0
-13440 -13412 13438 0
-13440 -13413 13439 0
-13440 -13414 13441 0
-13440 -13416 13442 0
-13440 -13417 13443 0
-13440 -13418 13444 0
-13440 -13419 13445 0
-13440 -13420 13446 0
13441 13428 0
-13441 -13428 0
-13441 -13421 13434 0
-13441 -13422 13435 0
-13441 -13423 13436 0
-13441 -13424 13437 0
-13441 -13425 13438 0
-13441 -13426 13439 0
-13441 -13427 13440 0
-13441 -13429 13442 0
-13441 -13430 13443 0
-13441 -13431 13444 0
-13441 -13432 13445 0
-13441 -13433 13446 0
13442 13455 0
-13442 -13455 0
-13442 -13447 13434 0
-13442 -13448 13435 0
-13442 -13449 13436 0
-13442 -13450 13437 0
-13442 -13451 13438 0
-13442 -13452 13439 0
-13442 -13453 13440 0
-13442 -13454 13441 0
-13442 -13456 13443 0
-13442 -13457 13444 0
-13442 -13458 13445 0
-13442 -13459 13446 0
13443 13468 0
-13443 -13468 0
-13443 -13460 13434 0
-13443 -13461 13435 0
-13443 -13462 13436 0
-13443 -13463 13437 0
-13443 -13464 13438 0
-13443 -13465 13439 0
-13443 -13466 13440 0
-13443 -13467 13441 0
-13443 -13469 13442 0
-13443 -13470 13444 0
-13443 -13471 13445 0
-13443 -13472 13446 0
13444 13481 0
-13444 -13481 0
-13444 -13473 13434 0
-13444 -13474 13435 0
-13444 -13475 13436 0
-13444 -13476 13437 0
-13444 -13477 13438 0
-13444 -13478 13439 0
-13444 -13479 13440 0
-13444 -13480 13441 0
-13444 -13482 13442 0
-13444 -13483 13443 0
-13444 -13484 13445 0
-13444 -13485 13446 0
13445 13494 0
-13445 -13494 0
-13445 -13486 13434 0
-13445 -13487 13435 0
-13445 -13488 13436 0
-13445 -13489 13437 0
-13445 -13490 13438 0
-13445 -13491 13439 0
-13445 -13492 13440 0
-13445 -13493 13441 0
-13445 -13495 13442 0
-13445 -13496 13443 0
-13445 -13497 13444 0
-13445 -13498 13446 0
13446 13507 0
-13446 -13507 0
-13446 -13499 13434 0
-13446 -13500 13435 0
-13446 -13501 13436 0
-13446 -13502 13437 0
-13446 -13503 13438 0
-13446 -13504 13439 0
-13446 -13505 13440 0
-13446 -13506 13441 0
-13446 -13508 13442 0
-13446 -13509 13443 0
-13446 -13510 13444 0
-13446 -13511 13445 0
13520 0
13447 13347 0
-13447 -13347 0
-13447 -13330 13448 0
-13447 -13333 13449 0
-13447 -13335 13450 0
-13447 -13337 13451 0
-13447 -13339 13452 0
-13447 -13341 13453 0
-13447 -13343 13454 0
-13447 -13345 13455 0
-13447 -13349 13456 0
-13447 -13351 13457 0
-13447 -13353 13458 0
-13447 -13355 13459 0
13448 13346 0
-13448 -13346 0
-13448 -13331 13447 0
-13448 -13332 13449 0
-13448 -13334 13450 0
-13448 -13336 13451 0
-13448 -13338 13452 0
-13448 -13340 13453 0
-13448 -13342 13454 0
-13448 -13344 13455 0
-13448 -13348 13456 0
-13448 -13350 13457 0
-13448 -13352 13458 0
-13448 -13354 13459 0
13449 13364 0
-13449 -13364 0
-13449 -13356 13447 0
-13449 -13357 13448 0
-13449 -13358 13450 0
-13449 -13359 13451 0
-13449 -13360 13452 0
-13449 -13361 13453 0
-13449 -13362 13454 0
-13449 -13363 13455 0
-13449 -13365 13456 0
-13449 -13366 13457 0
-13449 -13367 13458 0
-13449 -13368 13459 0
13450 13377 0
-13450 -13377 0
-13450 -13369 13447 0
-13450 -13370 13448 0
-13450 -13371 13449 0
-13450 -13372 13451 0
-13450 -13373 13452 0
-13450 -13374 13453 0
-13450 -13375 13454 0
-13450 -13376 13455 0
-13450 -13378 13456 0
-13450 -13379 13457 0
-13450 -13380 13458 0
-13450 -13381 13459 0
13451 13390 0
-13451 -13390 0
-13451 -13382 13447 0
-13451 -13383 13448 0
-13451 -13384 13449 0
-13451 -13385 13450 0
-13451 -13386 13452 0
-13451 -13387 13453 0
-13451 -13388 13454 0
-13451 -13389 13455 0
-13451 -13391 13456 0
-13451 -13392 13457 0
-13451 -13393 13458 0
-13451 -13394 13459 0
13452 13403 0
-13452 -13403 0
-13452 -13395 13447 0
-13452 -13396 13448 0
-13452 -13397 13449 0
-13452 -13398 13450 0
-13452 -13399 13451 0
-13452 -13400 13453 0
-13452 -13401 13454 0
-13452 -13402 13455 0
-13452 -13404 13456 0
-13452 -13405 13457 0
-13452 -13406 13458 0
-13452 -13407 13459 0
13453 13416 0
-13453 -13416 0
-13453 -13408 13447 0
-13453 -13409 13448 0
-13453 -13410 13449 0
-13453 -13411 13450 0
-13453 -13412 13451 0
-13453 -13413 13452 0
-13453 -13414 13454 0
-13453 -13415 13455 0
-13453 -13417 13456 0
-13453 -13418 13457 0
-13453 -13419 13458 0
-13453 -13420 13459 0
13454 13429 0
-13454 -13429 0
-13454 -13421 13447 0
-13454 -13422 13448 0
-13454 -13423 13449 0
-13454 -13424 13450 0
-13454 -13425 13451 0
-13454 -13426 13452 0
-13454 -13427 13453 0
-13454 -13428 13455 0
-13454 -13430 13456 0
-13454 -13431 13457 0
-13454 -13432 13458 0
-13454 -13433 13459 0
13455 13442 0
-13455 -13442 0
-13455 -13434 13447 0
-13455 -13435 13448 0
-13455 -13436 13449 0
-13455 -13437 13450 0
-13455 -13438 13451 0
-13455 -13439 13452 0
-13455 -13440 13453 0
-13455 -13441 13454 0
-13455 -13443 13456 0
-13455 -13444 13457 0
-13455 -13445 13458 0
-13455 -13446 13459 0
13456 13469 0
-13456 -13469 0
-13456 -13460 13447 0
-13456 -13461 13448 0
-13456 -13462 13449 0
-13456 -13463 13450 0
-13456 -13464 13451 0
-13456 -13465 13452 0
-13456 -13466 13453 0
-13456 -13467 13454 0
-13456 -13468 13455 0
-13456 -13470 13457 0
-13456 -13471 13458 0
-13456 -13472 13459 0
13457 13482 0
-13457 -13482 0
-13457 -13473 13447 0
-13457 -13474 13448 0
-13457 -13475 13449 0
-13457 -13476 13450 0
-13457 -13477 13451 0
-13457 -13478 13452 0
-13457 -13479 13453 0
-13457 -13480 13454 0
-13457 -13481 13455 0
-13457 -13483 13456 0
-13457 -13484 13458 0
-13457 -13485 13459 0
13458 13495 0
-13458 -13495 0
-13458 -13486 13447 0
-13458 -13487 13448 0
-13458 -13488 13449 0
-13458 -13489 13450 0
-13458 -13490 13451 0
-13458 -13491 13452 0
-13458 -13492 13453 0
-13458 -13493 13454 0
-13458 -13494 13455 0
-13458 -13496 13456 0
-13458 -13497 13457 0
-13458 -13498 13459 0
13459 13508 0
-13459 -13508 0
-13459 -13499 13447 0
-13459 -13500 13448 0
-13459 -13501 13449 0
-13459 -13502 13450 0
-13459 -13503 13451 0
-13459 -13504 13452 0
-13459 -13505 13453 0
-13459 -13506 13454 0
-13459 -13507 13455 0
-13459 -13509 13456 0
-13459 -13510 13457 0
-13459 -13511 13458 0
13521 0
13460 13349 0
-13460 -13349 0
-13460 -13330 13461 0
-13460 -13333 13462 0
-13460 -13335 13463 0
-13460 -13337 13464 0
-13460 -13339 13465 0
-13460 -13341 13466 0
-13460 -13343 13467 0
-13460 -13345 13468 0
-13460 -13347 13469 0
-13460 -13351 13470 0
-13460 -13353 13471 0
-13460 -13355 13472 0
13461 13348 0
-13461 -13348 0
-13461 -13331 13460 0
-13461 -13332 13462 0
-13461 -13334 13463 0
-13461 -13336 13464 0
-13461 -13338 13465 0
-13461 -13340 13466 0
-13461 -13342 13467 0
-13461 -13344 13468 0
-13461 -13346 13469 0
-13461 -13350 13470 0
-13461 -13352 13471 0
-13461 -13354 13472 0
13462 13365 0
-13462 -13365 0
-13462 -13356 13460 0
-13462 -13357 13461 0
-13462 -13358 13463 0
-13462 -13359 13464 0
-13462 -13360 13465 0
-13462 -13361 13466 0
-13462 -13362 13467 0
-13462 -13363 13468 0
-13462 -13364 13469 0
-13462 -13366 13470 0
-13462 -13367 13471 0
-13462 -13368 13472 0
13463 13378 0
-13463 -13378 0
-13463 -13369 13460 0
-13463 -13370 13461 0
-13463 -13371 13462 0
-13463 -13372 13464 0
-13463 -13373 13465 0
-13463 -13374 13466 0
-13463 -13375 13467 0
-13463 -13376 13468 0
-13463 -13377 13469 0
-13463 -13379 13470 0
-13463 -13380 13471 0
-13463 -13381 13472 0
13464 13391 0
-13464 -13391 0
-13464 -13382 13460 0
-13464 -13383 13461 0
-13464 -13384 13462 0
-13464 -13385 13463 0
-13464 -13386 13465 0
-13464 -13387 13466 0
-13464 -13388 13467 0
-13464 -13389 13468 0
-13464 -13390 13469 0
-13464 -13392 13470 0
-13464 -13393 13471 0
-13464 -13394 13472 0
13465 13404 0
-13465 -13404 0
-13465 -13395 13460 0
-13465 -13396 13461 0
-13465 -13397 13462 0
-13465 -13398 13463 0
-13465 -13399 13464 0
-13465 -13400 13466 0
-13465 -13401 13467 0
-13465 -13402 13468 0
-13465 -13403 13469 0
-13465 -13405 13470 0
-13465 -13406 13471 0
-13465 -13407 13472 0
13466 13417 0
-13466 -13417 0
-13466 -13408 13460 0
-13466 -13409 13461 0
-13466 -13410 13462 0
-13466 -13411 13463 0
-13466 -13412 13464 0
-13466 -13413 13465 0
-13466 -13414 13467 0
-13466 -13415 13468 0
-13466 -13416 13469 0
-13466 -13418 13470 0
-13466 -13419 13471 0
-13466 -13420 13472 0
13467 13430 0
-13467 -13430 0
-13467 -13421 13460 0
-13467 -13422 13461 0
-13467 -13423 13462 0
-13467 -13424 13463 0
-13467 -13425 13464 0
-13467 -13426 13465 0
-13467 -13427 13466 0
-13467 -13428 13468 0
-13467 -13429 13469 0
-13467 -13431 13470 0
-13467 -13432 13471 0
-13467 -13433 13472 0
13468 13443 0
-13468 -13443 0
-13468 -13434 13460 0
-13468 -13435 13461 0
-13468 -13436 13462 0
-13468 -13437 13463 0
-13468 -13438 13464 0
-13468 -13439 13465 0
-13468 -13440 13466 0
-13468 -13441 13467 0
-13468 -13442 13469 0
-13468 -13444 13470 0
-13468 -13445 13471 0
-13468 -13446 13472 0
13469 13456 0
-13469 -13456 0
-13469 -13447 13460 0
-13469 -13448 13461 0
-13469 -13449 13462 0
-13469 -13450 13463 0
-13469 -13451 13464 0
-13469 -13452 13465 0
-13469 -13453 13466 0
-13469 -13454 13467 0
-13469 -13455 13468 0
-13469 -13457 13470 0
-13469 -13458 13471 0
-13469 -13459 13472 0
13470 13483 0
-13470 -13483 0
-13470 -13473 13460 0
-13470 -13474 13461 0
-13470 -13475 13462 0
-13470 -13476 13463 0
-13470 -13477 13464 0
-13470 -13478 13465 0
-13470 -13479 13466 0
-13470 -13480 13467 0
-13470 -13481 13468 0
-13470 -13482 13469 0
-13470 -13484 13471 0
-13470 -13485 13472 0
13471 13496 0
-13471 -13496 0
-13471 -13486 13460 0
-13471 -13487 13461 0
-13471 -13488 13462 0
-13471 -13489 13463 0
-13471 -13490 13464 0
-13471 -13491 13465 0
-13471 -13492 13466 0
-13471 -13493 13467 0
-13471 -13494 13468 0
-13471 -13495 13469 0
-13471 -13497 13470 0
-13471 -13498 13472 0
13472 13509 0
-13472 -13509 0
-13472 -13499 13460 0
-13472 -13500 13461 0
-13472 -13501 13462 0
-13472 -13502 13463 0
-13472 -13503 13464 0
-13472 -13504 13465 0
-13472 -13505 13466 0
-13472 -13506 13467 0
-13472 -13507 13468 0
-13472 -13508 13469 0
-13472 -13510 13470 0
-13472 -13511 13471 0
13522 0
13473 13351 0
-13473 -13351 0
-13473 -13330 13474 0
-13473 -13333 13475 0
-13473 -13335 13476 0
-13473 -13337 13477 0
-13473 -13339 13478 0
-13473 -13341 13479 0
-13473 -13343 13480 0
-13473 -13345 13481 0
-13473 -13347 13482 0
-13473 -13349 13483 0
-13473 -13353 13484 0
-13473 -13355 13485 0
13474 13350 0
-13474 -13350 0
-13474 -13331 13473 0
-13474 -13332 13475 0
-13474 -13334 13476 0
-13474 -13336 13477 0
-13474 -13338 13478 0
-13474 -13340 13479 0
-13474 -13342 13480 0
-13474 -13344 13481 0
-13474 -13346 13482 0
-13474 -13348 13483 0
-13474 -13352 13484 0
-13474 -13354 13485 0
13475 13366 0
-13475 -13366 0
-13475 -13356 13473 0
-13475 -13357 13474 0
-13475 -13358 13476 0
-13475 -13359 13477 0
-13475 -13360 13478 0
-13475 -13361 13479 0
-13475 -13362 13480 0
-13475 -13363 13481 0
-13475 -13364 13482 0
-13475 -13365 13483 0
-13475 -13367 13484 0
-13475 -13368 13485 0
13476 13379 0
-13476 -13379 0
-13476 -13369 13473 0
-13476 -13370 13474 0
-13476 -13371 13475 0
-13476 -13372 13477 0
-13476 -13373 13478 0
-13476 -13374 13479 0
-13476 -13375 13480 0
-13476 -13376 13481 0
-13476 -13377 13482 0
-13476 -13378 13483 0
-13476 -13380 13484 0
-13476 -13381 13485 0
13477 13392 0
-13477 -13392 0
-13477 -13382 13473 0
-13477 -13383 13474 0
-13477 -13384 13475 0
-13477 -13385 13476 0
-13477 -13386 13478 0
-13477 -13387 13479 0
-13477 -13388 13480 0
-13477 -13389 13481 0
-13477 -13390 13482 0
-13477 -13391 13483 0
-13477 -13393 13484 0
-13477 -13394 13485 0
13478 13405 0
-13478 -13405 0
-13478 -13395 13473 0
-13478 -13396 13474 0
-13478 -13397 13475 0
-13478 -13398 13476 0
-13478 -13399 13477 0
-13478 -13400 13479 0
-13478 -13401 13480 0
-13478 -13402 13481 0
-13478 -13403 13482 0
-13478 -13404 13483 0
-13478 -13406 13484 0
-13478 -13407 13485 0
13479 13418 0
-13479 -13418 0
-13479 -13408 13473 0
-13479 -13409 13474 0
-13479 -13410 13475 0
-13479 -13411 13476 0
-13479 -13412 13477 0
-13479 -13413 13478 0
-13479 -13414 13480 0
-13479 -13415 13481 0
-13479 -13416 13482 0
-13479 -13417 13483 0
-13479 -13419 13484 0
-13479 -13420 13485 0
13480 13431 0
-13480 -13431 0
-13480 -13421 13473 0
-13480 -13422 13474 0
-13480 -13423 13475 0
-13480 -13424 13476 0
-13480 -13425 13477 0
-13480 -13426 13478 0
-13480 -13427 13479 0
-13480 -13428 13481 0
-13480 -13429 13482 0
-13480 -13430 13483 0
-13480 -13432 13484 0
-13480 -13433 13485 0
13481 13444 0
-13481 -13444 0
-13481 -13434 13473 0
-13481 -13435 13474 0
-13481 -13436 13475 0
-13481 -13437 13476 0
-13481 -13438 13477 0
-13481 -13439 13478 0
-13481 -13440 13479 0
-13481 -13441 13480 0
-13481 -13442 13482 0
-13481 -13443 13483 0
-13481 -13445 13484 0
-13481 -13446 13485 0
13482 13457 0
-13482 -13457 0
-13482 -13447 13473 0
-13482 -13448 13474 0
-13482 -13449 13475 0
-13482 -13450 13476 0
-13482 -13451 13477 0
-13482 -13452 13478 0
-13482 -13453 13479 0
-13482 -13454 13480 0
-13482 -13455 13481 0
-13482 -13456 13483 0
-13482 -13458 13484 0
-13482 -13459 13485 0
13483 13470 0
-13483 -13470 0
-13483 -13460 13473 0
-13483 -13461 13474 0
-13483 -13462 13475 0
-13483 -13463 13476 0
-13483 -13464 13477 0
-13483 -13465 13478 0
-13483 -13466 13479 0
-13483 -13467 13480 0
-13483 -13468 13481 0
-13483 -13469 13482 0
-13483 -13471 13484 0
-13483 -13472 13485 0
13484 13497 0
-13484 -13497 0
-13484 -13486 13473 0
-13484 -13487 13474 0
-13484 -13488 13475 0
-13484 -13489 13476 0
-13484 -13490 13477 0
-13484 -13491 13478 0
-13484 -13492 13479 0
-13484 -13493 13480 0
-13484 -13494 13481 0
-13484 -13495 13482 0
-13484 -13496 13483 0
-13484 -13498 13485 0
13485 13510 0
-13485 -13510 0
-13485 -13499 13473 0
-13485 -13500 13474 0
-13485 -13501 13475 0
-13485 -13502 13476 0
-13485 -13503 13477 0
-13485 -13504 13478 0
-13485 -13505 13479 0
-13485 -13506 13480 0
-13485 -13507 13481 0
-13485 -13508 13482 0
-13485 -13509 13483 0
-13485 -13511 13484 0
13523 0
13486 13353 0
-13486 -13353 0
-13486 -13330 13487 0
-13486 -13333 13488 0
-13486 -13335 13489 0
-13486 -13337 13490 0
-13486 -13339 13491 0
-13486 -13341 13492 0
-13486 -13343 13493 0
-13486 -13345 13494 0
-13486 -13347 13495 0
-13486 -13349 13496 0
-13486 -13351 13497 0
-13486 -13355 13498 0
13487 13352 0
-13487 -13352 0
-13487 -13331 13486 0
-13487 -13332 13488 0
-13487 -13334 13489 0
-13487 -13336 13490 0
-13487 -13338 13491 0
-13487 -13340 13492 0
-13487 -13342 13493 0
-13487 -13344 13494 0
-13487 -13346 13495 0
-13487 -13348 13496 0
-13487 -13350 13497 0
-13487 -13354 13498 0
13488 13367 0
-13488 -13367 0
-13488 -13356 13486 0
-13488 -13357 13487 0
-13488 -13358 13489 0
-13488 -13359 13490 0
-13488 -13360 13491 0
-13488 -13361 13492 0
-13488 -13362 13493 0
-13488 -13363 13494 0
-13488 -13364 13495 0
-13488 -13365 13496 0
-13488 -13366 13497 0
-13488 -13368 13498 0
13489 13380 0
-13489 -13380 0
-13489 -13369 13486 0
-13489 -13370 13487 0
-13489 -13371 13488 0
-13489 -13372 13490 0
-13489 -13373 13491 0
-13489 -13374 13492 0
-13489 -13375 13493 0
-13489 -13376 13494 0
-13489 -13377 13495 0
-13489 -13378 13496 0
-13489 -13379 13497 0
-13489 -13381 13498 0
13490 13393 0
-13490 -13393 0
-13490 -13382 13486 0
-13490 -13383 13487 0
-13490 -13384 13488 0
-13490 -13385 13489 0
-13490 -13386 13491 0
-13490 -13387 13492 0
-13490 -13388 13493 0
-13490 -13389 13494 0
-13490 -13390 13495 0
-13490 -13391 13496 0
-13490 -13392 13497 0
-13490 -13394 13498 0
13491 13406 0
-13491 -13406 0
-13491 -13395 13486 0
-13491 -13396 13487 0
-13491 -13397 13488 0
-13491 -13398 13489 0
-13491 -13399 13490 0
-13491 -13400 13492 0
-13491 -13401 13493 0
-13491 -13402 13494 0
-13491 -13403 13495 0
-13491 -13404 13496 0
-13491 -13405 13497 0
-13491 -13407 13498 0
13492 13419 0
-13492 -13419 0
-13492 -13408 13486 0
-13492 -13409 13487 0
-13492 -13410 13488 0
-13492 -13411 13489 0
-13492 -13412 13490 0
-13492 -13413 13491 0
-13492 -13414 13493 0
-13492 -13415 13494 0
-13492 -13416 13495 0
-13492 -13417 13496 0
-13492 -13418 13497 0
-13492 -13420 13498 0
13493 13432 0
-13493 -13432 0
-13493 -13421 13486 0
-13493 -13422 13487 0
-13493 -13423 13488 0
-13493 -13424 13489 0
-13493 -13425 13490 0
-13493 -13426 13491 0
-13493 -13427 13492 0
-13493 -13428 13494 0
-13493 -13429 13495 0
-13493 -13430 13496 0
-13493 -13431 13497 0
-13493 -13433 13498 0
13494 13445 0
-13494 -13445 0
-13494 -13434 13486 0
-13494 -13435 13487 0
-13494 -13436 13488 0
-13494 -13437 13489 0
-13494 -13438 13490 0
-13494 -13439 13491 0
-13494 -13440 13492 0
-13494 -13441 13493 0
-13494 -13442 13495 0
-13494 -13443 13496 0
-13494 -13444 13497 0
-13494 -13446 13498 0
13495 13458 0
-13495 -13458 0
-13495 -13447 13486 0
-13495 -13448 13487 0
-13495 -13449 13488 0
-13495 -13450 13489 0
-13495 -13451 13490 0
-13495 -13452 13491 0
-13495 -13453 13492 0
-13495 -13454 13493 0
-13495 -13455 13494 0
-13495 -13456 13496 0
-13495 -13457 13497 0
-13495 -13459 13498 0
13496 13471 0
-13496 -13471 0
-13496 -13460 13486 0
-13496 -13461 13487 0
-13496 -13462 13488 0
-13496 -13463 13489 0
-13496 -13464 13490 0
-13496 -13465 13491 0
-13496 -13466 13492 0
-13496 -13467 13493 0
-13496 -13468 13494 0
-13496 -13469 13495 0
-13496 -13470 13497 0
-13496 -13472 13498 0
13497 13484 0
-13497 -13484 0
-13497 -13473 13486 0
-13497 -13474 13487 0
-13497 -13475 13488 0
-13497 -13476 13489 0
-13497 -13477 13490 0
-13497 -13478 13491 0
-13497 -13479 13492 0
-13497 -13480 13493 0
-13497 -13481 13494 0
-13497 -13482 13495 0
-13497 -13483 13496 0
-13497 -13485 13498 0
13498 13511 0
-13498 -13511 0
-13498 -13499 13486 0
-13498 -13500 13487 0
-13498 -13501 13488 0
-13498 -13502 13489 0
-13498 -13503 13490 0
-13498 -13504 13491 0
-13498 -13505 13492 0
-13498 -13506 13493 0
-13498 -13507 13494 0
-13498 -13508 13495 0
-13498 -13509 13496 0
-13498 -13510 13497 0
13524 0
13499 13355 0
-13499 -13355 0
-13499 -13330 13500 0
-13499 -13333 13501 0
-13499 -13335 13502 0
-13499 -13337 13503 0
-13499 -13339 13504 0
-13499 -13341 13505 0
-13499 -13343 13506 0
-13499 -13345 13507 0
-13499 -13347 13508 0
-13499 -13349 13509 0
-13499 -13351 13510 0
-13499 -13353 13511 0
13500 13354 0
-13500 -13354 0
-13500 -13331 13499 0
-13500 -13332 13501 0
-13500 -13334 13502 0
-13500 -13336 13503 0
-13500 -13338 13504 0
-13500 -13340 13505 0
-13500 -13342 13506 0
-13500 -13344 13507 0
-13500 -13346 13508 0
-13500 -13348 13509 0
-13500 -13350 13510 0
-13500 -13352 13511 0
13501 13368 0
-13501 -13368 0
-13501 -13356 13499 0
-13501 -13357 13500 0
-13501 -13358 13502 0
-13501 -13359 13503 0
-13501 -13360 13504 0
-13501 -13361 13505 0
-13501 -13362 13506 0
-13501 -13363 13507 0
-13501 -13364 13508 0
-13501 -13365 13509 0
-13501 -13366 13510 0
-13501 -13367 13511 0
13502 13381 0
-13502 -13381 0
-13502 -13369 13499 0
-13502 -13370 13500 0
-13502 -13371 13501 0
-13502 -13372 13503 0
-13502 -13373 13504 0
-13502 -13374 13505 0
-13502 -13375 13506 0
-13502 -13376 13507 0
-13502 -13377 13508 0
-13502 -13378 13509 0
-13502 -13379 13510 0
-13502 -13380 13511 0
13503 13394 0
-13503 -13394 0
-13503 -13382 13499 0
-13503 -13383 13500 0
-13503 -13384 13501 0
-13503 -13385 13502 0
-13503 -13386 13504 0
-13503 -13387 13505 0
-13503 -13388 13506 0
-13503 -13389 13507 0
-13503 -13390 13508 0
-13503 -13391 13509 0
-13503 -13392 13510 0
-13503 -13393 13511 0
13504 13407 0
-13504 -13407 0
-13504 -13395 13499 0
-13504 -13396 13500 0
-13504 -13397 13501 0
-13504 -13398 13502 0
-13504 -13399 13503 0
-13504 -13400 13505 0
-13504 -13401 13506 0
-13504 -13402 13507 0
-13504 -13403 13508 0
-13504 -13404 13509 0
-13504 -13405 13510 0
-13504 -13406 13511 0
13505 13420 0
-13505 -13420 0
-13505 -13408 13499 0
-13505 -13409 13500 0
-13505 -13410 13501 0
-13505 -13411 13502 0
-13505 -13412 13503 0
-13505 -13413 13504 0
-13505 -13414 13506 0
-13505 -13415 13507 0
-13505 -13416 13508 0
-13505 -13417 13509 0
-13505 -13418 13510 0
-13505 -13419 13511 0
13506 13433 0
-13506 -13433 0
-13506 -13421 13499 0
-13506 -13422 13500 0
-13506 -13423 13501 0
-13506 -13424 13502 0
-13506 -13425 13503 0
-13506 -13426 13504 0
-13506 -13427 13505 0
-13506 -13428 13507 0
-13506 -13429 13508 0
-13506 -13430 13509 0
-13506 -13431 13510 0
-13506 -13432 13511 0
13507 13446 0
-13507 -13446 0
-13507 -13434 13499 0
-13507 -13435 13500 0
-13507 -13436 13501 0
-13507 -13437 13502 0
-13507 -13438 13503 0
-13507 -13439 13504 0
-13507 -13440 13505 0
-13507 -13441 13506 0
-13507 -13442 13508 0
-13507 -13443 13509 0
-13507 -13444 13510 0
-13507 -13445 13511 0
13508 13459 0
-13508 -13459 0
-13508 -13447 13499 0
-13508 -13448 13500 0
-13508 -13449 13501 0
-13508 -13450 13502 0
-13508 -13451 13503 0
-13508 -13452 13504 0
-13508 -13453 13505 0
-13508 -13454 13506 0
-13508 -13455 13507 0
-13508 -13456 13509 0
-13508 -13457 13510 0
-13508 -13458 13511 0
13509 13472 0
-13509 -13472 0
-13509 -13460 13499 0
-13509 -13461 13500 0
-13509 -13462 13501 0
-13509 -13463 13502 0
-13509 -13464 13503 0
-13509 -13465 13504 0
-13509 -13466 13505 0
-13509 -13467 13506 0
-13509 -13468 13507 0
-13509 -13469 13508 0
-13509 -13470 13510 0
-13509 -13471 13511 0
13510 13485 0
-13510 -13485 0
-13510 -13473 13499 0
-13510 -13474 13500 0
-13510 -13475 13501 0
-13510 -13476 13502 0
-13510 -13477 13503 0
-13510 -13478 13504 0
-13510 -13479 13505 0
-13510 -13480 13506 0
-13510 -13481 13507 0
-13510 -13482 13508 0
-13510 -13483 13509 0
-13510 -13484 13511 0
13511 13498 0
-13511 -13498 0
-13511 -13486 13499 0
-13511 -13487 13500 0
-13511 -13488 13501 0
-13511 -13489 13502 0
-13511 -13490 13503 0
-13511 -13491 13504 0
-13511 -13492 13505 0
-13511 -13493 13506 0
-13511 -13494 13507 0
-13511 -13495 13508 0
-13511 -13496 13509 0
-13511 -13497 13510 0
-13525 0
-13526 13330 0
-13527 13333 0
-13527 13357 0
-13333 -13357 13527 0
-13528 13335 0
-13528 13370 0
-13335 -13370 13528 0
-13529 13337 0
-13529 13383 0
-13337 -13383 13529 0
-13530 13339 0
-13530 13396 0
-13339 -13396 13530 0
-13531 13341 0
-13531 13409 0
-13341 -13409 13531 0
-13532 13343 0
-13532 13422 0
-13343 -13422 13532 0
-13533 13345 0
-13533 13435 0
-13345 -13435 13533 0
-13534 13347 0
-13534 13448 0
-13347 -13448 13534 0
-13535 13349 0
-13535 13461 0
-13349 -13461 13535 0
-13536 13351 0
-13536 13474 0
-13351 -13474 13536 0
-13537 13353 0
-13537 13487 0
-13353 -13487 13537 0
-13538 13355 0
-13538 13500 0
-13355 -13500 13538 0
-13526 -13527 0
-13526 -13528 0
-13526 -13529 0
-13526 -13530 0
-13526 -13531 0
-13526 -13532 0
-13526 -13533 0
-13526 -13534 0
-13526 -13535 0
-13526 -13536 0
-13526 -13537 0
-13526 -13538 0
-13330 13526 13527 13528 13529 13530 13531 13532 13533 13534 13535 13536 13537 13538 0
-13539 13333 0
-13540 13330 0
-13540 13332 0
-13330 -13332 13540 0
-13541 13335 0
-13541 13371 0
-13335 -13371 13541 0
-13542 13337 0
-13542 13384 0
-13337 -13384 13542 0
-13543 13339 0
-13543 13397 0
-13339 -13397 13543 0
-13544 13341 0
-13544 13410 0
-13341 -13410 13544 0
-13545 13343 0
-13545 13423 0
-13343 -13423 13545 0
-13546 13345 0
-13546 13436 0
-13345 -13436 13546 0
-13547 13347 0
-13547 13449 0
-13347 -13449 13547 0
-13548 13349 0
-13548 13462 0
-13349 -13462 13548 0
-13549 13351 0
-13549 13475 0
-13351 -13475 13549 0
-13550 13353 0
-13550 13488 0
-13353 -13488 13550 0
-13551 13355 0
-13551 13501 0
-13355 -13501 13551 0
-13539 -13540 0
-13539 -13541 0
-13539 -13542 0
-13539 -13543 0
-13539 -13544 0
-13539 -13545 0
-13539 -13546 0
-13539 -13547 0
-13539 -13548 0
-13539 -13549 0
-13539 -13550 0
-13539 -13551 0
-13333 13539 13540 13541 13542 13543 13544 13545 13546 13547 13548 13549 13550 13551 0
-13552 13335 0
-13553 13330 0
-13553 13334 0
-13330 -13334 13553 0
-13554 13333 0
-13554 13358 0
-13333 -13358 13554 0
-13555 13337 0
-13555 13385 0
-13337 -13385 13555 0
-13556 13339 0
-13556 13398 0
-13339 -13398 13556 0
-13557 13341 0
-13557 13411 0
-13341 -13411 13557 0
-13558 13343 0
-13558 13424 0
-13343 -13424 13558 0
-13559 13345 0
-13559 13437 0
-13345 -13437 13559 0
-13560 13347 0
-13560 13450 0
-13347 -13450 13560 0
-13561 13349 0
-13561 13463 0
-13349 -13463 13561 0
-13562 13351 0
-13562 13476 0
-13351 -13476 13562 0
-13563 13353 0
-13563 13489 0
-13353 -13489 13563 0
-13564 13355 0
-13564 13502 0
-13355 -13502 13564 0
-13552 -13553 0
-13552 -13554 0
-13552 -13555 0
-13552 -13556 0
-13552 -13557 0
-13552 -13558 0
-13552 -13559 0
-13552 -13560 0
-13552 -13561 0
-13552 -13562 0
-13552 -13563 0
-13552 -13564 0
-13335 13552 13553 13554 13555 13556 13557 13558 13559 13560 13561 13562 13563 13564 0
-13565 13337 0
-13566 13330 0
-13566 13336 0
-13330 -13336 13566 0
-13567 13333 0
-13567 13359 0
-13333 -13359 13567 0
-13568 13335 0
-13568 13372 0
-13335 -13372 13568 0
-13569 13339 0
-13569 13399 0
-13339 -13399 13569 0
-13570 13341 0
-13570 13412 0
-13341 -13412 13570 0
-13571 13343 0
-13571 13425 0
-13343 -13425 13571 0
-13572 13345 0
-13572 13438 0
-13345 -13438 13572 0
-13573 13347 0
-13573 13451 0
-13347 -13451 13573 0
-13574 13349 0
-13574 13464 0
-13349 -13464 13574 0
-13575 13351 0
-13575 13477 0
-13351 -13477 13575 0
-13576 13353 0
-13576 13490 0
-13353 -13490 13576 0
-13577 13355 0
-13577 13503 0
-13355 -13503 13577 0
-13565 -13566 0
-13565 -13567 0
-13565 -13568 0
-13565 -13569 0
-13565 -13570 0
-13565 -13571 0
-13565 -13572 0
-13565 -13573 0
-13565 -13574 0
-13565 -13575 0
-13565 -13576 0
-13565 -13577 0
-13337 13565 13566 13567 13568 13569 13570 13571 13572 13573 13574 13575 13576 13577 0
-13578 13339 0
-13579 13330 0
-13579 13338 0
-13330 -13338 13579 0
-13580 13333 0
-13580 13360 0
-13333 -13360 13580 0
-13581 13335 0
-13581 13373 0
-13335 -13373 13581 0
-13582 13337 0
-13582 13386 0
-13337 -13386 13582 0
-13583 13341 0
-13583 13413 0
-13341 -13413 13583 0
-13584 13343 0
-13584 13426 0
-13343 -13426 13584 0
-13585 13345 0
-13585 13439 0
-13345 -13439 13585 0
-13586 13347 0
-13586 13452 0
-13347 -13452 13586 0
-13587 13349 0
-13587 13465 0
-13349 -13465 13587 0
-13588 13351 0
-13588 13478 0
-13351 -13478 13588 0
-13589 13353 0
-13589 13491 0
-13353 -13491 13589 0
-13590 13355 0
-13590 13504 0
-13355 -13504 13590 0
-13578 -13579 0
-13578 -13580 0
-13578 -13581 0
-13578 -13582 0
-13578 -13583 0
-13578 -13584 0
-13578 -13585 0
-13578 -13586 0
-13578 -13587 0
-13578 -13588 0
-13578 -13589 0
-13578 -13590 0
-13339 13578 13579 13580 13581 13582 13583 13584 13585 13586 13587 13588 13589 13590 0
-13591 13341 0
-13592 13330 0
-13592 13340 0
-13330 -13340 13592 0
-13593 13333 0
-13593 13361 0
-13333 -13361 13593 0
-13594 13335 0
-13594 13374 0
-13335 -13374 13594 0
-13595 13337 0
-13595 13387 0
-13337 -13387 13595 0
-13596 13339 0
-13596 13400 0
-13339 -13400 13596 0
-13597 13343 0
-13597 13427 0
-13343 -13427 13597 0
-13598 13345 0
-13598 13440 0
-13345 -13440 13598 0
-13599 13347 0
-13599 13453 0
-13347 -13453 13599 0
-13600 13349 0
-13600 13466 0
-13349 -13466 13600 0
-13601 13351 0
-13601 13479 0
-13351 -13479 13601 0
-13602 13353 0
-13602 13492 0
-13353 -13492 13602 0
-13603 13355 0
-13603 13505 0
-13355 -13505 13603 0
-13591 -13592 0
-13591 -13593 0
-13591 -13594 0
-13591 -13595 0
-13591 -13596 0
-13591 -13597 0
-13591 -13598 0
-13591 -13599 0
-13591 -13600 0
-13591 -13601 0
-13591 -13602 0
-13591 -13603 0
-13341 13591 13592 13593 13594 13595 13596 13597 13598 13599 13600 13601 13602 13603 0
-13604 13343 0
-13605 13330 0
-13605 13342 0
-13330 -13342 13605 0
-13606 13333 0
-13606 13362 0
-13333 -13362 13606 0
-13607 13335 0
-13607 13375 0
-13335 -13375 13607 0
-13608 13337 0
-13608 13388 0
-13337 -13388 13608 0
-13609 13339 0
-13609 13401 0
-13339 -13401 13609 0
-13610 13341 0
-13610 13414 0
-13341 -13414 13610 0
-13611 13345 0
-13611 13441 0
-13345 -13441 13611 0
-13612 13347 0
-13612 13454 0
-13347 -13454 13612 0
-13613 13349 0
-13613 13467 0
-13349 -13467 13613 0
-13614 13351 0
-13614 13480 0
-13351 -13480 13614 0
-13615 13353 0
-13615 13493 0
-13353 -13493 13615 0
-13616 13355 0
-13616 13506 0
-13355 -13506 13616 0
-13604 -13605 0
-13604 -13606 0
-13604 -13607 0
-13604 -13608 0
-13604 -13609 0
-13604 -13610 0
-13604 -13611 0
-13604 -13612 0
-13604 -13613 0
-13604 -13614 0
-13604 -13615 0
-13604 -13616 0
-13343 13604 13605 13606 13607 13608 13609 13610 13611 13612 13613 13614 13615 13616 0
-13617 13345 0
-13618 13330 0
-13618 13344 0
-13330 -13344 13618 0
-13619 13333 0
-13619 13363 0
-13333 -13363 13619 0
-13620 13335 0
-13620 13376 0
-13335 -13376 13620 0
-13621 13337 0
-13621 13389 0
-13337 -13389 13621 0
-13622 13339 0
-13622 13402 0
-13339 -13402 13622 0
-13623 13341 0
-13623 13415 0
-13341 -13415 13623 0
-13624 13343 0
-13624 13428 0
-13343 -13428 13624 0
-13625 13347 0
-13625 13455 0
-13347 -13455 13625 0
-13626 13349 0
-13626 13468 0
-13349 -13468 13626 0
-13627 13351 0
-13627 13481 0
-13351 -13481 13627 0
-13628 13353 0
-13628 13494 0
-13353 -13494 13628 0
-13629 13355 0
-13629 13507 0
-13355 -13507 13629 0
-13617 -13618 0
-13617 -13619 0
-13617 -13620 0
-13617 -13621 0
-13617 -13622 0
-13617 -13623 0
-13617 -13624 0
-13617 -13625 0
-13617 -13626 0
-13617 -13627 0
-13617 -13628 0
-13617 -13629 0
-13345 13617 13618 13619 13620 13621 13622 13623 13624 13625 13626 13627 13628 13629 0
-13630 13347 0
-13631 13330 0
-13631 13346 0
-13330 -13346 13631 0
-13632 13333 0
-13632 13364 0
-13333 -13364 13632 0
-13633 13335 0
-13633 13377 0
-13335 -13377 13633 0
-13634 13337 0
-13634 13390 0
-13337 -13390 13634 0
-13635 13339 0
-13635 13403 0
-13339 -13403 13635 0
-13636 13341 0
-13636 13416 0
-13341 -13416 13636 0
-13637 13343 0
-13637 13429 0
-13343 -13429 13637 0
-13638 13345 0
-13638 13442 0
-13345 -13442 13638 0
-13639 13349 0
-13639 13469 0
-13349 -13469 13639 0
-13640 13351 0
-13640 13482 0
-13351 -13482 13640 0
-13641 13353 0
-13641 13495 0
-13353 -13495 13641 0
-13642 13355 0
-13642 13508 0
-13355 -13508 13642 0
-13630 -13631 0
-13630 -13632 0
-13630 -13633 0
-13630 -13634 0
-13630 -13635 0
-13630 -13636 0
-13630 -13637 0
-13630 -13638 0
-13630 -13639 0
-13630 -13640 0
-13630 -13641 0
-13630 -13642 0
-13347 13630 13631 13632 13633 13634 13635 13636 13637 13638 13639 13640 13641 13642 0
-13643 13349 0
-13644 13330 0
-13644 13348 0
-13330 -13348 13644 0
-13645 13333 0
-13645 13365 0
-13333 -13365 13645 0
-13646 13335 0
-13646 13378 0
-13335 -13378 13646 0
-13647 13337 0
-13647 13391 0
-13337 -13391 13647 0
-13648 13339 0
-13648 13404 0
-13339 -13404 13648 0
-13649 13341 0
-13649 13417 0
-13341 -13417 13649 0
-13650 13343 0
-13650 13430 0
-13343 -13430 13650 0
-13651 13345 0
-13651 13443 0
-13345 -13443 13651 0
-13652 13347 0
-13652 13456 0
-13347 -13456 13652 0
-13653 13351 0
-13653 13483 0
-13351 -13483 13653 0
-13654 13353 0
-13654 13496 0
-13353 -13496 13654 0
-13655 13355 0
-13655 13509 0
-13355 -13509 13655 0
-13643 -13644 0
-13643 -13645 0
-13643 -13646 0
-13643 -13647 0
-13643 -13648 0
-13643 -13649 0
-13643 -13650 0
-13643 -13651 0
-13643 -13652 0
-13643 -13653 0
-13643 -13654 0
-13643 -13655 0
-13349 13643 13644 13645 13646 13647 13648 13649 13650 13651 13652 13653 13654 13655 0
-13656 13351 0
-13657 13330 0
-13657 13350 0
-13330 -13350 13657 0
-13658 13333 0
-13658 13366 0
-13333 -13366 13658 0
-13659 13335 0
-13659 13379 0
-13335 -13379 13659 0
-13660 13337 0
-13660 13392 0
-13337 -13392 13660 0
-13661 13339 0
-13661 13405 0
-13339 -13405 13661 0
-13662 13341 0
-13662 13418 0
-13341 -13418 13662 0
-13663 13343 0
-13663 13431 0
-13343 -13431 13663 0
-13664 13345 0
-13664 13444 0
-13345 -13444 13664 0
-13665 13347 0
-13665 13457 0
-13347 -13457 13665 0
-13666 13349 0
-13666 13470 0
-13349 -13470 13666 0
-13667 13353 0
-13667 13497 0
-13353 -13497 13667 0
-13668 13355 0
-13668 13510 0
-13355 -13510 13668 0
-13656 -13657 0
-13656 -13658 0
-13656 -13659 0
-13656 -13660 0
-13656 -13661 0
-13656 -13662 0
-13656 -13663 0
-13656 -13664 0
-13656 -13665 0
-13656 -13666 0
-13656 -13667 0
-13656 -13668 0
-13351 13656 13657 13658 13659 13660 13661 13662 13663 13664 13665 13666 13667 13668 0
-13669 13353 0
-13670 13330 0
-13670 13352 0
-13330 -13352 13670 0
-13671 13333 0
-13671 13367 0
-13333 -13367 13671 0
-13672 13335 0
-13672 13380 0
-13335 -13380 13672 0
-13673 13337 0
-13673 13393 0
-13337 -13393 13673 0
-13674 13339 0
-13674 13406 0
-13339 -13406 13674 0
-13675 13341 0
-13675 13419 0
-13341 -13419 13675 0
-13676 13343 0
-13676 13432 0
-13343 -13432 13676 0
-13677 13345 0
-13677 13445 0
-13345 -13445 13677 0
-13678 13347 0
-13678 13458 0
-13347 -13458 13678 0
-13679 13349 0
-13679 13471 0
-13349 -13471 13679 0
-13680 13351 0
-13680 13484 0
-13351 -13484 13680 0
-13681 13355 0
-13681 13511 0
-13355 -13511 13681 0
-13669 -13670 0
-13669 -13671 0
-13669 -13672 0
-13669 -13673 0
-13669 -13674 0
-13669 -13675 0
-13669 -13676 0
-13669 -13677 0
-13669 -13678 0
-13669 -13679 0
-13669 -13680 0
-13669 -13681 0
-13353 13669 13670 13671 13672 13673 13674 13675 13676 13677 13678 13679 13680 13681 0
-13682 13355 0
-13683 13330 0
-13683 13354 0
-13330 -13354 13683 0
-13684 13333 0
-13684 13368 0
-13333 -13368 13684 0
-13685 13335 0
-13685 13381 0
-13335 -13381 13685 0
-13686 13337 0
-13686 13394 0
-13337 -13394 13686 0
-13687 13339 0
-13687 13407 0
-13339 -13407 13687 0
-13688 13341 0
-13688 13420 0
-13341 -13420 13688 0
-13689 13343 0
-13689 13433 0
-13343 -13433 13689 0
-13690 13345 0
-13690 13446 0
-13345 -13446 13690 0
-13691 13347 0
-13691 13459 0
-13347 -13459 13691 0
-13692 13349 0
-13692 13472 0
-13349 -13472 13692 0
-13693 13351 0
-13693 13485 0
-13351 -13485 13693 0
-13694 13353 0
-13694 13498 0
-13353 -13498 13694 0
-13682 -13683 0
-13682 -13684 0
-13682 -13685 0
-13682 -13686 0
-13682 -13687 0
-13682 -13688 0
-13682 -13689 0
-13682 -13690 0
-13682 -13691 0
-13682 -13692 0
-13682 -13693 0
-13682 -13694 0
-13355 13682 13683 13684 13685 13686 13687 13688 13689 13690 13691 13692 13693 13694 0
-13695 13331 0
-13696 13332 0
-13696 13356 0
-13332 -13356 13696 0
-13697 13334 0
-13697 13369 0
-13334 -13369 13697 0
-13698 13336 0
-13698 13382 0
-13336 -13382 13698 0
-13699 13338 0
-13699 13395 0
-13338 -13395 13699 0
-13700 13340 0
-13700 13408 0
-13340 -13408 13700 0
-13701 13342 0
-13701 13421 0
-13342 -13421 13701 0
-13702 13344 0
-13702 13434 0
-13344 -13434 13702 0
-13703 13346 0
-13703 13447 0
-13346 -13447 13703 0
-13704 13348 0
-13704 13460 0
-13348 -13460 13704 0
-13705 13350 0
-13705 13473 0
-13350 -13473 13705 0
-13706 13352 0
-13706 13486 0
-13352 -13486 13706 0
-13707 13354 0
-13707 13499 0
-13354 -13499 13707 0
-13695 -13696 0
-13695 -13697 0
-13695 -13698 0
-13695 -13699 0
-13695 -13700 0
-13695 -13701 0
-13695 -13702 0
-13695 -13703 0
-13695 -13704 0
-13695 -13705 0
-13695 -13706 0
-13695 -13707 0
-13331 13695 13696 13697 13698 13699 13700 13701 13702 13703 13704 13705 13706 13707 0
-13708 0
-13709 13332 0
-13710 13331 0
-13710 13333 0
-13331 -13333 13710 0
-13711 13334 0
-13711 13371 0
-13334 -13371 13711 0
-13712 13336 0
-13712 13384 0
-13336 -13384 13712 0
-13713 13338 0
-13713 13397 0
-13338 -13397 13713 0
-13714 13340 0
-13714 13410 0
-13340 -13410 13714 0
-13715 13342 0
-13715 13423 0
-13342 -13423 13715 0
-13716 13344 0
-13716 13436 0
-13344 -13436 13716 0
-13717 13346 0
-13717 13449 0
-13346 -13449 13717 0
-13718 13348 0
-13718 13462 0
-13348 -13462 13718 0
-13719 13350 0
-13719 13475 0
-13350 -13475 13719 0
-13720 13352 0
-13720 13488 0
-13352 -13488 13720 0
-13721 13354 0
-13721 13501 0
-13354 -13501 13721 0
-13709 -13710 0
-13709 -13711 0
-13709 -13712 0
-13709 -13713 0
-13709 -13714 0
-13709 -13715 0
-13709 -13716 0
-13709 -13717 0
-13709 -13718 0
-13709 -13719 0
-13709 -13720 0
-13709 -13721 0
-13332 13709 13710 13711 13712 13713 13714 13715 13716 13717 13718 13719 13720 13721 0
-13722 13334 0
-13723 13331 0
-13723 13335 0
-13331 -13335 13723 0
-13724 13332 0
-13724 13358 0
-13332 -13358 13724 0
-13725 13336 0
-13725 13385 0
-13336 -13385 13725 0
-13726 13338 0
-13726 13398 0
-13338 -13398 13726 0
-13727 13340 0
-13727 13411 0
-13340 -13411 13727 0
-13728 13342 0
-13728 13424 0
-13342 -13424 13728 0
-13729 13344 0
-13729 13437 0
-13344 -13437 13729 0
-13730 13346 0
-13730 13450 0
-13346 -13450 13730 0
-13731 13348 0
-13731 13463 0
-13348 -13463 13731 0
-13732 13350 0
-13732 13476 0
-13350 -13476 13732 0
-13733 13352 0
-13733 13489 0
-13352 -13489 13733 0
-13734 13354 0
-13734 13502 0
-13354 -13502 13734 0
-13722 -13723 0
-13722 -13724 0
-13722 -13725 0
-13722 -13726 0
-13722 -13727 0
-13722 -13728 0
-13722 -13729 0
-13722 -13730 0
-13722 -13731 0
-13722 -13732 0
-13722 -13733 0
-13722 -13734 0
-13334 13722 13723 13724 13725 13726 13727 13728 13729 13730 13731 13732 13733 13734 0
-13735 13336 0
-13736 13331 0
-13736 13337 0
-13331 -13337 13736 0
-13737 13332 0
-13737 13359 0
-13332 -13359 13737 0
-13738 13334 0
-13738 13372 0
-13334 -13372 13738 0
-13739 13338 0
-13739 13399 0
-13338 -13399 13739 0
-13740 13340 0
-13740 13412 0
-13340 -13412 13740 0
-13741 13342 0
-13741 13425 0
-13342 -13425 13741 0
-13742 13344 0
-13742 13438 0
-13344 -13438 13742 0
-13743 13346 0
-13743 13451 0
-13346 -13451 13743 0
-13744 13348 0
-13744 13464 0
-13348 -13464 13744 0
-13745 13350 0
-13745 13477 0
-13350 -13477 13745 0
-13746 13352 0
-13746 13490 0
-13352 -13490 13746 0
-13747 13354 0
-13747 13503 0
-13354 -13503 13747 0
-13735 -13736 0
-13735 -13737 0
-13735 -13738 0
-13735 -13739 0
-13735 -13740 0
-13735 -13741 0
-13735 -13742 0
-13735 -13743 0
-13735 -13744 0
-13735 -13745 0
-13735 -13746 0
-13735 -13747 0
-13336 13735 13736 13737 13738 13739 13740 13741 13742 13743 13744 13745 13746 13747 0
-13748 13338 0
-13749 13331 0
-13749 13339 0
-13331 -13339 13749 0
-13750 13332 0
-13750 13360 0
-13332 -13360 13750 0
-13751 13334 0
-13751 13373 0
-13334 -13373 13751 0
-13752 13336 0
-13752 13386 0
-13336 -13386 13752 0
-13753 13340 0
-13753 13413 0
-13340 -13413 13753 0
-13754 13342 0
-13754 13426 0
-13342 -13426 13754 0
-13755 13344 0
-13755 13439 0
-13344 -13439 13755 0
-13756 13346 0
-13756 13452 0
-13346 -13452 13756 0
-13757 13348 0
-13757 13465 0
-13348 -13465 13757 0
-13758 13350 0
-13758 13478 0
-13350 -13478 13758 0
-13759 13352 0
-13759 13491 0
-13352 -13491 13759 0
-13760 13354 0
-13760 13504 0
-13354 -13504 13760 0
-13748 -13749 0
-13748 -13750 0
-13748 -13751 0
-13748 -13752 0
-13748 -13753 0
-13748 -13754 0
-13748 -13755 0
-13748 -13756 0
-13748 -13757 0
-13748 -13758 0
-13748 -13759 0
-13748 -13760 0
-13338 13748 13749 13750 13751 13752 13753 13754 13755 13756 13757 13758 13759 13760 0
-13761 13340 0
-13762 13331 0
-13762 13341 0
-13331 -13341 13762 0
-13763 13332 0
-13763 13361 0
-13332 -13361 13763 0
-13764 13334 0
-13764 13374 0
-13334 -13374 13764 0
-13765 13336 0
-13765 13387 0
-13336 -13387 13765 0
-13766 13338 0
-13766 13400 0
-13338 -13400 13766 0
-13767 13342 0
-13767 13427 0
-13342 -13427 13767 0
-13768 13344 0
-13768 13440 0
-13344 -13440 13768 0
-13769 13346 0
-13769 13453 0
-13346 -13453 13769 0
-13770 13348 0
-13770 13466 0
-13348 -13466 13770 0
-13771 13350 0
-13771 13479 0
-13350 -13479 13771 0
-13772 13352 0
-13772 13492 0
-13352 -13492 13772 0
-13773 13354 0
-13773 13505 0
-13354 -13505 13773 0
-13761 -13762 0
-13761 -13763 0
-13761 -13764 0
-13761 -13765 0
-13761 -13766 0
-13761 -13767 0
-13761 -13768 0
-13761 -13769 0
-13761 -13770 0
-13761 -13771 0
-13761 -13772 0
-13761 -13773 0
-13340 13761 13762 13763 13764 13765 13766 13767 13768 13769 13770 13771 13772 13773 0
-13774 13342 0
-13775 13331 0
-13775 13343 0
-13331 -13343 13775 0
-13776 13332 0
-13776 13362 0
-13332 -13362 13776 0
-13777 13334 0
-13777 13375 0
-13334 -13375 13777 0
-13778 13336 0
-13778 13388 0
-13336 -13388 13778 0
-13779 13338 0
-13779 13401 0
-13338 -13401 13779 0
-13780 13340 0
-13780 13414 0
-13340 -13414 13780 0
-13781 13344 0
-13781 13441 0
-13344 -13441 13781 0
-13782 13346 0
-13782 13454 0
-13346 -13454 13782 0
-13783 13348 0
-13783 13467 0
-13348 -13467 13783 0
-13784 13350 0
-13784 13480 0
-13350 -13480 13784 0
-13785 13352 0
-13785 13493 0
-13352 -13493 13785 0
-13786 13354 0
-13786 13506 0
-13354 -13506 13786 0
-13774 -13775 0
-13774 -13776 0
-13774 -13777 0
-13774 -13778 0
-13774 -13779 0
-13774 -13780 0
-13774 -13781 0
-13774 -13782 0
-13774 -13783 0
-13774 -13784 0
-13774 -13785 0
-13774 -13786 0
-13342 13774 13775 13776 13777 13778 13779 13780 13781 13782 13783 13784 13785 13786 0
-13787 13344 0
-13788 13331 0
-13788 13345 0
-13331 -13345 13788 0
-13789 13332 0
-13789 13363 0
-13332 -13363 13789 0
-13790 13334 0
-13790 13376 0
-13334 -13376 13790 0
-13791 13336 0
-13791 13389 0
-13336 -13389 13791 0
-13792 13338 0
-13792 13402 0
-13338 -13402 13792 0
-13793 13340 0
-13793 13415 0
-13340 -13415 13793 0
-13794 13342 0
-13794 13428 0
-13342 -13428 13794 0
-13795 13346 0
-13795 13455 0
-13346 -13455 13795 0
-13796 13348 0
-13796 13468 0
-13348 -13468 13796 0
-13797 13350 0
-13797 13481 0
-13350 -13481 13797 0
-13798 13352 0
-13798 13494 0
-13352 -13494 13798 0
-13799 13354 0
-13799 13507 0
-13354 -13507 13799 0
-13787 -13788 0
-13787 -13789 0
-13787 -13790 0
-13787 -13791 0
-13787 -13792 0
-13787 -13793 0
-13787 -13794 0
-13787 -13795 0
-13787 -13796 0
-13787 -13797 0
-13787 -13798 0
-13787 -13799 0
-13344 13787 13788 13789 13790 13791 13792 13793 13794 13795 13796 13797 13798 13799 0
-13800 13346 0
-13801 13331 0
-13801 13347 0
-13331 -13347 13801 0
-13802 13332 0
-13802 13364 0
-13332 -13364 13802 0
-13803 13334 0
-13803 13377 0
-13334 -13377 13803 0
-13804 13336 0
-13804 13390 0
-13336 -13390 13804 0
-13805 13338 0
-13805 13403 0
-13338 -13403 13805 0
-13806 13340 0
-13806 13416 0
-13340 -13416 13806 0
-13807 13342 0
-13807 13429 0
-13342 -13429 13807 0
-13808 13344 0
-13808 13442 0
-13344 -13442 13808 0
-13809 13348 0
-13809 13469 0
-13348 -13469 13809 0
-13810 13350 0
-13810 13482 0
-13350 -13482 13810 0
-13811 13352 0
-13811 13495 0
-13352 -13495 13811 0
-13812 13354 0
-13812 13508 0
-13354 -13508 13812 0
-13800 -13801 0
-13800 -13802 0
-13800 -13803 0
-13800 -13804 0
-13800 -13805 0
-13800 -13806 0
-13800 -13807 0
-13800 -13808 0
-13800 -13809 0
-13800 -13810 0
-13800 -13811 0
-13800 -13812 0
-13346 13800 13801 13802 13803 13804 13805 13806 13807 13808 13809 13810 13811 13812 0
-13813 13348 0
-13814 13331 0
-13814 13349 0
-13331 -13349 13814 0
-13815 13332 0
-13815 13365 0
-13332 -13365 13815 0
-13816 13334 0
-13816 13378 0
-13334 -13378 13816 0
-13817 13336 0
-13817 13391 0
-13336 -13391 13817 0
-13818 13338 0
-13818 13404 0
-13338 -13404 13818 0
-13819 13340 0
-13819 13417 0
-13340 -13417 13819 0
-13820 13342 0
-13820 13430 0
-13342 -13430 13820 0
-13821 13344 0
-13821 13443 0
-13344 -13443 13821 0
-13822 13346 0
-13822 13456 0
-13346 -13456 13822 0
-13823 13350 0
-13823 13483 0
-13350 -13483 13823 0
-13824 13352 0
-13824 13496 0
-13352 -13496 13824 0
-13825 13354 0
-13825 13509 0
-13354 -13509 13825 0
-13813 -13814 0
-13813 -13815 0
-13813 -13816 0
-13813 -13817 0
-13813 -13818 0
-13813 -13819 0
-13813 -13820 0
-13813 -13821 0
-13813 -13822 0
-13813 -13823 0
-13813 -13824 0
-13813 -13825 0
-13348 13813 13814 13815 13816 13817 13818 13819 13820 13821 13822 13823 13824 13825 0
-13826 13350 0
-13827 13331 0
-13827 13351 0
-13331 -13351 13827 0
-13828 13332 0
-13828 13366 0
-13332 -13366 13828 0
-13829 13334 0
-13829 13379 0
-13334 -13379 13829 0
-13830 13336 0
-13830 13392 0
-13336 -13392 13830 0
-13831 13338 0
-13831 13405 0
-13338 -13405 13831 0
-13832 13340 0
-13832 13418 0
-13340 -13418 13832 0
-13833 13342 0
-13833 13431 0
-13342 -13431 13833 0
-13834 13344 0
-13834 13444 0
-13344 -13444 13834 0
-13835 13346 0
-13835 13457 0
-13346 -13457 13835 0
-13836 13348 0
-13836 13470 0
-13348 -13470 13836 0
-13837 13352 0
-13837 13497 0
-13352 -13497 13837 0
-13838 13354 0
-13838 13510 0
-13354 -13510 13838 0
-13826 -13827 0
-13826 -13828 0
-13826 -13829 0
-13826 -13830 0
-13826 -13831 0
-13826 -13832 0
-13826 -13833 0
-13826 -13834 0
-13826 -13835 0
-13826 -13836 0
-13826 -13837 0
-13826 -13838 0
-13350 13826 13827 13828 13829 13830 13831 13832 13833 13834 13835 13836 13837 13838 0
-13839 13352 0
-13840 13331 0
-13840 13353 0
-13331 -13353 13840 0
-13841 13332 0
-13841 13367 0
-13332 -13367 13841 0
-13842 13334 0
-13842 13380 0
-13334 -13380 13842 0
-13843 13336 0
-13843 13393 0
-13336 -13393 13843 0
-13844 13338 0
-13844 13406 0
-13338 -13406 13844 0
-13845 13340 0
-13845 13419 0
-13340 -13419 13845 0
-13846 13342 0
-13846 13432 0
-13342 -13432 13846 0
-13847 13344 0
-13847 13445 0
-13344 -13445 13847 0
-13848 13346 0
-13848 13458 0
-13346 -13458 13848 0
-13849 13348 0
-13849 13471 0
-13348 -13471 13849 0
-13850 13350 0
-13850 13484 0
-13350 -13484 13850 0
-13851 13354 0
-13851 13511 0
-13354 -13511 13851 0
-13839 -13840 0
-13839 -13841 0
-13839 -13842 0
-13839 -13843 0
-13839 -13844 0
-13839 -13845 0
-13839 -13846 0
-13839 -13847 0
-13839 -13848 0
-13839 -13849 0
-13839 -13850 0
-13839 -13851 0
-13352 13839 13840 13841 13842 13843 13844 13845 13846 13847 13848 13849 13850 13851 0
-13852 13354 0
-13853 13331 0
-13853 13355 0
-13331 -13355 13853 0
-13854 13332 0
-13854 13368 0
-13332 -13368 13854 0
-13855 13334 0
-13855 13381 0
-13334 -13381 13855 0
-13856 13336 0
-13856 13394 0
-13336 -13394 13856 0
-13857 13338 0
-13857 13407 0
-13338 -13407 13857 0
-13858 13340 0
-13858 13420 0
-13340 -13420 13858 0
-13859 13342 0
-13859 13433 0
-13342 -13433 13859 0
-13860 13344 0
-13860 13446 0
-13344 -13446 13860 0
-13861 13346 0
-13861 13459 0
-13346 -13459 13861 0
-13862 13348 0
-13862 13472 0
-13348 -13472 13862 0
-13863 13350 0
-13863 13485 0
-13350 -13485 13863 0
-13864 13352 0
-13864 13498 0
-13352 -13498 13864 0
-13852 -13853 0
-13852 -13854 0
-13852 -13855 0
-13852 -13856 0
-13852 -13857 0
-13852 -13858 0
-13852 -13859 0
-13852 -13860 0
-13852 -13861 0
-13852 -13862 0
-13852 -13863 0
-13852 -13864 0
-13354 13852 13853 13854 13855 13856 13857 13858 13859 13860 13861 13862 13863 13864 0
-13865 13356 0
-13866 13357 0
-13866 13331 0
-13357 -13331 13866 0
-13867 13358 0
-13867 13369 0
-13358 -13369 13867 0
-13868 13359 0
-13868 13382 0
-13359 -13382 13868 0
-13869 13360 0
-13869 13395 0
-13360 -13395 13869 0
-13870 13361 0
-13870 13408 0
-13361 -13408 13870 0
-13871 13362 0
-13871 13421 0
-13362 -13421 13871 0
-13872 13363 0
-13872 13434 0
-13363 -13434 13872 0
-13873 13364 0
-13873 13447 0
-13364 -13447 13873 0
-13874 13365 0
-13874 13460 0
-13365 -13460 13874 0
-13875 13366 0
-13875 13473 0
-13366 -13473 13875 0
-13876 13367 0
-13876 13486 0
-13367 -13486 13876 0
-13877 13368 0
-13877 13499 0
-13368 -13499 13877 0
-13865 -13866 0
-13865 -13867 0
-13865 -13868 0
-13865 -13869 0
-13865 -13870 0
-13865 -13871 0
-13865 -13872 0
-13865 -13873 0
-13865 -13874 0
-13865 -13875 0
-13865 -13876 0
-13865 -13877 0
-13356 13865 13866 13867 13868 13869 13870 13871 13872 13873 13874 13875 13876 13877 0
-13878 13357 0
-13879 13356 0
-13879 13330 0
-13356 -13330 13879 0
-13880 13358 0
-13880 13370 0
-13358 -13370 13880 0
-13881 13359 0
-13881 13383 0
-13359 -13383 13881 0
-13882 13360 0
-13882 13396 0
-13360 -13396 13882 0
-13883 13361 0
-13883 13409 0
-13361 -13409 13883 0
-13884 13362 0
-13884 13422 0
-13362 -13422 13884 0
-13885 13363 0
-13885 13435 0
-13363 -13435 13885 0
-13886 13364 0
-13886 13448 0
-13364 -13448 13886 0
-13887 13365 0
-13887 13461 0
-13365 -13461 13887 0
-13888 13366 0
-13888 13474 0
-13366 -13474 13888 0
-13889 13367 0
-13889 13487 0
-13367 -13487 13889 0
-13890 13368 0
-13890 13500 0
-13368 -13500 13890 0
-13878 -13879 0
-13878 -13880 0
-13878 -13881 0
-13878 -13882 0
-13878 -13883 0
-13878 -13884 0
-13878 -13885 0
-13878 -13886 0
-13878 -13887 0
-13878 -13888 0
-13878 -13889 0
-13878 -13890 0
-13357 13878 13879 13880 13881 13882 13883 13884 13885 13886 13887 13888 13889 13890 0
-13891 0
-13892 13358 0
-13893 13356 0
-13893 13335 0
-13356 -13335 13893 0
-13894 13357 0
-13894 13334 0
-13357 -13334 13894 0
-13895 13359 0
-13895 13385 0
-13359 -13385 13895 0
-13896 13360 0
-13896 13398 0
-13360 -13398 13896 0
-13897 13361 0
-13897 13411 0
-13361 -13411 13897 0
-13898 13362 0
-13898 13424 0
-13362 -13424 13898 0
-13899 13363 0
-13899 13437 0
-13363 -13437 13899 0
-13900 13364 0
-13900 13450 0
-13364 -13450 13900 0
-13901 13365 0
-13901 13463 0
-13365 -13463 13901 0
-13902 13366 0
-13902 13476 0
-13366 -13476 13902 0
-13903 13367 0
-13903 13489 0
-13367 -13489 13903 0
-13904 13368 0
-13904 13502 0
-13368 -13502 13904 0
-13892 -13893 0
-13892 -13894 0
-13892 -13895 0
-13892 -13896 0
-13892 -13897 0
-13892 -13898 0
-13892 -13899 0
-13892 -13900 0
-13892 -13901 0
-13892 -13902 0
-13892 -13903 0
-13892 -13904 0
-13358 13892 13893 13894 13895 13896 13897 13898 13899 13900 13901 13902 13903 13904 0
-13905 13359 0
-13906 13356 0
-13906 13337 0
-13356 -13337 13906 0
-13907 13357 0
-13907 13336 0
-13357 -13336 13907 0
-13908 13358 0
-13908 13372 0
-13358 -13372 13908 0
-13909 13360 0
-13909 13399 0
-13360 -13399 13909 0
-13910 13361 0
-13910 13412 0
-13361 -13412 13910 0
-13911 13362 0
-13911 13425 0
-13362 -13425 13911 0
-13912 13363 0
-13912 13438 0
-13363 -13438 13912 0
-13913 13364 0
-13913 13451 0
-13364 -13451 13913 0
-13914 13365 0
-13914 13464 0
-13365 -13464 13914 0
-13915 13366 0
-13915 13477 0
-13366 -13477 13915 0
-13916 13367 0
-13916 13490 0
-13367 -13490 13916 0
-13917 13368 0
-13917 13503 0
-13368 -13503 13917 0
-13905 -13906 0
-13905 -13907 0
-13905 -13908 0
-13905 -13909 0
-13905 -13910 0
-13905 -13911 0
-13905 -13912 0
-13905 -13913 0
-13905 -13914 0
-13905 -13915 0
-13905 -13916 0
-13905 -13917 0
-13359 13905 13906 13907 13908 13909 13910 13911 13912 13913 13914 13915 13916 13917 0
-13918 13360 0
-13919 13356 0
-13919 13339 0
-13356 -13339 13919 0
-13920 13357 0
-13920 13338 0
-13357 -13338 13920 0
-13921 13358 0
-13921 13373 0
-13358 -13373 13921 0
-13922 13359 0
-13922 13386 0
-13359 -13386 13922 0
-13923 13361 0
-13923 13413 0
-13361 -13413 13923 0
-13924 13362 0
-13924 13426 0
-13362 -13426 13924 0
-13925 13363 0
-13925 13439 0
-13363 -13439 13925 0
-13926 13364 0
-13926 13452 0
-13364 -13452 13926 0
-13927 13365 0
-13927 13465 0
-13365 -13465 13927 0
-13928 13366 0
-13928 13478 0
-13366 -13478 13928 0
-13929 13367 0
-13929 13491 0
-13367 -13491 13929 0
-13930 13368 0
-13930 13504 0
-13368 -13504 13930 0
-13918 -13919 0
-13918 -13920 0
-13918 -13921 0
-13918 -13922 0
-13918 -13923 0
-13918 -13924 0
-13918 -13925 0
-13918 -13926 0
-13918 -13927 0
-13918 -13928 0
-13918 -13929 0
-13918 -13930 0
-13360 13918 13919 13920 13921 13922 13923 13924 13925 13926 13927 13928 13929 13930 0
-13931 13361 0
-13932 13356 0
-13932 13341 0
-13356 -13341 13932 0
-13933 13357 0
-13933 13340 0
-13357 -13340 13933 0
-13934 13358 0
-13934 13374 0
-13358 -13374 13934 0
-13935 13359 0
-13935 13387 0
-13359 -13387 13935 0
-13936 13360 0
-13936 13400 0
-13360 -13400 13936 0
-13937 13362 0
-13937 13427 0
-13362 -13427 13937 0
-13938 13363 0
-13938 13440 0
-13363 -13440 13938 0
-13939 13364 0
-13939 13453 0
-13364 -13453 13939 0
-13940 13365 0
-13940 13466 0
-13365 -13466 13940 0
-13941 13366 0
-13941 13479 0
-13366 -13479 13941 0
-13942 13367 0
-13942 13492 0
-13367 -13492 13942 0
-13943 13368 0
-13943 13505 0
-13368 -13505 13943 0
-13931 -13932 0
-13931 -13933 0
-13931 -13934 0
-13931 -13935 0
-13931 -13936 0
-13931 -13937 0
-13931 -13938 0
-13931 -13939 0
-13931 -13940 0
-13931 -13941 0
-13931 -13942 0
-13931 -13943 0
-13361 13931 13932 13933 13934 13935 13936 13937 13938 13939 13940 13941 13942 13943 0
-13944 13362 0
-13945 13356 0
-13945 13343 0
-13356 -13343 13945 0
-13946 13357 0
-13946 13342 0
-13357 -13342 13946 0
-13947 13358 0
-13947 13375 0
-13358 -13375 13947 0
-13948 13359 0
-13948 13388 0
-13359 -13388 13948 0
-13949 13360 0
-13949 13401 0
-13360 -13401 13949 0
-13950 13361 0
-13950 13414 0
-13361 -13414 13950 0
-13951 13363 0
-13951 13441 0
-13363 -13441 13951 0
-13952 13364 0
-13952 13454 0
-13364 -13454 13952 0
-13953 13365 0
-13953 13467 0
-13365 -13467 13953 0
-13954 13366 0
-13954 13480 0
-13366 -13480 13954 0
-13955 13367 0
-13955 13493 0
-13367 -13493 13955 0
-13956 13368 0
-13956 13506 0
-13368 -13506 13956 0
-13944 -13945 0
-13944 -13946 0
-13944 -13947 0
-13944 -13948 0
-13944 -13949 0
-13944 -13950 0
-13944 -13951 0
-13944 -13952 0
-13944 -13953 0
-13944 -13954 0
-13944 -13955 0
-13944 -13956 0
-13362 13944 13945 13946 13947 13948 13949 13950 13951 13952 13953 13954 13955 13956 0
-13957 13363 0
-13958 13356 0
-13958 13345 0
-13356 -13345 13958 0
-13959 13357 0
-13959 13344 0
-13357 -13344 13959 0
-13960 13358 0
-13960 13376 0
-13358 -13376 13960 0
-13961 13359 0
-13961 13389 0
-13359 -13389 13961 0
-13962 13360 0
-13962 13402 0
-13360 -13402 13962 0
-13963 13361 0
-13963 13415 0
-13361 -13415 13963 0
-13964 13362 0
-13964 13428 0
-13362 -13428 13964 0
-13965 13364 0
-13965 13455 0
-13364 -13455 13965 0
-13966 13365 0
-13966 13468 0
-13365 -13468 13966 0
-13967 13366 0
-13967 13481 0
-13366 -13481 13967 0
-13968 13367 0
-13968 13494 0
-13367 -13494 13968 0
-13969 13368 0
-13969 13507 0
-13368 -13507 13969 0
-13957 -13958 0
-13957 -13959 0
-13957 -13960 0
-13957 -13961 0
-13957 -13962 0
-13957 -13963 0
-13957 -13964 0
-13957 -13965 0
-13957 -13966 0
-13957 -13967 0
-13957 -13968 0
-13957 -13969 0
-13363 13957 13958 13959 13960 13961 13962 13963 13964 13965 13966 13967 13968 13969 0
-13970 13364 0
-13971 13356 0
-13971 13347 0
-13356 -13347 13971 0
-13972 13357 0
-13972 13346 0
-13357 -13346 13972 0
-13973 13358 0
-13973 13377 0
-13358 -13377 13973 0
-13974 13359 0
-13974 13390 0
-13359 -13390 13974 0
-13975 13360 0
-13975 13403 0
-13360 -13403 13975 0
-13976 13361 0
-13976 13416 0
-13361 -13416 13976 0
-13977 13362 0
-13977 13429 0
-13362 -13429 13977 0
-13978 13363 0
-13978 13442 0
-13363 -13442 13978 0
-13979 13365 0
-13979 13469 0
-13365 -13469 13979 0
-13980 13366 0
-13980 13482 0
-13366 -13482 13980 0
-13981 13367 0
-13981 13495 0
-13367 -13495 13981 0
-13982 13368 0
-13982 13508 0
-13368 -13508 13982 0
-13970 -13971 0
-13970 -13972 0
-13970 -13973 0
-13970 -13974 0
-13970 -13975 0
-13970 -13976 0
-13970 -13977 0
-13970 -13978 0
-13970 -13979 0
-13970 -13980 0
-13970 -13981 0
-13970 -13982 0
-13364 13970 13971 13972 13973 13974 13975 13976 13977 13978 13979 13980 13981 13982 0
-13983 13365 0
-13984 13356 0
-13984 13349 0
-13356 -13349 13984 0
-13985 13357 0
-13985 13348 0
-13357 -13348 13985 0
-13986 13358 0
-13986 13378 0
-13358 -13378 13986 0
-13987 13359 0
-13987 13391 0
-13359 -13391 13987 0
-13988 13360 0
-13988 13404 0
-13360 -13404 13988 0
-13989 13361 0
-13989 13417 0
-13361 -13417 13989 0
-13990 13362 0
-13990 13430 0
-13362 -13430 13990 0
-13991 13363 0
-13991 13443 0
-13363 -13443 13991 0
-13992 13364 0
-13992 13456 0
-13364 -13456 13992 0
-13993 13366 0
-13993 13483 0
-13366 -13483 13993 0
-13994 13367 0
-13994 13496 0
-13367 -13496 13994 0
-13995 13368 0
-13995 13509 0
-13368 -13509 13995 0
-13983 -13984 0
-13983 -13985 0
-13983 -13986 0
-13983 -13987 0
-13983 -13988 0
-13983 -13989 0
-13983 -13990 0
-13983 -13991 0
-13983 -13992 0
-13983 -13993 0
-13983 -13994 0
-13983 -13995 0
-13365 13983 13984 13985 13986 13987 13988 13989 13990 13991 13992 13993 13994 13995 0
-13996 13366 0
-13997 13356 0
-13997 13351 0
-13356 -13351 13997 0
-13998 13357 0
-13998 13350 0
-13357 -13350 13998 0
-13999 13358 0
-13999 13379 0
-13358 -13379 13999 0
-14000 13359 0
-14000 13392 0
-13359 -13392 14000 0
-14001 13360 0
-14001 13405 0
-13360 -13405 14001 0
-14002 13361 0
-14002 13418 0
-13361 -13418 14002 0
-14003 13362 0
-14003 13431 0
-13362 -13431 14003 0
-14004 13363 0
-14004 13444 0
-13363 -13444 14004 0
-14005 13364 0
-14005 13457 0
-13364 -13457 14005 0
-14006 13365 0
-14006 13470 0
-13365 -13470 14006 0
-14007 13367 0
-14007 13497 0
-13367 -13497 14007 0
-14008 13368 0
-14008 13510 0
-13368 -13510 14008 0
-13996 -13997 0
-13996 -13998 0
-13996 -13999 0
-13996 -14000 0
-13996 -14001 0
-13996 -14002 0
-13996 -14003 0
-13996 -14004 0
-13996 -14005 0
-13996 -14006 0
-13996 -14007 0
-13996 -14008 0
-13366 13996 13997 13998 13999 14000 14001 14002 14003 14004 14005 14006 14007 14008 0
-14009 13367 0
-14010 13356 0
-14010 13353 0
-13356 -13353 14010 0
-14011 13357 0
-14011 13352 0
-13357 -13352 14011 0
-14012 13358 0
-14012 13380 0
-13358 -13380 14012 0
-14013 13359 0
-14013 13393 0
-13359 -13393 14013 0
-14014 13360 0
-14014 13406 0
-13360 -13406 14014 0
-14015 13361 0
-14015 13419 0
-13361 -13419 14015 0
-14016 13362 0
-14016 13432 0
-13362 -13432 14016 0
-14017 13363 0
-14017 13445 0
-13363 -13445 14017 0
-14018 13364 0
-14018 13458 0
-13364 -13458 14018 0
-14019 13365 0
-14019 13471 0
-13365 -13471 14019 0
-14020 13366 0
-14020 13484 0
-13366 -13484 14020 0
-14021 13368 0
-14021 13511 0
-13368 -13511 14021 0
-14009 -14010 0
-14009 -14011 0
-14009 -14012 0
-14009 -14013 0
-14009 -14014 0
-14009 -14015 0
-14009 -14016 0
-14009 -14017 0
-14009 -14018 0
-14009 -14019 0
-14009 -14020 0
-14009 -14021 0
-13367 14009 14010 14011 14012 14013 14014 14015 14016 14017 14018 14019 14020 14021 0
-14022 13368 0
-14023 13356 0
-14023 13355 0
-13356 -13355 14023 0
-14024 13357 0
-14024 13354 0
-13357 -13354 14024 0
-14025 13358 0
-14025 13381 0
-13358 -13381 14025 0
-14026 13359 0
-14026 13394 0
-13359 -13394 14026 0
-14027 13360 0
-14027 13407 0
-13360 -13407 14027 0
-14028 13361 0
-14028 13420 0
-13361 -13420 14028 0
-14029 13362 0
-14029 13433 0
-13362 -13433 14029 0
-14030 13363 0
-14030 13446 0
-13363 -13446 14030 0
-14031 13364 0
-14031 13459 0
-13364 -13459 14031 0
-14032 13365 0
-14032 13472 0
-13365 -13472 14032 0
-14033 13366 0
-14033 13485 0
-13366 -13485 14033 0
-14034 13367 0
-14034 13498 0
-13367 -13498 14034 0
-14022 -14023 0
-14022 -14024 0
-14022 -14025 0
-14022 -14026 0
-14022 -14027 0
-14022 -14028 0
-14022 -14029 0
-14022 -14030 0
-14022 -14031 0
-14022 -14032 0
-14022 -14033 0
-14022 -14034 0
-13368 14022 14023 14024 14025 14026 14027 14028 14029 14030 14031 14032 14033 14034 0
-14035 13369 0
-14036 13370 0
-14036 13331 0
-13370 -13331 14036 0
-14037 13371 0
-14037 13356 0
-13371 -13356 14037 0
-14038 13372 0
-14038 13382 0
-13372 -13382 14038 0
-14039 13373 0
-14039 13395 0
-13373 -13395 14039 0
-14040 13374 0
-14040 13408 0
-13374 -13408 14040 0
-14041 13375 0
-14041 13421 0
-13375 -13421 14041 0
-14042 13376 0
-14042 13434 0
-13376 -13434 14042 0
-14043 13377 0
-14043 13447 0
-13377 -13447 14043 0
-14044 13378 0
-14044 13460 0
-13378 -13460 14044 0
-14045 13379 0
-14045 13473 0
-13379 -13473 14045 0
-14046 13380 0
-14046 13486 0
-13380 -13486 14046 0
-14047 13381 0
-14047 13499 0
-13381 -13499 14047 0
-14035 -14036 0
-14035 -14037 0
-14035 -14038 0
-14035 -14039 0
-14035 -14040 0
-14035 -14041 0
-14035 -14042 0
-14035 -14043 0
-14035 -14044 0
-14035 -14045 0
-14035 -14046 0
-14035 -14047 0
-13369 14035 14036 14037 14038 14039 14040 14041 14042 14043 14044 14045 14046 14047 0
-14048 13370 0
-14049 13369 0
-14049 13330 0
-13369 -13330 14049 0
-14050 13371 0
-14050 13357 0
-13371 -13357 14050 0
-14051 13372 0
-14051 13383 0
-13372 -13383 14051 0
-14052 13373 0
-14052 13396 0
-13373 -13396 14052 0
-14053 13374 0
-14053 13409 0
-13374 -13409 14053 0
-14054 13375 0
-14054 13422 0
-13375 -13422 14054 0
-14055 13376 0
-14055 13435 0
-13376 -13435 14055 0
-14056 13377 0
-14056 13448 0
-13377 -13448 14056 0
-14057 13378 0
-14057 13461 0
-13378 -13461 14057 0
-14058 13379 0
-14058 13474 0
-13379 -13474 14058 0
-14059 13380 0
-14059 13487 0
-13380 -13487 14059 0
-14060 13381 0
-14060 13500 0
-13381 -13500 14060 0
-14048 -14049 0
-14048 -14050 0
-14048 -14051 0
-14048 -14052 0
-14048 -14053 0
-14048 -14054 0
-14048 -14055 0
-14048 -14056 0
-14048 -14057 0
-14048 -14058 0
-14048 -14059 0
-14048 -14060 0
-13370 14048 14049 14050 14051 14052 14053 14054 14055 14056 14057 14058 14059 14060 0
-14061 13371 0
-14062 13369 0
-14062 13333 0
-13369 -13333 14062 0
-14063 13370 0
-14063 13332 0
-13370 -13332 14063 0
-14064 13372 0
-14064 13384 0
-13372 -13384 14064 0
-14065 13373 0
-14065 13397 0
-13373 -13397 14065 0
-14066 13374 0
-14066 13410 0
-13374 -13410 14066 0
-14067 13375 0
-14067 13423 0
-13375 -13423 14067 0
-14068 13376 0
-14068 13436 0
-13376 -13436 14068 0
-14069 13377 0
-14069 13449 0
-13377 -13449 14069 0
-14070 13378 0
-14070 13462 0
-13378 -13462 14070 0
-14071 13379 0
-14071 13475 0
-13379 -13475 14071 0
-14072 13380 0
-14072 13488 0
-13380 -13488 14072 0
-14073 13381 0
-14073 13501 0
-13381 -13501 14073 0
-14061 -14062 0
-14061 -14063 0
-14061 -14064 0
-14061 -14065 0
-14061 -14066 0
-14061 -14067 0
-14061 -14068 0
-14061 -14069 0
-14061 -14070 0
-14061 -14071 0
-14061 -14072 0
-14061 -14073 0
-13371 14061 14062 14063 14064 14065 14066 14067 14068 14069 14070 14071 14072 14073 0
-14074 0
-14075 13372 0
-14076 13369 0
-14076 13337 0
-13369 -13337 14076 0
-14077 13370 0
-14077 13336 0
-13370 -13336 14077 0
-14078 13371 0
-14078 13359 0
-13371 -13359 14078 0
-14079 13373 0
-14079 13399 0
-13373 -13399 14079 0
-14080 13374 0
-14080 13412 0
-13374 -13412 14080 0
-14081 13375 0
-14081 13425 0
-13375 -13425 14081 0
-14082 13376 0
-14082 13438 0
-13376 -13438 14082 0
-14083 13377 0
-14083 13451 0
-13377 -13451 14083 0
-14084 13378 0
-14084 13464 0
-13378 -13464 14084 0
-14085 13379 0
-14085 13477 0
-13379 -13477 14085 0
-14086 13380 0
-14086 13490 0
-13380 -13490 14086 0
-14087 13381 0
-14087 13503 0
-13381 -13503 14087 0
-14075 -14076 0
-14075 -14077 0
-14075 -14078 0
-14075 -14079 0
-14075 -14080 0
-14075 -14081 0
-14075 -14082 0
-14075 -14083 0
-14075 -14084 0
-14075 -14085 0
-14075 -14086 0
-14075 -14087 0
-13372 14075 14076 14077 14078 14079 14080 14081 14082 14083 14084 14085 14086 14087 0
-14088 13373 0
-14089 13369 0
-14089 13339 0
-13369 -13339 14089 0
-14090 13370 0
-14090 13338 0
-13370 -13338 14090 0
-14091 13371 0
-14091 13360 0
-13371 -13360 14091 0
-14092 13372 0
-14092 13386 0
-13372 -13386 14092 0
-14093 13374 0
-14093 13413 0
-13374 -13413 14093 0
-14094 13375 0
-14094 13426 0
-13375 -13426 14094 0
-14095 13376 0
-14095 13439 0
-13376 -13439 14095 0
-14096 13377 0
-14096 13452 0
-13377 -13452 14096 0
-14097 13378 0
-14097 13465 0
-13378 -13465 14097 0
-14098 13379 0
-14098 13478 0
-13379 -13478 14098 0
-14099 13380 0
-14099 13491 0
-13380 -13491 14099 0
-14100 13381 0
-14100 13504 0
-13381 -13504 14100 0
-14088 -14089 0
-14088 -14090 0
-14088 -14091 0
-14088 -14092 0
-14088 -14093 0
-14088 -14094 0
-14088 -14095 0
-14088 -14096 0
-14088 -14097 0
-14088 -14098 0
-14088 -14099 0
-14088 -14100 0
-13373 14088 14089 14090 14091 14092 14093 14094 14095 14096 14097 14098 14099 14100 0
-14101 13374 0
-14102 13369 0
-14102 13341 0
-13369 -13341 14102 0
-14103 13370 0
-14103 13340 0
-13370 -13340 14103 0
-14104 13371 0
-14104 13361 0
-13371 -13361 14104 0
-14105 13372 0
-14105 13387 0
-13372 -13387 14105 0
-14106 13373 0
-14106 13400 0
-13373 -13400 14106 0
-14107 13375 0
-14107 13427 0
-13375 -13427 14107 0
-14108 13376 0
-14108 13440 0
-13376 -13440 14108 0
-14109 13377 0
-14109 13453 0
-13377 -13453 14109 0
-14110 13378 0
-14110 13466 0
-13378 -13466 14110 0
-14111 13379 0
-14111 13479 0
-13379 -13479 14111 0
-14112 13380 0
-14112 13492 0
-13380 -13492 14112 0
-14113 13381 0
-14113 13505 0
-13381 -13505 14113 0
-14101 -14102 0
-14101 -14103 0
-14101 -14104 0
-14101 -14105 0
-14101 -14106 0
-14101 -14107 0
-14101 -14108 0
-14101 -14109 0
-14101 -14110 0
-14101 -14111 0
-14101 -14112 0
-14101 -14113 0
-13374 14101 14102 14103 14104 14105 14106 14107 14108 14109 14110 14111 14112 14113 0
-14114 13375 0
-14115 13369 0
-14115 13343 0
-13369 -13343 14115 0
-14116 13370 0
-14116 13342 0
-13370 -13342 14116 0
-14117 13371 0
-14117 13362 0
-13371 -13362 14117 0
-14118 13372 0
-14118 13388 0
-13372 -13388 14118 0
-14119 13373 0
-14119 13401 0
-13373 -13401 14119 0
-14120 13374 0
-14120 13414 0
-13374 -13414 14120 0
-14121 13376 0
-14121 13441 0
-13376 -13441 14121 0
-14122 13377 0
-14122 13454 0
-13377 -13454 14122 0
-14123 13378 0
-14123 13467 0
-13378 -13467 14123 0
-14124 13379 0
-14124 13480 0
-13379 -13480 14124 0
-14125 13380 0
-14125 13493 0
-13380 -13493 14125 0
-14126 13381 0
-14126 13506 0
-13381 -13506 14126 0
-14114 -14115 0
-14114 -14116 0
-14114 -14117 0
-14114 -14118 0
-14114 -14119 0
-14114 -14120 0
-14114 -14121 0
-14114 -14122 0
-14114 -14123 0
-14114 -14124 0
-14114 -14125 0
-14114 -14126 0
-13375 14114 14115 14116 14117 14118 14119 14120 14121 14122 14123 14124 14125 14126 0
-14127 13376 0
-14128 13369 0
-14128 13345 0
-13369 -13345 14128 0
-14129 13370 0
-14129 13344 0
-13370 -13344 14129 0
-14130 13371 0
-14130 13363 0
-13371 -13363 14130 0
-14131 13372 0
-14131 13389 0
-13372 -13389 14131 0
-14132 13373 0
-14132 13402 0
-13373 -13402 14132 0
-14133 13374 0
-14133 13415 0
-13374 -13415 14133 0
-14134 13375 0
-14134 13428 0
-13375 -13428 14134 0
-14135 13377 0
-14135 13455 0
-13377 -13455 14135 0
-14136 13378 0
-14136 13468 0
-13378 -13468 14136 0
-14137 13379 0
-14137 13481 0
-13379 -13481 14137 0
-14138 13380 0
-14138 13494 0
-13380 -13494 14138 0
-14139 13381 0
-14139 13507 0
-13381 -13507 14139 0
-14127 -14128 0
-14127 -14129 0
-14127 -14130 0
-14127 -14131 0
-14127 -14132 0
-14127 -14133 0
-14127 -14134 0
-14127 -14135 0
-14127 -14136 0
-14127 -14137 0
-14127 -14138 0
-14127 -14139 0
-13376 14127 14128 14129 14130 14131 14132 14133 14134 14135 14136 14137 14138 14139 0
-14140 13377 0
-14141 13369 0
-14141 13347 0
-13369 -13347 14141 0
-14142 13370 0
-14142 13346 0
-13370 -13346 14142 0
-14143 13371 0
-14143 13364 0
-13371 -13364 14143 0
-14144 13372 0
-14144 13390 0
-13372 -13390 14144 0
-14145 13373 0
-14145 13403 0
-13373 -13403 14145 0
-14146 13374 0
-14146 13416 0
-13374 -13416 14146 0
-14147 13375 0
-14147 13429 0
-13375 -13429 14147 0
-14148 13376 0
-14148 13442 0
-13376 -13442 14148 0
-14149 13378 0
-14149 13469 0
-13378 -13469 14149 0
-14150 13379 0
-14150 13482 0
-13379 -13482 14150 0
-14151 13380 0
-14151 13495 0
-13380 -13495 14151 0
-14152 13381 0
-14152 13508 0
-13381 -13508 14152 0
-14140 -14141 0
-14140 -14142 0
-14140 -14143 0
-14140 -14144 0
-14140 -14145 0
-14140 -14146 0
-14140 -14147 0
-14140 -14148 0
-14140 -14149 0
-14140 -14150 0
-14140 -14151 0
-14140 -14152 0
-13377 14140 14141 14142 14143 14144 14145 14146 14147 14148 14149 14150 14151 14152 0
-14153 13378 0
-14154 13369 0
-14154 13349 0
-13369 -13349 14154 0
-14155 13370 0
-14155 13348 0
-13370 -13348 14155 0
-14156 13371 0
-14156 13365 0
-13371 -13365 14156 0
-14157 13372 0
-14157 13391 0
-13372 -13391 14157 0
-14158 13373 0
-14158 13404 0
-13373 -13404 14158 0
-14159 13374 0
-14159 13417 0
-13374 -13417 14159 0
-14160 13375 0
-14160 13430 0
-13375 -13430 14160 0
-14161 13376 0
-14161 13443 0
-13376 -13443 14161 0
-14162 13377 0
-14162 13456 0
-13377 -13456 14162 0
-14163 13379 0
-14163 13483 0
-13379 -13483 14163 0
-14164 13380 0
-14164 13496 0
-13380 -13496 14164 0
-14165 13381 0
-14165 13509 0
-13381 -13509 14165 0
-14153 -14154 0
-14153 -14155 0
-14153 -14156 0
-14153 -14157 0
-14153 -14158 0
-14153 -14159 0
-14153 -14160 0
-14153 -14161 0
-14153 -14162 0
-14153 -14163 0
-14153 -14164 0
-14153 -14165 0
-13378 14153 14154 14155 14156 14157 14158 14159 14160 14161 14162 14163 14164 14165 0
-14166 13379 0
-14167 13369 0
-14167 13351 0
-13369 -13351 14167 0
-14168 13370 0
-14168 13350 0
-13370 -13350 14168 0
-14169 13371 0
-14169 13366 0
-13371 -13366 14169 0
-14170 13372 0
-14170 13392 0
-13372 -13392 14170 0
-14171 13373 0
-14171 13405 0
-13373 -13405 14171 0
-14172 13374 0
-14172 13418 0
-13374 -13418 14172 0
-14173 13375 0
-14173 13431 0
-13375 -13431 14173 0
-14174 13376 0
-14174 13444 0
-13376 -13444 14174 0
-14175 13377 0
-14175 13457 0
-13377 -13457 14175 0
-14176 13378 0
-14176 13470 0
-13378 -13470 14176 0
-14177 13380 0
-14177 13497 0
-13380 -13497 14177 0
-14178 13381 0
-14178 13510 0
-13381 -13510 14178 0
-14166 -14167 0
-14166 -14168 0
-14166 -14169 0
-14166 -14170 0
-14166 -14171 0
-14166 -14172 0
-14166 -14173 0
-14166 -14174 0
-14166 -14175 0
-14166 -14176 0
-14166 -14177 0
-14166 -14178 0
-13379 14166 14167 14168 14169 14170 14171 14172 14173 14174 14175 14176 14177 14178 0
-14179 13380 0
-14180 13369 0
-14180 13353 0
-13369 -13353 14180 0
-14181 13370 0
-14181 13352 0
-13370 -13352 14181 0
-14182 13371 0
-14182 13367 0
-13371 -13367 14182 0
-14183 13372 0
-14183 13393 0
-13372 -13393 14183 0
-14184 13373 0
-14184 13406 0
-13373 -13406 14184 0
-14185 13374 0
-14185 13419 0
-13374 -13419 14185 0
-14186 13375 0
-14186 13432 0
-13375 -13432 14186 0
-14187 13376 0
-14187 13445 0
-13376 -13445 14187 0
-14188 13377 0
-14188 13458 0
-13377 -13458 14188 0
-14189 13378 0
-14189 13471 0
-13378 -13471 14189 0
-14190 13379 0
-14190 13484 0
-13379 -13484 14190 0
-14191 13381 0
-14191 13511 0
-13381 -13511 14191 0
-14179 -14180 0
-14179 -14181 0
-14179 -14182 0
-14179 -14183 0
-14179 -14184 0
-14179 -14185 0
-14179 -14186 0
-14179 -14187 0
-14179 -14188 0
-14179 -14189 0
-14179 -14190 0
-14179 -14191 0
-13380 14179 14180 14181 14182 14183 14184 14185 14186 14187 14188 14189 14190 14191 0
-14192 13381 0
-14193 13369 0
-14193 13355 0
-13369 -13355 14193 0
-14194 13370 0
-14194 13354 0
-13370 -13354 14194 0
-14195 13371 0
-14195 13368 0
-13371 -13368 14195 0
-14196 13372 0
-14196 13394 0
-13372 -13394 14196 0
-14197 13373 0
-14197 13407 0
-13373 -13407 14197 0
-14198 13374 0
-14198 13420 0
-13374 -13420 14198 0
-14199 13375 0
-14199 13433 0
-13375 -13433 14199 0
-14200 13376 0
-14200 13446 0
-13376 -13446 14200 0
-14201 13377 0
-14201 13459 0
-13377 -13459 14201 0
-14202 13378 0
-14202 13472 0
-13378 -13472 14202 0
-14203 13379 0
-14203 13485 0
-13379 -13485 14203 0
-14204 13380 0
-14204 13498 0
-13380 -13498 14204 0
-14192 -14193 0
-14192 -14194 0
-14192 -14195 0
-14192 -14196 0
-14192 -14197 0
-14192 -14198 0
-14192 -14199 0
-14192 -14200 0
-14192 -14201 0
-14192 -14202 0
-14192 -14203 0
-14192 -14204 0
-13381 14192 14193 14194 14195 14196 14197 14198 14199 14200 14201 14202 14203 14204 0
-14205 13382 0
-14206 13383 0
-14206 13331 0
-13383 -13331 14206 0
-14207 13384 0
-14207 13356 0
-13384 -13356 14207 0
-14208 13385 0
-14208 13369 0
-13385 -13369 14208 0
-14209 13386 0
-14209 13395 0
-13386 -13395 14209 0
-14210 13387 0
-14210 13408 0
-13387 -13408 14210 0
-14211 13388 0
-14211 13421 0
-13388 -13421 14211 0
-14212 13389 0
-14212 13434 0
-13389 -13434 14212 0
-14213 13390 0
-14213 13447 0
-13390 -13447 14213 0
-14214 13391 0
-14214 13460 0
-13391 -13460 14214 0
-14215 13392 0
-14215 13473 0
-13392 -13473 14215 0
-14216 13393 0
-14216 13486 0
-13393 -13486 14216 0
-14217 13394 0
-14217 13499 0
-13394 -13499 14217 0
-14205 -14206 0
-14205 -14207 0
-14205 -14208 0
-14205 -14209 0
-14205 -14210 0
-14205 -14211 0
-14205 -14212 0
-14205 -14213 0
-14205 -14214 0
-14205 -14215 0
-14205 -14216 0
-14205 -14217 0
-13382 14205 14206 14207 14208 14209 14210 14211 14212 14213 14214 14215 14216 14217 0
-14218 13383 0
-14219 13382 0
-14219 13330 0
-13382 -13330 14219 0
-14220 13384 0
-14220 13357 0
-13384 -13357 14220 0
-14221 13385 0
-14221 13370 0
-13385 -13370 14221 0
-14222 13386 0
-14222 13396 0
-13386 -13396 14222 0
-14223 13387 0
-14223 13409 0
-13387 -13409 14223 0
-14224 13388 0
-14224 13422 0
-13388 -13422 14224 0
-14225 13389 0
-14225 13435 0
-13389 -13435 14225 0
-14226 13390 0
-14226 13448 0
-13390 -13448 14226 0
-14227 13391 0
-14227 13461 0
-13391 -13461 14227 0
-14228 13392 0
-14228 13474 0
-13392 -13474 14228 0
-14229 13393 0
-14229 13487 0
-13393 -13487 14229 0
-14230 13394 0
-14230 13500 0
-13394 -13500 14230 0
-14218 -14219 0
-14218 -14220 0
-14218 -14221 0
-14218 -14222 0
-14218 -14223 0
-14218 -14224 0
-14218 -14225 0
-14218 -14226 0
-14218 -14227 0
-14218 -14228 0
-14218 -14229 0
-14218 -14230 0
-13383 14218 14219 14220 14221 14222 14223 14224 14225 14226 14227 14228 14229 14230 0
-14231 13384 0
-14232 13382 0
-14232 13333 0
-13382 -13333 14232 0
-14233 13383 0
-14233 13332 0
-13383 -13332 14233 0
-14234 13385 0
-14234 13371 0
-13385 -13371 14234 0
-14235 13386 0
-14235 13397 0
-13386 -13397 14235 0
-14236 13387 0
-14236 13410 0
-13387 -13410 14236 0
-14237 13388 0
-14237 13423 0
-13388 -13423 14237 0
-14238 13389 0
-14238 13436 0
-13389 -13436 14238 0
-14239 13390 0
-14239 13449 0
-13390 -13449 14239 0
-14240 13391 0
-14240 13462 0
-13391 -13462 14240 0
-14241 13392 0
-14241 13475 0
-13392 -13475 14241 0
-14242 13393 0
-14242 13488 0
-13393 -13488 14242 0
-14243 13394 0
-14243 13501 0
-13394 -13501 14243 0
-14231 -14232 0
-14231 -14233 0
-14231 -14234 0
-14231 -14235 0
-14231 -14236 0
-14231 -14237 0
-14231 -14238 0
-14231 -14239 0
-14231 -14240 0
-14231 -14241 0
-14231 -14242 0
-14231 -14243 0
-13384 14231 14232 14233 14234 14235 14236 14237 14238 14239 14240 14241 14242 14243 0
-14244 13385 0
-14245 13382 0
-14245 13335 0
-13382 -13335 14245 0
-14246 13383 0
-14246 13334 0
-13383 -13334 14246 0
-14247 13384 0
-14247 13358 0
-13384 -13358 14247 0
-14248 13386 0
-14248 13398 0
-13386 -13398 14248 0
-14249 13387 0
-14249 13411 0
-13387 -13411 14249 0
-14250 13388 0
-14250 13424 0
-13388 -13424 14250 0
-14251 13389 0
-14251 13437 0
-13389 -13437 14251 0
-14252 13390 0
-14252 13450 0
-13390 -13450 14252 0
-14253 13391 0
-14253 13463 0
-13391 -13463 14253 0
-14254 13392 0
-14254 13476 0
-13392 -13476 14254 0
-14255 13393 0
-14255 13489 0
-13393 -13489 14255 0
-14256 13394 0
-14256 13502 0
-13394 -13502 14256 0
-14244 -14245 0
-14244 -14246 0
-14244 -14247 0
-14244 -14248 0
-14244 -14249 0
-14244 -14250 0
-14244 -14251 0
-14244 -14252 0
-14244 -14253 0
-14244 -14254 0
-14244 -14255 0
-14244 -14256 0
-13385 14244 14245 14246 14247 14248 14249 14250 14251 14252 14253 14254 14255 14256 0
-14257 0
-14258 13386 0
-14259 13382 0
-14259 13339 0
-13382 -13339 14259 0
-14260 13383 0
-14260 13338 0
-13383 -13338 14260 0
-14261 13384 0
-14261 13360 0
-13384 -13360 14261 0
-14262 13385 0
-14262 13373 0
-13385 -13373 14262 0
-14263 13387 0
-14263 13413 0
-13387 -13413 14263 0
-14264 13388 0
-14264 13426 0
-13388 -13426 14264 0
-14265 13389 0
-14265 13439 0
-13389 -13439 14265 0
-14266 13390 0
-14266 13452 0
-13390 -13452 14266 0
-14267 13391 0
-14267 13465 0
-13391 -13465 14267 0
-14268 13392 0
-14268 13478 0
-13392 -13478 14268 0
-14269 13393 0
-14269 13491 0
-13393 -13491 14269 0
-14270 13394 0
-14270 13504 0
-13394 -13504 14270 0
-14258 -14259 0
-14258 -14260 0
-14258 -14261 0
-14258 -14262 0
-14258 -14263 0
-14258 -14264 0
-14258 -14265 0
-14258 -14266 0
-14258 -14267 0
-14258 -14268 0
-14258 -14269 0
-14258 -14270 0
-13386 14258 14259 14260 14261 14262 14263 14264 14265 14266 14267 14268 14269 14270 0
-14271 13387 0
-14272 13382 0
-14272 13341 0
-13382 -13341 14272 0
-14273 13383 0
-14273 13340 0
-13383 -13340 14273 0
-14274 13384 0
-14274 13361 0
-13384 -13361 14274 0
-14275 13385 0
-14275 13374 0
-13385 -13374 14275 0
-14276 13386 0
-14276 13400 0
-13386 -13400 14276 0
-14277 13388 0
-14277 13427 0
-13388 -13427 14277 0
-14278 13389 0
-14278 13440 0
-13389 -13440 14278 0
-14279 13390 0
-14279 13453 0
-13390 -13453 14279 0
-14280 13391 0
-14280 13466 0
-13391 -13466 14280 0
-14281 13392 0
-14281 13479 0
-13392 -13479 14281 0
-14282 13393 0
-14282 13492 0
-13393 -13492 14282 0
-14283 13394 0
-14283 13505 0
-13394 -13505 14283 0
-14271 -14272 0
-14271 -14273 0
-14271 -14274 0
-14271 -14275 0
-14271 -14276 0
-14271 -14277 0
-14271 -14278 0
-14271 -14279 0
-14271 -14280 0
-14271 -14281 0
-14271 -14282 0
-14271 -14283 0
-13387 14271 14272 14273 14274 14275 14276 14277 14278 14279 14280 14281 14282 14283 0
-14284 13388 0
-14285 13382 0
-14285 13343 0
-13382 -13343 14285 0
-14286 13383 0
-14286 13342 0
-13383 -13342 14286 0
-14287 13384 0
-14287 13362 0
-13384 -13362 14287 0
-14288 13385 0
-14288 13375 0
-13385 -13375 14288 0
-14289 13386 0
-14289 13401 0
-13386 -13401 14289 0
-14290 13387 0
-14290 13414 0
-13387 -13414 14290 0
-14291 13389 0
-14291 13441 0
-13389 -13441 14291 0
-14292 13390 0
-14292 13454 0
-13390 -13454 14292 0
-14293 13391 0
-14293 13467 0
-13391 -13467 14293 0
-14294 13392 0
-14294 13480 0
-13392 -13480 14294 0
-14295 13393 0
-14295 13493 0
-13393 -13493 14295 0
-14296 13394 0
-14296 13506 0
-13394 -13506 14296 0
-14284 -14285 0
-14284 -14286 0
-14284 -14287 0
-14284 -14288 0
-14284 -14289 0
-14284 -14290 0
-14284 -14291 0
-14284 -14292 0
-14284 -14293 0
-14284 -14294 0
-14284 -14295 0
-14284 -14296 0
-13388 14284 14285 14286 14287 14288 14289 14290 14291 14292 14293 14294 14295 14296 0
-14297 13389 0
-14298 13382 0
-14298 13345 0
-13382 -13345 14298 0
-14299 13383 0
-14299 13344 0
-13383 -13344 14299 0
-14300 13384 0
-14300 13363 0
-13384 -13363 14300 0
-14301 13385 0
-14301 13376 0
-13385 -13376 14301 0
-14302 13386 0
-14302 13402 0
-13386 -13402 14302 0
-14303 13387 0
-14303 13415 0
-13387 -13415 14303 0
-14304 13388 0
-14304 13428 0
-13388 -13428 14304 0
-14305 13390 0
-14305 13455 0
-13390 -13455 14305 0
-14306 13391 0
-14306 13468 0
-13391 -13468 14306 0
-14307 13392 0
-14307 13481 0
-13392 -13481 14307 0
-14308 13393 0
-14308 13494 0
-13393 -13494 14308 0
-14309 13394 0
-14309 13507 0
-13394 -13507 14309 0
-14297 -14298 0
-14297 -14299 0
-14297 -14300 0
-14297 -14301 0
-14297 -14302 0
-14297 -14303 0
-14297 -14304 0
-14297 -14305 0
-14297 -14306 0
-14297 -14307 0
-14297 -14308 0
-14297 -14309 0
-13389 14297 14298 14299 14300 14301 14302 14303 14304 14305 14306 14307 14308 14309 0
-14310 13390 0
-14311 13382 0
-14311 13347 0
-13382 -13347 14311 0
-14312 13383 0
-14312 13346 0
-13383 -13346 14312 0
-14313 13384 0
-14313 13364 0
-13384 -13364 14313 0
-14314 13385 0
-14314 13377 0
-13385 -13377 14314 0
-14315 13386 0
-14315 13403 0
-13386 -13403 14315 0
-14316 13387 0
-14316 13416 0
-13387 -13416 14316 0
-14317 13388 0
-14317 13429 0
-13388 -13429 14317 0
-14318 13389 0
-14318 13442 0
-13389 -13442 14318 0
-14319 13391 0
-14319 13469 0
-13391 -13469 14319 0
-14320 13392 0
-14320 13482 0
-13392 -13482 14320 0
-14321 13393 0
-14321 13495 0
-13393 -13495 14321 0
-14322 13394 0
-14322 13508 0
-13394 -13508 14322 0
-14310 -14311 0
-14310 -14312 0
-14310 -14313 0
-14310 -14314 0
-14310 -14315 0
-14310 -14316 0
-14310 -14317 0
-14310 -14318 0
-14310 -14319 0
-14310 -14320 0
-14310 -14321 0
-14310 -14322 0
-13390 14310 14311 14312 14313 14314 14315 14316 14317 14318 14319 14320 14321 14322 0
-14323 13391 0
-14324 13382 0
-14324 13349 0
-13382 -13349 14324 0
-14325 13383 0
-14325 13348 0
-13383 -13348 14325 0
-14326 13384 0
-14326 13365 0
-13384 -13365 14326 0
-14327 13385 0
-14327 13378 0
-13385 -13378 14327 0
-14328 13386 0
-14328 13404 0
-13386 -13404 14328 0
-14329 13387 0
-14329 13417 0
-13387 -13417 14329 0
-14330 13388 0
-14330 13430 0
-13388 -13430 14330 0
-14331 13389 0
-14331 13443 0
-13389 -13443 14331 0
-14332 13390 0
-14332 13456 0
-13390 -13456 14332 0
-14333 13392 0
-14333 13483 0
-13392 -13483 14333 0
-14334 13393 0
-14334 13496 0
-13393 -13496 14334 0
-14335 13394 0
-14335 13509 0
-13394 -13509 14335 0
-14323 -14324 0
-14323 -14325 0
-14323 -14326 0
-14323 -14327 0
-14323 -14328 0
-14323 -14329 0
-14323 -14330 0
-14323 -14331 0
-14323 -14332 0
-14323 -14333 0
-14323 -14334 0
-14323 -14335 0
-13391 14323 14324 14325 14326 14327 14328 14329 14330 14331 14332 14333 14334 14335 0
-14336 13392 0
-14337 13382 0
-14337 13351 0
-13382 -13351 14337 0
-14338 13383 0
-14338 13350 0
-13383 -13350 14338 0
-14339 13384 0
-14339 13366 0
-13384 -13366 14339 0
-14340 13385 0
-14340 13379 0
-13385 -13379 14340 0
-14341 13386 0
-14341 13405 0
-13386 -13405 14341 0
-14342 13387 0
-14342 13418 0
-13387 -13418 14342 0
-14343 13388 0
-14343 13431 0
-13388 -13431 14343 0
-14344 13389 0
-14344 13444 0
-13389 -13444 14344 0
-14345 13390 0
-14345 13457 0
-13390 -13457 14345 0
-14346 13391 0
-14346 13470 0
-13391 -13470 14346 0
-14347 13393 0
-14347 13497 0
-13393 -13497 14347 0
-14348 13394 0
-14348 13510 0
-13394 -13510 14348 0
-14336 -14337 0
-14336 -14338 0
-14336 -14339 0
-14336 -14340 0
-14336 -14341 0
-14336 -14342 0
-14336 -14343 0
-14336 -14344 0
-14336 -14345 0
-14336 -14346 0
-14336 -14347 0
-14336 -14348 0
-13392 14336 14337 14338 14339 14340 14341 14342 14343 14344 14345 14346 14347 14348 0
-14349 13393 0
-14350 13382 0
-14350 13353 0
-13382 -13353 14350 0
-14351 13383 0
-14351 13352 0
-13383 -13352 14351 0
-14352 13384 0
-14352 13367 0
-13384 -13367 14352 0
-14353 13385 0
-14353 13380 0
-13385 -13380 14353 0
-14354 13386 0
-14354 13406 0
-13386 -13406 14354 0
-14355 13387 0
-14355 13419 0
-13387 -13419 14355 0
-14356 13388 0
-14356 13432 0
-13388 -13432 14356 0
-14357 13389 0
-14357 13445 0
-13389 -13445 14357 0
-14358 13390 0
-14358 13458 0
-13390 -13458 14358 0
-14359 13391 0
-14359 13471 0
-13391 -13471 14359 0
-14360 13392 0
-14360 13484 0
-13392 -13484 14360 0
-14361 13394 0
-14361 13511 0
-13394 -13511 14361 0
-14349 -14350 0
-14349 -14351 0
-14349 -14352 0
-14349 -14353 0
-14349 -14354 0
-14349 -14355 0
-14349 -14356 0
-14349 -14357 0
-14349 -14358 0
-14349 -14359 0
-14349 -14360 0
-14349 -14361 0
-13393 14349 14350 14351 14352 14353 14354 14355 14356 14357 14358 14359 14360 14361 0
-14362 13394 0
-14363 13382 0
-14363 13355 0
-13382 -13355 14363 0
-14364 13383 0
-14364 13354 0
-13383 -13354 14364 0
-14365 13384 0
-14365 13368 0
-13384 -13368 14365 0
-14366 13385 0
-14366 13381 0
-13385 -13381 14366 0
-14367 13386 0
-14367 13407 0
-13386 -13407 14367 0
-14368 13387 0
-14368 13420 0
-13387 -13420 14368 0
-14369 13388 0
-14369 13433 0
-13388 -13433 14369 0
-14370 13389 0
-14370 13446 0
-13389 -13446 14370 0
-14371 13390 0
-14371 13459 0
-13390 -13459 14371 0
-14372 13391 0
-14372 13472 0
-13391 -13472 14372 0
-14373 13392 0
-14373 13485 0
-13392 -13485 14373 0
-14374 13393 0
-14374 13498 0
-13393 -13498 14374 0
-14362 -14363 0
-14362 -14364 0
-14362 -14365 0
-14362 -14366 0
-14362 -14367 0
-14362 -14368 0
-14362 -14369 0
-14362 -14370 0
-14362 -14371 0
-14362 -14372 0
-14362 -14373 0
-14362 -14374 0
-13394 14362 14363 14364 14365 14366 14367 14368 14369 14370 14371 14372 14373 14374 0
-14375 13395 0
-14376 13396 0
-14376 13331 0
-13396 -13331 14376 0
-14377 13397 0
-14377 13356 0
-13397 -13356 14377 0
-14378 13398 0
-14378 13369 0
-13398 -13369 14378 0
-14379 13399 0
-14379 13382 0
-13399 -13382 14379 0
-14380 13400 0
-14380 13408 0
-13400 -13408 14380 0
-14381 13401 0
-14381 13421 0
-13401 -13421 14381 0
-14382 13402 0
-14382 13434 0
-13402 -13434 14382 0
-14383 13403 0
-14383 13447 0
-13403 -13447 14383 0
-14384 13404 0
-14384 13460 0
-13404 -13460 14384 0
-14385 13405 0
-14385 13473 0
-13405 -13473 14385 0
-14386 13406 0
-14386 13486 0
-13406 -13486 14386 0
-14387 13407 0
-14387 13499 0
-13407 -13499 14387 0
-14375 -14376 0
-14375 -14377 0
-14375 -14378 0
-14375 -14379 0
-14375 -14380 0
-14375 -14381 0
-14375 -14382 0
-14375 -14383 0
-14375 -14384 0
-14375 -14385 0
-14375 -14386 0
-14375 -14387 0
-13395 14375 14376 14377 14378 14379 14380 14381 14382 14383 14384 14385 14386 14387 0
-14388 13396 0
-14389 13395 0
-14389 13330 0
-13395 -13330 14389 0
-14390 13397 0
-14390 13357 0
-13397 -13357 14390 0
-14391 13398 0
-14391 13370 0
-13398 -13370 14391 0
-14392 13399 0
-14392 13383 0
-13399 -13383 14392 0
-14393 13400 0
-14393 13409 0
-13400 -13409 14393 0
-14394 13401 0
-14394 13422 0
-13401 -13422 14394 0
-14395 13402 0
-14395 13435 0
-13402 -13435 14395 0
-14396 13403 0
-14396 13448 0
-13403 -13448 14396 0
-14397 13404 0
-14397 13461 0
-13404 -13461 14397 0
-14398 13405 0
-14398 13474 0
-13405 -13474 14398 0
-14399 13406 0
-14399 13487 0
-13406 -13487 14399 0
-14400 13407 0
-14400 13500 0
-13407 -13500 14400 0
-14388 -14389 0
-14388 -14390 0
-14388 -14391 0
-14388 -14392 0
-14388 -14393 0
-14388 -14394 0
-14388 -14395 0
-14388 -14396 0
-14388 -14397 0
-14388 -14398 0
-14388 -14399 0
-14388 -14400 0
-13396 14388 14389 14390 14391 14392 14393 14394 14395 14396 14397 14398 14399 14400 0
-14401 13397 0
-14402 13395 0
-14402 13333 0
-13395 -13333 14402 0
-14403 13396 0
-14403 13332 0
-13396 -13332 14403 0
-14404 13398 0
-14404 13371 0
-13398 -13371 14404 0
-14405 13399 0
-14405 13384 0
-13399 -13384 14405 0
-14406 13400 0
-14406 13410 0
-13400 -13410 14406 0
-14407 13401 0
-14407 13423 0
-13401 -13423 14407 0
-14408 13402 0
-14408 13436 0
-13402 -13436 14408 0
-14409 13403 0
-14409 13449 0
-13403 -13449 14409 0
-14410 13404 0
-14410 13462 0
-13404 -13462 14410 0
-14411 13405 0
-14411 13475 0
-13405 -13475 14411 0
-14412 13406 0
-14412 13488 0
-13406 -13488 14412 0
-14413 13407 0
-14413 13501 0
-13407 -13501 14413 0
-14401 -14402 0
-14401 -14403 0
-14401 -14404 0
-14401 -14405 0
-14401 -14406 0
-14401 -14407 0
-14401 -14408 0
-14401 -14409 0
-14401 -14410 0
-14401 -14411 0
-14401 -14412 0
-14401 -14413 0
-13397 14401 14402 14403 14404 14405 14406 14407 14408 14409 14410 14411 14412 14413 0
-14414 13398 0
-14415 13395 0
-14415 13335 0
-13395 -13335 14415 0
-14416 13396 0
-14416 13334 0
-13396 -13334 14416 0
-14417 13397 0
-14417 13358 0
-13397 -13358 14417 0
-14418 13399 0
-14418 13385 0
-13399 -13385 14418 0
-14419 13400 0
-14419 13411 0
-13400 -13411 14419 0
-14420 13401 0
-14420 13424 0
-13401 -13424 14420 0
-14421 13402 0
-14421 13437 0
-13402 -13437 14421 0
-14422 13403 0
-14422 13450 0
-13403 -13450 14422 0
-14423 13404 0
-14423 13463 0
-13404 -13463 14423 0
-14424 13405 0
-14424 13476 0
-13405 -13476 14424 0
-14425 13406 0
-14425 13489 0
-13406 -13489 14425 0
-14426 13407 0
-14426 13502 0
-13407 -13502 14426 0
-14414 -14415 0
-14414 -14416 0
-14414 -14417 0
-14414 -14418 0
-14414 -14419 0
-14414 -14420 0
-14414 -14421 0
-14414 -14422 0
-14414 -14423 0
-14414 -14424 0
-14414 -14425 0
-14414 -14426 0
-13398 14414 14415 14416 14417 14418 14419 14420 14421 14422 14423 14424 14425 14426 0
-14427 13399 0
-14428 13395 0
-14428 13337 0
-13395 -13337 14428 0
-14429 13396 0
-14429 13336 0
-13396 -13336 14429 0
-14430 13397 0
-14430 13359 0
-13397 -13359 14430 0
-14431 13398 0
-14431 13372 0
-13398 -13372 14431 0
-14432 13400 0
-14432 13412 0
-13400 -13412 14432 0
-14433 13401 0
-14433 13425 0
-13401 -13425 14433 0
-14434 13402 0
-14434 13438 0
-13402 -13438 14434 0
-14435 13403 0
-14435 13451 0
-13403 -13451 14435 0
-14436 13404 0
-14436 13464 0
-13404 -13464 14436 0
-14437 13405 0
-14437 13477 0
-13405 -13477 14437 0
-14438 13406 0
-14438 13490 0
-13406 -13490 14438 0
-14439 13407 0
-14439 13503 0
-13407 -13503 14439 0
-14427 -14428 0
-14427 -14429 0
-14427 -14430 0
-14427 -14431 0
-14427 -14432 0
-14427 -14433 0
-14427 -14434 0
-14427 -14435 0
-14427 -14436 0
-14427 -14437 0
-14427 -14438 0
-14427 -14439 0
-13399 14427 14428 14429 14430 14431 14432 14433 14434 14435 14436 14437 14438 14439 0
-14440 0
-14441 13400 0
-14442 13395 0
-14442 13341 0
-13395 -13341 14442 0
-14443 13396 0
-14443 13340 0
-13396 -13340 14443 0
-14444 13397 0
-14444 13361 0
-13397 -13361 14444 0
-14445 13398 0
-14445 13374 0
-13398 -13374 14445 0
-14446 13399 0
-14446 13387 0
-13399 -13387 14446 0
-14447 13401 0
-14447 13427 0
-13401 -13427 14447 0
-14448 13402 0
-14448 13440 0
-13402 -13440 14448 0
-14449 13403 0
-14449 13453 0
-13403 -13453 14449 0
-14450 13404 0
-14450 13466 0
-13404 -13466 14450 0
-14451 13405 0
-14451 13479 0
-13405 -13479 14451 0
-14452 13406 0
-14452 13492 0
-13406 -13492 14452 0
-14453 13407 0
-14453 13505 0
-13407 -13505 14453 0
-14441 -14442 0
-14441 -14443 0
-14441 -14444 0
-14441 -14445 0
-14441 -14446 0
-14441 -14447 0
-14441 -14448 0
-14441 -14449 0
-14441 -14450 0
-14441 -14451 0
-14441 -14452 0
-14441 -14453 0
-13400 14441 14442 14443 14444 14445 14446 14447 14448 14449 14450 14451 14452 14453 0
-14454 13401 0
-14455 13395 0
-14455 13343 0
-13395 -13343 14455 0
-14456 13396 0
-14456 13342 0
-13396 -13342 14456 0
-14457 13397 0
-14457 13362 0
-13397 -13362 14457 0
-14458 13398 0
-14458 13375 0
-13398 -13375 14458 0
-14459 13399 0
-14459 13388 0
-13399 -13388 14459 0
-14460 13400 0
-14460 13414 0
-13400 -13414 14460 0
-14461 13402 0
-14461 13441 0
-13402 -13441 14461 0
-14462 13403 0
-14462 13454 0
-13403 -13454 14462 0
-14463 13404 0
-14463 13467 0
-13404 -13467 14463 0
-14464 13405 0
-14464 13480 0
-13405 -13480 14464 0
-14465 13406 0
-14465 13493 0
-13406 -13493 14465 0
-14466 13407 0
-14466 13506 0
-13407 -13506 14466 0
-14454 -14455 0
-14454 -14456 0
-14454 -14457 0
-14454 -14458 0
-14454 -14459 0
-14454 -14460 0
-14454 -14461 0
-14454 -14462 0
-14454 -14463 0
-14454 -14464 0
-14454 -14465 0
-14454 -14466 0
-13401 14454 14455 14456 14457 14458 14459 14460 14461 14462 14463 14464 14465 14466 0
-14467 13402 0
-14468 13395 0
-14468 13345 0
-13395 -13345 14468 0
-14469 13396 0
-14469 13344 0
-13396 -13344 14469 0
-14470 13397 0
-14470 13363 0
-13397 -13363 14470 0
-14471 13398 0
-14471 13376 0
-13398 -13376 14471 0
-14472 13399 0
-14472 13389 0
-13399 -13389 14472 0
-14473 13400 0
-14473 13415 0
-13400 -13415 14473 0
-14474 13401 0
-14474 13428 0
-13401 -13428 14474 0
-14475 13403 0
-14475 13455 0
-13403 -13455 14475 0
-14476 13404 0
-14476 13468 0
-13404 -13468 14476 0
-14477 13405 0
-14477 13481 0
-13405 -13481 14477 0
-14478 13406 0
-14478 13494 0
-13406 -13494 14478 0
-14479 13407 0
-14479 13507 0
-13407 -13507 14479 0
-14467 -14468 0
-14467 -14469 0
-14467 -14470 0
-14467 -14471 0
-14467 -14472 0
-14467 -14473 0
-14467 -14474 0
-14467 -14475 0
-14467 -14476 0
-14467 -14477 0
-14467 -14478 0
-14467 -14479 0
-13402 14467 14468 14469 14470 14471 14472 14473 14474 14475 14476 14477 14478 14479 0
-14480 13403 0
-14481 13395 0
-14481 13347 0
-13395 -13347 14481 0
-14482 13396 0
-14482 13346 0
-13396 -13346 14482 0
-14483 13397 0
-14483 13364 0
-13397 -13364 14483 0
-14484 13398 0
-14484 13377 0
-13398 -13377 14484 0
-14485 13399 0
-14485 13390 0
-13399 -13390 14485 0
-14486 13400 0
-14486 13416 0
-13400 -13416 14486 0
-14487 13401 0
-14487 13429 0
-13401 -13429 14487 0
-14488 13402 0
-14488 13442 0
-13402 -13442 14488 0
-14489 13404 0
-14489 13469 0
-13404 -13469 14489 0
-14490 13405 0
-14490 13482 0
-13405 -13482 14490 0
-14491 13406 0
-14491 13495 0
-13406 -13495 14491 0
-14492 13407 0
-14492 13508 0
-13407 -13508 14492 0
-14480 -14481 0
-14480 -14482 0
-14480 -14483 0
-14480 -14484 0
-14480 -14485 0
-14480 -14486 0
-14480 -14487 0
-14480 -14488 0
-14480 -14489 0
-14480 -14490 0
-14480 -14491 0
-14480 -14492 0
-13403 14480 14481 14482 14483 14484 14485 14486 14487 14488 14489 14490 14491 14492 0
-14493 13404 0
-14494 13395 0
-14494 13349 0
-13395 -13349 14494 0
-14495 13396 0
-14495 13348 0
-13396 -13348 14495 0
-14496 13397 0
-14496 13365 0
-13397 -13365 14496 0
-14497 13398 0
-14497 13378 0
-13398 -13378 14497 0
-14498 13399 0
-14498 13391 0
-13399 -13391 14498 0
-14499 13400 0
-14499 13417 0
-13400 -13417 14499 0
-14500 13401 0
-14500 13430 0
-13401 -13430 14500 0
-14501 13402 0
-14501 13443 0
-13402 -13443 14501 0
-14502 13403 0
-14502 13456 0
-13403 -13456 14502 0
-14503 13405 0
-14503 13483 0
-13405 -13483 14503 0
-14504 13406 0
-14504 13496 0
-13406 -13496 14504 0
-14505 13407 0
-14505 13509 0
-13407 -13509 14505 0
-14493 -14494 0
-14493 -14495 0
-14493 -14496 0
-14493 -14497 0
-14493 -14498 0
-14493 -14499 0
-14493 -14500 0
-14493 -14501 0
-14493 -14502 0
-14493 -14503 0
-14493 -14504 0
-14493 -14505 0
-13404 14493 14494 14495 14496 14497 14498 14499 14500 14501 14502 14503 14504 14505 0
-14506 13405 0
-14507 13395 0
-14507 13351 0
-13395 -13351 14507 0
-14508 13396 0
-14508 13350 0
-13396 -13350 14508 0
-14509 13397 0
-14509 13366 0
-13397 -13366 14509 0
-14510 13398 0
-14510 13379 0
-13398 -13379 14510 0
-14511 13399 0
-14511 13392 0
-13399 -13392 14511 0
-14512 13400 0
-14512 13418 0
-13400 -13418 14512 0
-14513 13401 0
-14513 13431 0
-13401 -13431 14513 0
-14514 13402 0
-14514 13444 0
-13402 -13444 14514 0
-14515 13403 0
-14515 13457 0
-13403 -13457 14515 0
-14516 13404 0
-14516 13470 0
-13404 -13470 14516 0
-14517 13406 0
-14517 13497 0
-13406 -13497 14517 0
-14518 13407 0
-14518 13510 0
-13407 -13510 14518 0
-14506 -14507 0
-14506 -14508 0
-14506 -14509 0
-14506 -14510 0
-14506 -14511 0
-14506 -14512 0
-14506 -14513 0
-14506 -14514 0
-14506 -14515 0
-14506 -14516 0
-14506 -14517 0
-14506 -14518 0
-13405 14506 14507 14508 14509 14510 14511 14512 14513 14514 14515 14516 14517 14518 0
-14519 13406 0
-14520 13395 0
-14520 13353 0
-13395 -13353 14520 0
-14521 13396 0
-14521 13352 0
-13396 -13352 14521 0
-14522 13397 0
-14522 13367 0
-13397 -13367 14522 0
-14523 13398 0
-14523 13380 0
-13398 -13380 14523 0
-14524 13399 0
-14524 13393 0
-13399 -13393 14524 0
-14525 13400 0
-14525 13419 0
-13400 -13419 14525 0
-14526 13401 0
-14526 13432 0
-13401 -13432 14526 0
-14527 13402 0
-14527 13445 0
-13402 -13445 14527 0
-14528 13403 0
-14528 13458 0
-13403 -13458 14528 0
-14529 13404 0
-14529 13471 0
-13404 -13471 14529 0
-14530 13405 0
-14530 13484 0
-13405 -13484 14530 0
-14531 13407 0
-14531 13511 0
-13407 -13511 14531 0
-14519 -14520 0
-14519 -14521 0
-14519 -14522 0
-14519 -14523 0
-14519 -14524 0
-14519 -14525 0
-14519 -14526 0
-14519 -14527 0
-14519 -14528 0
-14519 -14529 0
-14519 -14530 0
-14519 -14531 0
-13406 14519 14520 14521 14522 14523 14524 14525 14526 14527 14528 14529 14530 14531 0
-14532 13407 0
-14533 13395 0
-14533 13355 0
-13395 -13355 14533 0
-14534 13396 0
-14534 13354 0
-13396 -13354 14534 0
-14535 13397 0
-14535 13368 0
-13397 -13368 14535 0
-14536 13398 0
-14536 13381 0
-13398 -13381 14536 0
-14537 13399 0
-14537 13394 0
-13399 -13394 14537 0
-14538 13400 0
-14538 13420 0
-13400 -13420 14538 0
-14539 13401 0
-14539 13433 0
-13401 -13433 14539 0
-14540 13402 0
-14540 13446 0
-13402 -13446 14540 0
-14541 13403 0
-14541 13459 0
-13403 -13459 14541 0
-14542 13404 0
-14542 13472 0
-13404 -13472 14542 0
-14543 13405 0
-14543 13485 0
-13405 -13485 14543 0
-14544 13406 0
-14544 13498 0
-13406 -13498 14544 0
-14532 -14533 0
-14532 -14534 0
-14532 -14535 0
-14532 -14536 0
-14532 -14537 0
-14532 -14538 0
-14532 -14539 0
-14532 -14540 0
-14532 -14541 0
-14532 -14542 0
-14532 -14543 0
-14532 -14544 0
-13407 14532 14533 14534 14535 14536 14537 14538 14539 14540 14541 14542 14543 14544 0
-14545 13408 0
-14546 13409 0
-14546 13331 0
-13409 -13331 14546 0
-14547 13410 0
-14547 13356 0
-13410 -13356 14547 0
-14548 13411 0
-14548 13369 0
-13411 -13369 14548 0
-14549 13412 0
-14549 13382 0
-13412 -13382 14549 0
-14550 13413 0
-14550 13395 0
-13413 -13395 14550 0
-14551 13414 0
-14551 13421 0
-13414 -13421 14551 0
-14552 13415 0
-14552 13434 0
-13415 -13434 14552 0
-14553 13416 0
-14553 13447 0
-13416 -13447 14553 0
-14554 13417 0
-14554 13460 0
-13417 -13460 14554 0
-14555 13418 0
-14555 13473 0
-13418 -13473 14555 0
-14556 13419 0
-14556 13486 0
-13419 -13486 14556 0
-14557 13420 0
-14557 13499 0
-13420 -13499 14557 0
-14545 -14546 0
-14545 -14547 0
-14545 -14548 0
-14545 -14549 0
-14545 -14550 0
-14545 -14551 0
-14545 -14552 0
-14545 -14553 0
-14545 -14554 0
-14545 -14555 0
-14545 -14556 0
-14545 -14557 0
-13408 14545 14546 14547 14548 14549 14550 14551 14552 14553 14554 14555 14556 14557 0
-14558 13409 0
-14559 13408 0
-14559 13330 0
-13408 -13330 14559 0
-14560 13410 0
-14560 13357 0
-13410 -13357 14560 0
-14561 13411 0
-14561 13370 0
-13411 -13370 14561 0
-14562 13412 0
-14562 13383 0
-13412 -13383 14562 0
-14563 13413 0
-14563 13396 0
-13413 -13396 14563 0
-14564 13414 0
-14564 13422 0
-13414 -13422 14564 0
-14565 13415 0
-14565 13435 0
-13415 -13435 14565 0
-14566 13416 0
-14566 13448 0
-13416 -13448 14566 0
-14567 13417 0
-14567 13461 0
-13417 -13461 14567 0
-14568 13418 0
-14568 13474 0
-13418 -13474 14568 0
-14569 13419 0
-14569 13487 0
-13419 -13487 14569 0
-14570 13420 0
-14570 13500 0
-13420 -13500 14570 0
-14558 -14559 0
-14558 -14560 0
-14558 -14561 0
-14558 -14562 0
-14558 -14563 0
-14558 -14564 0
-14558 -14565 0
-14558 -14566 0
-14558 -14567 0
-14558 -14568 0
-14558 -14569 0
-14558 -14570 0
-13409 14558 14559 14560 14561 14562 14563 14564 14565 14566 14567 14568 14569 14570 0
-14571 13410 0
-14572 13408 0
-14572 13333 0
-13408 -13333 14572 0
-14573 13409 0
-14573 13332 0
-13409 -13332 14573 0
-14574 13411 0
-14574 13371 0
-13411 -13371 14574 0
-14575 13412 0
-14575 13384 0
-13412 -13384 14575 0
-14576 13413 0
-14576 13397 0
-13413 -13397 14576 0
-14577 13414 0
-14577 13423 0
-13414 -13423 14577 0
-14578 13415 0
-14578 13436 0
-13415 -13436 14578 0
-14579 13416 0
-14579 13449 0
-13416 -13449 14579 0
-14580 13417 0
-14580 13462 0
-13417 -13462 14580 0
-14581 13418 0
-14581 13475 0
-13418 -13475 14581 0
-14582 13419 0
-14582 13488 0
-13419 -13488 14582 0
-14583 13420 0
-14583 13501 0
-13420 -13501 14583 0
-14571 -14572 0
-14571 -14573 0
-14571 -14574 0
-14571 -14575 0
-14571 -14576 0
-14571 -14577 0
-14571 -14578 0
-14571 -14579 0
-14571 -14580 0
-14571 -14581 0
-14571 -14582 0
-14571 -14583 0
-13410 14571 14572 14573 14574 14575 14576 14577 14578 14579 14580 14581 14582 14583 0
-14584 13411 0
-14585 13408 0
-14585 13335 0
-13408 -13335 14585 0
-14586 13409 0
-14586 13334 0
-13409 -13334 14586 0
-14587 13410 0
-14587 13358 0
-13410 -13358 14587 0
-14588 13412 0
-14588 13385 0
-13412 -13385 14588 0
-14589 13413 0
-14589 13398 0
-13413 -13398 14589 0
-14590 13414 0
-14590 13424 0
-13414 -13424 14590 0
-14591 13415 0
-14591 13437 0
-13415 -13437 14591 0
-14592 13416 0
-14592 13450 0
-13416 -13450 14592 0
-14593 13417 0
-14593 13463 0
-13417 -13463 14593 0
-14594 13418 0
-14594 13476 0
-13418 -13476 14594 0
-14595 13419 0
-14595 13489 0
-13419 -13489 14595 0
-14596 13420 0
-14596 13502 0
-13420 -13502 14596 0
-14584 -14585 0
-14584 -14586 0
-14584 -14587 0
-14584 -14588 0
-14584 -14589 0
-14584 -14590 0
-14584 -14591 0
-14584 -14592 0
-14584 -14593 0
-14584 -14594 0
-14584 -14595 0
-14584 -14596 0
-13411 14584 14585 14586 14587 14588 14589 14590 14591 14592 14593 14594 14595 14596 0
-14597 13412 0
-14598 13408 0
-14598 13337 0
-13408 -13337 14598 0
-14599 13409 0
-14599 13336 0
-13409 -13336 14599 0
-14600 13410 0
-14600 13359 0
-13410 -13359 14600 0
-14601 13411 0
-14601 13372 0
-13411 -13372 14601 0
-14602 13413 0
-14602 13399 0
-13413 -13399 14602 0
-14603 13414 0
-14603 13425 0
-13414 -13425 14603 0
-14604 13415 0
-14604 13438 0
-13415 -13438 14604 0
-14605 13416 0
-14605 13451 0
-13416 -13451 14605 0
-14606 13417 0
-14606 13464 0
-13417 -13464 14606 0
-14607 13418 0
-14607 13477 0
-13418 -13477 14607 0
-14608 13419 0
-14608 13490 0
-13419 -13490 14608 0
-14609 13420 0
-14609 13503 0
-13420 -13503 14609 0
-14597 -14598 0
-14597 -14599 0
-14597 -14600 0
-14597 -14601 0
-14597 -14602 0
-14597 -14603 0
-14597 -14604 0
-14597 -14605 0
-14597 -14606 0
-14597 -14607 0
-14597 -14608 0
-14597 -14609 0
-13412 14597 14598 14599 14600 14601 14602 14603 14604 14605 14606 14607 14608 14609 0
-14610 13413 0
-14611 13408 0
-14611 13339 0
-13408 -13339 14611 0
-14612 13409 0
-14612 13338 0
-13409 -13338 14612 0
-14613 13410 0
-14613 13360 0
-13410 -13360 14613 0
-14614 13411 0
-14614 13373 0
-13411 -13373 14614 0
-14615 13412 0
-14615 13386 0
-13412 -13386 14615 0
-14616 13414 0
-14616 13426 0
-13414 -13426 14616 0
-14617 13415 0
-14617 13439 0
-13415 -13439 14617 0
-14618 13416 0
-14618 13452 0
-13416 -13452 14618 0
-14619 13417 0
-14619 13465 0
-13417 -13465 14619 0
-14620 13418 0
-14620 13478 0
-13418 -13478 14620 0
-14621 13419 0
-14621 13491 0
-13419 -13491 14621 0
-14622 13420 0
-14622 13504 0
-13420 -13504 14622 0
-14610 -14611 0
-14610 -14612 0
-14610 -14613 0
-14610 -14614 0
-14610 -14615 0
-14610 -14616 0
-14610 -14617 0
-14610 -14618 0
-14610 -14619 0
-14610 -14620 0
-14610 -14621 0
-14610 -14622 0
-13413 14610 14611 14612 14613 14614 14615 14616 14617 14618 14619 14620 14621 14622 0
-14623 0
-14624 13414 0
-14625 13408 0
-14625 13343 0
-13408 -13343 14625 0
-14626 13409 0
-14626 13342 0
-13409 -13342 14626 0
-14627 13410 0
-14627 13362 0
-13410 -13362 14627 0
-14628 13411 0
-14628 13375 0
-13411 -13375 14628 0
-14629 13412 0
-14629 13388 0
-13412 -13388 14629 0
-14630 13413 0
-14630 13401 0
-13413 -13401 14630 0
-14631 13415 0
-14631 13441 0
-13415 -13441 14631 0
-14632 13416 0
-14632 13454 0
-13416 -13454 14632 0
-14633 13417 0
-14633 13467 0
-13417 -13467 14633 0
-14634 13418 0
-14634 13480 0
-13418 -13480 14634 0
-14635 13419 0
-14635 13493 0
-13419 -13493 14635 0
-14636 13420 0
-14636 13506 0
-13420 -13506 14636 0
-14624 -14625 0
-14624 -14626 0
-14624 -14627 0
-14624 -14628 0
-14624 -14629 0
-14624 -14630 0
-14624 -14631 0
-14624 -14632 0
-14624 -14633 0
-14624 -14634 0
-14624 -14635 0
-14624 -14636 0
-13414 14624 14625 14626 14627 14628 14629 14630 14631 14632 14633 14634 14635 14636 0
-14637 13415 0
-14638 13408 0
-14638 13345 0
-13408 -13345 14638 0
-14639 13409 0
-14639 13344 0
-13409 -13344 14639 0
-14640 13410 0
-14640 13363 0
-13410 -13363 14640 0
-14641 13411 0
-14641 13376 0
-13411 -13376 14641 0
-14642 13412 0
-14642 13389 0
-13412 -13389 14642 0
-14643 13413 0
-14643 13402 0
-13413 -13402 14643 0
-14644 13414 0
-14644 13428 0
-13414 -13428 14644 0
-14645 13416 0
-14645 13455 0
-13416 -13455 14645 0
-14646 13417 0
-14646 13468 0
-13417 -13468 14646 0
-14647 13418 0
-14647 13481 0
-13418 -13481 14647 0
-14648 13419 0
-14648 13494 0
-13419 -13494 14648 0
-14649 13420 0
-14649 13507 0
-13420 -13507 14649 0
-14637 -14638 0
-14637 -14639 0
-14637 -14640 0
-14637 -14641 0
-14637 -14642 0
-14637 -14643 0
-14637 -14644 0
-14637 -14645 0
-14637 -14646 0
-14637 -14647 0
-14637 -14648 0
-14637 -14649 0
-13415 14637 14638 14639 14640 14641 14642 14643 14644 14645 14646 14647 14648 14649 0
-14650 13416 0
-14651 13408 0
-14651 13347 0
-13408 -13347 14651 0
-14652 13409 0
-14652 13346 0
-13409 -13346 14652 0
-14653 13410 0
-14653 13364 0
-13410 -13364 14653 0
-14654 13411 0
-14654 13377 0
-13411 -13377 14654 0
-14655 13412 0
-14655 13390 0
-13412 -13390 14655 0
-14656 13413 0
-14656 13403 0
-13413 -13403 14656 0
-14657 13414 0
-14657 13429 0
-13414 -13429 14657 0
-14658 13415 0
-14658 13442 0
-13415 -13442 14658 0
-14659 13417 0
-14659 13469 0
-13417 -13469 14659 0
-14660 13418 0
-14660 13482 0
-13418 -13482 14660 0
-14661 13419 0
-14661 13495 0
-13419 -13495 14661 0
-14662 13420 0
-14662 13508 0
-13420 -13508 14662 0
-14650 -14651 0
-14650 -14652 0
-14650 -14653 0
-14650 -14654 0
-14650 -14655 0
-14650 -14656 0
-14650 -14657 0
-14650 -14658 0
-14650 -14659 0
-14650 -14660 0
-14650 -14661 0
-14650 -14662 0
-13416 14650 14651 14652 14653 14654 14655 14656 14657 14658 14659 14660 14661 14662 0
-14663 13417 0
-14664 13408 0
-14664 13349 0
-13408 -13349 14664 0
-14665 13409 0
-14665 13348 0
-13409 -13348 14665 0
-14666 13410 0
-14666 13365 0
-13410 -13365 14666 0
-14667 13411 0
-14667 13378 0
-13411 -13378 14667 0
-14668 13412 0
-14668 13391 0
-13412 -13391 14668 0
-14669 13413 0
-14669 13404 0
-13413 -13404 14669 0
-14670 13414 0
-14670 13430 0
-13414 -13430 14670 0
-14671 13415 0
-14671 13443 0
-13415 -13443 14671 0
-14672 13416 0
-14672 13456 0
-13416 -13456 14672 0
-14673 13418 0
-14673 13483 0
-13418 -13483 14673 0
-14674 13419 0
-14674 13496 0
-13419 -13496 14674 0
-14675 13420 0
-14675 13509 0
-13420 -13509 14675 0
-14663 -14664 0
-14663 -14665 0
-14663 -14666 0
-14663 -14667 0
-14663 -14668 0
-14663 -14669 0
-14663 -14670 0
-14663 -14671 0
-14663 -14672 0
-14663 -14673 0
-14663 -14674 0
-14663 -14675 0
-13417 14663 14664 14665 14666 14667 14668 14669 14670 14671 14672 14673 14674 14675 0
-14676 13418 0
-14677 13408 0
-14677 13351 0
-13408 -13351 14677 0
-14678 13409 0
-14678 13350 0
-13409 -13350 14678 0
-14679 13410 0
-14679 13366 0
-13410 -13366 14679 0
-14680 13411 0
-14680 13379 0
-13411 -13379 14680 0
-14681 13412 0
-14681 13392 0
-13412 -13392 14681 0
-14682 13413 0
-14682 13405 0
-13413 -13405 14682 0
-14683 13414 0
-14683 13431 0
-13414 -13431 14683 0
-14684 13415 0
-14684 13444 0
-13415 -13444 14684 0
-14685 13416 0
-14685 13457 0
-13416 -13457 14685 0
-14686 13417 0
-14686 13470 0
-13417 -13470 14686 0
-14687 13419 0
-14687 13497 0
-13419 -13497 14687 0
-14688 13420 0
-14688 13510 0
-13420 -13510 14688 0
-14676 -14677 0
-14676 -14678 0
-14676 -14679 0
-14676 -14680 0
-14676 -14681 0
-14676 -14682 0
-14676 -14683 0
-14676 -14684 0
-14676 -14685 0
-14676 -14686 0
-14676 -14687 0
-14676 -14688 0
-13418 14676 14677 14678 14679 14680 14681 14682 14683 14684 14685 14686 14687 14688 0
-14689 13419 0
-14690 13408 0
-14690 13353 0
-13408 -13353 14690 0
-14691 13409 0
-14691 13352 0
-13409 -13352 14691 0
-14692 13410 0
-14692 13367 0
-13410 -13367 14692 0
-14693 13411 0
-14693 13380 0
-13411 -13380 14693 0
-14694 13412 0
-14694 13393 0
-13412 -13393 14694 0
-14695 13413 0
-14695 13406 0
-13413 -13406 14695 0
-14696 13414 0
-14696 13432 0
-13414 -13432 14696 0
-14697 13415 0
-14697 13445 0
-13415 -13445 14697 0
-14698 13416 0
-14698 13458 0
-13416 -13458 14698 0
-14699 13417 0
-14699 13471 0
-13417 -13471 14699 0
-14700 13418 0
-14700 13484 0
-13418 -13484 14700 0
-14701 13420 0
-14701 13511 0
-13420 -13511 14701 0
-14689 -14690 0
-14689 -14691 0
-14689 -14692 0
-14689 -14693 0
-14689 -14694 0
-14689 -14695 0
-14689 -14696 0
-14689 -14697 0
-14689 -14698 0
-14689 -14699 0
-14689 -14700 0
-14689 -14701 0
-13419 14689 14690 14691 14692 14693 14694 14695 14696 14697 14698 14699 14700 14701 0
-14702 13420 0
-14703 13408 0
-14703 13355 0
-13408 -13355 14703 0
-14704 13409 0
-14704 13354 0
-13409 -13354 14704 0
-14705 13410 0
-14705 13368 0
-13410 -13368 14705 0
-14706 13411 0
-14706 13381 0
-13411 -13381 14706 0
-14707 13412 0
-14707 13394 0
-13412 -13394 14707 0
-14708 13413 0
-14708 13407 0
-13413 -13407 14708 0
-14709 13414 0
-14709 13433 0
-13414 -13433 14709 0
-14710 13415 0
-14710 13446 0
-13415 -13446 14710 0
-14711 13416 0
-14711 13459 0
-13416 -13459 14711 0
-14712 13417 0
-14712 13472 0
-13417 -13472 14712 0
-14713 13418 0
-14713 13485 0
-13418 -13485 14713 0
-14714 13419 0
-14714 13498 0
-13419 -13498 14714 0
-14702 -14703 0
-14702 -14704 0
-14702 -14705 0
-14702 -14706 0
-14702 -14707 0
-14702 -14708 0
-14702 -14709 0
-14702 -14710 0
-14702 -14711 0
-14702 -14712 0
-14702 -14713 0
-14702 -14714 0
-13420 14702 14703 14704 14705 14706 14707 14708 14709 14710 14711 14712 14713 14714 0
-14715 13421 0
-14716 13422 0
-14716 13331 0
-13422 -13331 14716 0
-14717 13423 0
-14717 13356 0
-13423 -13356 14717 0
-14718 13424 0
-14718 13369 0
-13424 -13369 14718 0
-14719 13425 0
-14719 13382 0
-13425 -13382 14719 0
-14720 13426 0
-14720 13395 0
-13426 -13395 14720 0
-14721 13427 0
-14721 13408 0
-13427 -13408 14721 0
-14722 13428 0
-14722 13434 0
-13428 -13434 14722 0
-14723 13429 0
-14723 13447 0
-13429 -13447 14723 0
-14724 13430 0
-14724 13460 0
-13430 -13460 14724 0
-14725 13431 0
-14725 13473 0
-13431 -13473 14725 0
-14726 13432 0
-14726 13486 0
-13432 -13486 14726 0
-14727 13433 0
-14727 13499 0
-13433 -13499 14727 0
-14715 -14716 0
-14715 -14717 0
-14715 -14718 0
-14715 -14719 0
-14715 -14720 0
-14715 -14721 0
-14715 -14722 0
-14715 -14723 0
-14715 -14724 0
-14715 -14725 0
-14715 -14726 0
-14715 -14727 0
-13421 14715 14716 14717 14718 14719 14720 14721 14722 14723 14724 14725 14726 14727 0
-14728 13422 0
-14729 13421 0
-14729 13330 0
-13421 -13330 14729 0
-14730 13423 0
-14730 13357 0
-13423 -13357 14730 0
-14731 13424 0
-14731 13370 0
-13424 -13370 14731 0
-14732 13425 0
-14732 13383 0
-13425 -13383 14732 0
-14733 13426 0
-14733 13396 0
-13426 -13396 14733 0
-14734 13427 0
-14734 13409 0
-13427 -13409 14734 0
-14735 13428 0
-14735 13435 0
-13428 -13435 14735 0
-14736 13429 0
-14736 13448 0
-13429 -13448 14736 0
-14737 13430 0
-14737 13461 0
-13430 -13461 14737 0
-14738 13431 0
-14738 13474 0
-13431 -13474 14738 0
-14739 13432 0
-14739 13487 0
-13432 -13487 14739 0
-14740 13433 0
-14740 13500 0
-13433 -13500 14740 0
-14728 -14729 0
-14728 -14730 0
-14728 -14731 0
-14728 -14732 0
-14728 -14733 0
-14728 -14734 0
-14728 -14735 0
-14728 -14736 0
-14728 -14737 0
-14728 -14738 0
-14728 -14739 0
-14728 -14740 0
-13422 14728 14729 14730 14731 14732 14733 14734 14735 14736 14737 14738 14739 14740 0
-14741 13423 0
-14742 13421 0
-14742 13333 0
-13421 -13333 14742 0
-14743 13422 0
-14743 13332 0
-13422 -13332 14743 0
-14744 13424 0
-14744 13371 0
-13424 -13371 14744 0
-14745 13425 0
-14745 13384 0
-13425 -13384 14745 0
-14746 13426 0
-14746 13397 0
-13426 -13397 14746 0
-14747 13427 0
-14747 13410 0
-13427 -13410 14747 0
-14748 13428 0
-14748 13436 0
-13428 -13436 14748 0
-14749 13429 0
-14749 13449 0
-13429 -13449 14749 0
-14750 13430 0
-14750 13462 0
-13430 -13462 14750 0
-14751 13431 0
-14751 13475 0
-13431 -13475 14751 0
-14752 13432 0
-14752 13488 0
-13432 -13488 14752 0
-14753 13433 0
-14753 13501 0
-13433 -13501 14753 0
-14741 -14742 0
-14741 -14743 0
-14741 -14744 0
-14741 -14745 0
-14741 -14746 0
-14741 -14747 0
-14741 -14748 0
-14741 -14749 0
-14741 -14750 0
-14741 -14751 0
-14741 -14752 0
-14741 -14753 0
-13423 14741 14742 14743 14744 14745 14746 14747 14748 14749 14750 14751 14752 14753 0
-14754 13424 0
-14755 13421 0
-14755 13335 0
-13421 -13335 14755 0
-14756 13422 0
-14756 13334 0
-13422 -13334 14756 0
-14757 13423 0
-14757 13358 0
-13423 -13358 14757 0
-14758 13425 0
-14758 13385 0
-13425 -13385 14758 0
-14759 13426 0
-14759 13398 0
-13426 -13398 14759 0
-14760 13427 0
-14760 13411 0
-13427 -13411 14760 0
-14761 13428 0
-14761 13437 0
-13428 -13437 14761 0
-14762 13429 0
-14762 13450 0
-13429 -13450 14762 0
-14763 13430 0
-14763 13463 0
-13430 -13463 14763 0
-14764 13431 0
-14764 13476 0
-13431 -13476 14764 0
-14765 13432 0
-14765 13489 0
-13432 -13489 14765 0
-14766 13433 0
-14766 13502 0
-13433 -13502 14766 0
-14754 -14755 0
-14754 -14756 0
-14754 -14757 0
-14754 -14758 0
-14754 -14759 0
-14754 -14760 0
-14754 -14761 0
-14754 -14762 0
-14754 -14763 0
-14754 -14764 0
-14754 -14765 0
-14754 -14766 0
-13424 14754 14755 14756 14757 14758 14759 14760 14761 14762 14763 14764 14765 14766 0
-14767 13425 0
-14768 13421 0
-14768 13337 0
-13421 -13337 14768 0
-14769 13422 0
-14769 13336 0
-13422 -13336 14769 0
-14770 13423 0
-14770 13359 0
-13423 -13359 14770 0
-14771 13424 0
-14771 13372 0
-13424 -13372 14771 0
-14772 13426 0
-14772 13399 0
-13426 -13399 14772 0
-14773 13427 0
-14773 13412 0
-13427 -13412 14773 0
-14774 13428 0
-14774 13438 0
-13428 -13438 14774 0
-14775 13429 0
-14775 13451 0
-13429 -13451 14775 0
-14776 13430 0
-14776 13464 0
-13430 -13464 14776 0
-14777 13431 0
-14777 13477 0
-13431 -13477 14777 0
-14778 13432 0
-14778 13490 0
-13432 -13490 14778 0
-14779 13433 0
-14779 13503 0
-13433 -13503 14779 0
-14767 -14768 0
-14767 -14769 0
-14767 -14770 0
-14767 -14771 0
-14767 -14772 0
-14767 -14773 0
-14767 -14774 0
-14767 -14775 0
-14767 -14776 0
-14767 -14777 0
-14767 -14778 0
-14767 -14779 0
-13425 14767 14768 14769 14770 14771 14772 14773 14774 14775 14776 14777 14778 14779 0
-14780 13426 0
-14781 13421 0
-14781 13339 0
-13421 -13339 14781 0
-14782 13422 0
-14782 13338 0
-13422 -13338 14782 0
-14783 13423 0
-14783 13360 0
-13423 -13360 14783 0
-14784 13424 0
-14784 13373 0
-13424 -13373 14784 0
-14785 13425 0
-14785 13386 0
-13425 -13386 14785 0
-14786 13427 0
-14786 13413 0
-13427 -13413 14786 0
-14787 13428 0
-14787 13439 0
-13428 -13439 14787 0
-14788 13429 0
-14788 13452 0
-13429 -13452 14788 0
-14789 13430 0
-14789 13465 0
-13430 -13465 14789 0
-14790 13431 0
-14790 13478 0
-13431 -13478 14790 0
-14791 13432 0
-14791 13491 0
-13432 -13491 14791 0
-14792 13433 0
-14792 13504 0
-13433 -13504 14792 0
-14780 -14781 0
-14780 -14782 0
-14780 -14783 0
-14780 -14784 0
-14780 -14785 0
-14780 -14786 0
-14780 -14787 0
-14780 -14788 0
-14780 -14789 0
-14780 -14790 0
-14780 -14791 0
-14780 -14792 0
-13426 14780 14781 14782 14783 14784 14785 14786 14787 14788 14789 14790 14791 14792 0
-14793 13427 0
-14794 13421 0
-14794 13341 0
-13421 -13341 14794 0
-14795 13422 0
-14795 13340 0
-13422 -13340 14795 0
-14796 13423 0
-14796 13361 0
-13423 -13361 14796 0
-14797 13424 0
-14797 13374 0
-13424 -13374 14797 0
-14798 13425 0
-14798 13387 0
-13425 -13387 14798 0
-14799 13426 0
-14799 13400 0
-13426 -13400 14799 0
-14800 13428 0
-14800 13440 0
-13428 -13440 14800 0
-14801 13429 0
-14801 13453 0
-13429 -13453 14801 0
-14802 13430 0
-14802 13466 0
-13430 -13466 14802 0
-14803 13431 0
-14803 13479 0
-13431 -13479 14803 0
-14804 13432 0
-14804 13492 0
-13432 -13492 14804 0
-14805 13433 0
-14805 13505 0
-13433 -13505 14805 0
-14793 -14794 0
-14793 -14795 0
-14793 -14796 0
-14793 -14797 0
-14793 -14798 0
-14793 -14799 0
-14793 -14800 0
-14793 -14801 0
-14793 -14802 0
-14793 -14803 0
-14793 -14804 0
-14793 -14805 0
-13427 14793 14794 14795 14796 14797 14798 14799 14800 14801 14802 14803 14804 14805 0
-14806 0
-14807 13428 0
-14808 13421 0
-14808 13345 0
-13421 -13345 14808 0
-14809 13422 0
-14809 13344 0
-13422 -13344 14809 0
-14810 13423 0
-14810 13363 0
-13423 -13363 14810 0
-14811 13424 0
-14811 13376 0
-13424 -13376 14811 0
-14812 13425 0
-14812 13389 0
-13425 -13389 14812 0
-14813 13426 0
-14813 13402 0
-13426 -13402 14813 0
-14814 13427 0
-14814 13415 0
-13427 -13415 14814 0
-14815 13429 0
-14815 13455 0
-13429 -13455 14815 0
-14816 13430 0
-14816 13468 0
-13430 -13468 14816 0
-14817 13431 0
-14817 13481 0
-13431 -13481 14817 0
-14818 13432 0
-14818 13494 0
-13432 -13494 14818 0
-14819 13433 0
-14819 13507 0
-13433 -13507 14819 0
-14807 -14808 0
-14807 -14809 0
-14807 -14810 0
-14807 -14811 0
-14807 -14812 0
-14807 -14813 0
-14807 -14814 0
-14807 -14815 0
-14807 -14816 0
-14807 -14817 0
-14807 -14818 0
-14807 -14819 0
-13428 14807 14808 14809 14810 14811 14812 14813 14814 14815 14816 14817 14818 14819 0
-14820 13429 0
-14821 13421 0
-14821 13347 0
-13421 -13347 14821 0
-14822 13422 0
-14822 13346 0
-13422 -13346 14822 0
-14823 13423 0
-14823 13364 0
-13423 -13364 14823 0
-14824 13424 0
-14824 13377 0
-13424 -13377 14824 0
-14825 13425 0
-14825 13390 0
-13425 -13390 14825 0
-14826 13426 0
-14826 13403 0
-13426 -13403 14826 0
-14827 13427 0
-14827 13416 0
-13427 -13416 14827 0
-14828 13428 0
-14828 13442 0
-13428 -13442 14828 0
-14829 13430 0
-14829 13469 0
-13430 -13469 14829 0
-14830 13431 0
-14830 13482 0
-13431 -13482 14830 0
-14831 13432 0
-14831 13495 0
-13432 -13495 14831 0
-14832 13433 0
-14832 13508 0
-13433 -13508 14832 0
-14820 -14821 0
-14820 -14822 0
-14820 -14823 0
-14820 -14824 0
-14820 -14825 0
-14820 -14826 0
-14820 -14827 0
-14820 -14828 0
-14820 -14829 0
-14820 -14830 0
-14820 -14831 0
-14820 -14832 0
-13429 14820 14821 14822 14823 14824 14825 14826 14827 14828 14829 14830 14831 14832 0
-14833 13430 0
-14834 13421 0
-14834 13349 0
-13421 -13349 14834 0
-14835 13422 0
-14835 13348 0
-13422 -13348 14835 0
-14836 13423 0
-14836 13365 0
-13423 -13365 14836 0
-14837 13424 0
-14837 13378 0
-13424 -13378 14837 0
-14838 13425 0
-14838 13391 0
-13425 -13391 14838 0
-14839 13426 0
-14839 13404 0
-13426 -13404 14839 0
-14840 13427 0
-14840 13417 0
-13427 -13417 14840 0
-14841 13428 0
-14841 13443 0
-13428 -13443 14841 0
-14842 13429 0
-14842 13456 0
-13429 -13456 14842 0
-14843 13431 0
-14843 13483 0
-13431 -13483 14843 0
-14844 13432 0
-14844 13496 0
-13432 -13496 14844 0
-14845 13433 0
-14845 13509 0
-13433 -13509 14845 0
-14833 -14834 0
-14833 -14835 0
-14833 -14836 0
-14833 -14837 0
-14833 -14838 0
-14833 -14839 0
-14833 -14840 0
-14833 -14841 0
-14833 -14842 0
-14833 -14843 0
-14833 -14844 0
-14833 -14845 0
-13430 14833 14834 14835 14836 14837 14838 14839 14840 14841 14842 14843 14844 14845 0
-14846 13431 0
-14847 13421 0
-14847 13351 0
-13421 -13351 14847 0
-14848 13422 0
-14848 13350 0
-13422 -13350 14848 0
-14849 13423 0
-14849 13366 0
-13423 -13366 14849 0
-14850 13424 0
-14850 13379 0
-13424 -13379 14850 0
-14851 13425 0
-14851 13392 0
-13425 -13392 14851 0
-14852 13426 0
-14852 13405 0
-13426 -13405 14852 0
-14853 13427 0
-14853 13418 0
-13427 -13418 14853 0
-14854 13428 0
-14854 13444 0
-13428 -13444 14854 0
-14855 13429 0
-14855 13457 0
-13429 -13457 14855 0
-14856 13430 0
-14856 13470 0
-13430 -13470 14856 0
-14857 13432 0
-14857 13497 0
-13432 -13497 14857 0
-14858 13433 0
-14858 13510 0
-13433 -13510 14858 0
-14846 -14847 0
-14846 -14848 0
-14846 -14849 0
-14846 -14850 0
-14846 -14851 0
-14846 -14852 0
-14846 -14853 0
-14846 -14854 0
-14846 -14855 0
-14846 -14856 0
-14846 -14857 0
-14846 -14858 0
-13431 14846 14847 14848 14849 14850 14851 14852 14853 14854 14855 14856 14857 14858 0
-14859 13432 0
-14860 13421 0
-14860 13353 0
-13421 -13353 14860 0
-14861 13422 0
-14861 13352 0
-13422 -13352 14861 0
-14862 13423 0
-14862 13367 0
-13423 -13367 14862 0
-14863 13424 0
-14863 13380 0
-13424 -13380 14863 0
-14864 13425 0
-14864 13393 0
-13425 -13393 14864 0
-14865 13426 0
-14865 13406 0
-13426 -13406 14865 0
-14866 13427 0
-14866 13419 0
-13427 -13419 14866 0
-14867 13428 0
-14867 13445 0
-13428 -13445 14867 0
-14868 13429 0
-14868 13458 0
-13429 -13458 14868 0
-14869 13430 0
-14869 13471 0
-13430 -13471 14869 0
-14870 13431 0
-14870 13484 0
-13431 -13484 14870 0
-14871 13433 0
-14871 13511 0
-13433 -13511 14871 0
-14859 -14860 0
-14859 -14861 0
-14859 -14862 0
-14859 -14863 0
-14859 -14864 0
-14859 -14865 0
-14859 -14866 0
-14859 -14867 0
-14859 -14868 0
-14859 -14869 0
-14859 -14870 0
-14859 -14871 0
-13432 14859 14860 14861 14862 14863 14864 14865 14866 14867 14868 14869 14870 14871 0
-14872 13433 0
-14873 13421 0
-14873 13355 0
-13421 -13355 14873 0
-14874 13422 0
-14874 13354 0
-13422 -13354 14874 0
-14875 13423 0
-14875 13368 0
-13423 -13368 14875 0
-14876 13424 0
-14876 13381 0
-13424 -13381 14876 0
-14877 13425 0
-14877 13394 0
-13425 -13394 14877 0
-14878 13426 0
-14878 13407 0
-13426 -13407 14878 0
-14879 13427 0
-14879 13420 0
-13427 -13420 14879 0
-14880 13428 0
-14880 13446 0
-13428 -13446 14880 0
-14881 13429 0
-14881 13459 0
-13429 -13459 14881 0
-14882 13430 0
-14882 13472 0
-13430 -13472 14882 0
-14883 13431 0
-14883 13485 0
-13431 -13485 14883 0
-14884 13432 0
-14884 13498 0
-13432 -13498 14884 0
-14872 -14873 0
-14872 -14874 0
-14872 -14875 0
-14872 -14876 0
-14872 -14877 0
-14872 -14878 0
-14872 -14879 0
-14872 -14880 0
-14872 -14881 0
-14872 -14882 0
-14872 -14883 0
-14872 -14884 0
-13433 14872 14873 14874 14875 14876 14877 14878 14879 14880 14881 14882 14883 14884 0
-14885 13434 0
-14886 13435 0
-14886 13331 0
-13435 -13331 14886 0
-14887 13436 0
-14887 13356 0
-13436 -13356 14887 0
-14888 13437 0
-14888 13369 0
-13437 -13369 14888 0
-14889 13438 0
-14889 13382 0
-13438 -13382 14889 0
-14890 13439 0
-14890 13395 0
-13439 -13395 14890 0
-14891 13440 0
-14891 13408 0
-13440 -13408 14891 0
-14892 13441 0
-14892 13421 0
-13441 -13421 14892 0
-14893 13442 0
-14893 13447 0
-13442 -13447 14893 0
-14894 13443 0
-14894 13460 0
-13443 -13460 14894 0
-14895 13444 0
-14895 13473 0
-13444 -13473 14895 0
-14896 13445 0
-14896 13486 0
-13445 -13486 14896 0
-14897 13446 0
-14897 13499 0
-13446 -13499 14897 0
-14885 -14886 0
-14885 -14887 0
-14885 -14888 0
-14885 -14889 0
-14885 -14890 0
-14885 -14891 0
-14885 -14892 0
-14885 -14893 0
-14885 -14894 0
-14885 -14895 0
-14885 -14896 0
-14885 -14897 0
-13434 14885 14886 14887 14888 14889 14890 14891 14892 14893 14894 14895 14896 14897 0
-14898 13435 0
-14899 13434 0
-14899 13330 0
-13434 -13330 14899 0
-14900 13436 0
-14900 13357 0
-13436 -13357 14900 0
-14901 13437 0
-14901 13370 0
-13437 -13370 14901 0
-14902 13438 0
-14902 13383 0
-13438 -13383 14902 0
-14903 13439 0
-14903 13396 0
-13439 -13396 14903 0
-14904 13440 0
-14904 13409 0
-13440 -13409 14904 0
-14905 13441 0
-14905 13422 0
-13441 -13422 14905 0
-14906 13442 0
-14906 13448 0
-13442 -13448 14906 0
-14907 13443 0
-14907 13461 0
-13443 -13461 14907 0
-14908 13444 0
-14908 13474 0
-13444 -13474 14908 0
-14909 13445 0
-14909 13487 0
-13445 -13487 14909 0
-14910 13446 0
-14910 13500 0
-13446 -13500 14910 0
-14898 -14899 0
-14898 -14900 0
-14898 -14901 0
-14898 -14902 0
-14898 -14903 0
-14898 -14904 0
-14898 -14905 0
-14898 -14906 0
-14898 -14907 0
-14898 -14908 0
-14898 -14909 0
-14898 -14910 0
-13435 14898 14899 14900 14901 14902 14903 14904 14905 14906 14907 14908 14909 14910 0
-14911 13436 0
-14912 13434 0
-14912 13333 0
-13434 -13333 14912 0
-14913 13435 0
-14913 13332 0
-13435 -13332 14913 0
-14914 13437 0
-14914 13371 0
-13437 -13371 14914 0
-14915 13438 0
-14915 13384 0
-13438 -13384 14915 0
-14916 13439 0
-14916 13397 0
-13439 -13397 14916 0
-14917 13440 0
-14917 13410 0
-13440 -13410 14917 0
-14918 13441 0
-14918 13423 0
-13441 -13423 14918 0
-14919 13442 0
-14919 13449 0
-13442 -13449 14919 0
-14920 13443 0
-14920 13462 0
-13443 -13462 14920 0
-14921 13444 0
-14921 13475 0
-13444 -13475 14921 0
-14922 13445 0
-14922 13488 0
-13445 -13488 14922 0
-14923 13446 0
-14923 13501 0
-13446 -13501 14923 0
-14911 -14912 0
-14911 -14913 0
-14911 -14914 0
-14911 -14915 0
-14911 -14916 0
-14911 -14917 0
-14911 -14918 0
-14911 -14919 0
-14911 -14920 0
-14911 -14921 0
-14911 -14922 0
-14911 -14923 0
-13436 14911 14912 14913 14914 14915 14916 14917 14918 14919 14920 14921 14922 14923 0
-14924 13437 0
-14925 13434 0
-14925 13335 0
-13434 -13335 14925 0
-14926 13435 0
-14926 13334 0
-13435 -13334 14926 0
-14927 13436 0
-14927 13358 0
-13436 -13358 14927 0
-14928 13438 0
-14928 13385 0
-13438 -13385 14928 0
-14929 13439 0
-14929 13398 0
-13439 -13398 14929 0
-14930 13440 0
-14930 13411 0
-13440 -13411 14930 0
-14931 13441 0
-14931 13424 0
-13441 -13424 14931 0
-14932 13442 0
-14932 13450 0
-13442 -13450 14932 0
-14933 13443 0
-14933 13463 0
-13443 -13463 14933 0
-14934 13444 0
-14934 13476 0
-13444 -13476 14934 0
-14935 13445 0
-14935 13489 0
-13445 -13489 14935 0
-14936 13446 0
-14936 13502 0
-13446 -13502 14936 0
-14924 -14925 0
-14924 -14926 0
-14924 -14927 0
-14924 -14928 0
-14924 -14929 0
-14924 -14930 0
-14924 -14931 0
-14924 -14932 0
-14924 -14933 0
-14924 -14934 0
-14924 -14935 0
-14924 -14936 0
-13437 14924 14925 14926 14927 14928 14929 14930 14931 14932 14933 14934 14935 14936 0
-14937 13438 0
-14938 13434 0
-14938 13337 0
-13434 -13337 14938 0
-14939 13435 0
-14939 13336 0
-13435 -13336 14939 0
-14940 13436 0
-14940 13359 0
-13436 -13359 14940 0
-14941 13437 0
-14941 13372 0
-13437 -13372 14941 0
-14942 13439 0
-14942 13399 0
-13439 -13399 14942 0
-14943 13440 0
-14943 13412 0
-13440 -13412 14943 0
-14944 13441 0
-14944 13425 0
-13441 -13425 14944 0
-14945 13442 0
-14945 13451 0
-13442 -13451 14945 0
-14946 13443 0
-14946 13464 0
-13443 -13464 14946 0
-14947 13444 0
-14947 13477 0
-13444 -13477 14947 0
-14948 13445 0
-14948 13490 0
-13445 -13490 14948 0
-14949 13446 0
-14949 13503 0
-13446 -13503 14949 0
-14937 -14938 0
-14937 -14939 0
-14937 -14940 0
-14937 -14941 0
-14937 -14942 0
-14937 -14943 0
-14937 -14944 0
-14937 -14945 0
-14937 -14946 0
-14937 -14947 0
-14937 -14948 0
-14937 -14949 0
-13438 14937 14938 14939 14940 14941 14942 14943 14944 14945 14946 14947 14948 14949 0
-14950 13439 0
-14951 13434 0
-14951 13339 0
-13434 -13339 14951 0
-14952 13435 0
-14952 13338 0
-13435 -13338 14952 0
-14953 13436 0
-14953 13360 0
-13436 -13360 14953 0
-14954 13437 0
-14954 13373 0
-13437 -13373 14954 0
-14955 13438 0
-14955 13386 0
-13438 -13386 14955 0
-14956 13440 0
-14956 13413 0
-13440 -13413 14956 0
-14957 13441 0
-14957 13426 0
-13441 -13426 14957 0
-14958 13442 0
-14958 13452 0
-13442 -13452 14958 0
-14959 13443 0
-14959 13465 0
-13443 -13465 14959 0
-14960 13444 0
-14960 13478 0
-13444 -13478 14960 0
-14961 13445 0
-14961 13491 0
-13445 -13491 14961 0
-14962 13446 0
-14962 13504 0
-13446 -13504 14962 0
-14950 -14951 0
-14950 -14952 0
-14950 -14953 0
-14950 -14954 0
-14950 -14955 0
-14950 -14956 0
-14950 -14957 0
-14950 -14958 0
-14950 -14959 0
-14950 -14960 0
-14950 -14961 0
-14950 -14962 0
-13439 14950 14951 14952 14953 14954 14955 14956 14957 14958 14959 14960 14961 14962 0
-14963 13440 0
-14964 13434 0
-14964 13341 0
-13434 -13341 14964 0
-14965 13435 0
-14965 13340 0
-13435 -13340 14965 0
-14966 13436 0
-14966 13361 0
-13436 -13361 14966 0
-14967 13437 0
-14967 13374 0
-13437 -13374 14967 0
-14968 13438 0
-14968 13387 0
-13438 -13387 14968 0
-14969 13439 0
-14969 13400 0
-13439 -13400 14969 0
-14970 13441 0
-14970 13427 0
-13441 -13427 14970 0
-14971 13442 0
-14971 13453 0
-13442 -13453 14971 0
-14972 13443 0
-14972 13466 0
-13443 -13466 14972 0
-14973 13444 0
-14973 13479 0
-13444 -13479 14973 0
-14974 13445 0
-14974 13492 0
-13445 -13492 14974 0
-14975 13446 0
-14975 13505 0
-13446 -13505 14975 0
-14963 -14964 0
-14963 -14965 0
-14963 -14966 0
-14963 -14967 0
-14963 -14968 0
-14963 -14969 0
-14963 -14970 0
-14963 -14971 0
-14963 -14972 0
-14963 -14973 0
-14963 -14974 0
-14963 -14975 0
-13440 14963 14964 14965 14966 14967 14968 14969 14970 14971 14972 14973 14974 14975 0
-14976 13441 0
-14977 13434 0
-14977 13343 0
-13434 -13343 14977 0
-14978 13435 0
-14978 13342 0
-13435 -13342 14978 0
-14979 13436 0
-14979 13362 0
-13436 -13362 14979 0
-14980 13437 0
-14980 13375 0
-13437 -13375 14980 0
-14981 13438 0
-14981 13388 0
-13438 -13388 14981 0
-14982 13439 0
-14982 13401 0
-13439 -13401 14982 0
-14983 13440 0
-14983 13414 0
-13440 -13414 14983 0
-14984 13442 0
-14984 13454 0
-13442 -13454 14984 0
-14985 13443 0
-14985 13467 0
-13443 -13467 14985 0
-14986 13444 0
-14986 13480 0
-13444 -13480 14986 0
-14987 13445 0
-14987 13493 0
-13445 -13493 14987 0
-14988 13446 0
-14988 13506 0
-13446 -13506 14988 0
-14976 -14977 0
-14976 -14978 0
-14976 -14979 0
-14976 -14980 0
-14976 -14981 0
-14976 -14982 0
-14976 -14983 0
-14976 -14984 0
-14976 -14985 0
-14976 -14986 0
-14976 -14987 0
-14976 -14988 0
-13441 14976 14977 14978 14979 14980 14981 14982 14983 14984 14985 14986 14987 14988 0
-14989 0
-14990 13442 0
-14991 13434 0
-14991 13347 0
-13434 -13347 14991 0
-14992 13435 0
-14992 13346 0
-13435 -13346 14992 0
-14993 13436 0
-14993 13364 0
-13436 -13364 14993 0
-14994 13437 0
-14994 13377 0
-13437 -13377 14994 0
-14995 13438 0
-14995 13390 0
-13438 -13390 14995 0
-14996 13439 0
-14996 13403 0
-13439 -13403 14996 0
-14997 13440 0
-14997 13416 0
-13440 -13416 14997 0
-14998 13441 0
-14998 13429 0
-13441 -13429 14998 0
-14999 13443 0
-14999 13469 0
-13443 -13469 14999 0
-15000 13444 0
-15000 13482 0
-13444 -13482 15000 0
-15001 13445 0
-15001 13495 0
-13445 -13495 15001 0
-15002 13446 0
-15002 13508 0
-13446 -13508 15002 0
-14990 -14991 0
-14990 -14992 0
-14990 -14993 0
-14990 -14994 0
-14990 -14995 0
-14990 -14996 0
-14990 -14997 0
-14990 -14998 0
-14990 -14999 0
-14990 -15000 0
-14990 -15001 0
-14990 -15002 0
-13442 14990 14991 14992 14993 14994 14995 14996 14997 14998 14999 15000 15001 15002 0
-15003 13443 0
-15004 13434 0
-15004 13349 0
-13434 -13349 15004 0
-15005 13435 0
-15005 13348 0
-13435 -13348 15005 0
-15006 13436 0
-15006 13365 0
-13436 -13365 15006 0
-15007 13437 0
-15007 13378 0
-13437 -13378 15007 0
-15008 13438 0
-15008 13391 0
-13438 -13391 15008 0
-15009 13439 0
-15009 13404 0
-13439 -13404 15009 0
-15010 13440 0
-15010 13417 0
-13440 -13417 15010 0
-15011 13441 0
-15011 13430 0
-13441 -13430 15011 0
-15012 13442 0
-15012 13456 0
-13442 -13456 15012 0
-15013 13444 0
-15013 13483 0
-13444 -13483 15013 0
-15014 13445 0
-15014 13496 0
-13445 -13496 15014 0
-15015 13446 0
-15015 13509 0
-13446 -13509 15015 0
-15003 -15004 0
-15003 -15005 0
-15003 -15006 0
-15003 -15007 0
-15003 -15008 0
-15003 -15009 0
-15003 -15010 0
-15003 -15011 0
-15003 -15012 0
-15003 -15013 0
-15003 -15014 0
-15003 -15015 0
-13443 15003 15004 15005 15006 15007 15008 15009 15010 15011 15012 15013 15014 15015 0
-15016 13444 0
-15017 13434 0
-15017 13351 0
-13434 -13351 15017 0
-15018 13435 0
-15018 13350 0
-13435 -13350 15018 0
-15019 13436 0
-15019 13366 0
-13436 -13366 15019 0
-15020 13437 0
-15020 13379 0
-13437 -13379 15020 0
-15021 13438 0
-15021 13392 0
-13438 -13392 15021 0
-15022 13439 0
-15022 13405 0
-13439 -13405 15022 0
-15023 13440 0
-15023 13418 0
-13440 -13418 15023 0
-15024 13441 0
-15024 13431 0
-13441 -13431 15024 0
-15025 13442 0
-15025 13457 0
-13442 -13457 15025 0
-15026 13443 0
-15026 13470 0
-13443 -13470 15026 0
-15027 13445 0
-15027 13497 0
-13445 -13497 15027 0
-15028 13446 0
-15028 13510 0
-13446 -13510 15028 0
-15016 -15017 0
-15016 -15018 0
-15016 -15019 0
-15016 -15020 0
-15016 -15021 0
-15016 -15022 0
-15016 -15023 0
-15016 -15024 0
-15016 -15025 0
-15016 -15026 0
-15016 -15027 0
-15016 -15028 0
-13444 15016 15017 15018 15019 15020 15021 15022 15023 15024 15025 15026 15027 15028 0
-15029 13445 0
-15030 13434 0
-15030 13353 0
-13434 -13353 15030 0
-15031 13435 0
-15031 13352 0
-13435 -13352 15031 0
-15032 13436 0
-15032 13367 0
-13436 -13367 15032 0
-15033 13437 0
-15033 13380 0
-13437 -13380 15033 0
-15034 13438 0
-15034 13393 0
-13438 -13393 15034 0
-15035 13439 0
-15035 13406 0
-13439 -13406 15035 0
-15036 13440 0
-15036 13419 0
-13440 -13419 15036 0
-15037 13441 0
-15037 13432 0
-13441 -13432 15037 0
-15038 13442 0
-15038 13458 0
-13442 -13458 15038 0
-15039 13443 0
-15039 13471 0
-13443 -13471 15039 0
-15040 13444 0
-15040 13484 0
-13444 -13484 15040 0
-15041 13446 0
-15041 13511 0
-13446 -13511 15041 0
-15029 -15030 0
-15029 -15031 0
-15029 -15032 0
-15029 -15033 0
-15029 -15034 0
-15029 -15035 0
-15029 -15036 0
-15029 -15037 0
-15029 -15038 0
-15029 -15039 0
-15029 -15040 0
-15029 -15041 0
-13445 15029 15030 15031 15032 15033 15034 15035 15036 15037 15038 15039 15040 15041 0
-15042 13446 0
-15043 13434 0
-15043 13355 0
-13434 -13355 15043 0
-15044 13435 0
-15044 13354 0
-13435 -13354 15044 0
-15045 13436 0
-15045 13368 0
-13436 -13368 15045 0
-15046 13437 0
-15046 13381 0
-13437 -13381 15046 0
-15047 13438 0
-15047 13394 0
-13438 -13394 15047 0
-15048 13439 0
-15048 13407 0
-13439 -13407 15048 0
-15049 13440 0
-15049 13420 0
-13440 -13420 15049 0
-15050 13441 0
-15050 13433 0
-13441 -13433 15050 0
-15051 13442 0
-15051 13459 0
-13442 -13459 15051 0
-15052 13443 0
-15052 13472 0
-13443 -13472 15052 0
-15053 13444 0
-15053 13485 0
-13444 -13485 15053 0
-15054 13445 0
-15054 13498 0
-13445 -13498 15054 0
-15042 -15043 0
-15042 -15044 0
-15042 -15045 0
-15042 -15046 0
-15042 -15047 0
-15042 -15048 0
-15042 -15049 0
-15042 -15050 0
-15042 -15051 0
-15042 -15052 0
-15042 -15053 0
-15042 -15054 0
-13446 15042 15043 15044 15045 15046 15047 15048 15049 15050 15051 15052 15053 15054 0
-15055 13447 0
-15056 13448 0
-15056 13331 0
-13448 -13331 15056 0
-15057 13449 0
-15057 13356 0
-13449 -13356 15057 0
-15058 13450 0
-15058 13369 0
-13450 -13369 15058 0
-15059 13451 0
-15059 13382 0
-13451 -13382 15059 0
-15060 13452 0
-15060 13395 0
-13452 -13395 15060 0
-15061 13453 0
-15061 13408 0
-13453 -13408 15061 0
-15062 13454 0
-15062 13421 0
-13454 -13421 15062 0
-15063 13455 0
-15063 13434 0
-13455 -13434 15063 0
-15064 13456 0
-15064 13460 0
-13456 -13460 15064 0
-15065 13457 0
-15065 13473 0
-13457 -13473 15065 0
-15066 13458 0
-15066 13486 0
-13458 -13486 15066 0
-15067 13459 0
-15067 13499 0
-13459 -13499 15067 0
-15055 -15056 0
-15055 -15057 0
-15055 -15058 0
-15055 -15059 0
-15055 -15060 0
-15055 -15061 0
-15055 -15062 0
-15055 -15063 0
-15055 -15064 0
-15055 -15065 0
-15055 -15066 0
-15055 -15067 0
-13447 15055 15056 15057 15058 15059 15060 15061 15062 15063 15064 15065 15066 15067 0
-15068 13448 0
-15069 13447 0
-15069 13330 0
-13447 -13330 15069 0
-15070 13449 0
-15070 13357 0
-13449 -13357 15070 0
-15071 13450 0
-15071 13370 0
-13450 -13370 15071 0
-15072 13451 0
-15072 13383 0
-13451 -13383 15072 0
-15073 13452 0
-15073 13396 0
-13452 -13396 15073 0
-15074 13453 0
-15074 13409 0
-13453 -13409 15074 0
-15075 13454 0
-15075 13422 0
-13454 -13422 15075 0
-15076 13455 0
-15076 13435 0
-13455 -13435 15076 0
-15077 13456 0
-15077 13461 0
-13456 -13461 15077 0
-15078 13457 0
-15078 13474 0
-13457 -13474 15078 0
-15079 13458 0
-15079 13487 0
-13458 -13487 15079 0
-15080 13459 0
-15080 13500 0
-13459 -13500 15080 0
-15068 -15069 0
-15068 -15070 0
-15068 -15071 0
-15068 -15072 0
-15068 -15073 0
-15068 -15074 0
-15068 -15075 0
-15068 -15076 0
-15068 -15077 0
-15068 -15078 0
-15068 -15079 0
-15068 -15080 0
-13448 15068 15069 15070 15071 15072 15073 15074 15075 15076 15077 15078 15079 15080 0
-15081 13449 0
-15082 13447 0
-15082 13333 0
-13447 -13333 15082 0
-15083 13448 0
-15083 13332 0
-13448 -13332 15083 0
-15084 13450 0
-15084 13371 0
-13450 -13371 15084 0
-15085 13451 0
-15085 13384 0
-13451 -13384 15085 0
-15086 13452 0
-15086 13397 0
-13452 -13397 15086 0
-15087 13453 0
-15087 13410 0
-13453 -13410 15087 0
-15088 13454 0
-15088 13423 0
-13454 -13423 15088 0
-15089 13455 0
-15089 13436 0
-13455 -13436 15089 0
-15090 13456 0
-15090 13462 0
-13456 -13462 15090 0
-15091 13457 0
-15091 13475 0
-13457 -13475 15091 0
-15092 13458 0
-15092 13488 0
-13458 -13488 15092 0
-15093 13459 0
-15093 13501 0
-13459 -13501 15093 0
-15081 -15082 0
-15081 -15083 0
-15081 -15084 0
-15081 -15085 0
-15081 -15086 0
-15081 -15087 0
-15081 -15088 0
-15081 -15089 0
-15081 -15090 0
-15081 -15091 0
-15081 -15092 0
-15081 -15093 0
-13449 15081 15082 15083 15084 15085 15086 15087 15088 15089 15090 15091 15092 15093 0
-15094 13450 0
-15095 13447 0
-15095 13335 0
-13447 -13335 15095 0
-15096 13448 0
-15096 13334 0
-13448 -13334 15096 0
-15097 13449 0
-15097 13358 0
-13449 -13358 15097 0
-15098 13451 0
-15098 13385 0
-13451 -13385 15098 0
-15099 13452 0
-15099 13398 0
-13452 -13398 15099 0
-15100 13453 0
-15100 13411 0
-13453 -13411 15100 0
-15101 13454 0
-15101 13424 0
-13454 -13424 15101 0
-15102 13455 0
-15102 13437 0
-13455 -13437 15102 0
-15103 13456 0
-15103 13463 0
-13456 -13463 15103 0
-15104 13457 0
-15104 13476 0
-13457 -13476 15104 0
-15105 13458 0
-15105 13489 0
-13458 -13489 15105 0
-15106 13459 0
-15106 13502 0
-13459 -13502 15106 0
-15094 -15095 0
-15094 -15096 0
-15094 -15097 0
-15094 -15098 0
-15094 -15099 0
-15094 -15100 0
-15094 -15101 0
-15094 -15102 0
-15094 -15103 0
-15094 -15104 0
-15094 -15105 0
-15094 -15106 0
-13450 15094 15095 15096 15097 15098 15099 15100 15101 15102 15103 15104 15105 15106 0
-15107 13451 0
-15108 13447 0
-15108 13337 0
-13447 -13337 15108 0
-15109 13448 0
-15109 13336 0
-13448 -13336 15109 0
-15110 13449 0
-15110 13359 0
-13449 -13359 15110 0
-15111 13450 0
-15111 13372 0
-13450 -13372 15111 0
-15112 13452 0
-15112 13399 0
-13452 -13399 15112 0
-15113 13453 0
-15113 13412 0
-13453 -13412 15113 0
-15114 13454 0
-15114 13425 0
-13454 -13425 15114 0
-15115 13455 0
-15115 13438 0
-13455 -13438 15115 0
-15116 13456 0
-15116 13464 0
-13456 -13464 15116 0
-15117 13457 0
-15117 13477 0
-13457 -13477 15117 0
-15118 13458 0
-15118 13490 0
-13458 -13490 15118 0
-15119 13459 0
-15119 13503 0
-13459 -13503 15119 0
-15107 -15108 0
-15107 -15109 0
-15107 -15110 0
-15107 -15111 0
-15107 -15112 0
-15107 -15113 0
-15107 -15114 0
-15107 -15115 0
-15107 -15116 0
-15107 -15117 0
-15107 -15118 0
-15107 -15119 0
-13451 15107 15108 15109 15110 15111 15112 15113 15114 15115 15116 15117 15118 15119 0
-15120 13452 0
-15121 13447 0
-15121 13339 0
-13447 -13339 15121 0
-15122 13448 0
-15122 13338 0
-13448 -13338 15122 0
-15123 13449 0
-15123 13360 0
-13449 -13360 15123 0
-15124 13450 0
-15124 13373 0
-13450 -13373 15124 0
-15125 13451 0
-15125 13386 0
-13451 -13386 15125 0
-15126 13453 0
-15126 13413 0
-13453 -13413 15126 0
-15127 13454 0
-15127 13426 0
-13454 -13426 15127 0
-15128 13455 0
-15128 13439 0
-13455 -13439 15128 0
-15129 13456 0
-15129 13465 0
-13456 -13465 15129 0
-15130 13457 0
-15130 13478 0
-13457 -13478 15130 0
-15131 13458 0
-15131 13491 0
-13458 -13491 15131 0
-15132 13459 0
-15132 13504 0
-13459 -13504 15132 0
-15120 -15121 0
-15120 -15122 0
-15120 -15123 0
-15120 -15124 0
-15120 -15125 0
-15120 -15126 0
-15120 -15127 0
-15120 -15128 0
-15120 -15129 0
-15120 -15130 0
-15120 -15131 0
-15120 -15132 0
-13452 15120 15121 15122 15123 15124 15125 15126 15127 15128 15129 15130 15131 15132 0
-15133 13453 0
-15134 13447 0
-15134 13341 0
-13447 -13341 15134 0
-15135 13448 0
-15135 13340 0
-13448 -13340 15135 0
-15136 13449 0
-15136 13361 0
-13449 -13361 15136 0
-15137 13450 0
-15137 13374 0
-13450 -13374 15137 0
-15138 13451 0
-15138 13387 0
-13451 -13387 15138 0
-15139 13452 0
-15139 13400 0
-13452 -13400 15139 0
-15140 13454 0
-15140 13427 0
-13454 -13427 15140 0
-15141 13455 0
-15141 13440 0
-13455 -13440 15141 0
-15142 13456 0
-15142 13466 0
-13456 -13466 15142 0
-15143 13457 0
-15143 13479 0
-13457 -13479 15143 0
-15144 13458 0
-15144 13492 0
-13458 -13492 15144 0
-15145 13459 0
-15145 13505 0
-13459 -13505 15145 0
-15133 -15134 0
-15133 -15135 0
-15133 -15136 0
-15133 -15137 0
-15133 -15138 0
-15133 -15139 0
-15133 -15140 0
-15133 -15141 0
-15133 -15142 0
-15133 -15143 0
-15133 -15144 0
-15133 -15145 0
-13453 15133 15134 15135 15136 15137 15138 15139 15140 15141 15142 15143 15144 15145 0
-15146 13454 0
-15147 13447 0
-15147 13343 0
-13447 -13343 15147 0
-15148 13448 0
-15148 13342 0
-13448 -13342 15148 0
-15149 13449 0
-15149 13362 0
-13449 -13362 15149 0
-15150 13450 0
-15150 13375 0
-13450 -13375 15150 0
-15151 13451 0
-15151 13388 0
-13451 -13388 15151 0
-15152 13452 0
-15152 13401 0
-13452 -13401 15152 0
-15153 13453 0
-15153 13414 0
-13453 -13414 15153 0
-15154 13455 0
-15154 13441 0
-13455 -13441 15154 0
-15155 13456 0
-15155 13467 0
-13456 -13467 15155 0
-15156 13457 0
-15156 13480 0
-13457 -13480 15156 0
-15157 13458 0
-15157 13493 0
-13458 -13493 15157 0
-15158 13459 0
-15158 13506 0
-13459 -13506 15158 0
-15146 -15147 0
-15146 -15148 0
-15146 -15149 0
-15146 -15150 0
-15146 -15151 0
-15146 -15152 0
-15146 -15153 0
-15146 -15154 0
-15146 -15155 0
-15146 -15156 0
-15146 -15157 0
-15146 -15158 0
-13454 15146 15147 15148 15149 15150 15151 15152 15153 15154 15155 15156 15157 15158 0
-15159 13455 0
-15160 13447 0
-15160 13345 0
-13447 -13345 15160 0
-15161 13448 0
-15161 13344 0
-13448 -13344 15161 0
-15162 13449 0
-15162 13363 0
-13449 -13363 15162 0
-15163 13450 0
-15163 13376 0
-13450 -13376 15163 0
-15164 13451 0
-15164 13389 0
-13451 -13389 15164 0
-15165 13452 0
-15165 13402 0
-13452 -13402 15165 0
-15166 13453 0
-15166 13415 0
-13453 -13415 15166 0
-15167 13454 0
-15167 13428 0
-13454 -13428 15167 0
-15168 13456 0
-15168 13468 0
-13456 -13468 15168 0
-15169 13457 0
-15169 13481 0
-13457 -13481 15169 0
-15170 13458 0
-15170 13494 0
-13458 -13494 15170 0
-15171 13459 0
-15171 13507 0
-13459 -13507 15171 0
-15159 -15160 0
-15159 -15161 0
-15159 -15162 0
-15159 -15163 0
-15159 -15164 0
-15159 -15165 0
-15159 -15166 0
-15159 -15167 0
-15159 -15168 0
-15159 -15169 0
-15159 -15170 0
-15159 -15171 0
-13455 15159 15160 15161 15162 15163 15164 15165 15166 15167 15168 15169 15170 15171 0
-15172 0
-15173 13456 0
-15174 13447 0
-15174 13349 0
-13447 -13349 15174 0
-15175 13448 0
-15175 13348 0
-13448 -13348 15175 0
-15176 13449 0
-15176 13365 0
-13449 -13365 15176 0
-15177 13450 0
-15177 13378 0
-13450 -13378 15177 0
-15178 13451 0
-15178 13391 0
-13451 -13391 15178 0
-15179 13452 0
-15179 13404 0
-13452 -13404 15179 0
-15180 13453 0
-15180 13417 0
-13453 -13417 15180 0
-15181 13454 0
-15181 13430 0
-13454 -13430 15181 0
-15182 13455 0
-15182 13443 0
-13455 -13443 15182 0
-15183 13457 0
-15183 13483 0
-13457 -13483 15183 0
-15184 13458 0
-15184 13496 0
-13458 -13496 15184 0
-15185 13459 0
-15185 13509 0
-13459 -13509 15185 0
-15173 -15174 0
-15173 -15175 0
-15173 -15176 0
-15173 -15177 0
-15173 -15178 0
-15173 -15179 0
-15173 -15180 0
-15173 -15181 0
-15173 -15182 0
-15173 -15183 0
-15173 -15184 0
-15173 -15185 0
-13456 15173 15174 15175 15176 15177 15178 15179 15180 15181 15182 15183 15184 15185 0
-15186 13457 0
-15187 13447 0
-15187 13351 0
-13447 -13351 15187 0
-15188 13448 0
-15188 13350 0
-13448 -13350 15188 0
-15189 13449 0
-15189 13366 0
-13449 -13366 15189 0
-15190 13450 0
-15190 13379 0
-13450 -13379 15190 0
-15191 13451 0
-15191 13392 0
-13451 -13392 15191 0
-15192 13452 0
-15192 13405 0
-13452 -13405 15192 0
-15193 13453 0
-15193 13418 0
-13453 -13418 15193 0
-15194 13454 0
-15194 13431 0
-13454 -13431 15194 0
-15195 13455 0
-15195 13444 0
-13455 -13444 15195 0
-15196 13456 0
-15196 13470 0
-13456 -13470 15196 0
-15197 13458 0
-15197 13497 0
-13458 -13497 15197 0
-15198 13459 0
-15198 13510 0
-13459 -13510 15198 0
-15186 -15187 0
-15186 -15188 0
-15186 -15189 0
-15186 -15190 0
-15186 -15191 0
-15186 -15192 0
-15186 -15193 0
-15186 -15194 0
-15186 -15195 0
-15186 -15196 0
-15186 -15197 0
-15186 -15198 0
-13457 15186 15187 15188 15189 15190 15191 15192 15193 15194 15195 15196 15197 15198 0
-15199 13458 0
-15200 13447 0
-15200 13353 0
-13447 -13353 15200 0
-15201 13448 0
-15201 13352 0
-13448 -13352 15201 0
-15202 13449 0
-15202 13367 0
-13449 -13367 15202 0
-15203 13450 0
-15203 13380 0
-13450 -13380 15203 0
-15204 13451 0
-15204 13393 0
-13451 -13393 15204 0
-15205 13452 0
-15205 13406 0
-13452 -13406 15205 0
-15206 13453 0
-15206 13419 0
-13453 -13419 15206 0
-15207 13454 0
-15207 13432 0
-13454 -13432 15207 0
-15208 13455 0
-15208 13445 0
-13455 -13445 15208 0
-15209 13456 0
-15209 13471 0
-13456 -13471 15209 0
-15210 13457 0
-15210 13484 0
-13457 -13484 15210 0
-15211 13459 0
-15211 13511 0
-13459 -13511 15211 0
-15199 -15200 0
-15199 -15201 0
-15199 -15202 0
-15199 -15203 0
-15199 -15204 0
-15199 -15205 0
-15199 -15206 0
-15199 -15207 0
-15199 -15208 0
-15199 -15209 0
-15199 -15210 0
-15199 -15211 0
-13458 15199 15200 15201 15202 15203 15204 15205 15206 15207 15208 15209 15210 15211 0
-15212 13459 0
-15213 13447 0
-15213 13355 0
-13447 -13355 15213 0
-15214 13448 0
-15214 13354 0
-13448 -13354 15214 0
-15215 13449 0
-15215 13368 0
-13449 -13368 15215 0
-15216 13450 0
-15216 13381 0
-13450 -13381 15216 0
-15217 13451 0
-15217 13394 0
-13451 -13394 15217 0
-15218 13452 0
-15218 13407 0
-13452 -13407 15218 0
-15219 13453 0
-15219 13420 0
-13453 -13420 15219 0
-15220 13454 0
-15220 13433 0
-13454 -13433 15220 0
-15221 13455 0
-15221 13446 0
-13455 -13446 15221 0
-15222 13456 0
-15222 13472 0
-13456 -13472 15222 0
-15223 13457 0
-15223 13485 0
-13457 -13485 15223 0
-15224 13458 0
-15224 13498 0
-13458 -13498 15224 0
-15212 -15213 0
-15212 -15214 0
-15212 -15215 0
-15212 -15216 0
-15212 -15217 0
-15212 -15218 0
-15212 -15219 0
-15212 -15220 0
-15212 -15221 0
-15212 -15222 0
-15212 -15223 0
-15212 -15224 0
-13459 15212 15213 15214 15215 15216 15217 15218 15219 15220 15221 15222 15223 15224 0
-15225 13460 0
-15226 13461 0
-15226 13331 0
-13461 -13331 15226 0
-15227 13462 0
-15227 13356 0
-13462 -13356 15227 0
-15228 13463 0
-15228 13369 0
-13463 -13369 15228 0
-15229 13464 0
-15229 13382 0
-13464 -13382 15229 0
-15230 13465 0
-15230 13395 0
-13465 -13395 15230 0
-15231 13466 0
-15231 13408 0
-13466 -13408 15231 0
-15232 13467 0
-15232 13421 0
-13467 -13421 15232 0
-15233 13468 0
-15233 13434 0
-13468 -13434 15233 0
-15234 13469 0
-15234 13447 0
-13469 -13447 15234 0
-15235 13470 0
-15235 13473 0
-13470 -13473 15235 0
-15236 13471 0
-15236 13486 0
-13471 -13486 15236 0
-15237 13472 0
-15237 13499 0
-13472 -13499 15237 0
-15225 -15226 0
-15225 -15227 0
-15225 -15228 0
-15225 -15229 0
-15225 -15230 0
-15225 -15231 0
-15225 -15232 0
-15225 -15233 0
-15225 -15234 0
-15225 -15235 0
-15225 -15236 0
-15225 -15237 0
-13460 15225 15226 15227 15228 15229 15230 15231 15232 15233 15234 15235 15236 15237 0
-15238 13461 0
-15239 13460 0
-15239 13330 0
-13460 -13330 15239 0
-15240 13462 0
-15240 13357 0
-13462 -13357 15240 0
-15241 13463 0
-15241 13370 0
-13463 -13370 15241 0
-15242 13464 0
-15242 13383 0
-13464 -13383 15242 0
-15243 13465 0
-15243 13396 0
-13465 -13396 15243 0
-15244 13466 0
-15244 13409 0
-13466 -13409 15244 0
-15245 13467 0
-15245 13422 0
-13467 -13422 15245 0
-15246 13468 0
-15246 13435 0
-13468 -13435 15246 0
-15247 13469 0
-15247 13448 0
-13469 -13448 15247 0
-15248 13470 0
-15248 13474 0
-13470 -13474 15248 0
-15249 13471 0
-15249 13487 0
-13471 -13487 15249 0
-15250 13472 0
-15250 13500 0
-13472 -13500 15250 0
-15238 -15239 0
-15238 -15240 0
-15238 -15241 0
-15238 -15242 0
-15238 -15243 0
-15238 -15244 0
-15238 -15245 0
-15238 -15246 0
-15238 -15247 0
-15238 -15248 0
-15238 -15249 0
-15238 -15250 0
-13461 15238 15239 15240 15241 15242 15243 15244 15245 15246 15247 15248 15249 15250 0
-15251 13462 0
-15252 13460 0
-15252 13333 0
-13460 -13333 15252 0
-15253 13461 0
-15253 13332 0
-13461 -13332 15253 0
-15254 13463 0
-15254 13371 0
-13463 -13371 15254 0
-15255 13464 0
-15255 13384 0
-13464 -13384 15255 0
-15256 13465 0
-15256 13397 0
-13465 -13397 15256 0
-15257 13466 0
-15257 13410 0
-13466 -13410 15257 0
-15258 13467 0
-15258 13423 0
-13467 -13423 15258 0
-15259 13468 0
-15259 13436 0
-13468 -13436 15259 0
-15260 13469 0
-15260 13449 0
-13469 -13449 15260 0
-15261 13470 0
-15261 13475 0
-13470 -13475 15261 0
-15262 13471 0
-15262 13488 0
-13471 -13488 15262 0
-15263 13472 0
-15263 13501 0
-13472 -13501 15263 0
-15251 -15252 0
-15251 -15253 0
-15251 -15254 0
-15251 -15255 0
-15251 -15256 0
-15251 -15257 0
-15251 -15258 0
-15251 -15259 0
-15251 -15260 0
-15251 -15261 0
-15251 -15262 0
-15251 -15263 0
-13462 15251 15252 15253 15254 15255 15256 15257 15258 15259 15260 15261 15262 15263 0
-15264 13463 0
-15265 13460 0
-15265 13335 0
-13460 -13335 15265 0
-15266 13461 0
-15266 13334 0
-13461 -13334 15266 0
-15267 13462 0
-15267 13358 0
-13462 -13358 15267 0
-15268 13464 0
-15268 13385 0
-13464 -13385 15268 0
-15269 13465 0
-15269 13398 0
-13465 -13398 15269 0
-15270 13466 0
-15270 13411 0
-13466 -13411 15270 0
-15271 13467 0
-15271 13424 0
-13467 -13424 15271 0
-15272 13468 0
-15272 13437 0
-13468 -13437 15272 0
-15273 13469 0
-15273 13450 0
-13469 -13450 15273 0
-15274 13470 0
-15274 13476 0
-13470 -13476 15274 0
-15275 13471 0
-15275 13489 0
-13471 -13489 15275 0
-15276 13472 0
-15276 13502 0
-13472 -13502 15276 0
-15264 -15265 0
-15264 -15266 0
-15264 -15267 0
-15264 -15268 0
-15264 -15269 0
-15264 -15270 0
-15264 -15271 0
-15264 -15272 0
-15264 -15273 0
-15264 -15274 0
-15264 -15275 0
-15264 -15276 0
-13463 15264 15265 15266 15267 15268 15269 15270 15271 15272 15273 15274 15275 15276 0
-15277 13464 0
-15278 13460 0
-15278 13337 0
-13460 -13337 15278 0
-15279 13461 0
-15279 13336 0
-13461 -13336 15279 0
-15280 13462 0
-15280 13359 0
-13462 -13359 15280 0
-15281 13463 0
-15281 13372 0
-13463 -13372 15281 0
-15282 13465 0
-15282 13399 0
-13465 -13399 15282 0
-15283 13466 0
-15283 13412 0
-13466 -13412 15283 0
-15284 13467 0
-15284 13425 0
-13467 -13425 15284 0
-15285 13468 0
-15285 13438 0
-13468 -13438 15285 0
-15286 13469 0
-15286 13451 0
-13469 -13451 15286 0
-15287 13470 0
-15287 13477 0
-13470 -13477 15287 0
-15288 13471 0
-15288 13490 0
-13471 -13490 15288 0
-15289 13472 0
-15289 13503 0
-13472 -13503 15289 0
-15277 -15278 0
-15277 -15279 0
-15277 -15280 0
-15277 -15281 0
-15277 -15282 0
-15277 -15283 0
-15277 -15284 0
-15277 -15285 0
-15277 -15286 0
-15277 -15287 0
-15277 -15288 0
-15277 -15289 0
-13464 15277 15278 15279 15280 15281 15282 15283 15284 15285 15286 15287 15288 15289 0
-15290 13465 0
-15291 13460 0
-15291 13339 0
-13460 -13339 15291 0
-15292 13461 0
-15292 13338 0
-13461 -13338 15292 0
-15293 13462 0
-15293 13360 0
-13462 -13360 15293 0
-15294 13463 0
-15294 13373 0
-13463 -13373 15294 0
-15295 13464 0
-15295 13386 0
-13464 -13386 15295 0
-15296 13466 0
-15296 13413 0
-13466 -13413 15296 0
-15297 13467 0
-15297 13426 0
-13467 -13426 15297 0
-15298 13468 0
-15298 13439 0
-13468 -13439 15298 0
-15299 13469 0
-15299 13452 0
-13469 -13452 15299 0
-15300 13470 0
-15300 13478 0
-13470 -13478 15300 0
-15301 13471 0
-15301 13491 0
-13471 -13491 15301 0
-15302 13472 0
-15302 13504 0
-13472 -13504 15302 0
-15290 -15291 0
-15290 -15292 0
-15290 -15293 0
-15290 -15294 0
-15290 -15295 0
-15290 -15296 0
-15290 -15297 0
-15290 -15298 0
-15290 -15299 0
-15290 -15300 0
-15290 -15301 0
-15290 -15302 0
-13465 15290 15291 15292 15293 15294 15295 15296 15297 15298 15299 15300 15301 15302 0
-15303 13466 0
-15304 13460 0
-15304 13341 0
-13460 -13341 15304 0
-15305 13461 0
-15305 13340 0
-13461 -13340 15305 0
-15306 13462 0
-15306 13361 0
-13462 -13361 15306 0
-15307 13463 0
-15307 13374 0
-13463 -13374 15307 0
-15308 13464 0
-15308 13387 0
-13464 -13387 15308 0
-15309 13465 0
-15309 13400 0
-13465 -13400 15309 0
-15310 13467 0
-15310 13427 0
-13467 -13427 15310 0
-15311 13468 0
-15311 13440 0
-13468 -13440 15311 0
-15312 13469 0
-15312 13453 0
-13469 -13453 15312 0
-15313 13470 0
-15313 13479 0
-13470 -13479 15313 0
-15314 13471 0
-15314 13492 0
-13471 -13492 15314 0
-15315 13472 0
-15315 13505 0
-13472 -13505 15315 0
-15303 -15304 0
-15303 -15305 0
-15303 -15306 0
-15303 -15307 0
-15303 -15308 0
-15303 -15309 0
-15303 -15310 0
-15303 -15311 0
-15303 -15312 0
-15303 -15313 0
-15303 -15314 0
-15303 -15315 0
-13466 15303 15304 15305 15306 15307 15308 15309 15310 15311 15312 15313 15314 15315 0
-15316 13467 0
-15317 13460 0
-15317 13343 0
-13460 -13343 15317 0
-15318 13461 0
-15318 13342 0
-13461 -13342 15318 0
-15319 13462 0
-15319 13362 0
-13462 -13362 15319 0
-15320 13463 0
-15320 13375 0
-13463 -13375 15320 0
-15321 13464 0
-15321 13388 0
-13464 -13388 15321 0
-15322 13465 0
-15322 13401 0
-13465 -13401 15322 0
-15323 13466 0
-15323 13414 0
-13466 -13414 15323 0
-15324 13468 0
-15324 13441 0
-13468 -13441 15324 0
-15325 13469 0
-15325 13454 0
-13469 -13454 15325 0
-15326 13470 0
-15326 13480 0
-13470 -13480 15326 0
-15327 13471 0
-15327 13493 0
-13471 -13493 15327 0
-15328 13472 0
-15328 13506 0
-13472 -13506 15328 0
-15316 -15317 0
-15316 -15318 0
-15316 -15319 0
-15316 -15320 0
-15316 -15321 0
-15316 -15322 0
-15316 -15323 0
-15316 -15324 0
-15316 -15325 0
-15316 -15326 0
-15316 -15327 0
-15316 -15328 0
-13467 15316 15317 15318 15319 15320 15321 15322 15323 15324 15325 15326 15327 15328 0
-15329 13468 0
-15330 13460 0
-15330 13345 0
-13460 -13345 15330 0
-15331 13461 0
-15331 13344 0
-13461 -13344 15331 0
-15332 13462 0
-15332 13363 0
-13462 -13363 15332 0
-15333 13463 0
-15333 13376 0
-13463 -13376 15333 0
-15334 13464 0
-15334 13389 0
-13464 -13389 15334 0
-15335 13465 0
-15335 13402 0
-13465 -13402 15335 0
-15336 13466 0
-15336 13415 0
-13466 -13415 15336 0
-15337 13467 0
-15337 13428 0
-13467 -13428 15337 0
-15338 13469 0
-15338 13455 0
-13469 -13455 15338 0
-15339 13470 0
-15339 13481 0
-13470 -13481 15339 0
-15340 13471 0
-15340 13494 0
-13471 -13494 15340 0
-15341 13472 0
-15341 13507 0
-13472 -13507 15341 0
-15329 -15330 0
-15329 -15331 0
-15329 -15332 0
-15329 -15333 0
-15329 -15334 0
-15329 -15335 0
-15329 -15336 0
-15329 -15337 0
-15329 -15338 0
-15329 -15339 0
-15329 -15340 0
-15329 -15341 0
-13468 15329 15330 15331 15332 15333 15334 15335 15336 15337 15338 15339 15340 15341 0
-15342 13469 0
-15343 13460 0
-15343 13347 0
-13460 -13347 15343 0
-15344 13461 0
-15344 13346 0
-13461 -13346 15344 0
-15345 13462 0
-15345 13364 0
-13462 -13364 15345 0
-15346 13463 0
-15346 13377 0
-13463 -13377 15346 0
-15347 13464 0
-15347 13390 0
-13464 -13390 15347 0
-15348 13465 0
-15348 13403 0
-13465 -13403 15348 0
-15349 13466 0
-15349 13416 0
-13466 -13416 15349 0
-15350 13467 0
-15350 13429 0
-13467 -13429 15350 0
-15351 13468 0
-15351 13442 0
-13468 -13442 15351 0
-15352 13470 0
-15352 13482 0
-13470 -13482 15352 0
-15353 13471 0
-15353 13495 0
-13471 -13495 15353 0
-15354 13472 0
-15354 13508 0
-13472 -13508 15354 0
-15342 -15343 0
-15342 -15344 0
-15342 -15345 0
-15342 -15346 0
-15342 -15347 0
-15342 -15348 0
-15342 -15349 0
-15342 -15350 0
-15342 -15351 0
-15342 -15352 0
-15342 -15353 0
-15342 -15354 0
-13469 15342 15343 15344 15345 15346 15347 15348 15349 15350 15351 15352 15353 15354 0
-15355 0
-15356 13470 0
-15357 13460 0
-15357 13351 0
-13460 -13351 15357 0
-15358 13461 0
-15358 13350 0
-13461 -13350 15358 0
-15359 13462 0
-15359 13366 0
-13462 -13366 15359 0
-15360 13463 0
-15360 13379 0
-13463 -13379 15360 0
-15361 13464 0
-15361 13392 0
-13464 -13392 15361 0
-15362 13465 0
-15362 13405 0
-13465 -13405 15362 0
-15363 13466 0
-15363 13418 0
-13466 -13418 15363 0
-15364 13467 0
-15364 13431 0
-13467 -13431 15364 0
-15365 13468 0
-15365 13444 0
-13468 -13444 15365 0
-15366 13469 0
-15366 13457 0
-13469 -13457 15366 0
-15367 13471 0
-15367 13497 0
-13471 -13497 15367 0
-15368 13472 0
-15368 13510 0
-13472 -13510 15368 0
-15356 -15357 0
-15356 -15358 0
-15356 -15359 0
-15356 -15360 0
-15356 -15361 0
-15356 -15362 0
-15356 -15363 0
-15356 -15364 0
-15356 -15365 0
-15356 -15366 0
-15356 -15367 0
-15356 -15368 0
-13470 15356 15357 15358 15359 15360 15361 15362 15363 15364 15365 15366 15367 15368 0
-15369 13471 0
-15370 13460 0
-15370 13353 0
-13460 -13353 15370 0
-15371 13461 0
-15371 13352 0
-13461 -13352 15371 0
-15372 13462 0
-15372 13367 0
-13462 -13367 15372 0
-15373 13463 0
-15373 13380 0
-13463 -13380 15373 0
-15374 13464 0
-15374 13393 0
-13464 -13393 15374 0
-15375 13465 0
-15375 13406 0
-13465 -13406 15375 0
-15376 13466 0
-15376 13419 0
-13466 -13419 15376 0
-15377 13467 0
-15377 13432 0
-13467 -13432 15377 0
-15378 13468 0
-15378 13445 0
-13468 -13445 15378 0
-15379 13469 0
-15379 13458 0
-13469 -13458 15379 0
-15380 13470 0
-15380 13484 0
-13470 -13484 15380 0
-15381 13472 0
-15381 13511 0
-13472 -13511 15381 0
-15369 -15370 0
-15369 -15371 0
-15369 -15372 0
-15369 -15373 0
-15369 -15374 0
-15369 -15375 0
-15369 -15376 0
-15369 -15377 0
-15369 -15378 0
-15369 -15379 0
-15369 -15380 0
-15369 -15381 0
-13471 15369 15370 15371 15372 15373 15374 15375 15376 15377 15378 15379 15380 15381 0
-15382 13472 0
-15383 13460 0
-15383 13355 0
-13460 -13355 15383 0
-15384 13461 0
-15384 13354 0
-13461 -13354 15384 0
-15385 13462 0
-15385 13368 0
-13462 -13368 15385 0
-15386 13463 0
-15386 13381 0
-13463 -13381 15386 0
-15387 13464 0
-15387 13394 0
-13464 -13394 15387 0
-15388 13465 0
-15388 13407 0
-13465 -13407 15388 0
-15389 13466 0
-15389 13420 0
-13466 -13420 15389 0
-15390 13467 0
-15390 13433 0
-13467 -13433 15390 0
-15391 13468 0
-15391 13446 0
-13468 -13446 15391 0
-15392 13469 0
-15392 13459 0
-13469 -13459 15392 0
-15393 13470 0
-15393 13485 0
-13470 -13485 15393 0
-15394 13471 0
-15394 13498 0
-13471 -13498 15394 0
-15382 -15383 0
-15382 -15384 0
-15382 -15385 0
-15382 -15386 0
-15382 -15387 0
-15382 -15388 0
-15382 -15389 0
-15382 -15390 0
-15382 -15391 0
-15382 -15392 0
-15382 -15393 0
-15382 -15394 0
-13472 15382 15383 15384 15385 15386 15387 15388 15389 15390 15391 15392 15393 15394 0
-15395 13473 0
-15396 13474 0
-15396 13331 0
-13474 -13331 15396 0
-15397 13475 0
-15397 13356 0
-13475 -13356 15397 0
-15398 13476 0
-15398 13369 0
-13476 -13369 15398 0
-15399 13477 0
-15399 13382 0
-13477 -13382 15399 0
-15400 13478 0
-15400 13395 0
-13478 -13395 15400 0
-15401 13479 0
-15401 13408 0
-13479 -13408 15401 0
-15402 13480 0
-15402 13421 0
-13480 -13421 15402 0
-15403 13481 0
-15403 13434 0
-13481 -13434 15403 0
-15404 13482 0
-15404 13447 0
-13482 -13447 15404 0
-15405 13483 0
-15405 13460 0
-13483 -13460 15405 0
-15406 13484 0
-15406 13486 0
-13484 -13486 15406 0
-15407 13485 0
-15407 13499 0
-13485 -13499 15407 0
-15395 -15396 0
-15395 -15397 0
-15395 -15398 0
-15395 -15399 0
-15395 -15400 0
-15395 -15401 0
-15395 -15402 0
-15395 -15403 0
-15395 -15404 0
-15395 -15405 0
-15395 -15406 0
-15395 -15407 0
-13473 15395 15396 15397 15398 15399 15400 15401 15402 15403 15404 15405 15406 15407 0
-15408 13474 0
-15409 13473 0
-15409 13330 0
-13473 -13330 15409 0
-15410 13475 0
-15410 13357 0
-13475 -13357 15410 0
-15411 13476 0
-15411 13370 0
-13476 -13370 15411 0
-15412 13477 0
-15412 13383 0
-13477 -13383 15412 0
-15413 13478 0
-15413 13396 0
-13478 -13396 15413 0
-15414 13479 0
-15414 13409 0
-13479 -13409 15414 0
-15415 13480 0
-15415 13422 0
-13480 -13422 15415 0
-15416 13481 0
-15416 13435 0
-13481 -13435 15416 0
-15417 13482 0
-15417 13448 0
-13482 -13448 15417 0
-15418 13483 0
-15418 13461 0
-13483 -13461 15418 0
-15419 13484 0
-15419 13487 0
-13484 -13487 15419 0
-15420 13485 0
-15420 13500 0
-13485 -13500 15420 0
-15408 -15409 0
-15408 -15410 0
-15408 -15411 0
-15408 -15412 0
-15408 -15413 0
-15408 -15414 0
-15408 -15415 0
-15408 -15416 0
-15408 -15417 0
-15408 -15418 0
-15408 -15419 0
-15408 -15420 0
-13474 15408 15409 15410 15411 15412 15413 15414 15415 15416 15417 15418 15419 15420 0
-15421 13475 0
-15422 13473 0
-15422 13333 0
-13473 -13333 15422 0
-15423 13474 0
-15423 13332 0
-13474 -13332 15423 0
-15424 13476 0
-15424 13371 0
-13476 -13371 15424 0
-15425 13477 0
-15425 13384 0
-13477 -13384 15425 0
-15426 13478 0
-15426 13397 0
-13478 -13397 15426 0
-15427 13479 0
-15427 13410 0
-13479 -13410 15427 0
-15428 13480 0
-15428 13423 0
-13480 -13423 15428 0
-15429 13481 0
-15429 13436 0
-13481 -13436 15429 0
-15430 13482 0
-15430 13449 0
-13482 -13449 15430 0
-15431 13483 0
-15431 13462 0
-13483 -13462 15431 0
-15432 13484 0
-15432 13488 0
-13484 -13488 15432 0
-15433 13485 0
-15433 13501 0
-13485 -13501 15433 0
-15421 -15422 0
-15421 -15423 0
-15421 -15424 0
-15421 -15425 0
-15421 -15426 0
-15421 -15427 0
-15421 -15428 0
-15421 -15429 0
-15421 -15430 0
-15421 -15431 0
-15421 -15432 0
-15421 -15433 0
-13475 15421 15422 15423 15424 15425 15426 15427 15428 15429 15430 15431 15432 15433 0
-15434 13476 0
-15435 13473 0
-15435 13335 0
-13473 -13335 15435 0
-15436 13474 0
-15436 13334 0
-13474 -13334 15436 0
-15437 13475 0
-15437 13358 0
-13475 -13358 15437 0
-15438 13477 0
-15438 13385 0
-13477 -13385 15438 0
-15439 13478 0
-15439 13398 0
-13478 -13398 15439 0
-15440 13479 0
-15440 13411 0
-13479 -13411 15440 0
-15441 13480 0
-15441 13424 0
-13480 -13424 15441 0
-15442 13481 0
-15442 13437 0
-13481 -13437 15442 0
-15443 13482 0
-15443 13450 0
-13482 -13450 15443 0
-15444 13483 0
-15444 13463 0
-13483 -13463 15444 0
-15445 13484 0
-15445 13489 0
-13484 -13489 15445 0
-15446 13485 0
-15446 13502 0
-13485 -13502 15446 0
-15434 -15435 0
-15434 -15436 0
-15434 -15437 0
-15434 -15438 0
-15434 -15439 0
-15434 -15440 0
-15434 -15441 0
-15434 -15442 0
-15434 -15443 0
-15434 -15444 0
-15434 -15445 0
-15434 -15446 0
-13476 15434 15435 15436 15437 15438 15439 15440 15441 15442 15443 15444 15445 15446 0
-15447 13477 0
-15448 13473 0
-15448 13337 0
-13473 -13337 15448 0
-15449 13474 0
-15449 13336 0
-13474 -13336 15449 0
-15450 13475 0
-15450 13359 0
-13475 -13359 15450 0
-15451 13476 0
-15451 13372 0
-13476 -13372 15451 0
-15452 13478 0
-15452 13399 0
-13478 -13399 15452 0
-15453 13479 0
-15453 13412 0
-13479 -13412 15453 0
-15454 13480 0
-15454 13425 0
-13480 -13425 15454 0
-15455 13481 0
-15455 13438 0
-13481 -13438 15455 0
-15456 13482 0
-15456 13451 0
-13482 -13451 15456 0
-15457 13483 0
-15457 13464 0
-13483 -13464 15457 0
-15458 13484 0
-15458 13490 0
-13484 -13490 15458 0
-15459 13485 0
-15459 13503 0
-13485 -13503 15459 0
-15447 -15448 0
-15447 -15449 0
-15447 -15450 0
-15447 -15451 0
-15447 -15452 0
-15447 -15453 0
-15447 -15454 0
-15447 -15455 0
-15447 -15456 0
-15447 -15457 0
-15447 -15458 0
-15447 -15459 0
-13477 15447 15448 15449 15450 15451 15452 15453 15454 15455 15456 15457 15458 15459 0
-15460 13478 0
-15461 13473 0
-15461 13339 0
-13473 -13339 15461 0
-15462 13474 0
-15462 13338 0
-13474 -13338 15462 0
-15463 13475 0
-15463 13360 0
-13475 -13360 15463 0
-15464 13476 0
-15464 13373 0
-13476 -13373 15464 0
-15465 13477 0
-15465 13386 0
-13477 -13386 15465 0
-15466 13479 0
-15466 13413 0
-13479 -13413 15466 0
-15467 13480 0
-15467 13426 0
-13480 -13426 15467 0
-15468 13481 0
-15468 13439 0
-13481 -13439 15468 0
-15469 13482 0
-15469 13452 0
-13482 -13452 15469 0
-15470 13483 0
-15470 13465 0
-13483 -13465 15470 0
-15471 13484 0
-15471 13491 0
-13484 -13491 15471 0
-15472 13485 0
-15472 13504 0
-13485 -13504 15472 0
-15460 -15461 0
-15460 -15462 0
-15460 -15463 0
-15460 -15464 0
-15460 -15465 0
-15460 -15466 0
-15460 -15467 0
-15460 -15468 0
-15460 -15469 0
-15460 -15470 0
-15460 -15471 0
-15460 -15472 0
-13478 15460 15461 15462 15463 15464 15465 15466 15467 15468 15469 15470 15471 15472 0
-15473 13479 0
-15474 13473 0
-15474 13341 0
-13473 -13341 15474 0
-15475 13474 0
-15475 13340 0
-13474 -13340 15475 0
-15476 13475 0
-15476 13361 0
-13475 -13361 15476 0
-15477 13476 0
-15477 13374 0
-13476 -13374 15477 0
-15478 13477 0
-15478 13387 0
-13477 -13387 15478 0
-15479 13478 0
-15479 13400 0
-13478 -13400 15479 0
-15480 13480 0
-15480 13427 0
-13480 -13427 15480 0
-15481 13481 0
-15481 13440 0
-13481 -13440 15481 0
-15482 13482 0
-15482 13453 0
-13482 -13453 15482 0
-15483 13483 0
-15483 13466 0
-13483 -13466 15483 0
-15484 13484 0
-15484 13492 0
-13484 -13492 15484 0
-15485 13485 0
-15485 13505 0
-13485 -13505 15485 0
-15473 -15474 0
-15473 -15475 0
-15473 -15476 0
-15473 -15477 0
-15473 -15478 0
-15473 -15479 0
-15473 -15480 0
-15473 -15481 0
-15473 -15482 0
-15473 -15483 0
-15473 -15484 0
-15473 -15485 0
-13479 15473 15474 15475 15476 15477 15478 15479 15480 15481 15482 15483 15484 15485 0
-15486 13480 0
-15487 13473 0
-15487 13343 0
-13473 -13343 15487 0
-15488 13474 0
-15488 13342 0
-13474 -13342 15488 0
-15489 13475 0
-15489 13362 0
-13475 -13362 15489 0
-15490 13476 0
-15490 13375 0
-13476 -13375 15490 0
-15491 13477 0
-15491 13388 0
-13477 -13388 15491 0
-15492 13478 0
-15492 13401 0
-13478 -13401 15492 0
-15493 13479 0
-15493 13414 0
-13479 -13414 15493 0
-15494 13481 0
-15494 13441 0
-13481 -13441 15494 0
-15495 13482 0
-15495 13454 0
-13482 -13454 15495 0
-15496 13483 0
-15496 13467 0
-13483 -13467 15496 0
-15497 13484 0
-15497 13493 0
-13484 -13493 15497 0
-15498 13485 0
-15498 13506 0
-13485 -13506 15498 0
-15486 -15487 0
-15486 -15488 0
-15486 -15489 0
-15486 -15490 0
-15486 -15491 0
-15486 -15492 0
-15486 -15493 0
-15486 -15494 0
-15486 -15495 0
-15486 -15496 0
-15486 -15497 0
-15486 -15498 0
-13480 15486 15487 15488 15489 15490 15491 15492 15493 15494 15495 15496 15497 15498 0
-15499 13481 0
-15500 13473 0
-15500 13345 0
-13473 -13345 15500 0
-15501 13474 0
-15501 13344 0
-13474 -13344 15501 0
-15502 13475 0
-15502 13363 0
-13475 -13363 15502 0
-15503 13476 0
-15503 13376 0
-13476 -13376 15503 0
-15504 13477 0
-15504 13389 0
-13477 -13389 15504 0
-15505 13478 0
-15505 13402 0
-13478 -13402 15505 0
-15506 13479 0
-15506 13415 0
-13479 -13415 15506 0
-15507 13480 0
-15507 13428 0
-13480 -13428 15507 0
-15508 13482 0
-15508 13455 0
-13482 -13455 15508 0
-15509 13483 0
-15509 13468 0
-13483 -13468 15509 0
-15510 13484 0
-15510 13494 0
-13484 -13494 15510 0
-15511 13485 0
-15511 13507 0
-13485 -13507 15511 0
-15499 -15500 0
-15499 -15501 0
-15499 -15502 0
-15499 -15503 0
-15499 -15504 0
-15499 -15505 0
-15499 -15506 0
-15499 -15507 0
-15499 -15508 0
-15499 -15509 0
-15499 -15510 0
-15499 -15511 0
-13481 15499 15500 15501 15502 15503 15504 15505 15506 15507 15508 15509 15510 15511 0
-15512 13482 0
-15513 13473 0
-15513 13347 0
-13473 -13347 15513 0
-15514 13474 0
-15514 13346 0
-13474 -13346 15514 0
-15515 13475 0
-15515 13364 0
-13475 -13364 15515 0
-15516 13476 0
-15516 13377 0
-13476 -13377 15516 0
-15517 13477 0
-15517 13390 0
-13477 -13390 15517 0
-15518 13478 0
-15518 13403 0
-13478 -13403 15518 0
-15519 13479 0
-15519 13416 0
-13479 -13416 15519 0
-15520 13480 0
-15520 13429 0
-13480 -13429 15520 0
-15521 13481 0
-15521 13442 0
-13481 -13442 15521 0
-15522 13483 0
-15522 13469 0
-13483 -13469 15522 0
-15523 13484 0
-15523 13495 0
-13484 -13495 15523 0
-15524 13485 0
-15524 13508 0
-13485 -13508 15524 0
-15512 -15513 0
-15512 -15514 0
-15512 -15515 0
-15512 -15516 0
-15512 -15517 0
-15512 -15518 0
-15512 -15519 0
-15512 -15520 0
-15512 -15521 0
-15512 -15522 0
-15512 -15523 0
-15512 -15524 0
-13482 15512 15513 15514 15515 15516 15517 15518 15519 15520 15521 15522 15523 15524 0
-15525 13483 0
-15526 13473 0
-15526 13349 0
-13473 -13349 15526 0
-15527 13474 0
-15527 13348 0
-13474 -13348 15527 0
-15528 13475 0
-15528 13365 0
-13475 -13365 15528 0
-15529 13476 0
-15529 13378 0
-13476 -13378 15529 0
-15530 13477 0
-15530 13391 0
-13477 -13391 15530 0
-15531 13478 0
-15531 13404 0
-13478 -13404 15531 0
-15532 13479 0
-15532 13417 0
-13479 -13417 15532 0
-15533 13480 0
-15533 13430 0
-13480 -13430 15533 0
-15534 13481 0
-15534 13443 0
-13481 -13443 15534 0
-15535 13482 0
-15535 13456 0
-13482 -13456 15535 0
-15536 13484 0
-15536 13496 0
-13484 -13496 15536 0
-15537 13485 0
-15537 13509 0
-13485 -13509 15537 0
-15525 -15526 0
-15525 -15527 0
-15525 -15528 0
-15525 -15529 0
-15525 -15530 0
-15525 -15531 0
-15525 -15532 0
-15525 -15533 0
-15525 -15534 0
-15525 -15535 0
-15525 -15536 0
-15525 -15537 0
-13483 15525 15526 15527 15528 15529 15530 15531 15532 15533 15534 15535 15536 15537 0
-15538 0
-15539 13484 0
-15540 13473 0
-15540 13353 0
-13473 -13353 15540 0
-15541 13474 0
-15541 13352 0
-13474 -13352 15541 0
-15542 13475 0
-15542 13367 0
-13475 -13367 15542 0
-15543 13476 0
-15543 13380 0
-13476 -13380 15543 0
-15544 13477 0
-15544 13393 0
-13477 -13393 15544 0
-15545 13478 0
-15545 13406 0
-13478 -13406 15545 0
-15546 13479 0
-15546 13419 0
-13479 -13419 15546 0
-15547 13480 0
-15547 13432 0
-13480 -13432 15547 0
-15548 13481 0
-15548 13445 0
-13481 -13445 15548 0
-15549 13482 0
-15549 13458 0
-13482 -13458 15549 0
-15550 13483 0
-15550 13471 0
-13483 -13471 15550 0
-15551 13485 0
-15551 13511 0
-13485 -13511 15551 0
-15539 -15540 0
-15539 -15541 0
-15539 -15542 0
-15539 -15543 0
-15539 -15544 0
-15539 -15545 0
-15539 -15546 0
-15539 -15547 0
-15539 -15548 0
-15539 -15549 0
-15539 -15550 0
-15539 -15551 0
-13484 15539 15540 15541 15542 15543 15544 15545 15546 15547 15548 15549 15550 15551 0
-15552 13485 0
-15553 13473 0
-15553 13355 0
-13473 -13355 15553 0
-15554 13474 0
-15554 13354 0
-13474 -13354 15554 0
-15555 13475 0
-15555 13368 0
-13475 -13368 15555 0
-15556 13476 0
-15556 13381 0
-13476 -13381 15556 0
-15557 13477 0
-15557 13394 0
-13477 -13394 15557 0
-15558 13478 0
-15558 13407 0
-13478 -13407 15558 0
-15559 13479 0
-15559 13420 0
-13479 -13420 15559 0
-15560 13480 0
-15560 13433 0
-13480 -13433 15560 0
-15561 13481 0
-15561 13446 0
-13481 -13446 15561 0
-15562 13482 0
-15562 13459 0
-13482 -13459 15562 0
-15563 13483 0
-15563 13472 0
-13483 -13472 15563 0
-15564 13484 0
-15564 13498 0
-13484 -13498 15564 0
-15552 -15553 0
-15552 -15554 0
-15552 -15555 0
-15552 -15556 0
-15552 -15557 0
-15552 -15558 0
-15552 -15559 0
-15552 -15560 0
-15552 -15561 0
-15552 -15562 0
-15552 -15563 0
-15552 -15564 0
-13485 15552 15553 15554 15555 15556 15557 15558 15559 15560 15561 15562 15563 15564 0
-15565 13486 0
-15566 13487 0
-15566 13331 0
-13487 -13331 15566 0
-15567 13488 0
-15567 13356 0
-13488 -13356 15567 0
-15568 13489 0
-15568 13369 0
-13489 -13369 15568 0
-15569 13490 0
-15569 13382 0
-13490 -13382 15569 0
-15570 13491 0
-15570 13395 0
-13491 -13395 15570 0
-15571 13492 0
-15571 13408 0
-13492 -13408 15571 0
-15572 13493 0
-15572 13421 0
-13493 -13421 15572 0
-15573 13494 0
-15573 13434 0
-13494 -13434 15573 0
-15574 13495 0
-15574 13447 0
-13495 -13447 15574 0
-15575 13496 0
-15575 13460 0
-13496 -13460 15575 0
-15576 13497 0
-15576 13473 0
-13497 -13473 15576 0
-15577 13498 0
-15577 13499 0
-13498 -13499 15577 0
-15565 -15566 0
-15565 -15567 0
-15565 -15568 0
-15565 -15569 0
-15565 -15570 0
-15565 -15571 0
-15565 -15572 0
-15565 -15573 0
-15565 -15574 0
-15565 -15575 0
-15565 -15576 0
-15565 -15577 0
-13486 15565 15566 15567 15568 15569 15570 15571 15572 15573 15574 15575 15576 15577 0
-15578 13487 0
-15579 13486 0
-15579 13330 0
-13486 -13330 15579 0
-15580 13488 0
-15580 13357 0
-13488 -13357 15580 0
-15581 13489 0
-15581 13370 0
-13489 -13370 15581 0
-15582 13490 0
-15582 13383 0
-13490 -13383 15582 0
-15583 13491 0
-15583 13396 0
-13491 -13396 15583 0
-15584 13492 0
-15584 13409 0
-13492 -13409 15584 0
-15585 13493 0
-15585 13422 0
-13493 -13422 15585 0
-15586 13494 0
-15586 13435 0
-13494 -13435 15586 0
-15587 13495 0
-15587 13448 0
-13495 -13448 15587 0
-15588 13496 0
-15588 13461 0
-13496 -13461 15588 0
-15589 13497 0
-15589 13474 0
-13497 -13474 15589 0
-15590 13498 0
-15590 13500 0
-13498 -13500 15590 0
-15578 -15579 0
-15578 -15580 0
-15578 -15581 0
-15578 -15582 0
-15578 -15583 0
-15578 -15584 0
-15578 -15585 0
-15578 -15586 0
-15578 -15587 0
-15578 -15588 0
-15578 -15589 0
-15578 -15590 0
-13487 15578 15579 15580 15581 15582 15583 15584 15585 15586 15587 15588 15589 15590 0
-15591 13488 0
-15592 13486 0
-15592 13333 0
-13486 -13333 15592 0
-15593 13487 0
-15593 13332 0
-13487 -13332 15593 0
-15594 13489 0
-15594 13371 0
-13489 -13371 15594 0
-15595 13490 0
-15595 13384 0
-13490 -13384 15595 0
-15596 13491 0
-15596 13397 0
-13491 -13397 15596 0
-15597 13492 0
-15597 13410 0
-13492 -13410 15597 0
-15598 13493 0
-15598 13423 0
-13493 -13423 15598 0
-15599 13494 0
-15599 13436 0
-13494 -13436 15599 0
-15600 13495 0
-15600 13449 0
-13495 -13449 15600 0
-15601 13496 0
-15601 13462 0
-13496 -13462 15601 0
-15602 13497 0
-15602 13475 0
-13497 -13475 15602 0
-15603 13498 0
-15603 13501 0
-13498 -13501 15603 0
-15591 -15592 0
-15591 -15593 0
-15591 -15594 0
-15591 -15595 0
-15591 -15596 0
-15591 -15597 0
-15591 -15598 0
-15591 -15599 0
-15591 -15600 0
-15591 -15601 0
-15591 -15602 0
-15591 -15603 0
-13488 15591 15592 15593 15594 15595 15596 15597 15598 15599 15600 15601 15602 15603 0
-15604 13489 0
-15605 13486 0
-15605 13335 0
-13486 -13335 15605 0
-15606 13487 0
-15606 13334 0
-13487 -13334 15606 0
-15607 13488 0
-15607 13358 0
-13488 -13358 15607 0
-15608 13490 0
-15608 13385 0
-13490 -13385 15608 0
-15609 13491 0
-15609 13398 0
-13491 -13398 15609 0
-15610 13492 0
-15610 13411 0
-13492 -13411 15610 0
-15611 13493 0
-15611 13424 0
-13493 -13424 15611 0
-15612 13494 0
-15612 13437 0
-13494 -13437 15612 0
-15613 13495 0
-15613 13450 0
-13495 -13450 15613 0
-15614 13496 0
-15614 13463 0
-13496 -13463 15614 0
-15615 13497 0
-15615 13476 0
-13497 -13476 15615 0
-15616 13498 0
-15616 13502 0
-13498 -13502 15616 0
-15604 -15605 0
-15604 -15606 0
-15604 -15607 0
-15604 -15608 0
-15604 -15609 0
-15604 -15610 0
-15604 -15611 0
-15604 -15612 0
-15604 -15613 0
-15604 -15614 0
-15604 -15615 0
-15604 -15616 0
-13489 15604 15605 15606 15607 15608 15609 15610 15611 15612 15613 15614 15615 15616 0
-15617 13490 0
-15618 13486 0
-15618 13337 0
-13486 -13337 15618 0
-15619 13487 0
-15619 13336 0
-13487 -13336 15619 0
-15620 13488 0
-15620 13359 0
-13488 -13359 15620 0
-15621 13489 0
-15621 13372 0
-13489 -13372 15621 0
-15622 13491 0
-15622 13399 0
-13491 -13399 15622 0
-15623 13492 0
-15623 13412 0
-13492 -13412 15623 0
-15624 13493 0
-15624 13425 0
-13493 -13425 15624 0
-15625 13494 0
-15625 13438 0
-13494 -13438 15625 0
-15626 13495 0
-15626 13451 0
-13495 -13451 15626 0
-15627 13496 0
-15627 13464 0
-13496 -13464 15627 0
-15628 13497 0
-15628 13477 0
-13497 -13477 15628 0
-15629 13498 0
-15629 13503 0
-13498 -13503 15629 0
-15617 -15618 0
-15617 -15619 0
-15617 -15620 0
-15617 -15621 0
-15617 -15622 0
-15617 -15623 0
-15617 -15624 0
-15617 -15625 0
-15617 -15626 0
-15617 -15627 0
-15617 -15628 0
-15617 -15629 0
-13490 15617 15618 15619 15620 15621 15622 15623 15624 15625 15626 15627 15628 15629 0
-15630 13491 0
-15631 13486 0
-15631 13339 0
-13486 -13339 15631 0
-15632 13487 0
-15632 13338 0
-13487 -13338 15632 0
-15633 13488 0
-15633 13360 0
-13488 -13360 15633 0
-15634 13489 0
-15634 13373 0
-13489 -13373 15634 0
-15635 13490 0
-15635 13386 0
-13490 -13386 15635 0
-15636 13492 0
-15636 13413 0
-13492 -13413 15636 0
-15637 13493 0
-15637 13426 0
-13493 -13426 15637 0
-15638 13494 0
-15638 13439 0
-13494 -13439 15638 0
-15639 13495 0
-15639 13452 0
-13495 -13452 15639 0
-15640 13496 0
-15640 13465 0
-13496 -13465 15640 0
-15641 13497 0
-15641 13478 0
-13497 -13478 15641 0
-15642 13498 0
-15642 13504 0
-13498 -13504 15642 0
-15630 -15631 0
-15630 -15632 0
-15630 -15633 0
-15630 -15634 0
-15630 -15635 0
-15630 -15636 0
-15630 -15637 0
-15630 -15638 0
-15630 -15639 0
-15630 -15640 0
-15630 -15641 0
-15630 -15642 0
-13491 15630 15631 15632 15633 15634 15635 15636 15637 15638 15639 15640 15641 15642 0
-15643 13492 0
-15644 13486 0
-15644 13341 0
-13486 -13341 15644 0
-15645 13487 0
-15645 13340 0
-13487 -13340 15645 0
-15646 13488 0
-15646 13361 0
-13488 -13361 15646 0
-15647 13489 0
-15647 13374 0
-13489 -13374 15647 0
-15648 13490 0
-15648 13387 0
-13490 -13387 15648 0
-15649 13491 0
-15649 13400 0
-13491 -13400 15649 0
-15650 13493 0
-15650 13427 0
-13493 -13427 15650 0
-15651 13494 0
-15651 13440 0
-13494 -13440 15651 0
-15652 13495 0
-15652 13453 0
-13495 -13453 15652 0
-15653 13496 0
-15653 13466 0
-13496 -13466 15653 0
-15654 13497 0
-15654 13479 0
-13497 -13479 15654 0
-15655 13498 0
-15655 13505 0
-13498 -13505 15655 0
-15643 -15644 0
-15643 -15645 0
-15643 -15646 0
-15643 -15647 0
-15643 -15648 0
-15643 -15649 0
-15643 -15650 0
-15643 -15651 0
-15643 -15652 0
-15643 -15653 0
-15643 -15654 0
-15643 -15655 0
-13492 15643 15644 15645 15646 15647 15648 15649 15650 15651 15652 15653 15654 15655 0
-15656 13493 0
-15657 13486 0
-15657 13343 0
-13486 -13343 15657 0
-15658 13487 0
-15658 13342 0
-13487 -13342 15658 0
-15659 13488 0
-15659 13362 0
-13488 -13362 15659 0
-15660 13489 0
-15660 13375 0
-13489 -13375 15660 0
-15661 13490 0
-15661 13388 0
-13490 -13388 15661 0
-15662 13491 0
-15662 13401 0
-13491 -13401 15662 0
-15663 13492 0
-15663 13414 0
-13492 -13414 15663 0
-15664 13494 0
-15664 13441 0
-13494 -13441 15664 0
-15665 13495 0
-15665 13454 0
-13495 -13454 15665 0
-15666 13496 0
-15666 13467 0
-13496 -13467 15666 0
-15667 13497 0
-15667 13480 0
-13497 -13480 15667 0
-15668 13498 0
-15668 13506 0
-13498 -13506 15668 0
-15656 -15657 0
-15656 -15658 0
-15656 -15659 0
-15656 -15660 0
-15656 -15661 0
-15656 -15662 0
-15656 -15663 0
-15656 -15664 0
-15656 -15665 0
-15656 -15666 0
-15656 -15667 0
-15656 -15668 0
-13493 15656 15657 15658 15659 15660 15661 15662 15663 15664 15665 15666 15667 15668 0
-15669 13494 0
-15670 13486 0
-15670 13345 0
-13486 -13345 15670 0
-15671 13487 0
-15671 13344 0
-13487 -13344 15671 0
-15672 13488 0
-15672 13363 0
-13488 -13363 15672 0
-15673 13489 0
-15673 13376 0
-13489 -13376 15673 0
-15674 13490 0
-15674 13389 0
-13490 -13389 15674 0
-15675 13491 0
-15675 13402 0
-13491 -13402 15675 0
-15676 13492 0
-15676 13415 0
-13492 -13415 15676 0
-15677 13493 0
-15677 13428 0
-13493 -13428 15677 0
-15678 13495 0
-15678 13455 0
-13495 -13455 15678 0
-15679 13496 0
-15679 13468 0
-13496 -13468 15679 0
-15680 13497 0
-15680 13481 0
-13497 -13481 15680 0
-15681 13498 0
-15681 13507 0
-13498 -13507 15681 0
-15669 -15670 0
-15669 -15671 0
-15669 -15672 0
-15669 -15673 0
-15669 -15674 0
-15669 -15675 0
-15669 -15676 0
-15669 -15677 0
-15669 -15678 0
-15669 -15679 0
-15669 -15680 0
-15669 -15681 0
-13494 15669 15670 15671 15672 15673 15674 15675 15676 15677 15678 15679 15680 15681 0
-15682 13495 0
-15683 13486 0
-15683 13347 0
-13486 -13347 15683 0
-15684 13487 0
-15684 13346 0
-13487 -13346 15684 0
-15685 13488 0
-15685 13364 0
-13488 -13364 15685 0
-15686 13489 0
-15686 13377 0
-13489 -13377 15686 0
-15687 13490 0
-15687 13390 0
-13490 -13390 15687 0
-15688 13491 0
-15688 13403 0
-13491 -13403 15688 0
-15689 13492 0
-15689 13416 0
-13492 -13416 15689 0
-15690 13493 0
-15690 13429 0
-13493 -13429 15690 0
-15691 13494 0
-15691 13442 0
-13494 -13442 15691 0
-15692 13496 0
-15692 13469 0
-13496 -13469 15692 0
-15693 13497 0
-15693 13482 0
-13497 -13482 15693 0
-15694 13498 0
-15694 13508 0
-13498 -13508 15694 0
-15682 -15683 0
-15682 -15684 0
-15682 -15685 0
-15682 -15686 0
-15682 -15687 0
-15682 -15688 0
-15682 -15689 0
-15682 -15690 0
-15682 -15691 0
-15682 -15692 0
-15682 -15693 0
-15682 -15694 0
-13495 15682 15683 15684 15685 15686 15687 15688 15689 15690 15691 15692 15693 15694 0
-15695 13496 0
-15696 13486 0
-15696 13349 0
-13486 -13349 15696 0
-15697 13487 0
-15697 13348 0
-13487 -13348 15697 0
-15698 13488 0
-15698 13365 0
-13488 -13365 15698 0
-15699 13489 0
-15699 13378 0
-13489 -13378 15699 0
-15700 13490 0
-15700 13391 0
-13490 -13391 15700 0
-15701 13491 0
-15701 13404 0
-13491 -13404 15701 0
-15702 13492 0
-15702 13417 0
-13492 -13417 15702 0
-15703 13493 0
-15703 13430 0
-13493 -13430 15703 0
-15704 13494 0
-15704 13443 0
-13494 -13443 15704 0
-15705 13495 0
-15705 13456 0
-13495 -13456 15705 0
-15706 13497 0
-15706 13483 0
-13497 -13483 15706 0
-15707 13498 0
-15707 13509 0
-13498 -13509 15707 0
-15695 -15696 0
-15695 -15697 0
-15695 -15698 0
-15695 -15699 0
-15695 -15700 0
-15695 -15701 0
-15695 -15702 0
-15695 -15703 0
-15695 -15704 0
-15695 -15705 0
-15695 -15706 0
-15695 -15707 0
-13496 15695 15696 15697 15698 15699 15700 15701 15702 15703 15704 15705 15706 15707 0
-15708 13497 0
-15709 13486 0
-15709 13351 0
-13486 -13351 15709 0
-15710 13487 0
-15710 13350 0
-13487 -13350 15710 0
-15711 13488 0
-15711 13366 0
-13488 -13366 15711 0
-15712 13489 0
-15712 13379 0
-13489 -13379 15712 0
-15713 13490 0
-15713 13392 0
-13490 -13392 15713 0
-15714 13491 0
-15714 13405 0
-13491 -13405 15714 0
-15715 13492 0
-15715 13418 0
-13492 -13418 15715 0
-15716 13493 0
-15716 13431 0
-13493 -13431 15716 0
-15717 13494 0
-15717 13444 0
-13494 -13444 15717 0
-15718 13495 0
-15718 13457 0
-13495 -13457 15718 0
-15719 13496 0
-15719 13470 0
-13496 -13470 15719 0
-15720 13498 0
-15720 13510 0
-13498 -13510 15720 0
-15708 -15709 0
-15708 -15710 0
-15708 -15711 0
-15708 -15712 0
-15708 -15713 0
-15708 -15714 0
-15708 -15715 0
-15708 -15716 0
-15708 -15717 0
-15708 -15718 0
-15708 -15719 0
-15708 -15720 0
-13497 15708 15709 15710 15711 15712 15713 15714 15715 15716 15717 15718 15719 15720 0
-15721 0
-15722 13498 0
-15723 13486 0
-15723 13355 0
-13486 -13355 15723 0
-15724 13487 0
-15724 13354 0
-13487 -13354 15724 0
-15725 13488 0
-15725 13368 0
-13488 -13368 15725 0
-15726 13489 0
-15726 13381 0
-13489 -13381 15726 0
-15727 13490 0
-15727 13394 0
-13490 -13394 15727 0
-15728 13491 0
-15728 13407 0
-13491 -13407 15728 0
-15729 13492 0
-15729 13420 0
-13492 -13420 15729 0
-15730 13493 0
-15730 13433 0
-13493 -13433 15730 0
-15731 13494 0
-15731 13446 0
-13494 -13446 15731 0
-15732 13495 0
-15732 13459 0
-13495 -13459 15732 0
-15733 13496 0
-15733 13472 0
-13496 -13472 15733 0
-15734 13497 0
-15734 13485 0
-13497 -13485 15734 0
-15722 -15723 0
-15722 -15724 0
-15722 -15725 0
-15722 -15726 0
-15722 -15727 0
-15722 -15728 0
-15722 -15729 0
-15722 -15730 0
-15722 -15731 0
-15722 -15732 0
-15722 -15733 0
-15722 -15734 0
-13498 15722 15723 15724 15725 15726 15727 15728 15729 15730 15731 15732 15733 15734 0
-15735 13499 0
-15736 13500 0
-15736 13331 0
-13500 -13331 15736 0
-15737 13501 0
-15737 13356 0
-13501 -13356 15737 0
-15738 13502 0
-15738 13369 0
-13502 -13369 15738 0
-15739 13503 0
-15739 13382 0
-13503 -13382 15739 0
-15740 13504 0
-15740 13395 0
-13504 -13395 15740 0
-15741 13505 0
-15741 13408 0
-13505 -13408 15741 0
-15742 13506 0
-15742 13421 0
-13506 -13421 15742 0
-15743 13507 0
-15743 13434 0
-13507 -13434 15743 0
-15744 13508 0
-15744 13447 0
-13508 -13447 15744 0
-15745 13509 0
-15745 13460 0
-13509 -13460 15745 0
-15746 13510 0
-15746 13473 0
-13510 -13473 15746 0
-15747 13511 0
-15747 13486 0
-13511 -13486 15747 0
-15735 -15736 0
-15735 -15737 0
-15735 -15738 0
-15735 -15739 0
-15735 -15740 0
-15735 -15741 0
-15735 -15742 0
-15735 -15743 0
-15735 -15744 0
-15735 -15745 0
-15735 -15746 0
-15735 -15747 0
-13499 15735 15736 15737 15738 15739 15740 15741 15742 15743 15744 15745 15746 15747 0
-15748 13500 0
-15749 13499 0
-15749 13330 0
-13499 -13330 15749 0
-15750 13501 0
-15750 13357 0
-13501 -13357 15750 0
-15751 13502 0
-15751 13370 0
-13502 -13370 15751 0
-15752 13503 0
-15752 13383 0
-13503 -13383 15752 0
-15753 13504 0
-15753 13396 0
-13504 -13396 15753 0
-15754 13505 0
-15754 13409 0
-13505 -13409 15754 0
-15755 13506 0
-15755 13422 0
-13506 -13422 15755 0
-15756 13507 0
-15756 13435 0
-13507 -13435 15756 0
-15757 13508 0
-15757 13448 0
-13508 -13448 15757 0
-15758 13509 0
-15758 13461 0
-13509 -13461 15758 0
-15759 13510 0
-15759 13474 0
-13510 -13474 15759 0
-15760 13511 0
-15760 13487 0
-13511 -13487 15760 0
-15748 -15749 0
-15748 -15750 0
-15748 -15751 0
-15748 -15752 0
-15748 -15753 0
-15748 -15754 0
-15748 -15755 0
-15748 -15756 0
-15748 -15757 0
-15748 -15758 0
-15748 -15759 0
-15748 -15760 0
-13500 15748 15749 15750 15751 15752 15753 15754 15755 15756 15757 15758 15759 15760 0
-15761 13501 0
-15762 13499 0
-15762 13333 0
-13499 -13333 15762 0
-15763 13500 0
-15763 13332 0
-13500 -13332 15763 0
-15764 13502 0
-15764 13371 0
-13502 -13371 15764 0
-15765 13503 0
-15765 13384 0
-13503 -13384 15765 0
-15766 13504 0
-15766 13397 0
-13504 -13397 15766 0
-15767 13505 0
-15767 13410 0
-13505 -13410 15767 0
-15768 13506 0
-15768 13423 0
-13506 -13423 15768 0
-15769 13507 0
-15769 13436 0
-13507 -13436 15769 0
-15770 13508 0
-15770 13449 0
-13508 -13449 15770 0
-15771 13509 0
-15771 13462 0
-13509 -13462 15771 0
-15772 13510 0
-15772 13475 0
-13510 -13475 15772 0
-15773 13511 0
-15773 13488 0
-13511 -13488 15773 0
-15761 -15762 0
-15761 -15763 0
-15761 -15764 0
-15761 -15765 0
-15761 -15766 0
-15761 -15767 0
-15761 -15768 0
-15761 -15769 0
-15761 -15770 0
-15761 -15771 0
-15761 -15772 0
-15761 -15773 0
-13501 15761 15762 15763 15764 15765 15766 15767 15768 15769 15770 15771 15772 15773 0
-15774 13502 0
-15775 13499 0
-15775 13335 0
-13499 -13335 15775 0
-15776 13500 0
-15776 13334 0
-13500 -13334 15776 0
-15777 13501 0
-15777 13358 0
-13501 -13358 15777 0
-15778 13503 0
-15778 13385 0
-13503 -13385 15778 0
-15779 13504 0
-15779 13398 0
-13504 -13398 15779 0
-15780 13505 0
-15780 13411 0
-13505 -13411 15780 0
-15781 13506 0
-15781 13424 0
-13506 -13424 15781 0
-15782 13507 0
-15782 13437 0
-13507 -13437 15782 0
-15783 13508 0
-15783 13450 0
-13508 -13450 15783 0
-15784 13509 0
-15784 13463 0
-13509 -13463 15784 0
-15785 13510 0
-15785 13476 0
-13510 -13476 15785 0
-15786 13511 0
-15786 13489 0
-13511 -13489 15786 0
-15774 -15775 0
-15774 -15776 0
-15774 -15777 0
-15774 -15778 0
-15774 -15779 0
-15774 -15780 0
-15774 -15781 0
-15774 -15782 0
-15774 -15783 0
-15774 -15784 0
-15774 -15785 0
-15774 -15786 0
-13502 15774 15775 15776 15777 15778 15779 15780 15781 15782 15783 15784 15785 15786 0
-15787 13503 0
-15788 13499 0
-15788 13337 0
-13499 -13337 15788 0
-15789 13500 0
-15789 13336 0
-13500 -13336 15789 0
-15790 13501 0
-15790 13359 0
-13501 -13359 15790 0
-15791 13502 0
-15791 13372 0
-13502 -13372 15791 0
-15792 13504 0
-15792 13399 0
-13504 -13399 15792 0
-15793 13505 0
-15793 13412 0
-13505 -13412 15793 0
-15794 13506 0
-15794 13425 0
-13506 -13425 15794 0
-15795 13507 0
-15795 13438 0
-13507 -13438 15795 0
-15796 13508 0
-15796 13451 0
-13508 -13451 15796 0
-15797 13509 0
-15797 13464 0
-13509 -13464 15797 0
-15798 13510 0
-15798 13477 0
-13510 -13477 15798 0
-15799 13511 0
-15799 13490 0
-13511 -13490 15799 0
-15787 -15788 0
-15787 -15789 0
-15787 -15790 0
-15787 -15791 0
-15787 -15792 0
-15787 -15793 0
-15787 -15794 0
-15787 -15795 0
-15787 -15796 0
-15787 -15797 0
-15787 -15798 0
-15787 -15799 0
-13503 15787 15788 15789 15790 15791 15792 15793 15794 15795 15796 15797 15798 15799 0
-15800 13504 0
-15801 13499 0
-15801 13339 0
-13499 -13339 15801 0
-15802 13500 0
-15802 13338 0
-13500 -13338 15802 0
-15803 13501 0
-15803 13360 0
-13501 -13360 15803 0
-15804 13502 0
-15804 13373 0
-13502 -13373 15804 0
-15805 13503 0
-15805 13386 0
-13503 -13386 15805 0
-15806 13505 0
-15806 13413 0
-13505 -13413 15806 0
-15807 13506 0
-15807 13426 0
-13506 -13426 15807 0
-15808 13507 0
-15808 13439 0
-13507 -13439 15808 0
-15809 13508 0
-15809 13452 0
-13508 -13452 15809 0
-15810 13509 0
-15810 13465 0
-13509 -13465 15810 0
-15811 13510 0
-15811 13478 0
-13510 -13478 15811 0
-15812 13511 0
-15812 13491 0
-13511 -13491 15812 0
-15800 -15801 0
-15800 -15802 0
-15800 -15803 0
-15800 -15804 0
-15800 -15805 0
-15800 -15806 0
-15800 -15807 0
-15800 -15808 0
-15800 -15809 0
-15800 -15810 0
-15800 -15811 0
-15800 -15812 0
-13504 15800 15801 15802 15803 15804 15805 15806 15807 15808 15809 15810 15811 15812 0
-15813 13505 0
-15814 13499 0
-15814 13341 0
-13499 -13341 15814 0
-15815 13500 0
-15815 13340 0
-13500 -13340 15815 0
-15816 13501 0
-15816 13361 0
-13501 -13361 15816 0
-15817 13502 0
-15817 13374 0
-13502 -13374 15817 0
-15818 13503 0
-15818 13387 0
-13503 -13387 15818 0
-15819 13504 0
-15819 13400 0
-13504 -13400 15819 0
-15820 13506 0
-15820 13427 0
-13506 -13427 15820 0
-15821 13507 0
-15821 13440 0
-13507 -13440 15821 0
-15822 13508 0
-15822 13453 0
-13508 -13453 15822 0
-15823 13509 0
-15823 13466 0
-13509 -13466 15823 0
-15824 13510 0
-15824 13479 0
-13510 -13479 15824 0
-15825 13511 0
-15825 13492 0
-13511 -13492 15825 0
-15813 -15814 0
-15813 -15815 0
-15813 -15816 0
-15813 -15817 0
-15813 -15818 0
-15813 -15819 0
-15813 -15820 0
-15813 -15821 0
-15813 -15822 0
-15813 -15823 0
-15813 -15824 0
-15813 -15825 0
-13505 15813 15814 15815 15816 15817 15818 15819 15820 15821 15822 15823 15824 15825 0
-15826 13506 0
-15827 13499 0
-15827 13343 0
-13499 -13343 15827 0
-15828 13500 0
-15828 13342 0
-13500 -13342 15828 0
-15829 13501 0
-15829 13362 0
-13501 -13362 15829 0
-15830 13502 0
-15830 13375 0
-13502 -13375 15830 0
-15831 13503 0
-15831 13388 0
-13503 -13388 15831 0
-15832 13504 0
-15832 13401 0
-13504 -13401 15832 0
-15833 13505 0
-15833 13414 0
-13505 -13414 15833 0
-15834 13507 0
-15834 13441 0
-13507 -13441 15834 0
-15835 13508 0
-15835 13454 0
-13508 -13454 15835 0
-15836 13509 0
-15836 13467 0
-13509 -13467 15836 0
-15837 13510 0
-15837 13480 0
-13510 -13480 15837 0
-15838 13511 0
-15838 13493 0
-13511 -13493 15838 0
-15826 -15827 0
-15826 -15828 0
-15826 -15829 0
-15826 -15830 0
-15826 -15831 0
-15826 -15832 0
-15826 -15833 0
-15826 -15834 0
-15826 -15835 0
-15826 -15836 0
-15826 -15837 0
-15826 -15838 0
-13506 15826 15827 15828 15829 15830 15831 15832 15833 15834 15835 15836 15837 15838 0
-15839 13507 0
-15840 13499 0
-15840 13345 0
-13499 -13345 15840 0
-15841 13500 0
-15841 13344 0
-13500 -13344 15841 0
-15842 13501 0
-15842 13363 0
-13501 -13363 15842 0
-15843 13502 0
-15843 13376 0
-13502 -13376 15843 0
-15844 13503 0
-15844 13389 0
-13503 -13389 15844 0
-15845 13504 0
-15845 13402 0
-13504 -13402 15845 0
-15846 13505 0
-15846 13415 0
-13505 -13415 15846 0
-15847 13506 0
-15847 13428 0
-13506 -13428 15847 0
-15848 13508 0
-15848 13455 0
-13508 -13455 15848 0
-15849 13509 0
-15849 13468 0
-13509 -13468 15849 0
-15850 13510 0
-15850 13481 0
-13510 -13481 15850 0
-15851 13511 0
-15851 13494 0
-13511 -13494 15851 0
-15839 -15840 0
-15839 -15841 0
-15839 -15842 0
-15839 -15843 0
-15839 -15844 0
-15839 -15845 0
-15839 -15846 0
-15839 -15847 0
-15839 -15848 0
-15839 -15849 0
-15839 -15850 0
-15839 -15851 0
-13507 15839 15840 15841 15842 15843 15844 15845 15846 15847 15848 15849 15850 15851 0
-15852 13508 0
-15853 13499 0
-15853 13347 0
-13499 -13347 15853 0
-15854 13500 0
-15854 13346 0
-13500 -13346 15854 0
-15855 13501 0
-15855 13364 0
-13501 -13364 15855 0
-15856 13502 0
-15856 13377 0
-13502 -13377 15856 0
-15857 13503 0
-15857 13390 0
-13503 -13390 15857 0
-15858 13504 0
-15858 13403 0
-13504 -13403 15858 0
-15859 13505 0
-15859 13416 0
-13505 -13416 15859 0
-15860 13506 0
-15860 13429 0
-13506 -13429 15860 0
-15861 13507 0
-15861 13442 0
-13507 -13442 15861 0
-15862 13509 0
-15862 13469 0
-13509 -13469 15862 0
-15863 13510 0
-15863 13482 0
-13510 -13482 15863 0
-15864 13511 0
-15864 13495 0
-13511 -13495 15864 0
-15852 -15853 0
-15852 -15854 0
-15852 -15855 0
-15852 -15856 0
-15852 -15857 0
-15852 -15858 0
-15852 -15859 0
-15852 -15860 0
-15852 -15861 0
-15852 -15862 0
-15852 -15863 0
-15852 -15864 0
-13508 15852 15853 15854 15855 15856 15857 15858 15859 15860 15861 15862 15863 15864 0
-15865 13509 0
-15866 13499 0
-15866 13349 0
-13499 -13349 15866 0
-15867 13500 0
-15867 13348 0
-13500 -13348 15867 0
-15868 13501 0
-15868 13365 0
-13501 -13365 15868 0
-15869 13502 0
-15869 13378 0
-13502 -13378 15869 0
-15870 13503 0
-15870 13391 0
-13503 -13391 15870 0
-15871 13504 0
-15871 13404 0
-13504 -13404 15871 0
-15872 13505 0
-15872 13417 0
-13505 -13417 15872 0
-15873 13506 0
-15873 13430 0
-13506 -13430 15873 0
-15874 13507 0
-15874 13443 0
-13507 -13443 15874 0
-15875 13508 0
-15875 13456 0
-13508 -13456 15875 0
-15876 13510 0
-15876 13483 0
-13510 -13483 15876 0
-15877 13511 0
-15877 13496 0
-13511 -13496 15877 0
-15865 -15866 0
-15865 -15867 0
-15865 -15868 0
-15865 -15869 0
-15865 -15870 0
-15865 -15871 0
-15865 -15872 0
-15865 -15873 0
-15865 -15874 0
-15865 -15875 0
-15865 -15876 0
-15865 -15877 0
-13509 15865 15866 15867 15868 15869 15870 15871 15872 15873 15874 15875 15876 15877 0
-15878 13510 0
-15879 13499 0
-15879 13351 0
-13499 -13351 15879 0
-15880 13500 0
-15880 13350 0
-13500 -13350 15880 0
-15881 13501 0
-15881 13366 0
-13501 -13366 15881 0
-15882 13502 0
-15882 13379 0
-13502 -13379 15882 0
-15883 13503 0
-15883 13392 0
-13503 -13392 15883 0
-15884 13504 0
-15884 13405 0
-13504 -13405 15884 0
-15885 13505 0
-15885 13418 0
-13505 -13418 15885 0
-15886 13506 0
-15886 13431 0
-13506 -13431 15886 0
-15887 13507 0
-15887 13444 0
-13507 -13444 15887 0
-15888 13508 0
-15888 13457 0
-13508 -13457 15888 0
-15889 13509 0
-15889 13470 0
-13509 -13470 15889 0
-15890 13511 0
-15890 13497 0
-13511 -13497 15890 0
-15878 -15879 0
-15878 -15880 0
-15878 -15881 0
-15878 -15882 0
-15878 -15883 0
-15878 -15884 0
-15878 -15885 0
-15878 -15886 0
-15878 -15887 0
-15878 -15888 0
-15878 -15889 0
-15878 -15890 0
-13510 15878 15879 15880 15881 15882 15883 15884 15885 15886 15887 15888 15889 15890 0
-15891 13511 0
-15892 13499 0
-15892 13353 0
-13499 -13353 15892 0
-15893 13500 0
-15893 13352 0
-13500 -13352 15893 0
-15894 13501 0
-15894 13367 0
-13501 -13367 15894 0
-15895 13502 0
-15895 13380 0
-13502 -13380 15895 0
-15896 13503 0
-15896 13393 0
-13503 -13393 15896 0
-15897 13504 0
-15897 13406 0
-13504 -13406 15897 0
-15898 13505 0
-15898 13419 0
-13505 -13419 15898 0
-15899 13506 0
-15899 13432 0
-13506 -13432 15899 0
-15900 13507 0
-15900 13445 0
-13507 -13445 15900 0
-15901 13508 0
-15901 13458 0
-13508 -13458 15901 0
-15902 13509 0
-15902 13471 0
-13509 -13471 15902 0
-15903 13510 0
-15903 13484 0
-13510 -13484 15903 0
-15891 -15892 0
-15891 -15893 0
-15891 -15894 0
-15891 -15895 0
-15891 -15896 0
-15891 -15897 0
-15891 -15898 0
-15891 -15899 0
-15891 -15900 0
-15891 -15901 0
-15891 -15902 0
-15891 -15903 0
-13511 15891 15892 15893 15894 15895 15896 15897 15898 15899 15900 15901 15902 15903 0
-15904 0
-15905 13329 0
-15905 13330 0
-15905 13333 0
-15905 13335 0
-15905 13337 0
-15905 13339 0
-15905 13341 0
-15905 13343 0
-15905 13345 0
-15905 13347 0
-15905 13349 0
-15905 13351 0
-15905 13353 0
-15905 13355 0
-13329 -13330 -13333 -13335 -13337 -13339 -13341 -13343 -13345 -13347 -13349 -13351 -13353 -13355 15905 0
-15906 13329 0
-15906 13331 0
-15906 13356 0
-15906 13369 0
-15906 13382 0
-15906 13395 0
-15906 13408 0
-15906 13421 0
-15906 13434 0
-15906 13447 0
-15906 13460 0
-15906 13473 0
-15906 13486 0
-15906 13499 0
-13329 -13331 -13356 -13369 -13382 -13395 -13408 -13421 -13434 -13447 -13460 -13473 -13486 -13499 15906 0
-15907 13331 0
-15907 13512 0
-15907 13332 0
-15907 13334 0
-15907 13336 0
-15907 13338 0
-15907 13340 0
-15907 13342 0
-15907 13344 0
-15907 13346 0
-15907 13348 0
-15907 13350 0
-15907 13352 0
-15907 13354 0
-13331 -13512 -13332 -13334 -13336 -13338 -13340 -13342 -13344 -13346 -13348 -13350 -13352 -13354 15907 0
-15908 13330 0
-15908 13512 0
-15908 13357 0
-15908 13370 0
-15908 13383 0
-15908 13396 0
-15908 13409 0
-15908 13422 0
-15908 13435 0
-15908 13448 0
-15908 13461 0
-15908 13474 0
-15908 13487 0
-15908 13500 0
-13330 -13512 -13357 -13370 -13383 -13396 -13409 -13422 -13435 -13448 -13461 -13474 -13487 -13500 15908 0
-15909 13356 0
-15909 13357 0
-15909 13513 0
-15909 13358 0
-15909 13359 0
-15909 13360 0
-15909 13361 0
-15909 13362 0
-15909 13363 0
-15909 13364 0
-15909 13365 0
-15909 13366 0
-15909 13367 0
-15909 13368 0
-13356 -13357 -13513 -13358 -13359 -13360 -13361 -13362 -13363 -13364 -13365 -13366 -13367 -13368 15909 0
-15910 13333 0
-15910 13332 0
-15910 13513 0
-15910 13371 0
-15910 13384 0
-15910 13397 0
-15910 13410 0
-15910 13423 0
-15910 13436 0
-15910 13449 0
-15910 13462 0
-15910 13475 0
-15910 13488 0
-15910 13501 0
-13333 -13332 -13513 -13371 -13384 -13397 -13410 -13423 -13436 -13449 -13462 -13475 -13488 -13501 15910 0
-15911 13369 0
-15911 13370 0
-15911 13371 0
-15911 13514 0
-15911 13372 0
-15911 13373 0
-15911 13374 0
-15911 13375 0
-15911 13376 0
-15911 13377 0
-15911 13378 0
-15911 13379 0
-15911 13380 0
-15911 13381 0
-13369 -13370 -13371 -13514 -13372 -13373 -13374 -13375 -13376 -13377 -13378 -13379 -13380 -13381 15911 0
-15912 13335 0
-15912 13334 0
-15912 13358 0
-15912 13514 0
-15912 13385 0
-15912 13398 0
-15912 13411 0
-15912 13424 0
-15912 13437 0
-15912 13450 0
-15912 13463 0
-15912 13476 0
-15912 13489 0
-15912 13502 0
-13335 -13334 -13358 -13514 -13385 -13398 -13411 -13424 -13437 -13450 -13463 -13476 -13489 -13502 15912 0
-15913 13382 0
-15913 13383 0
-15913 13384 0
-15913 13385 0
-15913 13515 0
-15913 13386 0
-15913 13387 0
-15913 13388 0
-15913 13389 0
-15913 13390 0
-15913 13391 0
-15913 13392 0
-15913 13393 0
-15913 13394 0
-13382 -13383 -13384 -13385 -13515 -13386 -13387 -13388 -13389 -13390 -13391 -13392 -13393 -13394 15913 0
-15914 13337 0
-15914 13336 0
-15914 13359 0
-15914 13372 0
-15914 13515 0
-15914 13399 0
-15914 13412 0
-15914 13425 0
-15914 13438 0
-15914 13451 0
-15914 13464 0
-15914 13477 0
-15914 13490 0
-15914 13503 0
-13337 -13336 -13359 -13372 -13515 -13399 -13412 -13425 -13438 -13451 -13464 -13477 -13490 -13503 15914 0
-15915 13395 0
-15915 13396 0
-15915 13397 0
-15915 13398 0
-15915 13399 0
-15915 13516 0
-15915 13400 0
-15915 13401 0
-15915 13402 0
-15915 13403 0
-15915 13404 0
-15915 13405 0
-15915 13406 0
-15915 13407 0
-13395 -13396 -13397 -13398 -13399 -13516 -13400 -13401 -13402 -13403 -13404 -13405 -13406 -13407 15915 0
-15916 13339 0
-15916 13338 0
-15916 13360 0
-15916 13373 0
-15916 13386 0
-15916 13516 0
-15916 13413 0
-15916 13426 0
-15916 13439 0
-15916 13452 0
-15916 13465 0
-15916 13478 0
-15916 13491 0
-15916 13504 0
-13339 -13338 -13360 -13373 -13386 -13516 -13413 -13426 -13439 -13452 -13465 -13478 -13491 -13504 15916 0
-15917 13408 0
-15917 13409 0
-15917 13410 0
-15917 13411 0
-15917 13412 0
-15917 13413 0
-15917 13517 0
-15917 13414 0
-15917 13415 0
-15917 13416 0
-15917 13417 0
-15917 13418 0
-15917 13419 0
-15917 13420 0
-13408 -13409 -13410 -13411 -13412 -13413 -13517 -13414 -13415 -13416 -13417 -13418 -13419 -13420 15917 0
-15918 13341 0
-15918 13340 0
-15918 13361 0
-15918 13374 0
-15918 13387 0
-15918 13400 0
-15918 13517 0
-15918 13427 0
-15918 13440 0
-15918 13453 0
-15918 13466 0
-15918 13479 0
-15918 13492 0
-15918 13505 0
-13341 -13340 -13361 -13374 -13387 -13400 -13517 -13427 -13440 -13453 -13466 -13479 -13492 -13505 15918 0
-15919 13421 0
-15919 13422 0
-15919 13423 0
-15919 13424 0
-15919 13425 0
-15919 13426 0
-15919 13427 0
-15919 13518 0
-15919 13428 0
-15919 13429 0
-15919 13430 0
-15919 13431 0
-15919 13432 0
-15919 13433 0
-13421 -13422 -13423 -13424 -13425 -13426 -13427 -13518 -13428 -13429 -13430 -13431 -13432 -13433 15919 0
-15920 13343 0
-15920 13342 0
-15920 13362 0
-15920 13375 0
-15920 13388 0
-15920 13401 0
-15920 13414 0
-15920 13518 0
-15920 13441 0
-15920 13454 0
-15920 13467 0
-15920 13480 0
-15920 13493 0
-15920 13506 0
-13343 -13342 -13362 -13375 -13388 -13401 -13414 -13518 -13441 -13454 -13467 -13480 -13493 -13506 15920 0
-15921 13434 0
-15921 13435 0
-15921 13436 0
-15921 13437 0
-15921 13438 0
-15921 13439 0
-15921 13440 0
-15921 13441 0
-15921 13519 0
-15921 13442 0
-15921 13443 0
-15921 13444 0
-15921 13445 0
-15921 13446 0
-13434 -13435 -13436 -13437 -13438 -13439 -13440 -13441 -13519 -13442 -13443 -13444 -13445 -13446 15921 0
-15922 13345 0
-15922 13344 0
-15922 13363 0
-15922 13376 0
-15922 13389 0
-15922 13402 0
-15922 13415 0
-15922 13428 0
-15922 13519 0
-15922 13455 0
-15922 13468 0
-15922 13481 0
-15922 13494 0
-15922 13507 0
-13345 -13344 -13363 -13376 -13389 -13402 -13415 -13428 -13519 -13455 -13468 -13481 -13494 -13507 15922 0
-15923 13447 0
-15923 13448 0
-15923 13449 0
-15923 13450 0
-15923 13451 0
-15923 13452 0
-15923 13453 0
-15923 13454 0
-15923 13455 0
-15923 13520 0
-15923 13456 0
-15923 13457 0
-15923 13458 0
-15923 13459 0
-13447 -13448 -13449 -13450 -13451 -13452 -13453 -13454 -13455 -13520 -13456 -13457 -13458 -13459 15923 0
-15924 13347 0
-15924 13346 0
-15924 13364 0
-15924 13377 0
-15924 13390 0
-15924 13403 0
-15924 13416 0
-15924 13429 0
-15924 13442 0
-15924 13520 0
-15924 13469 0
-15924 13482 0
-15924 13495 0
-15924 13508 0
-13347 -13346 -13364 -13377 -13390 -13403 -13416 -13429 -13442 -13520 -13469 -13482 -13495 -13508 15924 0
-15925 13460 0
-15925 13461 0
-15925 13462 0
-15925 13463 0
-15925 13464 0
-15925 13465 0
-15925 13466 0
-15925 13467 0
-15925 13468 0
-15925 13469 0
-15925 13521 0
-15925 13470 0
-15925 13471 0
-15925 13472 0
-13460 -13461 -13462 -13463 -13464 -13465 -13466 -13467 -13468 -13469 -13521 -13470 -13471 -13472 15925 0
-15926 13349 0
-15926 13348 0
-15926 13365 0
-15926 13378 0
-15926 13391 0
-15926 13404 0
-15926 13417 0
-15926 13430 0
-15926 13443 0
-15926 13456 0
-15926 13521 0
-15926 13483 0
-15926 13496 0
-15926 13509 0
-13349 -13348 -13365 -13378 -13391 -13404 -13417 -13430 -13443 -13456 -13521 -13483 -13496 -13509 15926 0
-15927 13473 0
-15927 13474 0
-15927 13475 0
-15927 13476 0
-15927 13477 0
-15927 13478 0
-15927 13479 0
-15927 13480 0
-15927 13481 0
-15927 13482 0
-15927 13483 0
-15927 13522 0
-15927 13484 0
-15927 13485 0
-13473 -13474 -13475 -13476 -13477 -13478 -13479 -13480 -13481 -13482 -13483 -13522 -13484 -13485 15927 0
-15928 13351 0
-15928 13350 0
-15928 13366 0
-15928 13379 0
-15928 13392 0
-15928 13405 0
-15928 13418 0
-15928 13431 0
-15928 13444 0
-15928 13457 0
-15928 13470 0
-15928 13522 0
-15928 13497 0
-15928 13510 0
-13351 -13350 -13366 -13379 -13392 -13405 -13418 -13431 -13444 -13457 -13470 -13522 -13497 -13510 15928 0
-15929 13486 0
-15929 13487 0
-15929 13488 0
-15929 13489 0
-15929 13490 0
-15929 13491 0
-15929 13492 0
-15929 13493 0
-15929 13494 0
-15929 13495 0
-15929 13496 0
-15929 13497 0
-15929 13523 0
-15929 13498 0
-13486 -13487 -13488 -13489 -13490 -13491 -13492 -13493 -13494 -13495 -13496 -13497 -13523 -13498 15929 0
-15930 13353 0
-15930 13352 0
-15930 13367 0
-15930 13380 0
-15930 13393 0
-15930 13406 0
-15930 13419 0
-15930 13432 0
-15930 13445 0
-15930 13458 0
-15930 13471 0
-15930 13484 0
-15930 13523 0
-15930 13511 0
-13353 -13352 -13367 -13380 -13393 -13406 -13419 -13432 -13445 -13458 -13471 -13484 -13523 -13511 15930 0
-15931 13499 0
-15931 13500 0
-15931 13501 0
-15931 13502 0
-15931 13503 0
-15931 13504 0
-15931 13505 0
-15931 13506 0
-15931 13507 0
-15931 13508 0
-15931 13509 0
-15931 13510 0
-15931 13511 0
-15931 13524 0
-13499 -13500 -13501 -13502 -13503 -13504 -13505 -13506 -13507 -13508 -13509 -13510 -13511 -13524 15931 0
-15932 13355 0
-15932 13354 0
-15932 13368 0
-15932 13381 0
-15932 13394 0
-15932 13407 0
-15932 13420 0
-15932 13433 0
-15932 13446 0
-15932 13459 0
-15932 13472 0
-15932 13485 0
-15932 13498 0
-15932 13524 0
-13355 -13354 -13368 -13381 -13394 -13407 -13420 -13433 -13446 -13459 -13472 -13485 -13498 -13524 15932 0
-13525 15 0
-15906 -15905 15 0
-15 13525 15906 0
-15 13525 15905 0
-13526 17 0
-15906 -15907 17 0
-17 13526 15906 0
-17 13526 15907 0
-13539 19 0
-15906 -15909 19 0
-19 13539 15906 0
-19 13539 15909 0
-13552 21 0
-15906 -15911 21 0
-21 13552 15906 0
-21 13552 15911 0
-13565 23 0
-15906 -15913 23 0
-23 13565 15906 0
-23 13565 15913 0
-13578 25 0
-15906 -15915 25 0
-25 13578 15906 0
-25 13578 15915 0
-13591 27 0
-15906 -15917 27 0
-27 13591 15906 0
-27 13591 15917 0
-13604 29 0
-15906 -15919 29 0
-29 13604 15906 0
-29 13604 15919 0
-13617 31 0
-15906 -15921 31 0
-31 13617 15906 0
-31 13617 15921 0
-13630 33 0
-15906 -15923 33 0
-33 13630 15906 0
-33 13630 15923 0
-13643 35 0
-15906 -15925 35 0
-35 13643 15906 0
-35 13643 15925 0
-13656 37 0
-15906 -15927 37 0
-37 13656 15906 0
-37 13656 15927 0
-13669 39 0
-15906 -15929 39 0
-39 13669 15906 0
-39 13669 15929 0
-13682 41 0
-15906 -15931 41 0
-41 13682 15906 0
-41 13682 15931 0
-13695 43 0
-15908 -15905 43 0
-43 13695 15908 0
-43 13695 15905 0
-13708 44 0
-15908 -15907 44 0
-44 13708 15908 0
-44 13708 15907 0
-13709 46 0
-15908 -15909 46 0
-46 13709 15908 0
-46 13709 15909 0
-13722 48 0
-15908 -15911 48 0
-48 13722 15908 0
-48 13722 15911 0
-13735 50 0
-15908 -15913 50 0
-50 13735 15908 0
-50 13735 15913 0
-13748 52 0
-15908 -15915 52 0
-52 13748 15908 0
-52 13748 15915 0
-13761 54 0
-15908 -15917 54 0
-54 13761 15908 0
-54 13761 15917 0
-13774 56 0
-15908 -15919 56 0
-56 13774 15908 0
-56 13774 15919 0
-13787 58 0
-15908 -15921 58 0
-58 13787 15908 0
-58 13787 15921 0
-13800 60 0
-15908 -15923 60 0
-60 13800 15908 0
-60 13800 15923 0
-13813 62 0
-15908 -15925 62 0
-62 13813 15908 0
-62 13813 15925 0
-13826 64 0
-15908 -15927 64 0
-64 13826 15908 0
-64 13826 15927 0
-13839 66 0
-15908 -15929 66 0
-66 13839 15908 0
-66 13839 15929 0
-13852 68 0
-15908 -15931 68 0
-68 13852 15908 0
-68 13852 15931 0
-13865 70 0
-15910 -15905 70 0
-70 13865 15910 0
-70 13865 15905 0
-13878 72 0
-15910 -15907 72 0
-72 13878 15910 0
-72 13878 15907 0
-13891 73 0
-15910 -15909 73 0
-73 13891 15910 0
-73 13891 15909 0
-13892 75 0
-15910 -15911 75 0
-75 13892 15910 0
-75 13892 15911 0
-13905 77 0
-15910 -15913 77 0
-77 13905 15910 0
-77 13905 15913 0
-13918 79 0
-15910 -15915 79 0
-79 13918 15910 0
-79 13918 15915 0
-13931 81 0
-15910 -15917 81 0
-81 13931 15910 0
-81 13931 15917 0
-13944 83 0
-15910 -15919 83 0
-83 13944 15910 0
-83 13944 15919 0
-13957 85 0
-15910 -15921 85 0
-85 13957 15910 0
-85 13957 15921 0
-13970 87 0
-15910 -15923 87 0
-87 13970 15910 0
-87 13970 15923 0
-13983 89 0
-15910 -15925 89 0
-89 13983 15910 0
-89 13983 15925 0
-13996 91 0
-15910 -15927 91 0
-91 13996 15910 0
-91 13996 15927 0
-14009 93 0
-15910 -15929 93 0
-93 14009 15910 0
-93 14009 15929 0
-14022 95 0
-15910 -15931 95 0
-95 14022 15910 0
-95 14022 15931 0
-14035 97 0
-15912 -15905 97 0
-97 14035 15912 0
-97 14035 15905 0
-14048 99 0
-15912 -15907 99 0
-99 14048 15912 0
-99 14048 15907 0
-14061 101 0
-15912 -15909 101 0
-101 14061 15912 0
-101 14061 15909 0
-14074 102 0
-15912 -15911 102 0
-102 14074 15912 0
-102 14074 15911 0
-14075 104 0
-15912 -15913 104 0
-104 14075 15912 0
-104 14075 15913 0
-14088 106 0
-15912 -15915 106 0
-106 14088 15912 0
-106 14088 15915 0
-14101 108 0
-15912 -15917 108 0
-108 14101 15912 0
-108 14101 15917 0
-14114 110 0
-15912 -15919 110 0
-110 14114 15912 0
-110 14114 15919 0
-14127 112 0
-15912 -15921 112 0
-112 14127 15912 0
-112 14127 15921 0
-14140 114 0
-15912 -15923 114 0
-114 14140 15912 0
-114 14140 15923 0
-14153 116 0
-15912 -15925 116 0
-116 14153 15912 0
-116 14153 15925 0
-14166 118 0
-15912 -15927 118 0
-118 14166 15912 0
-118 14166 15927 0
-14179 120 0
-15912 -15929 120 0
-120 14179 15912 0
-120 14179 15929 0
-14192 122 0
-15912 -15931 122 0
-122 14192 15912 0
-122 14192 15931 0
-14205 124 0
-15914 -15905 124 0
-124 14205 15914 0
-124 14205 15905 0
-14218 126 0
-15914 -15907 126 0
-126 14218 15914 0
-126 14218 15907 0
-14231 128 0
-15914 -15909 128 0
-128 14231 15914 0
-128 14231 15909 0
-14244 130 0
-15914 -15911 130 0
-130 14244 15914 0
-130 14244 15911 0
-14257 131 0
-15914 -15913 131 0
-131 14257 15914 0
-131 14257 15913 0
-14258 133 0
-15914 -15915 133 0
-133 14258 15914 0
-133 14258 15915 0
-14271 135 0
-15914 -15917 135 0
-135 14271 15914 0
-135 14271 15917 0
-14284 137 0
-15914 -15919 137 0
-137 14284 15914 0
-137 14284 15919 0
-14297 139 0
-15914 -15921 139 0
-139 14297 15914 0
-139 14297 15921 0
-14310 141 0
-15914 -15923 141 0
-141 14310 15914 0
-141 14310 15923 0
-14323 143 0
-15914 -15925 143 0
-143 14323 15914 0
-143 14323 15925 0
-14336 145 0
-15914 -15927 145 0
-145 14336 15914 0
-145 14336 15927 0
-14349 147 0
-15914 -15929 147 0
-147 14349 15914 0
-147 14349 15929 0
-14362 149 0
-15914 -15931 149 0
-149 14362 15914 0
-149 14362 15931 0
-14375 151 0
-15916 -15905 151 0
-151 14375 15916 0
-151 14375 15905 0
-14388 153 0
-15916 -15907 153 0
-153 14388 15916 0
-153 14388 15907 0
-14401 155 0
-15916 -15909 155 0
-155 14401 15916 0
-155 14401 15909 0
-14414 157 0
-15916 -15911 157 0
-157 14414 15916 0
-157 14414 15911 0
-14427 159 0
-15916 -15913 159 0
-159 14427 15916 0
-159 14427 15913 0
-14440 160 0
-15916 -15915 160 0
-160 14440 15916 0
-160 14440 15915 0
-14441 162 0
-15916 -15917 162 0
-162 14441 15916 0
-162 14441 15917 0
-14454 164 0
-15916 -15919 164 0
-164 14454 15916 0
-164 14454 15919 0
-14467 166 0
-15916 -15921 166 0
-166 14467 15916 0
-166 14467 15921 0
-14480 168 0
-15916 -15923 168 0
-168 14480 15916 0
-168 14480 15923 0
-14493 170 0
-15916 -15925 170 0
-170 14493 15916 0
-170 14493 15925 0
-14506 172 0
-15916 -15927 172 0
-172 14506 15916 0
-172 14506 15927 0
-14519 174 0
-15916 -15929 174 0
-174 14519 15916 0
-174 14519 15929 0
-14532 176 0
-15916 -15931 176 0
-176 14532 15916 0
-176 14532 15931 0
-14545 178 0
-15918 -15905 178 0
-178 14545 15918 0
-178 14545 15905 0
-14558 180 0
-15918 -15907 180 0
-180 14558 15918 0
-180 14558 15907 0
-14571 182 0
-15918 -15909 182 0
-182 14571 15918 0
-182 14571 15909 0
-14584 184 0
-15918 -15911 184 0
-184 14584 15918 0
-184 14584 15911 0
-14597 186 0
-15918 -15913 186 0
-186 14597 15918 0
-186 14597 15913 0
-14610 188 0
-15918 -15915 188 0
-188 14610 15918 0
-188 14610 15915 0
-14623 189 0
-15918 -15917 189 0
-189 14623 15918 0
-189 14623 15917 0
-14624 191 0
-15918 -15919 191 0
-191 14624 15918 0
-191 14624 15919 0
-14637 193 0
-15918 -15921 193 0
-193 14637 15918 0
-193 14637 15921 0
-14650 195 0
-15918 -15923 195 0
-195 14650 15918 0
-195 14650 15923 0
-14663 197 0
-15918 -15925 197 0
-197 14663 15918 0
-197 14663 15925 0
-14676 199 0
-15918 -15927 199 0
-199 14676 15918 0
-199 14676 15927 0
-14689 201 0
-15918 -15929 201 0
-201 14689 15918 0
-201 14689 15929 0
-14702 203 0
-15918 -15931 203 0
-203 14702 15918 0
-203 14702 15931 0
-14715 205 0
-15920 -15905 205 0
-205 14715 15920 0
-205 14715 15905 0
-14728 207 0
-15920 -15907 207 0
-207 14728 15920 0
-207 14728 15907 0
-14741 209 0
-15920 -15909 209 0
-209 14741 15920 0
-209 14741 15909 0
-14754 211 0
-15920 -15911 211 0
-211 14754 15920 0
-211 14754 15911 0
-14767 213 0
-15920 -15913 213 0
-213 14767 15920 0
-213 14767 15913 0
-14780 215 0
-15920 -15915 215 0
-215 14780 15920 0
-215 14780 15915 0
-14793 217 0
-15920 -15917 217 0
-217 14793 15920 0
-217 14793 15917 0
-14806 218 0
-15920 -15919 218 0
-218 14806 15920 0
-218 14806 15919 0
-14807 220 0
-15920 -15921 220 0
-220 14807 15920 0
-220 14807 15921 0
-14820 222 0
-15920 -15923 222 0
-222 14820 15920 0
-222 14820 15923 0
-14833 224 0
-15920 -15925 224 0
-224 14833 15920 0
-224 14833 15925 0
-14846 226 0
-15920 -15927 226 0
-226 14846 15920 0
-226 14846 15927 0
-14859 228 0
-15920 -15929 228 0
-228 14859 15920 0
-228 14859 15929 0
-14872 230 0
-15920 -15931 230 0
-230 14872 15920 0
-230 14872 15931 0
-14885 232 0
-15922 -15905 232 0
-232 14885 15922 0
-232 14885 15905 0
-14898 234 0
-15922 -15907 234 0
-234 14898 15922 0
-234 14898 15907 0
-14911 236 0
-15922 -15909 236 0
-236 14911 15922 0
-236 14911 15909 0
-14924 238 0
-15922 -15911 238 0
-238 14924 15922 0
-238 14924 15911 0
-14937 240 0
-15922 -15913 240 0
-240 14937 15922 0
-240 14937 15913 0
-14950 242 0
-15922 -15915 242 0
-242 14950 15922 0
-242 14950 15915 0
-14963 244 0
-15922 -15917 244 0
-244 14963 15922 0
-244 14963 15917 0
-14976 246 0
-15922 -15919 246 0
-246 14976 15922 0
-246 14976 15919 0
-14989 247 0
-15922 -15921 247 0
-247 14989 15922 0
-247 14989 15921 0
-14990 249 0
-15922 -15923 249 0
-249 14990 15922 0
-249 14990 15923 0
-15003 251 0
-15922 -15925 251 0
-251 15003 15922 0
-251 15003 15925 0
-15016 253 0
-15922 -15927 253 0
-253 15016 15922 0
-253 15016 15927 0
-15029 255 0
-15922 -15929 255 0
-255 15029 15922 0
-255 15029 15929 0
-15042 257 0
-15922 -15931 257 0
-257 15042 15922 0
-257 15042 15931 0
-15055 259 0
-15924 -15905 259 0
-259 15055 15924 0
-259 15055 15905 0
-15068 261 0
-15924 -15907 261 0
-261 15068 15924 0
-261 15068 15907 0
-15081 263 0
-15924 -15909 263 0
-263 15081 15924 0
-263 15081 15909 0
-15094 265 0
-15924 -15911 265 0
-265 15094 15924 0
-265 15094 15911 0
-15107 267 0
-15924 -15913 267 0
-267 15107 15924 0
-267 15107 15913 0
-15120 269 0
-15924 -15915 269 0
-269 15120 15924 0
-269 15120 15915 0
-15133 271 0
-15924 -15917 271 0
-271 15133 15924 0
-271 15133 15917 0
-15146 273 0
-15924 -15919 273 0
-273 15146 15924 0
-273 15146 15919 0
-15159 275 0
-15924 -15921 275 0
-275 15159 15924 0
-275 15159 15921 0
-15172 276 0
-15924 -15923 276 0
-276 15172 15924 0
-276 15172 15923 0
-15173 278 0
-15924 -15925 278 0
-278 15173 15924 0
-278 15173 15925 0
-15186 280 0
-15924 -15927 280 0
-280 15186 15924 0
-280 15186 15927 0
-15199 282 0
-15924 -15929 282 0
-282 15199 15924 0
-282 15199 15929 0
-15212 284 0
-15924 -15931 284 0
-284 15212 15924 0
-284 15212 15931 0
-15225 286 0
-15926 -15905 286 0
-286 15225 15926 0
-286 15225 15905 0
-15238 288 0
-15926 -15907 288 0
-288 15238 15926 0
-288 15238 15907 0
-15251 290 0
-15926 -15909 290 0
-290 15251 15926 0
-290 15251 15909 0
-15264 292 0
-15926 -15911 292 0
-292 15264 15926 0
-292 15264 15911 0
-15277 294 0
-15926 -15913 294 0
-294 15277 15926 0
-294 15277 15913 0
-15290 296 0
-15926 -15915 296 0
-296 15290 15926 0
-296 15290 15915 0
-15303 298 0
-15926 -15917 298 0
-298 15303 15926 0
-298 15303 15917 0
-15316 300 0
-15926 -15919 300 0
-300 15316 15926 0
-300 15316 15919 0
-15329 302 0
-15926 -15921 302 0
-302 15329 15926 0
-302 15329 15921 0
-15342 304 0
-15926 -15923 304 0
-304 15342 15926 0
-304 15342 15923 0
-15355 305 0
-15926 -15925 305 0
-305 15355 15926 0
-305 15355 15925 0
-15356 307 0
-15926 -15927 307 0
-307 15356 15926 0
-307 15356 15927 0
-15369 309 0
-15926 -15929 309 0
-309 15369 15926 0
-309 15369 15929 0
-15382 311 0
-15926 -15931 311 0
-311 15382 15926 0
-311 15382 15931 0
-15395 313 0
-15928 -15905 313 0
-313 15395 15928 0
-313 15395 15905 0
-15408 315 0
-15928 -15907 315 0
-315 15408 15928 0
-315 15408 15907 0
-15421 317 0
-15928 -15909 317 0
-317 15421 15928 0
-317 15421 15909 0
-15434 319 0
-15928 -15911 319 0
-319 15434 15928 0
-319 15434 15911 0
-15447 321 0
-15928 -15913 321 0
-321 15447 15928 0
-321 15447 15913 0
-15460 323 0
-15928 -15915 323 0
-323 15460 15928 0
-323 15460 15915 0
-15473 325 0
-15928 -15917 325 0
-325 15473 15928 0
-325 15473 15917 0
-15486 327 0
-15928 -15919 327 0
-327 15486 15928 0
-327 15486 15919 0
-15499 329 0
-15928 -15921 329 0
-329 15499 15928 0
-329 15499 15921 0
-15512 331 0
-15928 -15923 331 0
-331 15512 15928 0
-331 15512 15923 0
-15525 333 0
-15928 -15925 333 0
-333 15525 15928 0
-333 15525 15925 0
-15538 334 0
-15928 -15927 334 0
-334 15538 15928 0
-334 15538 15927 0
-15539 336 0
-15928 -15929 336 0
-336 15539 15928 0
-336 15539 15929 0
-15552 338 0
-15928 -15931 338 0
-338 15552 15928 0
-338 15552 15931 0
-15565 340 0
-15930 -15905 340 0
-340 15565 15930 0
-340 15565 15905 0
-15578 342 0
-15930 -15907 342 0
-342 15578 15930 0
-342 15578 15907 0
-15591 344 0
-15930 -15909 344 0
-344 15591 15930 0
-344 15591 15909 0
-15604 346 0
-15930 -15911 346 0
-346 15604 15930 0
-346 15604 15911 0
-15617 348 0
-15930 -15913 348 0
-348 15617 15930 0
-348 15617 15913 0
-15630 350 0
-15930 -15915 350 0
-350 15630 15930 0
-350 15630 15915 0
-15643 352 0
-15930 -15917 352 0
-352 15643 15930 0
-352 15643 15917 0
-15656 354 0
-15930 -15919 354 0
-354 15656 15930 0
-354 15656 15919 0
-15669 356 0
-15930 -15921 356 0
-356 15669 15930 0
-356 15669 15921 0
-15682 358 0
-15930 -15923 358 0
-358 15682 15930 0
-358 15682 15923 0
-15695 360 0
-15930 -15925 360 0
-360 15695 15930 0
-360 15695 15925 0
-15708 362 0
-15930 -15927 362 0
-362 15708 15930 0
-362 15708 15927 0
-15721 363 0
-15930 -15929 363 0
-363 15721 15930 0
-363 15721 15929 0
-15722 365 0
-15930 -15931 365 0
-365 15722 15930 0
-365 15722 15931 0
-15735 367 0
-15932 -15905 367 0
-367 15735 15932 0
-367 15735 15905 0
-15748 369 0
-15932 -15907 369 0
-369 15748 15932 0
-369 15748 15907 0
-15761 371 0
-15932 -15909 371 0
-371 15761 15932 0
-371 15761 15909 0
-15774 373 0
-15932 -15911 373 0
-373 15774 15932 0
-373 15774 15911 0
-15787 375 0
-15932 -15913 375 0
-375 15787 15932 0
-375 15787 15913 0
-15800 377 0
-15932 -15915 377 0
-377 15800 15932 0
-377 15800 15915 0
-15813 379 0
-15932 -15917 379 0
-379 15813 15932 0
-379 15813 15917 0
-15826 381 0
-15932 -15919 381 0
-381 15826 15932 0
-381 15826 15919 0
-15839 383 0
-15932 -15921 383 0
-383 15839 15932 0
-383 15839 15921 0
-15852 385 0
-15932 -15923 385 0
-385 15852 15932 0
-385 15852 15923 0
-15865 387 0
-15932 -15925 387 0
-387 15865 15932 0
-387 15865 15925 0
-15878 389 0
-15932 -15927 389 0
-389 15878 15932 0
-389 15878 15927 0
-15891 391 0
-15932 -15929 391 0
-391 15891 15932 0
-391 15891 15929 0
-15904 392 0
-15932 -15931 392 0
-392 15904 15932 0
-392 15904 15931 0
