c E(domain0,domain0) CIRCULAR_PRED(domain0,domain0) E(domain1,domain1) E(domain1,domain0) E(domain0,domain1) CIRCULAR_PRED(domain1,domain0) CIRCULAR_PRED(domain0,domain1) CIRCULAR_PRED(domain0,domain2) E(domain2,domain0) E(domain0,domain2) CIRCULAR_PRED(domain2,domain0) E(domain2,domain2) E(domain0,domain3) E(domain3,domain0) CIRCULAR_PRED(domain3,domain0) E(domain3,domain3) CIRCULAR_PRED(domain0,domain3) CIRCULAR_PRED(domain1,domain1) E(domain2,domain1) CIRCULAR_PRED(domain1,domain2) CIRCULAR_PRED(domain2,domain1) E(domain1,domain2) E(domain1,domain3) CIRCULAR_PRED(domain3,domain1) E(domain3,domain1) CIRCULAR_PRED(domain1,domain3) CIRCULAR_PRED(domain2,domain2) E(domain3,domain2) E(domain2,domain3) CIRCULAR_PRED(domain3,domain2) CIRCULAR_PRED(domain2,domain3) CIRCULAR_PRED(domain3,domain3) LEQ(domain0,domain0) LEQ(domain0,domain1) LEQ(domain0,domain2) LEQ(domain0,domain3) LEQ(domain1,domain0) LEQ(domain1,domain1) LEQ(domain1,domain2) LEQ(domain1,domain3) LEQ(domain2,domain0) LEQ(domain2,domain1) LEQ(domain2,domain2) LEQ(domain2,domain3) LEQ(domain3,domain0) LEQ(domain3,domain1) LEQ(domain3,domain2) LEQ(domain3,domain3)
c 1 2 3 4 5 6 7 8 9 10 11 12 13 14 15 16 17 18 19 20 21 22 23 24 25 26 27 28 29 30 31 32 33 34 35 36 37 38 39 40 41 42 43 44 45 46 47 48
p cnf 48 464
-1 0
-3 0
-12 0
-16 0
1 -2 0
1 -1 0
5 -7 0
5 -4 0
10 -8 0
10 -9 0
13 -17 0
13 -14 0
4 -6 0
4 -5 0
3 -18 0
3 -3 0
22 -20 0
22 -19 0
23 -26 0
23 -25 0
9 -11 0
9 -10 0
19 -21 0
19 -22 0
12 -27 0
12 -12 0
29 -31 0
29 -28 0
14 -15 0
14 -13 0
25 -24 0
25 -23 0
28 -30 0
28 -29 0
16 -32 0
16 -16 0
33 0
34 37 0
-34 -37 0
-34 -39 35 0
-34 -40 36 0
35 41 0
-35 -41 0
-35 -42 34 0
-35 -44 36 0
36 45 0
-36 -45 0
-36 -46 34 0
-36 -47 35 0
38 0
-37 -35 39 0
-37 -36 40 0
39 42 0
-39 -42 0
-39 -41 37 0
-39 -44 40 0
40 46 0
-40 -46 0
-40 -45 37 0
-40 -47 39 0
43 0
-41 -34 42 0
-41 -36 44 0
-42 -37 41 0
-42 -40 44 0
44 47 0
-44 -47 0
-44 -45 41 0
-44 -46 42 0
48 0
-45 -34 46 0
-45 -35 47 0
-46 -37 45 0
-46 -39 47 0
-47 -41 45 0
-47 -42 46 0
-2 0
2 6 11 15 0
2 7 8 17 0
-37 -6 35 -39 0
-37 -6 -35 39 0
-34 -7 35 -39 0
-34 -7 -35 39 0
-37 -6 36 -40 0
-37 -6 -36 40 0
-34 -7 36 -40 0
-34 -7 -36 40 0
-37 -11 34 -42 0
-37 -11 -34 42 0
-34 -8 34 -42 0
-34 -8 -34 42 0
-37 -11 36 -44 0
-37 -11 -36 44 0
-34 -8 36 -44 0
-34 -8 -36 44 0
-37 -15 34 -46 0
-37 -15 -34 46 0
-34 -17 34 -46 0
-34 -17 -34 46 0
-37 -15 35 -47 0
-37 -15 -35 47 0
-34 -17 35 -47 0
-34 -17 -35 47 0
-41 -6 35 -39 0
-41 -6 -35 39 0
-35 -7 35 -39 0
-35 -7 -35 39 0
-41 -6 36 -40 0
-41 -6 -36 40 0
-35 -7 36 -40 0
-35 -7 -36 40 0
-41 -11 34 -42 0
-41 -11 -34 42 0
-35 -8 34 -42 0
-35 -8 -34 42 0
-41 -11 36 -44 0
-41 -11 -36 44 0
-35 -8 36 -44 0
-35 -8 -36 44 0
-41 -15 34 -46 0
-41 -15 -34 46 0
-35 -17 34 -46 0
-35 -17 -34 46 0
-41 -15 35 -47 0
-41 -15 -35 47 0
-35 -17 35 -47 0
-35 -17 -35 47 0
-45 -6 35 -39 0
-45 -6 -35 39 0
-36 -7 35 -39 0
-36 -7 -35 39 0
-45 -6 36 -40 0
-45 -6 -36 40 0
-36 -7 36 -40 0
-36 -7 -36 40 0
-45 -11 34 -42 0
-45 -11 -34 42 0
-36 -8 34 -42 0
-36 -8 -34 42 0
-45 -11 36 -44 0
-45 -11 -36 44 0
-36 -8 36 -44 0
-36 -8 -36 44 0
-45 -15 34 -46 0
-45 -15 -34 46 0
-36 -17 34 -46 0
-36 -17 -34 46 0
-45 -15 35 -47 0
-45 -15 -35 47 0
-36 -17 35 -47 0
-36 -17 -35 47 0
-34 -35 -36 -6 34 0
-37 -41 -45 -7 37 0
-41 -6 37 0
-35 -7 34 0
-45 -6 37 0
-36 -7 34 0
-34 -35 -36 -11 35 0
-37 -41 -45 -8 41 0
-37 -11 41 0
-34 -8 35 0
-45 -11 41 0
-36 -8 35 0
-34 -35 -36 -15 36 0
-37 -41 -45 -17 45 0
-37 -15 45 0
-34 -17 36 0
-41 -15 45 0
-35 -17 36 0
-18 0
7 18 21 24 0
6 18 20 26 0
-34 -7 39 -35 0
-34 -7 -39 35 0
-37 -6 39 -35 0
-37 -6 -39 35 0
-34 -7 40 -36 0
-34 -7 -40 36 0
-37 -6 40 -36 0
-37 -6 -40 36 0
-34 -21 37 -41 0
-34 -21 -37 41 0
-37 -20 37 -41 0
-37 -20 -37 41 0
-34 -21 40 -44 0
-34 -21 -40 44 0
-37 -20 40 -44 0
-37 -20 -40 44 0
-34 -24 37 -45 0
-34 -24 -37 45 0
-37 -26 37 -45 0
-37 -26 -37 45 0
-34 -24 39 -47 0
-34 -24 -39 47 0
-37 -26 39 -47 0
-37 -26 -39 47 0
-42 -7 39 -35 0
-42 -7 -39 35 0
-39 -6 39 -35 0
-39 -6 -39 35 0
-42 -7 40 -36 0
-42 -7 -40 36 0
-39 -6 40 -36 0
-39 -6 -40 36 0
-42 -21 37 -41 0
-42 -21 -37 41 0
-39 -20 37 -41 0
-39 -20 -37 41 0
-42 -21 40 -44 0
-42 -21 -40 44 0
-39 -20 40 -44 0
-39 -20 -40 44 0
-42 -24 37 -45 0
-42 -24 -37 45 0
-39 -26 37 -45 0
-39 -26 -37 45 0
-42 -24 39 -47 0
-42 -24 -39 47 0
-39 -26 39 -47 0
-39 -26 -39 47 0
-46 -7 39 -35 0
-46 -7 -39 35 0
-40 -6 39 -35 0
-40 -6 -39 35 0
-46 -7 40 -36 0
-46 -7 -40 36 0
-40 -6 40 -36 0
-40 -6 -40 36 0
-46 -21 37 -41 0
-46 -21 -37 41 0
-40 -20 37 -41 0
-40 -20 -37 41 0
-46 -21 40 -44 0
-46 -21 -40 44 0
-40 -20 40 -44 0
-40 -20 -40 44 0
-46 -24 37 -45 0
-46 -24 -37 45 0
-40 -26 37 -45 0
-40 -26 -37 45 0
-46 -24 39 -47 0
-46 -24 -39 47 0
-40 -26 39 -47 0
-40 -26 -39 47 0
-37 -39 -40 -7 37 0
-34 -42 -46 -6 34 0
-42 -7 34 0
-39 -6 37 0
-46 -7 34 0
-40 -6 37 0
-37 -39 -40 -21 39 0
-34 -42 -46 -20 42 0
-34 -21 42 0
-37 -20 39 0
-46 -21 42 0
-40 -20 39 0
-37 -39 -40 -24 40 0
-34 -42 -46 -26 46 0
-34 -24 46 0
-37 -26 40 0
-42 -24 46 0
-39 -26 40 0
-27 0
8 20 27 30 0
11 21 27 31 0
-35 -8 42 -34 0
-35 -8 -42 34 0
-41 -11 42 -34 0
-41 -11 -42 34 0
-35 -8 44 -36 0
-35 -8 -44 36 0
-41 -11 44 -36 0
-41 -11 -44 36 0
-35 -20 41 -37 0
-35 -20 -41 37 0
-41 -21 41 -37 0
-41 -21 -41 37 0
-35 -20 44 -40 0
-35 -20 -44 40 0
-41 -21 44 -40 0
-41 -21 -44 40 0
-35 -30 41 -45 0
-35 -30 -41 45 0
-41 -31 41 -45 0
-41 -31 -41 45 0
-35 -30 42 -46 0
-35 -30 -42 46 0
-41 -31 42 -46 0
-41 -31 -42 46 0
-39 -8 42 -34 0
-39 -8 -42 34 0
-42 -11 42 -34 0
-42 -11 -42 34 0
-39 -8 44 -36 0
-39 -8 -44 36 0
-42 -11 44 -36 0
-42 -11 -44 36 0
-39 -20 41 -37 0
-39 -20 -41 37 0
-42 -21 41 -37 0
-42 -21 -41 37 0
-39 -20 44 -40 0
-39 -20 -44 40 0
-42 -21 44 -40 0
-42 -21 -44 40 0
-39 -30 41 -45 0
-39 -30 -41 45 0
-42 -31 41 -45 0
-42 -31 -41 45 0
-39 -30 42 -46 0
-39 -30 -42 46 0
-42 -31 42 -46 0
-42 -31 -42 46 0
-47 -8 42 -34 0
-47 -8 -42 34 0
-44 -11 42 -34 0
-44 -11 -42 34 0
-47 -8 44 -36 0
-47 -8 -44 36 0
-44 -11 44 -36 0
-44 -11 -44 36 0
-47 -20 41 -37 0
-47 -20 -41 37 0
-44 -21 41 -37 0
-44 -21 -41 37 0
-47 -20 44 -40 0
-47 -20 -44 40 0
-44 -21 44 -40 0
-44 -21 -44 40 0
-47 -30 41 -45 0
-47 -30 -41 45 0
-44 -31 41 -45 0
-44 -31 -41 45 0
-47 -30 42 -46 0
-47 -30 -42 46 0
-44 -31 42 -46 0
-44 -31 -42 46 0
-41 -42 -44 -8 41 0
-35 -39 -47 -11 35 0
-39 -8 35 0
-42 -11 41 0
-47 -8 35 0
-44 -11 41 0
-41 -42 -44 -20 42 0
-35 -39 -47 -21 39 0
-35 -20 39 0
-41 -21 42 0
-47 -20 39 0
-44 -21 42 0
-41 -42 -44 -30 44 0
-35 -39 -47 -31 47 0
-35 -30 47 0
-41 -31 44 0
-39 -30 47 0
-42 -31 44 0
-32 0
17 26 31 32 0
15 24 30 32 0
-36 -17 46 -34 0
-36 -17 -46 34 0
-45 -15 46 -34 0
-45 -15 -46 34 0
-36 -17 47 -35 0
-36 -17 -47 35 0
-45 -15 47 -35 0
-45 -15 -47 35 0
-36 -26 45 -37 0
-36 -26 -45 37 0
-45 -24 45 -37 0
-45 -24 -45 37 0
-36 -26 47 -39 0
-36 -26 -47 39 0
-45 -24 47 -39 0
-45 -24 -47 39 0
-36 -31 45 -41 0
-36 -31 -45 41 0
-45 -30 45 -41 0
-45 -30 -45 41 0
-36 -31 46 -42 0
-36 -31 -46 42 0
-45 -30 46 -42 0
-45 -30 -46 42 0
-40 -17 46 -34 0
-40 -17 -46 34 0
-46 -15 46 -34 0
-46 -15 -46 34 0
-40 -17 47 -35 0
-40 -17 -47 35 0
-46 -15 47 -35 0
-46 -15 -47 35 0
-40 -26 45 -37 0
-40 -26 -45 37 0
-46 -24 45 -37 0
-46 -24 -45 37 0
-40 -26 47 -39 0
-40 -26 -47 39 0
-46 -24 47 -39 0
-46 -24 -47 39 0
-40 -31 45 -41 0
-40 -31 -45 41 0
-46 -30 45 -41 0
-46 -30 -45 41 0
-40 -31 46 -42 0
-40 -31 -46 42 0
-46 -30 46 -42 0
-46 -30 -46 42 0
-44 -17 46 -34 0
-44 -17 -46 34 0
-47 -15 46 -34 0
-47 -15 -46 34 0
-44 -17 47 -35 0
-44 -17 -47 35 0
-47 -15 47 -35 0
-47 -15 -47 35 0
-44 -26 45 -37 0
-44 -26 -45 37 0
-47 -24 45 -37 0
-47 -24 -45 37 0
-44 -26 47 -39 0
-44 -26 -47 39 0
-47 -24 47 -39 0
-47 -24 -47 39 0
-44 -31 45 -41 0
-44 -31 -45 41 0
-47 -30 45 -41 0
-47 -30 -45 41 0
-44 -31 46 -42 0
-44 -31 -46 42 0
-47 -30 46 -42 0
-47 -30 -46 42 0
-45 -46 -47 -17 45 0
-36 -40 -44 -15 36 0
-40 -17 36 0
-46 -15 45 0
-44 -17 36 0
-47 -15 45 0
-45 -46 -47 -26 46 0
-36 -40 -44 -24 40 0
-36 -26 40 0
-45 -24 46 0
-44 -26 40 0
-47 -24 46 0
-45 -46 -47 -31 47 0
-36 -40 -44 -30 44 0
-36 -31 44 0
-45 -30 47 0
-40 -31 44 0
-46 -30 47 0
1 0
3 0
4 0
5 0
9 0
10 0
12 0
13 0
14 0
16 0
19 0
22 0
23 0
25 0
28 0
29 0
