p cnf 96 332
-1 0
-2 0
-3 0
-4 0
1 -5 0
6 -7 0
8 -9 0
10 -11 0
12 -13 0
2 -14 0
15 -16 0
17 -18 0
19 -20 0
21 -22 0
3 -23 0
24 -25 0
26 -27 0
28 -29 0
30 -31 0
4 -32 0
1 -1 0
12 -6 0
19 -8 0
26 -10 0
6 -12 0
2 -2 0
21 -15 0
28 -17 0
8 -19 0
15 -21 0
3 -3 0
30 -24 0
10 -26 0
17 -28 0
24 -30 0
4 -4 0
1 0
6 0
8 0
10 0
12 0
2 0
15 0
17 0
19 0
21 0
3 0
24 0
26 0
28 0
30 0
4 0
33 0
34 35 0
-34 -35 0
-34 -36 37 0
-34 -38 39 0
37 40 0
-37 -40 0
-37 -41 34 0
-37 -42 39 0
39 43 0
-39 -43 0
-39 -44 34 0
-39 -45 37 0
46 0
35 34 0
-35 -34 0
-35 -37 36 0
-35 -39 38 0
36 41 0
-36 -41 0
-36 -40 35 0
-36 -42 38 0
38 44 0
-38 -44 0
-38 -43 35 0
-38 -45 36 0
47 0
40 37 0
-40 -37 0
-40 -34 41 0
-40 -39 42 0
41 36 0
-41 -36 0
-41 -35 40 0
-41 -38 42 0
42 45 0
-42 -45 0
-42 -43 40 0
-42 -44 41 0
48 0
43 39 0
-43 -39 0
-43 -34 44 0
-43 -37 45 0
44 38 0
-44 -38 0
-44 -35 43 0
-44 -36 45 0
45 42 0
-45 -42 0
-45 -40 43 0
-45 -41 44 0
-49 0
-50 34 0
-51 37 0
-51 41 0
-37 -41 51 0
-52 39 0
-52 44 0
-39 -44 52 0
-50 -51 0
-50 -52 0
-34 50 51 52 0
-53 37 0
-54 34 0
-54 36 0
-34 -36 54 0
-55 39 0
-55 45 0
-39 -45 55 0
-53 -54 0
-53 -55 0
-37 53 54 55 0
-56 39 0
-57 34 0
-57 38 0
-34 -38 57 0
-58 37 0
-58 42 0
-37 -42 58 0
-56 -57 0
-56 -58 0
-39 56 57 58 0
-59 35 0
-60 36 0
-60 40 0
-36 -40 60 0
-61 38 0
-61 43 0
-38 -43 61 0
-59 -60 0
-59 -61 0
-35 59 60 61 0
-62 0
-63 36 0
-64 35 0
-64 37 0
-35 -37 64 0
-65 38 0
-65 45 0
-38 -45 65 0
-63 -64 0
-63 -65 0
-36 63 64 65 0
-66 38 0
-67 35 0
-67 39 0
-35 -39 67 0
-68 36 0
-68 42 0
-36 -42 68 0
-66 -67 0
-66 -68 0
-38 66 67 68 0
-69 40 0
-70 41 0
-70 35 0
-41 -35 70 0
-71 42 0
-71 43 0
-42 -43 71 0
-69 -70 0
-69 -71 0
-40 69 70 71 0
-72 41 0
-73 40 0
-73 34 0
-40 -34 73 0
-74 42 0
-74 44 0
-42 -44 74 0
-72 -73 0
-72 -74 0
-41 72 73 74 0
-75 0
-76 42 0
-77 40 0
-77 39 0
-40 -39 77 0
-78 41 0
-78 38 0
-41 -38 78 0
-76 -77 0
-76 -78 0
-42 76 77 78 0
-79 43 0
-80 44 0
-80 35 0
-44 -35 80 0
-81 45 0
-81 40 0
-45 -40 81 0
-79 -80 0
-79 -81 0
-43 79 80 81 0
-82 44 0
-83 43 0
-83 34 0
-43 -34 83 0
-84 45 0
-84 41 0
-45 -41 84 0
-82 -83 0
-82 -84 0
-44 82 83 84 0
-85 45 0
-86 43 0
-86 37 0
-43 -37 86 0
-87 44 0
-87 36 0
-44 -36 87 0
-85 -86 0
-85 -87 0
-45 85 86 87 0
-88 0
-89 33 0
-89 34 0
-89 37 0
-89 39 0
-33 -34 -37 -39 89 0
-90 33 0
-90 35 0
-90 40 0
-90 43 0
-33 -35 -40 -43 90 0
-91 35 0
-91 46 0
-91 36 0
-91 38 0
-35 -46 -36 -38 91 0
-92 34 0
-92 46 0
-92 41 0
-92 44 0
-34 -46 -41 -44 92 0
-93 40 0
-93 41 0
-93 47 0
-93 42 0
-40 -41 -47 -42 93 0
-94 37 0
-94 36 0
-94 47 0
-94 45 0
-37 -36 -47 -45 94 0
-95 43 0
-95 44 0
-95 45 0
-95 48 0
-43 -44 -45 -48 95 0
-96 39 0
-96 38 0
-96 42 0
-96 48 0
-39 -38 -42 -48 96 0
-49 5 0
-90 -89 5 0
-5 49 90 0
-5 49 89 0
-50 7 0
-90 -91 7 0
-7 50 90 0
-7 50 91 0
-53 9 0
-90 -93 9 0
-9 53 90 0
-9 53 93 0
-56 11 0
-90 -95 11 0
-11 56 90 0
-11 56 95 0
-59 13 0
-92 -89 13 0
-13 59 92 0
-13 59 89 0
-62 14 0
-92 -91 14 0
-14 62 92 0
-14 62 91 0
-63 16 0
-92 -93 16 0
-16 63 92 0
-16 63 93 0
-66 18 0
-92 -95 18 0
-18 66 92 0
-18 66 95 0
-69 20 0
-94 -89 20 0
-20 69 94 0
-20 69 89 0
-72 22 0
-94 -91 22 0
-22 72 94 0
-22 72 91 0
-75 23 0
-94 -93 23 0
-23 75 94 0
-23 75 93 0
-76 25 0
-94 -95 25 0
-25 76 94 0
-25 76 95 0
-79 27 0
-96 -89 27 0
-27 79 96 0
-27 79 89 0
-82 29 0
-96 -91 29 0
-29 82 96 0
-29 82 91 0
-85 31 0
-96 -93 31 0
-31 85 96 0
-31 85 93 0
-88 32 0
-96 -95 32 0
-32 88 96 0
-32 88 95 0
