p cnf 152 428
c ind 1 2 3 4 5 6 7 8 9 10 11 12 13 14 15 16 17 18 19 20 21 22 23 24 25 26 27 28 29 30 31 32 89 90 91 92 93 94 95 96 97 98 99 100 101 102 103 104 105 106 0
c ind 107 108 109 110 111 112 113 114 115 116 117 118 119 120 121 122 123 124 125 126 127 128 129 130 131 132 133 134 135 136 137 138 139 140 141 142 143 144 145 146 147 148 149 150 151 152 0
-1 0
-2 0
-3 0
-4 0
1 -5 0
6 -7 0
8 -9 0
10 -11 0
12 -13 0
2 -14 0
15 -16 0
17 -18 0
19 -20 0
21 -22 0
3 -23 0
24 -25 0
26 -27 0
28 -29 0
30 -31 0
4 -32 0
1 -1 0
12 -6 0
19 -8 0
26 -10 0
6 -12 0
2 -2 0
21 -15 0
28 -17 0
8 -19 0
15 -21 0
3 -3 0
30 -24 0
10 -26 0
17 -28 0
24 -30 0
4 -4 0
1 33 0
-33 34 0
6 -33 35 0
-35 36 0
8 -35 0
6 34 0
-34 37 0
8 -34 36 0
-36 38 0
10 -36 0
8 37 0
-37 39 0
10 -37 38 0
-38 40 0
12 -38 0
10 39 0
-39 41 0
12 -39 40 0
-40 42 0
2 -40 0
12 41 0
-41 43 0
2 -41 42 0
-42 44 0
15 -42 0
2 43 0
-43 45 0
15 -43 44 0
-44 46 0
17 -44 0
15 45 0
-45 47 0
17 -45 46 0
-46 48 0
19 -46 0
17 47 0
-47 49 0
19 -47 48 0
-48 50 0
21 -48 0
19 49 0
-49 51 0
21 -49 50 0
-50 52 0
3 -50 0
21 51 0
-51 53 0
3 -51 52 0
-52 54 0
24 -52 0
3 53 0
-53 55 0
24 -53 54 0
-54 56 0
26 -54 0
24 55 0
-55 57 0
26 -55 56 0
-56 58 0
28 -56 0
26 57 0
-57 59 0
28 -57 58 0
-58 60 0
30 -58 0
28 59 0
30 -59 60 0
4 -60 0
-1 61 0
-61 62 0
-6 -61 63 0
-63 64 0
-8 -63 65 0
-65 66 0
-10 -65 67 0
-67 68 0
-12 -67 69 0
-69 70 0
-2 -69 71 0
-71 72 0
-15 -71 73 0
-73 74 0
-17 -73 75 0
-75 76 0
-19 -75 77 0
-77 78 0
-21 -77 79 0
-79 80 0
-3 -79 81 0
-81 82 0
-24 -81 83 0
-83 84 0
-26 -83 85 0
-85 86 0
-28 -85 87 0
-87 88 0
-30 -87 0
-6 62 0
-8 -62 64 0
-10 -64 66 0
-12 -66 68 0
-2 -68 70 0
-15 -70 72 0
-17 -72 74 0
-19 -74 76 0
-21 -76 78 0
-3 -78 80 0
-24 -80 82 0
-26 -82 84 0
-28 -84 86 0
-30 -86 88 0
-4 -88 0
89 0
90 91 0
-90 -91 0
-90 -92 93 0
-90 -94 95 0
93 96 0
-93 -96 0
-93 -97 90 0
-93 -98 95 0
95 99 0
-95 -99 0
-95 -100 90 0
-95 -101 93 0
102 0
91 90 0
-91 -90 0
-91 -93 92 0
-91 -95 94 0
92 97 0
-92 -97 0
-92 -96 91 0
-92 -98 94 0
94 100 0
-94 -100 0
-94 -99 91 0
-94 -101 92 0
103 0
96 93 0
-96 -93 0
-96 -90 97 0
-96 -95 98 0
97 92 0
-97 -92 0
-97 -91 96 0
-97 -94 98 0
98 101 0
-98 -101 0
-98 -99 96 0
-98 -100 97 0
104 0
99 95 0
-99 -95 0
-99 -90 100 0
-99 -93 101 0
100 94 0
-100 -94 0
-100 -91 99 0
-100 -92 101 0
101 98 0
-101 -98 0
-101 -96 99 0
-101 -97 100 0
-105 0
-106 90 0
-107 93 0
-107 97 0
-93 -97 107 0
-108 95 0
-108 100 0
-95 -100 108 0
-106 -107 0
-106 -108 0
-90 106 107 108 0
-109 93 0
-110 90 0
-110 92 0
-90 -92 110 0
-111 95 0
-111 101 0
-95 -101 111 0
-109 -110 0
-109 -111 0
-93 109 110 111 0
-112 95 0
-113 90 0
-113 94 0
-90 -94 113 0
-114 93 0
-114 98 0
-93 -98 114 0
-112 -113 0
-112 -114 0
-95 112 113 114 0
-115 91 0
-116 92 0
-116 96 0
-92 -96 116 0
-117 94 0
-117 99 0
-94 -99 117 0
-115 -116 0
-115 -117 0
-91 115 116 117 0
-118 0
-119 92 0
-120 91 0
-120 93 0
-91 -93 120 0
-121 94 0
-121 101 0
-94 -101 121 0
-119 -120 0
-119 -121 0
-92 119 120 121 0
-122 94 0
-123 91 0
-123 95 0
-91 -95 123 0
-124 92 0
-124 98 0
-92 -98 124 0
-122 -123 0
-122 -124 0
-94 122 123 124 0
-125 96 0
-126 97 0
-126 91 0
-97 -91 126 0
-127 98 0
-127 99 0
-98 -99 127 0
-125 -126 0
-125 -127 0
-96 125 126 127 0
-128 97 0
-129 96 0
-129 90 0
-96 -90 129 0
-130 98 0
-130 100 0
-98 -100 130 0
-128 -129 0
-128 -130 0
-97 128 129 130 0
-131 0
-132 98 0
-133 96 0
-133 95 0
-96 -95 133 0
-134 97 0
-134 94 0
-97 -94 134 0
-132 -133 0
-132 -134 0
-98 132 133 134 0
-135 99 0
-136 100 0
-136 91 0
-100 -91 136 0
-137 101 0
-137 96 0
-101 -96 137 0
-135 -136 0
-135 -137 0
-99 135 136 137 0
-138 100 0
-139 99 0
-139 90 0
-99 -90 139 0
-140 101 0
-140 97 0
-101 -97 140 0
-138 -139 0
-138 -140 0
-100 138 139 140 0
-141 101 0
-142 99 0
-142 93 0
-99 -93 142 0
-143 100 0
-143 92 0
-100 -92 143 0
-141 -142 0
-141 -143 0
-101 141 142 143 0
-144 0
-145 89 0
-145 90 0
-145 93 0
-145 95 0
-89 -90 -93 -95 145 0
-146 89 0
-146 91 0
-146 96 0
-146 99 0
-89 -91 -96 -99 146 0
-147 91 0
-147 102 0
-147 92 0
-147 94 0
-91 -102 -92 -94 147 0
-148 90 0
-148 102 0
-148 97 0
-148 100 0
-90 -102 -97 -100 148 0
-149 96 0
-149 97 0
-149 103 0
-149 98 0
-96 -97 -103 -98 149 0
-150 93 0
-150 92 0
-150 103 0
-150 101 0
-93 -92 -103 -101 150 0
-151 99 0
-151 100 0
-151 101 0
-151 104 0
-99 -100 -101 -104 151 0
-152 95 0
-152 94 0
-152 98 0
-152 104 0
-95 -94 -98 -104 152 0
-105 5 0
-146 -145 5 0
-5 105 146 0
-5 105 145 0
-106 7 0
-146 -147 7 0
-7 106 146 0
-7 106 147 0
-109 9 0
-146 -149 9 0
-9 109 146 0
-9 109 149 0
-112 11 0
-146 -151 11 0
-11 112 146 0
-11 112 151 0
-115 13 0
-148 -145 13 0
-13 115 148 0
-13 115 145 0
-118 14 0
-148 -147 14 0
-14 118 148 0
-14 118 147 0
-119 16 0
-148 -149 16 0
-16 119 148 0
-16 119 149 0
-122 18 0
-148 -151 18 0
-18 122 148 0
-18 122 151 0
-125 20 0
-150 -145 20 0
-20 125 150 0
-20 125 145 0
-128 22 0
-150 -147 22 0
-22 128 150 0
-22 128 147 0
-131 23 0
-150 -149 23 0
-23 131 150 0
-23 131 149 0
-132 25 0
-150 -151 25 0
-25 132 150 0
-25 132 151 0
-135 27 0
-152 -145 27 0
-27 135 152 0
-27 135 145 0
-138 29 0
-152 -147 29 0
-29 138 152 0
-29 138 147 0
-141 31 0
-152 -149 31 0
-31 141 152 0
-31 141 149 0
-144 32 0
-152 -151 32 0
-32 144 152 0
-32 144 151 0
