c CIRCULAR_PRED(domain3,domain3) E(domain3,domain3) E(domain3,domain0) E(domain0,domain0) CIRCULAR_PRED(domain0,domain3) E(domain0,domain3) CIRCULAR_PRED(domain3,domain0) E(domain3,domain1) CIRCULAR_PRED(domain1,domain3) E(domain1,domain3) E(domain1,domain1) CIRCULAR_PRED(domain3,domain1) E(domain2,domain3) CIRCULAR_PRED(domain3,domain2) E(domain3,domain2) CIRCULAR_PRED(domain2,domain3) E(domain2,domain2) CIRCULAR_PRED(domain0,domain0) E(domain1,domain0) E(domain0,domain1) CIRCULAR_PRED(domain1,domain0) CIRCULAR_PRED(domain0,domain1) CIRCULAR_PRED(domain0,domain2) E(domain0,domain2) CIRCULAR_PRED(domain2,domain0) E(domain2,domain0) CIRCULAR_PRED(domain1,domain1) CIRCULAR_PRED(domain2,domain1) E(domain2,domain1) CIRCULAR_PRED(domain1,domain2) E(domain1,domain2) CIRCULAR_PRED(domain2,domain2) LEQ(domain0,domain0) LEQ(domain0,domain1) LEQ(domain0,domain2) LEQ(domain0,domain3) LEQ(domain1,domain0) LEQ(domain1,domain1) LEQ(domain1,domain2) LEQ(domain1,domain3) LEQ(domain2,domain0) LEQ(domain2,domain1) LEQ(domain2,domain2) LEQ(domain2,domain3) LEQ(domain3,domain0) LEQ(domain3,domain1) LEQ(domain3,domain2) LEQ(domain3,domain3) CC49(c) CC50(c) CC51(c) CC52(c) CC53(c) CC54(c) CC55(c) CC56(c) CC57(c) CC58(c) CC59(c) CC60(c) CC61(c) CC62(c) CC63(c) CC64(c) CC65(c) CC66(c) CC67(c) CC68(c) CC69(c) CC70(c) CC71(c) CC72(c) CC73(c) CC74(c) CC75(c) CC76(c) CC77(c) CC78(c) CC79(c) CC80(c) CC81(c) CC82(c) CC83(c) CC84(c) CC85(c) CC86(c) CC87(c) CC88(c) CC89(c) CC90(c) CC91(c) CC92(c) CC93(c) CC94(c) CC95(c) CC96(c) CC97(c) CC98(c) CC99(c) CC100(c) CC101(c) CC102(c) CC103(c) CC104(c) CC105(c) CC106(c) CC107(c) CC108(c) CC109(c) CC110(c) CC111(c) CC112(c) CC113(c) CC114(c) CC115(c) CC116(c) CC117(c) CC118(c) CC119(c) CC120(c) CC121(c) CC122(c) CC123(c) CC124(c) CC125(c) CC126(c) CC127(c) CC128(c) CC129(c) CC130(c) CC131(c) CC132(c) CC133(c) CC134(c) CC135(c) CC136(c) CC137(c) CC138(c) CC139(c) CC140(c) CC141(c) CC142(c) CC143(c) CC144(c)
c 1 2 3 4 5 6 7 8 9 10 11 12 13 14 15 16 17 18 19 20 21 22 23 24 25 26 27 28 29 30 31 32 33 34 35 36 37 38 39 40 41 42 43 44 45 46 47 48 49 50 51 52 53 54 55 56 57 58 59 60 61 62 63 64 65 66 67 68 69 70 71 72 73 74 75 76 77 78 79 80 81 82 83 84 85 86 87 88 89 90 91 92 93 94 95 96 97 98 99 100 101 102 103 104 105 106 107 108 109 110 111 112 113 114 115 116 117 118 119 120 121 122 123 124 125 126 127 128 129 130 131 132 133 134 135 136 137 138 139 140 141 142 143 144
p cnf 144 640
-4 0
-11 0
-17 0
-2 0
4 -18 0
4 -4 0
20 -22 0
20 -19 0
24 -23 0
24 -26 0
6 -5 0
6 -3 0
19 -21 0
19 -20 0
11 -27 0
11 -11 0
31 -30 0
31 -29 0
10 -9 0
10 -8 0
26 -25 0
26 -24 0
29 -28 0
29 -31 0
17 -32 0
17 -17 0
13 -16 0
13 -15 0
3 -7 0
3 -6 0
8 -12 0
8 -10 0
15 -14 0
15 -13 0
2 -1 0
2 -2 0
33 0
34 37 0
-34 -37 0
-34 -39 35 0
-34 -40 36 0
35 41 0
-35 -41 0
-35 -42 34 0
-35 -44 36 0
36 45 0
-36 -45 0
-36 -46 34 0
-36 -47 35 0
38 0
-37 -35 39 0
-37 -36 40 0
39 42 0
-39 -42 0
-39 -41 37 0
-39 -44 40 0
40 46 0
-40 -46 0
-40 -45 37 0
-40 -47 39 0
43 0
-41 -34 42 0
-41 -36 44 0
-42 -37 41 0
-42 -40 44 0
44 47 0
-44 -47 0
-44 -45 41 0
-44 -46 42 0
48 0
-45 -34 46 0
-45 -35 47 0
-46 -37 45 0
-46 -39 47 0
-47 -41 45 0
-47 -42 46 0
-18 0
18 21 25 7 0
18 22 23 5 0
-37 -21 35 -39 0
-37 -21 -35 39 0
-34 -22 35 -39 0
-34 -22 -35 39 0
-37 -21 36 -40 0
-37 -21 -36 40 0
-34 -22 36 -40 0
-34 -22 -36 40 0
-37 -25 34 -42 0
-37 -25 -34 42 0
-34 -23 34 -42 0
-34 -23 -34 42 0
-37 -25 36 -44 0
-37 -25 -36 44 0
-34 -23 36 -44 0
-34 -23 -36 44 0
-37 -7 34 -46 0
-37 -7 -34 46 0
-34 -5 34 -46 0
-34 -5 -34 46 0
-37 -7 35 -47 0
-37 -7 -35 47 0
-34 -5 35 -47 0
-34 -5 -35 47 0
-41 -21 35 -39 0
-41 -21 -35 39 0
-35 -22 35 -39 0
-35 -22 -35 39 0
-41 -21 36 -40 0
-41 -21 -36 40 0
-35 -22 36 -40 0
-35 -22 -36 40 0
-41 -25 34 -42 0
-41 -25 -34 42 0
-35 -23 34 -42 0
-35 -23 -34 42 0
-41 -25 36 -44 0
-41 -25 -36 44 0
-35 -23 36 -44 0
-35 -23 -36 44 0
-41 -7 34 -46 0
-41 -7 -34 46 0
-35 -5 34 -46 0
-35 -5 -34 46 0
-41 -7 35 -47 0
-41 -7 -35 47 0
-35 -5 35 -47 0
-35 -5 -35 47 0
-45 -21 35 -39 0
-45 -21 -35 39 0
-36 -22 35 -39 0
-36 -22 -35 39 0
-45 -21 36 -40 0
-45 -21 -36 40 0
-36 -22 36 -40 0
-36 -22 -36 40 0
-45 -25 34 -42 0
-45 -25 -34 42 0
-36 -23 34 -42 0
-36 -23 -34 42 0
-45 -25 36 -44 0
-45 -25 -36 44 0
-36 -23 36 -44 0
-36 -23 -36 44 0
-45 -7 34 -46 0
-45 -7 -34 46 0
-36 -5 34 -46 0
-36 -5 -34 46 0
-45 -7 35 -47 0
-45 -7 -35 47 0
-36 -5 35 -47 0
-36 -5 -35 47 0
-34 -35 -36 -21 34 0
-37 -41 -45 -22 37 0
-41 -21 37 0
-35 -22 34 0
-45 -21 37 0
-36 -22 34 0
-34 -35 -36 -25 35 0
-37 -41 -45 -23 41 0
-37 -25 41 0
-34 -23 35 0
-45 -25 41 0
-36 -23 35 0
-34 -35 -36 -7 36 0
-37 -41 -45 -5 45 0
-37 -7 45 0
-34 -5 36 0
-41 -7 45 0
-35 -5 36 0
-27 0
22 27 28 12 0
21 27 30 9 0
-34 -22 39 -35 0
-34 -22 -39 35 0
-37 -21 39 -35 0
-37 -21 -39 35 0
-34 -22 40 -36 0
-34 -22 -40 36 0
-37 -21 40 -36 0
-37 -21 -40 36 0
-34 -28 37 -41 0
-34 -28 -37 41 0
-37 -30 37 -41 0
-37 -30 -37 41 0
-34 -28 40 -44 0
-34 -28 -40 44 0
-37 -30 40 -44 0
-37 -30 -40 44 0
-34 -12 37 -45 0
-34 -12 -37 45 0
-37 -9 37 -45 0
-37 -9 -37 45 0
-34 -12 39 -47 0
-34 -12 -39 47 0
-37 -9 39 -47 0
-37 -9 -39 47 0
-42 -22 39 -35 0
-42 -22 -39 35 0
-39 -21 39 -35 0
-39 -21 -39 35 0
-42 -22 40 -36 0
-42 -22 -40 36 0
-39 -21 40 -36 0
-39 -21 -40 36 0
-42 -28 37 -41 0
-42 -28 -37 41 0
-39 -30 37 -41 0
-39 -30 -37 41 0
-42 -28 40 -44 0
-42 -28 -40 44 0
-39 -30 40 -44 0
-39 -30 -40 44 0
-42 -12 37 -45 0
-42 -12 -37 45 0
-39 -9 37 -45 0
-39 -9 -37 45 0
-42 -12 39 -47 0
-42 -12 -39 47 0
-39 -9 39 -47 0
-39 -9 -39 47 0
-46 -22 39 -35 0
-46 -22 -39 35 0
-40 -21 39 -35 0
-40 -21 -39 35 0
-46 -22 40 -36 0
-46 -22 -40 36 0
-40 -21 40 -36 0
-40 -21 -40 36 0
-46 -28 37 -41 0
-46 -28 -37 41 0
-40 -30 37 -41 0
-40 -30 -37 41 0
-46 -28 40 -44 0
-46 -28 -40 44 0
-40 -30 40 -44 0
-40 -30 -40 44 0
-46 -12 37 -45 0
-46 -12 -37 45 0
-40 -9 37 -45 0
-40 -9 -37 45 0
-46 -12 39 -47 0
-46 -12 -39 47 0
-40 -9 39 -47 0
-40 -9 -39 47 0
-37 -39 -40 -22 37 0
-34 -42 -46 -21 34 0
-42 -22 34 0
-39 -21 37 0
-46 -22 34 0
-40 -21 37 0
-37 -39 -40 -28 39 0
-34 -42 -46 -30 42 0
-34 -28 42 0
-37 -30 39 0
-46 -28 42 0
-40 -30 39 0
-37 -39 -40 -12 40 0
-34 -42 -46 -9 46 0
-34 -12 46 0
-37 -9 40 0
-42 -12 46 0
-39 -9 40 0
-32 0
23 30 32 14 0
25 28 32 16 0
-35 -23 42 -34 0
-35 -23 -42 34 0
-41 -25 42 -34 0
-41 -25 -42 34 0
-35 -23 44 -36 0
-35 -23 -44 36 0
-41 -25 44 -36 0
-41 -25 -44 36 0
-35 -30 41 -37 0
-35 -30 -41 37 0
-41 -28 41 -37 0
-41 -28 -41 37 0
-35 -30 44 -40 0
-35 -30 -44 40 0
-41 -28 44 -40 0
-41 -28 -44 40 0
-35 -14 41 -45 0
-35 -14 -41 45 0
-41 -16 41 -45 0
-41 -16 -41 45 0
-35 -14 42 -46 0
-35 -14 -42 46 0
-41 -16 42 -46 0
-41 -16 -42 46 0
-39 -23 42 -34 0
-39 -23 -42 34 0
-42 -25 42 -34 0
-42 -25 -42 34 0
-39 -23 44 -36 0
-39 -23 -44 36 0
-42 -25 44 -36 0
-42 -25 -44 36 0
-39 -30 41 -37 0
-39 -30 -41 37 0
-42 -28 41 -37 0
-42 -28 -41 37 0
-39 -30 44 -40 0
-39 -30 -44 40 0
-42 -28 44 -40 0
-42 -28 -44 40 0
-39 -14 41 -45 0
-39 -14 -41 45 0
-42 -16 41 -45 0
-42 -16 -41 45 0
-39 -14 42 -46 0
-39 -14 -42 46 0
-42 -16 42 -46 0
-42 -16 -42 46 0
-47 -23 42 -34 0
-47 -23 -42 34 0
-44 -25 42 -34 0
-44 -25 -42 34 0
-47 -23 44 -36 0
-47 -23 -44 36 0
-44 -25 44 -36 0
-44 -25 -44 36 0
-47 -30 41 -37 0
-47 -30 -41 37 0
-44 -28 41 -37 0
-44 -28 -41 37 0
-47 -30 44 -40 0
-47 -30 -44 40 0
-44 -28 44 -40 0
-44 -28 -44 40 0
-47 -14 41 -45 0
-47 -14 -41 45 0
-44 -16 41 -45 0
-44 -16 -41 45 0
-47 -14 42 -46 0
-47 -14 -42 46 0
-44 -16 42 -46 0
-44 -16 -42 46 0
-41 -42 -44 -23 41 0
-35 -39 -47 -25 35 0
-39 -23 35 0
-42 -25 41 0
-47 -23 35 0
-44 -25 41 0
-41 -42 -44 -30 42 0
-35 -39 -47 -28 39 0
-35 -30 39 0
-41 -28 42 0
-47 -30 39 0
-44 -28 42 0
-41 -42 -44 -14 44 0
-35 -39 -47 -16 47 0
-35 -14 47 0
-41 -16 44 0
-39 -14 47 0
-42 -16 44 0
-1 0
5 9 16 1 0
7 12 14 1 0
-36 -5 46 -34 0
-36 -5 -46 34 0
-45 -7 46 -34 0
-45 -7 -46 34 0
-36 -5 47 -35 0
-36 -5 -47 35 0
-45 -7 47 -35 0
-45 -7 -47 35 0
-36 -9 45 -37 0
-36 -9 -45 37 0
-45 -12 45 -37 0
-45 -12 -45 37 0
-36 -9 47 -39 0
-36 -9 -47 39 0
-45 -12 47 -39 0
-45 -12 -47 39 0
-36 -16 45 -41 0
-36 -16 -45 41 0
-45 -14 45 -41 0
-45 -14 -45 41 0
-36 -16 46 -42 0
-36 -16 -46 42 0
-45 -14 46 -42 0
-45 -14 -46 42 0
-40 -5 46 -34 0
-40 -5 -46 34 0
-46 -7 46 -34 0
-46 -7 -46 34 0
-40 -5 47 -35 0
-40 -5 -47 35 0
-46 -7 47 -35 0
-46 -7 -47 35 0
-40 -9 45 -37 0
-40 -9 -45 37 0
-46 -12 45 -37 0
-46 -12 -45 37 0
-40 -9 47 -39 0
-40 -9 -47 39 0
-46 -12 47 -39 0
-46 -12 -47 39 0
-40 -16 45 -41 0
-40 -16 -45 41 0
-46 -14 45 -41 0
-46 -14 -45 41 0
-40 -16 46 -42 0
-40 -16 -46 42 0
-46 -14 46 -42 0
-46 -14 -46 42 0
-44 -5 46 -34 0
-44 -5 -46 34 0
-47 -7 46 -34 0
-47 -7 -46 34 0
-44 -5 47 -35 0
-44 -5 -47 35 0
-47 -7 47 -35 0
-47 -7 -47 35 0
-44 -9 45 -37 0
-44 -9 -45 37 0
-47 -12 45 -37 0
-47 -12 -45 37 0
-44 -9 47 -39 0
-44 -9 -47 39 0
-47 -12 47 -39 0
-47 -12 -47 39 0
-44 -16 45 -41 0
-44 -16 -45 41 0
-47 -14 45 -41 0
-47 -14 -45 41 0
-44 -16 46 -42 0
-44 -16 -46 42 0
-47 -14 46 -42 0
-47 -14 -46 42 0
-45 -46 -47 -5 45 0
-36 -40 -44 -7 36 0
-40 -5 36 0
-46 -7 45 0
-44 -5 36 0
-47 -7 45 0
-45 -46 -47 -9 46 0
-36 -40 -44 -12 40 0
-36 -9 40 0
-45 -12 46 0
-44 -9 40 0
-47 -12 46 0
-45 -46 -47 -16 47 0
-36 -40 -44 -14 44 0
-36 -16 44 0
-45 -14 47 0
-40 -16 44 0
-46 -14 47 0
2 49 0
-49 50 0
3 -49 51 0
-51 52 0
4 -51 53 0
-53 54 0
6 -53 55 0
-55 56 0
8 -55 0
3 50 0
-50 57 0
4 -50 52 0
-52 58 0
6 -52 54 0
-54 59 0
8 -54 56 0
-56 60 0
10 -56 0
4 57 0
-57 61 0
6 -57 58 0
-58 62 0
8 -58 59 0
-59 63 0
10 -59 60 0
-60 64 0
11 -60 0
6 61 0
-61 65 0
8 -61 62 0
-62 66 0
10 -62 63 0
-63 67 0
11 -63 64 0
-64 68 0
13 -64 0
8 65 0
-65 69 0
10 -65 66 0
-66 70 0
11 -66 67 0
-67 71 0
13 -67 68 0
-68 72 0
15 -68 0
10 69 0
-69 73 0
11 -69 70 0
-70 74 0
13 -70 71 0
-71 75 0
15 -71 72 0
-72 76 0
17 -72 0
11 73 0
-73 77 0
13 -73 74 0
-74 78 0
15 -74 75 0
-75 79 0
17 -75 76 0
-76 80 0
19 -76 0
13 77 0
-77 81 0
15 -77 78 0
-78 82 0
17 -78 79 0
-79 83 0
19 -79 80 0
-80 84 0
20 -80 0
15 81 0
-81 85 0
17 -81 82 0
-82 86 0
19 -82 83 0
-83 87 0
20 -83 84 0
-84 88 0
24 -84 0
17 85 0
-85 89 0
19 -85 86 0
-86 90 0
20 -86 87 0
-87 91 0
24 -87 88 0
-88 92 0
26 -88 0
19 89 0
-89 93 0
20 -89 90 0
-90 94 0
24 -90 91 0
-91 95 0
26 -91 92 0
-92 96 0
29 -92 0
20 93 0
24 -93 94 0
26 -94 95 0
29 -95 96 0
31 -96 0
-2 97 0
-97 98 0
-3 -97 99 0
-99 100 0
-4 -99 101 0
-101 102 0
-6 -101 103 0
-103 104 0
-8 -103 105 0
-105 106 0
-10 -105 107 0
-107 108 0
-11 -107 109 0
-109 110 0
-13 -109 111 0
-111 112 0
-15 -111 113 0
-113 114 0
-17 -113 115 0
-115 116 0
-19 -115 117 0
-117 118 0
-20 -117 119 0
-119 120 0
-24 -119 0
-3 98 0
-98 121 0
-4 -98 100 0
-100 122 0
-6 -100 102 0
-102 123 0
-8 -102 104 0
-104 124 0
-10 -104 106 0
-106 125 0
-11 -106 108 0
-108 126 0
-13 -108 110 0
-110 127 0
-15 -110 112 0
-112 128 0
-17 -112 114 0
-114 129 0
-19 -114 116 0
-116 130 0
-20 -116 118 0
-118 131 0
-24 -118 120 0
-120 132 0
-26 -120 0
-4 121 0
-121 133 0
-6 -121 122 0
-122 134 0
-8 -122 123 0
-123 135 0
-10 -123 124 0
-124 136 0
-11 -124 125 0
-125 137 0
-13 -125 126 0
-126 138 0
-15 -126 127 0
-127 139 0
-17 -127 128 0
-128 140 0
-19 -128 129 0
-129 141 0
-20 -129 130 0
-130 142 0
-24 -130 131 0
-131 143 0
-26 -131 132 0
-132 144 0
-29 -132 0
-6 133 0
-8 -133 134 0
-10 -134 135 0
-11 -135 136 0
-13 -136 137 0
-15 -137 138 0
-17 -138 139 0
-19 -139 140 0
-20 -140 141 0
-24 -141 142 0
-26 -142 143 0
-29 -143 144 0
-31 -144 0
