p cnf 192 508
c ind 1 2 3 4 5 6 7 8 9 10 11 12 13 14 15 16 17 18 19 20 21 22 23 24 25 26 27 28 29 30 31 32 129 130 131 132 133 134 135 136 137 138 139 140 141 142 143 144 145 146 0
c ind 147 148 149 150 151 152 153 154 155 156 157 158 159 160 161 162 163 164 165 166 167 168 169 170 171 172 173 174 175 176 177 178 179 180 181 182 183 184 185 186 187 188 189 190 191 192 0
-1 0
-2 0
-3 0
-4 0
1 -5 0
6 -7 0
8 -9 0
10 -11 0
12 -13 0
2 -14 0
15 -16 0
17 -18 0
19 -20 0
21 -22 0
3 -23 0
24 -25 0
26 -27 0
28 -29 0
30 -31 0
4 -32 0
1 -1 0
12 -6 0
19 -8 0
26 -10 0
6 -12 0
2 -2 0
21 -15 0
28 -17 0
8 -19 0
15 -21 0
3 -3 0
30 -24 0
10 -26 0
17 -28 0
24 -30 0
4 -4 0
1 33 0
-33 34 0
6 -33 35 0
-35 36 0
8 -35 37 0
-37 38 0
10 -37 39 0
-39 40 0
12 -39 0
6 34 0
-34 41 0
8 -34 36 0
-36 42 0
10 -36 38 0
-38 43 0
12 -38 40 0
-40 44 0
2 -40 0
8 41 0
-41 45 0
10 -41 42 0
-42 46 0
12 -42 43 0
-43 47 0
2 -43 44 0
-44 48 0
15 -44 0
10 45 0
-45 49 0
12 -45 46 0
-46 50 0
2 -46 47 0
-47 51 0
15 -47 48 0
-48 52 0
17 -48 0
12 49 0
-49 53 0
2 -49 50 0
-50 54 0
15 -50 51 0
-51 55 0
17 -51 52 0
-52 56 0
19 -52 0
2 53 0
-53 57 0
15 -53 54 0
-54 58 0
17 -54 55 0
-55 59 0
19 -55 56 0
-56 60 0
21 -56 0
15 57 0
-57 61 0
17 -57 58 0
-58 62 0
19 -58 59 0
-59 63 0
21 -59 60 0
-60 64 0
3 -60 0
17 61 0
-61 65 0
19 -61 62 0
-62 66 0
21 -62 63 0
-63 67 0
3 -63 64 0
-64 68 0
24 -64 0
19 65 0
-65 69 0
21 -65 66 0
-66 70 0
3 -66 67 0
-67 71 0
24 -67 68 0
-68 72 0
26 -68 0
21 69 0
-69 73 0
3 -69 70 0
-70 74 0
24 -70 71 0
-71 75 0
26 -71 72 0
-72 76 0
28 -72 0
3 73 0
-73 77 0
24 -73 74 0
-74 78 0
26 -74 75 0
-75 79 0
28 -75 76 0
-76 80 0
30 -76 0
24 77 0
26 -77 78 0
28 -78 79 0
30 -79 80 0
4 -80 0
-1 81 0
-81 82 0
-6 -81 83 0
-83 84 0
-8 -83 85 0
-85 86 0
-10 -85 87 0
-87 88 0
-12 -87 89 0
-89 90 0
-2 -89 91 0
-91 92 0
-15 -91 93 0
-93 94 0
-17 -93 95 0
-95 96 0
-19 -95 97 0
-97 98 0
-21 -97 99 0
-99 100 0
-3 -99 101 0
-101 102 0
-24 -101 103 0
-103 104 0
-26 -103 0
-6 82 0
-82 105 0
-8 -82 84 0
-84 106 0
-10 -84 86 0
-86 107 0
-12 -86 88 0
-88 108 0
-2 -88 90 0
-90 109 0
-15 -90 92 0
-92 110 0
-17 -92 94 0
-94 111 0
-19 -94 96 0
-96 112 0
-21 -96 98 0
-98 113 0
-3 -98 100 0
-100 114 0
-24 -100 102 0
-102 115 0
-26 -102 104 0
-104 116 0
-28 -104 0
-8 105 0
-105 117 0
-10 -105 106 0
-106 118 0
-12 -106 107 0
-107 119 0
-2 -107 108 0
-108 120 0
-15 -108 109 0
-109 121 0
-17 -109 110 0
-110 122 0
-19 -110 111 0
-111 123 0
-21 -111 112 0
-112 124 0
-3 -112 113 0
-113 125 0
-24 -113 114 0
-114 126 0
-26 -114 115 0
-115 127 0
-28 -115 116 0
-116 128 0
-30 -116 0
-10 117 0
-12 -117 118 0
-2 -118 119 0
-15 -119 120 0
-17 -120 121 0
-19 -121 122 0
-21 -122 123 0
-3 -123 124 0
-24 -124 125 0
-26 -125 126 0
-28 -126 127 0
-30 -127 128 0
-4 -128 0
129 0
130 131 0
-130 -131 0
-130 -132 133 0
-130 -134 135 0
133 136 0
-133 -136 0
-133 -137 130 0
-133 -138 135 0
135 139 0
-135 -139 0
-135 -140 130 0
-135 -141 133 0
142 0
131 130 0
-131 -130 0
-131 -133 132 0
-131 -135 134 0
132 137 0
-132 -137 0
-132 -136 131 0
-132 -138 134 0
134 140 0
-134 -140 0
-134 -139 131 0
-134 -141 132 0
143 0
136 133 0
-136 -133 0
-136 -130 137 0
-136 -135 138 0
137 132 0
-137 -132 0
-137 -131 136 0
-137 -134 138 0
138 141 0
-138 -141 0
-138 -139 136 0
-138 -140 137 0
144 0
139 135 0
-139 -135 0
-139 -130 140 0
-139 -133 141 0
140 134 0
-140 -134 0
-140 -131 139 0
-140 -132 141 0
141 138 0
-141 -138 0
-141 -136 139 0
-141 -137 140 0
-145 0
-146 130 0
-147 133 0
-147 137 0
-133 -137 147 0
-148 135 0
-148 140 0
-135 -140 148 0
-146 -147 0
-146 -148 0
-130 146 147 148 0
-149 133 0
-150 130 0
-150 132 0
-130 -132 150 0
-151 135 0
-151 141 0
-135 -141 151 0
-149 -150 0
-149 -151 0
-133 149 150 151 0
-152 135 0
-153 130 0
-153 134 0
-130 -134 153 0
-154 133 0
-154 138 0
-133 -138 154 0
-152 -153 0
-152 -154 0
-135 152 153 154 0
-155 131 0
-156 132 0
-156 136 0
-132 -136 156 0
-157 134 0
-157 139 0
-134 -139 157 0
-155 -156 0
-155 -157 0
-131 155 156 157 0
-158 0
-159 132 0
-160 131 0
-160 133 0
-131 -133 160 0
-161 134 0
-161 141 0
-134 -141 161 0
-159 -160 0
-159 -161 0
-132 159 160 161 0
-162 134 0
-163 131 0
-163 135 0
-131 -135 163 0
-164 132 0
-164 138 0
-132 -138 164 0
-162 -163 0
-162 -164 0
-134 162 163 164 0
-165 136 0
-166 137 0
-166 131 0
-137 -131 166 0
-167 138 0
-167 139 0
-138 -139 167 0
-165 -166 0
-165 -167 0
-136 165 166 167 0
-168 137 0
-169 136 0
-169 130 0
-136 -130 169 0
-170 138 0
-170 140 0
-138 -140 170 0
-168 -169 0
-168 -170 0
-137 168 169 170 0
-171 0
-172 138 0
-173 136 0
-173 135 0
-136 -135 173 0
-174 137 0
-174 134 0
-137 -134 174 0
-172 -173 0
-172 -174 0
-138 172 173 174 0
-175 139 0
-176 140 0
-176 131 0
-140 -131 176 0
-177 141 0
-177 136 0
-141 -136 177 0
-175 -176 0
-175 -177 0
-139 175 176 177 0
-178 140 0
-179 139 0
-179 130 0
-139 -130 179 0
-180 141 0
-180 137 0
-141 -137 180 0
-178 -179 0
-178 -180 0
-140 178 179 180 0
-181 141 0
-182 139 0
-182 133 0
-139 -133 182 0
-183 140 0
-183 132 0
-140 -132 183 0
-181 -182 0
-181 -183 0
-141 181 182 183 0
-184 0
-185 129 0
-185 130 0
-185 133 0
-185 135 0
-129 -130 -133 -135 185 0
-186 129 0
-186 131 0
-186 136 0
-186 139 0
-129 -131 -136 -139 186 0
-187 131 0
-187 142 0
-187 132 0
-187 134 0
-131 -142 -132 -134 187 0
-188 130 0
-188 142 0
-188 137 0
-188 140 0
-130 -142 -137 -140 188 0
-189 136 0
-189 137 0
-189 143 0
-189 138 0
-136 -137 -143 -138 189 0
-190 133 0
-190 132 0
-190 143 0
-190 141 0
-133 -132 -143 -141 190 0
-191 139 0
-191 140 0
-191 141 0
-191 144 0
-139 -140 -141 -144 191 0
-192 135 0
-192 134 0
-192 138 0
-192 144 0
-135 -134 -138 -144 192 0
-145 5 0
-186 -185 5 0
-5 145 186 0
-5 145 185 0
-146 7 0
-186 -187 7 0
-7 146 186 0
-7 146 187 0
-149 9 0
-186 -189 9 0
-9 149 186 0
-9 149 189 0
-152 11 0
-186 -191 11 0
-11 152 186 0
-11 152 191 0
-155 13 0
-188 -185 13 0
-13 155 188 0
-13 155 185 0
-158 14 0
-188 -187 14 0
-14 158 188 0
-14 158 187 0
-159 16 0
-188 -189 16 0
-16 159 188 0
-16 159 189 0
-162 18 0
-188 -191 18 0
-18 162 188 0
-18 162 191 0
-165 20 0
-190 -185 20 0
-20 165 190 0
-20 165 185 0
-168 22 0
-190 -187 22 0
-22 168 190 0
-22 168 187 0
-171 23 0
-190 -189 23 0
-23 171 190 0
-23 171 189 0
-172 25 0
-190 -191 25 0
-25 172 190 0
-25 172 191 0
-175 27 0
-192 -185 27 0
-27 175 192 0
-27 175 185 0
-178 29 0
-192 -187 29 0
-29 178 192 0
-29 178 187 0
-181 31 0
-192 -189 31 0
-31 181 192 0
-31 181 189 0
-184 32 0
-192 -191 32 0
-32 184 192 0
-32 184 191 0
