p cnf 370 1005
c ind 1 2 3 4 5 6 7 8 9 10 11 12 13 14 15 16 17 18 19 20 21 22 23 24 25 26 27 28 29 30 31 32 33 34 35 36 37 38 39 40 41 42 43 44 45 46 47 48 49 50 0
c ind 251 252 253 254 255 256 257 258 259 260 261 262 263 264 265 266 267 268 269 270 271 272 273 274 275 276 277 278 279 280 281 282 283 284 285 286 287 288 289 290 291 292 293 294 295 296 297 298 299 300 0
c ind 301 302 303 304 305 306 307 308 309 310 311 312 313 314 315 316 317 318 319 320 321 322 323 324 325 326 327 328 329 330 331 332 333 334 335 336 337 338 339 340 341 342 343 344 345 346 347 348 349 350 0
c ind 351 352 353 354 355 356 357 358 359 360 361 362 363 364 365 366 367 368 369 370 0
-1 0
-2 0
-3 0
-4 0
-5 0
1 -6 0
7 -8 0
9 -10 0
11 -12 0
13 -14 0
15 -16 0
2 -17 0
18 -19 0
20 -21 0
22 -23 0
24 -25 0
26 -27 0
3 -28 0
29 -30 0
31 -32 0
33 -34 0
35 -36 0
37 -38 0
4 -39 0
40 -41 0
42 -43 0
44 -45 0
46 -47 0
48 -49 0
5 -50 0
1 -1 0
15 -7 0
24 -9 0
33 -11 0
42 -13 0
7 -15 0
2 -2 0
26 -18 0
35 -20 0
44 -22 0
9 -24 0
18 -26 0
3 -3 0
37 -29 0
46 -31 0
11 -33 0
20 -35 0
29 -37 0
4 -4 0
48 -40 0
13 -42 0
22 -44 0
31 -46 0
40 -48 0
5 -5 0
1 51 0
-51 52 0
7 -51 53 0
-53 54 0
9 -53 55 0
-55 56 0
11 -55 57 0
-57 58 0
13 -57 59 0
-59 60 0
15 -59 0
7 52 0
-52 61 0
9 -52 54 0
-54 62 0
11 -54 56 0
-56 63 0
13 -56 58 0
-58 64 0
15 -58 60 0
-60 65 0
2 -60 0
9 61 0
-61 66 0
11 -61 62 0
-62 67 0
13 -62 63 0
-63 68 0
15 -63 64 0
-64 69 0
2 -64 65 0
-65 70 0
18 -65 0
11 66 0
-66 71 0
13 -66 67 0
-67 72 0
15 -67 68 0
-68 73 0
2 -68 69 0
-69 74 0
18 -69 70 0
-70 75 0
20 -70 0
13 71 0
-71 76 0
15 -71 72 0
-72 77 0
2 -72 73 0
-73 78 0
18 -73 74 0
-74 79 0
20 -74 75 0
-75 80 0
22 -75 0
15 76 0
-76 81 0
2 -76 77 0
-77 82 0
18 -77 78 0
-78 83 0
20 -78 79 0
-79 84 0
22 -79 80 0
-80 85 0
24 -80 0
2 81 0
-81 86 0
18 -81 82 0
-82 87 0
20 -82 83 0
-83 88 0
22 -83 84 0
-84 89 0
24 -84 85 0
-85 90 0
26 -85 0
18 86 0
-86 91 0
20 -86 87 0
-87 92 0
22 -87 88 0
-88 93 0
24 -88 89 0
-89 94 0
26 -89 90 0
-90 95 0
3 -90 0
20 91 0
-91 96 0
22 -91 92 0
-92 97 0
24 -92 93 0
-93 98 0
26 -93 94 0
-94 99 0
3 -94 95 0
-95 100 0
29 -95 0
22 96 0
-96 101 0
24 -96 97 0
-97 102 0
26 -97 98 0
-98 103 0
3 -98 99 0
-99 104 0
29 -99 100 0
-100 105 0
31 -100 0
24 101 0
-101 106 0
26 -101 102 0
-102 107 0
3 -102 103 0
-103 108 0
29 -103 104 0
-104 109 0
31 -104 105 0
-105 110 0
33 -105 0
26 106 0
-106 111 0
3 -106 107 0
-107 112 0
29 -107 108 0
-108 113 0
31 -108 109 0
-109 114 0
33 -109 110 0
-110 115 0
35 -110 0
3 111 0
-111 116 0
29 -111 112 0
-112 117 0
31 -112 113 0
-113 118 0
33 -113 114 0
-114 119 0
35 -114 115 0
-115 120 0
37 -115 0
29 116 0
-116 121 0
31 -116 117 0
-117 122 0
33 -117 118 0
-118 123 0
35 -118 119 0
-119 124 0
37 -119 120 0
-120 125 0
4 -120 0
31 121 0
-121 126 0
33 -121 122 0
-122 127 0
35 -122 123 0
-123 128 0
37 -123 124 0
-124 129 0
4 -124 125 0
-125 130 0
40 -125 0
33 126 0
-126 131 0
35 -126 127 0
-127 132 0
37 -127 128 0
-128 133 0
4 -128 129 0
-129 134 0
40 -129 130 0
-130 135 0
42 -130 0
35 131 0
-131 136 0
37 -131 132 0
-132 137 0
4 -132 133 0
-133 138 0
40 -133 134 0
-134 139 0
42 -134 135 0
-135 140 0
44 -135 0
37 136 0
-136 141 0
4 -136 137 0
-137 142 0
40 -137 138 0
-138 143 0
42 -138 139 0
-139 144 0
44 -139 140 0
-140 145 0
46 -140 0
4 141 0
-141 146 0
40 -141 142 0
-142 147 0
42 -142 143 0
-143 148 0
44 -143 144 0
-144 149 0
46 -144 145 0
-145 150 0
48 -145 0
40 146 0
42 -146 147 0
44 -147 148 0
46 -148 149 0
48 -149 150 0
5 -150 0
-1 151 0
-151 152 0
-7 -151 153 0
-153 154 0
-9 -153 155 0
-155 156 0
-11 -155 157 0
-157 158 0
-13 -157 159 0
-159 160 0
-15 -159 161 0
-161 162 0
-2 -161 163 0
-163 164 0
-18 -163 165 0
-165 166 0
-20 -165 167 0
-167 168 0
-22 -167 169 0
-169 170 0
-24 -169 171 0
-171 172 0
-26 -171 173 0
-173 174 0
-3 -173 175 0
-175 176 0
-29 -175 177 0
-177 178 0
-31 -177 179 0
-179 180 0
-33 -179 181 0
-181 182 0
-35 -181 183 0
-183 184 0
-37 -183 185 0
-185 186 0
-4 -185 187 0
-187 188 0
-40 -187 189 0
-189 190 0
-42 -189 0
-7 152 0
-152 191 0
-9 -152 154 0
-154 192 0
-11 -154 156 0
-156 193 0
-13 -156 158 0
-158 194 0
-15 -158 160 0
-160 195 0
-2 -160 162 0
-162 196 0
-18 -162 164 0
-164 197 0
-20 -164 166 0
-166 198 0
-22 -166 168 0
-168 199 0
-24 -168 170 0
-170 200 0
-26 -170 172 0
-172 201 0
-3 -172 174 0
-174 202 0
-29 -174 176 0
-176 203 0
-31 -176 178 0
-178 204 0
-33 -178 180 0
-180 205 0
-35 -180 182 0
-182 206 0
-37 -182 184 0
-184 207 0
-4 -184 186 0
-186 208 0
-40 -186 188 0
-188 209 0
-42 -188 190 0
-190 210 0
-44 -190 0
-9 191 0
-191 211 0
-11 -191 192 0
-192 212 0
-13 -192 193 0
-193 213 0
-15 -193 194 0
-194 214 0
-2 -194 195 0
-195 215 0
-18 -195 196 0
-196 216 0
-20 -196 197 0
-197 217 0
-22 -197 198 0
-198 218 0
-24 -198 199 0
-199 219 0
-26 -199 200 0
-200 220 0
-3 -200 201 0
-201 221 0
-29 -201 202 0
-202 222 0
-31 -202 203 0
-203 223 0
-33 -203 204 0
-204 224 0
-35 -204 205 0
-205 225 0
-37 -205 206 0
-206 226 0
-4 -206 207 0
-207 227 0
-40 -207 208 0
-208 228 0
-42 -208 209 0
-209 229 0
-44 -209 210 0
-210 230 0
-46 -210 0
-11 211 0
-211 231 0
-13 -211 212 0
-212 232 0
-15 -212 213 0
-213 233 0
-2 -213 214 0
-214 234 0
-18 -214 215 0
-215 235 0
-20 -215 216 0
-216 236 0
-22 -216 217 0
-217 237 0
-24 -217 218 0
-218 238 0
-26 -218 219 0
-219 239 0
-3 -219 220 0
-220 240 0
-29 -220 221 0
-221 241 0
-31 -221 222 0
-222 242 0
-33 -222 223 0
-223 243 0
-35 -223 224 0
-224 244 0
-37 -224 225 0
-225 245 0
-4 -225 226 0
-226 246 0
-40 -226 227 0
-227 247 0
-42 -227 228 0
-228 248 0
-44 -228 229 0
-229 249 0
-46 -229 230 0
-230 250 0
-48 -230 0
-13 231 0
-15 -231 232 0
-2 -232 233 0
-18 -233 234 0
-20 -234 235 0
-22 -235 236 0
-24 -236 237 0
-26 -237 238 0
-3 -238 239 0
-29 -239 240 0
-31 -240 241 0
-33 -241 242 0
-35 -242 243 0
-37 -243 244 0
-4 -244 245 0
-40 -245 246 0
-42 -246 247 0
-44 -247 248 0
-46 -248 249 0
-48 -249 250 0
-5 -250 0
251 0
252 253 0
-252 -253 0
-252 -254 255 0
-252 -256 257 0
-252 -258 259 0
255 260 0
-255 -260 0
-255 -261 252 0
-255 -262 257 0
-255 -263 259 0
257 264 0
-257 -264 0
-257 -265 252 0
-257 -266 255 0
-257 -267 259 0
259 268 0
-259 -268 0
-259 -269 252 0
-259 -270 255 0
-259 -271 257 0
272 0
253 252 0
-253 -252 0
-253 -255 254 0
-253 -257 256 0
-253 -259 258 0
254 261 0
-254 -261 0
-254 -260 253 0
-254 -262 256 0
-254 -263 258 0
256 265 0
-256 -265 0
-256 -264 253 0
-256 -266 254 0
-256 -267 258 0
258 269 0
-258 -269 0
-258 -268 253 0
-258 -270 254 0
-258 -271 256 0
273 0
260 255 0
-260 -255 0
-260 -252 261 0
-260 -257 262 0
-260 -259 263 0
261 254 0
-261 -254 0
-261 -253 260 0
-261 -256 262 0
-261 -258 263 0
262 266 0
-262 -266 0
-262 -264 260 0
-262 -265 261 0
-262 -267 263 0
263 270 0
-263 -270 0
-263 -268 260 0
-263 -269 261 0
-263 -271 262 0
274 0
264 257 0
-264 -257 0
-264 -252 265 0
-264 -255 266 0
-264 -259 267 0
265 256 0
-265 -256 0
-265 -253 264 0
-265 -254 266 0
-265 -258 267 0
266 262 0
-266 -262 0
-266 -260 264 0
-266 -261 265 0
-266 -263 267 0
267 271 0
-267 -271 0
-267 -268 264 0
-267 -269 265 0
-267 -270 266 0
275 0
268 259 0
-268 -259 0
-268 -252 269 0
-268 -255 270 0
-268 -257 271 0
269 258 0
-269 -258 0
-269 -253 268 0
-269 -254 270 0
-269 -256 271 0
270 263 0
-270 -263 0
-270 -260 268 0
-270 -261 269 0
-270 -262 271 0
271 267 0
-271 -267 0
-271 -264 268 0
-271 -265 269 0
-271 -266 270 0
-276 0
-277 252 0
-278 255 0
-278 261 0
-255 -261 278 0
-279 257 0
-279 265 0
-257 -265 279 0
-280 259 0
-280 269 0
-259 -269 280 0
-277 -278 0
-277 -279 0
-277 -280 0
-252 277 278 279 280 0
-281 255 0
-282 252 0
-282 254 0
-252 -254 282 0
-283 257 0
-283 266 0
-257 -266 283 0
-284 259 0
-284 270 0
-259 -270 284 0
-281 -282 0
-281 -283 0
-281 -284 0
-255 281 282 283 284 0
-285 257 0
-286 252 0
-286 256 0
-252 -256 286 0
-287 255 0
-287 262 0
-255 -262 287 0
-288 259 0
-288 271 0
-259 -271 288 0
-285 -286 0
-285 -287 0
-285 -288 0
-257 285 286 287 288 0
-289 259 0
-290 252 0
-290 258 0
-252 -258 290 0
-291 255 0
-291 263 0
-255 -263 291 0
-292 257 0
-292 267 0
-257 -267 292 0
-289 -290 0
-289 -291 0
-289 -292 0
-259 289 290 291 292 0
-293 253 0
-294 254 0
-294 260 0
-254 -260 294 0
-295 256 0
-295 264 0
-256 -264 295 0
-296 258 0
-296 268 0
-258 -268 296 0
-293 -294 0
-293 -295 0
-293 -296 0
-253 293 294 295 296 0
-297 0
-298 254 0
-299 253 0
-299 255 0
-253 -255 299 0
-300 256 0
-300 266 0
-256 -266 300 0
-301 258 0
-301 270 0
-258 -270 301 0
-298 -299 0
-298 -300 0
-298 -301 0
-254 298 299 300 301 0
-302 256 0
-303 253 0
-303 257 0
-253 -257 303 0
-304 254 0
-304 262 0
-254 -262 304 0
-305 258 0
-305 271 0
-258 -271 305 0
-302 -303 0
-302 -304 0
-302 -305 0
-256 302 303 304 305 0
-306 258 0
-307 253 0
-307 259 0
-253 -259 307 0
-308 254 0
-308 263 0
-254 -263 308 0
-309 256 0
-309 267 0
-256 -267 309 0
-306 -307 0
-306 -308 0
-306 -309 0
-258 306 307 308 309 0
-310 260 0
-311 261 0
-311 253 0
-261 -253 311 0
-312 262 0
-312 264 0
-262 -264 312 0
-313 263 0
-313 268 0
-263 -268 313 0
-310 -311 0
-310 -312 0
-310 -313 0
-260 310 311 312 313 0
-314 261 0
-315 260 0
-315 252 0
-260 -252 315 0
-316 262 0
-316 265 0
-262 -265 316 0
-317 263 0
-317 269 0
-263 -269 317 0
-314 -315 0
-314 -316 0
-314 -317 0
-261 314 315 316 317 0
-318 0
-319 262 0
-320 260 0
-320 257 0
-260 -257 320 0
-321 261 0
-321 256 0
-261 -256 321 0
-322 263 0
-322 271 0
-263 -271 322 0
-319 -320 0
-319 -321 0
-319 -322 0
-262 319 320 321 322 0
-323 263 0
-324 260 0
-324 259 0
-260 -259 324 0
-325 261 0
-325 258 0
-261 -258 325 0
-326 262 0
-326 267 0
-262 -267 326 0
-323 -324 0
-323 -325 0
-323 -326 0
-263 323 324 325 326 0
-327 264 0
-328 265 0
-328 253 0
-265 -253 328 0
-329 266 0
-329 260 0
-266 -260 329 0
-330 267 0
-330 268 0
-267 -268 330 0
-327 -328 0
-327 -329 0
-327 -330 0
-264 327 328 329 330 0
-331 265 0
-332 264 0
-332 252 0
-264 -252 332 0
-333 266 0
-333 261 0
-266 -261 333 0
-334 267 0
-334 269 0
-267 -269 334 0
-331 -332 0
-331 -333 0
-331 -334 0
-265 331 332 333 334 0
-335 266 0
-336 264 0
-336 255 0
-264 -255 336 0
-337 265 0
-337 254 0
-265 -254 337 0
-338 267 0
-338 270 0
-267 -270 338 0
-335 -336 0
-335 -337 0
-335 -338 0
-266 335 336 337 338 0
-339 0
-340 267 0
-341 264 0
-341 259 0
-264 -259 341 0
-342 265 0
-342 258 0
-265 -258 342 0
-343 266 0
-343 263 0
-266 -263 343 0
-340 -341 0
-340 -342 0
-340 -343 0
-267 340 341 342 343 0
-344 268 0
-345 269 0
-345 253 0
-269 -253 345 0
-346 270 0
-346 260 0
-270 -260 346 0
-347 271 0
-347 264 0
-271 -264 347 0
-344 -345 0
-344 -346 0
-344 -347 0
-268 344 345 346 347 0
-348 269 0
-349 268 0
-349 252 0
-268 -252 349 0
-350 270 0
-350 261 0
-270 -261 350 0
-351 271 0
-351 265 0
-271 -265 351 0
-348 -349 0
-348 -350 0
-348 -351 0
-269 348 349 350 351 0
-352 270 0
-353 268 0
-353 255 0
-268 -255 353 0
-354 269 0
-354 254 0
-269 -254 354 0
-355 271 0
-355 266 0
-271 -266 355 0
-352 -353 0
-352 -354 0
-352 -355 0
-270 352 353 354 355 0
-356 271 0
-357 268 0
-357 257 0
-268 -257 357 0
-358 269 0
-358 256 0
-269 -256 358 0
-359 270 0
-359 262 0
-270 -262 359 0
-356 -357 0
-356 -358 0
-356 -359 0
-271 356 357 358 359 0
-360 0
-361 251 0
-361 252 0
-361 255 0
-361 257 0
-361 259 0
-251 -252 -255 -257 -259 361 0
-362 251 0
-362 253 0
-362 260 0
-362 264 0
-362 268 0
-251 -253 -260 -264 -268 362 0
-363 253 0
-363 272 0
-363 254 0
-363 256 0
-363 258 0
-253 -272 -254 -256 -258 363 0
-364 252 0
-364 272 0
-364 261 0
-364 265 0
-364 269 0
-252 -272 -261 -265 -269 364 0
-365 260 0
-365 261 0
-365 273 0
-365 262 0
-365 263 0
-260 -261 -273 -262 -263 365 0
-366 255 0
-366 254 0
-366 273 0
-366 266 0
-366 270 0
-255 -254 -273 -266 -270 366 0
-367 264 0
-367 265 0
-367 266 0
-367 274 0
-367 267 0
-264 -265 -266 -274 -267 367 0
-368 257 0
-368 256 0
-368 262 0
-368 274 0
-368 271 0
-257 -256 -262 -274 -271 368 0
-369 268 0
-369 269 0
-369 270 0
-369 271 0
-369 275 0
-268 -269 -270 -271 -275 369 0
-370 259 0
-370 258 0
-370 263 0
-370 267 0
-370 275 0
-259 -258 -263 -267 -275 370 0
-276 6 0
-362 -361 6 0
-6 276 362 0
-6 276 361 0
-277 8 0
-362 -363 8 0
-8 277 362 0
-8 277 363 0
-281 10 0
-362 -365 10 0
-10 281 362 0
-10 281 365 0
-285 12 0
-362 -367 12 0
-12 285 362 0
-12 285 367 0
-289 14 0
-362 -369 14 0
-14 289 362 0
-14 289 369 0
-293 16 0
-364 -361 16 0
-16 293 364 0
-16 293 361 0
-297 17 0
-364 -363 17 0
-17 297 364 0
-17 297 363 0
-298 19 0
-364 -365 19 0
-19 298 364 0
-19 298 365 0
-302 21 0
-364 -367 21 0
-21 302 364 0
-21 302 367 0
-306 23 0
-364 -369 23 0
-23 306 364 0
-23 306 369 0
-310 25 0
-366 -361 25 0
-25 310 366 0
-25 310 361 0
-314 27 0
-366 -363 27 0
-27 314 366 0
-27 314 363 0
-318 28 0
-366 -365 28 0
-28 318 366 0
-28 318 365 0
-319 30 0
-366 -367 30 0
-30 319 366 0
-30 319 367 0
-323 32 0
-366 -369 32 0
-32 323 366 0
-32 323 369 0
-327 34 0
-368 -361 34 0
-34 327 368 0
-34 327 361 0
-331 36 0
-368 -363 36 0
-36 331 368 0
-36 331 363 0
-335 38 0
-368 -365 38 0
-38 335 368 0
-38 335 365 0
-339 39 0
-368 -367 39 0
-39 339 368 0
-39 339 367 0
-340 41 0
-368 -369 41 0
-41 340 368 0
-41 340 369 0
-344 43 0
-370 -361 43 0
-43 344 370 0
-43 344 361 0
-348 45 0
-370 -363 45 0
-45 348 370 0
-45 348 363 0
-352 47 0
-370 -365 47 0
-47 352 370 0
-47 352 365 0
-356 49 0
-370 -367 49 0
-49 356 370 0
-49 356 367 0
-360 50 0
-370 -369 50 0
-50 360 370 0
-50 360 369 0
