p cnf 852 2190
c ind 1 2 3 4 5 6 7 8 9 10 11 12 13 14 15 16 17 18 19 20 21 22 23 24 25 26 27 28 29 30 31 32 33 34 35 36 37 38 39 40 41 42 43 44 45 46 47 48 49 50 0
c ind 51 52 53 54 55 56 57 58 59 60 61 62 63 64 65 66 67 68 69 70 71 72 649 650 651 652 653 654 655 656 657 658 659 660 661 662 663 664 665 666 667 668 669 670 671 672 673 674 675 676 0
c ind 677 678 679 680 681 682 683 684 685 686 687 688 689 690 691 692 693 694 695 696 697 698 699 700 701 702 703 704 705 706 707 708 709 710 711 712 713 714 715 716 717 718 719 720 721 722 723 724 725 726 0
c ind 727 728 729 730 731 732 733 734 735 736 737 738 739 740 741 742 743 744 745 746 747 748 749 750 751 752 753 754 755 756 757 758 759 760 761 762 763 764 765 766 767 768 769 770 771 772 773 774 775 776 0
c ind 777 778 779 780 781 782 783 784 785 786 787 788 789 790 791 792 793 794 795 796 797 798 799 800 801 802 803 804 805 806 807 808 809 810 811 812 813 814 815 816 817 818 819 820 821 822 823 824 825 826 0
c ind 827 828 829 830 831 832 833 834 835 836 837 838 839 840 841 842 843 844 845 846 847 848 849 850 851 852 0
-1 0
-2 0
-3 0
-4 0
-5 0
-6 0
1 -7 0
8 -9 0
10 -11 0
12 -13 0
14 -15 0
16 -17 0
18 -19 0
2 -20 0
21 -22 0
23 -24 0
25 -26 0
27 -28 0
29 -30 0
31 -32 0
3 -33 0
34 -35 0
36 -37 0
38 -39 0
40 -41 0
42 -43 0
44 -45 0
4 -46 0
47 -48 0
49 -50 0
51 -52 0
53 -54 0
55 -56 0
57 -58 0
5 -59 0
60 -61 0
62 -63 0
64 -65 0
66 -67 0
68 -69 0
70 -71 0
6 -72 0
1 -1 0
18 -8 0
29 -10 0
40 -12 0
51 -14 0
62 -16 0
8 -18 0
2 -2 0
31 -21 0
42 -23 0
53 -25 0
64 -27 0
10 -29 0
21 -31 0
3 -3 0
44 -34 0
55 -36 0
66 -38 0
12 -40 0
23 -42 0
34 -44 0
4 -4 0
57 -47 0
68 -49 0
14 -51 0
25 -53 0
36 -55 0
47 -57 0
5 -5 0
70 -60 0
16 -62 0
27 -64 0
38 -66 0
49 -68 0
60 -70 0
6 -6 0
1 73 0
-73 74 0
8 -73 75 0
-75 76 0
10 -75 77 0
-77 78 0
12 -77 79 0
-79 80 0
14 -79 81 0
-81 82 0
16 -81 83 0
-83 84 0
18 -83 85 0
-85 86 0
2 -85 87 0
-87 88 0
21 -87 89 0
-89 90 0
23 -89 91 0
-91 92 0
25 -91 93 0
-93 94 0
27 -93 95 0
-95 96 0
29 -95 0
8 74 0
-74 97 0
10 -74 76 0
-76 98 0
12 -76 78 0
-78 99 0
14 -78 80 0
-80 100 0
16 -80 82 0
-82 101 0
18 -82 84 0
-84 102 0
2 -84 86 0
-86 103 0
21 -86 88 0
-88 104 0
23 -88 90 0
-90 105 0
25 -90 92 0
-92 106 0
27 -92 94 0
-94 107 0
29 -94 96 0
-96 108 0
31 -96 0
10 97 0
-97 109 0
12 -97 98 0
-98 110 0
14 -98 99 0
-99 111 0
16 -99 100 0
-100 112 0
18 -100 101 0
-101 113 0
2 -101 102 0
-102 114 0
21 -102 103 0
-103 115 0
23 -103 104 0
-104 116 0
25 -104 105 0
-105 117 0
27 -105 106 0
-106 118 0
29 -106 107 0
-107 119 0
31 -107 108 0
-108 120 0
3 -108 0
12 109 0
-109 121 0
14 -109 110 0
-110 122 0
16 -110 111 0
-111 123 0
18 -111 112 0
-112 124 0
2 -112 113 0
-113 125 0
21 -113 114 0
-114 126 0
23 -114 115 0
-115 127 0
25 -115 116 0
-116 128 0
27 -116 117 0
-117 129 0
29 -117 118 0
-118 130 0
31 -118 119 0
-119 131 0
3 -119 120 0
-120 132 0
34 -120 0
14 121 0
-121 133 0
16 -121 122 0
-122 134 0
18 -122 123 0
-123 135 0
2 -123 124 0
-124 136 0
21 -124 125 0
-125 137 0
23 -125 126 0
-126 138 0
25 -126 127 0
-127 139 0
27 -127 128 0
-128 140 0
29 -128 129 0
-129 141 0
31 -129 130 0
-130 142 0
3 -130 131 0
-131 143 0
34 -131 132 0
-132 144 0
36 -132 0
16 133 0
-133 145 0
18 -133 134 0
-134 146 0
2 -134 135 0
-135 147 0
21 -135 136 0
-136 148 0
23 -136 137 0
-137 149 0
25 -137 138 0
-138 150 0
27 -138 139 0
-139 151 0
29 -139 140 0
-140 152 0
31 -140 141 0
-141 153 0
3 -141 142 0
-142 154 0
34 -142 143 0
-143 155 0
36 -143 144 0
-144 156 0
38 -144 0
18 145 0
-145 157 0
2 -145 146 0
-146 158 0
21 -146 147 0
-147 159 0
23 -147 148 0
-148 160 0
25 -148 149 0
-149 161 0
27 -149 150 0
-150 162 0
29 -150 151 0
-151 163 0
31 -151 152 0
-152 164 0
3 -152 153 0
-153 165 0
34 -153 154 0
-154 166 0
36 -154 155 0
-155 167 0
38 -155 156 0
-156 168 0
40 -156 0
2 157 0
-157 169 0
21 -157 158 0
-158 170 0
23 -158 159 0
-159 171 0
25 -159 160 0
-160 172 0
27 -160 161 0
-161 173 0
29 -161 162 0
-162 174 0
31 -162 163 0
-163 175 0
3 -163 164 0
-164 176 0
34 -164 165 0
-165 177 0
36 -165 166 0
-166 178 0
38 -166 167 0
-167 179 0
40 -167 168 0
-168 180 0
42 -168 0
21 169 0
-169 181 0
23 -169 170 0
-170 182 0
25 -170 171 0
-171 183 0
27 -171 172 0
-172 184 0
29 -172 173 0
-173 185 0
31 -173 174 0
-174 186 0
3 -174 175 0
-175 187 0
34 -175 176 0
-176 188 0
36 -176 177 0
-177 189 0
38 -177 178 0
-178 190 0
40 -178 179 0
-179 191 0
42 -179 180 0
-180 192 0
44 -180 0
23 181 0
-181 193 0
25 -181 182 0
-182 194 0
27 -182 183 0
-183 195 0
29 -183 184 0
-184 196 0
31 -184 185 0
-185 197 0
3 -185 186 0
-186 198 0
34 -186 187 0
-187 199 0
36 -187 188 0
-188 200 0
38 -188 189 0
-189 201 0
40 -189 190 0
-190 202 0
42 -190 191 0
-191 203 0
44 -191 192 0
-192 204 0
4 -192 0
25 193 0
-193 205 0
27 -193 194 0
-194 206 0
29 -194 195 0
-195 207 0
31 -195 196 0
-196 208 0
3 -196 197 0
-197 209 0
34 -197 198 0
-198 210 0
36 -198 199 0
-199 211 0
38 -199 200 0
-200 212 0
40 -200 201 0
-201 213 0
42 -201 202 0
-202 214 0
44 -202 203 0
-203 215 0
4 -203 204 0
-204 216 0
47 -204 0
27 205 0
-205 217 0
29 -205 206 0
-206 218 0
31 -206 207 0
-207 219 0
3 -207 208 0
-208 220 0
34 -208 209 0
-209 221 0
36 -209 210 0
-210 222 0
38 -210 211 0
-211 223 0
40 -211 212 0
-212 224 0
42 -212 213 0
-213 225 0
44 -213 214 0
-214 226 0
4 -214 215 0
-215 227 0
47 -215 216 0
-216 228 0
49 -216 0
29 217 0
-217 229 0
31 -217 218 0
-218 230 0
3 -218 219 0
-219 231 0
34 -219 220 0
-220 232 0
36 -220 221 0
-221 233 0
38 -221 222 0
-222 234 0
40 -222 223 0
-223 235 0
42 -223 224 0
-224 236 0
44 -224 225 0
-225 237 0
4 -225 226 0
-226 238 0
47 -226 227 0
-227 239 0
49 -227 228 0
-228 240 0
51 -228 0
31 229 0
-229 241 0
3 -229 230 0
-230 242 0
34 -230 231 0
-231 243 0
36 -231 232 0
-232 244 0
38 -232 233 0
-233 245 0
40 -233 234 0
-234 246 0
42 -234 235 0
-235 247 0
44 -235 236 0
-236 248 0
4 -236 237 0
-237 249 0
47 -237 238 0
-238 250 0
49 -238 239 0
-239 251 0
51 -239 240 0
-240 252 0
53 -240 0
3 241 0
-241 253 0
34 -241 242 0
-242 254 0
36 -242 243 0
-243 255 0
38 -243 244 0
-244 256 0
40 -244 245 0
-245 257 0
42 -245 246 0
-246 258 0
44 -246 247 0
-247 259 0
4 -247 248 0
-248 260 0
47 -248 249 0
-249 261 0
49 -249 250 0
-250 262 0
51 -250 251 0
-251 263 0
53 -251 252 0
-252 264 0
55 -252 0
34 253 0
-253 265 0
36 -253 254 0
-254 266 0
38 -254 255 0
-255 267 0
40 -255 256 0
-256 268 0
42 -256 257 0
-257 269 0
44 -257 258 0
-258 270 0
4 -258 259 0
-259 271 0
47 -259 260 0
-260 272 0
49 -260 261 0
-261 273 0
51 -261 262 0
-262 274 0
53 -262 263 0
-263 275 0
55 -263 264 0
-264 276 0
57 -264 0
36 265 0
-265 277 0
38 -265 266 0
-266 278 0
40 -266 267 0
-267 279 0
42 -267 268 0
-268 280 0
44 -268 269 0
-269 281 0
4 -269 270 0
-270 282 0
47 -270 271 0
-271 283 0
49 -271 272 0
-272 284 0
51 -272 273 0
-273 285 0
53 -273 274 0
-274 286 0
55 -274 275 0
-275 287 0
57 -275 276 0
-276 288 0
5 -276 0
38 277 0
-277 289 0
40 -277 278 0
-278 290 0
42 -278 279 0
-279 291 0
44 -279 280 0
-280 292 0
4 -280 281 0
-281 293 0
47 -281 282 0
-282 294 0
49 -282 283 0
-283 295 0
51 -283 284 0
-284 296 0
53 -284 285 0
-285 297 0
55 -285 286 0
-286 298 0
57 -286 287 0
-287 299 0
5 -287 288 0
-288 300 0
60 -288 0
40 289 0
-289 301 0
42 -289 290 0
-290 302 0
44 -290 291 0
-291 303 0
4 -291 292 0
-292 304 0
47 -292 293 0
-293 305 0
49 -293 294 0
-294 306 0
51 -294 295 0
-295 307 0
53 -295 296 0
-296 308 0
55 -296 297 0
-297 309 0
57 -297 298 0
-298 310 0
5 -298 299 0
-299 311 0
60 -299 300 0
-300 312 0
62 -300 0
42 301 0
-301 313 0
44 -301 302 0
-302 314 0
4 -302 303 0
-303 315 0
47 -303 304 0
-304 316 0
49 -304 305 0
-305 317 0
51 -305 306 0
-306 318 0
53 -306 307 0
-307 319 0
55 -307 308 0
-308 320 0
57 -308 309 0
-309 321 0
5 -309 310 0
-310 322 0
60 -310 311 0
-311 323 0
62 -311 312 0
-312 324 0
64 -312 0
44 313 0
-313 325 0
4 -313 314 0
-314 326 0
47 -314 315 0
-315 327 0
49 -315 316 0
-316 328 0
51 -316 317 0
-317 329 0
53 -317 318 0
-318 330 0
55 -318 319 0
-319 331 0
57 -319 320 0
-320 332 0
5 -320 321 0
-321 333 0
60 -321 322 0
-322 334 0
62 -322 323 0
-323 335 0
64 -323 324 0
-324 336 0
66 -324 0
4 325 0
-325 337 0
47 -325 326 0
-326 338 0
49 -326 327 0
-327 339 0
51 -327 328 0
-328 340 0
53 -328 329 0
-329 341 0
55 -329 330 0
-330 342 0
57 -330 331 0
-331 343 0
5 -331 332 0
-332 344 0
60 -332 333 0
-333 345 0
62 -333 334 0
-334 346 0
64 -334 335 0
-335 347 0
66 -335 336 0
-336 348 0
68 -336 0
47 337 0
-337 349 0
49 -337 338 0
-338 350 0
51 -338 339 0
-339 351 0
53 -339 340 0
-340 352 0
55 -340 341 0
-341 353 0
57 -341 342 0
-342 354 0
5 -342 343 0
-343 355 0
60 -343 344 0
-344 356 0
62 -344 345 0
-345 357 0
64 -345 346 0
-346 358 0
66 -346 347 0
-347 359 0
68 -347 348 0
-348 360 0
70 -348 0
49 349 0
51 -349 350 0
53 -350 351 0
55 -351 352 0
57 -352 353 0
5 -353 354 0
60 -354 355 0
62 -355 356 0
64 -356 357 0
66 -357 358 0
68 -358 359 0
70 -359 360 0
6 -360 0
-1 361 0
-361 362 0
-8 -361 363 0
-363 364 0
-10 -363 365 0
-365 366 0
-12 -365 367 0
-367 368 0
-14 -367 369 0
-369 370 0
-16 -369 371 0
-371 372 0
-18 -371 373 0
-373 374 0
-2 -373 375 0
-375 376 0
-21 -375 377 0
-377 378 0
-23 -377 379 0
-379 380 0
-25 -379 381 0
-381 382 0
-27 -381 383 0
-383 384 0
-29 -383 385 0
-385 386 0
-31 -385 387 0
-387 388 0
-3 -387 389 0
-389 390 0
-34 -389 391 0
-391 392 0
-36 -391 393 0
-393 394 0
-38 -393 395 0
-395 396 0
-40 -395 397 0
-397 398 0
-42 -397 399 0
-399 400 0
-44 -399 401 0
-401 402 0
-4 -401 403 0
-403 404 0
-47 -403 405 0
-405 406 0
-49 -405 407 0
-407 408 0
-51 -407 0
-8 362 0
-362 409 0
-10 -362 364 0
-364 410 0
-12 -364 366 0
-366 411 0
-14 -366 368 0
-368 412 0
-16 -368 370 0
-370 413 0
-18 -370 372 0
-372 414 0
-2 -372 374 0
-374 415 0
-21 -374 376 0
-376 416 0
-23 -376 378 0
-378 417 0
-25 -378 380 0
-380 418 0
-27 -380 382 0
-382 419 0
-29 -382 384 0
-384 420 0
-31 -384 386 0
-386 421 0
-3 -386 388 0
-388 422 0
-34 -388 390 0
-390 423 0
-36 -390 392 0
-392 424 0
-38 -392 394 0
-394 425 0
-40 -394 396 0
-396 426 0
-42 -396 398 0
-398 427 0
-44 -398 400 0
-400 428 0
-4 -400 402 0
-402 429 0
-47 -402 404 0
-404 430 0
-49 -404 406 0
-406 431 0
-51 -406 408 0
-408 432 0
-53 -408 0
-10 409 0
-409 433 0
-12 -409 410 0
-410 434 0
-14 -410 411 0
-411 435 0
-16 -411 412 0
-412 436 0
-18 -412 413 0
-413 437 0
-2 -413 414 0
-414 438 0
-21 -414 415 0
-415 439 0
-23 -415 416 0
-416 440 0
-25 -416 417 0
-417 441 0
-27 -417 418 0
-418 442 0
-29 -418 419 0
-419 443 0
-31 -419 420 0
-420 444 0
-3 -420 421 0
-421 445 0
-34 -421 422 0
-422 446 0
-36 -422 423 0
-423 447 0
-38 -423 424 0
-424 448 0
-40 -424 425 0
-425 449 0
-42 -425 426 0
-426 450 0
-44 -426 427 0
-427 451 0
-4 -427 428 0
-428 452 0
-47 -428 429 0
-429 453 0
-49 -429 430 0
-430 454 0
-51 -430 431 0
-431 455 0
-53 -431 432 0
-432 456 0
-55 -432 0
-12 433 0
-433 457 0
-14 -433 434 0
-434 458 0
-16 -434 435 0
-435 459 0
-18 -435 436 0
-436 460 0
-2 -436 437 0
-437 461 0
-21 -437 438 0
-438 462 0
-23 -438 439 0
-439 463 0
-25 -439 440 0
-440 464 0
-27 -440 441 0
-441 465 0
-29 -441 442 0
-442 466 0
-31 -442 443 0
-443 467 0
-3 -443 444 0
-444 468 0
-34 -444 445 0
-445 469 0
-36 -445 446 0
-446 470 0
-38 -446 447 0
-447 471 0
-40 -447 448 0
-448 472 0
-42 -448 449 0
-449 473 0
-44 -449 450 0
-450 474 0
-4 -450 451 0
-451 475 0
-47 -451 452 0
-452 476 0
-49 -452 453 0
-453 477 0
-51 -453 454 0
-454 478 0
-53 -454 455 0
-455 479 0
-55 -455 456 0
-456 480 0
-57 -456 0
-14 457 0
-457 481 0
-16 -457 458 0
-458 482 0
-18 -458 459 0
-459 483 0
-2 -459 460 0
-460 484 0
-21 -460 461 0
-461 485 0
-23 -461 462 0
-462 486 0
-25 -462 463 0
-463 487 0
-27 -463 464 0
-464 488 0
-29 -464 465 0
-465 489 0
-31 -465 466 0
-466 490 0
-3 -466 467 0
-467 491 0
-34 -467 468 0
-468 492 0
-36 -468 469 0
-469 493 0
-38 -469 470 0
-470 494 0
-40 -470 471 0
-471 495 0
-42 -471 472 0
-472 496 0
-44 -472 473 0
-473 497 0
-4 -473 474 0
-474 498 0
-47 -474 475 0
-475 499 0
-49 -475 476 0
-476 500 0
-51 -476 477 0
-477 501 0
-53 -477 478 0
-478 502 0
-55 -478 479 0
-479 503 0
-57 -479 480 0
-480 504 0
-5 -480 0
-16 481 0
-481 505 0
-18 -481 482 0
-482 506 0
-2 -482 483 0
-483 507 0
-21 -483 484 0
-484 508 0
-23 -484 485 0
-485 509 0
-25 -485 486 0
-486 510 0
-27 -486 487 0
-487 511 0
-29 -487 488 0
-488 512 0
-31 -488 489 0
-489 513 0
-3 -489 490 0
-490 514 0
-34 -490 491 0
-491 515 0
-36 -491 492 0
-492 516 0
-38 -492 493 0
-493 517 0
-40 -493 494 0
-494 518 0
-42 -494 495 0
-495 519 0
-44 -495 496 0
-496 520 0
-4 -496 497 0
-497 521 0
-47 -497 498 0
-498 522 0
-49 -498 499 0
-499 523 0
-51 -499 500 0
-500 524 0
-53 -500 501 0
-501 525 0
-55 -501 502 0
-502 526 0
-57 -502 503 0
-503 527 0
-5 -503 504 0
-504 528 0
-60 -504 0
-18 505 0
-505 529 0
-2 -505 506 0
-506 530 0
-21 -506 507 0
-507 531 0
-23 -507 508 0
-508 532 0
-25 -508 509 0
-509 533 0
-27 -509 510 0
-510 534 0
-29 -510 511 0
-511 535 0
-31 -511 512 0
-512 536 0
-3 -512 513 0
-513 537 0
-34 -513 514 0
-514 538 0
-36 -514 515 0
-515 539 0
-38 -515 516 0
-516 540 0
-40 -516 517 0
-517 541 0
-42 -517 518 0
-518 542 0
-44 -518 519 0
-519 543 0
-4 -519 520 0
-520 544 0
-47 -520 521 0
-521 545 0
-49 -521 522 0
-522 546 0
-51 -522 523 0
-523 547 0
-53 -523 524 0
-524 548 0
-55 -524 525 0
-525 549 0
-57 -525 526 0
-526 550 0
-5 -526 527 0
-527 551 0
-60 -527 528 0
-528 552 0
-62 -528 0
-2 529 0
-529 553 0
-21 -529 530 0
-530 554 0
-23 -530 531 0
-531 555 0
-25 -531 532 0
-532 556 0
-27 -532 533 0
-533 557 0
-29 -533 534 0
-534 558 0
-31 -534 535 0
-535 559 0
-3 -535 536 0
-536 560 0
-34 -536 537 0
-537 561 0
-36 -537 538 0
-538 562 0
-38 -538 539 0
-539 563 0
-40 -539 540 0
-540 564 0
-42 -540 541 0
-541 565 0
-44 -541 542 0
-542 566 0
-4 -542 543 0
-543 567 0
-47 -543 544 0
-544 568 0
-49 -544 545 0
-545 569 0
-51 -545 546 0
-546 570 0
-53 -546 547 0
-547 571 0
-55 -547 548 0
-548 572 0
-57 -548 549 0
-549 573 0
-5 -549 550 0
-550 574 0
-60 -550 551 0
-551 575 0
-62 -551 552 0
-552 576 0
-64 -552 0
-21 553 0
-553 577 0
-23 -553 554 0
-554 578 0
-25 -554 555 0
-555 579 0
-27 -555 556 0
-556 580 0
-29 -556 557 0
-557 581 0
-31 -557 558 0
-558 582 0
-3 -558 559 0
-559 583 0
-34 -559 560 0
-560 584 0
-36 -560 561 0
-561 585 0
-38 -561 562 0
-562 586 0
-40 -562 563 0
-563 587 0
-42 -563 564 0
-564 588 0
-44 -564 565 0
-565 589 0
-4 -565 566 0
-566 590 0
-47 -566 567 0
-567 591 0
-49 -567 568 0
-568 592 0
-51 -568 569 0
-569 593 0
-53 -569 570 0
-570 594 0
-55 -570 571 0
-571 595 0
-57 -571 572 0
-572 596 0
-5 -572 573 0
-573 597 0
-60 -573 574 0
-574 598 0
-62 -574 575 0
-575 599 0
-64 -575 576 0
-576 600 0
-66 -576 0
-23 577 0
-577 601 0
-25 -577 578 0
-578 602 0
-27 -578 579 0
-579 603 0
-29 -579 580 0
-580 604 0
-31 -580 581 0
-581 605 0
-3 -581 582 0
-582 606 0
-34 -582 583 0
-583 607 0
-36 -583 584 0
-584 608 0
-38 -584 585 0
-585 609 0
-40 -585 586 0
-586 610 0
-42 -586 587 0
-587 611 0
-44 -587 588 0
-588 612 0
-4 -588 589 0
-589 613 0
-47 -589 590 0
-590 614 0
-49 -590 591 0
-591 615 0
-51 -591 592 0
-592 616 0
-53 -592 593 0
-593 617 0
-55 -593 594 0
-594 618 0
-57 -594 595 0
-595 619 0
-5 -595 596 0
-596 620 0
-60 -596 597 0
-597 621 0
-62 -597 598 0
-598 622 0
-64 -598 599 0
-599 623 0
-66 -599 600 0
-600 624 0
-68 -600 0
-25 601 0
-601 625 0
-27 -601 602 0
-602 626 0
-29 -602 603 0
-603 627 0
-31 -603 604 0
-604 628 0
-3 -604 605 0
-605 629 0
-34 -605 606 0
-606 630 0
-36 -606 607 0
-607 631 0
-38 -607 608 0
-608 632 0
-40 -608 609 0
-609 633 0
-42 -609 610 0
-610 634 0
-44 -610 611 0
-611 635 0
-4 -611 612 0
-612 636 0
-47 -612 613 0
-613 637 0
-49 -613 614 0
-614 638 0
-51 -614 615 0
-615 639 0
-53 -615 616 0
-616 640 0
-55 -616 617 0
-617 641 0
-57 -617 618 0
-618 642 0
-5 -618 619 0
-619 643 0
-60 -619 620 0
-620 644 0
-62 -620 621 0
-621 645 0
-64 -621 622 0
-622 646 0
-66 -622 623 0
-623 647 0
-68 -623 624 0
-624 648 0
-70 -624 0
-27 625 0
-29 -625 626 0
-31 -626 627 0
-3 -627 628 0
-34 -628 629 0
-36 -629 630 0
-38 -630 631 0
-40 -631 632 0
-42 -632 633 0
-44 -633 634 0
-4 -634 635 0
-47 -635 636 0
-49 -636 637 0
-51 -637 638 0
-53 -638 639 0
-55 -639 640 0
-57 -640 641 0
-5 -641 642 0
-60 -642 643 0
-62 -643 644 0
-64 -644 645 0
-66 -645 646 0
-68 -646 647 0
-70 -647 648 0
-6 -648 0
649 0
650 651 0
-650 -651 0
-650 -652 653 0
-650 -654 655 0
-650 -656 657 0
-650 -658 659 0
653 660 0
-653 -660 0
-653 -661 650 0
-653 -662 655 0
-653 -663 657 0
-653 -664 659 0
655 665 0
-655 -665 0
-655 -666 650 0
-655 -667 653 0
-655 -668 657 0
-655 -669 659 0
657 670 0
-657 -670 0
-657 -671 650 0
-657 -672 653 0
-657 -673 655 0
-657 -674 659 0
659 675 0
-659 -675 0
-659 -676 650 0
-659 -677 653 0
-659 -678 655 0
-659 -679 657 0
680 0
651 650 0
-651 -650 0
-651 -653 652 0
-651 -655 654 0
-651 -657 656 0
-651 -659 658 0
652 661 0
-652 -661 0
-652 -660 651 0
-652 -662 654 0
-652 -663 656 0
-652 -664 658 0
654 666 0
-654 -666 0
-654 -665 651 0
-654 -667 652 0
-654 -668 656 0
-654 -669 658 0
656 671 0
-656 -671 0
-656 -670 651 0
-656 -672 652 0
-656 -673 654 0
-656 -674 658 0
658 676 0
-658 -676 0
-658 -675 651 0
-658 -677 652 0
-658 -678 654 0
-658 -679 656 0
681 0
660 653 0
-660 -653 0
-660 -650 661 0
-660 -655 662 0
-660 -657 663 0
-660 -659 664 0
661 652 0
-661 -652 0
-661 -651 660 0
-661 -654 662 0
-661 -656 663 0
-661 -658 664 0
662 667 0
-662 -667 0
-662 -665 660 0
-662 -666 661 0
-662 -668 663 0
-662 -669 664 0
663 672 0
-663 -672 0
-663 -670 660 0
-663 -671 661 0
-663 -673 662 0
-663 -674 664 0
664 677 0
-664 -677 0
-664 -675 660 0
-664 -676 661 0
-664 -678 662 0
-664 -679 663 0
682 0
665 655 0
-665 -655 0
-665 -650 666 0
-665 -653 667 0
-665 -657 668 0
-665 -659 669 0
666 654 0
-666 -654 0
-666 -651 665 0
-666 -652 667 0
-666 -656 668 0
-666 -658 669 0
667 662 0
-667 -662 0
-667 -660 665 0
-667 -661 666 0
-667 -663 668 0
-667 -664 669 0
668 673 0
-668 -673 0
-668 -670 665 0
-668 -671 666 0
-668 -672 667 0
-668 -674 669 0
669 678 0
-669 -678 0
-669 -675 665 0
-669 -676 666 0
-669 -677 667 0
-669 -679 668 0
683 0
670 657 0
-670 -657 0
-670 -650 671 0
-670 -653 672 0
-670 -655 673 0
-670 -659 674 0
671 656 0
-671 -656 0
-671 -651 670 0
-671 -652 672 0
-671 -654 673 0
-671 -658 674 0
672 663 0
-672 -663 0
-672 -660 670 0
-672 -661 671 0
-672 -662 673 0
-672 -664 674 0
673 668 0
-673 -668 0
-673 -665 670 0
-673 -666 671 0
-673 -667 672 0
-673 -669 674 0
674 679 0
-674 -679 0
-674 -675 670 0
-674 -676 671 0
-674 -677 672 0
-674 -678 673 0
684 0
675 659 0
-675 -659 0
-675 -650 676 0
-675 -653 677 0
-675 -655 678 0
-675 -657 679 0
676 658 0
-676 -658 0
-676 -651 675 0
-676 -652 677 0
-676 -654 678 0
-676 -656 679 0
677 664 0
-677 -664 0
-677 -660 675 0
-677 -661 676 0
-677 -662 678 0
-677 -663 679 0
678 669 0
-678 -669 0
-678 -665 675 0
-678 -666 676 0
-678 -667 677 0
-678 -668 679 0
679 674 0
-679 -674 0
-679 -670 675 0
-679 -671 676 0
-679 -672 677 0
-679 -673 678 0
-685 0
-686 650 0
-687 653 0
-687 661 0
-653 -661 687 0
-688 655 0
-688 666 0
-655 -666 688 0
-689 657 0
-689 671 0
-657 -671 689 0
-690 659 0
-690 676 0
-659 -676 690 0
-686 -687 0
-686 -688 0
-686 -689 0
-686 -690 0
-650 686 687 688 689 690 0
-691 653 0
-692 650 0
-692 652 0
-650 -652 692 0
-693 655 0
-693 667 0
-655 -667 693 0
-694 657 0
-694 672 0
-657 -672 694 0
-695 659 0
-695 677 0
-659 -677 695 0
-691 -692 0
-691 -693 0
-691 -694 0
-691 -695 0
-653 691 692 693 694 695 0
-696 655 0
-697 650 0
-697 654 0
-650 -654 697 0
-698 653 0
-698 662 0
-653 -662 698 0
-699 657 0
-699 673 0
-657 -673 699 0
-700 659 0
-700 678 0
-659 -678 700 0
-696 -697 0
-696 -698 0
-696 -699 0
-696 -700 0
-655 696 697 698 699 700 0
-701 657 0
-702 650 0
-702 656 0
-650 -656 702 0
-703 653 0
-703 663 0
-653 -663 703 0
-704 655 0
-704 668 0
-655 -668 704 0
-705 659 0
-705 679 0
-659 -679 705 0
-701 -702 0
-701 -703 0
-701 -704 0
-701 -705 0
-657 701 702 703 704 705 0
-706 659 0
-707 650 0
-707 658 0
-650 -658 707 0
-708 653 0
-708 664 0
-653 -664 708 0
-709 655 0
-709 669 0
-655 -669 709 0
-710 657 0
-710 674 0
-657 -674 710 0
-706 -707 0
-706 -708 0
-706 -709 0
-706 -710 0
-659 706 707 708 709 710 0
-711 651 0
-712 652 0
-712 660 0
-652 -660 712 0
-713 654 0
-713 665 0
-654 -665 713 0
-714 656 0
-714 670 0
-656 -670 714 0
-715 658 0
-715 675 0
-658 -675 715 0
-711 -712 0
-711 -713 0
-711 -714 0
-711 -715 0
-651 711 712 713 714 715 0
-716 0
-717 652 0
-718 651 0
-718 653 0
-651 -653 718 0
-719 654 0
-719 667 0
-654 -667 719 0
-720 656 0
-720 672 0
-656 -672 720 0
-721 658 0
-721 677 0
-658 -677 721 0
-717 -718 0
-717 -719 0
-717 -720 0
-717 -721 0
-652 717 718 719 720 721 0
-722 654 0
-723 651 0
-723 655 0
-651 -655 723 0
-724 652 0
-724 662 0
-652 -662 724 0
-725 656 0
-725 673 0
-656 -673 725 0
-726 658 0
-726 678 0
-658 -678 726 0
-722 -723 0
-722 -724 0
-722 -725 0
-722 -726 0
-654 722 723 724 725 726 0
-727 656 0
-728 651 0
-728 657 0
-651 -657 728 0
-729 652 0
-729 663 0
-652 -663 729 0
-730 654 0
-730 668 0
-654 -668 730 0
-731 658 0
-731 679 0
-658 -679 731 0
-727 -728 0
-727 -729 0
-727 -730 0
-727 -731 0
-656 727 728 729 730 731 0
-732 658 0
-733 651 0
-733 659 0
-651 -659 733 0
-734 652 0
-734 664 0
-652 -664 734 0
-735 654 0
-735 669 0
-654 -669 735 0
-736 656 0
-736 674 0
-656 -674 736 0
-732 -733 0
-732 -734 0
-732 -735 0
-732 -736 0
-658 732 733 734 735 736 0
-737 660 0
-738 661 0
-738 651 0
-661 -651 738 0
-739 662 0
-739 665 0
-662 -665 739 0
-740 663 0
-740 670 0
-663 -670 740 0
-741 664 0
-741 675 0
-664 -675 741 0
-737 -738 0
-737 -739 0
-737 -740 0
-737 -741 0
-660 737 738 739 740 741 0
-742 661 0
-743 660 0
-743 650 0
-660 -650 743 0
-744 662 0
-744 666 0
-662 -666 744 0
-745 663 0
-745 671 0
-663 -671 745 0
-746 664 0
-746 676 0
-664 -676 746 0
-742 -743 0
-742 -744 0
-742 -745 0
-742 -746 0
-661 742 743 744 745 746 0
-747 0
-748 662 0
-749 660 0
-749 655 0
-660 -655 749 0
-750 661 0
-750 654 0
-661 -654 750 0
-751 663 0
-751 673 0
-663 -673 751 0
-752 664 0
-752 678 0
-664 -678 752 0
-748 -749 0
-748 -750 0
-748 -751 0
-748 -752 0
-662 748 749 750 751 752 0
-753 663 0
-754 660 0
-754 657 0
-660 -657 754 0
-755 661 0
-755 656 0
-661 -656 755 0
-756 662 0
-756 668 0
-662 -668 756 0
-757 664 0
-757 679 0
-664 -679 757 0
-753 -754 0
-753 -755 0
-753 -756 0
-753 -757 0
-663 753 754 755 756 757 0
-758 664 0
-759 660 0
-759 659 0
-660 -659 759 0
-760 661 0
-760 658 0
-661 -658 760 0
-761 662 0
-761 669 0
-662 -669 761 0
-762 663 0
-762 674 0
-663 -674 762 0
-758 -759 0
-758 -760 0
-758 -761 0
-758 -762 0
-664 758 759 760 761 762 0
-763 665 0
-764 666 0
-764 651 0
-666 -651 764 0
-765 667 0
-765 660 0
-667 -660 765 0
-766 668 0
-766 670 0
-668 -670 766 0
-767 669 0
-767 675 0
-669 -675 767 0
-763 -764 0
-763 -765 0
-763 -766 0
-763 -767 0
-665 763 764 765 766 767 0
-768 666 0
-769 665 0
-769 650 0
-665 -650 769 0
-770 667 0
-770 661 0
-667 -661 770 0
-771 668 0
-771 671 0
-668 -671 771 0
-772 669 0
-772 676 0
-669 -676 772 0
-768 -769 0
-768 -770 0
-768 -771 0
-768 -772 0
-666 768 769 770 771 772 0
-773 667 0
-774 665 0
-774 653 0
-665 -653 774 0
-775 666 0
-775 652 0
-666 -652 775 0
-776 668 0
-776 672 0
-668 -672 776 0
-777 669 0
-777 677 0
-669 -677 777 0
-773 -774 0
-773 -775 0
-773 -776 0
-773 -777 0
-667 773 774 775 776 777 0
-778 0
-779 668 0
-780 665 0
-780 657 0
-665 -657 780 0
-781 666 0
-781 656 0
-666 -656 781 0
-782 667 0
-782 663 0
-667 -663 782 0
-783 669 0
-783 679 0
-669 -679 783 0
-779 -780 0
-779 -781 0
-779 -782 0
-779 -783 0
-668 779 780 781 782 783 0
-784 669 0
-785 665 0
-785 659 0
-665 -659 785 0
-786 666 0
-786 658 0
-666 -658 786 0
-787 667 0
-787 664 0
-667 -664 787 0
-788 668 0
-788 674 0
-668 -674 788 0
-784 -785 0
-784 -786 0
-784 -787 0
-784 -788 0
-669 784 785 786 787 788 0
-789 670 0
-790 671 0
-790 651 0
-671 -651 790 0
-791 672 0
-791 660 0
-672 -660 791 0
-792 673 0
-792 665 0
-673 -665 792 0
-793 674 0
-793 675 0
-674 -675 793 0
-789 -790 0
-789 -791 0
-789 -792 0
-789 -793 0
-670 789 790 791 792 793 0
-794 671 0
-795 670 0
-795 650 0
-670 -650 795 0
-796 672 0
-796 661 0
-672 -661 796 0
-797 673 0
-797 666 0
-673 -666 797 0
-798 674 0
-798 676 0
-674 -676 798 0
-794 -795 0
-794 -796 0
-794 -797 0
-794 -798 0
-671 794 795 796 797 798 0
-799 672 0
-800 670 0
-800 653 0
-670 -653 800 0
-801 671 0
-801 652 0
-671 -652 801 0
-802 673 0
-802 667 0
-673 -667 802 0
-803 674 0
-803 677 0
-674 -677 803 0
-799 -800 0
-799 -801 0
-799 -802 0
-799 -803 0
-672 799 800 801 802 803 0
-804 673 0
-805 670 0
-805 655 0
-670 -655 805 0
-806 671 0
-806 654 0
-671 -654 806 0
-807 672 0
-807 662 0
-672 -662 807 0
-808 674 0
-808 678 0
-674 -678 808 0
-804 -805 0
-804 -806 0
-804 -807 0
-804 -808 0
-673 804 805 806 807 808 0
-809 0
-810 674 0
-811 670 0
-811 659 0
-670 -659 811 0
-812 671 0
-812 658 0
-671 -658 812 0
-813 672 0
-813 664 0
-672 -664 813 0
-814 673 0
-814 669 0
-673 -669 814 0
-810 -811 0
-810 -812 0
-810 -813 0
-810 -814 0
-674 810 811 812 813 814 0
-815 675 0
-816 676 0
-816 651 0
-676 -651 816 0
-817 677 0
-817 660 0
-677 -660 817 0
-818 678 0
-818 665 0
-678 -665 818 0
-819 679 0
-819 670 0
-679 -670 819 0
-815 -816 0
-815 -817 0
-815 -818 0
-815 -819 0
-675 815 816 817 818 819 0
-820 676 0
-821 675 0
-821 650 0
-675 -650 821 0
-822 677 0
-822 661 0
-677 -661 822 0
-823 678 0
-823 666 0
-678 -666 823 0
-824 679 0
-824 671 0
-679 -671 824 0
-820 -821 0
-820 -822 0
-820 -823 0
-820 -824 0
-676 820 821 822 823 824 0
-825 677 0
-826 675 0
-826 653 0
-675 -653 826 0
-827 676 0
-827 652 0
-676 -652 827 0
-828 678 0
-828 667 0
-678 -667 828 0
-829 679 0
-829 672 0
-679 -672 829 0
-825 -826 0
-825 -827 0
-825 -828 0
-825 -829 0
-677 825 826 827 828 829 0
-830 678 0
-831 675 0
-831 655 0
-675 -655 831 0
-832 676 0
-832 654 0
-676 -654 832 0
-833 677 0
-833 662 0
-677 -662 833 0
-834 679 0
-834 673 0
-679 -673 834 0
-830 -831 0
-830 -832 0
-830 -833 0
-830 -834 0
-678 830 831 832 833 834 0
-835 679 0
-836 675 0
-836 657 0
-675 -657 836 0
-837 676 0
-837 656 0
-676 -656 837 0
-838 677 0
-838 663 0
-677 -663 838 0
-839 678 0
-839 668 0
-678 -668 839 0
-835 -836 0
-835 -837 0
-835 -838 0
-835 -839 0
-679 835 836 837 838 839 0
-840 0
-841 649 0
-841 650 0
-841 653 0
-841 655 0
-841 657 0
-841 659 0
-649 -650 -653 -655 -657 -659 841 0
-842 649 0
-842 651 0
-842 660 0
-842 665 0
-842 670 0
-842 675 0
-649 -651 -660 -665 -670 -675 842 0
-843 651 0
-843 680 0
-843 652 0
-843 654 0
-843 656 0
-843 658 0
-651 -680 -652 -654 -656 -658 843 0
-844 650 0
-844 680 0
-844 661 0
-844 666 0
-844 671 0
-844 676 0
-650 -680 -661 -666 -671 -676 844 0
-845 660 0
-845 661 0
-845 681 0
-845 662 0
-845 663 0
-845 664 0
-660 -661 -681 -662 -663 -664 845 0
-846 653 0
-846 652 0
-846 681 0
-846 667 0
-846 672 0
-846 677 0
-653 -652 -681 -667 -672 -677 846 0
-847 665 0
-847 666 0
-847 667 0
-847 682 0
-847 668 0
-847 669 0
-665 -666 -667 -682 -668 -669 847 0
-848 655 0
-848 654 0
-848 662 0
-848 682 0
-848 673 0
-848 678 0
-655 -654 -662 -682 -673 -678 848 0
-849 670 0
-849 671 0
-849 672 0
-849 673 0
-849 683 0
-849 674 0
-670 -671 -672 -673 -683 -674 849 0
-850 657 0
-850 656 0
-850 663 0
-850 668 0
-850 683 0
-850 679 0
-657 -656 -663 -668 -683 -679 850 0
-851 675 0
-851 676 0
-851 677 0
-851 678 0
-851 679 0
-851 684 0
-675 -676 -677 -678 -679 -684 851 0
-852 659 0
-852 658 0
-852 664 0
-852 669 0
-852 674 0
-852 684 0
-659 -658 -664 -669 -674 -684 852 0
-685 7 0
-842 -841 7 0
-7 685 842 0
-7 685 841 0
-686 9 0
-842 -843 9 0
-9 686 842 0
-9 686 843 0
-691 11 0
-842 -845 11 0
-11 691 842 0
-11 691 845 0
-696 13 0
-842 -847 13 0
-13 696 842 0
-13 696 847 0
-701 15 0
-842 -849 15 0
-15 701 842 0
-15 701 849 0
-706 17 0
-842 -851 17 0
-17 706 842 0
-17 706 851 0
-711 19 0
-844 -841 19 0
-19 711 844 0
-19 711 841 0
-716 20 0
-844 -843 20 0
-20 716 844 0
-20 716 843 0
-717 22 0
-844 -845 22 0
-22 717 844 0
-22 717 845 0
-722 24 0
-844 -847 24 0
-24 722 844 0
-24 722 847 0
-727 26 0
-844 -849 26 0
-26 727 844 0
-26 727 849 0
-732 28 0
-844 -851 28 0
-28 732 844 0
-28 732 851 0
-737 30 0
-846 -841 30 0
-30 737 846 0
-30 737 841 0
-742 32 0
-846 -843 32 0
-32 742 846 0
-32 742 843 0
-747 33 0
-846 -845 33 0
-33 747 846 0
-33 747 845 0
-748 35 0
-846 -847 35 0
-35 748 846 0
-35 748 847 0
-753 37 0
-846 -849 37 0
-37 753 846 0
-37 753 849 0
-758 39 0
-846 -851 39 0
-39 758 846 0
-39 758 851 0
-763 41 0
-848 -841 41 0
-41 763 848 0
-41 763 841 0
-768 43 0
-848 -843 43 0
-43 768 848 0
-43 768 843 0
-773 45 0
-848 -845 45 0
-45 773 848 0
-45 773 845 0
-778 46 0
-848 -847 46 0
-46 778 848 0
-46 778 847 0
-779 48 0
-848 -849 48 0
-48 779 848 0
-48 779 849 0
-784 50 0
-848 -851 50 0
-50 784 848 0
-50 784 851 0
-789 52 0
-850 -841 52 0
-52 789 850 0
-52 789 841 0
-794 54 0
-850 -843 54 0
-54 794 850 0
-54 794 843 0
-799 56 0
-850 -845 56 0
-56 799 850 0
-56 799 845 0
-804 58 0
-850 -847 58 0
-58 804 850 0
-58 804 847 0
-809 59 0
-850 -849 59 0
-59 809 850 0
-59 809 849 0
-810 61 0
-850 -851 61 0
-61 810 850 0
-61 810 851 0
-815 63 0
-852 -841 63 0
-63 815 852 0
-63 815 841 0
-820 65 0
-852 -843 65 0
-65 820 852 0
-65 820 843 0
-825 67 0
-852 -845 67 0
-67 825 852 0
-67 825 845 0
-830 69 0
-852 -847 69 0
-69 830 852 0
-69 830 847 0
-835 71 0
-852 -849 71 0
-71 835 852 0
-71 835 849 0
-840 72 0
-852 -851 72 0
-72 840 852 0
-72 840 851 0
