p cnf 892 2270
c ind 1 2 3 4 5 6 7 8 9 10 11 12 13 14 15 16 17 18 19 20 21 22 23 24 25 26 27 28 29 30 31 32 33 34 35 36 37 38 39 40 41 42 43 44 45 46 47 48 49 50 0
c ind 51 52 53 54 55 56 57 58 59 60 61 62 63 64 65 66 67 68 69 70 71 72 689 690 691 692 693 694 695 696 697 698 699 700 701 702 703 704 705 706 707 708 709 710 711 712 713 714 715 716 0
c ind 717 718 719 720 721 722 723 724 725 726 727 728 729 730 731 732 733 734 735 736 737 738 739 740 741 742 743 744 745 746 747 748 749 750 751 752 753 754 755 756 757 758 759 760 761 762 763 764 765 766 0
c ind 767 768 769 770 771 772 773 774 775 776 777 778 779 780 781 782 783 784 785 786 787 788 789 790 791 792 793 794 795 796 797 798 799 800 801 802 803 804 805 806 807 808 809 810 811 812 813 814 815 816 0
c ind 817 818 819 820 821 822 823 824 825 826 827 828 829 830 831 832 833 834 835 836 837 838 839 840 841 842 843 844 845 846 847 848 849 850 851 852 853 854 855 856 857 858 859 860 861 862 863 864 865 866 0
c ind 867 868 869 870 871 872 873 874 875 876 877 878 879 880 881 882 883 884 885 886 887 888 889 890 891 892 0
-1 0
-2 0
-3 0
-4 0
-5 0
-6 0
1 -7 0
8 -9 0
10 -11 0
12 -13 0
14 -15 0
16 -17 0
18 -19 0
2 -20 0
21 -22 0
23 -24 0
25 -26 0
27 -28 0
29 -30 0
31 -32 0
3 -33 0
34 -35 0
36 -37 0
38 -39 0
40 -41 0
42 -43 0
44 -45 0
4 -46 0
47 -48 0
49 -50 0
51 -52 0
53 -54 0
55 -56 0
57 -58 0
5 -59 0
60 -61 0
62 -63 0
64 -65 0
66 -67 0
68 -69 0
70 -71 0
6 -72 0
1 -1 0
18 -8 0
29 -10 0
40 -12 0
51 -14 0
62 -16 0
8 -18 0
2 -2 0
31 -21 0
42 -23 0
53 -25 0
64 -27 0
10 -29 0
21 -31 0
3 -3 0
44 -34 0
55 -36 0
66 -38 0
12 -40 0
23 -42 0
34 -44 0
4 -4 0
57 -47 0
68 -49 0
14 -51 0
25 -53 0
36 -55 0
47 -57 0
5 -5 0
70 -60 0
16 -62 0
27 -64 0
38 -66 0
49 -68 0
60 -70 0
6 -6 0
1 73 0
-73 74 0
8 -73 75 0
-75 76 0
10 -75 77 0
-77 78 0
12 -77 79 0
-79 80 0
14 -79 81 0
-81 82 0
16 -81 83 0
-83 84 0
18 -83 85 0
-85 86 0
2 -85 87 0
-87 88 0
21 -87 89 0
-89 90 0
23 -89 91 0
-91 92 0
25 -91 93 0
-93 94 0
27 -93 95 0
-95 96 0
29 -95 97 0
-97 98 0
31 -97 99 0
-99 100 0
3 -99 0
8 74 0
-74 101 0
10 -74 76 0
-76 102 0
12 -76 78 0
-78 103 0
14 -78 80 0
-80 104 0
16 -80 82 0
-82 105 0
18 -82 84 0
-84 106 0
2 -84 86 0
-86 107 0
21 -86 88 0
-88 108 0
23 -88 90 0
-90 109 0
25 -90 92 0
-92 110 0
27 -92 94 0
-94 111 0
29 -94 96 0
-96 112 0
31 -96 98 0
-98 113 0
3 -98 100 0
-100 114 0
34 -100 0
10 101 0
-101 115 0
12 -101 102 0
-102 116 0
14 -102 103 0
-103 117 0
16 -103 104 0
-104 118 0
18 -104 105 0
-105 119 0
2 -105 106 0
-106 120 0
21 -106 107 0
-107 121 0
23 -107 108 0
-108 122 0
25 -108 109 0
-109 123 0
27 -109 110 0
-110 124 0
29 -110 111 0
-111 125 0
31 -111 112 0
-112 126 0
3 -112 113 0
-113 127 0
34 -113 114 0
-114 128 0
36 -114 0
12 115 0
-115 129 0
14 -115 116 0
-116 130 0
16 -116 117 0
-117 131 0
18 -117 118 0
-118 132 0
2 -118 119 0
-119 133 0
21 -119 120 0
-120 134 0
23 -120 121 0
-121 135 0
25 -121 122 0
-122 136 0
27 -122 123 0
-123 137 0
29 -123 124 0
-124 138 0
31 -124 125 0
-125 139 0
3 -125 126 0
-126 140 0
34 -126 127 0
-127 141 0
36 -127 128 0
-128 142 0
38 -128 0
14 129 0
-129 143 0
16 -129 130 0
-130 144 0
18 -130 131 0
-131 145 0
2 -131 132 0
-132 146 0
21 -132 133 0
-133 147 0
23 -133 134 0
-134 148 0
25 -134 135 0
-135 149 0
27 -135 136 0
-136 150 0
29 -136 137 0
-137 151 0
31 -137 138 0
-138 152 0
3 -138 139 0
-139 153 0
34 -139 140 0
-140 154 0
36 -140 141 0
-141 155 0
38 -141 142 0
-142 156 0
40 -142 0
16 143 0
-143 157 0
18 -143 144 0
-144 158 0
2 -144 145 0
-145 159 0
21 -145 146 0
-146 160 0
23 -146 147 0
-147 161 0
25 -147 148 0
-148 162 0
27 -148 149 0
-149 163 0
29 -149 150 0
-150 164 0
31 -150 151 0
-151 165 0
3 -151 152 0
-152 166 0
34 -152 153 0
-153 167 0
36 -153 154 0
-154 168 0
38 -154 155 0
-155 169 0
40 -155 156 0
-156 170 0
42 -156 0
18 157 0
-157 171 0
2 -157 158 0
-158 172 0
21 -158 159 0
-159 173 0
23 -159 160 0
-160 174 0
25 -160 161 0
-161 175 0
27 -161 162 0
-162 176 0
29 -162 163 0
-163 177 0
31 -163 164 0
-164 178 0
3 -164 165 0
-165 179 0
34 -165 166 0
-166 180 0
36 -166 167 0
-167 181 0
38 -167 168 0
-168 182 0
40 -168 169 0
-169 183 0
42 -169 170 0
-170 184 0
44 -170 0
2 171 0
-171 185 0
21 -171 172 0
-172 186 0
23 -172 173 0
-173 187 0
25 -173 174 0
-174 188 0
27 -174 175 0
-175 189 0
29 -175 176 0
-176 190 0
31 -176 177 0
-177 191 0
3 -177 178 0
-178 192 0
34 -178 179 0
-179 193 0
36 -179 180 0
-180 194 0
38 -180 181 0
-181 195 0
40 -181 182 0
-182 196 0
42 -182 183 0
-183 197 0
44 -183 184 0
-184 198 0
4 -184 0
21 185 0
-185 199 0
23 -185 186 0
-186 200 0
25 -186 187 0
-187 201 0
27 -187 188 0
-188 202 0
29 -188 189 0
-189 203 0
31 -189 190 0
-190 204 0
3 -190 191 0
-191 205 0
34 -191 192 0
-192 206 0
36 -192 193 0
-193 207 0
38 -193 194 0
-194 208 0
40 -194 195 0
-195 209 0
42 -195 196 0
-196 210 0
44 -196 197 0
-197 211 0
4 -197 198 0
-198 212 0
47 -198 0
23 199 0
-199 213 0
25 -199 200 0
-200 214 0
27 -200 201 0
-201 215 0
29 -201 202 0
-202 216 0
31 -202 203 0
-203 217 0
3 -203 204 0
-204 218 0
34 -204 205 0
-205 219 0
36 -205 206 0
-206 220 0
38 -206 207 0
-207 221 0
40 -207 208 0
-208 222 0
42 -208 209 0
-209 223 0
44 -209 210 0
-210 224 0
4 -210 211 0
-211 225 0
47 -211 212 0
-212 226 0
49 -212 0
25 213 0
-213 227 0
27 -213 214 0
-214 228 0
29 -214 215 0
-215 229 0
31 -215 216 0
-216 230 0
3 -216 217 0
-217 231 0
34 -217 218 0
-218 232 0
36 -218 219 0
-219 233 0
38 -219 220 0
-220 234 0
40 -220 221 0
-221 235 0
42 -221 222 0
-222 236 0
44 -222 223 0
-223 237 0
4 -223 224 0
-224 238 0
47 -224 225 0
-225 239 0
49 -225 226 0
-226 240 0
51 -226 0
27 227 0
-227 241 0
29 -227 228 0
-228 242 0
31 -228 229 0
-229 243 0
3 -229 230 0
-230 244 0
34 -230 231 0
-231 245 0
36 -231 232 0
-232 246 0
38 -232 233 0
-233 247 0
40 -233 234 0
-234 248 0
42 -234 235 0
-235 249 0
44 -235 236 0
-236 250 0
4 -236 237 0
-237 251 0
47 -237 238 0
-238 252 0
49 -238 239 0
-239 253 0
51 -239 240 0
-240 254 0
53 -240 0
29 241 0
-241 255 0
31 -241 242 0
-242 256 0
3 -242 243 0
-243 257 0
34 -243 244 0
-244 258 0
36 -244 245 0
-245 259 0
38 -245 246 0
-246 260 0
40 -246 247 0
-247 261 0
42 -247 248 0
-248 262 0
44 -248 249 0
-249 263 0
4 -249 250 0
-250 264 0
47 -250 251 0
-251 265 0
49 -251 252 0
-252 266 0
51 -252 253 0
-253 267 0
53 -253 254 0
-254 268 0
55 -254 0
31 255 0
-255 269 0
3 -255 256 0
-256 270 0
34 -256 257 0
-257 271 0
36 -257 258 0
-258 272 0
38 -258 259 0
-259 273 0
40 -259 260 0
-260 274 0
42 -260 261 0
-261 275 0
44 -261 262 0
-262 276 0
4 -262 263 0
-263 277 0
47 -263 264 0
-264 278 0
49 -264 265 0
-265 279 0
51 -265 266 0
-266 280 0
53 -266 267 0
-267 281 0
55 -267 268 0
-268 282 0
57 -268 0
3 269 0
-269 283 0
34 -269 270 0
-270 284 0
36 -270 271 0
-271 285 0
38 -271 272 0
-272 286 0
40 -272 273 0
-273 287 0
42 -273 274 0
-274 288 0
44 -274 275 0
-275 289 0
4 -275 276 0
-276 290 0
47 -276 277 0
-277 291 0
49 -277 278 0
-278 292 0
51 -278 279 0
-279 293 0
53 -279 280 0
-280 294 0
55 -280 281 0
-281 295 0
57 -281 282 0
-282 296 0
5 -282 0
34 283 0
-283 297 0
36 -283 284 0
-284 298 0
38 -284 285 0
-285 299 0
40 -285 286 0
-286 300 0
42 -286 287 0
-287 301 0
44 -287 288 0
-288 302 0
4 -288 289 0
-289 303 0
47 -289 290 0
-290 304 0
49 -290 291 0
-291 305 0
51 -291 292 0
-292 306 0
53 -292 293 0
-293 307 0
55 -293 294 0
-294 308 0
57 -294 295 0
-295 309 0
5 -295 296 0
-296 310 0
60 -296 0
36 297 0
-297 311 0
38 -297 298 0
-298 312 0
40 -298 299 0
-299 313 0
42 -299 300 0
-300 314 0
44 -300 301 0
-301 315 0
4 -301 302 0
-302 316 0
47 -302 303 0
-303 317 0
49 -303 304 0
-304 318 0
51 -304 305 0
-305 319 0
53 -305 306 0
-306 320 0
55 -306 307 0
-307 321 0
57 -307 308 0
-308 322 0
5 -308 309 0
-309 323 0
60 -309 310 0
-310 324 0
62 -310 0
38 311 0
-311 325 0
40 -311 312 0
-312 326 0
42 -312 313 0
-313 327 0
44 -313 314 0
-314 328 0
4 -314 315 0
-315 329 0
47 -315 316 0
-316 330 0
49 -316 317 0
-317 331 0
51 -317 318 0
-318 332 0
53 -318 319 0
-319 333 0
55 -319 320 0
-320 334 0
57 -320 321 0
-321 335 0
5 -321 322 0
-322 336 0
60 -322 323 0
-323 337 0
62 -323 324 0
-324 338 0
64 -324 0
40 325 0
-325 339 0
42 -325 326 0
-326 340 0
44 -326 327 0
-327 341 0
4 -327 328 0
-328 342 0
47 -328 329 0
-329 343 0
49 -329 330 0
-330 344 0
51 -330 331 0
-331 345 0
53 -331 332 0
-332 346 0
55 -332 333 0
-333 347 0
57 -333 334 0
-334 348 0
5 -334 335 0
-335 349 0
60 -335 336 0
-336 350 0
62 -336 337 0
-337 351 0
64 -337 338 0
-338 352 0
66 -338 0
42 339 0
-339 353 0
44 -339 340 0
-340 354 0
4 -340 341 0
-341 355 0
47 -341 342 0
-342 356 0
49 -342 343 0
-343 357 0
51 -343 344 0
-344 358 0
53 -344 345 0
-345 359 0
55 -345 346 0
-346 360 0
57 -346 347 0
-347 361 0
5 -347 348 0
-348 362 0
60 -348 349 0
-349 363 0
62 -349 350 0
-350 364 0
64 -350 351 0
-351 365 0
66 -351 352 0
-352 366 0
68 -352 0
44 353 0
-353 367 0
4 -353 354 0
-354 368 0
47 -354 355 0
-355 369 0
49 -355 356 0
-356 370 0
51 -356 357 0
-357 371 0
53 -357 358 0
-358 372 0
55 -358 359 0
-359 373 0
57 -359 360 0
-360 374 0
5 -360 361 0
-361 375 0
60 -361 362 0
-362 376 0
62 -362 363 0
-363 377 0
64 -363 364 0
-364 378 0
66 -364 365 0
-365 379 0
68 -365 366 0
-366 380 0
70 -366 0
4 367 0
47 -367 368 0
49 -368 369 0
51 -369 370 0
53 -370 371 0
55 -371 372 0
57 -372 373 0
5 -373 374 0
60 -374 375 0
62 -375 376 0
64 -376 377 0
66 -377 378 0
68 -378 379 0
70 -379 380 0
6 -380 0
-1 381 0
-381 382 0
-8 -381 383 0
-383 384 0
-10 -383 385 0
-385 386 0
-12 -385 387 0
-387 388 0
-14 -387 389 0
-389 390 0
-16 -389 391 0
-391 392 0
-18 -391 393 0
-393 394 0
-2 -393 395 0
-395 396 0
-21 -395 397 0
-397 398 0
-23 -397 399 0
-399 400 0
-25 -399 401 0
-401 402 0
-27 -401 403 0
-403 404 0
-29 -403 405 0
-405 406 0
-31 -405 407 0
-407 408 0
-3 -407 409 0
-409 410 0
-34 -409 411 0
-411 412 0
-36 -411 413 0
-413 414 0
-38 -413 415 0
-415 416 0
-40 -415 417 0
-417 418 0
-42 -417 419 0
-419 420 0
-44 -419 421 0
-421 422 0
-4 -421 423 0
-423 424 0
-47 -423 0
-8 382 0
-382 425 0
-10 -382 384 0
-384 426 0
-12 -384 386 0
-386 427 0
-14 -386 388 0
-388 428 0
-16 -388 390 0
-390 429 0
-18 -390 392 0
-392 430 0
-2 -392 394 0
-394 431 0
-21 -394 396 0
-396 432 0
-23 -396 398 0
-398 433 0
-25 -398 400 0
-400 434 0
-27 -400 402 0
-402 435 0
-29 -402 404 0
-404 436 0
-31 -404 406 0
-406 437 0
-3 -406 408 0
-408 438 0
-34 -408 410 0
-410 439 0
-36 -410 412 0
-412 440 0
-38 -412 414 0
-414 441 0
-40 -414 416 0
-416 442 0
-42 -416 418 0
-418 443 0
-44 -418 420 0
-420 444 0
-4 -420 422 0
-422 445 0
-47 -422 424 0
-424 446 0
-49 -424 0
-10 425 0
-425 447 0
-12 -425 426 0
-426 448 0
-14 -426 427 0
-427 449 0
-16 -427 428 0
-428 450 0
-18 -428 429 0
-429 451 0
-2 -429 430 0
-430 452 0
-21 -430 431 0
-431 453 0
-23 -431 432 0
-432 454 0
-25 -432 433 0
-433 455 0
-27 -433 434 0
-434 456 0
-29 -434 435 0
-435 457 0
-31 -435 436 0
-436 458 0
-3 -436 437 0
-437 459 0
-34 -437 438 0
-438 460 0
-36 -438 439 0
-439 461 0
-38 -439 440 0
-440 462 0
-40 -440 441 0
-441 463 0
-42 -441 442 0
-442 464 0
-44 -442 443 0
-443 465 0
-4 -443 444 0
-444 466 0
-47 -444 445 0
-445 467 0
-49 -445 446 0
-446 468 0
-51 -446 0
-12 447 0
-447 469 0
-14 -447 448 0
-448 470 0
-16 -448 449 0
-449 471 0
-18 -449 450 0
-450 472 0
-2 -450 451 0
-451 473 0
-21 -451 452 0
-452 474 0
-23 -452 453 0
-453 475 0
-25 -453 454 0
-454 476 0
-27 -454 455 0
-455 477 0
-29 -455 456 0
-456 478 0
-31 -456 457 0
-457 479 0
-3 -457 458 0
-458 480 0
-34 -458 459 0
-459 481 0
-36 -459 460 0
-460 482 0
-38 -460 461 0
-461 483 0
-40 -461 462 0
-462 484 0
-42 -462 463 0
-463 485 0
-44 -463 464 0
-464 486 0
-4 -464 465 0
-465 487 0
-47 -465 466 0
-466 488 0
-49 -466 467 0
-467 489 0
-51 -467 468 0
-468 490 0
-53 -468 0
-14 469 0
-469 491 0
-16 -469 470 0
-470 492 0
-18 -470 471 0
-471 493 0
-2 -471 472 0
-472 494 0
-21 -472 473 0
-473 495 0
-23 -473 474 0
-474 496 0
-25 -474 475 0
-475 497 0
-27 -475 476 0
-476 498 0
-29 -476 477 0
-477 499 0
-31 -477 478 0
-478 500 0
-3 -478 479 0
-479 501 0
-34 -479 480 0
-480 502 0
-36 -480 481 0
-481 503 0
-38 -481 482 0
-482 504 0
-40 -482 483 0
-483 505 0
-42 -483 484 0
-484 506 0
-44 -484 485 0
-485 507 0
-4 -485 486 0
-486 508 0
-47 -486 487 0
-487 509 0
-49 -487 488 0
-488 510 0
-51 -488 489 0
-489 511 0
-53 -489 490 0
-490 512 0
-55 -490 0
-16 491 0
-491 513 0
-18 -491 492 0
-492 514 0
-2 -492 493 0
-493 515 0
-21 -493 494 0
-494 516 0
-23 -494 495 0
-495 517 0
-25 -495 496 0
-496 518 0
-27 -496 497 0
-497 519 0
-29 -497 498 0
-498 520 0
-31 -498 499 0
-499 521 0
-3 -499 500 0
-500 522 0
-34 -500 501 0
-501 523 0
-36 -501 502 0
-502 524 0
-38 -502 503 0
-503 525 0
-40 -503 504 0
-504 526 0
-42 -504 505 0
-505 527 0
-44 -505 506 0
-506 528 0
-4 -506 507 0
-507 529 0
-47 -507 508 0
-508 530 0
-49 -508 509 0
-509 531 0
-51 -509 510 0
-510 532 0
-53 -510 511 0
-511 533 0
-55 -511 512 0
-512 534 0
-57 -512 0
-18 513 0
-513 535 0
-2 -513 514 0
-514 536 0
-21 -514 515 0
-515 537 0
-23 -515 516 0
-516 538 0
-25 -516 517 0
-517 539 0
-27 -517 518 0
-518 540 0
-29 -518 519 0
-519 541 0
-31 -519 520 0
-520 542 0
-3 -520 521 0
-521 543 0
-34 -521 522 0
-522 544 0
-36 -522 523 0
-523 545 0
-38 -523 524 0
-524 546 0
-40 -524 525 0
-525 547 0
-42 -525 526 0
-526 548 0
-44 -526 527 0
-527 549 0
-4 -527 528 0
-528 550 0
-47 -528 529 0
-529 551 0
-49 -529 530 0
-530 552 0
-51 -530 531 0
-531 553 0
-53 -531 532 0
-532 554 0
-55 -532 533 0
-533 555 0
-57 -533 534 0
-534 556 0
-5 -534 0
-2 535 0
-535 557 0
-21 -535 536 0
-536 558 0
-23 -536 537 0
-537 559 0
-25 -537 538 0
-538 560 0
-27 -538 539 0
-539 561 0
-29 -539 540 0
-540 562 0
-31 -540 541 0
-541 563 0
-3 -541 542 0
-542 564 0
-34 -542 543 0
-543 565 0
-36 -543 544 0
-544 566 0
-38 -544 545 0
-545 567 0
-40 -545 546 0
-546 568 0
-42 -546 547 0
-547 569 0
-44 -547 548 0
-548 570 0
-4 -548 549 0
-549 571 0
-47 -549 550 0
-550 572 0
-49 -550 551 0
-551 573 0
-51 -551 552 0
-552 574 0
-53 -552 553 0
-553 575 0
-55 -553 554 0
-554 576 0
-57 -554 555 0
-555 577 0
-5 -555 556 0
-556 578 0
-60 -556 0
-21 557 0
-557 579 0
-23 -557 558 0
-558 580 0
-25 -558 559 0
-559 581 0
-27 -559 560 0
-560 582 0
-29 -560 561 0
-561 583 0
-31 -561 562 0
-562 584 0
-3 -562 563 0
-563 585 0
-34 -563 564 0
-564 586 0
-36 -564 565 0
-565 587 0
-38 -565 566 0
-566 588 0
-40 -566 567 0
-567 589 0
-42 -567 568 0
-568 590 0
-44 -568 569 0
-569 591 0
-4 -569 570 0
-570 592 0
-47 -570 571 0
-571 593 0
-49 -571 572 0
-572 594 0
-51 -572 573 0
-573 595 0
-53 -573 574 0
-574 596 0
-55 -574 575 0
-575 597 0
-57 -575 576 0
-576 598 0
-5 -576 577 0
-577 599 0
-60 -577 578 0
-578 600 0
-62 -578 0
-23 579 0
-579 601 0
-25 -579 580 0
-580 602 0
-27 -580 581 0
-581 603 0
-29 -581 582 0
-582 604 0
-31 -582 583 0
-583 605 0
-3 -583 584 0
-584 606 0
-34 -584 585 0
-585 607 0
-36 -585 586 0
-586 608 0
-38 -586 587 0
-587 609 0
-40 -587 588 0
-588 610 0
-42 -588 589 0
-589 611 0
-44 -589 590 0
-590 612 0
-4 -590 591 0
-591 613 0
-47 -591 592 0
-592 614 0
-49 -592 593 0
-593 615 0
-51 -593 594 0
-594 616 0
-53 -594 595 0
-595 617 0
-55 -595 596 0
-596 618 0
-57 -596 597 0
-597 619 0
-5 -597 598 0
-598 620 0
-60 -598 599 0
-599 621 0
-62 -599 600 0
-600 622 0
-64 -600 0
-25 601 0
-601 623 0
-27 -601 602 0
-602 624 0
-29 -602 603 0
-603 625 0
-31 -603 604 0
-604 626 0
-3 -604 605 0
-605 627 0
-34 -605 606 0
-606 628 0
-36 -606 607 0
-607 629 0
-38 -607 608 0
-608 630 0
-40 -608 609 0
-609 631 0
-42 -609 610 0
-610 632 0
-44 -610 611 0
-611 633 0
-4 -611 612 0
-612 634 0
-47 -612 613 0
-613 635 0
-49 -613 614 0
-614 636 0
-51 -614 615 0
-615 637 0
-53 -615 616 0
-616 638 0
-55 -616 617 0
-617 639 0
-57 -617 618 0
-618 640 0
-5 -618 619 0
-619 641 0
-60 -619 620 0
-620 642 0
-62 -620 621 0
-621 643 0
-64 -621 622 0
-622 644 0
-66 -622 0
-27 623 0
-623 645 0
-29 -623 624 0
-624 646 0
-31 -624 625 0
-625 647 0
-3 -625 626 0
-626 648 0
-34 -626 627 0
-627 649 0
-36 -627 628 0
-628 650 0
-38 -628 629 0
-629 651 0
-40 -629 630 0
-630 652 0
-42 -630 631 0
-631 653 0
-44 -631 632 0
-632 654 0
-4 -632 633 0
-633 655 0
-47 -633 634 0
-634 656 0
-49 -634 635 0
-635 657 0
-51 -635 636 0
-636 658 0
-53 -636 637 0
-637 659 0
-55 -637 638 0
-638 660 0
-57 -638 639 0
-639 661 0
-5 -639 640 0
-640 662 0
-60 -640 641 0
-641 663 0
-62 -641 642 0
-642 664 0
-64 -642 643 0
-643 665 0
-66 -643 644 0
-644 666 0
-68 -644 0
-29 645 0
-645 667 0
-31 -645 646 0
-646 668 0
-3 -646 647 0
-647 669 0
-34 -647 648 0
-648 670 0
-36 -648 649 0
-649 671 0
-38 -649 650 0
-650 672 0
-40 -650 651 0
-651 673 0
-42 -651 652 0
-652 674 0
-44 -652 653 0
-653 675 0
-4 -653 654 0
-654 676 0
-47 -654 655 0
-655 677 0
-49 -655 656 0
-656 678 0
-51 -656 657 0
-657 679 0
-53 -657 658 0
-658 680 0
-55 -658 659 0
-659 681 0
-57 -659 660 0
-660 682 0
-5 -660 661 0
-661 683 0
-60 -661 662 0
-662 684 0
-62 -662 663 0
-663 685 0
-64 -663 664 0
-664 686 0
-66 -664 665 0
-665 687 0
-68 -665 666 0
-666 688 0
-70 -666 0
-31 667 0
-3 -667 668 0
-34 -668 669 0
-36 -669 670 0
-38 -670 671 0
-40 -671 672 0
-42 -672 673 0
-44 -673 674 0
-4 -674 675 0
-47 -675 676 0
-49 -676 677 0
-51 -677 678 0
-53 -678 679 0
-55 -679 680 0
-57 -680 681 0
-5 -681 682 0
-60 -682 683 0
-62 -683 684 0
-64 -684 685 0
-66 -685 686 0
-68 -686 687 0
-70 -687 688 0
-6 -688 0
689 0
690 691 0
-690 -691 0
-690 -692 693 0
-690 -694 695 0
-690 -696 697 0
-690 -698 699 0
693 700 0
-693 -700 0
-693 -701 690 0
-693 -702 695 0
-693 -703 697 0
-693 -704 699 0
695 705 0
-695 -705 0
-695 -706 690 0
-695 -707 693 0
-695 -708 697 0
-695 -709 699 0
697 710 0
-697 -710 0
-697 -711 690 0
-697 -712 693 0
-697 -713 695 0
-697 -714 699 0
699 715 0
-699 -715 0
-699 -716 690 0
-699 -717 693 0
-699 -718 695 0
-699 -719 697 0
720 0
691 690 0
-691 -690 0
-691 -693 692 0
-691 -695 694 0
-691 -697 696 0
-691 -699 698 0
692 701 0
-692 -701 0
-692 -700 691 0
-692 -702 694 0
-692 -703 696 0
-692 -704 698 0
694 706 0
-694 -706 0
-694 -705 691 0
-694 -707 692 0
-694 -708 696 0
-694 -709 698 0
696 711 0
-696 -711 0
-696 -710 691 0
-696 -712 692 0
-696 -713 694 0
-696 -714 698 0
698 716 0
-698 -716 0
-698 -715 691 0
-698 -717 692 0
-698 -718 694 0
-698 -719 696 0
721 0
700 693 0
-700 -693 0
-700 -690 701 0
-700 -695 702 0
-700 -697 703 0
-700 -699 704 0
701 692 0
-701 -692 0
-701 -691 700 0
-701 -694 702 0
-701 -696 703 0
-701 -698 704 0
702 707 0
-702 -707 0
-702 -705 700 0
-702 -706 701 0
-702 -708 703 0
-702 -709 704 0
703 712 0
-703 -712 0
-703 -710 700 0
-703 -711 701 0
-703 -713 702 0
-703 -714 704 0
704 717 0
-704 -717 0
-704 -715 700 0
-704 -716 701 0
-704 -718 702 0
-704 -719 703 0
722 0
705 695 0
-705 -695 0
-705 -690 706 0
-705 -693 707 0
-705 -697 708 0
-705 -699 709 0
706 694 0
-706 -694 0
-706 -691 705 0
-706 -692 707 0
-706 -696 708 0
-706 -698 709 0
707 702 0
-707 -702 0
-707 -700 705 0
-707 -701 706 0
-707 -703 708 0
-707 -704 709 0
708 713 0
-708 -713 0
-708 -710 705 0
-708 -711 706 0
-708 -712 707 0
-708 -714 709 0
709 718 0
-709 -718 0
-709 -715 705 0
-709 -716 706 0
-709 -717 707 0
-709 -719 708 0
723 0
710 697 0
-710 -697 0
-710 -690 711 0
-710 -693 712 0
-710 -695 713 0
-710 -699 714 0
711 696 0
-711 -696 0
-711 -691 710 0
-711 -692 712 0
-711 -694 713 0
-711 -698 714 0
712 703 0
-712 -703 0
-712 -700 710 0
-712 -701 711 0
-712 -702 713 0
-712 -704 714 0
713 708 0
-713 -708 0
-713 -705 710 0
-713 -706 711 0
-713 -707 712 0
-713 -709 714 0
714 719 0
-714 -719 0
-714 -715 710 0
-714 -716 711 0
-714 -717 712 0
-714 -718 713 0
724 0
715 699 0
-715 -699 0
-715 -690 716 0
-715 -693 717 0
-715 -695 718 0
-715 -697 719 0
716 698 0
-716 -698 0
-716 -691 715 0
-716 -692 717 0
-716 -694 718 0
-716 -696 719 0
717 704 0
-717 -704 0
-717 -700 715 0
-717 -701 716 0
-717 -702 718 0
-717 -703 719 0
718 709 0
-718 -709 0
-718 -705 715 0
-718 -706 716 0
-718 -707 717 0
-718 -708 719 0
719 714 0
-719 -714 0
-719 -710 715 0
-719 -711 716 0
-719 -712 717 0
-719 -713 718 0
-725 0
-726 690 0
-727 693 0
-727 701 0
-693 -701 727 0
-728 695 0
-728 706 0
-695 -706 728 0
-729 697 0
-729 711 0
-697 -711 729 0
-730 699 0
-730 716 0
-699 -716 730 0
-726 -727 0
-726 -728 0
-726 -729 0
-726 -730 0
-690 726 727 728 729 730 0
-731 693 0
-732 690 0
-732 692 0
-690 -692 732 0
-733 695 0
-733 707 0
-695 -707 733 0
-734 697 0
-734 712 0
-697 -712 734 0
-735 699 0
-735 717 0
-699 -717 735 0
-731 -732 0
-731 -733 0
-731 -734 0
-731 -735 0
-693 731 732 733 734 735 0
-736 695 0
-737 690 0
-737 694 0
-690 -694 737 0
-738 693 0
-738 702 0
-693 -702 738 0
-739 697 0
-739 713 0
-697 -713 739 0
-740 699 0
-740 718 0
-699 -718 740 0
-736 -737 0
-736 -738 0
-736 -739 0
-736 -740 0
-695 736 737 738 739 740 0
-741 697 0
-742 690 0
-742 696 0
-690 -696 742 0
-743 693 0
-743 703 0
-693 -703 743 0
-744 695 0
-744 708 0
-695 -708 744 0
-745 699 0
-745 719 0
-699 -719 745 0
-741 -742 0
-741 -743 0
-741 -744 0
-741 -745 0
-697 741 742 743 744 745 0
-746 699 0
-747 690 0
-747 698 0
-690 -698 747 0
-748 693 0
-748 704 0
-693 -704 748 0
-749 695 0
-749 709 0
-695 -709 749 0
-750 697 0
-750 714 0
-697 -714 750 0
-746 -747 0
-746 -748 0
-746 -749 0
-746 -750 0
-699 746 747 748 749 750 0
-751 691 0
-752 692 0
-752 700 0
-692 -700 752 0
-753 694 0
-753 705 0
-694 -705 753 0
-754 696 0
-754 710 0
-696 -710 754 0
-755 698 0
-755 715 0
-698 -715 755 0
-751 -752 0
-751 -753 0
-751 -754 0
-751 -755 0
-691 751 752 753 754 755 0
-756 0
-757 692 0
-758 691 0
-758 693 0
-691 -693 758 0
-759 694 0
-759 707 0
-694 -707 759 0
-760 696 0
-760 712 0
-696 -712 760 0
-761 698 0
-761 717 0
-698 -717 761 0
-757 -758 0
-757 -759 0
-757 -760 0
-757 -761 0
-692 757 758 759 760 761 0
-762 694 0
-763 691 0
-763 695 0
-691 -695 763 0
-764 692 0
-764 702 0
-692 -702 764 0
-765 696 0
-765 713 0
-696 -713 765 0
-766 698 0
-766 718 0
-698 -718 766 0
-762 -763 0
-762 -764 0
-762 -765 0
-762 -766 0
-694 762 763 764 765 766 0
-767 696 0
-768 691 0
-768 697 0
-691 -697 768 0
-769 692 0
-769 703 0
-692 -703 769 0
-770 694 0
-770 708 0
-694 -708 770 0
-771 698 0
-771 719 0
-698 -719 771 0
-767 -768 0
-767 -769 0
-767 -770 0
-767 -771 0
-696 767 768 769 770 771 0
-772 698 0
-773 691 0
-773 699 0
-691 -699 773 0
-774 692 0
-774 704 0
-692 -704 774 0
-775 694 0
-775 709 0
-694 -709 775 0
-776 696 0
-776 714 0
-696 -714 776 0
-772 -773 0
-772 -774 0
-772 -775 0
-772 -776 0
-698 772 773 774 775 776 0
-777 700 0
-778 701 0
-778 691 0
-701 -691 778 0
-779 702 0
-779 705 0
-702 -705 779 0
-780 703 0
-780 710 0
-703 -710 780 0
-781 704 0
-781 715 0
-704 -715 781 0
-777 -778 0
-777 -779 0
-777 -780 0
-777 -781 0
-700 777 778 779 780 781 0
-782 701 0
-783 700 0
-783 690 0
-700 -690 783 0
-784 702 0
-784 706 0
-702 -706 784 0
-785 703 0
-785 711 0
-703 -711 785 0
-786 704 0
-786 716 0
-704 -716 786 0
-782 -783 0
-782 -784 0
-782 -785 0
-782 -786 0
-701 782 783 784 785 786 0
-787 0
-788 702 0
-789 700 0
-789 695 0
-700 -695 789 0
-790 701 0
-790 694 0
-701 -694 790 0
-791 703 0
-791 713 0
-703 -713 791 0
-792 704 0
-792 718 0
-704 -718 792 0
-788 -789 0
-788 -790 0
-788 -791 0
-788 -792 0
-702 788 789 790 791 792 0
-793 703 0
-794 700 0
-794 697 0
-700 -697 794 0
-795 701 0
-795 696 0
-701 -696 795 0
-796 702 0
-796 708 0
-702 -708 796 0
-797 704 0
-797 719 0
-704 -719 797 0
-793 -794 0
-793 -795 0
-793 -796 0
-793 -797 0
-703 793 794 795 796 797 0
-798 704 0
-799 700 0
-799 699 0
-700 -699 799 0
-800 701 0
-800 698 0
-701 -698 800 0
-801 702 0
-801 709 0
-702 -709 801 0
-802 703 0
-802 714 0
-703 -714 802 0
-798 -799 0
-798 -800 0
-798 -801 0
-798 -802 0
-704 798 799 800 801 802 0
-803 705 0
-804 706 0
-804 691 0
-706 -691 804 0
-805 707 0
-805 700 0
-707 -700 805 0
-806 708 0
-806 710 0
-708 -710 806 0
-807 709 0
-807 715 0
-709 -715 807 0
-803 -804 0
-803 -805 0
-803 -806 0
-803 -807 0
-705 803 804 805 806 807 0
-808 706 0
-809 705 0
-809 690 0
-705 -690 809 0
-810 707 0
-810 701 0
-707 -701 810 0
-811 708 0
-811 711 0
-708 -711 811 0
-812 709 0
-812 716 0
-709 -716 812 0
-808 -809 0
-808 -810 0
-808 -811 0
-808 -812 0
-706 808 809 810 811 812 0
-813 707 0
-814 705 0
-814 693 0
-705 -693 814 0
-815 706 0
-815 692 0
-706 -692 815 0
-816 708 0
-816 712 0
-708 -712 816 0
-817 709 0
-817 717 0
-709 -717 817 0
-813 -814 0
-813 -815 0
-813 -816 0
-813 -817 0
-707 813 814 815 816 817 0
-818 0
-819 708 0
-820 705 0
-820 697 0
-705 -697 820 0
-821 706 0
-821 696 0
-706 -696 821 0
-822 707 0
-822 703 0
-707 -703 822 0
-823 709 0
-823 719 0
-709 -719 823 0
-819 -820 0
-819 -821 0
-819 -822 0
-819 -823 0
-708 819 820 821 822 823 0
-824 709 0
-825 705 0
-825 699 0
-705 -699 825 0
-826 706 0
-826 698 0
-706 -698 826 0
-827 707 0
-827 704 0
-707 -704 827 0
-828 708 0
-828 714 0
-708 -714 828 0
-824 -825 0
-824 -826 0
-824 -827 0
-824 -828 0
-709 824 825 826 827 828 0
-829 710 0
-830 711 0
-830 691 0
-711 -691 830 0
-831 712 0
-831 700 0
-712 -700 831 0
-832 713 0
-832 705 0
-713 -705 832 0
-833 714 0
-833 715 0
-714 -715 833 0
-829 -830 0
-829 -831 0
-829 -832 0
-829 -833 0
-710 829 830 831 832 833 0
-834 711 0
-835 710 0
-835 690 0
-710 -690 835 0
-836 712 0
-836 701 0
-712 -701 836 0
-837 713 0
-837 706 0
-713 -706 837 0
-838 714 0
-838 716 0
-714 -716 838 0
-834 -835 0
-834 -836 0
-834 -837 0
-834 -838 0
-711 834 835 836 837 838 0
-839 712 0
-840 710 0
-840 693 0
-710 -693 840 0
-841 711 0
-841 692 0
-711 -692 841 0
-842 713 0
-842 707 0
-713 -707 842 0
-843 714 0
-843 717 0
-714 -717 843 0
-839 -840 0
-839 -841 0
-839 -842 0
-839 -843 0
-712 839 840 841 842 843 0
-844 713 0
-845 710 0
-845 695 0
-710 -695 845 0
-846 711 0
-846 694 0
-711 -694 846 0
-847 712 0
-847 702 0
-712 -702 847 0
-848 714 0
-848 718 0
-714 -718 848 0
-844 -845 0
-844 -846 0
-844 -847 0
-844 -848 0
-713 844 845 846 847 848 0
-849 0
-850 714 0
-851 710 0
-851 699 0
-710 -699 851 0
-852 711 0
-852 698 0
-711 -698 852 0
-853 712 0
-853 704 0
-712 -704 853 0
-854 713 0
-854 709 0
-713 -709 854 0
-850 -851 0
-850 -852 0
-850 -853 0
-850 -854 0
-714 850 851 852 853 854 0
-855 715 0
-856 716 0
-856 691 0
-716 -691 856 0
-857 717 0
-857 700 0
-717 -700 857 0
-858 718 0
-858 705 0
-718 -705 858 0
-859 719 0
-859 710 0
-719 -710 859 0
-855 -856 0
-855 -857 0
-855 -858 0
-855 -859 0
-715 855 856 857 858 859 0
-860 716 0
-861 715 0
-861 690 0
-715 -690 861 0
-862 717 0
-862 701 0
-717 -701 862 0
-863 718 0
-863 706 0
-718 -706 863 0
-864 719 0
-864 711 0
-719 -711 864 0
-860 -861 0
-860 -862 0
-860 -863 0
-860 -864 0
-716 860 861 862 863 864 0
-865 717 0
-866 715 0
-866 693 0
-715 -693 866 0
-867 716 0
-867 692 0
-716 -692 867 0
-868 718 0
-868 707 0
-718 -707 868 0
-869 719 0
-869 712 0
-719 -712 869 0
-865 -866 0
-865 -867 0
-865 -868 0
-865 -869 0
-717 865 866 867 868 869 0
-870 718 0
-871 715 0
-871 695 0
-715 -695 871 0
-872 716 0
-872 694 0
-716 -694 872 0
-873 717 0
-873 702 0
-717 -702 873 0
-874 719 0
-874 713 0
-719 -713 874 0
-870 -871 0
-870 -872 0
-870 -873 0
-870 -874 0
-718 870 871 872 873 874 0
-875 719 0
-876 715 0
-876 697 0
-715 -697 876 0
-877 716 0
-877 696 0
-716 -696 877 0
-878 717 0
-878 703 0
-717 -703 878 0
-879 718 0
-879 708 0
-718 -708 879 0
-875 -876 0
-875 -877 0
-875 -878 0
-875 -879 0
-719 875 876 877 878 879 0
-880 0
-881 689 0
-881 690 0
-881 693 0
-881 695 0
-881 697 0
-881 699 0
-689 -690 -693 -695 -697 -699 881 0
-882 689 0
-882 691 0
-882 700 0
-882 705 0
-882 710 0
-882 715 0
-689 -691 -700 -705 -710 -715 882 0
-883 691 0
-883 720 0
-883 692 0
-883 694 0
-883 696 0
-883 698 0
-691 -720 -692 -694 -696 -698 883 0
-884 690 0
-884 720 0
-884 701 0
-884 706 0
-884 711 0
-884 716 0
-690 -720 -701 -706 -711 -716 884 0
-885 700 0
-885 701 0
-885 721 0
-885 702 0
-885 703 0
-885 704 0
-700 -701 -721 -702 -703 -704 885 0
-886 693 0
-886 692 0
-886 721 0
-886 707 0
-886 712 0
-886 717 0
-693 -692 -721 -707 -712 -717 886 0
-887 705 0
-887 706 0
-887 707 0
-887 722 0
-887 708 0
-887 709 0
-705 -706 -707 -722 -708 -709 887 0
-888 695 0
-888 694 0
-888 702 0
-888 722 0
-888 713 0
-888 718 0
-695 -694 -702 -722 -713 -718 888 0
-889 710 0
-889 711 0
-889 712 0
-889 713 0
-889 723 0
-889 714 0
-710 -711 -712 -713 -723 -714 889 0
-890 697 0
-890 696 0
-890 703 0
-890 708 0
-890 723 0
-890 719 0
-697 -696 -703 -708 -723 -719 890 0
-891 715 0
-891 716 0
-891 717 0
-891 718 0
-891 719 0
-891 724 0
-715 -716 -717 -718 -719 -724 891 0
-892 699 0
-892 698 0
-892 704 0
-892 709 0
-892 714 0
-892 724 0
-699 -698 -704 -709 -714 -724 892 0
-725 7 0
-882 -881 7 0
-7 725 882 0
-7 725 881 0
-726 9 0
-882 -883 9 0
-9 726 882 0
-9 726 883 0
-731 11 0
-882 -885 11 0
-11 731 882 0
-11 731 885 0
-736 13 0
-882 -887 13 0
-13 736 882 0
-13 736 887 0
-741 15 0
-882 -889 15 0
-15 741 882 0
-15 741 889 0
-746 17 0
-882 -891 17 0
-17 746 882 0
-17 746 891 0
-751 19 0
-884 -881 19 0
-19 751 884 0
-19 751 881 0
-756 20 0
-884 -883 20 0
-20 756 884 0
-20 756 883 0
-757 22 0
-884 -885 22 0
-22 757 884 0
-22 757 885 0
-762 24 0
-884 -887 24 0
-24 762 884 0
-24 762 887 0
-767 26 0
-884 -889 26 0
-26 767 884 0
-26 767 889 0
-772 28 0
-884 -891 28 0
-28 772 884 0
-28 772 891 0
-777 30 0
-886 -881 30 0
-30 777 886 0
-30 777 881 0
-782 32 0
-886 -883 32 0
-32 782 886 0
-32 782 883 0
-787 33 0
-886 -885 33 0
-33 787 886 0
-33 787 885 0
-788 35 0
-886 -887 35 0
-35 788 886 0
-35 788 887 0
-793 37 0
-886 -889 37 0
-37 793 886 0
-37 793 889 0
-798 39 0
-886 -891 39 0
-39 798 886 0
-39 798 891 0
-803 41 0
-888 -881 41 0
-41 803 888 0
-41 803 881 0
-808 43 0
-888 -883 43 0
-43 808 888 0
-43 808 883 0
-813 45 0
-888 -885 45 0
-45 813 888 0
-45 813 885 0
-818 46 0
-888 -887 46 0
-46 818 888 0
-46 818 887 0
-819 48 0
-888 -889 48 0
-48 819 888 0
-48 819 889 0
-824 50 0
-888 -891 50 0
-50 824 888 0
-50 824 891 0
-829 52 0
-890 -881 52 0
-52 829 890 0
-52 829 881 0
-834 54 0
-890 -883 54 0
-54 834 890 0
-54 834 883 0
-839 56 0
-890 -885 56 0
-56 839 890 0
-56 839 885 0
-844 58 0
-890 -887 58 0
-58 844 890 0
-58 844 887 0
-849 59 0
-890 -889 59 0
-59 849 890 0
-59 849 889 0
-850 61 0
-890 -891 61 0
-61 850 890 0
-61 850 891 0
-855 63 0
-892 -881 63 0
-63 855 892 0
-63 855 881 0
-860 65 0
-892 -883 65 0
-65 860 892 0
-65 860 883 0
-865 67 0
-892 -885 67 0
-67 865 892 0
-67 865 885 0
-870 69 0
-892 -887 69 0
-69 870 892 0
-69 870 887 0
-875 71 0
-892 -889 71 0
-71 875 892 0
-71 875 889 0
-880 72 0
-892 -891 72 0
-72 880 892 0
-72 880 891 0
