p cnf 924 2334
c ind 1 2 3 4 5 6 7 8 9 10 11 12 13 14 15 16 17 18 19 20 21 22 23 24 25 26 27 28 29 30 31 32 33 34 35 36 37 38 39 40 41 42 43 44 45 46 47 48 49 50 0
c ind 51 52 53 54 55 56 57 58 59 60 61 62 63 64 65 66 67 68 69 70 71 72 721 722 723 724 725 726 727 728 729 730 731 732 733 734 735 736 737 738 739 740 741 742 743 744 745 746 747 748 0
c ind 749 750 751 752 753 754 755 756 757 758 759 760 761 762 763 764 765 766 767 768 769 770 771 772 773 774 775 776 777 778 779 780 781 782 783 784 785 786 787 788 789 790 791 792 793 794 795 796 797 798 0
c ind 799 800 801 802 803 804 805 806 807 808 809 810 811 812 813 814 815 816 817 818 819 820 821 822 823 824 825 826 827 828 829 830 831 832 833 834 835 836 837 838 839 840 841 842 843 844 845 846 847 848 0
c ind 849 850 851 852 853 854 855 856 857 858 859 860 861 862 863 864 865 866 867 868 869 870 871 872 873 874 875 876 877 878 879 880 881 882 883 884 885 886 887 888 889 890 891 892 893 894 895 896 897 898 0
c ind 899 900 901 902 903 904 905 906 907 908 909 910 911 912 913 914 915 916 917 918 919 920 921 922 923 924 0
-1 0
-2 0
-3 0
-4 0
-5 0
-6 0
1 -7 0
8 -9 0
10 -11 0
12 -13 0
14 -15 0
16 -17 0
18 -19 0
2 -20 0
21 -22 0
23 -24 0
25 -26 0
27 -28 0
29 -30 0
31 -32 0
3 -33 0
34 -35 0
36 -37 0
38 -39 0
40 -41 0
42 -43 0
44 -45 0
4 -46 0
47 -48 0
49 -50 0
51 -52 0
53 -54 0
55 -56 0
57 -58 0
5 -59 0
60 -61 0
62 -63 0
64 -65 0
66 -67 0
68 -69 0
70 -71 0
6 -72 0
1 -1 0
18 -8 0
29 -10 0
40 -12 0
51 -14 0
62 -16 0
8 -18 0
2 -2 0
31 -21 0
42 -23 0
53 -25 0
64 -27 0
10 -29 0
21 -31 0
3 -3 0
44 -34 0
55 -36 0
66 -38 0
12 -40 0
23 -42 0
34 -44 0
4 -4 0
57 -47 0
68 -49 0
14 -51 0
25 -53 0
36 -55 0
47 -57 0
5 -5 0
70 -60 0
16 -62 0
27 -64 0
38 -66 0
49 -68 0
60 -70 0
6 -6 0
1 73 0
-73 74 0
8 -73 75 0
-75 76 0
10 -75 77 0
-77 78 0
12 -77 79 0
-79 80 0
14 -79 81 0
-81 82 0
16 -81 83 0
-83 84 0
18 -83 85 0
-85 86 0
2 -85 87 0
-87 88 0
21 -87 89 0
-89 90 0
23 -89 91 0
-91 92 0
25 -91 93 0
-93 94 0
27 -93 95 0
-95 96 0
29 -95 97 0
-97 98 0
31 -97 99 0
-99 100 0
3 -99 101 0
-101 102 0
34 -101 103 0
-103 104 0
36 -103 105 0
-105 106 0
38 -105 107 0
-107 108 0
40 -107 0
8 74 0
-74 109 0
10 -74 76 0
-76 110 0
12 -76 78 0
-78 111 0
14 -78 80 0
-80 112 0
16 -80 82 0
-82 113 0
18 -82 84 0
-84 114 0
2 -84 86 0
-86 115 0
21 -86 88 0
-88 116 0
23 -88 90 0
-90 117 0
25 -90 92 0
-92 118 0
27 -92 94 0
-94 119 0
29 -94 96 0
-96 120 0
31 -96 98 0
-98 121 0
3 -98 100 0
-100 122 0
34 -100 102 0
-102 123 0
36 -102 104 0
-104 124 0
38 -104 106 0
-106 125 0
40 -106 108 0
-108 126 0
42 -108 0
10 109 0
-109 127 0
12 -109 110 0
-110 128 0
14 -110 111 0
-111 129 0
16 -111 112 0
-112 130 0
18 -112 113 0
-113 131 0
2 -113 114 0
-114 132 0
21 -114 115 0
-115 133 0
23 -115 116 0
-116 134 0
25 -116 117 0
-117 135 0
27 -117 118 0
-118 136 0
29 -118 119 0
-119 137 0
31 -119 120 0
-120 138 0
3 -120 121 0
-121 139 0
34 -121 122 0
-122 140 0
36 -122 123 0
-123 141 0
38 -123 124 0
-124 142 0
40 -124 125 0
-125 143 0
42 -125 126 0
-126 144 0
44 -126 0
12 127 0
-127 145 0
14 -127 128 0
-128 146 0
16 -128 129 0
-129 147 0
18 -129 130 0
-130 148 0
2 -130 131 0
-131 149 0
21 -131 132 0
-132 150 0
23 -132 133 0
-133 151 0
25 -133 134 0
-134 152 0
27 -134 135 0
-135 153 0
29 -135 136 0
-136 154 0
31 -136 137 0
-137 155 0
3 -137 138 0
-138 156 0
34 -138 139 0
-139 157 0
36 -139 140 0
-140 158 0
38 -140 141 0
-141 159 0
40 -141 142 0
-142 160 0
42 -142 143 0
-143 161 0
44 -143 144 0
-144 162 0
4 -144 0
14 145 0
-145 163 0
16 -145 146 0
-146 164 0
18 -146 147 0
-147 165 0
2 -147 148 0
-148 166 0
21 -148 149 0
-149 167 0
23 -149 150 0
-150 168 0
25 -150 151 0
-151 169 0
27 -151 152 0
-152 170 0
29 -152 153 0
-153 171 0
31 -153 154 0
-154 172 0
3 -154 155 0
-155 173 0
34 -155 156 0
-156 174 0
36 -156 157 0
-157 175 0
38 -157 158 0
-158 176 0
40 -158 159 0
-159 177 0
42 -159 160 0
-160 178 0
44 -160 161 0
-161 179 0
4 -161 162 0
-162 180 0
47 -162 0
16 163 0
-163 181 0
18 -163 164 0
-164 182 0
2 -164 165 0
-165 183 0
21 -165 166 0
-166 184 0
23 -166 167 0
-167 185 0
25 -167 168 0
-168 186 0
27 -168 169 0
-169 187 0
29 -169 170 0
-170 188 0
31 -170 171 0
-171 189 0
3 -171 172 0
-172 190 0
34 -172 173 0
-173 191 0
36 -173 174 0
-174 192 0
38 -174 175 0
-175 193 0
40 -175 176 0
-176 194 0
42 -176 177 0
-177 195 0
44 -177 178 0
-178 196 0
4 -178 179 0
-179 197 0
47 -179 180 0
-180 198 0
49 -180 0
18 181 0
-181 199 0
2 -181 182 0
-182 200 0
21 -182 183 0
-183 201 0
23 -183 184 0
-184 202 0
25 -184 185 0
-185 203 0
27 -185 186 0
-186 204 0
29 -186 187 0
-187 205 0
31 -187 188 0
-188 206 0
3 -188 189 0
-189 207 0
34 -189 190 0
-190 208 0
36 -190 191 0
-191 209 0
38 -191 192 0
-192 210 0
40 -192 193 0
-193 211 0
42 -193 194 0
-194 212 0
44 -194 195 0
-195 213 0
4 -195 196 0
-196 214 0
47 -196 197 0
-197 215 0
49 -197 198 0
-198 216 0
51 -198 0
2 199 0
-199 217 0
21 -199 200 0
-200 218 0
23 -200 201 0
-201 219 0
25 -201 202 0
-202 220 0
27 -202 203 0
-203 221 0
29 -203 204 0
-204 222 0
31 -204 205 0
-205 223 0
3 -205 206 0
-206 224 0
34 -206 207 0
-207 225 0
36 -207 208 0
-208 226 0
38 -208 209 0
-209 227 0
40 -209 210 0
-210 228 0
42 -210 211 0
-211 229 0
44 -211 212 0
-212 230 0
4 -212 213 0
-213 231 0
47 -213 214 0
-214 232 0
49 -214 215 0
-215 233 0
51 -215 216 0
-216 234 0
53 -216 0
21 217 0
-217 235 0
23 -217 218 0
-218 236 0
25 -218 219 0
-219 237 0
27 -219 220 0
-220 238 0
29 -220 221 0
-221 239 0
31 -221 222 0
-222 240 0
3 -222 223 0
-223 241 0
34 -223 224 0
-224 242 0
36 -224 225 0
-225 243 0
38 -225 226 0
-226 244 0
40 -226 227 0
-227 245 0
42 -227 228 0
-228 246 0
44 -228 229 0
-229 247 0
4 -229 230 0
-230 248 0
47 -230 231 0
-231 249 0
49 -231 232 0
-232 250 0
51 -232 233 0
-233 251 0
53 -233 234 0
-234 252 0
55 -234 0
23 235 0
-235 253 0
25 -235 236 0
-236 254 0
27 -236 237 0
-237 255 0
29 -237 238 0
-238 256 0
31 -238 239 0
-239 257 0
3 -239 240 0
-240 258 0
34 -240 241 0
-241 259 0
36 -241 242 0
-242 260 0
38 -242 243 0
-243 261 0
40 -243 244 0
-244 262 0
42 -244 245 0
-245 263 0
44 -245 246 0
-246 264 0
4 -246 247 0
-247 265 0
47 -247 248 0
-248 266 0
49 -248 249 0
-249 267 0
51 -249 250 0
-250 268 0
53 -250 251 0
-251 269 0
55 -251 252 0
-252 270 0
57 -252 0
25 253 0
-253 271 0
27 -253 254 0
-254 272 0
29 -254 255 0
-255 273 0
31 -255 256 0
-256 274 0
3 -256 257 0
-257 275 0
34 -257 258 0
-258 276 0
36 -258 259 0
-259 277 0
38 -259 260 0
-260 278 0
40 -260 261 0
-261 279 0
42 -261 262 0
-262 280 0
44 -262 263 0
-263 281 0
4 -263 264 0
-264 282 0
47 -264 265 0
-265 283 0
49 -265 266 0
-266 284 0
51 -266 267 0
-267 285 0
53 -267 268 0
-268 286 0
55 -268 269 0
-269 287 0
57 -269 270 0
-270 288 0
5 -270 0
27 271 0
-271 289 0
29 -271 272 0
-272 290 0
31 -272 273 0
-273 291 0
3 -273 274 0
-274 292 0
34 -274 275 0
-275 293 0
36 -275 276 0
-276 294 0
38 -276 277 0
-277 295 0
40 -277 278 0
-278 296 0
42 -278 279 0
-279 297 0
44 -279 280 0
-280 298 0
4 -280 281 0
-281 299 0
47 -281 282 0
-282 300 0
49 -282 283 0
-283 301 0
51 -283 284 0
-284 302 0
53 -284 285 0
-285 303 0
55 -285 286 0
-286 304 0
57 -286 287 0
-287 305 0
5 -287 288 0
-288 306 0
60 -288 0
29 289 0
-289 307 0
31 -289 290 0
-290 308 0
3 -290 291 0
-291 309 0
34 -291 292 0
-292 310 0
36 -292 293 0
-293 311 0
38 -293 294 0
-294 312 0
40 -294 295 0
-295 313 0
42 -295 296 0
-296 314 0
44 -296 297 0
-297 315 0
4 -297 298 0
-298 316 0
47 -298 299 0
-299 317 0
49 -299 300 0
-300 318 0
51 -300 301 0
-301 319 0
53 -301 302 0
-302 320 0
55 -302 303 0
-303 321 0
57 -303 304 0
-304 322 0
5 -304 305 0
-305 323 0
60 -305 306 0
-306 324 0
62 -306 0
31 307 0
-307 325 0
3 -307 308 0
-308 326 0
34 -308 309 0
-309 327 0
36 -309 310 0
-310 328 0
38 -310 311 0
-311 329 0
40 -311 312 0
-312 330 0
42 -312 313 0
-313 331 0
44 -313 314 0
-314 332 0
4 -314 315 0
-315 333 0
47 -315 316 0
-316 334 0
49 -316 317 0
-317 335 0
51 -317 318 0
-318 336 0
53 -318 319 0
-319 337 0
55 -319 320 0
-320 338 0
57 -320 321 0
-321 339 0
5 -321 322 0
-322 340 0
60 -322 323 0
-323 341 0
62 -323 324 0
-324 342 0
64 -324 0
3 325 0
-325 343 0
34 -325 326 0
-326 344 0
36 -326 327 0
-327 345 0
38 -327 328 0
-328 346 0
40 -328 329 0
-329 347 0
42 -329 330 0
-330 348 0
44 -330 331 0
-331 349 0
4 -331 332 0
-332 350 0
47 -332 333 0
-333 351 0
49 -333 334 0
-334 352 0
51 -334 335 0
-335 353 0
53 -335 336 0
-336 354 0
55 -336 337 0
-337 355 0
57 -337 338 0
-338 356 0
5 -338 339 0
-339 357 0
60 -339 340 0
-340 358 0
62 -340 341 0
-341 359 0
64 -341 342 0
-342 360 0
66 -342 0
34 343 0
-343 361 0
36 -343 344 0
-344 362 0
38 -344 345 0
-345 363 0
40 -345 346 0
-346 364 0
42 -346 347 0
-347 365 0
44 -347 348 0
-348 366 0
4 -348 349 0
-349 367 0
47 -349 350 0
-350 368 0
49 -350 351 0
-351 369 0
51 -351 352 0
-352 370 0
53 -352 353 0
-353 371 0
55 -353 354 0
-354 372 0
57 -354 355 0
-355 373 0
5 -355 356 0
-356 374 0
60 -356 357 0
-357 375 0
62 -357 358 0
-358 376 0
64 -358 359 0
-359 377 0
66 -359 360 0
-360 378 0
68 -360 0
36 361 0
-361 379 0
38 -361 362 0
-362 380 0
40 -362 363 0
-363 381 0
42 -363 364 0
-364 382 0
44 -364 365 0
-365 383 0
4 -365 366 0
-366 384 0
47 -366 367 0
-367 385 0
49 -367 368 0
-368 386 0
51 -368 369 0
-369 387 0
53 -369 370 0
-370 388 0
55 -370 371 0
-371 389 0
57 -371 372 0
-372 390 0
5 -372 373 0
-373 391 0
60 -373 374 0
-374 392 0
62 -374 375 0
-375 393 0
64 -375 376 0
-376 394 0
66 -376 377 0
-377 395 0
68 -377 378 0
-378 396 0
70 -378 0
38 379 0
40 -379 380 0
42 -380 381 0
44 -381 382 0
4 -382 383 0
47 -383 384 0
49 -384 385 0
51 -385 386 0
53 -386 387 0
55 -387 388 0
57 -388 389 0
5 -389 390 0
60 -390 391 0
62 -391 392 0
64 -392 393 0
66 -393 394 0
68 -394 395 0
70 -395 396 0
6 -396 0
-1 397 0
-397 398 0
-8 -397 399 0
-399 400 0
-10 -399 401 0
-401 402 0
-12 -401 403 0
-403 404 0
-14 -403 405 0
-405 406 0
-16 -405 407 0
-407 408 0
-18 -407 409 0
-409 410 0
-2 -409 411 0
-411 412 0
-21 -411 413 0
-413 414 0
-23 -413 415 0
-415 416 0
-25 -415 417 0
-417 418 0
-27 -417 419 0
-419 420 0
-29 -419 421 0
-421 422 0
-31 -421 423 0
-423 424 0
-3 -423 425 0
-425 426 0
-34 -425 427 0
-427 428 0
-36 -427 429 0
-429 430 0
-38 -429 431 0
-431 432 0
-40 -431 0
-8 398 0
-398 433 0
-10 -398 400 0
-400 434 0
-12 -400 402 0
-402 435 0
-14 -402 404 0
-404 436 0
-16 -404 406 0
-406 437 0
-18 -406 408 0
-408 438 0
-2 -408 410 0
-410 439 0
-21 -410 412 0
-412 440 0
-23 -412 414 0
-414 441 0
-25 -414 416 0
-416 442 0
-27 -416 418 0
-418 443 0
-29 -418 420 0
-420 444 0
-31 -420 422 0
-422 445 0
-3 -422 424 0
-424 446 0
-34 -424 426 0
-426 447 0
-36 -426 428 0
-428 448 0
-38 -428 430 0
-430 449 0
-40 -430 432 0
-432 450 0
-42 -432 0
-10 433 0
-433 451 0
-12 -433 434 0
-434 452 0
-14 -434 435 0
-435 453 0
-16 -435 436 0
-436 454 0
-18 -436 437 0
-437 455 0
-2 -437 438 0
-438 456 0
-21 -438 439 0
-439 457 0
-23 -439 440 0
-440 458 0
-25 -440 441 0
-441 459 0
-27 -441 442 0
-442 460 0
-29 -442 443 0
-443 461 0
-31 -443 444 0
-444 462 0
-3 -444 445 0
-445 463 0
-34 -445 446 0
-446 464 0
-36 -446 447 0
-447 465 0
-38 -447 448 0
-448 466 0
-40 -448 449 0
-449 467 0
-42 -449 450 0
-450 468 0
-44 -450 0
-12 451 0
-451 469 0
-14 -451 452 0
-452 470 0
-16 -452 453 0
-453 471 0
-18 -453 454 0
-454 472 0
-2 -454 455 0
-455 473 0
-21 -455 456 0
-456 474 0
-23 -456 457 0
-457 475 0
-25 -457 458 0
-458 476 0
-27 -458 459 0
-459 477 0
-29 -459 460 0
-460 478 0
-31 -460 461 0
-461 479 0
-3 -461 462 0
-462 480 0
-34 -462 463 0
-463 481 0
-36 -463 464 0
-464 482 0
-38 -464 465 0
-465 483 0
-40 -465 466 0
-466 484 0
-42 -466 467 0
-467 485 0
-44 -467 468 0
-468 486 0
-4 -468 0
-14 469 0
-469 487 0
-16 -469 470 0
-470 488 0
-18 -470 471 0
-471 489 0
-2 -471 472 0
-472 490 0
-21 -472 473 0
-473 491 0
-23 -473 474 0
-474 492 0
-25 -474 475 0
-475 493 0
-27 -475 476 0
-476 494 0
-29 -476 477 0
-477 495 0
-31 -477 478 0
-478 496 0
-3 -478 479 0
-479 497 0
-34 -479 480 0
-480 498 0
-36 -480 481 0
-481 499 0
-38 -481 482 0
-482 500 0
-40 -482 483 0
-483 501 0
-42 -483 484 0
-484 502 0
-44 -484 485 0
-485 503 0
-4 -485 486 0
-486 504 0
-47 -486 0
-16 487 0
-487 505 0
-18 -487 488 0
-488 506 0
-2 -488 489 0
-489 507 0
-21 -489 490 0
-490 508 0
-23 -490 491 0
-491 509 0
-25 -491 492 0
-492 510 0
-27 -492 493 0
-493 511 0
-29 -493 494 0
-494 512 0
-31 -494 495 0
-495 513 0
-3 -495 496 0
-496 514 0
-34 -496 497 0
-497 515 0
-36 -497 498 0
-498 516 0
-38 -498 499 0
-499 517 0
-40 -499 500 0
-500 518 0
-42 -500 501 0
-501 519 0
-44 -501 502 0
-502 520 0
-4 -502 503 0
-503 521 0
-47 -503 504 0
-504 522 0
-49 -504 0
-18 505 0
-505 523 0
-2 -505 506 0
-506 524 0
-21 -506 507 0
-507 525 0
-23 -507 508 0
-508 526 0
-25 -508 509 0
-509 527 0
-27 -509 510 0
-510 528 0
-29 -510 511 0
-511 529 0
-31 -511 512 0
-512 530 0
-3 -512 513 0
-513 531 0
-34 -513 514 0
-514 532 0
-36 -514 515 0
-515 533 0
-38 -515 516 0
-516 534 0
-40 -516 517 0
-517 535 0
-42 -517 518 0
-518 536 0
-44 -518 519 0
-519 537 0
-4 -519 520 0
-520 538 0
-47 -520 521 0
-521 539 0
-49 -521 522 0
-522 540 0
-51 -522 0
-2 523 0
-523 541 0
-21 -523 524 0
-524 542 0
-23 -524 525 0
-525 543 0
-25 -525 526 0
-526 544 0
-27 -526 527 0
-527 545 0
-29 -527 528 0
-528 546 0
-31 -528 529 0
-529 547 0
-3 -529 530 0
-530 548 0
-34 -530 531 0
-531 549 0
-36 -531 532 0
-532 550 0
-38 -532 533 0
-533 551 0
-40 -533 534 0
-534 552 0
-42 -534 535 0
-535 553 0
-44 -535 536 0
-536 554 0
-4 -536 537 0
-537 555 0
-47 -537 538 0
-538 556 0
-49 -538 539 0
-539 557 0
-51 -539 540 0
-540 558 0
-53 -540 0
-21 541 0
-541 559 0
-23 -541 542 0
-542 560 0
-25 -542 543 0
-543 561 0
-27 -543 544 0
-544 562 0
-29 -544 545 0
-545 563 0
-31 -545 546 0
-546 564 0
-3 -546 547 0
-547 565 0
-34 -547 548 0
-548 566 0
-36 -548 549 0
-549 567 0
-38 -549 550 0
-550 568 0
-40 -550 551 0
-551 569 0
-42 -551 552 0
-552 570 0
-44 -552 553 0
-553 571 0
-4 -553 554 0
-554 572 0
-47 -554 555 0
-555 573 0
-49 -555 556 0
-556 574 0
-51 -556 557 0
-557 575 0
-53 -557 558 0
-558 576 0
-55 -558 0
-23 559 0
-559 577 0
-25 -559 560 0
-560 578 0
-27 -560 561 0
-561 579 0
-29 -561 562 0
-562 580 0
-31 -562 563 0
-563 581 0
-3 -563 564 0
-564 582 0
-34 -564 565 0
-565 583 0
-36 -565 566 0
-566 584 0
-38 -566 567 0
-567 585 0
-40 -567 568 0
-568 586 0
-42 -568 569 0
-569 587 0
-44 -569 570 0
-570 588 0
-4 -570 571 0
-571 589 0
-47 -571 572 0
-572 590 0
-49 -572 573 0
-573 591 0
-51 -573 574 0
-574 592 0
-53 -574 575 0
-575 593 0
-55 -575 576 0
-576 594 0
-57 -576 0
-25 577 0
-577 595 0
-27 -577 578 0
-578 596 0
-29 -578 579 0
-579 597 0
-31 -579 580 0
-580 598 0
-3 -580 581 0
-581 599 0
-34 -581 582 0
-582 600 0
-36 -582 583 0
-583 601 0
-38 -583 584 0
-584 602 0
-40 -584 585 0
-585 603 0
-42 -585 586 0
-586 604 0
-44 -586 587 0
-587 605 0
-4 -587 588 0
-588 606 0
-47 -588 589 0
-589 607 0
-49 -589 590 0
-590 608 0
-51 -590 591 0
-591 609 0
-53 -591 592 0
-592 610 0
-55 -592 593 0
-593 611 0
-57 -593 594 0
-594 612 0
-5 -594 0
-27 595 0
-595 613 0
-29 -595 596 0
-596 614 0
-31 -596 597 0
-597 615 0
-3 -597 598 0
-598 616 0
-34 -598 599 0
-599 617 0
-36 -599 600 0
-600 618 0
-38 -600 601 0
-601 619 0
-40 -601 602 0
-602 620 0
-42 -602 603 0
-603 621 0
-44 -603 604 0
-604 622 0
-4 -604 605 0
-605 623 0
-47 -605 606 0
-606 624 0
-49 -606 607 0
-607 625 0
-51 -607 608 0
-608 626 0
-53 -608 609 0
-609 627 0
-55 -609 610 0
-610 628 0
-57 -610 611 0
-611 629 0
-5 -611 612 0
-612 630 0
-60 -612 0
-29 613 0
-613 631 0
-31 -613 614 0
-614 632 0
-3 -614 615 0
-615 633 0
-34 -615 616 0
-616 634 0
-36 -616 617 0
-617 635 0
-38 -617 618 0
-618 636 0
-40 -618 619 0
-619 637 0
-42 -619 620 0
-620 638 0
-44 -620 621 0
-621 639 0
-4 -621 622 0
-622 640 0
-47 -622 623 0
-623 641 0
-49 -623 624 0
-624 642 0
-51 -624 625 0
-625 643 0
-53 -625 626 0
-626 644 0
-55 -626 627 0
-627 645 0
-57 -627 628 0
-628 646 0
-5 -628 629 0
-629 647 0
-60 -629 630 0
-630 648 0
-62 -630 0
-31 631 0
-631 649 0
-3 -631 632 0
-632 650 0
-34 -632 633 0
-633 651 0
-36 -633 634 0
-634 652 0
-38 -634 635 0
-635 653 0
-40 -635 636 0
-636 654 0
-42 -636 637 0
-637 655 0
-44 -637 638 0
-638 656 0
-4 -638 639 0
-639 657 0
-47 -639 640 0
-640 658 0
-49 -640 641 0
-641 659 0
-51 -641 642 0
-642 660 0
-53 -642 643 0
-643 661 0
-55 -643 644 0
-644 662 0
-57 -644 645 0
-645 663 0
-5 -645 646 0
-646 664 0
-60 -646 647 0
-647 665 0
-62 -647 648 0
-648 666 0
-64 -648 0
-3 649 0
-649 667 0
-34 -649 650 0
-650 668 0
-36 -650 651 0
-651 669 0
-38 -651 652 0
-652 670 0
-40 -652 653 0
-653 671 0
-42 -653 654 0
-654 672 0
-44 -654 655 0
-655 673 0
-4 -655 656 0
-656 674 0
-47 -656 657 0
-657 675 0
-49 -657 658 0
-658 676 0
-51 -658 659 0
-659 677 0
-53 -659 660 0
-660 678 0
-55 -660 661 0
-661 679 0
-57 -661 662 0
-662 680 0
-5 -662 663 0
-663 681 0
-60 -663 664 0
-664 682 0
-62 -664 665 0
-665 683 0
-64 -665 666 0
-666 684 0
-66 -666 0
-34 667 0
-667 685 0
-36 -667 668 0
-668 686 0
-38 -668 669 0
-669 687 0
-40 -669 670 0
-670 688 0
-42 -670 671 0
-671 689 0
-44 -671 672 0
-672 690 0
-4 -672 673 0
-673 691 0
-47 -673 674 0
-674 692 0
-49 -674 675 0
-675 693 0
-51 -675 676 0
-676 694 0
-53 -676 677 0
-677 695 0
-55 -677 678 0
-678 696 0
-57 -678 679 0
-679 697 0
-5 -679 680 0
-680 698 0
-60 -680 681 0
-681 699 0
-62 -681 682 0
-682 700 0
-64 -682 683 0
-683 701 0
-66 -683 684 0
-684 702 0
-68 -684 0
-36 685 0
-685 703 0
-38 -685 686 0
-686 704 0
-40 -686 687 0
-687 705 0
-42 -687 688 0
-688 706 0
-44 -688 689 0
-689 707 0
-4 -689 690 0
-690 708 0
-47 -690 691 0
-691 709 0
-49 -691 692 0
-692 710 0
-51 -692 693 0
-693 711 0
-53 -693 694 0
-694 712 0
-55 -694 695 0
-695 713 0
-57 -695 696 0
-696 714 0
-5 -696 697 0
-697 715 0
-60 -697 698 0
-698 716 0
-62 -698 699 0
-699 717 0
-64 -699 700 0
-700 718 0
-66 -700 701 0
-701 719 0
-68 -701 702 0
-702 720 0
-70 -702 0
-38 703 0
-40 -703 704 0
-42 -704 705 0
-44 -705 706 0
-4 -706 707 0
-47 -707 708 0
-49 -708 709 0
-51 -709 710 0
-53 -710 711 0
-55 -711 712 0
-57 -712 713 0
-5 -713 714 0
-60 -714 715 0
-62 -715 716 0
-64 -716 717 0
-66 -717 718 0
-68 -718 719 0
-70 -719 720 0
-6 -720 0
721 0
722 723 0
-722 -723 0
-722 -724 725 0
-722 -726 727 0
-722 -728 729 0
-722 -730 731 0
725 732 0
-725 -732 0
-725 -733 722 0
-725 -734 727 0
-725 -735 729 0
-725 -736 731 0
727 737 0
-727 -737 0
-727 -738 722 0
-727 -739 725 0
-727 -740 729 0
-727 -741 731 0
729 742 0
-729 -742 0
-729 -743 722 0
-729 -744 725 0
-729 -745 727 0
-729 -746 731 0
731 747 0
-731 -747 0
-731 -748 722 0
-731 -749 725 0
-731 -750 727 0
-731 -751 729 0
752 0
723 722 0
-723 -722 0
-723 -725 724 0
-723 -727 726 0
-723 -729 728 0
-723 -731 730 0
724 733 0
-724 -733 0
-724 -732 723 0
-724 -734 726 0
-724 -735 728 0
-724 -736 730 0
726 738 0
-726 -738 0
-726 -737 723 0
-726 -739 724 0
-726 -740 728 0
-726 -741 730 0
728 743 0
-728 -743 0
-728 -742 723 0
-728 -744 724 0
-728 -745 726 0
-728 -746 730 0
730 748 0
-730 -748 0
-730 -747 723 0
-730 -749 724 0
-730 -750 726 0
-730 -751 728 0
753 0
732 725 0
-732 -725 0
-732 -722 733 0
-732 -727 734 0
-732 -729 735 0
-732 -731 736 0
733 724 0
-733 -724 0
-733 -723 732 0
-733 -726 734 0
-733 -728 735 0
-733 -730 736 0
734 739 0
-734 -739 0
-734 -737 732 0
-734 -738 733 0
-734 -740 735 0
-734 -741 736 0
735 744 0
-735 -744 0
-735 -742 732 0
-735 -743 733 0
-735 -745 734 0
-735 -746 736 0
736 749 0
-736 -749 0
-736 -747 732 0
-736 -748 733 0
-736 -750 734 0
-736 -751 735 0
754 0
737 727 0
-737 -727 0
-737 -722 738 0
-737 -725 739 0
-737 -729 740 0
-737 -731 741 0
738 726 0
-738 -726 0
-738 -723 737 0
-738 -724 739 0
-738 -728 740 0
-738 -730 741 0
739 734 0
-739 -734 0
-739 -732 737 0
-739 -733 738 0
-739 -735 740 0
-739 -736 741 0
740 745 0
-740 -745 0
-740 -742 737 0
-740 -743 738 0
-740 -744 739 0
-740 -746 741 0
741 750 0
-741 -750 0
-741 -747 737 0
-741 -748 738 0
-741 -749 739 0
-741 -751 740 0
755 0
742 729 0
-742 -729 0
-742 -722 743 0
-742 -725 744 0
-742 -727 745 0
-742 -731 746 0
743 728 0
-743 -728 0
-743 -723 742 0
-743 -724 744 0
-743 -726 745 0
-743 -730 746 0
744 735 0
-744 -735 0
-744 -732 742 0
-744 -733 743 0
-744 -734 745 0
-744 -736 746 0
745 740 0
-745 -740 0
-745 -737 742 0
-745 -738 743 0
-745 -739 744 0
-745 -741 746 0
746 751 0
-746 -751 0
-746 -747 742 0
-746 -748 743 0
-746 -749 744 0
-746 -750 745 0
756 0
747 731 0
-747 -731 0
-747 -722 748 0
-747 -725 749 0
-747 -727 750 0
-747 -729 751 0
748 730 0
-748 -730 0
-748 -723 747 0
-748 -724 749 0
-748 -726 750 0
-748 -728 751 0
749 736 0
-749 -736 0
-749 -732 747 0
-749 -733 748 0
-749 -734 750 0
-749 -735 751 0
750 741 0
-750 -741 0
-750 -737 747 0
-750 -738 748 0
-750 -739 749 0
-750 -740 751 0
751 746 0
-751 -746 0
-751 -742 747 0
-751 -743 748 0
-751 -744 749 0
-751 -745 750 0
-757 0
-758 722 0
-759 725 0
-759 733 0
-725 -733 759 0
-760 727 0
-760 738 0
-727 -738 760 0
-761 729 0
-761 743 0
-729 -743 761 0
-762 731 0
-762 748 0
-731 -748 762 0
-758 -759 0
-758 -760 0
-758 -761 0
-758 -762 0
-722 758 759 760 761 762 0
-763 725 0
-764 722 0
-764 724 0
-722 -724 764 0
-765 727 0
-765 739 0
-727 -739 765 0
-766 729 0
-766 744 0
-729 -744 766 0
-767 731 0
-767 749 0
-731 -749 767 0
-763 -764 0
-763 -765 0
-763 -766 0
-763 -767 0
-725 763 764 765 766 767 0
-768 727 0
-769 722 0
-769 726 0
-722 -726 769 0
-770 725 0
-770 734 0
-725 -734 770 0
-771 729 0
-771 745 0
-729 -745 771 0
-772 731 0
-772 750 0
-731 -750 772 0
-768 -769 0
-768 -770 0
-768 -771 0
-768 -772 0
-727 768 769 770 771 772 0
-773 729 0
-774 722 0
-774 728 0
-722 -728 774 0
-775 725 0
-775 735 0
-725 -735 775 0
-776 727 0
-776 740 0
-727 -740 776 0
-777 731 0
-777 751 0
-731 -751 777 0
-773 -774 0
-773 -775 0
-773 -776 0
-773 -777 0
-729 773 774 775 776 777 0
-778 731 0
-779 722 0
-779 730 0
-722 -730 779 0
-780 725 0
-780 736 0
-725 -736 780 0
-781 727 0
-781 741 0
-727 -741 781 0
-782 729 0
-782 746 0
-729 -746 782 0
-778 -779 0
-778 -780 0
-778 -781 0
-778 -782 0
-731 778 779 780 781 782 0
-783 723 0
-784 724 0
-784 732 0
-724 -732 784 0
-785 726 0
-785 737 0
-726 -737 785 0
-786 728 0
-786 742 0
-728 -742 786 0
-787 730 0
-787 747 0
-730 -747 787 0
-783 -784 0
-783 -785 0
-783 -786 0
-783 -787 0
-723 783 784 785 786 787 0
-788 0
-789 724 0
-790 723 0
-790 725 0
-723 -725 790 0
-791 726 0
-791 739 0
-726 -739 791 0
-792 728 0
-792 744 0
-728 -744 792 0
-793 730 0
-793 749 0
-730 -749 793 0
-789 -790 0
-789 -791 0
-789 -792 0
-789 -793 0
-724 789 790 791 792 793 0
-794 726 0
-795 723 0
-795 727 0
-723 -727 795 0
-796 724 0
-796 734 0
-724 -734 796 0
-797 728 0
-797 745 0
-728 -745 797 0
-798 730 0
-798 750 0
-730 -750 798 0
-794 -795 0
-794 -796 0
-794 -797 0
-794 -798 0
-726 794 795 796 797 798 0
-799 728 0
-800 723 0
-800 729 0
-723 -729 800 0
-801 724 0
-801 735 0
-724 -735 801 0
-802 726 0
-802 740 0
-726 -740 802 0
-803 730 0
-803 751 0
-730 -751 803 0
-799 -800 0
-799 -801 0
-799 -802 0
-799 -803 0
-728 799 800 801 802 803 0
-804 730 0
-805 723 0
-805 731 0
-723 -731 805 0
-806 724 0
-806 736 0
-724 -736 806 0
-807 726 0
-807 741 0
-726 -741 807 0
-808 728 0
-808 746 0
-728 -746 808 0
-804 -805 0
-804 -806 0
-804 -807 0
-804 -808 0
-730 804 805 806 807 808 0
-809 732 0
-810 733 0
-810 723 0
-733 -723 810 0
-811 734 0
-811 737 0
-734 -737 811 0
-812 735 0
-812 742 0
-735 -742 812 0
-813 736 0
-813 747 0
-736 -747 813 0
-809 -810 0
-809 -811 0
-809 -812 0
-809 -813 0
-732 809 810 811 812 813 0
-814 733 0
-815 732 0
-815 722 0
-732 -722 815 0
-816 734 0
-816 738 0
-734 -738 816 0
-817 735 0
-817 743 0
-735 -743 817 0
-818 736 0
-818 748 0
-736 -748 818 0
-814 -815 0
-814 -816 0
-814 -817 0
-814 -818 0
-733 814 815 816 817 818 0
-819 0
-820 734 0
-821 732 0
-821 727 0
-732 -727 821 0
-822 733 0
-822 726 0
-733 -726 822 0
-823 735 0
-823 745 0
-735 -745 823 0
-824 736 0
-824 750 0
-736 -750 824 0
-820 -821 0
-820 -822 0
-820 -823 0
-820 -824 0
-734 820 821 822 823 824 0
-825 735 0
-826 732 0
-826 729 0
-732 -729 826 0
-827 733 0
-827 728 0
-733 -728 827 0
-828 734 0
-828 740 0
-734 -740 828 0
-829 736 0
-829 751 0
-736 -751 829 0
-825 -826 0
-825 -827 0
-825 -828 0
-825 -829 0
-735 825 826 827 828 829 0
-830 736 0
-831 732 0
-831 731 0
-732 -731 831 0
-832 733 0
-832 730 0
-733 -730 832 0
-833 734 0
-833 741 0
-734 -741 833 0
-834 735 0
-834 746 0
-735 -746 834 0
-830 -831 0
-830 -832 0
-830 -833 0
-830 -834 0
-736 830 831 832 833 834 0
-835 737 0
-836 738 0
-836 723 0
-738 -723 836 0
-837 739 0
-837 732 0
-739 -732 837 0
-838 740 0
-838 742 0
-740 -742 838 0
-839 741 0
-839 747 0
-741 -747 839 0
-835 -836 0
-835 -837 0
-835 -838 0
-835 -839 0
-737 835 836 837 838 839 0
-840 738 0
-841 737 0
-841 722 0
-737 -722 841 0
-842 739 0
-842 733 0
-739 -733 842 0
-843 740 0
-843 743 0
-740 -743 843 0
-844 741 0
-844 748 0
-741 -748 844 0
-840 -841 0
-840 -842 0
-840 -843 0
-840 -844 0
-738 840 841 842 843 844 0
-845 739 0
-846 737 0
-846 725 0
-737 -725 846 0
-847 738 0
-847 724 0
-738 -724 847 0
-848 740 0
-848 744 0
-740 -744 848 0
-849 741 0
-849 749 0
-741 -749 849 0
-845 -846 0
-845 -847 0
-845 -848 0
-845 -849 0
-739 845 846 847 848 849 0
-850 0
-851 740 0
-852 737 0
-852 729 0
-737 -729 852 0
-853 738 0
-853 728 0
-738 -728 853 0
-854 739 0
-854 735 0
-739 -735 854 0
-855 741 0
-855 751 0
-741 -751 855 0
-851 -852 0
-851 -853 0
-851 -854 0
-851 -855 0
-740 851 852 853 854 855 0
-856 741 0
-857 737 0
-857 731 0
-737 -731 857 0
-858 738 0
-858 730 0
-738 -730 858 0
-859 739 0
-859 736 0
-739 -736 859 0
-860 740 0
-860 746 0
-740 -746 860 0
-856 -857 0
-856 -858 0
-856 -859 0
-856 -860 0
-741 856 857 858 859 860 0
-861 742 0
-862 743 0
-862 723 0
-743 -723 862 0
-863 744 0
-863 732 0
-744 -732 863 0
-864 745 0
-864 737 0
-745 -737 864 0
-865 746 0
-865 747 0
-746 -747 865 0
-861 -862 0
-861 -863 0
-861 -864 0
-861 -865 0
-742 861 862 863 864 865 0
-866 743 0
-867 742 0
-867 722 0
-742 -722 867 0
-868 744 0
-868 733 0
-744 -733 868 0
-869 745 0
-869 738 0
-745 -738 869 0
-870 746 0
-870 748 0
-746 -748 870 0
-866 -867 0
-866 -868 0
-866 -869 0
-866 -870 0
-743 866 867 868 869 870 0
-871 744 0
-872 742 0
-872 725 0
-742 -725 872 0
-873 743 0
-873 724 0
-743 -724 873 0
-874 745 0
-874 739 0
-745 -739 874 0
-875 746 0
-875 749 0
-746 -749 875 0
-871 -872 0
-871 -873 0
-871 -874 0
-871 -875 0
-744 871 872 873 874 875 0
-876 745 0
-877 742 0
-877 727 0
-742 -727 877 0
-878 743 0
-878 726 0
-743 -726 878 0
-879 744 0
-879 734 0
-744 -734 879 0
-880 746 0
-880 750 0
-746 -750 880 0
-876 -877 0
-876 -878 0
-876 -879 0
-876 -880 0
-745 876 877 878 879 880 0
-881 0
-882 746 0
-883 742 0
-883 731 0
-742 -731 883 0
-884 743 0
-884 730 0
-743 -730 884 0
-885 744 0
-885 736 0
-744 -736 885 0
-886 745 0
-886 741 0
-745 -741 886 0
-882 -883 0
-882 -884 0
-882 -885 0
-882 -886 0
-746 882 883 884 885 886 0
-887 747 0
-888 748 0
-888 723 0
-748 -723 888 0
-889 749 0
-889 732 0
-749 -732 889 0
-890 750 0
-890 737 0
-750 -737 890 0
-891 751 0
-891 742 0
-751 -742 891 0
-887 -888 0
-887 -889 0
-887 -890 0
-887 -891 0
-747 887 888 889 890 891 0
-892 748 0
-893 747 0
-893 722 0
-747 -722 893 0
-894 749 0
-894 733 0
-749 -733 894 0
-895 750 0
-895 738 0
-750 -738 895 0
-896 751 0
-896 743 0
-751 -743 896 0
-892 -893 0
-892 -894 0
-892 -895 0
-892 -896 0
-748 892 893 894 895 896 0
-897 749 0
-898 747 0
-898 725 0
-747 -725 898 0
-899 748 0
-899 724 0
-748 -724 899 0
-900 750 0
-900 739 0
-750 -739 900 0
-901 751 0
-901 744 0
-751 -744 901 0
-897 -898 0
-897 -899 0
-897 -900 0
-897 -901 0
-749 897 898 899 900 901 0
-902 750 0
-903 747 0
-903 727 0
-747 -727 903 0
-904 748 0
-904 726 0
-748 -726 904 0
-905 749 0
-905 734 0
-749 -734 905 0
-906 751 0
-906 745 0
-751 -745 906 0
-902 -903 0
-902 -904 0
-902 -905 0
-902 -906 0
-750 902 903 904 905 906 0
-907 751 0
-908 747 0
-908 729 0
-747 -729 908 0
-909 748 0
-909 728 0
-748 -728 909 0
-910 749 0
-910 735 0
-749 -735 910 0
-911 750 0
-911 740 0
-750 -740 911 0
-907 -908 0
-907 -909 0
-907 -910 0
-907 -911 0
-751 907 908 909 910 911 0
-912 0
-913 721 0
-913 722 0
-913 725 0
-913 727 0
-913 729 0
-913 731 0
-721 -722 -725 -727 -729 -731 913 0
-914 721 0
-914 723 0
-914 732 0
-914 737 0
-914 742 0
-914 747 0
-721 -723 -732 -737 -742 -747 914 0
-915 723 0
-915 752 0
-915 724 0
-915 726 0
-915 728 0
-915 730 0
-723 -752 -724 -726 -728 -730 915 0
-916 722 0
-916 752 0
-916 733 0
-916 738 0
-916 743 0
-916 748 0
-722 -752 -733 -738 -743 -748 916 0
-917 732 0
-917 733 0
-917 753 0
-917 734 0
-917 735 0
-917 736 0
-732 -733 -753 -734 -735 -736 917 0
-918 725 0
-918 724 0
-918 753 0
-918 739 0
-918 744 0
-918 749 0
-725 -724 -753 -739 -744 -749 918 0
-919 737 0
-919 738 0
-919 739 0
-919 754 0
-919 740 0
-919 741 0
-737 -738 -739 -754 -740 -741 919 0
-920 727 0
-920 726 0
-920 734 0
-920 754 0
-920 745 0
-920 750 0
-727 -726 -734 -754 -745 -750 920 0
-921 742 0
-921 743 0
-921 744 0
-921 745 0
-921 755 0
-921 746 0
-742 -743 -744 -745 -755 -746 921 0
-922 729 0
-922 728 0
-922 735 0
-922 740 0
-922 755 0
-922 751 0
-729 -728 -735 -740 -755 -751 922 0
-923 747 0
-923 748 0
-923 749 0
-923 750 0
-923 751 0
-923 756 0
-747 -748 -749 -750 -751 -756 923 0
-924 731 0
-924 730 0
-924 736 0
-924 741 0
-924 746 0
-924 756 0
-731 -730 -736 -741 -746 -756 924 0
-757 7 0
-914 -913 7 0
-7 757 914 0
-7 757 913 0
-758 9 0
-914 -915 9 0
-9 758 914 0
-9 758 915 0
-763 11 0
-914 -917 11 0
-11 763 914 0
-11 763 917 0
-768 13 0
-914 -919 13 0
-13 768 914 0
-13 768 919 0
-773 15 0
-914 -921 15 0
-15 773 914 0
-15 773 921 0
-778 17 0
-914 -923 17 0
-17 778 914 0
-17 778 923 0
-783 19 0
-916 -913 19 0
-19 783 916 0
-19 783 913 0
-788 20 0
-916 -915 20 0
-20 788 916 0
-20 788 915 0
-789 22 0
-916 -917 22 0
-22 789 916 0
-22 789 917 0
-794 24 0
-916 -919 24 0
-24 794 916 0
-24 794 919 0
-799 26 0
-916 -921 26 0
-26 799 916 0
-26 799 921 0
-804 28 0
-916 -923 28 0
-28 804 916 0
-28 804 923 0
-809 30 0
-918 -913 30 0
-30 809 918 0
-30 809 913 0
-814 32 0
-918 -915 32 0
-32 814 918 0
-32 814 915 0
-819 33 0
-918 -917 33 0
-33 819 918 0
-33 819 917 0
-820 35 0
-918 -919 35 0
-35 820 918 0
-35 820 919 0
-825 37 0
-918 -921 37 0
-37 825 918 0
-37 825 921 0
-830 39 0
-918 -923 39 0
-39 830 918 0
-39 830 923 0
-835 41 0
-920 -913 41 0
-41 835 920 0
-41 835 913 0
-840 43 0
-920 -915 43 0
-43 840 920 0
-43 840 915 0
-845 45 0
-920 -917 45 0
-45 845 920 0
-45 845 917 0
-850 46 0
-920 -919 46 0
-46 850 920 0
-46 850 919 0
-851 48 0
-920 -921 48 0
-48 851 920 0
-48 851 921 0
-856 50 0
-920 -923 50 0
-50 856 920 0
-50 856 923 0
-861 52 0
-922 -913 52 0
-52 861 922 0
-52 861 913 0
-866 54 0
-922 -915 54 0
-54 866 922 0
-54 866 915 0
-871 56 0
-922 -917 56 0
-56 871 922 0
-56 871 917 0
-876 58 0
-922 -919 58 0
-58 876 922 0
-58 876 919 0
-881 59 0
-922 -921 59 0
-59 881 922 0
-59 881 921 0
-882 61 0
-922 -923 61 0
-61 882 922 0
-61 882 923 0
-887 63 0
-924 -913 63 0
-63 887 924 0
-63 887 913 0
-892 65 0
-924 -915 65 0
-65 892 924 0
-65 892 915 0
-897 67 0
-924 -917 67 0
-67 897 924 0
-67 897 917 0
-902 69 0
-924 -919 69 0
-69 902 924 0
-69 902 919 0
-907 71 0
-924 -921 71 0
-71 907 924 0
-71 907 921 0
-912 72 0
-924 -923 72 0
-72 912 924 0
-72 912 923 0
