p cnf 2656 6552
c ind 1 2 3 4 5 6 7 8 9 10 11 12 13 14 15 16 17 18 19 20 21 22 23 24 25 26 27 28 29 30 31 32 33 34 35 36 37 38 39 40 41 42 43 44 45 46 47 48 49 50 0
c ind 51 52 53 54 55 56 57 58 59 60 61 62 63 64 65 66 67 68 69 70 71 72 73 74 75 76 77 78 79 80 81 82 83 84 85 86 87 88 89 90 91 92 93 94 95 96 97 98 99 100 0
c ind 101 102 103 104 105 106 107 108 109 110 111 112 113 114 115 116 117 118 119 120 121 122 123 124 125 126 127 128 2177 2178 2179 2180 2181 2182 2183 2184 2185 2186 2187 2188 2189 2190 2191 2192 2193 2194 2195 2196 2197 2198 0
c ind 2199 2200 2201 2202 2203 2204 2205 2206 2207 2208 2209 2210 2211 2212 2213 2214 2215 2216 2217 2218 2219 2220 2221 2222 2223 2224 2225 2226 2227 2228 2229 2230 2231 2232 2233 2234 2235 2236 2237 2238 2239 2240 2241 2242 2243 2244 2245 2246 2247 2248 0
c ind 2249 2250 2251 2252 2253 2254 2255 2256 2257 2258 2259 2260 2261 2262 2263 2264 2265 2266 2267 2268 2269 2270 2271 2272 2273 2274 2275 2276 2277 2278 2279 2280 2281 2282 2283 2284 2285 2286 2287 2288 2289 2290 2291 2292 2293 2294 2295 2296 2297 2298 0
c ind 2299 2300 2301 2302 2303 2304 2305 2306 2307 2308 2309 2310 2311 2312 2313 2314 2315 2316 2317 2318 2319 2320 2321 2322 2323 2324 2325 2326 2327 2328 2329 2330 2331 2332 2333 2334 2335 2336 2337 2338 2339 2340 2341 2342 2343 2344 2345 2346 2347 2348 0
c ind 2349 2350 2351 2352 2353 2354 2355 2356 2357 2358 2359 2360 2361 2362 2363 2364 2365 2366 2367 2368 2369 2370 2371 2372 2373 2374 2375 2376 2377 2378 2379 2380 2381 2382 2383 2384 2385 2386 2387 2388 2389 2390 2391 2392 2393 2394 2395 2396 2397 2398 0
c ind 2399 2400 2401 2402 2403 2404 2405 2406 2407 2408 2409 2410 2411 2412 2413 2414 2415 2416 2417 2418 2419 2420 2421 2422 2423 2424 2425 2426 2427 2428 2429 2430 2431 2432 2433 2434 2435 2436 2437 2438 2439 2440 2441 2442 2443 2444 2445 2446 2447 2448 0
c ind 2449 2450 2451 2452 2453 2454 2455 2456 2457 2458 2459 2460 2461 2462 2463 2464 2465 2466 2467 2468 2469 2470 2471 2472 2473 2474 2475 2476 2477 2478 2479 2480 2481 2482 2483 2484 2485 2486 2487 2488 2489 2490 2491 2492 2493 2494 2495 2496 2497 2498 0
c ind 2499 2500 2501 2502 2503 2504 2505 2506 2507 2508 2509 2510 2511 2512 2513 2514 2515 2516 2517 2518 2519 2520 2521 2522 2523 2524 2525 2526 2527 2528 2529 2530 2531 2532 2533 2534 2535 2536 2537 2538 2539 2540 2541 2542 2543 2544 2545 2546 2547 2548 0
c ind 2549 2550 2551 2552 2553 2554 2555 2556 2557 2558 2559 2560 2561 2562 2563 2564 2565 2566 2567 2568 2569 2570 2571 2572 2573 2574 2575 2576 2577 2578 2579 2580 2581 2582 2583 2584 2585 2586 2587 2588 2589 2590 2591 2592 2593 2594 2595 2596 2597 2598 0
c ind 2599 2600 2601 2602 2603 2604 2605 2606 2607 2608 2609 2610 2611 2612 2613 2614 2615 2616 2617 2618 2619 2620 2621 2622 2623 2624 2625 2626 2627 2628 2629 2630 2631 2632 2633 2634 2635 2636 2637 2638 2639 2640 2641 2642 2643 2644 2645 2646 2647 2648 0
c ind 2649 2650 2651 2652 2653 2654 2655 2656 0
-1 0
-2 0
-3 0
-4 0
-5 0
-6 0
-7 0
-8 0
1 -9 0
10 -11 0
12 -13 0
14 -15 0
16 -17 0
18 -19 0
20 -21 0
22 -23 0
24 -25 0
2 -26 0
27 -28 0
29 -30 0
31 -32 0
33 -34 0
35 -36 0
37 -38 0
39 -40 0
41 -42 0
3 -43 0
44 -45 0
46 -47 0
48 -49 0
50 -51 0
52 -53 0
54 -55 0
56 -57 0
58 -59 0
4 -60 0
61 -62 0
63 -64 0
65 -66 0
67 -68 0
69 -70 0
71 -72 0
73 -74 0
75 -76 0
5 -77 0
78 -79 0
80 -81 0
82 -83 0
84 -85 0
86 -87 0
88 -89 0
90 -91 0
92 -93 0
6 -94 0
95 -96 0
97 -98 0
99 -100 0
101 -102 0
103 -104 0
105 -106 0
107 -108 0
109 -110 0
7 -111 0
112 -113 0
114 -115 0
116 -117 0
118 -119 0
120 -121 0
122 -123 0
124 -125 0
126 -127 0
8 -128 0
1 -1 0
24 -10 0
39 -12 0
54 -14 0
69 -16 0
84 -18 0
99 -20 0
114 -22 0
10 -24 0
2 -2 0
41 -27 0
56 -29 0
71 -31 0
86 -33 0
101 -35 0
116 -37 0
12 -39 0
27 -41 0
3 -3 0
58 -44 0
73 -46 0
88 -48 0
103 -50 0
118 -52 0
14 -54 0
29 -56 0
44 -58 0
4 -4 0
75 -61 0
90 -63 0
105 -65 0
120 -67 0
16 -69 0
31 -71 0
46 -73 0
61 -75 0
5 -5 0
92 -78 0
107 -80 0
122 -82 0
18 -84 0
33 -86 0
48 -88 0
63 -90 0
78 -92 0
6 -6 0
109 -95 0
124 -97 0
20 -99 0
35 -101 0
50 -103 0
65 -105 0
80 -107 0
95 -109 0
7 -7 0
126 -112 0
22 -114 0
37 -116 0
52 -118 0
67 -120 0
82 -122 0
97 -124 0
112 -126 0
8 -8 0
1 129 0
-129 130 0
10 -129 131 0
-131 132 0
12 -131 133 0
-133 134 0
14 -133 135 0
-135 136 0
16 -135 137 0
-137 138 0
18 -137 139 0
-139 140 0
20 -139 141 0
-141 142 0
22 -141 143 0
-143 144 0
24 -143 145 0
-145 146 0
2 -145 147 0
-147 148 0
27 -147 149 0
-149 150 0
29 -149 151 0
-151 152 0
31 -151 153 0
-153 154 0
33 -153 155 0
-155 156 0
35 -155 157 0
-157 158 0
37 -157 159 0
-159 160 0
39 -159 161 0
-161 162 0
41 -161 163 0
-163 164 0
3 -163 165 0
-165 166 0
44 -165 167 0
-167 168 0
46 -167 169 0
-169 170 0
48 -169 171 0
-171 172 0
50 -171 173 0
-173 174 0
52 -173 175 0
-175 176 0
54 -175 177 0
-177 178 0
56 -177 179 0
-179 180 0
58 -179 181 0
-181 182 0
4 -181 183 0
-183 184 0
61 -183 185 0
-185 186 0
63 -185 187 0
-187 188 0
65 -187 189 0
-189 190 0
67 -189 191 0
-191 192 0
69 -191 0
10 130 0
-130 193 0
12 -130 132 0
-132 194 0
14 -132 134 0
-134 195 0
16 -134 136 0
-136 196 0
18 -136 138 0
-138 197 0
20 -138 140 0
-140 198 0
22 -140 142 0
-142 199 0
24 -142 144 0
-144 200 0
2 -144 146 0
-146 201 0
27 -146 148 0
-148 202 0
29 -148 150 0
-150 203 0
31 -150 152 0
-152 204 0
33 -152 154 0
-154 205 0
35 -154 156 0
-156 206 0
37 -156 158 0
-158 207 0
39 -158 160 0
-160 208 0
41 -160 162 0
-162 209 0
3 -162 164 0
-164 210 0
44 -164 166 0
-166 211 0
46 -166 168 0
-168 212 0
48 -168 170 0
-170 213 0
50 -170 172 0
-172 214 0
52 -172 174 0
-174 215 0
54 -174 176 0
-176 216 0
56 -176 178 0
-178 217 0
58 -178 180 0
-180 218 0
4 -180 182 0
-182 219 0
61 -182 184 0
-184 220 0
63 -184 186 0
-186 221 0
65 -186 188 0
-188 222 0
67 -188 190 0
-190 223 0
69 -190 192 0
-192 224 0
71 -192 0
12 193 0
-193 225 0
14 -193 194 0
-194 226 0
16 -194 195 0
-195 227 0
18 -195 196 0
-196 228 0
20 -196 197 0
-197 229 0
22 -197 198 0
-198 230 0
24 -198 199 0
-199 231 0
2 -199 200 0
-200 232 0
27 -200 201 0
-201 233 0
29 -201 202 0
-202 234 0
31 -202 203 0
-203 235 0
33 -203 204 0
-204 236 0
35 -204 205 0
-205 237 0
37 -205 206 0
-206 238 0
39 -206 207 0
-207 239 0
41 -207 208 0
-208 240 0
3 -208 209 0
-209 241 0
44 -209 210 0
-210 242 0
46 -210 211 0
-211 243 0
48 -211 212 0
-212 244 0
50 -212 213 0
-213 245 0
52 -213 214 0
-214 246 0
54 -214 215 0
-215 247 0
56 -215 216 0
-216 248 0
58 -216 217 0
-217 249 0
4 -217 218 0
-218 250 0
61 -218 219 0
-219 251 0
63 -219 220 0
-220 252 0
65 -220 221 0
-221 253 0
67 -221 222 0
-222 254 0
69 -222 223 0
-223 255 0
71 -223 224 0
-224 256 0
73 -224 0
14 225 0
-225 257 0
16 -225 226 0
-226 258 0
18 -226 227 0
-227 259 0
20 -227 228 0
-228 260 0
22 -228 229 0
-229 261 0
24 -229 230 0
-230 262 0
2 -230 231 0
-231 263 0
27 -231 232 0
-232 264 0
29 -232 233 0
-233 265 0
31 -233 234 0
-234 266 0
33 -234 235 0
-235 267 0
35 -235 236 0
-236 268 0
37 -236 237 0
-237 269 0
39 -237 238 0
-238 270 0
41 -238 239 0
-239 271 0
3 -239 240 0
-240 272 0
44 -240 241 0
-241 273 0
46 -241 242 0
-242 274 0
48 -242 243 0
-243 275 0
50 -243 244 0
-244 276 0
52 -244 245 0
-245 277 0
54 -245 246 0
-246 278 0
56 -246 247 0
-247 279 0
58 -247 248 0
-248 280 0
4 -248 249 0
-249 281 0
61 -249 250 0
-250 282 0
63 -250 251 0
-251 283 0
65 -251 252 0
-252 284 0
67 -252 253 0
-253 285 0
69 -253 254 0
-254 286 0
71 -254 255 0
-255 287 0
73 -255 256 0
-256 288 0
75 -256 0
16 257 0
-257 289 0
18 -257 258 0
-258 290 0
20 -258 259 0
-259 291 0
22 -259 260 0
-260 292 0
24 -260 261 0
-261 293 0
2 -261 262 0
-262 294 0
27 -262 263 0
-263 295 0
29 -263 264 0
-264 296 0
31 -264 265 0
-265 297 0
33 -265 266 0
-266 298 0
35 -266 267 0
-267 299 0
37 -267 268 0
-268 300 0
39 -268 269 0
-269 301 0
41 -269 270 0
-270 302 0
3 -270 271 0
-271 303 0
44 -271 272 0
-272 304 0
46 -272 273 0
-273 305 0
48 -273 274 0
-274 306 0
50 -274 275 0
-275 307 0
52 -275 276 0
-276 308 0
54 -276 277 0
-277 309 0
56 -277 278 0
-278 310 0
58 -278 279 0
-279 311 0
4 -279 280 0
-280 312 0
61 -280 281 0
-281 313 0
63 -281 282 0
-282 314 0
65 -282 283 0
-283 315 0
67 -283 284 0
-284 316 0
69 -284 285 0
-285 317 0
71 -285 286 0
-286 318 0
73 -286 287 0
-287 319 0
75 -287 288 0
-288 320 0
5 -288 0
18 289 0
-289 321 0
20 -289 290 0
-290 322 0
22 -290 291 0
-291 323 0
24 -291 292 0
-292 324 0
2 -292 293 0
-293 325 0
27 -293 294 0
-294 326 0
29 -294 295 0
-295 327 0
31 -295 296 0
-296 328 0
33 -296 297 0
-297 329 0
35 -297 298 0
-298 330 0
37 -298 299 0
-299 331 0
39 -299 300 0
-300 332 0
41 -300 301 0
-301 333 0
3 -301 302 0
-302 334 0
44 -302 303 0
-303 335 0
46 -303 304 0
-304 336 0
48 -304 305 0
-305 337 0
50 -305 306 0
-306 338 0
52 -306 307 0
-307 339 0
54 -307 308 0
-308 340 0
56 -308 309 0
-309 341 0
58 -309 310 0
-310 342 0
4 -310 311 0
-311 343 0
61 -311 312 0
-312 344 0
63 -312 313 0
-313 345 0
65 -313 314 0
-314 346 0
67 -314 315 0
-315 347 0
69 -315 316 0
-316 348 0
71 -316 317 0
-317 349 0
73 -317 318 0
-318 350 0
75 -318 319 0
-319 351 0
5 -319 320 0
-320 352 0
78 -320 0
20 321 0
-321 353 0
22 -321 322 0
-322 354 0
24 -322 323 0
-323 355 0
2 -323 324 0
-324 356 0
27 -324 325 0
-325 357 0
29 -325 326 0
-326 358 0
31 -326 327 0
-327 359 0
33 -327 328 0
-328 360 0
35 -328 329 0
-329 361 0
37 -329 330 0
-330 362 0
39 -330 331 0
-331 363 0
41 -331 332 0
-332 364 0
3 -332 333 0
-333 365 0
44 -333 334 0
-334 366 0
46 -334 335 0
-335 367 0
48 -335 336 0
-336 368 0
50 -336 337 0
-337 369 0
52 -337 338 0
-338 370 0
54 -338 339 0
-339 371 0
56 -339 340 0
-340 372 0
58 -340 341 0
-341 373 0
4 -341 342 0
-342 374 0
61 -342 343 0
-343 375 0
63 -343 344 0
-344 376 0
65 -344 345 0
-345 377 0
67 -345 346 0
-346 378 0
69 -346 347 0
-347 379 0
71 -347 348 0
-348 380 0
73 -348 349 0
-349 381 0
75 -349 350 0
-350 382 0
5 -350 351 0
-351 383 0
78 -351 352 0
-352 384 0
80 -352 0
22 353 0
-353 385 0
24 -353 354 0
-354 386 0
2 -354 355 0
-355 387 0
27 -355 356 0
-356 388 0
29 -356 357 0
-357 389 0
31 -357 358 0
-358 390 0
33 -358 359 0
-359 391 0
35 -359 360 0
-360 392 0
37 -360 361 0
-361 393 0
39 -361 362 0
-362 394 0
41 -362 363 0
-363 395 0
3 -363 364 0
-364 396 0
44 -364 365 0
-365 397 0
46 -365 366 0
-366 398 0
48 -366 367 0
-367 399 0
50 -367 368 0
-368 400 0
52 -368 369 0
-369 401 0
54 -369 370 0
-370 402 0
56 -370 371 0
-371 403 0
58 -371 372 0
-372 404 0
4 -372 373 0
-373 405 0
61 -373 374 0
-374 406 0
63 -374 375 0
-375 407 0
65 -375 376 0
-376 408 0
67 -376 377 0
-377 409 0
69 -377 378 0
-378 410 0
71 -378 379 0
-379 411 0
73 -379 380 0
-380 412 0
75 -380 381 0
-381 413 0
5 -381 382 0
-382 414 0
78 -382 383 0
-383 415 0
80 -383 384 0
-384 416 0
82 -384 0
24 385 0
-385 417 0
2 -385 386 0
-386 418 0
27 -386 387 0
-387 419 0
29 -387 388 0
-388 420 0
31 -388 389 0
-389 421 0
33 -389 390 0
-390 422 0
35 -390 391 0
-391 423 0
37 -391 392 0
-392 424 0
39 -392 393 0
-393 425 0
41 -393 394 0
-394 426 0
3 -394 395 0
-395 427 0
44 -395 396 0
-396 428 0
46 -396 397 0
-397 429 0
48 -397 398 0
-398 430 0
50 -398 399 0
-399 431 0
52 -399 400 0
-400 432 0
54 -400 401 0
-401 433 0
56 -401 402 0
-402 434 0
58 -402 403 0
-403 435 0
4 -403 404 0
-404 436 0
61 -404 405 0
-405 437 0
63 -405 406 0
-406 438 0
65 -406 407 0
-407 439 0
67 -407 408 0
-408 440 0
69 -408 409 0
-409 441 0
71 -409 410 0
-410 442 0
73 -410 411 0
-411 443 0
75 -411 412 0
-412 444 0
5 -412 413 0
-413 445 0
78 -413 414 0
-414 446 0
80 -414 415 0
-415 447 0
82 -415 416 0
-416 448 0
84 -416 0
2 417 0
-417 449 0
27 -417 418 0
-418 450 0
29 -418 419 0
-419 451 0
31 -419 420 0
-420 452 0
33 -420 421 0
-421 453 0
35 -421 422 0
-422 454 0
37 -422 423 0
-423 455 0
39 -423 424 0
-424 456 0
41 -424 425 0
-425 457 0
3 -425 426 0
-426 458 0
44 -426 427 0
-427 459 0
46 -427 428 0
-428 460 0
48 -428 429 0
-429 461 0
50 -429 430 0
-430 462 0
52 -430 431 0
-431 463 0
54 -431 432 0
-432 464 0
56 -432 433 0
-433 465 0
58 -433 434 0
-434 466 0
4 -434 435 0
-435 467 0
61 -435 436 0
-436 468 0
63 -436 437 0
-437 469 0
65 -437 438 0
-438 470 0
67 -438 439 0
-439 471 0
69 -439 440 0
-440 472 0
71 -440 441 0
-441 473 0
73 -441 442 0
-442 474 0
75 -442 443 0
-443 475 0
5 -443 444 0
-444 476 0
78 -444 445 0
-445 477 0
80 -445 446 0
-446 478 0
82 -446 447 0
-447 479 0
84 -447 448 0
-448 480 0
86 -448 0
27 449 0
-449 481 0
29 -449 450 0
-450 482 0
31 -450 451 0
-451 483 0
33 -451 452 0
-452 484 0
35 -452 453 0
-453 485 0
37 -453 454 0
-454 486 0
39 -454 455 0
-455 487 0
41 -455 456 0
-456 488 0
3 -456 457 0
-457 489 0
44 -457 458 0
-458 490 0
46 -458 459 0
-459 491 0
48 -459 460 0
-460 492 0
50 -460 461 0
-461 493 0
52 -461 462 0
-462 494 0
54 -462 463 0
-463 495 0
56 -463 464 0
-464 496 0
58 -464 465 0
-465 497 0
4 -465 466 0
-466 498 0
61 -466 467 0
-467 499 0
63 -467 468 0
-468 500 0
65 -468 469 0
-469 501 0
67 -469 470 0
-470 502 0
69 -470 471 0
-471 503 0
71 -471 472 0
-472 504 0
73 -472 473 0
-473 505 0
75 -473 474 0
-474 506 0
5 -474 475 0
-475 507 0
78 -475 476 0
-476 508 0
80 -476 477 0
-477 509 0
82 -477 478 0
-478 510 0
84 -478 479 0
-479 511 0
86 -479 480 0
-480 512 0
88 -480 0
29 481 0
-481 513 0
31 -481 482 0
-482 514 0
33 -482 483 0
-483 515 0
35 -483 484 0
-484 516 0
37 -484 485 0
-485 517 0
39 -485 486 0
-486 518 0
41 -486 487 0
-487 519 0
3 -487 488 0
-488 520 0
44 -488 489 0
-489 521 0
46 -489 490 0
-490 522 0
48 -490 491 0
-491 523 0
50 -491 492 0
-492 524 0
52 -492 493 0
-493 525 0
54 -493 494 0
-494 526 0
56 -494 495 0
-495 527 0
58 -495 496 0
-496 528 0
4 -496 497 0
-497 529 0
61 -497 498 0
-498 530 0
63 -498 499 0
-499 531 0
65 -499 500 0
-500 532 0
67 -500 501 0
-501 533 0
69 -501 502 0
-502 534 0
71 -502 503 0
-503 535 0
73 -503 504 0
-504 536 0
75 -504 505 0
-505 537 0
5 -505 506 0
-506 538 0
78 -506 507 0
-507 539 0
80 -507 508 0
-508 540 0
82 -508 509 0
-509 541 0
84 -509 510 0
-510 542 0
86 -510 511 0
-511 543 0
88 -511 512 0
-512 544 0
90 -512 0
31 513 0
-513 545 0
33 -513 514 0
-514 546 0
35 -514 515 0
-515 547 0
37 -515 516 0
-516 548 0
39 -516 517 0
-517 549 0
41 -517 518 0
-518 550 0
3 -518 519 0
-519 551 0
44 -519 520 0
-520 552 0
46 -520 521 0
-521 553 0
48 -521 522 0
-522 554 0
50 -522 523 0
-523 555 0
52 -523 524 0
-524 556 0
54 -524 525 0
-525 557 0
56 -525 526 0
-526 558 0
58 -526 527 0
-527 559 0
4 -527 528 0
-528 560 0
61 -528 529 0
-529 561 0
63 -529 530 0
-530 562 0
65 -530 531 0
-531 563 0
67 -531 532 0
-532 564 0
69 -532 533 0
-533 565 0
71 -533 534 0
-534 566 0
73 -534 535 0
-535 567 0
75 -535 536 0
-536 568 0
5 -536 537 0
-537 569 0
78 -537 538 0
-538 570 0
80 -538 539 0
-539 571 0
82 -539 540 0
-540 572 0
84 -540 541 0
-541 573 0
86 -541 542 0
-542 574 0
88 -542 543 0
-543 575 0
90 -543 544 0
-544 576 0
92 -544 0
33 545 0
-545 577 0
35 -545 546 0
-546 578 0
37 -546 547 0
-547 579 0
39 -547 548 0
-548 580 0
41 -548 549 0
-549 581 0
3 -549 550 0
-550 582 0
44 -550 551 0
-551 583 0
46 -551 552 0
-552 584 0
48 -552 553 0
-553 585 0
50 -553 554 0
-554 586 0
52 -554 555 0
-555 587 0
54 -555 556 0
-556 588 0
56 -556 557 0
-557 589 0
58 -557 558 0
-558 590 0
4 -558 559 0
-559 591 0
61 -559 560 0
-560 592 0
63 -560 561 0
-561 593 0
65 -561 562 0
-562 594 0
67 -562 563 0
-563 595 0
69 -563 564 0
-564 596 0
71 -564 565 0
-565 597 0
73 -565 566 0
-566 598 0
75 -566 567 0
-567 599 0
5 -567 568 0
-568 600 0
78 -568 569 0
-569 601 0
80 -569 570 0
-570 602 0
82 -570 571 0
-571 603 0
84 -571 572 0
-572 604 0
86 -572 573 0
-573 605 0
88 -573 574 0
-574 606 0
90 -574 575 0
-575 607 0
92 -575 576 0
-576 608 0
6 -576 0
35 577 0
-577 609 0
37 -577 578 0
-578 610 0
39 -578 579 0
-579 611 0
41 -579 580 0
-580 612 0
3 -580 581 0
-581 613 0
44 -581 582 0
-582 614 0
46 -582 583 0
-583 615 0
48 -583 584 0
-584 616 0
50 -584 585 0
-585 617 0
52 -585 586 0
-586 618 0
54 -586 587 0
-587 619 0
56 -587 588 0
-588 620 0
58 -588 589 0
-589 621 0
4 -589 590 0
-590 622 0
61 -590 591 0
-591 623 0
63 -591 592 0
-592 624 0
65 -592 593 0
-593 625 0
67 -593 594 0
-594 626 0
69 -594 595 0
-595 627 0
71 -595 596 0
-596 628 0
73 -596 597 0
-597 629 0
75 -597 598 0
-598 630 0
5 -598 599 0
-599 631 0
78 -599 600 0
-600 632 0
80 -600 601 0
-601 633 0
82 -601 602 0
-602 634 0
84 -602 603 0
-603 635 0
86 -603 604 0
-604 636 0
88 -604 605 0
-605 637 0
90 -605 606 0
-606 638 0
92 -606 607 0
-607 639 0
6 -607 608 0
-608 640 0
95 -608 0
37 609 0
-609 641 0
39 -609 610 0
-610 642 0
41 -610 611 0
-611 643 0
3 -611 612 0
-612 644 0
44 -612 613 0
-613 645 0
46 -613 614 0
-614 646 0
48 -614 615 0
-615 647 0
50 -615 616 0
-616 648 0
52 -616 617 0
-617 649 0
54 -617 618 0
-618 650 0
56 -618 619 0
-619 651 0
58 -619 620 0
-620 652 0
4 -620 621 0
-621 653 0
61 -621 622 0
-622 654 0
63 -622 623 0
-623 655 0
65 -623 624 0
-624 656 0
67 -624 625 0
-625 657 0
69 -625 626 0
-626 658 0
71 -626 627 0
-627 659 0
73 -627 628 0
-628 660 0
75 -628 629 0
-629 661 0
5 -629 630 0
-630 662 0
78 -630 631 0
-631 663 0
80 -631 632 0
-632 664 0
82 -632 633 0
-633 665 0
84 -633 634 0
-634 666 0
86 -634 635 0
-635 667 0
88 -635 636 0
-636 668 0
90 -636 637 0
-637 669 0
92 -637 638 0
-638 670 0
6 -638 639 0
-639 671 0
95 -639 640 0
-640 672 0
97 -640 0
39 641 0
-641 673 0
41 -641 642 0
-642 674 0
3 -642 643 0
-643 675 0
44 -643 644 0
-644 676 0
46 -644 645 0
-645 677 0
48 -645 646 0
-646 678 0
50 -646 647 0
-647 679 0
52 -647 648 0
-648 680 0
54 -648 649 0
-649 681 0
56 -649 650 0
-650 682 0
58 -650 651 0
-651 683 0
4 -651 652 0
-652 684 0
61 -652 653 0
-653 685 0
63 -653 654 0
-654 686 0
65 -654 655 0
-655 687 0
67 -655 656 0
-656 688 0
69 -656 657 0
-657 689 0
71 -657 658 0
-658 690 0
73 -658 659 0
-659 691 0
75 -659 660 0
-660 692 0
5 -660 661 0
-661 693 0
78 -661 662 0
-662 694 0
80 -662 663 0
-663 695 0
82 -663 664 0
-664 696 0
84 -664 665 0
-665 697 0
86 -665 666 0
-666 698 0
88 -666 667 0
-667 699 0
90 -667 668 0
-668 700 0
92 -668 669 0
-669 701 0
6 -669 670 0
-670 702 0
95 -670 671 0
-671 703 0
97 -671 672 0
-672 704 0
99 -672 0
41 673 0
-673 705 0
3 -673 674 0
-674 706 0
44 -674 675 0
-675 707 0
46 -675 676 0
-676 708 0
48 -676 677 0
-677 709 0
50 -677 678 0
-678 710 0
52 -678 679 0
-679 711 0
54 -679 680 0
-680 712 0
56 -680 681 0
-681 713 0
58 -681 682 0
-682 714 0
4 -682 683 0
-683 715 0
61 -683 684 0
-684 716 0
63 -684 685 0
-685 717 0
65 -685 686 0
-686 718 0
67 -686 687 0
-687 719 0
69 -687 688 0
-688 720 0
71 -688 689 0
-689 721 0
73 -689 690 0
-690 722 0
75 -690 691 0
-691 723 0
5 -691 692 0
-692 724 0
78 -692 693 0
-693 725 0
80 -693 694 0
-694 726 0
82 -694 695 0
-695 727 0
84 -695 696 0
-696 728 0
86 -696 697 0
-697 729 0
88 -697 698 0
-698 730 0
90 -698 699 0
-699 731 0
92 -699 700 0
-700 732 0
6 -700 701 0
-701 733 0
95 -701 702 0
-702 734 0
97 -702 703 0
-703 735 0
99 -703 704 0
-704 736 0
101 -704 0
3 705 0
-705 737 0
44 -705 706 0
-706 738 0
46 -706 707 0
-707 739 0
48 -707 708 0
-708 740 0
50 -708 709 0
-709 741 0
52 -709 710 0
-710 742 0
54 -710 711 0
-711 743 0
56 -711 712 0
-712 744 0
58 -712 713 0
-713 745 0
4 -713 714 0
-714 746 0
61 -714 715 0
-715 747 0
63 -715 716 0
-716 748 0
65 -716 717 0
-717 749 0
67 -717 718 0
-718 750 0
69 -718 719 0
-719 751 0
71 -719 720 0
-720 752 0
73 -720 721 0
-721 753 0
75 -721 722 0
-722 754 0
5 -722 723 0
-723 755 0
78 -723 724 0
-724 756 0
80 -724 725 0
-725 757 0
82 -725 726 0
-726 758 0
84 -726 727 0
-727 759 0
86 -727 728 0
-728 760 0
88 -728 729 0
-729 761 0
90 -729 730 0
-730 762 0
92 -730 731 0
-731 763 0
6 -731 732 0
-732 764 0
95 -732 733 0
-733 765 0
97 -733 734 0
-734 766 0
99 -734 735 0
-735 767 0
101 -735 736 0
-736 768 0
103 -736 0
44 737 0
-737 769 0
46 -737 738 0
-738 770 0
48 -738 739 0
-739 771 0
50 -739 740 0
-740 772 0
52 -740 741 0
-741 773 0
54 -741 742 0
-742 774 0
56 -742 743 0
-743 775 0
58 -743 744 0
-744 776 0
4 -744 745 0
-745 777 0
61 -745 746 0
-746 778 0
63 -746 747 0
-747 779 0
65 -747 748 0
-748 780 0
67 -748 749 0
-749 781 0
69 -749 750 0
-750 782 0
71 -750 751 0
-751 783 0
73 -751 752 0
-752 784 0
75 -752 753 0
-753 785 0
5 -753 754 0
-754 786 0
78 -754 755 0
-755 787 0
80 -755 756 0
-756 788 0
82 -756 757 0
-757 789 0
84 -757 758 0
-758 790 0
86 -758 759 0
-759 791 0
88 -759 760 0
-760 792 0
90 -760 761 0
-761 793 0
92 -761 762 0
-762 794 0
6 -762 763 0
-763 795 0
95 -763 764 0
-764 796 0
97 -764 765 0
-765 797 0
99 -765 766 0
-766 798 0
101 -766 767 0
-767 799 0
103 -767 768 0
-768 800 0
105 -768 0
46 769 0
-769 801 0
48 -769 770 0
-770 802 0
50 -770 771 0
-771 803 0
52 -771 772 0
-772 804 0
54 -772 773 0
-773 805 0
56 -773 774 0
-774 806 0
58 -774 775 0
-775 807 0
4 -775 776 0
-776 808 0
61 -776 777 0
-777 809 0
63 -777 778 0
-778 810 0
65 -778 779 0
-779 811 0
67 -779 780 0
-780 812 0
69 -780 781 0
-781 813 0
71 -781 782 0
-782 814 0
73 -782 783 0
-783 815 0
75 -783 784 0
-784 816 0
5 -784 785 0
-785 817 0
78 -785 786 0
-786 818 0
80 -786 787 0
-787 819 0
82 -787 788 0
-788 820 0
84 -788 789 0
-789 821 0
86 -789 790 0
-790 822 0
88 -790 791 0
-791 823 0
90 -791 792 0
-792 824 0
92 -792 793 0
-793 825 0
6 -793 794 0
-794 826 0
95 -794 795 0
-795 827 0
97 -795 796 0
-796 828 0
99 -796 797 0
-797 829 0
101 -797 798 0
-798 830 0
103 -798 799 0
-799 831 0
105 -799 800 0
-800 832 0
107 -800 0
48 801 0
-801 833 0
50 -801 802 0
-802 834 0
52 -802 803 0
-803 835 0
54 -803 804 0
-804 836 0
56 -804 805 0
-805 837 0
58 -805 806 0
-806 838 0
4 -806 807 0
-807 839 0
61 -807 808 0
-808 840 0
63 -808 809 0
-809 841 0
65 -809 810 0
-810 842 0
67 -810 811 0
-811 843 0
69 -811 812 0
-812 844 0
71 -812 813 0
-813 845 0
73 -813 814 0
-814 846 0
75 -814 815 0
-815 847 0
5 -815 816 0
-816 848 0
78 -816 817 0
-817 849 0
80 -817 818 0
-818 850 0
82 -818 819 0
-819 851 0
84 -819 820 0
-820 852 0
86 -820 821 0
-821 853 0
88 -821 822 0
-822 854 0
90 -822 823 0
-823 855 0
92 -823 824 0
-824 856 0
6 -824 825 0
-825 857 0
95 -825 826 0
-826 858 0
97 -826 827 0
-827 859 0
99 -827 828 0
-828 860 0
101 -828 829 0
-829 861 0
103 -829 830 0
-830 862 0
105 -830 831 0
-831 863 0
107 -831 832 0
-832 864 0
109 -832 0
50 833 0
-833 865 0
52 -833 834 0
-834 866 0
54 -834 835 0
-835 867 0
56 -835 836 0
-836 868 0
58 -836 837 0
-837 869 0
4 -837 838 0
-838 870 0
61 -838 839 0
-839 871 0
63 -839 840 0
-840 872 0
65 -840 841 0
-841 873 0
67 -841 842 0
-842 874 0
69 -842 843 0
-843 875 0
71 -843 844 0
-844 876 0
73 -844 845 0
-845 877 0
75 -845 846 0
-846 878 0
5 -846 847 0
-847 879 0
78 -847 848 0
-848 880 0
80 -848 849 0
-849 881 0
82 -849 850 0
-850 882 0
84 -850 851 0
-851 883 0
86 -851 852 0
-852 884 0
88 -852 853 0
-853 885 0
90 -853 854 0
-854 886 0
92 -854 855 0
-855 887 0
6 -855 856 0
-856 888 0
95 -856 857 0
-857 889 0
97 -857 858 0
-858 890 0
99 -858 859 0
-859 891 0
101 -859 860 0
-860 892 0
103 -860 861 0
-861 893 0
105 -861 862 0
-862 894 0
107 -862 863 0
-863 895 0
109 -863 864 0
-864 896 0
7 -864 0
52 865 0
-865 897 0
54 -865 866 0
-866 898 0
56 -866 867 0
-867 899 0
58 -867 868 0
-868 900 0
4 -868 869 0
-869 901 0
61 -869 870 0
-870 902 0
63 -870 871 0
-871 903 0
65 -871 872 0
-872 904 0
67 -872 873 0
-873 905 0
69 -873 874 0
-874 906 0
71 -874 875 0
-875 907 0
73 -875 876 0
-876 908 0
75 -876 877 0
-877 909 0
5 -877 878 0
-878 910 0
78 -878 879 0
-879 911 0
80 -879 880 0
-880 912 0
82 -880 881 0
-881 913 0
84 -881 882 0
-882 914 0
86 -882 883 0
-883 915 0
88 -883 884 0
-884 916 0
90 -884 885 0
-885 917 0
92 -885 886 0
-886 918 0
6 -886 887 0
-887 919 0
95 -887 888 0
-888 920 0
97 -888 889 0
-889 921 0
99 -889 890 0
-890 922 0
101 -890 891 0
-891 923 0
103 -891 892 0
-892 924 0
105 -892 893 0
-893 925 0
107 -893 894 0
-894 926 0
109 -894 895 0
-895 927 0
7 -895 896 0
-896 928 0
112 -896 0
54 897 0
-897 929 0
56 -897 898 0
-898 930 0
58 -898 899 0
-899 931 0
4 -899 900 0
-900 932 0
61 -900 901 0
-901 933 0
63 -901 902 0
-902 934 0
65 -902 903 0
-903 935 0
67 -903 904 0
-904 936 0
69 -904 905 0
-905 937 0
71 -905 906 0
-906 938 0
73 -906 907 0
-907 939 0
75 -907 908 0
-908 940 0
5 -908 909 0
-909 941 0
78 -909 910 0
-910 942 0
80 -910 911 0
-911 943 0
82 -911 912 0
-912 944 0
84 -912 913 0
-913 945 0
86 -913 914 0
-914 946 0
88 -914 915 0
-915 947 0
90 -915 916 0
-916 948 0
92 -916 917 0
-917 949 0
6 -917 918 0
-918 950 0
95 -918 919 0
-919 951 0
97 -919 920 0
-920 952 0
99 -920 921 0
-921 953 0
101 -921 922 0
-922 954 0
103 -922 923 0
-923 955 0
105 -923 924 0
-924 956 0
107 -924 925 0
-925 957 0
109 -925 926 0
-926 958 0
7 -926 927 0
-927 959 0
112 -927 928 0
-928 960 0
114 -928 0
56 929 0
-929 961 0
58 -929 930 0
-930 962 0
4 -930 931 0
-931 963 0
61 -931 932 0
-932 964 0
63 -932 933 0
-933 965 0
65 -933 934 0
-934 966 0
67 -934 935 0
-935 967 0
69 -935 936 0
-936 968 0
71 -936 937 0
-937 969 0
73 -937 938 0
-938 970 0
75 -938 939 0
-939 971 0
5 -939 940 0
-940 972 0
78 -940 941 0
-941 973 0
80 -941 942 0
-942 974 0
82 -942 943 0
-943 975 0
84 -943 944 0
-944 976 0
86 -944 945 0
-945 977 0
88 -945 946 0
-946 978 0
90 -946 947 0
-947 979 0
92 -947 948 0
-948 980 0
6 -948 949 0
-949 981 0
95 -949 950 0
-950 982 0
97 -950 951 0
-951 983 0
99 -951 952 0
-952 984 0
101 -952 953 0
-953 985 0
103 -953 954 0
-954 986 0
105 -954 955 0
-955 987 0
107 -955 956 0
-956 988 0
109 -956 957 0
-957 989 0
7 -957 958 0
-958 990 0
112 -958 959 0
-959 991 0
114 -959 960 0
-960 992 0
116 -960 0
58 961 0
-961 993 0
4 -961 962 0
-962 994 0
61 -962 963 0
-963 995 0
63 -963 964 0
-964 996 0
65 -964 965 0
-965 997 0
67 -965 966 0
-966 998 0
69 -966 967 0
-967 999 0
71 -967 968 0
-968 1000 0
73 -968 969 0
-969 1001 0
75 -969 970 0
-970 1002 0
5 -970 971 0
-971 1003 0
78 -971 972 0
-972 1004 0
80 -972 973 0
-973 1005 0
82 -973 974 0
-974 1006 0
84 -974 975 0
-975 1007 0
86 -975 976 0
-976 1008 0
88 -976 977 0
-977 1009 0
90 -977 978 0
-978 1010 0
92 -978 979 0
-979 1011 0
6 -979 980 0
-980 1012 0
95 -980 981 0
-981 1013 0
97 -981 982 0
-982 1014 0
99 -982 983 0
-983 1015 0
101 -983 984 0
-984 1016 0
103 -984 985 0
-985 1017 0
105 -985 986 0
-986 1018 0
107 -986 987 0
-987 1019 0
109 -987 988 0
-988 1020 0
7 -988 989 0
-989 1021 0
112 -989 990 0
-990 1022 0
114 -990 991 0
-991 1023 0
116 -991 992 0
-992 1024 0
118 -992 0
4 993 0
-993 1025 0
61 -993 994 0
-994 1026 0
63 -994 995 0
-995 1027 0
65 -995 996 0
-996 1028 0
67 -996 997 0
-997 1029 0
69 -997 998 0
-998 1030 0
71 -998 999 0
-999 1031 0
73 -999 1000 0
-1000 1032 0
75 -1000 1001 0
-1001 1033 0
5 -1001 1002 0
-1002 1034 0
78 -1002 1003 0
-1003 1035 0
80 -1003 1004 0
-1004 1036 0
82 -1004 1005 0
-1005 1037 0
84 -1005 1006 0
-1006 1038 0
86 -1006 1007 0
-1007 1039 0
88 -1007 1008 0
-1008 1040 0
90 -1008 1009 0
-1009 1041 0
92 -1009 1010 0
-1010 1042 0
6 -1010 1011 0
-1011 1043 0
95 -1011 1012 0
-1012 1044 0
97 -1012 1013 0
-1013 1045 0
99 -1013 1014 0
-1014 1046 0
101 -1014 1015 0
-1015 1047 0
103 -1015 1016 0
-1016 1048 0
105 -1016 1017 0
-1017 1049 0
107 -1017 1018 0
-1018 1050 0
109 -1018 1019 0
-1019 1051 0
7 -1019 1020 0
-1020 1052 0
112 -1020 1021 0
-1021 1053 0
114 -1021 1022 0
-1022 1054 0
116 -1022 1023 0
-1023 1055 0
118 -1023 1024 0
-1024 1056 0
120 -1024 0
61 1025 0
-1025 1057 0
63 -1025 1026 0
-1026 1058 0
65 -1026 1027 0
-1027 1059 0
67 -1027 1028 0
-1028 1060 0
69 -1028 1029 0
-1029 1061 0
71 -1029 1030 0
-1030 1062 0
73 -1030 1031 0
-1031 1063 0
75 -1031 1032 0
-1032 1064 0
5 -1032 1033 0
-1033 1065 0
78 -1033 1034 0
-1034 1066 0
80 -1034 1035 0
-1035 1067 0
82 -1035 1036 0
-1036 1068 0
84 -1036 1037 0
-1037 1069 0
86 -1037 1038 0
-1038 1070 0
88 -1038 1039 0
-1039 1071 0
90 -1039 1040 0
-1040 1072 0
92 -1040 1041 0
-1041 1073 0
6 -1041 1042 0
-1042 1074 0
95 -1042 1043 0
-1043 1075 0
97 -1043 1044 0
-1044 1076 0
99 -1044 1045 0
-1045 1077 0
101 -1045 1046 0
-1046 1078 0
103 -1046 1047 0
-1047 1079 0
105 -1047 1048 0
-1048 1080 0
107 -1048 1049 0
-1049 1081 0
109 -1049 1050 0
-1050 1082 0
7 -1050 1051 0
-1051 1083 0
112 -1051 1052 0
-1052 1084 0
114 -1052 1053 0
-1053 1085 0
116 -1053 1054 0
-1054 1086 0
118 -1054 1055 0
-1055 1087 0
120 -1055 1056 0
-1056 1088 0
122 -1056 0
63 1057 0
-1057 1089 0
65 -1057 1058 0
-1058 1090 0
67 -1058 1059 0
-1059 1091 0
69 -1059 1060 0
-1060 1092 0
71 -1060 1061 0
-1061 1093 0
73 -1061 1062 0
-1062 1094 0
75 -1062 1063 0
-1063 1095 0
5 -1063 1064 0
-1064 1096 0
78 -1064 1065 0
-1065 1097 0
80 -1065 1066 0
-1066 1098 0
82 -1066 1067 0
-1067 1099 0
84 -1067 1068 0
-1068 1100 0
86 -1068 1069 0
-1069 1101 0
88 -1069 1070 0
-1070 1102 0
90 -1070 1071 0
-1071 1103 0
92 -1071 1072 0
-1072 1104 0
6 -1072 1073 0
-1073 1105 0
95 -1073 1074 0
-1074 1106 0
97 -1074 1075 0
-1075 1107 0
99 -1075 1076 0
-1076 1108 0
101 -1076 1077 0
-1077 1109 0
103 -1077 1078 0
-1078 1110 0
105 -1078 1079 0
-1079 1111 0
107 -1079 1080 0
-1080 1112 0
109 -1080 1081 0
-1081 1113 0
7 -1081 1082 0
-1082 1114 0
112 -1082 1083 0
-1083 1115 0
114 -1083 1084 0
-1084 1116 0
116 -1084 1085 0
-1085 1117 0
118 -1085 1086 0
-1086 1118 0
120 -1086 1087 0
-1087 1119 0
122 -1087 1088 0
-1088 1120 0
124 -1088 0
65 1089 0
-1089 1121 0
67 -1089 1090 0
-1090 1122 0
69 -1090 1091 0
-1091 1123 0
71 -1091 1092 0
-1092 1124 0
73 -1092 1093 0
-1093 1125 0
75 -1093 1094 0
-1094 1126 0
5 -1094 1095 0
-1095 1127 0
78 -1095 1096 0
-1096 1128 0
80 -1096 1097 0
-1097 1129 0
82 -1097 1098 0
-1098 1130 0
84 -1098 1099 0
-1099 1131 0
86 -1099 1100 0
-1100 1132 0
88 -1100 1101 0
-1101 1133 0
90 -1101 1102 0
-1102 1134 0
92 -1102 1103 0
-1103 1135 0
6 -1103 1104 0
-1104 1136 0
95 -1104 1105 0
-1105 1137 0
97 -1105 1106 0
-1106 1138 0
99 -1106 1107 0
-1107 1139 0
101 -1107 1108 0
-1108 1140 0
103 -1108 1109 0
-1109 1141 0
105 -1109 1110 0
-1110 1142 0
107 -1110 1111 0
-1111 1143 0
109 -1111 1112 0
-1112 1144 0
7 -1112 1113 0
-1113 1145 0
112 -1113 1114 0
-1114 1146 0
114 -1114 1115 0
-1115 1147 0
116 -1115 1116 0
-1116 1148 0
118 -1116 1117 0
-1117 1149 0
120 -1117 1118 0
-1118 1150 0
122 -1118 1119 0
-1119 1151 0
124 -1119 1120 0
-1120 1152 0
126 -1120 0
67 1121 0
69 -1121 1122 0
71 -1122 1123 0
73 -1123 1124 0
75 -1124 1125 0
5 -1125 1126 0
78 -1126 1127 0
80 -1127 1128 0
82 -1128 1129 0
84 -1129 1130 0
86 -1130 1131 0
88 -1131 1132 0
90 -1132 1133 0
92 -1133 1134 0
6 -1134 1135 0
95 -1135 1136 0
97 -1136 1137 0
99 -1137 1138 0
101 -1138 1139 0
103 -1139 1140 0
105 -1140 1141 0
107 -1141 1142 0
109 -1142 1143 0
7 -1143 1144 0
112 -1144 1145 0
114 -1145 1146 0
116 -1146 1147 0
118 -1147 1148 0
120 -1148 1149 0
122 -1149 1150 0
124 -1150 1151 0
126 -1151 1152 0
8 -1152 0
-1 1153 0
-1153 1154 0
-10 -1153 1155 0
-1155 1156 0
-12 -1155 1157 0
-1157 1158 0
-14 -1157 1159 0
-1159 1160 0
-16 -1159 1161 0
-1161 1162 0
-18 -1161 1163 0
-1163 1164 0
-20 -1163 1165 0
-1165 1166 0
-22 -1165 1167 0
-1167 1168 0
-24 -1167 1169 0
-1169 1170 0
-2 -1169 1171 0
-1171 1172 0
-27 -1171 1173 0
-1173 1174 0
-29 -1173 1175 0
-1175 1176 0
-31 -1175 1177 0
-1177 1178 0
-33 -1177 1179 0
-1179 1180 0
-35 -1179 1181 0
-1181 1182 0
-37 -1181 1183 0
-1183 1184 0
-39 -1183 1185 0
-1185 1186 0
-41 -1185 1187 0
-1187 1188 0
-3 -1187 1189 0
-1189 1190 0
-44 -1189 1191 0
-1191 1192 0
-46 -1191 1193 0
-1193 1194 0
-48 -1193 1195 0
-1195 1196 0
-50 -1195 1197 0
-1197 1198 0
-52 -1197 1199 0
-1199 1200 0
-54 -1199 1201 0
-1201 1202 0
-56 -1201 1203 0
-1203 1204 0
-58 -1203 1205 0
-1205 1206 0
-4 -1205 1207 0
-1207 1208 0
-61 -1207 1209 0
-1209 1210 0
-63 -1209 1211 0
-1211 1212 0
-65 -1211 1213 0
-1213 1214 0
-67 -1213 1215 0
-1215 1216 0
-69 -1215 0
-10 1154 0
-1154 1217 0
-12 -1154 1156 0
-1156 1218 0
-14 -1156 1158 0
-1158 1219 0
-16 -1158 1160 0
-1160 1220 0
-18 -1160 1162 0
-1162 1221 0
-20 -1162 1164 0
-1164 1222 0
-22 -1164 1166 0
-1166 1223 0
-24 -1166 1168 0
-1168 1224 0
-2 -1168 1170 0
-1170 1225 0
-27 -1170 1172 0
-1172 1226 0
-29 -1172 1174 0
-1174 1227 0
-31 -1174 1176 0
-1176 1228 0
-33 -1176 1178 0
-1178 1229 0
-35 -1178 1180 0
-1180 1230 0
-37 -1180 1182 0
-1182 1231 0
-39 -1182 1184 0
-1184 1232 0
-41 -1184 1186 0
-1186 1233 0
-3 -1186 1188 0
-1188 1234 0
-44 -1188 1190 0
-1190 1235 0
-46 -1190 1192 0
-1192 1236 0
-48 -1192 1194 0
-1194 1237 0
-50 -1194 1196 0
-1196 1238 0
-52 -1196 1198 0
-1198 1239 0
-54 -1198 1200 0
-1200 1240 0
-56 -1200 1202 0
-1202 1241 0
-58 -1202 1204 0
-1204 1242 0
-4 -1204 1206 0
-1206 1243 0
-61 -1206 1208 0
-1208 1244 0
-63 -1208 1210 0
-1210 1245 0
-65 -1210 1212 0
-1212 1246 0
-67 -1212 1214 0
-1214 1247 0
-69 -1214 1216 0
-1216 1248 0
-71 -1216 0
-12 1217 0
-1217 1249 0
-14 -1217 1218 0
-1218 1250 0
-16 -1218 1219 0
-1219 1251 0
-18 -1219 1220 0
-1220 1252 0
-20 -1220 1221 0
-1221 1253 0
-22 -1221 1222 0
-1222 1254 0
-24 -1222 1223 0
-1223 1255 0
-2 -1223 1224 0
-1224 1256 0
-27 -1224 1225 0
-1225 1257 0
-29 -1225 1226 0
-1226 1258 0
-31 -1226 1227 0
-1227 1259 0
-33 -1227 1228 0
-1228 1260 0
-35 -1228 1229 0
-1229 1261 0
-37 -1229 1230 0
-1230 1262 0
-39 -1230 1231 0
-1231 1263 0
-41 -1231 1232 0
-1232 1264 0
-3 -1232 1233 0
-1233 1265 0
-44 -1233 1234 0
-1234 1266 0
-46 -1234 1235 0
-1235 1267 0
-48 -1235 1236 0
-1236 1268 0
-50 -1236 1237 0
-1237 1269 0
-52 -1237 1238 0
-1238 1270 0
-54 -1238 1239 0
-1239 1271 0
-56 -1239 1240 0
-1240 1272 0
-58 -1240 1241 0
-1241 1273 0
-4 -1241 1242 0
-1242 1274 0
-61 -1242 1243 0
-1243 1275 0
-63 -1243 1244 0
-1244 1276 0
-65 -1244 1245 0
-1245 1277 0
-67 -1245 1246 0
-1246 1278 0
-69 -1246 1247 0
-1247 1279 0
-71 -1247 1248 0
-1248 1280 0
-73 -1248 0
-14 1249 0
-1249 1281 0
-16 -1249 1250 0
-1250 1282 0
-18 -1250 1251 0
-1251 1283 0
-20 -1251 1252 0
-1252 1284 0
-22 -1252 1253 0
-1253 1285 0
-24 -1253 1254 0
-1254 1286 0
-2 -1254 1255 0
-1255 1287 0
-27 -1255 1256 0
-1256 1288 0
-29 -1256 1257 0
-1257 1289 0
-31 -1257 1258 0
-1258 1290 0
-33 -1258 1259 0
-1259 1291 0
-35 -1259 1260 0
-1260 1292 0
-37 -1260 1261 0
-1261 1293 0
-39 -1261 1262 0
-1262 1294 0
-41 -1262 1263 0
-1263 1295 0
-3 -1263 1264 0
-1264 1296 0
-44 -1264 1265 0
-1265 1297 0
-46 -1265 1266 0
-1266 1298 0
-48 -1266 1267 0
-1267 1299 0
-50 -1267 1268 0
-1268 1300 0
-52 -1268 1269 0
-1269 1301 0
-54 -1269 1270 0
-1270 1302 0
-56 -1270 1271 0
-1271 1303 0
-58 -1271 1272 0
-1272 1304 0
-4 -1272 1273 0
-1273 1305 0
-61 -1273 1274 0
-1274 1306 0
-63 -1274 1275 0
-1275 1307 0
-65 -1275 1276 0
-1276 1308 0
-67 -1276 1277 0
-1277 1309 0
-69 -1277 1278 0
-1278 1310 0
-71 -1278 1279 0
-1279 1311 0
-73 -1279 1280 0
-1280 1312 0
-75 -1280 0
-16 1281 0
-1281 1313 0
-18 -1281 1282 0
-1282 1314 0
-20 -1282 1283 0
-1283 1315 0
-22 -1283 1284 0
-1284 1316 0
-24 -1284 1285 0
-1285 1317 0
-2 -1285 1286 0
-1286 1318 0
-27 -1286 1287 0
-1287 1319 0
-29 -1287 1288 0
-1288 1320 0
-31 -1288 1289 0
-1289 1321 0
-33 -1289 1290 0
-1290 1322 0
-35 -1290 1291 0
-1291 1323 0
-37 -1291 1292 0
-1292 1324 0
-39 -1292 1293 0
-1293 1325 0
-41 -1293 1294 0
-1294 1326 0
-3 -1294 1295 0
-1295 1327 0
-44 -1295 1296 0
-1296 1328 0
-46 -1296 1297 0
-1297 1329 0
-48 -1297 1298 0
-1298 1330 0
-50 -1298 1299 0
-1299 1331 0
-52 -1299 1300 0
-1300 1332 0
-54 -1300 1301 0
-1301 1333 0
-56 -1301 1302 0
-1302 1334 0
-58 -1302 1303 0
-1303 1335 0
-4 -1303 1304 0
-1304 1336 0
-61 -1304 1305 0
-1305 1337 0
-63 -1305 1306 0
-1306 1338 0
-65 -1306 1307 0
-1307 1339 0
-67 -1307 1308 0
-1308 1340 0
-69 -1308 1309 0
-1309 1341 0
-71 -1309 1310 0
-1310 1342 0
-73 -1310 1311 0
-1311 1343 0
-75 -1311 1312 0
-1312 1344 0
-5 -1312 0
-18 1313 0
-1313 1345 0
-20 -1313 1314 0
-1314 1346 0
-22 -1314 1315 0
-1315 1347 0
-24 -1315 1316 0
-1316 1348 0
-2 -1316 1317 0
-1317 1349 0
-27 -1317 1318 0
-1318 1350 0
-29 -1318 1319 0
-1319 1351 0
-31 -1319 1320 0
-1320 1352 0
-33 -1320 1321 0
-1321 1353 0
-35 -1321 1322 0
-1322 1354 0
-37 -1322 1323 0
-1323 1355 0
-39 -1323 1324 0
-1324 1356 0
-41 -1324 1325 0
-1325 1357 0
-3 -1325 1326 0
-1326 1358 0
-44 -1326 1327 0
-1327 1359 0
-46 -1327 1328 0
-1328 1360 0
-48 -1328 1329 0
-1329 1361 0
-50 -1329 1330 0
-1330 1362 0
-52 -1330 1331 0
-1331 1363 0
-54 -1331 1332 0
-1332 1364 0
-56 -1332 1333 0
-1333 1365 0
-58 -1333 1334 0
-1334 1366 0
-4 -1334 1335 0
-1335 1367 0
-61 -1335 1336 0
-1336 1368 0
-63 -1336 1337 0
-1337 1369 0
-65 -1337 1338 0
-1338 1370 0
-67 -1338 1339 0
-1339 1371 0
-69 -1339 1340 0
-1340 1372 0
-71 -1340 1341 0
-1341 1373 0
-73 -1341 1342 0
-1342 1374 0
-75 -1342 1343 0
-1343 1375 0
-5 -1343 1344 0
-1344 1376 0
-78 -1344 0
-20 1345 0
-1345 1377 0
-22 -1345 1346 0
-1346 1378 0
-24 -1346 1347 0
-1347 1379 0
-2 -1347 1348 0
-1348 1380 0
-27 -1348 1349 0
-1349 1381 0
-29 -1349 1350 0
-1350 1382 0
-31 -1350 1351 0
-1351 1383 0
-33 -1351 1352 0
-1352 1384 0
-35 -1352 1353 0
-1353 1385 0
-37 -1353 1354 0
-1354 1386 0
-39 -1354 1355 0
-1355 1387 0
-41 -1355 1356 0
-1356 1388 0
-3 -1356 1357 0
-1357 1389 0
-44 -1357 1358 0
-1358 1390 0
-46 -1358 1359 0
-1359 1391 0
-48 -1359 1360 0
-1360 1392 0
-50 -1360 1361 0
-1361 1393 0
-52 -1361 1362 0
-1362 1394 0
-54 -1362 1363 0
-1363 1395 0
-56 -1363 1364 0
-1364 1396 0
-58 -1364 1365 0
-1365 1397 0
-4 -1365 1366 0
-1366 1398 0
-61 -1366 1367 0
-1367 1399 0
-63 -1367 1368 0
-1368 1400 0
-65 -1368 1369 0
-1369 1401 0
-67 -1369 1370 0
-1370 1402 0
-69 -1370 1371 0
-1371 1403 0
-71 -1371 1372 0
-1372 1404 0
-73 -1372 1373 0
-1373 1405 0
-75 -1373 1374 0
-1374 1406 0
-5 -1374 1375 0
-1375 1407 0
-78 -1375 1376 0
-1376 1408 0
-80 -1376 0
-22 1377 0
-1377 1409 0
-24 -1377 1378 0
-1378 1410 0
-2 -1378 1379 0
-1379 1411 0
-27 -1379 1380 0
-1380 1412 0
-29 -1380 1381 0
-1381 1413 0
-31 -1381 1382 0
-1382 1414 0
-33 -1382 1383 0
-1383 1415 0
-35 -1383 1384 0
-1384 1416 0
-37 -1384 1385 0
-1385 1417 0
-39 -1385 1386 0
-1386 1418 0
-41 -1386 1387 0
-1387 1419 0
-3 -1387 1388 0
-1388 1420 0
-44 -1388 1389 0
-1389 1421 0
-46 -1389 1390 0
-1390 1422 0
-48 -1390 1391 0
-1391 1423 0
-50 -1391 1392 0
-1392 1424 0
-52 -1392 1393 0
-1393 1425 0
-54 -1393 1394 0
-1394 1426 0
-56 -1394 1395 0
-1395 1427 0
-58 -1395 1396 0
-1396 1428 0
-4 -1396 1397 0
-1397 1429 0
-61 -1397 1398 0
-1398 1430 0
-63 -1398 1399 0
-1399 1431 0
-65 -1399 1400 0
-1400 1432 0
-67 -1400 1401 0
-1401 1433 0
-69 -1401 1402 0
-1402 1434 0
-71 -1402 1403 0
-1403 1435 0
-73 -1403 1404 0
-1404 1436 0
-75 -1404 1405 0
-1405 1437 0
-5 -1405 1406 0
-1406 1438 0
-78 -1406 1407 0
-1407 1439 0
-80 -1407 1408 0
-1408 1440 0
-82 -1408 0
-24 1409 0
-1409 1441 0
-2 -1409 1410 0
-1410 1442 0
-27 -1410 1411 0
-1411 1443 0
-29 -1411 1412 0
-1412 1444 0
-31 -1412 1413 0
-1413 1445 0
-33 -1413 1414 0
-1414 1446 0
-35 -1414 1415 0
-1415 1447 0
-37 -1415 1416 0
-1416 1448 0
-39 -1416 1417 0
-1417 1449 0
-41 -1417 1418 0
-1418 1450 0
-3 -1418 1419 0
-1419 1451 0
-44 -1419 1420 0
-1420 1452 0
-46 -1420 1421 0
-1421 1453 0
-48 -1421 1422 0
-1422 1454 0
-50 -1422 1423 0
-1423 1455 0
-52 -1423 1424 0
-1424 1456 0
-54 -1424 1425 0
-1425 1457 0
-56 -1425 1426 0
-1426 1458 0
-58 -1426 1427 0
-1427 1459 0
-4 -1427 1428 0
-1428 1460 0
-61 -1428 1429 0
-1429 1461 0
-63 -1429 1430 0
-1430 1462 0
-65 -1430 1431 0
-1431 1463 0
-67 -1431 1432 0
-1432 1464 0
-69 -1432 1433 0
-1433 1465 0
-71 -1433 1434 0
-1434 1466 0
-73 -1434 1435 0
-1435 1467 0
-75 -1435 1436 0
-1436 1468 0
-5 -1436 1437 0
-1437 1469 0
-78 -1437 1438 0
-1438 1470 0
-80 -1438 1439 0
-1439 1471 0
-82 -1439 1440 0
-1440 1472 0
-84 -1440 0
-2 1441 0
-1441 1473 0
-27 -1441 1442 0
-1442 1474 0
-29 -1442 1443 0
-1443 1475 0
-31 -1443 1444 0
-1444 1476 0
-33 -1444 1445 0
-1445 1477 0
-35 -1445 1446 0
-1446 1478 0
-37 -1446 1447 0
-1447 1479 0
-39 -1447 1448 0
-1448 1480 0
-41 -1448 1449 0
-1449 1481 0
-3 -1449 1450 0
-1450 1482 0
-44 -1450 1451 0
-1451 1483 0
-46 -1451 1452 0
-1452 1484 0
-48 -1452 1453 0
-1453 1485 0
-50 -1453 1454 0
-1454 1486 0
-52 -1454 1455 0
-1455 1487 0
-54 -1455 1456 0
-1456 1488 0
-56 -1456 1457 0
-1457 1489 0
-58 -1457 1458 0
-1458 1490 0
-4 -1458 1459 0
-1459 1491 0
-61 -1459 1460 0
-1460 1492 0
-63 -1460 1461 0
-1461 1493 0
-65 -1461 1462 0
-1462 1494 0
-67 -1462 1463 0
-1463 1495 0
-69 -1463 1464 0
-1464 1496 0
-71 -1464 1465 0
-1465 1497 0
-73 -1465 1466 0
-1466 1498 0
-75 -1466 1467 0
-1467 1499 0
-5 -1467 1468 0
-1468 1500 0
-78 -1468 1469 0
-1469 1501 0
-80 -1469 1470 0
-1470 1502 0
-82 -1470 1471 0
-1471 1503 0
-84 -1471 1472 0
-1472 1504 0
-86 -1472 0
-27 1473 0
-1473 1505 0
-29 -1473 1474 0
-1474 1506 0
-31 -1474 1475 0
-1475 1507 0
-33 -1475 1476 0
-1476 1508 0
-35 -1476 1477 0
-1477 1509 0
-37 -1477 1478 0
-1478 1510 0
-39 -1478 1479 0
-1479 1511 0
-41 -1479 1480 0
-1480 1512 0
-3 -1480 1481 0
-1481 1513 0
-44 -1481 1482 0
-1482 1514 0
-46 -1482 1483 0
-1483 1515 0
-48 -1483 1484 0
-1484 1516 0
-50 -1484 1485 0
-1485 1517 0
-52 -1485 1486 0
-1486 1518 0
-54 -1486 1487 0
-1487 1519 0
-56 -1487 1488 0
-1488 1520 0
-58 -1488 1489 0
-1489 1521 0
-4 -1489 1490 0
-1490 1522 0
-61 -1490 1491 0
-1491 1523 0
-63 -1491 1492 0
-1492 1524 0
-65 -1492 1493 0
-1493 1525 0
-67 -1493 1494 0
-1494 1526 0
-69 -1494 1495 0
-1495 1527 0
-71 -1495 1496 0
-1496 1528 0
-73 -1496 1497 0
-1497 1529 0
-75 -1497 1498 0
-1498 1530 0
-5 -1498 1499 0
-1499 1531 0
-78 -1499 1500 0
-1500 1532 0
-80 -1500 1501 0
-1501 1533 0
-82 -1501 1502 0
-1502 1534 0
-84 -1502 1503 0
-1503 1535 0
-86 -1503 1504 0
-1504 1536 0
-88 -1504 0
-29 1505 0
-1505 1537 0
-31 -1505 1506 0
-1506 1538 0
-33 -1506 1507 0
-1507 1539 0
-35 -1507 1508 0
-1508 1540 0
-37 -1508 1509 0
-1509 1541 0
-39 -1509 1510 0
-1510 1542 0
-41 -1510 1511 0
-1511 1543 0
-3 -1511 1512 0
-1512 1544 0
-44 -1512 1513 0
-1513 1545 0
-46 -1513 1514 0
-1514 1546 0
-48 -1514 1515 0
-1515 1547 0
-50 -1515 1516 0
-1516 1548 0
-52 -1516 1517 0
-1517 1549 0
-54 -1517 1518 0
-1518 1550 0
-56 -1518 1519 0
-1519 1551 0
-58 -1519 1520 0
-1520 1552 0
-4 -1520 1521 0
-1521 1553 0
-61 -1521 1522 0
-1522 1554 0
-63 -1522 1523 0
-1523 1555 0
-65 -1523 1524 0
-1524 1556 0
-67 -1524 1525 0
-1525 1557 0
-69 -1525 1526 0
-1526 1558 0
-71 -1526 1527 0
-1527 1559 0
-73 -1527 1528 0
-1528 1560 0
-75 -1528 1529 0
-1529 1561 0
-5 -1529 1530 0
-1530 1562 0
-78 -1530 1531 0
-1531 1563 0
-80 -1531 1532 0
-1532 1564 0
-82 -1532 1533 0
-1533 1565 0
-84 -1533 1534 0
-1534 1566 0
-86 -1534 1535 0
-1535 1567 0
-88 -1535 1536 0
-1536 1568 0
-90 -1536 0
-31 1537 0
-1537 1569 0
-33 -1537 1538 0
-1538 1570 0
-35 -1538 1539 0
-1539 1571 0
-37 -1539 1540 0
-1540 1572 0
-39 -1540 1541 0
-1541 1573 0
-41 -1541 1542 0
-1542 1574 0
-3 -1542 1543 0
-1543 1575 0
-44 -1543 1544 0
-1544 1576 0
-46 -1544 1545 0
-1545 1577 0
-48 -1545 1546 0
-1546 1578 0
-50 -1546 1547 0
-1547 1579 0
-52 -1547 1548 0
-1548 1580 0
-54 -1548 1549 0
-1549 1581 0
-56 -1549 1550 0
-1550 1582 0
-58 -1550 1551 0
-1551 1583 0
-4 -1551 1552 0
-1552 1584 0
-61 -1552 1553 0
-1553 1585 0
-63 -1553 1554 0
-1554 1586 0
-65 -1554 1555 0
-1555 1587 0
-67 -1555 1556 0
-1556 1588 0
-69 -1556 1557 0
-1557 1589 0
-71 -1557 1558 0
-1558 1590 0
-73 -1558 1559 0
-1559 1591 0
-75 -1559 1560 0
-1560 1592 0
-5 -1560 1561 0
-1561 1593 0
-78 -1561 1562 0
-1562 1594 0
-80 -1562 1563 0
-1563 1595 0
-82 -1563 1564 0
-1564 1596 0
-84 -1564 1565 0
-1565 1597 0
-86 -1565 1566 0
-1566 1598 0
-88 -1566 1567 0
-1567 1599 0
-90 -1567 1568 0
-1568 1600 0
-92 -1568 0
-33 1569 0
-1569 1601 0
-35 -1569 1570 0
-1570 1602 0
-37 -1570 1571 0
-1571 1603 0
-39 -1571 1572 0
-1572 1604 0
-41 -1572 1573 0
-1573 1605 0
-3 -1573 1574 0
-1574 1606 0
-44 -1574 1575 0
-1575 1607 0
-46 -1575 1576 0
-1576 1608 0
-48 -1576 1577 0
-1577 1609 0
-50 -1577 1578 0
-1578 1610 0
-52 -1578 1579 0
-1579 1611 0
-54 -1579 1580 0
-1580 1612 0
-56 -1580 1581 0
-1581 1613 0
-58 -1581 1582 0
-1582 1614 0
-4 -1582 1583 0
-1583 1615 0
-61 -1583 1584 0
-1584 1616 0
-63 -1584 1585 0
-1585 1617 0
-65 -1585 1586 0
-1586 1618 0
-67 -1586 1587 0
-1587 1619 0
-69 -1587 1588 0
-1588 1620 0
-71 -1588 1589 0
-1589 1621 0
-73 -1589 1590 0
-1590 1622 0
-75 -1590 1591 0
-1591 1623 0
-5 -1591 1592 0
-1592 1624 0
-78 -1592 1593 0
-1593 1625 0
-80 -1593 1594 0
-1594 1626 0
-82 -1594 1595 0
-1595 1627 0
-84 -1595 1596 0
-1596 1628 0
-86 -1596 1597 0
-1597 1629 0
-88 -1597 1598 0
-1598 1630 0
-90 -1598 1599 0
-1599 1631 0
-92 -1599 1600 0
-1600 1632 0
-6 -1600 0
-35 1601 0
-1601 1633 0
-37 -1601 1602 0
-1602 1634 0
-39 -1602 1603 0
-1603 1635 0
-41 -1603 1604 0
-1604 1636 0
-3 -1604 1605 0
-1605 1637 0
-44 -1605 1606 0
-1606 1638 0
-46 -1606 1607 0
-1607 1639 0
-48 -1607 1608 0
-1608 1640 0
-50 -1608 1609 0
-1609 1641 0
-52 -1609 1610 0
-1610 1642 0
-54 -1610 1611 0
-1611 1643 0
-56 -1611 1612 0
-1612 1644 0
-58 -1612 1613 0
-1613 1645 0
-4 -1613 1614 0
-1614 1646 0
-61 -1614 1615 0
-1615 1647 0
-63 -1615 1616 0
-1616 1648 0
-65 -1616 1617 0
-1617 1649 0
-67 -1617 1618 0
-1618 1650 0
-69 -1618 1619 0
-1619 1651 0
-71 -1619 1620 0
-1620 1652 0
-73 -1620 1621 0
-1621 1653 0
-75 -1621 1622 0
-1622 1654 0
-5 -1622 1623 0
-1623 1655 0
-78 -1623 1624 0
-1624 1656 0
-80 -1624 1625 0
-1625 1657 0
-82 -1625 1626 0
-1626 1658 0
-84 -1626 1627 0
-1627 1659 0
-86 -1627 1628 0
-1628 1660 0
-88 -1628 1629 0
-1629 1661 0
-90 -1629 1630 0
-1630 1662 0
-92 -1630 1631 0
-1631 1663 0
-6 -1631 1632 0
-1632 1664 0
-95 -1632 0
-37 1633 0
-1633 1665 0
-39 -1633 1634 0
-1634 1666 0
-41 -1634 1635 0
-1635 1667 0
-3 -1635 1636 0
-1636 1668 0
-44 -1636 1637 0
-1637 1669 0
-46 -1637 1638 0
-1638 1670 0
-48 -1638 1639 0
-1639 1671 0
-50 -1639 1640 0
-1640 1672 0
-52 -1640 1641 0
-1641 1673 0
-54 -1641 1642 0
-1642 1674 0
-56 -1642 1643 0
-1643 1675 0
-58 -1643 1644 0
-1644 1676 0
-4 -1644 1645 0
-1645 1677 0
-61 -1645 1646 0
-1646 1678 0
-63 -1646 1647 0
-1647 1679 0
-65 -1647 1648 0
-1648 1680 0
-67 -1648 1649 0
-1649 1681 0
-69 -1649 1650 0
-1650 1682 0
-71 -1650 1651 0
-1651 1683 0
-73 -1651 1652 0
-1652 1684 0
-75 -1652 1653 0
-1653 1685 0
-5 -1653 1654 0
-1654 1686 0
-78 -1654 1655 0
-1655 1687 0
-80 -1655 1656 0
-1656 1688 0
-82 -1656 1657 0
-1657 1689 0
-84 -1657 1658 0
-1658 1690 0
-86 -1658 1659 0
-1659 1691 0
-88 -1659 1660 0
-1660 1692 0
-90 -1660 1661 0
-1661 1693 0
-92 -1661 1662 0
-1662 1694 0
-6 -1662 1663 0
-1663 1695 0
-95 -1663 1664 0
-1664 1696 0
-97 -1664 0
-39 1665 0
-1665 1697 0
-41 -1665 1666 0
-1666 1698 0
-3 -1666 1667 0
-1667 1699 0
-44 -1667 1668 0
-1668 1700 0
-46 -1668 1669 0
-1669 1701 0
-48 -1669 1670 0
-1670 1702 0
-50 -1670 1671 0
-1671 1703 0
-52 -1671 1672 0
-1672 1704 0
-54 -1672 1673 0
-1673 1705 0
-56 -1673 1674 0
-1674 1706 0
-58 -1674 1675 0
-1675 1707 0
-4 -1675 1676 0
-1676 1708 0
-61 -1676 1677 0
-1677 1709 0
-63 -1677 1678 0
-1678 1710 0
-65 -1678 1679 0
-1679 1711 0
-67 -1679 1680 0
-1680 1712 0
-69 -1680 1681 0
-1681 1713 0
-71 -1681 1682 0
-1682 1714 0
-73 -1682 1683 0
-1683 1715 0
-75 -1683 1684 0
-1684 1716 0
-5 -1684 1685 0
-1685 1717 0
-78 -1685 1686 0
-1686 1718 0
-80 -1686 1687 0
-1687 1719 0
-82 -1687 1688 0
-1688 1720 0
-84 -1688 1689 0
-1689 1721 0
-86 -1689 1690 0
-1690 1722 0
-88 -1690 1691 0
-1691 1723 0
-90 -1691 1692 0
-1692 1724 0
-92 -1692 1693 0
-1693 1725 0
-6 -1693 1694 0
-1694 1726 0
-95 -1694 1695 0
-1695 1727 0
-97 -1695 1696 0
-1696 1728 0
-99 -1696 0
-41 1697 0
-1697 1729 0
-3 -1697 1698 0
-1698 1730 0
-44 -1698 1699 0
-1699 1731 0
-46 -1699 1700 0
-1700 1732 0
-48 -1700 1701 0
-1701 1733 0
-50 -1701 1702 0
-1702 1734 0
-52 -1702 1703 0
-1703 1735 0
-54 -1703 1704 0
-1704 1736 0
-56 -1704 1705 0
-1705 1737 0
-58 -1705 1706 0
-1706 1738 0
-4 -1706 1707 0
-1707 1739 0
-61 -1707 1708 0
-1708 1740 0
-63 -1708 1709 0
-1709 1741 0
-65 -1709 1710 0
-1710 1742 0
-67 -1710 1711 0
-1711 1743 0
-69 -1711 1712 0
-1712 1744 0
-71 -1712 1713 0
-1713 1745 0
-73 -1713 1714 0
-1714 1746 0
-75 -1714 1715 0
-1715 1747 0
-5 -1715 1716 0
-1716 1748 0
-78 -1716 1717 0
-1717 1749 0
-80 -1717 1718 0
-1718 1750 0
-82 -1718 1719 0
-1719 1751 0
-84 -1719 1720 0
-1720 1752 0
-86 -1720 1721 0
-1721 1753 0
-88 -1721 1722 0
-1722 1754 0
-90 -1722 1723 0
-1723 1755 0
-92 -1723 1724 0
-1724 1756 0
-6 -1724 1725 0
-1725 1757 0
-95 -1725 1726 0
-1726 1758 0
-97 -1726 1727 0
-1727 1759 0
-99 -1727 1728 0
-1728 1760 0
-101 -1728 0
-3 1729 0
-1729 1761 0
-44 -1729 1730 0
-1730 1762 0
-46 -1730 1731 0
-1731 1763 0
-48 -1731 1732 0
-1732 1764 0
-50 -1732 1733 0
-1733 1765 0
-52 -1733 1734 0
-1734 1766 0
-54 -1734 1735 0
-1735 1767 0
-56 -1735 1736 0
-1736 1768 0
-58 -1736 1737 0
-1737 1769 0
-4 -1737 1738 0
-1738 1770 0
-61 -1738 1739 0
-1739 1771 0
-63 -1739 1740 0
-1740 1772 0
-65 -1740 1741 0
-1741 1773 0
-67 -1741 1742 0
-1742 1774 0
-69 -1742 1743 0
-1743 1775 0
-71 -1743 1744 0
-1744 1776 0
-73 -1744 1745 0
-1745 1777 0
-75 -1745 1746 0
-1746 1778 0
-5 -1746 1747 0
-1747 1779 0
-78 -1747 1748 0
-1748 1780 0
-80 -1748 1749 0
-1749 1781 0
-82 -1749 1750 0
-1750 1782 0
-84 -1750 1751 0
-1751 1783 0
-86 -1751 1752 0
-1752 1784 0
-88 -1752 1753 0
-1753 1785 0
-90 -1753 1754 0
-1754 1786 0
-92 -1754 1755 0
-1755 1787 0
-6 -1755 1756 0
-1756 1788 0
-95 -1756 1757 0
-1757 1789 0
-97 -1757 1758 0
-1758 1790 0
-99 -1758 1759 0
-1759 1791 0
-101 -1759 1760 0
-1760 1792 0
-103 -1760 0
-44 1761 0
-1761 1793 0
-46 -1761 1762 0
-1762 1794 0
-48 -1762 1763 0
-1763 1795 0
-50 -1763 1764 0
-1764 1796 0
-52 -1764 1765 0
-1765 1797 0
-54 -1765 1766 0
-1766 1798 0
-56 -1766 1767 0
-1767 1799 0
-58 -1767 1768 0
-1768 1800 0
-4 -1768 1769 0
-1769 1801 0
-61 -1769 1770 0
-1770 1802 0
-63 -1770 1771 0
-1771 1803 0
-65 -1771 1772 0
-1772 1804 0
-67 -1772 1773 0
-1773 1805 0
-69 -1773 1774 0
-1774 1806 0
-71 -1774 1775 0
-1775 1807 0
-73 -1775 1776 0
-1776 1808 0
-75 -1776 1777 0
-1777 1809 0
-5 -1777 1778 0
-1778 1810 0
-78 -1778 1779 0
-1779 1811 0
-80 -1779 1780 0
-1780 1812 0
-82 -1780 1781 0
-1781 1813 0
-84 -1781 1782 0
-1782 1814 0
-86 -1782 1783 0
-1783 1815 0
-88 -1783 1784 0
-1784 1816 0
-90 -1784 1785 0
-1785 1817 0
-92 -1785 1786 0
-1786 1818 0
-6 -1786 1787 0
-1787 1819 0
-95 -1787 1788 0
-1788 1820 0
-97 -1788 1789 0
-1789 1821 0
-99 -1789 1790 0
-1790 1822 0
-101 -1790 1791 0
-1791 1823 0
-103 -1791 1792 0
-1792 1824 0
-105 -1792 0
-46 1793 0
-1793 1825 0
-48 -1793 1794 0
-1794 1826 0
-50 -1794 1795 0
-1795 1827 0
-52 -1795 1796 0
-1796 1828 0
-54 -1796 1797 0
-1797 1829 0
-56 -1797 1798 0
-1798 1830 0
-58 -1798 1799 0
-1799 1831 0
-4 -1799 1800 0
-1800 1832 0
-61 -1800 1801 0
-1801 1833 0
-63 -1801 1802 0
-1802 1834 0
-65 -1802 1803 0
-1803 1835 0
-67 -1803 1804 0
-1804 1836 0
-69 -1804 1805 0
-1805 1837 0
-71 -1805 1806 0
-1806 1838 0
-73 -1806 1807 0
-1807 1839 0
-75 -1807 1808 0
-1808 1840 0
-5 -1808 1809 0
-1809 1841 0
-78 -1809 1810 0
-1810 1842 0
-80 -1810 1811 0
-1811 1843 0
-82 -1811 1812 0
-1812 1844 0
-84 -1812 1813 0
-1813 1845 0
-86 -1813 1814 0
-1814 1846 0
-88 -1814 1815 0
-1815 1847 0
-90 -1815 1816 0
-1816 1848 0
-92 -1816 1817 0
-1817 1849 0
-6 -1817 1818 0
-1818 1850 0
-95 -1818 1819 0
-1819 1851 0
-97 -1819 1820 0
-1820 1852 0
-99 -1820 1821 0
-1821 1853 0
-101 -1821 1822 0
-1822 1854 0
-103 -1822 1823 0
-1823 1855 0
-105 -1823 1824 0
-1824 1856 0
-107 -1824 0
-48 1825 0
-1825 1857 0
-50 -1825 1826 0
-1826 1858 0
-52 -1826 1827 0
-1827 1859 0
-54 -1827 1828 0
-1828 1860 0
-56 -1828 1829 0
-1829 1861 0
-58 -1829 1830 0
-1830 1862 0
-4 -1830 1831 0
-1831 1863 0
-61 -1831 1832 0
-1832 1864 0
-63 -1832 1833 0
-1833 1865 0
-65 -1833 1834 0
-1834 1866 0
-67 -1834 1835 0
-1835 1867 0
-69 -1835 1836 0
-1836 1868 0
-71 -1836 1837 0
-1837 1869 0
-73 -1837 1838 0
-1838 1870 0
-75 -1838 1839 0
-1839 1871 0
-5 -1839 1840 0
-1840 1872 0
-78 -1840 1841 0
-1841 1873 0
-80 -1841 1842 0
-1842 1874 0
-82 -1842 1843 0
-1843 1875 0
-84 -1843 1844 0
-1844 1876 0
-86 -1844 1845 0
-1845 1877 0
-88 -1845 1846 0
-1846 1878 0
-90 -1846 1847 0
-1847 1879 0
-92 -1847 1848 0
-1848 1880 0
-6 -1848 1849 0
-1849 1881 0
-95 -1849 1850 0
-1850 1882 0
-97 -1850 1851 0
-1851 1883 0
-99 -1851 1852 0
-1852 1884 0
-101 -1852 1853 0
-1853 1885 0
-103 -1853 1854 0
-1854 1886 0
-105 -1854 1855 0
-1855 1887 0
-107 -1855 1856 0
-1856 1888 0
-109 -1856 0
-50 1857 0
-1857 1889 0
-52 -1857 1858 0
-1858 1890 0
-54 -1858 1859 0
-1859 1891 0
-56 -1859 1860 0
-1860 1892 0
-58 -1860 1861 0
-1861 1893 0
-4 -1861 1862 0
-1862 1894 0
-61 -1862 1863 0
-1863 1895 0
-63 -1863 1864 0
-1864 1896 0
-65 -1864 1865 0
-1865 1897 0
-67 -1865 1866 0
-1866 1898 0
-69 -1866 1867 0
-1867 1899 0
-71 -1867 1868 0
-1868 1900 0
-73 -1868 1869 0
-1869 1901 0
-75 -1869 1870 0
-1870 1902 0
-5 -1870 1871 0
-1871 1903 0
-78 -1871 1872 0
-1872 1904 0
-80 -1872 1873 0
-1873 1905 0
-82 -1873 1874 0
-1874 1906 0
-84 -1874 1875 0
-1875 1907 0
-86 -1875 1876 0
-1876 1908 0
-88 -1876 1877 0
-1877 1909 0
-90 -1877 1878 0
-1878 1910 0
-92 -1878 1879 0
-1879 1911 0
-6 -1879 1880 0
-1880 1912 0
-95 -1880 1881 0
-1881 1913 0
-97 -1881 1882 0
-1882 1914 0
-99 -1882 1883 0
-1883 1915 0
-101 -1883 1884 0
-1884 1916 0
-103 -1884 1885 0
-1885 1917 0
-105 -1885 1886 0
-1886 1918 0
-107 -1886 1887 0
-1887 1919 0
-109 -1887 1888 0
-1888 1920 0
-7 -1888 0
-52 1889 0
-1889 1921 0
-54 -1889 1890 0
-1890 1922 0
-56 -1890 1891 0
-1891 1923 0
-58 -1891 1892 0
-1892 1924 0
-4 -1892 1893 0
-1893 1925 0
-61 -1893 1894 0
-1894 1926 0
-63 -1894 1895 0
-1895 1927 0
-65 -1895 1896 0
-1896 1928 0
-67 -1896 1897 0
-1897 1929 0
-69 -1897 1898 0
-1898 1930 0
-71 -1898 1899 0
-1899 1931 0
-73 -1899 1900 0
-1900 1932 0
-75 -1900 1901 0
-1901 1933 0
-5 -1901 1902 0
-1902 1934 0
-78 -1902 1903 0
-1903 1935 0
-80 -1903 1904 0
-1904 1936 0
-82 -1904 1905 0
-1905 1937 0
-84 -1905 1906 0
-1906 1938 0
-86 -1906 1907 0
-1907 1939 0
-88 -1907 1908 0
-1908 1940 0
-90 -1908 1909 0
-1909 1941 0
-92 -1909 1910 0
-1910 1942 0
-6 -1910 1911 0
-1911 1943 0
-95 -1911 1912 0
-1912 1944 0
-97 -1912 1913 0
-1913 1945 0
-99 -1913 1914 0
-1914 1946 0
-101 -1914 1915 0
-1915 1947 0
-103 -1915 1916 0
-1916 1948 0
-105 -1916 1917 0
-1917 1949 0
-107 -1917 1918 0
-1918 1950 0
-109 -1918 1919 0
-1919 1951 0
-7 -1919 1920 0
-1920 1952 0
-112 -1920 0
-54 1921 0
-1921 1953 0
-56 -1921 1922 0
-1922 1954 0
-58 -1922 1923 0
-1923 1955 0
-4 -1923 1924 0
-1924 1956 0
-61 -1924 1925 0
-1925 1957 0
-63 -1925 1926 0
-1926 1958 0
-65 -1926 1927 0
-1927 1959 0
-67 -1927 1928 0
-1928 1960 0
-69 -1928 1929 0
-1929 1961 0
-71 -1929 1930 0
-1930 1962 0
-73 -1930 1931 0
-1931 1963 0
-75 -1931 1932 0
-1932 1964 0
-5 -1932 1933 0
-1933 1965 0
-78 -1933 1934 0
-1934 1966 0
-80 -1934 1935 0
-1935 1967 0
-82 -1935 1936 0
-1936 1968 0
-84 -1936 1937 0
-1937 1969 0
-86 -1937 1938 0
-1938 1970 0
-88 -1938 1939 0
-1939 1971 0
-90 -1939 1940 0
-1940 1972 0
-92 -1940 1941 0
-1941 1973 0
-6 -1941 1942 0
-1942 1974 0
-95 -1942 1943 0
-1943 1975 0
-97 -1943 1944 0
-1944 1976 0
-99 -1944 1945 0
-1945 1977 0
-101 -1945 1946 0
-1946 1978 0
-103 -1946 1947 0
-1947 1979 0
-105 -1947 1948 0
-1948 1980 0
-107 -1948 1949 0
-1949 1981 0
-109 -1949 1950 0
-1950 1982 0
-7 -1950 1951 0
-1951 1983 0
-112 -1951 1952 0
-1952 1984 0
-114 -1952 0
-56 1953 0
-1953 1985 0
-58 -1953 1954 0
-1954 1986 0
-4 -1954 1955 0
-1955 1987 0
-61 -1955 1956 0
-1956 1988 0
-63 -1956 1957 0
-1957 1989 0
-65 -1957 1958 0
-1958 1990 0
-67 -1958 1959 0
-1959 1991 0
-69 -1959 1960 0
-1960 1992 0
-71 -1960 1961 0
-1961 1993 0
-73 -1961 1962 0
-1962 1994 0
-75 -1962 1963 0
-1963 1995 0
-5 -1963 1964 0
-1964 1996 0
-78 -1964 1965 0
-1965 1997 0
-80 -1965 1966 0
-1966 1998 0
-82 -1966 1967 0
-1967 1999 0
-84 -1967 1968 0
-1968 2000 0
-86 -1968 1969 0
-1969 2001 0
-88 -1969 1970 0
-1970 2002 0
-90 -1970 1971 0
-1971 2003 0
-92 -1971 1972 0
-1972 2004 0
-6 -1972 1973 0
-1973 2005 0
-95 -1973 1974 0
-1974 2006 0
-97 -1974 1975 0
-1975 2007 0
-99 -1975 1976 0
-1976 2008 0
-101 -1976 1977 0
-1977 2009 0
-103 -1977 1978 0
-1978 2010 0
-105 -1978 1979 0
-1979 2011 0
-107 -1979 1980 0
-1980 2012 0
-109 -1980 1981 0
-1981 2013 0
-7 -1981 1982 0
-1982 2014 0
-112 -1982 1983 0
-1983 2015 0
-114 -1983 1984 0
-1984 2016 0
-116 -1984 0
-58 1985 0
-1985 2017 0
-4 -1985 1986 0
-1986 2018 0
-61 -1986 1987 0
-1987 2019 0
-63 -1987 1988 0
-1988 2020 0
-65 -1988 1989 0
-1989 2021 0
-67 -1989 1990 0
-1990 2022 0
-69 -1990 1991 0
-1991 2023 0
-71 -1991 1992 0
-1992 2024 0
-73 -1992 1993 0
-1993 2025 0
-75 -1993 1994 0
-1994 2026 0
-5 -1994 1995 0
-1995 2027 0
-78 -1995 1996 0
-1996 2028 0
-80 -1996 1997 0
-1997 2029 0
-82 -1997 1998 0
-1998 2030 0
-84 -1998 1999 0
-1999 2031 0
-86 -1999 2000 0
-2000 2032 0
-88 -2000 2001 0
-2001 2033 0
-90 -2001 2002 0
-2002 2034 0
-92 -2002 2003 0
-2003 2035 0
-6 -2003 2004 0
-2004 2036 0
-95 -2004 2005 0
-2005 2037 0
-97 -2005 2006 0
-2006 2038 0
-99 -2006 2007 0
-2007 2039 0
-101 -2007 2008 0
-2008 2040 0
-103 -2008 2009 0
-2009 2041 0
-105 -2009 2010 0
-2010 2042 0
-107 -2010 2011 0
-2011 2043 0
-109 -2011 2012 0
-2012 2044 0
-7 -2012 2013 0
-2013 2045 0
-112 -2013 2014 0
-2014 2046 0
-114 -2014 2015 0
-2015 2047 0
-116 -2015 2016 0
-2016 2048 0
-118 -2016 0
-4 2017 0
-2017 2049 0
-61 -2017 2018 0
-2018 2050 0
-63 -2018 2019 0
-2019 2051 0
-65 -2019 2020 0
-2020 2052 0
-67 -2020 2021 0
-2021 2053 0
-69 -2021 2022 0
-2022 2054 0
-71 -2022 2023 0
-2023 2055 0
-73 -2023 2024 0
-2024 2056 0
-75 -2024 2025 0
-2025 2057 0
-5 -2025 2026 0
-2026 2058 0
-78 -2026 2027 0
-2027 2059 0
-80 -2027 2028 0
-2028 2060 0
-82 -2028 2029 0
-2029 2061 0
-84 -2029 2030 0
-2030 2062 0
-86 -2030 2031 0
-2031 2063 0
-88 -2031 2032 0
-2032 2064 0
-90 -2032 2033 0
-2033 2065 0
-92 -2033 2034 0
-2034 2066 0
-6 -2034 2035 0
-2035 2067 0
-95 -2035 2036 0
-2036 2068 0
-97 -2036 2037 0
-2037 2069 0
-99 -2037 2038 0
-2038 2070 0
-101 -2038 2039 0
-2039 2071 0
-103 -2039 2040 0
-2040 2072 0
-105 -2040 2041 0
-2041 2073 0
-107 -2041 2042 0
-2042 2074 0
-109 -2042 2043 0
-2043 2075 0
-7 -2043 2044 0
-2044 2076 0
-112 -2044 2045 0
-2045 2077 0
-114 -2045 2046 0
-2046 2078 0
-116 -2046 2047 0
-2047 2079 0
-118 -2047 2048 0
-2048 2080 0
-120 -2048 0
-61 2049 0
-2049 2081 0
-63 -2049 2050 0
-2050 2082 0
-65 -2050 2051 0
-2051 2083 0
-67 -2051 2052 0
-2052 2084 0
-69 -2052 2053 0
-2053 2085 0
-71 -2053 2054 0
-2054 2086 0
-73 -2054 2055 0
-2055 2087 0
-75 -2055 2056 0
-2056 2088 0
-5 -2056 2057 0
-2057 2089 0
-78 -2057 2058 0
-2058 2090 0
-80 -2058 2059 0
-2059 2091 0
-82 -2059 2060 0
-2060 2092 0
-84 -2060 2061 0
-2061 2093 0
-86 -2061 2062 0
-2062 2094 0
-88 -2062 2063 0
-2063 2095 0
-90 -2063 2064 0
-2064 2096 0
-92 -2064 2065 0
-2065 2097 0
-6 -2065 2066 0
-2066 2098 0
-95 -2066 2067 0
-2067 2099 0
-97 -2067 2068 0
-2068 2100 0
-99 -2068 2069 0
-2069 2101 0
-101 -2069 2070 0
-2070 2102 0
-103 -2070 2071 0
-2071 2103 0
-105 -2071 2072 0
-2072 2104 0
-107 -2072 2073 0
-2073 2105 0
-109 -2073 2074 0
-2074 2106 0
-7 -2074 2075 0
-2075 2107 0
-112 -2075 2076 0
-2076 2108 0
-114 -2076 2077 0
-2077 2109 0
-116 -2077 2078 0
-2078 2110 0
-118 -2078 2079 0
-2079 2111 0
-120 -2079 2080 0
-2080 2112 0
-122 -2080 0
-63 2081 0
-2081 2113 0
-65 -2081 2082 0
-2082 2114 0
-67 -2082 2083 0
-2083 2115 0
-69 -2083 2084 0
-2084 2116 0
-71 -2084 2085 0
-2085 2117 0
-73 -2085 2086 0
-2086 2118 0
-75 -2086 2087 0
-2087 2119 0
-5 -2087 2088 0
-2088 2120 0
-78 -2088 2089 0
-2089 2121 0
-80 -2089 2090 0
-2090 2122 0
-82 -2090 2091 0
-2091 2123 0
-84 -2091 2092 0
-2092 2124 0
-86 -2092 2093 0
-2093 2125 0
-88 -2093 2094 0
-2094 2126 0
-90 -2094 2095 0
-2095 2127 0
-92 -2095 2096 0
-2096 2128 0
-6 -2096 2097 0
-2097 2129 0
-95 -2097 2098 0
-2098 2130 0
-97 -2098 2099 0
-2099 2131 0
-99 -2099 2100 0
-2100 2132 0
-101 -2100 2101 0
-2101 2133 0
-103 -2101 2102 0
-2102 2134 0
-105 -2102 2103 0
-2103 2135 0
-107 -2103 2104 0
-2104 2136 0
-109 -2104 2105 0
-2105 2137 0
-7 -2105 2106 0
-2106 2138 0
-112 -2106 2107 0
-2107 2139 0
-114 -2107 2108 0
-2108 2140 0
-116 -2108 2109 0
-2109 2141 0
-118 -2109 2110 0
-2110 2142 0
-120 -2110 2111 0
-2111 2143 0
-122 -2111 2112 0
-2112 2144 0
-124 -2112 0
-65 2113 0
-2113 2145 0
-67 -2113 2114 0
-2114 2146 0
-69 -2114 2115 0
-2115 2147 0
-71 -2115 2116 0
-2116 2148 0
-73 -2116 2117 0
-2117 2149 0
-75 -2117 2118 0
-2118 2150 0
-5 -2118 2119 0
-2119 2151 0
-78 -2119 2120 0
-2120 2152 0
-80 -2120 2121 0
-2121 2153 0
-82 -2121 2122 0
-2122 2154 0
-84 -2122 2123 0
-2123 2155 0
-86 -2123 2124 0
-2124 2156 0
-88 -2124 2125 0
-2125 2157 0
-90 -2125 2126 0
-2126 2158 0
-92 -2126 2127 0
-2127 2159 0
-6 -2127 2128 0
-2128 2160 0
-95 -2128 2129 0
-2129 2161 0
-97 -2129 2130 0
-2130 2162 0
-99 -2130 2131 0
-2131 2163 0
-101 -2131 2132 0
-2132 2164 0
-103 -2132 2133 0
-2133 2165 0
-105 -2133 2134 0
-2134 2166 0
-107 -2134 2135 0
-2135 2167 0
-109 -2135 2136 0
-2136 2168 0
-7 -2136 2137 0
-2137 2169 0
-112 -2137 2138 0
-2138 2170 0
-114 -2138 2139 0
-2139 2171 0
-116 -2139 2140 0
-2140 2172 0
-118 -2140 2141 0
-2141 2173 0
-120 -2141 2142 0
-2142 2174 0
-122 -2142 2143 0
-2143 2175 0
-124 -2143 2144 0
-2144 2176 0
-126 -2144 0
-67 2145 0
-69 -2145 2146 0
-71 -2146 2147 0
-73 -2147 2148 0
-75 -2148 2149 0
-5 -2149 2150 0
-78 -2150 2151 0
-80 -2151 2152 0
-82 -2152 2153 0
-84 -2153 2154 0
-86 -2154 2155 0
-88 -2155 2156 0
-90 -2156 2157 0
-92 -2157 2158 0
-6 -2158 2159 0
-95 -2159 2160 0
-97 -2160 2161 0
-99 -2161 2162 0
-101 -2162 2163 0
-103 -2163 2164 0
-105 -2164 2165 0
-107 -2165 2166 0
-109 -2166 2167 0
-7 -2167 2168 0
-112 -2168 2169 0
-114 -2169 2170 0
-116 -2170 2171 0
-118 -2171 2172 0
-120 -2172 2173 0
-122 -2173 2174 0
-124 -2174 2175 0
-126 -2175 2176 0
-8 -2176 0
2177 0
2178 2179 0
-2178 -2179 0
-2178 -2180 2181 0
-2178 -2182 2183 0
-2178 -2184 2185 0
-2178 -2186 2187 0
-2178 -2188 2189 0
-2178 -2190 2191 0
2181 2192 0
-2181 -2192 0
-2181 -2193 2178 0
-2181 -2194 2183 0
-2181 -2195 2185 0
-2181 -2196 2187 0
-2181 -2197 2189 0
-2181 -2198 2191 0
2183 2199 0
-2183 -2199 0
-2183 -2200 2178 0
-2183 -2201 2181 0
-2183 -2202 2185 0
-2183 -2203 2187 0
-2183 -2204 2189 0
-2183 -2205 2191 0
2185 2206 0
-2185 -2206 0
-2185 -2207 2178 0
-2185 -2208 2181 0
-2185 -2209 2183 0
-2185 -2210 2187 0
-2185 -2211 2189 0
-2185 -2212 2191 0
2187 2213 0
-2187 -2213 0
-2187 -2214 2178 0
-2187 -2215 2181 0
-2187 -2216 2183 0
-2187 -2217 2185 0
-2187 -2218 2189 0
-2187 -2219 2191 0
2189 2220 0
-2189 -2220 0
-2189 -2221 2178 0
-2189 -2222 2181 0
-2189 -2223 2183 0
-2189 -2224 2185 0
-2189 -2225 2187 0
-2189 -2226 2191 0
2191 2227 0
-2191 -2227 0
-2191 -2228 2178 0
-2191 -2229 2181 0
-2191 -2230 2183 0
-2191 -2231 2185 0
-2191 -2232 2187 0
-2191 -2233 2189 0
2234 0
2179 2178 0
-2179 -2178 0
-2179 -2181 2180 0
-2179 -2183 2182 0
-2179 -2185 2184 0
-2179 -2187 2186 0
-2179 -2189 2188 0
-2179 -2191 2190 0
2180 2193 0
-2180 -2193 0
-2180 -2192 2179 0
-2180 -2194 2182 0
-2180 -2195 2184 0
-2180 -2196 2186 0
-2180 -2197 2188 0
-2180 -2198 2190 0
2182 2200 0
-2182 -2200 0
-2182 -2199 2179 0
-2182 -2201 2180 0
-2182 -2202 2184 0
-2182 -2203 2186 0
-2182 -2204 2188 0
-2182 -2205 2190 0
2184 2207 0
-2184 -2207 0
-2184 -2206 2179 0
-2184 -2208 2180 0
-2184 -2209 2182 0
-2184 -2210 2186 0
-2184 -2211 2188 0
-2184 -2212 2190 0
2186 2214 0
-2186 -2214 0
-2186 -2213 2179 0
-2186 -2215 2180 0
-2186 -2216 2182 0
-2186 -2217 2184 0
-2186 -2218 2188 0
-2186 -2219 2190 0
2188 2221 0
-2188 -2221 0
-2188 -2220 2179 0
-2188 -2222 2180 0
-2188 -2223 2182 0
-2188 -2224 2184 0
-2188 -2225 2186 0
-2188 -2226 2190 0
2190 2228 0
-2190 -2228 0
-2190 -2227 2179 0
-2190 -2229 2180 0
-2190 -2230 2182 0
-2190 -2231 2184 0
-2190 -2232 2186 0
-2190 -2233 2188 0
2235 0
2192 2181 0
-2192 -2181 0
-2192 -2178 2193 0
-2192 -2183 2194 0
-2192 -2185 2195 0
-2192 -2187 2196 0
-2192 -2189 2197 0
-2192 -2191 2198 0
2193 2180 0
-2193 -2180 0
-2193 -2179 2192 0
-2193 -2182 2194 0
-2193 -2184 2195 0
-2193 -2186 2196 0
-2193 -2188 2197 0
-2193 -2190 2198 0
2194 2201 0
-2194 -2201 0
-2194 -2199 2192 0
-2194 -2200 2193 0
-2194 -2202 2195 0
-2194 -2203 2196 0
-2194 -2204 2197 0
-2194 -2205 2198 0
2195 2208 0
-2195 -2208 0
-2195 -2206 2192 0
-2195 -2207 2193 0
-2195 -2209 2194 0
-2195 -2210 2196 0
-2195 -2211 2197 0
-2195 -2212 2198 0
2196 2215 0
-2196 -2215 0
-2196 -2213 2192 0
-2196 -2214 2193 0
-2196 -2216 2194 0
-2196 -2217 2195 0
-2196 -2218 2197 0
-2196 -2219 2198 0
2197 2222 0
-2197 -2222 0
-2197 -2220 2192 0
-2197 -2221 2193 0
-2197 -2223 2194 0
-2197 -2224 2195 0
-2197 -2225 2196 0
-2197 -2226 2198 0
2198 2229 0
-2198 -2229 0
-2198 -2227 2192 0
-2198 -2228 2193 0
-2198 -2230 2194 0
-2198 -2231 2195 0
-2198 -2232 2196 0
-2198 -2233 2197 0
2236 0
2199 2183 0
-2199 -2183 0
-2199 -2178 2200 0
-2199 -2181 2201 0
-2199 -2185 2202 0
-2199 -2187 2203 0
-2199 -2189 2204 0
-2199 -2191 2205 0
2200 2182 0
-2200 -2182 0
-2200 -2179 2199 0
-2200 -2180 2201 0
-2200 -2184 2202 0
-2200 -2186 2203 0
-2200 -2188 2204 0
-2200 -2190 2205 0
2201 2194 0
-2201 -2194 0
-2201 -2192 2199 0
-2201 -2193 2200 0
-2201 -2195 2202 0
-2201 -2196 2203 0
-2201 -2197 2204 0
-2201 -2198 2205 0
2202 2209 0
-2202 -2209 0
-2202 -2206 2199 0
-2202 -2207 2200 0
-2202 -2208 2201 0
-2202 -2210 2203 0
-2202 -2211 2204 0
-2202 -2212 2205 0
2203 2216 0
-2203 -2216 0
-2203 -2213 2199 0
-2203 -2214 2200 0
-2203 -2215 2201 0
-2203 -2217 2202 0
-2203 -2218 2204 0
-2203 -2219 2205 0
2204 2223 0
-2204 -2223 0
-2204 -2220 2199 0
-2204 -2221 2200 0
-2204 -2222 2201 0
-2204 -2224 2202 0
-2204 -2225 2203 0
-2204 -2226 2205 0
2205 2230 0
-2205 -2230 0
-2205 -2227 2199 0
-2205 -2228 2200 0
-2205 -2229 2201 0
-2205 -2231 2202 0
-2205 -2232 2203 0
-2205 -2233 2204 0
2237 0
2206 2185 0
-2206 -2185 0
-2206 -2178 2207 0
-2206 -2181 2208 0
-2206 -2183 2209 0
-2206 -2187 2210 0
-2206 -2189 2211 0
-2206 -2191 2212 0
2207 2184 0
-2207 -2184 0
-2207 -2179 2206 0
-2207 -2180 2208 0
-2207 -2182 2209 0
-2207 -2186 2210 0
-2207 -2188 2211 0
-2207 -2190 2212 0
2208 2195 0
-2208 -2195 0
-2208 -2192 2206 0
-2208 -2193 2207 0
-2208 -2194 2209 0
-2208 -2196 2210 0
-2208 -2197 2211 0
-2208 -2198 2212 0
2209 2202 0
-2209 -2202 0
-2209 -2199 2206 0
-2209 -2200 2207 0
-2209 -2201 2208 0
-2209 -2203 2210 0
-2209 -2204 2211 0
-2209 -2205 2212 0
2210 2217 0
-2210 -2217 0
-2210 -2213 2206 0
-2210 -2214 2207 0
-2210 -2215 2208 0
-2210 -2216 2209 0
-2210 -2218 2211 0
-2210 -2219 2212 0
2211 2224 0
-2211 -2224 0
-2211 -2220 2206 0
-2211 -2221 2207 0
-2211 -2222 2208 0
-2211 -2223 2209 0
-2211 -2225 2210 0
-2211 -2226 2212 0
2212 2231 0
-2212 -2231 0
-2212 -2227 2206 0
-2212 -2228 2207 0
-2212 -2229 2208 0
-2212 -2230 2209 0
-2212 -2232 2210 0
-2212 -2233 2211 0
2238 0
2213 2187 0
-2213 -2187 0
-2213 -2178 2214 0
-2213 -2181 2215 0
-2213 -2183 2216 0
-2213 -2185 2217 0
-2213 -2189 2218 0
-2213 -2191 2219 0
2214 2186 0
-2214 -2186 0
-2214 -2179 2213 0
-2214 -2180 2215 0
-2214 -2182 2216 0
-2214 -2184 2217 0
-2214 -2188 2218 0
-2214 -2190 2219 0
2215 2196 0
-2215 -2196 0
-2215 -2192 2213 0
-2215 -2193 2214 0
-2215 -2194 2216 0
-2215 -2195 2217 0
-2215 -2197 2218 0
-2215 -2198 2219 0
2216 2203 0
-2216 -2203 0
-2216 -2199 2213 0
-2216 -2200 2214 0
-2216 -2201 2215 0
-2216 -2202 2217 0
-2216 -2204 2218 0
-2216 -2205 2219 0
2217 2210 0
-2217 -2210 0
-2217 -2206 2213 0
-2217 -2207 2214 0
-2217 -2208 2215 0
-2217 -2209 2216 0
-2217 -2211 2218 0
-2217 -2212 2219 0
2218 2225 0
-2218 -2225 0
-2218 -2220 2213 0
-2218 -2221 2214 0
-2218 -2222 2215 0
-2218 -2223 2216 0
-2218 -2224 2217 0
-2218 -2226 2219 0
2219 2232 0
-2219 -2232 0
-2219 -2227 2213 0
-2219 -2228 2214 0
-2219 -2229 2215 0
-2219 -2230 2216 0
-2219 -2231 2217 0
-2219 -2233 2218 0
2239 0
2220 2189 0
-2220 -2189 0
-2220 -2178 2221 0
-2220 -2181 2222 0
-2220 -2183 2223 0
-2220 -2185 2224 0
-2220 -2187 2225 0
-2220 -2191 2226 0
2221 2188 0
-2221 -2188 0
-2221 -2179 2220 0
-2221 -2180 2222 0
-2221 -2182 2223 0
-2221 -2184 2224 0
-2221 -2186 2225 0
-2221 -2190 2226 0
2222 2197 0
-2222 -2197 0
-2222 -2192 2220 0
-2222 -2193 2221 0
-2222 -2194 2223 0
-2222 -2195 2224 0
-2222 -2196 2225 0
-2222 -2198 2226 0
2223 2204 0
-2223 -2204 0
-2223 -2199 2220 0
-2223 -2200 2221 0
-2223 -2201 2222 0
-2223 -2202 2224 0
-2223 -2203 2225 0
-2223 -2205 2226 0
2224 2211 0
-2224 -2211 0
-2224 -2206 2220 0
-2224 -2207 2221 0
-2224 -2208 2222 0
-2224 -2209 2223 0
-2224 -2210 2225 0
-2224 -2212 2226 0
2225 2218 0
-2225 -2218 0
-2225 -2213 2220 0
-2225 -2214 2221 0
-2225 -2215 2222 0
-2225 -2216 2223 0
-2225 -2217 2224 0
-2225 -2219 2226 0
2226 2233 0
-2226 -2233 0
-2226 -2227 2220 0
-2226 -2228 2221 0
-2226 -2229 2222 0
-2226 -2230 2223 0
-2226 -2231 2224 0
-2226 -2232 2225 0
2240 0
2227 2191 0
-2227 -2191 0
-2227 -2178 2228 0
-2227 -2181 2229 0
-2227 -2183 2230 0
-2227 -2185 2231 0
-2227 -2187 2232 0
-2227 -2189 2233 0
2228 2190 0
-2228 -2190 0
-2228 -2179 2227 0
-2228 -2180 2229 0
-2228 -2182 2230 0
-2228 -2184 2231 0
-2228 -2186 2232 0
-2228 -2188 2233 0
2229 2198 0
-2229 -2198 0
-2229 -2192 2227 0
-2229 -2193 2228 0
-2229 -2194 2230 0
-2229 -2195 2231 0
-2229 -2196 2232 0
-2229 -2197 2233 0
2230 2205 0
-2230 -2205 0
-2230 -2199 2227 0
-2230 -2200 2228 0
-2230 -2201 2229 0
-2230 -2202 2231 0
-2230 -2203 2232 0
-2230 -2204 2233 0
2231 2212 0
-2231 -2212 0
-2231 -2206 2227 0
-2231 -2207 2228 0
-2231 -2208 2229 0
-2231 -2209 2230 0
-2231 -2210 2232 0
-2231 -2211 2233 0
2232 2219 0
-2232 -2219 0
-2232 -2213 2227 0
-2232 -2214 2228 0
-2232 -2215 2229 0
-2232 -2216 2230 0
-2232 -2217 2231 0
-2232 -2218 2233 0
2233 2226 0
-2233 -2226 0
-2233 -2220 2227 0
-2233 -2221 2228 0
-2233 -2222 2229 0
-2233 -2223 2230 0
-2233 -2224 2231 0
-2233 -2225 2232 0
-2241 0
-2242 2178 0
-2243 2181 0
-2243 2193 0
-2181 -2193 2243 0
-2244 2183 0
-2244 2200 0
-2183 -2200 2244 0
-2245 2185 0
-2245 2207 0
-2185 -2207 2245 0
-2246 2187 0
-2246 2214 0
-2187 -2214 2246 0
-2247 2189 0
-2247 2221 0
-2189 -2221 2247 0
-2248 2191 0
-2248 2228 0
-2191 -2228 2248 0
-2242 -2243 0
-2242 -2244 0
-2242 -2245 0
-2242 -2246 0
-2242 -2247 0
-2242 -2248 0
-2178 2242 2243 2244 2245 2246 2247 2248 0
-2249 2181 0
-2250 2178 0
-2250 2180 0
-2178 -2180 2250 0
-2251 2183 0
-2251 2201 0
-2183 -2201 2251 0
-2252 2185 0
-2252 2208 0
-2185 -2208 2252 0
-2253 2187 0
-2253 2215 0
-2187 -2215 2253 0
-2254 2189 0
-2254 2222 0
-2189 -2222 2254 0
-2255 2191 0
-2255 2229 0
-2191 -2229 2255 0
-2249 -2250 0
-2249 -2251 0
-2249 -2252 0
-2249 -2253 0
-2249 -2254 0
-2249 -2255 0
-2181 2249 2250 2251 2252 2253 2254 2255 0
-2256 2183 0
-2257 2178 0
-2257 2182 0
-2178 -2182 2257 0
-2258 2181 0
-2258 2194 0
-2181 -2194 2258 0
-2259 2185 0
-2259 2209 0
-2185 -2209 2259 0
-2260 2187 0
-2260 2216 0
-2187 -2216 2260 0
-2261 2189 0
-2261 2223 0
-2189 -2223 2261 0
-2262 2191 0
-2262 2230 0
-2191 -2230 2262 0
-2256 -2257 0
-2256 -2258 0
-2256 -2259 0
-2256 -2260 0
-2256 -2261 0
-2256 -2262 0
-2183 2256 2257 2258 2259 2260 2261 2262 0
-2263 2185 0
-2264 2178 0
-2264 2184 0
-2178 -2184 2264 0
-2265 2181 0
-2265 2195 0
-2181 -2195 2265 0
-2266 2183 0
-2266 2202 0
-2183 -2202 2266 0
-2267 2187 0
-2267 2217 0
-2187 -2217 2267 0
-2268 2189 0
-2268 2224 0
-2189 -2224 2268 0
-2269 2191 0
-2269 2231 0
-2191 -2231 2269 0
-2263 -2264 0
-2263 -2265 0
-2263 -2266 0
-2263 -2267 0
-2263 -2268 0
-2263 -2269 0
-2185 2263 2264 2265 2266 2267 2268 2269 0
-2270 2187 0
-2271 2178 0
-2271 2186 0
-2178 -2186 2271 0
-2272 2181 0
-2272 2196 0
-2181 -2196 2272 0
-2273 2183 0
-2273 2203 0
-2183 -2203 2273 0
-2274 2185 0
-2274 2210 0
-2185 -2210 2274 0
-2275 2189 0
-2275 2225 0
-2189 -2225 2275 0
-2276 2191 0
-2276 2232 0
-2191 -2232 2276 0
-2270 -2271 0
-2270 -2272 0
-2270 -2273 0
-2270 -2274 0
-2270 -2275 0
-2270 -2276 0
-2187 2270 2271 2272 2273 2274 2275 2276 0
-2277 2189 0
-2278 2178 0
-2278 2188 0
-2178 -2188 2278 0
-2279 2181 0
-2279 2197 0
-2181 -2197 2279 0
-2280 2183 0
-2280 2204 0
-2183 -2204 2280 0
-2281 2185 0
-2281 2211 0
-2185 -2211 2281 0
-2282 2187 0
-2282 2218 0
-2187 -2218 2282 0
-2283 2191 0
-2283 2233 0
-2191 -2233 2283 0
-2277 -2278 0
-2277 -2279 0
-2277 -2280 0
-2277 -2281 0
-2277 -2282 0
-2277 -2283 0
-2189 2277 2278 2279 2280 2281 2282 2283 0
-2284 2191 0
-2285 2178 0
-2285 2190 0
-2178 -2190 2285 0
-2286 2181 0
-2286 2198 0
-2181 -2198 2286 0
-2287 2183 0
-2287 2205 0
-2183 -2205 2287 0
-2288 2185 0
-2288 2212 0
-2185 -2212 2288 0
-2289 2187 0
-2289 2219 0
-2187 -2219 2289 0
-2290 2189 0
-2290 2226 0
-2189 -2226 2290 0
-2284 -2285 0
-2284 -2286 0
-2284 -2287 0
-2284 -2288 0
-2284 -2289 0
-2284 -2290 0
-2191 2284 2285 2286 2287 2288 2289 2290 0
-2291 2179 0
-2292 2180 0
-2292 2192 0
-2180 -2192 2292 0
-2293 2182 0
-2293 2199 0
-2182 -2199 2293 0
-2294 2184 0
-2294 2206 0
-2184 -2206 2294 0
-2295 2186 0
-2295 2213 0
-2186 -2213 2295 0
-2296 2188 0
-2296 2220 0
-2188 -2220 2296 0
-2297 2190 0
-2297 2227 0
-2190 -2227 2297 0
-2291 -2292 0
-2291 -2293 0
-2291 -2294 0
-2291 -2295 0
-2291 -2296 0
-2291 -2297 0
-2179 2291 2292 2293 2294 2295 2296 2297 0
-2298 0
-2299 2180 0
-2300 2179 0
-2300 2181 0
-2179 -2181 2300 0
-2301 2182 0
-2301 2201 0
-2182 -2201 2301 0
-2302 2184 0
-2302 2208 0
-2184 -2208 2302 0
-2303 2186 0
-2303 2215 0
-2186 -2215 2303 0
-2304 2188 0
-2304 2222 0
-2188 -2222 2304 0
-2305 2190 0
-2305 2229 0
-2190 -2229 2305 0
-2299 -2300 0
-2299 -2301 0
-2299 -2302 0
-2299 -2303 0
-2299 -2304 0
-2299 -2305 0
-2180 2299 2300 2301 2302 2303 2304 2305 0
-2306 2182 0
-2307 2179 0
-2307 2183 0
-2179 -2183 2307 0
-2308 2180 0
-2308 2194 0
-2180 -2194 2308 0
-2309 2184 0
-2309 2209 0
-2184 -2209 2309 0
-2310 2186 0
-2310 2216 0
-2186 -2216 2310 0
-2311 2188 0
-2311 2223 0
-2188 -2223 2311 0
-2312 2190 0
-2312 2230 0
-2190 -2230 2312 0
-2306 -2307 0
-2306 -2308 0
-2306 -2309 0
-2306 -2310 0
-2306 -2311 0
-2306 -2312 0
-2182 2306 2307 2308 2309 2310 2311 2312 0
-2313 2184 0
-2314 2179 0
-2314 2185 0
-2179 -2185 2314 0
-2315 2180 0
-2315 2195 0
-2180 -2195 2315 0
-2316 2182 0
-2316 2202 0
-2182 -2202 2316 0
-2317 2186 0
-2317 2217 0
-2186 -2217 2317 0
-2318 2188 0
-2318 2224 0
-2188 -2224 2318 0
-2319 2190 0
-2319 2231 0
-2190 -2231 2319 0
-2313 -2314 0
-2313 -2315 0
-2313 -2316 0
-2313 -2317 0
-2313 -2318 0
-2313 -2319 0
-2184 2313 2314 2315 2316 2317 2318 2319 0
-2320 2186 0
-2321 2179 0
-2321 2187 0
-2179 -2187 2321 0
-2322 2180 0
-2322 2196 0
-2180 -2196 2322 0
-2323 2182 0
-2323 2203 0
-2182 -2203 2323 0
-2324 2184 0
-2324 2210 0
-2184 -2210 2324 0
-2325 2188 0
-2325 2225 0
-2188 -2225 2325 0
-2326 2190 0
-2326 2232 0
-2190 -2232 2326 0
-2320 -2321 0
-2320 -2322 0
-2320 -2323 0
-2320 -2324 0
-2320 -2325 0
-2320 -2326 0
-2186 2320 2321 2322 2323 2324 2325 2326 0
-2327 2188 0
-2328 2179 0
-2328 2189 0
-2179 -2189 2328 0
-2329 2180 0
-2329 2197 0
-2180 -2197 2329 0
-2330 2182 0
-2330 2204 0
-2182 -2204 2330 0
-2331 2184 0
-2331 2211 0
-2184 -2211 2331 0
-2332 2186 0
-2332 2218 0
-2186 -2218 2332 0
-2333 2190 0
-2333 2233 0
-2190 -2233 2333 0
-2327 -2328 0
-2327 -2329 0
-2327 -2330 0
-2327 -2331 0
-2327 -2332 0
-2327 -2333 0
-2188 2327 2328 2329 2330 2331 2332 2333 0
-2334 2190 0
-2335 2179 0
-2335 2191 0
-2179 -2191 2335 0
-2336 2180 0
-2336 2198 0
-2180 -2198 2336 0
-2337 2182 0
-2337 2205 0
-2182 -2205 2337 0
-2338 2184 0
-2338 2212 0
-2184 -2212 2338 0
-2339 2186 0
-2339 2219 0
-2186 -2219 2339 0
-2340 2188 0
-2340 2226 0
-2188 -2226 2340 0
-2334 -2335 0
-2334 -2336 0
-2334 -2337 0
-2334 -2338 0
-2334 -2339 0
-2334 -2340 0
-2190 2334 2335 2336 2337 2338 2339 2340 0
-2341 2192 0
-2342 2193 0
-2342 2179 0
-2193 -2179 2342 0
-2343 2194 0
-2343 2199 0
-2194 -2199 2343 0
-2344 2195 0
-2344 2206 0
-2195 -2206 2344 0
-2345 2196 0
-2345 2213 0
-2196 -2213 2345 0
-2346 2197 0
-2346 2220 0
-2197 -2220 2346 0
-2347 2198 0
-2347 2227 0
-2198 -2227 2347 0
-2341 -2342 0
-2341 -2343 0
-2341 -2344 0
-2341 -2345 0
-2341 -2346 0
-2341 -2347 0
-2192 2341 2342 2343 2344 2345 2346 2347 0
-2348 2193 0
-2349 2192 0
-2349 2178 0
-2192 -2178 2349 0
-2350 2194 0
-2350 2200 0
-2194 -2200 2350 0
-2351 2195 0
-2351 2207 0
-2195 -2207 2351 0
-2352 2196 0
-2352 2214 0
-2196 -2214 2352 0
-2353 2197 0
-2353 2221 0
-2197 -2221 2353 0
-2354 2198 0
-2354 2228 0
-2198 -2228 2354 0
-2348 -2349 0
-2348 -2350 0
-2348 -2351 0
-2348 -2352 0
-2348 -2353 0
-2348 -2354 0
-2193 2348 2349 2350 2351 2352 2353 2354 0
-2355 0
-2356 2194 0
-2357 2192 0
-2357 2183 0
-2192 -2183 2357 0
-2358 2193 0
-2358 2182 0
-2193 -2182 2358 0
-2359 2195 0
-2359 2209 0
-2195 -2209 2359 0
-2360 2196 0
-2360 2216 0
-2196 -2216 2360 0
-2361 2197 0
-2361 2223 0
-2197 -2223 2361 0
-2362 2198 0
-2362 2230 0
-2198 -2230 2362 0
-2356 -2357 0
-2356 -2358 0
-2356 -2359 0
-2356 -2360 0
-2356 -2361 0
-2356 -2362 0
-2194 2356 2357 2358 2359 2360 2361 2362 0
-2363 2195 0
-2364 2192 0
-2364 2185 0
-2192 -2185 2364 0
-2365 2193 0
-2365 2184 0
-2193 -2184 2365 0
-2366 2194 0
-2366 2202 0
-2194 -2202 2366 0
-2367 2196 0
-2367 2217 0
-2196 -2217 2367 0
-2368 2197 0
-2368 2224 0
-2197 -2224 2368 0
-2369 2198 0
-2369 2231 0
-2198 -2231 2369 0
-2363 -2364 0
-2363 -2365 0
-2363 -2366 0
-2363 -2367 0
-2363 -2368 0
-2363 -2369 0
-2195 2363 2364 2365 2366 2367 2368 2369 0
-2370 2196 0
-2371 2192 0
-2371 2187 0
-2192 -2187 2371 0
-2372 2193 0
-2372 2186 0
-2193 -2186 2372 0
-2373 2194 0
-2373 2203 0
-2194 -2203 2373 0
-2374 2195 0
-2374 2210 0
-2195 -2210 2374 0
-2375 2197 0
-2375 2225 0
-2197 -2225 2375 0
-2376 2198 0
-2376 2232 0
-2198 -2232 2376 0
-2370 -2371 0
-2370 -2372 0
-2370 -2373 0
-2370 -2374 0
-2370 -2375 0
-2370 -2376 0
-2196 2370 2371 2372 2373 2374 2375 2376 0
-2377 2197 0
-2378 2192 0
-2378 2189 0
-2192 -2189 2378 0
-2379 2193 0
-2379 2188 0
-2193 -2188 2379 0
-2380 2194 0
-2380 2204 0
-2194 -2204 2380 0
-2381 2195 0
-2381 2211 0
-2195 -2211 2381 0
-2382 2196 0
-2382 2218 0
-2196 -2218 2382 0
-2383 2198 0
-2383 2233 0
-2198 -2233 2383 0
-2377 -2378 0
-2377 -2379 0
-2377 -2380 0
-2377 -2381 0
-2377 -2382 0
-2377 -2383 0
-2197 2377 2378 2379 2380 2381 2382 2383 0
-2384 2198 0
-2385 2192 0
-2385 2191 0
-2192 -2191 2385 0
-2386 2193 0
-2386 2190 0
-2193 -2190 2386 0
-2387 2194 0
-2387 2205 0
-2194 -2205 2387 0
-2388 2195 0
-2388 2212 0
-2195 -2212 2388 0
-2389 2196 0
-2389 2219 0
-2196 -2219 2389 0
-2390 2197 0
-2390 2226 0
-2197 -2226 2390 0
-2384 -2385 0
-2384 -2386 0
-2384 -2387 0
-2384 -2388 0
-2384 -2389 0
-2384 -2390 0
-2198 2384 2385 2386 2387 2388 2389 2390 0
-2391 2199 0
-2392 2200 0
-2392 2179 0
-2200 -2179 2392 0
-2393 2201 0
-2393 2192 0
-2201 -2192 2393 0
-2394 2202 0
-2394 2206 0
-2202 -2206 2394 0
-2395 2203 0
-2395 2213 0
-2203 -2213 2395 0
-2396 2204 0
-2396 2220 0
-2204 -2220 2396 0
-2397 2205 0
-2397 2227 0
-2205 -2227 2397 0
-2391 -2392 0
-2391 -2393 0
-2391 -2394 0
-2391 -2395 0
-2391 -2396 0
-2391 -2397 0
-2199 2391 2392 2393 2394 2395 2396 2397 0
-2398 2200 0
-2399 2199 0
-2399 2178 0
-2199 -2178 2399 0
-2400 2201 0
-2400 2193 0
-2201 -2193 2400 0
-2401 2202 0
-2401 2207 0
-2202 -2207 2401 0
-2402 2203 0
-2402 2214 0
-2203 -2214 2402 0
-2403 2204 0
-2403 2221 0
-2204 -2221 2403 0
-2404 2205 0
-2404 2228 0
-2205 -2228 2404 0
-2398 -2399 0
-2398 -2400 0
-2398 -2401 0
-2398 -2402 0
-2398 -2403 0
-2398 -2404 0
-2200 2398 2399 2400 2401 2402 2403 2404 0
-2405 2201 0
-2406 2199 0
-2406 2181 0
-2199 -2181 2406 0
-2407 2200 0
-2407 2180 0
-2200 -2180 2407 0
-2408 2202 0
-2408 2208 0
-2202 -2208 2408 0
-2409 2203 0
-2409 2215 0
-2203 -2215 2409 0
-2410 2204 0
-2410 2222 0
-2204 -2222 2410 0
-2411 2205 0
-2411 2229 0
-2205 -2229 2411 0
-2405 -2406 0
-2405 -2407 0
-2405 -2408 0
-2405 -2409 0
-2405 -2410 0
-2405 -2411 0
-2201 2405 2406 2407 2408 2409 2410 2411 0
-2412 0
-2413 2202 0
-2414 2199 0
-2414 2185 0
-2199 -2185 2414 0
-2415 2200 0
-2415 2184 0
-2200 -2184 2415 0
-2416 2201 0
-2416 2195 0
-2201 -2195 2416 0
-2417 2203 0
-2417 2217 0
-2203 -2217 2417 0
-2418 2204 0
-2418 2224 0
-2204 -2224 2418 0
-2419 2205 0
-2419 2231 0
-2205 -2231 2419 0
-2413 -2414 0
-2413 -2415 0
-2413 -2416 0
-2413 -2417 0
-2413 -2418 0
-2413 -2419 0
-2202 2413 2414 2415 2416 2417 2418 2419 0
-2420 2203 0
-2421 2199 0
-2421 2187 0
-2199 -2187 2421 0
-2422 2200 0
-2422 2186 0
-2200 -2186 2422 0
-2423 2201 0
-2423 2196 0
-2201 -2196 2423 0
-2424 2202 0
-2424 2210 0
-2202 -2210 2424 0
-2425 2204 0
-2425 2225 0
-2204 -2225 2425 0
-2426 2205 0
-2426 2232 0
-2205 -2232 2426 0
-2420 -2421 0
-2420 -2422 0
-2420 -2423 0
-2420 -2424 0
-2420 -2425 0
-2420 -2426 0
-2203 2420 2421 2422 2423 2424 2425 2426 0
-2427 2204 0
-2428 2199 0
-2428 2189 0
-2199 -2189 2428 0
-2429 2200 0
-2429 2188 0
-2200 -2188 2429 0
-2430 2201 0
-2430 2197 0
-2201 -2197 2430 0
-2431 2202 0
-2431 2211 0
-2202 -2211 2431 0
-2432 2203 0
-2432 2218 0
-2203 -2218 2432 0
-2433 2205 0
-2433 2233 0
-2205 -2233 2433 0
-2427 -2428 0
-2427 -2429 0
-2427 -2430 0
-2427 -2431 0
-2427 -2432 0
-2427 -2433 0
-2204 2427 2428 2429 2430 2431 2432 2433 0
-2434 2205 0
-2435 2199 0
-2435 2191 0
-2199 -2191 2435 0
-2436 2200 0
-2436 2190 0
-2200 -2190 2436 0
-2437 2201 0
-2437 2198 0
-2201 -2198 2437 0
-2438 2202 0
-2438 2212 0
-2202 -2212 2438 0
-2439 2203 0
-2439 2219 0
-2203 -2219 2439 0
-2440 2204 0
-2440 2226 0
-2204 -2226 2440 0
-2434 -2435 0
-2434 -2436 0
-2434 -2437 0
-2434 -2438 0
-2434 -2439 0
-2434 -2440 0
-2205 2434 2435 2436 2437 2438 2439 2440 0
-2441 2206 0
-2442 2207 0
-2442 2179 0
-2207 -2179 2442 0
-2443 2208 0
-2443 2192 0
-2208 -2192 2443 0
-2444 2209 0
-2444 2199 0
-2209 -2199 2444 0
-2445 2210 0
-2445 2213 0
-2210 -2213 2445 0
-2446 2211 0
-2446 2220 0
-2211 -2220 2446 0
-2447 2212 0
-2447 2227 0
-2212 -2227 2447 0
-2441 -2442 0
-2441 -2443 0
-2441 -2444 0
-2441 -2445 0
-2441 -2446 0
-2441 -2447 0
-2206 2441 2442 2443 2444 2445 2446 2447 0
-2448 2207 0
-2449 2206 0
-2449 2178 0
-2206 -2178 2449 0
-2450 2208 0
-2450 2193 0
-2208 -2193 2450 0
-2451 2209 0
-2451 2200 0
-2209 -2200 2451 0
-2452 2210 0
-2452 2214 0
-2210 -2214 2452 0
-2453 2211 0
-2453 2221 0
-2211 -2221 2453 0
-2454 2212 0
-2454 2228 0
-2212 -2228 2454 0
-2448 -2449 0
-2448 -2450 0
-2448 -2451 0
-2448 -2452 0
-2448 -2453 0
-2448 -2454 0
-2207 2448 2449 2450 2451 2452 2453 2454 0
-2455 2208 0
-2456 2206 0
-2456 2181 0
-2206 -2181 2456 0
-2457 2207 0
-2457 2180 0
-2207 -2180 2457 0
-2458 2209 0
-2458 2201 0
-2209 -2201 2458 0
-2459 2210 0
-2459 2215 0
-2210 -2215 2459 0
-2460 2211 0
-2460 2222 0
-2211 -2222 2460 0
-2461 2212 0
-2461 2229 0
-2212 -2229 2461 0
-2455 -2456 0
-2455 -2457 0
-2455 -2458 0
-2455 -2459 0
-2455 -2460 0
-2455 -2461 0
-2208 2455 2456 2457 2458 2459 2460 2461 0
-2462 2209 0
-2463 2206 0
-2463 2183 0
-2206 -2183 2463 0
-2464 2207 0
-2464 2182 0
-2207 -2182 2464 0
-2465 2208 0
-2465 2194 0
-2208 -2194 2465 0
-2466 2210 0
-2466 2216 0
-2210 -2216 2466 0
-2467 2211 0
-2467 2223 0
-2211 -2223 2467 0
-2468 2212 0
-2468 2230 0
-2212 -2230 2468 0
-2462 -2463 0
-2462 -2464 0
-2462 -2465 0
-2462 -2466 0
-2462 -2467 0
-2462 -2468 0
-2209 2462 2463 2464 2465 2466 2467 2468 0
-2469 0
-2470 2210 0
-2471 2206 0
-2471 2187 0
-2206 -2187 2471 0
-2472 2207 0
-2472 2186 0
-2207 -2186 2472 0
-2473 2208 0
-2473 2196 0
-2208 -2196 2473 0
-2474 2209 0
-2474 2203 0
-2209 -2203 2474 0
-2475 2211 0
-2475 2225 0
-2211 -2225 2475 0
-2476 2212 0
-2476 2232 0
-2212 -2232 2476 0
-2470 -2471 0
-2470 -2472 0
-2470 -2473 0
-2470 -2474 0
-2470 -2475 0
-2470 -2476 0
-2210 2470 2471 2472 2473 2474 2475 2476 0
-2477 2211 0
-2478 2206 0
-2478 2189 0
-2206 -2189 2478 0
-2479 2207 0
-2479 2188 0
-2207 -2188 2479 0
-2480 2208 0
-2480 2197 0
-2208 -2197 2480 0
-2481 2209 0
-2481 2204 0
-2209 -2204 2481 0
-2482 2210 0
-2482 2218 0
-2210 -2218 2482 0
-2483 2212 0
-2483 2233 0
-2212 -2233 2483 0
-2477 -2478 0
-2477 -2479 0
-2477 -2480 0
-2477 -2481 0
-2477 -2482 0
-2477 -2483 0
-2211 2477 2478 2479 2480 2481 2482 2483 0
-2484 2212 0
-2485 2206 0
-2485 2191 0
-2206 -2191 2485 0
-2486 2207 0
-2486 2190 0
-2207 -2190 2486 0
-2487 2208 0
-2487 2198 0
-2208 -2198 2487 0
-2488 2209 0
-2488 2205 0
-2209 -2205 2488 0
-2489 2210 0
-2489 2219 0
-2210 -2219 2489 0
-2490 2211 0
-2490 2226 0
-2211 -2226 2490 0
-2484 -2485 0
-2484 -2486 0
-2484 -2487 0
-2484 -2488 0
-2484 -2489 0
-2484 -2490 0
-2212 2484 2485 2486 2487 2488 2489 2490 0
-2491 2213 0
-2492 2214 0
-2492 2179 0
-2214 -2179 2492 0
-2493 2215 0
-2493 2192 0
-2215 -2192 2493 0
-2494 2216 0
-2494 2199 0
-2216 -2199 2494 0
-2495 2217 0
-2495 2206 0
-2217 -2206 2495 0
-2496 2218 0
-2496 2220 0
-2218 -2220 2496 0
-2497 2219 0
-2497 2227 0
-2219 -2227 2497 0
-2491 -2492 0
-2491 -2493 0
-2491 -2494 0
-2491 -2495 0
-2491 -2496 0
-2491 -2497 0
-2213 2491 2492 2493 2494 2495 2496 2497 0
-2498 2214 0
-2499 2213 0
-2499 2178 0
-2213 -2178 2499 0
-2500 2215 0
-2500 2193 0
-2215 -2193 2500 0
-2501 2216 0
-2501 2200 0
-2216 -2200 2501 0
-2502 2217 0
-2502 2207 0
-2217 -2207 2502 0
-2503 2218 0
-2503 2221 0
-2218 -2221 2503 0
-2504 2219 0
-2504 2228 0
-2219 -2228 2504 0
-2498 -2499 0
-2498 -2500 0
-2498 -2501 0
-2498 -2502 0
-2498 -2503 0
-2498 -2504 0
-2214 2498 2499 2500 2501 2502 2503 2504 0
-2505 2215 0
-2506 2213 0
-2506 2181 0
-2213 -2181 2506 0
-2507 2214 0
-2507 2180 0
-2214 -2180 2507 0
-2508 2216 0
-2508 2201 0
-2216 -2201 2508 0
-2509 2217 0
-2509 2208 0
-2217 -2208 2509 0
-2510 2218 0
-2510 2222 0
-2218 -2222 2510 0
-2511 2219 0
-2511 2229 0
-2219 -2229 2511 0
-2505 -2506 0
-2505 -2507 0
-2505 -2508 0
-2505 -2509 0
-2505 -2510 0
-2505 -2511 0
-2215 2505 2506 2507 2508 2509 2510 2511 0
-2512 2216 0
-2513 2213 0
-2513 2183 0
-2213 -2183 2513 0
-2514 2214 0
-2514 2182 0
-2214 -2182 2514 0
-2515 2215 0
-2515 2194 0
-2215 -2194 2515 0
-2516 2217 0
-2516 2209 0
-2217 -2209 2516 0
-2517 2218 0
-2517 2223 0
-2218 -2223 2517 0
-2518 2219 0
-2518 2230 0
-2219 -2230 2518 0
-2512 -2513 0
-2512 -2514 0
-2512 -2515 0
-2512 -2516 0
-2512 -2517 0
-2512 -2518 0
-2216 2512 2513 2514 2515 2516 2517 2518 0
-2519 2217 0
-2520 2213 0
-2520 2185 0
-2213 -2185 2520 0
-2521 2214 0
-2521 2184 0
-2214 -2184 2521 0
-2522 2215 0
-2522 2195 0
-2215 -2195 2522 0
-2523 2216 0
-2523 2202 0
-2216 -2202 2523 0
-2524 2218 0
-2524 2224 0
-2218 -2224 2524 0
-2525 2219 0
-2525 2231 0
-2219 -2231 2525 0
-2519 -2520 0
-2519 -2521 0
-2519 -2522 0
-2519 -2523 0
-2519 -2524 0
-2519 -2525 0
-2217 2519 2520 2521 2522 2523 2524 2525 0
-2526 0
-2527 2218 0
-2528 2213 0
-2528 2189 0
-2213 -2189 2528 0
-2529 2214 0
-2529 2188 0
-2214 -2188 2529 0
-2530 2215 0
-2530 2197 0
-2215 -2197 2530 0
-2531 2216 0
-2531 2204 0
-2216 -2204 2531 0
-2532 2217 0
-2532 2211 0
-2217 -2211 2532 0
-2533 2219 0
-2533 2233 0
-2219 -2233 2533 0
-2527 -2528 0
-2527 -2529 0
-2527 -2530 0
-2527 -2531 0
-2527 -2532 0
-2527 -2533 0
-2218 2527 2528 2529 2530 2531 2532 2533 0
-2534 2219 0
-2535 2213 0
-2535 2191 0
-2213 -2191 2535 0
-2536 2214 0
-2536 2190 0
-2214 -2190 2536 0
-2537 2215 0
-2537 2198 0
-2215 -2198 2537 0
-2538 2216 0
-2538 2205 0
-2216 -2205 2538 0
-2539 2217 0
-2539 2212 0
-2217 -2212 2539 0
-2540 2218 0
-2540 2226 0
-2218 -2226 2540 0
-2534 -2535 0
-2534 -2536 0
-2534 -2537 0
-2534 -2538 0
-2534 -2539 0
-2534 -2540 0
-2219 2534 2535 2536 2537 2538 2539 2540 0
-2541 2220 0
-2542 2221 0
-2542 2179 0
-2221 -2179 2542 0
-2543 2222 0
-2543 2192 0
-2222 -2192 2543 0
-2544 2223 0
-2544 2199 0
-2223 -2199 2544 0
-2545 2224 0
-2545 2206 0
-2224 -2206 2545 0
-2546 2225 0
-2546 2213 0
-2225 -2213 2546 0
-2547 2226 0
-2547 2227 0
-2226 -2227 2547 0
-2541 -2542 0
-2541 -2543 0
-2541 -2544 0
-2541 -2545 0
-2541 -2546 0
-2541 -2547 0
-2220 2541 2542 2543 2544 2545 2546 2547 0
-2548 2221 0
-2549 2220 0
-2549 2178 0
-2220 -2178 2549 0
-2550 2222 0
-2550 2193 0
-2222 -2193 2550 0
-2551 2223 0
-2551 2200 0
-2223 -2200 2551 0
-2552 2224 0
-2552 2207 0
-2224 -2207 2552 0
-2553 2225 0
-2553 2214 0
-2225 -2214 2553 0
-2554 2226 0
-2554 2228 0
-2226 -2228 2554 0
-2548 -2549 0
-2548 -2550 0
-2548 -2551 0
-2548 -2552 0
-2548 -2553 0
-2548 -2554 0
-2221 2548 2549 2550 2551 2552 2553 2554 0
-2555 2222 0
-2556 2220 0
-2556 2181 0
-2220 -2181 2556 0
-2557 2221 0
-2557 2180 0
-2221 -2180 2557 0
-2558 2223 0
-2558 2201 0
-2223 -2201 2558 0
-2559 2224 0
-2559 2208 0
-2224 -2208 2559 0
-2560 2225 0
-2560 2215 0
-2225 -2215 2560 0
-2561 2226 0
-2561 2229 0
-2226 -2229 2561 0
-2555 -2556 0
-2555 -2557 0
-2555 -2558 0
-2555 -2559 0
-2555 -2560 0
-2555 -2561 0
-2222 2555 2556 2557 2558 2559 2560 2561 0
-2562 2223 0
-2563 2220 0
-2563 2183 0
-2220 -2183 2563 0
-2564 2221 0
-2564 2182 0
-2221 -2182 2564 0
-2565 2222 0
-2565 2194 0
-2222 -2194 2565 0
-2566 2224 0
-2566 2209 0
-2224 -2209 2566 0
-2567 2225 0
-2567 2216 0
-2225 -2216 2567 0
-2568 2226 0
-2568 2230 0
-2226 -2230 2568 0
-2562 -2563 0
-2562 -2564 0
-2562 -2565 0
-2562 -2566 0
-2562 -2567 0
-2562 -2568 0
-2223 2562 2563 2564 2565 2566 2567 2568 0
-2569 2224 0
-2570 2220 0
-2570 2185 0
-2220 -2185 2570 0
-2571 2221 0
-2571 2184 0
-2221 -2184 2571 0
-2572 2222 0
-2572 2195 0
-2222 -2195 2572 0
-2573 2223 0
-2573 2202 0
-2223 -2202 2573 0
-2574 2225 0
-2574 2217 0
-2225 -2217 2574 0
-2575 2226 0
-2575 2231 0
-2226 -2231 2575 0
-2569 -2570 0
-2569 -2571 0
-2569 -2572 0
-2569 -2573 0
-2569 -2574 0
-2569 -2575 0
-2224 2569 2570 2571 2572 2573 2574 2575 0
-2576 2225 0
-2577 2220 0
-2577 2187 0
-2220 -2187 2577 0
-2578 2221 0
-2578 2186 0
-2221 -2186 2578 0
-2579 2222 0
-2579 2196 0
-2222 -2196 2579 0
-2580 2223 0
-2580 2203 0
-2223 -2203 2580 0
-2581 2224 0
-2581 2210 0
-2224 -2210 2581 0
-2582 2226 0
-2582 2232 0
-2226 -2232 2582 0
-2576 -2577 0
-2576 -2578 0
-2576 -2579 0
-2576 -2580 0
-2576 -2581 0
-2576 -2582 0
-2225 2576 2577 2578 2579 2580 2581 2582 0
-2583 0
-2584 2226 0
-2585 2220 0
-2585 2191 0
-2220 -2191 2585 0
-2586 2221 0
-2586 2190 0
-2221 -2190 2586 0
-2587 2222 0
-2587 2198 0
-2222 -2198 2587 0
-2588 2223 0
-2588 2205 0
-2223 -2205 2588 0
-2589 2224 0
-2589 2212 0
-2224 -2212 2589 0
-2590 2225 0
-2590 2219 0
-2225 -2219 2590 0
-2584 -2585 0
-2584 -2586 0
-2584 -2587 0
-2584 -2588 0
-2584 -2589 0
-2584 -2590 0
-2226 2584 2585 2586 2587 2588 2589 2590 0
-2591 2227 0
-2592 2228 0
-2592 2179 0
-2228 -2179 2592 0
-2593 2229 0
-2593 2192 0
-2229 -2192 2593 0
-2594 2230 0
-2594 2199 0
-2230 -2199 2594 0
-2595 2231 0
-2595 2206 0
-2231 -2206 2595 0
-2596 2232 0
-2596 2213 0
-2232 -2213 2596 0
-2597 2233 0
-2597 2220 0
-2233 -2220 2597 0
-2591 -2592 0
-2591 -2593 0
-2591 -2594 0
-2591 -2595 0
-2591 -2596 0
-2591 -2597 0
-2227 2591 2592 2593 2594 2595 2596 2597 0
-2598 2228 0
-2599 2227 0
-2599 2178 0
-2227 -2178 2599 0
-2600 2229 0
-2600 2193 0
-2229 -2193 2600 0
-2601 2230 0
-2601 2200 0
-2230 -2200 2601 0
-2602 2231 0
-2602 2207 0
-2231 -2207 2602 0
-2603 2232 0
-2603 2214 0
-2232 -2214 2603 0
-2604 2233 0
-2604 2221 0
-2233 -2221 2604 0
-2598 -2599 0
-2598 -2600 0
-2598 -2601 0
-2598 -2602 0
-2598 -2603 0
-2598 -2604 0
-2228 2598 2599 2600 2601 2602 2603 2604 0
-2605 2229 0
-2606 2227 0
-2606 2181 0
-2227 -2181 2606 0
-2607 2228 0
-2607 2180 0
-2228 -2180 2607 0
-2608 2230 0
-2608 2201 0
-2230 -2201 2608 0
-2609 2231 0
-2609 2208 0
-2231 -2208 2609 0
-2610 2232 0
-2610 2215 0
-2232 -2215 2610 0
-2611 2233 0
-2611 2222 0
-2233 -2222 2611 0
-2605 -2606 0
-2605 -2607 0
-2605 -2608 0
-2605 -2609 0
-2605 -2610 0
-2605 -2611 0
-2229 2605 2606 2607 2608 2609 2610 2611 0
-2612 2230 0
-2613 2227 0
-2613 2183 0
-2227 -2183 2613 0
-2614 2228 0
-2614 2182 0
-2228 -2182 2614 0
-2615 2229 0
-2615 2194 0
-2229 -2194 2615 0
-2616 2231 0
-2616 2209 0
-2231 -2209 2616 0
-2617 2232 0
-2617 2216 0
-2232 -2216 2617 0
-2618 2233 0
-2618 2223 0
-2233 -2223 2618 0
-2612 -2613 0
-2612 -2614 0
-2612 -2615 0
-2612 -2616 0
-2612 -2617 0
-2612 -2618 0
-2230 2612 2613 2614 2615 2616 2617 2618 0
-2619 2231 0
-2620 2227 0
-2620 2185 0
-2227 -2185 2620 0
-2621 2228 0
-2621 2184 0
-2228 -2184 2621 0
-2622 2229 0
-2622 2195 0
-2229 -2195 2622 0
-2623 2230 0
-2623 2202 0
-2230 -2202 2623 0
-2624 2232 0
-2624 2217 0
-2232 -2217 2624 0
-2625 2233 0
-2625 2224 0
-2233 -2224 2625 0
-2619 -2620 0
-2619 -2621 0
-2619 -2622 0
-2619 -2623 0
-2619 -2624 0
-2619 -2625 0
-2231 2619 2620 2621 2622 2623 2624 2625 0
-2626 2232 0
-2627 2227 0
-2627 2187 0
-2227 -2187 2627 0
-2628 2228 0
-2628 2186 0
-2228 -2186 2628 0
-2629 2229 0
-2629 2196 0
-2229 -2196 2629 0
-2630 2230 0
-2630 2203 0
-2230 -2203 2630 0
-2631 2231 0
-2631 2210 0
-2231 -2210 2631 0
-2632 2233 0
-2632 2225 0
-2233 -2225 2632 0
-2626 -2627 0
-2626 -2628 0
-2626 -2629 0
-2626 -2630 0
-2626 -2631 0
-2626 -2632 0
-2232 2626 2627 2628 2629 2630 2631 2632 0
-2633 2233 0
-2634 2227 0
-2634 2189 0
-2227 -2189 2634 0
-2635 2228 0
-2635 2188 0
-2228 -2188 2635 0
-2636 2229 0
-2636 2197 0
-2229 -2197 2636 0
-2637 2230 0
-2637 2204 0
-2230 -2204 2637 0
-2638 2231 0
-2638 2211 0
-2231 -2211 2638 0
-2639 2232 0
-2639 2218 0
-2232 -2218 2639 0
-2633 -2634 0
-2633 -2635 0
-2633 -2636 0
-2633 -2637 0
-2633 -2638 0
-2633 -2639 0
-2233 2633 2634 2635 2636 2637 2638 2639 0
-2640 0
-2641 2177 0
-2641 2178 0
-2641 2181 0
-2641 2183 0
-2641 2185 0
-2641 2187 0
-2641 2189 0
-2641 2191 0
-2177 -2178 -2181 -2183 -2185 -2187 -2189 -2191 2641 0
-2642 2177 0
-2642 2179 0
-2642 2192 0
-2642 2199 0
-2642 2206 0
-2642 2213 0
-2642 2220 0
-2642 2227 0
-2177 -2179 -2192 -2199 -2206 -2213 -2220 -2227 2642 0
-2643 2179 0
-2643 2234 0
-2643 2180 0
-2643 2182 0
-2643 2184 0
-2643 2186 0
-2643 2188 0
-2643 2190 0
-2179 -2234 -2180 -2182 -2184 -2186 -2188 -2190 2643 0
-2644 2178 0
-2644 2234 0
-2644 2193 0
-2644 2200 0
-2644 2207 0
-2644 2214 0
-2644 2221 0
-2644 2228 0
-2178 -2234 -2193 -2200 -2207 -2214 -2221 -2228 2644 0
-2645 2192 0
-2645 2193 0
-2645 2235 0
-2645 2194 0
-2645 2195 0
-2645 2196 0
-2645 2197 0
-2645 2198 0
-2192 -2193 -2235 -2194 -2195 -2196 -2197 -2198 2645 0
-2646 2181 0
-2646 2180 0
-2646 2235 0
-2646 2201 0
-2646 2208 0
-2646 2215 0
-2646 2222 0
-2646 2229 0
-2181 -2180 -2235 -2201 -2208 -2215 -2222 -2229 2646 0
-2647 2199 0
-2647 2200 0
-2647 2201 0
-2647 2236 0
-2647 2202 0
-2647 2203 0
-2647 2204 0
-2647 2205 0
-2199 -2200 -2201 -2236 -2202 -2203 -2204 -2205 2647 0
-2648 2183 0
-2648 2182 0
-2648 2194 0
-2648 2236 0
-2648 2209 0
-2648 2216 0
-2648 2223 0
-2648 2230 0
-2183 -2182 -2194 -2236 -2209 -2216 -2223 -2230 2648 0
-2649 2206 0
-2649 2207 0
-2649 2208 0
-2649 2209 0
-2649 2237 0
-2649 2210 0
-2649 2211 0
-2649 2212 0
-2206 -2207 -2208 -2209 -2237 -2210 -2211 -2212 2649 0
-2650 2185 0
-2650 2184 0
-2650 2195 0
-2650 2202 0
-2650 2237 0
-2650 2217 0
-2650 2224 0
-2650 2231 0
-2185 -2184 -2195 -2202 -2237 -2217 -2224 -2231 2650 0
-2651 2213 0
-2651 2214 0
-2651 2215 0
-2651 2216 0
-2651 2217 0
-2651 2238 0
-2651 2218 0
-2651 2219 0
-2213 -2214 -2215 -2216 -2217 -2238 -2218 -2219 2651 0
-2652 2187 0
-2652 2186 0
-2652 2196 0
-2652 2203 0
-2652 2210 0
-2652 2238 0
-2652 2225 0
-2652 2232 0
-2187 -2186 -2196 -2203 -2210 -2238 -2225 -2232 2652 0
-2653 2220 0
-2653 2221 0
-2653 2222 0
-2653 2223 0
-2653 2224 0
-2653 2225 0
-2653 2239 0
-2653 2226 0
-2220 -2221 -2222 -2223 -2224 -2225 -2239 -2226 2653 0
-2654 2189 0
-2654 2188 0
-2654 2197 0
-2654 2204 0
-2654 2211 0
-2654 2218 0
-2654 2239 0
-2654 2233 0
-2189 -2188 -2197 -2204 -2211 -2218 -2239 -2233 2654 0
-2655 2227 0
-2655 2228 0
-2655 2229 0
-2655 2230 0
-2655 2231 0
-2655 2232 0
-2655 2233 0
-2655 2240 0
-2227 -2228 -2229 -2230 -2231 -2232 -2233 -2240 2655 0
-2656 2191 0
-2656 2190 0
-2656 2198 0
-2656 2205 0
-2656 2212 0
-2656 2219 0
-2656 2226 0
-2656 2240 0
-2191 -2190 -2198 -2205 -2212 -2219 -2226 -2240 2656 0
-2241 9 0
-2642 -2641 9 0
-9 2241 2642 0
-9 2241 2641 0
-2242 11 0
-2642 -2643 11 0
-11 2242 2642 0
-11 2242 2643 0
-2249 13 0
-2642 -2645 13 0
-13 2249 2642 0
-13 2249 2645 0
-2256 15 0
-2642 -2647 15 0
-15 2256 2642 0
-15 2256 2647 0
-2263 17 0
-2642 -2649 17 0
-17 2263 2642 0
-17 2263 2649 0
-2270 19 0
-2642 -2651 19 0
-19 2270 2642 0
-19 2270 2651 0
-2277 21 0
-2642 -2653 21 0
-21 2277 2642 0
-21 2277 2653 0
-2284 23 0
-2642 -2655 23 0
-23 2284 2642 0
-23 2284 2655 0
-2291 25 0
-2644 -2641 25 0
-25 2291 2644 0
-25 2291 2641 0
-2298 26 0
-2644 -2643 26 0
-26 2298 2644 0
-26 2298 2643 0
-2299 28 0
-2644 -2645 28 0
-28 2299 2644 0
-28 2299 2645 0
-2306 30 0
-2644 -2647 30 0
-30 2306 2644 0
-30 2306 2647 0
-2313 32 0
-2644 -2649 32 0
-32 2313 2644 0
-32 2313 2649 0
-2320 34 0
-2644 -2651 34 0
-34 2320 2644 0
-34 2320 2651 0
-2327 36 0
-2644 -2653 36 0
-36 2327 2644 0
-36 2327 2653 0
-2334 38 0
-2644 -2655 38 0
-38 2334 2644 0
-38 2334 2655 0
-2341 40 0
-2646 -2641 40 0
-40 2341 2646 0
-40 2341 2641 0
-2348 42 0
-2646 -2643 42 0
-42 2348 2646 0
-42 2348 2643 0
-2355 43 0
-2646 -2645 43 0
-43 2355 2646 0
-43 2355 2645 0
-2356 45 0
-2646 -2647 45 0
-45 2356 2646 0
-45 2356 2647 0
-2363 47 0
-2646 -2649 47 0
-47 2363 2646 0
-47 2363 2649 0
-2370 49 0
-2646 -2651 49 0
-49 2370 2646 0
-49 2370 2651 0
-2377 51 0
-2646 -2653 51 0
-51 2377 2646 0
-51 2377 2653 0
-2384 53 0
-2646 -2655 53 0
-53 2384 2646 0
-53 2384 2655 0
-2391 55 0
-2648 -2641 55 0
-55 2391 2648 0
-55 2391 2641 0
-2398 57 0
-2648 -2643 57 0
-57 2398 2648 0
-57 2398 2643 0
-2405 59 0
-2648 -2645 59 0
-59 2405 2648 0
-59 2405 2645 0
-2412 60 0
-2648 -2647 60 0
-60 2412 2648 0
-60 2412 2647 0
-2413 62 0
-2648 -2649 62 0
-62 2413 2648 0
-62 2413 2649 0
-2420 64 0
-2648 -2651 64 0
-64 2420 2648 0
-64 2420 2651 0
-2427 66 0
-2648 -2653 66 0
-66 2427 2648 0
-66 2427 2653 0
-2434 68 0
-2648 -2655 68 0
-68 2434 2648 0
-68 2434 2655 0
-2441 70 0
-2650 -2641 70 0
-70 2441 2650 0
-70 2441 2641 0
-2448 72 0
-2650 -2643 72 0
-72 2448 2650 0
-72 2448 2643 0
-2455 74 0
-2650 -2645 74 0
-74 2455 2650 0
-74 2455 2645 0
-2462 76 0
-2650 -2647 76 0
-76 2462 2650 0
-76 2462 2647 0
-2469 77 0
-2650 -2649 77 0
-77 2469 2650 0
-77 2469 2649 0
-2470 79 0
-2650 -2651 79 0
-79 2470 2650 0
-79 2470 2651 0
-2477 81 0
-2650 -2653 81 0
-81 2477 2650 0
-81 2477 2653 0
-2484 83 0
-2650 -2655 83 0
-83 2484 2650 0
-83 2484 2655 0
-2491 85 0
-2652 -2641 85 0
-85 2491 2652 0
-85 2491 2641 0
-2498 87 0
-2652 -2643 87 0
-87 2498 2652 0
-87 2498 2643 0
-2505 89 0
-2652 -2645 89 0
-89 2505 2652 0
-89 2505 2645 0
-2512 91 0
-2652 -2647 91 0
-91 2512 2652 0
-91 2512 2647 0
-2519 93 0
-2652 -2649 93 0
-93 2519 2652 0
-93 2519 2649 0
-2526 94 0
-2652 -2651 94 0
-94 2526 2652 0
-94 2526 2651 0
-2527 96 0
-2652 -2653 96 0
-96 2527 2652 0
-96 2527 2653 0
-2534 98 0
-2652 -2655 98 0
-98 2534 2652 0
-98 2534 2655 0
-2541 100 0
-2654 -2641 100 0
-100 2541 2654 0
-100 2541 2641 0
-2548 102 0
-2654 -2643 102 0
-102 2548 2654 0
-102 2548 2643 0
-2555 104 0
-2654 -2645 104 0
-104 2555 2654 0
-104 2555 2645 0
-2562 106 0
-2654 -2647 106 0
-106 2562 2654 0
-106 2562 2647 0
-2569 108 0
-2654 -2649 108 0
-108 2569 2654 0
-108 2569 2649 0
-2576 110 0
-2654 -2651 110 0
-110 2576 2654 0
-110 2576 2651 0
-2583 111 0
-2654 -2653 111 0
-111 2583 2654 0
-111 2583 2653 0
-2584 113 0
-2654 -2655 113 0
-113 2584 2654 0
-113 2584 2655 0
-2591 115 0
-2656 -2641 115 0
-115 2591 2656 0
-115 2591 2641 0
-2598 117 0
-2656 -2643 117 0
-117 2598 2656 0
-117 2598 2643 0
-2605 119 0
-2656 -2645 119 0
-119 2605 2656 0
-119 2605 2645 0
-2612 121 0
-2656 -2647 121 0
-121 2612 2656 0
-121 2612 2647 0
-2619 123 0
-2656 -2649 123 0
-123 2619 2656 0
-123 2619 2649 0
-2626 125 0
-2656 -2651 125 0
-125 2626 2656 0
-125 2626 2651 0
-2633 127 0
-2656 -2653 127 0
-127 2633 2656 0
-127 2633 2653 0
-2640 128 0
-2656 -2655 128 0
-128 2640 2656 0
-128 2640 2655 0
