p cnf 2624 6488
c ind 1 2 3 4 5 6 7 8 9 10 11 12 13 14 15 16 17 18 19 20 21 22 23 24 25 26 27 28 29 30 31 32 33 34 35 36 37 38 39 40 41 42 43 44 45 46 47 48 49 50 0
c ind 51 52 53 54 55 56 57 58 59 60 61 62 63 64 65 66 67 68 69 70 71 72 73 74 75 76 77 78 79 80 81 82 83 84 85 86 87 88 89 90 91 92 93 94 95 96 97 98 99 100 0
c ind 101 102 103 104 105 106 107 108 109 110 111 112 113 114 115 116 117 118 119 120 121 122 123 124 125 126 127 128 2145 2146 2147 2148 2149 2150 2151 2152 2153 2154 2155 2156 2157 2158 2159 2160 2161 2162 2163 2164 2165 2166 0
c ind 2167 2168 2169 2170 2171 2172 2173 2174 2175 2176 2177 2178 2179 2180 2181 2182 2183 2184 2185 2186 2187 2188 2189 2190 2191 2192 2193 2194 2195 2196 2197 2198 2199 2200 2201 2202 2203 2204 2205 2206 2207 2208 2209 2210 2211 2212 2213 2214 2215 2216 0
c ind 2217 2218 2219 2220 2221 2222 2223 2224 2225 2226 2227 2228 2229 2230 2231 2232 2233 2234 2235 2236 2237 2238 2239 2240 2241 2242 2243 2244 2245 2246 2247 2248 2249 2250 2251 2252 2253 2254 2255 2256 2257 2258 2259 2260 2261 2262 2263 2264 2265 2266 0
c ind 2267 2268 2269 2270 2271 2272 2273 2274 2275 2276 2277 2278 2279 2280 2281 2282 2283 2284 2285 2286 2287 2288 2289 2290 2291 2292 2293 2294 2295 2296 2297 2298 2299 2300 2301 2302 2303 2304 2305 2306 2307 2308 2309 2310 2311 2312 2313 2314 2315 2316 0
c ind 2317 2318 2319 2320 2321 2322 2323 2324 2325 2326 2327 2328 2329 2330 2331 2332 2333 2334 2335 2336 2337 2338 2339 2340 2341 2342 2343 2344 2345 2346 2347 2348 2349 2350 2351 2352 2353 2354 2355 2356 2357 2358 2359 2360 2361 2362 2363 2364 2365 2366 0
c ind 2367 2368 2369 2370 2371 2372 2373 2374 2375 2376 2377 2378 2379 2380 2381 2382 2383 2384 2385 2386 2387 2388 2389 2390 2391 2392 2393 2394 2395 2396 2397 2398 2399 2400 2401 2402 2403 2404 2405 2406 2407 2408 2409 2410 2411 2412 2413 2414 2415 2416 0
c ind 2417 2418 2419 2420 2421 2422 2423 2424 2425 2426 2427 2428 2429 2430 2431 2432 2433 2434 2435 2436 2437 2438 2439 2440 2441 2442 2443 2444 2445 2446 2447 2448 2449 2450 2451 2452 2453 2454 2455 2456 2457 2458 2459 2460 2461 2462 2463 2464 2465 2466 0
c ind 2467 2468 2469 2470 2471 2472 2473 2474 2475 2476 2477 2478 2479 2480 2481 2482 2483 2484 2485 2486 2487 2488 2489 2490 2491 2492 2493 2494 2495 2496 2497 2498 2499 2500 2501 2502 2503 2504 2505 2506 2507 2508 2509 2510 2511 2512 2513 2514 2515 2516 0
c ind 2517 2518 2519 2520 2521 2522 2523 2524 2525 2526 2527 2528 2529 2530 2531 2532 2533 2534 2535 2536 2537 2538 2539 2540 2541 2542 2543 2544 2545 2546 2547 2548 2549 2550 2551 2552 2553 2554 2555 2556 2557 2558 2559 2560 2561 2562 2563 2564 2565 2566 0
c ind 2567 2568 2569 2570 2571 2572 2573 2574 2575 2576 2577 2578 2579 2580 2581 2582 2583 2584 2585 2586 2587 2588 2589 2590 2591 2592 2593 2594 2595 2596 2597 2598 2599 2600 2601 2602 2603 2604 2605 2606 2607 2608 2609 2610 2611 2612 2613 2614 2615 2616 0
c ind 2617 2618 2619 2620 2621 2622 2623 2624 0
-1 0
-2 0
-3 0
-4 0
-5 0
-6 0
-7 0
-8 0
1 -9 0
10 -11 0
12 -13 0
14 -15 0
16 -17 0
18 -19 0
20 -21 0
22 -23 0
24 -25 0
2 -26 0
27 -28 0
29 -30 0
31 -32 0
33 -34 0
35 -36 0
37 -38 0
39 -40 0
41 -42 0
3 -43 0
44 -45 0
46 -47 0
48 -49 0
50 -51 0
52 -53 0
54 -55 0
56 -57 0
58 -59 0
4 -60 0
61 -62 0
63 -64 0
65 -66 0
67 -68 0
69 -70 0
71 -72 0
73 -74 0
75 -76 0
5 -77 0
78 -79 0
80 -81 0
82 -83 0
84 -85 0
86 -87 0
88 -89 0
90 -91 0
92 -93 0
6 -94 0
95 -96 0
97 -98 0
99 -100 0
101 -102 0
103 -104 0
105 -106 0
107 -108 0
109 -110 0
7 -111 0
112 -113 0
114 -115 0
116 -117 0
118 -119 0
120 -121 0
122 -123 0
124 -125 0
126 -127 0
8 -128 0
1 -1 0
24 -10 0
39 -12 0
54 -14 0
69 -16 0
84 -18 0
99 -20 0
114 -22 0
10 -24 0
2 -2 0
41 -27 0
56 -29 0
71 -31 0
86 -33 0
101 -35 0
116 -37 0
12 -39 0
27 -41 0
3 -3 0
58 -44 0
73 -46 0
88 -48 0
103 -50 0
118 -52 0
14 -54 0
29 -56 0
44 -58 0
4 -4 0
75 -61 0
90 -63 0
105 -65 0
120 -67 0
16 -69 0
31 -71 0
46 -73 0
61 -75 0
5 -5 0
92 -78 0
107 -80 0
122 -82 0
18 -84 0
33 -86 0
48 -88 0
63 -90 0
78 -92 0
6 -6 0
109 -95 0
124 -97 0
20 -99 0
35 -101 0
50 -103 0
65 -105 0
80 -107 0
95 -109 0
7 -7 0
126 -112 0
22 -114 0
37 -116 0
52 -118 0
67 -120 0
82 -122 0
97 -124 0
112 -126 0
8 -8 0
1 129 0
-129 130 0
10 -129 131 0
-131 132 0
12 -131 133 0
-133 134 0
14 -133 135 0
-135 136 0
16 -135 137 0
-137 138 0
18 -137 139 0
-139 140 0
20 -139 141 0
-141 142 0
22 -141 143 0
-143 144 0
24 -143 145 0
-145 146 0
2 -145 147 0
-147 148 0
27 -147 149 0
-149 150 0
29 -149 151 0
-151 152 0
31 -151 153 0
-153 154 0
33 -153 155 0
-155 156 0
35 -155 157 0
-157 158 0
37 -157 159 0
-159 160 0
39 -159 161 0
-161 162 0
41 -161 163 0
-163 164 0
3 -163 165 0
-165 166 0
44 -165 167 0
-167 168 0
46 -167 169 0
-169 170 0
48 -169 171 0
-171 172 0
50 -171 173 0
-173 174 0
52 -173 175 0
-175 176 0
54 -175 177 0
-177 178 0
56 -177 179 0
-179 180 0
58 -179 181 0
-181 182 0
4 -181 183 0
-183 184 0
61 -183 185 0
-185 186 0
63 -185 187 0
-187 188 0
65 -187 189 0
-189 190 0
67 -189 191 0
-191 192 0
69 -191 193 0
-193 194 0
71 -193 195 0
-195 196 0
73 -195 197 0
-197 198 0
75 -197 199 0
-199 200 0
5 -199 0
10 130 0
-130 201 0
12 -130 132 0
-132 202 0
14 -132 134 0
-134 203 0
16 -134 136 0
-136 204 0
18 -136 138 0
-138 205 0
20 -138 140 0
-140 206 0
22 -140 142 0
-142 207 0
24 -142 144 0
-144 208 0
2 -144 146 0
-146 209 0
27 -146 148 0
-148 210 0
29 -148 150 0
-150 211 0
31 -150 152 0
-152 212 0
33 -152 154 0
-154 213 0
35 -154 156 0
-156 214 0
37 -156 158 0
-158 215 0
39 -158 160 0
-160 216 0
41 -160 162 0
-162 217 0
3 -162 164 0
-164 218 0
44 -164 166 0
-166 219 0
46 -166 168 0
-168 220 0
48 -168 170 0
-170 221 0
50 -170 172 0
-172 222 0
52 -172 174 0
-174 223 0
54 -174 176 0
-176 224 0
56 -176 178 0
-178 225 0
58 -178 180 0
-180 226 0
4 -180 182 0
-182 227 0
61 -182 184 0
-184 228 0
63 -184 186 0
-186 229 0
65 -186 188 0
-188 230 0
67 -188 190 0
-190 231 0
69 -190 192 0
-192 232 0
71 -192 194 0
-194 233 0
73 -194 196 0
-196 234 0
75 -196 198 0
-198 235 0
5 -198 200 0
-200 236 0
78 -200 0
12 201 0
-201 237 0
14 -201 202 0
-202 238 0
16 -202 203 0
-203 239 0
18 -203 204 0
-204 240 0
20 -204 205 0
-205 241 0
22 -205 206 0
-206 242 0
24 -206 207 0
-207 243 0
2 -207 208 0
-208 244 0
27 -208 209 0
-209 245 0
29 -209 210 0
-210 246 0
31 -210 211 0
-211 247 0
33 -211 212 0
-212 248 0
35 -212 213 0
-213 249 0
37 -213 214 0
-214 250 0
39 -214 215 0
-215 251 0
41 -215 216 0
-216 252 0
3 -216 217 0
-217 253 0
44 -217 218 0
-218 254 0
46 -218 219 0
-219 255 0
48 -219 220 0
-220 256 0
50 -220 221 0
-221 257 0
52 -221 222 0
-222 258 0
54 -222 223 0
-223 259 0
56 -223 224 0
-224 260 0
58 -224 225 0
-225 261 0
4 -225 226 0
-226 262 0
61 -226 227 0
-227 263 0
63 -227 228 0
-228 264 0
65 -228 229 0
-229 265 0
67 -229 230 0
-230 266 0
69 -230 231 0
-231 267 0
71 -231 232 0
-232 268 0
73 -232 233 0
-233 269 0
75 -233 234 0
-234 270 0
5 -234 235 0
-235 271 0
78 -235 236 0
-236 272 0
80 -236 0
14 237 0
-237 273 0
16 -237 238 0
-238 274 0
18 -238 239 0
-239 275 0
20 -239 240 0
-240 276 0
22 -240 241 0
-241 277 0
24 -241 242 0
-242 278 0
2 -242 243 0
-243 279 0
27 -243 244 0
-244 280 0
29 -244 245 0
-245 281 0
31 -245 246 0
-246 282 0
33 -246 247 0
-247 283 0
35 -247 248 0
-248 284 0
37 -248 249 0
-249 285 0
39 -249 250 0
-250 286 0
41 -250 251 0
-251 287 0
3 -251 252 0
-252 288 0
44 -252 253 0
-253 289 0
46 -253 254 0
-254 290 0
48 -254 255 0
-255 291 0
50 -255 256 0
-256 292 0
52 -256 257 0
-257 293 0
54 -257 258 0
-258 294 0
56 -258 259 0
-259 295 0
58 -259 260 0
-260 296 0
4 -260 261 0
-261 297 0
61 -261 262 0
-262 298 0
63 -262 263 0
-263 299 0
65 -263 264 0
-264 300 0
67 -264 265 0
-265 301 0
69 -265 266 0
-266 302 0
71 -266 267 0
-267 303 0
73 -267 268 0
-268 304 0
75 -268 269 0
-269 305 0
5 -269 270 0
-270 306 0
78 -270 271 0
-271 307 0
80 -271 272 0
-272 308 0
82 -272 0
16 273 0
-273 309 0
18 -273 274 0
-274 310 0
20 -274 275 0
-275 311 0
22 -275 276 0
-276 312 0
24 -276 277 0
-277 313 0
2 -277 278 0
-278 314 0
27 -278 279 0
-279 315 0
29 -279 280 0
-280 316 0
31 -280 281 0
-281 317 0
33 -281 282 0
-282 318 0
35 -282 283 0
-283 319 0
37 -283 284 0
-284 320 0
39 -284 285 0
-285 321 0
41 -285 286 0
-286 322 0
3 -286 287 0
-287 323 0
44 -287 288 0
-288 324 0
46 -288 289 0
-289 325 0
48 -289 290 0
-290 326 0
50 -290 291 0
-291 327 0
52 -291 292 0
-292 328 0
54 -292 293 0
-293 329 0
56 -293 294 0
-294 330 0
58 -294 295 0
-295 331 0
4 -295 296 0
-296 332 0
61 -296 297 0
-297 333 0
63 -297 298 0
-298 334 0
65 -298 299 0
-299 335 0
67 -299 300 0
-300 336 0
69 -300 301 0
-301 337 0
71 -301 302 0
-302 338 0
73 -302 303 0
-303 339 0
75 -303 304 0
-304 340 0
5 -304 305 0
-305 341 0
78 -305 306 0
-306 342 0
80 -306 307 0
-307 343 0
82 -307 308 0
-308 344 0
84 -308 0
18 309 0
-309 345 0
20 -309 310 0
-310 346 0
22 -310 311 0
-311 347 0
24 -311 312 0
-312 348 0
2 -312 313 0
-313 349 0
27 -313 314 0
-314 350 0
29 -314 315 0
-315 351 0
31 -315 316 0
-316 352 0
33 -316 317 0
-317 353 0
35 -317 318 0
-318 354 0
37 -318 319 0
-319 355 0
39 -319 320 0
-320 356 0
41 -320 321 0
-321 357 0
3 -321 322 0
-322 358 0
44 -322 323 0
-323 359 0
46 -323 324 0
-324 360 0
48 -324 325 0
-325 361 0
50 -325 326 0
-326 362 0
52 -326 327 0
-327 363 0
54 -327 328 0
-328 364 0
56 -328 329 0
-329 365 0
58 -329 330 0
-330 366 0
4 -330 331 0
-331 367 0
61 -331 332 0
-332 368 0
63 -332 333 0
-333 369 0
65 -333 334 0
-334 370 0
67 -334 335 0
-335 371 0
69 -335 336 0
-336 372 0
71 -336 337 0
-337 373 0
73 -337 338 0
-338 374 0
75 -338 339 0
-339 375 0
5 -339 340 0
-340 376 0
78 -340 341 0
-341 377 0
80 -341 342 0
-342 378 0
82 -342 343 0
-343 379 0
84 -343 344 0
-344 380 0
86 -344 0
20 345 0
-345 381 0
22 -345 346 0
-346 382 0
24 -346 347 0
-347 383 0
2 -347 348 0
-348 384 0
27 -348 349 0
-349 385 0
29 -349 350 0
-350 386 0
31 -350 351 0
-351 387 0
33 -351 352 0
-352 388 0
35 -352 353 0
-353 389 0
37 -353 354 0
-354 390 0
39 -354 355 0
-355 391 0
41 -355 356 0
-356 392 0
3 -356 357 0
-357 393 0
44 -357 358 0
-358 394 0
46 -358 359 0
-359 395 0
48 -359 360 0
-360 396 0
50 -360 361 0
-361 397 0
52 -361 362 0
-362 398 0
54 -362 363 0
-363 399 0
56 -363 364 0
-364 400 0
58 -364 365 0
-365 401 0
4 -365 366 0
-366 402 0
61 -366 367 0
-367 403 0
63 -367 368 0
-368 404 0
65 -368 369 0
-369 405 0
67 -369 370 0
-370 406 0
69 -370 371 0
-371 407 0
71 -371 372 0
-372 408 0
73 -372 373 0
-373 409 0
75 -373 374 0
-374 410 0
5 -374 375 0
-375 411 0
78 -375 376 0
-376 412 0
80 -376 377 0
-377 413 0
82 -377 378 0
-378 414 0
84 -378 379 0
-379 415 0
86 -379 380 0
-380 416 0
88 -380 0
22 381 0
-381 417 0
24 -381 382 0
-382 418 0
2 -382 383 0
-383 419 0
27 -383 384 0
-384 420 0
29 -384 385 0
-385 421 0
31 -385 386 0
-386 422 0
33 -386 387 0
-387 423 0
35 -387 388 0
-388 424 0
37 -388 389 0
-389 425 0
39 -389 390 0
-390 426 0
41 -390 391 0
-391 427 0
3 -391 392 0
-392 428 0
44 -392 393 0
-393 429 0
46 -393 394 0
-394 430 0
48 -394 395 0
-395 431 0
50 -395 396 0
-396 432 0
52 -396 397 0
-397 433 0
54 -397 398 0
-398 434 0
56 -398 399 0
-399 435 0
58 -399 400 0
-400 436 0
4 -400 401 0
-401 437 0
61 -401 402 0
-402 438 0
63 -402 403 0
-403 439 0
65 -403 404 0
-404 440 0
67 -404 405 0
-405 441 0
69 -405 406 0
-406 442 0
71 -406 407 0
-407 443 0
73 -407 408 0
-408 444 0
75 -408 409 0
-409 445 0
5 -409 410 0
-410 446 0
78 -410 411 0
-411 447 0
80 -411 412 0
-412 448 0
82 -412 413 0
-413 449 0
84 -413 414 0
-414 450 0
86 -414 415 0
-415 451 0
88 -415 416 0
-416 452 0
90 -416 0
24 417 0
-417 453 0
2 -417 418 0
-418 454 0
27 -418 419 0
-419 455 0
29 -419 420 0
-420 456 0
31 -420 421 0
-421 457 0
33 -421 422 0
-422 458 0
35 -422 423 0
-423 459 0
37 -423 424 0
-424 460 0
39 -424 425 0
-425 461 0
41 -425 426 0
-426 462 0
3 -426 427 0
-427 463 0
44 -427 428 0
-428 464 0
46 -428 429 0
-429 465 0
48 -429 430 0
-430 466 0
50 -430 431 0
-431 467 0
52 -431 432 0
-432 468 0
54 -432 433 0
-433 469 0
56 -433 434 0
-434 470 0
58 -434 435 0
-435 471 0
4 -435 436 0
-436 472 0
61 -436 437 0
-437 473 0
63 -437 438 0
-438 474 0
65 -438 439 0
-439 475 0
67 -439 440 0
-440 476 0
69 -440 441 0
-441 477 0
71 -441 442 0
-442 478 0
73 -442 443 0
-443 479 0
75 -443 444 0
-444 480 0
5 -444 445 0
-445 481 0
78 -445 446 0
-446 482 0
80 -446 447 0
-447 483 0
82 -447 448 0
-448 484 0
84 -448 449 0
-449 485 0
86 -449 450 0
-450 486 0
88 -450 451 0
-451 487 0
90 -451 452 0
-452 488 0
92 -452 0
2 453 0
-453 489 0
27 -453 454 0
-454 490 0
29 -454 455 0
-455 491 0
31 -455 456 0
-456 492 0
33 -456 457 0
-457 493 0
35 -457 458 0
-458 494 0
37 -458 459 0
-459 495 0
39 -459 460 0
-460 496 0
41 -460 461 0
-461 497 0
3 -461 462 0
-462 498 0
44 -462 463 0
-463 499 0
46 -463 464 0
-464 500 0
48 -464 465 0
-465 501 0
50 -465 466 0
-466 502 0
52 -466 467 0
-467 503 0
54 -467 468 0
-468 504 0
56 -468 469 0
-469 505 0
58 -469 470 0
-470 506 0
4 -470 471 0
-471 507 0
61 -471 472 0
-472 508 0
63 -472 473 0
-473 509 0
65 -473 474 0
-474 510 0
67 -474 475 0
-475 511 0
69 -475 476 0
-476 512 0
71 -476 477 0
-477 513 0
73 -477 478 0
-478 514 0
75 -478 479 0
-479 515 0
5 -479 480 0
-480 516 0
78 -480 481 0
-481 517 0
80 -481 482 0
-482 518 0
82 -482 483 0
-483 519 0
84 -483 484 0
-484 520 0
86 -484 485 0
-485 521 0
88 -485 486 0
-486 522 0
90 -486 487 0
-487 523 0
92 -487 488 0
-488 524 0
6 -488 0
27 489 0
-489 525 0
29 -489 490 0
-490 526 0
31 -490 491 0
-491 527 0
33 -491 492 0
-492 528 0
35 -492 493 0
-493 529 0
37 -493 494 0
-494 530 0
39 -494 495 0
-495 531 0
41 -495 496 0
-496 532 0
3 -496 497 0
-497 533 0
44 -497 498 0
-498 534 0
46 -498 499 0
-499 535 0
48 -499 500 0
-500 536 0
50 -500 501 0
-501 537 0
52 -501 502 0
-502 538 0
54 -502 503 0
-503 539 0
56 -503 504 0
-504 540 0
58 -504 505 0
-505 541 0
4 -505 506 0
-506 542 0
61 -506 507 0
-507 543 0
63 -507 508 0
-508 544 0
65 -508 509 0
-509 545 0
67 -509 510 0
-510 546 0
69 -510 511 0
-511 547 0
71 -511 512 0
-512 548 0
73 -512 513 0
-513 549 0
75 -513 514 0
-514 550 0
5 -514 515 0
-515 551 0
78 -515 516 0
-516 552 0
80 -516 517 0
-517 553 0
82 -517 518 0
-518 554 0
84 -518 519 0
-519 555 0
86 -519 520 0
-520 556 0
88 -520 521 0
-521 557 0
90 -521 522 0
-522 558 0
92 -522 523 0
-523 559 0
6 -523 524 0
-524 560 0
95 -524 0
29 525 0
-525 561 0
31 -525 526 0
-526 562 0
33 -526 527 0
-527 563 0
35 -527 528 0
-528 564 0
37 -528 529 0
-529 565 0
39 -529 530 0
-530 566 0
41 -530 531 0
-531 567 0
3 -531 532 0
-532 568 0
44 -532 533 0
-533 569 0
46 -533 534 0
-534 570 0
48 -534 535 0
-535 571 0
50 -535 536 0
-536 572 0
52 -536 537 0
-537 573 0
54 -537 538 0
-538 574 0
56 -538 539 0
-539 575 0
58 -539 540 0
-540 576 0
4 -540 541 0
-541 577 0
61 -541 542 0
-542 578 0
63 -542 543 0
-543 579 0
65 -543 544 0
-544 580 0
67 -544 545 0
-545 581 0
69 -545 546 0
-546 582 0
71 -546 547 0
-547 583 0
73 -547 548 0
-548 584 0
75 -548 549 0
-549 585 0
5 -549 550 0
-550 586 0
78 -550 551 0
-551 587 0
80 -551 552 0
-552 588 0
82 -552 553 0
-553 589 0
84 -553 554 0
-554 590 0
86 -554 555 0
-555 591 0
88 -555 556 0
-556 592 0
90 -556 557 0
-557 593 0
92 -557 558 0
-558 594 0
6 -558 559 0
-559 595 0
95 -559 560 0
-560 596 0
97 -560 0
31 561 0
-561 597 0
33 -561 562 0
-562 598 0
35 -562 563 0
-563 599 0
37 -563 564 0
-564 600 0
39 -564 565 0
-565 601 0
41 -565 566 0
-566 602 0
3 -566 567 0
-567 603 0
44 -567 568 0
-568 604 0
46 -568 569 0
-569 605 0
48 -569 570 0
-570 606 0
50 -570 571 0
-571 607 0
52 -571 572 0
-572 608 0
54 -572 573 0
-573 609 0
56 -573 574 0
-574 610 0
58 -574 575 0
-575 611 0
4 -575 576 0
-576 612 0
61 -576 577 0
-577 613 0
63 -577 578 0
-578 614 0
65 -578 579 0
-579 615 0
67 -579 580 0
-580 616 0
69 -580 581 0
-581 617 0
71 -581 582 0
-582 618 0
73 -582 583 0
-583 619 0
75 -583 584 0
-584 620 0
5 -584 585 0
-585 621 0
78 -585 586 0
-586 622 0
80 -586 587 0
-587 623 0
82 -587 588 0
-588 624 0
84 -588 589 0
-589 625 0
86 -589 590 0
-590 626 0
88 -590 591 0
-591 627 0
90 -591 592 0
-592 628 0
92 -592 593 0
-593 629 0
6 -593 594 0
-594 630 0
95 -594 595 0
-595 631 0
97 -595 596 0
-596 632 0
99 -596 0
33 597 0
-597 633 0
35 -597 598 0
-598 634 0
37 -598 599 0
-599 635 0
39 -599 600 0
-600 636 0
41 -600 601 0
-601 637 0
3 -601 602 0
-602 638 0
44 -602 603 0
-603 639 0
46 -603 604 0
-604 640 0
48 -604 605 0
-605 641 0
50 -605 606 0
-606 642 0
52 -606 607 0
-607 643 0
54 -607 608 0
-608 644 0
56 -608 609 0
-609 645 0
58 -609 610 0
-610 646 0
4 -610 611 0
-611 647 0
61 -611 612 0
-612 648 0
63 -612 613 0
-613 649 0
65 -613 614 0
-614 650 0
67 -614 615 0
-615 651 0
69 -615 616 0
-616 652 0
71 -616 617 0
-617 653 0
73 -617 618 0
-618 654 0
75 -618 619 0
-619 655 0
5 -619 620 0
-620 656 0
78 -620 621 0
-621 657 0
80 -621 622 0
-622 658 0
82 -622 623 0
-623 659 0
84 -623 624 0
-624 660 0
86 -624 625 0
-625 661 0
88 -625 626 0
-626 662 0
90 -626 627 0
-627 663 0
92 -627 628 0
-628 664 0
6 -628 629 0
-629 665 0
95 -629 630 0
-630 666 0
97 -630 631 0
-631 667 0
99 -631 632 0
-632 668 0
101 -632 0
35 633 0
-633 669 0
37 -633 634 0
-634 670 0
39 -634 635 0
-635 671 0
41 -635 636 0
-636 672 0
3 -636 637 0
-637 673 0
44 -637 638 0
-638 674 0
46 -638 639 0
-639 675 0
48 -639 640 0
-640 676 0
50 -640 641 0
-641 677 0
52 -641 642 0
-642 678 0
54 -642 643 0
-643 679 0
56 -643 644 0
-644 680 0
58 -644 645 0
-645 681 0
4 -645 646 0
-646 682 0
61 -646 647 0
-647 683 0
63 -647 648 0
-648 684 0
65 -648 649 0
-649 685 0
67 -649 650 0
-650 686 0
69 -650 651 0
-651 687 0
71 -651 652 0
-652 688 0
73 -652 653 0
-653 689 0
75 -653 654 0
-654 690 0
5 -654 655 0
-655 691 0
78 -655 656 0
-656 692 0
80 -656 657 0
-657 693 0
82 -657 658 0
-658 694 0
84 -658 659 0
-659 695 0
86 -659 660 0
-660 696 0
88 -660 661 0
-661 697 0
90 -661 662 0
-662 698 0
92 -662 663 0
-663 699 0
6 -663 664 0
-664 700 0
95 -664 665 0
-665 701 0
97 -665 666 0
-666 702 0
99 -666 667 0
-667 703 0
101 -667 668 0
-668 704 0
103 -668 0
37 669 0
-669 705 0
39 -669 670 0
-670 706 0
41 -670 671 0
-671 707 0
3 -671 672 0
-672 708 0
44 -672 673 0
-673 709 0
46 -673 674 0
-674 710 0
48 -674 675 0
-675 711 0
50 -675 676 0
-676 712 0
52 -676 677 0
-677 713 0
54 -677 678 0
-678 714 0
56 -678 679 0
-679 715 0
58 -679 680 0
-680 716 0
4 -680 681 0
-681 717 0
61 -681 682 0
-682 718 0
63 -682 683 0
-683 719 0
65 -683 684 0
-684 720 0
67 -684 685 0
-685 721 0
69 -685 686 0
-686 722 0
71 -686 687 0
-687 723 0
73 -687 688 0
-688 724 0
75 -688 689 0
-689 725 0
5 -689 690 0
-690 726 0
78 -690 691 0
-691 727 0
80 -691 692 0
-692 728 0
82 -692 693 0
-693 729 0
84 -693 694 0
-694 730 0
86 -694 695 0
-695 731 0
88 -695 696 0
-696 732 0
90 -696 697 0
-697 733 0
92 -697 698 0
-698 734 0
6 -698 699 0
-699 735 0
95 -699 700 0
-700 736 0
97 -700 701 0
-701 737 0
99 -701 702 0
-702 738 0
101 -702 703 0
-703 739 0
103 -703 704 0
-704 740 0
105 -704 0
39 705 0
-705 741 0
41 -705 706 0
-706 742 0
3 -706 707 0
-707 743 0
44 -707 708 0
-708 744 0
46 -708 709 0
-709 745 0
48 -709 710 0
-710 746 0
50 -710 711 0
-711 747 0
52 -711 712 0
-712 748 0
54 -712 713 0
-713 749 0
56 -713 714 0
-714 750 0
58 -714 715 0
-715 751 0
4 -715 716 0
-716 752 0
61 -716 717 0
-717 753 0
63 -717 718 0
-718 754 0
65 -718 719 0
-719 755 0
67 -719 720 0
-720 756 0
69 -720 721 0
-721 757 0
71 -721 722 0
-722 758 0
73 -722 723 0
-723 759 0
75 -723 724 0
-724 760 0
5 -724 725 0
-725 761 0
78 -725 726 0
-726 762 0
80 -726 727 0
-727 763 0
82 -727 728 0
-728 764 0
84 -728 729 0
-729 765 0
86 -729 730 0
-730 766 0
88 -730 731 0
-731 767 0
90 -731 732 0
-732 768 0
92 -732 733 0
-733 769 0
6 -733 734 0
-734 770 0
95 -734 735 0
-735 771 0
97 -735 736 0
-736 772 0
99 -736 737 0
-737 773 0
101 -737 738 0
-738 774 0
103 -738 739 0
-739 775 0
105 -739 740 0
-740 776 0
107 -740 0
41 741 0
-741 777 0
3 -741 742 0
-742 778 0
44 -742 743 0
-743 779 0
46 -743 744 0
-744 780 0
48 -744 745 0
-745 781 0
50 -745 746 0
-746 782 0
52 -746 747 0
-747 783 0
54 -747 748 0
-748 784 0
56 -748 749 0
-749 785 0
58 -749 750 0
-750 786 0
4 -750 751 0
-751 787 0
61 -751 752 0
-752 788 0
63 -752 753 0
-753 789 0
65 -753 754 0
-754 790 0
67 -754 755 0
-755 791 0
69 -755 756 0
-756 792 0
71 -756 757 0
-757 793 0
73 -757 758 0
-758 794 0
75 -758 759 0
-759 795 0
5 -759 760 0
-760 796 0
78 -760 761 0
-761 797 0
80 -761 762 0
-762 798 0
82 -762 763 0
-763 799 0
84 -763 764 0
-764 800 0
86 -764 765 0
-765 801 0
88 -765 766 0
-766 802 0
90 -766 767 0
-767 803 0
92 -767 768 0
-768 804 0
6 -768 769 0
-769 805 0
95 -769 770 0
-770 806 0
97 -770 771 0
-771 807 0
99 -771 772 0
-772 808 0
101 -772 773 0
-773 809 0
103 -773 774 0
-774 810 0
105 -774 775 0
-775 811 0
107 -775 776 0
-776 812 0
109 -776 0
3 777 0
-777 813 0
44 -777 778 0
-778 814 0
46 -778 779 0
-779 815 0
48 -779 780 0
-780 816 0
50 -780 781 0
-781 817 0
52 -781 782 0
-782 818 0
54 -782 783 0
-783 819 0
56 -783 784 0
-784 820 0
58 -784 785 0
-785 821 0
4 -785 786 0
-786 822 0
61 -786 787 0
-787 823 0
63 -787 788 0
-788 824 0
65 -788 789 0
-789 825 0
67 -789 790 0
-790 826 0
69 -790 791 0
-791 827 0
71 -791 792 0
-792 828 0
73 -792 793 0
-793 829 0
75 -793 794 0
-794 830 0
5 -794 795 0
-795 831 0
78 -795 796 0
-796 832 0
80 -796 797 0
-797 833 0
82 -797 798 0
-798 834 0
84 -798 799 0
-799 835 0
86 -799 800 0
-800 836 0
88 -800 801 0
-801 837 0
90 -801 802 0
-802 838 0
92 -802 803 0
-803 839 0
6 -803 804 0
-804 840 0
95 -804 805 0
-805 841 0
97 -805 806 0
-806 842 0
99 -806 807 0
-807 843 0
101 -807 808 0
-808 844 0
103 -808 809 0
-809 845 0
105 -809 810 0
-810 846 0
107 -810 811 0
-811 847 0
109 -811 812 0
-812 848 0
7 -812 0
44 813 0
-813 849 0
46 -813 814 0
-814 850 0
48 -814 815 0
-815 851 0
50 -815 816 0
-816 852 0
52 -816 817 0
-817 853 0
54 -817 818 0
-818 854 0
56 -818 819 0
-819 855 0
58 -819 820 0
-820 856 0
4 -820 821 0
-821 857 0
61 -821 822 0
-822 858 0
63 -822 823 0
-823 859 0
65 -823 824 0
-824 860 0
67 -824 825 0
-825 861 0
69 -825 826 0
-826 862 0
71 -826 827 0
-827 863 0
73 -827 828 0
-828 864 0
75 -828 829 0
-829 865 0
5 -829 830 0
-830 866 0
78 -830 831 0
-831 867 0
80 -831 832 0
-832 868 0
82 -832 833 0
-833 869 0
84 -833 834 0
-834 870 0
86 -834 835 0
-835 871 0
88 -835 836 0
-836 872 0
90 -836 837 0
-837 873 0
92 -837 838 0
-838 874 0
6 -838 839 0
-839 875 0
95 -839 840 0
-840 876 0
97 -840 841 0
-841 877 0
99 -841 842 0
-842 878 0
101 -842 843 0
-843 879 0
103 -843 844 0
-844 880 0
105 -844 845 0
-845 881 0
107 -845 846 0
-846 882 0
109 -846 847 0
-847 883 0
7 -847 848 0
-848 884 0
112 -848 0
46 849 0
-849 885 0
48 -849 850 0
-850 886 0
50 -850 851 0
-851 887 0
52 -851 852 0
-852 888 0
54 -852 853 0
-853 889 0
56 -853 854 0
-854 890 0
58 -854 855 0
-855 891 0
4 -855 856 0
-856 892 0
61 -856 857 0
-857 893 0
63 -857 858 0
-858 894 0
65 -858 859 0
-859 895 0
67 -859 860 0
-860 896 0
69 -860 861 0
-861 897 0
71 -861 862 0
-862 898 0
73 -862 863 0
-863 899 0
75 -863 864 0
-864 900 0
5 -864 865 0
-865 901 0
78 -865 866 0
-866 902 0
80 -866 867 0
-867 903 0
82 -867 868 0
-868 904 0
84 -868 869 0
-869 905 0
86 -869 870 0
-870 906 0
88 -870 871 0
-871 907 0
90 -871 872 0
-872 908 0
92 -872 873 0
-873 909 0
6 -873 874 0
-874 910 0
95 -874 875 0
-875 911 0
97 -875 876 0
-876 912 0
99 -876 877 0
-877 913 0
101 -877 878 0
-878 914 0
103 -878 879 0
-879 915 0
105 -879 880 0
-880 916 0
107 -880 881 0
-881 917 0
109 -881 882 0
-882 918 0
7 -882 883 0
-883 919 0
112 -883 884 0
-884 920 0
114 -884 0
48 885 0
-885 921 0
50 -885 886 0
-886 922 0
52 -886 887 0
-887 923 0
54 -887 888 0
-888 924 0
56 -888 889 0
-889 925 0
58 -889 890 0
-890 926 0
4 -890 891 0
-891 927 0
61 -891 892 0
-892 928 0
63 -892 893 0
-893 929 0
65 -893 894 0
-894 930 0
67 -894 895 0
-895 931 0
69 -895 896 0
-896 932 0
71 -896 897 0
-897 933 0
73 -897 898 0
-898 934 0
75 -898 899 0
-899 935 0
5 -899 900 0
-900 936 0
78 -900 901 0
-901 937 0
80 -901 902 0
-902 938 0
82 -902 903 0
-903 939 0
84 -903 904 0
-904 940 0
86 -904 905 0
-905 941 0
88 -905 906 0
-906 942 0
90 -906 907 0
-907 943 0
92 -907 908 0
-908 944 0
6 -908 909 0
-909 945 0
95 -909 910 0
-910 946 0
97 -910 911 0
-911 947 0
99 -911 912 0
-912 948 0
101 -912 913 0
-913 949 0
103 -913 914 0
-914 950 0
105 -914 915 0
-915 951 0
107 -915 916 0
-916 952 0
109 -916 917 0
-917 953 0
7 -917 918 0
-918 954 0
112 -918 919 0
-919 955 0
114 -919 920 0
-920 956 0
116 -920 0
50 921 0
-921 957 0
52 -921 922 0
-922 958 0
54 -922 923 0
-923 959 0
56 -923 924 0
-924 960 0
58 -924 925 0
-925 961 0
4 -925 926 0
-926 962 0
61 -926 927 0
-927 963 0
63 -927 928 0
-928 964 0
65 -928 929 0
-929 965 0
67 -929 930 0
-930 966 0
69 -930 931 0
-931 967 0
71 -931 932 0
-932 968 0
73 -932 933 0
-933 969 0
75 -933 934 0
-934 970 0
5 -934 935 0
-935 971 0
78 -935 936 0
-936 972 0
80 -936 937 0
-937 973 0
82 -937 938 0
-938 974 0
84 -938 939 0
-939 975 0
86 -939 940 0
-940 976 0
88 -940 941 0
-941 977 0
90 -941 942 0
-942 978 0
92 -942 943 0
-943 979 0
6 -943 944 0
-944 980 0
95 -944 945 0
-945 981 0
97 -945 946 0
-946 982 0
99 -946 947 0
-947 983 0
101 -947 948 0
-948 984 0
103 -948 949 0
-949 985 0
105 -949 950 0
-950 986 0
107 -950 951 0
-951 987 0
109 -951 952 0
-952 988 0
7 -952 953 0
-953 989 0
112 -953 954 0
-954 990 0
114 -954 955 0
-955 991 0
116 -955 956 0
-956 992 0
118 -956 0
52 957 0
-957 993 0
54 -957 958 0
-958 994 0
56 -958 959 0
-959 995 0
58 -959 960 0
-960 996 0
4 -960 961 0
-961 997 0
61 -961 962 0
-962 998 0
63 -962 963 0
-963 999 0
65 -963 964 0
-964 1000 0
67 -964 965 0
-965 1001 0
69 -965 966 0
-966 1002 0
71 -966 967 0
-967 1003 0
73 -967 968 0
-968 1004 0
75 -968 969 0
-969 1005 0
5 -969 970 0
-970 1006 0
78 -970 971 0
-971 1007 0
80 -971 972 0
-972 1008 0
82 -972 973 0
-973 1009 0
84 -973 974 0
-974 1010 0
86 -974 975 0
-975 1011 0
88 -975 976 0
-976 1012 0
90 -976 977 0
-977 1013 0
92 -977 978 0
-978 1014 0
6 -978 979 0
-979 1015 0
95 -979 980 0
-980 1016 0
97 -980 981 0
-981 1017 0
99 -981 982 0
-982 1018 0
101 -982 983 0
-983 1019 0
103 -983 984 0
-984 1020 0
105 -984 985 0
-985 1021 0
107 -985 986 0
-986 1022 0
109 -986 987 0
-987 1023 0
7 -987 988 0
-988 1024 0
112 -988 989 0
-989 1025 0
114 -989 990 0
-990 1026 0
116 -990 991 0
-991 1027 0
118 -991 992 0
-992 1028 0
120 -992 0
54 993 0
-993 1029 0
56 -993 994 0
-994 1030 0
58 -994 995 0
-995 1031 0
4 -995 996 0
-996 1032 0
61 -996 997 0
-997 1033 0
63 -997 998 0
-998 1034 0
65 -998 999 0
-999 1035 0
67 -999 1000 0
-1000 1036 0
69 -1000 1001 0
-1001 1037 0
71 -1001 1002 0
-1002 1038 0
73 -1002 1003 0
-1003 1039 0
75 -1003 1004 0
-1004 1040 0
5 -1004 1005 0
-1005 1041 0
78 -1005 1006 0
-1006 1042 0
80 -1006 1007 0
-1007 1043 0
82 -1007 1008 0
-1008 1044 0
84 -1008 1009 0
-1009 1045 0
86 -1009 1010 0
-1010 1046 0
88 -1010 1011 0
-1011 1047 0
90 -1011 1012 0
-1012 1048 0
92 -1012 1013 0
-1013 1049 0
6 -1013 1014 0
-1014 1050 0
95 -1014 1015 0
-1015 1051 0
97 -1015 1016 0
-1016 1052 0
99 -1016 1017 0
-1017 1053 0
101 -1017 1018 0
-1018 1054 0
103 -1018 1019 0
-1019 1055 0
105 -1019 1020 0
-1020 1056 0
107 -1020 1021 0
-1021 1057 0
109 -1021 1022 0
-1022 1058 0
7 -1022 1023 0
-1023 1059 0
112 -1023 1024 0
-1024 1060 0
114 -1024 1025 0
-1025 1061 0
116 -1025 1026 0
-1026 1062 0
118 -1026 1027 0
-1027 1063 0
120 -1027 1028 0
-1028 1064 0
122 -1028 0
56 1029 0
-1029 1065 0
58 -1029 1030 0
-1030 1066 0
4 -1030 1031 0
-1031 1067 0
61 -1031 1032 0
-1032 1068 0
63 -1032 1033 0
-1033 1069 0
65 -1033 1034 0
-1034 1070 0
67 -1034 1035 0
-1035 1071 0
69 -1035 1036 0
-1036 1072 0
71 -1036 1037 0
-1037 1073 0
73 -1037 1038 0
-1038 1074 0
75 -1038 1039 0
-1039 1075 0
5 -1039 1040 0
-1040 1076 0
78 -1040 1041 0
-1041 1077 0
80 -1041 1042 0
-1042 1078 0
82 -1042 1043 0
-1043 1079 0
84 -1043 1044 0
-1044 1080 0
86 -1044 1045 0
-1045 1081 0
88 -1045 1046 0
-1046 1082 0
90 -1046 1047 0
-1047 1083 0
92 -1047 1048 0
-1048 1084 0
6 -1048 1049 0
-1049 1085 0
95 -1049 1050 0
-1050 1086 0
97 -1050 1051 0
-1051 1087 0
99 -1051 1052 0
-1052 1088 0
101 -1052 1053 0
-1053 1089 0
103 -1053 1054 0
-1054 1090 0
105 -1054 1055 0
-1055 1091 0
107 -1055 1056 0
-1056 1092 0
109 -1056 1057 0
-1057 1093 0
7 -1057 1058 0
-1058 1094 0
112 -1058 1059 0
-1059 1095 0
114 -1059 1060 0
-1060 1096 0
116 -1060 1061 0
-1061 1097 0
118 -1061 1062 0
-1062 1098 0
120 -1062 1063 0
-1063 1099 0
122 -1063 1064 0
-1064 1100 0
124 -1064 0
58 1065 0
-1065 1101 0
4 -1065 1066 0
-1066 1102 0
61 -1066 1067 0
-1067 1103 0
63 -1067 1068 0
-1068 1104 0
65 -1068 1069 0
-1069 1105 0
67 -1069 1070 0
-1070 1106 0
69 -1070 1071 0
-1071 1107 0
71 -1071 1072 0
-1072 1108 0
73 -1072 1073 0
-1073 1109 0
75 -1073 1074 0
-1074 1110 0
5 -1074 1075 0
-1075 1111 0
78 -1075 1076 0
-1076 1112 0
80 -1076 1077 0
-1077 1113 0
82 -1077 1078 0
-1078 1114 0
84 -1078 1079 0
-1079 1115 0
86 -1079 1080 0
-1080 1116 0
88 -1080 1081 0
-1081 1117 0
90 -1081 1082 0
-1082 1118 0
92 -1082 1083 0
-1083 1119 0
6 -1083 1084 0
-1084 1120 0
95 -1084 1085 0
-1085 1121 0
97 -1085 1086 0
-1086 1122 0
99 -1086 1087 0
-1087 1123 0
101 -1087 1088 0
-1088 1124 0
103 -1088 1089 0
-1089 1125 0
105 -1089 1090 0
-1090 1126 0
107 -1090 1091 0
-1091 1127 0
109 -1091 1092 0
-1092 1128 0
7 -1092 1093 0
-1093 1129 0
112 -1093 1094 0
-1094 1130 0
114 -1094 1095 0
-1095 1131 0
116 -1095 1096 0
-1096 1132 0
118 -1096 1097 0
-1097 1133 0
120 -1097 1098 0
-1098 1134 0
122 -1098 1099 0
-1099 1135 0
124 -1099 1100 0
-1100 1136 0
126 -1100 0
4 1101 0
61 -1101 1102 0
63 -1102 1103 0
65 -1103 1104 0
67 -1104 1105 0
69 -1105 1106 0
71 -1106 1107 0
73 -1107 1108 0
75 -1108 1109 0
5 -1109 1110 0
78 -1110 1111 0
80 -1111 1112 0
82 -1112 1113 0
84 -1113 1114 0
86 -1114 1115 0
88 -1115 1116 0
90 -1116 1117 0
92 -1117 1118 0
6 -1118 1119 0
95 -1119 1120 0
97 -1120 1121 0
99 -1121 1122 0
101 -1122 1123 0
103 -1123 1124 0
105 -1124 1125 0
107 -1125 1126 0
109 -1126 1127 0
7 -1127 1128 0
112 -1128 1129 0
114 -1129 1130 0
116 -1130 1131 0
118 -1131 1132 0
120 -1132 1133 0
122 -1133 1134 0
124 -1134 1135 0
126 -1135 1136 0
8 -1136 0
-1 1137 0
-1137 1138 0
-10 -1137 1139 0
-1139 1140 0
-12 -1139 1141 0
-1141 1142 0
-14 -1141 1143 0
-1143 1144 0
-16 -1143 1145 0
-1145 1146 0
-18 -1145 1147 0
-1147 1148 0
-20 -1147 1149 0
-1149 1150 0
-22 -1149 1151 0
-1151 1152 0
-24 -1151 1153 0
-1153 1154 0
-2 -1153 1155 0
-1155 1156 0
-27 -1155 1157 0
-1157 1158 0
-29 -1157 1159 0
-1159 1160 0
-31 -1159 1161 0
-1161 1162 0
-33 -1161 1163 0
-1163 1164 0
-35 -1163 1165 0
-1165 1166 0
-37 -1165 1167 0
-1167 1168 0
-39 -1167 1169 0
-1169 1170 0
-41 -1169 1171 0
-1171 1172 0
-3 -1171 1173 0
-1173 1174 0
-44 -1173 1175 0
-1175 1176 0
-46 -1175 1177 0
-1177 1178 0
-48 -1177 1179 0
-1179 1180 0
-50 -1179 1181 0
-1181 1182 0
-52 -1181 1183 0
-1183 1184 0
-54 -1183 1185 0
-1185 1186 0
-56 -1185 1187 0
-1187 1188 0
-58 -1187 1189 0
-1189 1190 0
-4 -1189 1191 0
-1191 1192 0
-61 -1191 0
-10 1138 0
-1138 1193 0
-12 -1138 1140 0
-1140 1194 0
-14 -1140 1142 0
-1142 1195 0
-16 -1142 1144 0
-1144 1196 0
-18 -1144 1146 0
-1146 1197 0
-20 -1146 1148 0
-1148 1198 0
-22 -1148 1150 0
-1150 1199 0
-24 -1150 1152 0
-1152 1200 0
-2 -1152 1154 0
-1154 1201 0
-27 -1154 1156 0
-1156 1202 0
-29 -1156 1158 0
-1158 1203 0
-31 -1158 1160 0
-1160 1204 0
-33 -1160 1162 0
-1162 1205 0
-35 -1162 1164 0
-1164 1206 0
-37 -1164 1166 0
-1166 1207 0
-39 -1166 1168 0
-1168 1208 0
-41 -1168 1170 0
-1170 1209 0
-3 -1170 1172 0
-1172 1210 0
-44 -1172 1174 0
-1174 1211 0
-46 -1174 1176 0
-1176 1212 0
-48 -1176 1178 0
-1178 1213 0
-50 -1178 1180 0
-1180 1214 0
-52 -1180 1182 0
-1182 1215 0
-54 -1182 1184 0
-1184 1216 0
-56 -1184 1186 0
-1186 1217 0
-58 -1186 1188 0
-1188 1218 0
-4 -1188 1190 0
-1190 1219 0
-61 -1190 1192 0
-1192 1220 0
-63 -1192 0
-12 1193 0
-1193 1221 0
-14 -1193 1194 0
-1194 1222 0
-16 -1194 1195 0
-1195 1223 0
-18 -1195 1196 0
-1196 1224 0
-20 -1196 1197 0
-1197 1225 0
-22 -1197 1198 0
-1198 1226 0
-24 -1198 1199 0
-1199 1227 0
-2 -1199 1200 0
-1200 1228 0
-27 -1200 1201 0
-1201 1229 0
-29 -1201 1202 0
-1202 1230 0
-31 -1202 1203 0
-1203 1231 0
-33 -1203 1204 0
-1204 1232 0
-35 -1204 1205 0
-1205 1233 0
-37 -1205 1206 0
-1206 1234 0
-39 -1206 1207 0
-1207 1235 0
-41 -1207 1208 0
-1208 1236 0
-3 -1208 1209 0
-1209 1237 0
-44 -1209 1210 0
-1210 1238 0
-46 -1210 1211 0
-1211 1239 0
-48 -1211 1212 0
-1212 1240 0
-50 -1212 1213 0
-1213 1241 0
-52 -1213 1214 0
-1214 1242 0
-54 -1214 1215 0
-1215 1243 0
-56 -1215 1216 0
-1216 1244 0
-58 -1216 1217 0
-1217 1245 0
-4 -1217 1218 0
-1218 1246 0
-61 -1218 1219 0
-1219 1247 0
-63 -1219 1220 0
-1220 1248 0
-65 -1220 0
-14 1221 0
-1221 1249 0
-16 -1221 1222 0
-1222 1250 0
-18 -1222 1223 0
-1223 1251 0
-20 -1223 1224 0
-1224 1252 0
-22 -1224 1225 0
-1225 1253 0
-24 -1225 1226 0
-1226 1254 0
-2 -1226 1227 0
-1227 1255 0
-27 -1227 1228 0
-1228 1256 0
-29 -1228 1229 0
-1229 1257 0
-31 -1229 1230 0
-1230 1258 0
-33 -1230 1231 0
-1231 1259 0
-35 -1231 1232 0
-1232 1260 0
-37 -1232 1233 0
-1233 1261 0
-39 -1233 1234 0
-1234 1262 0
-41 -1234 1235 0
-1235 1263 0
-3 -1235 1236 0
-1236 1264 0
-44 -1236 1237 0
-1237 1265 0
-46 -1237 1238 0
-1238 1266 0
-48 -1238 1239 0
-1239 1267 0
-50 -1239 1240 0
-1240 1268 0
-52 -1240 1241 0
-1241 1269 0
-54 -1241 1242 0
-1242 1270 0
-56 -1242 1243 0
-1243 1271 0
-58 -1243 1244 0
-1244 1272 0
-4 -1244 1245 0
-1245 1273 0
-61 -1245 1246 0
-1246 1274 0
-63 -1246 1247 0
-1247 1275 0
-65 -1247 1248 0
-1248 1276 0
-67 -1248 0
-16 1249 0
-1249 1277 0
-18 -1249 1250 0
-1250 1278 0
-20 -1250 1251 0
-1251 1279 0
-22 -1251 1252 0
-1252 1280 0
-24 -1252 1253 0
-1253 1281 0
-2 -1253 1254 0
-1254 1282 0
-27 -1254 1255 0
-1255 1283 0
-29 -1255 1256 0
-1256 1284 0
-31 -1256 1257 0
-1257 1285 0
-33 -1257 1258 0
-1258 1286 0
-35 -1258 1259 0
-1259 1287 0
-37 -1259 1260 0
-1260 1288 0
-39 -1260 1261 0
-1261 1289 0
-41 -1261 1262 0
-1262 1290 0
-3 -1262 1263 0
-1263 1291 0
-44 -1263 1264 0
-1264 1292 0
-46 -1264 1265 0
-1265 1293 0
-48 -1265 1266 0
-1266 1294 0
-50 -1266 1267 0
-1267 1295 0
-52 -1267 1268 0
-1268 1296 0
-54 -1268 1269 0
-1269 1297 0
-56 -1269 1270 0
-1270 1298 0
-58 -1270 1271 0
-1271 1299 0
-4 -1271 1272 0
-1272 1300 0
-61 -1272 1273 0
-1273 1301 0
-63 -1273 1274 0
-1274 1302 0
-65 -1274 1275 0
-1275 1303 0
-67 -1275 1276 0
-1276 1304 0
-69 -1276 0
-18 1277 0
-1277 1305 0
-20 -1277 1278 0
-1278 1306 0
-22 -1278 1279 0
-1279 1307 0
-24 -1279 1280 0
-1280 1308 0
-2 -1280 1281 0
-1281 1309 0
-27 -1281 1282 0
-1282 1310 0
-29 -1282 1283 0
-1283 1311 0
-31 -1283 1284 0
-1284 1312 0
-33 -1284 1285 0
-1285 1313 0
-35 -1285 1286 0
-1286 1314 0
-37 -1286 1287 0
-1287 1315 0
-39 -1287 1288 0
-1288 1316 0
-41 -1288 1289 0
-1289 1317 0
-3 -1289 1290 0
-1290 1318 0
-44 -1290 1291 0
-1291 1319 0
-46 -1291 1292 0
-1292 1320 0
-48 -1292 1293 0
-1293 1321 0
-50 -1293 1294 0
-1294 1322 0
-52 -1294 1295 0
-1295 1323 0
-54 -1295 1296 0
-1296 1324 0
-56 -1296 1297 0
-1297 1325 0
-58 -1297 1298 0
-1298 1326 0
-4 -1298 1299 0
-1299 1327 0
-61 -1299 1300 0
-1300 1328 0
-63 -1300 1301 0
-1301 1329 0
-65 -1301 1302 0
-1302 1330 0
-67 -1302 1303 0
-1303 1331 0
-69 -1303 1304 0
-1304 1332 0
-71 -1304 0
-20 1305 0
-1305 1333 0
-22 -1305 1306 0
-1306 1334 0
-24 -1306 1307 0
-1307 1335 0
-2 -1307 1308 0
-1308 1336 0
-27 -1308 1309 0
-1309 1337 0
-29 -1309 1310 0
-1310 1338 0
-31 -1310 1311 0
-1311 1339 0
-33 -1311 1312 0
-1312 1340 0
-35 -1312 1313 0
-1313 1341 0
-37 -1313 1314 0
-1314 1342 0
-39 -1314 1315 0
-1315 1343 0
-41 -1315 1316 0
-1316 1344 0
-3 -1316 1317 0
-1317 1345 0
-44 -1317 1318 0
-1318 1346 0
-46 -1318 1319 0
-1319 1347 0
-48 -1319 1320 0
-1320 1348 0
-50 -1320 1321 0
-1321 1349 0
-52 -1321 1322 0
-1322 1350 0
-54 -1322 1323 0
-1323 1351 0
-56 -1323 1324 0
-1324 1352 0
-58 -1324 1325 0
-1325 1353 0
-4 -1325 1326 0
-1326 1354 0
-61 -1326 1327 0
-1327 1355 0
-63 -1327 1328 0
-1328 1356 0
-65 -1328 1329 0
-1329 1357 0
-67 -1329 1330 0
-1330 1358 0
-69 -1330 1331 0
-1331 1359 0
-71 -1331 1332 0
-1332 1360 0
-73 -1332 0
-22 1333 0
-1333 1361 0
-24 -1333 1334 0
-1334 1362 0
-2 -1334 1335 0
-1335 1363 0
-27 -1335 1336 0
-1336 1364 0
-29 -1336 1337 0
-1337 1365 0
-31 -1337 1338 0
-1338 1366 0
-33 -1338 1339 0
-1339 1367 0
-35 -1339 1340 0
-1340 1368 0
-37 -1340 1341 0
-1341 1369 0
-39 -1341 1342 0
-1342 1370 0
-41 -1342 1343 0
-1343 1371 0
-3 -1343 1344 0
-1344 1372 0
-44 -1344 1345 0
-1345 1373 0
-46 -1345 1346 0
-1346 1374 0
-48 -1346 1347 0
-1347 1375 0
-50 -1347 1348 0
-1348 1376 0
-52 -1348 1349 0
-1349 1377 0
-54 -1349 1350 0
-1350 1378 0
-56 -1350 1351 0
-1351 1379 0
-58 -1351 1352 0
-1352 1380 0
-4 -1352 1353 0
-1353 1381 0
-61 -1353 1354 0
-1354 1382 0
-63 -1354 1355 0
-1355 1383 0
-65 -1355 1356 0
-1356 1384 0
-67 -1356 1357 0
-1357 1385 0
-69 -1357 1358 0
-1358 1386 0
-71 -1358 1359 0
-1359 1387 0
-73 -1359 1360 0
-1360 1388 0
-75 -1360 0
-24 1361 0
-1361 1389 0
-2 -1361 1362 0
-1362 1390 0
-27 -1362 1363 0
-1363 1391 0
-29 -1363 1364 0
-1364 1392 0
-31 -1364 1365 0
-1365 1393 0
-33 -1365 1366 0
-1366 1394 0
-35 -1366 1367 0
-1367 1395 0
-37 -1367 1368 0
-1368 1396 0
-39 -1368 1369 0
-1369 1397 0
-41 -1369 1370 0
-1370 1398 0
-3 -1370 1371 0
-1371 1399 0
-44 -1371 1372 0
-1372 1400 0
-46 -1372 1373 0
-1373 1401 0
-48 -1373 1374 0
-1374 1402 0
-50 -1374 1375 0
-1375 1403 0
-52 -1375 1376 0
-1376 1404 0
-54 -1376 1377 0
-1377 1405 0
-56 -1377 1378 0
-1378 1406 0
-58 -1378 1379 0
-1379 1407 0
-4 -1379 1380 0
-1380 1408 0
-61 -1380 1381 0
-1381 1409 0
-63 -1381 1382 0
-1382 1410 0
-65 -1382 1383 0
-1383 1411 0
-67 -1383 1384 0
-1384 1412 0
-69 -1384 1385 0
-1385 1413 0
-71 -1385 1386 0
-1386 1414 0
-73 -1386 1387 0
-1387 1415 0
-75 -1387 1388 0
-1388 1416 0
-5 -1388 0
-2 1389 0
-1389 1417 0
-27 -1389 1390 0
-1390 1418 0
-29 -1390 1391 0
-1391 1419 0
-31 -1391 1392 0
-1392 1420 0
-33 -1392 1393 0
-1393 1421 0
-35 -1393 1394 0
-1394 1422 0
-37 -1394 1395 0
-1395 1423 0
-39 -1395 1396 0
-1396 1424 0
-41 -1396 1397 0
-1397 1425 0
-3 -1397 1398 0
-1398 1426 0
-44 -1398 1399 0
-1399 1427 0
-46 -1399 1400 0
-1400 1428 0
-48 -1400 1401 0
-1401 1429 0
-50 -1401 1402 0
-1402 1430 0
-52 -1402 1403 0
-1403 1431 0
-54 -1403 1404 0
-1404 1432 0
-56 -1404 1405 0
-1405 1433 0
-58 -1405 1406 0
-1406 1434 0
-4 -1406 1407 0
-1407 1435 0
-61 -1407 1408 0
-1408 1436 0
-63 -1408 1409 0
-1409 1437 0
-65 -1409 1410 0
-1410 1438 0
-67 -1410 1411 0
-1411 1439 0
-69 -1411 1412 0
-1412 1440 0
-71 -1412 1413 0
-1413 1441 0
-73 -1413 1414 0
-1414 1442 0
-75 -1414 1415 0
-1415 1443 0
-5 -1415 1416 0
-1416 1444 0
-78 -1416 0
-27 1417 0
-1417 1445 0
-29 -1417 1418 0
-1418 1446 0
-31 -1418 1419 0
-1419 1447 0
-33 -1419 1420 0
-1420 1448 0
-35 -1420 1421 0
-1421 1449 0
-37 -1421 1422 0
-1422 1450 0
-39 -1422 1423 0
-1423 1451 0
-41 -1423 1424 0
-1424 1452 0
-3 -1424 1425 0
-1425 1453 0
-44 -1425 1426 0
-1426 1454 0
-46 -1426 1427 0
-1427 1455 0
-48 -1427 1428 0
-1428 1456 0
-50 -1428 1429 0
-1429 1457 0
-52 -1429 1430 0
-1430 1458 0
-54 -1430 1431 0
-1431 1459 0
-56 -1431 1432 0
-1432 1460 0
-58 -1432 1433 0
-1433 1461 0
-4 -1433 1434 0
-1434 1462 0
-61 -1434 1435 0
-1435 1463 0
-63 -1435 1436 0
-1436 1464 0
-65 -1436 1437 0
-1437 1465 0
-67 -1437 1438 0
-1438 1466 0
-69 -1438 1439 0
-1439 1467 0
-71 -1439 1440 0
-1440 1468 0
-73 -1440 1441 0
-1441 1469 0
-75 -1441 1442 0
-1442 1470 0
-5 -1442 1443 0
-1443 1471 0
-78 -1443 1444 0
-1444 1472 0
-80 -1444 0
-29 1445 0
-1445 1473 0
-31 -1445 1446 0
-1446 1474 0
-33 -1446 1447 0
-1447 1475 0
-35 -1447 1448 0
-1448 1476 0
-37 -1448 1449 0
-1449 1477 0
-39 -1449 1450 0
-1450 1478 0
-41 -1450 1451 0
-1451 1479 0
-3 -1451 1452 0
-1452 1480 0
-44 -1452 1453 0
-1453 1481 0
-46 -1453 1454 0
-1454 1482 0
-48 -1454 1455 0
-1455 1483 0
-50 -1455 1456 0
-1456 1484 0
-52 -1456 1457 0
-1457 1485 0
-54 -1457 1458 0
-1458 1486 0
-56 -1458 1459 0
-1459 1487 0
-58 -1459 1460 0
-1460 1488 0
-4 -1460 1461 0
-1461 1489 0
-61 -1461 1462 0
-1462 1490 0
-63 -1462 1463 0
-1463 1491 0
-65 -1463 1464 0
-1464 1492 0
-67 -1464 1465 0
-1465 1493 0
-69 -1465 1466 0
-1466 1494 0
-71 -1466 1467 0
-1467 1495 0
-73 -1467 1468 0
-1468 1496 0
-75 -1468 1469 0
-1469 1497 0
-5 -1469 1470 0
-1470 1498 0
-78 -1470 1471 0
-1471 1499 0
-80 -1471 1472 0
-1472 1500 0
-82 -1472 0
-31 1473 0
-1473 1501 0
-33 -1473 1474 0
-1474 1502 0
-35 -1474 1475 0
-1475 1503 0
-37 -1475 1476 0
-1476 1504 0
-39 -1476 1477 0
-1477 1505 0
-41 -1477 1478 0
-1478 1506 0
-3 -1478 1479 0
-1479 1507 0
-44 -1479 1480 0
-1480 1508 0
-46 -1480 1481 0
-1481 1509 0
-48 -1481 1482 0
-1482 1510 0
-50 -1482 1483 0
-1483 1511 0
-52 -1483 1484 0
-1484 1512 0
-54 -1484 1485 0
-1485 1513 0
-56 -1485 1486 0
-1486 1514 0
-58 -1486 1487 0
-1487 1515 0
-4 -1487 1488 0
-1488 1516 0
-61 -1488 1489 0
-1489 1517 0
-63 -1489 1490 0
-1490 1518 0
-65 -1490 1491 0
-1491 1519 0
-67 -1491 1492 0
-1492 1520 0
-69 -1492 1493 0
-1493 1521 0
-71 -1493 1494 0
-1494 1522 0
-73 -1494 1495 0
-1495 1523 0
-75 -1495 1496 0
-1496 1524 0
-5 -1496 1497 0
-1497 1525 0
-78 -1497 1498 0
-1498 1526 0
-80 -1498 1499 0
-1499 1527 0
-82 -1499 1500 0
-1500 1528 0
-84 -1500 0
-33 1501 0
-1501 1529 0
-35 -1501 1502 0
-1502 1530 0
-37 -1502 1503 0
-1503 1531 0
-39 -1503 1504 0
-1504 1532 0
-41 -1504 1505 0
-1505 1533 0
-3 -1505 1506 0
-1506 1534 0
-44 -1506 1507 0
-1507 1535 0
-46 -1507 1508 0
-1508 1536 0
-48 -1508 1509 0
-1509 1537 0
-50 -1509 1510 0
-1510 1538 0
-52 -1510 1511 0
-1511 1539 0
-54 -1511 1512 0
-1512 1540 0
-56 -1512 1513 0
-1513 1541 0
-58 -1513 1514 0
-1514 1542 0
-4 -1514 1515 0
-1515 1543 0
-61 -1515 1516 0
-1516 1544 0
-63 -1516 1517 0
-1517 1545 0
-65 -1517 1518 0
-1518 1546 0
-67 -1518 1519 0
-1519 1547 0
-69 -1519 1520 0
-1520 1548 0
-71 -1520 1521 0
-1521 1549 0
-73 -1521 1522 0
-1522 1550 0
-75 -1522 1523 0
-1523 1551 0
-5 -1523 1524 0
-1524 1552 0
-78 -1524 1525 0
-1525 1553 0
-80 -1525 1526 0
-1526 1554 0
-82 -1526 1527 0
-1527 1555 0
-84 -1527 1528 0
-1528 1556 0
-86 -1528 0
-35 1529 0
-1529 1557 0
-37 -1529 1530 0
-1530 1558 0
-39 -1530 1531 0
-1531 1559 0
-41 -1531 1532 0
-1532 1560 0
-3 -1532 1533 0
-1533 1561 0
-44 -1533 1534 0
-1534 1562 0
-46 -1534 1535 0
-1535 1563 0
-48 -1535 1536 0
-1536 1564 0
-50 -1536 1537 0
-1537 1565 0
-52 -1537 1538 0
-1538 1566 0
-54 -1538 1539 0
-1539 1567 0
-56 -1539 1540 0
-1540 1568 0
-58 -1540 1541 0
-1541 1569 0
-4 -1541 1542 0
-1542 1570 0
-61 -1542 1543 0
-1543 1571 0
-63 -1543 1544 0
-1544 1572 0
-65 -1544 1545 0
-1545 1573 0
-67 -1545 1546 0
-1546 1574 0
-69 -1546 1547 0
-1547 1575 0
-71 -1547 1548 0
-1548 1576 0
-73 -1548 1549 0
-1549 1577 0
-75 -1549 1550 0
-1550 1578 0
-5 -1550 1551 0
-1551 1579 0
-78 -1551 1552 0
-1552 1580 0
-80 -1552 1553 0
-1553 1581 0
-82 -1553 1554 0
-1554 1582 0
-84 -1554 1555 0
-1555 1583 0
-86 -1555 1556 0
-1556 1584 0
-88 -1556 0
-37 1557 0
-1557 1585 0
-39 -1557 1558 0
-1558 1586 0
-41 -1558 1559 0
-1559 1587 0
-3 -1559 1560 0
-1560 1588 0
-44 -1560 1561 0
-1561 1589 0
-46 -1561 1562 0
-1562 1590 0
-48 -1562 1563 0
-1563 1591 0
-50 -1563 1564 0
-1564 1592 0
-52 -1564 1565 0
-1565 1593 0
-54 -1565 1566 0
-1566 1594 0
-56 -1566 1567 0
-1567 1595 0
-58 -1567 1568 0
-1568 1596 0
-4 -1568 1569 0
-1569 1597 0
-61 -1569 1570 0
-1570 1598 0
-63 -1570 1571 0
-1571 1599 0
-65 -1571 1572 0
-1572 1600 0
-67 -1572 1573 0
-1573 1601 0
-69 -1573 1574 0
-1574 1602 0
-71 -1574 1575 0
-1575 1603 0
-73 -1575 1576 0
-1576 1604 0
-75 -1576 1577 0
-1577 1605 0
-5 -1577 1578 0
-1578 1606 0
-78 -1578 1579 0
-1579 1607 0
-80 -1579 1580 0
-1580 1608 0
-82 -1580 1581 0
-1581 1609 0
-84 -1581 1582 0
-1582 1610 0
-86 -1582 1583 0
-1583 1611 0
-88 -1583 1584 0
-1584 1612 0
-90 -1584 0
-39 1585 0
-1585 1613 0
-41 -1585 1586 0
-1586 1614 0
-3 -1586 1587 0
-1587 1615 0
-44 -1587 1588 0
-1588 1616 0
-46 -1588 1589 0
-1589 1617 0
-48 -1589 1590 0
-1590 1618 0
-50 -1590 1591 0
-1591 1619 0
-52 -1591 1592 0
-1592 1620 0
-54 -1592 1593 0
-1593 1621 0
-56 -1593 1594 0
-1594 1622 0
-58 -1594 1595 0
-1595 1623 0
-4 -1595 1596 0
-1596 1624 0
-61 -1596 1597 0
-1597 1625 0
-63 -1597 1598 0
-1598 1626 0
-65 -1598 1599 0
-1599 1627 0
-67 -1599 1600 0
-1600 1628 0
-69 -1600 1601 0
-1601 1629 0
-71 -1601 1602 0
-1602 1630 0
-73 -1602 1603 0
-1603 1631 0
-75 -1603 1604 0
-1604 1632 0
-5 -1604 1605 0
-1605 1633 0
-78 -1605 1606 0
-1606 1634 0
-80 -1606 1607 0
-1607 1635 0
-82 -1607 1608 0
-1608 1636 0
-84 -1608 1609 0
-1609 1637 0
-86 -1609 1610 0
-1610 1638 0
-88 -1610 1611 0
-1611 1639 0
-90 -1611 1612 0
-1612 1640 0
-92 -1612 0
-41 1613 0
-1613 1641 0
-3 -1613 1614 0
-1614 1642 0
-44 -1614 1615 0
-1615 1643 0
-46 -1615 1616 0
-1616 1644 0
-48 -1616 1617 0
-1617 1645 0
-50 -1617 1618 0
-1618 1646 0
-52 -1618 1619 0
-1619 1647 0
-54 -1619 1620 0
-1620 1648 0
-56 -1620 1621 0
-1621 1649 0
-58 -1621 1622 0
-1622 1650 0
-4 -1622 1623 0
-1623 1651 0
-61 -1623 1624 0
-1624 1652 0
-63 -1624 1625 0
-1625 1653 0
-65 -1625 1626 0
-1626 1654 0
-67 -1626 1627 0
-1627 1655 0
-69 -1627 1628 0
-1628 1656 0
-71 -1628 1629 0
-1629 1657 0
-73 -1629 1630 0
-1630 1658 0
-75 -1630 1631 0
-1631 1659 0
-5 -1631 1632 0
-1632 1660 0
-78 -1632 1633 0
-1633 1661 0
-80 -1633 1634 0
-1634 1662 0
-82 -1634 1635 0
-1635 1663 0
-84 -1635 1636 0
-1636 1664 0
-86 -1636 1637 0
-1637 1665 0
-88 -1637 1638 0
-1638 1666 0
-90 -1638 1639 0
-1639 1667 0
-92 -1639 1640 0
-1640 1668 0
-6 -1640 0
-3 1641 0
-1641 1669 0
-44 -1641 1642 0
-1642 1670 0
-46 -1642 1643 0
-1643 1671 0
-48 -1643 1644 0
-1644 1672 0
-50 -1644 1645 0
-1645 1673 0
-52 -1645 1646 0
-1646 1674 0
-54 -1646 1647 0
-1647 1675 0
-56 -1647 1648 0
-1648 1676 0
-58 -1648 1649 0
-1649 1677 0
-4 -1649 1650 0
-1650 1678 0
-61 -1650 1651 0
-1651 1679 0
-63 -1651 1652 0
-1652 1680 0
-65 -1652 1653 0
-1653 1681 0
-67 -1653 1654 0
-1654 1682 0
-69 -1654 1655 0
-1655 1683 0
-71 -1655 1656 0
-1656 1684 0
-73 -1656 1657 0
-1657 1685 0
-75 -1657 1658 0
-1658 1686 0
-5 -1658 1659 0
-1659 1687 0
-78 -1659 1660 0
-1660 1688 0
-80 -1660 1661 0
-1661 1689 0
-82 -1661 1662 0
-1662 1690 0
-84 -1662 1663 0
-1663 1691 0
-86 -1663 1664 0
-1664 1692 0
-88 -1664 1665 0
-1665 1693 0
-90 -1665 1666 0
-1666 1694 0
-92 -1666 1667 0
-1667 1695 0
-6 -1667 1668 0
-1668 1696 0
-95 -1668 0
-44 1669 0
-1669 1697 0
-46 -1669 1670 0
-1670 1698 0
-48 -1670 1671 0
-1671 1699 0
-50 -1671 1672 0
-1672 1700 0
-52 -1672 1673 0
-1673 1701 0
-54 -1673 1674 0
-1674 1702 0
-56 -1674 1675 0
-1675 1703 0
-58 -1675 1676 0
-1676 1704 0
-4 -1676 1677 0
-1677 1705 0
-61 -1677 1678 0
-1678 1706 0
-63 -1678 1679 0
-1679 1707 0
-65 -1679 1680 0
-1680 1708 0
-67 -1680 1681 0
-1681 1709 0
-69 -1681 1682 0
-1682 1710 0
-71 -1682 1683 0
-1683 1711 0
-73 -1683 1684 0
-1684 1712 0
-75 -1684 1685 0
-1685 1713 0
-5 -1685 1686 0
-1686 1714 0
-78 -1686 1687 0
-1687 1715 0
-80 -1687 1688 0
-1688 1716 0
-82 -1688 1689 0
-1689 1717 0
-84 -1689 1690 0
-1690 1718 0
-86 -1690 1691 0
-1691 1719 0
-88 -1691 1692 0
-1692 1720 0
-90 -1692 1693 0
-1693 1721 0
-92 -1693 1694 0
-1694 1722 0
-6 -1694 1695 0
-1695 1723 0
-95 -1695 1696 0
-1696 1724 0
-97 -1696 0
-46 1697 0
-1697 1725 0
-48 -1697 1698 0
-1698 1726 0
-50 -1698 1699 0
-1699 1727 0
-52 -1699 1700 0
-1700 1728 0
-54 -1700 1701 0
-1701 1729 0
-56 -1701 1702 0
-1702 1730 0
-58 -1702 1703 0
-1703 1731 0
-4 -1703 1704 0
-1704 1732 0
-61 -1704 1705 0
-1705 1733 0
-63 -1705 1706 0
-1706 1734 0
-65 -1706 1707 0
-1707 1735 0
-67 -1707 1708 0
-1708 1736 0
-69 -1708 1709 0
-1709 1737 0
-71 -1709 1710 0
-1710 1738 0
-73 -1710 1711 0
-1711 1739 0
-75 -1711 1712 0
-1712 1740 0
-5 -1712 1713 0
-1713 1741 0
-78 -1713 1714 0
-1714 1742 0
-80 -1714 1715 0
-1715 1743 0
-82 -1715 1716 0
-1716 1744 0
-84 -1716 1717 0
-1717 1745 0
-86 -1717 1718 0
-1718 1746 0
-88 -1718 1719 0
-1719 1747 0
-90 -1719 1720 0
-1720 1748 0
-92 -1720 1721 0
-1721 1749 0
-6 -1721 1722 0
-1722 1750 0
-95 -1722 1723 0
-1723 1751 0
-97 -1723 1724 0
-1724 1752 0
-99 -1724 0
-48 1725 0
-1725 1753 0
-50 -1725 1726 0
-1726 1754 0
-52 -1726 1727 0
-1727 1755 0
-54 -1727 1728 0
-1728 1756 0
-56 -1728 1729 0
-1729 1757 0
-58 -1729 1730 0
-1730 1758 0
-4 -1730 1731 0
-1731 1759 0
-61 -1731 1732 0
-1732 1760 0
-63 -1732 1733 0
-1733 1761 0
-65 -1733 1734 0
-1734 1762 0
-67 -1734 1735 0
-1735 1763 0
-69 -1735 1736 0
-1736 1764 0
-71 -1736 1737 0
-1737 1765 0
-73 -1737 1738 0
-1738 1766 0
-75 -1738 1739 0
-1739 1767 0
-5 -1739 1740 0
-1740 1768 0
-78 -1740 1741 0
-1741 1769 0
-80 -1741 1742 0
-1742 1770 0
-82 -1742 1743 0
-1743 1771 0
-84 -1743 1744 0
-1744 1772 0
-86 -1744 1745 0
-1745 1773 0
-88 -1745 1746 0
-1746 1774 0
-90 -1746 1747 0
-1747 1775 0
-92 -1747 1748 0
-1748 1776 0
-6 -1748 1749 0
-1749 1777 0
-95 -1749 1750 0
-1750 1778 0
-97 -1750 1751 0
-1751 1779 0
-99 -1751 1752 0
-1752 1780 0
-101 -1752 0
-50 1753 0
-1753 1781 0
-52 -1753 1754 0
-1754 1782 0
-54 -1754 1755 0
-1755 1783 0
-56 -1755 1756 0
-1756 1784 0
-58 -1756 1757 0
-1757 1785 0
-4 -1757 1758 0
-1758 1786 0
-61 -1758 1759 0
-1759 1787 0
-63 -1759 1760 0
-1760 1788 0
-65 -1760 1761 0
-1761 1789 0
-67 -1761 1762 0
-1762 1790 0
-69 -1762 1763 0
-1763 1791 0
-71 -1763 1764 0
-1764 1792 0
-73 -1764 1765 0
-1765 1793 0
-75 -1765 1766 0
-1766 1794 0
-5 -1766 1767 0
-1767 1795 0
-78 -1767 1768 0
-1768 1796 0
-80 -1768 1769 0
-1769 1797 0
-82 -1769 1770 0
-1770 1798 0
-84 -1770 1771 0
-1771 1799 0
-86 -1771 1772 0
-1772 1800 0
-88 -1772 1773 0
-1773 1801 0
-90 -1773 1774 0
-1774 1802 0
-92 -1774 1775 0
-1775 1803 0
-6 -1775 1776 0
-1776 1804 0
-95 -1776 1777 0
-1777 1805 0
-97 -1777 1778 0
-1778 1806 0
-99 -1778 1779 0
-1779 1807 0
-101 -1779 1780 0
-1780 1808 0
-103 -1780 0
-52 1781 0
-1781 1809 0
-54 -1781 1782 0
-1782 1810 0
-56 -1782 1783 0
-1783 1811 0
-58 -1783 1784 0
-1784 1812 0
-4 -1784 1785 0
-1785 1813 0
-61 -1785 1786 0
-1786 1814 0
-63 -1786 1787 0
-1787 1815 0
-65 -1787 1788 0
-1788 1816 0
-67 -1788 1789 0
-1789 1817 0
-69 -1789 1790 0
-1790 1818 0
-71 -1790 1791 0
-1791 1819 0
-73 -1791 1792 0
-1792 1820 0
-75 -1792 1793 0
-1793 1821 0
-5 -1793 1794 0
-1794 1822 0
-78 -1794 1795 0
-1795 1823 0
-80 -1795 1796 0
-1796 1824 0
-82 -1796 1797 0
-1797 1825 0
-84 -1797 1798 0
-1798 1826 0
-86 -1798 1799 0
-1799 1827 0
-88 -1799 1800 0
-1800 1828 0
-90 -1800 1801 0
-1801 1829 0
-92 -1801 1802 0
-1802 1830 0
-6 -1802 1803 0
-1803 1831 0
-95 -1803 1804 0
-1804 1832 0
-97 -1804 1805 0
-1805 1833 0
-99 -1805 1806 0
-1806 1834 0
-101 -1806 1807 0
-1807 1835 0
-103 -1807 1808 0
-1808 1836 0
-105 -1808 0
-54 1809 0
-1809 1837 0
-56 -1809 1810 0
-1810 1838 0
-58 -1810 1811 0
-1811 1839 0
-4 -1811 1812 0
-1812 1840 0
-61 -1812 1813 0
-1813 1841 0
-63 -1813 1814 0
-1814 1842 0
-65 -1814 1815 0
-1815 1843 0
-67 -1815 1816 0
-1816 1844 0
-69 -1816 1817 0
-1817 1845 0
-71 -1817 1818 0
-1818 1846 0
-73 -1818 1819 0
-1819 1847 0
-75 -1819 1820 0
-1820 1848 0
-5 -1820 1821 0
-1821 1849 0
-78 -1821 1822 0
-1822 1850 0
-80 -1822 1823 0
-1823 1851 0
-82 -1823 1824 0
-1824 1852 0
-84 -1824 1825 0
-1825 1853 0
-86 -1825 1826 0
-1826 1854 0
-88 -1826 1827 0
-1827 1855 0
-90 -1827 1828 0
-1828 1856 0
-92 -1828 1829 0
-1829 1857 0
-6 -1829 1830 0
-1830 1858 0
-95 -1830 1831 0
-1831 1859 0
-97 -1831 1832 0
-1832 1860 0
-99 -1832 1833 0
-1833 1861 0
-101 -1833 1834 0
-1834 1862 0
-103 -1834 1835 0
-1835 1863 0
-105 -1835 1836 0
-1836 1864 0
-107 -1836 0
-56 1837 0
-1837 1865 0
-58 -1837 1838 0
-1838 1866 0
-4 -1838 1839 0
-1839 1867 0
-61 -1839 1840 0
-1840 1868 0
-63 -1840 1841 0
-1841 1869 0
-65 -1841 1842 0
-1842 1870 0
-67 -1842 1843 0
-1843 1871 0
-69 -1843 1844 0
-1844 1872 0
-71 -1844 1845 0
-1845 1873 0
-73 -1845 1846 0
-1846 1874 0
-75 -1846 1847 0
-1847 1875 0
-5 -1847 1848 0
-1848 1876 0
-78 -1848 1849 0
-1849 1877 0
-80 -1849 1850 0
-1850 1878 0
-82 -1850 1851 0
-1851 1879 0
-84 -1851 1852 0
-1852 1880 0
-86 -1852 1853 0
-1853 1881 0
-88 -1853 1854 0
-1854 1882 0
-90 -1854 1855 0
-1855 1883 0
-92 -1855 1856 0
-1856 1884 0
-6 -1856 1857 0
-1857 1885 0
-95 -1857 1858 0
-1858 1886 0
-97 -1858 1859 0
-1859 1887 0
-99 -1859 1860 0
-1860 1888 0
-101 -1860 1861 0
-1861 1889 0
-103 -1861 1862 0
-1862 1890 0
-105 -1862 1863 0
-1863 1891 0
-107 -1863 1864 0
-1864 1892 0
-109 -1864 0
-58 1865 0
-1865 1893 0
-4 -1865 1866 0
-1866 1894 0
-61 -1866 1867 0
-1867 1895 0
-63 -1867 1868 0
-1868 1896 0
-65 -1868 1869 0
-1869 1897 0
-67 -1869 1870 0
-1870 1898 0
-69 -1870 1871 0
-1871 1899 0
-71 -1871 1872 0
-1872 1900 0
-73 -1872 1873 0
-1873 1901 0
-75 -1873 1874 0
-1874 1902 0
-5 -1874 1875 0
-1875 1903 0
-78 -1875 1876 0
-1876 1904 0
-80 -1876 1877 0
-1877 1905 0
-82 -1877 1878 0
-1878 1906 0
-84 -1878 1879 0
-1879 1907 0
-86 -1879 1880 0
-1880 1908 0
-88 -1880 1881 0
-1881 1909 0
-90 -1881 1882 0
-1882 1910 0
-92 -1882 1883 0
-1883 1911 0
-6 -1883 1884 0
-1884 1912 0
-95 -1884 1885 0
-1885 1913 0
-97 -1885 1886 0
-1886 1914 0
-99 -1886 1887 0
-1887 1915 0
-101 -1887 1888 0
-1888 1916 0
-103 -1888 1889 0
-1889 1917 0
-105 -1889 1890 0
-1890 1918 0
-107 -1890 1891 0
-1891 1919 0
-109 -1891 1892 0
-1892 1920 0
-7 -1892 0
-4 1893 0
-1893 1921 0
-61 -1893 1894 0
-1894 1922 0
-63 -1894 1895 0
-1895 1923 0
-65 -1895 1896 0
-1896 1924 0
-67 -1896 1897 0
-1897 1925 0
-69 -1897 1898 0
-1898 1926 0
-71 -1898 1899 0
-1899 1927 0
-73 -1899 1900 0
-1900 1928 0
-75 -1900 1901 0
-1901 1929 0
-5 -1901 1902 0
-1902 1930 0
-78 -1902 1903 0
-1903 1931 0
-80 -1903 1904 0
-1904 1932 0
-82 -1904 1905 0
-1905 1933 0
-84 -1905 1906 0
-1906 1934 0
-86 -1906 1907 0
-1907 1935 0
-88 -1907 1908 0
-1908 1936 0
-90 -1908 1909 0
-1909 1937 0
-92 -1909 1910 0
-1910 1938 0
-6 -1910 1911 0
-1911 1939 0
-95 -1911 1912 0
-1912 1940 0
-97 -1912 1913 0
-1913 1941 0
-99 -1913 1914 0
-1914 1942 0
-101 -1914 1915 0
-1915 1943 0
-103 -1915 1916 0
-1916 1944 0
-105 -1916 1917 0
-1917 1945 0
-107 -1917 1918 0
-1918 1946 0
-109 -1918 1919 0
-1919 1947 0
-7 -1919 1920 0
-1920 1948 0
-112 -1920 0
-61 1921 0
-1921 1949 0
-63 -1921 1922 0
-1922 1950 0
-65 -1922 1923 0
-1923 1951 0
-67 -1923 1924 0
-1924 1952 0
-69 -1924 1925 0
-1925 1953 0
-71 -1925 1926 0
-1926 1954 0
-73 -1926 1927 0
-1927 1955 0
-75 -1927 1928 0
-1928 1956 0
-5 -1928 1929 0
-1929 1957 0
-78 -1929 1930 0
-1930 1958 0
-80 -1930 1931 0
-1931 1959 0
-82 -1931 1932 0
-1932 1960 0
-84 -1932 1933 0
-1933 1961 0
-86 -1933 1934 0
-1934 1962 0
-88 -1934 1935 0
-1935 1963 0
-90 -1935 1936 0
-1936 1964 0
-92 -1936 1937 0
-1937 1965 0
-6 -1937 1938 0
-1938 1966 0
-95 -1938 1939 0
-1939 1967 0
-97 -1939 1940 0
-1940 1968 0
-99 -1940 1941 0
-1941 1969 0
-101 -1941 1942 0
-1942 1970 0
-103 -1942 1943 0
-1943 1971 0
-105 -1943 1944 0
-1944 1972 0
-107 -1944 1945 0
-1945 1973 0
-109 -1945 1946 0
-1946 1974 0
-7 -1946 1947 0
-1947 1975 0
-112 -1947 1948 0
-1948 1976 0
-114 -1948 0
-63 1949 0
-1949 1977 0
-65 -1949 1950 0
-1950 1978 0
-67 -1950 1951 0
-1951 1979 0
-69 -1951 1952 0
-1952 1980 0
-71 -1952 1953 0
-1953 1981 0
-73 -1953 1954 0
-1954 1982 0
-75 -1954 1955 0
-1955 1983 0
-5 -1955 1956 0
-1956 1984 0
-78 -1956 1957 0
-1957 1985 0
-80 -1957 1958 0
-1958 1986 0
-82 -1958 1959 0
-1959 1987 0
-84 -1959 1960 0
-1960 1988 0
-86 -1960 1961 0
-1961 1989 0
-88 -1961 1962 0
-1962 1990 0
-90 -1962 1963 0
-1963 1991 0
-92 -1963 1964 0
-1964 1992 0
-6 -1964 1965 0
-1965 1993 0
-95 -1965 1966 0
-1966 1994 0
-97 -1966 1967 0
-1967 1995 0
-99 -1967 1968 0
-1968 1996 0
-101 -1968 1969 0
-1969 1997 0
-103 -1969 1970 0
-1970 1998 0
-105 -1970 1971 0
-1971 1999 0
-107 -1971 1972 0
-1972 2000 0
-109 -1972 1973 0
-1973 2001 0
-7 -1973 1974 0
-1974 2002 0
-112 -1974 1975 0
-1975 2003 0
-114 -1975 1976 0
-1976 2004 0
-116 -1976 0
-65 1977 0
-1977 2005 0
-67 -1977 1978 0
-1978 2006 0
-69 -1978 1979 0
-1979 2007 0
-71 -1979 1980 0
-1980 2008 0
-73 -1980 1981 0
-1981 2009 0
-75 -1981 1982 0
-1982 2010 0
-5 -1982 1983 0
-1983 2011 0
-78 -1983 1984 0
-1984 2012 0
-80 -1984 1985 0
-1985 2013 0
-82 -1985 1986 0
-1986 2014 0
-84 -1986 1987 0
-1987 2015 0
-86 -1987 1988 0
-1988 2016 0
-88 -1988 1989 0
-1989 2017 0
-90 -1989 1990 0
-1990 2018 0
-92 -1990 1991 0
-1991 2019 0
-6 -1991 1992 0
-1992 2020 0
-95 -1992 1993 0
-1993 2021 0
-97 -1993 1994 0
-1994 2022 0
-99 -1994 1995 0
-1995 2023 0
-101 -1995 1996 0
-1996 2024 0
-103 -1996 1997 0
-1997 2025 0
-105 -1997 1998 0
-1998 2026 0
-107 -1998 1999 0
-1999 2027 0
-109 -1999 2000 0
-2000 2028 0
-7 -2000 2001 0
-2001 2029 0
-112 -2001 2002 0
-2002 2030 0
-114 -2002 2003 0
-2003 2031 0
-116 -2003 2004 0
-2004 2032 0
-118 -2004 0
-67 2005 0
-2005 2033 0
-69 -2005 2006 0
-2006 2034 0
-71 -2006 2007 0
-2007 2035 0
-73 -2007 2008 0
-2008 2036 0
-75 -2008 2009 0
-2009 2037 0
-5 -2009 2010 0
-2010 2038 0
-78 -2010 2011 0
-2011 2039 0
-80 -2011 2012 0
-2012 2040 0
-82 -2012 2013 0
-2013 2041 0
-84 -2013 2014 0
-2014 2042 0
-86 -2014 2015 0
-2015 2043 0
-88 -2015 2016 0
-2016 2044 0
-90 -2016 2017 0
-2017 2045 0
-92 -2017 2018 0
-2018 2046 0
-6 -2018 2019 0
-2019 2047 0
-95 -2019 2020 0
-2020 2048 0
-97 -2020 2021 0
-2021 2049 0
-99 -2021 2022 0
-2022 2050 0
-101 -2022 2023 0
-2023 2051 0
-103 -2023 2024 0
-2024 2052 0
-105 -2024 2025 0
-2025 2053 0
-107 -2025 2026 0
-2026 2054 0
-109 -2026 2027 0
-2027 2055 0
-7 -2027 2028 0
-2028 2056 0
-112 -2028 2029 0
-2029 2057 0
-114 -2029 2030 0
-2030 2058 0
-116 -2030 2031 0
-2031 2059 0
-118 -2031 2032 0
-2032 2060 0
-120 -2032 0
-69 2033 0
-2033 2061 0
-71 -2033 2034 0
-2034 2062 0
-73 -2034 2035 0
-2035 2063 0
-75 -2035 2036 0
-2036 2064 0
-5 -2036 2037 0
-2037 2065 0
-78 -2037 2038 0
-2038 2066 0
-80 -2038 2039 0
-2039 2067 0
-82 -2039 2040 0
-2040 2068 0
-84 -2040 2041 0
-2041 2069 0
-86 -2041 2042 0
-2042 2070 0
-88 -2042 2043 0
-2043 2071 0
-90 -2043 2044 0
-2044 2072 0
-92 -2044 2045 0
-2045 2073 0
-6 -2045 2046 0
-2046 2074 0
-95 -2046 2047 0
-2047 2075 0
-97 -2047 2048 0
-2048 2076 0
-99 -2048 2049 0
-2049 2077 0
-101 -2049 2050 0
-2050 2078 0
-103 -2050 2051 0
-2051 2079 0
-105 -2051 2052 0
-2052 2080 0
-107 -2052 2053 0
-2053 2081 0
-109 -2053 2054 0
-2054 2082 0
-7 -2054 2055 0
-2055 2083 0
-112 -2055 2056 0
-2056 2084 0
-114 -2056 2057 0
-2057 2085 0
-116 -2057 2058 0
-2058 2086 0
-118 -2058 2059 0
-2059 2087 0
-120 -2059 2060 0
-2060 2088 0
-122 -2060 0
-71 2061 0
-2061 2089 0
-73 -2061 2062 0
-2062 2090 0
-75 -2062 2063 0
-2063 2091 0
-5 -2063 2064 0
-2064 2092 0
-78 -2064 2065 0
-2065 2093 0
-80 -2065 2066 0
-2066 2094 0
-82 -2066 2067 0
-2067 2095 0
-84 -2067 2068 0
-2068 2096 0
-86 -2068 2069 0
-2069 2097 0
-88 -2069 2070 0
-2070 2098 0
-90 -2070 2071 0
-2071 2099 0
-92 -2071 2072 0
-2072 2100 0
-6 -2072 2073 0
-2073 2101 0
-95 -2073 2074 0
-2074 2102 0
-97 -2074 2075 0
-2075 2103 0
-99 -2075 2076 0
-2076 2104 0
-101 -2076 2077 0
-2077 2105 0
-103 -2077 2078 0
-2078 2106 0
-105 -2078 2079 0
-2079 2107 0
-107 -2079 2080 0
-2080 2108 0
-109 -2080 2081 0
-2081 2109 0
-7 -2081 2082 0
-2082 2110 0
-112 -2082 2083 0
-2083 2111 0
-114 -2083 2084 0
-2084 2112 0
-116 -2084 2085 0
-2085 2113 0
-118 -2085 2086 0
-2086 2114 0
-120 -2086 2087 0
-2087 2115 0
-122 -2087 2088 0
-2088 2116 0
-124 -2088 0
-73 2089 0
-2089 2117 0
-75 -2089 2090 0
-2090 2118 0
-5 -2090 2091 0
-2091 2119 0
-78 -2091 2092 0
-2092 2120 0
-80 -2092 2093 0
-2093 2121 0
-82 -2093 2094 0
-2094 2122 0
-84 -2094 2095 0
-2095 2123 0
-86 -2095 2096 0
-2096 2124 0
-88 -2096 2097 0
-2097 2125 0
-90 -2097 2098 0
-2098 2126 0
-92 -2098 2099 0
-2099 2127 0
-6 -2099 2100 0
-2100 2128 0
-95 -2100 2101 0
-2101 2129 0
-97 -2101 2102 0
-2102 2130 0
-99 -2102 2103 0
-2103 2131 0
-101 -2103 2104 0
-2104 2132 0
-103 -2104 2105 0
-2105 2133 0
-105 -2105 2106 0
-2106 2134 0
-107 -2106 2107 0
-2107 2135 0
-109 -2107 2108 0
-2108 2136 0
-7 -2108 2109 0
-2109 2137 0
-112 -2109 2110 0
-2110 2138 0
-114 -2110 2111 0
-2111 2139 0
-116 -2111 2112 0
-2112 2140 0
-118 -2112 2113 0
-2113 2141 0
-120 -2113 2114 0
-2114 2142 0
-122 -2114 2115 0
-2115 2143 0
-124 -2115 2116 0
-2116 2144 0
-126 -2116 0
-75 2117 0
-5 -2117 2118 0
-78 -2118 2119 0
-80 -2119 2120 0
-82 -2120 2121 0
-84 -2121 2122 0
-86 -2122 2123 0
-88 -2123 2124 0
-90 -2124 2125 0
-92 -2125 2126 0
-6 -2126 2127 0
-95 -2127 2128 0
-97 -2128 2129 0
-99 -2129 2130 0
-101 -2130 2131 0
-103 -2131 2132 0
-105 -2132 2133 0
-107 -2133 2134 0
-109 -2134 2135 0
-7 -2135 2136 0
-112 -2136 2137 0
-114 -2137 2138 0
-116 -2138 2139 0
-118 -2139 2140 0
-120 -2140 2141 0
-122 -2141 2142 0
-124 -2142 2143 0
-126 -2143 2144 0
-8 -2144 0
2145 0
2146 2147 0
-2146 -2147 0
-2146 -2148 2149 0
-2146 -2150 2151 0
-2146 -2152 2153 0
-2146 -2154 2155 0
-2146 -2156 2157 0
-2146 -2158 2159 0
2149 2160 0
-2149 -2160 0
-2149 -2161 2146 0
-2149 -2162 2151 0
-2149 -2163 2153 0
-2149 -2164 2155 0
-2149 -2165 2157 0
-2149 -2166 2159 0
2151 2167 0
-2151 -2167 0
-2151 -2168 2146 0
-2151 -2169 2149 0
-2151 -2170 2153 0
-2151 -2171 2155 0
-2151 -2172 2157 0
-2151 -2173 2159 0
2153 2174 0
-2153 -2174 0
-2153 -2175 2146 0
-2153 -2176 2149 0
-2153 -2177 2151 0
-2153 -2178 2155 0
-2153 -2179 2157 0
-2153 -2180 2159 0
2155 2181 0
-2155 -2181 0
-2155 -2182 2146 0
-2155 -2183 2149 0
-2155 -2184 2151 0
-2155 -2185 2153 0
-2155 -2186 2157 0
-2155 -2187 2159 0
2157 2188 0
-2157 -2188 0
-2157 -2189 2146 0
-2157 -2190 2149 0
-2157 -2191 2151 0
-2157 -2192 2153 0
-2157 -2193 2155 0
-2157 -2194 2159 0
2159 2195 0
-2159 -2195 0
-2159 -2196 2146 0
-2159 -2197 2149 0
-2159 -2198 2151 0
-2159 -2199 2153 0
-2159 -2200 2155 0
-2159 -2201 2157 0
2202 0
2147 2146 0
-2147 -2146 0
-2147 -2149 2148 0
-2147 -2151 2150 0
-2147 -2153 2152 0
-2147 -2155 2154 0
-2147 -2157 2156 0
-2147 -2159 2158 0
2148 2161 0
-2148 -2161 0
-2148 -2160 2147 0
-2148 -2162 2150 0
-2148 -2163 2152 0
-2148 -2164 2154 0
-2148 -2165 2156 0
-2148 -2166 2158 0
2150 2168 0
-2150 -2168 0
-2150 -2167 2147 0
-2150 -2169 2148 0
-2150 -2170 2152 0
-2150 -2171 2154 0
-2150 -2172 2156 0
-2150 -2173 2158 0
2152 2175 0
-2152 -2175 0
-2152 -2174 2147 0
-2152 -2176 2148 0
-2152 -2177 2150 0
-2152 -2178 2154 0
-2152 -2179 2156 0
-2152 -2180 2158 0
2154 2182 0
-2154 -2182 0
-2154 -2181 2147 0
-2154 -2183 2148 0
-2154 -2184 2150 0
-2154 -2185 2152 0
-2154 -2186 2156 0
-2154 -2187 2158 0
2156 2189 0
-2156 -2189 0
-2156 -2188 2147 0
-2156 -2190 2148 0
-2156 -2191 2150 0
-2156 -2192 2152 0
-2156 -2193 2154 0
-2156 -2194 2158 0
2158 2196 0
-2158 -2196 0
-2158 -2195 2147 0
-2158 -2197 2148 0
-2158 -2198 2150 0
-2158 -2199 2152 0
-2158 -2200 2154 0
-2158 -2201 2156 0
2203 0
2160 2149 0
-2160 -2149 0
-2160 -2146 2161 0
-2160 -2151 2162 0
-2160 -2153 2163 0
-2160 -2155 2164 0
-2160 -2157 2165 0
-2160 -2159 2166 0
2161 2148 0
-2161 -2148 0
-2161 -2147 2160 0
-2161 -2150 2162 0
-2161 -2152 2163 0
-2161 -2154 2164 0
-2161 -2156 2165 0
-2161 -2158 2166 0
2162 2169 0
-2162 -2169 0
-2162 -2167 2160 0
-2162 -2168 2161 0
-2162 -2170 2163 0
-2162 -2171 2164 0
-2162 -2172 2165 0
-2162 -2173 2166 0
2163 2176 0
-2163 -2176 0
-2163 -2174 2160 0
-2163 -2175 2161 0
-2163 -2177 2162 0
-2163 -2178 2164 0
-2163 -2179 2165 0
-2163 -2180 2166 0
2164 2183 0
-2164 -2183 0
-2164 -2181 2160 0
-2164 -2182 2161 0
-2164 -2184 2162 0
-2164 -2185 2163 0
-2164 -2186 2165 0
-2164 -2187 2166 0
2165 2190 0
-2165 -2190 0
-2165 -2188 2160 0
-2165 -2189 2161 0
-2165 -2191 2162 0
-2165 -2192 2163 0
-2165 -2193 2164 0
-2165 -2194 2166 0
2166 2197 0
-2166 -2197 0
-2166 -2195 2160 0
-2166 -2196 2161 0
-2166 -2198 2162 0
-2166 -2199 2163 0
-2166 -2200 2164 0
-2166 -2201 2165 0
2204 0
2167 2151 0
-2167 -2151 0
-2167 -2146 2168 0
-2167 -2149 2169 0
-2167 -2153 2170 0
-2167 -2155 2171 0
-2167 -2157 2172 0
-2167 -2159 2173 0
2168 2150 0
-2168 -2150 0
-2168 -2147 2167 0
-2168 -2148 2169 0
-2168 -2152 2170 0
-2168 -2154 2171 0
-2168 -2156 2172 0
-2168 -2158 2173 0
2169 2162 0
-2169 -2162 0
-2169 -2160 2167 0
-2169 -2161 2168 0
-2169 -2163 2170 0
-2169 -2164 2171 0
-2169 -2165 2172 0
-2169 -2166 2173 0
2170 2177 0
-2170 -2177 0
-2170 -2174 2167 0
-2170 -2175 2168 0
-2170 -2176 2169 0
-2170 -2178 2171 0
-2170 -2179 2172 0
-2170 -2180 2173 0
2171 2184 0
-2171 -2184 0
-2171 -2181 2167 0
-2171 -2182 2168 0
-2171 -2183 2169 0
-2171 -2185 2170 0
-2171 -2186 2172 0
-2171 -2187 2173 0
2172 2191 0
-2172 -2191 0
-2172 -2188 2167 0
-2172 -2189 2168 0
-2172 -2190 2169 0
-2172 -2192 2170 0
-2172 -2193 2171 0
-2172 -2194 2173 0
2173 2198 0
-2173 -2198 0
-2173 -2195 2167 0
-2173 -2196 2168 0
-2173 -2197 2169 0
-2173 -2199 2170 0
-2173 -2200 2171 0
-2173 -2201 2172 0
2205 0
2174 2153 0
-2174 -2153 0
-2174 -2146 2175 0
-2174 -2149 2176 0
-2174 -2151 2177 0
-2174 -2155 2178 0
-2174 -2157 2179 0
-2174 -2159 2180 0
2175 2152 0
-2175 -2152 0
-2175 -2147 2174 0
-2175 -2148 2176 0
-2175 -2150 2177 0
-2175 -2154 2178 0
-2175 -2156 2179 0
-2175 -2158 2180 0
2176 2163 0
-2176 -2163 0
-2176 -2160 2174 0
-2176 -2161 2175 0
-2176 -2162 2177 0
-2176 -2164 2178 0
-2176 -2165 2179 0
-2176 -2166 2180 0
2177 2170 0
-2177 -2170 0
-2177 -2167 2174 0
-2177 -2168 2175 0
-2177 -2169 2176 0
-2177 -2171 2178 0
-2177 -2172 2179 0
-2177 -2173 2180 0
2178 2185 0
-2178 -2185 0
-2178 -2181 2174 0
-2178 -2182 2175 0
-2178 -2183 2176 0
-2178 -2184 2177 0
-2178 -2186 2179 0
-2178 -2187 2180 0
2179 2192 0
-2179 -2192 0
-2179 -2188 2174 0
-2179 -2189 2175 0
-2179 -2190 2176 0
-2179 -2191 2177 0
-2179 -2193 2178 0
-2179 -2194 2180 0
2180 2199 0
-2180 -2199 0
-2180 -2195 2174 0
-2180 -2196 2175 0
-2180 -2197 2176 0
-2180 -2198 2177 0
-2180 -2200 2178 0
-2180 -2201 2179 0
2206 0
2181 2155 0
-2181 -2155 0
-2181 -2146 2182 0
-2181 -2149 2183 0
-2181 -2151 2184 0
-2181 -2153 2185 0
-2181 -2157 2186 0
-2181 -2159 2187 0
2182 2154 0
-2182 -2154 0
-2182 -2147 2181 0
-2182 -2148 2183 0
-2182 -2150 2184 0
-2182 -2152 2185 0
-2182 -2156 2186 0
-2182 -2158 2187 0
2183 2164 0
-2183 -2164 0
-2183 -2160 2181 0
-2183 -2161 2182 0
-2183 -2162 2184 0
-2183 -2163 2185 0
-2183 -2165 2186 0
-2183 -2166 2187 0
2184 2171 0
-2184 -2171 0
-2184 -2167 2181 0
-2184 -2168 2182 0
-2184 -2169 2183 0
-2184 -2170 2185 0
-2184 -2172 2186 0
-2184 -2173 2187 0
2185 2178 0
-2185 -2178 0
-2185 -2174 2181 0
-2185 -2175 2182 0
-2185 -2176 2183 0
-2185 -2177 2184 0
-2185 -2179 2186 0
-2185 -2180 2187 0
2186 2193 0
-2186 -2193 0
-2186 -2188 2181 0
-2186 -2189 2182 0
-2186 -2190 2183 0
-2186 -2191 2184 0
-2186 -2192 2185 0
-2186 -2194 2187 0
2187 2200 0
-2187 -2200 0
-2187 -2195 2181 0
-2187 -2196 2182 0
-2187 -2197 2183 0
-2187 -2198 2184 0
-2187 -2199 2185 0
-2187 -2201 2186 0
2207 0
2188 2157 0
-2188 -2157 0
-2188 -2146 2189 0
-2188 -2149 2190 0
-2188 -2151 2191 0
-2188 -2153 2192 0
-2188 -2155 2193 0
-2188 -2159 2194 0
2189 2156 0
-2189 -2156 0
-2189 -2147 2188 0
-2189 -2148 2190 0
-2189 -2150 2191 0
-2189 -2152 2192 0
-2189 -2154 2193 0
-2189 -2158 2194 0
2190 2165 0
-2190 -2165 0
-2190 -2160 2188 0
-2190 -2161 2189 0
-2190 -2162 2191 0
-2190 -2163 2192 0
-2190 -2164 2193 0
-2190 -2166 2194 0
2191 2172 0
-2191 -2172 0
-2191 -2167 2188 0
-2191 -2168 2189 0
-2191 -2169 2190 0
-2191 -2170 2192 0
-2191 -2171 2193 0
-2191 -2173 2194 0
2192 2179 0
-2192 -2179 0
-2192 -2174 2188 0
-2192 -2175 2189 0
-2192 -2176 2190 0
-2192 -2177 2191 0
-2192 -2178 2193 0
-2192 -2180 2194 0
2193 2186 0
-2193 -2186 0
-2193 -2181 2188 0
-2193 -2182 2189 0
-2193 -2183 2190 0
-2193 -2184 2191 0
-2193 -2185 2192 0
-2193 -2187 2194 0
2194 2201 0
-2194 -2201 0
-2194 -2195 2188 0
-2194 -2196 2189 0
-2194 -2197 2190 0
-2194 -2198 2191 0
-2194 -2199 2192 0
-2194 -2200 2193 0
2208 0
2195 2159 0
-2195 -2159 0
-2195 -2146 2196 0
-2195 -2149 2197 0
-2195 -2151 2198 0
-2195 -2153 2199 0
-2195 -2155 2200 0
-2195 -2157 2201 0
2196 2158 0
-2196 -2158 0
-2196 -2147 2195 0
-2196 -2148 2197 0
-2196 -2150 2198 0
-2196 -2152 2199 0
-2196 -2154 2200 0
-2196 -2156 2201 0
2197 2166 0
-2197 -2166 0
-2197 -2160 2195 0
-2197 -2161 2196 0
-2197 -2162 2198 0
-2197 -2163 2199 0
-2197 -2164 2200 0
-2197 -2165 2201 0
2198 2173 0
-2198 -2173 0
-2198 -2167 2195 0
-2198 -2168 2196 0
-2198 -2169 2197 0
-2198 -2170 2199 0
-2198 -2171 2200 0
-2198 -2172 2201 0
2199 2180 0
-2199 -2180 0
-2199 -2174 2195 0
-2199 -2175 2196 0
-2199 -2176 2197 0
-2199 -2177 2198 0
-2199 -2178 2200 0
-2199 -2179 2201 0
2200 2187 0
-2200 -2187 0
-2200 -2181 2195 0
-2200 -2182 2196 0
-2200 -2183 2197 0
-2200 -2184 2198 0
-2200 -2185 2199 0
-2200 -2186 2201 0
2201 2194 0
-2201 -2194 0
-2201 -2188 2195 0
-2201 -2189 2196 0
-2201 -2190 2197 0
-2201 -2191 2198 0
-2201 -2192 2199 0
-2201 -2193 2200 0
-2209 0
-2210 2146 0
-2211 2149 0
-2211 2161 0
-2149 -2161 2211 0
-2212 2151 0
-2212 2168 0
-2151 -2168 2212 0
-2213 2153 0
-2213 2175 0
-2153 -2175 2213 0
-2214 2155 0
-2214 2182 0
-2155 -2182 2214 0
-2215 2157 0
-2215 2189 0
-2157 -2189 2215 0
-2216 2159 0
-2216 2196 0
-2159 -2196 2216 0
-2210 -2211 0
-2210 -2212 0
-2210 -2213 0
-2210 -2214 0
-2210 -2215 0
-2210 -2216 0
-2146 2210 2211 2212 2213 2214 2215 2216 0
-2217 2149 0
-2218 2146 0
-2218 2148 0
-2146 -2148 2218 0
-2219 2151 0
-2219 2169 0
-2151 -2169 2219 0
-2220 2153 0
-2220 2176 0
-2153 -2176 2220 0
-2221 2155 0
-2221 2183 0
-2155 -2183 2221 0
-2222 2157 0
-2222 2190 0
-2157 -2190 2222 0
-2223 2159 0
-2223 2197 0
-2159 -2197 2223 0
-2217 -2218 0
-2217 -2219 0
-2217 -2220 0
-2217 -2221 0
-2217 -2222 0
-2217 -2223 0
-2149 2217 2218 2219 2220 2221 2222 2223 0
-2224 2151 0
-2225 2146 0
-2225 2150 0
-2146 -2150 2225 0
-2226 2149 0
-2226 2162 0
-2149 -2162 2226 0
-2227 2153 0
-2227 2177 0
-2153 -2177 2227 0
-2228 2155 0
-2228 2184 0
-2155 -2184 2228 0
-2229 2157 0
-2229 2191 0
-2157 -2191 2229 0
-2230 2159 0
-2230 2198 0
-2159 -2198 2230 0
-2224 -2225 0
-2224 -2226 0
-2224 -2227 0
-2224 -2228 0
-2224 -2229 0
-2224 -2230 0
-2151 2224 2225 2226 2227 2228 2229 2230 0
-2231 2153 0
-2232 2146 0
-2232 2152 0
-2146 -2152 2232 0
-2233 2149 0
-2233 2163 0
-2149 -2163 2233 0
-2234 2151 0
-2234 2170 0
-2151 -2170 2234 0
-2235 2155 0
-2235 2185 0
-2155 -2185 2235 0
-2236 2157 0
-2236 2192 0
-2157 -2192 2236 0
-2237 2159 0
-2237 2199 0
-2159 -2199 2237 0
-2231 -2232 0
-2231 -2233 0
-2231 -2234 0
-2231 -2235 0
-2231 -2236 0
-2231 -2237 0
-2153 2231 2232 2233 2234 2235 2236 2237 0
-2238 2155 0
-2239 2146 0
-2239 2154 0
-2146 -2154 2239 0
-2240 2149 0
-2240 2164 0
-2149 -2164 2240 0
-2241 2151 0
-2241 2171 0
-2151 -2171 2241 0
-2242 2153 0
-2242 2178 0
-2153 -2178 2242 0
-2243 2157 0
-2243 2193 0
-2157 -2193 2243 0
-2244 2159 0
-2244 2200 0
-2159 -2200 2244 0
-2238 -2239 0
-2238 -2240 0
-2238 -2241 0
-2238 -2242 0
-2238 -2243 0
-2238 -2244 0
-2155 2238 2239 2240 2241 2242 2243 2244 0
-2245 2157 0
-2246 2146 0
-2246 2156 0
-2146 -2156 2246 0
-2247 2149 0
-2247 2165 0
-2149 -2165 2247 0
-2248 2151 0
-2248 2172 0
-2151 -2172 2248 0
-2249 2153 0
-2249 2179 0
-2153 -2179 2249 0
-2250 2155 0
-2250 2186 0
-2155 -2186 2250 0
-2251 2159 0
-2251 2201 0
-2159 -2201 2251 0
-2245 -2246 0
-2245 -2247 0
-2245 -2248 0
-2245 -2249 0
-2245 -2250 0
-2245 -2251 0
-2157 2245 2246 2247 2248 2249 2250 2251 0
-2252 2159 0
-2253 2146 0
-2253 2158 0
-2146 -2158 2253 0
-2254 2149 0
-2254 2166 0
-2149 -2166 2254 0
-2255 2151 0
-2255 2173 0
-2151 -2173 2255 0
-2256 2153 0
-2256 2180 0
-2153 -2180 2256 0
-2257 2155 0
-2257 2187 0
-2155 -2187 2257 0
-2258 2157 0
-2258 2194 0
-2157 -2194 2258 0
-2252 -2253 0
-2252 -2254 0
-2252 -2255 0
-2252 -2256 0
-2252 -2257 0
-2252 -2258 0
-2159 2252 2253 2254 2255 2256 2257 2258 0
-2259 2147 0
-2260 2148 0
-2260 2160 0
-2148 -2160 2260 0
-2261 2150 0
-2261 2167 0
-2150 -2167 2261 0
-2262 2152 0
-2262 2174 0
-2152 -2174 2262 0
-2263 2154 0
-2263 2181 0
-2154 -2181 2263 0
-2264 2156 0
-2264 2188 0
-2156 -2188 2264 0
-2265 2158 0
-2265 2195 0
-2158 -2195 2265 0
-2259 -2260 0
-2259 -2261 0
-2259 -2262 0
-2259 -2263 0
-2259 -2264 0
-2259 -2265 0
-2147 2259 2260 2261 2262 2263 2264 2265 0
-2266 0
-2267 2148 0
-2268 2147 0
-2268 2149 0
-2147 -2149 2268 0
-2269 2150 0
-2269 2169 0
-2150 -2169 2269 0
-2270 2152 0
-2270 2176 0
-2152 -2176 2270 0
-2271 2154 0
-2271 2183 0
-2154 -2183 2271 0
-2272 2156 0
-2272 2190 0
-2156 -2190 2272 0
-2273 2158 0
-2273 2197 0
-2158 -2197 2273 0
-2267 -2268 0
-2267 -2269 0
-2267 -2270 0
-2267 -2271 0
-2267 -2272 0
-2267 -2273 0
-2148 2267 2268 2269 2270 2271 2272 2273 0
-2274 2150 0
-2275 2147 0
-2275 2151 0
-2147 -2151 2275 0
-2276 2148 0
-2276 2162 0
-2148 -2162 2276 0
-2277 2152 0
-2277 2177 0
-2152 -2177 2277 0
-2278 2154 0
-2278 2184 0
-2154 -2184 2278 0
-2279 2156 0
-2279 2191 0
-2156 -2191 2279 0
-2280 2158 0
-2280 2198 0
-2158 -2198 2280 0
-2274 -2275 0
-2274 -2276 0
-2274 -2277 0
-2274 -2278 0
-2274 -2279 0
-2274 -2280 0
-2150 2274 2275 2276 2277 2278 2279 2280 0
-2281 2152 0
-2282 2147 0
-2282 2153 0
-2147 -2153 2282 0
-2283 2148 0
-2283 2163 0
-2148 -2163 2283 0
-2284 2150 0
-2284 2170 0
-2150 -2170 2284 0
-2285 2154 0
-2285 2185 0
-2154 -2185 2285 0
-2286 2156 0
-2286 2192 0
-2156 -2192 2286 0
-2287 2158 0
-2287 2199 0
-2158 -2199 2287 0
-2281 -2282 0
-2281 -2283 0
-2281 -2284 0
-2281 -2285 0
-2281 -2286 0
-2281 -2287 0
-2152 2281 2282 2283 2284 2285 2286 2287 0
-2288 2154 0
-2289 2147 0
-2289 2155 0
-2147 -2155 2289 0
-2290 2148 0
-2290 2164 0
-2148 -2164 2290 0
-2291 2150 0
-2291 2171 0
-2150 -2171 2291 0
-2292 2152 0
-2292 2178 0
-2152 -2178 2292 0
-2293 2156 0
-2293 2193 0
-2156 -2193 2293 0
-2294 2158 0
-2294 2200 0
-2158 -2200 2294 0
-2288 -2289 0
-2288 -2290 0
-2288 -2291 0
-2288 -2292 0
-2288 -2293 0
-2288 -2294 0
-2154 2288 2289 2290 2291 2292 2293 2294 0
-2295 2156 0
-2296 2147 0
-2296 2157 0
-2147 -2157 2296 0
-2297 2148 0
-2297 2165 0
-2148 -2165 2297 0
-2298 2150 0
-2298 2172 0
-2150 -2172 2298 0
-2299 2152 0
-2299 2179 0
-2152 -2179 2299 0
-2300 2154 0
-2300 2186 0
-2154 -2186 2300 0
-2301 2158 0
-2301 2201 0
-2158 -2201 2301 0
-2295 -2296 0
-2295 -2297 0
-2295 -2298 0
-2295 -2299 0
-2295 -2300 0
-2295 -2301 0
-2156 2295 2296 2297 2298 2299 2300 2301 0
-2302 2158 0
-2303 2147 0
-2303 2159 0
-2147 -2159 2303 0
-2304 2148 0
-2304 2166 0
-2148 -2166 2304 0
-2305 2150 0
-2305 2173 0
-2150 -2173 2305 0
-2306 2152 0
-2306 2180 0
-2152 -2180 2306 0
-2307 2154 0
-2307 2187 0
-2154 -2187 2307 0
-2308 2156 0
-2308 2194 0
-2156 -2194 2308 0
-2302 -2303 0
-2302 -2304 0
-2302 -2305 0
-2302 -2306 0
-2302 -2307 0
-2302 -2308 0
-2158 2302 2303 2304 2305 2306 2307 2308 0
-2309 2160 0
-2310 2161 0
-2310 2147 0
-2161 -2147 2310 0
-2311 2162 0
-2311 2167 0
-2162 -2167 2311 0
-2312 2163 0
-2312 2174 0
-2163 -2174 2312 0
-2313 2164 0
-2313 2181 0
-2164 -2181 2313 0
-2314 2165 0
-2314 2188 0
-2165 -2188 2314 0
-2315 2166 0
-2315 2195 0
-2166 -2195 2315 0
-2309 -2310 0
-2309 -2311 0
-2309 -2312 0
-2309 -2313 0
-2309 -2314 0
-2309 -2315 0
-2160 2309 2310 2311 2312 2313 2314 2315 0
-2316 2161 0
-2317 2160 0
-2317 2146 0
-2160 -2146 2317 0
-2318 2162 0
-2318 2168 0
-2162 -2168 2318 0
-2319 2163 0
-2319 2175 0
-2163 -2175 2319 0
-2320 2164 0
-2320 2182 0
-2164 -2182 2320 0
-2321 2165 0
-2321 2189 0
-2165 -2189 2321 0
-2322 2166 0
-2322 2196 0
-2166 -2196 2322 0
-2316 -2317 0
-2316 -2318 0
-2316 -2319 0
-2316 -2320 0
-2316 -2321 0
-2316 -2322 0
-2161 2316 2317 2318 2319 2320 2321 2322 0
-2323 0
-2324 2162 0
-2325 2160 0
-2325 2151 0
-2160 -2151 2325 0
-2326 2161 0
-2326 2150 0
-2161 -2150 2326 0
-2327 2163 0
-2327 2177 0
-2163 -2177 2327 0
-2328 2164 0
-2328 2184 0
-2164 -2184 2328 0
-2329 2165 0
-2329 2191 0
-2165 -2191 2329 0
-2330 2166 0
-2330 2198 0
-2166 -2198 2330 0
-2324 -2325 0
-2324 -2326 0
-2324 -2327 0
-2324 -2328 0
-2324 -2329 0
-2324 -2330 0
-2162 2324 2325 2326 2327 2328 2329 2330 0
-2331 2163 0
-2332 2160 0
-2332 2153 0
-2160 -2153 2332 0
-2333 2161 0
-2333 2152 0
-2161 -2152 2333 0
-2334 2162 0
-2334 2170 0
-2162 -2170 2334 0
-2335 2164 0
-2335 2185 0
-2164 -2185 2335 0
-2336 2165 0
-2336 2192 0
-2165 -2192 2336 0
-2337 2166 0
-2337 2199 0
-2166 -2199 2337 0
-2331 -2332 0
-2331 -2333 0
-2331 -2334 0
-2331 -2335 0
-2331 -2336 0
-2331 -2337 0
-2163 2331 2332 2333 2334 2335 2336 2337 0
-2338 2164 0
-2339 2160 0
-2339 2155 0
-2160 -2155 2339 0
-2340 2161 0
-2340 2154 0
-2161 -2154 2340 0
-2341 2162 0
-2341 2171 0
-2162 -2171 2341 0
-2342 2163 0
-2342 2178 0
-2163 -2178 2342 0
-2343 2165 0
-2343 2193 0
-2165 -2193 2343 0
-2344 2166 0
-2344 2200 0
-2166 -2200 2344 0
-2338 -2339 0
-2338 -2340 0
-2338 -2341 0
-2338 -2342 0
-2338 -2343 0
-2338 -2344 0
-2164 2338 2339 2340 2341 2342 2343 2344 0
-2345 2165 0
-2346 2160 0
-2346 2157 0
-2160 -2157 2346 0
-2347 2161 0
-2347 2156 0
-2161 -2156 2347 0
-2348 2162 0
-2348 2172 0
-2162 -2172 2348 0
-2349 2163 0
-2349 2179 0
-2163 -2179 2349 0
-2350 2164 0
-2350 2186 0
-2164 -2186 2350 0
-2351 2166 0
-2351 2201 0
-2166 -2201 2351 0
-2345 -2346 0
-2345 -2347 0
-2345 -2348 0
-2345 -2349 0
-2345 -2350 0
-2345 -2351 0
-2165 2345 2346 2347 2348 2349 2350 2351 0
-2352 2166 0
-2353 2160 0
-2353 2159 0
-2160 -2159 2353 0
-2354 2161 0
-2354 2158 0
-2161 -2158 2354 0
-2355 2162 0
-2355 2173 0
-2162 -2173 2355 0
-2356 2163 0
-2356 2180 0
-2163 -2180 2356 0
-2357 2164 0
-2357 2187 0
-2164 -2187 2357 0
-2358 2165 0
-2358 2194 0
-2165 -2194 2358 0
-2352 -2353 0
-2352 -2354 0
-2352 -2355 0
-2352 -2356 0
-2352 -2357 0
-2352 -2358 0
-2166 2352 2353 2354 2355 2356 2357 2358 0
-2359 2167 0
-2360 2168 0
-2360 2147 0
-2168 -2147 2360 0
-2361 2169 0
-2361 2160 0
-2169 -2160 2361 0
-2362 2170 0
-2362 2174 0
-2170 -2174 2362 0
-2363 2171 0
-2363 2181 0
-2171 -2181 2363 0
-2364 2172 0
-2364 2188 0
-2172 -2188 2364 0
-2365 2173 0
-2365 2195 0
-2173 -2195 2365 0
-2359 -2360 0
-2359 -2361 0
-2359 -2362 0
-2359 -2363 0
-2359 -2364 0
-2359 -2365 0
-2167 2359 2360 2361 2362 2363 2364 2365 0
-2366 2168 0
-2367 2167 0
-2367 2146 0
-2167 -2146 2367 0
-2368 2169 0
-2368 2161 0
-2169 -2161 2368 0
-2369 2170 0
-2369 2175 0
-2170 -2175 2369 0
-2370 2171 0
-2370 2182 0
-2171 -2182 2370 0
-2371 2172 0
-2371 2189 0
-2172 -2189 2371 0
-2372 2173 0
-2372 2196 0
-2173 -2196 2372 0
-2366 -2367 0
-2366 -2368 0
-2366 -2369 0
-2366 -2370 0
-2366 -2371 0
-2366 -2372 0
-2168 2366 2367 2368 2369 2370 2371 2372 0
-2373 2169 0
-2374 2167 0
-2374 2149 0
-2167 -2149 2374 0
-2375 2168 0
-2375 2148 0
-2168 -2148 2375 0
-2376 2170 0
-2376 2176 0
-2170 -2176 2376 0
-2377 2171 0
-2377 2183 0
-2171 -2183 2377 0
-2378 2172 0
-2378 2190 0
-2172 -2190 2378 0
-2379 2173 0
-2379 2197 0
-2173 -2197 2379 0
-2373 -2374 0
-2373 -2375 0
-2373 -2376 0
-2373 -2377 0
-2373 -2378 0
-2373 -2379 0
-2169 2373 2374 2375 2376 2377 2378 2379 0
-2380 0
-2381 2170 0
-2382 2167 0
-2382 2153 0
-2167 -2153 2382 0
-2383 2168 0
-2383 2152 0
-2168 -2152 2383 0
-2384 2169 0
-2384 2163 0
-2169 -2163 2384 0
-2385 2171 0
-2385 2185 0
-2171 -2185 2385 0
-2386 2172 0
-2386 2192 0
-2172 -2192 2386 0
-2387 2173 0
-2387 2199 0
-2173 -2199 2387 0
-2381 -2382 0
-2381 -2383 0
-2381 -2384 0
-2381 -2385 0
-2381 -2386 0
-2381 -2387 0
-2170 2381 2382 2383 2384 2385 2386 2387 0
-2388 2171 0
-2389 2167 0
-2389 2155 0
-2167 -2155 2389 0
-2390 2168 0
-2390 2154 0
-2168 -2154 2390 0
-2391 2169 0
-2391 2164 0
-2169 -2164 2391 0
-2392 2170 0
-2392 2178 0
-2170 -2178 2392 0
-2393 2172 0
-2393 2193 0
-2172 -2193 2393 0
-2394 2173 0
-2394 2200 0
-2173 -2200 2394 0
-2388 -2389 0
-2388 -2390 0
-2388 -2391 0
-2388 -2392 0
-2388 -2393 0
-2388 -2394 0
-2171 2388 2389 2390 2391 2392 2393 2394 0
-2395 2172 0
-2396 2167 0
-2396 2157 0
-2167 -2157 2396 0
-2397 2168 0
-2397 2156 0
-2168 -2156 2397 0
-2398 2169 0
-2398 2165 0
-2169 -2165 2398 0
-2399 2170 0
-2399 2179 0
-2170 -2179 2399 0
-2400 2171 0
-2400 2186 0
-2171 -2186 2400 0
-2401 2173 0
-2401 2201 0
-2173 -2201 2401 0
-2395 -2396 0
-2395 -2397 0
-2395 -2398 0
-2395 -2399 0
-2395 -2400 0
-2395 -2401 0
-2172 2395 2396 2397 2398 2399 2400 2401 0
-2402 2173 0
-2403 2167 0
-2403 2159 0
-2167 -2159 2403 0
-2404 2168 0
-2404 2158 0
-2168 -2158 2404 0
-2405 2169 0
-2405 2166 0
-2169 -2166 2405 0
-2406 2170 0
-2406 2180 0
-2170 -2180 2406 0
-2407 2171 0
-2407 2187 0
-2171 -2187 2407 0
-2408 2172 0
-2408 2194 0
-2172 -2194 2408 0
-2402 -2403 0
-2402 -2404 0
-2402 -2405 0
-2402 -2406 0
-2402 -2407 0
-2402 -2408 0
-2173 2402 2403 2404 2405 2406 2407 2408 0
-2409 2174 0
-2410 2175 0
-2410 2147 0
-2175 -2147 2410 0
-2411 2176 0
-2411 2160 0
-2176 -2160 2411 0
-2412 2177 0
-2412 2167 0
-2177 -2167 2412 0
-2413 2178 0
-2413 2181 0
-2178 -2181 2413 0
-2414 2179 0
-2414 2188 0
-2179 -2188 2414 0
-2415 2180 0
-2415 2195 0
-2180 -2195 2415 0
-2409 -2410 0
-2409 -2411 0
-2409 -2412 0
-2409 -2413 0
-2409 -2414 0
-2409 -2415 0
-2174 2409 2410 2411 2412 2413 2414 2415 0
-2416 2175 0
-2417 2174 0
-2417 2146 0
-2174 -2146 2417 0
-2418 2176 0
-2418 2161 0
-2176 -2161 2418 0
-2419 2177 0
-2419 2168 0
-2177 -2168 2419 0
-2420 2178 0
-2420 2182 0
-2178 -2182 2420 0
-2421 2179 0
-2421 2189 0
-2179 -2189 2421 0
-2422 2180 0
-2422 2196 0
-2180 -2196 2422 0
-2416 -2417 0
-2416 -2418 0
-2416 -2419 0
-2416 -2420 0
-2416 -2421 0
-2416 -2422 0
-2175 2416 2417 2418 2419 2420 2421 2422 0
-2423 2176 0
-2424 2174 0
-2424 2149 0
-2174 -2149 2424 0
-2425 2175 0
-2425 2148 0
-2175 -2148 2425 0
-2426 2177 0
-2426 2169 0
-2177 -2169 2426 0
-2427 2178 0
-2427 2183 0
-2178 -2183 2427 0
-2428 2179 0
-2428 2190 0
-2179 -2190 2428 0
-2429 2180 0
-2429 2197 0
-2180 -2197 2429 0
-2423 -2424 0
-2423 -2425 0
-2423 -2426 0
-2423 -2427 0
-2423 -2428 0
-2423 -2429 0
-2176 2423 2424 2425 2426 2427 2428 2429 0
-2430 2177 0
-2431 2174 0
-2431 2151 0
-2174 -2151 2431 0
-2432 2175 0
-2432 2150 0
-2175 -2150 2432 0
-2433 2176 0
-2433 2162 0
-2176 -2162 2433 0
-2434 2178 0
-2434 2184 0
-2178 -2184 2434 0
-2435 2179 0
-2435 2191 0
-2179 -2191 2435 0
-2436 2180 0
-2436 2198 0
-2180 -2198 2436 0
-2430 -2431 0
-2430 -2432 0
-2430 -2433 0
-2430 -2434 0
-2430 -2435 0
-2430 -2436 0
-2177 2430 2431 2432 2433 2434 2435 2436 0
-2437 0
-2438 2178 0
-2439 2174 0
-2439 2155 0
-2174 -2155 2439 0
-2440 2175 0
-2440 2154 0
-2175 -2154 2440 0
-2441 2176 0
-2441 2164 0
-2176 -2164 2441 0
-2442 2177 0
-2442 2171 0
-2177 -2171 2442 0
-2443 2179 0
-2443 2193 0
-2179 -2193 2443 0
-2444 2180 0
-2444 2200 0
-2180 -2200 2444 0
-2438 -2439 0
-2438 -2440 0
-2438 -2441 0
-2438 -2442 0
-2438 -2443 0
-2438 -2444 0
-2178 2438 2439 2440 2441 2442 2443 2444 0
-2445 2179 0
-2446 2174 0
-2446 2157 0
-2174 -2157 2446 0
-2447 2175 0
-2447 2156 0
-2175 -2156 2447 0
-2448 2176 0
-2448 2165 0
-2176 -2165 2448 0
-2449 2177 0
-2449 2172 0
-2177 -2172 2449 0
-2450 2178 0
-2450 2186 0
-2178 -2186 2450 0
-2451 2180 0
-2451 2201 0
-2180 -2201 2451 0
-2445 -2446 0
-2445 -2447 0
-2445 -2448 0
-2445 -2449 0
-2445 -2450 0
-2445 -2451 0
-2179 2445 2446 2447 2448 2449 2450 2451 0
-2452 2180 0
-2453 2174 0
-2453 2159 0
-2174 -2159 2453 0
-2454 2175 0
-2454 2158 0
-2175 -2158 2454 0
-2455 2176 0
-2455 2166 0
-2176 -2166 2455 0
-2456 2177 0
-2456 2173 0
-2177 -2173 2456 0
-2457 2178 0
-2457 2187 0
-2178 -2187 2457 0
-2458 2179 0
-2458 2194 0
-2179 -2194 2458 0
-2452 -2453 0
-2452 -2454 0
-2452 -2455 0
-2452 -2456 0
-2452 -2457 0
-2452 -2458 0
-2180 2452 2453 2454 2455 2456 2457 2458 0
-2459 2181 0
-2460 2182 0
-2460 2147 0
-2182 -2147 2460 0
-2461 2183 0
-2461 2160 0
-2183 -2160 2461 0
-2462 2184 0
-2462 2167 0
-2184 -2167 2462 0
-2463 2185 0
-2463 2174 0
-2185 -2174 2463 0
-2464 2186 0
-2464 2188 0
-2186 -2188 2464 0
-2465 2187 0
-2465 2195 0
-2187 -2195 2465 0
-2459 -2460 0
-2459 -2461 0
-2459 -2462 0
-2459 -2463 0
-2459 -2464 0
-2459 -2465 0
-2181 2459 2460 2461 2462 2463 2464 2465 0
-2466 2182 0
-2467 2181 0
-2467 2146 0
-2181 -2146 2467 0
-2468 2183 0
-2468 2161 0
-2183 -2161 2468 0
-2469 2184 0
-2469 2168 0
-2184 -2168 2469 0
-2470 2185 0
-2470 2175 0
-2185 -2175 2470 0
-2471 2186 0
-2471 2189 0
-2186 -2189 2471 0
-2472 2187 0
-2472 2196 0
-2187 -2196 2472 0
-2466 -2467 0
-2466 -2468 0
-2466 -2469 0
-2466 -2470 0
-2466 -2471 0
-2466 -2472 0
-2182 2466 2467 2468 2469 2470 2471 2472 0
-2473 2183 0
-2474 2181 0
-2474 2149 0
-2181 -2149 2474 0
-2475 2182 0
-2475 2148 0
-2182 -2148 2475 0
-2476 2184 0
-2476 2169 0
-2184 -2169 2476 0
-2477 2185 0
-2477 2176 0
-2185 -2176 2477 0
-2478 2186 0
-2478 2190 0
-2186 -2190 2478 0
-2479 2187 0
-2479 2197 0
-2187 -2197 2479 0
-2473 -2474 0
-2473 -2475 0
-2473 -2476 0
-2473 -2477 0
-2473 -2478 0
-2473 -2479 0
-2183 2473 2474 2475 2476 2477 2478 2479 0
-2480 2184 0
-2481 2181 0
-2481 2151 0
-2181 -2151 2481 0
-2482 2182 0
-2482 2150 0
-2182 -2150 2482 0
-2483 2183 0
-2483 2162 0
-2183 -2162 2483 0
-2484 2185 0
-2484 2177 0
-2185 -2177 2484 0
-2485 2186 0
-2485 2191 0
-2186 -2191 2485 0
-2486 2187 0
-2486 2198 0
-2187 -2198 2486 0
-2480 -2481 0
-2480 -2482 0
-2480 -2483 0
-2480 -2484 0
-2480 -2485 0
-2480 -2486 0
-2184 2480 2481 2482 2483 2484 2485 2486 0
-2487 2185 0
-2488 2181 0
-2488 2153 0
-2181 -2153 2488 0
-2489 2182 0
-2489 2152 0
-2182 -2152 2489 0
-2490 2183 0
-2490 2163 0
-2183 -2163 2490 0
-2491 2184 0
-2491 2170 0
-2184 -2170 2491 0
-2492 2186 0
-2492 2192 0
-2186 -2192 2492 0
-2493 2187 0
-2493 2199 0
-2187 -2199 2493 0
-2487 -2488 0
-2487 -2489 0
-2487 -2490 0
-2487 -2491 0
-2487 -2492 0
-2487 -2493 0
-2185 2487 2488 2489 2490 2491 2492 2493 0
-2494 0
-2495 2186 0
-2496 2181 0
-2496 2157 0
-2181 -2157 2496 0
-2497 2182 0
-2497 2156 0
-2182 -2156 2497 0
-2498 2183 0
-2498 2165 0
-2183 -2165 2498 0
-2499 2184 0
-2499 2172 0
-2184 -2172 2499 0
-2500 2185 0
-2500 2179 0
-2185 -2179 2500 0
-2501 2187 0
-2501 2201 0
-2187 -2201 2501 0
-2495 -2496 0
-2495 -2497 0
-2495 -2498 0
-2495 -2499 0
-2495 -2500 0
-2495 -2501 0
-2186 2495 2496 2497 2498 2499 2500 2501 0
-2502 2187 0
-2503 2181 0
-2503 2159 0
-2181 -2159 2503 0
-2504 2182 0
-2504 2158 0
-2182 -2158 2504 0
-2505 2183 0
-2505 2166 0
-2183 -2166 2505 0
-2506 2184 0
-2506 2173 0
-2184 -2173 2506 0
-2507 2185 0
-2507 2180 0
-2185 -2180 2507 0
-2508 2186 0
-2508 2194 0
-2186 -2194 2508 0
-2502 -2503 0
-2502 -2504 0
-2502 -2505 0
-2502 -2506 0
-2502 -2507 0
-2502 -2508 0
-2187 2502 2503 2504 2505 2506 2507 2508 0
-2509 2188 0
-2510 2189 0
-2510 2147 0
-2189 -2147 2510 0
-2511 2190 0
-2511 2160 0
-2190 -2160 2511 0
-2512 2191 0
-2512 2167 0
-2191 -2167 2512 0
-2513 2192 0
-2513 2174 0
-2192 -2174 2513 0
-2514 2193 0
-2514 2181 0
-2193 -2181 2514 0
-2515 2194 0
-2515 2195 0
-2194 -2195 2515 0
-2509 -2510 0
-2509 -2511 0
-2509 -2512 0
-2509 -2513 0
-2509 -2514 0
-2509 -2515 0
-2188 2509 2510 2511 2512 2513 2514 2515 0
-2516 2189 0
-2517 2188 0
-2517 2146 0
-2188 -2146 2517 0
-2518 2190 0
-2518 2161 0
-2190 -2161 2518 0
-2519 2191 0
-2519 2168 0
-2191 -2168 2519 0
-2520 2192 0
-2520 2175 0
-2192 -2175 2520 0
-2521 2193 0
-2521 2182 0
-2193 -2182 2521 0
-2522 2194 0
-2522 2196 0
-2194 -2196 2522 0
-2516 -2517 0
-2516 -2518 0
-2516 -2519 0
-2516 -2520 0
-2516 -2521 0
-2516 -2522 0
-2189 2516 2517 2518 2519 2520 2521 2522 0
-2523 2190 0
-2524 2188 0
-2524 2149 0
-2188 -2149 2524 0
-2525 2189 0
-2525 2148 0
-2189 -2148 2525 0
-2526 2191 0
-2526 2169 0
-2191 -2169 2526 0
-2527 2192 0
-2527 2176 0
-2192 -2176 2527 0
-2528 2193 0
-2528 2183 0
-2193 -2183 2528 0
-2529 2194 0
-2529 2197 0
-2194 -2197 2529 0
-2523 -2524 0
-2523 -2525 0
-2523 -2526 0
-2523 -2527 0
-2523 -2528 0
-2523 -2529 0
-2190 2523 2524 2525 2526 2527 2528 2529 0
-2530 2191 0
-2531 2188 0
-2531 2151 0
-2188 -2151 2531 0
-2532 2189 0
-2532 2150 0
-2189 -2150 2532 0
-2533 2190 0
-2533 2162 0
-2190 -2162 2533 0
-2534 2192 0
-2534 2177 0
-2192 -2177 2534 0
-2535 2193 0
-2535 2184 0
-2193 -2184 2535 0
-2536 2194 0
-2536 2198 0
-2194 -2198 2536 0
-2530 -2531 0
-2530 -2532 0
-2530 -2533 0
-2530 -2534 0
-2530 -2535 0
-2530 -2536 0
-2191 2530 2531 2532 2533 2534 2535 2536 0
-2537 2192 0
-2538 2188 0
-2538 2153 0
-2188 -2153 2538 0
-2539 2189 0
-2539 2152 0
-2189 -2152 2539 0
-2540 2190 0
-2540 2163 0
-2190 -2163 2540 0
-2541 2191 0
-2541 2170 0
-2191 -2170 2541 0
-2542 2193 0
-2542 2185 0
-2193 -2185 2542 0
-2543 2194 0
-2543 2199 0
-2194 -2199 2543 0
-2537 -2538 0
-2537 -2539 0
-2537 -2540 0
-2537 -2541 0
-2537 -2542 0
-2537 -2543 0
-2192 2537 2538 2539 2540 2541 2542 2543 0
-2544 2193 0
-2545 2188 0
-2545 2155 0
-2188 -2155 2545 0
-2546 2189 0
-2546 2154 0
-2189 -2154 2546 0
-2547 2190 0
-2547 2164 0
-2190 -2164 2547 0
-2548 2191 0
-2548 2171 0
-2191 -2171 2548 0
-2549 2192 0
-2549 2178 0
-2192 -2178 2549 0
-2550 2194 0
-2550 2200 0
-2194 -2200 2550 0
-2544 -2545 0
-2544 -2546 0
-2544 -2547 0
-2544 -2548 0
-2544 -2549 0
-2544 -2550 0
-2193 2544 2545 2546 2547 2548 2549 2550 0
-2551 0
-2552 2194 0
-2553 2188 0
-2553 2159 0
-2188 -2159 2553 0
-2554 2189 0
-2554 2158 0
-2189 -2158 2554 0
-2555 2190 0
-2555 2166 0
-2190 -2166 2555 0
-2556 2191 0
-2556 2173 0
-2191 -2173 2556 0
-2557 2192 0
-2557 2180 0
-2192 -2180 2557 0
-2558 2193 0
-2558 2187 0
-2193 -2187 2558 0
-2552 -2553 0
-2552 -2554 0
-2552 -2555 0
-2552 -2556 0
-2552 -2557 0
-2552 -2558 0
-2194 2552 2553 2554 2555 2556 2557 2558 0
-2559 2195 0
-2560 2196 0
-2560 2147 0
-2196 -2147 2560 0
-2561 2197 0
-2561 2160 0
-2197 -2160 2561 0
-2562 2198 0
-2562 2167 0
-2198 -2167 2562 0
-2563 2199 0
-2563 2174 0
-2199 -2174 2563 0
-2564 2200 0
-2564 2181 0
-2200 -2181 2564 0
-2565 2201 0
-2565 2188 0
-2201 -2188 2565 0
-2559 -2560 0
-2559 -2561 0
-2559 -2562 0
-2559 -2563 0
-2559 -2564 0
-2559 -2565 0
-2195 2559 2560 2561 2562 2563 2564 2565 0
-2566 2196 0
-2567 2195 0
-2567 2146 0
-2195 -2146 2567 0
-2568 2197 0
-2568 2161 0
-2197 -2161 2568 0
-2569 2198 0
-2569 2168 0
-2198 -2168 2569 0
-2570 2199 0
-2570 2175 0
-2199 -2175 2570 0
-2571 2200 0
-2571 2182 0
-2200 -2182 2571 0
-2572 2201 0
-2572 2189 0
-2201 -2189 2572 0
-2566 -2567 0
-2566 -2568 0
-2566 -2569 0
-2566 -2570 0
-2566 -2571 0
-2566 -2572 0
-2196 2566 2567 2568 2569 2570 2571 2572 0
-2573 2197 0
-2574 2195 0
-2574 2149 0
-2195 -2149 2574 0
-2575 2196 0
-2575 2148 0
-2196 -2148 2575 0
-2576 2198 0
-2576 2169 0
-2198 -2169 2576 0
-2577 2199 0
-2577 2176 0
-2199 -2176 2577 0
-2578 2200 0
-2578 2183 0
-2200 -2183 2578 0
-2579 2201 0
-2579 2190 0
-2201 -2190 2579 0
-2573 -2574 0
-2573 -2575 0
-2573 -2576 0
-2573 -2577 0
-2573 -2578 0
-2573 -2579 0
-2197 2573 2574 2575 2576 2577 2578 2579 0
-2580 2198 0
-2581 2195 0
-2581 2151 0
-2195 -2151 2581 0
-2582 2196 0
-2582 2150 0
-2196 -2150 2582 0
-2583 2197 0
-2583 2162 0
-2197 -2162 2583 0
-2584 2199 0
-2584 2177 0
-2199 -2177 2584 0
-2585 2200 0
-2585 2184 0
-2200 -2184 2585 0
-2586 2201 0
-2586 2191 0
-2201 -2191 2586 0
-2580 -2581 0
-2580 -2582 0
-2580 -2583 0
-2580 -2584 0
-2580 -2585 0
-2580 -2586 0
-2198 2580 2581 2582 2583 2584 2585 2586 0
-2587 2199 0
-2588 2195 0
-2588 2153 0
-2195 -2153 2588 0
-2589 2196 0
-2589 2152 0
-2196 -2152 2589 0
-2590 2197 0
-2590 2163 0
-2197 -2163 2590 0
-2591 2198 0
-2591 2170 0
-2198 -2170 2591 0
-2592 2200 0
-2592 2185 0
-2200 -2185 2592 0
-2593 2201 0
-2593 2192 0
-2201 -2192 2593 0
-2587 -2588 0
-2587 -2589 0
-2587 -2590 0
-2587 -2591 0
-2587 -2592 0
-2587 -2593 0
-2199 2587 2588 2589 2590 2591 2592 2593 0
-2594 2200 0
-2595 2195 0
-2595 2155 0
-2195 -2155 2595 0
-2596 2196 0
-2596 2154 0
-2196 -2154 2596 0
-2597 2197 0
-2597 2164 0
-2197 -2164 2597 0
-2598 2198 0
-2598 2171 0
-2198 -2171 2598 0
-2599 2199 0
-2599 2178 0
-2199 -2178 2599 0
-2600 2201 0
-2600 2193 0
-2201 -2193 2600 0
-2594 -2595 0
-2594 -2596 0
-2594 -2597 0
-2594 -2598 0
-2594 -2599 0
-2594 -2600 0
-2200 2594 2595 2596 2597 2598 2599 2600 0
-2601 2201 0
-2602 2195 0
-2602 2157 0
-2195 -2157 2602 0
-2603 2196 0
-2603 2156 0
-2196 -2156 2603 0
-2604 2197 0
-2604 2165 0
-2197 -2165 2604 0
-2605 2198 0
-2605 2172 0
-2198 -2172 2605 0
-2606 2199 0
-2606 2179 0
-2199 -2179 2606 0
-2607 2200 0
-2607 2186 0
-2200 -2186 2607 0
-2601 -2602 0
-2601 -2603 0
-2601 -2604 0
-2601 -2605 0
-2601 -2606 0
-2601 -2607 0
-2201 2601 2602 2603 2604 2605 2606 2607 0
-2608 0
-2609 2145 0
-2609 2146 0
-2609 2149 0
-2609 2151 0
-2609 2153 0
-2609 2155 0
-2609 2157 0
-2609 2159 0
-2145 -2146 -2149 -2151 -2153 -2155 -2157 -2159 2609 0
-2610 2145 0
-2610 2147 0
-2610 2160 0
-2610 2167 0
-2610 2174 0
-2610 2181 0
-2610 2188 0
-2610 2195 0
-2145 -2147 -2160 -2167 -2174 -2181 -2188 -2195 2610 0
-2611 2147 0
-2611 2202 0
-2611 2148 0
-2611 2150 0
-2611 2152 0
-2611 2154 0
-2611 2156 0
-2611 2158 0
-2147 -2202 -2148 -2150 -2152 -2154 -2156 -2158 2611 0
-2612 2146 0
-2612 2202 0
-2612 2161 0
-2612 2168 0
-2612 2175 0
-2612 2182 0
-2612 2189 0
-2612 2196 0
-2146 -2202 -2161 -2168 -2175 -2182 -2189 -2196 2612 0
-2613 2160 0
-2613 2161 0
-2613 2203 0
-2613 2162 0
-2613 2163 0
-2613 2164 0
-2613 2165 0
-2613 2166 0
-2160 -2161 -2203 -2162 -2163 -2164 -2165 -2166 2613 0
-2614 2149 0
-2614 2148 0
-2614 2203 0
-2614 2169 0
-2614 2176 0
-2614 2183 0
-2614 2190 0
-2614 2197 0
-2149 -2148 -2203 -2169 -2176 -2183 -2190 -2197 2614 0
-2615 2167 0
-2615 2168 0
-2615 2169 0
-2615 2204 0
-2615 2170 0
-2615 2171 0
-2615 2172 0
-2615 2173 0
-2167 -2168 -2169 -2204 -2170 -2171 -2172 -2173 2615 0
-2616 2151 0
-2616 2150 0
-2616 2162 0
-2616 2204 0
-2616 2177 0
-2616 2184 0
-2616 2191 0
-2616 2198 0
-2151 -2150 -2162 -2204 -2177 -2184 -2191 -2198 2616 0
-2617 2174 0
-2617 2175 0
-2617 2176 0
-2617 2177 0
-2617 2205 0
-2617 2178 0
-2617 2179 0
-2617 2180 0
-2174 -2175 -2176 -2177 -2205 -2178 -2179 -2180 2617 0
-2618 2153 0
-2618 2152 0
-2618 2163 0
-2618 2170 0
-2618 2205 0
-2618 2185 0
-2618 2192 0
-2618 2199 0
-2153 -2152 -2163 -2170 -2205 -2185 -2192 -2199 2618 0
-2619 2181 0
-2619 2182 0
-2619 2183 0
-2619 2184 0
-2619 2185 0
-2619 2206 0
-2619 2186 0
-2619 2187 0
-2181 -2182 -2183 -2184 -2185 -2206 -2186 -2187 2619 0
-2620 2155 0
-2620 2154 0
-2620 2164 0
-2620 2171 0
-2620 2178 0
-2620 2206 0
-2620 2193 0
-2620 2200 0
-2155 -2154 -2164 -2171 -2178 -2206 -2193 -2200 2620 0
-2621 2188 0
-2621 2189 0
-2621 2190 0
-2621 2191 0
-2621 2192 0
-2621 2193 0
-2621 2207 0
-2621 2194 0
-2188 -2189 -2190 -2191 -2192 -2193 -2207 -2194 2621 0
-2622 2157 0
-2622 2156 0
-2622 2165 0
-2622 2172 0
-2622 2179 0
-2622 2186 0
-2622 2207 0
-2622 2201 0
-2157 -2156 -2165 -2172 -2179 -2186 -2207 -2201 2622 0
-2623 2195 0
-2623 2196 0
-2623 2197 0
-2623 2198 0
-2623 2199 0
-2623 2200 0
-2623 2201 0
-2623 2208 0
-2195 -2196 -2197 -2198 -2199 -2200 -2201 -2208 2623 0
-2624 2159 0
-2624 2158 0
-2624 2166 0
-2624 2173 0
-2624 2180 0
-2624 2187 0
-2624 2194 0
-2624 2208 0
-2159 -2158 -2166 -2173 -2180 -2187 -2194 -2208 2624 0
-2209 9 0
-2610 -2609 9 0
-9 2209 2610 0
-9 2209 2609 0
-2210 11 0
-2610 -2611 11 0
-11 2210 2610 0
-11 2210 2611 0
-2217 13 0
-2610 -2613 13 0
-13 2217 2610 0
-13 2217 2613 0
-2224 15 0
-2610 -2615 15 0
-15 2224 2610 0
-15 2224 2615 0
-2231 17 0
-2610 -2617 17 0
-17 2231 2610 0
-17 2231 2617 0
-2238 19 0
-2610 -2619 19 0
-19 2238 2610 0
-19 2238 2619 0
-2245 21 0
-2610 -2621 21 0
-21 2245 2610 0
-21 2245 2621 0
-2252 23 0
-2610 -2623 23 0
-23 2252 2610 0
-23 2252 2623 0
-2259 25 0
-2612 -2609 25 0
-25 2259 2612 0
-25 2259 2609 0
-2266 26 0
-2612 -2611 26 0
-26 2266 2612 0
-26 2266 2611 0
-2267 28 0
-2612 -2613 28 0
-28 2267 2612 0
-28 2267 2613 0
-2274 30 0
-2612 -2615 30 0
-30 2274 2612 0
-30 2274 2615 0
-2281 32 0
-2612 -2617 32 0
-32 2281 2612 0
-32 2281 2617 0
-2288 34 0
-2612 -2619 34 0
-34 2288 2612 0
-34 2288 2619 0
-2295 36 0
-2612 -2621 36 0
-36 2295 2612 0
-36 2295 2621 0
-2302 38 0
-2612 -2623 38 0
-38 2302 2612 0
-38 2302 2623 0
-2309 40 0
-2614 -2609 40 0
-40 2309 2614 0
-40 2309 2609 0
-2316 42 0
-2614 -2611 42 0
-42 2316 2614 0
-42 2316 2611 0
-2323 43 0
-2614 -2613 43 0
-43 2323 2614 0
-43 2323 2613 0
-2324 45 0
-2614 -2615 45 0
-45 2324 2614 0
-45 2324 2615 0
-2331 47 0
-2614 -2617 47 0
-47 2331 2614 0
-47 2331 2617 0
-2338 49 0
-2614 -2619 49 0
-49 2338 2614 0
-49 2338 2619 0
-2345 51 0
-2614 -2621 51 0
-51 2345 2614 0
-51 2345 2621 0
-2352 53 0
-2614 -2623 53 0
-53 2352 2614 0
-53 2352 2623 0
-2359 55 0
-2616 -2609 55 0
-55 2359 2616 0
-55 2359 2609 0
-2366 57 0
-2616 -2611 57 0
-57 2366 2616 0
-57 2366 2611 0
-2373 59 0
-2616 -2613 59 0
-59 2373 2616 0
-59 2373 2613 0
-2380 60 0
-2616 -2615 60 0
-60 2380 2616 0
-60 2380 2615 0
-2381 62 0
-2616 -2617 62 0
-62 2381 2616 0
-62 2381 2617 0
-2388 64 0
-2616 -2619 64 0
-64 2388 2616 0
-64 2388 2619 0
-2395 66 0
-2616 -2621 66 0
-66 2395 2616 0
-66 2395 2621 0
-2402 68 0
-2616 -2623 68 0
-68 2402 2616 0
-68 2402 2623 0
-2409 70 0
-2618 -2609 70 0
-70 2409 2618 0
-70 2409 2609 0
-2416 72 0
-2618 -2611 72 0
-72 2416 2618 0
-72 2416 2611 0
-2423 74 0
-2618 -2613 74 0
-74 2423 2618 0
-74 2423 2613 0
-2430 76 0
-2618 -2615 76 0
-76 2430 2618 0
-76 2430 2615 0
-2437 77 0
-2618 -2617 77 0
-77 2437 2618 0
-77 2437 2617 0
-2438 79 0
-2618 -2619 79 0
-79 2438 2618 0
-79 2438 2619 0
-2445 81 0
-2618 -2621 81 0
-81 2445 2618 0
-81 2445 2621 0
-2452 83 0
-2618 -2623 83 0
-83 2452 2618 0
-83 2452 2623 0
-2459 85 0
-2620 -2609 85 0
-85 2459 2620 0
-85 2459 2609 0
-2466 87 0
-2620 -2611 87 0
-87 2466 2620 0
-87 2466 2611 0
-2473 89 0
-2620 -2613 89 0
-89 2473 2620 0
-89 2473 2613 0
-2480 91 0
-2620 -2615 91 0
-91 2480 2620 0
-91 2480 2615 0
-2487 93 0
-2620 -2617 93 0
-93 2487 2620 0
-93 2487 2617 0
-2494 94 0
-2620 -2619 94 0
-94 2494 2620 0
-94 2494 2619 0
-2495 96 0
-2620 -2621 96 0
-96 2495 2620 0
-96 2495 2621 0
-2502 98 0
-2620 -2623 98 0
-98 2502 2620 0
-98 2502 2623 0
-2509 100 0
-2622 -2609 100 0
-100 2509 2622 0
-100 2509 2609 0
-2516 102 0
-2622 -2611 102 0
-102 2516 2622 0
-102 2516 2611 0
-2523 104 0
-2622 -2613 104 0
-104 2523 2622 0
-104 2523 2613 0
-2530 106 0
-2622 -2615 106 0
-106 2530 2622 0
-106 2530 2615 0
-2537 108 0
-2622 -2617 108 0
-108 2537 2622 0
-108 2537 2617 0
-2544 110 0
-2622 -2619 110 0
-110 2544 2622 0
-110 2544 2619 0
-2551 111 0
-2622 -2621 111 0
-111 2551 2622 0
-111 2551 2621 0
-2552 113 0
-2622 -2623 113 0
-113 2552 2622 0
-113 2552 2623 0
-2559 115 0
-2624 -2609 115 0
-115 2559 2624 0
-115 2559 2609 0
-2566 117 0
-2624 -2611 117 0
-117 2566 2624 0
-117 2566 2611 0
-2573 119 0
-2624 -2613 119 0
-119 2573 2624 0
-119 2573 2613 0
-2580 121 0
-2624 -2615 121 0
-121 2580 2624 0
-121 2580 2615 0
-2587 123 0
-2624 -2617 123 0
-123 2587 2624 0
-123 2587 2617 0
-2594 125 0
-2624 -2619 125 0
-125 2594 2624 0
-125 2594 2619 0
-2601 127 0
-2624 -2621 127 0
-127 2601 2624 0
-127 2601 2621 0
-2608 128 0
-2624 -2623 128 0
-128 2608 2624 0
-128 2608 2623 0
