p cnf 2528 6296
c ind 1 2 3 4 5 6 7 8 9 10 11 12 13 14 15 16 17 18 19 20 21 22 23 24 25 26 27 28 29 30 31 32 33 34 35 36 37 38 39 40 41 42 43 44 45 46 47 48 49 50 0
c ind 51 52 53 54 55 56 57 58 59 60 61 62 63 64 65 66 67 68 69 70 71 72 73 74 75 76 77 78 79 80 81 82 83 84 85 86 87 88 89 90 91 92 93 94 95 96 97 98 99 100 0
c ind 101 102 103 104 105 106 107 108 109 110 111 112 113 114 115 116 117 118 119 120 121 122 123 124 125 126 127 128 2049 2050 2051 2052 2053 2054 2055 2056 2057 2058 2059 2060 2061 2062 2063 2064 2065 2066 2067 2068 2069 2070 0
c ind 2071 2072 2073 2074 2075 2076 2077 2078 2079 2080 2081 2082 2083 2084 2085 2086 2087 2088 2089 2090 2091 2092 2093 2094 2095 2096 2097 2098 2099 2100 2101 2102 2103 2104 2105 2106 2107 2108 2109 2110 2111 2112 2113 2114 2115 2116 2117 2118 2119 2120 0
c ind 2121 2122 2123 2124 2125 2126 2127 2128 2129 2130 2131 2132 2133 2134 2135 2136 2137 2138 2139 2140 2141 2142 2143 2144 2145 2146 2147 2148 2149 2150 2151 2152 2153 2154 2155 2156 2157 2158 2159 2160 2161 2162 2163 2164 2165 2166 2167 2168 2169 2170 0
c ind 2171 2172 2173 2174 2175 2176 2177 2178 2179 2180 2181 2182 2183 2184 2185 2186 2187 2188 2189 2190 2191 2192 2193 2194 2195 2196 2197 2198 2199 2200 2201 2202 2203 2204 2205 2206 2207 2208 2209 2210 2211 2212 2213 2214 2215 2216 2217 2218 2219 2220 0
c ind 2221 2222 2223 2224 2225 2226 2227 2228 2229 2230 2231 2232 2233 2234 2235 2236 2237 2238 2239 2240 2241 2242 2243 2244 2245 2246 2247 2248 2249 2250 2251 2252 2253 2254 2255 2256 2257 2258 2259 2260 2261 2262 2263 2264 2265 2266 2267 2268 2269 2270 0
c ind 2271 2272 2273 2274 2275 2276 2277 2278 2279 2280 2281 2282 2283 2284 2285 2286 2287 2288 2289 2290 2291 2292 2293 2294 2295 2296 2297 2298 2299 2300 2301 2302 2303 2304 2305 2306 2307 2308 2309 2310 2311 2312 2313 2314 2315 2316 2317 2318 2319 2320 0
c ind 2321 2322 2323 2324 2325 2326 2327 2328 2329 2330 2331 2332 2333 2334 2335 2336 2337 2338 2339 2340 2341 2342 2343 2344 2345 2346 2347 2348 2349 2350 2351 2352 2353 2354 2355 2356 2357 2358 2359 2360 2361 2362 2363 2364 2365 2366 2367 2368 2369 2370 0
c ind 2371 2372 2373 2374 2375 2376 2377 2378 2379 2380 2381 2382 2383 2384 2385 2386 2387 2388 2389 2390 2391 2392 2393 2394 2395 2396 2397 2398 2399 2400 2401 2402 2403 2404 2405 2406 2407 2408 2409 2410 2411 2412 2413 2414 2415 2416 2417 2418 2419 2420 0
c ind 2421 2422 2423 2424 2425 2426 2427 2428 2429 2430 2431 2432 2433 2434 2435 2436 2437 2438 2439 2440 2441 2442 2443 2444 2445 2446 2447 2448 2449 2450 2451 2452 2453 2454 2455 2456 2457 2458 2459 2460 2461 2462 2463 2464 2465 2466 2467 2468 2469 2470 0
c ind 2471 2472 2473 2474 2475 2476 2477 2478 2479 2480 2481 2482 2483 2484 2485 2486 2487 2488 2489 2490 2491 2492 2493 2494 2495 2496 2497 2498 2499 2500 2501 2502 2503 2504 2505 2506 2507 2508 2509 2510 2511 2512 2513 2514 2515 2516 2517 2518 2519 2520 0
c ind 2521 2522 2523 2524 2525 2526 2527 2528 0
-1 0
-2 0
-3 0
-4 0
-5 0
-6 0
-7 0
-8 0
1 -9 0
10 -11 0
12 -13 0
14 -15 0
16 -17 0
18 -19 0
20 -21 0
22 -23 0
24 -25 0
2 -26 0
27 -28 0
29 -30 0
31 -32 0
33 -34 0
35 -36 0
37 -38 0
39 -40 0
41 -42 0
3 -43 0
44 -45 0
46 -47 0
48 -49 0
50 -51 0
52 -53 0
54 -55 0
56 -57 0
58 -59 0
4 -60 0
61 -62 0
63 -64 0
65 -66 0
67 -68 0
69 -70 0
71 -72 0
73 -74 0
75 -76 0
5 -77 0
78 -79 0
80 -81 0
82 -83 0
84 -85 0
86 -87 0
88 -89 0
90 -91 0
92 -93 0
6 -94 0
95 -96 0
97 -98 0
99 -100 0
101 -102 0
103 -104 0
105 -106 0
107 -108 0
109 -110 0
7 -111 0
112 -113 0
114 -115 0
116 -117 0
118 -119 0
120 -121 0
122 -123 0
124 -125 0
126 -127 0
8 -128 0
1 -1 0
24 -10 0
39 -12 0
54 -14 0
69 -16 0
84 -18 0
99 -20 0
114 -22 0
10 -24 0
2 -2 0
41 -27 0
56 -29 0
71 -31 0
86 -33 0
101 -35 0
116 -37 0
12 -39 0
27 -41 0
3 -3 0
58 -44 0
73 -46 0
88 -48 0
103 -50 0
118 -52 0
14 -54 0
29 -56 0
44 -58 0
4 -4 0
75 -61 0
90 -63 0
105 -65 0
120 -67 0
16 -69 0
31 -71 0
46 -73 0
61 -75 0
5 -5 0
92 -78 0
107 -80 0
122 -82 0
18 -84 0
33 -86 0
48 -88 0
63 -90 0
78 -92 0
6 -6 0
109 -95 0
124 -97 0
20 -99 0
35 -101 0
50 -103 0
65 -105 0
80 -107 0
95 -109 0
7 -7 0
126 -112 0
22 -114 0
37 -116 0
52 -118 0
67 -120 0
82 -122 0
97 -124 0
112 -126 0
8 -8 0
1 129 0
-129 130 0
10 -129 131 0
-131 132 0
12 -131 133 0
-133 134 0
14 -133 135 0
-135 136 0
16 -135 137 0
-137 138 0
18 -137 139 0
-139 140 0
20 -139 141 0
-141 142 0
22 -141 143 0
-143 144 0
24 -143 145 0
-145 146 0
2 -145 147 0
-147 148 0
27 -147 149 0
-149 150 0
29 -149 151 0
-151 152 0
31 -151 153 0
-153 154 0
33 -153 155 0
-155 156 0
35 -155 157 0
-157 158 0
37 -157 159 0
-159 160 0
39 -159 161 0
-161 162 0
41 -161 163 0
-163 164 0
3 -163 165 0
-165 166 0
44 -165 167 0
-167 168 0
46 -167 169 0
-169 170 0
48 -169 171 0
-171 172 0
50 -171 173 0
-173 174 0
52 -173 175 0
-175 176 0
54 -175 177 0
-177 178 0
56 -177 179 0
-179 180 0
58 -179 181 0
-181 182 0
4 -181 183 0
-183 184 0
61 -183 185 0
-185 186 0
63 -185 187 0
-187 188 0
65 -187 189 0
-189 190 0
67 -189 191 0
-191 192 0
69 -191 193 0
-193 194 0
71 -193 195 0
-195 196 0
73 -195 197 0
-197 198 0
75 -197 199 0
-199 200 0
5 -199 201 0
-201 202 0
78 -201 203 0
-203 204 0
80 -203 205 0
-205 206 0
82 -205 207 0
-207 208 0
84 -207 0
10 130 0
-130 209 0
12 -130 132 0
-132 210 0
14 -132 134 0
-134 211 0
16 -134 136 0
-136 212 0
18 -136 138 0
-138 213 0
20 -138 140 0
-140 214 0
22 -140 142 0
-142 215 0
24 -142 144 0
-144 216 0
2 -144 146 0
-146 217 0
27 -146 148 0
-148 218 0
29 -148 150 0
-150 219 0
31 -150 152 0
-152 220 0
33 -152 154 0
-154 221 0
35 -154 156 0
-156 222 0
37 -156 158 0
-158 223 0
39 -158 160 0
-160 224 0
41 -160 162 0
-162 225 0
3 -162 164 0
-164 226 0
44 -164 166 0
-166 227 0
46 -166 168 0
-168 228 0
48 -168 170 0
-170 229 0
50 -170 172 0
-172 230 0
52 -172 174 0
-174 231 0
54 -174 176 0
-176 232 0
56 -176 178 0
-178 233 0
58 -178 180 0
-180 234 0
4 -180 182 0
-182 235 0
61 -182 184 0
-184 236 0
63 -184 186 0
-186 237 0
65 -186 188 0
-188 238 0
67 -188 190 0
-190 239 0
69 -190 192 0
-192 240 0
71 -192 194 0
-194 241 0
73 -194 196 0
-196 242 0
75 -196 198 0
-198 243 0
5 -198 200 0
-200 244 0
78 -200 202 0
-202 245 0
80 -202 204 0
-204 246 0
82 -204 206 0
-206 247 0
84 -206 208 0
-208 248 0
86 -208 0
12 209 0
-209 249 0
14 -209 210 0
-210 250 0
16 -210 211 0
-211 251 0
18 -211 212 0
-212 252 0
20 -212 213 0
-213 253 0
22 -213 214 0
-214 254 0
24 -214 215 0
-215 255 0
2 -215 216 0
-216 256 0
27 -216 217 0
-217 257 0
29 -217 218 0
-218 258 0
31 -218 219 0
-219 259 0
33 -219 220 0
-220 260 0
35 -220 221 0
-221 261 0
37 -221 222 0
-222 262 0
39 -222 223 0
-223 263 0
41 -223 224 0
-224 264 0
3 -224 225 0
-225 265 0
44 -225 226 0
-226 266 0
46 -226 227 0
-227 267 0
48 -227 228 0
-228 268 0
50 -228 229 0
-229 269 0
52 -229 230 0
-230 270 0
54 -230 231 0
-231 271 0
56 -231 232 0
-232 272 0
58 -232 233 0
-233 273 0
4 -233 234 0
-234 274 0
61 -234 235 0
-235 275 0
63 -235 236 0
-236 276 0
65 -236 237 0
-237 277 0
67 -237 238 0
-238 278 0
69 -238 239 0
-239 279 0
71 -239 240 0
-240 280 0
73 -240 241 0
-241 281 0
75 -241 242 0
-242 282 0
5 -242 243 0
-243 283 0
78 -243 244 0
-244 284 0
80 -244 245 0
-245 285 0
82 -245 246 0
-246 286 0
84 -246 247 0
-247 287 0
86 -247 248 0
-248 288 0
88 -248 0
14 249 0
-249 289 0
16 -249 250 0
-250 290 0
18 -250 251 0
-251 291 0
20 -251 252 0
-252 292 0
22 -252 253 0
-253 293 0
24 -253 254 0
-254 294 0
2 -254 255 0
-255 295 0
27 -255 256 0
-256 296 0
29 -256 257 0
-257 297 0
31 -257 258 0
-258 298 0
33 -258 259 0
-259 299 0
35 -259 260 0
-260 300 0
37 -260 261 0
-261 301 0
39 -261 262 0
-262 302 0
41 -262 263 0
-263 303 0
3 -263 264 0
-264 304 0
44 -264 265 0
-265 305 0
46 -265 266 0
-266 306 0
48 -266 267 0
-267 307 0
50 -267 268 0
-268 308 0
52 -268 269 0
-269 309 0
54 -269 270 0
-270 310 0
56 -270 271 0
-271 311 0
58 -271 272 0
-272 312 0
4 -272 273 0
-273 313 0
61 -273 274 0
-274 314 0
63 -274 275 0
-275 315 0
65 -275 276 0
-276 316 0
67 -276 277 0
-277 317 0
69 -277 278 0
-278 318 0
71 -278 279 0
-279 319 0
73 -279 280 0
-280 320 0
75 -280 281 0
-281 321 0
5 -281 282 0
-282 322 0
78 -282 283 0
-283 323 0
80 -283 284 0
-284 324 0
82 -284 285 0
-285 325 0
84 -285 286 0
-286 326 0
86 -286 287 0
-287 327 0
88 -287 288 0
-288 328 0
90 -288 0
16 289 0
-289 329 0
18 -289 290 0
-290 330 0
20 -290 291 0
-291 331 0
22 -291 292 0
-292 332 0
24 -292 293 0
-293 333 0
2 -293 294 0
-294 334 0
27 -294 295 0
-295 335 0
29 -295 296 0
-296 336 0
31 -296 297 0
-297 337 0
33 -297 298 0
-298 338 0
35 -298 299 0
-299 339 0
37 -299 300 0
-300 340 0
39 -300 301 0
-301 341 0
41 -301 302 0
-302 342 0
3 -302 303 0
-303 343 0
44 -303 304 0
-304 344 0
46 -304 305 0
-305 345 0
48 -305 306 0
-306 346 0
50 -306 307 0
-307 347 0
52 -307 308 0
-308 348 0
54 -308 309 0
-309 349 0
56 -309 310 0
-310 350 0
58 -310 311 0
-311 351 0
4 -311 312 0
-312 352 0
61 -312 313 0
-313 353 0
63 -313 314 0
-314 354 0
65 -314 315 0
-315 355 0
67 -315 316 0
-316 356 0
69 -316 317 0
-317 357 0
71 -317 318 0
-318 358 0
73 -318 319 0
-319 359 0
75 -319 320 0
-320 360 0
5 -320 321 0
-321 361 0
78 -321 322 0
-322 362 0
80 -322 323 0
-323 363 0
82 -323 324 0
-324 364 0
84 -324 325 0
-325 365 0
86 -325 326 0
-326 366 0
88 -326 327 0
-327 367 0
90 -327 328 0
-328 368 0
92 -328 0
18 329 0
-329 369 0
20 -329 330 0
-330 370 0
22 -330 331 0
-331 371 0
24 -331 332 0
-332 372 0
2 -332 333 0
-333 373 0
27 -333 334 0
-334 374 0
29 -334 335 0
-335 375 0
31 -335 336 0
-336 376 0
33 -336 337 0
-337 377 0
35 -337 338 0
-338 378 0
37 -338 339 0
-339 379 0
39 -339 340 0
-340 380 0
41 -340 341 0
-341 381 0
3 -341 342 0
-342 382 0
44 -342 343 0
-343 383 0
46 -343 344 0
-344 384 0
48 -344 345 0
-345 385 0
50 -345 346 0
-346 386 0
52 -346 347 0
-347 387 0
54 -347 348 0
-348 388 0
56 -348 349 0
-349 389 0
58 -349 350 0
-350 390 0
4 -350 351 0
-351 391 0
61 -351 352 0
-352 392 0
63 -352 353 0
-353 393 0
65 -353 354 0
-354 394 0
67 -354 355 0
-355 395 0
69 -355 356 0
-356 396 0
71 -356 357 0
-357 397 0
73 -357 358 0
-358 398 0
75 -358 359 0
-359 399 0
5 -359 360 0
-360 400 0
78 -360 361 0
-361 401 0
80 -361 362 0
-362 402 0
82 -362 363 0
-363 403 0
84 -363 364 0
-364 404 0
86 -364 365 0
-365 405 0
88 -365 366 0
-366 406 0
90 -366 367 0
-367 407 0
92 -367 368 0
-368 408 0
6 -368 0
20 369 0
-369 409 0
22 -369 370 0
-370 410 0
24 -370 371 0
-371 411 0
2 -371 372 0
-372 412 0
27 -372 373 0
-373 413 0
29 -373 374 0
-374 414 0
31 -374 375 0
-375 415 0
33 -375 376 0
-376 416 0
35 -376 377 0
-377 417 0
37 -377 378 0
-378 418 0
39 -378 379 0
-379 419 0
41 -379 380 0
-380 420 0
3 -380 381 0
-381 421 0
44 -381 382 0
-382 422 0
46 -382 383 0
-383 423 0
48 -383 384 0
-384 424 0
50 -384 385 0
-385 425 0
52 -385 386 0
-386 426 0
54 -386 387 0
-387 427 0
56 -387 388 0
-388 428 0
58 -388 389 0
-389 429 0
4 -389 390 0
-390 430 0
61 -390 391 0
-391 431 0
63 -391 392 0
-392 432 0
65 -392 393 0
-393 433 0
67 -393 394 0
-394 434 0
69 -394 395 0
-395 435 0
71 -395 396 0
-396 436 0
73 -396 397 0
-397 437 0
75 -397 398 0
-398 438 0
5 -398 399 0
-399 439 0
78 -399 400 0
-400 440 0
80 -400 401 0
-401 441 0
82 -401 402 0
-402 442 0
84 -402 403 0
-403 443 0
86 -403 404 0
-404 444 0
88 -404 405 0
-405 445 0
90 -405 406 0
-406 446 0
92 -406 407 0
-407 447 0
6 -407 408 0
-408 448 0
95 -408 0
22 409 0
-409 449 0
24 -409 410 0
-410 450 0
2 -410 411 0
-411 451 0
27 -411 412 0
-412 452 0
29 -412 413 0
-413 453 0
31 -413 414 0
-414 454 0
33 -414 415 0
-415 455 0
35 -415 416 0
-416 456 0
37 -416 417 0
-417 457 0
39 -417 418 0
-418 458 0
41 -418 419 0
-419 459 0
3 -419 420 0
-420 460 0
44 -420 421 0
-421 461 0
46 -421 422 0
-422 462 0
48 -422 423 0
-423 463 0
50 -423 424 0
-424 464 0
52 -424 425 0
-425 465 0
54 -425 426 0
-426 466 0
56 -426 427 0
-427 467 0
58 -427 428 0
-428 468 0
4 -428 429 0
-429 469 0
61 -429 430 0
-430 470 0
63 -430 431 0
-431 471 0
65 -431 432 0
-432 472 0
67 -432 433 0
-433 473 0
69 -433 434 0
-434 474 0
71 -434 435 0
-435 475 0
73 -435 436 0
-436 476 0
75 -436 437 0
-437 477 0
5 -437 438 0
-438 478 0
78 -438 439 0
-439 479 0
80 -439 440 0
-440 480 0
82 -440 441 0
-441 481 0
84 -441 442 0
-442 482 0
86 -442 443 0
-443 483 0
88 -443 444 0
-444 484 0
90 -444 445 0
-445 485 0
92 -445 446 0
-446 486 0
6 -446 447 0
-447 487 0
95 -447 448 0
-448 488 0
97 -448 0
24 449 0
-449 489 0
2 -449 450 0
-450 490 0
27 -450 451 0
-451 491 0
29 -451 452 0
-452 492 0
31 -452 453 0
-453 493 0
33 -453 454 0
-454 494 0
35 -454 455 0
-455 495 0
37 -455 456 0
-456 496 0
39 -456 457 0
-457 497 0
41 -457 458 0
-458 498 0
3 -458 459 0
-459 499 0
44 -459 460 0
-460 500 0
46 -460 461 0
-461 501 0
48 -461 462 0
-462 502 0
50 -462 463 0
-463 503 0
52 -463 464 0
-464 504 0
54 -464 465 0
-465 505 0
56 -465 466 0
-466 506 0
58 -466 467 0
-467 507 0
4 -467 468 0
-468 508 0
61 -468 469 0
-469 509 0
63 -469 470 0
-470 510 0
65 -470 471 0
-471 511 0
67 -471 472 0
-472 512 0
69 -472 473 0
-473 513 0
71 -473 474 0
-474 514 0
73 -474 475 0
-475 515 0
75 -475 476 0
-476 516 0
5 -476 477 0
-477 517 0
78 -477 478 0
-478 518 0
80 -478 479 0
-479 519 0
82 -479 480 0
-480 520 0
84 -480 481 0
-481 521 0
86 -481 482 0
-482 522 0
88 -482 483 0
-483 523 0
90 -483 484 0
-484 524 0
92 -484 485 0
-485 525 0
6 -485 486 0
-486 526 0
95 -486 487 0
-487 527 0
97 -487 488 0
-488 528 0
99 -488 0
2 489 0
-489 529 0
27 -489 490 0
-490 530 0
29 -490 491 0
-491 531 0
31 -491 492 0
-492 532 0
33 -492 493 0
-493 533 0
35 -493 494 0
-494 534 0
37 -494 495 0
-495 535 0
39 -495 496 0
-496 536 0
41 -496 497 0
-497 537 0
3 -497 498 0
-498 538 0
44 -498 499 0
-499 539 0
46 -499 500 0
-500 540 0
48 -500 501 0
-501 541 0
50 -501 502 0
-502 542 0
52 -502 503 0
-503 543 0
54 -503 504 0
-504 544 0
56 -504 505 0
-505 545 0
58 -505 506 0
-506 546 0
4 -506 507 0
-507 547 0
61 -507 508 0
-508 548 0
63 -508 509 0
-509 549 0
65 -509 510 0
-510 550 0
67 -510 511 0
-511 551 0
69 -511 512 0
-512 552 0
71 -512 513 0
-513 553 0
73 -513 514 0
-514 554 0
75 -514 515 0
-515 555 0
5 -515 516 0
-516 556 0
78 -516 517 0
-517 557 0
80 -517 518 0
-518 558 0
82 -518 519 0
-519 559 0
84 -519 520 0
-520 560 0
86 -520 521 0
-521 561 0
88 -521 522 0
-522 562 0
90 -522 523 0
-523 563 0
92 -523 524 0
-524 564 0
6 -524 525 0
-525 565 0
95 -525 526 0
-526 566 0
97 -526 527 0
-527 567 0
99 -527 528 0
-528 568 0
101 -528 0
27 529 0
-529 569 0
29 -529 530 0
-530 570 0
31 -530 531 0
-531 571 0
33 -531 532 0
-532 572 0
35 -532 533 0
-533 573 0
37 -533 534 0
-534 574 0
39 -534 535 0
-535 575 0
41 -535 536 0
-536 576 0
3 -536 537 0
-537 577 0
44 -537 538 0
-538 578 0
46 -538 539 0
-539 579 0
48 -539 540 0
-540 580 0
50 -540 541 0
-541 581 0
52 -541 542 0
-542 582 0
54 -542 543 0
-543 583 0
56 -543 544 0
-544 584 0
58 -544 545 0
-545 585 0
4 -545 546 0
-546 586 0
61 -546 547 0
-547 587 0
63 -547 548 0
-548 588 0
65 -548 549 0
-549 589 0
67 -549 550 0
-550 590 0
69 -550 551 0
-551 591 0
71 -551 552 0
-552 592 0
73 -552 553 0
-553 593 0
75 -553 554 0
-554 594 0
5 -554 555 0
-555 595 0
78 -555 556 0
-556 596 0
80 -556 557 0
-557 597 0
82 -557 558 0
-558 598 0
84 -558 559 0
-559 599 0
86 -559 560 0
-560 600 0
88 -560 561 0
-561 601 0
90 -561 562 0
-562 602 0
92 -562 563 0
-563 603 0
6 -563 564 0
-564 604 0
95 -564 565 0
-565 605 0
97 -565 566 0
-566 606 0
99 -566 567 0
-567 607 0
101 -567 568 0
-568 608 0
103 -568 0
29 569 0
-569 609 0
31 -569 570 0
-570 610 0
33 -570 571 0
-571 611 0
35 -571 572 0
-572 612 0
37 -572 573 0
-573 613 0
39 -573 574 0
-574 614 0
41 -574 575 0
-575 615 0
3 -575 576 0
-576 616 0
44 -576 577 0
-577 617 0
46 -577 578 0
-578 618 0
48 -578 579 0
-579 619 0
50 -579 580 0
-580 620 0
52 -580 581 0
-581 621 0
54 -581 582 0
-582 622 0
56 -582 583 0
-583 623 0
58 -583 584 0
-584 624 0
4 -584 585 0
-585 625 0
61 -585 586 0
-586 626 0
63 -586 587 0
-587 627 0
65 -587 588 0
-588 628 0
67 -588 589 0
-589 629 0
69 -589 590 0
-590 630 0
71 -590 591 0
-591 631 0
73 -591 592 0
-592 632 0
75 -592 593 0
-593 633 0
5 -593 594 0
-594 634 0
78 -594 595 0
-595 635 0
80 -595 596 0
-596 636 0
82 -596 597 0
-597 637 0
84 -597 598 0
-598 638 0
86 -598 599 0
-599 639 0
88 -599 600 0
-600 640 0
90 -600 601 0
-601 641 0
92 -601 602 0
-602 642 0
6 -602 603 0
-603 643 0
95 -603 604 0
-604 644 0
97 -604 605 0
-605 645 0
99 -605 606 0
-606 646 0
101 -606 607 0
-607 647 0
103 -607 608 0
-608 648 0
105 -608 0
31 609 0
-609 649 0
33 -609 610 0
-610 650 0
35 -610 611 0
-611 651 0
37 -611 612 0
-612 652 0
39 -612 613 0
-613 653 0
41 -613 614 0
-614 654 0
3 -614 615 0
-615 655 0
44 -615 616 0
-616 656 0
46 -616 617 0
-617 657 0
48 -617 618 0
-618 658 0
50 -618 619 0
-619 659 0
52 -619 620 0
-620 660 0
54 -620 621 0
-621 661 0
56 -621 622 0
-622 662 0
58 -622 623 0
-623 663 0
4 -623 624 0
-624 664 0
61 -624 625 0
-625 665 0
63 -625 626 0
-626 666 0
65 -626 627 0
-627 667 0
67 -627 628 0
-628 668 0
69 -628 629 0
-629 669 0
71 -629 630 0
-630 670 0
73 -630 631 0
-631 671 0
75 -631 632 0
-632 672 0
5 -632 633 0
-633 673 0
78 -633 634 0
-634 674 0
80 -634 635 0
-635 675 0
82 -635 636 0
-636 676 0
84 -636 637 0
-637 677 0
86 -637 638 0
-638 678 0
88 -638 639 0
-639 679 0
90 -639 640 0
-640 680 0
92 -640 641 0
-641 681 0
6 -641 642 0
-642 682 0
95 -642 643 0
-643 683 0
97 -643 644 0
-644 684 0
99 -644 645 0
-645 685 0
101 -645 646 0
-646 686 0
103 -646 647 0
-647 687 0
105 -647 648 0
-648 688 0
107 -648 0
33 649 0
-649 689 0
35 -649 650 0
-650 690 0
37 -650 651 0
-651 691 0
39 -651 652 0
-652 692 0
41 -652 653 0
-653 693 0
3 -653 654 0
-654 694 0
44 -654 655 0
-655 695 0
46 -655 656 0
-656 696 0
48 -656 657 0
-657 697 0
50 -657 658 0
-658 698 0
52 -658 659 0
-659 699 0
54 -659 660 0
-660 700 0
56 -660 661 0
-661 701 0
58 -661 662 0
-662 702 0
4 -662 663 0
-663 703 0
61 -663 664 0
-664 704 0
63 -664 665 0
-665 705 0
65 -665 666 0
-666 706 0
67 -666 667 0
-667 707 0
69 -667 668 0
-668 708 0
71 -668 669 0
-669 709 0
73 -669 670 0
-670 710 0
75 -670 671 0
-671 711 0
5 -671 672 0
-672 712 0
78 -672 673 0
-673 713 0
80 -673 674 0
-674 714 0
82 -674 675 0
-675 715 0
84 -675 676 0
-676 716 0
86 -676 677 0
-677 717 0
88 -677 678 0
-678 718 0
90 -678 679 0
-679 719 0
92 -679 680 0
-680 720 0
6 -680 681 0
-681 721 0
95 -681 682 0
-682 722 0
97 -682 683 0
-683 723 0
99 -683 684 0
-684 724 0
101 -684 685 0
-685 725 0
103 -685 686 0
-686 726 0
105 -686 687 0
-687 727 0
107 -687 688 0
-688 728 0
109 -688 0
35 689 0
-689 729 0
37 -689 690 0
-690 730 0
39 -690 691 0
-691 731 0
41 -691 692 0
-692 732 0
3 -692 693 0
-693 733 0
44 -693 694 0
-694 734 0
46 -694 695 0
-695 735 0
48 -695 696 0
-696 736 0
50 -696 697 0
-697 737 0
52 -697 698 0
-698 738 0
54 -698 699 0
-699 739 0
56 -699 700 0
-700 740 0
58 -700 701 0
-701 741 0
4 -701 702 0
-702 742 0
61 -702 703 0
-703 743 0
63 -703 704 0
-704 744 0
65 -704 705 0
-705 745 0
67 -705 706 0
-706 746 0
69 -706 707 0
-707 747 0
71 -707 708 0
-708 748 0
73 -708 709 0
-709 749 0
75 -709 710 0
-710 750 0
5 -710 711 0
-711 751 0
78 -711 712 0
-712 752 0
80 -712 713 0
-713 753 0
82 -713 714 0
-714 754 0
84 -714 715 0
-715 755 0
86 -715 716 0
-716 756 0
88 -716 717 0
-717 757 0
90 -717 718 0
-718 758 0
92 -718 719 0
-719 759 0
6 -719 720 0
-720 760 0
95 -720 721 0
-721 761 0
97 -721 722 0
-722 762 0
99 -722 723 0
-723 763 0
101 -723 724 0
-724 764 0
103 -724 725 0
-725 765 0
105 -725 726 0
-726 766 0
107 -726 727 0
-727 767 0
109 -727 728 0
-728 768 0
7 -728 0
37 729 0
-729 769 0
39 -729 730 0
-730 770 0
41 -730 731 0
-731 771 0
3 -731 732 0
-732 772 0
44 -732 733 0
-733 773 0
46 -733 734 0
-734 774 0
48 -734 735 0
-735 775 0
50 -735 736 0
-736 776 0
52 -736 737 0
-737 777 0
54 -737 738 0
-738 778 0
56 -738 739 0
-739 779 0
58 -739 740 0
-740 780 0
4 -740 741 0
-741 781 0
61 -741 742 0
-742 782 0
63 -742 743 0
-743 783 0
65 -743 744 0
-744 784 0
67 -744 745 0
-745 785 0
69 -745 746 0
-746 786 0
71 -746 747 0
-747 787 0
73 -747 748 0
-748 788 0
75 -748 749 0
-749 789 0
5 -749 750 0
-750 790 0
78 -750 751 0
-751 791 0
80 -751 752 0
-752 792 0
82 -752 753 0
-753 793 0
84 -753 754 0
-754 794 0
86 -754 755 0
-755 795 0
88 -755 756 0
-756 796 0
90 -756 757 0
-757 797 0
92 -757 758 0
-758 798 0
6 -758 759 0
-759 799 0
95 -759 760 0
-760 800 0
97 -760 761 0
-761 801 0
99 -761 762 0
-762 802 0
101 -762 763 0
-763 803 0
103 -763 764 0
-764 804 0
105 -764 765 0
-765 805 0
107 -765 766 0
-766 806 0
109 -766 767 0
-767 807 0
7 -767 768 0
-768 808 0
112 -768 0
39 769 0
-769 809 0
41 -769 770 0
-770 810 0
3 -770 771 0
-771 811 0
44 -771 772 0
-772 812 0
46 -772 773 0
-773 813 0
48 -773 774 0
-774 814 0
50 -774 775 0
-775 815 0
52 -775 776 0
-776 816 0
54 -776 777 0
-777 817 0
56 -777 778 0
-778 818 0
58 -778 779 0
-779 819 0
4 -779 780 0
-780 820 0
61 -780 781 0
-781 821 0
63 -781 782 0
-782 822 0
65 -782 783 0
-783 823 0
67 -783 784 0
-784 824 0
69 -784 785 0
-785 825 0
71 -785 786 0
-786 826 0
73 -786 787 0
-787 827 0
75 -787 788 0
-788 828 0
5 -788 789 0
-789 829 0
78 -789 790 0
-790 830 0
80 -790 791 0
-791 831 0
82 -791 792 0
-792 832 0
84 -792 793 0
-793 833 0
86 -793 794 0
-794 834 0
88 -794 795 0
-795 835 0
90 -795 796 0
-796 836 0
92 -796 797 0
-797 837 0
6 -797 798 0
-798 838 0
95 -798 799 0
-799 839 0
97 -799 800 0
-800 840 0
99 -800 801 0
-801 841 0
101 -801 802 0
-802 842 0
103 -802 803 0
-803 843 0
105 -803 804 0
-804 844 0
107 -804 805 0
-805 845 0
109 -805 806 0
-806 846 0
7 -806 807 0
-807 847 0
112 -807 808 0
-808 848 0
114 -808 0
41 809 0
-809 849 0
3 -809 810 0
-810 850 0
44 -810 811 0
-811 851 0
46 -811 812 0
-812 852 0
48 -812 813 0
-813 853 0
50 -813 814 0
-814 854 0
52 -814 815 0
-815 855 0
54 -815 816 0
-816 856 0
56 -816 817 0
-817 857 0
58 -817 818 0
-818 858 0
4 -818 819 0
-819 859 0
61 -819 820 0
-820 860 0
63 -820 821 0
-821 861 0
65 -821 822 0
-822 862 0
67 -822 823 0
-823 863 0
69 -823 824 0
-824 864 0
71 -824 825 0
-825 865 0
73 -825 826 0
-826 866 0
75 -826 827 0
-827 867 0
5 -827 828 0
-828 868 0
78 -828 829 0
-829 869 0
80 -829 830 0
-830 870 0
82 -830 831 0
-831 871 0
84 -831 832 0
-832 872 0
86 -832 833 0
-833 873 0
88 -833 834 0
-834 874 0
90 -834 835 0
-835 875 0
92 -835 836 0
-836 876 0
6 -836 837 0
-837 877 0
95 -837 838 0
-838 878 0
97 -838 839 0
-839 879 0
99 -839 840 0
-840 880 0
101 -840 841 0
-841 881 0
103 -841 842 0
-842 882 0
105 -842 843 0
-843 883 0
107 -843 844 0
-844 884 0
109 -844 845 0
-845 885 0
7 -845 846 0
-846 886 0
112 -846 847 0
-847 887 0
114 -847 848 0
-848 888 0
116 -848 0
3 849 0
-849 889 0
44 -849 850 0
-850 890 0
46 -850 851 0
-851 891 0
48 -851 852 0
-852 892 0
50 -852 853 0
-853 893 0
52 -853 854 0
-854 894 0
54 -854 855 0
-855 895 0
56 -855 856 0
-856 896 0
58 -856 857 0
-857 897 0
4 -857 858 0
-858 898 0
61 -858 859 0
-859 899 0
63 -859 860 0
-860 900 0
65 -860 861 0
-861 901 0
67 -861 862 0
-862 902 0
69 -862 863 0
-863 903 0
71 -863 864 0
-864 904 0
73 -864 865 0
-865 905 0
75 -865 866 0
-866 906 0
5 -866 867 0
-867 907 0
78 -867 868 0
-868 908 0
80 -868 869 0
-869 909 0
82 -869 870 0
-870 910 0
84 -870 871 0
-871 911 0
86 -871 872 0
-872 912 0
88 -872 873 0
-873 913 0
90 -873 874 0
-874 914 0
92 -874 875 0
-875 915 0
6 -875 876 0
-876 916 0
95 -876 877 0
-877 917 0
97 -877 878 0
-878 918 0
99 -878 879 0
-879 919 0
101 -879 880 0
-880 920 0
103 -880 881 0
-881 921 0
105 -881 882 0
-882 922 0
107 -882 883 0
-883 923 0
109 -883 884 0
-884 924 0
7 -884 885 0
-885 925 0
112 -885 886 0
-886 926 0
114 -886 887 0
-887 927 0
116 -887 888 0
-888 928 0
118 -888 0
44 889 0
-889 929 0
46 -889 890 0
-890 930 0
48 -890 891 0
-891 931 0
50 -891 892 0
-892 932 0
52 -892 893 0
-893 933 0
54 -893 894 0
-894 934 0
56 -894 895 0
-895 935 0
58 -895 896 0
-896 936 0
4 -896 897 0
-897 937 0
61 -897 898 0
-898 938 0
63 -898 899 0
-899 939 0
65 -899 900 0
-900 940 0
67 -900 901 0
-901 941 0
69 -901 902 0
-902 942 0
71 -902 903 0
-903 943 0
73 -903 904 0
-904 944 0
75 -904 905 0
-905 945 0
5 -905 906 0
-906 946 0
78 -906 907 0
-907 947 0
80 -907 908 0
-908 948 0
82 -908 909 0
-909 949 0
84 -909 910 0
-910 950 0
86 -910 911 0
-911 951 0
88 -911 912 0
-912 952 0
90 -912 913 0
-913 953 0
92 -913 914 0
-914 954 0
6 -914 915 0
-915 955 0
95 -915 916 0
-916 956 0
97 -916 917 0
-917 957 0
99 -917 918 0
-918 958 0
101 -918 919 0
-919 959 0
103 -919 920 0
-920 960 0
105 -920 921 0
-921 961 0
107 -921 922 0
-922 962 0
109 -922 923 0
-923 963 0
7 -923 924 0
-924 964 0
112 -924 925 0
-925 965 0
114 -925 926 0
-926 966 0
116 -926 927 0
-927 967 0
118 -927 928 0
-928 968 0
120 -928 0
46 929 0
-929 969 0
48 -929 930 0
-930 970 0
50 -930 931 0
-931 971 0
52 -931 932 0
-932 972 0
54 -932 933 0
-933 973 0
56 -933 934 0
-934 974 0
58 -934 935 0
-935 975 0
4 -935 936 0
-936 976 0
61 -936 937 0
-937 977 0
63 -937 938 0
-938 978 0
65 -938 939 0
-939 979 0
67 -939 940 0
-940 980 0
69 -940 941 0
-941 981 0
71 -941 942 0
-942 982 0
73 -942 943 0
-943 983 0
75 -943 944 0
-944 984 0
5 -944 945 0
-945 985 0
78 -945 946 0
-946 986 0
80 -946 947 0
-947 987 0
82 -947 948 0
-948 988 0
84 -948 949 0
-949 989 0
86 -949 950 0
-950 990 0
88 -950 951 0
-951 991 0
90 -951 952 0
-952 992 0
92 -952 953 0
-953 993 0
6 -953 954 0
-954 994 0
95 -954 955 0
-955 995 0
97 -955 956 0
-956 996 0
99 -956 957 0
-957 997 0
101 -957 958 0
-958 998 0
103 -958 959 0
-959 999 0
105 -959 960 0
-960 1000 0
107 -960 961 0
-961 1001 0
109 -961 962 0
-962 1002 0
7 -962 963 0
-963 1003 0
112 -963 964 0
-964 1004 0
114 -964 965 0
-965 1005 0
116 -965 966 0
-966 1006 0
118 -966 967 0
-967 1007 0
120 -967 968 0
-968 1008 0
122 -968 0
48 969 0
-969 1009 0
50 -969 970 0
-970 1010 0
52 -970 971 0
-971 1011 0
54 -971 972 0
-972 1012 0
56 -972 973 0
-973 1013 0
58 -973 974 0
-974 1014 0
4 -974 975 0
-975 1015 0
61 -975 976 0
-976 1016 0
63 -976 977 0
-977 1017 0
65 -977 978 0
-978 1018 0
67 -978 979 0
-979 1019 0
69 -979 980 0
-980 1020 0
71 -980 981 0
-981 1021 0
73 -981 982 0
-982 1022 0
75 -982 983 0
-983 1023 0
5 -983 984 0
-984 1024 0
78 -984 985 0
-985 1025 0
80 -985 986 0
-986 1026 0
82 -986 987 0
-987 1027 0
84 -987 988 0
-988 1028 0
86 -988 989 0
-989 1029 0
88 -989 990 0
-990 1030 0
90 -990 991 0
-991 1031 0
92 -991 992 0
-992 1032 0
6 -992 993 0
-993 1033 0
95 -993 994 0
-994 1034 0
97 -994 995 0
-995 1035 0
99 -995 996 0
-996 1036 0
101 -996 997 0
-997 1037 0
103 -997 998 0
-998 1038 0
105 -998 999 0
-999 1039 0
107 -999 1000 0
-1000 1040 0
109 -1000 1001 0
-1001 1041 0
7 -1001 1002 0
-1002 1042 0
112 -1002 1003 0
-1003 1043 0
114 -1003 1004 0
-1004 1044 0
116 -1004 1005 0
-1005 1045 0
118 -1005 1006 0
-1006 1046 0
120 -1006 1007 0
-1007 1047 0
122 -1007 1008 0
-1008 1048 0
124 -1008 0
50 1009 0
-1009 1049 0
52 -1009 1010 0
-1010 1050 0
54 -1010 1011 0
-1011 1051 0
56 -1011 1012 0
-1012 1052 0
58 -1012 1013 0
-1013 1053 0
4 -1013 1014 0
-1014 1054 0
61 -1014 1015 0
-1015 1055 0
63 -1015 1016 0
-1016 1056 0
65 -1016 1017 0
-1017 1057 0
67 -1017 1018 0
-1018 1058 0
69 -1018 1019 0
-1019 1059 0
71 -1019 1020 0
-1020 1060 0
73 -1020 1021 0
-1021 1061 0
75 -1021 1022 0
-1022 1062 0
5 -1022 1023 0
-1023 1063 0
78 -1023 1024 0
-1024 1064 0
80 -1024 1025 0
-1025 1065 0
82 -1025 1026 0
-1026 1066 0
84 -1026 1027 0
-1027 1067 0
86 -1027 1028 0
-1028 1068 0
88 -1028 1029 0
-1029 1069 0
90 -1029 1030 0
-1030 1070 0
92 -1030 1031 0
-1031 1071 0
6 -1031 1032 0
-1032 1072 0
95 -1032 1033 0
-1033 1073 0
97 -1033 1034 0
-1034 1074 0
99 -1034 1035 0
-1035 1075 0
101 -1035 1036 0
-1036 1076 0
103 -1036 1037 0
-1037 1077 0
105 -1037 1038 0
-1038 1078 0
107 -1038 1039 0
-1039 1079 0
109 -1039 1040 0
-1040 1080 0
7 -1040 1041 0
-1041 1081 0
112 -1041 1042 0
-1042 1082 0
114 -1042 1043 0
-1043 1083 0
116 -1043 1044 0
-1044 1084 0
118 -1044 1045 0
-1045 1085 0
120 -1045 1046 0
-1046 1086 0
122 -1046 1047 0
-1047 1087 0
124 -1047 1048 0
-1048 1088 0
126 -1048 0
52 1049 0
54 -1049 1050 0
56 -1050 1051 0
58 -1051 1052 0
4 -1052 1053 0
61 -1053 1054 0
63 -1054 1055 0
65 -1055 1056 0
67 -1056 1057 0
69 -1057 1058 0
71 -1058 1059 0
73 -1059 1060 0
75 -1060 1061 0
5 -1061 1062 0
78 -1062 1063 0
80 -1063 1064 0
82 -1064 1065 0
84 -1065 1066 0
86 -1066 1067 0
88 -1067 1068 0
90 -1068 1069 0
92 -1069 1070 0
6 -1070 1071 0
95 -1071 1072 0
97 -1072 1073 0
99 -1073 1074 0
101 -1074 1075 0
103 -1075 1076 0
105 -1076 1077 0
107 -1077 1078 0
109 -1078 1079 0
7 -1079 1080 0
112 -1080 1081 0
114 -1081 1082 0
116 -1082 1083 0
118 -1083 1084 0
120 -1084 1085 0
122 -1085 1086 0
124 -1086 1087 0
126 -1087 1088 0
8 -1088 0
-1 1089 0
-1089 1090 0
-10 -1089 1091 0
-1091 1092 0
-12 -1091 1093 0
-1093 1094 0
-14 -1093 1095 0
-1095 1096 0
-16 -1095 1097 0
-1097 1098 0
-18 -1097 1099 0
-1099 1100 0
-20 -1099 1101 0
-1101 1102 0
-22 -1101 1103 0
-1103 1104 0
-24 -1103 1105 0
-1105 1106 0
-2 -1105 1107 0
-1107 1108 0
-27 -1107 1109 0
-1109 1110 0
-29 -1109 1111 0
-1111 1112 0
-31 -1111 1113 0
-1113 1114 0
-33 -1113 1115 0
-1115 1116 0
-35 -1115 1117 0
-1117 1118 0
-37 -1117 1119 0
-1119 1120 0
-39 -1119 1121 0
-1121 1122 0
-41 -1121 1123 0
-1123 1124 0
-3 -1123 1125 0
-1125 1126 0
-44 -1125 1127 0
-1127 1128 0
-46 -1127 1129 0
-1129 1130 0
-48 -1129 1131 0
-1131 1132 0
-50 -1131 1133 0
-1133 1134 0
-52 -1133 1135 0
-1135 1136 0
-54 -1135 0
-10 1090 0
-1090 1137 0
-12 -1090 1092 0
-1092 1138 0
-14 -1092 1094 0
-1094 1139 0
-16 -1094 1096 0
-1096 1140 0
-18 -1096 1098 0
-1098 1141 0
-20 -1098 1100 0
-1100 1142 0
-22 -1100 1102 0
-1102 1143 0
-24 -1102 1104 0
-1104 1144 0
-2 -1104 1106 0
-1106 1145 0
-27 -1106 1108 0
-1108 1146 0
-29 -1108 1110 0
-1110 1147 0
-31 -1110 1112 0
-1112 1148 0
-33 -1112 1114 0
-1114 1149 0
-35 -1114 1116 0
-1116 1150 0
-37 -1116 1118 0
-1118 1151 0
-39 -1118 1120 0
-1120 1152 0
-41 -1120 1122 0
-1122 1153 0
-3 -1122 1124 0
-1124 1154 0
-44 -1124 1126 0
-1126 1155 0
-46 -1126 1128 0
-1128 1156 0
-48 -1128 1130 0
-1130 1157 0
-50 -1130 1132 0
-1132 1158 0
-52 -1132 1134 0
-1134 1159 0
-54 -1134 1136 0
-1136 1160 0
-56 -1136 0
-12 1137 0
-1137 1161 0
-14 -1137 1138 0
-1138 1162 0
-16 -1138 1139 0
-1139 1163 0
-18 -1139 1140 0
-1140 1164 0
-20 -1140 1141 0
-1141 1165 0
-22 -1141 1142 0
-1142 1166 0
-24 -1142 1143 0
-1143 1167 0
-2 -1143 1144 0
-1144 1168 0
-27 -1144 1145 0
-1145 1169 0
-29 -1145 1146 0
-1146 1170 0
-31 -1146 1147 0
-1147 1171 0
-33 -1147 1148 0
-1148 1172 0
-35 -1148 1149 0
-1149 1173 0
-37 -1149 1150 0
-1150 1174 0
-39 -1150 1151 0
-1151 1175 0
-41 -1151 1152 0
-1152 1176 0
-3 -1152 1153 0
-1153 1177 0
-44 -1153 1154 0
-1154 1178 0
-46 -1154 1155 0
-1155 1179 0
-48 -1155 1156 0
-1156 1180 0
-50 -1156 1157 0
-1157 1181 0
-52 -1157 1158 0
-1158 1182 0
-54 -1158 1159 0
-1159 1183 0
-56 -1159 1160 0
-1160 1184 0
-58 -1160 0
-14 1161 0
-1161 1185 0
-16 -1161 1162 0
-1162 1186 0
-18 -1162 1163 0
-1163 1187 0
-20 -1163 1164 0
-1164 1188 0
-22 -1164 1165 0
-1165 1189 0
-24 -1165 1166 0
-1166 1190 0
-2 -1166 1167 0
-1167 1191 0
-27 -1167 1168 0
-1168 1192 0
-29 -1168 1169 0
-1169 1193 0
-31 -1169 1170 0
-1170 1194 0
-33 -1170 1171 0
-1171 1195 0
-35 -1171 1172 0
-1172 1196 0
-37 -1172 1173 0
-1173 1197 0
-39 -1173 1174 0
-1174 1198 0
-41 -1174 1175 0
-1175 1199 0
-3 -1175 1176 0
-1176 1200 0
-44 -1176 1177 0
-1177 1201 0
-46 -1177 1178 0
-1178 1202 0
-48 -1178 1179 0
-1179 1203 0
-50 -1179 1180 0
-1180 1204 0
-52 -1180 1181 0
-1181 1205 0
-54 -1181 1182 0
-1182 1206 0
-56 -1182 1183 0
-1183 1207 0
-58 -1183 1184 0
-1184 1208 0
-4 -1184 0
-16 1185 0
-1185 1209 0
-18 -1185 1186 0
-1186 1210 0
-20 -1186 1187 0
-1187 1211 0
-22 -1187 1188 0
-1188 1212 0
-24 -1188 1189 0
-1189 1213 0
-2 -1189 1190 0
-1190 1214 0
-27 -1190 1191 0
-1191 1215 0
-29 -1191 1192 0
-1192 1216 0
-31 -1192 1193 0
-1193 1217 0
-33 -1193 1194 0
-1194 1218 0
-35 -1194 1195 0
-1195 1219 0
-37 -1195 1196 0
-1196 1220 0
-39 -1196 1197 0
-1197 1221 0
-41 -1197 1198 0
-1198 1222 0
-3 -1198 1199 0
-1199 1223 0
-44 -1199 1200 0
-1200 1224 0
-46 -1200 1201 0
-1201 1225 0
-48 -1201 1202 0
-1202 1226 0
-50 -1202 1203 0
-1203 1227 0
-52 -1203 1204 0
-1204 1228 0
-54 -1204 1205 0
-1205 1229 0
-56 -1205 1206 0
-1206 1230 0
-58 -1206 1207 0
-1207 1231 0
-4 -1207 1208 0
-1208 1232 0
-61 -1208 0
-18 1209 0
-1209 1233 0
-20 -1209 1210 0
-1210 1234 0
-22 -1210 1211 0
-1211 1235 0
-24 -1211 1212 0
-1212 1236 0
-2 -1212 1213 0
-1213 1237 0
-27 -1213 1214 0
-1214 1238 0
-29 -1214 1215 0
-1215 1239 0
-31 -1215 1216 0
-1216 1240 0
-33 -1216 1217 0
-1217 1241 0
-35 -1217 1218 0
-1218 1242 0
-37 -1218 1219 0
-1219 1243 0
-39 -1219 1220 0
-1220 1244 0
-41 -1220 1221 0
-1221 1245 0
-3 -1221 1222 0
-1222 1246 0
-44 -1222 1223 0
-1223 1247 0
-46 -1223 1224 0
-1224 1248 0
-48 -1224 1225 0
-1225 1249 0
-50 -1225 1226 0
-1226 1250 0
-52 -1226 1227 0
-1227 1251 0
-54 -1227 1228 0
-1228 1252 0
-56 -1228 1229 0
-1229 1253 0
-58 -1229 1230 0
-1230 1254 0
-4 -1230 1231 0
-1231 1255 0
-61 -1231 1232 0
-1232 1256 0
-63 -1232 0
-20 1233 0
-1233 1257 0
-22 -1233 1234 0
-1234 1258 0
-24 -1234 1235 0
-1235 1259 0
-2 -1235 1236 0
-1236 1260 0
-27 -1236 1237 0
-1237 1261 0
-29 -1237 1238 0
-1238 1262 0
-31 -1238 1239 0
-1239 1263 0
-33 -1239 1240 0
-1240 1264 0
-35 -1240 1241 0
-1241 1265 0
-37 -1241 1242 0
-1242 1266 0
-39 -1242 1243 0
-1243 1267 0
-41 -1243 1244 0
-1244 1268 0
-3 -1244 1245 0
-1245 1269 0
-44 -1245 1246 0
-1246 1270 0
-46 -1246 1247 0
-1247 1271 0
-48 -1247 1248 0
-1248 1272 0
-50 -1248 1249 0
-1249 1273 0
-52 -1249 1250 0
-1250 1274 0
-54 -1250 1251 0
-1251 1275 0
-56 -1251 1252 0
-1252 1276 0
-58 -1252 1253 0
-1253 1277 0
-4 -1253 1254 0
-1254 1278 0
-61 -1254 1255 0
-1255 1279 0
-63 -1255 1256 0
-1256 1280 0
-65 -1256 0
-22 1257 0
-1257 1281 0
-24 -1257 1258 0
-1258 1282 0
-2 -1258 1259 0
-1259 1283 0
-27 -1259 1260 0
-1260 1284 0
-29 -1260 1261 0
-1261 1285 0
-31 -1261 1262 0
-1262 1286 0
-33 -1262 1263 0
-1263 1287 0
-35 -1263 1264 0
-1264 1288 0
-37 -1264 1265 0
-1265 1289 0
-39 -1265 1266 0
-1266 1290 0
-41 -1266 1267 0
-1267 1291 0
-3 -1267 1268 0
-1268 1292 0
-44 -1268 1269 0
-1269 1293 0
-46 -1269 1270 0
-1270 1294 0
-48 -1270 1271 0
-1271 1295 0
-50 -1271 1272 0
-1272 1296 0
-52 -1272 1273 0
-1273 1297 0
-54 -1273 1274 0
-1274 1298 0
-56 -1274 1275 0
-1275 1299 0
-58 -1275 1276 0
-1276 1300 0
-4 -1276 1277 0
-1277 1301 0
-61 -1277 1278 0
-1278 1302 0
-63 -1278 1279 0
-1279 1303 0
-65 -1279 1280 0
-1280 1304 0
-67 -1280 0
-24 1281 0
-1281 1305 0
-2 -1281 1282 0
-1282 1306 0
-27 -1282 1283 0
-1283 1307 0
-29 -1283 1284 0
-1284 1308 0
-31 -1284 1285 0
-1285 1309 0
-33 -1285 1286 0
-1286 1310 0
-35 -1286 1287 0
-1287 1311 0
-37 -1287 1288 0
-1288 1312 0
-39 -1288 1289 0
-1289 1313 0
-41 -1289 1290 0
-1290 1314 0
-3 -1290 1291 0
-1291 1315 0
-44 -1291 1292 0
-1292 1316 0
-46 -1292 1293 0
-1293 1317 0
-48 -1293 1294 0
-1294 1318 0
-50 -1294 1295 0
-1295 1319 0
-52 -1295 1296 0
-1296 1320 0
-54 -1296 1297 0
-1297 1321 0
-56 -1297 1298 0
-1298 1322 0
-58 -1298 1299 0
-1299 1323 0
-4 -1299 1300 0
-1300 1324 0
-61 -1300 1301 0
-1301 1325 0
-63 -1301 1302 0
-1302 1326 0
-65 -1302 1303 0
-1303 1327 0
-67 -1303 1304 0
-1304 1328 0
-69 -1304 0
-2 1305 0
-1305 1329 0
-27 -1305 1306 0
-1306 1330 0
-29 -1306 1307 0
-1307 1331 0
-31 -1307 1308 0
-1308 1332 0
-33 -1308 1309 0
-1309 1333 0
-35 -1309 1310 0
-1310 1334 0
-37 -1310 1311 0
-1311 1335 0
-39 -1311 1312 0
-1312 1336 0
-41 -1312 1313 0
-1313 1337 0
-3 -1313 1314 0
-1314 1338 0
-44 -1314 1315 0
-1315 1339 0
-46 -1315 1316 0
-1316 1340 0
-48 -1316 1317 0
-1317 1341 0
-50 -1317 1318 0
-1318 1342 0
-52 -1318 1319 0
-1319 1343 0
-54 -1319 1320 0
-1320 1344 0
-56 -1320 1321 0
-1321 1345 0
-58 -1321 1322 0
-1322 1346 0
-4 -1322 1323 0
-1323 1347 0
-61 -1323 1324 0
-1324 1348 0
-63 -1324 1325 0
-1325 1349 0
-65 -1325 1326 0
-1326 1350 0
-67 -1326 1327 0
-1327 1351 0
-69 -1327 1328 0
-1328 1352 0
-71 -1328 0
-27 1329 0
-1329 1353 0
-29 -1329 1330 0
-1330 1354 0
-31 -1330 1331 0
-1331 1355 0
-33 -1331 1332 0
-1332 1356 0
-35 -1332 1333 0
-1333 1357 0
-37 -1333 1334 0
-1334 1358 0
-39 -1334 1335 0
-1335 1359 0
-41 -1335 1336 0
-1336 1360 0
-3 -1336 1337 0
-1337 1361 0
-44 -1337 1338 0
-1338 1362 0
-46 -1338 1339 0
-1339 1363 0
-48 -1339 1340 0
-1340 1364 0
-50 -1340 1341 0
-1341 1365 0
-52 -1341 1342 0
-1342 1366 0
-54 -1342 1343 0
-1343 1367 0
-56 -1343 1344 0
-1344 1368 0
-58 -1344 1345 0
-1345 1369 0
-4 -1345 1346 0
-1346 1370 0
-61 -1346 1347 0
-1347 1371 0
-63 -1347 1348 0
-1348 1372 0
-65 -1348 1349 0
-1349 1373 0
-67 -1349 1350 0
-1350 1374 0
-69 -1350 1351 0
-1351 1375 0
-71 -1351 1352 0
-1352 1376 0
-73 -1352 0
-29 1353 0
-1353 1377 0
-31 -1353 1354 0
-1354 1378 0
-33 -1354 1355 0
-1355 1379 0
-35 -1355 1356 0
-1356 1380 0
-37 -1356 1357 0
-1357 1381 0
-39 -1357 1358 0
-1358 1382 0
-41 -1358 1359 0
-1359 1383 0
-3 -1359 1360 0
-1360 1384 0
-44 -1360 1361 0
-1361 1385 0
-46 -1361 1362 0
-1362 1386 0
-48 -1362 1363 0
-1363 1387 0
-50 -1363 1364 0
-1364 1388 0
-52 -1364 1365 0
-1365 1389 0
-54 -1365 1366 0
-1366 1390 0
-56 -1366 1367 0
-1367 1391 0
-58 -1367 1368 0
-1368 1392 0
-4 -1368 1369 0
-1369 1393 0
-61 -1369 1370 0
-1370 1394 0
-63 -1370 1371 0
-1371 1395 0
-65 -1371 1372 0
-1372 1396 0
-67 -1372 1373 0
-1373 1397 0
-69 -1373 1374 0
-1374 1398 0
-71 -1374 1375 0
-1375 1399 0
-73 -1375 1376 0
-1376 1400 0
-75 -1376 0
-31 1377 0
-1377 1401 0
-33 -1377 1378 0
-1378 1402 0
-35 -1378 1379 0
-1379 1403 0
-37 -1379 1380 0
-1380 1404 0
-39 -1380 1381 0
-1381 1405 0
-41 -1381 1382 0
-1382 1406 0
-3 -1382 1383 0
-1383 1407 0
-44 -1383 1384 0
-1384 1408 0
-46 -1384 1385 0
-1385 1409 0
-48 -1385 1386 0
-1386 1410 0
-50 -1386 1387 0
-1387 1411 0
-52 -1387 1388 0
-1388 1412 0
-54 -1388 1389 0
-1389 1413 0
-56 -1389 1390 0
-1390 1414 0
-58 -1390 1391 0
-1391 1415 0
-4 -1391 1392 0
-1392 1416 0
-61 -1392 1393 0
-1393 1417 0
-63 -1393 1394 0
-1394 1418 0
-65 -1394 1395 0
-1395 1419 0
-67 -1395 1396 0
-1396 1420 0
-69 -1396 1397 0
-1397 1421 0
-71 -1397 1398 0
-1398 1422 0
-73 -1398 1399 0
-1399 1423 0
-75 -1399 1400 0
-1400 1424 0
-5 -1400 0
-33 1401 0
-1401 1425 0
-35 -1401 1402 0
-1402 1426 0
-37 -1402 1403 0
-1403 1427 0
-39 -1403 1404 0
-1404 1428 0
-41 -1404 1405 0
-1405 1429 0
-3 -1405 1406 0
-1406 1430 0
-44 -1406 1407 0
-1407 1431 0
-46 -1407 1408 0
-1408 1432 0
-48 -1408 1409 0
-1409 1433 0
-50 -1409 1410 0
-1410 1434 0
-52 -1410 1411 0
-1411 1435 0
-54 -1411 1412 0
-1412 1436 0
-56 -1412 1413 0
-1413 1437 0
-58 -1413 1414 0
-1414 1438 0
-4 -1414 1415 0
-1415 1439 0
-61 -1415 1416 0
-1416 1440 0
-63 -1416 1417 0
-1417 1441 0
-65 -1417 1418 0
-1418 1442 0
-67 -1418 1419 0
-1419 1443 0
-69 -1419 1420 0
-1420 1444 0
-71 -1420 1421 0
-1421 1445 0
-73 -1421 1422 0
-1422 1446 0
-75 -1422 1423 0
-1423 1447 0
-5 -1423 1424 0
-1424 1448 0
-78 -1424 0
-35 1425 0
-1425 1449 0
-37 -1425 1426 0
-1426 1450 0
-39 -1426 1427 0
-1427 1451 0
-41 -1427 1428 0
-1428 1452 0
-3 -1428 1429 0
-1429 1453 0
-44 -1429 1430 0
-1430 1454 0
-46 -1430 1431 0
-1431 1455 0
-48 -1431 1432 0
-1432 1456 0
-50 -1432 1433 0
-1433 1457 0
-52 -1433 1434 0
-1434 1458 0
-54 -1434 1435 0
-1435 1459 0
-56 -1435 1436 0
-1436 1460 0
-58 -1436 1437 0
-1437 1461 0
-4 -1437 1438 0
-1438 1462 0
-61 -1438 1439 0
-1439 1463 0
-63 -1439 1440 0
-1440 1464 0
-65 -1440 1441 0
-1441 1465 0
-67 -1441 1442 0
-1442 1466 0
-69 -1442 1443 0
-1443 1467 0
-71 -1443 1444 0
-1444 1468 0
-73 -1444 1445 0
-1445 1469 0
-75 -1445 1446 0
-1446 1470 0
-5 -1446 1447 0
-1447 1471 0
-78 -1447 1448 0
-1448 1472 0
-80 -1448 0
-37 1449 0
-1449 1473 0
-39 -1449 1450 0
-1450 1474 0
-41 -1450 1451 0
-1451 1475 0
-3 -1451 1452 0
-1452 1476 0
-44 -1452 1453 0
-1453 1477 0
-46 -1453 1454 0
-1454 1478 0
-48 -1454 1455 0
-1455 1479 0
-50 -1455 1456 0
-1456 1480 0
-52 -1456 1457 0
-1457 1481 0
-54 -1457 1458 0
-1458 1482 0
-56 -1458 1459 0
-1459 1483 0
-58 -1459 1460 0
-1460 1484 0
-4 -1460 1461 0
-1461 1485 0
-61 -1461 1462 0
-1462 1486 0
-63 -1462 1463 0
-1463 1487 0
-65 -1463 1464 0
-1464 1488 0
-67 -1464 1465 0
-1465 1489 0
-69 -1465 1466 0
-1466 1490 0
-71 -1466 1467 0
-1467 1491 0
-73 -1467 1468 0
-1468 1492 0
-75 -1468 1469 0
-1469 1493 0
-5 -1469 1470 0
-1470 1494 0
-78 -1470 1471 0
-1471 1495 0
-80 -1471 1472 0
-1472 1496 0
-82 -1472 0
-39 1473 0
-1473 1497 0
-41 -1473 1474 0
-1474 1498 0
-3 -1474 1475 0
-1475 1499 0
-44 -1475 1476 0
-1476 1500 0
-46 -1476 1477 0
-1477 1501 0
-48 -1477 1478 0
-1478 1502 0
-50 -1478 1479 0
-1479 1503 0
-52 -1479 1480 0
-1480 1504 0
-54 -1480 1481 0
-1481 1505 0
-56 -1481 1482 0
-1482 1506 0
-58 -1482 1483 0
-1483 1507 0
-4 -1483 1484 0
-1484 1508 0
-61 -1484 1485 0
-1485 1509 0
-63 -1485 1486 0
-1486 1510 0
-65 -1486 1487 0
-1487 1511 0
-67 -1487 1488 0
-1488 1512 0
-69 -1488 1489 0
-1489 1513 0
-71 -1489 1490 0
-1490 1514 0
-73 -1490 1491 0
-1491 1515 0
-75 -1491 1492 0
-1492 1516 0
-5 -1492 1493 0
-1493 1517 0
-78 -1493 1494 0
-1494 1518 0
-80 -1494 1495 0
-1495 1519 0
-82 -1495 1496 0
-1496 1520 0
-84 -1496 0
-41 1497 0
-1497 1521 0
-3 -1497 1498 0
-1498 1522 0
-44 -1498 1499 0
-1499 1523 0
-46 -1499 1500 0
-1500 1524 0
-48 -1500 1501 0
-1501 1525 0
-50 -1501 1502 0
-1502 1526 0
-52 -1502 1503 0
-1503 1527 0
-54 -1503 1504 0
-1504 1528 0
-56 -1504 1505 0
-1505 1529 0
-58 -1505 1506 0
-1506 1530 0
-4 -1506 1507 0
-1507 1531 0
-61 -1507 1508 0
-1508 1532 0
-63 -1508 1509 0
-1509 1533 0
-65 -1509 1510 0
-1510 1534 0
-67 -1510 1511 0
-1511 1535 0
-69 -1511 1512 0
-1512 1536 0
-71 -1512 1513 0
-1513 1537 0
-73 -1513 1514 0
-1514 1538 0
-75 -1514 1515 0
-1515 1539 0
-5 -1515 1516 0
-1516 1540 0
-78 -1516 1517 0
-1517 1541 0
-80 -1517 1518 0
-1518 1542 0
-82 -1518 1519 0
-1519 1543 0
-84 -1519 1520 0
-1520 1544 0
-86 -1520 0
-3 1521 0
-1521 1545 0
-44 -1521 1522 0
-1522 1546 0
-46 -1522 1523 0
-1523 1547 0
-48 -1523 1524 0
-1524 1548 0
-50 -1524 1525 0
-1525 1549 0
-52 -1525 1526 0
-1526 1550 0
-54 -1526 1527 0
-1527 1551 0
-56 -1527 1528 0
-1528 1552 0
-58 -1528 1529 0
-1529 1553 0
-4 -1529 1530 0
-1530 1554 0
-61 -1530 1531 0
-1531 1555 0
-63 -1531 1532 0
-1532 1556 0
-65 -1532 1533 0
-1533 1557 0
-67 -1533 1534 0
-1534 1558 0
-69 -1534 1535 0
-1535 1559 0
-71 -1535 1536 0
-1536 1560 0
-73 -1536 1537 0
-1537 1561 0
-75 -1537 1538 0
-1538 1562 0
-5 -1538 1539 0
-1539 1563 0
-78 -1539 1540 0
-1540 1564 0
-80 -1540 1541 0
-1541 1565 0
-82 -1541 1542 0
-1542 1566 0
-84 -1542 1543 0
-1543 1567 0
-86 -1543 1544 0
-1544 1568 0
-88 -1544 0
-44 1545 0
-1545 1569 0
-46 -1545 1546 0
-1546 1570 0
-48 -1546 1547 0
-1547 1571 0
-50 -1547 1548 0
-1548 1572 0
-52 -1548 1549 0
-1549 1573 0
-54 -1549 1550 0
-1550 1574 0
-56 -1550 1551 0
-1551 1575 0
-58 -1551 1552 0
-1552 1576 0
-4 -1552 1553 0
-1553 1577 0
-61 -1553 1554 0
-1554 1578 0
-63 -1554 1555 0
-1555 1579 0
-65 -1555 1556 0
-1556 1580 0
-67 -1556 1557 0
-1557 1581 0
-69 -1557 1558 0
-1558 1582 0
-71 -1558 1559 0
-1559 1583 0
-73 -1559 1560 0
-1560 1584 0
-75 -1560 1561 0
-1561 1585 0
-5 -1561 1562 0
-1562 1586 0
-78 -1562 1563 0
-1563 1587 0
-80 -1563 1564 0
-1564 1588 0
-82 -1564 1565 0
-1565 1589 0
-84 -1565 1566 0
-1566 1590 0
-86 -1566 1567 0
-1567 1591 0
-88 -1567 1568 0
-1568 1592 0
-90 -1568 0
-46 1569 0
-1569 1593 0
-48 -1569 1570 0
-1570 1594 0
-50 -1570 1571 0
-1571 1595 0
-52 -1571 1572 0
-1572 1596 0
-54 -1572 1573 0
-1573 1597 0
-56 -1573 1574 0
-1574 1598 0
-58 -1574 1575 0
-1575 1599 0
-4 -1575 1576 0
-1576 1600 0
-61 -1576 1577 0
-1577 1601 0
-63 -1577 1578 0
-1578 1602 0
-65 -1578 1579 0
-1579 1603 0
-67 -1579 1580 0
-1580 1604 0
-69 -1580 1581 0
-1581 1605 0
-71 -1581 1582 0
-1582 1606 0
-73 -1582 1583 0
-1583 1607 0
-75 -1583 1584 0
-1584 1608 0
-5 -1584 1585 0
-1585 1609 0
-78 -1585 1586 0
-1586 1610 0
-80 -1586 1587 0
-1587 1611 0
-82 -1587 1588 0
-1588 1612 0
-84 -1588 1589 0
-1589 1613 0
-86 -1589 1590 0
-1590 1614 0
-88 -1590 1591 0
-1591 1615 0
-90 -1591 1592 0
-1592 1616 0
-92 -1592 0
-48 1593 0
-1593 1617 0
-50 -1593 1594 0
-1594 1618 0
-52 -1594 1595 0
-1595 1619 0
-54 -1595 1596 0
-1596 1620 0
-56 -1596 1597 0
-1597 1621 0
-58 -1597 1598 0
-1598 1622 0
-4 -1598 1599 0
-1599 1623 0
-61 -1599 1600 0
-1600 1624 0
-63 -1600 1601 0
-1601 1625 0
-65 -1601 1602 0
-1602 1626 0
-67 -1602 1603 0
-1603 1627 0
-69 -1603 1604 0
-1604 1628 0
-71 -1604 1605 0
-1605 1629 0
-73 -1605 1606 0
-1606 1630 0
-75 -1606 1607 0
-1607 1631 0
-5 -1607 1608 0
-1608 1632 0
-78 -1608 1609 0
-1609 1633 0
-80 -1609 1610 0
-1610 1634 0
-82 -1610 1611 0
-1611 1635 0
-84 -1611 1612 0
-1612 1636 0
-86 -1612 1613 0
-1613 1637 0
-88 -1613 1614 0
-1614 1638 0
-90 -1614 1615 0
-1615 1639 0
-92 -1615 1616 0
-1616 1640 0
-6 -1616 0
-50 1617 0
-1617 1641 0
-52 -1617 1618 0
-1618 1642 0
-54 -1618 1619 0
-1619 1643 0
-56 -1619 1620 0
-1620 1644 0
-58 -1620 1621 0
-1621 1645 0
-4 -1621 1622 0
-1622 1646 0
-61 -1622 1623 0
-1623 1647 0
-63 -1623 1624 0
-1624 1648 0
-65 -1624 1625 0
-1625 1649 0
-67 -1625 1626 0
-1626 1650 0
-69 -1626 1627 0
-1627 1651 0
-71 -1627 1628 0
-1628 1652 0
-73 -1628 1629 0
-1629 1653 0
-75 -1629 1630 0
-1630 1654 0
-5 -1630 1631 0
-1631 1655 0
-78 -1631 1632 0
-1632 1656 0
-80 -1632 1633 0
-1633 1657 0
-82 -1633 1634 0
-1634 1658 0
-84 -1634 1635 0
-1635 1659 0
-86 -1635 1636 0
-1636 1660 0
-88 -1636 1637 0
-1637 1661 0
-90 -1637 1638 0
-1638 1662 0
-92 -1638 1639 0
-1639 1663 0
-6 -1639 1640 0
-1640 1664 0
-95 -1640 0
-52 1641 0
-1641 1665 0
-54 -1641 1642 0
-1642 1666 0
-56 -1642 1643 0
-1643 1667 0
-58 -1643 1644 0
-1644 1668 0
-4 -1644 1645 0
-1645 1669 0
-61 -1645 1646 0
-1646 1670 0
-63 -1646 1647 0
-1647 1671 0
-65 -1647 1648 0
-1648 1672 0
-67 -1648 1649 0
-1649 1673 0
-69 -1649 1650 0
-1650 1674 0
-71 -1650 1651 0
-1651 1675 0
-73 -1651 1652 0
-1652 1676 0
-75 -1652 1653 0
-1653 1677 0
-5 -1653 1654 0
-1654 1678 0
-78 -1654 1655 0
-1655 1679 0
-80 -1655 1656 0
-1656 1680 0
-82 -1656 1657 0
-1657 1681 0
-84 -1657 1658 0
-1658 1682 0
-86 -1658 1659 0
-1659 1683 0
-88 -1659 1660 0
-1660 1684 0
-90 -1660 1661 0
-1661 1685 0
-92 -1661 1662 0
-1662 1686 0
-6 -1662 1663 0
-1663 1687 0
-95 -1663 1664 0
-1664 1688 0
-97 -1664 0
-54 1665 0
-1665 1689 0
-56 -1665 1666 0
-1666 1690 0
-58 -1666 1667 0
-1667 1691 0
-4 -1667 1668 0
-1668 1692 0
-61 -1668 1669 0
-1669 1693 0
-63 -1669 1670 0
-1670 1694 0
-65 -1670 1671 0
-1671 1695 0
-67 -1671 1672 0
-1672 1696 0
-69 -1672 1673 0
-1673 1697 0
-71 -1673 1674 0
-1674 1698 0
-73 -1674 1675 0
-1675 1699 0
-75 -1675 1676 0
-1676 1700 0
-5 -1676 1677 0
-1677 1701 0
-78 -1677 1678 0
-1678 1702 0
-80 -1678 1679 0
-1679 1703 0
-82 -1679 1680 0
-1680 1704 0
-84 -1680 1681 0
-1681 1705 0
-86 -1681 1682 0
-1682 1706 0
-88 -1682 1683 0
-1683 1707 0
-90 -1683 1684 0
-1684 1708 0
-92 -1684 1685 0
-1685 1709 0
-6 -1685 1686 0
-1686 1710 0
-95 -1686 1687 0
-1687 1711 0
-97 -1687 1688 0
-1688 1712 0
-99 -1688 0
-56 1689 0
-1689 1713 0
-58 -1689 1690 0
-1690 1714 0
-4 -1690 1691 0
-1691 1715 0
-61 -1691 1692 0
-1692 1716 0
-63 -1692 1693 0
-1693 1717 0
-65 -1693 1694 0
-1694 1718 0
-67 -1694 1695 0
-1695 1719 0
-69 -1695 1696 0
-1696 1720 0
-71 -1696 1697 0
-1697 1721 0
-73 -1697 1698 0
-1698 1722 0
-75 -1698 1699 0
-1699 1723 0
-5 -1699 1700 0
-1700 1724 0
-78 -1700 1701 0
-1701 1725 0
-80 -1701 1702 0
-1702 1726 0
-82 -1702 1703 0
-1703 1727 0
-84 -1703 1704 0
-1704 1728 0
-86 -1704 1705 0
-1705 1729 0
-88 -1705 1706 0
-1706 1730 0
-90 -1706 1707 0
-1707 1731 0
-92 -1707 1708 0
-1708 1732 0
-6 -1708 1709 0
-1709 1733 0
-95 -1709 1710 0
-1710 1734 0
-97 -1710 1711 0
-1711 1735 0
-99 -1711 1712 0
-1712 1736 0
-101 -1712 0
-58 1713 0
-1713 1737 0
-4 -1713 1714 0
-1714 1738 0
-61 -1714 1715 0
-1715 1739 0
-63 -1715 1716 0
-1716 1740 0
-65 -1716 1717 0
-1717 1741 0
-67 -1717 1718 0
-1718 1742 0
-69 -1718 1719 0
-1719 1743 0
-71 -1719 1720 0
-1720 1744 0
-73 -1720 1721 0
-1721 1745 0
-75 -1721 1722 0
-1722 1746 0
-5 -1722 1723 0
-1723 1747 0
-78 -1723 1724 0
-1724 1748 0
-80 -1724 1725 0
-1725 1749 0
-82 -1725 1726 0
-1726 1750 0
-84 -1726 1727 0
-1727 1751 0
-86 -1727 1728 0
-1728 1752 0
-88 -1728 1729 0
-1729 1753 0
-90 -1729 1730 0
-1730 1754 0
-92 -1730 1731 0
-1731 1755 0
-6 -1731 1732 0
-1732 1756 0
-95 -1732 1733 0
-1733 1757 0
-97 -1733 1734 0
-1734 1758 0
-99 -1734 1735 0
-1735 1759 0
-101 -1735 1736 0
-1736 1760 0
-103 -1736 0
-4 1737 0
-1737 1761 0
-61 -1737 1738 0
-1738 1762 0
-63 -1738 1739 0
-1739 1763 0
-65 -1739 1740 0
-1740 1764 0
-67 -1740 1741 0
-1741 1765 0
-69 -1741 1742 0
-1742 1766 0
-71 -1742 1743 0
-1743 1767 0
-73 -1743 1744 0
-1744 1768 0
-75 -1744 1745 0
-1745 1769 0
-5 -1745 1746 0
-1746 1770 0
-78 -1746 1747 0
-1747 1771 0
-80 -1747 1748 0
-1748 1772 0
-82 -1748 1749 0
-1749 1773 0
-84 -1749 1750 0
-1750 1774 0
-86 -1750 1751 0
-1751 1775 0
-88 -1751 1752 0
-1752 1776 0
-90 -1752 1753 0
-1753 1777 0
-92 -1753 1754 0
-1754 1778 0
-6 -1754 1755 0
-1755 1779 0
-95 -1755 1756 0
-1756 1780 0
-97 -1756 1757 0
-1757 1781 0
-99 -1757 1758 0
-1758 1782 0
-101 -1758 1759 0
-1759 1783 0
-103 -1759 1760 0
-1760 1784 0
-105 -1760 0
-61 1761 0
-1761 1785 0
-63 -1761 1762 0
-1762 1786 0
-65 -1762 1763 0
-1763 1787 0
-67 -1763 1764 0
-1764 1788 0
-69 -1764 1765 0
-1765 1789 0
-71 -1765 1766 0
-1766 1790 0
-73 -1766 1767 0
-1767 1791 0
-75 -1767 1768 0
-1768 1792 0
-5 -1768 1769 0
-1769 1793 0
-78 -1769 1770 0
-1770 1794 0
-80 -1770 1771 0
-1771 1795 0
-82 -1771 1772 0
-1772 1796 0
-84 -1772 1773 0
-1773 1797 0
-86 -1773 1774 0
-1774 1798 0
-88 -1774 1775 0
-1775 1799 0
-90 -1775 1776 0
-1776 1800 0
-92 -1776 1777 0
-1777 1801 0
-6 -1777 1778 0
-1778 1802 0
-95 -1778 1779 0
-1779 1803 0
-97 -1779 1780 0
-1780 1804 0
-99 -1780 1781 0
-1781 1805 0
-101 -1781 1782 0
-1782 1806 0
-103 -1782 1783 0
-1783 1807 0
-105 -1783 1784 0
-1784 1808 0
-107 -1784 0
-63 1785 0
-1785 1809 0
-65 -1785 1786 0
-1786 1810 0
-67 -1786 1787 0
-1787 1811 0
-69 -1787 1788 0
-1788 1812 0
-71 -1788 1789 0
-1789 1813 0
-73 -1789 1790 0
-1790 1814 0
-75 -1790 1791 0
-1791 1815 0
-5 -1791 1792 0
-1792 1816 0
-78 -1792 1793 0
-1793 1817 0
-80 -1793 1794 0
-1794 1818 0
-82 -1794 1795 0
-1795 1819 0
-84 -1795 1796 0
-1796 1820 0
-86 -1796 1797 0
-1797 1821 0
-88 -1797 1798 0
-1798 1822 0
-90 -1798 1799 0
-1799 1823 0
-92 -1799 1800 0
-1800 1824 0
-6 -1800 1801 0
-1801 1825 0
-95 -1801 1802 0
-1802 1826 0
-97 -1802 1803 0
-1803 1827 0
-99 -1803 1804 0
-1804 1828 0
-101 -1804 1805 0
-1805 1829 0
-103 -1805 1806 0
-1806 1830 0
-105 -1806 1807 0
-1807 1831 0
-107 -1807 1808 0
-1808 1832 0
-109 -1808 0
-65 1809 0
-1809 1833 0
-67 -1809 1810 0
-1810 1834 0
-69 -1810 1811 0
-1811 1835 0
-71 -1811 1812 0
-1812 1836 0
-73 -1812 1813 0
-1813 1837 0
-75 -1813 1814 0
-1814 1838 0
-5 -1814 1815 0
-1815 1839 0
-78 -1815 1816 0
-1816 1840 0
-80 -1816 1817 0
-1817 1841 0
-82 -1817 1818 0
-1818 1842 0
-84 -1818 1819 0
-1819 1843 0
-86 -1819 1820 0
-1820 1844 0
-88 -1820 1821 0
-1821 1845 0
-90 -1821 1822 0
-1822 1846 0
-92 -1822 1823 0
-1823 1847 0
-6 -1823 1824 0
-1824 1848 0
-95 -1824 1825 0
-1825 1849 0
-97 -1825 1826 0
-1826 1850 0
-99 -1826 1827 0
-1827 1851 0
-101 -1827 1828 0
-1828 1852 0
-103 -1828 1829 0
-1829 1853 0
-105 -1829 1830 0
-1830 1854 0
-107 -1830 1831 0
-1831 1855 0
-109 -1831 1832 0
-1832 1856 0
-7 -1832 0
-67 1833 0
-1833 1857 0
-69 -1833 1834 0
-1834 1858 0
-71 -1834 1835 0
-1835 1859 0
-73 -1835 1836 0
-1836 1860 0
-75 -1836 1837 0
-1837 1861 0
-5 -1837 1838 0
-1838 1862 0
-78 -1838 1839 0
-1839 1863 0
-80 -1839 1840 0
-1840 1864 0
-82 -1840 1841 0
-1841 1865 0
-84 -1841 1842 0
-1842 1866 0
-86 -1842 1843 0
-1843 1867 0
-88 -1843 1844 0
-1844 1868 0
-90 -1844 1845 0
-1845 1869 0
-92 -1845 1846 0
-1846 1870 0
-6 -1846 1847 0
-1847 1871 0
-95 -1847 1848 0
-1848 1872 0
-97 -1848 1849 0
-1849 1873 0
-99 -1849 1850 0
-1850 1874 0
-101 -1850 1851 0
-1851 1875 0
-103 -1851 1852 0
-1852 1876 0
-105 -1852 1853 0
-1853 1877 0
-107 -1853 1854 0
-1854 1878 0
-109 -1854 1855 0
-1855 1879 0
-7 -1855 1856 0
-1856 1880 0
-112 -1856 0
-69 1857 0
-1857 1881 0
-71 -1857 1858 0
-1858 1882 0
-73 -1858 1859 0
-1859 1883 0
-75 -1859 1860 0
-1860 1884 0
-5 -1860 1861 0
-1861 1885 0
-78 -1861 1862 0
-1862 1886 0
-80 -1862 1863 0
-1863 1887 0
-82 -1863 1864 0
-1864 1888 0
-84 -1864 1865 0
-1865 1889 0
-86 -1865 1866 0
-1866 1890 0
-88 -1866 1867 0
-1867 1891 0
-90 -1867 1868 0
-1868 1892 0
-92 -1868 1869 0
-1869 1893 0
-6 -1869 1870 0
-1870 1894 0
-95 -1870 1871 0
-1871 1895 0
-97 -1871 1872 0
-1872 1896 0
-99 -1872 1873 0
-1873 1897 0
-101 -1873 1874 0
-1874 1898 0
-103 -1874 1875 0
-1875 1899 0
-105 -1875 1876 0
-1876 1900 0
-107 -1876 1877 0
-1877 1901 0
-109 -1877 1878 0
-1878 1902 0
-7 -1878 1879 0
-1879 1903 0
-112 -1879 1880 0
-1880 1904 0
-114 -1880 0
-71 1881 0
-1881 1905 0
-73 -1881 1882 0
-1882 1906 0
-75 -1882 1883 0
-1883 1907 0
-5 -1883 1884 0
-1884 1908 0
-78 -1884 1885 0
-1885 1909 0
-80 -1885 1886 0
-1886 1910 0
-82 -1886 1887 0
-1887 1911 0
-84 -1887 1888 0
-1888 1912 0
-86 -1888 1889 0
-1889 1913 0
-88 -1889 1890 0
-1890 1914 0
-90 -1890 1891 0
-1891 1915 0
-92 -1891 1892 0
-1892 1916 0
-6 -1892 1893 0
-1893 1917 0
-95 -1893 1894 0
-1894 1918 0
-97 -1894 1895 0
-1895 1919 0
-99 -1895 1896 0
-1896 1920 0
-101 -1896 1897 0
-1897 1921 0
-103 -1897 1898 0
-1898 1922 0
-105 -1898 1899 0
-1899 1923 0
-107 -1899 1900 0
-1900 1924 0
-109 -1900 1901 0
-1901 1925 0
-7 -1901 1902 0
-1902 1926 0
-112 -1902 1903 0
-1903 1927 0
-114 -1903 1904 0
-1904 1928 0
-116 -1904 0
-73 1905 0
-1905 1929 0
-75 -1905 1906 0
-1906 1930 0
-5 -1906 1907 0
-1907 1931 0
-78 -1907 1908 0
-1908 1932 0
-80 -1908 1909 0
-1909 1933 0
-82 -1909 1910 0
-1910 1934 0
-84 -1910 1911 0
-1911 1935 0
-86 -1911 1912 0
-1912 1936 0
-88 -1912 1913 0
-1913 1937 0
-90 -1913 1914 0
-1914 1938 0
-92 -1914 1915 0
-1915 1939 0
-6 -1915 1916 0
-1916 1940 0
-95 -1916 1917 0
-1917 1941 0
-97 -1917 1918 0
-1918 1942 0
-99 -1918 1919 0
-1919 1943 0
-101 -1919 1920 0
-1920 1944 0
-103 -1920 1921 0
-1921 1945 0
-105 -1921 1922 0
-1922 1946 0
-107 -1922 1923 0
-1923 1947 0
-109 -1923 1924 0
-1924 1948 0
-7 -1924 1925 0
-1925 1949 0
-112 -1925 1926 0
-1926 1950 0
-114 -1926 1927 0
-1927 1951 0
-116 -1927 1928 0
-1928 1952 0
-118 -1928 0
-75 1929 0
-1929 1953 0
-5 -1929 1930 0
-1930 1954 0
-78 -1930 1931 0
-1931 1955 0
-80 -1931 1932 0
-1932 1956 0
-82 -1932 1933 0
-1933 1957 0
-84 -1933 1934 0
-1934 1958 0
-86 -1934 1935 0
-1935 1959 0
-88 -1935 1936 0
-1936 1960 0
-90 -1936 1937 0
-1937 1961 0
-92 -1937 1938 0
-1938 1962 0
-6 -1938 1939 0
-1939 1963 0
-95 -1939 1940 0
-1940 1964 0
-97 -1940 1941 0
-1941 1965 0
-99 -1941 1942 0
-1942 1966 0
-101 -1942 1943 0
-1943 1967 0
-103 -1943 1944 0
-1944 1968 0
-105 -1944 1945 0
-1945 1969 0
-107 -1945 1946 0
-1946 1970 0
-109 -1946 1947 0
-1947 1971 0
-7 -1947 1948 0
-1948 1972 0
-112 -1948 1949 0
-1949 1973 0
-114 -1949 1950 0
-1950 1974 0
-116 -1950 1951 0
-1951 1975 0
-118 -1951 1952 0
-1952 1976 0
-120 -1952 0
-5 1953 0
-1953 1977 0
-78 -1953 1954 0
-1954 1978 0
-80 -1954 1955 0
-1955 1979 0
-82 -1955 1956 0
-1956 1980 0
-84 -1956 1957 0
-1957 1981 0
-86 -1957 1958 0
-1958 1982 0
-88 -1958 1959 0
-1959 1983 0
-90 -1959 1960 0
-1960 1984 0
-92 -1960 1961 0
-1961 1985 0
-6 -1961 1962 0
-1962 1986 0
-95 -1962 1963 0
-1963 1987 0
-97 -1963 1964 0
-1964 1988 0
-99 -1964 1965 0
-1965 1989 0
-101 -1965 1966 0
-1966 1990 0
-103 -1966 1967 0
-1967 1991 0
-105 -1967 1968 0
-1968 1992 0
-107 -1968 1969 0
-1969 1993 0
-109 -1969 1970 0
-1970 1994 0
-7 -1970 1971 0
-1971 1995 0
-112 -1971 1972 0
-1972 1996 0
-114 -1972 1973 0
-1973 1997 0
-116 -1973 1974 0
-1974 1998 0
-118 -1974 1975 0
-1975 1999 0
-120 -1975 1976 0
-1976 2000 0
-122 -1976 0
-78 1977 0
-1977 2001 0
-80 -1977 1978 0
-1978 2002 0
-82 -1978 1979 0
-1979 2003 0
-84 -1979 1980 0
-1980 2004 0
-86 -1980 1981 0
-1981 2005 0
-88 -1981 1982 0
-1982 2006 0
-90 -1982 1983 0
-1983 2007 0
-92 -1983 1984 0
-1984 2008 0
-6 -1984 1985 0
-1985 2009 0
-95 -1985 1986 0
-1986 2010 0
-97 -1986 1987 0
-1987 2011 0
-99 -1987 1988 0
-1988 2012 0
-101 -1988 1989 0
-1989 2013 0
-103 -1989 1990 0
-1990 2014 0
-105 -1990 1991 0
-1991 2015 0
-107 -1991 1992 0
-1992 2016 0
-109 -1992 1993 0
-1993 2017 0
-7 -1993 1994 0
-1994 2018 0
-112 -1994 1995 0
-1995 2019 0
-114 -1995 1996 0
-1996 2020 0
-116 -1996 1997 0
-1997 2021 0
-118 -1997 1998 0
-1998 2022 0
-120 -1998 1999 0
-1999 2023 0
-122 -1999 2000 0
-2000 2024 0
-124 -2000 0
-80 2001 0
-2001 2025 0
-82 -2001 2002 0
-2002 2026 0
-84 -2002 2003 0
-2003 2027 0
-86 -2003 2004 0
-2004 2028 0
-88 -2004 2005 0
-2005 2029 0
-90 -2005 2006 0
-2006 2030 0
-92 -2006 2007 0
-2007 2031 0
-6 -2007 2008 0
-2008 2032 0
-95 -2008 2009 0
-2009 2033 0
-97 -2009 2010 0
-2010 2034 0
-99 -2010 2011 0
-2011 2035 0
-101 -2011 2012 0
-2012 2036 0
-103 -2012 2013 0
-2013 2037 0
-105 -2013 2014 0
-2014 2038 0
-107 -2014 2015 0
-2015 2039 0
-109 -2015 2016 0
-2016 2040 0
-7 -2016 2017 0
-2017 2041 0
-112 -2017 2018 0
-2018 2042 0
-114 -2018 2019 0
-2019 2043 0
-116 -2019 2020 0
-2020 2044 0
-118 -2020 2021 0
-2021 2045 0
-120 -2021 2022 0
-2022 2046 0
-122 -2022 2023 0
-2023 2047 0
-124 -2023 2024 0
-2024 2048 0
-126 -2024 0
-82 2025 0
-84 -2025 2026 0
-86 -2026 2027 0
-88 -2027 2028 0
-90 -2028 2029 0
-92 -2029 2030 0
-6 -2030 2031 0
-95 -2031 2032 0
-97 -2032 2033 0
-99 -2033 2034 0
-101 -2034 2035 0
-103 -2035 2036 0
-105 -2036 2037 0
-107 -2037 2038 0
-109 -2038 2039 0
-7 -2039 2040 0
-112 -2040 2041 0
-114 -2041 2042 0
-116 -2042 2043 0
-118 -2043 2044 0
-120 -2044 2045 0
-122 -2045 2046 0
-124 -2046 2047 0
-126 -2047 2048 0
-8 -2048 0
2049 0
2050 2051 0
-2050 -2051 0
-2050 -2052 2053 0
-2050 -2054 2055 0
-2050 -2056 2057 0
-2050 -2058 2059 0
-2050 -2060 2061 0
-2050 -2062 2063 0
2053 2064 0
-2053 -2064 0
-2053 -2065 2050 0
-2053 -2066 2055 0
-2053 -2067 2057 0
-2053 -2068 2059 0
-2053 -2069 2061 0
-2053 -2070 2063 0
2055 2071 0
-2055 -2071 0
-2055 -2072 2050 0
-2055 -2073 2053 0
-2055 -2074 2057 0
-2055 -2075 2059 0
-2055 -2076 2061 0
-2055 -2077 2063 0
2057 2078 0
-2057 -2078 0
-2057 -2079 2050 0
-2057 -2080 2053 0
-2057 -2081 2055 0
-2057 -2082 2059 0
-2057 -2083 2061 0
-2057 -2084 2063 0
2059 2085 0
-2059 -2085 0
-2059 -2086 2050 0
-2059 -2087 2053 0
-2059 -2088 2055 0
-2059 -2089 2057 0
-2059 -2090 2061 0
-2059 -2091 2063 0
2061 2092 0
-2061 -2092 0
-2061 -2093 2050 0
-2061 -2094 2053 0
-2061 -2095 2055 0
-2061 -2096 2057 0
-2061 -2097 2059 0
-2061 -2098 2063 0
2063 2099 0
-2063 -2099 0
-2063 -2100 2050 0
-2063 -2101 2053 0
-2063 -2102 2055 0
-2063 -2103 2057 0
-2063 -2104 2059 0
-2063 -2105 2061 0
2106 0
2051 2050 0
-2051 -2050 0
-2051 -2053 2052 0
-2051 -2055 2054 0
-2051 -2057 2056 0
-2051 -2059 2058 0
-2051 -2061 2060 0
-2051 -2063 2062 0
2052 2065 0
-2052 -2065 0
-2052 -2064 2051 0
-2052 -2066 2054 0
-2052 -2067 2056 0
-2052 -2068 2058 0
-2052 -2069 2060 0
-2052 -2070 2062 0
2054 2072 0
-2054 -2072 0
-2054 -2071 2051 0
-2054 -2073 2052 0
-2054 -2074 2056 0
-2054 -2075 2058 0
-2054 -2076 2060 0
-2054 -2077 2062 0
2056 2079 0
-2056 -2079 0
-2056 -2078 2051 0
-2056 -2080 2052 0
-2056 -2081 2054 0
-2056 -2082 2058 0
-2056 -2083 2060 0
-2056 -2084 2062 0
2058 2086 0
-2058 -2086 0
-2058 -2085 2051 0
-2058 -2087 2052 0
-2058 -2088 2054 0
-2058 -2089 2056 0
-2058 -2090 2060 0
-2058 -2091 2062 0
2060 2093 0
-2060 -2093 0
-2060 -2092 2051 0
-2060 -2094 2052 0
-2060 -2095 2054 0
-2060 -2096 2056 0
-2060 -2097 2058 0
-2060 -2098 2062 0
2062 2100 0
-2062 -2100 0
-2062 -2099 2051 0
-2062 -2101 2052 0
-2062 -2102 2054 0
-2062 -2103 2056 0
-2062 -2104 2058 0
-2062 -2105 2060 0
2107 0
2064 2053 0
-2064 -2053 0
-2064 -2050 2065 0
-2064 -2055 2066 0
-2064 -2057 2067 0
-2064 -2059 2068 0
-2064 -2061 2069 0
-2064 -2063 2070 0
2065 2052 0
-2065 -2052 0
-2065 -2051 2064 0
-2065 -2054 2066 0
-2065 -2056 2067 0
-2065 -2058 2068 0
-2065 -2060 2069 0
-2065 -2062 2070 0
2066 2073 0
-2066 -2073 0
-2066 -2071 2064 0
-2066 -2072 2065 0
-2066 -2074 2067 0
-2066 -2075 2068 0
-2066 -2076 2069 0
-2066 -2077 2070 0
2067 2080 0
-2067 -2080 0
-2067 -2078 2064 0
-2067 -2079 2065 0
-2067 -2081 2066 0
-2067 -2082 2068 0
-2067 -2083 2069 0
-2067 -2084 2070 0
2068 2087 0
-2068 -2087 0
-2068 -2085 2064 0
-2068 -2086 2065 0
-2068 -2088 2066 0
-2068 -2089 2067 0
-2068 -2090 2069 0
-2068 -2091 2070 0
2069 2094 0
-2069 -2094 0
-2069 -2092 2064 0
-2069 -2093 2065 0
-2069 -2095 2066 0
-2069 -2096 2067 0
-2069 -2097 2068 0
-2069 -2098 2070 0
2070 2101 0
-2070 -2101 0
-2070 -2099 2064 0
-2070 -2100 2065 0
-2070 -2102 2066 0
-2070 -2103 2067 0
-2070 -2104 2068 0
-2070 -2105 2069 0
2108 0
2071 2055 0
-2071 -2055 0
-2071 -2050 2072 0
-2071 -2053 2073 0
-2071 -2057 2074 0
-2071 -2059 2075 0
-2071 -2061 2076 0
-2071 -2063 2077 0
2072 2054 0
-2072 -2054 0
-2072 -2051 2071 0
-2072 -2052 2073 0
-2072 -2056 2074 0
-2072 -2058 2075 0
-2072 -2060 2076 0
-2072 -2062 2077 0
2073 2066 0
-2073 -2066 0
-2073 -2064 2071 0
-2073 -2065 2072 0
-2073 -2067 2074 0
-2073 -2068 2075 0
-2073 -2069 2076 0
-2073 -2070 2077 0
2074 2081 0
-2074 -2081 0
-2074 -2078 2071 0
-2074 -2079 2072 0
-2074 -2080 2073 0
-2074 -2082 2075 0
-2074 -2083 2076 0
-2074 -2084 2077 0
2075 2088 0
-2075 -2088 0
-2075 -2085 2071 0
-2075 -2086 2072 0
-2075 -2087 2073 0
-2075 -2089 2074 0
-2075 -2090 2076 0
-2075 -2091 2077 0
2076 2095 0
-2076 -2095 0
-2076 -2092 2071 0
-2076 -2093 2072 0
-2076 -2094 2073 0
-2076 -2096 2074 0
-2076 -2097 2075 0
-2076 -2098 2077 0
2077 2102 0
-2077 -2102 0
-2077 -2099 2071 0
-2077 -2100 2072 0
-2077 -2101 2073 0
-2077 -2103 2074 0
-2077 -2104 2075 0
-2077 -2105 2076 0
2109 0
2078 2057 0
-2078 -2057 0
-2078 -2050 2079 0
-2078 -2053 2080 0
-2078 -2055 2081 0
-2078 -2059 2082 0
-2078 -2061 2083 0
-2078 -2063 2084 0
2079 2056 0
-2079 -2056 0
-2079 -2051 2078 0
-2079 -2052 2080 0
-2079 -2054 2081 0
-2079 -2058 2082 0
-2079 -2060 2083 0
-2079 -2062 2084 0
2080 2067 0
-2080 -2067 0
-2080 -2064 2078 0
-2080 -2065 2079 0
-2080 -2066 2081 0
-2080 -2068 2082 0
-2080 -2069 2083 0
-2080 -2070 2084 0
2081 2074 0
-2081 -2074 0
-2081 -2071 2078 0
-2081 -2072 2079 0
-2081 -2073 2080 0
-2081 -2075 2082 0
-2081 -2076 2083 0
-2081 -2077 2084 0
2082 2089 0
-2082 -2089 0
-2082 -2085 2078 0
-2082 -2086 2079 0
-2082 -2087 2080 0
-2082 -2088 2081 0
-2082 -2090 2083 0
-2082 -2091 2084 0
2083 2096 0
-2083 -2096 0
-2083 -2092 2078 0
-2083 -2093 2079 0
-2083 -2094 2080 0
-2083 -2095 2081 0
-2083 -2097 2082 0
-2083 -2098 2084 0
2084 2103 0
-2084 -2103 0
-2084 -2099 2078 0
-2084 -2100 2079 0
-2084 -2101 2080 0
-2084 -2102 2081 0
-2084 -2104 2082 0
-2084 -2105 2083 0
2110 0
2085 2059 0
-2085 -2059 0
-2085 -2050 2086 0
-2085 -2053 2087 0
-2085 -2055 2088 0
-2085 -2057 2089 0
-2085 -2061 2090 0
-2085 -2063 2091 0
2086 2058 0
-2086 -2058 0
-2086 -2051 2085 0
-2086 -2052 2087 0
-2086 -2054 2088 0
-2086 -2056 2089 0
-2086 -2060 2090 0
-2086 -2062 2091 0
2087 2068 0
-2087 -2068 0
-2087 -2064 2085 0
-2087 -2065 2086 0
-2087 -2066 2088 0
-2087 -2067 2089 0
-2087 -2069 2090 0
-2087 -2070 2091 0
2088 2075 0
-2088 -2075 0
-2088 -2071 2085 0
-2088 -2072 2086 0
-2088 -2073 2087 0
-2088 -2074 2089 0
-2088 -2076 2090 0
-2088 -2077 2091 0
2089 2082 0
-2089 -2082 0
-2089 -2078 2085 0
-2089 -2079 2086 0
-2089 -2080 2087 0
-2089 -2081 2088 0
-2089 -2083 2090 0
-2089 -2084 2091 0
2090 2097 0
-2090 -2097 0
-2090 -2092 2085 0
-2090 -2093 2086 0
-2090 -2094 2087 0
-2090 -2095 2088 0
-2090 -2096 2089 0
-2090 -2098 2091 0
2091 2104 0
-2091 -2104 0
-2091 -2099 2085 0
-2091 -2100 2086 0
-2091 -2101 2087 0
-2091 -2102 2088 0
-2091 -2103 2089 0
-2091 -2105 2090 0
2111 0
2092 2061 0
-2092 -2061 0
-2092 -2050 2093 0
-2092 -2053 2094 0
-2092 -2055 2095 0
-2092 -2057 2096 0
-2092 -2059 2097 0
-2092 -2063 2098 0
2093 2060 0
-2093 -2060 0
-2093 -2051 2092 0
-2093 -2052 2094 0
-2093 -2054 2095 0
-2093 -2056 2096 0
-2093 -2058 2097 0
-2093 -2062 2098 0
2094 2069 0
-2094 -2069 0
-2094 -2064 2092 0
-2094 -2065 2093 0
-2094 -2066 2095 0
-2094 -2067 2096 0
-2094 -2068 2097 0
-2094 -2070 2098 0
2095 2076 0
-2095 -2076 0
-2095 -2071 2092 0
-2095 -2072 2093 0
-2095 -2073 2094 0
-2095 -2074 2096 0
-2095 -2075 2097 0
-2095 -2077 2098 0
2096 2083 0
-2096 -2083 0
-2096 -2078 2092 0
-2096 -2079 2093 0
-2096 -2080 2094 0
-2096 -2081 2095 0
-2096 -2082 2097 0
-2096 -2084 2098 0
2097 2090 0
-2097 -2090 0
-2097 -2085 2092 0
-2097 -2086 2093 0
-2097 -2087 2094 0
-2097 -2088 2095 0
-2097 -2089 2096 0
-2097 -2091 2098 0
2098 2105 0
-2098 -2105 0
-2098 -2099 2092 0
-2098 -2100 2093 0
-2098 -2101 2094 0
-2098 -2102 2095 0
-2098 -2103 2096 0
-2098 -2104 2097 0
2112 0
2099 2063 0
-2099 -2063 0
-2099 -2050 2100 0
-2099 -2053 2101 0
-2099 -2055 2102 0
-2099 -2057 2103 0
-2099 -2059 2104 0
-2099 -2061 2105 0
2100 2062 0
-2100 -2062 0
-2100 -2051 2099 0
-2100 -2052 2101 0
-2100 -2054 2102 0
-2100 -2056 2103 0
-2100 -2058 2104 0
-2100 -2060 2105 0
2101 2070 0
-2101 -2070 0
-2101 -2064 2099 0
-2101 -2065 2100 0
-2101 -2066 2102 0
-2101 -2067 2103 0
-2101 -2068 2104 0
-2101 -2069 2105 0
2102 2077 0
-2102 -2077 0
-2102 -2071 2099 0
-2102 -2072 2100 0
-2102 -2073 2101 0
-2102 -2074 2103 0
-2102 -2075 2104 0
-2102 -2076 2105 0
2103 2084 0
-2103 -2084 0
-2103 -2078 2099 0
-2103 -2079 2100 0
-2103 -2080 2101 0
-2103 -2081 2102 0
-2103 -2082 2104 0
-2103 -2083 2105 0
2104 2091 0
-2104 -2091 0
-2104 -2085 2099 0
-2104 -2086 2100 0
-2104 -2087 2101 0
-2104 -2088 2102 0
-2104 -2089 2103 0
-2104 -2090 2105 0
2105 2098 0
-2105 -2098 0
-2105 -2092 2099 0
-2105 -2093 2100 0
-2105 -2094 2101 0
-2105 -2095 2102 0
-2105 -2096 2103 0
-2105 -2097 2104 0
-2113 0
-2114 2050 0
-2115 2053 0
-2115 2065 0
-2053 -2065 2115 0
-2116 2055 0
-2116 2072 0
-2055 -2072 2116 0
-2117 2057 0
-2117 2079 0
-2057 -2079 2117 0
-2118 2059 0
-2118 2086 0
-2059 -2086 2118 0
-2119 2061 0
-2119 2093 0
-2061 -2093 2119 0
-2120 2063 0
-2120 2100 0
-2063 -2100 2120 0
-2114 -2115 0
-2114 -2116 0
-2114 -2117 0
-2114 -2118 0
-2114 -2119 0
-2114 -2120 0
-2050 2114 2115 2116 2117 2118 2119 2120 0
-2121 2053 0
-2122 2050 0
-2122 2052 0
-2050 -2052 2122 0
-2123 2055 0
-2123 2073 0
-2055 -2073 2123 0
-2124 2057 0
-2124 2080 0
-2057 -2080 2124 0
-2125 2059 0
-2125 2087 0
-2059 -2087 2125 0
-2126 2061 0
-2126 2094 0
-2061 -2094 2126 0
-2127 2063 0
-2127 2101 0
-2063 -2101 2127 0
-2121 -2122 0
-2121 -2123 0
-2121 -2124 0
-2121 -2125 0
-2121 -2126 0
-2121 -2127 0
-2053 2121 2122 2123 2124 2125 2126 2127 0
-2128 2055 0
-2129 2050 0
-2129 2054 0
-2050 -2054 2129 0
-2130 2053 0
-2130 2066 0
-2053 -2066 2130 0
-2131 2057 0
-2131 2081 0
-2057 -2081 2131 0
-2132 2059 0
-2132 2088 0
-2059 -2088 2132 0
-2133 2061 0
-2133 2095 0
-2061 -2095 2133 0
-2134 2063 0
-2134 2102 0
-2063 -2102 2134 0
-2128 -2129 0
-2128 -2130 0
-2128 -2131 0
-2128 -2132 0
-2128 -2133 0
-2128 -2134 0
-2055 2128 2129 2130 2131 2132 2133 2134 0
-2135 2057 0
-2136 2050 0
-2136 2056 0
-2050 -2056 2136 0
-2137 2053 0
-2137 2067 0
-2053 -2067 2137 0
-2138 2055 0
-2138 2074 0
-2055 -2074 2138 0
-2139 2059 0
-2139 2089 0
-2059 -2089 2139 0
-2140 2061 0
-2140 2096 0
-2061 -2096 2140 0
-2141 2063 0
-2141 2103 0
-2063 -2103 2141 0
-2135 -2136 0
-2135 -2137 0
-2135 -2138 0
-2135 -2139 0
-2135 -2140 0
-2135 -2141 0
-2057 2135 2136 2137 2138 2139 2140 2141 0
-2142 2059 0
-2143 2050 0
-2143 2058 0
-2050 -2058 2143 0
-2144 2053 0
-2144 2068 0
-2053 -2068 2144 0
-2145 2055 0
-2145 2075 0
-2055 -2075 2145 0
-2146 2057 0
-2146 2082 0
-2057 -2082 2146 0
-2147 2061 0
-2147 2097 0
-2061 -2097 2147 0
-2148 2063 0
-2148 2104 0
-2063 -2104 2148 0
-2142 -2143 0
-2142 -2144 0
-2142 -2145 0
-2142 -2146 0
-2142 -2147 0
-2142 -2148 0
-2059 2142 2143 2144 2145 2146 2147 2148 0
-2149 2061 0
-2150 2050 0
-2150 2060 0
-2050 -2060 2150 0
-2151 2053 0
-2151 2069 0
-2053 -2069 2151 0
-2152 2055 0
-2152 2076 0
-2055 -2076 2152 0
-2153 2057 0
-2153 2083 0
-2057 -2083 2153 0
-2154 2059 0
-2154 2090 0
-2059 -2090 2154 0
-2155 2063 0
-2155 2105 0
-2063 -2105 2155 0
-2149 -2150 0
-2149 -2151 0
-2149 -2152 0
-2149 -2153 0
-2149 -2154 0
-2149 -2155 0
-2061 2149 2150 2151 2152 2153 2154 2155 0
-2156 2063 0
-2157 2050 0
-2157 2062 0
-2050 -2062 2157 0
-2158 2053 0
-2158 2070 0
-2053 -2070 2158 0
-2159 2055 0
-2159 2077 0
-2055 -2077 2159 0
-2160 2057 0
-2160 2084 0
-2057 -2084 2160 0
-2161 2059 0
-2161 2091 0
-2059 -2091 2161 0
-2162 2061 0
-2162 2098 0
-2061 -2098 2162 0
-2156 -2157 0
-2156 -2158 0
-2156 -2159 0
-2156 -2160 0
-2156 -2161 0
-2156 -2162 0
-2063 2156 2157 2158 2159 2160 2161 2162 0
-2163 2051 0
-2164 2052 0
-2164 2064 0
-2052 -2064 2164 0
-2165 2054 0
-2165 2071 0
-2054 -2071 2165 0
-2166 2056 0
-2166 2078 0
-2056 -2078 2166 0
-2167 2058 0
-2167 2085 0
-2058 -2085 2167 0
-2168 2060 0
-2168 2092 0
-2060 -2092 2168 0
-2169 2062 0
-2169 2099 0
-2062 -2099 2169 0
-2163 -2164 0
-2163 -2165 0
-2163 -2166 0
-2163 -2167 0
-2163 -2168 0
-2163 -2169 0
-2051 2163 2164 2165 2166 2167 2168 2169 0
-2170 0
-2171 2052 0
-2172 2051 0
-2172 2053 0
-2051 -2053 2172 0
-2173 2054 0
-2173 2073 0
-2054 -2073 2173 0
-2174 2056 0
-2174 2080 0
-2056 -2080 2174 0
-2175 2058 0
-2175 2087 0
-2058 -2087 2175 0
-2176 2060 0
-2176 2094 0
-2060 -2094 2176 0
-2177 2062 0
-2177 2101 0
-2062 -2101 2177 0
-2171 -2172 0
-2171 -2173 0
-2171 -2174 0
-2171 -2175 0
-2171 -2176 0
-2171 -2177 0
-2052 2171 2172 2173 2174 2175 2176 2177 0
-2178 2054 0
-2179 2051 0
-2179 2055 0
-2051 -2055 2179 0
-2180 2052 0
-2180 2066 0
-2052 -2066 2180 0
-2181 2056 0
-2181 2081 0
-2056 -2081 2181 0
-2182 2058 0
-2182 2088 0
-2058 -2088 2182 0
-2183 2060 0
-2183 2095 0
-2060 -2095 2183 0
-2184 2062 0
-2184 2102 0
-2062 -2102 2184 0
-2178 -2179 0
-2178 -2180 0
-2178 -2181 0
-2178 -2182 0
-2178 -2183 0
-2178 -2184 0
-2054 2178 2179 2180 2181 2182 2183 2184 0
-2185 2056 0
-2186 2051 0
-2186 2057 0
-2051 -2057 2186 0
-2187 2052 0
-2187 2067 0
-2052 -2067 2187 0
-2188 2054 0
-2188 2074 0
-2054 -2074 2188 0
-2189 2058 0
-2189 2089 0
-2058 -2089 2189 0
-2190 2060 0
-2190 2096 0
-2060 -2096 2190 0
-2191 2062 0
-2191 2103 0
-2062 -2103 2191 0
-2185 -2186 0
-2185 -2187 0
-2185 -2188 0
-2185 -2189 0
-2185 -2190 0
-2185 -2191 0
-2056 2185 2186 2187 2188 2189 2190 2191 0
-2192 2058 0
-2193 2051 0
-2193 2059 0
-2051 -2059 2193 0
-2194 2052 0
-2194 2068 0
-2052 -2068 2194 0
-2195 2054 0
-2195 2075 0
-2054 -2075 2195 0
-2196 2056 0
-2196 2082 0
-2056 -2082 2196 0
-2197 2060 0
-2197 2097 0
-2060 -2097 2197 0
-2198 2062 0
-2198 2104 0
-2062 -2104 2198 0
-2192 -2193 0
-2192 -2194 0
-2192 -2195 0
-2192 -2196 0
-2192 -2197 0
-2192 -2198 0
-2058 2192 2193 2194 2195 2196 2197 2198 0
-2199 2060 0
-2200 2051 0
-2200 2061 0
-2051 -2061 2200 0
-2201 2052 0
-2201 2069 0
-2052 -2069 2201 0
-2202 2054 0
-2202 2076 0
-2054 -2076 2202 0
-2203 2056 0
-2203 2083 0
-2056 -2083 2203 0
-2204 2058 0
-2204 2090 0
-2058 -2090 2204 0
-2205 2062 0
-2205 2105 0
-2062 -2105 2205 0
-2199 -2200 0
-2199 -2201 0
-2199 -2202 0
-2199 -2203 0
-2199 -2204 0
-2199 -2205 0
-2060 2199 2200 2201 2202 2203 2204 2205 0
-2206 2062 0
-2207 2051 0
-2207 2063 0
-2051 -2063 2207 0
-2208 2052 0
-2208 2070 0
-2052 -2070 2208 0
-2209 2054 0
-2209 2077 0
-2054 -2077 2209 0
-2210 2056 0
-2210 2084 0
-2056 -2084 2210 0
-2211 2058 0
-2211 2091 0
-2058 -2091 2211 0
-2212 2060 0
-2212 2098 0
-2060 -2098 2212 0
-2206 -2207 0
-2206 -2208 0
-2206 -2209 0
-2206 -2210 0
-2206 -2211 0
-2206 -2212 0
-2062 2206 2207 2208 2209 2210 2211 2212 0
-2213 2064 0
-2214 2065 0
-2214 2051 0
-2065 -2051 2214 0
-2215 2066 0
-2215 2071 0
-2066 -2071 2215 0
-2216 2067 0
-2216 2078 0
-2067 -2078 2216 0
-2217 2068 0
-2217 2085 0
-2068 -2085 2217 0
-2218 2069 0
-2218 2092 0
-2069 -2092 2218 0
-2219 2070 0
-2219 2099 0
-2070 -2099 2219 0
-2213 -2214 0
-2213 -2215 0
-2213 -2216 0
-2213 -2217 0
-2213 -2218 0
-2213 -2219 0
-2064 2213 2214 2215 2216 2217 2218 2219 0
-2220 2065 0
-2221 2064 0
-2221 2050 0
-2064 -2050 2221 0
-2222 2066 0
-2222 2072 0
-2066 -2072 2222 0
-2223 2067 0
-2223 2079 0
-2067 -2079 2223 0
-2224 2068 0
-2224 2086 0
-2068 -2086 2224 0
-2225 2069 0
-2225 2093 0
-2069 -2093 2225 0
-2226 2070 0
-2226 2100 0
-2070 -2100 2226 0
-2220 -2221 0
-2220 -2222 0
-2220 -2223 0
-2220 -2224 0
-2220 -2225 0
-2220 -2226 0
-2065 2220 2221 2222 2223 2224 2225 2226 0
-2227 0
-2228 2066 0
-2229 2064 0
-2229 2055 0
-2064 -2055 2229 0
-2230 2065 0
-2230 2054 0
-2065 -2054 2230 0
-2231 2067 0
-2231 2081 0
-2067 -2081 2231 0
-2232 2068 0
-2232 2088 0
-2068 -2088 2232 0
-2233 2069 0
-2233 2095 0
-2069 -2095 2233 0
-2234 2070 0
-2234 2102 0
-2070 -2102 2234 0
-2228 -2229 0
-2228 -2230 0
-2228 -2231 0
-2228 -2232 0
-2228 -2233 0
-2228 -2234 0
-2066 2228 2229 2230 2231 2232 2233 2234 0
-2235 2067 0
-2236 2064 0
-2236 2057 0
-2064 -2057 2236 0
-2237 2065 0
-2237 2056 0
-2065 -2056 2237 0
-2238 2066 0
-2238 2074 0
-2066 -2074 2238 0
-2239 2068 0
-2239 2089 0
-2068 -2089 2239 0
-2240 2069 0
-2240 2096 0
-2069 -2096 2240 0
-2241 2070 0
-2241 2103 0
-2070 -2103 2241 0
-2235 -2236 0
-2235 -2237 0
-2235 -2238 0
-2235 -2239 0
-2235 -2240 0
-2235 -2241 0
-2067 2235 2236 2237 2238 2239 2240 2241 0
-2242 2068 0
-2243 2064 0
-2243 2059 0
-2064 -2059 2243 0
-2244 2065 0
-2244 2058 0
-2065 -2058 2244 0
-2245 2066 0
-2245 2075 0
-2066 -2075 2245 0
-2246 2067 0
-2246 2082 0
-2067 -2082 2246 0
-2247 2069 0
-2247 2097 0
-2069 -2097 2247 0
-2248 2070 0
-2248 2104 0
-2070 -2104 2248 0
-2242 -2243 0
-2242 -2244 0
-2242 -2245 0
-2242 -2246 0
-2242 -2247 0
-2242 -2248 0
-2068 2242 2243 2244 2245 2246 2247 2248 0
-2249 2069 0
-2250 2064 0
-2250 2061 0
-2064 -2061 2250 0
-2251 2065 0
-2251 2060 0
-2065 -2060 2251 0
-2252 2066 0
-2252 2076 0
-2066 -2076 2252 0
-2253 2067 0
-2253 2083 0
-2067 -2083 2253 0
-2254 2068 0
-2254 2090 0
-2068 -2090 2254 0
-2255 2070 0
-2255 2105 0
-2070 -2105 2255 0
-2249 -2250 0
-2249 -2251 0
-2249 -2252 0
-2249 -2253 0
-2249 -2254 0
-2249 -2255 0
-2069 2249 2250 2251 2252 2253 2254 2255 0
-2256 2070 0
-2257 2064 0
-2257 2063 0
-2064 -2063 2257 0
-2258 2065 0
-2258 2062 0
-2065 -2062 2258 0
-2259 2066 0
-2259 2077 0
-2066 -2077 2259 0
-2260 2067 0
-2260 2084 0
-2067 -2084 2260 0
-2261 2068 0
-2261 2091 0
-2068 -2091 2261 0
-2262 2069 0
-2262 2098 0
-2069 -2098 2262 0
-2256 -2257 0
-2256 -2258 0
-2256 -2259 0
-2256 -2260 0
-2256 -2261 0
-2256 -2262 0
-2070 2256 2257 2258 2259 2260 2261 2262 0
-2263 2071 0
-2264 2072 0
-2264 2051 0
-2072 -2051 2264 0
-2265 2073 0
-2265 2064 0
-2073 -2064 2265 0
-2266 2074 0
-2266 2078 0
-2074 -2078 2266 0
-2267 2075 0
-2267 2085 0
-2075 -2085 2267 0
-2268 2076 0
-2268 2092 0
-2076 -2092 2268 0
-2269 2077 0
-2269 2099 0
-2077 -2099 2269 0
-2263 -2264 0
-2263 -2265 0
-2263 -2266 0
-2263 -2267 0
-2263 -2268 0
-2263 -2269 0
-2071 2263 2264 2265 2266 2267 2268 2269 0
-2270 2072 0
-2271 2071 0
-2271 2050 0
-2071 -2050 2271 0
-2272 2073 0
-2272 2065 0
-2073 -2065 2272 0
-2273 2074 0
-2273 2079 0
-2074 -2079 2273 0
-2274 2075 0
-2274 2086 0
-2075 -2086 2274 0
-2275 2076 0
-2275 2093 0
-2076 -2093 2275 0
-2276 2077 0
-2276 2100 0
-2077 -2100 2276 0
-2270 -2271 0
-2270 -2272 0
-2270 -2273 0
-2270 -2274 0
-2270 -2275 0
-2270 -2276 0
-2072 2270 2271 2272 2273 2274 2275 2276 0
-2277 2073 0
-2278 2071 0
-2278 2053 0
-2071 -2053 2278 0
-2279 2072 0
-2279 2052 0
-2072 -2052 2279 0
-2280 2074 0
-2280 2080 0
-2074 -2080 2280 0
-2281 2075 0
-2281 2087 0
-2075 -2087 2281 0
-2282 2076 0
-2282 2094 0
-2076 -2094 2282 0
-2283 2077 0
-2283 2101 0
-2077 -2101 2283 0
-2277 -2278 0
-2277 -2279 0
-2277 -2280 0
-2277 -2281 0
-2277 -2282 0
-2277 -2283 0
-2073 2277 2278 2279 2280 2281 2282 2283 0
-2284 0
-2285 2074 0
-2286 2071 0
-2286 2057 0
-2071 -2057 2286 0
-2287 2072 0
-2287 2056 0
-2072 -2056 2287 0
-2288 2073 0
-2288 2067 0
-2073 -2067 2288 0
-2289 2075 0
-2289 2089 0
-2075 -2089 2289 0
-2290 2076 0
-2290 2096 0
-2076 -2096 2290 0
-2291 2077 0
-2291 2103 0
-2077 -2103 2291 0
-2285 -2286 0
-2285 -2287 0
-2285 -2288 0
-2285 -2289 0
-2285 -2290 0
-2285 -2291 0
-2074 2285 2286 2287 2288 2289 2290 2291 0
-2292 2075 0
-2293 2071 0
-2293 2059 0
-2071 -2059 2293 0
-2294 2072 0
-2294 2058 0
-2072 -2058 2294 0
-2295 2073 0
-2295 2068 0
-2073 -2068 2295 0
-2296 2074 0
-2296 2082 0
-2074 -2082 2296 0
-2297 2076 0
-2297 2097 0
-2076 -2097 2297 0
-2298 2077 0
-2298 2104 0
-2077 -2104 2298 0
-2292 -2293 0
-2292 -2294 0
-2292 -2295 0
-2292 -2296 0
-2292 -2297 0
-2292 -2298 0
-2075 2292 2293 2294 2295 2296 2297 2298 0
-2299 2076 0
-2300 2071 0
-2300 2061 0
-2071 -2061 2300 0
-2301 2072 0
-2301 2060 0
-2072 -2060 2301 0
-2302 2073 0
-2302 2069 0
-2073 -2069 2302 0
-2303 2074 0
-2303 2083 0
-2074 -2083 2303 0
-2304 2075 0
-2304 2090 0
-2075 -2090 2304 0
-2305 2077 0
-2305 2105 0
-2077 -2105 2305 0
-2299 -2300 0
-2299 -2301 0
-2299 -2302 0
-2299 -2303 0
-2299 -2304 0
-2299 -2305 0
-2076 2299 2300 2301 2302 2303 2304 2305 0
-2306 2077 0
-2307 2071 0
-2307 2063 0
-2071 -2063 2307 0
-2308 2072 0
-2308 2062 0
-2072 -2062 2308 0
-2309 2073 0
-2309 2070 0
-2073 -2070 2309 0
-2310 2074 0
-2310 2084 0
-2074 -2084 2310 0
-2311 2075 0
-2311 2091 0
-2075 -2091 2311 0
-2312 2076 0
-2312 2098 0
-2076 -2098 2312 0
-2306 -2307 0
-2306 -2308 0
-2306 -2309 0
-2306 -2310 0
-2306 -2311 0
-2306 -2312 0
-2077 2306 2307 2308 2309 2310 2311 2312 0
-2313 2078 0
-2314 2079 0
-2314 2051 0
-2079 -2051 2314 0
-2315 2080 0
-2315 2064 0
-2080 -2064 2315 0
-2316 2081 0
-2316 2071 0
-2081 -2071 2316 0
-2317 2082 0
-2317 2085 0
-2082 -2085 2317 0
-2318 2083 0
-2318 2092 0
-2083 -2092 2318 0
-2319 2084 0
-2319 2099 0
-2084 -2099 2319 0
-2313 -2314 0
-2313 -2315 0
-2313 -2316 0
-2313 -2317 0
-2313 -2318 0
-2313 -2319 0
-2078 2313 2314 2315 2316 2317 2318 2319 0
-2320 2079 0
-2321 2078 0
-2321 2050 0
-2078 -2050 2321 0
-2322 2080 0
-2322 2065 0
-2080 -2065 2322 0
-2323 2081 0
-2323 2072 0
-2081 -2072 2323 0
-2324 2082 0
-2324 2086 0
-2082 -2086 2324 0
-2325 2083 0
-2325 2093 0
-2083 -2093 2325 0
-2326 2084 0
-2326 2100 0
-2084 -2100 2326 0
-2320 -2321 0
-2320 -2322 0
-2320 -2323 0
-2320 -2324 0
-2320 -2325 0
-2320 -2326 0
-2079 2320 2321 2322 2323 2324 2325 2326 0
-2327 2080 0
-2328 2078 0
-2328 2053 0
-2078 -2053 2328 0
-2329 2079 0
-2329 2052 0
-2079 -2052 2329 0
-2330 2081 0
-2330 2073 0
-2081 -2073 2330 0
-2331 2082 0
-2331 2087 0
-2082 -2087 2331 0
-2332 2083 0
-2332 2094 0
-2083 -2094 2332 0
-2333 2084 0
-2333 2101 0
-2084 -2101 2333 0
-2327 -2328 0
-2327 -2329 0
-2327 -2330 0
-2327 -2331 0
-2327 -2332 0
-2327 -2333 0
-2080 2327 2328 2329 2330 2331 2332 2333 0
-2334 2081 0
-2335 2078 0
-2335 2055 0
-2078 -2055 2335 0
-2336 2079 0
-2336 2054 0
-2079 -2054 2336 0
-2337 2080 0
-2337 2066 0
-2080 -2066 2337 0
-2338 2082 0
-2338 2088 0
-2082 -2088 2338 0
-2339 2083 0
-2339 2095 0
-2083 -2095 2339 0
-2340 2084 0
-2340 2102 0
-2084 -2102 2340 0
-2334 -2335 0
-2334 -2336 0
-2334 -2337 0
-2334 -2338 0
-2334 -2339 0
-2334 -2340 0
-2081 2334 2335 2336 2337 2338 2339 2340 0
-2341 0
-2342 2082 0
-2343 2078 0
-2343 2059 0
-2078 -2059 2343 0
-2344 2079 0
-2344 2058 0
-2079 -2058 2344 0
-2345 2080 0
-2345 2068 0
-2080 -2068 2345 0
-2346 2081 0
-2346 2075 0
-2081 -2075 2346 0
-2347 2083 0
-2347 2097 0
-2083 -2097 2347 0
-2348 2084 0
-2348 2104 0
-2084 -2104 2348 0
-2342 -2343 0
-2342 -2344 0
-2342 -2345 0
-2342 -2346 0
-2342 -2347 0
-2342 -2348 0
-2082 2342 2343 2344 2345 2346 2347 2348 0
-2349 2083 0
-2350 2078 0
-2350 2061 0
-2078 -2061 2350 0
-2351 2079 0
-2351 2060 0
-2079 -2060 2351 0
-2352 2080 0
-2352 2069 0
-2080 -2069 2352 0
-2353 2081 0
-2353 2076 0
-2081 -2076 2353 0
-2354 2082 0
-2354 2090 0
-2082 -2090 2354 0
-2355 2084 0
-2355 2105 0
-2084 -2105 2355 0
-2349 -2350 0
-2349 -2351 0
-2349 -2352 0
-2349 -2353 0
-2349 -2354 0
-2349 -2355 0
-2083 2349 2350 2351 2352 2353 2354 2355 0
-2356 2084 0
-2357 2078 0
-2357 2063 0
-2078 -2063 2357 0
-2358 2079 0
-2358 2062 0
-2079 -2062 2358 0
-2359 2080 0
-2359 2070 0
-2080 -2070 2359 0
-2360 2081 0
-2360 2077 0
-2081 -2077 2360 0
-2361 2082 0
-2361 2091 0
-2082 -2091 2361 0
-2362 2083 0
-2362 2098 0
-2083 -2098 2362 0
-2356 -2357 0
-2356 -2358 0
-2356 -2359 0
-2356 -2360 0
-2356 -2361 0
-2356 -2362 0
-2084 2356 2357 2358 2359 2360 2361 2362 0
-2363 2085 0
-2364 2086 0
-2364 2051 0
-2086 -2051 2364 0
-2365 2087 0
-2365 2064 0
-2087 -2064 2365 0
-2366 2088 0
-2366 2071 0
-2088 -2071 2366 0
-2367 2089 0
-2367 2078 0
-2089 -2078 2367 0
-2368 2090 0
-2368 2092 0
-2090 -2092 2368 0
-2369 2091 0
-2369 2099 0
-2091 -2099 2369 0
-2363 -2364 0
-2363 -2365 0
-2363 -2366 0
-2363 -2367 0
-2363 -2368 0
-2363 -2369 0
-2085 2363 2364 2365 2366 2367 2368 2369 0
-2370 2086 0
-2371 2085 0
-2371 2050 0
-2085 -2050 2371 0
-2372 2087 0
-2372 2065 0
-2087 -2065 2372 0
-2373 2088 0
-2373 2072 0
-2088 -2072 2373 0
-2374 2089 0
-2374 2079 0
-2089 -2079 2374 0
-2375 2090 0
-2375 2093 0
-2090 -2093 2375 0
-2376 2091 0
-2376 2100 0
-2091 -2100 2376 0
-2370 -2371 0
-2370 -2372 0
-2370 -2373 0
-2370 -2374 0
-2370 -2375 0
-2370 -2376 0
-2086 2370 2371 2372 2373 2374 2375 2376 0
-2377 2087 0
-2378 2085 0
-2378 2053 0
-2085 -2053 2378 0
-2379 2086 0
-2379 2052 0
-2086 -2052 2379 0
-2380 2088 0
-2380 2073 0
-2088 -2073 2380 0
-2381 2089 0
-2381 2080 0
-2089 -2080 2381 0
-2382 2090 0
-2382 2094 0
-2090 -2094 2382 0
-2383 2091 0
-2383 2101 0
-2091 -2101 2383 0
-2377 -2378 0
-2377 -2379 0
-2377 -2380 0
-2377 -2381 0
-2377 -2382 0
-2377 -2383 0
-2087 2377 2378 2379 2380 2381 2382 2383 0
-2384 2088 0
-2385 2085 0
-2385 2055 0
-2085 -2055 2385 0
-2386 2086 0
-2386 2054 0
-2086 -2054 2386 0
-2387 2087 0
-2387 2066 0
-2087 -2066 2387 0
-2388 2089 0
-2388 2081 0
-2089 -2081 2388 0
-2389 2090 0
-2389 2095 0
-2090 -2095 2389 0
-2390 2091 0
-2390 2102 0
-2091 -2102 2390 0
-2384 -2385 0
-2384 -2386 0
-2384 -2387 0
-2384 -2388 0
-2384 -2389 0
-2384 -2390 0
-2088 2384 2385 2386 2387 2388 2389 2390 0
-2391 2089 0
-2392 2085 0
-2392 2057 0
-2085 -2057 2392 0
-2393 2086 0
-2393 2056 0
-2086 -2056 2393 0
-2394 2087 0
-2394 2067 0
-2087 -2067 2394 0
-2395 2088 0
-2395 2074 0
-2088 -2074 2395 0
-2396 2090 0
-2396 2096 0
-2090 -2096 2396 0
-2397 2091 0
-2397 2103 0
-2091 -2103 2397 0
-2391 -2392 0
-2391 -2393 0
-2391 -2394 0
-2391 -2395 0
-2391 -2396 0
-2391 -2397 0
-2089 2391 2392 2393 2394 2395 2396 2397 0
-2398 0
-2399 2090 0
-2400 2085 0
-2400 2061 0
-2085 -2061 2400 0
-2401 2086 0
-2401 2060 0
-2086 -2060 2401 0
-2402 2087 0
-2402 2069 0
-2087 -2069 2402 0
-2403 2088 0
-2403 2076 0
-2088 -2076 2403 0
-2404 2089 0
-2404 2083 0
-2089 -2083 2404 0
-2405 2091 0
-2405 2105 0
-2091 -2105 2405 0
-2399 -2400 0
-2399 -2401 0
-2399 -2402 0
-2399 -2403 0
-2399 -2404 0
-2399 -2405 0
-2090 2399 2400 2401 2402 2403 2404 2405 0
-2406 2091 0
-2407 2085 0
-2407 2063 0
-2085 -2063 2407 0
-2408 2086 0
-2408 2062 0
-2086 -2062 2408 0
-2409 2087 0
-2409 2070 0
-2087 -2070 2409 0
-2410 2088 0
-2410 2077 0
-2088 -2077 2410 0
-2411 2089 0
-2411 2084 0
-2089 -2084 2411 0
-2412 2090 0
-2412 2098 0
-2090 -2098 2412 0
-2406 -2407 0
-2406 -2408 0
-2406 -2409 0
-2406 -2410 0
-2406 -2411 0
-2406 -2412 0
-2091 2406 2407 2408 2409 2410 2411 2412 0
-2413 2092 0
-2414 2093 0
-2414 2051 0
-2093 -2051 2414 0
-2415 2094 0
-2415 2064 0
-2094 -2064 2415 0
-2416 2095 0
-2416 2071 0
-2095 -2071 2416 0
-2417 2096 0
-2417 2078 0
-2096 -2078 2417 0
-2418 2097 0
-2418 2085 0
-2097 -2085 2418 0
-2419 2098 0
-2419 2099 0
-2098 -2099 2419 0
-2413 -2414 0
-2413 -2415 0
-2413 -2416 0
-2413 -2417 0
-2413 -2418 0
-2413 -2419 0
-2092 2413 2414 2415 2416 2417 2418 2419 0
-2420 2093 0
-2421 2092 0
-2421 2050 0
-2092 -2050 2421 0
-2422 2094 0
-2422 2065 0
-2094 -2065 2422 0
-2423 2095 0
-2423 2072 0
-2095 -2072 2423 0
-2424 2096 0
-2424 2079 0
-2096 -2079 2424 0
-2425 2097 0
-2425 2086 0
-2097 -2086 2425 0
-2426 2098 0
-2426 2100 0
-2098 -2100 2426 0
-2420 -2421 0
-2420 -2422 0
-2420 -2423 0
-2420 -2424 0
-2420 -2425 0
-2420 -2426 0
-2093 2420 2421 2422 2423 2424 2425 2426 0
-2427 2094 0
-2428 2092 0
-2428 2053 0
-2092 -2053 2428 0
-2429 2093 0
-2429 2052 0
-2093 -2052 2429 0
-2430 2095 0
-2430 2073 0
-2095 -2073 2430 0
-2431 2096 0
-2431 2080 0
-2096 -2080 2431 0
-2432 2097 0
-2432 2087 0
-2097 -2087 2432 0
-2433 2098 0
-2433 2101 0
-2098 -2101 2433 0
-2427 -2428 0
-2427 -2429 0
-2427 -2430 0
-2427 -2431 0
-2427 -2432 0
-2427 -2433 0
-2094 2427 2428 2429 2430 2431 2432 2433 0
-2434 2095 0
-2435 2092 0
-2435 2055 0
-2092 -2055 2435 0
-2436 2093 0
-2436 2054 0
-2093 -2054 2436 0
-2437 2094 0
-2437 2066 0
-2094 -2066 2437 0
-2438 2096 0
-2438 2081 0
-2096 -2081 2438 0
-2439 2097 0
-2439 2088 0
-2097 -2088 2439 0
-2440 2098 0
-2440 2102 0
-2098 -2102 2440 0
-2434 -2435 0
-2434 -2436 0
-2434 -2437 0
-2434 -2438 0
-2434 -2439 0
-2434 -2440 0
-2095 2434 2435 2436 2437 2438 2439 2440 0
-2441 2096 0
-2442 2092 0
-2442 2057 0
-2092 -2057 2442 0
-2443 2093 0
-2443 2056 0
-2093 -2056 2443 0
-2444 2094 0
-2444 2067 0
-2094 -2067 2444 0
-2445 2095 0
-2445 2074 0
-2095 -2074 2445 0
-2446 2097 0
-2446 2089 0
-2097 -2089 2446 0
-2447 2098 0
-2447 2103 0
-2098 -2103 2447 0
-2441 -2442 0
-2441 -2443 0
-2441 -2444 0
-2441 -2445 0
-2441 -2446 0
-2441 -2447 0
-2096 2441 2442 2443 2444 2445 2446 2447 0
-2448 2097 0
-2449 2092 0
-2449 2059 0
-2092 -2059 2449 0
-2450 2093 0
-2450 2058 0
-2093 -2058 2450 0
-2451 2094 0
-2451 2068 0
-2094 -2068 2451 0
-2452 2095 0
-2452 2075 0
-2095 -2075 2452 0
-2453 2096 0
-2453 2082 0
-2096 -2082 2453 0
-2454 2098 0
-2454 2104 0
-2098 -2104 2454 0
-2448 -2449 0
-2448 -2450 0
-2448 -2451 0
-2448 -2452 0
-2448 -2453 0
-2448 -2454 0
-2097 2448 2449 2450 2451 2452 2453 2454 0
-2455 0
-2456 2098 0
-2457 2092 0
-2457 2063 0
-2092 -2063 2457 0
-2458 2093 0
-2458 2062 0
-2093 -2062 2458 0
-2459 2094 0
-2459 2070 0
-2094 -2070 2459 0
-2460 2095 0
-2460 2077 0
-2095 -2077 2460 0
-2461 2096 0
-2461 2084 0
-2096 -2084 2461 0
-2462 2097 0
-2462 2091 0
-2097 -2091 2462 0
-2456 -2457 0
-2456 -2458 0
-2456 -2459 0
-2456 -2460 0
-2456 -2461 0
-2456 -2462 0
-2098 2456 2457 2458 2459 2460 2461 2462 0
-2463 2099 0
-2464 2100 0
-2464 2051 0
-2100 -2051 2464 0
-2465 2101 0
-2465 2064 0
-2101 -2064 2465 0
-2466 2102 0
-2466 2071 0
-2102 -2071 2466 0
-2467 2103 0
-2467 2078 0
-2103 -2078 2467 0
-2468 2104 0
-2468 2085 0
-2104 -2085 2468 0
-2469 2105 0
-2469 2092 0
-2105 -2092 2469 0
-2463 -2464 0
-2463 -2465 0
-2463 -2466 0
-2463 -2467 0
-2463 -2468 0
-2463 -2469 0
-2099 2463 2464 2465 2466 2467 2468 2469 0
-2470 2100 0
-2471 2099 0
-2471 2050 0
-2099 -2050 2471 0
-2472 2101 0
-2472 2065 0
-2101 -2065 2472 0
-2473 2102 0
-2473 2072 0
-2102 -2072 2473 0
-2474 2103 0
-2474 2079 0
-2103 -2079 2474 0
-2475 2104 0
-2475 2086 0
-2104 -2086 2475 0
-2476 2105 0
-2476 2093 0
-2105 -2093 2476 0
-2470 -2471 0
-2470 -2472 0
-2470 -2473 0
-2470 -2474 0
-2470 -2475 0
-2470 -2476 0
-2100 2470 2471 2472 2473 2474 2475 2476 0
-2477 2101 0
-2478 2099 0
-2478 2053 0
-2099 -2053 2478 0
-2479 2100 0
-2479 2052 0
-2100 -2052 2479 0
-2480 2102 0
-2480 2073 0
-2102 -2073 2480 0
-2481 2103 0
-2481 2080 0
-2103 -2080 2481 0
-2482 2104 0
-2482 2087 0
-2104 -2087 2482 0
-2483 2105 0
-2483 2094 0
-2105 -2094 2483 0
-2477 -2478 0
-2477 -2479 0
-2477 -2480 0
-2477 -2481 0
-2477 -2482 0
-2477 -2483 0
-2101 2477 2478 2479 2480 2481 2482 2483 0
-2484 2102 0
-2485 2099 0
-2485 2055 0
-2099 -2055 2485 0
-2486 2100 0
-2486 2054 0
-2100 -2054 2486 0
-2487 2101 0
-2487 2066 0
-2101 -2066 2487 0
-2488 2103 0
-2488 2081 0
-2103 -2081 2488 0
-2489 2104 0
-2489 2088 0
-2104 -2088 2489 0
-2490 2105 0
-2490 2095 0
-2105 -2095 2490 0
-2484 -2485 0
-2484 -2486 0
-2484 -2487 0
-2484 -2488 0
-2484 -2489 0
-2484 -2490 0
-2102 2484 2485 2486 2487 2488 2489 2490 0
-2491 2103 0
-2492 2099 0
-2492 2057 0
-2099 -2057 2492 0
-2493 2100 0
-2493 2056 0
-2100 -2056 2493 0
-2494 2101 0
-2494 2067 0
-2101 -2067 2494 0
-2495 2102 0
-2495 2074 0
-2102 -2074 2495 0
-2496 2104 0
-2496 2089 0
-2104 -2089 2496 0
-2497 2105 0
-2497 2096 0
-2105 -2096 2497 0
-2491 -2492 0
-2491 -2493 0
-2491 -2494 0
-2491 -2495 0
-2491 -2496 0
-2491 -2497 0
-2103 2491 2492 2493 2494 2495 2496 2497 0
-2498 2104 0
-2499 2099 0
-2499 2059 0
-2099 -2059 2499 0
-2500 2100 0
-2500 2058 0
-2100 -2058 2500 0
-2501 2101 0
-2501 2068 0
-2101 -2068 2501 0
-2502 2102 0
-2502 2075 0
-2102 -2075 2502 0
-2503 2103 0
-2503 2082 0
-2103 -2082 2503 0
-2504 2105 0
-2504 2097 0
-2105 -2097 2504 0
-2498 -2499 0
-2498 -2500 0
-2498 -2501 0
-2498 -2502 0
-2498 -2503 0
-2498 -2504 0
-2104 2498 2499 2500 2501 2502 2503 2504 0
-2505 2105 0
-2506 2099 0
-2506 2061 0
-2099 -2061 2506 0
-2507 2100 0
-2507 2060 0
-2100 -2060 2507 0
-2508 2101 0
-2508 2069 0
-2101 -2069 2508 0
-2509 2102 0
-2509 2076 0
-2102 -2076 2509 0
-2510 2103 0
-2510 2083 0
-2103 -2083 2510 0
-2511 2104 0
-2511 2090 0
-2104 -2090 2511 0
-2505 -2506 0
-2505 -2507 0
-2505 -2508 0
-2505 -2509 0
-2505 -2510 0
-2505 -2511 0
-2105 2505 2506 2507 2508 2509 2510 2511 0
-2512 0
-2513 2049 0
-2513 2050 0
-2513 2053 0
-2513 2055 0
-2513 2057 0
-2513 2059 0
-2513 2061 0
-2513 2063 0
-2049 -2050 -2053 -2055 -2057 -2059 -2061 -2063 2513 0
-2514 2049 0
-2514 2051 0
-2514 2064 0
-2514 2071 0
-2514 2078 0
-2514 2085 0
-2514 2092 0
-2514 2099 0
-2049 -2051 -2064 -2071 -2078 -2085 -2092 -2099 2514 0
-2515 2051 0
-2515 2106 0
-2515 2052 0
-2515 2054 0
-2515 2056 0
-2515 2058 0
-2515 2060 0
-2515 2062 0
-2051 -2106 -2052 -2054 -2056 -2058 -2060 -2062 2515 0
-2516 2050 0
-2516 2106 0
-2516 2065 0
-2516 2072 0
-2516 2079 0
-2516 2086 0
-2516 2093 0
-2516 2100 0
-2050 -2106 -2065 -2072 -2079 -2086 -2093 -2100 2516 0
-2517 2064 0
-2517 2065 0
-2517 2107 0
-2517 2066 0
-2517 2067 0
-2517 2068 0
-2517 2069 0
-2517 2070 0
-2064 -2065 -2107 -2066 -2067 -2068 -2069 -2070 2517 0
-2518 2053 0
-2518 2052 0
-2518 2107 0
-2518 2073 0
-2518 2080 0
-2518 2087 0
-2518 2094 0
-2518 2101 0
-2053 -2052 -2107 -2073 -2080 -2087 -2094 -2101 2518 0
-2519 2071 0
-2519 2072 0
-2519 2073 0
-2519 2108 0
-2519 2074 0
-2519 2075 0
-2519 2076 0
-2519 2077 0
-2071 -2072 -2073 -2108 -2074 -2075 -2076 -2077 2519 0
-2520 2055 0
-2520 2054 0
-2520 2066 0
-2520 2108 0
-2520 2081 0
-2520 2088 0
-2520 2095 0
-2520 2102 0
-2055 -2054 -2066 -2108 -2081 -2088 -2095 -2102 2520 0
-2521 2078 0
-2521 2079 0
-2521 2080 0
-2521 2081 0
-2521 2109 0
-2521 2082 0
-2521 2083 0
-2521 2084 0
-2078 -2079 -2080 -2081 -2109 -2082 -2083 -2084 2521 0
-2522 2057 0
-2522 2056 0
-2522 2067 0
-2522 2074 0
-2522 2109 0
-2522 2089 0
-2522 2096 0
-2522 2103 0
-2057 -2056 -2067 -2074 -2109 -2089 -2096 -2103 2522 0
-2523 2085 0
-2523 2086 0
-2523 2087 0
-2523 2088 0
-2523 2089 0
-2523 2110 0
-2523 2090 0
-2523 2091 0
-2085 -2086 -2087 -2088 -2089 -2110 -2090 -2091 2523 0
-2524 2059 0
-2524 2058 0
-2524 2068 0
-2524 2075 0
-2524 2082 0
-2524 2110 0
-2524 2097 0
-2524 2104 0
-2059 -2058 -2068 -2075 -2082 -2110 -2097 -2104 2524 0
-2525 2092 0
-2525 2093 0
-2525 2094 0
-2525 2095 0
-2525 2096 0
-2525 2097 0
-2525 2111 0
-2525 2098 0
-2092 -2093 -2094 -2095 -2096 -2097 -2111 -2098 2525 0
-2526 2061 0
-2526 2060 0
-2526 2069 0
-2526 2076 0
-2526 2083 0
-2526 2090 0
-2526 2111 0
-2526 2105 0
-2061 -2060 -2069 -2076 -2083 -2090 -2111 -2105 2526 0
-2527 2099 0
-2527 2100 0
-2527 2101 0
-2527 2102 0
-2527 2103 0
-2527 2104 0
-2527 2105 0
-2527 2112 0
-2099 -2100 -2101 -2102 -2103 -2104 -2105 -2112 2527 0
-2528 2063 0
-2528 2062 0
-2528 2070 0
-2528 2077 0
-2528 2084 0
-2528 2091 0
-2528 2098 0
-2528 2112 0
-2063 -2062 -2070 -2077 -2084 -2091 -2098 -2112 2528 0
-2113 9 0
-2514 -2513 9 0
-9 2113 2514 0
-9 2113 2513 0
-2114 11 0
-2514 -2515 11 0
-11 2114 2514 0
-11 2114 2515 0
-2121 13 0
-2514 -2517 13 0
-13 2121 2514 0
-13 2121 2517 0
-2128 15 0
-2514 -2519 15 0
-15 2128 2514 0
-15 2128 2519 0
-2135 17 0
-2514 -2521 17 0
-17 2135 2514 0
-17 2135 2521 0
-2142 19 0
-2514 -2523 19 0
-19 2142 2514 0
-19 2142 2523 0
-2149 21 0
-2514 -2525 21 0
-21 2149 2514 0
-21 2149 2525 0
-2156 23 0
-2514 -2527 23 0
-23 2156 2514 0
-23 2156 2527 0
-2163 25 0
-2516 -2513 25 0
-25 2163 2516 0
-25 2163 2513 0
-2170 26 0
-2516 -2515 26 0
-26 2170 2516 0
-26 2170 2515 0
-2171 28 0
-2516 -2517 28 0
-28 2171 2516 0
-28 2171 2517 0
-2178 30 0
-2516 -2519 30 0
-30 2178 2516 0
-30 2178 2519 0
-2185 32 0
-2516 -2521 32 0
-32 2185 2516 0
-32 2185 2521 0
-2192 34 0
-2516 -2523 34 0
-34 2192 2516 0
-34 2192 2523 0
-2199 36 0
-2516 -2525 36 0
-36 2199 2516 0
-36 2199 2525 0
-2206 38 0
-2516 -2527 38 0
-38 2206 2516 0
-38 2206 2527 0
-2213 40 0
-2518 -2513 40 0
-40 2213 2518 0
-40 2213 2513 0
-2220 42 0
-2518 -2515 42 0
-42 2220 2518 0
-42 2220 2515 0
-2227 43 0
-2518 -2517 43 0
-43 2227 2518 0
-43 2227 2517 0
-2228 45 0
-2518 -2519 45 0
-45 2228 2518 0
-45 2228 2519 0
-2235 47 0
-2518 -2521 47 0
-47 2235 2518 0
-47 2235 2521 0
-2242 49 0
-2518 -2523 49 0
-49 2242 2518 0
-49 2242 2523 0
-2249 51 0
-2518 -2525 51 0
-51 2249 2518 0
-51 2249 2525 0
-2256 53 0
-2518 -2527 53 0
-53 2256 2518 0
-53 2256 2527 0
-2263 55 0
-2520 -2513 55 0
-55 2263 2520 0
-55 2263 2513 0
-2270 57 0
-2520 -2515 57 0
-57 2270 2520 0
-57 2270 2515 0
-2277 59 0
-2520 -2517 59 0
-59 2277 2520 0
-59 2277 2517 0
-2284 60 0
-2520 -2519 60 0
-60 2284 2520 0
-60 2284 2519 0
-2285 62 0
-2520 -2521 62 0
-62 2285 2520 0
-62 2285 2521 0
-2292 64 0
-2520 -2523 64 0
-64 2292 2520 0
-64 2292 2523 0
-2299 66 0
-2520 -2525 66 0
-66 2299 2520 0
-66 2299 2525 0
-2306 68 0
-2520 -2527 68 0
-68 2306 2520 0
-68 2306 2527 0
-2313 70 0
-2522 -2513 70 0
-70 2313 2522 0
-70 2313 2513 0
-2320 72 0
-2522 -2515 72 0
-72 2320 2522 0
-72 2320 2515 0
-2327 74 0
-2522 -2517 74 0
-74 2327 2522 0
-74 2327 2517 0
-2334 76 0
-2522 -2519 76 0
-76 2334 2522 0
-76 2334 2519 0
-2341 77 0
-2522 -2521 77 0
-77 2341 2522 0
-77 2341 2521 0
-2342 79 0
-2522 -2523 79 0
-79 2342 2522 0
-79 2342 2523 0
-2349 81 0
-2522 -2525 81 0
-81 2349 2522 0
-81 2349 2525 0
-2356 83 0
-2522 -2527 83 0
-83 2356 2522 0
-83 2356 2527 0
-2363 85 0
-2524 -2513 85 0
-85 2363 2524 0
-85 2363 2513 0
-2370 87 0
-2524 -2515 87 0
-87 2370 2524 0
-87 2370 2515 0
-2377 89 0
-2524 -2517 89 0
-89 2377 2524 0
-89 2377 2517 0
-2384 91 0
-2524 -2519 91 0
-91 2384 2524 0
-91 2384 2519 0
-2391 93 0
-2524 -2521 93 0
-93 2391 2524 0
-93 2391 2521 0
-2398 94 0
-2524 -2523 94 0
-94 2398 2524 0
-94 2398 2523 0
-2399 96 0
-2524 -2525 96 0
-96 2399 2524 0
-96 2399 2525 0
-2406 98 0
-2524 -2527 98 0
-98 2406 2524 0
-98 2406 2527 0
-2413 100 0
-2526 -2513 100 0
-100 2413 2526 0
-100 2413 2513 0
-2420 102 0
-2526 -2515 102 0
-102 2420 2526 0
-102 2420 2515 0
-2427 104 0
-2526 -2517 104 0
-104 2427 2526 0
-104 2427 2517 0
-2434 106 0
-2526 -2519 106 0
-106 2434 2526 0
-106 2434 2519 0
-2441 108 0
-2526 -2521 108 0
-108 2441 2526 0
-108 2441 2521 0
-2448 110 0
-2526 -2523 110 0
-110 2448 2526 0
-110 2448 2523 0
-2455 111 0
-2526 -2525 111 0
-111 2455 2526 0
-111 2455 2525 0
-2456 113 0
-2526 -2527 113 0
-113 2456 2526 0
-113 2456 2527 0
-2463 115 0
-2528 -2513 115 0
-115 2463 2528 0
-115 2463 2513 0
-2470 117 0
-2528 -2515 117 0
-117 2470 2528 0
-117 2470 2515 0
-2477 119 0
-2528 -2517 119 0
-119 2477 2528 0
-119 2477 2517 0
-2484 121 0
-2528 -2519 121 0
-121 2484 2528 0
-121 2484 2519 0
-2491 123 0
-2528 -2521 123 0
-123 2491 2528 0
-123 2491 2521 0
-2498 125 0
-2528 -2523 125 0
-125 2498 2528 0
-125 2498 2523 0
-2505 127 0
-2528 -2525 127 0
-127 2505 2528 0
-127 2505 2525 0
-2512 128 0
-2528 -2527 128 0
-128 2512 2528 0
-128 2512 2527 0
