p cnf 1610 6640
1 2 -3 0
4 5 -6 0
7 8 -9 0
10 11 -12 0
13 14 -15 0
16 17 -18 0
19 20 -21 0
22 23 -24 0
25 26 -27 0
28 29 -30 0
3 -1 0
6 -4 0
9 -7 0
12 -10 0
15 -13 0
18 -16 0
21 -19 0
24 -22 0
27 -25 0
30 -28 0
3 -2 0
6 -5 0
9 -8 0
12 -11 0
15 -14 0
18 -17 0
21 -20 0
24 -23 0
27 -26 0
30 -29 0
-1 -2 -31 0
-4 -5 -32 0
-7 -8 -33 0
-10 -11 -34 0
-13 -14 -35 0
-16 -17 -36 0
-19 -20 -37 0
-22 -23 -38 0
-25 -26 -39 0
-28 -29 -40 0
31 1 0
32 4 0
33 7 0
34 10 0
35 13 0
36 16 0
37 19 0
38 22 0
39 25 0
40 28 0
31 2 0
32 5 0
33 8 0
34 11 0
35 14 0
36 17 0
37 20 0
38 23 0
39 26 0
40 29 0
-41 1 42 0
-43 4 44 0
-45 7 46 0
-47 10 48 0
-49 13 50 0
-51 16 52 0
-53 19 54 0
-55 22 56 0
-57 25 58 0
-59 28 60 0
-42 41 0
-44 43 0
-46 45 0
-48 47 0
-50 49 0
-52 51 0
-54 53 0
-56 55 0
-58 57 0
-60 59 0
-42 -1 0
-44 -4 0
-46 -7 0
-48 -10 0
-50 -13 0
-52 -16 0
-54 -19 0
-56 -22 0
-58 -25 0
-60 -28 0
61 42 -62 0
63 44 -64 0
65 46 -66 0
67 48 -68 0
69 50 -70 0
71 52 -72 0
73 54 -74 0
75 56 -76 0
77 58 -78 0
79 60 -80 0
62 -61 0
64 -63 0
66 -65 0
68 -67 0
70 -69 0
72 -71 0
74 -73 0
76 -75 0
78 -77 0
80 -79 0
62 -42 0
64 -44 0
66 -46 0
68 -48 0
70 -50 0
72 -52 0
74 -54 0
76 -56 0
78 -58 0
80 -60 0
1 -61 -41 -81 0
4 -63 -43 -82 0
7 -65 -45 -83 0
10 -67 -47 -84 0
13 -69 -49 -85 0
16 -71 -51 -86 0
19 -73 -53 -87 0
22 -75 -55 -88 0
25 -77 -57 -89 0
28 -79 -59 -90 0
81 -1 0
82 -4 0
83 -7 0
84 -10 0
85 -13 0
86 -16 0
87 -19 0
88 -22 0
89 -25 0
90 -28 0
81 61 0
82 63 0
83 65 0
84 67 0
85 69 0
86 71 0
87 73 0
88 75 0
89 77 0
90 79 0
81 41 0
82 43 0
83 45 0
84 47 0
85 49 0
86 51 0
87 53 0
88 55 0
89 57 0
90 59 0
1 -91 -2 -92 0
4 -93 -5 -94 0
7 -95 -8 -96 0
10 -97 -11 -98 0
13 -99 -14 -100 0
16 -101 -17 -102 0
19 -103 -20 -104 0
22 -105 -23 -106 0
25 -107 -26 -108 0
28 -109 -29 -110 0
1 -111 -2 -112 0
4 -113 -5 -114 0
7 -115 -8 -116 0
10 -117 -11 -118 0
13 -119 -14 -120 0
16 -121 -17 -122 0
19 -123 -20 -124 0
22 -125 -23 -126 0
25 -127 -26 -128 0
28 -129 -29 -130 0
1 -131 -2 -132 0
4 -133 -5 -134 0
7 -135 -8 -136 0
10 -137 -11 -138 0
13 -139 -14 -140 0
16 -141 -17 -142 0
19 -143 -20 -144 0
22 -145 -23 -146 0
25 -147 -26 -148 0
28 -149 -29 -150 0
1 -151 -2 -152 0
4 -153 -5 -154 0
7 -155 -8 -156 0
10 -157 -11 -158 0
13 -159 -14 -160 0
16 -161 -17 -162 0
19 -163 -20 -164 0
22 -165 -23 -166 0
25 -167 -26 -168 0
28 -169 -29 -170 0
1 -171 -2 -172 0
4 -173 -5 -174 0
7 -175 -8 -176 0
10 -177 -11 -178 0
13 -179 -14 -180 0
16 -181 -17 -182 0
19 -183 -20 -184 0
22 -185 -23 -186 0
25 -187 -26 -188 0
28 -189 -29 -190 0
1 -191 -2 -192 0
4 -193 -5 -194 0
7 -195 -8 -196 0
10 -197 -11 -198 0
13 -199 -14 -200 0
16 -201 -17 -202 0
19 -203 -20 -204 0
22 -205 -23 -206 0
25 -207 -26 -208 0
28 -209 -29 -210 0
1 -211 -2 -212 0
4 -213 -5 -214 0
7 -215 -8 -216 0
10 -217 -11 -218 0
13 -219 -14 -220 0
16 -221 -17 -222 0
19 -223 -20 -224 0
22 -225 -23 -226 0
25 -227 -26 -228 0
28 -229 -29 -230 0
1 -231 -2 -232 0
4 -233 -5 -234 0
7 -235 -8 -236 0
10 -237 -11 -238 0
13 -239 -14 -240 0
16 -241 -17 -242 0
19 -243 -20 -244 0
22 -245 -23 -246 0
25 -247 -26 -248 0
28 -249 -29 -250 0
1 -251 -2 -252 0
4 -253 -5 -254 0
7 -255 -8 -256 0
10 -257 -11 -258 0
13 -259 -14 -260 0
16 -261 -17 -262 0
19 -263 -20 -264 0
22 -265 -23 -266 0
25 -267 -26 -268 0
28 -269 -29 -270 0
1 -271 -2 -272 0
4 -273 -5 -274 0
7 -275 -8 -276 0
10 -277 -11 -278 0
13 -279 -14 -280 0
16 -281 -17 -282 0
19 -283 -20 -284 0
22 -285 -23 -286 0
25 -287 -26 -288 0
28 -289 -29 -290 0
92 -1 0
94 -4 0
96 -7 0
98 -10 0
100 -13 0
102 -16 0
104 -19 0
106 -22 0
108 -25 0
110 -28 0
112 -1 0
114 -4 0
116 -7 0
118 -10 0
120 -13 0
122 -16 0
124 -19 0
126 -22 0
128 -25 0
130 -28 0
132 -1 0
134 -4 0
136 -7 0
138 -10 0
140 -13 0
142 -16 0
144 -19 0
146 -22 0
148 -25 0
150 -28 0
152 -1 0
154 -4 0
156 -7 0
158 -10 0
160 -13 0
162 -16 0
164 -19 0
166 -22 0
168 -25 0
170 -28 0
172 -1 0
174 -4 0
176 -7 0
178 -10 0
180 -13 0
182 -16 0
184 -19 0
186 -22 0
188 -25 0
190 -28 0
192 -1 0
194 -4 0
196 -7 0
198 -10 0
200 -13 0
202 -16 0
204 -19 0
206 -22 0
208 -25 0
210 -28 0
212 -1 0
214 -4 0
216 -7 0
218 -10 0
220 -13 0
222 -16 0
224 -19 0
226 -22 0
228 -25 0
230 -28 0
232 -1 0
234 -4 0
236 -7 0
238 -10 0
240 -13 0
242 -16 0
244 -19 0
246 -22 0
248 -25 0
250 -28 0
252 -1 0
254 -4 0
256 -7 0
258 -10 0
260 -13 0
262 -16 0
264 -19 0
266 -22 0
268 -25 0
270 -28 0
272 -1 0
274 -4 0
276 -7 0
278 -10 0
280 -13 0
282 -16 0
284 -19 0
286 -22 0
288 -25 0
290 -28 0
92 91 0
94 93 0
96 95 0
98 97 0
100 99 0
102 101 0
104 103 0
106 105 0
108 107 0
110 109 0
112 111 0
114 113 0
116 115 0
118 117 0
120 119 0
122 121 0
124 123 0
126 125 0
128 127 0
130 129 0
132 131 0
134 133 0
136 135 0
138 137 0
140 139 0
142 141 0
144 143 0
146 145 0
148 147 0
150 149 0
152 151 0
154 153 0
156 155 0
158 157 0
160 159 0
162 161 0
164 163 0
166 165 0
168 167 0
170 169 0
172 171 0
174 173 0
176 175 0
178 177 0
180 179 0
182 181 0
184 183 0
186 185 0
188 187 0
190 189 0
192 191 0
194 193 0
196 195 0
198 197 0
200 199 0
202 201 0
204 203 0
206 205 0
208 207 0
210 209 0
212 211 0
214 213 0
216 215 0
218 217 0
220 219 0
222 221 0
224 223 0
226 225 0
228 227 0
230 229 0
232 231 0
234 233 0
236 235 0
238 237 0
240 239 0
242 241 0
244 243 0
246 245 0
248 247 0
250 249 0
252 251 0
254 253 0
256 255 0
258 257 0
260 259 0
262 261 0
264 263 0
266 265 0
268 267 0
270 269 0
272 271 0
274 273 0
276 275 0
278 277 0
280 279 0
282 281 0
284 283 0
286 285 0
288 287 0
290 289 0
92 2 0
94 5 0
96 8 0
98 11 0
100 14 0
102 17 0
104 20 0
106 23 0
108 26 0
110 29 0
112 2 0
114 5 0
116 8 0
118 11 0
120 14 0
122 17 0
124 20 0
126 23 0
128 26 0
130 29 0
132 2 0
134 5 0
136 8 0
138 11 0
140 14 0
142 17 0
144 20 0
146 23 0
148 26 0
150 29 0
152 2 0
154 5 0
156 8 0
158 11 0
160 14 0
162 17 0
164 20 0
166 23 0
168 26 0
170 29 0
172 2 0
174 5 0
176 8 0
178 11 0
180 14 0
182 17 0
184 20 0
186 23 0
188 26 0
190 29 0
192 2 0
194 5 0
196 8 0
198 11 0
200 14 0
202 17 0
204 20 0
206 23 0
208 26 0
210 29 0
212 2 0
214 5 0
216 8 0
218 11 0
220 14 0
222 17 0
224 20 0
226 23 0
228 26 0
230 29 0
232 2 0
234 5 0
236 8 0
238 11 0
240 14 0
242 17 0
244 20 0
246 23 0
248 26 0
250 29 0
252 2 0
254 5 0
256 8 0
258 11 0
260 14 0
262 17 0
264 20 0
266 23 0
268 26 0
270 29 0
272 2 0
274 5 0
276 8 0
278 11 0
280 14 0
282 17 0
284 20 0
286 23 0
288 26 0
290 29 0
-91 -41 41 291 0
-93 -43 41 292 0
-95 -45 41 293 0
-97 -47 41 294 0
-99 -49 41 295 0
-101 -51 41 296 0
-103 -53 41 297 0
-105 -55 41 298 0
-107 -57 41 299 0
-109 -59 41 300 0
-111 -41 43 301 0
-113 -43 43 302 0
-115 -45 43 303 0
-117 -47 43 304 0
-119 -49 43 305 0
-121 -51 43 306 0
-123 -53 43 307 0
-125 -55 43 308 0
-127 -57 43 309 0
-129 -59 43 310 0
-131 -41 45 311 0
-133 -43 45 312 0
-135 -45 45 313 0
-137 -47 45 314 0
-139 -49 45 315 0
-141 -51 45 316 0
-143 -53 45 317 0
-145 -55 45 318 0
-147 -57 45 319 0
-149 -59 45 320 0
-151 -41 47 321 0
-153 -43 47 322 0
-155 -45 47 323 0
-157 -47 47 324 0
-159 -49 47 325 0
-161 -51 47 326 0
-163 -53 47 327 0
-165 -55 47 328 0
-167 -57 47 329 0
-169 -59 47 330 0
-171 -41 49 331 0
-173 -43 49 332 0
-175 -45 49 333 0
-177 -47 49 334 0
-179 -49 49 335 0
-181 -51 49 336 0
-183 -53 49 337 0
-185 -55 49 338 0
-187 -57 49 339 0
-189 -59 49 340 0
-191 -41 51 341 0
-193 -43 51 342 0
-195 -45 51 343 0
-197 -47 51 344 0
-199 -49 51 345 0
-201 -51 51 346 0
-203 -53 51 347 0
-205 -55 51 348 0
-207 -57 51 349 0
-209 -59 51 350 0
-211 -41 53 351 0
-213 -43 53 352 0
-215 -45 53 353 0
-217 -47 53 354 0
-219 -49 53 355 0
-221 -51 53 356 0
-223 -53 53 357 0
-225 -55 53 358 0
-227 -57 53 359 0
-229 -59 53 360 0
-231 -41 55 361 0
-233 -43 55 362 0
-235 -45 55 363 0
-237 -47 55 364 0
-239 -49 55 365 0
-241 -51 55 366 0
-243 -53 55 367 0
-245 -55 55 368 0
-247 -57 55 369 0
-249 -59 55 370 0
-251 -41 57 371 0
-253 -43 57 372 0
-255 -45 57 373 0
-257 -47 57 374 0
-259 -49 57 375 0
-261 -51 57 376 0
-263 -53 57 377 0
-265 -55 57 378 0
-267 -57 57 379 0
-269 -59 57 380 0
-271 -41 59 381 0
-273 -43 59 382 0
-275 -45 59 383 0
-277 -47 59 384 0
-279 -49 59 385 0
-281 -51 59 386 0
-283 -53 59 387 0
-285 -55 59 388 0
-287 -57 59 389 0
-289 -59 59 390 0
-291 91 0
-292 93 0
-293 95 0
-294 97 0
-295 99 0
-296 101 0
-297 103 0
-298 105 0
-299 107 0
-300 109 0
-301 111 0
-302 113 0
-303 115 0
-304 117 0
-305 119 0
-306 121 0
-307 123 0
-308 125 0
-309 127 0
-310 129 0
-311 131 0
-312 133 0
-313 135 0
-314 137 0
-315 139 0
-316 141 0
-317 143 0
-318 145 0
-319 147 0
-320 149 0
-321 151 0
-322 153 0
-323 155 0
-324 157 0
-325 159 0
-326 161 0
-327 163 0
-328 165 0
-329 167 0
-330 169 0
-331 171 0
-332 173 0
-333 175 0
-334 177 0
-335 179 0
-336 181 0
-337 183 0
-338 185 0
-339 187 0
-340 189 0
-341 191 0
-342 193 0
-343 195 0
-344 197 0
-345 199 0
-346 201 0
-347 203 0
-348 205 0
-349 207 0
-350 209 0
-351 211 0
-352 213 0
-353 215 0
-354 217 0
-355 219 0
-356 221 0
-357 223 0
-358 225 0
-359 227 0
-360 229 0
-361 231 0
-362 233 0
-363 235 0
-364 237 0
-365 239 0
-366 241 0
-367 243 0
-368 245 0
-369 247 0
-370 249 0
-371 251 0
-372 253 0
-373 255 0
-374 257 0
-375 259 0
-376 261 0
-377 263 0
-378 265 0
-379 267 0
-380 269 0
-381 271 0
-382 273 0
-383 275 0
-384 277 0
-385 279 0
-386 281 0
-387 283 0
-388 285 0
-389 287 0
-390 289 0
-291 41 0
-292 43 0
-293 45 0
-294 47 0
-295 49 0
-296 51 0
-297 53 0
-298 55 0
-299 57 0
-300 59 0
-301 41 0
-302 43 0
-303 45 0
-304 47 0
-305 49 0
-306 51 0
-307 53 0
-308 55 0
-309 57 0
-310 59 0
-311 41 0
-312 43 0
-313 45 0
-314 47 0
-315 49 0
-316 51 0
-317 53 0
-318 55 0
-319 57 0
-320 59 0
-321 41 0
-322 43 0
-323 45 0
-324 47 0
-325 49 0
-326 51 0
-327 53 0
-328 55 0
-329 57 0
-330 59 0
-331 41 0
-332 43 0
-333 45 0
-334 47 0
-335 49 0
-336 51 0
-337 53 0
-338 55 0
-339 57 0
-340 59 0
-341 41 0
-342 43 0
-343 45 0
-344 47 0
-345 49 0
-346 51 0
-347 53 0
-348 55 0
-349 57 0
-350 59 0
-351 41 0
-352 43 0
-353 45 0
-354 47 0
-355 49 0
-356 51 0
-357 53 0
-358 55 0
-359 57 0
-360 59 0
-361 41 0
-362 43 0
-363 45 0
-364 47 0
-365 49 0
-366 51 0
-367 53 0
-368 55 0
-369 57 0
-370 59 0
-371 41 0
-372 43 0
-373 45 0
-374 47 0
-375 49 0
-376 51 0
-377 53 0
-378 55 0
-379 57 0
-380 59 0
-381 41 0
-382 43 0
-383 45 0
-384 47 0
-385 49 0
-386 51 0
-387 53 0
-388 55 0
-389 57 0
-390 59 0
-291 -41 0
-292 -41 0
-293 -41 0
-294 -41 0
-295 -41 0
-296 -41 0
-297 -41 0
-298 -41 0
-299 -41 0
-300 -41 0
-301 -43 0
-302 -43 0
-303 -43 0
-304 -43 0
-305 -43 0
-306 -43 0
-307 -43 0
-308 -43 0
-309 -43 0
-310 -43 0
-311 -45 0
-312 -45 0
-313 -45 0
-314 -45 0
-315 -45 0
-316 -45 0
-317 -45 0
-318 -45 0
-319 -45 0
-320 -45 0
-321 -47 0
-322 -47 0
-323 -47 0
-324 -47 0
-325 -47 0
-326 -47 0
-327 -47 0
-328 -47 0
-329 -47 0
-330 -47 0
-331 -49 0
-332 -49 0
-333 -49 0
-334 -49 0
-335 -49 0
-336 -49 0
-337 -49 0
-338 -49 0
-339 -49 0
-340 -49 0
-341 -51 0
-342 -51 0
-343 -51 0
-344 -51 0
-345 -51 0
-346 -51 0
-347 -51 0
-348 -51 0
-349 -51 0
-350 -51 0
-351 -53 0
-352 -53 0
-353 -53 0
-354 -53 0
-355 -53 0
-356 -53 0
-357 -53 0
-358 -53 0
-359 -53 0
-360 -53 0
-361 -55 0
-362 -55 0
-363 -55 0
-364 -55 0
-365 -55 0
-366 -55 0
-367 -55 0
-368 -55 0
-369 -55 0
-370 -55 0
-371 -57 0
-372 -57 0
-373 -57 0
-374 -57 0
-375 -57 0
-376 -57 0
-377 -57 0
-378 -57 0
-379 -57 0
-380 -57 0
-381 -59 0
-382 -59 0
-383 -59 0
-384 -59 0
-385 -59 0
-386 -59 0
-387 -59 0
-388 -59 0
-389 -59 0
-390 -59 0
391 291 -392 0
393 292 -394 0
395 293 -396 0
397 294 -398 0
399 295 -400 0
401 296 -402 0
403 297 -404 0
405 298 -406 0
407 299 -408 0
409 300 -410 0
411 301 -412 0
413 302 -414 0
415 303 -416 0
417 304 -418 0
419 305 -420 0
421 306 -422 0
423 307 -424 0
425 308 -426 0
427 309 -428 0
429 310 -430 0
431 311 -432 0
433 312 -434 0
435 313 -436 0
437 314 -438 0
439 315 -440 0
441 316 -442 0
443 317 -444 0
445 318 -446 0
447 319 -448 0
449 320 -450 0
451 321 -452 0
453 322 -454 0
455 323 -456 0
457 324 -458 0
459 325 -460 0
461 326 -462 0
463 327 -464 0
465 328 -466 0
467 329 -468 0
469 330 -470 0
471 331 -472 0
473 332 -474 0
475 333 -476 0
477 334 -478 0
479 335 -480 0
481 336 -482 0
483 337 -484 0
485 338 -486 0
487 339 -488 0
489 340 -490 0
491 341 -492 0
493 342 -494 0
495 343 -496 0
497 344 -498 0
499 345 -500 0
501 346 -502 0
503 347 -504 0
505 348 -506 0
507 349 -508 0
509 350 -510 0
511 351 -512 0
513 352 -514 0
515 353 -516 0
517 354 -518 0
519 355 -520 0
521 356 -522 0
523 357 -524 0
525 358 -526 0
527 359 -528 0
529 360 -530 0
531 361 -532 0
533 362 -534 0
535 363 -536 0
537 364 -538 0
539 365 -540 0
541 366 -542 0
543 367 -544 0
545 368 -546 0
547 369 -548 0
549 370 -550 0
551 371 -552 0
553 372 -554 0
555 373 -556 0
557 374 -558 0
559 375 -560 0
561 376 -562 0
563 377 -564 0
565 378 -566 0
567 379 -568 0
569 380 -570 0
571 381 -572 0
573 382 -574 0
575 383 -576 0
577 384 -578 0
579 385 -580 0
581 386 -582 0
583 387 -584 0
585 388 -586 0
587 389 -588 0
589 390 -590 0
392 -391 0
394 -393 0
396 -395 0
398 -397 0
400 -399 0
402 -401 0
404 -403 0
406 -405 0
408 -407 0
410 -409 0
412 -411 0
414 -413 0
416 -415 0
418 -417 0
420 -419 0
422 -421 0
424 -423 0
426 -425 0
428 -427 0
430 -429 0
432 -431 0
434 -433 0
436 -435 0
438 -437 0
440 -439 0
442 -441 0
444 -443 0
446 -445 0
448 -447 0
450 -449 0
452 -451 0
454 -453 0
456 -455 0
458 -457 0
460 -459 0
462 -461 0
464 -463 0
466 -465 0
468 -467 0
470 -469 0
472 -471 0
474 -473 0
476 -475 0
478 -477 0
480 -479 0
482 -481 0
484 -483 0
486 -485 0
488 -487 0
490 -489 0
492 -491 0
494 -493 0
496 -495 0
498 -497 0
500 -499 0
502 -501 0
504 -503 0
506 -505 0
508 -507 0
510 -509 0
512 -511 0
514 -513 0
516 -515 0
518 -517 0
520 -519 0
522 -521 0
524 -523 0
526 -525 0
528 -527 0
530 -529 0
532 -531 0
534 -533 0
536 -535 0
538 -537 0
540 -539 0
542 -541 0
544 -543 0
546 -545 0
548 -547 0
550 -549 0
552 -551 0
554 -553 0
556 -555 0
558 -557 0
560 -559 0
562 -561 0
564 -563 0
566 -565 0
568 -567 0
570 -569 0
572 -571 0
574 -573 0
576 -575 0
578 -577 0
580 -579 0
582 -581 0
584 -583 0
586 -585 0
588 -587 0
590 -589 0
392 -291 0
394 -292 0
396 -293 0
398 -294 0
400 -295 0
402 -296 0
404 -297 0
406 -298 0
408 -299 0
410 -300 0
412 -301 0
414 -302 0
416 -303 0
418 -304 0
420 -305 0
422 -306 0
424 -307 0
426 -308 0
428 -309 0
430 -310 0
432 -311 0
434 -312 0
436 -313 0
438 -314 0
440 -315 0
442 -316 0
444 -317 0
446 -318 0
448 -319 0
450 -320 0
452 -321 0
454 -322 0
456 -323 0
458 -324 0
460 -325 0
462 -326 0
464 -327 0
466 -328 0
468 -329 0
470 -330 0
472 -331 0
474 -332 0
476 -333 0
478 -334 0
480 -335 0
482 -336 0
484 -337 0
486 -338 0
488 -339 0
490 -340 0
492 -341 0
494 -342 0
496 -343 0
498 -344 0
500 -345 0
502 -346 0
504 -347 0
506 -348 0
508 -349 0
510 -350 0
512 -351 0
514 -352 0
516 -353 0
518 -354 0
520 -355 0
522 -356 0
524 -357 0
526 -358 0
528 -359 0
530 -360 0
532 -361 0
534 -362 0
536 -363 0
538 -364 0
540 -365 0
542 -366 0
544 -367 0
546 -368 0
548 -369 0
550 -370 0
552 -371 0
554 -372 0
556 -373 0
558 -374 0
560 -375 0
562 -376 0
564 -377 0
566 -378 0
568 -379 0
570 -380 0
572 -381 0
574 -382 0
576 -383 0
578 -384 0
580 -385 0
582 -386 0
584 -387 0
586 -388 0
588 -389 0
590 -390 0
41 -391 -91 -41 -591 0
41 -393 -93 -43 -592 0
41 -395 -95 -45 -593 0
41 -397 -97 -47 -594 0
41 -399 -99 -49 -595 0
41 -401 -101 -51 -596 0
41 -403 -103 -53 -597 0
41 -405 -105 -55 -598 0
41 -407 -107 -57 -599 0
41 -409 -109 -59 -600 0
43 -411 -111 -41 -601 0
43 -413 -113 -43 -602 0
43 -415 -115 -45 -603 0
43 -417 -117 -47 -604 0
43 -419 -119 -49 -605 0
43 -421 -121 -51 -606 0
43 -423 -123 -53 -607 0
43 -425 -125 -55 -608 0
43 -427 -127 -57 -609 0
43 -429 -129 -59 -610 0
45 -431 -131 -41 -611 0
45 -433 -133 -43 -612 0
45 -435 -135 -45 -613 0
45 -437 -137 -47 -614 0
45 -439 -139 -49 -615 0
45 -441 -141 -51 -616 0
45 -443 -143 -53 -617 0
45 -445 -145 -55 -618 0
45 -447 -147 -57 -619 0
45 -449 -149 -59 -620 0
47 -451 -151 -41 -621 0
47 -453 -153 -43 -622 0
47 -455 -155 -45 -623 0
47 -457 -157 -47 -624 0
47 -459 -159 -49 -625 0
47 -461 -161 -51 -626 0
47 -463 -163 -53 -627 0
47 -465 -165 -55 -628 0
47 -467 -167 -57 -629 0
47 -469 -169 -59 -630 0
49 -471 -171 -41 -631 0
49 -473 -173 -43 -632 0
49 -475 -175 -45 -633 0
49 -477 -177 -47 -634 0
49 -479 -179 -49 -635 0
49 -481 -181 -51 -636 0
49 -483 -183 -53 -637 0
49 -485 -185 -55 -638 0
49 -487 -187 -57 -639 0
49 -489 -189 -59 -640 0
51 -491 -191 -41 -641 0
51 -493 -193 -43 -642 0
51 -495 -195 -45 -643 0
51 -497 -197 -47 -644 0
51 -499 -199 -49 -645 0
51 -501 -201 -51 -646 0
51 -503 -203 -53 -647 0
51 -505 -205 -55 -648 0
51 -507 -207 -57 -649 0
51 -509 -209 -59 -650 0
53 -511 -211 -41 -651 0
53 -513 -213 -43 -652 0
53 -515 -215 -45 -653 0
53 -517 -217 -47 -654 0
53 -519 -219 -49 -655 0
53 -521 -221 -51 -656 0
53 -523 -223 -53 -657 0
53 -525 -225 -55 -658 0
53 -527 -227 -57 -659 0
53 -529 -229 -59 -660 0
55 -531 -231 -41 -661 0
55 -533 -233 -43 -662 0
55 -535 -235 -45 -663 0
55 -537 -237 -47 -664 0
55 -539 -239 -49 -665 0
55 -541 -241 -51 -666 0
55 -543 -243 -53 -667 0
55 -545 -245 -55 -668 0
55 -547 -247 -57 -669 0
55 -549 -249 -59 -670 0
57 -551 -251 -41 -671 0
57 -553 -253 -43 -672 0
57 -555 -255 -45 -673 0
57 -557 -257 -47 -674 0
57 -559 -259 -49 -675 0
57 -561 -261 -51 -676 0
57 -563 -263 -53 -677 0
57 -565 -265 -55 -678 0
57 -567 -267 -57 -679 0
57 -569 -269 -59 -680 0
59 -571 -271 -41 -681 0
59 -573 -273 -43 -682 0
59 -575 -275 -45 -683 0
59 -577 -277 -47 -684 0
59 -579 -279 -49 -685 0
59 -581 -281 -51 -686 0
59 -583 -283 -53 -687 0
59 -585 -285 -55 -688 0
59 -587 -287 -57 -689 0
59 -589 -289 -59 -690 0
591 -41 0
592 -41 0
593 -41 0
594 -41 0
595 -41 0
596 -41 0
597 -41 0
598 -41 0
599 -41 0
600 -41 0
601 -43 0
602 -43 0
603 -43 0
604 -43 0
605 -43 0
606 -43 0
607 -43 0
608 -43 0
609 -43 0
610 -43 0
611 -45 0
612 -45 0
613 -45 0
614 -45 0
615 -45 0
616 -45 0
617 -45 0
618 -45 0
619 -45 0
620 -45 0
621 -47 0
622 -47 0
623 -47 0
624 -47 0
625 -47 0
626 -47 0
627 -47 0
628 -47 0
629 -47 0
630 -47 0
631 -49 0
632 -49 0
633 -49 0
634 -49 0
635 -49 0
636 -49 0
637 -49 0
638 -49 0
639 -49 0
640 -49 0
641 -51 0
642 -51 0
643 -51 0
644 -51 0
645 -51 0
646 -51 0
647 -51 0
648 -51 0
649 -51 0
650 -51 0
651 -53 0
652 -53 0
653 -53 0
654 -53 0
655 -53 0
656 -53 0
657 -53 0
658 -53 0
659 -53 0
660 -53 0
661 -55 0
662 -55 0
663 -55 0
664 -55 0
665 -55 0
666 -55 0
667 -55 0
668 -55 0
669 -55 0
670 -55 0
671 -57 0
672 -57 0
673 -57 0
674 -57 0
675 -57 0
676 -57 0
677 -57 0
678 -57 0
679 -57 0
680 -57 0
681 -59 0
682 -59 0
683 -59 0
684 -59 0
685 -59 0
686 -59 0
687 -59 0
688 -59 0
689 -59 0
690 -59 0
591 391 0
592 393 0
593 395 0
594 397 0
595 399 0
596 401 0
597 403 0
598 405 0
599 407 0
600 409 0
601 411 0
602 413 0
603 415 0
604 417 0
605 419 0
606 421 0
607 423 0
608 425 0
609 427 0
610 429 0
611 431 0
612 433 0
613 435 0
614 437 0
615 439 0
616 441 0
617 443 0
618 445 0
619 447 0
620 449 0
621 451 0
622 453 0
623 455 0
624 457 0
625 459 0
626 461 0
627 463 0
628 465 0
629 467 0
630 469 0
631 471 0
632 473 0
633 475 0
634 477 0
635 479 0
636 481 0
637 483 0
638 485 0
639 487 0
640 489 0
641 491 0
642 493 0
643 495 0
644 497 0
645 499 0
646 501 0
647 503 0
648 505 0
649 507 0
650 509 0
651 511 0
652 513 0
653 515 0
654 517 0
655 519 0
656 521 0
657 523 0
658 525 0
659 527 0
660 529 0
661 531 0
662 533 0
663 535 0
664 537 0
665 539 0
666 541 0
667 543 0
668 545 0
669 547 0
670 549 0
671 551 0
672 553 0
673 555 0
674 557 0
675 559 0
676 561 0
677 563 0
678 565 0
679 567 0
680 569 0
681 571 0
682 573 0
683 575 0
684 577 0
685 579 0
686 581 0
687 583 0
688 585 0
689 587 0
690 589 0
591 91 0
592 93 0
593 95 0
594 97 0
595 99 0
596 101 0
597 103 0
598 105 0
599 107 0
600 109 0
601 111 0
602 113 0
603 115 0
604 117 0
605 119 0
606 121 0
607 123 0
608 125 0
609 127 0
610 129 0
611 131 0
612 133 0
613 135 0
614 137 0
615 139 0
616 141 0
617 143 0
618 145 0
619 147 0
620 149 0
621 151 0
622 153 0
623 155 0
624 157 0
625 159 0
626 161 0
627 163 0
628 165 0
629 167 0
630 169 0
631 171 0
632 173 0
633 175 0
634 177 0
635 179 0
636 181 0
637 183 0
638 185 0
639 187 0
640 189 0
641 191 0
642 193 0
643 195 0
644 197 0
645 199 0
646 201 0
647 203 0
648 205 0
649 207 0
650 209 0
651 211 0
652 213 0
653 215 0
654 217 0
655 219 0
656 221 0
657 223 0
658 225 0
659 227 0
660 229 0
661 231 0
662 233 0
663 235 0
664 237 0
665 239 0
666 241 0
667 243 0
668 245 0
669 247 0
670 249 0
671 251 0
672 253 0
673 255 0
674 257 0
675 259 0
676 261 0
677 263 0
678 265 0
679 267 0
680 269 0
681 271 0
682 273 0
683 275 0
684 277 0
685 279 0
686 281 0
687 283 0
688 285 0
689 287 0
690 289 0
591 41 0
592 43 0
593 45 0
594 47 0
595 49 0
596 51 0
597 53 0
598 55 0
599 57 0
600 59 0
601 41 0
602 43 0
603 45 0
604 47 0
605 49 0
606 51 0
607 53 0
608 55 0
609 57 0
610 59 0
611 41 0
612 43 0
613 45 0
614 47 0
615 49 0
616 51 0
617 53 0
618 55 0
619 57 0
620 59 0
621 41 0
622 43 0
623 45 0
624 47 0
625 49 0
626 51 0
627 53 0
628 55 0
629 57 0
630 59 0
631 41 0
632 43 0
633 45 0
634 47 0
635 49 0
636 51 0
637 53 0
638 55 0
639 57 0
640 59 0
641 41 0
642 43 0
643 45 0
644 47 0
645 49 0
646 51 0
647 53 0
648 55 0
649 57 0
650 59 0
651 41 0
652 43 0
653 45 0
654 47 0
655 49 0
656 51 0
657 53 0
658 55 0
659 57 0
660 59 0
661 41 0
662 43 0
663 45 0
664 47 0
665 49 0
666 51 0
667 53 0
668 55 0
669 57 0
670 59 0
671 41 0
672 43 0
673 45 0
674 47 0
675 49 0
676 51 0
677 53 0
678 55 0
679 57 0
680 59 0
681 41 0
682 43 0
683 45 0
684 47 0
685 49 0
686 51 0
687 53 0
688 55 0
689 57 0
690 59 0
-3 -31 -62 -81 -92 -392 -591 691 0
-3 -31 -62 -81 -94 -394 -592 692 0
-3 -31 -62 -81 -96 -396 -593 693 0
-3 -31 -62 -81 -98 -398 -594 694 0
-3 -31 -62 -81 -100 -400 -595 695 0
-3 -31 -62 -81 -102 -402 -596 696 0
-3 -31 -62 -81 -104 -404 -597 697 0
-3 -31 -62 -81 -106 -406 -598 698 0
-3 -31 -62 -81 -108 -408 -599 699 0
-3 -31 -62 -81 -110 -410 -600 700 0
-6 -32 -64 -82 -112 -412 -601 701 0
-6 -32 -64 -82 -114 -414 -602 702 0
-6 -32 -64 -82 -116 -416 -603 703 0
-6 -32 -64 -82 -118 -418 -604 704 0
-6 -32 -64 -82 -120 -420 -605 705 0
-6 -32 -64 -82 -122 -422 -606 706 0
-6 -32 -64 -82 -124 -424 -607 707 0
-6 -32 -64 -82 -126 -426 -608 708 0
-6 -32 -64 -82 -128 -428 -609 709 0
-6 -32 -64 -82 -130 -430 -610 710 0
-9 -33 -66 -83 -132 -432 -611 711 0
-9 -33 -66 -83 -134 -434 -612 712 0
-9 -33 -66 -83 -136 -436 -613 713 0
-9 -33 -66 -83 -138 -438 -614 714 0
-9 -33 -66 -83 -140 -440 -615 715 0
-9 -33 -66 -83 -142 -442 -616 716 0
-9 -33 -66 -83 -144 -444 -617 717 0
-9 -33 -66 -83 -146 -446 -618 718 0
-9 -33 -66 -83 -148 -448 -619 719 0
-9 -33 -66 -83 -150 -450 -620 720 0
-12 -34 -68 -84 -152 -452 -621 721 0
-12 -34 -68 -84 -154 -454 -622 722 0
-12 -34 -68 -84 -156 -456 -623 723 0
-12 -34 -68 -84 -158 -458 -624 724 0
-12 -34 -68 -84 -160 -460 -625 725 0
-12 -34 -68 -84 -162 -462 -626 726 0
-12 -34 -68 -84 -164 -464 -627 727 0
-12 -34 -68 -84 -166 -466 -628 728 0
-12 -34 -68 -84 -168 -468 -629 729 0
-12 -34 -68 -84 -170 -470 -630 730 0
-15 -35 -70 -85 -172 -472 -631 731 0
-15 -35 -70 -85 -174 -474 -632 732 0
-15 -35 -70 -85 -176 -476 -633 733 0
-15 -35 -70 -85 -178 -478 -634 734 0
-15 -35 -70 -85 -180 -480 -635 735 0
-15 -35 -70 -85 -182 -482 -636 736 0
-15 -35 -70 -85 -184 -484 -637 737 0
-15 -35 -70 -85 -186 -486 -638 738 0
-15 -35 -70 -85 -188 -488 -639 739 0
-15 -35 -70 -85 -190 -490 -640 740 0
-18 -36 -72 -86 -192 -492 -641 741 0
-18 -36 -72 -86 -194 -494 -642 742 0
-18 -36 -72 -86 -196 -496 -643 743 0
-18 -36 -72 -86 -198 -498 -644 744 0
-18 -36 -72 -86 -200 -500 -645 745 0
-18 -36 -72 -86 -202 -502 -646 746 0
-18 -36 -72 -86 -204 -504 -647 747 0
-18 -36 -72 -86 -206 -506 -648 748 0
-18 -36 -72 -86 -208 -508 -649 749 0
-18 -36 -72 -86 -210 -510 -650 750 0
-21 -37 -74 -87 -212 -512 -651 751 0
-21 -37 -74 -87 -214 -514 -652 752 0
-21 -37 -74 -87 -216 -516 -653 753 0
-21 -37 -74 -87 -218 -518 -654 754 0
-21 -37 -74 -87 -220 -520 -655 755 0
-21 -37 -74 -87 -222 -522 -656 756 0
-21 -37 -74 -87 -224 -524 -657 757 0
-21 -37 -74 -87 -226 -526 -658 758 0
-21 -37 -74 -87 -228 -528 -659 759 0
-21 -37 -74 -87 -230 -530 -660 760 0
-24 -38 -76 -88 -232 -532 -661 761 0
-24 -38 -76 -88 -234 -534 -662 762 0
-24 -38 -76 -88 -236 -536 -663 763 0
-24 -38 -76 -88 -238 -538 -664 764 0
-24 -38 -76 -88 -240 -540 -665 765 0
-24 -38 -76 -88 -242 -542 -666 766 0
-24 -38 -76 -88 -244 -544 -667 767 0
-24 -38 -76 -88 -246 -546 -668 768 0
-24 -38 -76 -88 -248 -548 -669 769 0
-24 -38 -76 -88 -250 -550 -670 770 0
-27 -39 -78 -89 -252 -552 -671 771 0
-27 -39 -78 -89 -254 -554 -672 772 0
-27 -39 -78 -89 -256 -556 -673 773 0
-27 -39 -78 -89 -258 -558 -674 774 0
-27 -39 -78 -89 -260 -560 -675 775 0
-27 -39 -78 -89 -262 -562 -676 776 0
-27 -39 -78 -89 -264 -564 -677 777 0
-27 -39 -78 -89 -266 -566 -678 778 0
-27 -39 -78 -89 -268 -568 -679 779 0
-27 -39 -78 -89 -270 -570 -680 780 0
-30 -40 -80 -90 -272 -572 -681 781 0
-30 -40 -80 -90 -274 -574 -682 782 0
-30 -40 -80 -90 -276 -576 -683 783 0
-30 -40 -80 -90 -278 -578 -684 784 0
-30 -40 -80 -90 -280 -580 -685 785 0
-30 -40 -80 -90 -282 -582 -686 786 0
-30 -40 -80 -90 -284 -584 -687 787 0
-30 -40 -80 -90 -286 -586 -688 788 0
-30 -40 -80 -90 -288 -588 -689 789 0
-30 -40 -80 -90 -290 -590 -690 790 0
-691 3 0
-692 3 0
-693 3 0
-694 3 0
-695 3 0
-696 3 0
-697 3 0
-698 3 0
-699 3 0
-700 3 0
-701 6 0
-702 6 0
-703 6 0
-704 6 0
-705 6 0
-706 6 0
-707 6 0
-708 6 0
-709 6 0
-710 6 0
-711 9 0
-712 9 0
-713 9 0
-714 9 0
-715 9 0
-716 9 0
-717 9 0
-718 9 0
-719 9 0
-720 9 0
-721 12 0
-722 12 0
-723 12 0
-724 12 0
-725 12 0
-726 12 0
-727 12 0
-728 12 0
-729 12 0
-730 12 0
-731 15 0
-732 15 0
-733 15 0
-734 15 0
-735 15 0
-736 15 0
-737 15 0
-738 15 0
-739 15 0
-740 15 0
-741 18 0
-742 18 0
-743 18 0
-744 18 0
-745 18 0
-746 18 0
-747 18 0
-748 18 0
-749 18 0
-750 18 0
-751 21 0
-752 21 0
-753 21 0
-754 21 0
-755 21 0
-756 21 0
-757 21 0
-758 21 0
-759 21 0
-760 21 0
-761 24 0
-762 24 0
-763 24 0
-764 24 0
-765 24 0
-766 24 0
-767 24 0
-768 24 0
-769 24 0
-770 24 0
-771 27 0
-772 27 0
-773 27 0
-774 27 0
-775 27 0
-776 27 0
-777 27 0
-778 27 0
-779 27 0
-780 27 0
-781 30 0
-782 30 0
-783 30 0
-784 30 0
-785 30 0
-786 30 0
-787 30 0
-788 30 0
-789 30 0
-790 30 0
-691 31 0
-692 31 0
-693 31 0
-694 31 0
-695 31 0
-696 31 0
-697 31 0
-698 31 0
-699 31 0
-700 31 0
-701 32 0
-702 32 0
-703 32 0
-704 32 0
-705 32 0
-706 32 0
-707 32 0
-708 32 0
-709 32 0
-710 32 0
-711 33 0
-712 33 0
-713 33 0
-714 33 0
-715 33 0
-716 33 0
-717 33 0
-718 33 0
-719 33 0
-720 33 0
-721 34 0
-722 34 0
-723 34 0
-724 34 0
-725 34 0
-726 34 0
-727 34 0
-728 34 0
-729 34 0
-730 34 0
-731 35 0
-732 35 0
-733 35 0
-734 35 0
-735 35 0
-736 35 0
-737 35 0
-738 35 0
-739 35 0
-740 35 0
-741 36 0
-742 36 0
-743 36 0
-744 36 0
-745 36 0
-746 36 0
-747 36 0
-748 36 0
-749 36 0
-750 36 0
-751 37 0
-752 37 0
-753 37 0
-754 37 0
-755 37 0
-756 37 0
-757 37 0
-758 37 0
-759 37 0
-760 37 0
-761 38 0
-762 38 0
-763 38 0
-764 38 0
-765 38 0
-766 38 0
-767 38 0
-768 38 0
-769 38 0
-770 38 0
-771 39 0
-772 39 0
-773 39 0
-774 39 0
-775 39 0
-776 39 0
-777 39 0
-778 39 0
-779 39 0
-780 39 0
-781 40 0
-782 40 0
-783 40 0
-784 40 0
-785 40 0
-786 40 0
-787 40 0
-788 40 0
-789 40 0
-790 40 0
-691 62 0
-692 62 0
-693 62 0
-694 62 0
-695 62 0
-696 62 0
-697 62 0
-698 62 0
-699 62 0
-700 62 0
-701 64 0
-702 64 0
-703 64 0
-704 64 0
-705 64 0
-706 64 0
-707 64 0
-708 64 0
-709 64 0
-710 64 0
-711 66 0
-712 66 0
-713 66 0
-714 66 0
-715 66 0
-716 66 0
-717 66 0
-718 66 0
-719 66 0
-720 66 0
-721 68 0
-722 68 0
-723 68 0
-724 68 0
-725 68 0
-726 68 0
-727 68 0
-728 68 0
-729 68 0
-730 68 0
-731 70 0
-732 70 0
-733 70 0
-734 70 0
-735 70 0
-736 70 0
-737 70 0
-738 70 0
-739 70 0
-740 70 0
-741 72 0
-742 72 0
-743 72 0
-744 72 0
-745 72 0
-746 72 0
-747 72 0
-748 72 0
-749 72 0
-750 72 0
-751 74 0
-752 74 0
-753 74 0
-754 74 0
-755 74 0
-756 74 0
-757 74 0
-758 74 0
-759 74 0
-760 74 0
-761 76 0
-762 76 0
-763 76 0
-764 76 0
-765 76 0
-766 76 0
-767 76 0
-768 76 0
-769 76 0
-770 76 0
-771 78 0
-772 78 0
-773 78 0
-774 78 0
-775 78 0
-776 78 0
-777 78 0
-778 78 0
-779 78 0
-780 78 0
-781 80 0
-782 80 0
-783 80 0
-784 80 0
-785 80 0
-786 80 0
-787 80 0
-788 80 0
-789 80 0
-790 80 0
-691 81 0
-692 81 0
-693 81 0
-694 81 0
-695 81 0
-696 81 0
-697 81 0
-698 81 0
-699 81 0
-700 81 0
-701 82 0
-702 82 0
-703 82 0
-704 82 0
-705 82 0
-706 82 0
-707 82 0
-708 82 0
-709 82 0
-710 82 0
-711 83 0
-712 83 0
-713 83 0
-714 83 0
-715 83 0
-716 83 0
-717 83 0
-718 83 0
-719 83 0
-720 83 0
-721 84 0
-722 84 0
-723 84 0
-724 84 0
-725 84 0
-726 84 0
-727 84 0
-728 84 0
-729 84 0
-730 84 0
-731 85 0
-732 85 0
-733 85 0
-734 85 0
-735 85 0
-736 85 0
-737 85 0
-738 85 0
-739 85 0
-740 85 0
-741 86 0
-742 86 0
-743 86 0
-744 86 0
-745 86 0
-746 86 0
-747 86 0
-748 86 0
-749 86 0
-750 86 0
-751 87 0
-752 87 0
-753 87 0
-754 87 0
-755 87 0
-756 87 0
-757 87 0
-758 87 0
-759 87 0
-760 87 0
-761 88 0
-762 88 0
-763 88 0
-764 88 0
-765 88 0
-766 88 0
-767 88 0
-768 88 0
-769 88 0
-770 88 0
-771 89 0
-772 89 0
-773 89 0
-774 89 0
-775 89 0
-776 89 0
-777 89 0
-778 89 0
-779 89 0
-780 89 0
-781 90 0
-782 90 0
-783 90 0
-784 90 0
-785 90 0
-786 90 0
-787 90 0
-788 90 0
-789 90 0
-790 90 0
-691 92 0
-692 94 0
-693 96 0
-694 98 0
-695 100 0
-696 102 0
-697 104 0
-698 106 0
-699 108 0
-700 110 0
-701 112 0
-702 114 0
-703 116 0
-704 118 0
-705 120 0
-706 122 0
-707 124 0
-708 126 0
-709 128 0
-710 130 0
-711 132 0
-712 134 0
-713 136 0
-714 138 0
-715 140 0
-716 142 0
-717 144 0
-718 146 0
-719 148 0
-720 150 0
-721 152 0
-722 154 0
-723 156 0
-724 158 0
-725 160 0
-726 162 0
-727 164 0
-728 166 0
-729 168 0
-730 170 0
-731 172 0
-732 174 0
-733 176 0
-734 178 0
-735 180 0
-736 182 0
-737 184 0
-738 186 0
-739 188 0
-740 190 0
-741 192 0
-742 194 0
-743 196 0
-744 198 0
-745 200 0
-746 202 0
-747 204 0
-748 206 0
-749 208 0
-750 210 0
-751 212 0
-752 214 0
-753 216 0
-754 218 0
-755 220 0
-756 222 0
-757 224 0
-758 226 0
-759 228 0
-760 230 0
-761 232 0
-762 234 0
-763 236 0
-764 238 0
-765 240 0
-766 242 0
-767 244 0
-768 246 0
-769 248 0
-770 250 0
-771 252 0
-772 254 0
-773 256 0
-774 258 0
-775 260 0
-776 262 0
-777 264 0
-778 266 0
-779 268 0
-780 270 0
-781 272 0
-782 274 0
-783 276 0
-784 278 0
-785 280 0
-786 282 0
-787 284 0
-788 286 0
-789 288 0
-790 290 0
-691 392 0
-692 394 0
-693 396 0
-694 398 0
-695 400 0
-696 402 0
-697 404 0
-698 406 0
-699 408 0
-700 410 0
-701 412 0
-702 414 0
-703 416 0
-704 418 0
-705 420 0
-706 422 0
-707 424 0
-708 426 0
-709 428 0
-710 430 0
-711 432 0
-712 434 0
-713 436 0
-714 438 0
-715 440 0
-716 442 0
-717 444 0
-718 446 0
-719 448 0
-720 450 0
-721 452 0
-722 454 0
-723 456 0
-724 458 0
-725 460 0
-726 462 0
-727 464 0
-728 466 0
-729 468 0
-730 470 0
-731 472 0
-732 474 0
-733 476 0
-734 478 0
-735 480 0
-736 482 0
-737 484 0
-738 486 0
-739 488 0
-740 490 0
-741 492 0
-742 494 0
-743 496 0
-744 498 0
-745 500 0
-746 502 0
-747 504 0
-748 506 0
-749 508 0
-750 510 0
-751 512 0
-752 514 0
-753 516 0
-754 518 0
-755 520 0
-756 522 0
-757 524 0
-758 526 0
-759 528 0
-760 530 0
-761 532 0
-762 534 0
-763 536 0
-764 538 0
-765 540 0
-766 542 0
-767 544 0
-768 546 0
-769 548 0
-770 550 0
-771 552 0
-772 554 0
-773 556 0
-774 558 0
-775 560 0
-776 562 0
-777 564 0
-778 566 0
-779 568 0
-780 570 0
-781 572 0
-782 574 0
-783 576 0
-784 578 0
-785 580 0
-786 582 0
-787 584 0
-788 586 0
-789 588 0
-790 590 0
-691 591 0
-692 592 0
-693 593 0
-694 594 0
-695 595 0
-696 596 0
-697 597 0
-698 598 0
-699 599 0
-700 600 0
-701 601 0
-702 602 0
-703 603 0
-704 604 0
-705 605 0
-706 606 0
-707 607 0
-708 608 0
-709 609 0
-710 610 0
-711 611 0
-712 612 0
-713 613 0
-714 614 0
-715 615 0
-716 616 0
-717 617 0
-718 618 0
-719 619 0
-720 620 0
-721 621 0
-722 622 0
-723 623 0
-724 624 0
-725 625 0
-726 626 0
-727 627 0
-728 628 0
-729 629 0
-730 630 0
-731 631 0
-732 632 0
-733 633 0
-734 634 0
-735 635 0
-736 636 0
-737 637 0
-738 638 0
-739 639 0
-740 640 0
-741 641 0
-742 642 0
-743 643 0
-744 644 0
-745 645 0
-746 646 0
-747 647 0
-748 648 0
-749 649 0
-750 650 0
-751 651 0
-752 652 0
-753 653 0
-754 654 0
-755 655 0
-756 656 0
-757 657 0
-758 658 0
-759 659 0
-760 660 0
-761 661 0
-762 662 0
-763 663 0
-764 664 0
-765 665 0
-766 666 0
-767 667 0
-768 668 0
-769 669 0
-770 670 0
-771 671 0
-772 672 0
-773 673 0
-774 674 0
-775 675 0
-776 676 0
-777 677 0
-778 678 0
-779 679 0
-780 680 0
-781 681 0
-782 682 0
-783 683 0
-784 684 0
-785 685 0
-786 686 0
-787 687 0
-788 688 0
-789 689 0
-790 690 0
691 0
692 0
693 0
694 0
695 0
696 0
697 0
698 0
699 0
700 0
701 0
702 0
703 0
704 0
705 0
706 0
707 0
708 0
709 0
710 0
711 0
712 0
713 0
714 0
715 0
716 0
717 0
718 0
719 0
720 0
721 0
722 0
723 0
724 0
725 0
726 0
727 0
728 0
729 0
730 0
731 0
732 0
733 0
734 0
735 0
736 0
737 0
738 0
739 0
740 0
741 0
742 0
743 0
744 0
745 0
746 0
747 0
748 0
749 0
750 0
751 0
752 0
753 0
754 0
755 0
756 0
757 0
758 0
759 0
760 0
761 0
762 0
763 0
764 0
765 0
766 0
767 0
768 0
769 0
770 0
771 0
772 0
773 0
774 0
775 0
776 0
777 0
778 0
779 0
780 0
781 0
782 0
783 0
784 0
785 0
786 0
787 0
788 0
789 0
790 0
791 0
792 793 0
-792 -793 0
-792 -794 795 0
-792 -796 797 0
-792 -798 799 0
-792 -800 801 0
-792 -802 803 0
-792 -804 805 0
-792 -806 807 0
-792 -808 809 0
795 810 0
-795 -810 0
-795 -811 792 0
-795 -812 797 0
-795 -813 799 0
-795 -814 801 0
-795 -815 803 0
-795 -816 805 0
-795 -817 807 0
-795 -818 809 0
797 819 0
-797 -819 0
-797 -820 792 0
-797 -821 795 0
-797 -822 799 0
-797 -823 801 0
-797 -824 803 0
-797 -825 805 0
-797 -826 807 0
-797 -827 809 0
799 828 0
-799 -828 0
-799 -829 792 0
-799 -830 795 0
-799 -831 797 0
-799 -832 801 0
-799 -833 803 0
-799 -834 805 0
-799 -835 807 0
-799 -836 809 0
801 837 0
-801 -837 0
-801 -838 792 0
-801 -839 795 0
-801 -840 797 0
-801 -841 799 0
-801 -842 803 0
-801 -843 805 0
-801 -844 807 0
-801 -845 809 0
803 846 0
-803 -846 0
-803 -847 792 0
-803 -848 795 0
-803 -849 797 0
-803 -850 799 0
-803 -851 801 0
-803 -852 805 0
-803 -853 807 0
-803 -854 809 0
805 855 0
-805 -855 0
-805 -856 792 0
-805 -857 795 0
-805 -858 797 0
-805 -859 799 0
-805 -860 801 0
-805 -861 803 0
-805 -862 807 0
-805 -863 809 0
807 864 0
-807 -864 0
-807 -865 792 0
-807 -866 795 0
-807 -867 797 0
-807 -868 799 0
-807 -869 801 0
-807 -870 803 0
-807 -871 805 0
-807 -872 809 0
809 873 0
-809 -873 0
-809 -874 792 0
-809 -875 795 0
-809 -876 797 0
-809 -877 799 0
-809 -878 801 0
-809 -879 803 0
-809 -880 805 0
-809 -881 807 0
882 0
793 792 0
-793 -792 0
-793 -795 794 0
-793 -797 796 0
-793 -799 798 0
-793 -801 800 0
-793 -803 802 0
-793 -805 804 0
-793 -807 806 0
-793 -809 808 0
794 811 0
-794 -811 0
-794 -810 793 0
-794 -812 796 0
-794 -813 798 0
-794 -814 800 0
-794 -815 802 0
-794 -816 804 0
-794 -817 806 0
-794 -818 808 0
796 820 0
-796 -820 0
-796 -819 793 0
-796 -821 794 0
-796 -822 798 0
-796 -823 800 0
-796 -824 802 0
-796 -825 804 0
-796 -826 806 0
-796 -827 808 0
798 829 0
-798 -829 0
-798 -828 793 0
-798 -830 794 0
-798 -831 796 0
-798 -832 800 0
-798 -833 802 0
-798 -834 804 0
-798 -835 806 0
-798 -836 808 0
800 838 0
-800 -838 0
-800 -837 793 0
-800 -839 794 0
-800 -840 796 0
-800 -841 798 0
-800 -842 802 0
-800 -843 804 0
-800 -844 806 0
-800 -845 808 0
802 847 0
-802 -847 0
-802 -846 793 0
-802 -848 794 0
-802 -849 796 0
-802 -850 798 0
-802 -851 800 0
-802 -852 804 0
-802 -853 806 0
-802 -854 808 0
804 856 0
-804 -856 0
-804 -855 793 0
-804 -857 794 0
-804 -858 796 0
-804 -859 798 0
-804 -860 800 0
-804 -861 802 0
-804 -862 806 0
-804 -863 808 0
806 865 0
-806 -865 0
-806 -864 793 0
-806 -866 794 0
-806 -867 796 0
-806 -868 798 0
-806 -869 800 0
-806 -870 802 0
-806 -871 804 0
-806 -872 808 0
808 874 0
-808 -874 0
-808 -873 793 0
-808 -875 794 0
-808 -876 796 0
-808 -877 798 0
-808 -878 800 0
-808 -879 802 0
-808 -880 804 0
-808 -881 806 0
883 0
810 795 0
-810 -795 0
-810 -792 811 0
-810 -797 812 0
-810 -799 813 0
-810 -801 814 0
-810 -803 815 0
-810 -805 816 0
-810 -807 817 0
-810 -809 818 0
811 794 0
-811 -794 0
-811 -793 810 0
-811 -796 812 0
-811 -798 813 0
-811 -800 814 0
-811 -802 815 0
-811 -804 816 0
-811 -806 817 0
-811 -808 818 0
812 821 0
-812 -821 0
-812 -819 810 0
-812 -820 811 0
-812 -822 813 0
-812 -823 814 0
-812 -824 815 0
-812 -825 816 0
-812 -826 817 0
-812 -827 818 0
813 830 0
-813 -830 0
-813 -828 810 0
-813 -829 811 0
-813 -831 812 0
-813 -832 814 0
-813 -833 815 0
-813 -834 816 0
-813 -835 817 0
-813 -836 818 0
814 839 0
-814 -839 0
-814 -837 810 0
-814 -838 811 0
-814 -840 812 0
-814 -841 813 0
-814 -842 815 0
-814 -843 816 0
-814 -844 817 0
-814 -845 818 0
815 848 0
-815 -848 0
-815 -846 810 0
-815 -847 811 0
-815 -849 812 0
-815 -850 813 0
-815 -851 814 0
-815 -852 816 0
-815 -853 817 0
-815 -854 818 0
816 857 0
-816 -857 0
-816 -855 810 0
-816 -856 811 0
-816 -858 812 0
-816 -859 813 0
-816 -860 814 0
-816 -861 815 0
-816 -862 817 0
-816 -863 818 0
817 866 0
-817 -866 0
-817 -864 810 0
-817 -865 811 0
-817 -867 812 0
-817 -868 813 0
-817 -869 814 0
-817 -870 815 0
-817 -871 816 0
-817 -872 818 0
818 875 0
-818 -875 0
-818 -873 810 0
-818 -874 811 0
-818 -876 812 0
-818 -877 813 0
-818 -878 814 0
-818 -879 815 0
-818 -880 816 0
-818 -881 817 0
884 0
819 797 0
-819 -797 0
-819 -792 820 0
-819 -795 821 0
-819 -799 822 0
-819 -801 823 0
-819 -803 824 0
-819 -805 825 0
-819 -807 826 0
-819 -809 827 0
820 796 0
-820 -796 0
-820 -793 819 0
-820 -794 821 0
-820 -798 822 0
-820 -800 823 0
-820 -802 824 0
-820 -804 825 0
-820 -806 826 0
-820 -808 827 0
821 812 0
-821 -812 0
-821 -810 819 0
-821 -811 820 0
-821 -813 822 0
-821 -814 823 0
-821 -815 824 0
-821 -816 825 0
-821 -817 826 0
-821 -818 827 0
822 831 0
-822 -831 0
-822 -828 819 0
-822 -829 820 0
-822 -830 821 0
-822 -832 823 0
-822 -833 824 0
-822 -834 825 0
-822 -835 826 0
-822 -836 827 0
823 840 0
-823 -840 0
-823 -837 819 0
-823 -838 820 0
-823 -839 821 0
-823 -841 822 0
-823 -842 824 0
-823 -843 825 0
-823 -844 826 0
-823 -845 827 0
824 849 0
-824 -849 0
-824 -846 819 0
-824 -847 820 0
-824 -848 821 0
-824 -850 822 0
-824 -851 823 0
-824 -852 825 0
-824 -853 826 0
-824 -854 827 0
825 858 0
-825 -858 0
-825 -855 819 0
-825 -856 820 0
-825 -857 821 0
-825 -859 822 0
-825 -860 823 0
-825 -861 824 0
-825 -862 826 0
-825 -863 827 0
826 867 0
-826 -867 0
-826 -864 819 0
-826 -865 820 0
-826 -866 821 0
-826 -868 822 0
-826 -869 823 0
-826 -870 824 0
-826 -871 825 0
-826 -872 827 0
827 876 0
-827 -876 0
-827 -873 819 0
-827 -874 820 0
-827 -875 821 0
-827 -877 822 0
-827 -878 823 0
-827 -879 824 0
-827 -880 825 0
-827 -881 826 0
885 0
828 799 0
-828 -799 0
-828 -792 829 0
-828 -795 830 0
-828 -797 831 0
-828 -801 832 0
-828 -803 833 0
-828 -805 834 0
-828 -807 835 0
-828 -809 836 0
829 798 0
-829 -798 0
-829 -793 828 0
-829 -794 830 0
-829 -796 831 0
-829 -800 832 0
-829 -802 833 0
-829 -804 834 0
-829 -806 835 0
-829 -808 836 0
830 813 0
-830 -813 0
-830 -810 828 0
-830 -811 829 0
-830 -812 831 0
-830 -814 832 0
-830 -815 833 0
-830 -816 834 0
-830 -817 835 0
-830 -818 836 0
831 822 0
-831 -822 0
-831 -819 828 0
-831 -820 829 0
-831 -821 830 0
-831 -823 832 0
-831 -824 833 0
-831 -825 834 0
-831 -826 835 0
-831 -827 836 0
832 841 0
-832 -841 0
-832 -837 828 0
-832 -838 829 0
-832 -839 830 0
-832 -840 831 0
-832 -842 833 0
-832 -843 834 0
-832 -844 835 0
-832 -845 836 0
833 850 0
-833 -850 0
-833 -846 828 0
-833 -847 829 0
-833 -848 830 0
-833 -849 831 0
-833 -851 832 0
-833 -852 834 0
-833 -853 835 0
-833 -854 836 0
834 859 0
-834 -859 0
-834 -855 828 0
-834 -856 829 0
-834 -857 830 0
-834 -858 831 0
-834 -860 832 0
-834 -861 833 0
-834 -862 835 0
-834 -863 836 0
835 868 0
-835 -868 0
-835 -864 828 0
-835 -865 829 0
-835 -866 830 0
-835 -867 831 0
-835 -869 832 0
-835 -870 833 0
-835 -871 834 0
-835 -872 836 0
836 877 0
-836 -877 0
-836 -873 828 0
-836 -874 829 0
-836 -875 830 0
-836 -876 831 0
-836 -878 832 0
-836 -879 833 0
-836 -880 834 0
-836 -881 835 0
886 0
837 801 0
-837 -801 0
-837 -792 838 0
-837 -795 839 0
-837 -797 840 0
-837 -799 841 0
-837 -803 842 0
-837 -805 843 0
-837 -807 844 0
-837 -809 845 0
838 800 0
-838 -800 0
-838 -793 837 0
-838 -794 839 0
-838 -796 840 0
-838 -798 841 0
-838 -802 842 0
-838 -804 843 0
-838 -806 844 0
-838 -808 845 0
839 814 0
-839 -814 0
-839 -810 837 0
-839 -811 838 0
-839 -812 840 0
-839 -813 841 0
-839 -815 842 0
-839 -816 843 0
-839 -817 844 0
-839 -818 845 0
840 823 0
-840 -823 0
-840 -819 837 0
-840 -820 838 0
-840 -821 839 0
-840 -822 841 0
-840 -824 842 0
-840 -825 843 0
-840 -826 844 0
-840 -827 845 0
841 832 0
-841 -832 0
-841 -828 837 0
-841 -829 838 0
-841 -830 839 0
-841 -831 840 0
-841 -833 842 0
-841 -834 843 0
-841 -835 844 0
-841 -836 845 0
842 851 0
-842 -851 0
-842 -846 837 0
-842 -847 838 0
-842 -848 839 0
-842 -849 840 0
-842 -850 841 0
-842 -852 843 0
-842 -853 844 0
-842 -854 845 0
843 860 0
-843 -860 0
-843 -855 837 0
-843 -856 838 0
-843 -857 839 0
-843 -858 840 0
-843 -859 841 0
-843 -861 842 0
-843 -862 844 0
-843 -863 845 0
844 869 0
-844 -869 0
-844 -864 837 0
-844 -865 838 0
-844 -866 839 0
-844 -867 840 0
-844 -868 841 0
-844 -870 842 0
-844 -871 843 0
-844 -872 845 0
845 878 0
-845 -878 0
-845 -873 837 0
-845 -874 838 0
-845 -875 839 0
-845 -876 840 0
-845 -877 841 0
-845 -879 842 0
-845 -880 843 0
-845 -881 844 0
887 0
846 803 0
-846 -803 0
-846 -792 847 0
-846 -795 848 0
-846 -797 849 0
-846 -799 850 0
-846 -801 851 0
-846 -805 852 0
-846 -807 853 0
-846 -809 854 0
847 802 0
-847 -802 0
-847 -793 846 0
-847 -794 848 0
-847 -796 849 0
-847 -798 850 0
-847 -800 851 0
-847 -804 852 0
-847 -806 853 0
-847 -808 854 0
848 815 0
-848 -815 0
-848 -810 846 0
-848 -811 847 0
-848 -812 849 0
-848 -813 850 0
-848 -814 851 0
-848 -816 852 0
-848 -817 853 0
-848 -818 854 0
849 824 0
-849 -824 0
-849 -819 846 0
-849 -820 847 0
-849 -821 848 0
-849 -822 850 0
-849 -823 851 0
-849 -825 852 0
-849 -826 853 0
-849 -827 854 0
850 833 0
-850 -833 0
-850 -828 846 0
-850 -829 847 0
-850 -830 848 0
-850 -831 849 0
-850 -832 851 0
-850 -834 852 0
-850 -835 853 0
-850 -836 854 0
851 842 0
-851 -842 0
-851 -837 846 0
-851 -838 847 0
-851 -839 848 0
-851 -840 849 0
-851 -841 850 0
-851 -843 852 0
-851 -844 853 0
-851 -845 854 0
852 861 0
-852 -861 0
-852 -855 846 0
-852 -856 847 0
-852 -857 848 0
-852 -858 849 0
-852 -859 850 0
-852 -860 851 0
-852 -862 853 0
-852 -863 854 0
853 870 0
-853 -870 0
-853 -864 846 0
-853 -865 847 0
-853 -866 848 0
-853 -867 849 0
-853 -868 850 0
-853 -869 851 0
-853 -871 852 0
-853 -872 854 0
854 879 0
-854 -879 0
-854 -873 846 0
-854 -874 847 0
-854 -875 848 0
-854 -876 849 0
-854 -877 850 0
-854 -878 851 0
-854 -880 852 0
-854 -881 853 0
888 0
855 805 0
-855 -805 0
-855 -792 856 0
-855 -795 857 0
-855 -797 858 0
-855 -799 859 0
-855 -801 860 0
-855 -803 861 0
-855 -807 862 0
-855 -809 863 0
856 804 0
-856 -804 0
-856 -793 855 0
-856 -794 857 0
-856 -796 858 0
-856 -798 859 0
-856 -800 860 0
-856 -802 861 0
-856 -806 862 0
-856 -808 863 0
857 816 0
-857 -816 0
-857 -810 855 0
-857 -811 856 0
-857 -812 858 0
-857 -813 859 0
-857 -814 860 0
-857 -815 861 0
-857 -817 862 0
-857 -818 863 0
858 825 0
-858 -825 0
-858 -819 855 0
-858 -820 856 0
-858 -821 857 0
-858 -822 859 0
-858 -823 860 0
-858 -824 861 0
-858 -826 862 0
-858 -827 863 0
859 834 0
-859 -834 0
-859 -828 855 0
-859 -829 856 0
-859 -830 857 0
-859 -831 858 0
-859 -832 860 0
-859 -833 861 0
-859 -835 862 0
-859 -836 863 0
860 843 0
-860 -843 0
-860 -837 855 0
-860 -838 856 0
-860 -839 857 0
-860 -840 858 0
-860 -841 859 0
-860 -842 861 0
-860 -844 862 0
-860 -845 863 0
861 852 0
-861 -852 0
-861 -846 855 0
-861 -847 856 0
-861 -848 857 0
-861 -849 858 0
-861 -850 859 0
-861 -851 860 0
-861 -853 862 0
-861 -854 863 0
862 871 0
-862 -871 0
-862 -864 855 0
-862 -865 856 0
-862 -866 857 0
-862 -867 858 0
-862 -868 859 0
-862 -869 860 0
-862 -870 861 0
-862 -872 863 0
863 880 0
-863 -880 0
-863 -873 855 0
-863 -874 856 0
-863 -875 857 0
-863 -876 858 0
-863 -877 859 0
-863 -878 860 0
-863 -879 861 0
-863 -881 862 0
889 0
864 807 0
-864 -807 0
-864 -792 865 0
-864 -795 866 0
-864 -797 867 0
-864 -799 868 0
-864 -801 869 0
-864 -803 870 0
-864 -805 871 0
-864 -809 872 0
865 806 0
-865 -806 0
-865 -793 864 0
-865 -794 866 0
-865 -796 867 0
-865 -798 868 0
-865 -800 869 0
-865 -802 870 0
-865 -804 871 0
-865 -808 872 0
866 817 0
-866 -817 0
-866 -810 864 0
-866 -811 865 0
-866 -812 867 0
-866 -813 868 0
-866 -814 869 0
-866 -815 870 0
-866 -816 871 0
-866 -818 872 0
867 826 0
-867 -826 0
-867 -819 864 0
-867 -820 865 0
-867 -821 866 0
-867 -822 868 0
-867 -823 869 0
-867 -824 870 0
-867 -825 871 0
-867 -827 872 0
868 835 0
-868 -835 0
-868 -828 864 0
-868 -829 865 0
-868 -830 866 0
-868 -831 867 0
-868 -832 869 0
-868 -833 870 0
-868 -834 871 0
-868 -836 872 0
869 844 0
-869 -844 0
-869 -837 864 0
-869 -838 865 0
-869 -839 866 0
-869 -840 867 0
-869 -841 868 0
-869 -842 870 0
-869 -843 871 0
-869 -845 872 0
870 853 0
-870 -853 0
-870 -846 864 0
-870 -847 865 0
-870 -848 866 0
-870 -849 867 0
-870 -850 868 0
-870 -851 869 0
-870 -852 871 0
-870 -854 872 0
871 862 0
-871 -862 0
-871 -855 864 0
-871 -856 865 0
-871 -857 866 0
-871 -858 867 0
-871 -859 868 0
-871 -860 869 0
-871 -861 870 0
-871 -863 872 0
872 881 0
-872 -881 0
-872 -873 864 0
-872 -874 865 0
-872 -875 866 0
-872 -876 867 0
-872 -877 868 0
-872 -878 869 0
-872 -879 870 0
-872 -880 871 0
890 0
873 809 0
-873 -809 0
-873 -792 874 0
-873 -795 875 0
-873 -797 876 0
-873 -799 877 0
-873 -801 878 0
-873 -803 879 0
-873 -805 880 0
-873 -807 881 0
874 808 0
-874 -808 0
-874 -793 873 0
-874 -794 875 0
-874 -796 876 0
-874 -798 877 0
-874 -800 878 0
-874 -802 879 0
-874 -804 880 0
-874 -806 881 0
875 818 0
-875 -818 0
-875 -810 873 0
-875 -811 874 0
-875 -812 876 0
-875 -813 877 0
-875 -814 878 0
-875 -815 879 0
-875 -816 880 0
-875 -817 881 0
876 827 0
-876 -827 0
-876 -819 873 0
-876 -820 874 0
-876 -821 875 0
-876 -822 877 0
-876 -823 878 0
-876 -824 879 0
-876 -825 880 0
-876 -826 881 0
877 836 0
-877 -836 0
-877 -828 873 0
-877 -829 874 0
-877 -830 875 0
-877 -831 876 0
-877 -832 878 0
-877 -833 879 0
-877 -834 880 0
-877 -835 881 0
878 845 0
-878 -845 0
-878 -837 873 0
-878 -838 874 0
-878 -839 875 0
-878 -840 876 0
-878 -841 877 0
-878 -842 879 0
-878 -843 880 0
-878 -844 881 0
879 854 0
-879 -854 0
-879 -846 873 0
-879 -847 874 0
-879 -848 875 0
-879 -849 876 0
-879 -850 877 0
-879 -851 878 0
-879 -852 880 0
-879 -853 881 0
880 863 0
-880 -863 0
-880 -855 873 0
-880 -856 874 0
-880 -857 875 0
-880 -858 876 0
-880 -859 877 0
-880 -860 878 0
-880 -861 879 0
-880 -862 881 0
881 872 0
-881 -872 0
-881 -864 873 0
-881 -865 874 0
-881 -866 875 0
-881 -867 876 0
-881 -868 877 0
-881 -869 878 0
-881 -870 879 0
-881 -871 880 0
-91 0
-111 792 0
-891 795 0
-891 811 0
-795 -811 891 0
-892 797 0
-892 820 0
-797 -820 892 0
-893 799 0
-893 829 0
-799 -829 893 0
-894 801 0
-894 838 0
-801 -838 894 0
-895 803 0
-895 847 0
-803 -847 895 0
-896 805 0
-896 856 0
-805 -856 896 0
-897 807 0
-897 865 0
-807 -865 897 0
-898 809 0
-898 874 0
-809 -874 898 0
-111 -891 0
-111 -892 0
-111 -893 0
-111 -894 0
-111 -895 0
-111 -896 0
-111 -897 0
-111 -898 0
-792 111 891 892 893 894 895 896 897 898 0
-131 795 0
-899 792 0
-899 794 0
-792 -794 899 0
-900 797 0
-900 821 0
-797 -821 900 0
-901 799 0
-901 830 0
-799 -830 901 0
-902 801 0
-902 839 0
-801 -839 902 0
-903 803 0
-903 848 0
-803 -848 903 0
-904 805 0
-904 857 0
-805 -857 904 0
-905 807 0
-905 866 0
-807 -866 905 0
-906 809 0
-906 875 0
-809 -875 906 0
-131 -899 0
-131 -900 0
-131 -901 0
-131 -902 0
-131 -903 0
-131 -904 0
-131 -905 0
-131 -906 0
-795 131 899 900 901 902 903 904 905 906 0
-151 797 0
-907 792 0
-907 796 0
-792 -796 907 0
-908 795 0
-908 812 0
-795 -812 908 0
-909 799 0
-909 831 0
-799 -831 909 0
-910 801 0
-910 840 0
-801 -840 910 0
-911 803 0
-911 849 0
-803 -849 911 0
-912 805 0
-912 858 0
-805 -858 912 0
-913 807 0
-913 867 0
-807 -867 913 0
-914 809 0
-914 876 0
-809 -876 914 0
-151 -907 0
-151 -908 0
-151 -909 0
-151 -910 0
-151 -911 0
-151 -912 0
-151 -913 0
-151 -914 0
-797 151 907 908 909 910 911 912 913 914 0
-171 799 0
-915 792 0
-915 798 0
-792 -798 915 0
-916 795 0
-916 813 0
-795 -813 916 0
-917 797 0
-917 822 0
-797 -822 917 0
-918 801 0
-918 841 0
-801 -841 918 0
-919 803 0
-919 850 0
-803 -850 919 0
-920 805 0
-920 859 0
-805 -859 920 0
-921 807 0
-921 868 0
-807 -868 921 0
-922 809 0
-922 877 0
-809 -877 922 0
-171 -915 0
-171 -916 0
-171 -917 0
-171 -918 0
-171 -919 0
-171 -920 0
-171 -921 0
-171 -922 0
-799 171 915 916 917 918 919 920 921 922 0
-191 801 0
-923 792 0
-923 800 0
-792 -800 923 0
-924 795 0
-924 814 0
-795 -814 924 0
-925 797 0
-925 823 0
-797 -823 925 0
-926 799 0
-926 832 0
-799 -832 926 0
-927 803 0
-927 851 0
-803 -851 927 0
-928 805 0
-928 860 0
-805 -860 928 0
-929 807 0
-929 869 0
-807 -869 929 0
-930 809 0
-930 878 0
-809 -878 930 0
-191 -923 0
-191 -924 0
-191 -925 0
-191 -926 0
-191 -927 0
-191 -928 0
-191 -929 0
-191 -930 0
-801 191 923 924 925 926 927 928 929 930 0
-211 803 0
-931 792 0
-931 802 0
-792 -802 931 0
-932 795 0
-932 815 0
-795 -815 932 0
-933 797 0
-933 824 0
-797 -824 933 0
-934 799 0
-934 833 0
-799 -833 934 0
-935 801 0
-935 842 0
-801 -842 935 0
-936 805 0
-936 861 0
-805 -861 936 0
-937 807 0
-937 870 0
-807 -870 937 0
-938 809 0
-938 879 0
-809 -879 938 0
-211 -931 0
-211 -932 0
-211 -933 0
-211 -934 0
-211 -935 0
-211 -936 0
-211 -937 0
-211 -938 0
-803 211 931 932 933 934 935 936 937 938 0
-231 805 0
-939 792 0
-939 804 0
-792 -804 939 0
-940 795 0
-940 816 0
-795 -816 940 0
-941 797 0
-941 825 0
-797 -825 941 0
-942 799 0
-942 834 0
-799 -834 942 0
-943 801 0
-943 843 0
-801 -843 943 0
-944 803 0
-944 852 0
-803 -852 944 0
-945 807 0
-945 871 0
-807 -871 945 0
-946 809 0
-946 880 0
-809 -880 946 0
-231 -939 0
-231 -940 0
-231 -941 0
-231 -942 0
-231 -943 0
-231 -944 0
-231 -945 0
-231 -946 0
-805 231 939 940 941 942 943 944 945 946 0
-251 807 0
-947 792 0
-947 806 0
-792 -806 947 0
-948 795 0
-948 817 0
-795 -817 948 0
-949 797 0
-949 826 0
-797 -826 949 0
-950 799 0
-950 835 0
-799 -835 950 0
-951 801 0
-951 844 0
-801 -844 951 0
-952 803 0
-952 853 0
-803 -853 952 0
-953 805 0
-953 862 0
-805 -862 953 0
-954 809 0
-954 881 0
-809 -881 954 0
-251 -947 0
-251 -948 0
-251 -949 0
-251 -950 0
-251 -951 0
-251 -952 0
-251 -953 0
-251 -954 0
-807 251 947 948 949 950 951 952 953 954 0
-271 809 0
-955 792 0
-955 808 0
-792 -808 955 0
-956 795 0
-956 818 0
-795 -818 956 0
-957 797 0
-957 827 0
-797 -827 957 0
-958 799 0
-958 836 0
-799 -836 958 0
-959 801 0
-959 845 0
-801 -845 959 0
-960 803 0
-960 854 0
-803 -854 960 0
-961 805 0
-961 863 0
-805 -863 961 0
-962 807 0
-962 872 0
-807 -872 962 0
-271 -955 0
-271 -956 0
-271 -957 0
-271 -958 0
-271 -959 0
-271 -960 0
-271 -961 0
-271 -962 0
-809 271 955 956 957 958 959 960 961 962 0
-93 793 0
-963 794 0
-963 810 0
-794 -810 963 0
-964 796 0
-964 819 0
-796 -819 964 0
-965 798 0
-965 828 0
-798 -828 965 0
-966 800 0
-966 837 0
-800 -837 966 0
-967 802 0
-967 846 0
-802 -846 967 0
-968 804 0
-968 855 0
-804 -855 968 0
-969 806 0
-969 864 0
-806 -864 969 0
-970 808 0
-970 873 0
-808 -873 970 0
-93 -963 0
-93 -964 0
-93 -965 0
-93 -966 0
-93 -967 0
-93 -968 0
-93 -969 0
-93 -970 0
-793 93 963 964 965 966 967 968 969 970 0
-113 0
-133 794 0
-971 793 0
-971 795 0
-793 -795 971 0
-972 796 0
-972 821 0
-796 -821 972 0
-973 798 0
-973 830 0
-798 -830 973 0
-974 800 0
-974 839 0
-800 -839 974 0
-975 802 0
-975 848 0
-802 -848 975 0
-976 804 0
-976 857 0
-804 -857 976 0
-977 806 0
-977 866 0
-806 -866 977 0
-978 808 0
-978 875 0
-808 -875 978 0
-133 -971 0
-133 -972 0
-133 -973 0
-133 -974 0
-133 -975 0
-133 -976 0
-133 -977 0
-133 -978 0
-794 133 971 972 973 974 975 976 977 978 0
-153 796 0
-979 793 0
-979 797 0
-793 -797 979 0
-980 794 0
-980 812 0
-794 -812 980 0
-981 798 0
-981 831 0
-798 -831 981 0
-982 800 0
-982 840 0
-800 -840 982 0
-983 802 0
-983 849 0
-802 -849 983 0
-984 804 0
-984 858 0
-804 -858 984 0
-985 806 0
-985 867 0
-806 -867 985 0
-986 808 0
-986 876 0
-808 -876 986 0
-153 -979 0
-153 -980 0
-153 -981 0
-153 -982 0
-153 -983 0
-153 -984 0
-153 -985 0
-153 -986 0
-796 153 979 980 981 982 983 984 985 986 0
-173 798 0
-987 793 0
-987 799 0
-793 -799 987 0
-988 794 0
-988 813 0
-794 -813 988 0
-989 796 0
-989 822 0
-796 -822 989 0
-990 800 0
-990 841 0
-800 -841 990 0
-991 802 0
-991 850 0
-802 -850 991 0
-992 804 0
-992 859 0
-804 -859 992 0
-993 806 0
-993 868 0
-806 -868 993 0
-994 808 0
-994 877 0
-808 -877 994 0
-173 -987 0
-173 -988 0
-173 -989 0
-173 -990 0
-173 -991 0
-173 -992 0
-173 -993 0
-173 -994 0
-798 173 987 988 989 990 991 992 993 994 0
-193 800 0
-995 793 0
-995 801 0
-793 -801 995 0
-996 794 0
-996 814 0
-794 -814 996 0
-997 796 0
-997 823 0
-796 -823 997 0
-998 798 0
-998 832 0
-798 -832 998 0
-999 802 0
-999 851 0
-802 -851 999 0
-1000 804 0
-1000 860 0
-804 -860 1000 0
-1001 806 0
-1001 869 0
-806 -869 1001 0
-1002 808 0
-1002 878 0
-808 -878 1002 0
-193 -995 0
-193 -996 0
-193 -997 0
-193 -998 0
-193 -999 0
-193 -1000 0
-193 -1001 0
-193 -1002 0
-800 193 995 996 997 998 999 1000 1001 1002 0
-213 802 0
-1003 793 0
-1003 803 0
-793 -803 1003 0
-1004 794 0
-1004 815 0
-794 -815 1004 0
-1005 796 0
-1005 824 0
-796 -824 1005 0
-1006 798 0
-1006 833 0
-798 -833 1006 0
-1007 800 0
-1007 842 0
-800 -842 1007 0
-1008 804 0
-1008 861 0
-804 -861 1008 0
-1009 806 0
-1009 870 0
-806 -870 1009 0
-1010 808 0
-1010 879 0
-808 -879 1010 0
-213 -1003 0
-213 -1004 0
-213 -1005 0
-213 -1006 0
-213 -1007 0
-213 -1008 0
-213 -1009 0
-213 -1010 0
-802 213 1003 1004 1005 1006 1007 1008 1009 1010 0
-233 804 0
-1011 793 0
-1011 805 0
-793 -805 1011 0
-1012 794 0
-1012 816 0
-794 -816 1012 0
-1013 796 0
-1013 825 0
-796 -825 1013 0
-1014 798 0
-1014 834 0
-798 -834 1014 0
-1015 800 0
-1015 843 0
-800 -843 1015 0
-1016 802 0
-1016 852 0
-802 -852 1016 0
-1017 806 0
-1017 871 0
-806 -871 1017 0
-1018 808 0
-1018 880 0
-808 -880 1018 0
-233 -1011 0
-233 -1012 0
-233 -1013 0
-233 -1014 0
-233 -1015 0
-233 -1016 0
-233 -1017 0
-233 -1018 0
-804 233 1011 1012 1013 1014 1015 1016 1017 1018 0
-253 806 0
-1019 793 0
-1019 807 0
-793 -807 1019 0
-1020 794 0
-1020 817 0
-794 -817 1020 0
-1021 796 0
-1021 826 0
-796 -826 1021 0
-1022 798 0
-1022 835 0
-798 -835 1022 0
-1023 800 0
-1023 844 0
-800 -844 1023 0
-1024 802 0
-1024 853 0
-802 -853 1024 0
-1025 804 0
-1025 862 0
-804 -862 1025 0
-1026 808 0
-1026 881 0
-808 -881 1026 0
-253 -1019 0
-253 -1020 0
-253 -1021 0
-253 -1022 0
-253 -1023 0
-253 -1024 0
-253 -1025 0
-253 -1026 0
-806 253 1019 1020 1021 1022 1023 1024 1025 1026 0
-273 808 0
-1027 793 0
-1027 809 0
-793 -809 1027 0
-1028 794 0
-1028 818 0
-794 -818 1028 0
-1029 796 0
-1029 827 0
-796 -827 1029 0
-1030 798 0
-1030 836 0
-798 -836 1030 0
-1031 800 0
-1031 845 0
-800 -845 1031 0
-1032 802 0
-1032 854 0
-802 -854 1032 0
-1033 804 0
-1033 863 0
-804 -863 1033 0
-1034 806 0
-1034 872 0
-806 -872 1034 0
-273 -1027 0
-273 -1028 0
-273 -1029 0
-273 -1030 0
-273 -1031 0
-273 -1032 0
-273 -1033 0
-273 -1034 0
-808 273 1027 1028 1029 1030 1031 1032 1033 1034 0
-95 810 0
-1035 811 0
-1035 793 0
-811 -793 1035 0
-1036 812 0
-1036 819 0
-812 -819 1036 0
-1037 813 0
-1037 828 0
-813 -828 1037 0
-1038 814 0
-1038 837 0
-814 -837 1038 0
-1039 815 0
-1039 846 0
-815 -846 1039 0
-1040 816 0
-1040 855 0
-816 -855 1040 0
-1041 817 0
-1041 864 0
-817 -864 1041 0
-1042 818 0
-1042 873 0
-818 -873 1042 0
-95 -1035 0
-95 -1036 0
-95 -1037 0
-95 -1038 0
-95 -1039 0
-95 -1040 0
-95 -1041 0
-95 -1042 0
-810 95 1035 1036 1037 1038 1039 1040 1041 1042 0
-115 811 0
-1043 810 0
-1043 792 0
-810 -792 1043 0
-1044 812 0
-1044 820 0
-812 -820 1044 0
-1045 813 0
-1045 829 0
-813 -829 1045 0
-1046 814 0
-1046 838 0
-814 -838 1046 0
-1047 815 0
-1047 847 0
-815 -847 1047 0
-1048 816 0
-1048 856 0
-816 -856 1048 0
-1049 817 0
-1049 865 0
-817 -865 1049 0
-1050 818 0
-1050 874 0
-818 -874 1050 0
-115 -1043 0
-115 -1044 0
-115 -1045 0
-115 -1046 0
-115 -1047 0
-115 -1048 0
-115 -1049 0
-115 -1050 0
-811 115 1043 1044 1045 1046 1047 1048 1049 1050 0
-135 0
-155 812 0
-1051 810 0
-1051 797 0
-810 -797 1051 0
-1052 811 0
-1052 796 0
-811 -796 1052 0
-1053 813 0
-1053 831 0
-813 -831 1053 0
-1054 814 0
-1054 840 0
-814 -840 1054 0
-1055 815 0
-1055 849 0
-815 -849 1055 0
-1056 816 0
-1056 858 0
-816 -858 1056 0
-1057 817 0
-1057 867 0
-817 -867 1057 0
-1058 818 0
-1058 876 0
-818 -876 1058 0
-155 -1051 0
-155 -1052 0
-155 -1053 0
-155 -1054 0
-155 -1055 0
-155 -1056 0
-155 -1057 0
-155 -1058 0
-812 155 1051 1052 1053 1054 1055 1056 1057 1058 0
-175 813 0
-1059 810 0
-1059 799 0
-810 -799 1059 0
-1060 811 0
-1060 798 0
-811 -798 1060 0
-1061 812 0
-1061 822 0
-812 -822 1061 0
-1062 814 0
-1062 841 0
-814 -841 1062 0
-1063 815 0
-1063 850 0
-815 -850 1063 0
-1064 816 0
-1064 859 0
-816 -859 1064 0
-1065 817 0
-1065 868 0
-817 -868 1065 0
-1066 818 0
-1066 877 0
-818 -877 1066 0
-175 -1059 0
-175 -1060 0
-175 -1061 0
-175 -1062 0
-175 -1063 0
-175 -1064 0
-175 -1065 0
-175 -1066 0
-813 175 1059 1060 1061 1062 1063 1064 1065 1066 0
-195 814 0
-1067 810 0
-1067 801 0
-810 -801 1067 0
-1068 811 0
-1068 800 0
-811 -800 1068 0
-1069 812 0
-1069 823 0
-812 -823 1069 0
-1070 813 0
-1070 832 0
-813 -832 1070 0
-1071 815 0
-1071 851 0
-815 -851 1071 0
-1072 816 0
-1072 860 0
-816 -860 1072 0
-1073 817 0
-1073 869 0
-817 -869 1073 0
-1074 818 0
-1074 878 0
-818 -878 1074 0
-195 -1067 0
-195 -1068 0
-195 -1069 0
-195 -1070 0
-195 -1071 0
-195 -1072 0
-195 -1073 0
-195 -1074 0
-814 195 1067 1068 1069 1070 1071 1072 1073 1074 0
-215 815 0
-1075 810 0
-1075 803 0
-810 -803 1075 0
-1076 811 0
-1076 802 0
-811 -802 1076 0
-1077 812 0
-1077 824 0
-812 -824 1077 0
-1078 813 0
-1078 833 0
-813 -833 1078 0
-1079 814 0
-1079 842 0
-814 -842 1079 0
-1080 816 0
-1080 861 0
-816 -861 1080 0
-1081 817 0
-1081 870 0
-817 -870 1081 0
-1082 818 0
-1082 879 0
-818 -879 1082 0
-215 -1075 0
-215 -1076 0
-215 -1077 0
-215 -1078 0
-215 -1079 0
-215 -1080 0
-215 -1081 0
-215 -1082 0
-815 215 1075 1076 1077 1078 1079 1080 1081 1082 0
-235 816 0
-1083 810 0
-1083 805 0
-810 -805 1083 0
-1084 811 0
-1084 804 0
-811 -804 1084 0
-1085 812 0
-1085 825 0
-812 -825 1085 0
-1086 813 0
-1086 834 0
-813 -834 1086 0
-1087 814 0
-1087 843 0
-814 -843 1087 0
-1088 815 0
-1088 852 0
-815 -852 1088 0
-1089 817 0
-1089 871 0
-817 -871 1089 0
-1090 818 0
-1090 880 0
-818 -880 1090 0
-235 -1083 0
-235 -1084 0
-235 -1085 0
-235 -1086 0
-235 -1087 0
-235 -1088 0
-235 -1089 0
-235 -1090 0
-816 235 1083 1084 1085 1086 1087 1088 1089 1090 0
-255 817 0
-1091 810 0
-1091 807 0
-810 -807 1091 0
-1092 811 0
-1092 806 0
-811 -806 1092 0
-1093 812 0
-1093 826 0
-812 -826 1093 0
-1094 813 0
-1094 835 0
-813 -835 1094 0
-1095 814 0
-1095 844 0
-814 -844 1095 0
-1096 815 0
-1096 853 0
-815 -853 1096 0
-1097 816 0
-1097 862 0
-816 -862 1097 0
-1098 818 0
-1098 881 0
-818 -881 1098 0
-255 -1091 0
-255 -1092 0
-255 -1093 0
-255 -1094 0
-255 -1095 0
-255 -1096 0
-255 -1097 0
-255 -1098 0
-817 255 1091 1092 1093 1094 1095 1096 1097 1098 0
-275 818 0
-1099 810 0
-1099 809 0
-810 -809 1099 0
-1100 811 0
-1100 808 0
-811 -808 1100 0
-1101 812 0
-1101 827 0
-812 -827 1101 0
-1102 813 0
-1102 836 0
-813 -836 1102 0
-1103 814 0
-1103 845 0
-814 -845 1103 0
-1104 815 0
-1104 854 0
-815 -854 1104 0
-1105 816 0
-1105 863 0
-816 -863 1105 0
-1106 817 0
-1106 872 0
-817 -872 1106 0
-275 -1099 0
-275 -1100 0
-275 -1101 0
-275 -1102 0
-275 -1103 0
-275 -1104 0
-275 -1105 0
-275 -1106 0
-818 275 1099 1100 1101 1102 1103 1104 1105 1106 0
-97 819 0
-1107 820 0
-1107 793 0
-820 -793 1107 0
-1108 821 0
-1108 810 0
-821 -810 1108 0
-1109 822 0
-1109 828 0
-822 -828 1109 0
-1110 823 0
-1110 837 0
-823 -837 1110 0
-1111 824 0
-1111 846 0
-824 -846 1111 0
-1112 825 0
-1112 855 0
-825 -855 1112 0
-1113 826 0
-1113 864 0
-826 -864 1113 0
-1114 827 0
-1114 873 0
-827 -873 1114 0
-97 -1107 0
-97 -1108 0
-97 -1109 0
-97 -1110 0
-97 -1111 0
-97 -1112 0
-97 -1113 0
-97 -1114 0
-819 97 1107 1108 1109 1110 1111 1112 1113 1114 0
-117 820 0
-1115 819 0
-1115 792 0
-819 -792 1115 0
-1116 821 0
-1116 811 0
-821 -811 1116 0
-1117 822 0
-1117 829 0
-822 -829 1117 0
-1118 823 0
-1118 838 0
-823 -838 1118 0
-1119 824 0
-1119 847 0
-824 -847 1119 0
-1120 825 0
-1120 856 0
-825 -856 1120 0
-1121 826 0
-1121 865 0
-826 -865 1121 0
-1122 827 0
-1122 874 0
-827 -874 1122 0
-117 -1115 0
-117 -1116 0
-117 -1117 0
-117 -1118 0
-117 -1119 0
-117 -1120 0
-117 -1121 0
-117 -1122 0
-820 117 1115 1116 1117 1118 1119 1120 1121 1122 0
-137 821 0
-1123 819 0
-1123 795 0
-819 -795 1123 0
-1124 820 0
-1124 794 0
-820 -794 1124 0
-1125 822 0
-1125 830 0
-822 -830 1125 0
-1126 823 0
-1126 839 0
-823 -839 1126 0
-1127 824 0
-1127 848 0
-824 -848 1127 0
-1128 825 0
-1128 857 0
-825 -857 1128 0
-1129 826 0
-1129 866 0
-826 -866 1129 0
-1130 827 0
-1130 875 0
-827 -875 1130 0
-137 -1123 0
-137 -1124 0
-137 -1125 0
-137 -1126 0
-137 -1127 0
-137 -1128 0
-137 -1129 0
-137 -1130 0
-821 137 1123 1124 1125 1126 1127 1128 1129 1130 0
-157 0
-177 822 0
-1131 819 0
-1131 799 0
-819 -799 1131 0
-1132 820 0
-1132 798 0
-820 -798 1132 0
-1133 821 0
-1133 813 0
-821 -813 1133 0
-1134 823 0
-1134 841 0
-823 -841 1134 0
-1135 824 0
-1135 850 0
-824 -850 1135 0
-1136 825 0
-1136 859 0
-825 -859 1136 0
-1137 826 0
-1137 868 0
-826 -868 1137 0
-1138 827 0
-1138 877 0
-827 -877 1138 0
-177 -1131 0
-177 -1132 0
-177 -1133 0
-177 -1134 0
-177 -1135 0
-177 -1136 0
-177 -1137 0
-177 -1138 0
-822 177 1131 1132 1133 1134 1135 1136 1137 1138 0
-197 823 0
-1139 819 0
-1139 801 0
-819 -801 1139 0
-1140 820 0
-1140 800 0
-820 -800 1140 0
-1141 821 0
-1141 814 0
-821 -814 1141 0
-1142 822 0
-1142 832 0
-822 -832 1142 0
-1143 824 0
-1143 851 0
-824 -851 1143 0
-1144 825 0
-1144 860 0
-825 -860 1144 0
-1145 826 0
-1145 869 0
-826 -869 1145 0
-1146 827 0
-1146 878 0
-827 -878 1146 0
-197 -1139 0
-197 -1140 0
-197 -1141 0
-197 -1142 0
-197 -1143 0
-197 -1144 0
-197 -1145 0
-197 -1146 0
-823 197 1139 1140 1141 1142 1143 1144 1145 1146 0
-217 824 0
-1147 819 0
-1147 803 0
-819 -803 1147 0
-1148 820 0
-1148 802 0
-820 -802 1148 0
-1149 821 0
-1149 815 0
-821 -815 1149 0
-1150 822 0
-1150 833 0
-822 -833 1150 0
-1151 823 0
-1151 842 0
-823 -842 1151 0
-1152 825 0
-1152 861 0
-825 -861 1152 0
-1153 826 0
-1153 870 0
-826 -870 1153 0
-1154 827 0
-1154 879 0
-827 -879 1154 0
-217 -1147 0
-217 -1148 0
-217 -1149 0
-217 -1150 0
-217 -1151 0
-217 -1152 0
-217 -1153 0
-217 -1154 0
-824 217 1147 1148 1149 1150 1151 1152 1153 1154 0
-237 825 0
-1155 819 0
-1155 805 0
-819 -805 1155 0
-1156 820 0
-1156 804 0
-820 -804 1156 0
-1157 821 0
-1157 816 0
-821 -816 1157 0
-1158 822 0
-1158 834 0
-822 -834 1158 0
-1159 823 0
-1159 843 0
-823 -843 1159 0
-1160 824 0
-1160 852 0
-824 -852 1160 0
-1161 826 0
-1161 871 0
-826 -871 1161 0
-1162 827 0
-1162 880 0
-827 -880 1162 0
-237 -1155 0
-237 -1156 0
-237 -1157 0
-237 -1158 0
-237 -1159 0
-237 -1160 0
-237 -1161 0
-237 -1162 0
-825 237 1155 1156 1157 1158 1159 1160 1161 1162 0
-257 826 0
-1163 819 0
-1163 807 0
-819 -807 1163 0
-1164 820 0
-1164 806 0
-820 -806 1164 0
-1165 821 0
-1165 817 0
-821 -817 1165 0
-1166 822 0
-1166 835 0
-822 -835 1166 0
-1167 823 0
-1167 844 0
-823 -844 1167 0
-1168 824 0
-1168 853 0
-824 -853 1168 0
-1169 825 0
-1169 862 0
-825 -862 1169 0
-1170 827 0
-1170 881 0
-827 -881 1170 0
-257 -1163 0
-257 -1164 0
-257 -1165 0
-257 -1166 0
-257 -1167 0
-257 -1168 0
-257 -1169 0
-257 -1170 0
-826 257 1163 1164 1165 1166 1167 1168 1169 1170 0
-277 827 0
-1171 819 0
-1171 809 0
-819 -809 1171 0
-1172 820 0
-1172 808 0
-820 -808 1172 0
-1173 821 0
-1173 818 0
-821 -818 1173 0
-1174 822 0
-1174 836 0
-822 -836 1174 0
-1175 823 0
-1175 845 0
-823 -845 1175 0
-1176 824 0
-1176 854 0
-824 -854 1176 0
-1177 825 0
-1177 863 0
-825 -863 1177 0
-1178 826 0
-1178 872 0
-826 -872 1178 0
-277 -1171 0
-277 -1172 0
-277 -1173 0
-277 -1174 0
-277 -1175 0
-277 -1176 0
-277 -1177 0
-277 -1178 0
-827 277 1171 1172 1173 1174 1175 1176 1177 1178 0
-99 828 0
-1179 829 0
-1179 793 0
-829 -793 1179 0
-1180 830 0
-1180 810 0
-830 -810 1180 0
-1181 831 0
-1181 819 0
-831 -819 1181 0
-1182 832 0
-1182 837 0
-832 -837 1182 0
-1183 833 0
-1183 846 0
-833 -846 1183 0
-1184 834 0
-1184 855 0
-834 -855 1184 0
-1185 835 0
-1185 864 0
-835 -864 1185 0
-1186 836 0
-1186 873 0
-836 -873 1186 0
-99 -1179 0
-99 -1180 0
-99 -1181 0
-99 -1182 0
-99 -1183 0
-99 -1184 0
-99 -1185 0
-99 -1186 0
-828 99 1179 1180 1181 1182 1183 1184 1185 1186 0
-119 829 0
-1187 828 0
-1187 792 0
-828 -792 1187 0
-1188 830 0
-1188 811 0
-830 -811 1188 0
-1189 831 0
-1189 820 0
-831 -820 1189 0
-1190 832 0
-1190 838 0
-832 -838 1190 0
-1191 833 0
-1191 847 0
-833 -847 1191 0
-1192 834 0
-1192 856 0
-834 -856 1192 0
-1193 835 0
-1193 865 0
-835 -865 1193 0
-1194 836 0
-1194 874 0
-836 -874 1194 0
-119 -1187 0
-119 -1188 0
-119 -1189 0
-119 -1190 0
-119 -1191 0
-119 -1192 0
-119 -1193 0
-119 -1194 0
-829 119 1187 1188 1189 1190 1191 1192 1193 1194 0
-139 830 0
-1195 828 0
-1195 795 0
-828 -795 1195 0
-1196 829 0
-1196 794 0
-829 -794 1196 0
-1197 831 0
-1197 821 0
-831 -821 1197 0
-1198 832 0
-1198 839 0
-832 -839 1198 0
-1199 833 0
-1199 848 0
-833 -848 1199 0
-1200 834 0
-1200 857 0
-834 -857 1200 0
-1201 835 0
-1201 866 0
-835 -866 1201 0
-1202 836 0
-1202 875 0
-836 -875 1202 0
-139 -1195 0
-139 -1196 0
-139 -1197 0
-139 -1198 0
-139 -1199 0
-139 -1200 0
-139 -1201 0
-139 -1202 0
-830 139 1195 1196 1197 1198 1199 1200 1201 1202 0
-159 831 0
-1203 828 0
-1203 797 0
-828 -797 1203 0
-1204 829 0
-1204 796 0
-829 -796 1204 0
-1205 830 0
-1205 812 0
-830 -812 1205 0
-1206 832 0
-1206 840 0
-832 -840 1206 0
-1207 833 0
-1207 849 0
-833 -849 1207 0
-1208 834 0
-1208 858 0
-834 -858 1208 0
-1209 835 0
-1209 867 0
-835 -867 1209 0
-1210 836 0
-1210 876 0
-836 -876 1210 0
-159 -1203 0
-159 -1204 0
-159 -1205 0
-159 -1206 0
-159 -1207 0
-159 -1208 0
-159 -1209 0
-159 -1210 0
-831 159 1203 1204 1205 1206 1207 1208 1209 1210 0
-179 0
-199 832 0
-1211 828 0
-1211 801 0
-828 -801 1211 0
-1212 829 0
-1212 800 0
-829 -800 1212 0
-1213 830 0
-1213 814 0
-830 -814 1213 0
-1214 831 0
-1214 823 0
-831 -823 1214 0
-1215 833 0
-1215 851 0
-833 -851 1215 0
-1216 834 0
-1216 860 0
-834 -860 1216 0
-1217 835 0
-1217 869 0
-835 -869 1217 0
-1218 836 0
-1218 878 0
-836 -878 1218 0
-199 -1211 0
-199 -1212 0
-199 -1213 0
-199 -1214 0
-199 -1215 0
-199 -1216 0
-199 -1217 0
-199 -1218 0
-832 199 1211 1212 1213 1214 1215 1216 1217 1218 0
-219 833 0
-1219 828 0
-1219 803 0
-828 -803 1219 0
-1220 829 0
-1220 802 0
-829 -802 1220 0
-1221 830 0
-1221 815 0
-830 -815 1221 0
-1222 831 0
-1222 824 0
-831 -824 1222 0
-1223 832 0
-1223 842 0
-832 -842 1223 0
-1224 834 0
-1224 861 0
-834 -861 1224 0
-1225 835 0
-1225 870 0
-835 -870 1225 0
-1226 836 0
-1226 879 0
-836 -879 1226 0
-219 -1219 0
-219 -1220 0
-219 -1221 0
-219 -1222 0
-219 -1223 0
-219 -1224 0
-219 -1225 0
-219 -1226 0
-833 219 1219 1220 1221 1222 1223 1224 1225 1226 0
-239 834 0
-1227 828 0
-1227 805 0
-828 -805 1227 0
-1228 829 0
-1228 804 0
-829 -804 1228 0
-1229 830 0
-1229 816 0
-830 -816 1229 0
-1230 831 0
-1230 825 0
-831 -825 1230 0
-1231 832 0
-1231 843 0
-832 -843 1231 0
-1232 833 0
-1232 852 0
-833 -852 1232 0
-1233 835 0
-1233 871 0
-835 -871 1233 0
-1234 836 0
-1234 880 0
-836 -880 1234 0
-239 -1227 0
-239 -1228 0
-239 -1229 0
-239 -1230 0
-239 -1231 0
-239 -1232 0
-239 -1233 0
-239 -1234 0
-834 239 1227 1228 1229 1230 1231 1232 1233 1234 0
-259 835 0
-1235 828 0
-1235 807 0
-828 -807 1235 0
-1236 829 0
-1236 806 0
-829 -806 1236 0
-1237 830 0
-1237 817 0
-830 -817 1237 0
-1238 831 0
-1238 826 0
-831 -826 1238 0
-1239 832 0
-1239 844 0
-832 -844 1239 0
-1240 833 0
-1240 853 0
-833 -853 1240 0
-1241 834 0
-1241 862 0
-834 -862 1241 0
-1242 836 0
-1242 881 0
-836 -881 1242 0
-259 -1235 0
-259 -1236 0
-259 -1237 0
-259 -1238 0
-259 -1239 0
-259 -1240 0
-259 -1241 0
-259 -1242 0
-835 259 1235 1236 1237 1238 1239 1240 1241 1242 0
-279 836 0
-1243 828 0
-1243 809 0
-828 -809 1243 0
-1244 829 0
-1244 808 0
-829 -808 1244 0
-1245 830 0
-1245 818 0
-830 -818 1245 0
-1246 831 0
-1246 827 0
-831 -827 1246 0
-1247 832 0
-1247 845 0
-832 -845 1247 0
-1248 833 0
-1248 854 0
-833 -854 1248 0
-1249 834 0
-1249 863 0
-834 -863 1249 0
-1250 835 0
-1250 872 0
-835 -872 1250 0
-279 -1243 0
-279 -1244 0
-279 -1245 0
-279 -1246 0
-279 -1247 0
-279 -1248 0
-279 -1249 0
-279 -1250 0
-836 279 1243 1244 1245 1246 1247 1248 1249 1250 0
-101 837 0
-1251 838 0
-1251 793 0
-838 -793 1251 0
-1252 839 0
-1252 810 0
-839 -810 1252 0
-1253 840 0
-1253 819 0
-840 -819 1253 0
-1254 841 0
-1254 828 0
-841 -828 1254 0
-1255 842 0
-1255 846 0
-842 -846 1255 0
-1256 843 0
-1256 855 0
-843 -855 1256 0
-1257 844 0
-1257 864 0
-844 -864 1257 0
-1258 845 0
-1258 873 0
-845 -873 1258 0
-101 -1251 0
-101 -1252 0
-101 -1253 0
-101 -1254 0
-101 -1255 0
-101 -1256 0
-101 -1257 0
-101 -1258 0
-837 101 1251 1252 1253 1254 1255 1256 1257 1258 0
-121 838 0
-1259 837 0
-1259 792 0
-837 -792 1259 0
-1260 839 0
-1260 811 0
-839 -811 1260 0
-1261 840 0
-1261 820 0
-840 -820 1261 0
-1262 841 0
-1262 829 0
-841 -829 1262 0
-1263 842 0
-1263 847 0
-842 -847 1263 0
-1264 843 0
-1264 856 0
-843 -856 1264 0
-1265 844 0
-1265 865 0
-844 -865 1265 0
-1266 845 0
-1266 874 0
-845 -874 1266 0
-121 -1259 0
-121 -1260 0
-121 -1261 0
-121 -1262 0
-121 -1263 0
-121 -1264 0
-121 -1265 0
-121 -1266 0
-838 121 1259 1260 1261 1262 1263 1264 1265 1266 0
-141 839 0
-1267 837 0
-1267 795 0
-837 -795 1267 0
-1268 838 0
-1268 794 0
-838 -794 1268 0
-1269 840 0
-1269 821 0
-840 -821 1269 0
-1270 841 0
-1270 830 0
-841 -830 1270 0
-1271 842 0
-1271 848 0
-842 -848 1271 0
-1272 843 0
-1272 857 0
-843 -857 1272 0
-1273 844 0
-1273 866 0
-844 -866 1273 0
-1274 845 0
-1274 875 0
-845 -875 1274 0
-141 -1267 0
-141 -1268 0
-141 -1269 0
-141 -1270 0
-141 -1271 0
-141 -1272 0
-141 -1273 0
-141 -1274 0
-839 141 1267 1268 1269 1270 1271 1272 1273 1274 0
-161 840 0
-1275 837 0
-1275 797 0
-837 -797 1275 0
-1276 838 0
-1276 796 0
-838 -796 1276 0
-1277 839 0
-1277 812 0
-839 -812 1277 0
-1278 841 0
-1278 831 0
-841 -831 1278 0
-1279 842 0
-1279 849 0
-842 -849 1279 0
-1280 843 0
-1280 858 0
-843 -858 1280 0
-1281 844 0
-1281 867 0
-844 -867 1281 0
-1282 845 0
-1282 876 0
-845 -876 1282 0
-161 -1275 0
-161 -1276 0
-161 -1277 0
-161 -1278 0
-161 -1279 0
-161 -1280 0
-161 -1281 0
-161 -1282 0
-840 161 1275 1276 1277 1278 1279 1280 1281 1282 0
-181 841 0
-1283 837 0
-1283 799 0
-837 -799 1283 0
-1284 838 0
-1284 798 0
-838 -798 1284 0
-1285 839 0
-1285 813 0
-839 -813 1285 0
-1286 840 0
-1286 822 0
-840 -822 1286 0
-1287 842 0
-1287 850 0
-842 -850 1287 0
-1288 843 0
-1288 859 0
-843 -859 1288 0
-1289 844 0
-1289 868 0
-844 -868 1289 0
-1290 845 0
-1290 877 0
-845 -877 1290 0
-181 -1283 0
-181 -1284 0
-181 -1285 0
-181 -1286 0
-181 -1287 0
-181 -1288 0
-181 -1289 0
-181 -1290 0
-841 181 1283 1284 1285 1286 1287 1288 1289 1290 0
-201 0
-221 842 0
-1291 837 0
-1291 803 0
-837 -803 1291 0
-1292 838 0
-1292 802 0
-838 -802 1292 0
-1293 839 0
-1293 815 0
-839 -815 1293 0
-1294 840 0
-1294 824 0
-840 -824 1294 0
-1295 841 0
-1295 833 0
-841 -833 1295 0
-1296 843 0
-1296 861 0
-843 -861 1296 0
-1297 844 0
-1297 870 0
-844 -870 1297 0
-1298 845 0
-1298 879 0
-845 -879 1298 0
-221 -1291 0
-221 -1292 0
-221 -1293 0
-221 -1294 0
-221 -1295 0
-221 -1296 0
-221 -1297 0
-221 -1298 0
-842 221 1291 1292 1293 1294 1295 1296 1297 1298 0
-241 843 0
-1299 837 0
-1299 805 0
-837 -805 1299 0
-1300 838 0
-1300 804 0
-838 -804 1300 0
-1301 839 0
-1301 816 0
-839 -816 1301 0
-1302 840 0
-1302 825 0
-840 -825 1302 0
-1303 841 0
-1303 834 0
-841 -834 1303 0
-1304 842 0
-1304 852 0
-842 -852 1304 0
-1305 844 0
-1305 871 0
-844 -871 1305 0
-1306 845 0
-1306 880 0
-845 -880 1306 0
-241 -1299 0
-241 -1300 0
-241 -1301 0
-241 -1302 0
-241 -1303 0
-241 -1304 0
-241 -1305 0
-241 -1306 0
-843 241 1299 1300 1301 1302 1303 1304 1305 1306 0
-261 844 0
-1307 837 0
-1307 807 0
-837 -807 1307 0
-1308 838 0
-1308 806 0
-838 -806 1308 0
-1309 839 0
-1309 817 0
-839 -817 1309 0
-1310 840 0
-1310 826 0
-840 -826 1310 0
-1311 841 0
-1311 835 0
-841 -835 1311 0
-1312 842 0
-1312 853 0
-842 -853 1312 0
-1313 843 0
-1313 862 0
-843 -862 1313 0
-1314 845 0
-1314 881 0
-845 -881 1314 0
-261 -1307 0
-261 -1308 0
-261 -1309 0
-261 -1310 0
-261 -1311 0
-261 -1312 0
-261 -1313 0
-261 -1314 0
-844 261 1307 1308 1309 1310 1311 1312 1313 1314 0
-281 845 0
-1315 837 0
-1315 809 0
-837 -809 1315 0
-1316 838 0
-1316 808 0
-838 -808 1316 0
-1317 839 0
-1317 818 0
-839 -818 1317 0
-1318 840 0
-1318 827 0
-840 -827 1318 0
-1319 841 0
-1319 836 0
-841 -836 1319 0
-1320 842 0
-1320 854 0
-842 -854 1320 0
-1321 843 0
-1321 863 0
-843 -863 1321 0
-1322 844 0
-1322 872 0
-844 -872 1322 0
-281 -1315 0
-281 -1316 0
-281 -1317 0
-281 -1318 0
-281 -1319 0
-281 -1320 0
-281 -1321 0
-281 -1322 0
-845 281 1315 1316 1317 1318 1319 1320 1321 1322 0
-103 846 0
-1323 847 0
-1323 793 0
-847 -793 1323 0
-1324 848 0
-1324 810 0
-848 -810 1324 0
-1325 849 0
-1325 819 0
-849 -819 1325 0
-1326 850 0
-1326 828 0
-850 -828 1326 0
-1327 851 0
-1327 837 0
-851 -837 1327 0
-1328 852 0
-1328 855 0
-852 -855 1328 0
-1329 853 0
-1329 864 0
-853 -864 1329 0
-1330 854 0
-1330 873 0
-854 -873 1330 0
-103 -1323 0
-103 -1324 0
-103 -1325 0
-103 -1326 0
-103 -1327 0
-103 -1328 0
-103 -1329 0
-103 -1330 0
-846 103 1323 1324 1325 1326 1327 1328 1329 1330 0
-123 847 0
-1331 846 0
-1331 792 0
-846 -792 1331 0
-1332 848 0
-1332 811 0
-848 -811 1332 0
-1333 849 0
-1333 820 0
-849 -820 1333 0
-1334 850 0
-1334 829 0
-850 -829 1334 0
-1335 851 0
-1335 838 0
-851 -838 1335 0
-1336 852 0
-1336 856 0
-852 -856 1336 0
-1337 853 0
-1337 865 0
-853 -865 1337 0
-1338 854 0
-1338 874 0
-854 -874 1338 0
-123 -1331 0
-123 -1332 0
-123 -1333 0
-123 -1334 0
-123 -1335 0
-123 -1336 0
-123 -1337 0
-123 -1338 0
-847 123 1331 1332 1333 1334 1335 1336 1337 1338 0
-143 848 0
-1339 846 0
-1339 795 0
-846 -795 1339 0
-1340 847 0
-1340 794 0
-847 -794 1340 0
-1341 849 0
-1341 821 0
-849 -821 1341 0
-1342 850 0
-1342 830 0
-850 -830 1342 0
-1343 851 0
-1343 839 0
-851 -839 1343 0
-1344 852 0
-1344 857 0
-852 -857 1344 0
-1345 853 0
-1345 866 0
-853 -866 1345 0
-1346 854 0
-1346 875 0
-854 -875 1346 0
-143 -1339 0
-143 -1340 0
-143 -1341 0
-143 -1342 0
-143 -1343 0
-143 -1344 0
-143 -1345 0
-143 -1346 0
-848 143 1339 1340 1341 1342 1343 1344 1345 1346 0
-163 849 0
-1347 846 0
-1347 797 0
-846 -797 1347 0
-1348 847 0
-1348 796 0
-847 -796 1348 0
-1349 848 0
-1349 812 0
-848 -812 1349 0
-1350 850 0
-1350 831 0
-850 -831 1350 0
-1351 851 0
-1351 840 0
-851 -840 1351 0
-1352 852 0
-1352 858 0
-852 -858 1352 0
-1353 853 0
-1353 867 0
-853 -867 1353 0
-1354 854 0
-1354 876 0
-854 -876 1354 0
-163 -1347 0
-163 -1348 0
-163 -1349 0
-163 -1350 0
-163 -1351 0
-163 -1352 0
-163 -1353 0
-163 -1354 0
-849 163 1347 1348 1349 1350 1351 1352 1353 1354 0
-183 850 0
-1355 846 0
-1355 799 0
-846 -799 1355 0
-1356 847 0
-1356 798 0
-847 -798 1356 0
-1357 848 0
-1357 813 0
-848 -813 1357 0
-1358 849 0
-1358 822 0
-849 -822 1358 0
-1359 851 0
-1359 841 0
-851 -841 1359 0
-1360 852 0
-1360 859 0
-852 -859 1360 0
-1361 853 0
-1361 868 0
-853 -868 1361 0
-1362 854 0
-1362 877 0
-854 -877 1362 0
-183 -1355 0
-183 -1356 0
-183 -1357 0
-183 -1358 0
-183 -1359 0
-183 -1360 0
-183 -1361 0
-183 -1362 0
-850 183 1355 1356 1357 1358 1359 1360 1361 1362 0
-203 851 0
-1363 846 0
-1363 801 0
-846 -801 1363 0
-1364 847 0
-1364 800 0
-847 -800 1364 0
-1365 848 0
-1365 814 0
-848 -814 1365 0
-1366 849 0
-1366 823 0
-849 -823 1366 0
-1367 850 0
-1367 832 0
-850 -832 1367 0
-1368 852 0
-1368 860 0
-852 -860 1368 0
-1369 853 0
-1369 869 0
-853 -869 1369 0
-1370 854 0
-1370 878 0
-854 -878 1370 0
-203 -1363 0
-203 -1364 0
-203 -1365 0
-203 -1366 0
-203 -1367 0
-203 -1368 0
-203 -1369 0
-203 -1370 0
-851 203 1363 1364 1365 1366 1367 1368 1369 1370 0
-223 0
-243 852 0
-1371 846 0
-1371 805 0
-846 -805 1371 0
-1372 847 0
-1372 804 0
-847 -804 1372 0
-1373 848 0
-1373 816 0
-848 -816 1373 0
-1374 849 0
-1374 825 0
-849 -825 1374 0
-1375 850 0
-1375 834 0
-850 -834 1375 0
-1376 851 0
-1376 843 0
-851 -843 1376 0
-1377 853 0
-1377 871 0
-853 -871 1377 0
-1378 854 0
-1378 880 0
-854 -880 1378 0
-243 -1371 0
-243 -1372 0
-243 -1373 0
-243 -1374 0
-243 -1375 0
-243 -1376 0
-243 -1377 0
-243 -1378 0
-852 243 1371 1372 1373 1374 1375 1376 1377 1378 0
-263 853 0
-1379 846 0
-1379 807 0
-846 -807 1379 0
-1380 847 0
-1380 806 0
-847 -806 1380 0
-1381 848 0
-1381 817 0
-848 -817 1381 0
-1382 849 0
-1382 826 0
-849 -826 1382 0
-1383 850 0
-1383 835 0
-850 -835 1383 0
-1384 851 0
-1384 844 0
-851 -844 1384 0
-1385 852 0
-1385 862 0
-852 -862 1385 0
-1386 854 0
-1386 881 0
-854 -881 1386 0
-263 -1379 0
-263 -1380 0
-263 -1381 0
-263 -1382 0
-263 -1383 0
-263 -1384 0
-263 -1385 0
-263 -1386 0
-853 263 1379 1380 1381 1382 1383 1384 1385 1386 0
-283 854 0
-1387 846 0
-1387 809 0
-846 -809 1387 0
-1388 847 0
-1388 808 0
-847 -808 1388 0
-1389 848 0
-1389 818 0
-848 -818 1389 0
-1390 849 0
-1390 827 0
-849 -827 1390 0
-1391 850 0
-1391 836 0
-850 -836 1391 0
-1392 851 0
-1392 845 0
-851 -845 1392 0
-1393 852 0
-1393 863 0
-852 -863 1393 0
-1394 853 0
-1394 872 0
-853 -872 1394 0
-283 -1387 0
-283 -1388 0
-283 -1389 0
-283 -1390 0
-283 -1391 0
-283 -1392 0
-283 -1393 0
-283 -1394 0
-854 283 1387 1388 1389 1390 1391 1392 1393 1394 0
-105 855 0
-1395 856 0
-1395 793 0
-856 -793 1395 0
-1396 857 0
-1396 810 0
-857 -810 1396 0
-1397 858 0
-1397 819 0
-858 -819 1397 0
-1398 859 0
-1398 828 0
-859 -828 1398 0
-1399 860 0
-1399 837 0
-860 -837 1399 0
-1400 861 0
-1400 846 0
-861 -846 1400 0
-1401 862 0
-1401 864 0
-862 -864 1401 0
-1402 863 0
-1402 873 0
-863 -873 1402 0
-105 -1395 0
-105 -1396 0
-105 -1397 0
-105 -1398 0
-105 -1399 0
-105 -1400 0
-105 -1401 0
-105 -1402 0
-855 105 1395 1396 1397 1398 1399 1400 1401 1402 0
-125 856 0
-1403 855 0
-1403 792 0
-855 -792 1403 0
-1404 857 0
-1404 811 0
-857 -811 1404 0
-1405 858 0
-1405 820 0
-858 -820 1405 0
-1406 859 0
-1406 829 0
-859 -829 1406 0
-1407 860 0
-1407 838 0
-860 -838 1407 0
-1408 861 0
-1408 847 0
-861 -847 1408 0
-1409 862 0
-1409 865 0
-862 -865 1409 0
-1410 863 0
-1410 874 0
-863 -874 1410 0
-125 -1403 0
-125 -1404 0
-125 -1405 0
-125 -1406 0
-125 -1407 0
-125 -1408 0
-125 -1409 0
-125 -1410 0
-856 125 1403 1404 1405 1406 1407 1408 1409 1410 0
-145 857 0
-1411 855 0
-1411 795 0
-855 -795 1411 0
-1412 856 0
-1412 794 0
-856 -794 1412 0
-1413 858 0
-1413 821 0
-858 -821 1413 0
-1414 859 0
-1414 830 0
-859 -830 1414 0
-1415 860 0
-1415 839 0
-860 -839 1415 0
-1416 861 0
-1416 848 0
-861 -848 1416 0
-1417 862 0
-1417 866 0
-862 -866 1417 0
-1418 863 0
-1418 875 0
-863 -875 1418 0
-145 -1411 0
-145 -1412 0
-145 -1413 0
-145 -1414 0
-145 -1415 0
-145 -1416 0
-145 -1417 0
-145 -1418 0
-857 145 1411 1412 1413 1414 1415 1416 1417 1418 0
-165 858 0
-1419 855 0
-1419 797 0
-855 -797 1419 0
-1420 856 0
-1420 796 0
-856 -796 1420 0
-1421 857 0
-1421 812 0
-857 -812 1421 0
-1422 859 0
-1422 831 0
-859 -831 1422 0
-1423 860 0
-1423 840 0
-860 -840 1423 0
-1424 861 0
-1424 849 0
-861 -849 1424 0
-1425 862 0
-1425 867 0
-862 -867 1425 0
-1426 863 0
-1426 876 0
-863 -876 1426 0
-165 -1419 0
-165 -1420 0
-165 -1421 0
-165 -1422 0
-165 -1423 0
-165 -1424 0
-165 -1425 0
-165 -1426 0
-858 165 1419 1420 1421 1422 1423 1424 1425 1426 0
-185 859 0
-1427 855 0
-1427 799 0
-855 -799 1427 0
-1428 856 0
-1428 798 0
-856 -798 1428 0
-1429 857 0
-1429 813 0
-857 -813 1429 0
-1430 858 0
-1430 822 0
-858 -822 1430 0
-1431 860 0
-1431 841 0
-860 -841 1431 0
-1432 861 0
-1432 850 0
-861 -850 1432 0
-1433 862 0
-1433 868 0
-862 -868 1433 0
-1434 863 0
-1434 877 0
-863 -877 1434 0
-185 -1427 0
-185 -1428 0
-185 -1429 0
-185 -1430 0
-185 -1431 0
-185 -1432 0
-185 -1433 0
-185 -1434 0
-859 185 1427 1428 1429 1430 1431 1432 1433 1434 0
-205 860 0
-1435 855 0
-1435 801 0
-855 -801 1435 0
-1436 856 0
-1436 800 0
-856 -800 1436 0
-1437 857 0
-1437 814 0
-857 -814 1437 0
-1438 858 0
-1438 823 0
-858 -823 1438 0
-1439 859 0
-1439 832 0
-859 -832 1439 0
-1440 861 0
-1440 851 0
-861 -851 1440 0
-1441 862 0
-1441 869 0
-862 -869 1441 0
-1442 863 0
-1442 878 0
-863 -878 1442 0
-205 -1435 0
-205 -1436 0
-205 -1437 0
-205 -1438 0
-205 -1439 0
-205 -1440 0
-205 -1441 0
-205 -1442 0
-860 205 1435 1436 1437 1438 1439 1440 1441 1442 0
-225 861 0
-1443 855 0
-1443 803 0
-855 -803 1443 0
-1444 856 0
-1444 802 0
-856 -802 1444 0
-1445 857 0
-1445 815 0
-857 -815 1445 0
-1446 858 0
-1446 824 0
-858 -824 1446 0
-1447 859 0
-1447 833 0
-859 -833 1447 0
-1448 860 0
-1448 842 0
-860 -842 1448 0
-1449 862 0
-1449 870 0
-862 -870 1449 0
-1450 863 0
-1450 879 0
-863 -879 1450 0
-225 -1443 0
-225 -1444 0
-225 -1445 0
-225 -1446 0
-225 -1447 0
-225 -1448 0
-225 -1449 0
-225 -1450 0
-861 225 1443 1444 1445 1446 1447 1448 1449 1450 0
-245 0
-265 862 0
-1451 855 0
-1451 807 0
-855 -807 1451 0
-1452 856 0
-1452 806 0
-856 -806 1452 0
-1453 857 0
-1453 817 0
-857 -817 1453 0
-1454 858 0
-1454 826 0
-858 -826 1454 0
-1455 859 0
-1455 835 0
-859 -835 1455 0
-1456 860 0
-1456 844 0
-860 -844 1456 0
-1457 861 0
-1457 853 0
-861 -853 1457 0
-1458 863 0
-1458 881 0
-863 -881 1458 0
-265 -1451 0
-265 -1452 0
-265 -1453 0
-265 -1454 0
-265 -1455 0
-265 -1456 0
-265 -1457 0
-265 -1458 0
-862 265 1451 1452 1453 1454 1455 1456 1457 1458 0
-285 863 0
-1459 855 0
-1459 809 0
-855 -809 1459 0
-1460 856 0
-1460 808 0
-856 -808 1460 0
-1461 857 0
-1461 818 0
-857 -818 1461 0
-1462 858 0
-1462 827 0
-858 -827 1462 0
-1463 859 0
-1463 836 0
-859 -836 1463 0
-1464 860 0
-1464 845 0
-860 -845 1464 0
-1465 861 0
-1465 854 0
-861 -854 1465 0
-1466 862 0
-1466 872 0
-862 -872 1466 0
-285 -1459 0
-285 -1460 0
-285 -1461 0
-285 -1462 0
-285 -1463 0
-285 -1464 0
-285 -1465 0
-285 -1466 0
-863 285 1459 1460 1461 1462 1463 1464 1465 1466 0
-107 864 0
-1467 865 0
-1467 793 0
-865 -793 1467 0
-1468 866 0
-1468 810 0
-866 -810 1468 0
-1469 867 0
-1469 819 0
-867 -819 1469 0
-1470 868 0
-1470 828 0
-868 -828 1470 0
-1471 869 0
-1471 837 0
-869 -837 1471 0
-1472 870 0
-1472 846 0
-870 -846 1472 0
-1473 871 0
-1473 855 0
-871 -855 1473 0
-1474 872 0
-1474 873 0
-872 -873 1474 0
-107 -1467 0
-107 -1468 0
-107 -1469 0
-107 -1470 0
-107 -1471 0
-107 -1472 0
-107 -1473 0
-107 -1474 0
-864 107 1467 1468 1469 1470 1471 1472 1473 1474 0
-127 865 0
-1475 864 0
-1475 792 0
-864 -792 1475 0
-1476 866 0
-1476 811 0
-866 -811 1476 0
-1477 867 0
-1477 820 0
-867 -820 1477 0
-1478 868 0
-1478 829 0
-868 -829 1478 0
-1479 869 0
-1479 838 0
-869 -838 1479 0
-1480 870 0
-1480 847 0
-870 -847 1480 0
-1481 871 0
-1481 856 0
-871 -856 1481 0
-1482 872 0
-1482 874 0
-872 -874 1482 0
-127 -1475 0
-127 -1476 0
-127 -1477 0
-127 -1478 0
-127 -1479 0
-127 -1480 0
-127 -1481 0
-127 -1482 0
-865 127 1475 1476 1477 1478 1479 1480 1481 1482 0
-147 866 0
-1483 864 0
-1483 795 0
-864 -795 1483 0
-1484 865 0
-1484 794 0
-865 -794 1484 0
-1485 867 0
-1485 821 0
-867 -821 1485 0
-1486 868 0
-1486 830 0
-868 -830 1486 0
-1487 869 0
-1487 839 0
-869 -839 1487 0
-1488 870 0
-1488 848 0
-870 -848 1488 0
-1489 871 0
-1489 857 0
-871 -857 1489 0
-1490 872 0
-1490 875 0
-872 -875 1490 0
-147 -1483 0
-147 -1484 0
-147 -1485 0
-147 -1486 0
-147 -1487 0
-147 -1488 0
-147 -1489 0
-147 -1490 0
-866 147 1483 1484 1485 1486 1487 1488 1489 1490 0
-167 867 0
-1491 864 0
-1491 797 0
-864 -797 1491 0
-1492 865 0
-1492 796 0
-865 -796 1492 0
-1493 866 0
-1493 812 0
-866 -812 1493 0
-1494 868 0
-1494 831 0
-868 -831 1494 0
-1495 869 0
-1495 840 0
-869 -840 1495 0
-1496 870 0
-1496 849 0
-870 -849 1496 0
-1497 871 0
-1497 858 0
-871 -858 1497 0
-1498 872 0
-1498 876 0
-872 -876 1498 0
-167 -1491 0
-167 -1492 0
-167 -1493 0
-167 -1494 0
-167 -1495 0
-167 -1496 0
-167 -1497 0
-167 -1498 0
-867 167 1491 1492 1493 1494 1495 1496 1497 1498 0
-187 868 0
-1499 864 0
-1499 799 0
-864 -799 1499 0
-1500 865 0
-1500 798 0
-865 -798 1500 0
-1501 866 0
-1501 813 0
-866 -813 1501 0
-1502 867 0
-1502 822 0
-867 -822 1502 0
-1503 869 0
-1503 841 0
-869 -841 1503 0
-1504 870 0
-1504 850 0
-870 -850 1504 0
-1505 871 0
-1505 859 0
-871 -859 1505 0
-1506 872 0
-1506 877 0
-872 -877 1506 0
-187 -1499 0
-187 -1500 0
-187 -1501 0
-187 -1502 0
-187 -1503 0
-187 -1504 0
-187 -1505 0
-187 -1506 0
-868 187 1499 1500 1501 1502 1503 1504 1505 1506 0
-207 869 0
-1507 864 0
-1507 801 0
-864 -801 1507 0
-1508 865 0
-1508 800 0
-865 -800 1508 0
-1509 866 0
-1509 814 0
-866 -814 1509 0
-1510 867 0
-1510 823 0
-867 -823 1510 0
-1511 868 0
-1511 832 0
-868 -832 1511 0
-1512 870 0
-1512 851 0
-870 -851 1512 0
-1513 871 0
-1513 860 0
-871 -860 1513 0
-1514 872 0
-1514 878 0
-872 -878 1514 0
-207 -1507 0
-207 -1508 0
-207 -1509 0
-207 -1510 0
-207 -1511 0
-207 -1512 0
-207 -1513 0
-207 -1514 0
-869 207 1507 1508 1509 1510 1511 1512 1513 1514 0
-227 870 0
-1515 864 0
-1515 803 0
-864 -803 1515 0
-1516 865 0
-1516 802 0
-865 -802 1516 0
-1517 866 0
-1517 815 0
-866 -815 1517 0
-1518 867 0
-1518 824 0
-867 -824 1518 0
-1519 868 0
-1519 833 0
-868 -833 1519 0
-1520 869 0
-1520 842 0
-869 -842 1520 0
-1521 871 0
-1521 861 0
-871 -861 1521 0
-1522 872 0
-1522 879 0
-872 -879 1522 0
-227 -1515 0
-227 -1516 0
-227 -1517 0
-227 -1518 0
-227 -1519 0
-227 -1520 0
-227 -1521 0
-227 -1522 0
-870 227 1515 1516 1517 1518 1519 1520 1521 1522 0
-247 871 0
-1523 864 0
-1523 805 0
-864 -805 1523 0
-1524 865 0
-1524 804 0
-865 -804 1524 0
-1525 866 0
-1525 816 0
-866 -816 1525 0
-1526 867 0
-1526 825 0
-867 -825 1526 0
-1527 868 0
-1527 834 0
-868 -834 1527 0
-1528 869 0
-1528 843 0
-869 -843 1528 0
-1529 870 0
-1529 852 0
-870 -852 1529 0
-1530 872 0
-1530 880 0
-872 -880 1530 0
-247 -1523 0
-247 -1524 0
-247 -1525 0
-247 -1526 0
-247 -1527 0
-247 -1528 0
-247 -1529 0
-247 -1530 0
-871 247 1523 1524 1525 1526 1527 1528 1529 1530 0
-267 0
-287 872 0
-1531 864 0
-1531 809 0
-864 -809 1531 0
-1532 865 0
-1532 808 0
-865 -808 1532 0
-1533 866 0
-1533 818 0
-866 -818 1533 0
-1534 867 0
-1534 827 0
-867 -827 1534 0
-1535 868 0
-1535 836 0
-868 -836 1535 0
-1536 869 0
-1536 845 0
-869 -845 1536 0
-1537 870 0
-1537 854 0
-870 -854 1537 0
-1538 871 0
-1538 863 0
-871 -863 1538 0
-287 -1531 0
-287 -1532 0
-287 -1533 0
-287 -1534 0
-287 -1535 0
-287 -1536 0
-287 -1537 0
-287 -1538 0
-872 287 1531 1532 1533 1534 1535 1536 1537 1538 0
-109 873 0
-1539 874 0
-1539 793 0
-874 -793 1539 0
-1540 875 0
-1540 810 0
-875 -810 1540 0
-1541 876 0
-1541 819 0
-876 -819 1541 0
-1542 877 0
-1542 828 0
-877 -828 1542 0
-1543 878 0
-1543 837 0
-878 -837 1543 0
-1544 879 0
-1544 846 0
-879 -846 1544 0
-1545 880 0
-1545 855 0
-880 -855 1545 0
-1546 881 0
-1546 864 0
-881 -864 1546 0
-109 -1539 0
-109 -1540 0
-109 -1541 0
-109 -1542 0
-109 -1543 0
-109 -1544 0
-109 -1545 0
-109 -1546 0
-873 109 1539 1540 1541 1542 1543 1544 1545 1546 0
-129 874 0
-1547 873 0
-1547 792 0
-873 -792 1547 0
-1548 875 0
-1548 811 0
-875 -811 1548 0
-1549 876 0
-1549 820 0
-876 -820 1549 0
-1550 877 0
-1550 829 0
-877 -829 1550 0
-1551 878 0
-1551 838 0
-878 -838 1551 0
-1552 879 0
-1552 847 0
-879 -847 1552 0
-1553 880 0
-1553 856 0
-880 -856 1553 0
-1554 881 0
-1554 865 0
-881 -865 1554 0
-129 -1547 0
-129 -1548 0
-129 -1549 0
-129 -1550 0
-129 -1551 0
-129 -1552 0
-129 -1553 0
-129 -1554 0
-874 129 1547 1548 1549 1550 1551 1552 1553 1554 0
-149 875 0
-1555 873 0
-1555 795 0
-873 -795 1555 0
-1556 874 0
-1556 794 0
-874 -794 1556 0
-1557 876 0
-1557 821 0
-876 -821 1557 0
-1558 877 0
-1558 830 0
-877 -830 1558 0
-1559 878 0
-1559 839 0
-878 -839 1559 0
-1560 879 0
-1560 848 0
-879 -848 1560 0
-1561 880 0
-1561 857 0
-880 -857 1561 0
-1562 881 0
-1562 866 0
-881 -866 1562 0
-149 -1555 0
-149 -1556 0
-149 -1557 0
-149 -1558 0
-149 -1559 0
-149 -1560 0
-149 -1561 0
-149 -1562 0
-875 149 1555 1556 1557 1558 1559 1560 1561 1562 0
-169 876 0
-1563 873 0
-1563 797 0
-873 -797 1563 0
-1564 874 0
-1564 796 0
-874 -796 1564 0
-1565 875 0
-1565 812 0
-875 -812 1565 0
-1566 877 0
-1566 831 0
-877 -831 1566 0
-1567 878 0
-1567 840 0
-878 -840 1567 0
-1568 879 0
-1568 849 0
-879 -849 1568 0
-1569 880 0
-1569 858 0
-880 -858 1569 0
-1570 881 0
-1570 867 0
-881 -867 1570 0
-169 -1563 0
-169 -1564 0
-169 -1565 0
-169 -1566 0
-169 -1567 0
-169 -1568 0
-169 -1569 0
-169 -1570 0
-876 169 1563 1564 1565 1566 1567 1568 1569 1570 0
-189 877 0
-1571 873 0
-1571 799 0
-873 -799 1571 0
-1572 874 0
-1572 798 0
-874 -798 1572 0
-1573 875 0
-1573 813 0
-875 -813 1573 0
-1574 876 0
-1574 822 0
-876 -822 1574 0
-1575 878 0
-1575 841 0
-878 -841 1575 0
-1576 879 0
-1576 850 0
-879 -850 1576 0
-1577 880 0
-1577 859 0
-880 -859 1577 0
-1578 881 0
-1578 868 0
-881 -868 1578 0
-189 -1571 0
-189 -1572 0
-189 -1573 0
-189 -1574 0
-189 -1575 0
-189 -1576 0
-189 -1577 0
-189 -1578 0
-877 189 1571 1572 1573 1574 1575 1576 1577 1578 0
-209 878 0
-1579 873 0
-1579 801 0
-873 -801 1579 0
-1580 874 0
-1580 800 0
-874 -800 1580 0
-1581 875 0
-1581 814 0
-875 -814 1581 0
-1582 876 0
-1582 823 0
-876 -823 1582 0
-1583 877 0
-1583 832 0
-877 -832 1583 0
-1584 879 0
-1584 851 0
-879 -851 1584 0
-1585 880 0
-1585 860 0
-880 -860 1585 0
-1586 881 0
-1586 869 0
-881 -869 1586 0
-209 -1579 0
-209 -1580 0
-209 -1581 0
-209 -1582 0
-209 -1583 0
-209 -1584 0
-209 -1585 0
-209 -1586 0
-878 209 1579 1580 1581 1582 1583 1584 1585 1586 0
-229 879 0
-1587 873 0
-1587 803 0
-873 -803 1587 0
-1588 874 0
-1588 802 0
-874 -802 1588 0
-1589 875 0
-1589 815 0
-875 -815 1589 0
-1590 876 0
-1590 824 0
-876 -824 1590 0
-1591 877 0
-1591 833 0
-877 -833 1591 0
-1592 878 0
-1592 842 0
-878 -842 1592 0
-1593 880 0
-1593 861 0
-880 -861 1593 0
-1594 881 0
-1594 870 0
-881 -870 1594 0
-229 -1587 0
-229 -1588 0
-229 -1589 0
-229 -1590 0
-229 -1591 0
-229 -1592 0
-229 -1593 0
-229 -1594 0
-879 229 1587 1588 1589 1590 1591 1592 1593 1594 0
-249 880 0
-1595 873 0
-1595 805 0
-873 -805 1595 0
-1596 874 0
-1596 804 0
-874 -804 1596 0
-1597 875 0
-1597 816 0
-875 -816 1597 0
-1598 876 0
-1598 825 0
-876 -825 1598 0
-1599 877 0
-1599 834 0
-877 -834 1599 0
-1600 878 0
-1600 843 0
-878 -843 1600 0
-1601 879 0
-1601 852 0
-879 -852 1601 0
-1602 881 0
-1602 871 0
-881 -871 1602 0
-249 -1595 0
-249 -1596 0
-249 -1597 0
-249 -1598 0
-249 -1599 0
-249 -1600 0
-249 -1601 0
-249 -1602 0
-880 249 1595 1596 1597 1598 1599 1600 1601 1602 0
-269 881 0
-1603 873 0
-1603 807 0
-873 -807 1603 0
-1604 874 0
-1604 806 0
-874 -806 1604 0
-1605 875 0
-1605 817 0
-875 -817 1605 0
-1606 876 0
-1606 826 0
-876 -826 1606 0
-1607 877 0
-1607 835 0
-877 -835 1607 0
-1608 878 0
-1608 844 0
-878 -844 1608 0
-1609 879 0
-1609 853 0
-879 -853 1609 0
-1610 880 0
-1610 862 0
-880 -862 1610 0
-269 -1603 0
-269 -1604 0
-269 -1605 0
-269 -1606 0
-269 -1607 0
-269 -1608 0
-269 -1609 0
-269 -1610 0
-881 269 1603 1604 1605 1606 1607 1608 1609 1610 0
-289 0
