p cnf 2580 10944
1 2 -3 0
4 5 -6 0
7 8 -9 0
10 11 -12 0
13 14 -15 0
16 17 -18 0
19 20 -21 0
22 23 -24 0
25 26 -27 0
28 29 -30 0
31 32 -33 0
34 35 -36 0
3 -1 0
6 -4 0
9 -7 0
12 -10 0
15 -13 0
18 -16 0
21 -19 0
24 -22 0
27 -25 0
30 -28 0
33 -31 0
36 -34 0
3 -2 0
6 -5 0
9 -8 0
12 -11 0
15 -14 0
18 -17 0
21 -20 0
24 -23 0
27 -26 0
30 -29 0
33 -32 0
36 -35 0
-1 -2 -37 0
-4 -5 -38 0
-7 -8 -39 0
-10 -11 -40 0
-13 -14 -41 0
-16 -17 -42 0
-19 -20 -43 0
-22 -23 -44 0
-25 -26 -45 0
-28 -29 -46 0
-31 -32 -47 0
-34 -35 -48 0
37 1 0
38 4 0
39 7 0
40 10 0
41 13 0
42 16 0
43 19 0
44 22 0
45 25 0
46 28 0
47 31 0
48 34 0
37 2 0
38 5 0
39 8 0
40 11 0
41 14 0
42 17 0
43 20 0
44 23 0
45 26 0
46 29 0
47 32 0
48 35 0
-49 1 50 0
-51 4 52 0
-53 7 54 0
-55 10 56 0
-57 13 58 0
-59 16 60 0
-61 19 62 0
-63 22 64 0
-65 25 66 0
-67 28 68 0
-69 31 70 0
-71 34 72 0
-50 49 0
-52 51 0
-54 53 0
-56 55 0
-58 57 0
-60 59 0
-62 61 0
-64 63 0
-66 65 0
-68 67 0
-70 69 0
-72 71 0
-50 -1 0
-52 -4 0
-54 -7 0
-56 -10 0
-58 -13 0
-60 -16 0
-62 -19 0
-64 -22 0
-66 -25 0
-68 -28 0
-70 -31 0
-72 -34 0
73 50 -74 0
75 52 -76 0
77 54 -78 0
79 56 -80 0
81 58 -82 0
83 60 -84 0
85 62 -86 0
87 64 -88 0
89 66 -90 0
91 68 -92 0
93 70 -94 0
95 72 -96 0
74 -73 0
76 -75 0
78 -77 0
80 -79 0
82 -81 0
84 -83 0
86 -85 0
88 -87 0
90 -89 0
92 -91 0
94 -93 0
96 -95 0
74 -50 0
76 -52 0
78 -54 0
80 -56 0
82 -58 0
84 -60 0
86 -62 0
88 -64 0
90 -66 0
92 -68 0
94 -70 0
96 -72 0
1 -73 -49 -97 0
4 -75 -51 -98 0
7 -77 -53 -99 0
10 -79 -55 -100 0
13 -81 -57 -101 0
16 -83 -59 -102 0
19 -85 -61 -103 0
22 -87 -63 -104 0
25 -89 -65 -105 0
28 -91 -67 -106 0
31 -93 -69 -107 0
34 -95 -71 -108 0
97 -1 0
98 -4 0
99 -7 0
100 -10 0
101 -13 0
102 -16 0
103 -19 0
104 -22 0
105 -25 0
106 -28 0
107 -31 0
108 -34 0
97 73 0
98 75 0
99 77 0
100 79 0
101 81 0
102 83 0
103 85 0
104 87 0
105 89 0
106 91 0
107 93 0
108 95 0
97 49 0
98 51 0
99 53 0
100 55 0
101 57 0
102 59 0
103 61 0
104 63 0
105 65 0
106 67 0
107 69 0
108 71 0
1 -109 -2 -110 0
4 -111 -5 -112 0
7 -113 -8 -114 0
10 -115 -11 -116 0
13 -117 -14 -118 0
16 -119 -17 -120 0
19 -121 -20 -122 0
22 -123 -23 -124 0
25 -125 -26 -126 0
28 -127 -29 -128 0
31 -129 -32 -130 0
34 -131 -35 -132 0
1 -133 -2 -134 0
4 -135 -5 -136 0
7 -137 -8 -138 0
10 -139 -11 -140 0
13 -141 -14 -142 0
16 -143 -17 -144 0
19 -145 -20 -146 0
22 -147 -23 -148 0
25 -149 -26 -150 0
28 -151 -29 -152 0
31 -153 -32 -154 0
34 -155 -35 -156 0
1 -157 -2 -158 0
4 -159 -5 -160 0
7 -161 -8 -162 0
10 -163 -11 -164 0
13 -165 -14 -166 0
16 -167 -17 -168 0
19 -169 -20 -170 0
22 -171 -23 -172 0
25 -173 -26 -174 0
28 -175 -29 -176 0
31 -177 -32 -178 0
34 -179 -35 -180 0
1 -181 -2 -182 0
4 -183 -5 -184 0
7 -185 -8 -186 0
10 -187 -11 -188 0
13 -189 -14 -190 0
16 -191 -17 -192 0
19 -193 -20 -194 0
22 -195 -23 -196 0
25 -197 -26 -198 0
28 -199 -29 -200 0
31 -201 -32 -202 0
34 -203 -35 -204 0
1 -205 -2 -206 0
4 -207 -5 -208 0
7 -209 -8 -210 0
10 -211 -11 -212 0
13 -213 -14 -214 0
16 -215 -17 -216 0
19 -217 -20 -218 0
22 -219 -23 -220 0
25 -221 -26 -222 0
28 -223 -29 -224 0
31 -225 -32 -226 0
34 -227 -35 -228 0
1 -229 -2 -230 0
4 -231 -5 -232 0
7 -233 -8 -234 0
10 -235 -11 -236 0
13 -237 -14 -238 0
16 -239 -17 -240 0
19 -241 -20 -242 0
22 -243 -23 -244 0
25 -245 -26 -246 0
28 -247 -29 -248 0
31 -249 -32 -250 0
34 -251 -35 -252 0
1 -253 -2 -254 0
4 -255 -5 -256 0
7 -257 -8 -258 0
10 -259 -11 -260 0
13 -261 -14 -262 0
16 -263 -17 -264 0
19 -265 -20 -266 0
22 -267 -23 -268 0
25 -269 -26 -270 0
28 -271 -29 -272 0
31 -273 -32 -274 0
34 -275 -35 -276 0
1 -277 -2 -278 0
4 -279 -5 -280 0
7 -281 -8 -282 0
10 -283 -11 -284 0
13 -285 -14 -286 0
16 -287 -17 -288 0
19 -289 -20 -290 0
22 -291 -23 -292 0
25 -293 -26 -294 0
28 -295 -29 -296 0
31 -297 -32 -298 0
34 -299 -35 -300 0
1 -301 -2 -302 0
4 -303 -5 -304 0
7 -305 -8 -306 0
10 -307 -11 -308 0
13 -309 -14 -310 0
16 -311 -17 -312 0
19 -313 -20 -314 0
22 -315 -23 -316 0
25 -317 -26 -318 0
28 -319 -29 -320 0
31 -321 -32 -322 0
34 -323 -35 -324 0
1 -325 -2 -326 0
4 -327 -5 -328 0
7 -329 -8 -330 0
10 -331 -11 -332 0
13 -333 -14 -334 0
16 -335 -17 -336 0
19 -337 -20 -338 0
22 -339 -23 -340 0
25 -341 -26 -342 0
28 -343 -29 -344 0
31 -345 -32 -346 0
34 -347 -35 -348 0
1 -349 -2 -350 0
4 -351 -5 -352 0
7 -353 -8 -354 0
10 -355 -11 -356 0
13 -357 -14 -358 0
16 -359 -17 -360 0
19 -361 -20 -362 0
22 -363 -23 -364 0
25 -365 -26 -366 0
28 -367 -29 -368 0
31 -369 -32 -370 0
34 -371 -35 -372 0
1 -373 -2 -374 0
4 -375 -5 -376 0
7 -377 -8 -378 0
10 -379 -11 -380 0
13 -381 -14 -382 0
16 -383 -17 -384 0
19 -385 -20 -386 0
22 -387 -23 -388 0
25 -389 -26 -390 0
28 -391 -29 -392 0
31 -393 -32 -394 0
34 -395 -35 -396 0
110 -1 0
112 -4 0
114 -7 0
116 -10 0
118 -13 0
120 -16 0
122 -19 0
124 -22 0
126 -25 0
128 -28 0
130 -31 0
132 -34 0
134 -1 0
136 -4 0
138 -7 0
140 -10 0
142 -13 0
144 -16 0
146 -19 0
148 -22 0
150 -25 0
152 -28 0
154 -31 0
156 -34 0
158 -1 0
160 -4 0
162 -7 0
164 -10 0
166 -13 0
168 -16 0
170 -19 0
172 -22 0
174 -25 0
176 -28 0
178 -31 0
180 -34 0
182 -1 0
184 -4 0
186 -7 0
188 -10 0
190 -13 0
192 -16 0
194 -19 0
196 -22 0
198 -25 0
200 -28 0
202 -31 0
204 -34 0
206 -1 0
208 -4 0
210 -7 0
212 -10 0
214 -13 0
216 -16 0
218 -19 0
220 -22 0
222 -25 0
224 -28 0
226 -31 0
228 -34 0
230 -1 0
232 -4 0
234 -7 0
236 -10 0
238 -13 0
240 -16 0
242 -19 0
244 -22 0
246 -25 0
248 -28 0
250 -31 0
252 -34 0
254 -1 0
256 -4 0
258 -7 0
260 -10 0
262 -13 0
264 -16 0
266 -19 0
268 -22 0
270 -25 0
272 -28 0
274 -31 0
276 -34 0
278 -1 0
280 -4 0
282 -7 0
284 -10 0
286 -13 0
288 -16 0
290 -19 0
292 -22 0
294 -25 0
296 -28 0
298 -31 0
300 -34 0
302 -1 0
304 -4 0
306 -7 0
308 -10 0
310 -13 0
312 -16 0
314 -19 0
316 -22 0
318 -25 0
320 -28 0
322 -31 0
324 -34 0
326 -1 0
328 -4 0
330 -7 0
332 -10 0
334 -13 0
336 -16 0
338 -19 0
340 -22 0
342 -25 0
344 -28 0
346 -31 0
348 -34 0
350 -1 0
352 -4 0
354 -7 0
356 -10 0
358 -13 0
360 -16 0
362 -19 0
364 -22 0
366 -25 0
368 -28 0
370 -31 0
372 -34 0
374 -1 0
376 -4 0
378 -7 0
380 -10 0
382 -13 0
384 -16 0
386 -19 0
388 -22 0
390 -25 0
392 -28 0
394 -31 0
396 -34 0
110 109 0
112 111 0
114 113 0
116 115 0
118 117 0
120 119 0
122 121 0
124 123 0
126 125 0
128 127 0
130 129 0
132 131 0
134 133 0
136 135 0
138 137 0
140 139 0
142 141 0
144 143 0
146 145 0
148 147 0
150 149 0
152 151 0
154 153 0
156 155 0
158 157 0
160 159 0
162 161 0
164 163 0
166 165 0
168 167 0
170 169 0
172 171 0
174 173 0
176 175 0
178 177 0
180 179 0
182 181 0
184 183 0
186 185 0
188 187 0
190 189 0
192 191 0
194 193 0
196 195 0
198 197 0
200 199 0
202 201 0
204 203 0
206 205 0
208 207 0
210 209 0
212 211 0
214 213 0
216 215 0
218 217 0
220 219 0
222 221 0
224 223 0
226 225 0
228 227 0
230 229 0
232 231 0
234 233 0
236 235 0
238 237 0
240 239 0
242 241 0
244 243 0
246 245 0
248 247 0
250 249 0
252 251 0
254 253 0
256 255 0
258 257 0
260 259 0
262 261 0
264 263 0
266 265 0
268 267 0
270 269 0
272 271 0
274 273 0
276 275 0
278 277 0
280 279 0
282 281 0
284 283 0
286 285 0
288 287 0
290 289 0
292 291 0
294 293 0
296 295 0
298 297 0
300 299 0
302 301 0
304 303 0
306 305 0
308 307 0
310 309 0
312 311 0
314 313 0
316 315 0
318 317 0
320 319 0
322 321 0
324 323 0
326 325 0
328 327 0
330 329 0
332 331 0
334 333 0
336 335 0
338 337 0
340 339 0
342 341 0
344 343 0
346 345 0
348 347 0
350 349 0
352 351 0
354 353 0
356 355 0
358 357 0
360 359 0
362 361 0
364 363 0
366 365 0
368 367 0
370 369 0
372 371 0
374 373 0
376 375 0
378 377 0
380 379 0
382 381 0
384 383 0
386 385 0
388 387 0
390 389 0
392 391 0
394 393 0
396 395 0
110 2 0
112 5 0
114 8 0
116 11 0
118 14 0
120 17 0
122 20 0
124 23 0
126 26 0
128 29 0
130 32 0
132 35 0
134 2 0
136 5 0
138 8 0
140 11 0
142 14 0
144 17 0
146 20 0
148 23 0
150 26 0
152 29 0
154 32 0
156 35 0
158 2 0
160 5 0
162 8 0
164 11 0
166 14 0
168 17 0
170 20 0
172 23 0
174 26 0
176 29 0
178 32 0
180 35 0
182 2 0
184 5 0
186 8 0
188 11 0
190 14 0
192 17 0
194 20 0
196 23 0
198 26 0
200 29 0
202 32 0
204 35 0
206 2 0
208 5 0
210 8 0
212 11 0
214 14 0
216 17 0
218 20 0
220 23 0
222 26 0
224 29 0
226 32 0
228 35 0
230 2 0
232 5 0
234 8 0
236 11 0
238 14 0
240 17 0
242 20 0
244 23 0
246 26 0
248 29 0
250 32 0
252 35 0
254 2 0
256 5 0
258 8 0
260 11 0
262 14 0
264 17 0
266 20 0
268 23 0
270 26 0
272 29 0
274 32 0
276 35 0
278 2 0
280 5 0
282 8 0
284 11 0
286 14 0
288 17 0
290 20 0
292 23 0
294 26 0
296 29 0
298 32 0
300 35 0
302 2 0
304 5 0
306 8 0
308 11 0
310 14 0
312 17 0
314 20 0
316 23 0
318 26 0
320 29 0
322 32 0
324 35 0
326 2 0
328 5 0
330 8 0
332 11 0
334 14 0
336 17 0
338 20 0
340 23 0
342 26 0
344 29 0
346 32 0
348 35 0
350 2 0
352 5 0
354 8 0
356 11 0
358 14 0
360 17 0
362 20 0
364 23 0
366 26 0
368 29 0
370 32 0
372 35 0
374 2 0
376 5 0
378 8 0
380 11 0
382 14 0
384 17 0
386 20 0
388 23 0
390 26 0
392 29 0
394 32 0
396 35 0
-109 -49 49 397 0
-111 -51 49 398 0
-113 -53 49 399 0
-115 -55 49 400 0
-117 -57 49 401 0
-119 -59 49 402 0
-121 -61 49 403 0
-123 -63 49 404 0
-125 -65 49 405 0
-127 -67 49 406 0
-129 -69 49 407 0
-131 -71 49 408 0
-133 -49 51 409 0
-135 -51 51 410 0
-137 -53 51 411 0
-139 -55 51 412 0
-141 -57 51 413 0
-143 -59 51 414 0
-145 -61 51 415 0
-147 -63 51 416 0
-149 -65 51 417 0
-151 -67 51 418 0
-153 -69 51 419 0
-155 -71 51 420 0
-157 -49 53 421 0
-159 -51 53 422 0
-161 -53 53 423 0
-163 -55 53 424 0
-165 -57 53 425 0
-167 -59 53 426 0
-169 -61 53 427 0
-171 -63 53 428 0
-173 -65 53 429 0
-175 -67 53 430 0
-177 -69 53 431 0
-179 -71 53 432 0
-181 -49 55 433 0
-183 -51 55 434 0
-185 -53 55 435 0
-187 -55 55 436 0
-189 -57 55 437 0
-191 -59 55 438 0
-193 -61 55 439 0
-195 -63 55 440 0
-197 -65 55 441 0
-199 -67 55 442 0
-201 -69 55 443 0
-203 -71 55 444 0
-205 -49 57 445 0
-207 -51 57 446 0
-209 -53 57 447 0
-211 -55 57 448 0
-213 -57 57 449 0
-215 -59 57 450 0
-217 -61 57 451 0
-219 -63 57 452 0
-221 -65 57 453 0
-223 -67 57 454 0
-225 -69 57 455 0
-227 -71 57 456 0
-229 -49 59 457 0
-231 -51 59 458 0
-233 -53 59 459 0
-235 -55 59 460 0
-237 -57 59 461 0
-239 -59 59 462 0
-241 -61 59 463 0
-243 -63 59 464 0
-245 -65 59 465 0
-247 -67 59 466 0
-249 -69 59 467 0
-251 -71 59 468 0
-253 -49 61 469 0
-255 -51 61 470 0
-257 -53 61 471 0
-259 -55 61 472 0
-261 -57 61 473 0
-263 -59 61 474 0
-265 -61 61 475 0
-267 -63 61 476 0
-269 -65 61 477 0
-271 -67 61 478 0
-273 -69 61 479 0
-275 -71 61 480 0
-277 -49 63 481 0
-279 -51 63 482 0
-281 -53 63 483 0
-283 -55 63 484 0
-285 -57 63 485 0
-287 -59 63 486 0
-289 -61 63 487 0
-291 -63 63 488 0
-293 -65 63 489 0
-295 -67 63 490 0
-297 -69 63 491 0
-299 -71 63 492 0
-301 -49 65 493 0
-303 -51 65 494 0
-305 -53 65 495 0
-307 -55 65 496 0
-309 -57 65 497 0
-311 -59 65 498 0
-313 -61 65 499 0
-315 -63 65 500 0
-317 -65 65 501 0
-319 -67 65 502 0
-321 -69 65 503 0
-323 -71 65 504 0
-325 -49 67 505 0
-327 -51 67 506 0
-329 -53 67 507 0
-331 -55 67 508 0
-333 -57 67 509 0
-335 -59 67 510 0
-337 -61 67 511 0
-339 -63 67 512 0
-341 -65 67 513 0
-343 -67 67 514 0
-345 -69 67 515 0
-347 -71 67 516 0
-349 -49 69 517 0
-351 -51 69 518 0
-353 -53 69 519 0
-355 -55 69 520 0
-357 -57 69 521 0
-359 -59 69 522 0
-361 -61 69 523 0
-363 -63 69 524 0
-365 -65 69 525 0
-367 -67 69 526 0
-369 -69 69 527 0
-371 -71 69 528 0
-373 -49 71 529 0
-375 -51 71 530 0
-377 -53 71 531 0
-379 -55 71 532 0
-381 -57 71 533 0
-383 -59 71 534 0
-385 -61 71 535 0
-387 -63 71 536 0
-389 -65 71 537 0
-391 -67 71 538 0
-393 -69 71 539 0
-395 -71 71 540 0
-397 109 0
-398 111 0
-399 113 0
-400 115 0
-401 117 0
-402 119 0
-403 121 0
-404 123 0
-405 125 0
-406 127 0
-407 129 0
-408 131 0
-409 133 0
-410 135 0
-411 137 0
-412 139 0
-413 141 0
-414 143 0
-415 145 0
-416 147 0
-417 149 0
-418 151 0
-419 153 0
-420 155 0
-421 157 0
-422 159 0
-423 161 0
-424 163 0
-425 165 0
-426 167 0
-427 169 0
-428 171 0
-429 173 0
-430 175 0
-431 177 0
-432 179 0
-433 181 0
-434 183 0
-435 185 0
-436 187 0
-437 189 0
-438 191 0
-439 193 0
-440 195 0
-441 197 0
-442 199 0
-443 201 0
-444 203 0
-445 205 0
-446 207 0
-447 209 0
-448 211 0
-449 213 0
-450 215 0
-451 217 0
-452 219 0
-453 221 0
-454 223 0
-455 225 0
-456 227 0
-457 229 0
-458 231 0
-459 233 0
-460 235 0
-461 237 0
-462 239 0
-463 241 0
-464 243 0
-465 245 0
-466 247 0
-467 249 0
-468 251 0
-469 253 0
-470 255 0
-471 257 0
-472 259 0
-473 261 0
-474 263 0
-475 265 0
-476 267 0
-477 269 0
-478 271 0
-479 273 0
-480 275 0
-481 277 0
-482 279 0
-483 281 0
-484 283 0
-485 285 0
-486 287 0
-487 289 0
-488 291 0
-489 293 0
-490 295 0
-491 297 0
-492 299 0
-493 301 0
-494 303 0
-495 305 0
-496 307 0
-497 309 0
-498 311 0
-499 313 0
-500 315 0
-501 317 0
-502 319 0
-503 321 0
-504 323 0
-505 325 0
-506 327 0
-507 329 0
-508 331 0
-509 333 0
-510 335 0
-511 337 0
-512 339 0
-513 341 0
-514 343 0
-515 345 0
-516 347 0
-517 349 0
-518 351 0
-519 353 0
-520 355 0
-521 357 0
-522 359 0
-523 361 0
-524 363 0
-525 365 0
-526 367 0
-527 369 0
-528 371 0
-529 373 0
-530 375 0
-531 377 0
-532 379 0
-533 381 0
-534 383 0
-535 385 0
-536 387 0
-537 389 0
-538 391 0
-539 393 0
-540 395 0
-397 49 0
-398 51 0
-399 53 0
-400 55 0
-401 57 0
-402 59 0
-403 61 0
-404 63 0
-405 65 0
-406 67 0
-407 69 0
-408 71 0
-409 49 0
-410 51 0
-411 53 0
-412 55 0
-413 57 0
-414 59 0
-415 61 0
-416 63 0
-417 65 0
-418 67 0
-419 69 0
-420 71 0
-421 49 0
-422 51 0
-423 53 0
-424 55 0
-425 57 0
-426 59 0
-427 61 0
-428 63 0
-429 65 0
-430 67 0
-431 69 0
-432 71 0
-433 49 0
-434 51 0
-435 53 0
-436 55 0
-437 57 0
-438 59 0
-439 61 0
-440 63 0
-441 65 0
-442 67 0
-443 69 0
-444 71 0
-445 49 0
-446 51 0
-447 53 0
-448 55 0
-449 57 0
-450 59 0
-451 61 0
-452 63 0
-453 65 0
-454 67 0
-455 69 0
-456 71 0
-457 49 0
-458 51 0
-459 53 0
-460 55 0
-461 57 0
-462 59 0
-463 61 0
-464 63 0
-465 65 0
-466 67 0
-467 69 0
-468 71 0
-469 49 0
-470 51 0
-471 53 0
-472 55 0
-473 57 0
-474 59 0
-475 61 0
-476 63 0
-477 65 0
-478 67 0
-479 69 0
-480 71 0
-481 49 0
-482 51 0
-483 53 0
-484 55 0
-485 57 0
-486 59 0
-487 61 0
-488 63 0
-489 65 0
-490 67 0
-491 69 0
-492 71 0
-493 49 0
-494 51 0
-495 53 0
-496 55 0
-497 57 0
-498 59 0
-499 61 0
-500 63 0
-501 65 0
-502 67 0
-503 69 0
-504 71 0
-505 49 0
-506 51 0
-507 53 0
-508 55 0
-509 57 0
-510 59 0
-511 61 0
-512 63 0
-513 65 0
-514 67 0
-515 69 0
-516 71 0
-517 49 0
-518 51 0
-519 53 0
-520 55 0
-521 57 0
-522 59 0
-523 61 0
-524 63 0
-525 65 0
-526 67 0
-527 69 0
-528 71 0
-529 49 0
-530 51 0
-531 53 0
-532 55 0
-533 57 0
-534 59 0
-535 61 0
-536 63 0
-537 65 0
-538 67 0
-539 69 0
-540 71 0
-397 -49 0
-398 -49 0
-399 -49 0
-400 -49 0
-401 -49 0
-402 -49 0
-403 -49 0
-404 -49 0
-405 -49 0
-406 -49 0
-407 -49 0
-408 -49 0
-409 -51 0
-410 -51 0
-411 -51 0
-412 -51 0
-413 -51 0
-414 -51 0
-415 -51 0
-416 -51 0
-417 -51 0
-418 -51 0
-419 -51 0
-420 -51 0
-421 -53 0
-422 -53 0
-423 -53 0
-424 -53 0
-425 -53 0
-426 -53 0
-427 -53 0
-428 -53 0
-429 -53 0
-430 -53 0
-431 -53 0
-432 -53 0
-433 -55 0
-434 -55 0
-435 -55 0
-436 -55 0
-437 -55 0
-438 -55 0
-439 -55 0
-440 -55 0
-441 -55 0
-442 -55 0
-443 -55 0
-444 -55 0
-445 -57 0
-446 -57 0
-447 -57 0
-448 -57 0
-449 -57 0
-450 -57 0
-451 -57 0
-452 -57 0
-453 -57 0
-454 -57 0
-455 -57 0
-456 -57 0
-457 -59 0
-458 -59 0
-459 -59 0
-460 -59 0
-461 -59 0
-462 -59 0
-463 -59 0
-464 -59 0
-465 -59 0
-466 -59 0
-467 -59 0
-468 -59 0
-469 -61 0
-470 -61 0
-471 -61 0
-472 -61 0
-473 -61 0
-474 -61 0
-475 -61 0
-476 -61 0
-477 -61 0
-478 -61 0
-479 -61 0
-480 -61 0
-481 -63 0
-482 -63 0
-483 -63 0
-484 -63 0
-485 -63 0
-486 -63 0
-487 -63 0
-488 -63 0
-489 -63 0
-490 -63 0
-491 -63 0
-492 -63 0
-493 -65 0
-494 -65 0
-495 -65 0
-496 -65 0
-497 -65 0
-498 -65 0
-499 -65 0
-500 -65 0
-501 -65 0
-502 -65 0
-503 -65 0
-504 -65 0
-505 -67 0
-506 -67 0
-507 -67 0
-508 -67 0
-509 -67 0
-510 -67 0
-511 -67 0
-512 -67 0
-513 -67 0
-514 -67 0
-515 -67 0
-516 -67 0
-517 -69 0
-518 -69 0
-519 -69 0
-520 -69 0
-521 -69 0
-522 -69 0
-523 -69 0
-524 -69 0
-525 -69 0
-526 -69 0
-527 -69 0
-528 -69 0
-529 -71 0
-530 -71 0
-531 -71 0
-532 -71 0
-533 -71 0
-534 -71 0
-535 -71 0
-536 -71 0
-537 -71 0
-538 -71 0
-539 -71 0
-540 -71 0
541 397 -542 0
543 398 -544 0
545 399 -546 0
547 400 -548 0
549 401 -550 0
551 402 -552 0
553 403 -554 0
555 404 -556 0
557 405 -558 0
559 406 -560 0
561 407 -562 0
563 408 -564 0
565 409 -566 0
567 410 -568 0
569 411 -570 0
571 412 -572 0
573 413 -574 0
575 414 -576 0
577 415 -578 0
579 416 -580 0
581 417 -582 0
583 418 -584 0
585 419 -586 0
587 420 -588 0
589 421 -590 0
591 422 -592 0
593 423 -594 0
595 424 -596 0
597 425 -598 0
599 426 -600 0
601 427 -602 0
603 428 -604 0
605 429 -606 0
607 430 -608 0
609 431 -610 0
611 432 -612 0
613 433 -614 0
615 434 -616 0
617 435 -618 0
619 436 -620 0
621 437 -622 0
623 438 -624 0
625 439 -626 0
627 440 -628 0
629 441 -630 0
631 442 -632 0
633 443 -634 0
635 444 -636 0
637 445 -638 0
639 446 -640 0
641 447 -642 0
643 448 -644 0
645 449 -646 0
647 450 -648 0
649 451 -650 0
651 452 -652 0
653 453 -654 0
655 454 -656 0
657 455 -658 0
659 456 -660 0
661 457 -662 0
663 458 -664 0
665 459 -666 0
667 460 -668 0
669 461 -670 0
671 462 -672 0
673 463 -674 0
675 464 -676 0
677 465 -678 0
679 466 -680 0
681 467 -682 0
683 468 -684 0
685 469 -686 0
687 470 -688 0
689 471 -690 0
691 472 -692 0
693 473 -694 0
695 474 -696 0
697 475 -698 0
699 476 -700 0
701 477 -702 0
703 478 -704 0
705 479 -706 0
707 480 -708 0
709 481 -710 0
711 482 -712 0
713 483 -714 0
715 484 -716 0
717 485 -718 0
719 486 -720 0
721 487 -722 0
723 488 -724 0
725 489 -726 0
727 490 -728 0
729 491 -730 0
731 492 -732 0
733 493 -734 0
735 494 -736 0
737 495 -738 0
739 496 -740 0
741 497 -742 0
743 498 -744 0
745 499 -746 0
747 500 -748 0
749 501 -750 0
751 502 -752 0
753 503 -754 0
755 504 -756 0
757 505 -758 0
759 506 -760 0
761 507 -762 0
763 508 -764 0
765 509 -766 0
767 510 -768 0
769 511 -770 0
771 512 -772 0
773 513 -774 0
775 514 -776 0
777 515 -778 0
779 516 -780 0
781 517 -782 0
783 518 -784 0
785 519 -786 0
787 520 -788 0
789 521 -790 0
791 522 -792 0
793 523 -794 0
795 524 -796 0
797 525 -798 0
799 526 -800 0
801 527 -802 0
803 528 -804 0
805 529 -806 0
807 530 -808 0
809 531 -810 0
811 532 -812 0
813 533 -814 0
815 534 -816 0
817 535 -818 0
819 536 -820 0
821 537 -822 0
823 538 -824 0
825 539 -826 0
827 540 -828 0
542 -541 0
544 -543 0
546 -545 0
548 -547 0
550 -549 0
552 -551 0
554 -553 0
556 -555 0
558 -557 0
560 -559 0
562 -561 0
564 -563 0
566 -565 0
568 -567 0
570 -569 0
572 -571 0
574 -573 0
576 -575 0
578 -577 0
580 -579 0
582 -581 0
584 -583 0
586 -585 0
588 -587 0
590 -589 0
592 -591 0
594 -593 0
596 -595 0
598 -597 0
600 -599 0
602 -601 0
604 -603 0
606 -605 0
608 -607 0
610 -609 0
612 -611 0
614 -613 0
616 -615 0
618 -617 0
620 -619 0
622 -621 0
624 -623 0
626 -625 0
628 -627 0
630 -629 0
632 -631 0
634 -633 0
636 -635 0
638 -637 0
640 -639 0
642 -641 0
644 -643 0
646 -645 0
648 -647 0
650 -649 0
652 -651 0
654 -653 0
656 -655 0
658 -657 0
660 -659 0
662 -661 0
664 -663 0
666 -665 0
668 -667 0
670 -669 0
672 -671 0
674 -673 0
676 -675 0
678 -677 0
680 -679 0
682 -681 0
684 -683 0
686 -685 0
688 -687 0
690 -689 0
692 -691 0
694 -693 0
696 -695 0
698 -697 0
700 -699 0
702 -701 0
704 -703 0
706 -705 0
708 -707 0
710 -709 0
712 -711 0
714 -713 0
716 -715 0
718 -717 0
720 -719 0
722 -721 0
724 -723 0
726 -725 0
728 -727 0
730 -729 0
732 -731 0
734 -733 0
736 -735 0
738 -737 0
740 -739 0
742 -741 0
744 -743 0
746 -745 0
748 -747 0
750 -749 0
752 -751 0
754 -753 0
756 -755 0
758 -757 0
760 -759 0
762 -761 0
764 -763 0
766 -765 0
768 -767 0
770 -769 0
772 -771 0
774 -773 0
776 -775 0
778 -777 0
780 -779 0
782 -781 0
784 -783 0
786 -785 0
788 -787 0
790 -789 0
792 -791 0
794 -793 0
796 -795 0
798 -797 0
800 -799 0
802 -801 0
804 -803 0
806 -805 0
808 -807 0
810 -809 0
812 -811 0
814 -813 0
816 -815 0
818 -817 0
820 -819 0
822 -821 0
824 -823 0
826 -825 0
828 -827 0
542 -397 0
544 -398 0
546 -399 0
548 -400 0
550 -401 0
552 -402 0
554 -403 0
556 -404 0
558 -405 0
560 -406 0
562 -407 0
564 -408 0
566 -409 0
568 -410 0
570 -411 0
572 -412 0
574 -413 0
576 -414 0
578 -415 0
580 -416 0
582 -417 0
584 -418 0
586 -419 0
588 -420 0
590 -421 0
592 -422 0
594 -423 0
596 -424 0
598 -425 0
600 -426 0
602 -427 0
604 -428 0
606 -429 0
608 -430 0
610 -431 0
612 -432 0
614 -433 0
616 -434 0
618 -435 0
620 -436 0
622 -437 0
624 -438 0
626 -439 0
628 -440 0
630 -441 0
632 -442 0
634 -443 0
636 -444 0
638 -445 0
640 -446 0
642 -447 0
644 -448 0
646 -449 0
648 -450 0
650 -451 0
652 -452 0
654 -453 0
656 -454 0
658 -455 0
660 -456 0
662 -457 0
664 -458 0
666 -459 0
668 -460 0
670 -461 0
672 -462 0
674 -463 0
676 -464 0
678 -465 0
680 -466 0
682 -467 0
684 -468 0
686 -469 0
688 -470 0
690 -471 0
692 -472 0
694 -473 0
696 -474 0
698 -475 0
700 -476 0
702 -477 0
704 -478 0
706 -479 0
708 -480 0
710 -481 0
712 -482 0
714 -483 0
716 -484 0
718 -485 0
720 -486 0
722 -487 0
724 -488 0
726 -489 0
728 -490 0
730 -491 0
732 -492 0
734 -493 0
736 -494 0
738 -495 0
740 -496 0
742 -497 0
744 -498 0
746 -499 0
748 -500 0
750 -501 0
752 -502 0
754 -503 0
756 -504 0
758 -505 0
760 -506 0
762 -507 0
764 -508 0
766 -509 0
768 -510 0
770 -511 0
772 -512 0
774 -513 0
776 -514 0
778 -515 0
780 -516 0
782 -517 0
784 -518 0
786 -519 0
788 -520 0
790 -521 0
792 -522 0
794 -523 0
796 -524 0
798 -525 0
800 -526 0
802 -527 0
804 -528 0
806 -529 0
808 -530 0
810 -531 0
812 -532 0
814 -533 0
816 -534 0
818 -535 0
820 -536 0
822 -537 0
824 -538 0
826 -539 0
828 -540 0
49 -541 -109 -49 -829 0
49 -543 -111 -51 -830 0
49 -545 -113 -53 -831 0
49 -547 -115 -55 -832 0
49 -549 -117 -57 -833 0
49 -551 -119 -59 -834 0
49 -553 -121 -61 -835 0
49 -555 -123 -63 -836 0
49 -557 -125 -65 -837 0
49 -559 -127 -67 -838 0
49 -561 -129 -69 -839 0
49 -563 -131 -71 -840 0
51 -565 -133 -49 -841 0
51 -567 -135 -51 -842 0
51 -569 -137 -53 -843 0
51 -571 -139 -55 -844 0
51 -573 -141 -57 -845 0
51 -575 -143 -59 -846 0
51 -577 -145 -61 -847 0
51 -579 -147 -63 -848 0
51 -581 -149 -65 -849 0
51 -583 -151 -67 -850 0
51 -585 -153 -69 -851 0
51 -587 -155 -71 -852 0
53 -589 -157 -49 -853 0
53 -591 -159 -51 -854 0
53 -593 -161 -53 -855 0
53 -595 -163 -55 -856 0
53 -597 -165 -57 -857 0
53 -599 -167 -59 -858 0
53 -601 -169 -61 -859 0
53 -603 -171 -63 -860 0
53 -605 -173 -65 -861 0
53 -607 -175 -67 -862 0
53 -609 -177 -69 -863 0
53 -611 -179 -71 -864 0
55 -613 -181 -49 -865 0
55 -615 -183 -51 -866 0
55 -617 -185 -53 -867 0
55 -619 -187 -55 -868 0
55 -621 -189 -57 -869 0
55 -623 -191 -59 -870 0
55 -625 -193 -61 -871 0
55 -627 -195 -63 -872 0
55 -629 -197 -65 -873 0
55 -631 -199 -67 -874 0
55 -633 -201 -69 -875 0
55 -635 -203 -71 -876 0
57 -637 -205 -49 -877 0
57 -639 -207 -51 -878 0
57 -641 -209 -53 -879 0
57 -643 -211 -55 -880 0
57 -645 -213 -57 -881 0
57 -647 -215 -59 -882 0
57 -649 -217 -61 -883 0
57 -651 -219 -63 -884 0
57 -653 -221 -65 -885 0
57 -655 -223 -67 -886 0
57 -657 -225 -69 -887 0
57 -659 -227 -71 -888 0
59 -661 -229 -49 -889 0
59 -663 -231 -51 -890 0
59 -665 -233 -53 -891 0
59 -667 -235 -55 -892 0
59 -669 -237 -57 -893 0
59 -671 -239 -59 -894 0
59 -673 -241 -61 -895 0
59 -675 -243 -63 -896 0
59 -677 -245 -65 -897 0
59 -679 -247 -67 -898 0
59 -681 -249 -69 -899 0
59 -683 -251 -71 -900 0
61 -685 -253 -49 -901 0
61 -687 -255 -51 -902 0
61 -689 -257 -53 -903 0
61 -691 -259 -55 -904 0
61 -693 -261 -57 -905 0
61 -695 -263 -59 -906 0
61 -697 -265 -61 -907 0
61 -699 -267 -63 -908 0
61 -701 -269 -65 -909 0
61 -703 -271 -67 -910 0
61 -705 -273 -69 -911 0
61 -707 -275 -71 -912 0
63 -709 -277 -49 -913 0
63 -711 -279 -51 -914 0
63 -713 -281 -53 -915 0
63 -715 -283 -55 -916 0
63 -717 -285 -57 -917 0
63 -719 -287 -59 -918 0
63 -721 -289 -61 -919 0
63 -723 -291 -63 -920 0
63 -725 -293 -65 -921 0
63 -727 -295 -67 -922 0
63 -729 -297 -69 -923 0
63 -731 -299 -71 -924 0
65 -733 -301 -49 -925 0
65 -735 -303 -51 -926 0
65 -737 -305 -53 -927 0
65 -739 -307 -55 -928 0
65 -741 -309 -57 -929 0
65 -743 -311 -59 -930 0
65 -745 -313 -61 -931 0
65 -747 -315 -63 -932 0
65 -749 -317 -65 -933 0
65 -751 -319 -67 -934 0
65 -753 -321 -69 -935 0
65 -755 -323 -71 -936 0
67 -757 -325 -49 -937 0
67 -759 -327 -51 -938 0
67 -761 -329 -53 -939 0
67 -763 -331 -55 -940 0
67 -765 -333 -57 -941 0
67 -767 -335 -59 -942 0
67 -769 -337 -61 -943 0
67 -771 -339 -63 -944 0
67 -773 -341 -65 -945 0
67 -775 -343 -67 -946 0
67 -777 -345 -69 -947 0
67 -779 -347 -71 -948 0
69 -781 -349 -49 -949 0
69 -783 -351 -51 -950 0
69 -785 -353 -53 -951 0
69 -787 -355 -55 -952 0
69 -789 -357 -57 -953 0
69 -791 -359 -59 -954 0
69 -793 -361 -61 -955 0
69 -795 -363 -63 -956 0
69 -797 -365 -65 -957 0
69 -799 -367 -67 -958 0
69 -801 -369 -69 -959 0
69 -803 -371 -71 -960 0
71 -805 -373 -49 -961 0
71 -807 -375 -51 -962 0
71 -809 -377 -53 -963 0
71 -811 -379 -55 -964 0
71 -813 -381 -57 -965 0
71 -815 -383 -59 -966 0
71 -817 -385 -61 -967 0
71 -819 -387 -63 -968 0
71 -821 -389 -65 -969 0
71 -823 -391 -67 -970 0
71 -825 -393 -69 -971 0
71 -827 -395 -71 -972 0
829 -49 0
830 -49 0
831 -49 0
832 -49 0
833 -49 0
834 -49 0
835 -49 0
836 -49 0
837 -49 0
838 -49 0
839 -49 0
840 -49 0
841 -51 0
842 -51 0
843 -51 0
844 -51 0
845 -51 0
846 -51 0
847 -51 0
848 -51 0
849 -51 0
850 -51 0
851 -51 0
852 -51 0
853 -53 0
854 -53 0
855 -53 0
856 -53 0
857 -53 0
858 -53 0
859 -53 0
860 -53 0
861 -53 0
862 -53 0
863 -53 0
864 -53 0
865 -55 0
866 -55 0
867 -55 0
868 -55 0
869 -55 0
870 -55 0
871 -55 0
872 -55 0
873 -55 0
874 -55 0
875 -55 0
876 -55 0
877 -57 0
878 -57 0
879 -57 0
880 -57 0
881 -57 0
882 -57 0
883 -57 0
884 -57 0
885 -57 0
886 -57 0
887 -57 0
888 -57 0
889 -59 0
890 -59 0
891 -59 0
892 -59 0
893 -59 0
894 -59 0
895 -59 0
896 -59 0
897 -59 0
898 -59 0
899 -59 0
900 -59 0
901 -61 0
902 -61 0
903 -61 0
904 -61 0
905 -61 0
906 -61 0
907 -61 0
908 -61 0
909 -61 0
910 -61 0
911 -61 0
912 -61 0
913 -63 0
914 -63 0
915 -63 0
916 -63 0
917 -63 0
918 -63 0
919 -63 0
920 -63 0
921 -63 0
922 -63 0
923 -63 0
924 -63 0
925 -65 0
926 -65 0
927 -65 0
928 -65 0
929 -65 0
930 -65 0
931 -65 0
932 -65 0
933 -65 0
934 -65 0
935 -65 0
936 -65 0
937 -67 0
938 -67 0
939 -67 0
940 -67 0
941 -67 0
942 -67 0
943 -67 0
944 -67 0
945 -67 0
946 -67 0
947 -67 0
948 -67 0
949 -69 0
950 -69 0
951 -69 0
952 -69 0
953 -69 0
954 -69 0
955 -69 0
956 -69 0
957 -69 0
958 -69 0
959 -69 0
960 -69 0
961 -71 0
962 -71 0
963 -71 0
964 -71 0
965 -71 0
966 -71 0
967 -71 0
968 -71 0
969 -71 0
970 -71 0
971 -71 0
972 -71 0
829 541 0
830 543 0
831 545 0
832 547 0
833 549 0
834 551 0
835 553 0
836 555 0
837 557 0
838 559 0
839 561 0
840 563 0
841 565 0
842 567 0
843 569 0
844 571 0
845 573 0
846 575 0
847 577 0
848 579 0
849 581 0
850 583 0
851 585 0
852 587 0
853 589 0
854 591 0
855 593 0
856 595 0
857 597 0
858 599 0
859 601 0
860 603 0
861 605 0
862 607 0
863 609 0
864 611 0
865 613 0
866 615 0
867 617 0
868 619 0
869 621 0
870 623 0
871 625 0
872 627 0
873 629 0
874 631 0
875 633 0
876 635 0
877 637 0
878 639 0
879 641 0
880 643 0
881 645 0
882 647 0
883 649 0
884 651 0
885 653 0
886 655 0
887 657 0
888 659 0
889 661 0
890 663 0
891 665 0
892 667 0
893 669 0
894 671 0
895 673 0
896 675 0
897 677 0
898 679 0
899 681 0
900 683 0
901 685 0
902 687 0
903 689 0
904 691 0
905 693 0
906 695 0
907 697 0
908 699 0
909 701 0
910 703 0
911 705 0
912 707 0
913 709 0
914 711 0
915 713 0
916 715 0
917 717 0
918 719 0
919 721 0
920 723 0
921 725 0
922 727 0
923 729 0
924 731 0
925 733 0
926 735 0
927 737 0
928 739 0
929 741 0
930 743 0
931 745 0
932 747 0
933 749 0
934 751 0
935 753 0
936 755 0
937 757 0
938 759 0
939 761 0
940 763 0
941 765 0
942 767 0
943 769 0
944 771 0
945 773 0
946 775 0
947 777 0
948 779 0
949 781 0
950 783 0
951 785 0
952 787 0
953 789 0
954 791 0
955 793 0
956 795 0
957 797 0
958 799 0
959 801 0
960 803 0
961 805 0
962 807 0
963 809 0
964 811 0
965 813 0
966 815 0
967 817 0
968 819 0
969 821 0
970 823 0
971 825 0
972 827 0
829 109 0
830 111 0
831 113 0
832 115 0
833 117 0
834 119 0
835 121 0
836 123 0
837 125 0
838 127 0
839 129 0
840 131 0
841 133 0
842 135 0
843 137 0
844 139 0
845 141 0
846 143 0
847 145 0
848 147 0
849 149 0
850 151 0
851 153 0
852 155 0
853 157 0
854 159 0
855 161 0
856 163 0
857 165 0
858 167 0
859 169 0
860 171 0
861 173 0
862 175 0
863 177 0
864 179 0
865 181 0
866 183 0
867 185 0
868 187 0
869 189 0
870 191 0
871 193 0
872 195 0
873 197 0
874 199 0
875 201 0
876 203 0
877 205 0
878 207 0
879 209 0
880 211 0
881 213 0
882 215 0
883 217 0
884 219 0
885 221 0
886 223 0
887 225 0
888 227 0
889 229 0
890 231 0
891 233 0
892 235 0
893 237 0
894 239 0
895 241 0
896 243 0
897 245 0
898 247 0
899 249 0
900 251 0
901 253 0
902 255 0
903 257 0
904 259 0
905 261 0
906 263 0
907 265 0
908 267 0
909 269 0
910 271 0
911 273 0
912 275 0
913 277 0
914 279 0
915 281 0
916 283 0
917 285 0
918 287 0
919 289 0
920 291 0
921 293 0
922 295 0
923 297 0
924 299 0
925 301 0
926 303 0
927 305 0
928 307 0
929 309 0
930 311 0
931 313 0
932 315 0
933 317 0
934 319 0
935 321 0
936 323 0
937 325 0
938 327 0
939 329 0
940 331 0
941 333 0
942 335 0
943 337 0
944 339 0
945 341 0
946 343 0
947 345 0
948 347 0
949 349 0
950 351 0
951 353 0
952 355 0
953 357 0
954 359 0
955 361 0
956 363 0
957 365 0
958 367 0
959 369 0
960 371 0
961 373 0
962 375 0
963 377 0
964 379 0
965 381 0
966 383 0
967 385 0
968 387 0
969 389 0
970 391 0
971 393 0
972 395 0
829 49 0
830 51 0
831 53 0
832 55 0
833 57 0
834 59 0
835 61 0
836 63 0
837 65 0
838 67 0
839 69 0
840 71 0
841 49 0
842 51 0
843 53 0
844 55 0
845 57 0
846 59 0
847 61 0
848 63 0
849 65 0
850 67 0
851 69 0
852 71 0
853 49 0
854 51 0
855 53 0
856 55 0
857 57 0
858 59 0
859 61 0
860 63 0
861 65 0
862 67 0
863 69 0
864 71 0
865 49 0
866 51 0
867 53 0
868 55 0
869 57 0
870 59 0
871 61 0
872 63 0
873 65 0
874 67 0
875 69 0
876 71 0
877 49 0
878 51 0
879 53 0
880 55 0
881 57 0
882 59 0
883 61 0
884 63 0
885 65 0
886 67 0
887 69 0
888 71 0
889 49 0
890 51 0
891 53 0
892 55 0
893 57 0
894 59 0
895 61 0
896 63 0
897 65 0
898 67 0
899 69 0
900 71 0
901 49 0
902 51 0
903 53 0
904 55 0
905 57 0
906 59 0
907 61 0
908 63 0
909 65 0
910 67 0
911 69 0
912 71 0
913 49 0
914 51 0
915 53 0
916 55 0
917 57 0
918 59 0
919 61 0
920 63 0
921 65 0
922 67 0
923 69 0
924 71 0
925 49 0
926 51 0
927 53 0
928 55 0
929 57 0
930 59 0
931 61 0
932 63 0
933 65 0
934 67 0
935 69 0
936 71 0
937 49 0
938 51 0
939 53 0
940 55 0
941 57 0
942 59 0
943 61 0
944 63 0
945 65 0
946 67 0
947 69 0
948 71 0
949 49 0
950 51 0
951 53 0
952 55 0
953 57 0
954 59 0
955 61 0
956 63 0
957 65 0
958 67 0
959 69 0
960 71 0
961 49 0
962 51 0
963 53 0
964 55 0
965 57 0
966 59 0
967 61 0
968 63 0
969 65 0
970 67 0
971 69 0
972 71 0
-3 -37 -74 -97 -110 -542 -829 973 0
-3 -37 -74 -97 -112 -544 -830 974 0
-3 -37 -74 -97 -114 -546 -831 975 0
-3 -37 -74 -97 -116 -548 -832 976 0
-3 -37 -74 -97 -118 -550 -833 977 0
-3 -37 -74 -97 -120 -552 -834 978 0
-3 -37 -74 -97 -122 -554 -835 979 0
-3 -37 -74 -97 -124 -556 -836 980 0
-3 -37 -74 -97 -126 -558 -837 981 0
-3 -37 -74 -97 -128 -560 -838 982 0
-3 -37 -74 -97 -130 -562 -839 983 0
-3 -37 -74 -97 -132 -564 -840 984 0
-6 -38 -76 -98 -134 -566 -841 985 0
-6 -38 -76 -98 -136 -568 -842 986 0
-6 -38 -76 -98 -138 -570 -843 987 0
-6 -38 -76 -98 -140 -572 -844 988 0
-6 -38 -76 -98 -142 -574 -845 989 0
-6 -38 -76 -98 -144 -576 -846 990 0
-6 -38 -76 -98 -146 -578 -847 991 0
-6 -38 -76 -98 -148 -580 -848 992 0
-6 -38 -76 -98 -150 -582 -849 993 0
-6 -38 -76 -98 -152 -584 -850 994 0
-6 -38 -76 -98 -154 -586 -851 995 0
-6 -38 -76 -98 -156 -588 -852 996 0
-9 -39 -78 -99 -158 -590 -853 997 0
-9 -39 -78 -99 -160 -592 -854 998 0
-9 -39 -78 -99 -162 -594 -855 999 0
-9 -39 -78 -99 -164 -596 -856 1000 0
-9 -39 -78 -99 -166 -598 -857 1001 0
-9 -39 -78 -99 -168 -600 -858 1002 0
-9 -39 -78 -99 -170 -602 -859 1003 0
-9 -39 -78 -99 -172 -604 -860 1004 0
-9 -39 -78 -99 -174 -606 -861 1005 0
-9 -39 -78 -99 -176 -608 -862 1006 0
-9 -39 -78 -99 -178 -610 -863 1007 0
-9 -39 -78 -99 -180 -612 -864 1008 0
-12 -40 -80 -100 -182 -614 -865 1009 0
-12 -40 -80 -100 -184 -616 -866 1010 0
-12 -40 -80 -100 -186 -618 -867 1011 0
-12 -40 -80 -100 -188 -620 -868 1012 0
-12 -40 -80 -100 -190 -622 -869 1013 0
-12 -40 -80 -100 -192 -624 -870 1014 0
-12 -40 -80 -100 -194 -626 -871 1015 0
-12 -40 -80 -100 -196 -628 -872 1016 0
-12 -40 -80 -100 -198 -630 -873 1017 0
-12 -40 -80 -100 -200 -632 -874 1018 0
-12 -40 -80 -100 -202 -634 -875 1019 0
-12 -40 -80 -100 -204 -636 -876 1020 0
-15 -41 -82 -101 -206 -638 -877 1021 0
-15 -41 -82 -101 -208 -640 -878 1022 0
-15 -41 -82 -101 -210 -642 -879 1023 0
-15 -41 -82 -101 -212 -644 -880 1024 0
-15 -41 -82 -101 -214 -646 -881 1025 0
-15 -41 -82 -101 -216 -648 -882 1026 0
-15 -41 -82 -101 -218 -650 -883 1027 0
-15 -41 -82 -101 -220 -652 -884 1028 0
-15 -41 -82 -101 -222 -654 -885 1029 0
-15 -41 -82 -101 -224 -656 -886 1030 0
-15 -41 -82 -101 -226 -658 -887 1031 0
-15 -41 -82 -101 -228 -660 -888 1032 0
-18 -42 -84 -102 -230 -662 -889 1033 0
-18 -42 -84 -102 -232 -664 -890 1034 0
-18 -42 -84 -102 -234 -666 -891 1035 0
-18 -42 -84 -102 -236 -668 -892 1036 0
-18 -42 -84 -102 -238 -670 -893 1037 0
-18 -42 -84 -102 -240 -672 -894 1038 0
-18 -42 -84 -102 -242 -674 -895 1039 0
-18 -42 -84 -102 -244 -676 -896 1040 0
-18 -42 -84 -102 -246 -678 -897 1041 0
-18 -42 -84 -102 -248 -680 -898 1042 0
-18 -42 -84 -102 -250 -682 -899 1043 0
-18 -42 -84 -102 -252 -684 -900 1044 0
-21 -43 -86 -103 -254 -686 -901 1045 0
-21 -43 -86 -103 -256 -688 -902 1046 0
-21 -43 -86 -103 -258 -690 -903 1047 0
-21 -43 -86 -103 -260 -692 -904 1048 0
-21 -43 -86 -103 -262 -694 -905 1049 0
-21 -43 -86 -103 -264 -696 -906 1050 0
-21 -43 -86 -103 -266 -698 -907 1051 0
-21 -43 -86 -103 -268 -700 -908 1052 0
-21 -43 -86 -103 -270 -702 -909 1053 0
-21 -43 -86 -103 -272 -704 -910 1054 0
-21 -43 -86 -103 -274 -706 -911 1055 0
-21 -43 -86 -103 -276 -708 -912 1056 0
-24 -44 -88 -104 -278 -710 -913 1057 0
-24 -44 -88 -104 -280 -712 -914 1058 0
-24 -44 -88 -104 -282 -714 -915 1059 0
-24 -44 -88 -104 -284 -716 -916 1060 0
-24 -44 -88 -104 -286 -718 -917 1061 0
-24 -44 -88 -104 -288 -720 -918 1062 0
-24 -44 -88 -104 -290 -722 -919 1063 0
-24 -44 -88 -104 -292 -724 -920 1064 0
-24 -44 -88 -104 -294 -726 -921 1065 0
-24 -44 -88 -104 -296 -728 -922 1066 0
-24 -44 -88 -104 -298 -730 -923 1067 0
-24 -44 -88 -104 -300 -732 -924 1068 0
-27 -45 -90 -105 -302 -734 -925 1069 0
-27 -45 -90 -105 -304 -736 -926 1070 0
-27 -45 -90 -105 -306 -738 -927 1071 0
-27 -45 -90 -105 -308 -740 -928 1072 0
-27 -45 -90 -105 -310 -742 -929 1073 0
-27 -45 -90 -105 -312 -744 -930 1074 0
-27 -45 -90 -105 -314 -746 -931 1075 0
-27 -45 -90 -105 -316 -748 -932 1076 0
-27 -45 -90 -105 -318 -750 -933 1077 0
-27 -45 -90 -105 -320 -752 -934 1078 0
-27 -45 -90 -105 -322 -754 -935 1079 0
-27 -45 -90 -105 -324 -756 -936 1080 0
-30 -46 -92 -106 -326 -758 -937 1081 0
-30 -46 -92 -106 -328 -760 -938 1082 0
-30 -46 -92 -106 -330 -762 -939 1083 0
-30 -46 -92 -106 -332 -764 -940 1084 0
-30 -46 -92 -106 -334 -766 -941 1085 0
-30 -46 -92 -106 -336 -768 -942 1086 0
-30 -46 -92 -106 -338 -770 -943 1087 0
-30 -46 -92 -106 -340 -772 -944 1088 0
-30 -46 -92 -106 -342 -774 -945 1089 0
-30 -46 -92 -106 -344 -776 -946 1090 0
-30 -46 -92 -106 -346 -778 -947 1091 0
-30 -46 -92 -106 -348 -780 -948 1092 0
-33 -47 -94 -107 -350 -782 -949 1093 0
-33 -47 -94 -107 -352 -784 -950 1094 0
-33 -47 -94 -107 -354 -786 -951 1095 0
-33 -47 -94 -107 -356 -788 -952 1096 0
-33 -47 -94 -107 -358 -790 -953 1097 0
-33 -47 -94 -107 -360 -792 -954 1098 0
-33 -47 -94 -107 -362 -794 -955 1099 0
-33 -47 -94 -107 -364 -796 -956 1100 0
-33 -47 -94 -107 -366 -798 -957 1101 0
-33 -47 -94 -107 -368 -800 -958 1102 0
-33 -47 -94 -107 -370 -802 -959 1103 0
-33 -47 -94 -107 -372 -804 -960 1104 0
-36 -48 -96 -108 -374 -806 -961 1105 0
-36 -48 -96 -108 -376 -808 -962 1106 0
-36 -48 -96 -108 -378 -810 -963 1107 0
-36 -48 -96 -108 -380 -812 -964 1108 0
-36 -48 -96 -108 -382 -814 -965 1109 0
-36 -48 -96 -108 -384 -816 -966 1110 0
-36 -48 -96 -108 -386 -818 -967 1111 0
-36 -48 -96 -108 -388 -820 -968 1112 0
-36 -48 -96 -108 -390 -822 -969 1113 0
-36 -48 -96 -108 -392 -824 -970 1114 0
-36 -48 -96 -108 -394 -826 -971 1115 0
-36 -48 -96 -108 -396 -828 -972 1116 0
-973 3 0
-974 3 0
-975 3 0
-976 3 0
-977 3 0
-978 3 0
-979 3 0
-980 3 0
-981 3 0
-982 3 0
-983 3 0
-984 3 0
-985 6 0
-986 6 0
-987 6 0
-988 6 0
-989 6 0
-990 6 0
-991 6 0
-992 6 0
-993 6 0
-994 6 0
-995 6 0
-996 6 0
-997 9 0
-998 9 0
-999 9 0
-1000 9 0
-1001 9 0
-1002 9 0
-1003 9 0
-1004 9 0
-1005 9 0
-1006 9 0
-1007 9 0
-1008 9 0
-1009 12 0
-1010 12 0
-1011 12 0
-1012 12 0
-1013 12 0
-1014 12 0
-1015 12 0
-1016 12 0
-1017 12 0
-1018 12 0
-1019 12 0
-1020 12 0
-1021 15 0
-1022 15 0
-1023 15 0
-1024 15 0
-1025 15 0
-1026 15 0
-1027 15 0
-1028 15 0
-1029 15 0
-1030 15 0
-1031 15 0
-1032 15 0
-1033 18 0
-1034 18 0
-1035 18 0
-1036 18 0
-1037 18 0
-1038 18 0
-1039 18 0
-1040 18 0
-1041 18 0
-1042 18 0
-1043 18 0
-1044 18 0
-1045 21 0
-1046 21 0
-1047 21 0
-1048 21 0
-1049 21 0
-1050 21 0
-1051 21 0
-1052 21 0
-1053 21 0
-1054 21 0
-1055 21 0
-1056 21 0
-1057 24 0
-1058 24 0
-1059 24 0
-1060 24 0
-1061 24 0
-1062 24 0
-1063 24 0
-1064 24 0
-1065 24 0
-1066 24 0
-1067 24 0
-1068 24 0
-1069 27 0
-1070 27 0
-1071 27 0
-1072 27 0
-1073 27 0
-1074 27 0
-1075 27 0
-1076 27 0
-1077 27 0
-1078 27 0
-1079 27 0
-1080 27 0
-1081 30 0
-1082 30 0
-1083 30 0
-1084 30 0
-1085 30 0
-1086 30 0
-1087 30 0
-1088 30 0
-1089 30 0
-1090 30 0
-1091 30 0
-1092 30 0
-1093 33 0
-1094 33 0
-1095 33 0
-1096 33 0
-1097 33 0
-1098 33 0
-1099 33 0
-1100 33 0
-1101 33 0
-1102 33 0
-1103 33 0
-1104 33 0
-1105 36 0
-1106 36 0
-1107 36 0
-1108 36 0
-1109 36 0
-1110 36 0
-1111 36 0
-1112 36 0
-1113 36 0
-1114 36 0
-1115 36 0
-1116 36 0
-973 37 0
-974 37 0
-975 37 0
-976 37 0
-977 37 0
-978 37 0
-979 37 0
-980 37 0
-981 37 0
-982 37 0
-983 37 0
-984 37 0
-985 38 0
-986 38 0
-987 38 0
-988 38 0
-989 38 0
-990 38 0
-991 38 0
-992 38 0
-993 38 0
-994 38 0
-995 38 0
-996 38 0
-997 39 0
-998 39 0
-999 39 0
-1000 39 0
-1001 39 0
-1002 39 0
-1003 39 0
-1004 39 0
-1005 39 0
-1006 39 0
-1007 39 0
-1008 39 0
-1009 40 0
-1010 40 0
-1011 40 0
-1012 40 0
-1013 40 0
-1014 40 0
-1015 40 0
-1016 40 0
-1017 40 0
-1018 40 0
-1019 40 0
-1020 40 0
-1021 41 0
-1022 41 0
-1023 41 0
-1024 41 0
-1025 41 0
-1026 41 0
-1027 41 0
-1028 41 0
-1029 41 0
-1030 41 0
-1031 41 0
-1032 41 0
-1033 42 0
-1034 42 0
-1035 42 0
-1036 42 0
-1037 42 0
-1038 42 0
-1039 42 0
-1040 42 0
-1041 42 0
-1042 42 0
-1043 42 0
-1044 42 0
-1045 43 0
-1046 43 0
-1047 43 0
-1048 43 0
-1049 43 0
-1050 43 0
-1051 43 0
-1052 43 0
-1053 43 0
-1054 43 0
-1055 43 0
-1056 43 0
-1057 44 0
-1058 44 0
-1059 44 0
-1060 44 0
-1061 44 0
-1062 44 0
-1063 44 0
-1064 44 0
-1065 44 0
-1066 44 0
-1067 44 0
-1068 44 0
-1069 45 0
-1070 45 0
-1071 45 0
-1072 45 0
-1073 45 0
-1074 45 0
-1075 45 0
-1076 45 0
-1077 45 0
-1078 45 0
-1079 45 0
-1080 45 0
-1081 46 0
-1082 46 0
-1083 46 0
-1084 46 0
-1085 46 0
-1086 46 0
-1087 46 0
-1088 46 0
-1089 46 0
-1090 46 0
-1091 46 0
-1092 46 0
-1093 47 0
-1094 47 0
-1095 47 0
-1096 47 0
-1097 47 0
-1098 47 0
-1099 47 0
-1100 47 0
-1101 47 0
-1102 47 0
-1103 47 0
-1104 47 0
-1105 48 0
-1106 48 0
-1107 48 0
-1108 48 0
-1109 48 0
-1110 48 0
-1111 48 0
-1112 48 0
-1113 48 0
-1114 48 0
-1115 48 0
-1116 48 0
-973 74 0
-974 74 0
-975 74 0
-976 74 0
-977 74 0
-978 74 0
-979 74 0
-980 74 0
-981 74 0
-982 74 0
-983 74 0
-984 74 0
-985 76 0
-986 76 0
-987 76 0
-988 76 0
-989 76 0
-990 76 0
-991 76 0
-992 76 0
-993 76 0
-994 76 0
-995 76 0
-996 76 0
-997 78 0
-998 78 0
-999 78 0
-1000 78 0
-1001 78 0
-1002 78 0
-1003 78 0
-1004 78 0
-1005 78 0
-1006 78 0
-1007 78 0
-1008 78 0
-1009 80 0
-1010 80 0
-1011 80 0
-1012 80 0
-1013 80 0
-1014 80 0
-1015 80 0
-1016 80 0
-1017 80 0
-1018 80 0
-1019 80 0
-1020 80 0
-1021 82 0
-1022 82 0
-1023 82 0
-1024 82 0
-1025 82 0
-1026 82 0
-1027 82 0
-1028 82 0
-1029 82 0
-1030 82 0
-1031 82 0
-1032 82 0
-1033 84 0
-1034 84 0
-1035 84 0
-1036 84 0
-1037 84 0
-1038 84 0
-1039 84 0
-1040 84 0
-1041 84 0
-1042 84 0
-1043 84 0
-1044 84 0
-1045 86 0
-1046 86 0
-1047 86 0
-1048 86 0
-1049 86 0
-1050 86 0
-1051 86 0
-1052 86 0
-1053 86 0
-1054 86 0
-1055 86 0
-1056 86 0
-1057 88 0
-1058 88 0
-1059 88 0
-1060 88 0
-1061 88 0
-1062 88 0
-1063 88 0
-1064 88 0
-1065 88 0
-1066 88 0
-1067 88 0
-1068 88 0
-1069 90 0
-1070 90 0
-1071 90 0
-1072 90 0
-1073 90 0
-1074 90 0
-1075 90 0
-1076 90 0
-1077 90 0
-1078 90 0
-1079 90 0
-1080 90 0
-1081 92 0
-1082 92 0
-1083 92 0
-1084 92 0
-1085 92 0
-1086 92 0
-1087 92 0
-1088 92 0
-1089 92 0
-1090 92 0
-1091 92 0
-1092 92 0
-1093 94 0
-1094 94 0
-1095 94 0
-1096 94 0
-1097 94 0
-1098 94 0
-1099 94 0
-1100 94 0
-1101 94 0
-1102 94 0
-1103 94 0
-1104 94 0
-1105 96 0
-1106 96 0
-1107 96 0
-1108 96 0
-1109 96 0
-1110 96 0
-1111 96 0
-1112 96 0
-1113 96 0
-1114 96 0
-1115 96 0
-1116 96 0
-973 97 0
-974 97 0
-975 97 0
-976 97 0
-977 97 0
-978 97 0
-979 97 0
-980 97 0
-981 97 0
-982 97 0
-983 97 0
-984 97 0
-985 98 0
-986 98 0
-987 98 0
-988 98 0
-989 98 0
-990 98 0
-991 98 0
-992 98 0
-993 98 0
-994 98 0
-995 98 0
-996 98 0
-997 99 0
-998 99 0
-999 99 0
-1000 99 0
-1001 99 0
-1002 99 0
-1003 99 0
-1004 99 0
-1005 99 0
-1006 99 0
-1007 99 0
-1008 99 0
-1009 100 0
-1010 100 0
-1011 100 0
-1012 100 0
-1013 100 0
-1014 100 0
-1015 100 0
-1016 100 0
-1017 100 0
-1018 100 0
-1019 100 0
-1020 100 0
-1021 101 0
-1022 101 0
-1023 101 0
-1024 101 0
-1025 101 0
-1026 101 0
-1027 101 0
-1028 101 0
-1029 101 0
-1030 101 0
-1031 101 0
-1032 101 0
-1033 102 0
-1034 102 0
-1035 102 0
-1036 102 0
-1037 102 0
-1038 102 0
-1039 102 0
-1040 102 0
-1041 102 0
-1042 102 0
-1043 102 0
-1044 102 0
-1045 103 0
-1046 103 0
-1047 103 0
-1048 103 0
-1049 103 0
-1050 103 0
-1051 103 0
-1052 103 0
-1053 103 0
-1054 103 0
-1055 103 0
-1056 103 0
-1057 104 0
-1058 104 0
-1059 104 0
-1060 104 0
-1061 104 0
-1062 104 0
-1063 104 0
-1064 104 0
-1065 104 0
-1066 104 0
-1067 104 0
-1068 104 0
-1069 105 0
-1070 105 0
-1071 105 0
-1072 105 0
-1073 105 0
-1074 105 0
-1075 105 0
-1076 105 0
-1077 105 0
-1078 105 0
-1079 105 0
-1080 105 0
-1081 106 0
-1082 106 0
-1083 106 0
-1084 106 0
-1085 106 0
-1086 106 0
-1087 106 0
-1088 106 0
-1089 106 0
-1090 106 0
-1091 106 0
-1092 106 0
-1093 107 0
-1094 107 0
-1095 107 0
-1096 107 0
-1097 107 0
-1098 107 0
-1099 107 0
-1100 107 0
-1101 107 0
-1102 107 0
-1103 107 0
-1104 107 0
-1105 108 0
-1106 108 0
-1107 108 0
-1108 108 0
-1109 108 0
-1110 108 0
-1111 108 0
-1112 108 0
-1113 108 0
-1114 108 0
-1115 108 0
-1116 108 0
-973 110 0
-974 112 0
-975 114 0
-976 116 0
-977 118 0
-978 120 0
-979 122 0
-980 124 0
-981 126 0
-982 128 0
-983 130 0
-984 132 0
-985 134 0
-986 136 0
-987 138 0
-988 140 0
-989 142 0
-990 144 0
-991 146 0
-992 148 0
-993 150 0
-994 152 0
-995 154 0
-996 156 0
-997 158 0
-998 160 0
-999 162 0
-1000 164 0
-1001 166 0
-1002 168 0
-1003 170 0
-1004 172 0
-1005 174 0
-1006 176 0
-1007 178 0
-1008 180 0
-1009 182 0
-1010 184 0
-1011 186 0
-1012 188 0
-1013 190 0
-1014 192 0
-1015 194 0
-1016 196 0
-1017 198 0
-1018 200 0
-1019 202 0
-1020 204 0
-1021 206 0
-1022 208 0
-1023 210 0
-1024 212 0
-1025 214 0
-1026 216 0
-1027 218 0
-1028 220 0
-1029 222 0
-1030 224 0
-1031 226 0
-1032 228 0
-1033 230 0
-1034 232 0
-1035 234 0
-1036 236 0
-1037 238 0
-1038 240 0
-1039 242 0
-1040 244 0
-1041 246 0
-1042 248 0
-1043 250 0
-1044 252 0
-1045 254 0
-1046 256 0
-1047 258 0
-1048 260 0
-1049 262 0
-1050 264 0
-1051 266 0
-1052 268 0
-1053 270 0
-1054 272 0
-1055 274 0
-1056 276 0
-1057 278 0
-1058 280 0
-1059 282 0
-1060 284 0
-1061 286 0
-1062 288 0
-1063 290 0
-1064 292 0
-1065 294 0
-1066 296 0
-1067 298 0
-1068 300 0
-1069 302 0
-1070 304 0
-1071 306 0
-1072 308 0
-1073 310 0
-1074 312 0
-1075 314 0
-1076 316 0
-1077 318 0
-1078 320 0
-1079 322 0
-1080 324 0
-1081 326 0
-1082 328 0
-1083 330 0
-1084 332 0
-1085 334 0
-1086 336 0
-1087 338 0
-1088 340 0
-1089 342 0
-1090 344 0
-1091 346 0
-1092 348 0
-1093 350 0
-1094 352 0
-1095 354 0
-1096 356 0
-1097 358 0
-1098 360 0
-1099 362 0
-1100 364 0
-1101 366 0
-1102 368 0
-1103 370 0
-1104 372 0
-1105 374 0
-1106 376 0
-1107 378 0
-1108 380 0
-1109 382 0
-1110 384 0
-1111 386 0
-1112 388 0
-1113 390 0
-1114 392 0
-1115 394 0
-1116 396 0
-973 542 0
-974 544 0
-975 546 0
-976 548 0
-977 550 0
-978 552 0
-979 554 0
-980 556 0
-981 558 0
-982 560 0
-983 562 0
-984 564 0
-985 566 0
-986 568 0
-987 570 0
-988 572 0
-989 574 0
-990 576 0
-991 578 0
-992 580 0
-993 582 0
-994 584 0
-995 586 0
-996 588 0
-997 590 0
-998 592 0
-999 594 0
-1000 596 0
-1001 598 0
-1002 600 0
-1003 602 0
-1004 604 0
-1005 606 0
-1006 608 0
-1007 610 0
-1008 612 0
-1009 614 0
-1010 616 0
-1011 618 0
-1012 620 0
-1013 622 0
-1014 624 0
-1015 626 0
-1016 628 0
-1017 630 0
-1018 632 0
-1019 634 0
-1020 636 0
-1021 638 0
-1022 640 0
-1023 642 0
-1024 644 0
-1025 646 0
-1026 648 0
-1027 650 0
-1028 652 0
-1029 654 0
-1030 656 0
-1031 658 0
-1032 660 0
-1033 662 0
-1034 664 0
-1035 666 0
-1036 668 0
-1037 670 0
-1038 672 0
-1039 674 0
-1040 676 0
-1041 678 0
-1042 680 0
-1043 682 0
-1044 684 0
-1045 686 0
-1046 688 0
-1047 690 0
-1048 692 0
-1049 694 0
-1050 696 0
-1051 698 0
-1052 700 0
-1053 702 0
-1054 704 0
-1055 706 0
-1056 708 0
-1057 710 0
-1058 712 0
-1059 714 0
-1060 716 0
-1061 718 0
-1062 720 0
-1063 722 0
-1064 724 0
-1065 726 0
-1066 728 0
-1067 730 0
-1068 732 0
-1069 734 0
-1070 736 0
-1071 738 0
-1072 740 0
-1073 742 0
-1074 744 0
-1075 746 0
-1076 748 0
-1077 750 0
-1078 752 0
-1079 754 0
-1080 756 0
-1081 758 0
-1082 760 0
-1083 762 0
-1084 764 0
-1085 766 0
-1086 768 0
-1087 770 0
-1088 772 0
-1089 774 0
-1090 776 0
-1091 778 0
-1092 780 0
-1093 782 0
-1094 784 0
-1095 786 0
-1096 788 0
-1097 790 0
-1098 792 0
-1099 794 0
-1100 796 0
-1101 798 0
-1102 800 0
-1103 802 0
-1104 804 0
-1105 806 0
-1106 808 0
-1107 810 0
-1108 812 0
-1109 814 0
-1110 816 0
-1111 818 0
-1112 820 0
-1113 822 0
-1114 824 0
-1115 826 0
-1116 828 0
-973 829 0
-974 830 0
-975 831 0
-976 832 0
-977 833 0
-978 834 0
-979 835 0
-980 836 0
-981 837 0
-982 838 0
-983 839 0
-984 840 0
-985 841 0
-986 842 0
-987 843 0
-988 844 0
-989 845 0
-990 846 0
-991 847 0
-992 848 0
-993 849 0
-994 850 0
-995 851 0
-996 852 0
-997 853 0
-998 854 0
-999 855 0
-1000 856 0
-1001 857 0
-1002 858 0
-1003 859 0
-1004 860 0
-1005 861 0
-1006 862 0
-1007 863 0
-1008 864 0
-1009 865 0
-1010 866 0
-1011 867 0
-1012 868 0
-1013 869 0
-1014 870 0
-1015 871 0
-1016 872 0
-1017 873 0
-1018 874 0
-1019 875 0
-1020 876 0
-1021 877 0
-1022 878 0
-1023 879 0
-1024 880 0
-1025 881 0
-1026 882 0
-1027 883 0
-1028 884 0
-1029 885 0
-1030 886 0
-1031 887 0
-1032 888 0
-1033 889 0
-1034 890 0
-1035 891 0
-1036 892 0
-1037 893 0
-1038 894 0
-1039 895 0
-1040 896 0
-1041 897 0
-1042 898 0
-1043 899 0
-1044 900 0
-1045 901 0
-1046 902 0
-1047 903 0
-1048 904 0
-1049 905 0
-1050 906 0
-1051 907 0
-1052 908 0
-1053 909 0
-1054 910 0
-1055 911 0
-1056 912 0
-1057 913 0
-1058 914 0
-1059 915 0
-1060 916 0
-1061 917 0
-1062 918 0
-1063 919 0
-1064 920 0
-1065 921 0
-1066 922 0
-1067 923 0
-1068 924 0
-1069 925 0
-1070 926 0
-1071 927 0
-1072 928 0
-1073 929 0
-1074 930 0
-1075 931 0
-1076 932 0
-1077 933 0
-1078 934 0
-1079 935 0
-1080 936 0
-1081 937 0
-1082 938 0
-1083 939 0
-1084 940 0
-1085 941 0
-1086 942 0
-1087 943 0
-1088 944 0
-1089 945 0
-1090 946 0
-1091 947 0
-1092 948 0
-1093 949 0
-1094 950 0
-1095 951 0
-1096 952 0
-1097 953 0
-1098 954 0
-1099 955 0
-1100 956 0
-1101 957 0
-1102 958 0
-1103 959 0
-1104 960 0
-1105 961 0
-1106 962 0
-1107 963 0
-1108 964 0
-1109 965 0
-1110 966 0
-1111 967 0
-1112 968 0
-1113 969 0
-1114 970 0
-1115 971 0
-1116 972 0
973 0
974 0
975 0
976 0
977 0
978 0
979 0
980 0
981 0
982 0
983 0
984 0
985 0
986 0
987 0
988 0
989 0
990 0
991 0
992 0
993 0
994 0
995 0
996 0
997 0
998 0
999 0
1000 0
1001 0
1002 0
1003 0
1004 0
1005 0
1006 0
1007 0
1008 0
1009 0
1010 0
1011 0
1012 0
1013 0
1014 0
1015 0
1016 0
1017 0
1018 0
1019 0
1020 0
1021 0
1022 0
1023 0
1024 0
1025 0
1026 0
1027 0
1028 0
1029 0
1030 0
1031 0
1032 0
1033 0
1034 0
1035 0
1036 0
1037 0
1038 0
1039 0
1040 0
1041 0
1042 0
1043 0
1044 0
1045 0
1046 0
1047 0
1048 0
1049 0
1050 0
1051 0
1052 0
1053 0
1054 0
1055 0
1056 0
1057 0
1058 0
1059 0
1060 0
1061 0
1062 0
1063 0
1064 0
1065 0
1066 0
1067 0
1068 0
1069 0
1070 0
1071 0
1072 0
1073 0
1074 0
1075 0
1076 0
1077 0
1078 0
1079 0
1080 0
1081 0
1082 0
1083 0
1084 0
1085 0
1086 0
1087 0
1088 0
1089 0
1090 0
1091 0
1092 0
1093 0
1094 0
1095 0
1096 0
1097 0
1098 0
1099 0
1100 0
1101 0
1102 0
1103 0
1104 0
1105 0
1106 0
1107 0
1108 0
1109 0
1110 0
1111 0
1112 0
1113 0
1114 0
1115 0
1116 0
1117 0
1118 1119 0
-1118 -1119 0
-1118 -1120 1121 0
-1118 -1122 1123 0
-1118 -1124 1125 0
-1118 -1126 1127 0
-1118 -1128 1129 0
-1118 -1130 1131 0
-1118 -1132 1133 0
-1118 -1134 1135 0
-1118 -1136 1137 0
-1118 -1138 1139 0
1121 1140 0
-1121 -1140 0
-1121 -1141 1118 0
-1121 -1142 1123 0
-1121 -1143 1125 0
-1121 -1144 1127 0
-1121 -1145 1129 0
-1121 -1146 1131 0
-1121 -1147 1133 0
-1121 -1148 1135 0
-1121 -1149 1137 0
-1121 -1150 1139 0
1123 1151 0
-1123 -1151 0
-1123 -1152 1118 0
-1123 -1153 1121 0
-1123 -1154 1125 0
-1123 -1155 1127 0
-1123 -1156 1129 0
-1123 -1157 1131 0
-1123 -1158 1133 0
-1123 -1159 1135 0
-1123 -1160 1137 0
-1123 -1161 1139 0
1125 1162 0
-1125 -1162 0
-1125 -1163 1118 0
-1125 -1164 1121 0
-1125 -1165 1123 0
-1125 -1166 1127 0
-1125 -1167 1129 0
-1125 -1168 1131 0
-1125 -1169 1133 0
-1125 -1170 1135 0
-1125 -1171 1137 0
-1125 -1172 1139 0
1127 1173 0
-1127 -1173 0
-1127 -1174 1118 0
-1127 -1175 1121 0
-1127 -1176 1123 0
-1127 -1177 1125 0
-1127 -1178 1129 0
-1127 -1179 1131 0
-1127 -1180 1133 0
-1127 -1181 1135 0
-1127 -1182 1137 0
-1127 -1183 1139 0
1129 1184 0
-1129 -1184 0
-1129 -1185 1118 0
-1129 -1186 1121 0
-1129 -1187 1123 0
-1129 -1188 1125 0
-1129 -1189 1127 0
-1129 -1190 1131 0
-1129 -1191 1133 0
-1129 -1192 1135 0
-1129 -1193 1137 0
-1129 -1194 1139 0
1131 1195 0
-1131 -1195 0
-1131 -1196 1118 0
-1131 -1197 1121 0
-1131 -1198 1123 0
-1131 -1199 1125 0
-1131 -1200 1127 0
-1131 -1201 1129 0
-1131 -1202 1133 0
-1131 -1203 1135 0
-1131 -1204 1137 0
-1131 -1205 1139 0
1133 1206 0
-1133 -1206 0
-1133 -1207 1118 0
-1133 -1208 1121 0
-1133 -1209 1123 0
-1133 -1210 1125 0
-1133 -1211 1127 0
-1133 -1212 1129 0
-1133 -1213 1131 0
-1133 -1214 1135 0
-1133 -1215 1137 0
-1133 -1216 1139 0
1135 1217 0
-1135 -1217 0
-1135 -1218 1118 0
-1135 -1219 1121 0
-1135 -1220 1123 0
-1135 -1221 1125 0
-1135 -1222 1127 0
-1135 -1223 1129 0
-1135 -1224 1131 0
-1135 -1225 1133 0
-1135 -1226 1137 0
-1135 -1227 1139 0
1137 1228 0
-1137 -1228 0
-1137 -1229 1118 0
-1137 -1230 1121 0
-1137 -1231 1123 0
-1137 -1232 1125 0
-1137 -1233 1127 0
-1137 -1234 1129 0
-1137 -1235 1131 0
-1137 -1236 1133 0
-1137 -1237 1135 0
-1137 -1238 1139 0
1139 1239 0
-1139 -1239 0
-1139 -1240 1118 0
-1139 -1241 1121 0
-1139 -1242 1123 0
-1139 -1243 1125 0
-1139 -1244 1127 0
-1139 -1245 1129 0
-1139 -1246 1131 0
-1139 -1247 1133 0
-1139 -1248 1135 0
-1139 -1249 1137 0
1250 0
1119 1118 0
-1119 -1118 0
-1119 -1121 1120 0
-1119 -1123 1122 0
-1119 -1125 1124 0
-1119 -1127 1126 0
-1119 -1129 1128 0
-1119 -1131 1130 0
-1119 -1133 1132 0
-1119 -1135 1134 0
-1119 -1137 1136 0
-1119 -1139 1138 0
1120 1141 0
-1120 -1141 0
-1120 -1140 1119 0
-1120 -1142 1122 0
-1120 -1143 1124 0
-1120 -1144 1126 0
-1120 -1145 1128 0
-1120 -1146 1130 0
-1120 -1147 1132 0
-1120 -1148 1134 0
-1120 -1149 1136 0
-1120 -1150 1138 0
1122 1152 0
-1122 -1152 0
-1122 -1151 1119 0
-1122 -1153 1120 0
-1122 -1154 1124 0
-1122 -1155 1126 0
-1122 -1156 1128 0
-1122 -1157 1130 0
-1122 -1158 1132 0
-1122 -1159 1134 0
-1122 -1160 1136 0
-1122 -1161 1138 0
1124 1163 0
-1124 -1163 0
-1124 -1162 1119 0
-1124 -1164 1120 0
-1124 -1165 1122 0
-1124 -1166 1126 0
-1124 -1167 1128 0
-1124 -1168 1130 0
-1124 -1169 1132 0
-1124 -1170 1134 0
-1124 -1171 1136 0
-1124 -1172 1138 0
1126 1174 0
-1126 -1174 0
-1126 -1173 1119 0
-1126 -1175 1120 0
-1126 -1176 1122 0
-1126 -1177 1124 0
-1126 -1178 1128 0
-1126 -1179 1130 0
-1126 -1180 1132 0
-1126 -1181 1134 0
-1126 -1182 1136 0
-1126 -1183 1138 0
1128 1185 0
-1128 -1185 0
-1128 -1184 1119 0
-1128 -1186 1120 0
-1128 -1187 1122 0
-1128 -1188 1124 0
-1128 -1189 1126 0
-1128 -1190 1130 0
-1128 -1191 1132 0
-1128 -1192 1134 0
-1128 -1193 1136 0
-1128 -1194 1138 0
1130 1196 0
-1130 -1196 0
-1130 -1195 1119 0
-1130 -1197 1120 0
-1130 -1198 1122 0
-1130 -1199 1124 0
-1130 -1200 1126 0
-1130 -1201 1128 0
-1130 -1202 1132 0
-1130 -1203 1134 0
-1130 -1204 1136 0
-1130 -1205 1138 0
1132 1207 0
-1132 -1207 0
-1132 -1206 1119 0
-1132 -1208 1120 0
-1132 -1209 1122 0
-1132 -1210 1124 0
-1132 -1211 1126 0
-1132 -1212 1128 0
-1132 -1213 1130 0
-1132 -1214 1134 0
-1132 -1215 1136 0
-1132 -1216 1138 0
1134 1218 0
-1134 -1218 0
-1134 -1217 1119 0
-1134 -1219 1120 0
-1134 -1220 1122 0
-1134 -1221 1124 0
-1134 -1222 1126 0
-1134 -1223 1128 0
-1134 -1224 1130 0
-1134 -1225 1132 0
-1134 -1226 1136 0
-1134 -1227 1138 0
1136 1229 0
-1136 -1229 0
-1136 -1228 1119 0
-1136 -1230 1120 0
-1136 -1231 1122 0
-1136 -1232 1124 0
-1136 -1233 1126 0
-1136 -1234 1128 0
-1136 -1235 1130 0
-1136 -1236 1132 0
-1136 -1237 1134 0
-1136 -1238 1138 0
1138 1240 0
-1138 -1240 0
-1138 -1239 1119 0
-1138 -1241 1120 0
-1138 -1242 1122 0
-1138 -1243 1124 0
-1138 -1244 1126 0
-1138 -1245 1128 0
-1138 -1246 1130 0
-1138 -1247 1132 0
-1138 -1248 1134 0
-1138 -1249 1136 0
1251 0
1140 1121 0
-1140 -1121 0
-1140 -1118 1141 0
-1140 -1123 1142 0
-1140 -1125 1143 0
-1140 -1127 1144 0
-1140 -1129 1145 0
-1140 -1131 1146 0
-1140 -1133 1147 0
-1140 -1135 1148 0
-1140 -1137 1149 0
-1140 -1139 1150 0
1141 1120 0
-1141 -1120 0
-1141 -1119 1140 0
-1141 -1122 1142 0
-1141 -1124 1143 0
-1141 -1126 1144 0
-1141 -1128 1145 0
-1141 -1130 1146 0
-1141 -1132 1147 0
-1141 -1134 1148 0
-1141 -1136 1149 0
-1141 -1138 1150 0
1142 1153 0
-1142 -1153 0
-1142 -1151 1140 0
-1142 -1152 1141 0
-1142 -1154 1143 0
-1142 -1155 1144 0
-1142 -1156 1145 0
-1142 -1157 1146 0
-1142 -1158 1147 0
-1142 -1159 1148 0
-1142 -1160 1149 0
-1142 -1161 1150 0
1143 1164 0
-1143 -1164 0
-1143 -1162 1140 0
-1143 -1163 1141 0
-1143 -1165 1142 0
-1143 -1166 1144 0
-1143 -1167 1145 0
-1143 -1168 1146 0
-1143 -1169 1147 0
-1143 -1170 1148 0
-1143 -1171 1149 0
-1143 -1172 1150 0
1144 1175 0
-1144 -1175 0
-1144 -1173 1140 0
-1144 -1174 1141 0
-1144 -1176 1142 0
-1144 -1177 1143 0
-1144 -1178 1145 0
-1144 -1179 1146 0
-1144 -1180 1147 0
-1144 -1181 1148 0
-1144 -1182 1149 0
-1144 -1183 1150 0
1145 1186 0
-1145 -1186 0
-1145 -1184 1140 0
-1145 -1185 1141 0
-1145 -1187 1142 0
-1145 -1188 1143 0
-1145 -1189 1144 0
-1145 -1190 1146 0
-1145 -1191 1147 0
-1145 -1192 1148 0
-1145 -1193 1149 0
-1145 -1194 1150 0
1146 1197 0
-1146 -1197 0
-1146 -1195 1140 0
-1146 -1196 1141 0
-1146 -1198 1142 0
-1146 -1199 1143 0
-1146 -1200 1144 0
-1146 -1201 1145 0
-1146 -1202 1147 0
-1146 -1203 1148 0
-1146 -1204 1149 0
-1146 -1205 1150 0
1147 1208 0
-1147 -1208 0
-1147 -1206 1140 0
-1147 -1207 1141 0
-1147 -1209 1142 0
-1147 -1210 1143 0
-1147 -1211 1144 0
-1147 -1212 1145 0
-1147 -1213 1146 0
-1147 -1214 1148 0
-1147 -1215 1149 0
-1147 -1216 1150 0
1148 1219 0
-1148 -1219 0
-1148 -1217 1140 0
-1148 -1218 1141 0
-1148 -1220 1142 0
-1148 -1221 1143 0
-1148 -1222 1144 0
-1148 -1223 1145 0
-1148 -1224 1146 0
-1148 -1225 1147 0
-1148 -1226 1149 0
-1148 -1227 1150 0
1149 1230 0
-1149 -1230 0
-1149 -1228 1140 0
-1149 -1229 1141 0
-1149 -1231 1142 0
-1149 -1232 1143 0
-1149 -1233 1144 0
-1149 -1234 1145 0
-1149 -1235 1146 0
-1149 -1236 1147 0
-1149 -1237 1148 0
-1149 -1238 1150 0
1150 1241 0
-1150 -1241 0
-1150 -1239 1140 0
-1150 -1240 1141 0
-1150 -1242 1142 0
-1150 -1243 1143 0
-1150 -1244 1144 0
-1150 -1245 1145 0
-1150 -1246 1146 0
-1150 -1247 1147 0
-1150 -1248 1148 0
-1150 -1249 1149 0
1252 0
1151 1123 0
-1151 -1123 0
-1151 -1118 1152 0
-1151 -1121 1153 0
-1151 -1125 1154 0
-1151 -1127 1155 0
-1151 -1129 1156 0
-1151 -1131 1157 0
-1151 -1133 1158 0
-1151 -1135 1159 0
-1151 -1137 1160 0
-1151 -1139 1161 0
1152 1122 0
-1152 -1122 0
-1152 -1119 1151 0
-1152 -1120 1153 0
-1152 -1124 1154 0
-1152 -1126 1155 0
-1152 -1128 1156 0
-1152 -1130 1157 0
-1152 -1132 1158 0
-1152 -1134 1159 0
-1152 -1136 1160 0
-1152 -1138 1161 0
1153 1142 0
-1153 -1142 0
-1153 -1140 1151 0
-1153 -1141 1152 0
-1153 -1143 1154 0
-1153 -1144 1155 0
-1153 -1145 1156 0
-1153 -1146 1157 0
-1153 -1147 1158 0
-1153 -1148 1159 0
-1153 -1149 1160 0
-1153 -1150 1161 0
1154 1165 0
-1154 -1165 0
-1154 -1162 1151 0
-1154 -1163 1152 0
-1154 -1164 1153 0
-1154 -1166 1155 0
-1154 -1167 1156 0
-1154 -1168 1157 0
-1154 -1169 1158 0
-1154 -1170 1159 0
-1154 -1171 1160 0
-1154 -1172 1161 0
1155 1176 0
-1155 -1176 0
-1155 -1173 1151 0
-1155 -1174 1152 0
-1155 -1175 1153 0
-1155 -1177 1154 0
-1155 -1178 1156 0
-1155 -1179 1157 0
-1155 -1180 1158 0
-1155 -1181 1159 0
-1155 -1182 1160 0
-1155 -1183 1161 0
1156 1187 0
-1156 -1187 0
-1156 -1184 1151 0
-1156 -1185 1152 0
-1156 -1186 1153 0
-1156 -1188 1154 0
-1156 -1189 1155 0
-1156 -1190 1157 0
-1156 -1191 1158 0
-1156 -1192 1159 0
-1156 -1193 1160 0
-1156 -1194 1161 0
1157 1198 0
-1157 -1198 0
-1157 -1195 1151 0
-1157 -1196 1152 0
-1157 -1197 1153 0
-1157 -1199 1154 0
-1157 -1200 1155 0
-1157 -1201 1156 0
-1157 -1202 1158 0
-1157 -1203 1159 0
-1157 -1204 1160 0
-1157 -1205 1161 0
1158 1209 0
-1158 -1209 0
-1158 -1206 1151 0
-1158 -1207 1152 0
-1158 -1208 1153 0
-1158 -1210 1154 0
-1158 -1211 1155 0
-1158 -1212 1156 0
-1158 -1213 1157 0
-1158 -1214 1159 0
-1158 -1215 1160 0
-1158 -1216 1161 0
1159 1220 0
-1159 -1220 0
-1159 -1217 1151 0
-1159 -1218 1152 0
-1159 -1219 1153 0
-1159 -1221 1154 0
-1159 -1222 1155 0
-1159 -1223 1156 0
-1159 -1224 1157 0
-1159 -1225 1158 0
-1159 -1226 1160 0
-1159 -1227 1161 0
1160 1231 0
-1160 -1231 0
-1160 -1228 1151 0
-1160 -1229 1152 0
-1160 -1230 1153 0
-1160 -1232 1154 0
-1160 -1233 1155 0
-1160 -1234 1156 0
-1160 -1235 1157 0
-1160 -1236 1158 0
-1160 -1237 1159 0
-1160 -1238 1161 0
1161 1242 0
-1161 -1242 0
-1161 -1239 1151 0
-1161 -1240 1152 0
-1161 -1241 1153 0
-1161 -1243 1154 0
-1161 -1244 1155 0
-1161 -1245 1156 0
-1161 -1246 1157 0
-1161 -1247 1158 0
-1161 -1248 1159 0
-1161 -1249 1160 0
1253 0
1162 1125 0
-1162 -1125 0
-1162 -1118 1163 0
-1162 -1121 1164 0
-1162 -1123 1165 0
-1162 -1127 1166 0
-1162 -1129 1167 0
-1162 -1131 1168 0
-1162 -1133 1169 0
-1162 -1135 1170 0
-1162 -1137 1171 0
-1162 -1139 1172 0
1163 1124 0
-1163 -1124 0
-1163 -1119 1162 0
-1163 -1120 1164 0
-1163 -1122 1165 0
-1163 -1126 1166 0
-1163 -1128 1167 0
-1163 -1130 1168 0
-1163 -1132 1169 0
-1163 -1134 1170 0
-1163 -1136 1171 0
-1163 -1138 1172 0
1164 1143 0
-1164 -1143 0
-1164 -1140 1162 0
-1164 -1141 1163 0
-1164 -1142 1165 0
-1164 -1144 1166 0
-1164 -1145 1167 0
-1164 -1146 1168 0
-1164 -1147 1169 0
-1164 -1148 1170 0
-1164 -1149 1171 0
-1164 -1150 1172 0
1165 1154 0
-1165 -1154 0
-1165 -1151 1162 0
-1165 -1152 1163 0
-1165 -1153 1164 0
-1165 -1155 1166 0
-1165 -1156 1167 0
-1165 -1157 1168 0
-1165 -1158 1169 0
-1165 -1159 1170 0
-1165 -1160 1171 0
-1165 -1161 1172 0
1166 1177 0
-1166 -1177 0
-1166 -1173 1162 0
-1166 -1174 1163 0
-1166 -1175 1164 0
-1166 -1176 1165 0
-1166 -1178 1167 0
-1166 -1179 1168 0
-1166 -1180 1169 0
-1166 -1181 1170 0
-1166 -1182 1171 0
-1166 -1183 1172 0
1167 1188 0
-1167 -1188 0
-1167 -1184 1162 0
-1167 -1185 1163 0
-1167 -1186 1164 0
-1167 -1187 1165 0
-1167 -1189 1166 0
-1167 -1190 1168 0
-1167 -1191 1169 0
-1167 -1192 1170 0
-1167 -1193 1171 0
-1167 -1194 1172 0
1168 1199 0
-1168 -1199 0
-1168 -1195 1162 0
-1168 -1196 1163 0
-1168 -1197 1164 0
-1168 -1198 1165 0
-1168 -1200 1166 0
-1168 -1201 1167 0
-1168 -1202 1169 0
-1168 -1203 1170 0
-1168 -1204 1171 0
-1168 -1205 1172 0
1169 1210 0
-1169 -1210 0
-1169 -1206 1162 0
-1169 -1207 1163 0
-1169 -1208 1164 0
-1169 -1209 1165 0
-1169 -1211 1166 0
-1169 -1212 1167 0
-1169 -1213 1168 0
-1169 -1214 1170 0
-1169 -1215 1171 0
-1169 -1216 1172 0
1170 1221 0
-1170 -1221 0
-1170 -1217 1162 0
-1170 -1218 1163 0
-1170 -1219 1164 0
-1170 -1220 1165 0
-1170 -1222 1166 0
-1170 -1223 1167 0
-1170 -1224 1168 0
-1170 -1225 1169 0
-1170 -1226 1171 0
-1170 -1227 1172 0
1171 1232 0
-1171 -1232 0
-1171 -1228 1162 0
-1171 -1229 1163 0
-1171 -1230 1164 0
-1171 -1231 1165 0
-1171 -1233 1166 0
-1171 -1234 1167 0
-1171 -1235 1168 0
-1171 -1236 1169 0
-1171 -1237 1170 0
-1171 -1238 1172 0
1172 1243 0
-1172 -1243 0
-1172 -1239 1162 0
-1172 -1240 1163 0
-1172 -1241 1164 0
-1172 -1242 1165 0
-1172 -1244 1166 0
-1172 -1245 1167 0
-1172 -1246 1168 0
-1172 -1247 1169 0
-1172 -1248 1170 0
-1172 -1249 1171 0
1254 0
1173 1127 0
-1173 -1127 0
-1173 -1118 1174 0
-1173 -1121 1175 0
-1173 -1123 1176 0
-1173 -1125 1177 0
-1173 -1129 1178 0
-1173 -1131 1179 0
-1173 -1133 1180 0
-1173 -1135 1181 0
-1173 -1137 1182 0
-1173 -1139 1183 0
1174 1126 0
-1174 -1126 0
-1174 -1119 1173 0
-1174 -1120 1175 0
-1174 -1122 1176 0
-1174 -1124 1177 0
-1174 -1128 1178 0
-1174 -1130 1179 0
-1174 -1132 1180 0
-1174 -1134 1181 0
-1174 -1136 1182 0
-1174 -1138 1183 0
1175 1144 0
-1175 -1144 0
-1175 -1140 1173 0
-1175 -1141 1174 0
-1175 -1142 1176 0
-1175 -1143 1177 0
-1175 -1145 1178 0
-1175 -1146 1179 0
-1175 -1147 1180 0
-1175 -1148 1181 0
-1175 -1149 1182 0
-1175 -1150 1183 0
1176 1155 0
-1176 -1155 0
-1176 -1151 1173 0
-1176 -1152 1174 0
-1176 -1153 1175 0
-1176 -1154 1177 0
-1176 -1156 1178 0
-1176 -1157 1179 0
-1176 -1158 1180 0
-1176 -1159 1181 0
-1176 -1160 1182 0
-1176 -1161 1183 0
1177 1166 0
-1177 -1166 0
-1177 -1162 1173 0
-1177 -1163 1174 0
-1177 -1164 1175 0
-1177 -1165 1176 0
-1177 -1167 1178 0
-1177 -1168 1179 0
-1177 -1169 1180 0
-1177 -1170 1181 0
-1177 -1171 1182 0
-1177 -1172 1183 0
1178 1189 0
-1178 -1189 0
-1178 -1184 1173 0
-1178 -1185 1174 0
-1178 -1186 1175 0
-1178 -1187 1176 0
-1178 -1188 1177 0
-1178 -1190 1179 0
-1178 -1191 1180 0
-1178 -1192 1181 0
-1178 -1193 1182 0
-1178 -1194 1183 0
1179 1200 0
-1179 -1200 0
-1179 -1195 1173 0
-1179 -1196 1174 0
-1179 -1197 1175 0
-1179 -1198 1176 0
-1179 -1199 1177 0
-1179 -1201 1178 0
-1179 -1202 1180 0
-1179 -1203 1181 0
-1179 -1204 1182 0
-1179 -1205 1183 0
1180 1211 0
-1180 -1211 0
-1180 -1206 1173 0
-1180 -1207 1174 0
-1180 -1208 1175 0
-1180 -1209 1176 0
-1180 -1210 1177 0
-1180 -1212 1178 0
-1180 -1213 1179 0
-1180 -1214 1181 0
-1180 -1215 1182 0
-1180 -1216 1183 0
1181 1222 0
-1181 -1222 0
-1181 -1217 1173 0
-1181 -1218 1174 0
-1181 -1219 1175 0
-1181 -1220 1176 0
-1181 -1221 1177 0
-1181 -1223 1178 0
-1181 -1224 1179 0
-1181 -1225 1180 0
-1181 -1226 1182 0
-1181 -1227 1183 0
1182 1233 0
-1182 -1233 0
-1182 -1228 1173 0
-1182 -1229 1174 0
-1182 -1230 1175 0
-1182 -1231 1176 0
-1182 -1232 1177 0
-1182 -1234 1178 0
-1182 -1235 1179 0
-1182 -1236 1180 0
-1182 -1237 1181 0
-1182 -1238 1183 0
1183 1244 0
-1183 -1244 0
-1183 -1239 1173 0
-1183 -1240 1174 0
-1183 -1241 1175 0
-1183 -1242 1176 0
-1183 -1243 1177 0
-1183 -1245 1178 0
-1183 -1246 1179 0
-1183 -1247 1180 0
-1183 -1248 1181 0
-1183 -1249 1182 0
1255 0
1184 1129 0
-1184 -1129 0
-1184 -1118 1185 0
-1184 -1121 1186 0
-1184 -1123 1187 0
-1184 -1125 1188 0
-1184 -1127 1189 0
-1184 -1131 1190 0
-1184 -1133 1191 0
-1184 -1135 1192 0
-1184 -1137 1193 0
-1184 -1139 1194 0
1185 1128 0
-1185 -1128 0
-1185 -1119 1184 0
-1185 -1120 1186 0
-1185 -1122 1187 0
-1185 -1124 1188 0
-1185 -1126 1189 0
-1185 -1130 1190 0
-1185 -1132 1191 0
-1185 -1134 1192 0
-1185 -1136 1193 0
-1185 -1138 1194 0
1186 1145 0
-1186 -1145 0
-1186 -1140 1184 0
-1186 -1141 1185 0
-1186 -1142 1187 0
-1186 -1143 1188 0
-1186 -1144 1189 0
-1186 -1146 1190 0
-1186 -1147 1191 0
-1186 -1148 1192 0
-1186 -1149 1193 0
-1186 -1150 1194 0
1187 1156 0
-1187 -1156 0
-1187 -1151 1184 0
-1187 -1152 1185 0
-1187 -1153 1186 0
-1187 -1154 1188 0
-1187 -1155 1189 0
-1187 -1157 1190 0
-1187 -1158 1191 0
-1187 -1159 1192 0
-1187 -1160 1193 0
-1187 -1161 1194 0
1188 1167 0
-1188 -1167 0
-1188 -1162 1184 0
-1188 -1163 1185 0
-1188 -1164 1186 0
-1188 -1165 1187 0
-1188 -1166 1189 0
-1188 -1168 1190 0
-1188 -1169 1191 0
-1188 -1170 1192 0
-1188 -1171 1193 0
-1188 -1172 1194 0
1189 1178 0
-1189 -1178 0
-1189 -1173 1184 0
-1189 -1174 1185 0
-1189 -1175 1186 0
-1189 -1176 1187 0
-1189 -1177 1188 0
-1189 -1179 1190 0
-1189 -1180 1191 0
-1189 -1181 1192 0
-1189 -1182 1193 0
-1189 -1183 1194 0
1190 1201 0
-1190 -1201 0
-1190 -1195 1184 0
-1190 -1196 1185 0
-1190 -1197 1186 0
-1190 -1198 1187 0
-1190 -1199 1188 0
-1190 -1200 1189 0
-1190 -1202 1191 0
-1190 -1203 1192 0
-1190 -1204 1193 0
-1190 -1205 1194 0
1191 1212 0
-1191 -1212 0
-1191 -1206 1184 0
-1191 -1207 1185 0
-1191 -1208 1186 0
-1191 -1209 1187 0
-1191 -1210 1188 0
-1191 -1211 1189 0
-1191 -1213 1190 0
-1191 -1214 1192 0
-1191 -1215 1193 0
-1191 -1216 1194 0
1192 1223 0
-1192 -1223 0
-1192 -1217 1184 0
-1192 -1218 1185 0
-1192 -1219 1186 0
-1192 -1220 1187 0
-1192 -1221 1188 0
-1192 -1222 1189 0
-1192 -1224 1190 0
-1192 -1225 1191 0
-1192 -1226 1193 0
-1192 -1227 1194 0
1193 1234 0
-1193 -1234 0
-1193 -1228 1184 0
-1193 -1229 1185 0
-1193 -1230 1186 0
-1193 -1231 1187 0
-1193 -1232 1188 0
-1193 -1233 1189 0
-1193 -1235 1190 0
-1193 -1236 1191 0
-1193 -1237 1192 0
-1193 -1238 1194 0
1194 1245 0
-1194 -1245 0
-1194 -1239 1184 0
-1194 -1240 1185 0
-1194 -1241 1186 0
-1194 -1242 1187 0
-1194 -1243 1188 0
-1194 -1244 1189 0
-1194 -1246 1190 0
-1194 -1247 1191 0
-1194 -1248 1192 0
-1194 -1249 1193 0
1256 0
1195 1131 0
-1195 -1131 0
-1195 -1118 1196 0
-1195 -1121 1197 0
-1195 -1123 1198 0
-1195 -1125 1199 0
-1195 -1127 1200 0
-1195 -1129 1201 0
-1195 -1133 1202 0
-1195 -1135 1203 0
-1195 -1137 1204 0
-1195 -1139 1205 0
1196 1130 0
-1196 -1130 0
-1196 -1119 1195 0
-1196 -1120 1197 0
-1196 -1122 1198 0
-1196 -1124 1199 0
-1196 -1126 1200 0
-1196 -1128 1201 0
-1196 -1132 1202 0
-1196 -1134 1203 0
-1196 -1136 1204 0
-1196 -1138 1205 0
1197 1146 0
-1197 -1146 0
-1197 -1140 1195 0
-1197 -1141 1196 0
-1197 -1142 1198 0
-1197 -1143 1199 0
-1197 -1144 1200 0
-1197 -1145 1201 0
-1197 -1147 1202 0
-1197 -1148 1203 0
-1197 -1149 1204 0
-1197 -1150 1205 0
1198 1157 0
-1198 -1157 0
-1198 -1151 1195 0
-1198 -1152 1196 0
-1198 -1153 1197 0
-1198 -1154 1199 0
-1198 -1155 1200 0
-1198 -1156 1201 0
-1198 -1158 1202 0
-1198 -1159 1203 0
-1198 -1160 1204 0
-1198 -1161 1205 0
1199 1168 0
-1199 -1168 0
-1199 -1162 1195 0
-1199 -1163 1196 0
-1199 -1164 1197 0
-1199 -1165 1198 0
-1199 -1166 1200 0
-1199 -1167 1201 0
-1199 -1169 1202 0
-1199 -1170 1203 0
-1199 -1171 1204 0
-1199 -1172 1205 0
1200 1179 0
-1200 -1179 0
-1200 -1173 1195 0
-1200 -1174 1196 0
-1200 -1175 1197 0
-1200 -1176 1198 0
-1200 -1177 1199 0
-1200 -1178 1201 0
-1200 -1180 1202 0
-1200 -1181 1203 0
-1200 -1182 1204 0
-1200 -1183 1205 0
1201 1190 0
-1201 -1190 0
-1201 -1184 1195 0
-1201 -1185 1196 0
-1201 -1186 1197 0
-1201 -1187 1198 0
-1201 -1188 1199 0
-1201 -1189 1200 0
-1201 -1191 1202 0
-1201 -1192 1203 0
-1201 -1193 1204 0
-1201 -1194 1205 0
1202 1213 0
-1202 -1213 0
-1202 -1206 1195 0
-1202 -1207 1196 0
-1202 -1208 1197 0
-1202 -1209 1198 0
-1202 -1210 1199 0
-1202 -1211 1200 0
-1202 -1212 1201 0
-1202 -1214 1203 0
-1202 -1215 1204 0
-1202 -1216 1205 0
1203 1224 0
-1203 -1224 0
-1203 -1217 1195 0
-1203 -1218 1196 0
-1203 -1219 1197 0
-1203 -1220 1198 0
-1203 -1221 1199 0
-1203 -1222 1200 0
-1203 -1223 1201 0
-1203 -1225 1202 0
-1203 -1226 1204 0
-1203 -1227 1205 0
1204 1235 0
-1204 -1235 0
-1204 -1228 1195 0
-1204 -1229 1196 0
-1204 -1230 1197 0
-1204 -1231 1198 0
-1204 -1232 1199 0
-1204 -1233 1200 0
-1204 -1234 1201 0
-1204 -1236 1202 0
-1204 -1237 1203 0
-1204 -1238 1205 0
1205 1246 0
-1205 -1246 0
-1205 -1239 1195 0
-1205 -1240 1196 0
-1205 -1241 1197 0
-1205 -1242 1198 0
-1205 -1243 1199 0
-1205 -1244 1200 0
-1205 -1245 1201 0
-1205 -1247 1202 0
-1205 -1248 1203 0
-1205 -1249 1204 0
1257 0
1206 1133 0
-1206 -1133 0
-1206 -1118 1207 0
-1206 -1121 1208 0
-1206 -1123 1209 0
-1206 -1125 1210 0
-1206 -1127 1211 0
-1206 -1129 1212 0
-1206 -1131 1213 0
-1206 -1135 1214 0
-1206 -1137 1215 0
-1206 -1139 1216 0
1207 1132 0
-1207 -1132 0
-1207 -1119 1206 0
-1207 -1120 1208 0
-1207 -1122 1209 0
-1207 -1124 1210 0
-1207 -1126 1211 0
-1207 -1128 1212 0
-1207 -1130 1213 0
-1207 -1134 1214 0
-1207 -1136 1215 0
-1207 -1138 1216 0
1208 1147 0
-1208 -1147 0
-1208 -1140 1206 0
-1208 -1141 1207 0
-1208 -1142 1209 0
-1208 -1143 1210 0
-1208 -1144 1211 0
-1208 -1145 1212 0
-1208 -1146 1213 0
-1208 -1148 1214 0
-1208 -1149 1215 0
-1208 -1150 1216 0
1209 1158 0
-1209 -1158 0
-1209 -1151 1206 0
-1209 -1152 1207 0
-1209 -1153 1208 0
-1209 -1154 1210 0
-1209 -1155 1211 0
-1209 -1156 1212 0
-1209 -1157 1213 0
-1209 -1159 1214 0
-1209 -1160 1215 0
-1209 -1161 1216 0
1210 1169 0
-1210 -1169 0
-1210 -1162 1206 0
-1210 -1163 1207 0
-1210 -1164 1208 0
-1210 -1165 1209 0
-1210 -1166 1211 0
-1210 -1167 1212 0
-1210 -1168 1213 0
-1210 -1170 1214 0
-1210 -1171 1215 0
-1210 -1172 1216 0
1211 1180 0
-1211 -1180 0
-1211 -1173 1206 0
-1211 -1174 1207 0
-1211 -1175 1208 0
-1211 -1176 1209 0
-1211 -1177 1210 0
-1211 -1178 1212 0
-1211 -1179 1213 0
-1211 -1181 1214 0
-1211 -1182 1215 0
-1211 -1183 1216 0
1212 1191 0
-1212 -1191 0
-1212 -1184 1206 0
-1212 -1185 1207 0
-1212 -1186 1208 0
-1212 -1187 1209 0
-1212 -1188 1210 0
-1212 -1189 1211 0
-1212 -1190 1213 0
-1212 -1192 1214 0
-1212 -1193 1215 0
-1212 -1194 1216 0
1213 1202 0
-1213 -1202 0
-1213 -1195 1206 0
-1213 -1196 1207 0
-1213 -1197 1208 0
-1213 -1198 1209 0
-1213 -1199 1210 0
-1213 -1200 1211 0
-1213 -1201 1212 0
-1213 -1203 1214 0
-1213 -1204 1215 0
-1213 -1205 1216 0
1214 1225 0
-1214 -1225 0
-1214 -1217 1206 0
-1214 -1218 1207 0
-1214 -1219 1208 0
-1214 -1220 1209 0
-1214 -1221 1210 0
-1214 -1222 1211 0
-1214 -1223 1212 0
-1214 -1224 1213 0
-1214 -1226 1215 0
-1214 -1227 1216 0
1215 1236 0
-1215 -1236 0
-1215 -1228 1206 0
-1215 -1229 1207 0
-1215 -1230 1208 0
-1215 -1231 1209 0
-1215 -1232 1210 0
-1215 -1233 1211 0
-1215 -1234 1212 0
-1215 -1235 1213 0
-1215 -1237 1214 0
-1215 -1238 1216 0
1216 1247 0
-1216 -1247 0
-1216 -1239 1206 0
-1216 -1240 1207 0
-1216 -1241 1208 0
-1216 -1242 1209 0
-1216 -1243 1210 0
-1216 -1244 1211 0
-1216 -1245 1212 0
-1216 -1246 1213 0
-1216 -1248 1214 0
-1216 -1249 1215 0
1258 0
1217 1135 0
-1217 -1135 0
-1217 -1118 1218 0
-1217 -1121 1219 0
-1217 -1123 1220 0
-1217 -1125 1221 0
-1217 -1127 1222 0
-1217 -1129 1223 0
-1217 -1131 1224 0
-1217 -1133 1225 0
-1217 -1137 1226 0
-1217 -1139 1227 0
1218 1134 0
-1218 -1134 0
-1218 -1119 1217 0
-1218 -1120 1219 0
-1218 -1122 1220 0
-1218 -1124 1221 0
-1218 -1126 1222 0
-1218 -1128 1223 0
-1218 -1130 1224 0
-1218 -1132 1225 0
-1218 -1136 1226 0
-1218 -1138 1227 0
1219 1148 0
-1219 -1148 0
-1219 -1140 1217 0
-1219 -1141 1218 0
-1219 -1142 1220 0
-1219 -1143 1221 0
-1219 -1144 1222 0
-1219 -1145 1223 0
-1219 -1146 1224 0
-1219 -1147 1225 0
-1219 -1149 1226 0
-1219 -1150 1227 0
1220 1159 0
-1220 -1159 0
-1220 -1151 1217 0
-1220 -1152 1218 0
-1220 -1153 1219 0
-1220 -1154 1221 0
-1220 -1155 1222 0
-1220 -1156 1223 0
-1220 -1157 1224 0
-1220 -1158 1225 0
-1220 -1160 1226 0
-1220 -1161 1227 0
1221 1170 0
-1221 -1170 0
-1221 -1162 1217 0
-1221 -1163 1218 0
-1221 -1164 1219 0
-1221 -1165 1220 0
-1221 -1166 1222 0
-1221 -1167 1223 0
-1221 -1168 1224 0
-1221 -1169 1225 0
-1221 -1171 1226 0
-1221 -1172 1227 0
1222 1181 0
-1222 -1181 0
-1222 -1173 1217 0
-1222 -1174 1218 0
-1222 -1175 1219 0
-1222 -1176 1220 0
-1222 -1177 1221 0
-1222 -1178 1223 0
-1222 -1179 1224 0
-1222 -1180 1225 0
-1222 -1182 1226 0
-1222 -1183 1227 0
1223 1192 0
-1223 -1192 0
-1223 -1184 1217 0
-1223 -1185 1218 0
-1223 -1186 1219 0
-1223 -1187 1220 0
-1223 -1188 1221 0
-1223 -1189 1222 0
-1223 -1190 1224 0
-1223 -1191 1225 0
-1223 -1193 1226 0
-1223 -1194 1227 0
1224 1203 0
-1224 -1203 0
-1224 -1195 1217 0
-1224 -1196 1218 0
-1224 -1197 1219 0
-1224 -1198 1220 0
-1224 -1199 1221 0
-1224 -1200 1222 0
-1224 -1201 1223 0
-1224 -1202 1225 0
-1224 -1204 1226 0
-1224 -1205 1227 0
1225 1214 0
-1225 -1214 0
-1225 -1206 1217 0
-1225 -1207 1218 0
-1225 -1208 1219 0
-1225 -1209 1220 0
-1225 -1210 1221 0
-1225 -1211 1222 0
-1225 -1212 1223 0
-1225 -1213 1224 0
-1225 -1215 1226 0
-1225 -1216 1227 0
1226 1237 0
-1226 -1237 0
-1226 -1228 1217 0
-1226 -1229 1218 0
-1226 -1230 1219 0
-1226 -1231 1220 0
-1226 -1232 1221 0
-1226 -1233 1222 0
-1226 -1234 1223 0
-1226 -1235 1224 0
-1226 -1236 1225 0
-1226 -1238 1227 0
1227 1248 0
-1227 -1248 0
-1227 -1239 1217 0
-1227 -1240 1218 0
-1227 -1241 1219 0
-1227 -1242 1220 0
-1227 -1243 1221 0
-1227 -1244 1222 0
-1227 -1245 1223 0
-1227 -1246 1224 0
-1227 -1247 1225 0
-1227 -1249 1226 0
1259 0
1228 1137 0
-1228 -1137 0
-1228 -1118 1229 0
-1228 -1121 1230 0
-1228 -1123 1231 0
-1228 -1125 1232 0
-1228 -1127 1233 0
-1228 -1129 1234 0
-1228 -1131 1235 0
-1228 -1133 1236 0
-1228 -1135 1237 0
-1228 -1139 1238 0
1229 1136 0
-1229 -1136 0
-1229 -1119 1228 0
-1229 -1120 1230 0
-1229 -1122 1231 0
-1229 -1124 1232 0
-1229 -1126 1233 0
-1229 -1128 1234 0
-1229 -1130 1235 0
-1229 -1132 1236 0
-1229 -1134 1237 0
-1229 -1138 1238 0
1230 1149 0
-1230 -1149 0
-1230 -1140 1228 0
-1230 -1141 1229 0
-1230 -1142 1231 0
-1230 -1143 1232 0
-1230 -1144 1233 0
-1230 -1145 1234 0
-1230 -1146 1235 0
-1230 -1147 1236 0
-1230 -1148 1237 0
-1230 -1150 1238 0
1231 1160 0
-1231 -1160 0
-1231 -1151 1228 0
-1231 -1152 1229 0
-1231 -1153 1230 0
-1231 -1154 1232 0
-1231 -1155 1233 0
-1231 -1156 1234 0
-1231 -1157 1235 0
-1231 -1158 1236 0
-1231 -1159 1237 0
-1231 -1161 1238 0
1232 1171 0
-1232 -1171 0
-1232 -1162 1228 0
-1232 -1163 1229 0
-1232 -1164 1230 0
-1232 -1165 1231 0
-1232 -1166 1233 0
-1232 -1167 1234 0
-1232 -1168 1235 0
-1232 -1169 1236 0
-1232 -1170 1237 0
-1232 -1172 1238 0
1233 1182 0
-1233 -1182 0
-1233 -1173 1228 0
-1233 -1174 1229 0
-1233 -1175 1230 0
-1233 -1176 1231 0
-1233 -1177 1232 0
-1233 -1178 1234 0
-1233 -1179 1235 0
-1233 -1180 1236 0
-1233 -1181 1237 0
-1233 -1183 1238 0
1234 1193 0
-1234 -1193 0
-1234 -1184 1228 0
-1234 -1185 1229 0
-1234 -1186 1230 0
-1234 -1187 1231 0
-1234 -1188 1232 0
-1234 -1189 1233 0
-1234 -1190 1235 0
-1234 -1191 1236 0
-1234 -1192 1237 0
-1234 -1194 1238 0
1235 1204 0
-1235 -1204 0
-1235 -1195 1228 0
-1235 -1196 1229 0
-1235 -1197 1230 0
-1235 -1198 1231 0
-1235 -1199 1232 0
-1235 -1200 1233 0
-1235 -1201 1234 0
-1235 -1202 1236 0
-1235 -1203 1237 0
-1235 -1205 1238 0
1236 1215 0
-1236 -1215 0
-1236 -1206 1228 0
-1236 -1207 1229 0
-1236 -1208 1230 0
-1236 -1209 1231 0
-1236 -1210 1232 0
-1236 -1211 1233 0
-1236 -1212 1234 0
-1236 -1213 1235 0
-1236 -1214 1237 0
-1236 -1216 1238 0
1237 1226 0
-1237 -1226 0
-1237 -1217 1228 0
-1237 -1218 1229 0
-1237 -1219 1230 0
-1237 -1220 1231 0
-1237 -1221 1232 0
-1237 -1222 1233 0
-1237 -1223 1234 0
-1237 -1224 1235 0
-1237 -1225 1236 0
-1237 -1227 1238 0
1238 1249 0
-1238 -1249 0
-1238 -1239 1228 0
-1238 -1240 1229 0
-1238 -1241 1230 0
-1238 -1242 1231 0
-1238 -1243 1232 0
-1238 -1244 1233 0
-1238 -1245 1234 0
-1238 -1246 1235 0
-1238 -1247 1236 0
-1238 -1248 1237 0
1260 0
1239 1139 0
-1239 -1139 0
-1239 -1118 1240 0
-1239 -1121 1241 0
-1239 -1123 1242 0
-1239 -1125 1243 0
-1239 -1127 1244 0
-1239 -1129 1245 0
-1239 -1131 1246 0
-1239 -1133 1247 0
-1239 -1135 1248 0
-1239 -1137 1249 0
1240 1138 0
-1240 -1138 0
-1240 -1119 1239 0
-1240 -1120 1241 0
-1240 -1122 1242 0
-1240 -1124 1243 0
-1240 -1126 1244 0
-1240 -1128 1245 0
-1240 -1130 1246 0
-1240 -1132 1247 0
-1240 -1134 1248 0
-1240 -1136 1249 0
1241 1150 0
-1241 -1150 0
-1241 -1140 1239 0
-1241 -1141 1240 0
-1241 -1142 1242 0
-1241 -1143 1243 0
-1241 -1144 1244 0
-1241 -1145 1245 0
-1241 -1146 1246 0
-1241 -1147 1247 0
-1241 -1148 1248 0
-1241 -1149 1249 0
1242 1161 0
-1242 -1161 0
-1242 -1151 1239 0
-1242 -1152 1240 0
-1242 -1153 1241 0
-1242 -1154 1243 0
-1242 -1155 1244 0
-1242 -1156 1245 0
-1242 -1157 1246 0
-1242 -1158 1247 0
-1242 -1159 1248 0
-1242 -1160 1249 0
1243 1172 0
-1243 -1172 0
-1243 -1162 1239 0
-1243 -1163 1240 0
-1243 -1164 1241 0
-1243 -1165 1242 0
-1243 -1166 1244 0
-1243 -1167 1245 0
-1243 -1168 1246 0
-1243 -1169 1247 0
-1243 -1170 1248 0
-1243 -1171 1249 0
1244 1183 0
-1244 -1183 0
-1244 -1173 1239 0
-1244 -1174 1240 0
-1244 -1175 1241 0
-1244 -1176 1242 0
-1244 -1177 1243 0
-1244 -1178 1245 0
-1244 -1179 1246 0
-1244 -1180 1247 0
-1244 -1181 1248 0
-1244 -1182 1249 0
1245 1194 0
-1245 -1194 0
-1245 -1184 1239 0
-1245 -1185 1240 0
-1245 -1186 1241 0
-1245 -1187 1242 0
-1245 -1188 1243 0
-1245 -1189 1244 0
-1245 -1190 1246 0
-1245 -1191 1247 0
-1245 -1192 1248 0
-1245 -1193 1249 0
1246 1205 0
-1246 -1205 0
-1246 -1195 1239 0
-1246 -1196 1240 0
-1246 -1197 1241 0
-1246 -1198 1242 0
-1246 -1199 1243 0
-1246 -1200 1244 0
-1246 -1201 1245 0
-1246 -1202 1247 0
-1246 -1203 1248 0
-1246 -1204 1249 0
1247 1216 0
-1247 -1216 0
-1247 -1206 1239 0
-1247 -1207 1240 0
-1247 -1208 1241 0
-1247 -1209 1242 0
-1247 -1210 1243 0
-1247 -1211 1244 0
-1247 -1212 1245 0
-1247 -1213 1246 0
-1247 -1214 1248 0
-1247 -1215 1249 0
1248 1227 0
-1248 -1227 0
-1248 -1217 1239 0
-1248 -1218 1240 0
-1248 -1219 1241 0
-1248 -1220 1242 0
-1248 -1221 1243 0
-1248 -1222 1244 0
-1248 -1223 1245 0
-1248 -1224 1246 0
-1248 -1225 1247 0
-1248 -1226 1249 0
1249 1238 0
-1249 -1238 0
-1249 -1228 1239 0
-1249 -1229 1240 0
-1249 -1230 1241 0
-1249 -1231 1242 0
-1249 -1232 1243 0
-1249 -1233 1244 0
-1249 -1234 1245 0
-1249 -1235 1246 0
-1249 -1236 1247 0
-1249 -1237 1248 0
-109 0
-133 1118 0
-1261 1121 0
-1261 1141 0
-1121 -1141 1261 0
-1262 1123 0
-1262 1152 0
-1123 -1152 1262 0
-1263 1125 0
-1263 1163 0
-1125 -1163 1263 0
-1264 1127 0
-1264 1174 0
-1127 -1174 1264 0
-1265 1129 0
-1265 1185 0
-1129 -1185 1265 0
-1266 1131 0
-1266 1196 0
-1131 -1196 1266 0
-1267 1133 0
-1267 1207 0
-1133 -1207 1267 0
-1268 1135 0
-1268 1218 0
-1135 -1218 1268 0
-1269 1137 0
-1269 1229 0
-1137 -1229 1269 0
-1270 1139 0
-1270 1240 0
-1139 -1240 1270 0
-133 -1261 0
-133 -1262 0
-133 -1263 0
-133 -1264 0
-133 -1265 0
-133 -1266 0
-133 -1267 0
-133 -1268 0
-133 -1269 0
-133 -1270 0
-1118 133 1261 1262 1263 1264 1265 1266 1267 1268 1269 1270 0
-157 1121 0
-1271 1118 0
-1271 1120 0
-1118 -1120 1271 0
-1272 1123 0
-1272 1153 0
-1123 -1153 1272 0
-1273 1125 0
-1273 1164 0
-1125 -1164 1273 0
-1274 1127 0
-1274 1175 0
-1127 -1175 1274 0
-1275 1129 0
-1275 1186 0
-1129 -1186 1275 0
-1276 1131 0
-1276 1197 0
-1131 -1197 1276 0
-1277 1133 0
-1277 1208 0
-1133 -1208 1277 0
-1278 1135 0
-1278 1219 0
-1135 -1219 1278 0
-1279 1137 0
-1279 1230 0
-1137 -1230 1279 0
-1280 1139 0
-1280 1241 0
-1139 -1241 1280 0
-157 -1271 0
-157 -1272 0
-157 -1273 0
-157 -1274 0
-157 -1275 0
-157 -1276 0
-157 -1277 0
-157 -1278 0
-157 -1279 0
-157 -1280 0
-1121 157 1271 1272 1273 1274 1275 1276 1277 1278 1279 1280 0
-181 1123 0
-1281 1118 0
-1281 1122 0
-1118 -1122 1281 0
-1282 1121 0
-1282 1142 0
-1121 -1142 1282 0
-1283 1125 0
-1283 1165 0
-1125 -1165 1283 0
-1284 1127 0
-1284 1176 0
-1127 -1176 1284 0
-1285 1129 0
-1285 1187 0
-1129 -1187 1285 0
-1286 1131 0
-1286 1198 0
-1131 -1198 1286 0
-1287 1133 0
-1287 1209 0
-1133 -1209 1287 0
-1288 1135 0
-1288 1220 0
-1135 -1220 1288 0
-1289 1137 0
-1289 1231 0
-1137 -1231 1289 0
-1290 1139 0
-1290 1242 0
-1139 -1242 1290 0
-181 -1281 0
-181 -1282 0
-181 -1283 0
-181 -1284 0
-181 -1285 0
-181 -1286 0
-181 -1287 0
-181 -1288 0
-181 -1289 0
-181 -1290 0
-1123 181 1281 1282 1283 1284 1285 1286 1287 1288 1289 1290 0
-205 1125 0
-1291 1118 0
-1291 1124 0
-1118 -1124 1291 0
-1292 1121 0
-1292 1143 0
-1121 -1143 1292 0
-1293 1123 0
-1293 1154 0
-1123 -1154 1293 0
-1294 1127 0
-1294 1177 0
-1127 -1177 1294 0
-1295 1129 0
-1295 1188 0
-1129 -1188 1295 0
-1296 1131 0
-1296 1199 0
-1131 -1199 1296 0
-1297 1133 0
-1297 1210 0
-1133 -1210 1297 0
-1298 1135 0
-1298 1221 0
-1135 -1221 1298 0
-1299 1137 0
-1299 1232 0
-1137 -1232 1299 0
-1300 1139 0
-1300 1243 0
-1139 -1243 1300 0
-205 -1291 0
-205 -1292 0
-205 -1293 0
-205 -1294 0
-205 -1295 0
-205 -1296 0
-205 -1297 0
-205 -1298 0
-205 -1299 0
-205 -1300 0
-1125 205 1291 1292 1293 1294 1295 1296 1297 1298 1299 1300 0
-229 1127 0
-1301 1118 0
-1301 1126 0
-1118 -1126 1301 0
-1302 1121 0
-1302 1144 0
-1121 -1144 1302 0
-1303 1123 0
-1303 1155 0
-1123 -1155 1303 0
-1304 1125 0
-1304 1166 0
-1125 -1166 1304 0
-1305 1129 0
-1305 1189 0
-1129 -1189 1305 0
-1306 1131 0
-1306 1200 0
-1131 -1200 1306 0
-1307 1133 0
-1307 1211 0
-1133 -1211 1307 0
-1308 1135 0
-1308 1222 0
-1135 -1222 1308 0
-1309 1137 0
-1309 1233 0
-1137 -1233 1309 0
-1310 1139 0
-1310 1244 0
-1139 -1244 1310 0
-229 -1301 0
-229 -1302 0
-229 -1303 0
-229 -1304 0
-229 -1305 0
-229 -1306 0
-229 -1307 0
-229 -1308 0
-229 -1309 0
-229 -1310 0
-1127 229 1301 1302 1303 1304 1305 1306 1307 1308 1309 1310 0
-253 1129 0
-1311 1118 0
-1311 1128 0
-1118 -1128 1311 0
-1312 1121 0
-1312 1145 0
-1121 -1145 1312 0
-1313 1123 0
-1313 1156 0
-1123 -1156 1313 0
-1314 1125 0
-1314 1167 0
-1125 -1167 1314 0
-1315 1127 0
-1315 1178 0
-1127 -1178 1315 0
-1316 1131 0
-1316 1201 0
-1131 -1201 1316 0
-1317 1133 0
-1317 1212 0
-1133 -1212 1317 0
-1318 1135 0
-1318 1223 0
-1135 -1223 1318 0
-1319 1137 0
-1319 1234 0
-1137 -1234 1319 0
-1320 1139 0
-1320 1245 0
-1139 -1245 1320 0
-253 -1311 0
-253 -1312 0
-253 -1313 0
-253 -1314 0
-253 -1315 0
-253 -1316 0
-253 -1317 0
-253 -1318 0
-253 -1319 0
-253 -1320 0
-1129 253 1311 1312 1313 1314 1315 1316 1317 1318 1319 1320 0
-277 1131 0
-1321 1118 0
-1321 1130 0
-1118 -1130 1321 0
-1322 1121 0
-1322 1146 0
-1121 -1146 1322 0
-1323 1123 0
-1323 1157 0
-1123 -1157 1323 0
-1324 1125 0
-1324 1168 0
-1125 -1168 1324 0
-1325 1127 0
-1325 1179 0
-1127 -1179 1325 0
-1326 1129 0
-1326 1190 0
-1129 -1190 1326 0
-1327 1133 0
-1327 1213 0
-1133 -1213 1327 0
-1328 1135 0
-1328 1224 0
-1135 -1224 1328 0
-1329 1137 0
-1329 1235 0
-1137 -1235 1329 0
-1330 1139 0
-1330 1246 0
-1139 -1246 1330 0
-277 -1321 0
-277 -1322 0
-277 -1323 0
-277 -1324 0
-277 -1325 0
-277 -1326 0
-277 -1327 0
-277 -1328 0
-277 -1329 0
-277 -1330 0
-1131 277 1321 1322 1323 1324 1325 1326 1327 1328 1329 1330 0
-301 1133 0
-1331 1118 0
-1331 1132 0
-1118 -1132 1331 0
-1332 1121 0
-1332 1147 0
-1121 -1147 1332 0
-1333 1123 0
-1333 1158 0
-1123 -1158 1333 0
-1334 1125 0
-1334 1169 0
-1125 -1169 1334 0
-1335 1127 0
-1335 1180 0
-1127 -1180 1335 0
-1336 1129 0
-1336 1191 0
-1129 -1191 1336 0
-1337 1131 0
-1337 1202 0
-1131 -1202 1337 0
-1338 1135 0
-1338 1225 0
-1135 -1225 1338 0
-1339 1137 0
-1339 1236 0
-1137 -1236 1339 0
-1340 1139 0
-1340 1247 0
-1139 -1247 1340 0
-301 -1331 0
-301 -1332 0
-301 -1333 0
-301 -1334 0
-301 -1335 0
-301 -1336 0
-301 -1337 0
-301 -1338 0
-301 -1339 0
-301 -1340 0
-1133 301 1331 1332 1333 1334 1335 1336 1337 1338 1339 1340 0
-325 1135 0
-1341 1118 0
-1341 1134 0
-1118 -1134 1341 0
-1342 1121 0
-1342 1148 0
-1121 -1148 1342 0
-1343 1123 0
-1343 1159 0
-1123 -1159 1343 0
-1344 1125 0
-1344 1170 0
-1125 -1170 1344 0
-1345 1127 0
-1345 1181 0
-1127 -1181 1345 0
-1346 1129 0
-1346 1192 0
-1129 -1192 1346 0
-1347 1131 0
-1347 1203 0
-1131 -1203 1347 0
-1348 1133 0
-1348 1214 0
-1133 -1214 1348 0
-1349 1137 0
-1349 1237 0
-1137 -1237 1349 0
-1350 1139 0
-1350 1248 0
-1139 -1248 1350 0
-325 -1341 0
-325 -1342 0
-325 -1343 0
-325 -1344 0
-325 -1345 0
-325 -1346 0
-325 -1347 0
-325 -1348 0
-325 -1349 0
-325 -1350 0
-1135 325 1341 1342 1343 1344 1345 1346 1347 1348 1349 1350 0
-349 1137 0
-1351 1118 0
-1351 1136 0
-1118 -1136 1351 0
-1352 1121 0
-1352 1149 0
-1121 -1149 1352 0
-1353 1123 0
-1353 1160 0
-1123 -1160 1353 0
-1354 1125 0
-1354 1171 0
-1125 -1171 1354 0
-1355 1127 0
-1355 1182 0
-1127 -1182 1355 0
-1356 1129 0
-1356 1193 0
-1129 -1193 1356 0
-1357 1131 0
-1357 1204 0
-1131 -1204 1357 0
-1358 1133 0
-1358 1215 0
-1133 -1215 1358 0
-1359 1135 0
-1359 1226 0
-1135 -1226 1359 0
-1360 1139 0
-1360 1249 0
-1139 -1249 1360 0
-349 -1351 0
-349 -1352 0
-349 -1353 0
-349 -1354 0
-349 -1355 0
-349 -1356 0
-349 -1357 0
-349 -1358 0
-349 -1359 0
-349 -1360 0
-1137 349 1351 1352 1353 1354 1355 1356 1357 1358 1359 1360 0
-373 1139 0
-1361 1118 0
-1361 1138 0
-1118 -1138 1361 0
-1362 1121 0
-1362 1150 0
-1121 -1150 1362 0
-1363 1123 0
-1363 1161 0
-1123 -1161 1363 0
-1364 1125 0
-1364 1172 0
-1125 -1172 1364 0
-1365 1127 0
-1365 1183 0
-1127 -1183 1365 0
-1366 1129 0
-1366 1194 0
-1129 -1194 1366 0
-1367 1131 0
-1367 1205 0
-1131 -1205 1367 0
-1368 1133 0
-1368 1216 0
-1133 -1216 1368 0
-1369 1135 0
-1369 1227 0
-1135 -1227 1369 0
-1370 1137 0
-1370 1238 0
-1137 -1238 1370 0
-373 -1361 0
-373 -1362 0
-373 -1363 0
-373 -1364 0
-373 -1365 0
-373 -1366 0
-373 -1367 0
-373 -1368 0
-373 -1369 0
-373 -1370 0
-1139 373 1361 1362 1363 1364 1365 1366 1367 1368 1369 1370 0
-111 1119 0
-1371 1120 0
-1371 1140 0
-1120 -1140 1371 0
-1372 1122 0
-1372 1151 0
-1122 -1151 1372 0
-1373 1124 0
-1373 1162 0
-1124 -1162 1373 0
-1374 1126 0
-1374 1173 0
-1126 -1173 1374 0
-1375 1128 0
-1375 1184 0
-1128 -1184 1375 0
-1376 1130 0
-1376 1195 0
-1130 -1195 1376 0
-1377 1132 0
-1377 1206 0
-1132 -1206 1377 0
-1378 1134 0
-1378 1217 0
-1134 -1217 1378 0
-1379 1136 0
-1379 1228 0
-1136 -1228 1379 0
-1380 1138 0
-1380 1239 0
-1138 -1239 1380 0
-111 -1371 0
-111 -1372 0
-111 -1373 0
-111 -1374 0
-111 -1375 0
-111 -1376 0
-111 -1377 0
-111 -1378 0
-111 -1379 0
-111 -1380 0
-1119 111 1371 1372 1373 1374 1375 1376 1377 1378 1379 1380 0
-135 0
-159 1120 0
-1381 1119 0
-1381 1121 0
-1119 -1121 1381 0
-1382 1122 0
-1382 1153 0
-1122 -1153 1382 0
-1383 1124 0
-1383 1164 0
-1124 -1164 1383 0
-1384 1126 0
-1384 1175 0
-1126 -1175 1384 0
-1385 1128 0
-1385 1186 0
-1128 -1186 1385 0
-1386 1130 0
-1386 1197 0
-1130 -1197 1386 0
-1387 1132 0
-1387 1208 0
-1132 -1208 1387 0
-1388 1134 0
-1388 1219 0
-1134 -1219 1388 0
-1389 1136 0
-1389 1230 0
-1136 -1230 1389 0
-1390 1138 0
-1390 1241 0
-1138 -1241 1390 0
-159 -1381 0
-159 -1382 0
-159 -1383 0
-159 -1384 0
-159 -1385 0
-159 -1386 0
-159 -1387 0
-159 -1388 0
-159 -1389 0
-159 -1390 0
-1120 159 1381 1382 1383 1384 1385 1386 1387 1388 1389 1390 0
-183 1122 0
-1391 1119 0
-1391 1123 0
-1119 -1123 1391 0
-1392 1120 0
-1392 1142 0
-1120 -1142 1392 0
-1393 1124 0
-1393 1165 0
-1124 -1165 1393 0
-1394 1126 0
-1394 1176 0
-1126 -1176 1394 0
-1395 1128 0
-1395 1187 0
-1128 -1187 1395 0
-1396 1130 0
-1396 1198 0
-1130 -1198 1396 0
-1397 1132 0
-1397 1209 0
-1132 -1209 1397 0
-1398 1134 0
-1398 1220 0
-1134 -1220 1398 0
-1399 1136 0
-1399 1231 0
-1136 -1231 1399 0
-1400 1138 0
-1400 1242 0
-1138 -1242 1400 0
-183 -1391 0
-183 -1392 0
-183 -1393 0
-183 -1394 0
-183 -1395 0
-183 -1396 0
-183 -1397 0
-183 -1398 0
-183 -1399 0
-183 -1400 0
-1122 183 1391 1392 1393 1394 1395 1396 1397 1398 1399 1400 0
-207 1124 0
-1401 1119 0
-1401 1125 0
-1119 -1125 1401 0
-1402 1120 0
-1402 1143 0
-1120 -1143 1402 0
-1403 1122 0
-1403 1154 0
-1122 -1154 1403 0
-1404 1126 0
-1404 1177 0
-1126 -1177 1404 0
-1405 1128 0
-1405 1188 0
-1128 -1188 1405 0
-1406 1130 0
-1406 1199 0
-1130 -1199 1406 0
-1407 1132 0
-1407 1210 0
-1132 -1210 1407 0
-1408 1134 0
-1408 1221 0
-1134 -1221 1408 0
-1409 1136 0
-1409 1232 0
-1136 -1232 1409 0
-1410 1138 0
-1410 1243 0
-1138 -1243 1410 0
-207 -1401 0
-207 -1402 0
-207 -1403 0
-207 -1404 0
-207 -1405 0
-207 -1406 0
-207 -1407 0
-207 -1408 0
-207 -1409 0
-207 -1410 0
-1124 207 1401 1402 1403 1404 1405 1406 1407 1408 1409 1410 0
-231 1126 0
-1411 1119 0
-1411 1127 0
-1119 -1127 1411 0
-1412 1120 0
-1412 1144 0
-1120 -1144 1412 0
-1413 1122 0
-1413 1155 0
-1122 -1155 1413 0
-1414 1124 0
-1414 1166 0
-1124 -1166 1414 0
-1415 1128 0
-1415 1189 0
-1128 -1189 1415 0
-1416 1130 0
-1416 1200 0
-1130 -1200 1416 0
-1417 1132 0
-1417 1211 0
-1132 -1211 1417 0
-1418 1134 0
-1418 1222 0
-1134 -1222 1418 0
-1419 1136 0
-1419 1233 0
-1136 -1233 1419 0
-1420 1138 0
-1420 1244 0
-1138 -1244 1420 0
-231 -1411 0
-231 -1412 0
-231 -1413 0
-231 -1414 0
-231 -1415 0
-231 -1416 0
-231 -1417 0
-231 -1418 0
-231 -1419 0
-231 -1420 0
-1126 231 1411 1412 1413 1414 1415 1416 1417 1418 1419 1420 0
-255 1128 0
-1421 1119 0
-1421 1129 0
-1119 -1129 1421 0
-1422 1120 0
-1422 1145 0
-1120 -1145 1422 0
-1423 1122 0
-1423 1156 0
-1122 -1156 1423 0
-1424 1124 0
-1424 1167 0
-1124 -1167 1424 0
-1425 1126 0
-1425 1178 0
-1126 -1178 1425 0
-1426 1130 0
-1426 1201 0
-1130 -1201 1426 0
-1427 1132 0
-1427 1212 0
-1132 -1212 1427 0
-1428 1134 0
-1428 1223 0
-1134 -1223 1428 0
-1429 1136 0
-1429 1234 0
-1136 -1234 1429 0
-1430 1138 0
-1430 1245 0
-1138 -1245 1430 0
-255 -1421 0
-255 -1422 0
-255 -1423 0
-255 -1424 0
-255 -1425 0
-255 -1426 0
-255 -1427 0
-255 -1428 0
-255 -1429 0
-255 -1430 0
-1128 255 1421 1422 1423 1424 1425 1426 1427 1428 1429 1430 0
-279 1130 0
-1431 1119 0
-1431 1131 0
-1119 -1131 1431 0
-1432 1120 0
-1432 1146 0
-1120 -1146 1432 0
-1433 1122 0
-1433 1157 0
-1122 -1157 1433 0
-1434 1124 0
-1434 1168 0
-1124 -1168 1434 0
-1435 1126 0
-1435 1179 0
-1126 -1179 1435 0
-1436 1128 0
-1436 1190 0
-1128 -1190 1436 0
-1437 1132 0
-1437 1213 0
-1132 -1213 1437 0
-1438 1134 0
-1438 1224 0
-1134 -1224 1438 0
-1439 1136 0
-1439 1235 0
-1136 -1235 1439 0
-1440 1138 0
-1440 1246 0
-1138 -1246 1440 0
-279 -1431 0
-279 -1432 0
-279 -1433 0
-279 -1434 0
-279 -1435 0
-279 -1436 0
-279 -1437 0
-279 -1438 0
-279 -1439 0
-279 -1440 0
-1130 279 1431 1432 1433 1434 1435 1436 1437 1438 1439 1440 0
-303 1132 0
-1441 1119 0
-1441 1133 0
-1119 -1133 1441 0
-1442 1120 0
-1442 1147 0
-1120 -1147 1442 0
-1443 1122 0
-1443 1158 0
-1122 -1158 1443 0
-1444 1124 0
-1444 1169 0
-1124 -1169 1444 0
-1445 1126 0
-1445 1180 0
-1126 -1180 1445 0
-1446 1128 0
-1446 1191 0
-1128 -1191 1446 0
-1447 1130 0
-1447 1202 0
-1130 -1202 1447 0
-1448 1134 0
-1448 1225 0
-1134 -1225 1448 0
-1449 1136 0
-1449 1236 0
-1136 -1236 1449 0
-1450 1138 0
-1450 1247 0
-1138 -1247 1450 0
-303 -1441 0
-303 -1442 0
-303 -1443 0
-303 -1444 0
-303 -1445 0
-303 -1446 0
-303 -1447 0
-303 -1448 0
-303 -1449 0
-303 -1450 0
-1132 303 1441 1442 1443 1444 1445 1446 1447 1448 1449 1450 0
-327 1134 0
-1451 1119 0
-1451 1135 0
-1119 -1135 1451 0
-1452 1120 0
-1452 1148 0
-1120 -1148 1452 0
-1453 1122 0
-1453 1159 0
-1122 -1159 1453 0
-1454 1124 0
-1454 1170 0
-1124 -1170 1454 0
-1455 1126 0
-1455 1181 0
-1126 -1181 1455 0
-1456 1128 0
-1456 1192 0
-1128 -1192 1456 0
-1457 1130 0
-1457 1203 0
-1130 -1203 1457 0
-1458 1132 0
-1458 1214 0
-1132 -1214 1458 0
-1459 1136 0
-1459 1237 0
-1136 -1237 1459 0
-1460 1138 0
-1460 1248 0
-1138 -1248 1460 0
-327 -1451 0
-327 -1452 0
-327 -1453 0
-327 -1454 0
-327 -1455 0
-327 -1456 0
-327 -1457 0
-327 -1458 0
-327 -1459 0
-327 -1460 0
-1134 327 1451 1452 1453 1454 1455 1456 1457 1458 1459 1460 0
-351 1136 0
-1461 1119 0
-1461 1137 0
-1119 -1137 1461 0
-1462 1120 0
-1462 1149 0
-1120 -1149 1462 0
-1463 1122 0
-1463 1160 0
-1122 -1160 1463 0
-1464 1124 0
-1464 1171 0
-1124 -1171 1464 0
-1465 1126 0
-1465 1182 0
-1126 -1182 1465 0
-1466 1128 0
-1466 1193 0
-1128 -1193 1466 0
-1467 1130 0
-1467 1204 0
-1130 -1204 1467 0
-1468 1132 0
-1468 1215 0
-1132 -1215 1468 0
-1469 1134 0
-1469 1226 0
-1134 -1226 1469 0
-1470 1138 0
-1470 1249 0
-1138 -1249 1470 0
-351 -1461 0
-351 -1462 0
-351 -1463 0
-351 -1464 0
-351 -1465 0
-351 -1466 0
-351 -1467 0
-351 -1468 0
-351 -1469 0
-351 -1470 0
-1136 351 1461 1462 1463 1464 1465 1466 1467 1468 1469 1470 0
-375 1138 0
-1471 1119 0
-1471 1139 0
-1119 -1139 1471 0
-1472 1120 0
-1472 1150 0
-1120 -1150 1472 0
-1473 1122 0
-1473 1161 0
-1122 -1161 1473 0
-1474 1124 0
-1474 1172 0
-1124 -1172 1474 0
-1475 1126 0
-1475 1183 0
-1126 -1183 1475 0
-1476 1128 0
-1476 1194 0
-1128 -1194 1476 0
-1477 1130 0
-1477 1205 0
-1130 -1205 1477 0
-1478 1132 0
-1478 1216 0
-1132 -1216 1478 0
-1479 1134 0
-1479 1227 0
-1134 -1227 1479 0
-1480 1136 0
-1480 1238 0
-1136 -1238 1480 0
-375 -1471 0
-375 -1472 0
-375 -1473 0
-375 -1474 0
-375 -1475 0
-375 -1476 0
-375 -1477 0
-375 -1478 0
-375 -1479 0
-375 -1480 0
-1138 375 1471 1472 1473 1474 1475 1476 1477 1478 1479 1480 0
-113 1140 0
-1481 1141 0
-1481 1119 0
-1141 -1119 1481 0
-1482 1142 0
-1482 1151 0
-1142 -1151 1482 0
-1483 1143 0
-1483 1162 0
-1143 -1162 1483 0
-1484 1144 0
-1484 1173 0
-1144 -1173 1484 0
-1485 1145 0
-1485 1184 0
-1145 -1184 1485 0
-1486 1146 0
-1486 1195 0
-1146 -1195 1486 0
-1487 1147 0
-1487 1206 0
-1147 -1206 1487 0
-1488 1148 0
-1488 1217 0
-1148 -1217 1488 0
-1489 1149 0
-1489 1228 0
-1149 -1228 1489 0
-1490 1150 0
-1490 1239 0
-1150 -1239 1490 0
-113 -1481 0
-113 -1482 0
-113 -1483 0
-113 -1484 0
-113 -1485 0
-113 -1486 0
-113 -1487 0
-113 -1488 0
-113 -1489 0
-113 -1490 0
-1140 113 1481 1482 1483 1484 1485 1486 1487 1488 1489 1490 0
-137 1141 0
-1491 1140 0
-1491 1118 0
-1140 -1118 1491 0
-1492 1142 0
-1492 1152 0
-1142 -1152 1492 0
-1493 1143 0
-1493 1163 0
-1143 -1163 1493 0
-1494 1144 0
-1494 1174 0
-1144 -1174 1494 0
-1495 1145 0
-1495 1185 0
-1145 -1185 1495 0
-1496 1146 0
-1496 1196 0
-1146 -1196 1496 0
-1497 1147 0
-1497 1207 0
-1147 -1207 1497 0
-1498 1148 0
-1498 1218 0
-1148 -1218 1498 0
-1499 1149 0
-1499 1229 0
-1149 -1229 1499 0
-1500 1150 0
-1500 1240 0
-1150 -1240 1500 0
-137 -1491 0
-137 -1492 0
-137 -1493 0
-137 -1494 0
-137 -1495 0
-137 -1496 0
-137 -1497 0
-137 -1498 0
-137 -1499 0
-137 -1500 0
-1141 137 1491 1492 1493 1494 1495 1496 1497 1498 1499 1500 0
-161 0
-185 1142 0
-1501 1140 0
-1501 1123 0
-1140 -1123 1501 0
-1502 1141 0
-1502 1122 0
-1141 -1122 1502 0
-1503 1143 0
-1503 1165 0
-1143 -1165 1503 0
-1504 1144 0
-1504 1176 0
-1144 -1176 1504 0
-1505 1145 0
-1505 1187 0
-1145 -1187 1505 0
-1506 1146 0
-1506 1198 0
-1146 -1198 1506 0
-1507 1147 0
-1507 1209 0
-1147 -1209 1507 0
-1508 1148 0
-1508 1220 0
-1148 -1220 1508 0
-1509 1149 0
-1509 1231 0
-1149 -1231 1509 0
-1510 1150 0
-1510 1242 0
-1150 -1242 1510 0
-185 -1501 0
-185 -1502 0
-185 -1503 0
-185 -1504 0
-185 -1505 0
-185 -1506 0
-185 -1507 0
-185 -1508 0
-185 -1509 0
-185 -1510 0
-1142 185 1501 1502 1503 1504 1505 1506 1507 1508 1509 1510 0
-209 1143 0
-1511 1140 0
-1511 1125 0
-1140 -1125 1511 0
-1512 1141 0
-1512 1124 0
-1141 -1124 1512 0
-1513 1142 0
-1513 1154 0
-1142 -1154 1513 0
-1514 1144 0
-1514 1177 0
-1144 -1177 1514 0
-1515 1145 0
-1515 1188 0
-1145 -1188 1515 0
-1516 1146 0
-1516 1199 0
-1146 -1199 1516 0
-1517 1147 0
-1517 1210 0
-1147 -1210 1517 0
-1518 1148 0
-1518 1221 0
-1148 -1221 1518 0
-1519 1149 0
-1519 1232 0
-1149 -1232 1519 0
-1520 1150 0
-1520 1243 0
-1150 -1243 1520 0
-209 -1511 0
-209 -1512 0
-209 -1513 0
-209 -1514 0
-209 -1515 0
-209 -1516 0
-209 -1517 0
-209 -1518 0
-209 -1519 0
-209 -1520 0
-1143 209 1511 1512 1513 1514 1515 1516 1517 1518 1519 1520 0
-233 1144 0
-1521 1140 0
-1521 1127 0
-1140 -1127 1521 0
-1522 1141 0
-1522 1126 0
-1141 -1126 1522 0
-1523 1142 0
-1523 1155 0
-1142 -1155 1523 0
-1524 1143 0
-1524 1166 0
-1143 -1166 1524 0
-1525 1145 0
-1525 1189 0
-1145 -1189 1525 0
-1526 1146 0
-1526 1200 0
-1146 -1200 1526 0
-1527 1147 0
-1527 1211 0
-1147 -1211 1527 0
-1528 1148 0
-1528 1222 0
-1148 -1222 1528 0
-1529 1149 0
-1529 1233 0
-1149 -1233 1529 0
-1530 1150 0
-1530 1244 0
-1150 -1244 1530 0
-233 -1521 0
-233 -1522 0
-233 -1523 0
-233 -1524 0
-233 -1525 0
-233 -1526 0
-233 -1527 0
-233 -1528 0
-233 -1529 0
-233 -1530 0
-1144 233 1521 1522 1523 1524 1525 1526 1527 1528 1529 1530 0
-257 1145 0
-1531 1140 0
-1531 1129 0
-1140 -1129 1531 0
-1532 1141 0
-1532 1128 0
-1141 -1128 1532 0
-1533 1142 0
-1533 1156 0
-1142 -1156 1533 0
-1534 1143 0
-1534 1167 0
-1143 -1167 1534 0
-1535 1144 0
-1535 1178 0
-1144 -1178 1535 0
-1536 1146 0
-1536 1201 0
-1146 -1201 1536 0
-1537 1147 0
-1537 1212 0
-1147 -1212 1537 0
-1538 1148 0
-1538 1223 0
-1148 -1223 1538 0
-1539 1149 0
-1539 1234 0
-1149 -1234 1539 0
-1540 1150 0
-1540 1245 0
-1150 -1245 1540 0
-257 -1531 0
-257 -1532 0
-257 -1533 0
-257 -1534 0
-257 -1535 0
-257 -1536 0
-257 -1537 0
-257 -1538 0
-257 -1539 0
-257 -1540 0
-1145 257 1531 1532 1533 1534 1535 1536 1537 1538 1539 1540 0
-281 1146 0
-1541 1140 0
-1541 1131 0
-1140 -1131 1541 0
-1542 1141 0
-1542 1130 0
-1141 -1130 1542 0
-1543 1142 0
-1543 1157 0
-1142 -1157 1543 0
-1544 1143 0
-1544 1168 0
-1143 -1168 1544 0
-1545 1144 0
-1545 1179 0
-1144 -1179 1545 0
-1546 1145 0
-1546 1190 0
-1145 -1190 1546 0
-1547 1147 0
-1547 1213 0
-1147 -1213 1547 0
-1548 1148 0
-1548 1224 0
-1148 -1224 1548 0
-1549 1149 0
-1549 1235 0
-1149 -1235 1549 0
-1550 1150 0
-1550 1246 0
-1150 -1246 1550 0
-281 -1541 0
-281 -1542 0
-281 -1543 0
-281 -1544 0
-281 -1545 0
-281 -1546 0
-281 -1547 0
-281 -1548 0
-281 -1549 0
-281 -1550 0
-1146 281 1541 1542 1543 1544 1545 1546 1547 1548 1549 1550 0
-305 1147 0
-1551 1140 0
-1551 1133 0
-1140 -1133 1551 0
-1552 1141 0
-1552 1132 0
-1141 -1132 1552 0
-1553 1142 0
-1553 1158 0
-1142 -1158 1553 0
-1554 1143 0
-1554 1169 0
-1143 -1169 1554 0
-1555 1144 0
-1555 1180 0
-1144 -1180 1555 0
-1556 1145 0
-1556 1191 0
-1145 -1191 1556 0
-1557 1146 0
-1557 1202 0
-1146 -1202 1557 0
-1558 1148 0
-1558 1225 0
-1148 -1225 1558 0
-1559 1149 0
-1559 1236 0
-1149 -1236 1559 0
-1560 1150 0
-1560 1247 0
-1150 -1247 1560 0
-305 -1551 0
-305 -1552 0
-305 -1553 0
-305 -1554 0
-305 -1555 0
-305 -1556 0
-305 -1557 0
-305 -1558 0
-305 -1559 0
-305 -1560 0
-1147 305 1551 1552 1553 1554 1555 1556 1557 1558 1559 1560 0
-329 1148 0
-1561 1140 0
-1561 1135 0
-1140 -1135 1561 0
-1562 1141 0
-1562 1134 0
-1141 -1134 1562 0
-1563 1142 0
-1563 1159 0
-1142 -1159 1563 0
-1564 1143 0
-1564 1170 0
-1143 -1170 1564 0
-1565 1144 0
-1565 1181 0
-1144 -1181 1565 0
-1566 1145 0
-1566 1192 0
-1145 -1192 1566 0
-1567 1146 0
-1567 1203 0
-1146 -1203 1567 0
-1568 1147 0
-1568 1214 0
-1147 -1214 1568 0
-1569 1149 0
-1569 1237 0
-1149 -1237 1569 0
-1570 1150 0
-1570 1248 0
-1150 -1248 1570 0
-329 -1561 0
-329 -1562 0
-329 -1563 0
-329 -1564 0
-329 -1565 0
-329 -1566 0
-329 -1567 0
-329 -1568 0
-329 -1569 0
-329 -1570 0
-1148 329 1561 1562 1563 1564 1565 1566 1567 1568 1569 1570 0
-353 1149 0
-1571 1140 0
-1571 1137 0
-1140 -1137 1571 0
-1572 1141 0
-1572 1136 0
-1141 -1136 1572 0
-1573 1142 0
-1573 1160 0
-1142 -1160 1573 0
-1574 1143 0
-1574 1171 0
-1143 -1171 1574 0
-1575 1144 0
-1575 1182 0
-1144 -1182 1575 0
-1576 1145 0
-1576 1193 0
-1145 -1193 1576 0
-1577 1146 0
-1577 1204 0
-1146 -1204 1577 0
-1578 1147 0
-1578 1215 0
-1147 -1215 1578 0
-1579 1148 0
-1579 1226 0
-1148 -1226 1579 0
-1580 1150 0
-1580 1249 0
-1150 -1249 1580 0
-353 -1571 0
-353 -1572 0
-353 -1573 0
-353 -1574 0
-353 -1575 0
-353 -1576 0
-353 -1577 0
-353 -1578 0
-353 -1579 0
-353 -1580 0
-1149 353 1571 1572 1573 1574 1575 1576 1577 1578 1579 1580 0
-377 1150 0
-1581 1140 0
-1581 1139 0
-1140 -1139 1581 0
-1582 1141 0
-1582 1138 0
-1141 -1138 1582 0
-1583 1142 0
-1583 1161 0
-1142 -1161 1583 0
-1584 1143 0
-1584 1172 0
-1143 -1172 1584 0
-1585 1144 0
-1585 1183 0
-1144 -1183 1585 0
-1586 1145 0
-1586 1194 0
-1145 -1194 1586 0
-1587 1146 0
-1587 1205 0
-1146 -1205 1587 0
-1588 1147 0
-1588 1216 0
-1147 -1216 1588 0
-1589 1148 0
-1589 1227 0
-1148 -1227 1589 0
-1590 1149 0
-1590 1238 0
-1149 -1238 1590 0
-377 -1581 0
-377 -1582 0
-377 -1583 0
-377 -1584 0
-377 -1585 0
-377 -1586 0
-377 -1587 0
-377 -1588 0
-377 -1589 0
-377 -1590 0
-1150 377 1581 1582 1583 1584 1585 1586 1587 1588 1589 1590 0
-115 1151 0
-1591 1152 0
-1591 1119 0
-1152 -1119 1591 0
-1592 1153 0
-1592 1140 0
-1153 -1140 1592 0
-1593 1154 0
-1593 1162 0
-1154 -1162 1593 0
-1594 1155 0
-1594 1173 0
-1155 -1173 1594 0
-1595 1156 0
-1595 1184 0
-1156 -1184 1595 0
-1596 1157 0
-1596 1195 0
-1157 -1195 1596 0
-1597 1158 0
-1597 1206 0
-1158 -1206 1597 0
-1598 1159 0
-1598 1217 0
-1159 -1217 1598 0
-1599 1160 0
-1599 1228 0
-1160 -1228 1599 0
-1600 1161 0
-1600 1239 0
-1161 -1239 1600 0
-115 -1591 0
-115 -1592 0
-115 -1593 0
-115 -1594 0
-115 -1595 0
-115 -1596 0
-115 -1597 0
-115 -1598 0
-115 -1599 0
-115 -1600 0
-1151 115 1591 1592 1593 1594 1595 1596 1597 1598 1599 1600 0
-139 1152 0
-1601 1151 0
-1601 1118 0
-1151 -1118 1601 0
-1602 1153 0
-1602 1141 0
-1153 -1141 1602 0
-1603 1154 0
-1603 1163 0
-1154 -1163 1603 0
-1604 1155 0
-1604 1174 0
-1155 -1174 1604 0
-1605 1156 0
-1605 1185 0
-1156 -1185 1605 0
-1606 1157 0
-1606 1196 0
-1157 -1196 1606 0
-1607 1158 0
-1607 1207 0
-1158 -1207 1607 0
-1608 1159 0
-1608 1218 0
-1159 -1218 1608 0
-1609 1160 0
-1609 1229 0
-1160 -1229 1609 0
-1610 1161 0
-1610 1240 0
-1161 -1240 1610 0
-139 -1601 0
-139 -1602 0
-139 -1603 0
-139 -1604 0
-139 -1605 0
-139 -1606 0
-139 -1607 0
-139 -1608 0
-139 -1609 0
-139 -1610 0
-1152 139 1601 1602 1603 1604 1605 1606 1607 1608 1609 1610 0
-163 1153 0
-1611 1151 0
-1611 1121 0
-1151 -1121 1611 0
-1612 1152 0
-1612 1120 0
-1152 -1120 1612 0
-1613 1154 0
-1613 1164 0
-1154 -1164 1613 0
-1614 1155 0
-1614 1175 0
-1155 -1175 1614 0
-1615 1156 0
-1615 1186 0
-1156 -1186 1615 0
-1616 1157 0
-1616 1197 0
-1157 -1197 1616 0
-1617 1158 0
-1617 1208 0
-1158 -1208 1617 0
-1618 1159 0
-1618 1219 0
-1159 -1219 1618 0
-1619 1160 0
-1619 1230 0
-1160 -1230 1619 0
-1620 1161 0
-1620 1241 0
-1161 -1241 1620 0
-163 -1611 0
-163 -1612 0
-163 -1613 0
-163 -1614 0
-163 -1615 0
-163 -1616 0
-163 -1617 0
-163 -1618 0
-163 -1619 0
-163 -1620 0
-1153 163 1611 1612 1613 1614 1615 1616 1617 1618 1619 1620 0
-187 0
-211 1154 0
-1621 1151 0
-1621 1125 0
-1151 -1125 1621 0
-1622 1152 0
-1622 1124 0
-1152 -1124 1622 0
-1623 1153 0
-1623 1143 0
-1153 -1143 1623 0
-1624 1155 0
-1624 1177 0
-1155 -1177 1624 0
-1625 1156 0
-1625 1188 0
-1156 -1188 1625 0
-1626 1157 0
-1626 1199 0
-1157 -1199 1626 0
-1627 1158 0
-1627 1210 0
-1158 -1210 1627 0
-1628 1159 0
-1628 1221 0
-1159 -1221 1628 0
-1629 1160 0
-1629 1232 0
-1160 -1232 1629 0
-1630 1161 0
-1630 1243 0
-1161 -1243 1630 0
-211 -1621 0
-211 -1622 0
-211 -1623 0
-211 -1624 0
-211 -1625 0
-211 -1626 0
-211 -1627 0
-211 -1628 0
-211 -1629 0
-211 -1630 0
-1154 211 1621 1622 1623 1624 1625 1626 1627 1628 1629 1630 0
-235 1155 0
-1631 1151 0
-1631 1127 0
-1151 -1127 1631 0
-1632 1152 0
-1632 1126 0
-1152 -1126 1632 0
-1633 1153 0
-1633 1144 0
-1153 -1144 1633 0
-1634 1154 0
-1634 1166 0
-1154 -1166 1634 0
-1635 1156 0
-1635 1189 0
-1156 -1189 1635 0
-1636 1157 0
-1636 1200 0
-1157 -1200 1636 0
-1637 1158 0
-1637 1211 0
-1158 -1211 1637 0
-1638 1159 0
-1638 1222 0
-1159 -1222 1638 0
-1639 1160 0
-1639 1233 0
-1160 -1233 1639 0
-1640 1161 0
-1640 1244 0
-1161 -1244 1640 0
-235 -1631 0
-235 -1632 0
-235 -1633 0
-235 -1634 0
-235 -1635 0
-235 -1636 0
-235 -1637 0
-235 -1638 0
-235 -1639 0
-235 -1640 0
-1155 235 1631 1632 1633 1634 1635 1636 1637 1638 1639 1640 0
-259 1156 0
-1641 1151 0
-1641 1129 0
-1151 -1129 1641 0
-1642 1152 0
-1642 1128 0
-1152 -1128 1642 0
-1643 1153 0
-1643 1145 0
-1153 -1145 1643 0
-1644 1154 0
-1644 1167 0
-1154 -1167 1644 0
-1645 1155 0
-1645 1178 0
-1155 -1178 1645 0
-1646 1157 0
-1646 1201 0
-1157 -1201 1646 0
-1647 1158 0
-1647 1212 0
-1158 -1212 1647 0
-1648 1159 0
-1648 1223 0
-1159 -1223 1648 0
-1649 1160 0
-1649 1234 0
-1160 -1234 1649 0
-1650 1161 0
-1650 1245 0
-1161 -1245 1650 0
-259 -1641 0
-259 -1642 0
-259 -1643 0
-259 -1644 0
-259 -1645 0
-259 -1646 0
-259 -1647 0
-259 -1648 0
-259 -1649 0
-259 -1650 0
-1156 259 1641 1642 1643 1644 1645 1646 1647 1648 1649 1650 0
-283 1157 0
-1651 1151 0
-1651 1131 0
-1151 -1131 1651 0
-1652 1152 0
-1652 1130 0
-1152 -1130 1652 0
-1653 1153 0
-1653 1146 0
-1153 -1146 1653 0
-1654 1154 0
-1654 1168 0
-1154 -1168 1654 0
-1655 1155 0
-1655 1179 0
-1155 -1179 1655 0
-1656 1156 0
-1656 1190 0
-1156 -1190 1656 0
-1657 1158 0
-1657 1213 0
-1158 -1213 1657 0
-1658 1159 0
-1658 1224 0
-1159 -1224 1658 0
-1659 1160 0
-1659 1235 0
-1160 -1235 1659 0
-1660 1161 0
-1660 1246 0
-1161 -1246 1660 0
-283 -1651 0
-283 -1652 0
-283 -1653 0
-283 -1654 0
-283 -1655 0
-283 -1656 0
-283 -1657 0
-283 -1658 0
-283 -1659 0
-283 -1660 0
-1157 283 1651 1652 1653 1654 1655 1656 1657 1658 1659 1660 0
-307 1158 0
-1661 1151 0
-1661 1133 0
-1151 -1133 1661 0
-1662 1152 0
-1662 1132 0
-1152 -1132 1662 0
-1663 1153 0
-1663 1147 0
-1153 -1147 1663 0
-1664 1154 0
-1664 1169 0
-1154 -1169 1664 0
-1665 1155 0
-1665 1180 0
-1155 -1180 1665 0
-1666 1156 0
-1666 1191 0
-1156 -1191 1666 0
-1667 1157 0
-1667 1202 0
-1157 -1202 1667 0
-1668 1159 0
-1668 1225 0
-1159 -1225 1668 0
-1669 1160 0
-1669 1236 0
-1160 -1236 1669 0
-1670 1161 0
-1670 1247 0
-1161 -1247 1670 0
-307 -1661 0
-307 -1662 0
-307 -1663 0
-307 -1664 0
-307 -1665 0
-307 -1666 0
-307 -1667 0
-307 -1668 0
-307 -1669 0
-307 -1670 0
-1158 307 1661 1662 1663 1664 1665 1666 1667 1668 1669 1670 0
-331 1159 0
-1671 1151 0
-1671 1135 0
-1151 -1135 1671 0
-1672 1152 0
-1672 1134 0
-1152 -1134 1672 0
-1673 1153 0
-1673 1148 0
-1153 -1148 1673 0
-1674 1154 0
-1674 1170 0
-1154 -1170 1674 0
-1675 1155 0
-1675 1181 0
-1155 -1181 1675 0
-1676 1156 0
-1676 1192 0
-1156 -1192 1676 0
-1677 1157 0
-1677 1203 0
-1157 -1203 1677 0
-1678 1158 0
-1678 1214 0
-1158 -1214 1678 0
-1679 1160 0
-1679 1237 0
-1160 -1237 1679 0
-1680 1161 0
-1680 1248 0
-1161 -1248 1680 0
-331 -1671 0
-331 -1672 0
-331 -1673 0
-331 -1674 0
-331 -1675 0
-331 -1676 0
-331 -1677 0
-331 -1678 0
-331 -1679 0
-331 -1680 0
-1159 331 1671 1672 1673 1674 1675 1676 1677 1678 1679 1680 0
-355 1160 0
-1681 1151 0
-1681 1137 0
-1151 -1137 1681 0
-1682 1152 0
-1682 1136 0
-1152 -1136 1682 0
-1683 1153 0
-1683 1149 0
-1153 -1149 1683 0
-1684 1154 0
-1684 1171 0
-1154 -1171 1684 0
-1685 1155 0
-1685 1182 0
-1155 -1182 1685 0
-1686 1156 0
-1686 1193 0
-1156 -1193 1686 0
-1687 1157 0
-1687 1204 0
-1157 -1204 1687 0
-1688 1158 0
-1688 1215 0
-1158 -1215 1688 0
-1689 1159 0
-1689 1226 0
-1159 -1226 1689 0
-1690 1161 0
-1690 1249 0
-1161 -1249 1690 0
-355 -1681 0
-355 -1682 0
-355 -1683 0
-355 -1684 0
-355 -1685 0
-355 -1686 0
-355 -1687 0
-355 -1688 0
-355 -1689 0
-355 -1690 0
-1160 355 1681 1682 1683 1684 1685 1686 1687 1688 1689 1690 0
-379 1161 0
-1691 1151 0
-1691 1139 0
-1151 -1139 1691 0
-1692 1152 0
-1692 1138 0
-1152 -1138 1692 0
-1693 1153 0
-1693 1150 0
-1153 -1150 1693 0
-1694 1154 0
-1694 1172 0
-1154 -1172 1694 0
-1695 1155 0
-1695 1183 0
-1155 -1183 1695 0
-1696 1156 0
-1696 1194 0
-1156 -1194 1696 0
-1697 1157 0
-1697 1205 0
-1157 -1205 1697 0
-1698 1158 0
-1698 1216 0
-1158 -1216 1698 0
-1699 1159 0
-1699 1227 0
-1159 -1227 1699 0
-1700 1160 0
-1700 1238 0
-1160 -1238 1700 0
-379 -1691 0
-379 -1692 0
-379 -1693 0
-379 -1694 0
-379 -1695 0
-379 -1696 0
-379 -1697 0
-379 -1698 0
-379 -1699 0
-379 -1700 0
-1161 379 1691 1692 1693 1694 1695 1696 1697 1698 1699 1700 0
-117 1162 0
-1701 1163 0
-1701 1119 0
-1163 -1119 1701 0
-1702 1164 0
-1702 1140 0
-1164 -1140 1702 0
-1703 1165 0
-1703 1151 0
-1165 -1151 1703 0
-1704 1166 0
-1704 1173 0
-1166 -1173 1704 0
-1705 1167 0
-1705 1184 0
-1167 -1184 1705 0
-1706 1168 0
-1706 1195 0
-1168 -1195 1706 0
-1707 1169 0
-1707 1206 0
-1169 -1206 1707 0
-1708 1170 0
-1708 1217 0
-1170 -1217 1708 0
-1709 1171 0
-1709 1228 0
-1171 -1228 1709 0
-1710 1172 0
-1710 1239 0
-1172 -1239 1710 0
-117 -1701 0
-117 -1702 0
-117 -1703 0
-117 -1704 0
-117 -1705 0
-117 -1706 0
-117 -1707 0
-117 -1708 0
-117 -1709 0
-117 -1710 0
-1162 117 1701 1702 1703 1704 1705 1706 1707 1708 1709 1710 0
-141 1163 0
-1711 1162 0
-1711 1118 0
-1162 -1118 1711 0
-1712 1164 0
-1712 1141 0
-1164 -1141 1712 0
-1713 1165 0
-1713 1152 0
-1165 -1152 1713 0
-1714 1166 0
-1714 1174 0
-1166 -1174 1714 0
-1715 1167 0
-1715 1185 0
-1167 -1185 1715 0
-1716 1168 0
-1716 1196 0
-1168 -1196 1716 0
-1717 1169 0
-1717 1207 0
-1169 -1207 1717 0
-1718 1170 0
-1718 1218 0
-1170 -1218 1718 0
-1719 1171 0
-1719 1229 0
-1171 -1229 1719 0
-1720 1172 0
-1720 1240 0
-1172 -1240 1720 0
-141 -1711 0
-141 -1712 0
-141 -1713 0
-141 -1714 0
-141 -1715 0
-141 -1716 0
-141 -1717 0
-141 -1718 0
-141 -1719 0
-141 -1720 0
-1163 141 1711 1712 1713 1714 1715 1716 1717 1718 1719 1720 0
-165 1164 0
-1721 1162 0
-1721 1121 0
-1162 -1121 1721 0
-1722 1163 0
-1722 1120 0
-1163 -1120 1722 0
-1723 1165 0
-1723 1153 0
-1165 -1153 1723 0
-1724 1166 0
-1724 1175 0
-1166 -1175 1724 0
-1725 1167 0
-1725 1186 0
-1167 -1186 1725 0
-1726 1168 0
-1726 1197 0
-1168 -1197 1726 0
-1727 1169 0
-1727 1208 0
-1169 -1208 1727 0
-1728 1170 0
-1728 1219 0
-1170 -1219 1728 0
-1729 1171 0
-1729 1230 0
-1171 -1230 1729 0
-1730 1172 0
-1730 1241 0
-1172 -1241 1730 0
-165 -1721 0
-165 -1722 0
-165 -1723 0
-165 -1724 0
-165 -1725 0
-165 -1726 0
-165 -1727 0
-165 -1728 0
-165 -1729 0
-165 -1730 0
-1164 165 1721 1722 1723 1724 1725 1726 1727 1728 1729 1730 0
-189 1165 0
-1731 1162 0
-1731 1123 0
-1162 -1123 1731 0
-1732 1163 0
-1732 1122 0
-1163 -1122 1732 0
-1733 1164 0
-1733 1142 0
-1164 -1142 1733 0
-1734 1166 0
-1734 1176 0
-1166 -1176 1734 0
-1735 1167 0
-1735 1187 0
-1167 -1187 1735 0
-1736 1168 0
-1736 1198 0
-1168 -1198 1736 0
-1737 1169 0
-1737 1209 0
-1169 -1209 1737 0
-1738 1170 0
-1738 1220 0
-1170 -1220 1738 0
-1739 1171 0
-1739 1231 0
-1171 -1231 1739 0
-1740 1172 0
-1740 1242 0
-1172 -1242 1740 0
-189 -1731 0
-189 -1732 0
-189 -1733 0
-189 -1734 0
-189 -1735 0
-189 -1736 0
-189 -1737 0
-189 -1738 0
-189 -1739 0
-189 -1740 0
-1165 189 1731 1732 1733 1734 1735 1736 1737 1738 1739 1740 0
-213 0
-237 1166 0
-1741 1162 0
-1741 1127 0
-1162 -1127 1741 0
-1742 1163 0
-1742 1126 0
-1163 -1126 1742 0
-1743 1164 0
-1743 1144 0
-1164 -1144 1743 0
-1744 1165 0
-1744 1155 0
-1165 -1155 1744 0
-1745 1167 0
-1745 1189 0
-1167 -1189 1745 0
-1746 1168 0
-1746 1200 0
-1168 -1200 1746 0
-1747 1169 0
-1747 1211 0
-1169 -1211 1747 0
-1748 1170 0
-1748 1222 0
-1170 -1222 1748 0
-1749 1171 0
-1749 1233 0
-1171 -1233 1749 0
-1750 1172 0
-1750 1244 0
-1172 -1244 1750 0
-237 -1741 0
-237 -1742 0
-237 -1743 0
-237 -1744 0
-237 -1745 0
-237 -1746 0
-237 -1747 0
-237 -1748 0
-237 -1749 0
-237 -1750 0
-1166 237 1741 1742 1743 1744 1745 1746 1747 1748 1749 1750 0
-261 1167 0
-1751 1162 0
-1751 1129 0
-1162 -1129 1751 0
-1752 1163 0
-1752 1128 0
-1163 -1128 1752 0
-1753 1164 0
-1753 1145 0
-1164 -1145 1753 0
-1754 1165 0
-1754 1156 0
-1165 -1156 1754 0
-1755 1166 0
-1755 1178 0
-1166 -1178 1755 0
-1756 1168 0
-1756 1201 0
-1168 -1201 1756 0
-1757 1169 0
-1757 1212 0
-1169 -1212 1757 0
-1758 1170 0
-1758 1223 0
-1170 -1223 1758 0
-1759 1171 0
-1759 1234 0
-1171 -1234 1759 0
-1760 1172 0
-1760 1245 0
-1172 -1245 1760 0
-261 -1751 0
-261 -1752 0
-261 -1753 0
-261 -1754 0
-261 -1755 0
-261 -1756 0
-261 -1757 0
-261 -1758 0
-261 -1759 0
-261 -1760 0
-1167 261 1751 1752 1753 1754 1755 1756 1757 1758 1759 1760 0
-285 1168 0
-1761 1162 0
-1761 1131 0
-1162 -1131 1761 0
-1762 1163 0
-1762 1130 0
-1163 -1130 1762 0
-1763 1164 0
-1763 1146 0
-1164 -1146 1763 0
-1764 1165 0
-1764 1157 0
-1165 -1157 1764 0
-1765 1166 0
-1765 1179 0
-1166 -1179 1765 0
-1766 1167 0
-1766 1190 0
-1167 -1190 1766 0
-1767 1169 0
-1767 1213 0
-1169 -1213 1767 0
-1768 1170 0
-1768 1224 0
-1170 -1224 1768 0
-1769 1171 0
-1769 1235 0
-1171 -1235 1769 0
-1770 1172 0
-1770 1246 0
-1172 -1246 1770 0
-285 -1761 0
-285 -1762 0
-285 -1763 0
-285 -1764 0
-285 -1765 0
-285 -1766 0
-285 -1767 0
-285 -1768 0
-285 -1769 0
-285 -1770 0
-1168 285 1761 1762 1763 1764 1765 1766 1767 1768 1769 1770 0
-309 1169 0
-1771 1162 0
-1771 1133 0
-1162 -1133 1771 0
-1772 1163 0
-1772 1132 0
-1163 -1132 1772 0
-1773 1164 0
-1773 1147 0
-1164 -1147 1773 0
-1774 1165 0
-1774 1158 0
-1165 -1158 1774 0
-1775 1166 0
-1775 1180 0
-1166 -1180 1775 0
-1776 1167 0
-1776 1191 0
-1167 -1191 1776 0
-1777 1168 0
-1777 1202 0
-1168 -1202 1777 0
-1778 1170 0
-1778 1225 0
-1170 -1225 1778 0
-1779 1171 0
-1779 1236 0
-1171 -1236 1779 0
-1780 1172 0
-1780 1247 0
-1172 -1247 1780 0
-309 -1771 0
-309 -1772 0
-309 -1773 0
-309 -1774 0
-309 -1775 0
-309 -1776 0
-309 -1777 0
-309 -1778 0
-309 -1779 0
-309 -1780 0
-1169 309 1771 1772 1773 1774 1775 1776 1777 1778 1779 1780 0
-333 1170 0
-1781 1162 0
-1781 1135 0
-1162 -1135 1781 0
-1782 1163 0
-1782 1134 0
-1163 -1134 1782 0
-1783 1164 0
-1783 1148 0
-1164 -1148 1783 0
-1784 1165 0
-1784 1159 0
-1165 -1159 1784 0
-1785 1166 0
-1785 1181 0
-1166 -1181 1785 0
-1786 1167 0
-1786 1192 0
-1167 -1192 1786 0
-1787 1168 0
-1787 1203 0
-1168 -1203 1787 0
-1788 1169 0
-1788 1214 0
-1169 -1214 1788 0
-1789 1171 0
-1789 1237 0
-1171 -1237 1789 0
-1790 1172 0
-1790 1248 0
-1172 -1248 1790 0
-333 -1781 0
-333 -1782 0
-333 -1783 0
-333 -1784 0
-333 -1785 0
-333 -1786 0
-333 -1787 0
-333 -1788 0
-333 -1789 0
-333 -1790 0
-1170 333 1781 1782 1783 1784 1785 1786 1787 1788 1789 1790 0
-357 1171 0
-1791 1162 0
-1791 1137 0
-1162 -1137 1791 0
-1792 1163 0
-1792 1136 0
-1163 -1136 1792 0
-1793 1164 0
-1793 1149 0
-1164 -1149 1793 0
-1794 1165 0
-1794 1160 0
-1165 -1160 1794 0
-1795 1166 0
-1795 1182 0
-1166 -1182 1795 0
-1796 1167 0
-1796 1193 0
-1167 -1193 1796 0
-1797 1168 0
-1797 1204 0
-1168 -1204 1797 0
-1798 1169 0
-1798 1215 0
-1169 -1215 1798 0
-1799 1170 0
-1799 1226 0
-1170 -1226 1799 0
-1800 1172 0
-1800 1249 0
-1172 -1249 1800 0
-357 -1791 0
-357 -1792 0
-357 -1793 0
-357 -1794 0
-357 -1795 0
-357 -1796 0
-357 -1797 0
-357 -1798 0
-357 -1799 0
-357 -1800 0
-1171 357 1791 1792 1793 1794 1795 1796 1797 1798 1799 1800 0
-381 1172 0
-1801 1162 0
-1801 1139 0
-1162 -1139 1801 0
-1802 1163 0
-1802 1138 0
-1163 -1138 1802 0
-1803 1164 0
-1803 1150 0
-1164 -1150 1803 0
-1804 1165 0
-1804 1161 0
-1165 -1161 1804 0
-1805 1166 0
-1805 1183 0
-1166 -1183 1805 0
-1806 1167 0
-1806 1194 0
-1167 -1194 1806 0
-1807 1168 0
-1807 1205 0
-1168 -1205 1807 0
-1808 1169 0
-1808 1216 0
-1169 -1216 1808 0
-1809 1170 0
-1809 1227 0
-1170 -1227 1809 0
-1810 1171 0
-1810 1238 0
-1171 -1238 1810 0
-381 -1801 0
-381 -1802 0
-381 -1803 0
-381 -1804 0
-381 -1805 0
-381 -1806 0
-381 -1807 0
-381 -1808 0
-381 -1809 0
-381 -1810 0
-1172 381 1801 1802 1803 1804 1805 1806 1807 1808 1809 1810 0
-119 1173 0
-1811 1174 0
-1811 1119 0
-1174 -1119 1811 0
-1812 1175 0
-1812 1140 0
-1175 -1140 1812 0
-1813 1176 0
-1813 1151 0
-1176 -1151 1813 0
-1814 1177 0
-1814 1162 0
-1177 -1162 1814 0
-1815 1178 0
-1815 1184 0
-1178 -1184 1815 0
-1816 1179 0
-1816 1195 0
-1179 -1195 1816 0
-1817 1180 0
-1817 1206 0
-1180 -1206 1817 0
-1818 1181 0
-1818 1217 0
-1181 -1217 1818 0
-1819 1182 0
-1819 1228 0
-1182 -1228 1819 0
-1820 1183 0
-1820 1239 0
-1183 -1239 1820 0
-119 -1811 0
-119 -1812 0
-119 -1813 0
-119 -1814 0
-119 -1815 0
-119 -1816 0
-119 -1817 0
-119 -1818 0
-119 -1819 0
-119 -1820 0
-1173 119 1811 1812 1813 1814 1815 1816 1817 1818 1819 1820 0
-143 1174 0
-1821 1173 0
-1821 1118 0
-1173 -1118 1821 0
-1822 1175 0
-1822 1141 0
-1175 -1141 1822 0
-1823 1176 0
-1823 1152 0
-1176 -1152 1823 0
-1824 1177 0
-1824 1163 0
-1177 -1163 1824 0
-1825 1178 0
-1825 1185 0
-1178 -1185 1825 0
-1826 1179 0
-1826 1196 0
-1179 -1196 1826 0
-1827 1180 0
-1827 1207 0
-1180 -1207 1827 0
-1828 1181 0
-1828 1218 0
-1181 -1218 1828 0
-1829 1182 0
-1829 1229 0
-1182 -1229 1829 0
-1830 1183 0
-1830 1240 0
-1183 -1240 1830 0
-143 -1821 0
-143 -1822 0
-143 -1823 0
-143 -1824 0
-143 -1825 0
-143 -1826 0
-143 -1827 0
-143 -1828 0
-143 -1829 0
-143 -1830 0
-1174 143 1821 1822 1823 1824 1825 1826 1827 1828 1829 1830 0
-167 1175 0
-1831 1173 0
-1831 1121 0
-1173 -1121 1831 0
-1832 1174 0
-1832 1120 0
-1174 -1120 1832 0
-1833 1176 0
-1833 1153 0
-1176 -1153 1833 0
-1834 1177 0
-1834 1164 0
-1177 -1164 1834 0
-1835 1178 0
-1835 1186 0
-1178 -1186 1835 0
-1836 1179 0
-1836 1197 0
-1179 -1197 1836 0
-1837 1180 0
-1837 1208 0
-1180 -1208 1837 0
-1838 1181 0
-1838 1219 0
-1181 -1219 1838 0
-1839 1182 0
-1839 1230 0
-1182 -1230 1839 0
-1840 1183 0
-1840 1241 0
-1183 -1241 1840 0
-167 -1831 0
-167 -1832 0
-167 -1833 0
-167 -1834 0
-167 -1835 0
-167 -1836 0
-167 -1837 0
-167 -1838 0
-167 -1839 0
-167 -1840 0
-1175 167 1831 1832 1833 1834 1835 1836 1837 1838 1839 1840 0
-191 1176 0
-1841 1173 0
-1841 1123 0
-1173 -1123 1841 0
-1842 1174 0
-1842 1122 0
-1174 -1122 1842 0
-1843 1175 0
-1843 1142 0
-1175 -1142 1843 0
-1844 1177 0
-1844 1165 0
-1177 -1165 1844 0
-1845 1178 0
-1845 1187 0
-1178 -1187 1845 0
-1846 1179 0
-1846 1198 0
-1179 -1198 1846 0
-1847 1180 0
-1847 1209 0
-1180 -1209 1847 0
-1848 1181 0
-1848 1220 0
-1181 -1220 1848 0
-1849 1182 0
-1849 1231 0
-1182 -1231 1849 0
-1850 1183 0
-1850 1242 0
-1183 -1242 1850 0
-191 -1841 0
-191 -1842 0
-191 -1843 0
-191 -1844 0
-191 -1845 0
-191 -1846 0
-191 -1847 0
-191 -1848 0
-191 -1849 0
-191 -1850 0
-1176 191 1841 1842 1843 1844 1845 1846 1847 1848 1849 1850 0
-215 1177 0
-1851 1173 0
-1851 1125 0
-1173 -1125 1851 0
-1852 1174 0
-1852 1124 0
-1174 -1124 1852 0
-1853 1175 0
-1853 1143 0
-1175 -1143 1853 0
-1854 1176 0
-1854 1154 0
-1176 -1154 1854 0
-1855 1178 0
-1855 1188 0
-1178 -1188 1855 0
-1856 1179 0
-1856 1199 0
-1179 -1199 1856 0
-1857 1180 0
-1857 1210 0
-1180 -1210 1857 0
-1858 1181 0
-1858 1221 0
-1181 -1221 1858 0
-1859 1182 0
-1859 1232 0
-1182 -1232 1859 0
-1860 1183 0
-1860 1243 0
-1183 -1243 1860 0
-215 -1851 0
-215 -1852 0
-215 -1853 0
-215 -1854 0
-215 -1855 0
-215 -1856 0
-215 -1857 0
-215 -1858 0
-215 -1859 0
-215 -1860 0
-1177 215 1851 1852 1853 1854 1855 1856 1857 1858 1859 1860 0
-239 0
-263 1178 0
-1861 1173 0
-1861 1129 0
-1173 -1129 1861 0
-1862 1174 0
-1862 1128 0
-1174 -1128 1862 0
-1863 1175 0
-1863 1145 0
-1175 -1145 1863 0
-1864 1176 0
-1864 1156 0
-1176 -1156 1864 0
-1865 1177 0
-1865 1167 0
-1177 -1167 1865 0
-1866 1179 0
-1866 1201 0
-1179 -1201 1866 0
-1867 1180 0
-1867 1212 0
-1180 -1212 1867 0
-1868 1181 0
-1868 1223 0
-1181 -1223 1868 0
-1869 1182 0
-1869 1234 0
-1182 -1234 1869 0
-1870 1183 0
-1870 1245 0
-1183 -1245 1870 0
-263 -1861 0
-263 -1862 0
-263 -1863 0
-263 -1864 0
-263 -1865 0
-263 -1866 0
-263 -1867 0
-263 -1868 0
-263 -1869 0
-263 -1870 0
-1178 263 1861 1862 1863 1864 1865 1866 1867 1868 1869 1870 0
-287 1179 0
-1871 1173 0
-1871 1131 0
-1173 -1131 1871 0
-1872 1174 0
-1872 1130 0
-1174 -1130 1872 0
-1873 1175 0
-1873 1146 0
-1175 -1146 1873 0
-1874 1176 0
-1874 1157 0
-1176 -1157 1874 0
-1875 1177 0
-1875 1168 0
-1177 -1168 1875 0
-1876 1178 0
-1876 1190 0
-1178 -1190 1876 0
-1877 1180 0
-1877 1213 0
-1180 -1213 1877 0
-1878 1181 0
-1878 1224 0
-1181 -1224 1878 0
-1879 1182 0
-1879 1235 0
-1182 -1235 1879 0
-1880 1183 0
-1880 1246 0
-1183 -1246 1880 0
-287 -1871 0
-287 -1872 0
-287 -1873 0
-287 -1874 0
-287 -1875 0
-287 -1876 0
-287 -1877 0
-287 -1878 0
-287 -1879 0
-287 -1880 0
-1179 287 1871 1872 1873 1874 1875 1876 1877 1878 1879 1880 0
-311 1180 0
-1881 1173 0
-1881 1133 0
-1173 -1133 1881 0
-1882 1174 0
-1882 1132 0
-1174 -1132 1882 0
-1883 1175 0
-1883 1147 0
-1175 -1147 1883 0
-1884 1176 0
-1884 1158 0
-1176 -1158 1884 0
-1885 1177 0
-1885 1169 0
-1177 -1169 1885 0
-1886 1178 0
-1886 1191 0
-1178 -1191 1886 0
-1887 1179 0
-1887 1202 0
-1179 -1202 1887 0
-1888 1181 0
-1888 1225 0
-1181 -1225 1888 0
-1889 1182 0
-1889 1236 0
-1182 -1236 1889 0
-1890 1183 0
-1890 1247 0
-1183 -1247 1890 0
-311 -1881 0
-311 -1882 0
-311 -1883 0
-311 -1884 0
-311 -1885 0
-311 -1886 0
-311 -1887 0
-311 -1888 0
-311 -1889 0
-311 -1890 0
-1180 311 1881 1882 1883 1884 1885 1886 1887 1888 1889 1890 0
-335 1181 0
-1891 1173 0
-1891 1135 0
-1173 -1135 1891 0
-1892 1174 0
-1892 1134 0
-1174 -1134 1892 0
-1893 1175 0
-1893 1148 0
-1175 -1148 1893 0
-1894 1176 0
-1894 1159 0
-1176 -1159 1894 0
-1895 1177 0
-1895 1170 0
-1177 -1170 1895 0
-1896 1178 0
-1896 1192 0
-1178 -1192 1896 0
-1897 1179 0
-1897 1203 0
-1179 -1203 1897 0
-1898 1180 0
-1898 1214 0
-1180 -1214 1898 0
-1899 1182 0
-1899 1237 0
-1182 -1237 1899 0
-1900 1183 0
-1900 1248 0
-1183 -1248 1900 0
-335 -1891 0
-335 -1892 0
-335 -1893 0
-335 -1894 0
-335 -1895 0
-335 -1896 0
-335 -1897 0
-335 -1898 0
-335 -1899 0
-335 -1900 0
-1181 335 1891 1892 1893 1894 1895 1896 1897 1898 1899 1900 0
-359 1182 0
-1901 1173 0
-1901 1137 0
-1173 -1137 1901 0
-1902 1174 0
-1902 1136 0
-1174 -1136 1902 0
-1903 1175 0
-1903 1149 0
-1175 -1149 1903 0
-1904 1176 0
-1904 1160 0
-1176 -1160 1904 0
-1905 1177 0
-1905 1171 0
-1177 -1171 1905 0
-1906 1178 0
-1906 1193 0
-1178 -1193 1906 0
-1907 1179 0
-1907 1204 0
-1179 -1204 1907 0
-1908 1180 0
-1908 1215 0
-1180 -1215 1908 0
-1909 1181 0
-1909 1226 0
-1181 -1226 1909 0
-1910 1183 0
-1910 1249 0
-1183 -1249 1910 0
-359 -1901 0
-359 -1902 0
-359 -1903 0
-359 -1904 0
-359 -1905 0
-359 -1906 0
-359 -1907 0
-359 -1908 0
-359 -1909 0
-359 -1910 0
-1182 359 1901 1902 1903 1904 1905 1906 1907 1908 1909 1910 0
-383 1183 0
-1911 1173 0
-1911 1139 0
-1173 -1139 1911 0
-1912 1174 0
-1912 1138 0
-1174 -1138 1912 0
-1913 1175 0
-1913 1150 0
-1175 -1150 1913 0
-1914 1176 0
-1914 1161 0
-1176 -1161 1914 0
-1915 1177 0
-1915 1172 0
-1177 -1172 1915 0
-1916 1178 0
-1916 1194 0
-1178 -1194 1916 0
-1917 1179 0
-1917 1205 0
-1179 -1205 1917 0
-1918 1180 0
-1918 1216 0
-1180 -1216 1918 0
-1919 1181 0
-1919 1227 0
-1181 -1227 1919 0
-1920 1182 0
-1920 1238 0
-1182 -1238 1920 0
-383 -1911 0
-383 -1912 0
-383 -1913 0
-383 -1914 0
-383 -1915 0
-383 -1916 0
-383 -1917 0
-383 -1918 0
-383 -1919 0
-383 -1920 0
-1183 383 1911 1912 1913 1914 1915 1916 1917 1918 1919 1920 0
-121 1184 0
-1921 1185 0
-1921 1119 0
-1185 -1119 1921 0
-1922 1186 0
-1922 1140 0
-1186 -1140 1922 0
-1923 1187 0
-1923 1151 0
-1187 -1151 1923 0
-1924 1188 0
-1924 1162 0
-1188 -1162 1924 0
-1925 1189 0
-1925 1173 0
-1189 -1173 1925 0
-1926 1190 0
-1926 1195 0
-1190 -1195 1926 0
-1927 1191 0
-1927 1206 0
-1191 -1206 1927 0
-1928 1192 0
-1928 1217 0
-1192 -1217 1928 0
-1929 1193 0
-1929 1228 0
-1193 -1228 1929 0
-1930 1194 0
-1930 1239 0
-1194 -1239 1930 0
-121 -1921 0
-121 -1922 0
-121 -1923 0
-121 -1924 0
-121 -1925 0
-121 -1926 0
-121 -1927 0
-121 -1928 0
-121 -1929 0
-121 -1930 0
-1184 121 1921 1922 1923 1924 1925 1926 1927 1928 1929 1930 0
-145 1185 0
-1931 1184 0
-1931 1118 0
-1184 -1118 1931 0
-1932 1186 0
-1932 1141 0
-1186 -1141 1932 0
-1933 1187 0
-1933 1152 0
-1187 -1152 1933 0
-1934 1188 0
-1934 1163 0
-1188 -1163 1934 0
-1935 1189 0
-1935 1174 0
-1189 -1174 1935 0
-1936 1190 0
-1936 1196 0
-1190 -1196 1936 0
-1937 1191 0
-1937 1207 0
-1191 -1207 1937 0
-1938 1192 0
-1938 1218 0
-1192 -1218 1938 0
-1939 1193 0
-1939 1229 0
-1193 -1229 1939 0
-1940 1194 0
-1940 1240 0
-1194 -1240 1940 0
-145 -1931 0
-145 -1932 0
-145 -1933 0
-145 -1934 0
-145 -1935 0
-145 -1936 0
-145 -1937 0
-145 -1938 0
-145 -1939 0
-145 -1940 0
-1185 145 1931 1932 1933 1934 1935 1936 1937 1938 1939 1940 0
-169 1186 0
-1941 1184 0
-1941 1121 0
-1184 -1121 1941 0
-1942 1185 0
-1942 1120 0
-1185 -1120 1942 0
-1943 1187 0
-1943 1153 0
-1187 -1153 1943 0
-1944 1188 0
-1944 1164 0
-1188 -1164 1944 0
-1945 1189 0
-1945 1175 0
-1189 -1175 1945 0
-1946 1190 0
-1946 1197 0
-1190 -1197 1946 0
-1947 1191 0
-1947 1208 0
-1191 -1208 1947 0
-1948 1192 0
-1948 1219 0
-1192 -1219 1948 0
-1949 1193 0
-1949 1230 0
-1193 -1230 1949 0
-1950 1194 0
-1950 1241 0
-1194 -1241 1950 0
-169 -1941 0
-169 -1942 0
-169 -1943 0
-169 -1944 0
-169 -1945 0
-169 -1946 0
-169 -1947 0
-169 -1948 0
-169 -1949 0
-169 -1950 0
-1186 169 1941 1942 1943 1944 1945 1946 1947 1948 1949 1950 0
-193 1187 0
-1951 1184 0
-1951 1123 0
-1184 -1123 1951 0
-1952 1185 0
-1952 1122 0
-1185 -1122 1952 0
-1953 1186 0
-1953 1142 0
-1186 -1142 1953 0
-1954 1188 0
-1954 1165 0
-1188 -1165 1954 0
-1955 1189 0
-1955 1176 0
-1189 -1176 1955 0
-1956 1190 0
-1956 1198 0
-1190 -1198 1956 0
-1957 1191 0
-1957 1209 0
-1191 -1209 1957 0
-1958 1192 0
-1958 1220 0
-1192 -1220 1958 0
-1959 1193 0
-1959 1231 0
-1193 -1231 1959 0
-1960 1194 0
-1960 1242 0
-1194 -1242 1960 0
-193 -1951 0
-193 -1952 0
-193 -1953 0
-193 -1954 0
-193 -1955 0
-193 -1956 0
-193 -1957 0
-193 -1958 0
-193 -1959 0
-193 -1960 0
-1187 193 1951 1952 1953 1954 1955 1956 1957 1958 1959 1960 0
-217 1188 0
-1961 1184 0
-1961 1125 0
-1184 -1125 1961 0
-1962 1185 0
-1962 1124 0
-1185 -1124 1962 0
-1963 1186 0
-1963 1143 0
-1186 -1143 1963 0
-1964 1187 0
-1964 1154 0
-1187 -1154 1964 0
-1965 1189 0
-1965 1177 0
-1189 -1177 1965 0
-1966 1190 0
-1966 1199 0
-1190 -1199 1966 0
-1967 1191 0
-1967 1210 0
-1191 -1210 1967 0
-1968 1192 0
-1968 1221 0
-1192 -1221 1968 0
-1969 1193 0
-1969 1232 0
-1193 -1232 1969 0
-1970 1194 0
-1970 1243 0
-1194 -1243 1970 0
-217 -1961 0
-217 -1962 0
-217 -1963 0
-217 -1964 0
-217 -1965 0
-217 -1966 0
-217 -1967 0
-217 -1968 0
-217 -1969 0
-217 -1970 0
-1188 217 1961 1962 1963 1964 1965 1966 1967 1968 1969 1970 0
-241 1189 0
-1971 1184 0
-1971 1127 0
-1184 -1127 1971 0
-1972 1185 0
-1972 1126 0
-1185 -1126 1972 0
-1973 1186 0
-1973 1144 0
-1186 -1144 1973 0
-1974 1187 0
-1974 1155 0
-1187 -1155 1974 0
-1975 1188 0
-1975 1166 0
-1188 -1166 1975 0
-1976 1190 0
-1976 1200 0
-1190 -1200 1976 0
-1977 1191 0
-1977 1211 0
-1191 -1211 1977 0
-1978 1192 0
-1978 1222 0
-1192 -1222 1978 0
-1979 1193 0
-1979 1233 0
-1193 -1233 1979 0
-1980 1194 0
-1980 1244 0
-1194 -1244 1980 0
-241 -1971 0
-241 -1972 0
-241 -1973 0
-241 -1974 0
-241 -1975 0
-241 -1976 0
-241 -1977 0
-241 -1978 0
-241 -1979 0
-241 -1980 0
-1189 241 1971 1972 1973 1974 1975 1976 1977 1978 1979 1980 0
-265 0
-289 1190 0
-1981 1184 0
-1981 1131 0
-1184 -1131 1981 0
-1982 1185 0
-1982 1130 0
-1185 -1130 1982 0
-1983 1186 0
-1983 1146 0
-1186 -1146 1983 0
-1984 1187 0
-1984 1157 0
-1187 -1157 1984 0
-1985 1188 0
-1985 1168 0
-1188 -1168 1985 0
-1986 1189 0
-1986 1179 0
-1189 -1179 1986 0
-1987 1191 0
-1987 1213 0
-1191 -1213 1987 0
-1988 1192 0
-1988 1224 0
-1192 -1224 1988 0
-1989 1193 0
-1989 1235 0
-1193 -1235 1989 0
-1990 1194 0
-1990 1246 0
-1194 -1246 1990 0
-289 -1981 0
-289 -1982 0
-289 -1983 0
-289 -1984 0
-289 -1985 0
-289 -1986 0
-289 -1987 0
-289 -1988 0
-289 -1989 0
-289 -1990 0
-1190 289 1981 1982 1983 1984 1985 1986 1987 1988 1989 1990 0
-313 1191 0
-1991 1184 0
-1991 1133 0
-1184 -1133 1991 0
-1992 1185 0
-1992 1132 0
-1185 -1132 1992 0
-1993 1186 0
-1993 1147 0
-1186 -1147 1993 0
-1994 1187 0
-1994 1158 0
-1187 -1158 1994 0
-1995 1188 0
-1995 1169 0
-1188 -1169 1995 0
-1996 1189 0
-1996 1180 0
-1189 -1180 1996 0
-1997 1190 0
-1997 1202 0
-1190 -1202 1997 0
-1998 1192 0
-1998 1225 0
-1192 -1225 1998 0
-1999 1193 0
-1999 1236 0
-1193 -1236 1999 0
-2000 1194 0
-2000 1247 0
-1194 -1247 2000 0
-313 -1991 0
-313 -1992 0
-313 -1993 0
-313 -1994 0
-313 -1995 0
-313 -1996 0
-313 -1997 0
-313 -1998 0
-313 -1999 0
-313 -2000 0
-1191 313 1991 1992 1993 1994 1995 1996 1997 1998 1999 2000 0
-337 1192 0
-2001 1184 0
-2001 1135 0
-1184 -1135 2001 0
-2002 1185 0
-2002 1134 0
-1185 -1134 2002 0
-2003 1186 0
-2003 1148 0
-1186 -1148 2003 0
-2004 1187 0
-2004 1159 0
-1187 -1159 2004 0
-2005 1188 0
-2005 1170 0
-1188 -1170 2005 0
-2006 1189 0
-2006 1181 0
-1189 -1181 2006 0
-2007 1190 0
-2007 1203 0
-1190 -1203 2007 0
-2008 1191 0
-2008 1214 0
-1191 -1214 2008 0
-2009 1193 0
-2009 1237 0
-1193 -1237 2009 0
-2010 1194 0
-2010 1248 0
-1194 -1248 2010 0
-337 -2001 0
-337 -2002 0
-337 -2003 0
-337 -2004 0
-337 -2005 0
-337 -2006 0
-337 -2007 0
-337 -2008 0
-337 -2009 0
-337 -2010 0
-1192 337 2001 2002 2003 2004 2005 2006 2007 2008 2009 2010 0
-361 1193 0
-2011 1184 0
-2011 1137 0
-1184 -1137 2011 0
-2012 1185 0
-2012 1136 0
-1185 -1136 2012 0
-2013 1186 0
-2013 1149 0
-1186 -1149 2013 0
-2014 1187 0
-2014 1160 0
-1187 -1160 2014 0
-2015 1188 0
-2015 1171 0
-1188 -1171 2015 0
-2016 1189 0
-2016 1182 0
-1189 -1182 2016 0
-2017 1190 0
-2017 1204 0
-1190 -1204 2017 0
-2018 1191 0
-2018 1215 0
-1191 -1215 2018 0
-2019 1192 0
-2019 1226 0
-1192 -1226 2019 0
-2020 1194 0
-2020 1249 0
-1194 -1249 2020 0
-361 -2011 0
-361 -2012 0
-361 -2013 0
-361 -2014 0
-361 -2015 0
-361 -2016 0
-361 -2017 0
-361 -2018 0
-361 -2019 0
-361 -2020 0
-1193 361 2011 2012 2013 2014 2015 2016 2017 2018 2019 2020 0
-385 1194 0
-2021 1184 0
-2021 1139 0
-1184 -1139 2021 0
-2022 1185 0
-2022 1138 0
-1185 -1138 2022 0
-2023 1186 0
-2023 1150 0
-1186 -1150 2023 0
-2024 1187 0
-2024 1161 0
-1187 -1161 2024 0
-2025 1188 0
-2025 1172 0
-1188 -1172 2025 0
-2026 1189 0
-2026 1183 0
-1189 -1183 2026 0
-2027 1190 0
-2027 1205 0
-1190 -1205 2027 0
-2028 1191 0
-2028 1216 0
-1191 -1216 2028 0
-2029 1192 0
-2029 1227 0
-1192 -1227 2029 0
-2030 1193 0
-2030 1238 0
-1193 -1238 2030 0
-385 -2021 0
-385 -2022 0
-385 -2023 0
-385 -2024 0
-385 -2025 0
-385 -2026 0
-385 -2027 0
-385 -2028 0
-385 -2029 0
-385 -2030 0
-1194 385 2021 2022 2023 2024 2025 2026 2027 2028 2029 2030 0
-123 1195 0
-2031 1196 0
-2031 1119 0
-1196 -1119 2031 0
-2032 1197 0
-2032 1140 0
-1197 -1140 2032 0
-2033 1198 0
-2033 1151 0
-1198 -1151 2033 0
-2034 1199 0
-2034 1162 0
-1199 -1162 2034 0
-2035 1200 0
-2035 1173 0
-1200 -1173 2035 0
-2036 1201 0
-2036 1184 0
-1201 -1184 2036 0
-2037 1202 0
-2037 1206 0
-1202 -1206 2037 0
-2038 1203 0
-2038 1217 0
-1203 -1217 2038 0
-2039 1204 0
-2039 1228 0
-1204 -1228 2039 0
-2040 1205 0
-2040 1239 0
-1205 -1239 2040 0
-123 -2031 0
-123 -2032 0
-123 -2033 0
-123 -2034 0
-123 -2035 0
-123 -2036 0
-123 -2037 0
-123 -2038 0
-123 -2039 0
-123 -2040 0
-1195 123 2031 2032 2033 2034 2035 2036 2037 2038 2039 2040 0
-147 1196 0
-2041 1195 0
-2041 1118 0
-1195 -1118 2041 0
-2042 1197 0
-2042 1141 0
-1197 -1141 2042 0
-2043 1198 0
-2043 1152 0
-1198 -1152 2043 0
-2044 1199 0
-2044 1163 0
-1199 -1163 2044 0
-2045 1200 0
-2045 1174 0
-1200 -1174 2045 0
-2046 1201 0
-2046 1185 0
-1201 -1185 2046 0
-2047 1202 0
-2047 1207 0
-1202 -1207 2047 0
-2048 1203 0
-2048 1218 0
-1203 -1218 2048 0
-2049 1204 0
-2049 1229 0
-1204 -1229 2049 0
-2050 1205 0
-2050 1240 0
-1205 -1240 2050 0
-147 -2041 0
-147 -2042 0
-147 -2043 0
-147 -2044 0
-147 -2045 0
-147 -2046 0
-147 -2047 0
-147 -2048 0
-147 -2049 0
-147 -2050 0
-1196 147 2041 2042 2043 2044 2045 2046 2047 2048 2049 2050 0
-171 1197 0
-2051 1195 0
-2051 1121 0
-1195 -1121 2051 0
-2052 1196 0
-2052 1120 0
-1196 -1120 2052 0
-2053 1198 0
-2053 1153 0
-1198 -1153 2053 0
-2054 1199 0
-2054 1164 0
-1199 -1164 2054 0
-2055 1200 0
-2055 1175 0
-1200 -1175 2055 0
-2056 1201 0
-2056 1186 0
-1201 -1186 2056 0
-2057 1202 0
-2057 1208 0
-1202 -1208 2057 0
-2058 1203 0
-2058 1219 0
-1203 -1219 2058 0
-2059 1204 0
-2059 1230 0
-1204 -1230 2059 0
-2060 1205 0
-2060 1241 0
-1205 -1241 2060 0
-171 -2051 0
-171 -2052 0
-171 -2053 0
-171 -2054 0
-171 -2055 0
-171 -2056 0
-171 -2057 0
-171 -2058 0
-171 -2059 0
-171 -2060 0
-1197 171 2051 2052 2053 2054 2055 2056 2057 2058 2059 2060 0
-195 1198 0
-2061 1195 0
-2061 1123 0
-1195 -1123 2061 0
-2062 1196 0
-2062 1122 0
-1196 -1122 2062 0
-2063 1197 0
-2063 1142 0
-1197 -1142 2063 0
-2064 1199 0
-2064 1165 0
-1199 -1165 2064 0
-2065 1200 0
-2065 1176 0
-1200 -1176 2065 0
-2066 1201 0
-2066 1187 0
-1201 -1187 2066 0
-2067 1202 0
-2067 1209 0
-1202 -1209 2067 0
-2068 1203 0
-2068 1220 0
-1203 -1220 2068 0
-2069 1204 0
-2069 1231 0
-1204 -1231 2069 0
-2070 1205 0
-2070 1242 0
-1205 -1242 2070 0
-195 -2061 0
-195 -2062 0
-195 -2063 0
-195 -2064 0
-195 -2065 0
-195 -2066 0
-195 -2067 0
-195 -2068 0
-195 -2069 0
-195 -2070 0
-1198 195 2061 2062 2063 2064 2065 2066 2067 2068 2069 2070 0
-219 1199 0
-2071 1195 0
-2071 1125 0
-1195 -1125 2071 0
-2072 1196 0
-2072 1124 0
-1196 -1124 2072 0
-2073 1197 0
-2073 1143 0
-1197 -1143 2073 0
-2074 1198 0
-2074 1154 0
-1198 -1154 2074 0
-2075 1200 0
-2075 1177 0
-1200 -1177 2075 0
-2076 1201 0
-2076 1188 0
-1201 -1188 2076 0
-2077 1202 0
-2077 1210 0
-1202 -1210 2077 0
-2078 1203 0
-2078 1221 0
-1203 -1221 2078 0
-2079 1204 0
-2079 1232 0
-1204 -1232 2079 0
-2080 1205 0
-2080 1243 0
-1205 -1243 2080 0
-219 -2071 0
-219 -2072 0
-219 -2073 0
-219 -2074 0
-219 -2075 0
-219 -2076 0
-219 -2077 0
-219 -2078 0
-219 -2079 0
-219 -2080 0
-1199 219 2071 2072 2073 2074 2075 2076 2077 2078 2079 2080 0
-243 1200 0
-2081 1195 0
-2081 1127 0
-1195 -1127 2081 0
-2082 1196 0
-2082 1126 0
-1196 -1126 2082 0
-2083 1197 0
-2083 1144 0
-1197 -1144 2083 0
-2084 1198 0
-2084 1155 0
-1198 -1155 2084 0
-2085 1199 0
-2085 1166 0
-1199 -1166 2085 0
-2086 1201 0
-2086 1189 0
-1201 -1189 2086 0
-2087 1202 0
-2087 1211 0
-1202 -1211 2087 0
-2088 1203 0
-2088 1222 0
-1203 -1222 2088 0
-2089 1204 0
-2089 1233 0
-1204 -1233 2089 0
-2090 1205 0
-2090 1244 0
-1205 -1244 2090 0
-243 -2081 0
-243 -2082 0
-243 -2083 0
-243 -2084 0
-243 -2085 0
-243 -2086 0
-243 -2087 0
-243 -2088 0
-243 -2089 0
-243 -2090 0
-1200 243 2081 2082 2083 2084 2085 2086 2087 2088 2089 2090 0
-267 1201 0
-2091 1195 0
-2091 1129 0
-1195 -1129 2091 0
-2092 1196 0
-2092 1128 0
-1196 -1128 2092 0
-2093 1197 0
-2093 1145 0
-1197 -1145 2093 0
-2094 1198 0
-2094 1156 0
-1198 -1156 2094 0
-2095 1199 0
-2095 1167 0
-1199 -1167 2095 0
-2096 1200 0
-2096 1178 0
-1200 -1178 2096 0
-2097 1202 0
-2097 1212 0
-1202 -1212 2097 0
-2098 1203 0
-2098 1223 0
-1203 -1223 2098 0
-2099 1204 0
-2099 1234 0
-1204 -1234 2099 0
-2100 1205 0
-2100 1245 0
-1205 -1245 2100 0
-267 -2091 0
-267 -2092 0
-267 -2093 0
-267 -2094 0
-267 -2095 0
-267 -2096 0
-267 -2097 0
-267 -2098 0
-267 -2099 0
-267 -2100 0
-1201 267 2091 2092 2093 2094 2095 2096 2097 2098 2099 2100 0
-291 0
-315 1202 0
-2101 1195 0
-2101 1133 0
-1195 -1133 2101 0
-2102 1196 0
-2102 1132 0
-1196 -1132 2102 0
-2103 1197 0
-2103 1147 0
-1197 -1147 2103 0
-2104 1198 0
-2104 1158 0
-1198 -1158 2104 0
-2105 1199 0
-2105 1169 0
-1199 -1169 2105 0
-2106 1200 0
-2106 1180 0
-1200 -1180 2106 0
-2107 1201 0
-2107 1191 0
-1201 -1191 2107 0
-2108 1203 0
-2108 1225 0
-1203 -1225 2108 0
-2109 1204 0
-2109 1236 0
-1204 -1236 2109 0
-2110 1205 0
-2110 1247 0
-1205 -1247 2110 0
-315 -2101 0
-315 -2102 0
-315 -2103 0
-315 -2104 0
-315 -2105 0
-315 -2106 0
-315 -2107 0
-315 -2108 0
-315 -2109 0
-315 -2110 0
-1202 315 2101 2102 2103 2104 2105 2106 2107 2108 2109 2110 0
-339 1203 0
-2111 1195 0
-2111 1135 0
-1195 -1135 2111 0
-2112 1196 0
-2112 1134 0
-1196 -1134 2112 0
-2113 1197 0
-2113 1148 0
-1197 -1148 2113 0
-2114 1198 0
-2114 1159 0
-1198 -1159 2114 0
-2115 1199 0
-2115 1170 0
-1199 -1170 2115 0
-2116 1200 0
-2116 1181 0
-1200 -1181 2116 0
-2117 1201 0
-2117 1192 0
-1201 -1192 2117 0
-2118 1202 0
-2118 1214 0
-1202 -1214 2118 0
-2119 1204 0
-2119 1237 0
-1204 -1237 2119 0
-2120 1205 0
-2120 1248 0
-1205 -1248 2120 0
-339 -2111 0
-339 -2112 0
-339 -2113 0
-339 -2114 0
-339 -2115 0
-339 -2116 0
-339 -2117 0
-339 -2118 0
-339 -2119 0
-339 -2120 0
-1203 339 2111 2112 2113 2114 2115 2116 2117 2118 2119 2120 0
-363 1204 0
-2121 1195 0
-2121 1137 0
-1195 -1137 2121 0
-2122 1196 0
-2122 1136 0
-1196 -1136 2122 0
-2123 1197 0
-2123 1149 0
-1197 -1149 2123 0
-2124 1198 0
-2124 1160 0
-1198 -1160 2124 0
-2125 1199 0
-2125 1171 0
-1199 -1171 2125 0
-2126 1200 0
-2126 1182 0
-1200 -1182 2126 0
-2127 1201 0
-2127 1193 0
-1201 -1193 2127 0
-2128 1202 0
-2128 1215 0
-1202 -1215 2128 0
-2129 1203 0
-2129 1226 0
-1203 -1226 2129 0
-2130 1205 0
-2130 1249 0
-1205 -1249 2130 0
-363 -2121 0
-363 -2122 0
-363 -2123 0
-363 -2124 0
-363 -2125 0
-363 -2126 0
-363 -2127 0
-363 -2128 0
-363 -2129 0
-363 -2130 0
-1204 363 2121 2122 2123 2124 2125 2126 2127 2128 2129 2130 0
-387 1205 0
-2131 1195 0
-2131 1139 0
-1195 -1139 2131 0
-2132 1196 0
-2132 1138 0
-1196 -1138 2132 0
-2133 1197 0
-2133 1150 0
-1197 -1150 2133 0
-2134 1198 0
-2134 1161 0
-1198 -1161 2134 0
-2135 1199 0
-2135 1172 0
-1199 -1172 2135 0
-2136 1200 0
-2136 1183 0
-1200 -1183 2136 0
-2137 1201 0
-2137 1194 0
-1201 -1194 2137 0
-2138 1202 0
-2138 1216 0
-1202 -1216 2138 0
-2139 1203 0
-2139 1227 0
-1203 -1227 2139 0
-2140 1204 0
-2140 1238 0
-1204 -1238 2140 0
-387 -2131 0
-387 -2132 0
-387 -2133 0
-387 -2134 0
-387 -2135 0
-387 -2136 0
-387 -2137 0
-387 -2138 0
-387 -2139 0
-387 -2140 0
-1205 387 2131 2132 2133 2134 2135 2136 2137 2138 2139 2140 0
-125 1206 0
-2141 1207 0
-2141 1119 0
-1207 -1119 2141 0
-2142 1208 0
-2142 1140 0
-1208 -1140 2142 0
-2143 1209 0
-2143 1151 0
-1209 -1151 2143 0
-2144 1210 0
-2144 1162 0
-1210 -1162 2144 0
-2145 1211 0
-2145 1173 0
-1211 -1173 2145 0
-2146 1212 0
-2146 1184 0
-1212 -1184 2146 0
-2147 1213 0
-2147 1195 0
-1213 -1195 2147 0
-2148 1214 0
-2148 1217 0
-1214 -1217 2148 0
-2149 1215 0
-2149 1228 0
-1215 -1228 2149 0
-2150 1216 0
-2150 1239 0
-1216 -1239 2150 0
-125 -2141 0
-125 -2142 0
-125 -2143 0
-125 -2144 0
-125 -2145 0
-125 -2146 0
-125 -2147 0
-125 -2148 0
-125 -2149 0
-125 -2150 0
-1206 125 2141 2142 2143 2144 2145 2146 2147 2148 2149 2150 0
-149 1207 0
-2151 1206 0
-2151 1118 0
-1206 -1118 2151 0
-2152 1208 0
-2152 1141 0
-1208 -1141 2152 0
-2153 1209 0
-2153 1152 0
-1209 -1152 2153 0
-2154 1210 0
-2154 1163 0
-1210 -1163 2154 0
-2155 1211 0
-2155 1174 0
-1211 -1174 2155 0
-2156 1212 0
-2156 1185 0
-1212 -1185 2156 0
-2157 1213 0
-2157 1196 0
-1213 -1196 2157 0
-2158 1214 0
-2158 1218 0
-1214 -1218 2158 0
-2159 1215 0
-2159 1229 0
-1215 -1229 2159 0
-2160 1216 0
-2160 1240 0
-1216 -1240 2160 0
-149 -2151 0
-149 -2152 0
-149 -2153 0
-149 -2154 0
-149 -2155 0
-149 -2156 0
-149 -2157 0
-149 -2158 0
-149 -2159 0
-149 -2160 0
-1207 149 2151 2152 2153 2154 2155 2156 2157 2158 2159 2160 0
-173 1208 0
-2161 1206 0
-2161 1121 0
-1206 -1121 2161 0
-2162 1207 0
-2162 1120 0
-1207 -1120 2162 0
-2163 1209 0
-2163 1153 0
-1209 -1153 2163 0
-2164 1210 0
-2164 1164 0
-1210 -1164 2164 0
-2165 1211 0
-2165 1175 0
-1211 -1175 2165 0
-2166 1212 0
-2166 1186 0
-1212 -1186 2166 0
-2167 1213 0
-2167 1197 0
-1213 -1197 2167 0
-2168 1214 0
-2168 1219 0
-1214 -1219 2168 0
-2169 1215 0
-2169 1230 0
-1215 -1230 2169 0
-2170 1216 0
-2170 1241 0
-1216 -1241 2170 0
-173 -2161 0
-173 -2162 0
-173 -2163 0
-173 -2164 0
-173 -2165 0
-173 -2166 0
-173 -2167 0
-173 -2168 0
-173 -2169 0
-173 -2170 0
-1208 173 2161 2162 2163 2164 2165 2166 2167 2168 2169 2170 0
-197 1209 0
-2171 1206 0
-2171 1123 0
-1206 -1123 2171 0
-2172 1207 0
-2172 1122 0
-1207 -1122 2172 0
-2173 1208 0
-2173 1142 0
-1208 -1142 2173 0
-2174 1210 0
-2174 1165 0
-1210 -1165 2174 0
-2175 1211 0
-2175 1176 0
-1211 -1176 2175 0
-2176 1212 0
-2176 1187 0
-1212 -1187 2176 0
-2177 1213 0
-2177 1198 0
-1213 -1198 2177 0
-2178 1214 0
-2178 1220 0
-1214 -1220 2178 0
-2179 1215 0
-2179 1231 0
-1215 -1231 2179 0
-2180 1216 0
-2180 1242 0
-1216 -1242 2180 0
-197 -2171 0
-197 -2172 0
-197 -2173 0
-197 -2174 0
-197 -2175 0
-197 -2176 0
-197 -2177 0
-197 -2178 0
-197 -2179 0
-197 -2180 0
-1209 197 2171 2172 2173 2174 2175 2176 2177 2178 2179 2180 0
-221 1210 0
-2181 1206 0
-2181 1125 0
-1206 -1125 2181 0
-2182 1207 0
-2182 1124 0
-1207 -1124 2182 0
-2183 1208 0
-2183 1143 0
-1208 -1143 2183 0
-2184 1209 0
-2184 1154 0
-1209 -1154 2184 0
-2185 1211 0
-2185 1177 0
-1211 -1177 2185 0
-2186 1212 0
-2186 1188 0
-1212 -1188 2186 0
-2187 1213 0
-2187 1199 0
-1213 -1199 2187 0
-2188 1214 0
-2188 1221 0
-1214 -1221 2188 0
-2189 1215 0
-2189 1232 0
-1215 -1232 2189 0
-2190 1216 0
-2190 1243 0
-1216 -1243 2190 0
-221 -2181 0
-221 -2182 0
-221 -2183 0
-221 -2184 0
-221 -2185 0
-221 -2186 0
-221 -2187 0
-221 -2188 0
-221 -2189 0
-221 -2190 0
-1210 221 2181 2182 2183 2184 2185 2186 2187 2188 2189 2190 0
-245 1211 0
-2191 1206 0
-2191 1127 0
-1206 -1127 2191 0
-2192 1207 0
-2192 1126 0
-1207 -1126 2192 0
-2193 1208 0
-2193 1144 0
-1208 -1144 2193 0
-2194 1209 0
-2194 1155 0
-1209 -1155 2194 0
-2195 1210 0
-2195 1166 0
-1210 -1166 2195 0
-2196 1212 0
-2196 1189 0
-1212 -1189 2196 0
-2197 1213 0
-2197 1200 0
-1213 -1200 2197 0
-2198 1214 0
-2198 1222 0
-1214 -1222 2198 0
-2199 1215 0
-2199 1233 0
-1215 -1233 2199 0
-2200 1216 0
-2200 1244 0
-1216 -1244 2200 0
-245 -2191 0
-245 -2192 0
-245 -2193 0
-245 -2194 0
-245 -2195 0
-245 -2196 0
-245 -2197 0
-245 -2198 0
-245 -2199 0
-245 -2200 0
-1211 245 2191 2192 2193 2194 2195 2196 2197 2198 2199 2200 0
-269 1212 0
-2201 1206 0
-2201 1129 0
-1206 -1129 2201 0
-2202 1207 0
-2202 1128 0
-1207 -1128 2202 0
-2203 1208 0
-2203 1145 0
-1208 -1145 2203 0
-2204 1209 0
-2204 1156 0
-1209 -1156 2204 0
-2205 1210 0
-2205 1167 0
-1210 -1167 2205 0
-2206 1211 0
-2206 1178 0
-1211 -1178 2206 0
-2207 1213 0
-2207 1201 0
-1213 -1201 2207 0
-2208 1214 0
-2208 1223 0
-1214 -1223 2208 0
-2209 1215 0
-2209 1234 0
-1215 -1234 2209 0
-2210 1216 0
-2210 1245 0
-1216 -1245 2210 0
-269 -2201 0
-269 -2202 0
-269 -2203 0
-269 -2204 0
-269 -2205 0
-269 -2206 0
-269 -2207 0
-269 -2208 0
-269 -2209 0
-269 -2210 0
-1212 269 2201 2202 2203 2204 2205 2206 2207 2208 2209 2210 0
-293 1213 0
-2211 1206 0
-2211 1131 0
-1206 -1131 2211 0
-2212 1207 0
-2212 1130 0
-1207 -1130 2212 0
-2213 1208 0
-2213 1146 0
-1208 -1146 2213 0
-2214 1209 0
-2214 1157 0
-1209 -1157 2214 0
-2215 1210 0
-2215 1168 0
-1210 -1168 2215 0
-2216 1211 0
-2216 1179 0
-1211 -1179 2216 0
-2217 1212 0
-2217 1190 0
-1212 -1190 2217 0
-2218 1214 0
-2218 1224 0
-1214 -1224 2218 0
-2219 1215 0
-2219 1235 0
-1215 -1235 2219 0
-2220 1216 0
-2220 1246 0
-1216 -1246 2220 0
-293 -2211 0
-293 -2212 0
-293 -2213 0
-293 -2214 0
-293 -2215 0
-293 -2216 0
-293 -2217 0
-293 -2218 0
-293 -2219 0
-293 -2220 0
-1213 293 2211 2212 2213 2214 2215 2216 2217 2218 2219 2220 0
-317 0
-341 1214 0
-2221 1206 0
-2221 1135 0
-1206 -1135 2221 0
-2222 1207 0
-2222 1134 0
-1207 -1134 2222 0
-2223 1208 0
-2223 1148 0
-1208 -1148 2223 0
-2224 1209 0
-2224 1159 0
-1209 -1159 2224 0
-2225 1210 0
-2225 1170 0
-1210 -1170 2225 0
-2226 1211 0
-2226 1181 0
-1211 -1181 2226 0
-2227 1212 0
-2227 1192 0
-1212 -1192 2227 0
-2228 1213 0
-2228 1203 0
-1213 -1203 2228 0
-2229 1215 0
-2229 1237 0
-1215 -1237 2229 0
-2230 1216 0
-2230 1248 0
-1216 -1248 2230 0
-341 -2221 0
-341 -2222 0
-341 -2223 0
-341 -2224 0
-341 -2225 0
-341 -2226 0
-341 -2227 0
-341 -2228 0
-341 -2229 0
-341 -2230 0
-1214 341 2221 2222 2223 2224 2225 2226 2227 2228 2229 2230 0
-365 1215 0
-2231 1206 0
-2231 1137 0
-1206 -1137 2231 0
-2232 1207 0
-2232 1136 0
-1207 -1136 2232 0
-2233 1208 0
-2233 1149 0
-1208 -1149 2233 0
-2234 1209 0
-2234 1160 0
-1209 -1160 2234 0
-2235 1210 0
-2235 1171 0
-1210 -1171 2235 0
-2236 1211 0
-2236 1182 0
-1211 -1182 2236 0
-2237 1212 0
-2237 1193 0
-1212 -1193 2237 0
-2238 1213 0
-2238 1204 0
-1213 -1204 2238 0
-2239 1214 0
-2239 1226 0
-1214 -1226 2239 0
-2240 1216 0
-2240 1249 0
-1216 -1249 2240 0
-365 -2231 0
-365 -2232 0
-365 -2233 0
-365 -2234 0
-365 -2235 0
-365 -2236 0
-365 -2237 0
-365 -2238 0
-365 -2239 0
-365 -2240 0
-1215 365 2231 2232 2233 2234 2235 2236 2237 2238 2239 2240 0
-389 1216 0
-2241 1206 0
-2241 1139 0
-1206 -1139 2241 0
-2242 1207 0
-2242 1138 0
-1207 -1138 2242 0
-2243 1208 0
-2243 1150 0
-1208 -1150 2243 0
-2244 1209 0
-2244 1161 0
-1209 -1161 2244 0
-2245 1210 0
-2245 1172 0
-1210 -1172 2245 0
-2246 1211 0
-2246 1183 0
-1211 -1183 2246 0
-2247 1212 0
-2247 1194 0
-1212 -1194 2247 0
-2248 1213 0
-2248 1205 0
-1213 -1205 2248 0
-2249 1214 0
-2249 1227 0
-1214 -1227 2249 0
-2250 1215 0
-2250 1238 0
-1215 -1238 2250 0
-389 -2241 0
-389 -2242 0
-389 -2243 0
-389 -2244 0
-389 -2245 0
-389 -2246 0
-389 -2247 0
-389 -2248 0
-389 -2249 0
-389 -2250 0
-1216 389 2241 2242 2243 2244 2245 2246 2247 2248 2249 2250 0
-127 1217 0
-2251 1218 0
-2251 1119 0
-1218 -1119 2251 0
-2252 1219 0
-2252 1140 0
-1219 -1140 2252 0
-2253 1220 0
-2253 1151 0
-1220 -1151 2253 0
-2254 1221 0
-2254 1162 0
-1221 -1162 2254 0
-2255 1222 0
-2255 1173 0
-1222 -1173 2255 0
-2256 1223 0
-2256 1184 0
-1223 -1184 2256 0
-2257 1224 0
-2257 1195 0
-1224 -1195 2257 0
-2258 1225 0
-2258 1206 0
-1225 -1206 2258 0
-2259 1226 0
-2259 1228 0
-1226 -1228 2259 0
-2260 1227 0
-2260 1239 0
-1227 -1239 2260 0
-127 -2251 0
-127 -2252 0
-127 -2253 0
-127 -2254 0
-127 -2255 0
-127 -2256 0
-127 -2257 0
-127 -2258 0
-127 -2259 0
-127 -2260 0
-1217 127 2251 2252 2253 2254 2255 2256 2257 2258 2259 2260 0
-151 1218 0
-2261 1217 0
-2261 1118 0
-1217 -1118 2261 0
-2262 1219 0
-2262 1141 0
-1219 -1141 2262 0
-2263 1220 0
-2263 1152 0
-1220 -1152 2263 0
-2264 1221 0
-2264 1163 0
-1221 -1163 2264 0
-2265 1222 0
-2265 1174 0
-1222 -1174 2265 0
-2266 1223 0
-2266 1185 0
-1223 -1185 2266 0
-2267 1224 0
-2267 1196 0
-1224 -1196 2267 0
-2268 1225 0
-2268 1207 0
-1225 -1207 2268 0
-2269 1226 0
-2269 1229 0
-1226 -1229 2269 0
-2270 1227 0
-2270 1240 0
-1227 -1240 2270 0
-151 -2261 0
-151 -2262 0
-151 -2263 0
-151 -2264 0
-151 -2265 0
-151 -2266 0
-151 -2267 0
-151 -2268 0
-151 -2269 0
-151 -2270 0
-1218 151 2261 2262 2263 2264 2265 2266 2267 2268 2269 2270 0
-175 1219 0
-2271 1217 0
-2271 1121 0
-1217 -1121 2271 0
-2272 1218 0
-2272 1120 0
-1218 -1120 2272 0
-2273 1220 0
-2273 1153 0
-1220 -1153 2273 0
-2274 1221 0
-2274 1164 0
-1221 -1164 2274 0
-2275 1222 0
-2275 1175 0
-1222 -1175 2275 0
-2276 1223 0
-2276 1186 0
-1223 -1186 2276 0
-2277 1224 0
-2277 1197 0
-1224 -1197 2277 0
-2278 1225 0
-2278 1208 0
-1225 -1208 2278 0
-2279 1226 0
-2279 1230 0
-1226 -1230 2279 0
-2280 1227 0
-2280 1241 0
-1227 -1241 2280 0
-175 -2271 0
-175 -2272 0
-175 -2273 0
-175 -2274 0
-175 -2275 0
-175 -2276 0
-175 -2277 0
-175 -2278 0
-175 -2279 0
-175 -2280 0
-1219 175 2271 2272 2273 2274 2275 2276 2277 2278 2279 2280 0
-199 1220 0
-2281 1217 0
-2281 1123 0
-1217 -1123 2281 0
-2282 1218 0
-2282 1122 0
-1218 -1122 2282 0
-2283 1219 0
-2283 1142 0
-1219 -1142 2283 0
-2284 1221 0
-2284 1165 0
-1221 -1165 2284 0
-2285 1222 0
-2285 1176 0
-1222 -1176 2285 0
-2286 1223 0
-2286 1187 0
-1223 -1187 2286 0
-2287 1224 0
-2287 1198 0
-1224 -1198 2287 0
-2288 1225 0
-2288 1209 0
-1225 -1209 2288 0
-2289 1226 0
-2289 1231 0
-1226 -1231 2289 0
-2290 1227 0
-2290 1242 0
-1227 -1242 2290 0
-199 -2281 0
-199 -2282 0
-199 -2283 0
-199 -2284 0
-199 -2285 0
-199 -2286 0
-199 -2287 0
-199 -2288 0
-199 -2289 0
-199 -2290 0
-1220 199 2281 2282 2283 2284 2285 2286 2287 2288 2289 2290 0
-223 1221 0
-2291 1217 0
-2291 1125 0
-1217 -1125 2291 0
-2292 1218 0
-2292 1124 0
-1218 -1124 2292 0
-2293 1219 0
-2293 1143 0
-1219 -1143 2293 0
-2294 1220 0
-2294 1154 0
-1220 -1154 2294 0
-2295 1222 0
-2295 1177 0
-1222 -1177 2295 0
-2296 1223 0
-2296 1188 0
-1223 -1188 2296 0
-2297 1224 0
-2297 1199 0
-1224 -1199 2297 0
-2298 1225 0
-2298 1210 0
-1225 -1210 2298 0
-2299 1226 0
-2299 1232 0
-1226 -1232 2299 0
-2300 1227 0
-2300 1243 0
-1227 -1243 2300 0
-223 -2291 0
-223 -2292 0
-223 -2293 0
-223 -2294 0
-223 -2295 0
-223 -2296 0
-223 -2297 0
-223 -2298 0
-223 -2299 0
-223 -2300 0
-1221 223 2291 2292 2293 2294 2295 2296 2297 2298 2299 2300 0
-247 1222 0
-2301 1217 0
-2301 1127 0
-1217 -1127 2301 0
-2302 1218 0
-2302 1126 0
-1218 -1126 2302 0
-2303 1219 0
-2303 1144 0
-1219 -1144 2303 0
-2304 1220 0
-2304 1155 0
-1220 -1155 2304 0
-2305 1221 0
-2305 1166 0
-1221 -1166 2305 0
-2306 1223 0
-2306 1189 0
-1223 -1189 2306 0
-2307 1224 0
-2307 1200 0
-1224 -1200 2307 0
-2308 1225 0
-2308 1211 0
-1225 -1211 2308 0
-2309 1226 0
-2309 1233 0
-1226 -1233 2309 0
-2310 1227 0
-2310 1244 0
-1227 -1244 2310 0
-247 -2301 0
-247 -2302 0
-247 -2303 0
-247 -2304 0
-247 -2305 0
-247 -2306 0
-247 -2307 0
-247 -2308 0
-247 -2309 0
-247 -2310 0
-1222 247 2301 2302 2303 2304 2305 2306 2307 2308 2309 2310 0
-271 1223 0
-2311 1217 0
-2311 1129 0
-1217 -1129 2311 0
-2312 1218 0
-2312 1128 0
-1218 -1128 2312 0
-2313 1219 0
-2313 1145 0
-1219 -1145 2313 0
-2314 1220 0
-2314 1156 0
-1220 -1156 2314 0
-2315 1221 0
-2315 1167 0
-1221 -1167 2315 0
-2316 1222 0
-2316 1178 0
-1222 -1178 2316 0
-2317 1224 0
-2317 1201 0
-1224 -1201 2317 0
-2318 1225 0
-2318 1212 0
-1225 -1212 2318 0
-2319 1226 0
-2319 1234 0
-1226 -1234 2319 0
-2320 1227 0
-2320 1245 0
-1227 -1245 2320 0
-271 -2311 0
-271 -2312 0
-271 -2313 0
-271 -2314 0
-271 -2315 0
-271 -2316 0
-271 -2317 0
-271 -2318 0
-271 -2319 0
-271 -2320 0
-1223 271 2311 2312 2313 2314 2315 2316 2317 2318 2319 2320 0
-295 1224 0
-2321 1217 0
-2321 1131 0
-1217 -1131 2321 0
-2322 1218 0
-2322 1130 0
-1218 -1130 2322 0
-2323 1219 0
-2323 1146 0
-1219 -1146 2323 0
-2324 1220 0
-2324 1157 0
-1220 -1157 2324 0
-2325 1221 0
-2325 1168 0
-1221 -1168 2325 0
-2326 1222 0
-2326 1179 0
-1222 -1179 2326 0
-2327 1223 0
-2327 1190 0
-1223 -1190 2327 0
-2328 1225 0
-2328 1213 0
-1225 -1213 2328 0
-2329 1226 0
-2329 1235 0
-1226 -1235 2329 0
-2330 1227 0
-2330 1246 0
-1227 -1246 2330 0
-295 -2321 0
-295 -2322 0
-295 -2323 0
-295 -2324 0
-295 -2325 0
-295 -2326 0
-295 -2327 0
-295 -2328 0
-295 -2329 0
-295 -2330 0
-1224 295 2321 2322 2323 2324 2325 2326 2327 2328 2329 2330 0
-319 1225 0
-2331 1217 0
-2331 1133 0
-1217 -1133 2331 0
-2332 1218 0
-2332 1132 0
-1218 -1132 2332 0
-2333 1219 0
-2333 1147 0
-1219 -1147 2333 0
-2334 1220 0
-2334 1158 0
-1220 -1158 2334 0
-2335 1221 0
-2335 1169 0
-1221 -1169 2335 0
-2336 1222 0
-2336 1180 0
-1222 -1180 2336 0
-2337 1223 0
-2337 1191 0
-1223 -1191 2337 0
-2338 1224 0
-2338 1202 0
-1224 -1202 2338 0
-2339 1226 0
-2339 1236 0
-1226 -1236 2339 0
-2340 1227 0
-2340 1247 0
-1227 -1247 2340 0
-319 -2331 0
-319 -2332 0
-319 -2333 0
-319 -2334 0
-319 -2335 0
-319 -2336 0
-319 -2337 0
-319 -2338 0
-319 -2339 0
-319 -2340 0
-1225 319 2331 2332 2333 2334 2335 2336 2337 2338 2339 2340 0
-343 0
-367 1226 0
-2341 1217 0
-2341 1137 0
-1217 -1137 2341 0
-2342 1218 0
-2342 1136 0
-1218 -1136 2342 0
-2343 1219 0
-2343 1149 0
-1219 -1149 2343 0
-2344 1220 0
-2344 1160 0
-1220 -1160 2344 0
-2345 1221 0
-2345 1171 0
-1221 -1171 2345 0
-2346 1222 0
-2346 1182 0
-1222 -1182 2346 0
-2347 1223 0
-2347 1193 0
-1223 -1193 2347 0
-2348 1224 0
-2348 1204 0
-1224 -1204 2348 0
-2349 1225 0
-2349 1215 0
-1225 -1215 2349 0
-2350 1227 0
-2350 1249 0
-1227 -1249 2350 0
-367 -2341 0
-367 -2342 0
-367 -2343 0
-367 -2344 0
-367 -2345 0
-367 -2346 0
-367 -2347 0
-367 -2348 0
-367 -2349 0
-367 -2350 0
-1226 367 2341 2342 2343 2344 2345 2346 2347 2348 2349 2350 0
-391 1227 0
-2351 1217 0
-2351 1139 0
-1217 -1139 2351 0
-2352 1218 0
-2352 1138 0
-1218 -1138 2352 0
-2353 1219 0
-2353 1150 0
-1219 -1150 2353 0
-2354 1220 0
-2354 1161 0
-1220 -1161 2354 0
-2355 1221 0
-2355 1172 0
-1221 -1172 2355 0
-2356 1222 0
-2356 1183 0
-1222 -1183 2356 0
-2357 1223 0
-2357 1194 0
-1223 -1194 2357 0
-2358 1224 0
-2358 1205 0
-1224 -1205 2358 0
-2359 1225 0
-2359 1216 0
-1225 -1216 2359 0
-2360 1226 0
-2360 1238 0
-1226 -1238 2360 0
-391 -2351 0
-391 -2352 0
-391 -2353 0
-391 -2354 0
-391 -2355 0
-391 -2356 0
-391 -2357 0
-391 -2358 0
-391 -2359 0
-391 -2360 0
-1227 391 2351 2352 2353 2354 2355 2356 2357 2358 2359 2360 0
-129 1228 0
-2361 1229 0
-2361 1119 0
-1229 -1119 2361 0
-2362 1230 0
-2362 1140 0
-1230 -1140 2362 0
-2363 1231 0
-2363 1151 0
-1231 -1151 2363 0
-2364 1232 0
-2364 1162 0
-1232 -1162 2364 0
-2365 1233 0
-2365 1173 0
-1233 -1173 2365 0
-2366 1234 0
-2366 1184 0
-1234 -1184 2366 0
-2367 1235 0
-2367 1195 0
-1235 -1195 2367 0
-2368 1236 0
-2368 1206 0
-1236 -1206 2368 0
-2369 1237 0
-2369 1217 0
-1237 -1217 2369 0
-2370 1238 0
-2370 1239 0
-1238 -1239 2370 0
-129 -2361 0
-129 -2362 0
-129 -2363 0
-129 -2364 0
-129 -2365 0
-129 -2366 0
-129 -2367 0
-129 -2368 0
-129 -2369 0
-129 -2370 0
-1228 129 2361 2362 2363 2364 2365 2366 2367 2368 2369 2370 0
-153 1229 0
-2371 1228 0
-2371 1118 0
-1228 -1118 2371 0
-2372 1230 0
-2372 1141 0
-1230 -1141 2372 0
-2373 1231 0
-2373 1152 0
-1231 -1152 2373 0
-2374 1232 0
-2374 1163 0
-1232 -1163 2374 0
-2375 1233 0
-2375 1174 0
-1233 -1174 2375 0
-2376 1234 0
-2376 1185 0
-1234 -1185 2376 0
-2377 1235 0
-2377 1196 0
-1235 -1196 2377 0
-2378 1236 0
-2378 1207 0
-1236 -1207 2378 0
-2379 1237 0
-2379 1218 0
-1237 -1218 2379 0
-2380 1238 0
-2380 1240 0
-1238 -1240 2380 0
-153 -2371 0
-153 -2372 0
-153 -2373 0
-153 -2374 0
-153 -2375 0
-153 -2376 0
-153 -2377 0
-153 -2378 0
-153 -2379 0
-153 -2380 0
-1229 153 2371 2372 2373 2374 2375 2376 2377 2378 2379 2380 0
-177 1230 0
-2381 1228 0
-2381 1121 0
-1228 -1121 2381 0
-2382 1229 0
-2382 1120 0
-1229 -1120 2382 0
-2383 1231 0
-2383 1153 0
-1231 -1153 2383 0
-2384 1232 0
-2384 1164 0
-1232 -1164 2384 0
-2385 1233 0
-2385 1175 0
-1233 -1175 2385 0
-2386 1234 0
-2386 1186 0
-1234 -1186 2386 0
-2387 1235 0
-2387 1197 0
-1235 -1197 2387 0
-2388 1236 0
-2388 1208 0
-1236 -1208 2388 0
-2389 1237 0
-2389 1219 0
-1237 -1219 2389 0
-2390 1238 0
-2390 1241 0
-1238 -1241 2390 0
-177 -2381 0
-177 -2382 0
-177 -2383 0
-177 -2384 0
-177 -2385 0
-177 -2386 0
-177 -2387 0
-177 -2388 0
-177 -2389 0
-177 -2390 0
-1230 177 2381 2382 2383 2384 2385 2386 2387 2388 2389 2390 0
-201 1231 0
-2391 1228 0
-2391 1123 0
-1228 -1123 2391 0
-2392 1229 0
-2392 1122 0
-1229 -1122 2392 0
-2393 1230 0
-2393 1142 0
-1230 -1142 2393 0
-2394 1232 0
-2394 1165 0
-1232 -1165 2394 0
-2395 1233 0
-2395 1176 0
-1233 -1176 2395 0
-2396 1234 0
-2396 1187 0
-1234 -1187 2396 0
-2397 1235 0
-2397 1198 0
-1235 -1198 2397 0
-2398 1236 0
-2398 1209 0
-1236 -1209 2398 0
-2399 1237 0
-2399 1220 0
-1237 -1220 2399 0
-2400 1238 0
-2400 1242 0
-1238 -1242 2400 0
-201 -2391 0
-201 -2392 0
-201 -2393 0
-201 -2394 0
-201 -2395 0
-201 -2396 0
-201 -2397 0
-201 -2398 0
-201 -2399 0
-201 -2400 0
-1231 201 2391 2392 2393 2394 2395 2396 2397 2398 2399 2400 0
-225 1232 0
-2401 1228 0
-2401 1125 0
-1228 -1125 2401 0
-2402 1229 0
-2402 1124 0
-1229 -1124 2402 0
-2403 1230 0
-2403 1143 0
-1230 -1143 2403 0
-2404 1231 0
-2404 1154 0
-1231 -1154 2404 0
-2405 1233 0
-2405 1177 0
-1233 -1177 2405 0
-2406 1234 0
-2406 1188 0
-1234 -1188 2406 0
-2407 1235 0
-2407 1199 0
-1235 -1199 2407 0
-2408 1236 0
-2408 1210 0
-1236 -1210 2408 0
-2409 1237 0
-2409 1221 0
-1237 -1221 2409 0
-2410 1238 0
-2410 1243 0
-1238 -1243 2410 0
-225 -2401 0
-225 -2402 0
-225 -2403 0
-225 -2404 0
-225 -2405 0
-225 -2406 0
-225 -2407 0
-225 -2408 0
-225 -2409 0
-225 -2410 0
-1232 225 2401 2402 2403 2404 2405 2406 2407 2408 2409 2410 0
-249 1233 0
-2411 1228 0
-2411 1127 0
-1228 -1127 2411 0
-2412 1229 0
-2412 1126 0
-1229 -1126 2412 0
-2413 1230 0
-2413 1144 0
-1230 -1144 2413 0
-2414 1231 0
-2414 1155 0
-1231 -1155 2414 0
-2415 1232 0
-2415 1166 0
-1232 -1166 2415 0
-2416 1234 0
-2416 1189 0
-1234 -1189 2416 0
-2417 1235 0
-2417 1200 0
-1235 -1200 2417 0
-2418 1236 0
-2418 1211 0
-1236 -1211 2418 0
-2419 1237 0
-2419 1222 0
-1237 -1222 2419 0
-2420 1238 0
-2420 1244 0
-1238 -1244 2420 0
-249 -2411 0
-249 -2412 0
-249 -2413 0
-249 -2414 0
-249 -2415 0
-249 -2416 0
-249 -2417 0
-249 -2418 0
-249 -2419 0
-249 -2420 0
-1233 249 2411 2412 2413 2414 2415 2416 2417 2418 2419 2420 0
-273 1234 0
-2421 1228 0
-2421 1129 0
-1228 -1129 2421 0
-2422 1229 0
-2422 1128 0
-1229 -1128 2422 0
-2423 1230 0
-2423 1145 0
-1230 -1145 2423 0
-2424 1231 0
-2424 1156 0
-1231 -1156 2424 0
-2425 1232 0
-2425 1167 0
-1232 -1167 2425 0
-2426 1233 0
-2426 1178 0
-1233 -1178 2426 0
-2427 1235 0
-2427 1201 0
-1235 -1201 2427 0
-2428 1236 0
-2428 1212 0
-1236 -1212 2428 0
-2429 1237 0
-2429 1223 0
-1237 -1223 2429 0
-2430 1238 0
-2430 1245 0
-1238 -1245 2430 0
-273 -2421 0
-273 -2422 0
-273 -2423 0
-273 -2424 0
-273 -2425 0
-273 -2426 0
-273 -2427 0
-273 -2428 0
-273 -2429 0
-273 -2430 0
-1234 273 2421 2422 2423 2424 2425 2426 2427 2428 2429 2430 0
-297 1235 0
-2431 1228 0
-2431 1131 0
-1228 -1131 2431 0
-2432 1229 0
-2432 1130 0
-1229 -1130 2432 0
-2433 1230 0
-2433 1146 0
-1230 -1146 2433 0
-2434 1231 0
-2434 1157 0
-1231 -1157 2434 0
-2435 1232 0
-2435 1168 0
-1232 -1168 2435 0
-2436 1233 0
-2436 1179 0
-1233 -1179 2436 0
-2437 1234 0
-2437 1190 0
-1234 -1190 2437 0
-2438 1236 0
-2438 1213 0
-1236 -1213 2438 0
-2439 1237 0
-2439 1224 0
-1237 -1224 2439 0
-2440 1238 0
-2440 1246 0
-1238 -1246 2440 0
-297 -2431 0
-297 -2432 0
-297 -2433 0
-297 -2434 0
-297 -2435 0
-297 -2436 0
-297 -2437 0
-297 -2438 0
-297 -2439 0
-297 -2440 0
-1235 297 2431 2432 2433 2434 2435 2436 2437 2438 2439 2440 0
-321 1236 0
-2441 1228 0
-2441 1133 0
-1228 -1133 2441 0
-2442 1229 0
-2442 1132 0
-1229 -1132 2442 0
-2443 1230 0
-2443 1147 0
-1230 -1147 2443 0
-2444 1231 0
-2444 1158 0
-1231 -1158 2444 0
-2445 1232 0
-2445 1169 0
-1232 -1169 2445 0
-2446 1233 0
-2446 1180 0
-1233 -1180 2446 0
-2447 1234 0
-2447 1191 0
-1234 -1191 2447 0
-2448 1235 0
-2448 1202 0
-1235 -1202 2448 0
-2449 1237 0
-2449 1225 0
-1237 -1225 2449 0
-2450 1238 0
-2450 1247 0
-1238 -1247 2450 0
-321 -2441 0
-321 -2442 0
-321 -2443 0
-321 -2444 0
-321 -2445 0
-321 -2446 0
-321 -2447 0
-321 -2448 0
-321 -2449 0
-321 -2450 0
-1236 321 2441 2442 2443 2444 2445 2446 2447 2448 2449 2450 0
-345 1237 0
-2451 1228 0
-2451 1135 0
-1228 -1135 2451 0
-2452 1229 0
-2452 1134 0
-1229 -1134 2452 0
-2453 1230 0
-2453 1148 0
-1230 -1148 2453 0
-2454 1231 0
-2454 1159 0
-1231 -1159 2454 0
-2455 1232 0
-2455 1170 0
-1232 -1170 2455 0
-2456 1233 0
-2456 1181 0
-1233 -1181 2456 0
-2457 1234 0
-2457 1192 0
-1234 -1192 2457 0
-2458 1235 0
-2458 1203 0
-1235 -1203 2458 0
-2459 1236 0
-2459 1214 0
-1236 -1214 2459 0
-2460 1238 0
-2460 1248 0
-1238 -1248 2460 0
-345 -2451 0
-345 -2452 0
-345 -2453 0
-345 -2454 0
-345 -2455 0
-345 -2456 0
-345 -2457 0
-345 -2458 0
-345 -2459 0
-345 -2460 0
-1237 345 2451 2452 2453 2454 2455 2456 2457 2458 2459 2460 0
-369 0
-393 1238 0
-2461 1228 0
-2461 1139 0
-1228 -1139 2461 0
-2462 1229 0
-2462 1138 0
-1229 -1138 2462 0
-2463 1230 0
-2463 1150 0
-1230 -1150 2463 0
-2464 1231 0
-2464 1161 0
-1231 -1161 2464 0
-2465 1232 0
-2465 1172 0
-1232 -1172 2465 0
-2466 1233 0
-2466 1183 0
-1233 -1183 2466 0
-2467 1234 0
-2467 1194 0
-1234 -1194 2467 0
-2468 1235 0
-2468 1205 0
-1235 -1205 2468 0
-2469 1236 0
-2469 1216 0
-1236 -1216 2469 0
-2470 1237 0
-2470 1227 0
-1237 -1227 2470 0
-393 -2461 0
-393 -2462 0
-393 -2463 0
-393 -2464 0
-393 -2465 0
-393 -2466 0
-393 -2467 0
-393 -2468 0
-393 -2469 0
-393 -2470 0
-1238 393 2461 2462 2463 2464 2465 2466 2467 2468 2469 2470 0
-131 1239 0
-2471 1240 0
-2471 1119 0
-1240 -1119 2471 0
-2472 1241 0
-2472 1140 0
-1241 -1140 2472 0
-2473 1242 0
-2473 1151 0
-1242 -1151 2473 0
-2474 1243 0
-2474 1162 0
-1243 -1162 2474 0
-2475 1244 0
-2475 1173 0
-1244 -1173 2475 0
-2476 1245 0
-2476 1184 0
-1245 -1184 2476 0
-2477 1246 0
-2477 1195 0
-1246 -1195 2477 0
-2478 1247 0
-2478 1206 0
-1247 -1206 2478 0
-2479 1248 0
-2479 1217 0
-1248 -1217 2479 0
-2480 1249 0
-2480 1228 0
-1249 -1228 2480 0
-131 -2471 0
-131 -2472 0
-131 -2473 0
-131 -2474 0
-131 -2475 0
-131 -2476 0
-131 -2477 0
-131 -2478 0
-131 -2479 0
-131 -2480 0
-1239 131 2471 2472 2473 2474 2475 2476 2477 2478 2479 2480 0
-155 1240 0
-2481 1239 0
-2481 1118 0
-1239 -1118 2481 0
-2482 1241 0
-2482 1141 0
-1241 -1141 2482 0
-2483 1242 0
-2483 1152 0
-1242 -1152 2483 0
-2484 1243 0
-2484 1163 0
-1243 -1163 2484 0
-2485 1244 0
-2485 1174 0
-1244 -1174 2485 0
-2486 1245 0
-2486 1185 0
-1245 -1185 2486 0
-2487 1246 0
-2487 1196 0
-1246 -1196 2487 0
-2488 1247 0
-2488 1207 0
-1247 -1207 2488 0
-2489 1248 0
-2489 1218 0
-1248 -1218 2489 0
-2490 1249 0
-2490 1229 0
-1249 -1229 2490 0
-155 -2481 0
-155 -2482 0
-155 -2483 0
-155 -2484 0
-155 -2485 0
-155 -2486 0
-155 -2487 0
-155 -2488 0
-155 -2489 0
-155 -2490 0
-1240 155 2481 2482 2483 2484 2485 2486 2487 2488 2489 2490 0
-179 1241 0
-2491 1239 0
-2491 1121 0
-1239 -1121 2491 0
-2492 1240 0
-2492 1120 0
-1240 -1120 2492 0
-2493 1242 0
-2493 1153 0
-1242 -1153 2493 0
-2494 1243 0
-2494 1164 0
-1243 -1164 2494 0
-2495 1244 0
-2495 1175 0
-1244 -1175 2495 0
-2496 1245 0
-2496 1186 0
-1245 -1186 2496 0
-2497 1246 0
-2497 1197 0
-1246 -1197 2497 0
-2498 1247 0
-2498 1208 0
-1247 -1208 2498 0
-2499 1248 0
-2499 1219 0
-1248 -1219 2499 0
-2500 1249 0
-2500 1230 0
-1249 -1230 2500 0
-179 -2491 0
-179 -2492 0
-179 -2493 0
-179 -2494 0
-179 -2495 0
-179 -2496 0
-179 -2497 0
-179 -2498 0
-179 -2499 0
-179 -2500 0
-1241 179 2491 2492 2493 2494 2495 2496 2497 2498 2499 2500 0
-203 1242 0
-2501 1239 0
-2501 1123 0
-1239 -1123 2501 0
-2502 1240 0
-2502 1122 0
-1240 -1122 2502 0
-2503 1241 0
-2503 1142 0
-1241 -1142 2503 0
-2504 1243 0
-2504 1165 0
-1243 -1165 2504 0
-2505 1244 0
-2505 1176 0
-1244 -1176 2505 0
-2506 1245 0
-2506 1187 0
-1245 -1187 2506 0
-2507 1246 0
-2507 1198 0
-1246 -1198 2507 0
-2508 1247 0
-2508 1209 0
-1247 -1209 2508 0
-2509 1248 0
-2509 1220 0
-1248 -1220 2509 0
-2510 1249 0
-2510 1231 0
-1249 -1231 2510 0
-203 -2501 0
-203 -2502 0
-203 -2503 0
-203 -2504 0
-203 -2505 0
-203 -2506 0
-203 -2507 0
-203 -2508 0
-203 -2509 0
-203 -2510 0
-1242 203 2501 2502 2503 2504 2505 2506 2507 2508 2509 2510 0
-227 1243 0
-2511 1239 0
-2511 1125 0
-1239 -1125 2511 0
-2512 1240 0
-2512 1124 0
-1240 -1124 2512 0
-2513 1241 0
-2513 1143 0
-1241 -1143 2513 0
-2514 1242 0
-2514 1154 0
-1242 -1154 2514 0
-2515 1244 0
-2515 1177 0
-1244 -1177 2515 0
-2516 1245 0
-2516 1188 0
-1245 -1188 2516 0
-2517 1246 0
-2517 1199 0
-1246 -1199 2517 0
-2518 1247 0
-2518 1210 0
-1247 -1210 2518 0
-2519 1248 0
-2519 1221 0
-1248 -1221 2519 0
-2520 1249 0
-2520 1232 0
-1249 -1232 2520 0
-227 -2511 0
-227 -2512 0
-227 -2513 0
-227 -2514 0
-227 -2515 0
-227 -2516 0
-227 -2517 0
-227 -2518 0
-227 -2519 0
-227 -2520 0
-1243 227 2511 2512 2513 2514 2515 2516 2517 2518 2519 2520 0
-251 1244 0
-2521 1239 0
-2521 1127 0
-1239 -1127 2521 0
-2522 1240 0
-2522 1126 0
-1240 -1126 2522 0
-2523 1241 0
-2523 1144 0
-1241 -1144 2523 0
-2524 1242 0
-2524 1155 0
-1242 -1155 2524 0
-2525 1243 0
-2525 1166 0
-1243 -1166 2525 0
-2526 1245 0
-2526 1189 0
-1245 -1189 2526 0
-2527 1246 0
-2527 1200 0
-1246 -1200 2527 0
-2528 1247 0
-2528 1211 0
-1247 -1211 2528 0
-2529 1248 0
-2529 1222 0
-1248 -1222 2529 0
-2530 1249 0
-2530 1233 0
-1249 -1233 2530 0
-251 -2521 0
-251 -2522 0
-251 -2523 0
-251 -2524 0
-251 -2525 0
-251 -2526 0
-251 -2527 0
-251 -2528 0
-251 -2529 0
-251 -2530 0
-1244 251 2521 2522 2523 2524 2525 2526 2527 2528 2529 2530 0
-275 1245 0
-2531 1239 0
-2531 1129 0
-1239 -1129 2531 0
-2532 1240 0
-2532 1128 0
-1240 -1128 2532 0
-2533 1241 0
-2533 1145 0
-1241 -1145 2533 0
-2534 1242 0
-2534 1156 0
-1242 -1156 2534 0
-2535 1243 0
-2535 1167 0
-1243 -1167 2535 0
-2536 1244 0
-2536 1178 0
-1244 -1178 2536 0
-2537 1246 0
-2537 1201 0
-1246 -1201 2537 0
-2538 1247 0
-2538 1212 0
-1247 -1212 2538 0
-2539 1248 0
-2539 1223 0
-1248 -1223 2539 0
-2540 1249 0
-2540 1234 0
-1249 -1234 2540 0
-275 -2531 0
-275 -2532 0
-275 -2533 0
-275 -2534 0
-275 -2535 0
-275 -2536 0
-275 -2537 0
-275 -2538 0
-275 -2539 0
-275 -2540 0
-1245 275 2531 2532 2533 2534 2535 2536 2537 2538 2539 2540 0
-299 1246 0
-2541 1239 0
-2541 1131 0
-1239 -1131 2541 0
-2542 1240 0
-2542 1130 0
-1240 -1130 2542 0
-2543 1241 0
-2543 1146 0
-1241 -1146 2543 0
-2544 1242 0
-2544 1157 0
-1242 -1157 2544 0
-2545 1243 0
-2545 1168 0
-1243 -1168 2545 0
-2546 1244 0
-2546 1179 0
-1244 -1179 2546 0
-2547 1245 0
-2547 1190 0
-1245 -1190 2547 0
-2548 1247 0
-2548 1213 0
-1247 -1213 2548 0
-2549 1248 0
-2549 1224 0
-1248 -1224 2549 0
-2550 1249 0
-2550 1235 0
-1249 -1235 2550 0
-299 -2541 0
-299 -2542 0
-299 -2543 0
-299 -2544 0
-299 -2545 0
-299 -2546 0
-299 -2547 0
-299 -2548 0
-299 -2549 0
-299 -2550 0
-1246 299 2541 2542 2543 2544 2545 2546 2547 2548 2549 2550 0
-323 1247 0
-2551 1239 0
-2551 1133 0
-1239 -1133 2551 0
-2552 1240 0
-2552 1132 0
-1240 -1132 2552 0
-2553 1241 0
-2553 1147 0
-1241 -1147 2553 0
-2554 1242 0
-2554 1158 0
-1242 -1158 2554 0
-2555 1243 0
-2555 1169 0
-1243 -1169 2555 0
-2556 1244 0
-2556 1180 0
-1244 -1180 2556 0
-2557 1245 0
-2557 1191 0
-1245 -1191 2557 0
-2558 1246 0
-2558 1202 0
-1246 -1202 2558 0
-2559 1248 0
-2559 1225 0
-1248 -1225 2559 0
-2560 1249 0
-2560 1236 0
-1249 -1236 2560 0
-323 -2551 0
-323 -2552 0
-323 -2553 0
-323 -2554 0
-323 -2555 0
-323 -2556 0
-323 -2557 0
-323 -2558 0
-323 -2559 0
-323 -2560 0
-1247 323 2551 2552 2553 2554 2555 2556 2557 2558 2559 2560 0
-347 1248 0
-2561 1239 0
-2561 1135 0
-1239 -1135 2561 0
-2562 1240 0
-2562 1134 0
-1240 -1134 2562 0
-2563 1241 0
-2563 1148 0
-1241 -1148 2563 0
-2564 1242 0
-2564 1159 0
-1242 -1159 2564 0
-2565 1243 0
-2565 1170 0
-1243 -1170 2565 0
-2566 1244 0
-2566 1181 0
-1244 -1181 2566 0
-2567 1245 0
-2567 1192 0
-1245 -1192 2567 0
-2568 1246 0
-2568 1203 0
-1246 -1203 2568 0
-2569 1247 0
-2569 1214 0
-1247 -1214 2569 0
-2570 1249 0
-2570 1237 0
-1249 -1237 2570 0
-347 -2561 0
-347 -2562 0
-347 -2563 0
-347 -2564 0
-347 -2565 0
-347 -2566 0
-347 -2567 0
-347 -2568 0
-347 -2569 0
-347 -2570 0
-1248 347 2561 2562 2563 2564 2565 2566 2567 2568 2569 2570 0
-371 1249 0
-2571 1239 0
-2571 1137 0
-1239 -1137 2571 0
-2572 1240 0
-2572 1136 0
-1240 -1136 2572 0
-2573 1241 0
-2573 1149 0
-1241 -1149 2573 0
-2574 1242 0
-2574 1160 0
-1242 -1160 2574 0
-2575 1243 0
-2575 1171 0
-1243 -1171 2575 0
-2576 1244 0
-2576 1182 0
-1244 -1182 2576 0
-2577 1245 0
-2577 1193 0
-1245 -1193 2577 0
-2578 1246 0
-2578 1204 0
-1246 -1204 2578 0
-2579 1247 0
-2579 1215 0
-1247 -1215 2579 0
-2580 1248 0
-2580 1226 0
-1248 -1226 2580 0
-371 -2571 0
-371 -2572 0
-371 -2573 0
-371 -2574 0
-371 -2575 0
-371 -2576 0
-371 -2577 0
-371 -2578 0
-371 -2579 0
-371 -2580 0
-1249 371 2571 2572 2573 2574 2575 2576 2577 2578 2579 2580 0
-395 0
