p cnf 3185 13663
1 2 -3 0
4 5 -6 0
7 8 -9 0
10 11 -12 0
13 14 -15 0
16 17 -18 0
19 20 -21 0
22 23 -24 0
25 26 -27 0
28 29 -30 0
31 32 -33 0
34 35 -36 0
37 38 -39 0
3 -1 0
6 -4 0
9 -7 0
12 -10 0
15 -13 0
18 -16 0
21 -19 0
24 -22 0
27 -25 0
30 -28 0
33 -31 0
36 -34 0
39 -37 0
3 -2 0
6 -5 0
9 -8 0
12 -11 0
15 -14 0
18 -17 0
21 -20 0
24 -23 0
27 -26 0
30 -29 0
33 -32 0
36 -35 0
39 -38 0
-1 -2 -40 0
-4 -5 -41 0
-7 -8 -42 0
-10 -11 -43 0
-13 -14 -44 0
-16 -17 -45 0
-19 -20 -46 0
-22 -23 -47 0
-25 -26 -48 0
-28 -29 -49 0
-31 -32 -50 0
-34 -35 -51 0
-37 -38 -52 0
40 1 0
41 4 0
42 7 0
43 10 0
44 13 0
45 16 0
46 19 0
47 22 0
48 25 0
49 28 0
50 31 0
51 34 0
52 37 0
40 2 0
41 5 0
42 8 0
43 11 0
44 14 0
45 17 0
46 20 0
47 23 0
48 26 0
49 29 0
50 32 0
51 35 0
52 38 0
-53 1 54 0
-55 4 56 0
-57 7 58 0
-59 10 60 0
-61 13 62 0
-63 16 64 0
-65 19 66 0
-67 22 68 0
-69 25 70 0
-71 28 72 0
-73 31 74 0
-75 34 76 0
-77 37 78 0
-54 53 0
-56 55 0
-58 57 0
-60 59 0
-62 61 0
-64 63 0
-66 65 0
-68 67 0
-70 69 0
-72 71 0
-74 73 0
-76 75 0
-78 77 0
-54 -1 0
-56 -4 0
-58 -7 0
-60 -10 0
-62 -13 0
-64 -16 0
-66 -19 0
-68 -22 0
-70 -25 0
-72 -28 0
-74 -31 0
-76 -34 0
-78 -37 0
79 54 -80 0
81 56 -82 0
83 58 -84 0
85 60 -86 0
87 62 -88 0
89 64 -90 0
91 66 -92 0
93 68 -94 0
95 70 -96 0
97 72 -98 0
99 74 -100 0
101 76 -102 0
103 78 -104 0
80 -79 0
82 -81 0
84 -83 0
86 -85 0
88 -87 0
90 -89 0
92 -91 0
94 -93 0
96 -95 0
98 -97 0
100 -99 0
102 -101 0
104 -103 0
80 -54 0
82 -56 0
84 -58 0
86 -60 0
88 -62 0
90 -64 0
92 -66 0
94 -68 0
96 -70 0
98 -72 0
100 -74 0
102 -76 0
104 -78 0
1 -79 -53 -105 0
4 -81 -55 -106 0
7 -83 -57 -107 0
10 -85 -59 -108 0
13 -87 -61 -109 0
16 -89 -63 -110 0
19 -91 -65 -111 0
22 -93 -67 -112 0
25 -95 -69 -113 0
28 -97 -71 -114 0
31 -99 -73 -115 0
34 -101 -75 -116 0
37 -103 -77 -117 0
105 -1 0
106 -4 0
107 -7 0
108 -10 0
109 -13 0
110 -16 0
111 -19 0
112 -22 0
113 -25 0
114 -28 0
115 -31 0
116 -34 0
117 -37 0
105 79 0
106 81 0
107 83 0
108 85 0
109 87 0
110 89 0
111 91 0
112 93 0
113 95 0
114 97 0
115 99 0
116 101 0
117 103 0
105 53 0
106 55 0
107 57 0
108 59 0
109 61 0
110 63 0
111 65 0
112 67 0
113 69 0
114 71 0
115 73 0
116 75 0
117 77 0
1 -118 -2 -119 0
4 -120 -5 -121 0
7 -122 -8 -123 0
10 -124 -11 -125 0
13 -126 -14 -127 0
16 -128 -17 -129 0
19 -130 -20 -131 0
22 -132 -23 -133 0
25 -134 -26 -135 0
28 -136 -29 -137 0
31 -138 -32 -139 0
34 -140 -35 -141 0
37 -142 -38 -143 0
1 -144 -2 -145 0
4 -146 -5 -147 0
7 -148 -8 -149 0
10 -150 -11 -151 0
13 -152 -14 -153 0
16 -154 -17 -155 0
19 -156 -20 -157 0
22 -158 -23 -159 0
25 -160 -26 -161 0
28 -162 -29 -163 0
31 -164 -32 -165 0
34 -166 -35 -167 0
37 -168 -38 -169 0
1 -170 -2 -171 0
4 -172 -5 -173 0
7 -174 -8 -175 0
10 -176 -11 -177 0
13 -178 -14 -179 0
16 -180 -17 -181 0
19 -182 -20 -183 0
22 -184 -23 -185 0
25 -186 -26 -187 0
28 -188 -29 -189 0
31 -190 -32 -191 0
34 -192 -35 -193 0
37 -194 -38 -195 0
1 -196 -2 -197 0
4 -198 -5 -199 0
7 -200 -8 -201 0
10 -202 -11 -203 0
13 -204 -14 -205 0
16 -206 -17 -207 0
19 -208 -20 -209 0
22 -210 -23 -211 0
25 -212 -26 -213 0
28 -214 -29 -215 0
31 -216 -32 -217 0
34 -218 -35 -219 0
37 -220 -38 -221 0
1 -222 -2 -223 0
4 -224 -5 -225 0
7 -226 -8 -227 0
10 -228 -11 -229 0
13 -230 -14 -231 0
16 -232 -17 -233 0
19 -234 -20 -235 0
22 -236 -23 -237 0
25 -238 -26 -239 0
28 -240 -29 -241 0
31 -242 -32 -243 0
34 -244 -35 -245 0
37 -246 -38 -247 0
1 -248 -2 -249 0
4 -250 -5 -251 0
7 -252 -8 -253 0
10 -254 -11 -255 0
13 -256 -14 -257 0
16 -258 -17 -259 0
19 -260 -20 -261 0
22 -262 -23 -263 0
25 -264 -26 -265 0
28 -266 -29 -267 0
31 -268 -32 -269 0
34 -270 -35 -271 0
37 -272 -38 -273 0
1 -274 -2 -275 0
4 -276 -5 -277 0
7 -278 -8 -279 0
10 -280 -11 -281 0
13 -282 -14 -283 0
16 -284 -17 -285 0
19 -286 -20 -287 0
22 -288 -23 -289 0
25 -290 -26 -291 0
28 -292 -29 -293 0
31 -294 -32 -295 0
34 -296 -35 -297 0
37 -298 -38 -299 0
1 -300 -2 -301 0
4 -302 -5 -303 0
7 -304 -8 -305 0
10 -306 -11 -307 0
13 -308 -14 -309 0
16 -310 -17 -311 0
19 -312 -20 -313 0
22 -314 -23 -315 0
25 -316 -26 -317 0
28 -318 -29 -319 0
31 -320 -32 -321 0
34 -322 -35 -323 0
37 -324 -38 -325 0
1 -326 -2 -327 0
4 -328 -5 -329 0
7 -330 -8 -331 0
10 -332 -11 -333 0
13 -334 -14 -335 0
16 -336 -17 -337 0
19 -338 -20 -339 0
22 -340 -23 -341 0
25 -342 -26 -343 0
28 -344 -29 -345 0
31 -346 -32 -347 0
34 -348 -35 -349 0
37 -350 -38 -351 0
1 -352 -2 -353 0
4 -354 -5 -355 0
7 -356 -8 -357 0
10 -358 -11 -359 0
13 -360 -14 -361 0
16 -362 -17 -363 0
19 -364 -20 -365 0
22 -366 -23 -367 0
25 -368 -26 -369 0
28 -370 -29 -371 0
31 -372 -32 -373 0
34 -374 -35 -375 0
37 -376 -38 -377 0
1 -378 -2 -379 0
4 -380 -5 -381 0
7 -382 -8 -383 0
10 -384 -11 -385 0
13 -386 -14 -387 0
16 -388 -17 -389 0
19 -390 -20 -391 0
22 -392 -23 -393 0
25 -394 -26 -395 0
28 -396 -29 -397 0
31 -398 -32 -399 0
34 -400 -35 -401 0
37 -402 -38 -403 0
1 -404 -2 -405 0
4 -406 -5 -407 0
7 -408 -8 -409 0
10 -410 -11 -411 0
13 -412 -14 -413 0
16 -414 -17 -415 0
19 -416 -20 -417 0
22 -418 -23 -419 0
25 -420 -26 -421 0
28 -422 -29 -423 0
31 -424 -32 -425 0
34 -426 -35 -427 0
37 -428 -38 -429 0
1 -430 -2 -431 0
4 -432 -5 -433 0
7 -434 -8 -435 0
10 -436 -11 -437 0
13 -438 -14 -439 0
16 -440 -17 -441 0
19 -442 -20 -443 0
22 -444 -23 -445 0
25 -446 -26 -447 0
28 -448 -29 -449 0
31 -450 -32 -451 0
34 -452 -35 -453 0
37 -454 -38 -455 0
119 -1 0
121 -4 0
123 -7 0
125 -10 0
127 -13 0
129 -16 0
131 -19 0
133 -22 0
135 -25 0
137 -28 0
139 -31 0
141 -34 0
143 -37 0
145 -1 0
147 -4 0
149 -7 0
151 -10 0
153 -13 0
155 -16 0
157 -19 0
159 -22 0
161 -25 0
163 -28 0
165 -31 0
167 -34 0
169 -37 0
171 -1 0
173 -4 0
175 -7 0
177 -10 0
179 -13 0
181 -16 0
183 -19 0
185 -22 0
187 -25 0
189 -28 0
191 -31 0
193 -34 0
195 -37 0
197 -1 0
199 -4 0
201 -7 0
203 -10 0
205 -13 0
207 -16 0
209 -19 0
211 -22 0
213 -25 0
215 -28 0
217 -31 0
219 -34 0
221 -37 0
223 -1 0
225 -4 0
227 -7 0
229 -10 0
231 -13 0
233 -16 0
235 -19 0
237 -22 0
239 -25 0
241 -28 0
243 -31 0
245 -34 0
247 -37 0
249 -1 0
251 -4 0
253 -7 0
255 -10 0
257 -13 0
259 -16 0
261 -19 0
263 -22 0
265 -25 0
267 -28 0
269 -31 0
271 -34 0
273 -37 0
275 -1 0
277 -4 0
279 -7 0
281 -10 0
283 -13 0
285 -16 0
287 -19 0
289 -22 0
291 -25 0
293 -28 0
295 -31 0
297 -34 0
299 -37 0
301 -1 0
303 -4 0
305 -7 0
307 -10 0
309 -13 0
311 -16 0
313 -19 0
315 -22 0
317 -25 0
319 -28 0
321 -31 0
323 -34 0
325 -37 0
327 -1 0
329 -4 0
331 -7 0
333 -10 0
335 -13 0
337 -16 0
339 -19 0
341 -22 0
343 -25 0
345 -28 0
347 -31 0
349 -34 0
351 -37 0
353 -1 0
355 -4 0
357 -7 0
359 -10 0
361 -13 0
363 -16 0
365 -19 0
367 -22 0
369 -25 0
371 -28 0
373 -31 0
375 -34 0
377 -37 0
379 -1 0
381 -4 0
383 -7 0
385 -10 0
387 -13 0
389 -16 0
391 -19 0
393 -22 0
395 -25 0
397 -28 0
399 -31 0
401 -34 0
403 -37 0
405 -1 0
407 -4 0
409 -7 0
411 -10 0
413 -13 0
415 -16 0
417 -19 0
419 -22 0
421 -25 0
423 -28 0
425 -31 0
427 -34 0
429 -37 0
431 -1 0
433 -4 0
435 -7 0
437 -10 0
439 -13 0
441 -16 0
443 -19 0
445 -22 0
447 -25 0
449 -28 0
451 -31 0
453 -34 0
455 -37 0
119 118 0
121 120 0
123 122 0
125 124 0
127 126 0
129 128 0
131 130 0
133 132 0
135 134 0
137 136 0
139 138 0
141 140 0
143 142 0
145 144 0
147 146 0
149 148 0
151 150 0
153 152 0
155 154 0
157 156 0
159 158 0
161 160 0
163 162 0
165 164 0
167 166 0
169 168 0
171 170 0
173 172 0
175 174 0
177 176 0
179 178 0
181 180 0
183 182 0
185 184 0
187 186 0
189 188 0
191 190 0
193 192 0
195 194 0
197 196 0
199 198 0
201 200 0
203 202 0
205 204 0
207 206 0
209 208 0
211 210 0
213 212 0
215 214 0
217 216 0
219 218 0
221 220 0
223 222 0
225 224 0
227 226 0
229 228 0
231 230 0
233 232 0
235 234 0
237 236 0
239 238 0
241 240 0
243 242 0
245 244 0
247 246 0
249 248 0
251 250 0
253 252 0
255 254 0
257 256 0
259 258 0
261 260 0
263 262 0
265 264 0
267 266 0
269 268 0
271 270 0
273 272 0
275 274 0
277 276 0
279 278 0
281 280 0
283 282 0
285 284 0
287 286 0
289 288 0
291 290 0
293 292 0
295 294 0
297 296 0
299 298 0
301 300 0
303 302 0
305 304 0
307 306 0
309 308 0
311 310 0
313 312 0
315 314 0
317 316 0
319 318 0
321 320 0
323 322 0
325 324 0
327 326 0
329 328 0
331 330 0
333 332 0
335 334 0
337 336 0
339 338 0
341 340 0
343 342 0
345 344 0
347 346 0
349 348 0
351 350 0
353 352 0
355 354 0
357 356 0
359 358 0
361 360 0
363 362 0
365 364 0
367 366 0
369 368 0
371 370 0
373 372 0
375 374 0
377 376 0
379 378 0
381 380 0
383 382 0
385 384 0
387 386 0
389 388 0
391 390 0
393 392 0
395 394 0
397 396 0
399 398 0
401 400 0
403 402 0
405 404 0
407 406 0
409 408 0
411 410 0
413 412 0
415 414 0
417 416 0
419 418 0
421 420 0
423 422 0
425 424 0
427 426 0
429 428 0
431 430 0
433 432 0
435 434 0
437 436 0
439 438 0
441 440 0
443 442 0
445 444 0
447 446 0
449 448 0
451 450 0
453 452 0
455 454 0
119 2 0
121 5 0
123 8 0
125 11 0
127 14 0
129 17 0
131 20 0
133 23 0
135 26 0
137 29 0
139 32 0
141 35 0
143 38 0
145 2 0
147 5 0
149 8 0
151 11 0
153 14 0
155 17 0
157 20 0
159 23 0
161 26 0
163 29 0
165 32 0
167 35 0
169 38 0
171 2 0
173 5 0
175 8 0
177 11 0
179 14 0
181 17 0
183 20 0
185 23 0
187 26 0
189 29 0
191 32 0
193 35 0
195 38 0
197 2 0
199 5 0
201 8 0
203 11 0
205 14 0
207 17 0
209 20 0
211 23 0
213 26 0
215 29 0
217 32 0
219 35 0
221 38 0
223 2 0
225 5 0
227 8 0
229 11 0
231 14 0
233 17 0
235 20 0
237 23 0
239 26 0
241 29 0
243 32 0
245 35 0
247 38 0
249 2 0
251 5 0
253 8 0
255 11 0
257 14 0
259 17 0
261 20 0
263 23 0
265 26 0
267 29 0
269 32 0
271 35 0
273 38 0
275 2 0
277 5 0
279 8 0
281 11 0
283 14 0
285 17 0
287 20 0
289 23 0
291 26 0
293 29 0
295 32 0
297 35 0
299 38 0
301 2 0
303 5 0
305 8 0
307 11 0
309 14 0
311 17 0
313 20 0
315 23 0
317 26 0
319 29 0
321 32 0
323 35 0
325 38 0
327 2 0
329 5 0
331 8 0
333 11 0
335 14 0
337 17 0
339 20 0
341 23 0
343 26 0
345 29 0
347 32 0
349 35 0
351 38 0
353 2 0
355 5 0
357 8 0
359 11 0
361 14 0
363 17 0
365 20 0
367 23 0
369 26 0
371 29 0
373 32 0
375 35 0
377 38 0
379 2 0
381 5 0
383 8 0
385 11 0
387 14 0
389 17 0
391 20 0
393 23 0
395 26 0
397 29 0
399 32 0
401 35 0
403 38 0
405 2 0
407 5 0
409 8 0
411 11 0
413 14 0
415 17 0
417 20 0
419 23 0
421 26 0
423 29 0
425 32 0
427 35 0
429 38 0
431 2 0
433 5 0
435 8 0
437 11 0
439 14 0
441 17 0
443 20 0
445 23 0
447 26 0
449 29 0
451 32 0
453 35 0
455 38 0
-118 -53 53 456 0
-120 -55 53 457 0
-122 -57 53 458 0
-124 -59 53 459 0
-126 -61 53 460 0
-128 -63 53 461 0
-130 -65 53 462 0
-132 -67 53 463 0
-134 -69 53 464 0
-136 -71 53 465 0
-138 -73 53 466 0
-140 -75 53 467 0
-142 -77 53 468 0
-144 -53 55 469 0
-146 -55 55 470 0
-148 -57 55 471 0
-150 -59 55 472 0
-152 -61 55 473 0
-154 -63 55 474 0
-156 -65 55 475 0
-158 -67 55 476 0
-160 -69 55 477 0
-162 -71 55 478 0
-164 -73 55 479 0
-166 -75 55 480 0
-168 -77 55 481 0
-170 -53 57 482 0
-172 -55 57 483 0
-174 -57 57 484 0
-176 -59 57 485 0
-178 -61 57 486 0
-180 -63 57 487 0
-182 -65 57 488 0
-184 -67 57 489 0
-186 -69 57 490 0
-188 -71 57 491 0
-190 -73 57 492 0
-192 -75 57 493 0
-194 -77 57 494 0
-196 -53 59 495 0
-198 -55 59 496 0
-200 -57 59 497 0
-202 -59 59 498 0
-204 -61 59 499 0
-206 -63 59 500 0
-208 -65 59 501 0
-210 -67 59 502 0
-212 -69 59 503 0
-214 -71 59 504 0
-216 -73 59 505 0
-218 -75 59 506 0
-220 -77 59 507 0
-222 -53 61 508 0
-224 -55 61 509 0
-226 -57 61 510 0
-228 -59 61 511 0
-230 -61 61 512 0
-232 -63 61 513 0
-234 -65 61 514 0
-236 -67 61 515 0
-238 -69 61 516 0
-240 -71 61 517 0
-242 -73 61 518 0
-244 -75 61 519 0
-246 -77 61 520 0
-248 -53 63 521 0
-250 -55 63 522 0
-252 -57 63 523 0
-254 -59 63 524 0
-256 -61 63 525 0
-258 -63 63 526 0
-260 -65 63 527 0
-262 -67 63 528 0
-264 -69 63 529 0
-266 -71 63 530 0
-268 -73 63 531 0
-270 -75 63 532 0
-272 -77 63 533 0
-274 -53 65 534 0
-276 -55 65 535 0
-278 -57 65 536 0
-280 -59 65 537 0
-282 -61 65 538 0
-284 -63 65 539 0
-286 -65 65 540 0
-288 -67 65 541 0
-290 -69 65 542 0
-292 -71 65 543 0
-294 -73 65 544 0
-296 -75 65 545 0
-298 -77 65 546 0
-300 -53 67 547 0
-302 -55 67 548 0
-304 -57 67 549 0
-306 -59 67 550 0
-308 -61 67 551 0
-310 -63 67 552 0
-312 -65 67 553 0
-314 -67 67 554 0
-316 -69 67 555 0
-318 -71 67 556 0
-320 -73 67 557 0
-322 -75 67 558 0
-324 -77 67 559 0
-326 -53 69 560 0
-328 -55 69 561 0
-330 -57 69 562 0
-332 -59 69 563 0
-334 -61 69 564 0
-336 -63 69 565 0
-338 -65 69 566 0
-340 -67 69 567 0
-342 -69 69 568 0
-344 -71 69 569 0
-346 -73 69 570 0
-348 -75 69 571 0
-350 -77 69 572 0
-352 -53 71 573 0
-354 -55 71 574 0
-356 -57 71 575 0
-358 -59 71 576 0
-360 -61 71 577 0
-362 -63 71 578 0
-364 -65 71 579 0
-366 -67 71 580 0
-368 -69 71 581 0
-370 -71 71 582 0
-372 -73 71 583 0
-374 -75 71 584 0
-376 -77 71 585 0
-378 -53 73 586 0
-380 -55 73 587 0
-382 -57 73 588 0
-384 -59 73 589 0
-386 -61 73 590 0
-388 -63 73 591 0
-390 -65 73 592 0
-392 -67 73 593 0
-394 -69 73 594 0
-396 -71 73 595 0
-398 -73 73 596 0
-400 -75 73 597 0
-402 -77 73 598 0
-404 -53 75 599 0
-406 -55 75 600 0
-408 -57 75 601 0
-410 -59 75 602 0
-412 -61 75 603 0
-414 -63 75 604 0
-416 -65 75 605 0
-418 -67 75 606 0
-420 -69 75 607 0
-422 -71 75 608 0
-424 -73 75 609 0
-426 -75 75 610 0
-428 -77 75 611 0
-430 -53 77 612 0
-432 -55 77 613 0
-434 -57 77 614 0
-436 -59 77 615 0
-438 -61 77 616 0
-440 -63 77 617 0
-442 -65 77 618 0
-444 -67 77 619 0
-446 -69 77 620 0
-448 -71 77 621 0
-450 -73 77 622 0
-452 -75 77 623 0
-454 -77 77 624 0
-456 118 0
-457 120 0
-458 122 0
-459 124 0
-460 126 0
-461 128 0
-462 130 0
-463 132 0
-464 134 0
-465 136 0
-466 138 0
-467 140 0
-468 142 0
-469 144 0
-470 146 0
-471 148 0
-472 150 0
-473 152 0
-474 154 0
-475 156 0
-476 158 0
-477 160 0
-478 162 0
-479 164 0
-480 166 0
-481 168 0
-482 170 0
-483 172 0
-484 174 0
-485 176 0
-486 178 0
-487 180 0
-488 182 0
-489 184 0
-490 186 0
-491 188 0
-492 190 0
-493 192 0
-494 194 0
-495 196 0
-496 198 0
-497 200 0
-498 202 0
-499 204 0
-500 206 0
-501 208 0
-502 210 0
-503 212 0
-504 214 0
-505 216 0
-506 218 0
-507 220 0
-508 222 0
-509 224 0
-510 226 0
-511 228 0
-512 230 0
-513 232 0
-514 234 0
-515 236 0
-516 238 0
-517 240 0
-518 242 0
-519 244 0
-520 246 0
-521 248 0
-522 250 0
-523 252 0
-524 254 0
-525 256 0
-526 258 0
-527 260 0
-528 262 0
-529 264 0
-530 266 0
-531 268 0
-532 270 0
-533 272 0
-534 274 0
-535 276 0
-536 278 0
-537 280 0
-538 282 0
-539 284 0
-540 286 0
-541 288 0
-542 290 0
-543 292 0
-544 294 0
-545 296 0
-546 298 0
-547 300 0
-548 302 0
-549 304 0
-550 306 0
-551 308 0
-552 310 0
-553 312 0
-554 314 0
-555 316 0
-556 318 0
-557 320 0
-558 322 0
-559 324 0
-560 326 0
-561 328 0
-562 330 0
-563 332 0
-564 334 0
-565 336 0
-566 338 0
-567 340 0
-568 342 0
-569 344 0
-570 346 0
-571 348 0
-572 350 0
-573 352 0
-574 354 0
-575 356 0
-576 358 0
-577 360 0
-578 362 0
-579 364 0
-580 366 0
-581 368 0
-582 370 0
-583 372 0
-584 374 0
-585 376 0
-586 378 0
-587 380 0
-588 382 0
-589 384 0
-590 386 0
-591 388 0
-592 390 0
-593 392 0
-594 394 0
-595 396 0
-596 398 0
-597 400 0
-598 402 0
-599 404 0
-600 406 0
-601 408 0
-602 410 0
-603 412 0
-604 414 0
-605 416 0
-606 418 0
-607 420 0
-608 422 0
-609 424 0
-610 426 0
-611 428 0
-612 430 0
-613 432 0
-614 434 0
-615 436 0
-616 438 0
-617 440 0
-618 442 0
-619 444 0
-620 446 0
-621 448 0
-622 450 0
-623 452 0
-624 454 0
-456 53 0
-457 55 0
-458 57 0
-459 59 0
-460 61 0
-461 63 0
-462 65 0
-463 67 0
-464 69 0
-465 71 0
-466 73 0
-467 75 0
-468 77 0
-469 53 0
-470 55 0
-471 57 0
-472 59 0
-473 61 0
-474 63 0
-475 65 0
-476 67 0
-477 69 0
-478 71 0
-479 73 0
-480 75 0
-481 77 0
-482 53 0
-483 55 0
-484 57 0
-485 59 0
-486 61 0
-487 63 0
-488 65 0
-489 67 0
-490 69 0
-491 71 0
-492 73 0
-493 75 0
-494 77 0
-495 53 0
-496 55 0
-497 57 0
-498 59 0
-499 61 0
-500 63 0
-501 65 0
-502 67 0
-503 69 0
-504 71 0
-505 73 0
-506 75 0
-507 77 0
-508 53 0
-509 55 0
-510 57 0
-511 59 0
-512 61 0
-513 63 0
-514 65 0
-515 67 0
-516 69 0
-517 71 0
-518 73 0
-519 75 0
-520 77 0
-521 53 0
-522 55 0
-523 57 0
-524 59 0
-525 61 0
-526 63 0
-527 65 0
-528 67 0
-529 69 0
-530 71 0
-531 73 0
-532 75 0
-533 77 0
-534 53 0
-535 55 0
-536 57 0
-537 59 0
-538 61 0
-539 63 0
-540 65 0
-541 67 0
-542 69 0
-543 71 0
-544 73 0
-545 75 0
-546 77 0
-547 53 0
-548 55 0
-549 57 0
-550 59 0
-551 61 0
-552 63 0
-553 65 0
-554 67 0
-555 69 0
-556 71 0
-557 73 0
-558 75 0
-559 77 0
-560 53 0
-561 55 0
-562 57 0
-563 59 0
-564 61 0
-565 63 0
-566 65 0
-567 67 0
-568 69 0
-569 71 0
-570 73 0
-571 75 0
-572 77 0
-573 53 0
-574 55 0
-575 57 0
-576 59 0
-577 61 0
-578 63 0
-579 65 0
-580 67 0
-581 69 0
-582 71 0
-583 73 0
-584 75 0
-585 77 0
-586 53 0
-587 55 0
-588 57 0
-589 59 0
-590 61 0
-591 63 0
-592 65 0
-593 67 0
-594 69 0
-595 71 0
-596 73 0
-597 75 0
-598 77 0
-599 53 0
-600 55 0
-601 57 0
-602 59 0
-603 61 0
-604 63 0
-605 65 0
-606 67 0
-607 69 0
-608 71 0
-609 73 0
-610 75 0
-611 77 0
-612 53 0
-613 55 0
-614 57 0
-615 59 0
-616 61 0
-617 63 0
-618 65 0
-619 67 0
-620 69 0
-621 71 0
-622 73 0
-623 75 0
-624 77 0
-456 -53 0
-457 -53 0
-458 -53 0
-459 -53 0
-460 -53 0
-461 -53 0
-462 -53 0
-463 -53 0
-464 -53 0
-465 -53 0
-466 -53 0
-467 -53 0
-468 -53 0
-469 -55 0
-470 -55 0
-471 -55 0
-472 -55 0
-473 -55 0
-474 -55 0
-475 -55 0
-476 -55 0
-477 -55 0
-478 -55 0
-479 -55 0
-480 -55 0
-481 -55 0
-482 -57 0
-483 -57 0
-484 -57 0
-485 -57 0
-486 -57 0
-487 -57 0
-488 -57 0
-489 -57 0
-490 -57 0
-491 -57 0
-492 -57 0
-493 -57 0
-494 -57 0
-495 -59 0
-496 -59 0
-497 -59 0
-498 -59 0
-499 -59 0
-500 -59 0
-501 -59 0
-502 -59 0
-503 -59 0
-504 -59 0
-505 -59 0
-506 -59 0
-507 -59 0
-508 -61 0
-509 -61 0
-510 -61 0
-511 -61 0
-512 -61 0
-513 -61 0
-514 -61 0
-515 -61 0
-516 -61 0
-517 -61 0
-518 -61 0
-519 -61 0
-520 -61 0
-521 -63 0
-522 -63 0
-523 -63 0
-524 -63 0
-525 -63 0
-526 -63 0
-527 -63 0
-528 -63 0
-529 -63 0
-530 -63 0
-531 -63 0
-532 -63 0
-533 -63 0
-534 -65 0
-535 -65 0
-536 -65 0
-537 -65 0
-538 -65 0
-539 -65 0
-540 -65 0
-541 -65 0
-542 -65 0
-543 -65 0
-544 -65 0
-545 -65 0
-546 -65 0
-547 -67 0
-548 -67 0
-549 -67 0
-550 -67 0
-551 -67 0
-552 -67 0
-553 -67 0
-554 -67 0
-555 -67 0
-556 -67 0
-557 -67 0
-558 -67 0
-559 -67 0
-560 -69 0
-561 -69 0
-562 -69 0
-563 -69 0
-564 -69 0
-565 -69 0
-566 -69 0
-567 -69 0
-568 -69 0
-569 -69 0
-570 -69 0
-571 -69 0
-572 -69 0
-573 -71 0
-574 -71 0
-575 -71 0
-576 -71 0
-577 -71 0
-578 -71 0
-579 -71 0
-580 -71 0
-581 -71 0
-582 -71 0
-583 -71 0
-584 -71 0
-585 -71 0
-586 -73 0
-587 -73 0
-588 -73 0
-589 -73 0
-590 -73 0
-591 -73 0
-592 -73 0
-593 -73 0
-594 -73 0
-595 -73 0
-596 -73 0
-597 -73 0
-598 -73 0
-599 -75 0
-600 -75 0
-601 -75 0
-602 -75 0
-603 -75 0
-604 -75 0
-605 -75 0
-606 -75 0
-607 -75 0
-608 -75 0
-609 -75 0
-610 -75 0
-611 -75 0
-612 -77 0
-613 -77 0
-614 -77 0
-615 -77 0
-616 -77 0
-617 -77 0
-618 -77 0
-619 -77 0
-620 -77 0
-621 -77 0
-622 -77 0
-623 -77 0
-624 -77 0
625 456 -626 0
627 457 -628 0
629 458 -630 0
631 459 -632 0
633 460 -634 0
635 461 -636 0
637 462 -638 0
639 463 -640 0
641 464 -642 0
643 465 -644 0
645 466 -646 0
647 467 -648 0
649 468 -650 0
651 469 -652 0
653 470 -654 0
655 471 -656 0
657 472 -658 0
659 473 -660 0
661 474 -662 0
663 475 -664 0
665 476 -666 0
667 477 -668 0
669 478 -670 0
671 479 -672 0
673 480 -674 0
675 481 -676 0
677 482 -678 0
679 483 -680 0
681 484 -682 0
683 485 -684 0
685 486 -686 0
687 487 -688 0
689 488 -690 0
691 489 -692 0
693 490 -694 0
695 491 -696 0
697 492 -698 0
699 493 -700 0
701 494 -702 0
703 495 -704 0
705 496 -706 0
707 497 -708 0
709 498 -710 0
711 499 -712 0
713 500 -714 0
715 501 -716 0
717 502 -718 0
719 503 -720 0
721 504 -722 0
723 505 -724 0
725 506 -726 0
727 507 -728 0
729 508 -730 0
731 509 -732 0
733 510 -734 0
735 511 -736 0
737 512 -738 0
739 513 -740 0
741 514 -742 0
743 515 -744 0
745 516 -746 0
747 517 -748 0
749 518 -750 0
751 519 -752 0
753 520 -754 0
755 521 -756 0
757 522 -758 0
759 523 -760 0
761 524 -762 0
763 525 -764 0
765 526 -766 0
767 527 -768 0
769 528 -770 0
771 529 -772 0
773 530 -774 0
775 531 -776 0
777 532 -778 0
779 533 -780 0
781 534 -782 0
783 535 -784 0
785 536 -786 0
787 537 -788 0
789 538 -790 0
791 539 -792 0
793 540 -794 0
795 541 -796 0
797 542 -798 0
799 543 -800 0
801 544 -802 0
803 545 -804 0
805 546 -806 0
807 547 -808 0
809 548 -810 0
811 549 -812 0
813 550 -814 0
815 551 -816 0
817 552 -818 0
819 553 -820 0
821 554 -822 0
823 555 -824 0
825 556 -826 0
827 557 -828 0
829 558 -830 0
831 559 -832 0
833 560 -834 0
835 561 -836 0
837 562 -838 0
839 563 -840 0
841 564 -842 0
843 565 -844 0
845 566 -846 0
847 567 -848 0
849 568 -850 0
851 569 -852 0
853 570 -854 0
855 571 -856 0
857 572 -858 0
859 573 -860 0
861 574 -862 0
863 575 -864 0
865 576 -866 0
867 577 -868 0
869 578 -870 0
871 579 -872 0
873 580 -874 0
875 581 -876 0
877 582 -878 0
879 583 -880 0
881 584 -882 0
883 585 -884 0
885 586 -886 0
887 587 -888 0
889 588 -890 0
891 589 -892 0
893 590 -894 0
895 591 -896 0
897 592 -898 0
899 593 -900 0
901 594 -902 0
903 595 -904 0
905 596 -906 0
907 597 -908 0
909 598 -910 0
911 599 -912 0
913 600 -914 0
915 601 -916 0
917 602 -918 0
919 603 -920 0
921 604 -922 0
923 605 -924 0
925 606 -926 0
927 607 -928 0
929 608 -930 0
931 609 -932 0
933 610 -934 0
935 611 -936 0
937 612 -938 0
939 613 -940 0
941 614 -942 0
943 615 -944 0
945 616 -946 0
947 617 -948 0
949 618 -950 0
951 619 -952 0
953 620 -954 0
955 621 -956 0
957 622 -958 0
959 623 -960 0
961 624 -962 0
626 -625 0
628 -627 0
630 -629 0
632 -631 0
634 -633 0
636 -635 0
638 -637 0
640 -639 0
642 -641 0
644 -643 0
646 -645 0
648 -647 0
650 -649 0
652 -651 0
654 -653 0
656 -655 0
658 -657 0
660 -659 0
662 -661 0
664 -663 0
666 -665 0
668 -667 0
670 -669 0
672 -671 0
674 -673 0
676 -675 0
678 -677 0
680 -679 0
682 -681 0
684 -683 0
686 -685 0
688 -687 0
690 -689 0
692 -691 0
694 -693 0
696 -695 0
698 -697 0
700 -699 0
702 -701 0
704 -703 0
706 -705 0
708 -707 0
710 -709 0
712 -711 0
714 -713 0
716 -715 0
718 -717 0
720 -719 0
722 -721 0
724 -723 0
726 -725 0
728 -727 0
730 -729 0
732 -731 0
734 -733 0
736 -735 0
738 -737 0
740 -739 0
742 -741 0
744 -743 0
746 -745 0
748 -747 0
750 -749 0
752 -751 0
754 -753 0
756 -755 0
758 -757 0
760 -759 0
762 -761 0
764 -763 0
766 -765 0
768 -767 0
770 -769 0
772 -771 0
774 -773 0
776 -775 0
778 -777 0
780 -779 0
782 -781 0
784 -783 0
786 -785 0
788 -787 0
790 -789 0
792 -791 0
794 -793 0
796 -795 0
798 -797 0
800 -799 0
802 -801 0
804 -803 0
806 -805 0
808 -807 0
810 -809 0
812 -811 0
814 -813 0
816 -815 0
818 -817 0
820 -819 0
822 -821 0
824 -823 0
826 -825 0
828 -827 0
830 -829 0
832 -831 0
834 -833 0
836 -835 0
838 -837 0
840 -839 0
842 -841 0
844 -843 0
846 -845 0
848 -847 0
850 -849 0
852 -851 0
854 -853 0
856 -855 0
858 -857 0
860 -859 0
862 -861 0
864 -863 0
866 -865 0
868 -867 0
870 -869 0
872 -871 0
874 -873 0
876 -875 0
878 -877 0
880 -879 0
882 -881 0
884 -883 0
886 -885 0
888 -887 0
890 -889 0
892 -891 0
894 -893 0
896 -895 0
898 -897 0
900 -899 0
902 -901 0
904 -903 0
906 -905 0
908 -907 0
910 -909 0
912 -911 0
914 -913 0
916 -915 0
918 -917 0
920 -919 0
922 -921 0
924 -923 0
926 -925 0
928 -927 0
930 -929 0
932 -931 0
934 -933 0
936 -935 0
938 -937 0
940 -939 0
942 -941 0
944 -943 0
946 -945 0
948 -947 0
950 -949 0
952 -951 0
954 -953 0
956 -955 0
958 -957 0
960 -959 0
962 -961 0
626 -456 0
628 -457 0
630 -458 0
632 -459 0
634 -460 0
636 -461 0
638 -462 0
640 -463 0
642 -464 0
644 -465 0
646 -466 0
648 -467 0
650 -468 0
652 -469 0
654 -470 0
656 -471 0
658 -472 0
660 -473 0
662 -474 0
664 -475 0
666 -476 0
668 -477 0
670 -478 0
672 -479 0
674 -480 0
676 -481 0
678 -482 0
680 -483 0
682 -484 0
684 -485 0
686 -486 0
688 -487 0
690 -488 0
692 -489 0
694 -490 0
696 -491 0
698 -492 0
700 -493 0
702 -494 0
704 -495 0
706 -496 0
708 -497 0
710 -498 0
712 -499 0
714 -500 0
716 -501 0
718 -502 0
720 -503 0
722 -504 0
724 -505 0
726 -506 0
728 -507 0
730 -508 0
732 -509 0
734 -510 0
736 -511 0
738 -512 0
740 -513 0
742 -514 0
744 -515 0
746 -516 0
748 -517 0
750 -518 0
752 -519 0
754 -520 0
756 -521 0
758 -522 0
760 -523 0
762 -524 0
764 -525 0
766 -526 0
768 -527 0
770 -528 0
772 -529 0
774 -530 0
776 -531 0
778 -532 0
780 -533 0
782 -534 0
784 -535 0
786 -536 0
788 -537 0
790 -538 0
792 -539 0
794 -540 0
796 -541 0
798 -542 0
800 -543 0
802 -544 0
804 -545 0
806 -546 0
808 -547 0
810 -548 0
812 -549 0
814 -550 0
816 -551 0
818 -552 0
820 -553 0
822 -554 0
824 -555 0
826 -556 0
828 -557 0
830 -558 0
832 -559 0
834 -560 0
836 -561 0
838 -562 0
840 -563 0
842 -564 0
844 -565 0
846 -566 0
848 -567 0
850 -568 0
852 -569 0
854 -570 0
856 -571 0
858 -572 0
860 -573 0
862 -574 0
864 -575 0
866 -576 0
868 -577 0
870 -578 0
872 -579 0
874 -580 0
876 -581 0
878 -582 0
880 -583 0
882 -584 0
884 -585 0
886 -586 0
888 -587 0
890 -588 0
892 -589 0
894 -590 0
896 -591 0
898 -592 0
900 -593 0
902 -594 0
904 -595 0
906 -596 0
908 -597 0
910 -598 0
912 -599 0
914 -600 0
916 -601 0
918 -602 0
920 -603 0
922 -604 0
924 -605 0
926 -606 0
928 -607 0
930 -608 0
932 -609 0
934 -610 0
936 -611 0
938 -612 0
940 -613 0
942 -614 0
944 -615 0
946 -616 0
948 -617 0
950 -618 0
952 -619 0
954 -620 0
956 -621 0
958 -622 0
960 -623 0
962 -624 0
53 -625 -118 -53 -963 0
53 -627 -120 -55 -964 0
53 -629 -122 -57 -965 0
53 -631 -124 -59 -966 0
53 -633 -126 -61 -967 0
53 -635 -128 -63 -968 0
53 -637 -130 -65 -969 0
53 -639 -132 -67 -970 0
53 -641 -134 -69 -971 0
53 -643 -136 -71 -972 0
53 -645 -138 -73 -973 0
53 -647 -140 -75 -974 0
53 -649 -142 -77 -975 0
55 -651 -144 -53 -976 0
55 -653 -146 -55 -977 0
55 -655 -148 -57 -978 0
55 -657 -150 -59 -979 0
55 -659 -152 -61 -980 0
55 -661 -154 -63 -981 0
55 -663 -156 -65 -982 0
55 -665 -158 -67 -983 0
55 -667 -160 -69 -984 0
55 -669 -162 -71 -985 0
55 -671 -164 -73 -986 0
55 -673 -166 -75 -987 0
55 -675 -168 -77 -988 0
57 -677 -170 -53 -989 0
57 -679 -172 -55 -990 0
57 -681 -174 -57 -991 0
57 -683 -176 -59 -992 0
57 -685 -178 -61 -993 0
57 -687 -180 -63 -994 0
57 -689 -182 -65 -995 0
57 -691 -184 -67 -996 0
57 -693 -186 -69 -997 0
57 -695 -188 -71 -998 0
57 -697 -190 -73 -999 0
57 -699 -192 -75 -1000 0
57 -701 -194 -77 -1001 0
59 -703 -196 -53 -1002 0
59 -705 -198 -55 -1003 0
59 -707 -200 -57 -1004 0
59 -709 -202 -59 -1005 0
59 -711 -204 -61 -1006 0
59 -713 -206 -63 -1007 0
59 -715 -208 -65 -1008 0
59 -717 -210 -67 -1009 0
59 -719 -212 -69 -1010 0
59 -721 -214 -71 -1011 0
59 -723 -216 -73 -1012 0
59 -725 -218 -75 -1013 0
59 -727 -220 -77 -1014 0
61 -729 -222 -53 -1015 0
61 -731 -224 -55 -1016 0
61 -733 -226 -57 -1017 0
61 -735 -228 -59 -1018 0
61 -737 -230 -61 -1019 0
61 -739 -232 -63 -1020 0
61 -741 -234 -65 -1021 0
61 -743 -236 -67 -1022 0
61 -745 -238 -69 -1023 0
61 -747 -240 -71 -1024 0
61 -749 -242 -73 -1025 0
61 -751 -244 -75 -1026 0
61 -753 -246 -77 -1027 0
63 -755 -248 -53 -1028 0
63 -757 -250 -55 -1029 0
63 -759 -252 -57 -1030 0
63 -761 -254 -59 -1031 0
63 -763 -256 -61 -1032 0
63 -765 -258 -63 -1033 0
63 -767 -260 -65 -1034 0
63 -769 -262 -67 -1035 0
63 -771 -264 -69 -1036 0
63 -773 -266 -71 -1037 0
63 -775 -268 -73 -1038 0
63 -777 -270 -75 -1039 0
63 -779 -272 -77 -1040 0
65 -781 -274 -53 -1041 0
65 -783 -276 -55 -1042 0
65 -785 -278 -57 -1043 0
65 -787 -280 -59 -1044 0
65 -789 -282 -61 -1045 0
65 -791 -284 -63 -1046 0
65 -793 -286 -65 -1047 0
65 -795 -288 -67 -1048 0
65 -797 -290 -69 -1049 0
65 -799 -292 -71 -1050 0
65 -801 -294 -73 -1051 0
65 -803 -296 -75 -1052 0
65 -805 -298 -77 -1053 0
67 -807 -300 -53 -1054 0
67 -809 -302 -55 -1055 0
67 -811 -304 -57 -1056 0
67 -813 -306 -59 -1057 0
67 -815 -308 -61 -1058 0
67 -817 -310 -63 -1059 0
67 -819 -312 -65 -1060 0
67 -821 -314 -67 -1061 0
67 -823 -316 -69 -1062 0
67 -825 -318 -71 -1063 0
67 -827 -320 -73 -1064 0
67 -829 -322 -75 -1065 0
67 -831 -324 -77 -1066 0
69 -833 -326 -53 -1067 0
69 -835 -328 -55 -1068 0
69 -837 -330 -57 -1069 0
69 -839 -332 -59 -1070 0
69 -841 -334 -61 -1071 0
69 -843 -336 -63 -1072 0
69 -845 -338 -65 -1073 0
69 -847 -340 -67 -1074 0
69 -849 -342 -69 -1075 0
69 -851 -344 -71 -1076 0
69 -853 -346 -73 -1077 0
69 -855 -348 -75 -1078 0
69 -857 -350 -77 -1079 0
71 -859 -352 -53 -1080 0
71 -861 -354 -55 -1081 0
71 -863 -356 -57 -1082 0
71 -865 -358 -59 -1083 0
71 -867 -360 -61 -1084 0
71 -869 -362 -63 -1085 0
71 -871 -364 -65 -1086 0
71 -873 -366 -67 -1087 0
71 -875 -368 -69 -1088 0
71 -877 -370 -71 -1089 0
71 -879 -372 -73 -1090 0
71 -881 -374 -75 -1091 0
71 -883 -376 -77 -1092 0
73 -885 -378 -53 -1093 0
73 -887 -380 -55 -1094 0
73 -889 -382 -57 -1095 0
73 -891 -384 -59 -1096 0
73 -893 -386 -61 -1097 0
73 -895 -388 -63 -1098 0
73 -897 -390 -65 -1099 0
73 -899 -392 -67 -1100 0
73 -901 -394 -69 -1101 0
73 -903 -396 -71 -1102 0
73 -905 -398 -73 -1103 0
73 -907 -400 -75 -1104 0
73 -909 -402 -77 -1105 0
75 -911 -404 -53 -1106 0
75 -913 -406 -55 -1107 0
75 -915 -408 -57 -1108 0
75 -917 -410 -59 -1109 0
75 -919 -412 -61 -1110 0
75 -921 -414 -63 -1111 0
75 -923 -416 -65 -1112 0
75 -925 -418 -67 -1113 0
75 -927 -420 -69 -1114 0
75 -929 -422 -71 -1115 0
75 -931 -424 -73 -1116 0
75 -933 -426 -75 -1117 0
75 -935 -428 -77 -1118 0
77 -937 -430 -53 -1119 0
77 -939 -432 -55 -1120 0
77 -941 -434 -57 -1121 0
77 -943 -436 -59 -1122 0
77 -945 -438 -61 -1123 0
77 -947 -440 -63 -1124 0
77 -949 -442 -65 -1125 0
77 -951 -444 -67 -1126 0
77 -953 -446 -69 -1127 0
77 -955 -448 -71 -1128 0
77 -957 -450 -73 -1129 0
77 -959 -452 -75 -1130 0
77 -961 -454 -77 -1131 0
963 -53 0
964 -53 0
965 -53 0
966 -53 0
967 -53 0
968 -53 0
969 -53 0
970 -53 0
971 -53 0
972 -53 0
973 -53 0
974 -53 0
975 -53 0
976 -55 0
977 -55 0
978 -55 0
979 -55 0
980 -55 0
981 -55 0
982 -55 0
983 -55 0
984 -55 0
985 -55 0
986 -55 0
987 -55 0
988 -55 0
989 -57 0
990 -57 0
991 -57 0
992 -57 0
993 -57 0
994 -57 0
995 -57 0
996 -57 0
997 -57 0
998 -57 0
999 -57 0
1000 -57 0
1001 -57 0
1002 -59 0
1003 -59 0
1004 -59 0
1005 -59 0
1006 -59 0
1007 -59 0
1008 -59 0
1009 -59 0
1010 -59 0
1011 -59 0
1012 -59 0
1013 -59 0
1014 -59 0
1015 -61 0
1016 -61 0
1017 -61 0
1018 -61 0
1019 -61 0
1020 -61 0
1021 -61 0
1022 -61 0
1023 -61 0
1024 -61 0
1025 -61 0
1026 -61 0
1027 -61 0
1028 -63 0
1029 -63 0
1030 -63 0
1031 -63 0
1032 -63 0
1033 -63 0
1034 -63 0
1035 -63 0
1036 -63 0
1037 -63 0
1038 -63 0
1039 -63 0
1040 -63 0
1041 -65 0
1042 -65 0
1043 -65 0
1044 -65 0
1045 -65 0
1046 -65 0
1047 -65 0
1048 -65 0
1049 -65 0
1050 -65 0
1051 -65 0
1052 -65 0
1053 -65 0
1054 -67 0
1055 -67 0
1056 -67 0
1057 -67 0
1058 -67 0
1059 -67 0
1060 -67 0
1061 -67 0
1062 -67 0
1063 -67 0
1064 -67 0
1065 -67 0
1066 -67 0
1067 -69 0
1068 -69 0
1069 -69 0
1070 -69 0
1071 -69 0
1072 -69 0
1073 -69 0
1074 -69 0
1075 -69 0
1076 -69 0
1077 -69 0
1078 -69 0
1079 -69 0
1080 -71 0
1081 -71 0
1082 -71 0
1083 -71 0
1084 -71 0
1085 -71 0
1086 -71 0
1087 -71 0
1088 -71 0
1089 -71 0
1090 -71 0
1091 -71 0
1092 -71 0
1093 -73 0
1094 -73 0
1095 -73 0
1096 -73 0
1097 -73 0
1098 -73 0
1099 -73 0
1100 -73 0
1101 -73 0
1102 -73 0
1103 -73 0
1104 -73 0
1105 -73 0
1106 -75 0
1107 -75 0
1108 -75 0
1109 -75 0
1110 -75 0
1111 -75 0
1112 -75 0
1113 -75 0
1114 -75 0
1115 -75 0
1116 -75 0
1117 -75 0
1118 -75 0
1119 -77 0
1120 -77 0
1121 -77 0
1122 -77 0
1123 -77 0
1124 -77 0
1125 -77 0
1126 -77 0
1127 -77 0
1128 -77 0
1129 -77 0
1130 -77 0
1131 -77 0
963 625 0
964 627 0
965 629 0
966 631 0
967 633 0
968 635 0
969 637 0
970 639 0
971 641 0
972 643 0
973 645 0
974 647 0
975 649 0
976 651 0
977 653 0
978 655 0
979 657 0
980 659 0
981 661 0
982 663 0
983 665 0
984 667 0
985 669 0
986 671 0
987 673 0
988 675 0
989 677 0
990 679 0
991 681 0
992 683 0
993 685 0
994 687 0
995 689 0
996 691 0
997 693 0
998 695 0
999 697 0
1000 699 0
1001 701 0
1002 703 0
1003 705 0
1004 707 0
1005 709 0
1006 711 0
1007 713 0
1008 715 0
1009 717 0
1010 719 0
1011 721 0
1012 723 0
1013 725 0
1014 727 0
1015 729 0
1016 731 0
1017 733 0
1018 735 0
1019 737 0
1020 739 0
1021 741 0
1022 743 0
1023 745 0
1024 747 0
1025 749 0
1026 751 0
1027 753 0
1028 755 0
1029 757 0
1030 759 0
1031 761 0
1032 763 0
1033 765 0
1034 767 0
1035 769 0
1036 771 0
1037 773 0
1038 775 0
1039 777 0
1040 779 0
1041 781 0
1042 783 0
1043 785 0
1044 787 0
1045 789 0
1046 791 0
1047 793 0
1048 795 0
1049 797 0
1050 799 0
1051 801 0
1052 803 0
1053 805 0
1054 807 0
1055 809 0
1056 811 0
1057 813 0
1058 815 0
1059 817 0
1060 819 0
1061 821 0
1062 823 0
1063 825 0
1064 827 0
1065 829 0
1066 831 0
1067 833 0
1068 835 0
1069 837 0
1070 839 0
1071 841 0
1072 843 0
1073 845 0
1074 847 0
1075 849 0
1076 851 0
1077 853 0
1078 855 0
1079 857 0
1080 859 0
1081 861 0
1082 863 0
1083 865 0
1084 867 0
1085 869 0
1086 871 0
1087 873 0
1088 875 0
1089 877 0
1090 879 0
1091 881 0
1092 883 0
1093 885 0
1094 887 0
1095 889 0
1096 891 0
1097 893 0
1098 895 0
1099 897 0
1100 899 0
1101 901 0
1102 903 0
1103 905 0
1104 907 0
1105 909 0
1106 911 0
1107 913 0
1108 915 0
1109 917 0
1110 919 0
1111 921 0
1112 923 0
1113 925 0
1114 927 0
1115 929 0
1116 931 0
1117 933 0
1118 935 0
1119 937 0
1120 939 0
1121 941 0
1122 943 0
1123 945 0
1124 947 0
1125 949 0
1126 951 0
1127 953 0
1128 955 0
1129 957 0
1130 959 0
1131 961 0
963 118 0
964 120 0
965 122 0
966 124 0
967 126 0
968 128 0
969 130 0
970 132 0
971 134 0
972 136 0
973 138 0
974 140 0
975 142 0
976 144 0
977 146 0
978 148 0
979 150 0
980 152 0
981 154 0
982 156 0
983 158 0
984 160 0
985 162 0
986 164 0
987 166 0
988 168 0
989 170 0
990 172 0
991 174 0
992 176 0
993 178 0
994 180 0
995 182 0
996 184 0
997 186 0
998 188 0
999 190 0
1000 192 0
1001 194 0
1002 196 0
1003 198 0
1004 200 0
1005 202 0
1006 204 0
1007 206 0
1008 208 0
1009 210 0
1010 212 0
1011 214 0
1012 216 0
1013 218 0
1014 220 0
1015 222 0
1016 224 0
1017 226 0
1018 228 0
1019 230 0
1020 232 0
1021 234 0
1022 236 0
1023 238 0
1024 240 0
1025 242 0
1026 244 0
1027 246 0
1028 248 0
1029 250 0
1030 252 0
1031 254 0
1032 256 0
1033 258 0
1034 260 0
1035 262 0
1036 264 0
1037 266 0
1038 268 0
1039 270 0
1040 272 0
1041 274 0
1042 276 0
1043 278 0
1044 280 0
1045 282 0
1046 284 0
1047 286 0
1048 288 0
1049 290 0
1050 292 0
1051 294 0
1052 296 0
1053 298 0
1054 300 0
1055 302 0
1056 304 0
1057 306 0
1058 308 0
1059 310 0
1060 312 0
1061 314 0
1062 316 0
1063 318 0
1064 320 0
1065 322 0
1066 324 0
1067 326 0
1068 328 0
1069 330 0
1070 332 0
1071 334 0
1072 336 0
1073 338 0
1074 340 0
1075 342 0
1076 344 0
1077 346 0
1078 348 0
1079 350 0
1080 352 0
1081 354 0
1082 356 0
1083 358 0
1084 360 0
1085 362 0
1086 364 0
1087 366 0
1088 368 0
1089 370 0
1090 372 0
1091 374 0
1092 376 0
1093 378 0
1094 380 0
1095 382 0
1096 384 0
1097 386 0
1098 388 0
1099 390 0
1100 392 0
1101 394 0
1102 396 0
1103 398 0
1104 400 0
1105 402 0
1106 404 0
1107 406 0
1108 408 0
1109 410 0
1110 412 0
1111 414 0
1112 416 0
1113 418 0
1114 420 0
1115 422 0
1116 424 0
1117 426 0
1118 428 0
1119 430 0
1120 432 0
1121 434 0
1122 436 0
1123 438 0
1124 440 0
1125 442 0
1126 444 0
1127 446 0
1128 448 0
1129 450 0
1130 452 0
1131 454 0
963 53 0
964 55 0
965 57 0
966 59 0
967 61 0
968 63 0
969 65 0
970 67 0
971 69 0
972 71 0
973 73 0
974 75 0
975 77 0
976 53 0
977 55 0
978 57 0
979 59 0
980 61 0
981 63 0
982 65 0
983 67 0
984 69 0
985 71 0
986 73 0
987 75 0
988 77 0
989 53 0
990 55 0
991 57 0
992 59 0
993 61 0
994 63 0
995 65 0
996 67 0
997 69 0
998 71 0
999 73 0
1000 75 0
1001 77 0
1002 53 0
1003 55 0
1004 57 0
1005 59 0
1006 61 0
1007 63 0
1008 65 0
1009 67 0
1010 69 0
1011 71 0
1012 73 0
1013 75 0
1014 77 0
1015 53 0
1016 55 0
1017 57 0
1018 59 0
1019 61 0
1020 63 0
1021 65 0
1022 67 0
1023 69 0
1024 71 0
1025 73 0
1026 75 0
1027 77 0
1028 53 0
1029 55 0
1030 57 0
1031 59 0
1032 61 0
1033 63 0
1034 65 0
1035 67 0
1036 69 0
1037 71 0
1038 73 0
1039 75 0
1040 77 0
1041 53 0
1042 55 0
1043 57 0
1044 59 0
1045 61 0
1046 63 0
1047 65 0
1048 67 0
1049 69 0
1050 71 0
1051 73 0
1052 75 0
1053 77 0
1054 53 0
1055 55 0
1056 57 0
1057 59 0
1058 61 0
1059 63 0
1060 65 0
1061 67 0
1062 69 0
1063 71 0
1064 73 0
1065 75 0
1066 77 0
1067 53 0
1068 55 0
1069 57 0
1070 59 0
1071 61 0
1072 63 0
1073 65 0
1074 67 0
1075 69 0
1076 71 0
1077 73 0
1078 75 0
1079 77 0
1080 53 0
1081 55 0
1082 57 0
1083 59 0
1084 61 0
1085 63 0
1086 65 0
1087 67 0
1088 69 0
1089 71 0
1090 73 0
1091 75 0
1092 77 0
1093 53 0
1094 55 0
1095 57 0
1096 59 0
1097 61 0
1098 63 0
1099 65 0
1100 67 0
1101 69 0
1102 71 0
1103 73 0
1104 75 0
1105 77 0
1106 53 0
1107 55 0
1108 57 0
1109 59 0
1110 61 0
1111 63 0
1112 65 0
1113 67 0
1114 69 0
1115 71 0
1116 73 0
1117 75 0
1118 77 0
1119 53 0
1120 55 0
1121 57 0
1122 59 0
1123 61 0
1124 63 0
1125 65 0
1126 67 0
1127 69 0
1128 71 0
1129 73 0
1130 75 0
1131 77 0
-3 -40 -80 -105 -119 -626 -963 1132 0
-3 -40 -80 -105 -121 -628 -964 1133 0
-3 -40 -80 -105 -123 -630 -965 1134 0
-3 -40 -80 -105 -125 -632 -966 1135 0
-3 -40 -80 -105 -127 -634 -967 1136 0
-3 -40 -80 -105 -129 -636 -968 1137 0
-3 -40 -80 -105 -131 -638 -969 1138 0
-3 -40 -80 -105 -133 -640 -970 1139 0
-3 -40 -80 -105 -135 -642 -971 1140 0
-3 -40 -80 -105 -137 -644 -972 1141 0
-3 -40 -80 -105 -139 -646 -973 1142 0
-3 -40 -80 -105 -141 -648 -974 1143 0
-3 -40 -80 -105 -143 -650 -975 1144 0
-6 -41 -82 -106 -145 -652 -976 1145 0
-6 -41 -82 -106 -147 -654 -977 1146 0
-6 -41 -82 -106 -149 -656 -978 1147 0
-6 -41 -82 -106 -151 -658 -979 1148 0
-6 -41 -82 -106 -153 -660 -980 1149 0
-6 -41 -82 -106 -155 -662 -981 1150 0
-6 -41 -82 -106 -157 -664 -982 1151 0
-6 -41 -82 -106 -159 -666 -983 1152 0
-6 -41 -82 -106 -161 -668 -984 1153 0
-6 -41 -82 -106 -163 -670 -985 1154 0
-6 -41 -82 -106 -165 -672 -986 1155 0
-6 -41 -82 -106 -167 -674 -987 1156 0
-6 -41 -82 -106 -169 -676 -988 1157 0
-9 -42 -84 -107 -171 -678 -989 1158 0
-9 -42 -84 -107 -173 -680 -990 1159 0
-9 -42 -84 -107 -175 -682 -991 1160 0
-9 -42 -84 -107 -177 -684 -992 1161 0
-9 -42 -84 -107 -179 -686 -993 1162 0
-9 -42 -84 -107 -181 -688 -994 1163 0
-9 -42 -84 -107 -183 -690 -995 1164 0
-9 -42 -84 -107 -185 -692 -996 1165 0
-9 -42 -84 -107 -187 -694 -997 1166 0
-9 -42 -84 -107 -189 -696 -998 1167 0
-9 -42 -84 -107 -191 -698 -999 1168 0
-9 -42 -84 -107 -193 -700 -1000 1169 0
-9 -42 -84 -107 -195 -702 -1001 1170 0
-12 -43 -86 -108 -197 -704 -1002 1171 0
-12 -43 -86 -108 -199 -706 -1003 1172 0
-12 -43 -86 -108 -201 -708 -1004 1173 0
-12 -43 -86 -108 -203 -710 -1005 1174 0
-12 -43 -86 -108 -205 -712 -1006 1175 0
-12 -43 -86 -108 -207 -714 -1007 1176 0
-12 -43 -86 -108 -209 -716 -1008 1177 0
-12 -43 -86 -108 -211 -718 -1009 1178 0
-12 -43 -86 -108 -213 -720 -1010 1179 0
-12 -43 -86 -108 -215 -722 -1011 1180 0
-12 -43 -86 -108 -217 -724 -1012 1181 0
-12 -43 -86 -108 -219 -726 -1013 1182 0
-12 -43 -86 -108 -221 -728 -1014 1183 0
-15 -44 -88 -109 -223 -730 -1015 1184 0
-15 -44 -88 -109 -225 -732 -1016 1185 0
-15 -44 -88 -109 -227 -734 -1017 1186 0
-15 -44 -88 -109 -229 -736 -1018 1187 0
-15 -44 -88 -109 -231 -738 -1019 1188 0
-15 -44 -88 -109 -233 -740 -1020 1189 0
-15 -44 -88 -109 -235 -742 -1021 1190 0
-15 -44 -88 -109 -237 -744 -1022 1191 0
-15 -44 -88 -109 -239 -746 -1023 1192 0
-15 -44 -88 -109 -241 -748 -1024 1193 0
-15 -44 -88 -109 -243 -750 -1025 1194 0
-15 -44 -88 -109 -245 -752 -1026 1195 0
-15 -44 -88 -109 -247 -754 -1027 1196 0
-18 -45 -90 -110 -249 -756 -1028 1197 0
-18 -45 -90 -110 -251 -758 -1029 1198 0
-18 -45 -90 -110 -253 -760 -1030 1199 0
-18 -45 -90 -110 -255 -762 -1031 1200 0
-18 -45 -90 -110 -257 -764 -1032 1201 0
-18 -45 -90 -110 -259 -766 -1033 1202 0
-18 -45 -90 -110 -261 -768 -1034 1203 0
-18 -45 -90 -110 -263 -770 -1035 1204 0
-18 -45 -90 -110 -265 -772 -1036 1205 0
-18 -45 -90 -110 -267 -774 -1037 1206 0
-18 -45 -90 -110 -269 -776 -1038 1207 0
-18 -45 -90 -110 -271 -778 -1039 1208 0
-18 -45 -90 -110 -273 -780 -1040 1209 0
-21 -46 -92 -111 -275 -782 -1041 1210 0
-21 -46 -92 -111 -277 -784 -1042 1211 0
-21 -46 -92 -111 -279 -786 -1043 1212 0
-21 -46 -92 -111 -281 -788 -1044 1213 0
-21 -46 -92 -111 -283 -790 -1045 1214 0
-21 -46 -92 -111 -285 -792 -1046 1215 0
-21 -46 -92 -111 -287 -794 -1047 1216 0
-21 -46 -92 -111 -289 -796 -1048 1217 0
-21 -46 -92 -111 -291 -798 -1049 1218 0
-21 -46 -92 -111 -293 -800 -1050 1219 0
-21 -46 -92 -111 -295 -802 -1051 1220 0
-21 -46 -92 -111 -297 -804 -1052 1221 0
-21 -46 -92 -111 -299 -806 -1053 1222 0
-24 -47 -94 -112 -301 -808 -1054 1223 0
-24 -47 -94 -112 -303 -810 -1055 1224 0
-24 -47 -94 -112 -305 -812 -1056 1225 0
-24 -47 -94 -112 -307 -814 -1057 1226 0
-24 -47 -94 -112 -309 -816 -1058 1227 0
-24 -47 -94 -112 -311 -818 -1059 1228 0
-24 -47 -94 -112 -313 -820 -1060 1229 0
-24 -47 -94 -112 -315 -822 -1061 1230 0
-24 -47 -94 -112 -317 -824 -1062 1231 0
-24 -47 -94 -112 -319 -826 -1063 1232 0
-24 -47 -94 -112 -321 -828 -1064 1233 0
-24 -47 -94 -112 -323 -830 -1065 1234 0
-24 -47 -94 -112 -325 -832 -1066 1235 0
-27 -48 -96 -113 -327 -834 -1067 1236 0
-27 -48 -96 -113 -329 -836 -1068 1237 0
-27 -48 -96 -113 -331 -838 -1069 1238 0
-27 -48 -96 -113 -333 -840 -1070 1239 0
-27 -48 -96 -113 -335 -842 -1071 1240 0
-27 -48 -96 -113 -337 -844 -1072 1241 0
-27 -48 -96 -113 -339 -846 -1073 1242 0
-27 -48 -96 -113 -341 -848 -1074 1243 0
-27 -48 -96 -113 -343 -850 -1075 1244 0
-27 -48 -96 -113 -345 -852 -1076 1245 0
-27 -48 -96 -113 -347 -854 -1077 1246 0
-27 -48 -96 -113 -349 -856 -1078 1247 0
-27 -48 -96 -113 -351 -858 -1079 1248 0
-30 -49 -98 -114 -353 -860 -1080 1249 0
-30 -49 -98 -114 -355 -862 -1081 1250 0
-30 -49 -98 -114 -357 -864 -1082 1251 0
-30 -49 -98 -114 -359 -866 -1083 1252 0
-30 -49 -98 -114 -361 -868 -1084 1253 0
-30 -49 -98 -114 -363 -870 -1085 1254 0
-30 -49 -98 -114 -365 -872 -1086 1255 0
-30 -49 -98 -114 -367 -874 -1087 1256 0
-30 -49 -98 -114 -369 -876 -1088 1257 0
-30 -49 -98 -114 -371 -878 -1089 1258 0
-30 -49 -98 -114 -373 -880 -1090 1259 0
-30 -49 -98 -114 -375 -882 -1091 1260 0
-30 -49 -98 -114 -377 -884 -1092 1261 0
-33 -50 -100 -115 -379 -886 -1093 1262 0
-33 -50 -100 -115 -381 -888 -1094 1263 0
-33 -50 -100 -115 -383 -890 -1095 1264 0
-33 -50 -100 -115 -385 -892 -1096 1265 0
-33 -50 -100 -115 -387 -894 -1097 1266 0
-33 -50 -100 -115 -389 -896 -1098 1267 0
-33 -50 -100 -115 -391 -898 -1099 1268 0
-33 -50 -100 -115 -393 -900 -1100 1269 0
-33 -50 -100 -115 -395 -902 -1101 1270 0
-33 -50 -100 -115 -397 -904 -1102 1271 0
-33 -50 -100 -115 -399 -906 -1103 1272 0
-33 -50 -100 -115 -401 -908 -1104 1273 0
-33 -50 -100 -115 -403 -910 -1105 1274 0
-36 -51 -102 -116 -405 -912 -1106 1275 0
-36 -51 -102 -116 -407 -914 -1107 1276 0
-36 -51 -102 -116 -409 -916 -1108 1277 0
-36 -51 -102 -116 -411 -918 -1109 1278 0
-36 -51 -102 -116 -413 -920 -1110 1279 0
-36 -51 -102 -116 -415 -922 -1111 1280 0
-36 -51 -102 -116 -417 -924 -1112 1281 0
-36 -51 -102 -116 -419 -926 -1113 1282 0
-36 -51 -102 -116 -421 -928 -1114 1283 0
-36 -51 -102 -116 -423 -930 -1115 1284 0
-36 -51 -102 -116 -425 -932 -1116 1285 0
-36 -51 -102 -116 -427 -934 -1117 1286 0
-36 -51 -102 -116 -429 -936 -1118 1287 0
-39 -52 -104 -117 -431 -938 -1119 1288 0
-39 -52 -104 -117 -433 -940 -1120 1289 0
-39 -52 -104 -117 -435 -942 -1121 1290 0
-39 -52 -104 -117 -437 -944 -1122 1291 0
-39 -52 -104 -117 -439 -946 -1123 1292 0
-39 -52 -104 -117 -441 -948 -1124 1293 0
-39 -52 -104 -117 -443 -950 -1125 1294 0
-39 -52 -104 -117 -445 -952 -1126 1295 0
-39 -52 -104 -117 -447 -954 -1127 1296 0
-39 -52 -104 -117 -449 -956 -1128 1297 0
-39 -52 -104 -117 -451 -958 -1129 1298 0
-39 -52 -104 -117 -453 -960 -1130 1299 0
-39 -52 -104 -117 -455 -962 -1131 1300 0
-1132 3 0
-1133 3 0
-1134 3 0
-1135 3 0
-1136 3 0
-1137 3 0
-1138 3 0
-1139 3 0
-1140 3 0
-1141 3 0
-1142 3 0
-1143 3 0
-1144 3 0
-1145 6 0
-1146 6 0
-1147 6 0
-1148 6 0
-1149 6 0
-1150 6 0
-1151 6 0
-1152 6 0
-1153 6 0
-1154 6 0
-1155 6 0
-1156 6 0
-1157 6 0
-1158 9 0
-1159 9 0
-1160 9 0
-1161 9 0
-1162 9 0
-1163 9 0
-1164 9 0
-1165 9 0
-1166 9 0
-1167 9 0
-1168 9 0
-1169 9 0
-1170 9 0
-1171 12 0
-1172 12 0
-1173 12 0
-1174 12 0
-1175 12 0
-1176 12 0
-1177 12 0
-1178 12 0
-1179 12 0
-1180 12 0
-1181 12 0
-1182 12 0
-1183 12 0
-1184 15 0
-1185 15 0
-1186 15 0
-1187 15 0
-1188 15 0
-1189 15 0
-1190 15 0
-1191 15 0
-1192 15 0
-1193 15 0
-1194 15 0
-1195 15 0
-1196 15 0
-1197 18 0
-1198 18 0
-1199 18 0
-1200 18 0
-1201 18 0
-1202 18 0
-1203 18 0
-1204 18 0
-1205 18 0
-1206 18 0
-1207 18 0
-1208 18 0
-1209 18 0
-1210 21 0
-1211 21 0
-1212 21 0
-1213 21 0
-1214 21 0
-1215 21 0
-1216 21 0
-1217 21 0
-1218 21 0
-1219 21 0
-1220 21 0
-1221 21 0
-1222 21 0
-1223 24 0
-1224 24 0
-1225 24 0
-1226 24 0
-1227 24 0
-1228 24 0
-1229 24 0
-1230 24 0
-1231 24 0
-1232 24 0
-1233 24 0
-1234 24 0
-1235 24 0
-1236 27 0
-1237 27 0
-1238 27 0
-1239 27 0
-1240 27 0
-1241 27 0
-1242 27 0
-1243 27 0
-1244 27 0
-1245 27 0
-1246 27 0
-1247 27 0
-1248 27 0
-1249 30 0
-1250 30 0
-1251 30 0
-1252 30 0
-1253 30 0
-1254 30 0
-1255 30 0
-1256 30 0
-1257 30 0
-1258 30 0
-1259 30 0
-1260 30 0
-1261 30 0
-1262 33 0
-1263 33 0
-1264 33 0
-1265 33 0
-1266 33 0
-1267 33 0
-1268 33 0
-1269 33 0
-1270 33 0
-1271 33 0
-1272 33 0
-1273 33 0
-1274 33 0
-1275 36 0
-1276 36 0
-1277 36 0
-1278 36 0
-1279 36 0
-1280 36 0
-1281 36 0
-1282 36 0
-1283 36 0
-1284 36 0
-1285 36 0
-1286 36 0
-1287 36 0
-1288 39 0
-1289 39 0
-1290 39 0
-1291 39 0
-1292 39 0
-1293 39 0
-1294 39 0
-1295 39 0
-1296 39 0
-1297 39 0
-1298 39 0
-1299 39 0
-1300 39 0
-1132 40 0
-1133 40 0
-1134 40 0
-1135 40 0
-1136 40 0
-1137 40 0
-1138 40 0
-1139 40 0
-1140 40 0
-1141 40 0
-1142 40 0
-1143 40 0
-1144 40 0
-1145 41 0
-1146 41 0
-1147 41 0
-1148 41 0
-1149 41 0
-1150 41 0
-1151 41 0
-1152 41 0
-1153 41 0
-1154 41 0
-1155 41 0
-1156 41 0
-1157 41 0
-1158 42 0
-1159 42 0
-1160 42 0
-1161 42 0
-1162 42 0
-1163 42 0
-1164 42 0
-1165 42 0
-1166 42 0
-1167 42 0
-1168 42 0
-1169 42 0
-1170 42 0
-1171 43 0
-1172 43 0
-1173 43 0
-1174 43 0
-1175 43 0
-1176 43 0
-1177 43 0
-1178 43 0
-1179 43 0
-1180 43 0
-1181 43 0
-1182 43 0
-1183 43 0
-1184 44 0
-1185 44 0
-1186 44 0
-1187 44 0
-1188 44 0
-1189 44 0
-1190 44 0
-1191 44 0
-1192 44 0
-1193 44 0
-1194 44 0
-1195 44 0
-1196 44 0
-1197 45 0
-1198 45 0
-1199 45 0
-1200 45 0
-1201 45 0
-1202 45 0
-1203 45 0
-1204 45 0
-1205 45 0
-1206 45 0
-1207 45 0
-1208 45 0
-1209 45 0
-1210 46 0
-1211 46 0
-1212 46 0
-1213 46 0
-1214 46 0
-1215 46 0
-1216 46 0
-1217 46 0
-1218 46 0
-1219 46 0
-1220 46 0
-1221 46 0
-1222 46 0
-1223 47 0
-1224 47 0
-1225 47 0
-1226 47 0
-1227 47 0
-1228 47 0
-1229 47 0
-1230 47 0
-1231 47 0
-1232 47 0
-1233 47 0
-1234 47 0
-1235 47 0
-1236 48 0
-1237 48 0
-1238 48 0
-1239 48 0
-1240 48 0
-1241 48 0
-1242 48 0
-1243 48 0
-1244 48 0
-1245 48 0
-1246 48 0
-1247 48 0
-1248 48 0
-1249 49 0
-1250 49 0
-1251 49 0
-1252 49 0
-1253 49 0
-1254 49 0
-1255 49 0
-1256 49 0
-1257 49 0
-1258 49 0
-1259 49 0
-1260 49 0
-1261 49 0
-1262 50 0
-1263 50 0
-1264 50 0
-1265 50 0
-1266 50 0
-1267 50 0
-1268 50 0
-1269 50 0
-1270 50 0
-1271 50 0
-1272 50 0
-1273 50 0
-1274 50 0
-1275 51 0
-1276 51 0
-1277 51 0
-1278 51 0
-1279 51 0
-1280 51 0
-1281 51 0
-1282 51 0
-1283 51 0
-1284 51 0
-1285 51 0
-1286 51 0
-1287 51 0
-1288 52 0
-1289 52 0
-1290 52 0
-1291 52 0
-1292 52 0
-1293 52 0
-1294 52 0
-1295 52 0
-1296 52 0
-1297 52 0
-1298 52 0
-1299 52 0
-1300 52 0
-1132 80 0
-1133 80 0
-1134 80 0
-1135 80 0
-1136 80 0
-1137 80 0
-1138 80 0
-1139 80 0
-1140 80 0
-1141 80 0
-1142 80 0
-1143 80 0
-1144 80 0
-1145 82 0
-1146 82 0
-1147 82 0
-1148 82 0
-1149 82 0
-1150 82 0
-1151 82 0
-1152 82 0
-1153 82 0
-1154 82 0
-1155 82 0
-1156 82 0
-1157 82 0
-1158 84 0
-1159 84 0
-1160 84 0
-1161 84 0
-1162 84 0
-1163 84 0
-1164 84 0
-1165 84 0
-1166 84 0
-1167 84 0
-1168 84 0
-1169 84 0
-1170 84 0
-1171 86 0
-1172 86 0
-1173 86 0
-1174 86 0
-1175 86 0
-1176 86 0
-1177 86 0
-1178 86 0
-1179 86 0
-1180 86 0
-1181 86 0
-1182 86 0
-1183 86 0
-1184 88 0
-1185 88 0
-1186 88 0
-1187 88 0
-1188 88 0
-1189 88 0
-1190 88 0
-1191 88 0
-1192 88 0
-1193 88 0
-1194 88 0
-1195 88 0
-1196 88 0
-1197 90 0
-1198 90 0
-1199 90 0
-1200 90 0
-1201 90 0
-1202 90 0
-1203 90 0
-1204 90 0
-1205 90 0
-1206 90 0
-1207 90 0
-1208 90 0
-1209 90 0
-1210 92 0
-1211 92 0
-1212 92 0
-1213 92 0
-1214 92 0
-1215 92 0
-1216 92 0
-1217 92 0
-1218 92 0
-1219 92 0
-1220 92 0
-1221 92 0
-1222 92 0
-1223 94 0
-1224 94 0
-1225 94 0
-1226 94 0
-1227 94 0
-1228 94 0
-1229 94 0
-1230 94 0
-1231 94 0
-1232 94 0
-1233 94 0
-1234 94 0
-1235 94 0
-1236 96 0
-1237 96 0
-1238 96 0
-1239 96 0
-1240 96 0
-1241 96 0
-1242 96 0
-1243 96 0
-1244 96 0
-1245 96 0
-1246 96 0
-1247 96 0
-1248 96 0
-1249 98 0
-1250 98 0
-1251 98 0
-1252 98 0
-1253 98 0
-1254 98 0
-1255 98 0
-1256 98 0
-1257 98 0
-1258 98 0
-1259 98 0
-1260 98 0
-1261 98 0
-1262 100 0
-1263 100 0
-1264 100 0
-1265 100 0
-1266 100 0
-1267 100 0
-1268 100 0
-1269 100 0
-1270 100 0
-1271 100 0
-1272 100 0
-1273 100 0
-1274 100 0
-1275 102 0
-1276 102 0
-1277 102 0
-1278 102 0
-1279 102 0
-1280 102 0
-1281 102 0
-1282 102 0
-1283 102 0
-1284 102 0
-1285 102 0
-1286 102 0
-1287 102 0
-1288 104 0
-1289 104 0
-1290 104 0
-1291 104 0
-1292 104 0
-1293 104 0
-1294 104 0
-1295 104 0
-1296 104 0
-1297 104 0
-1298 104 0
-1299 104 0
-1300 104 0
-1132 105 0
-1133 105 0
-1134 105 0
-1135 105 0
-1136 105 0
-1137 105 0
-1138 105 0
-1139 105 0
-1140 105 0
-1141 105 0
-1142 105 0
-1143 105 0
-1144 105 0
-1145 106 0
-1146 106 0
-1147 106 0
-1148 106 0
-1149 106 0
-1150 106 0
-1151 106 0
-1152 106 0
-1153 106 0
-1154 106 0
-1155 106 0
-1156 106 0
-1157 106 0
-1158 107 0
-1159 107 0
-1160 107 0
-1161 107 0
-1162 107 0
-1163 107 0
-1164 107 0
-1165 107 0
-1166 107 0
-1167 107 0
-1168 107 0
-1169 107 0
-1170 107 0
-1171 108 0
-1172 108 0
-1173 108 0
-1174 108 0
-1175 108 0
-1176 108 0
-1177 108 0
-1178 108 0
-1179 108 0
-1180 108 0
-1181 108 0
-1182 108 0
-1183 108 0
-1184 109 0
-1185 109 0
-1186 109 0
-1187 109 0
-1188 109 0
-1189 109 0
-1190 109 0
-1191 109 0
-1192 109 0
-1193 109 0
-1194 109 0
-1195 109 0
-1196 109 0
-1197 110 0
-1198 110 0
-1199 110 0
-1200 110 0
-1201 110 0
-1202 110 0
-1203 110 0
-1204 110 0
-1205 110 0
-1206 110 0
-1207 110 0
-1208 110 0
-1209 110 0
-1210 111 0
-1211 111 0
-1212 111 0
-1213 111 0
-1214 111 0
-1215 111 0
-1216 111 0
-1217 111 0
-1218 111 0
-1219 111 0
-1220 111 0
-1221 111 0
-1222 111 0
-1223 112 0
-1224 112 0
-1225 112 0
-1226 112 0
-1227 112 0
-1228 112 0
-1229 112 0
-1230 112 0
-1231 112 0
-1232 112 0
-1233 112 0
-1234 112 0
-1235 112 0
-1236 113 0
-1237 113 0
-1238 113 0
-1239 113 0
-1240 113 0
-1241 113 0
-1242 113 0
-1243 113 0
-1244 113 0
-1245 113 0
-1246 113 0
-1247 113 0
-1248 113 0
-1249 114 0
-1250 114 0
-1251 114 0
-1252 114 0
-1253 114 0
-1254 114 0
-1255 114 0
-1256 114 0
-1257 114 0
-1258 114 0
-1259 114 0
-1260 114 0
-1261 114 0
-1262 115 0
-1263 115 0
-1264 115 0
-1265 115 0
-1266 115 0
-1267 115 0
-1268 115 0
-1269 115 0
-1270 115 0
-1271 115 0
-1272 115 0
-1273 115 0
-1274 115 0
-1275 116 0
-1276 116 0
-1277 116 0
-1278 116 0
-1279 116 0
-1280 116 0
-1281 116 0
-1282 116 0
-1283 116 0
-1284 116 0
-1285 116 0
-1286 116 0
-1287 116 0
-1288 117 0
-1289 117 0
-1290 117 0
-1291 117 0
-1292 117 0
-1293 117 0
-1294 117 0
-1295 117 0
-1296 117 0
-1297 117 0
-1298 117 0
-1299 117 0
-1300 117 0
-1132 119 0
-1133 121 0
-1134 123 0
-1135 125 0
-1136 127 0
-1137 129 0
-1138 131 0
-1139 133 0
-1140 135 0
-1141 137 0
-1142 139 0
-1143 141 0
-1144 143 0
-1145 145 0
-1146 147 0
-1147 149 0
-1148 151 0
-1149 153 0
-1150 155 0
-1151 157 0
-1152 159 0
-1153 161 0
-1154 163 0
-1155 165 0
-1156 167 0
-1157 169 0
-1158 171 0
-1159 173 0
-1160 175 0
-1161 177 0
-1162 179 0
-1163 181 0
-1164 183 0
-1165 185 0
-1166 187 0
-1167 189 0
-1168 191 0
-1169 193 0
-1170 195 0
-1171 197 0
-1172 199 0
-1173 201 0
-1174 203 0
-1175 205 0
-1176 207 0
-1177 209 0
-1178 211 0
-1179 213 0
-1180 215 0
-1181 217 0
-1182 219 0
-1183 221 0
-1184 223 0
-1185 225 0
-1186 227 0
-1187 229 0
-1188 231 0
-1189 233 0
-1190 235 0
-1191 237 0
-1192 239 0
-1193 241 0
-1194 243 0
-1195 245 0
-1196 247 0
-1197 249 0
-1198 251 0
-1199 253 0
-1200 255 0
-1201 257 0
-1202 259 0
-1203 261 0
-1204 263 0
-1205 265 0
-1206 267 0
-1207 269 0
-1208 271 0
-1209 273 0
-1210 275 0
-1211 277 0
-1212 279 0
-1213 281 0
-1214 283 0
-1215 285 0
-1216 287 0
-1217 289 0
-1218 291 0
-1219 293 0
-1220 295 0
-1221 297 0
-1222 299 0
-1223 301 0
-1224 303 0
-1225 305 0
-1226 307 0
-1227 309 0
-1228 311 0
-1229 313 0
-1230 315 0
-1231 317 0
-1232 319 0
-1233 321 0
-1234 323 0
-1235 325 0
-1236 327 0
-1237 329 0
-1238 331 0
-1239 333 0
-1240 335 0
-1241 337 0
-1242 339 0
-1243 341 0
-1244 343 0
-1245 345 0
-1246 347 0
-1247 349 0
-1248 351 0
-1249 353 0
-1250 355 0
-1251 357 0
-1252 359 0
-1253 361 0
-1254 363 0
-1255 365 0
-1256 367 0
-1257 369 0
-1258 371 0
-1259 373 0
-1260 375 0
-1261 377 0
-1262 379 0
-1263 381 0
-1264 383 0
-1265 385 0
-1266 387 0
-1267 389 0
-1268 391 0
-1269 393 0
-1270 395 0
-1271 397 0
-1272 399 0
-1273 401 0
-1274 403 0
-1275 405 0
-1276 407 0
-1277 409 0
-1278 411 0
-1279 413 0
-1280 415 0
-1281 417 0
-1282 419 0
-1283 421 0
-1284 423 0
-1285 425 0
-1286 427 0
-1287 429 0
-1288 431 0
-1289 433 0
-1290 435 0
-1291 437 0
-1292 439 0
-1293 441 0
-1294 443 0
-1295 445 0
-1296 447 0
-1297 449 0
-1298 451 0
-1299 453 0
-1300 455 0
-1132 626 0
-1133 628 0
-1134 630 0
-1135 632 0
-1136 634 0
-1137 636 0
-1138 638 0
-1139 640 0
-1140 642 0
-1141 644 0
-1142 646 0
-1143 648 0
-1144 650 0
-1145 652 0
-1146 654 0
-1147 656 0
-1148 658 0
-1149 660 0
-1150 662 0
-1151 664 0
-1152 666 0
-1153 668 0
-1154 670 0
-1155 672 0
-1156 674 0
-1157 676 0
-1158 678 0
-1159 680 0
-1160 682 0
-1161 684 0
-1162 686 0
-1163 688 0
-1164 690 0
-1165 692 0
-1166 694 0
-1167 696 0
-1168 698 0
-1169 700 0
-1170 702 0
-1171 704 0
-1172 706 0
-1173 708 0
-1174 710 0
-1175 712 0
-1176 714 0
-1177 716 0
-1178 718 0
-1179 720 0
-1180 722 0
-1181 724 0
-1182 726 0
-1183 728 0
-1184 730 0
-1185 732 0
-1186 734 0
-1187 736 0
-1188 738 0
-1189 740 0
-1190 742 0
-1191 744 0
-1192 746 0
-1193 748 0
-1194 750 0
-1195 752 0
-1196 754 0
-1197 756 0
-1198 758 0
-1199 760 0
-1200 762 0
-1201 764 0
-1202 766 0
-1203 768 0
-1204 770 0
-1205 772 0
-1206 774 0
-1207 776 0
-1208 778 0
-1209 780 0
-1210 782 0
-1211 784 0
-1212 786 0
-1213 788 0
-1214 790 0
-1215 792 0
-1216 794 0
-1217 796 0
-1218 798 0
-1219 800 0
-1220 802 0
-1221 804 0
-1222 806 0
-1223 808 0
-1224 810 0
-1225 812 0
-1226 814 0
-1227 816 0
-1228 818 0
-1229 820 0
-1230 822 0
-1231 824 0
-1232 826 0
-1233 828 0
-1234 830 0
-1235 832 0
-1236 834 0
-1237 836 0
-1238 838 0
-1239 840 0
-1240 842 0
-1241 844 0
-1242 846 0
-1243 848 0
-1244 850 0
-1245 852 0
-1246 854 0
-1247 856 0
-1248 858 0
-1249 860 0
-1250 862 0
-1251 864 0
-1252 866 0
-1253 868 0
-1254 870 0
-1255 872 0
-1256 874 0
-1257 876 0
-1258 878 0
-1259 880 0
-1260 882 0
-1261 884 0
-1262 886 0
-1263 888 0
-1264 890 0
-1265 892 0
-1266 894 0
-1267 896 0
-1268 898 0
-1269 900 0
-1270 902 0
-1271 904 0
-1272 906 0
-1273 908 0
-1274 910 0
-1275 912 0
-1276 914 0
-1277 916 0
-1278 918 0
-1279 920 0
-1280 922 0
-1281 924 0
-1282 926 0
-1283 928 0
-1284 930 0
-1285 932 0
-1286 934 0
-1287 936 0
-1288 938 0
-1289 940 0
-1290 942 0
-1291 944 0
-1292 946 0
-1293 948 0
-1294 950 0
-1295 952 0
-1296 954 0
-1297 956 0
-1298 958 0
-1299 960 0
-1300 962 0
-1132 963 0
-1133 964 0
-1134 965 0
-1135 966 0
-1136 967 0
-1137 968 0
-1138 969 0
-1139 970 0
-1140 971 0
-1141 972 0
-1142 973 0
-1143 974 0
-1144 975 0
-1145 976 0
-1146 977 0
-1147 978 0
-1148 979 0
-1149 980 0
-1150 981 0
-1151 982 0
-1152 983 0
-1153 984 0
-1154 985 0
-1155 986 0
-1156 987 0
-1157 988 0
-1158 989 0
-1159 990 0
-1160 991 0
-1161 992 0
-1162 993 0
-1163 994 0
-1164 995 0
-1165 996 0
-1166 997 0
-1167 998 0
-1168 999 0
-1169 1000 0
-1170 1001 0
-1171 1002 0
-1172 1003 0
-1173 1004 0
-1174 1005 0
-1175 1006 0
-1176 1007 0
-1177 1008 0
-1178 1009 0
-1179 1010 0
-1180 1011 0
-1181 1012 0
-1182 1013 0
-1183 1014 0
-1184 1015 0
-1185 1016 0
-1186 1017 0
-1187 1018 0
-1188 1019 0
-1189 1020 0
-1190 1021 0
-1191 1022 0
-1192 1023 0
-1193 1024 0
-1194 1025 0
-1195 1026 0
-1196 1027 0
-1197 1028 0
-1198 1029 0
-1199 1030 0
-1200 1031 0
-1201 1032 0
-1202 1033 0
-1203 1034 0
-1204 1035 0
-1205 1036 0
-1206 1037 0
-1207 1038 0
-1208 1039 0
-1209 1040 0
-1210 1041 0
-1211 1042 0
-1212 1043 0
-1213 1044 0
-1214 1045 0
-1215 1046 0
-1216 1047 0
-1217 1048 0
-1218 1049 0
-1219 1050 0
-1220 1051 0
-1221 1052 0
-1222 1053 0
-1223 1054 0
-1224 1055 0
-1225 1056 0
-1226 1057 0
-1227 1058 0
-1228 1059 0
-1229 1060 0
-1230 1061 0
-1231 1062 0
-1232 1063 0
-1233 1064 0
-1234 1065 0
-1235 1066 0
-1236 1067 0
-1237 1068 0
-1238 1069 0
-1239 1070 0
-1240 1071 0
-1241 1072 0
-1242 1073 0
-1243 1074 0
-1244 1075 0
-1245 1076 0
-1246 1077 0
-1247 1078 0
-1248 1079 0
-1249 1080 0
-1250 1081 0
-1251 1082 0
-1252 1083 0
-1253 1084 0
-1254 1085 0
-1255 1086 0
-1256 1087 0
-1257 1088 0
-1258 1089 0
-1259 1090 0
-1260 1091 0
-1261 1092 0
-1262 1093 0
-1263 1094 0
-1264 1095 0
-1265 1096 0
-1266 1097 0
-1267 1098 0
-1268 1099 0
-1269 1100 0
-1270 1101 0
-1271 1102 0
-1272 1103 0
-1273 1104 0
-1274 1105 0
-1275 1106 0
-1276 1107 0
-1277 1108 0
-1278 1109 0
-1279 1110 0
-1280 1111 0
-1281 1112 0
-1282 1113 0
-1283 1114 0
-1284 1115 0
-1285 1116 0
-1286 1117 0
-1287 1118 0
-1288 1119 0
-1289 1120 0
-1290 1121 0
-1291 1122 0
-1292 1123 0
-1293 1124 0
-1294 1125 0
-1295 1126 0
-1296 1127 0
-1297 1128 0
-1298 1129 0
-1299 1130 0
-1300 1131 0
1132 0
1133 0
1134 0
1135 0
1136 0
1137 0
1138 0
1139 0
1140 0
1141 0
1142 0
1143 0
1144 0
1145 0
1146 0
1147 0
1148 0
1149 0
1150 0
1151 0
1152 0
1153 0
1154 0
1155 0
1156 0
1157 0
1158 0
1159 0
1160 0
1161 0
1162 0
1163 0
1164 0
1165 0
1166 0
1167 0
1168 0
1169 0
1170 0
1171 0
1172 0
1173 0
1174 0
1175 0
1176 0
1177 0
1178 0
1179 0
1180 0
1181 0
1182 0
1183 0
1184 0
1185 0
1186 0
1187 0
1188 0
1189 0
1190 0
1191 0
1192 0
1193 0
1194 0
1195 0
1196 0
1197 0
1198 0
1199 0
1200 0
1201 0
1202 0
1203 0
1204 0
1205 0
1206 0
1207 0
1208 0
1209 0
1210 0
1211 0
1212 0
1213 0
1214 0
1215 0
1216 0
1217 0
1218 0
1219 0
1220 0
1221 0
1222 0
1223 0
1224 0
1225 0
1226 0
1227 0
1228 0
1229 0
1230 0
1231 0
1232 0
1233 0
1234 0
1235 0
1236 0
1237 0
1238 0
1239 0
1240 0
1241 0
1242 0
1243 0
1244 0
1245 0
1246 0
1247 0
1248 0
1249 0
1250 0
1251 0
1252 0
1253 0
1254 0
1255 0
1256 0
1257 0
1258 0
1259 0
1260 0
1261 0
1262 0
1263 0
1264 0
1265 0
1266 0
1267 0
1268 0
1269 0
1270 0
1271 0
1272 0
1273 0
1274 0
1275 0
1276 0
1277 0
1278 0
1279 0
1280 0
1281 0
1282 0
1283 0
1284 0
1285 0
1286 0
1287 0
1288 0
1289 0
1290 0
1291 0
1292 0
1293 0
1294 0
1295 0
1296 0
1297 0
1298 0
1299 0
1300 0
1301 0
1302 1303 0
-1302 -1303 0
-1302 -1304 1305 0
-1302 -1306 1307 0
-1302 -1308 1309 0
-1302 -1310 1311 0
-1302 -1312 1313 0
-1302 -1314 1315 0
-1302 -1316 1317 0
-1302 -1318 1319 0
-1302 -1320 1321 0
-1302 -1322 1323 0
-1302 -1324 1325 0
1305 1326 0
-1305 -1326 0
-1305 -1327 1302 0
-1305 -1328 1307 0
-1305 -1329 1309 0
-1305 -1330 1311 0
-1305 -1331 1313 0
-1305 -1332 1315 0
-1305 -1333 1317 0
-1305 -1334 1319 0
-1305 -1335 1321 0
-1305 -1336 1323 0
-1305 -1337 1325 0
1307 1338 0
-1307 -1338 0
-1307 -1339 1302 0
-1307 -1340 1305 0
-1307 -1341 1309 0
-1307 -1342 1311 0
-1307 -1343 1313 0
-1307 -1344 1315 0
-1307 -1345 1317 0
-1307 -1346 1319 0
-1307 -1347 1321 0
-1307 -1348 1323 0
-1307 -1349 1325 0
1309 1350 0
-1309 -1350 0
-1309 -1351 1302 0
-1309 -1352 1305 0
-1309 -1353 1307 0
-1309 -1354 1311 0
-1309 -1355 1313 0
-1309 -1356 1315 0
-1309 -1357 1317 0
-1309 -1358 1319 0
-1309 -1359 1321 0
-1309 -1360 1323 0
-1309 -1361 1325 0
1311 1362 0
-1311 -1362 0
-1311 -1363 1302 0
-1311 -1364 1305 0
-1311 -1365 1307 0
-1311 -1366 1309 0
-1311 -1367 1313 0
-1311 -1368 1315 0
-1311 -1369 1317 0
-1311 -1370 1319 0
-1311 -1371 1321 0
-1311 -1372 1323 0
-1311 -1373 1325 0
1313 1374 0
-1313 -1374 0
-1313 -1375 1302 0
-1313 -1376 1305 0
-1313 -1377 1307 0
-1313 -1378 1309 0
-1313 -1379 1311 0
-1313 -1380 1315 0
-1313 -1381 1317 0
-1313 -1382 1319 0
-1313 -1383 1321 0
-1313 -1384 1323 0
-1313 -1385 1325 0
1315 1386 0
-1315 -1386 0
-1315 -1387 1302 0
-1315 -1388 1305 0
-1315 -1389 1307 0
-1315 -1390 1309 0
-1315 -1391 1311 0
-1315 -1392 1313 0
-1315 -1393 1317 0
-1315 -1394 1319 0
-1315 -1395 1321 0
-1315 -1396 1323 0
-1315 -1397 1325 0
1317 1398 0
-1317 -1398 0
-1317 -1399 1302 0
-1317 -1400 1305 0
-1317 -1401 1307 0
-1317 -1402 1309 0
-1317 -1403 1311 0
-1317 -1404 1313 0
-1317 -1405 1315 0
-1317 -1406 1319 0
-1317 -1407 1321 0
-1317 -1408 1323 0
-1317 -1409 1325 0
1319 1410 0
-1319 -1410 0
-1319 -1411 1302 0
-1319 -1412 1305 0
-1319 -1413 1307 0
-1319 -1414 1309 0
-1319 -1415 1311 0
-1319 -1416 1313 0
-1319 -1417 1315 0
-1319 -1418 1317 0
-1319 -1419 1321 0
-1319 -1420 1323 0
-1319 -1421 1325 0
1321 1422 0
-1321 -1422 0
-1321 -1423 1302 0
-1321 -1424 1305 0
-1321 -1425 1307 0
-1321 -1426 1309 0
-1321 -1427 1311 0
-1321 -1428 1313 0
-1321 -1429 1315 0
-1321 -1430 1317 0
-1321 -1431 1319 0
-1321 -1432 1323 0
-1321 -1433 1325 0
1323 1434 0
-1323 -1434 0
-1323 -1435 1302 0
-1323 -1436 1305 0
-1323 -1437 1307 0
-1323 -1438 1309 0
-1323 -1439 1311 0
-1323 -1440 1313 0
-1323 -1441 1315 0
-1323 -1442 1317 0
-1323 -1443 1319 0
-1323 -1444 1321 0
-1323 -1445 1325 0
1325 1446 0
-1325 -1446 0
-1325 -1447 1302 0
-1325 -1448 1305 0
-1325 -1449 1307 0
-1325 -1450 1309 0
-1325 -1451 1311 0
-1325 -1452 1313 0
-1325 -1453 1315 0
-1325 -1454 1317 0
-1325 -1455 1319 0
-1325 -1456 1321 0
-1325 -1457 1323 0
1458 0
1303 1302 0
-1303 -1302 0
-1303 -1305 1304 0
-1303 -1307 1306 0
-1303 -1309 1308 0
-1303 -1311 1310 0
-1303 -1313 1312 0
-1303 -1315 1314 0
-1303 -1317 1316 0
-1303 -1319 1318 0
-1303 -1321 1320 0
-1303 -1323 1322 0
-1303 -1325 1324 0
1304 1327 0
-1304 -1327 0
-1304 -1326 1303 0
-1304 -1328 1306 0
-1304 -1329 1308 0
-1304 -1330 1310 0
-1304 -1331 1312 0
-1304 -1332 1314 0
-1304 -1333 1316 0
-1304 -1334 1318 0
-1304 -1335 1320 0
-1304 -1336 1322 0
-1304 -1337 1324 0
1306 1339 0
-1306 -1339 0
-1306 -1338 1303 0
-1306 -1340 1304 0
-1306 -1341 1308 0
-1306 -1342 1310 0
-1306 -1343 1312 0
-1306 -1344 1314 0
-1306 -1345 1316 0
-1306 -1346 1318 0
-1306 -1347 1320 0
-1306 -1348 1322 0
-1306 -1349 1324 0
1308 1351 0
-1308 -1351 0
-1308 -1350 1303 0
-1308 -1352 1304 0
-1308 -1353 1306 0
-1308 -1354 1310 0
-1308 -1355 1312 0
-1308 -1356 1314 0
-1308 -1357 1316 0
-1308 -1358 1318 0
-1308 -1359 1320 0
-1308 -1360 1322 0
-1308 -1361 1324 0
1310 1363 0
-1310 -1363 0
-1310 -1362 1303 0
-1310 -1364 1304 0
-1310 -1365 1306 0
-1310 -1366 1308 0
-1310 -1367 1312 0
-1310 -1368 1314 0
-1310 -1369 1316 0
-1310 -1370 1318 0
-1310 -1371 1320 0
-1310 -1372 1322 0
-1310 -1373 1324 0
1312 1375 0
-1312 -1375 0
-1312 -1374 1303 0
-1312 -1376 1304 0
-1312 -1377 1306 0
-1312 -1378 1308 0
-1312 -1379 1310 0
-1312 -1380 1314 0
-1312 -1381 1316 0
-1312 -1382 1318 0
-1312 -1383 1320 0
-1312 -1384 1322 0
-1312 -1385 1324 0
1314 1387 0
-1314 -1387 0
-1314 -1386 1303 0
-1314 -1388 1304 0
-1314 -1389 1306 0
-1314 -1390 1308 0
-1314 -1391 1310 0
-1314 -1392 1312 0
-1314 -1393 1316 0
-1314 -1394 1318 0
-1314 -1395 1320 0
-1314 -1396 1322 0
-1314 -1397 1324 0
1316 1399 0
-1316 -1399 0
-1316 -1398 1303 0
-1316 -1400 1304 0
-1316 -1401 1306 0
-1316 -1402 1308 0
-1316 -1403 1310 0
-1316 -1404 1312 0
-1316 -1405 1314 0
-1316 -1406 1318 0
-1316 -1407 1320 0
-1316 -1408 1322 0
-1316 -1409 1324 0
1318 1411 0
-1318 -1411 0
-1318 -1410 1303 0
-1318 -1412 1304 0
-1318 -1413 1306 0
-1318 -1414 1308 0
-1318 -1415 1310 0
-1318 -1416 1312 0
-1318 -1417 1314 0
-1318 -1418 1316 0
-1318 -1419 1320 0
-1318 -1420 1322 0
-1318 -1421 1324 0
1320 1423 0
-1320 -1423 0
-1320 -1422 1303 0
-1320 -1424 1304 0
-1320 -1425 1306 0
-1320 -1426 1308 0
-1320 -1427 1310 0
-1320 -1428 1312 0
-1320 -1429 1314 0
-1320 -1430 1316 0
-1320 -1431 1318 0
-1320 -1432 1322 0
-1320 -1433 1324 0
1322 1435 0
-1322 -1435 0
-1322 -1434 1303 0
-1322 -1436 1304 0
-1322 -1437 1306 0
-1322 -1438 1308 0
-1322 -1439 1310 0
-1322 -1440 1312 0
-1322 -1441 1314 0
-1322 -1442 1316 0
-1322 -1443 1318 0
-1322 -1444 1320 0
-1322 -1445 1324 0
1324 1447 0
-1324 -1447 0
-1324 -1446 1303 0
-1324 -1448 1304 0
-1324 -1449 1306 0
-1324 -1450 1308 0
-1324 -1451 1310 0
-1324 -1452 1312 0
-1324 -1453 1314 0
-1324 -1454 1316 0
-1324 -1455 1318 0
-1324 -1456 1320 0
-1324 -1457 1322 0
1459 0
1326 1305 0
-1326 -1305 0
-1326 -1302 1327 0
-1326 -1307 1328 0
-1326 -1309 1329 0
-1326 -1311 1330 0
-1326 -1313 1331 0
-1326 -1315 1332 0
-1326 -1317 1333 0
-1326 -1319 1334 0
-1326 -1321 1335 0
-1326 -1323 1336 0
-1326 -1325 1337 0
1327 1304 0
-1327 -1304 0
-1327 -1303 1326 0
-1327 -1306 1328 0
-1327 -1308 1329 0
-1327 -1310 1330 0
-1327 -1312 1331 0
-1327 -1314 1332 0
-1327 -1316 1333 0
-1327 -1318 1334 0
-1327 -1320 1335 0
-1327 -1322 1336 0
-1327 -1324 1337 0
1328 1340 0
-1328 -1340 0
-1328 -1338 1326 0
-1328 -1339 1327 0
-1328 -1341 1329 0
-1328 -1342 1330 0
-1328 -1343 1331 0
-1328 -1344 1332 0
-1328 -1345 1333 0
-1328 -1346 1334 0
-1328 -1347 1335 0
-1328 -1348 1336 0
-1328 -1349 1337 0
1329 1352 0
-1329 -1352 0
-1329 -1350 1326 0
-1329 -1351 1327 0
-1329 -1353 1328 0
-1329 -1354 1330 0
-1329 -1355 1331 0
-1329 -1356 1332 0
-1329 -1357 1333 0
-1329 -1358 1334 0
-1329 -1359 1335 0
-1329 -1360 1336 0
-1329 -1361 1337 0
1330 1364 0
-1330 -1364 0
-1330 -1362 1326 0
-1330 -1363 1327 0
-1330 -1365 1328 0
-1330 -1366 1329 0
-1330 -1367 1331 0
-1330 -1368 1332 0
-1330 -1369 1333 0
-1330 -1370 1334 0
-1330 -1371 1335 0
-1330 -1372 1336 0
-1330 -1373 1337 0
1331 1376 0
-1331 -1376 0
-1331 -1374 1326 0
-1331 -1375 1327 0
-1331 -1377 1328 0
-1331 -1378 1329 0
-1331 -1379 1330 0
-1331 -1380 1332 0
-1331 -1381 1333 0
-1331 -1382 1334 0
-1331 -1383 1335 0
-1331 -1384 1336 0
-1331 -1385 1337 0
1332 1388 0
-1332 -1388 0
-1332 -1386 1326 0
-1332 -1387 1327 0
-1332 -1389 1328 0
-1332 -1390 1329 0
-1332 -1391 1330 0
-1332 -1392 1331 0
-1332 -1393 1333 0
-1332 -1394 1334 0
-1332 -1395 1335 0
-1332 -1396 1336 0
-1332 -1397 1337 0
1333 1400 0
-1333 -1400 0
-1333 -1398 1326 0
-1333 -1399 1327 0
-1333 -1401 1328 0
-1333 -1402 1329 0
-1333 -1403 1330 0
-1333 -1404 1331 0
-1333 -1405 1332 0
-1333 -1406 1334 0
-1333 -1407 1335 0
-1333 -1408 1336 0
-1333 -1409 1337 0
1334 1412 0
-1334 -1412 0
-1334 -1410 1326 0
-1334 -1411 1327 0
-1334 -1413 1328 0
-1334 -1414 1329 0
-1334 -1415 1330 0
-1334 -1416 1331 0
-1334 -1417 1332 0
-1334 -1418 1333 0
-1334 -1419 1335 0
-1334 -1420 1336 0
-1334 -1421 1337 0
1335 1424 0
-1335 -1424 0
-1335 -1422 1326 0
-1335 -1423 1327 0
-1335 -1425 1328 0
-1335 -1426 1329 0
-1335 -1427 1330 0
-1335 -1428 1331 0
-1335 -1429 1332 0
-1335 -1430 1333 0
-1335 -1431 1334 0
-1335 -1432 1336 0
-1335 -1433 1337 0
1336 1436 0
-1336 -1436 0
-1336 -1434 1326 0
-1336 -1435 1327 0
-1336 -1437 1328 0
-1336 -1438 1329 0
-1336 -1439 1330 0
-1336 -1440 1331 0
-1336 -1441 1332 0
-1336 -1442 1333 0
-1336 -1443 1334 0
-1336 -1444 1335 0
-1336 -1445 1337 0
1337 1448 0
-1337 -1448 0
-1337 -1446 1326 0
-1337 -1447 1327 0
-1337 -1449 1328 0
-1337 -1450 1329 0
-1337 -1451 1330 0
-1337 -1452 1331 0
-1337 -1453 1332 0
-1337 -1454 1333 0
-1337 -1455 1334 0
-1337 -1456 1335 0
-1337 -1457 1336 0
1460 0
1338 1307 0
-1338 -1307 0
-1338 -1302 1339 0
-1338 -1305 1340 0
-1338 -1309 1341 0
-1338 -1311 1342 0
-1338 -1313 1343 0
-1338 -1315 1344 0
-1338 -1317 1345 0
-1338 -1319 1346 0
-1338 -1321 1347 0
-1338 -1323 1348 0
-1338 -1325 1349 0
1339 1306 0
-1339 -1306 0
-1339 -1303 1338 0
-1339 -1304 1340 0
-1339 -1308 1341 0
-1339 -1310 1342 0
-1339 -1312 1343 0
-1339 -1314 1344 0
-1339 -1316 1345 0
-1339 -1318 1346 0
-1339 -1320 1347 0
-1339 -1322 1348 0
-1339 -1324 1349 0
1340 1328 0
-1340 -1328 0
-1340 -1326 1338 0
-1340 -1327 1339 0
-1340 -1329 1341 0
-1340 -1330 1342 0
-1340 -1331 1343 0
-1340 -1332 1344 0
-1340 -1333 1345 0
-1340 -1334 1346 0
-1340 -1335 1347 0
-1340 -1336 1348 0
-1340 -1337 1349 0
1341 1353 0
-1341 -1353 0
-1341 -1350 1338 0
-1341 -1351 1339 0
-1341 -1352 1340 0
-1341 -1354 1342 0
-1341 -1355 1343 0
-1341 -1356 1344 0
-1341 -1357 1345 0
-1341 -1358 1346 0
-1341 -1359 1347 0
-1341 -1360 1348 0
-1341 -1361 1349 0
1342 1365 0
-1342 -1365 0
-1342 -1362 1338 0
-1342 -1363 1339 0
-1342 -1364 1340 0
-1342 -1366 1341 0
-1342 -1367 1343 0
-1342 -1368 1344 0
-1342 -1369 1345 0
-1342 -1370 1346 0
-1342 -1371 1347 0
-1342 -1372 1348 0
-1342 -1373 1349 0
1343 1377 0
-1343 -1377 0
-1343 -1374 1338 0
-1343 -1375 1339 0
-1343 -1376 1340 0
-1343 -1378 1341 0
-1343 -1379 1342 0
-1343 -1380 1344 0
-1343 -1381 1345 0
-1343 -1382 1346 0
-1343 -1383 1347 0
-1343 -1384 1348 0
-1343 -1385 1349 0
1344 1389 0
-1344 -1389 0
-1344 -1386 1338 0
-1344 -1387 1339 0
-1344 -1388 1340 0
-1344 -1390 1341 0
-1344 -1391 1342 0
-1344 -1392 1343 0
-1344 -1393 1345 0
-1344 -1394 1346 0
-1344 -1395 1347 0
-1344 -1396 1348 0
-1344 -1397 1349 0
1345 1401 0
-1345 -1401 0
-1345 -1398 1338 0
-1345 -1399 1339 0
-1345 -1400 1340 0
-1345 -1402 1341 0
-1345 -1403 1342 0
-1345 -1404 1343 0
-1345 -1405 1344 0
-1345 -1406 1346 0
-1345 -1407 1347 0
-1345 -1408 1348 0
-1345 -1409 1349 0
1346 1413 0
-1346 -1413 0
-1346 -1410 1338 0
-1346 -1411 1339 0
-1346 -1412 1340 0
-1346 -1414 1341 0
-1346 -1415 1342 0
-1346 -1416 1343 0
-1346 -1417 1344 0
-1346 -1418 1345 0
-1346 -1419 1347 0
-1346 -1420 1348 0
-1346 -1421 1349 0
1347 1425 0
-1347 -1425 0
-1347 -1422 1338 0
-1347 -1423 1339 0
-1347 -1424 1340 0
-1347 -1426 1341 0
-1347 -1427 1342 0
-1347 -1428 1343 0
-1347 -1429 1344 0
-1347 -1430 1345 0
-1347 -1431 1346 0
-1347 -1432 1348 0
-1347 -1433 1349 0
1348 1437 0
-1348 -1437 0
-1348 -1434 1338 0
-1348 -1435 1339 0
-1348 -1436 1340 0
-1348 -1438 1341 0
-1348 -1439 1342 0
-1348 -1440 1343 0
-1348 -1441 1344 0
-1348 -1442 1345 0
-1348 -1443 1346 0
-1348 -1444 1347 0
-1348 -1445 1349 0
1349 1449 0
-1349 -1449 0
-1349 -1446 1338 0
-1349 -1447 1339 0
-1349 -1448 1340 0
-1349 -1450 1341 0
-1349 -1451 1342 0
-1349 -1452 1343 0
-1349 -1453 1344 0
-1349 -1454 1345 0
-1349 -1455 1346 0
-1349 -1456 1347 0
-1349 -1457 1348 0
1461 0
1350 1309 0
-1350 -1309 0
-1350 -1302 1351 0
-1350 -1305 1352 0
-1350 -1307 1353 0
-1350 -1311 1354 0
-1350 -1313 1355 0
-1350 -1315 1356 0
-1350 -1317 1357 0
-1350 -1319 1358 0
-1350 -1321 1359 0
-1350 -1323 1360 0
-1350 -1325 1361 0
1351 1308 0
-1351 -1308 0
-1351 -1303 1350 0
-1351 -1304 1352 0
-1351 -1306 1353 0
-1351 -1310 1354 0
-1351 -1312 1355 0
-1351 -1314 1356 0
-1351 -1316 1357 0
-1351 -1318 1358 0
-1351 -1320 1359 0
-1351 -1322 1360 0
-1351 -1324 1361 0
1352 1329 0
-1352 -1329 0
-1352 -1326 1350 0
-1352 -1327 1351 0
-1352 -1328 1353 0
-1352 -1330 1354 0
-1352 -1331 1355 0
-1352 -1332 1356 0
-1352 -1333 1357 0
-1352 -1334 1358 0
-1352 -1335 1359 0
-1352 -1336 1360 0
-1352 -1337 1361 0
1353 1341 0
-1353 -1341 0
-1353 -1338 1350 0
-1353 -1339 1351 0
-1353 -1340 1352 0
-1353 -1342 1354 0
-1353 -1343 1355 0
-1353 -1344 1356 0
-1353 -1345 1357 0
-1353 -1346 1358 0
-1353 -1347 1359 0
-1353 -1348 1360 0
-1353 -1349 1361 0
1354 1366 0
-1354 -1366 0
-1354 -1362 1350 0
-1354 -1363 1351 0
-1354 -1364 1352 0
-1354 -1365 1353 0
-1354 -1367 1355 0
-1354 -1368 1356 0
-1354 -1369 1357 0
-1354 -1370 1358 0
-1354 -1371 1359 0
-1354 -1372 1360 0
-1354 -1373 1361 0
1355 1378 0
-1355 -1378 0
-1355 -1374 1350 0
-1355 -1375 1351 0
-1355 -1376 1352 0
-1355 -1377 1353 0
-1355 -1379 1354 0
-1355 -1380 1356 0
-1355 -1381 1357 0
-1355 -1382 1358 0
-1355 -1383 1359 0
-1355 -1384 1360 0
-1355 -1385 1361 0
1356 1390 0
-1356 -1390 0
-1356 -1386 1350 0
-1356 -1387 1351 0
-1356 -1388 1352 0
-1356 -1389 1353 0
-1356 -1391 1354 0
-1356 -1392 1355 0
-1356 -1393 1357 0
-1356 -1394 1358 0
-1356 -1395 1359 0
-1356 -1396 1360 0
-1356 -1397 1361 0
1357 1402 0
-1357 -1402 0
-1357 -1398 1350 0
-1357 -1399 1351 0
-1357 -1400 1352 0
-1357 -1401 1353 0
-1357 -1403 1354 0
-1357 -1404 1355 0
-1357 -1405 1356 0
-1357 -1406 1358 0
-1357 -1407 1359 0
-1357 -1408 1360 0
-1357 -1409 1361 0
1358 1414 0
-1358 -1414 0
-1358 -1410 1350 0
-1358 -1411 1351 0
-1358 -1412 1352 0
-1358 -1413 1353 0
-1358 -1415 1354 0
-1358 -1416 1355 0
-1358 -1417 1356 0
-1358 -1418 1357 0
-1358 -1419 1359 0
-1358 -1420 1360 0
-1358 -1421 1361 0
1359 1426 0
-1359 -1426 0
-1359 -1422 1350 0
-1359 -1423 1351 0
-1359 -1424 1352 0
-1359 -1425 1353 0
-1359 -1427 1354 0
-1359 -1428 1355 0
-1359 -1429 1356 0
-1359 -1430 1357 0
-1359 -1431 1358 0
-1359 -1432 1360 0
-1359 -1433 1361 0
1360 1438 0
-1360 -1438 0
-1360 -1434 1350 0
-1360 -1435 1351 0
-1360 -1436 1352 0
-1360 -1437 1353 0
-1360 -1439 1354 0
-1360 -1440 1355 0
-1360 -1441 1356 0
-1360 -1442 1357 0
-1360 -1443 1358 0
-1360 -1444 1359 0
-1360 -1445 1361 0
1361 1450 0
-1361 -1450 0
-1361 -1446 1350 0
-1361 -1447 1351 0
-1361 -1448 1352 0
-1361 -1449 1353 0
-1361 -1451 1354 0
-1361 -1452 1355 0
-1361 -1453 1356 0
-1361 -1454 1357 0
-1361 -1455 1358 0
-1361 -1456 1359 0
-1361 -1457 1360 0
1462 0
1362 1311 0
-1362 -1311 0
-1362 -1302 1363 0
-1362 -1305 1364 0
-1362 -1307 1365 0
-1362 -1309 1366 0
-1362 -1313 1367 0
-1362 -1315 1368 0
-1362 -1317 1369 0
-1362 -1319 1370 0
-1362 -1321 1371 0
-1362 -1323 1372 0
-1362 -1325 1373 0
1363 1310 0
-1363 -1310 0
-1363 -1303 1362 0
-1363 -1304 1364 0
-1363 -1306 1365 0
-1363 -1308 1366 0
-1363 -1312 1367 0
-1363 -1314 1368 0
-1363 -1316 1369 0
-1363 -1318 1370 0
-1363 -1320 1371 0
-1363 -1322 1372 0
-1363 -1324 1373 0
1364 1330 0
-1364 -1330 0
-1364 -1326 1362 0
-1364 -1327 1363 0
-1364 -1328 1365 0
-1364 -1329 1366 0
-1364 -1331 1367 0
-1364 -1332 1368 0
-1364 -1333 1369 0
-1364 -1334 1370 0
-1364 -1335 1371 0
-1364 -1336 1372 0
-1364 -1337 1373 0
1365 1342 0
-1365 -1342 0
-1365 -1338 1362 0
-1365 -1339 1363 0
-1365 -1340 1364 0
-1365 -1341 1366 0
-1365 -1343 1367 0
-1365 -1344 1368 0
-1365 -1345 1369 0
-1365 -1346 1370 0
-1365 -1347 1371 0
-1365 -1348 1372 0
-1365 -1349 1373 0
1366 1354 0
-1366 -1354 0
-1366 -1350 1362 0
-1366 -1351 1363 0
-1366 -1352 1364 0
-1366 -1353 1365 0
-1366 -1355 1367 0
-1366 -1356 1368 0
-1366 -1357 1369 0
-1366 -1358 1370 0
-1366 -1359 1371 0
-1366 -1360 1372 0
-1366 -1361 1373 0
1367 1379 0
-1367 -1379 0
-1367 -1374 1362 0
-1367 -1375 1363 0
-1367 -1376 1364 0
-1367 -1377 1365 0
-1367 -1378 1366 0
-1367 -1380 1368 0
-1367 -1381 1369 0
-1367 -1382 1370 0
-1367 -1383 1371 0
-1367 -1384 1372 0
-1367 -1385 1373 0
1368 1391 0
-1368 -1391 0
-1368 -1386 1362 0
-1368 -1387 1363 0
-1368 -1388 1364 0
-1368 -1389 1365 0
-1368 -1390 1366 0
-1368 -1392 1367 0
-1368 -1393 1369 0
-1368 -1394 1370 0
-1368 -1395 1371 0
-1368 -1396 1372 0
-1368 -1397 1373 0
1369 1403 0
-1369 -1403 0
-1369 -1398 1362 0
-1369 -1399 1363 0
-1369 -1400 1364 0
-1369 -1401 1365 0
-1369 -1402 1366 0
-1369 -1404 1367 0
-1369 -1405 1368 0
-1369 -1406 1370 0
-1369 -1407 1371 0
-1369 -1408 1372 0
-1369 -1409 1373 0
1370 1415 0
-1370 -1415 0
-1370 -1410 1362 0
-1370 -1411 1363 0
-1370 -1412 1364 0
-1370 -1413 1365 0
-1370 -1414 1366 0
-1370 -1416 1367 0
-1370 -1417 1368 0
-1370 -1418 1369 0
-1370 -1419 1371 0
-1370 -1420 1372 0
-1370 -1421 1373 0
1371 1427 0
-1371 -1427 0
-1371 -1422 1362 0
-1371 -1423 1363 0
-1371 -1424 1364 0
-1371 -1425 1365 0
-1371 -1426 1366 0
-1371 -1428 1367 0
-1371 -1429 1368 0
-1371 -1430 1369 0
-1371 -1431 1370 0
-1371 -1432 1372 0
-1371 -1433 1373 0
1372 1439 0
-1372 -1439 0
-1372 -1434 1362 0
-1372 -1435 1363 0
-1372 -1436 1364 0
-1372 -1437 1365 0
-1372 -1438 1366 0
-1372 -1440 1367 0
-1372 -1441 1368 0
-1372 -1442 1369 0
-1372 -1443 1370 0
-1372 -1444 1371 0
-1372 -1445 1373 0
1373 1451 0
-1373 -1451 0
-1373 -1446 1362 0
-1373 -1447 1363 0
-1373 -1448 1364 0
-1373 -1449 1365 0
-1373 -1450 1366 0
-1373 -1452 1367 0
-1373 -1453 1368 0
-1373 -1454 1369 0
-1373 -1455 1370 0
-1373 -1456 1371 0
-1373 -1457 1372 0
1463 0
1374 1313 0
-1374 -1313 0
-1374 -1302 1375 0
-1374 -1305 1376 0
-1374 -1307 1377 0
-1374 -1309 1378 0
-1374 -1311 1379 0
-1374 -1315 1380 0
-1374 -1317 1381 0
-1374 -1319 1382 0
-1374 -1321 1383 0
-1374 -1323 1384 0
-1374 -1325 1385 0
1375 1312 0
-1375 -1312 0
-1375 -1303 1374 0
-1375 -1304 1376 0
-1375 -1306 1377 0
-1375 -1308 1378 0
-1375 -1310 1379 0
-1375 -1314 1380 0
-1375 -1316 1381 0
-1375 -1318 1382 0
-1375 -1320 1383 0
-1375 -1322 1384 0
-1375 -1324 1385 0
1376 1331 0
-1376 -1331 0
-1376 -1326 1374 0
-1376 -1327 1375 0
-1376 -1328 1377 0
-1376 -1329 1378 0
-1376 -1330 1379 0
-1376 -1332 1380 0
-1376 -1333 1381 0
-1376 -1334 1382 0
-1376 -1335 1383 0
-1376 -1336 1384 0
-1376 -1337 1385 0
1377 1343 0
-1377 -1343 0
-1377 -1338 1374 0
-1377 -1339 1375 0
-1377 -1340 1376 0
-1377 -1341 1378 0
-1377 -1342 1379 0
-1377 -1344 1380 0
-1377 -1345 1381 0
-1377 -1346 1382 0
-1377 -1347 1383 0
-1377 -1348 1384 0
-1377 -1349 1385 0
1378 1355 0
-1378 -1355 0
-1378 -1350 1374 0
-1378 -1351 1375 0
-1378 -1352 1376 0
-1378 -1353 1377 0
-1378 -1354 1379 0
-1378 -1356 1380 0
-1378 -1357 1381 0
-1378 -1358 1382 0
-1378 -1359 1383 0
-1378 -1360 1384 0
-1378 -1361 1385 0
1379 1367 0
-1379 -1367 0
-1379 -1362 1374 0
-1379 -1363 1375 0
-1379 -1364 1376 0
-1379 -1365 1377 0
-1379 -1366 1378 0
-1379 -1368 1380 0
-1379 -1369 1381 0
-1379 -1370 1382 0
-1379 -1371 1383 0
-1379 -1372 1384 0
-1379 -1373 1385 0
1380 1392 0
-1380 -1392 0
-1380 -1386 1374 0
-1380 -1387 1375 0
-1380 -1388 1376 0
-1380 -1389 1377 0
-1380 -1390 1378 0
-1380 -1391 1379 0
-1380 -1393 1381 0
-1380 -1394 1382 0
-1380 -1395 1383 0
-1380 -1396 1384 0
-1380 -1397 1385 0
1381 1404 0
-1381 -1404 0
-1381 -1398 1374 0
-1381 -1399 1375 0
-1381 -1400 1376 0
-1381 -1401 1377 0
-1381 -1402 1378 0
-1381 -1403 1379 0
-1381 -1405 1380 0
-1381 -1406 1382 0
-1381 -1407 1383 0
-1381 -1408 1384 0
-1381 -1409 1385 0
1382 1416 0
-1382 -1416 0
-1382 -1410 1374 0
-1382 -1411 1375 0
-1382 -1412 1376 0
-1382 -1413 1377 0
-1382 -1414 1378 0
-1382 -1415 1379 0
-1382 -1417 1380 0
-1382 -1418 1381 0
-1382 -1419 1383 0
-1382 -1420 1384 0
-1382 -1421 1385 0
1383 1428 0
-1383 -1428 0
-1383 -1422 1374 0
-1383 -1423 1375 0
-1383 -1424 1376 0
-1383 -1425 1377 0
-1383 -1426 1378 0
-1383 -1427 1379 0
-1383 -1429 1380 0
-1383 -1430 1381 0
-1383 -1431 1382 0
-1383 -1432 1384 0
-1383 -1433 1385 0
1384 1440 0
-1384 -1440 0
-1384 -1434 1374 0
-1384 -1435 1375 0
-1384 -1436 1376 0
-1384 -1437 1377 0
-1384 -1438 1378 0
-1384 -1439 1379 0
-1384 -1441 1380 0
-1384 -1442 1381 0
-1384 -1443 1382 0
-1384 -1444 1383 0
-1384 -1445 1385 0
1385 1452 0
-1385 -1452 0
-1385 -1446 1374 0
-1385 -1447 1375 0
-1385 -1448 1376 0
-1385 -1449 1377 0
-1385 -1450 1378 0
-1385 -1451 1379 0
-1385 -1453 1380 0
-1385 -1454 1381 0
-1385 -1455 1382 0
-1385 -1456 1383 0
-1385 -1457 1384 0
1464 0
1386 1315 0
-1386 -1315 0
-1386 -1302 1387 0
-1386 -1305 1388 0
-1386 -1307 1389 0
-1386 -1309 1390 0
-1386 -1311 1391 0
-1386 -1313 1392 0
-1386 -1317 1393 0
-1386 -1319 1394 0
-1386 -1321 1395 0
-1386 -1323 1396 0
-1386 -1325 1397 0
1387 1314 0
-1387 -1314 0
-1387 -1303 1386 0
-1387 -1304 1388 0
-1387 -1306 1389 0
-1387 -1308 1390 0
-1387 -1310 1391 0
-1387 -1312 1392 0
-1387 -1316 1393 0
-1387 -1318 1394 0
-1387 -1320 1395 0
-1387 -1322 1396 0
-1387 -1324 1397 0
1388 1332 0
-1388 -1332 0
-1388 -1326 1386 0
-1388 -1327 1387 0
-1388 -1328 1389 0
-1388 -1329 1390 0
-1388 -1330 1391 0
-1388 -1331 1392 0
-1388 -1333 1393 0
-1388 -1334 1394 0
-1388 -1335 1395 0
-1388 -1336 1396 0
-1388 -1337 1397 0
1389 1344 0
-1389 -1344 0
-1389 -1338 1386 0
-1389 -1339 1387 0
-1389 -1340 1388 0
-1389 -1341 1390 0
-1389 -1342 1391 0
-1389 -1343 1392 0
-1389 -1345 1393 0
-1389 -1346 1394 0
-1389 -1347 1395 0
-1389 -1348 1396 0
-1389 -1349 1397 0
1390 1356 0
-1390 -1356 0
-1390 -1350 1386 0
-1390 -1351 1387 0
-1390 -1352 1388 0
-1390 -1353 1389 0
-1390 -1354 1391 0
-1390 -1355 1392 0
-1390 -1357 1393 0
-1390 -1358 1394 0
-1390 -1359 1395 0
-1390 -1360 1396 0
-1390 -1361 1397 0
1391 1368 0
-1391 -1368 0
-1391 -1362 1386 0
-1391 -1363 1387 0
-1391 -1364 1388 0
-1391 -1365 1389 0
-1391 -1366 1390 0
-1391 -1367 1392 0
-1391 -1369 1393 0
-1391 -1370 1394 0
-1391 -1371 1395 0
-1391 -1372 1396 0
-1391 -1373 1397 0
1392 1380 0
-1392 -1380 0
-1392 -1374 1386 0
-1392 -1375 1387 0
-1392 -1376 1388 0
-1392 -1377 1389 0
-1392 -1378 1390 0
-1392 -1379 1391 0
-1392 -1381 1393 0
-1392 -1382 1394 0
-1392 -1383 1395 0
-1392 -1384 1396 0
-1392 -1385 1397 0
1393 1405 0
-1393 -1405 0
-1393 -1398 1386 0
-1393 -1399 1387 0
-1393 -1400 1388 0
-1393 -1401 1389 0
-1393 -1402 1390 0
-1393 -1403 1391 0
-1393 -1404 1392 0
-1393 -1406 1394 0
-1393 -1407 1395 0
-1393 -1408 1396 0
-1393 -1409 1397 0
1394 1417 0
-1394 -1417 0
-1394 -1410 1386 0
-1394 -1411 1387 0
-1394 -1412 1388 0
-1394 -1413 1389 0
-1394 -1414 1390 0
-1394 -1415 1391 0
-1394 -1416 1392 0
-1394 -1418 1393 0
-1394 -1419 1395 0
-1394 -1420 1396 0
-1394 -1421 1397 0
1395 1429 0
-1395 -1429 0
-1395 -1422 1386 0
-1395 -1423 1387 0
-1395 -1424 1388 0
-1395 -1425 1389 0
-1395 -1426 1390 0
-1395 -1427 1391 0
-1395 -1428 1392 0
-1395 -1430 1393 0
-1395 -1431 1394 0
-1395 -1432 1396 0
-1395 -1433 1397 0
1396 1441 0
-1396 -1441 0
-1396 -1434 1386 0
-1396 -1435 1387 0
-1396 -1436 1388 0
-1396 -1437 1389 0
-1396 -1438 1390 0
-1396 -1439 1391 0
-1396 -1440 1392 0
-1396 -1442 1393 0
-1396 -1443 1394 0
-1396 -1444 1395 0
-1396 -1445 1397 0
1397 1453 0
-1397 -1453 0
-1397 -1446 1386 0
-1397 -1447 1387 0
-1397 -1448 1388 0
-1397 -1449 1389 0
-1397 -1450 1390 0
-1397 -1451 1391 0
-1397 -1452 1392 0
-1397 -1454 1393 0
-1397 -1455 1394 0
-1397 -1456 1395 0
-1397 -1457 1396 0
1465 0
1398 1317 0
-1398 -1317 0
-1398 -1302 1399 0
-1398 -1305 1400 0
-1398 -1307 1401 0
-1398 -1309 1402 0
-1398 -1311 1403 0
-1398 -1313 1404 0
-1398 -1315 1405 0
-1398 -1319 1406 0
-1398 -1321 1407 0
-1398 -1323 1408 0
-1398 -1325 1409 0
1399 1316 0
-1399 -1316 0
-1399 -1303 1398 0
-1399 -1304 1400 0
-1399 -1306 1401 0
-1399 -1308 1402 0
-1399 -1310 1403 0
-1399 -1312 1404 0
-1399 -1314 1405 0
-1399 -1318 1406 0
-1399 -1320 1407 0
-1399 -1322 1408 0
-1399 -1324 1409 0
1400 1333 0
-1400 -1333 0
-1400 -1326 1398 0
-1400 -1327 1399 0
-1400 -1328 1401 0
-1400 -1329 1402 0
-1400 -1330 1403 0
-1400 -1331 1404 0
-1400 -1332 1405 0
-1400 -1334 1406 0
-1400 -1335 1407 0
-1400 -1336 1408 0
-1400 -1337 1409 0
1401 1345 0
-1401 -1345 0
-1401 -1338 1398 0
-1401 -1339 1399 0
-1401 -1340 1400 0
-1401 -1341 1402 0
-1401 -1342 1403 0
-1401 -1343 1404 0
-1401 -1344 1405 0
-1401 -1346 1406 0
-1401 -1347 1407 0
-1401 -1348 1408 0
-1401 -1349 1409 0
1402 1357 0
-1402 -1357 0
-1402 -1350 1398 0
-1402 -1351 1399 0
-1402 -1352 1400 0
-1402 -1353 1401 0
-1402 -1354 1403 0
-1402 -1355 1404 0
-1402 -1356 1405 0
-1402 -1358 1406 0
-1402 -1359 1407 0
-1402 -1360 1408 0
-1402 -1361 1409 0
1403 1369 0
-1403 -1369 0
-1403 -1362 1398 0
-1403 -1363 1399 0
-1403 -1364 1400 0
-1403 -1365 1401 0
-1403 -1366 1402 0
-1403 -1367 1404 0
-1403 -1368 1405 0
-1403 -1370 1406 0
-1403 -1371 1407 0
-1403 -1372 1408 0
-1403 -1373 1409 0
1404 1381 0
-1404 -1381 0
-1404 -1374 1398 0
-1404 -1375 1399 0
-1404 -1376 1400 0
-1404 -1377 1401 0
-1404 -1378 1402 0
-1404 -1379 1403 0
-1404 -1380 1405 0
-1404 -1382 1406 0
-1404 -1383 1407 0
-1404 -1384 1408 0
-1404 -1385 1409 0
1405 1393 0
-1405 -1393 0
-1405 -1386 1398 0
-1405 -1387 1399 0
-1405 -1388 1400 0
-1405 -1389 1401 0
-1405 -1390 1402 0
-1405 -1391 1403 0
-1405 -1392 1404 0
-1405 -1394 1406 0
-1405 -1395 1407 0
-1405 -1396 1408 0
-1405 -1397 1409 0
1406 1418 0
-1406 -1418 0
-1406 -1410 1398 0
-1406 -1411 1399 0
-1406 -1412 1400 0
-1406 -1413 1401 0
-1406 -1414 1402 0
-1406 -1415 1403 0
-1406 -1416 1404 0
-1406 -1417 1405 0
-1406 -1419 1407 0
-1406 -1420 1408 0
-1406 -1421 1409 0
1407 1430 0
-1407 -1430 0
-1407 -1422 1398 0
-1407 -1423 1399 0
-1407 -1424 1400 0
-1407 -1425 1401 0
-1407 -1426 1402 0
-1407 -1427 1403 0
-1407 -1428 1404 0
-1407 -1429 1405 0
-1407 -1431 1406 0
-1407 -1432 1408 0
-1407 -1433 1409 0
1408 1442 0
-1408 -1442 0
-1408 -1434 1398 0
-1408 -1435 1399 0
-1408 -1436 1400 0
-1408 -1437 1401 0
-1408 -1438 1402 0
-1408 -1439 1403 0
-1408 -1440 1404 0
-1408 -1441 1405 0
-1408 -1443 1406 0
-1408 -1444 1407 0
-1408 -1445 1409 0
1409 1454 0
-1409 -1454 0
-1409 -1446 1398 0
-1409 -1447 1399 0
-1409 -1448 1400 0
-1409 -1449 1401 0
-1409 -1450 1402 0
-1409 -1451 1403 0
-1409 -1452 1404 0
-1409 -1453 1405 0
-1409 -1455 1406 0
-1409 -1456 1407 0
-1409 -1457 1408 0
1466 0
1410 1319 0
-1410 -1319 0
-1410 -1302 1411 0
-1410 -1305 1412 0
-1410 -1307 1413 0
-1410 -1309 1414 0
-1410 -1311 1415 0
-1410 -1313 1416 0
-1410 -1315 1417 0
-1410 -1317 1418 0
-1410 -1321 1419 0
-1410 -1323 1420 0
-1410 -1325 1421 0
1411 1318 0
-1411 -1318 0
-1411 -1303 1410 0
-1411 -1304 1412 0
-1411 -1306 1413 0
-1411 -1308 1414 0
-1411 -1310 1415 0
-1411 -1312 1416 0
-1411 -1314 1417 0
-1411 -1316 1418 0
-1411 -1320 1419 0
-1411 -1322 1420 0
-1411 -1324 1421 0
1412 1334 0
-1412 -1334 0
-1412 -1326 1410 0
-1412 -1327 1411 0
-1412 -1328 1413 0
-1412 -1329 1414 0
-1412 -1330 1415 0
-1412 -1331 1416 0
-1412 -1332 1417 0
-1412 -1333 1418 0
-1412 -1335 1419 0
-1412 -1336 1420 0
-1412 -1337 1421 0
1413 1346 0
-1413 -1346 0
-1413 -1338 1410 0
-1413 -1339 1411 0
-1413 -1340 1412 0
-1413 -1341 1414 0
-1413 -1342 1415 0
-1413 -1343 1416 0
-1413 -1344 1417 0
-1413 -1345 1418 0
-1413 -1347 1419 0
-1413 -1348 1420 0
-1413 -1349 1421 0
1414 1358 0
-1414 -1358 0
-1414 -1350 1410 0
-1414 -1351 1411 0
-1414 -1352 1412 0
-1414 -1353 1413 0
-1414 -1354 1415 0
-1414 -1355 1416 0
-1414 -1356 1417 0
-1414 -1357 1418 0
-1414 -1359 1419 0
-1414 -1360 1420 0
-1414 -1361 1421 0
1415 1370 0
-1415 -1370 0
-1415 -1362 1410 0
-1415 -1363 1411 0
-1415 -1364 1412 0
-1415 -1365 1413 0
-1415 -1366 1414 0
-1415 -1367 1416 0
-1415 -1368 1417 0
-1415 -1369 1418 0
-1415 -1371 1419 0
-1415 -1372 1420 0
-1415 -1373 1421 0
1416 1382 0
-1416 -1382 0
-1416 -1374 1410 0
-1416 -1375 1411 0
-1416 -1376 1412 0
-1416 -1377 1413 0
-1416 -1378 1414 0
-1416 -1379 1415 0
-1416 -1380 1417 0
-1416 -1381 1418 0
-1416 -1383 1419 0
-1416 -1384 1420 0
-1416 -1385 1421 0
1417 1394 0
-1417 -1394 0
-1417 -1386 1410 0
-1417 -1387 1411 0
-1417 -1388 1412 0
-1417 -1389 1413 0
-1417 -1390 1414 0
-1417 -1391 1415 0
-1417 -1392 1416 0
-1417 -1393 1418 0
-1417 -1395 1419 0
-1417 -1396 1420 0
-1417 -1397 1421 0
1418 1406 0
-1418 -1406 0
-1418 -1398 1410 0
-1418 -1399 1411 0
-1418 -1400 1412 0
-1418 -1401 1413 0
-1418 -1402 1414 0
-1418 -1403 1415 0
-1418 -1404 1416 0
-1418 -1405 1417 0
-1418 -1407 1419 0
-1418 -1408 1420 0
-1418 -1409 1421 0
1419 1431 0
-1419 -1431 0
-1419 -1422 1410 0
-1419 -1423 1411 0
-1419 -1424 1412 0
-1419 -1425 1413 0
-1419 -1426 1414 0
-1419 -1427 1415 0
-1419 -1428 1416 0
-1419 -1429 1417 0
-1419 -1430 1418 0
-1419 -1432 1420 0
-1419 -1433 1421 0
1420 1443 0
-1420 -1443 0
-1420 -1434 1410 0
-1420 -1435 1411 0
-1420 -1436 1412 0
-1420 -1437 1413 0
-1420 -1438 1414 0
-1420 -1439 1415 0
-1420 -1440 1416 0
-1420 -1441 1417 0
-1420 -1442 1418 0
-1420 -1444 1419 0
-1420 -1445 1421 0
1421 1455 0
-1421 -1455 0
-1421 -1446 1410 0
-1421 -1447 1411 0
-1421 -1448 1412 0
-1421 -1449 1413 0
-1421 -1450 1414 0
-1421 -1451 1415 0
-1421 -1452 1416 0
-1421 -1453 1417 0
-1421 -1454 1418 0
-1421 -1456 1419 0
-1421 -1457 1420 0
1467 0
1422 1321 0
-1422 -1321 0
-1422 -1302 1423 0
-1422 -1305 1424 0
-1422 -1307 1425 0
-1422 -1309 1426 0
-1422 -1311 1427 0
-1422 -1313 1428 0
-1422 -1315 1429 0
-1422 -1317 1430 0
-1422 -1319 1431 0
-1422 -1323 1432 0
-1422 -1325 1433 0
1423 1320 0
-1423 -1320 0
-1423 -1303 1422 0
-1423 -1304 1424 0
-1423 -1306 1425 0
-1423 -1308 1426 0
-1423 -1310 1427 0
-1423 -1312 1428 0
-1423 -1314 1429 0
-1423 -1316 1430 0
-1423 -1318 1431 0
-1423 -1322 1432 0
-1423 -1324 1433 0
1424 1335 0
-1424 -1335 0
-1424 -1326 1422 0
-1424 -1327 1423 0
-1424 -1328 1425 0
-1424 -1329 1426 0
-1424 -1330 1427 0
-1424 -1331 1428 0
-1424 -1332 1429 0
-1424 -1333 1430 0
-1424 -1334 1431 0
-1424 -1336 1432 0
-1424 -1337 1433 0
1425 1347 0
-1425 -1347 0
-1425 -1338 1422 0
-1425 -1339 1423 0
-1425 -1340 1424 0
-1425 -1341 1426 0
-1425 -1342 1427 0
-1425 -1343 1428 0
-1425 -1344 1429 0
-1425 -1345 1430 0
-1425 -1346 1431 0
-1425 -1348 1432 0
-1425 -1349 1433 0
1426 1359 0
-1426 -1359 0
-1426 -1350 1422 0
-1426 -1351 1423 0
-1426 -1352 1424 0
-1426 -1353 1425 0
-1426 -1354 1427 0
-1426 -1355 1428 0
-1426 -1356 1429 0
-1426 -1357 1430 0
-1426 -1358 1431 0
-1426 -1360 1432 0
-1426 -1361 1433 0
1427 1371 0
-1427 -1371 0
-1427 -1362 1422 0
-1427 -1363 1423 0
-1427 -1364 1424 0
-1427 -1365 1425 0
-1427 -1366 1426 0
-1427 -1367 1428 0
-1427 -1368 1429 0
-1427 -1369 1430 0
-1427 -1370 1431 0
-1427 -1372 1432 0
-1427 -1373 1433 0
1428 1383 0
-1428 -1383 0
-1428 -1374 1422 0
-1428 -1375 1423 0
-1428 -1376 1424 0
-1428 -1377 1425 0
-1428 -1378 1426 0
-1428 -1379 1427 0
-1428 -1380 1429 0
-1428 -1381 1430 0
-1428 -1382 1431 0
-1428 -1384 1432 0
-1428 -1385 1433 0
1429 1395 0
-1429 -1395 0
-1429 -1386 1422 0
-1429 -1387 1423 0
-1429 -1388 1424 0
-1429 -1389 1425 0
-1429 -1390 1426 0
-1429 -1391 1427 0
-1429 -1392 1428 0
-1429 -1393 1430 0
-1429 -1394 1431 0
-1429 -1396 1432 0
-1429 -1397 1433 0
1430 1407 0
-1430 -1407 0
-1430 -1398 1422 0
-1430 -1399 1423 0
-1430 -1400 1424 0
-1430 -1401 1425 0
-1430 -1402 1426 0
-1430 -1403 1427 0
-1430 -1404 1428 0
-1430 -1405 1429 0
-1430 -1406 1431 0
-1430 -1408 1432 0
-1430 -1409 1433 0
1431 1419 0
-1431 -1419 0
-1431 -1410 1422 0
-1431 -1411 1423 0
-1431 -1412 1424 0
-1431 -1413 1425 0
-1431 -1414 1426 0
-1431 -1415 1427 0
-1431 -1416 1428 0
-1431 -1417 1429 0
-1431 -1418 1430 0
-1431 -1420 1432 0
-1431 -1421 1433 0
1432 1444 0
-1432 -1444 0
-1432 -1434 1422 0
-1432 -1435 1423 0
-1432 -1436 1424 0
-1432 -1437 1425 0
-1432 -1438 1426 0
-1432 -1439 1427 0
-1432 -1440 1428 0
-1432 -1441 1429 0
-1432 -1442 1430 0
-1432 -1443 1431 0
-1432 -1445 1433 0
1433 1456 0
-1433 -1456 0
-1433 -1446 1422 0
-1433 -1447 1423 0
-1433 -1448 1424 0
-1433 -1449 1425 0
-1433 -1450 1426 0
-1433 -1451 1427 0
-1433 -1452 1428 0
-1433 -1453 1429 0
-1433 -1454 1430 0
-1433 -1455 1431 0
-1433 -1457 1432 0
1468 0
1434 1323 0
-1434 -1323 0
-1434 -1302 1435 0
-1434 -1305 1436 0
-1434 -1307 1437 0
-1434 -1309 1438 0
-1434 -1311 1439 0
-1434 -1313 1440 0
-1434 -1315 1441 0
-1434 -1317 1442 0
-1434 -1319 1443 0
-1434 -1321 1444 0
-1434 -1325 1445 0
1435 1322 0
-1435 -1322 0
-1435 -1303 1434 0
-1435 -1304 1436 0
-1435 -1306 1437 0
-1435 -1308 1438 0
-1435 -1310 1439 0
-1435 -1312 1440 0
-1435 -1314 1441 0
-1435 -1316 1442 0
-1435 -1318 1443 0
-1435 -1320 1444 0
-1435 -1324 1445 0
1436 1336 0
-1436 -1336 0
-1436 -1326 1434 0
-1436 -1327 1435 0
-1436 -1328 1437 0
-1436 -1329 1438 0
-1436 -1330 1439 0
-1436 -1331 1440 0
-1436 -1332 1441 0
-1436 -1333 1442 0
-1436 -1334 1443 0
-1436 -1335 1444 0
-1436 -1337 1445 0
1437 1348 0
-1437 -1348 0
-1437 -1338 1434 0
-1437 -1339 1435 0
-1437 -1340 1436 0
-1437 -1341 1438 0
-1437 -1342 1439 0
-1437 -1343 1440 0
-1437 -1344 1441 0
-1437 -1345 1442 0
-1437 -1346 1443 0
-1437 -1347 1444 0
-1437 -1349 1445 0
1438 1360 0
-1438 -1360 0
-1438 -1350 1434 0
-1438 -1351 1435 0
-1438 -1352 1436 0
-1438 -1353 1437 0
-1438 -1354 1439 0
-1438 -1355 1440 0
-1438 -1356 1441 0
-1438 -1357 1442 0
-1438 -1358 1443 0
-1438 -1359 1444 0
-1438 -1361 1445 0
1439 1372 0
-1439 -1372 0
-1439 -1362 1434 0
-1439 -1363 1435 0
-1439 -1364 1436 0
-1439 -1365 1437 0
-1439 -1366 1438 0
-1439 -1367 1440 0
-1439 -1368 1441 0
-1439 -1369 1442 0
-1439 -1370 1443 0
-1439 -1371 1444 0
-1439 -1373 1445 0
1440 1384 0
-1440 -1384 0
-1440 -1374 1434 0
-1440 -1375 1435 0
-1440 -1376 1436 0
-1440 -1377 1437 0
-1440 -1378 1438 0
-1440 -1379 1439 0
-1440 -1380 1441 0
-1440 -1381 1442 0
-1440 -1382 1443 0
-1440 -1383 1444 0
-1440 -1385 1445 0
1441 1396 0
-1441 -1396 0
-1441 -1386 1434 0
-1441 -1387 1435 0
-1441 -1388 1436 0
-1441 -1389 1437 0
-1441 -1390 1438 0
-1441 -1391 1439 0
-1441 -1392 1440 0
-1441 -1393 1442 0
-1441 -1394 1443 0
-1441 -1395 1444 0
-1441 -1397 1445 0
1442 1408 0
-1442 -1408 0
-1442 -1398 1434 0
-1442 -1399 1435 0
-1442 -1400 1436 0
-1442 -1401 1437 0
-1442 -1402 1438 0
-1442 -1403 1439 0
-1442 -1404 1440 0
-1442 -1405 1441 0
-1442 -1406 1443 0
-1442 -1407 1444 0
-1442 -1409 1445 0
1443 1420 0
-1443 -1420 0
-1443 -1410 1434 0
-1443 -1411 1435 0
-1443 -1412 1436 0
-1443 -1413 1437 0
-1443 -1414 1438 0
-1443 -1415 1439 0
-1443 -1416 1440 0
-1443 -1417 1441 0
-1443 -1418 1442 0
-1443 -1419 1444 0
-1443 -1421 1445 0
1444 1432 0
-1444 -1432 0
-1444 -1422 1434 0
-1444 -1423 1435 0
-1444 -1424 1436 0
-1444 -1425 1437 0
-1444 -1426 1438 0
-1444 -1427 1439 0
-1444 -1428 1440 0
-1444 -1429 1441 0
-1444 -1430 1442 0
-1444 -1431 1443 0
-1444 -1433 1445 0
1445 1457 0
-1445 -1457 0
-1445 -1446 1434 0
-1445 -1447 1435 0
-1445 -1448 1436 0
-1445 -1449 1437 0
-1445 -1450 1438 0
-1445 -1451 1439 0
-1445 -1452 1440 0
-1445 -1453 1441 0
-1445 -1454 1442 0
-1445 -1455 1443 0
-1445 -1456 1444 0
1469 0
1446 1325 0
-1446 -1325 0
-1446 -1302 1447 0
-1446 -1305 1448 0
-1446 -1307 1449 0
-1446 -1309 1450 0
-1446 -1311 1451 0
-1446 -1313 1452 0
-1446 -1315 1453 0
-1446 -1317 1454 0
-1446 -1319 1455 0
-1446 -1321 1456 0
-1446 -1323 1457 0
1447 1324 0
-1447 -1324 0
-1447 -1303 1446 0
-1447 -1304 1448 0
-1447 -1306 1449 0
-1447 -1308 1450 0
-1447 -1310 1451 0
-1447 -1312 1452 0
-1447 -1314 1453 0
-1447 -1316 1454 0
-1447 -1318 1455 0
-1447 -1320 1456 0
-1447 -1322 1457 0
1448 1337 0
-1448 -1337 0
-1448 -1326 1446 0
-1448 -1327 1447 0
-1448 -1328 1449 0
-1448 -1329 1450 0
-1448 -1330 1451 0
-1448 -1331 1452 0
-1448 -1332 1453 0
-1448 -1333 1454 0
-1448 -1334 1455 0
-1448 -1335 1456 0
-1448 -1336 1457 0
1449 1349 0
-1449 -1349 0
-1449 -1338 1446 0
-1449 -1339 1447 0
-1449 -1340 1448 0
-1449 -1341 1450 0
-1449 -1342 1451 0
-1449 -1343 1452 0
-1449 -1344 1453 0
-1449 -1345 1454 0
-1449 -1346 1455 0
-1449 -1347 1456 0
-1449 -1348 1457 0
1450 1361 0
-1450 -1361 0
-1450 -1350 1446 0
-1450 -1351 1447 0
-1450 -1352 1448 0
-1450 -1353 1449 0
-1450 -1354 1451 0
-1450 -1355 1452 0
-1450 -1356 1453 0
-1450 -1357 1454 0
-1450 -1358 1455 0
-1450 -1359 1456 0
-1450 -1360 1457 0
1451 1373 0
-1451 -1373 0
-1451 -1362 1446 0
-1451 -1363 1447 0
-1451 -1364 1448 0
-1451 -1365 1449 0
-1451 -1366 1450 0
-1451 -1367 1452 0
-1451 -1368 1453 0
-1451 -1369 1454 0
-1451 -1370 1455 0
-1451 -1371 1456 0
-1451 -1372 1457 0
1452 1385 0
-1452 -1385 0
-1452 -1374 1446 0
-1452 -1375 1447 0
-1452 -1376 1448 0
-1452 -1377 1449 0
-1452 -1378 1450 0
-1452 -1379 1451 0
-1452 -1380 1453 0
-1452 -1381 1454 0
-1452 -1382 1455 0
-1452 -1383 1456 0
-1452 -1384 1457 0
1453 1397 0
-1453 -1397 0
-1453 -1386 1446 0
-1453 -1387 1447 0
-1453 -1388 1448 0
-1453 -1389 1449 0
-1453 -1390 1450 0
-1453 -1391 1451 0
-1453 -1392 1452 0
-1453 -1393 1454 0
-1453 -1394 1455 0
-1453 -1395 1456 0
-1453 -1396 1457 0
1454 1409 0
-1454 -1409 0
-1454 -1398 1446 0
-1454 -1399 1447 0
-1454 -1400 1448 0
-1454 -1401 1449 0
-1454 -1402 1450 0
-1454 -1403 1451 0
-1454 -1404 1452 0
-1454 -1405 1453 0
-1454 -1406 1455 0
-1454 -1407 1456 0
-1454 -1408 1457 0
1455 1421 0
-1455 -1421 0
-1455 -1410 1446 0
-1455 -1411 1447 0
-1455 -1412 1448 0
-1455 -1413 1449 0
-1455 -1414 1450 0
-1455 -1415 1451 0
-1455 -1416 1452 0
-1455 -1417 1453 0
-1455 -1418 1454 0
-1455 -1419 1456 0
-1455 -1420 1457 0
1456 1433 0
-1456 -1433 0
-1456 -1422 1446 0
-1456 -1423 1447 0
-1456 -1424 1448 0
-1456 -1425 1449 0
-1456 -1426 1450 0
-1456 -1427 1451 0
-1456 -1428 1452 0
-1456 -1429 1453 0
-1456 -1430 1454 0
-1456 -1431 1455 0
-1456 -1432 1457 0
1457 1445 0
-1457 -1445 0
-1457 -1434 1446 0
-1457 -1435 1447 0
-1457 -1436 1448 0
-1457 -1437 1449 0
-1457 -1438 1450 0
-1457 -1439 1451 0
-1457 -1440 1452 0
-1457 -1441 1453 0
-1457 -1442 1454 0
-1457 -1443 1455 0
-1457 -1444 1456 0
-118 0
-144 1302 0
-1470 1305 0
-1470 1327 0
-1305 -1327 1470 0
-1471 1307 0
-1471 1339 0
-1307 -1339 1471 0
-1472 1309 0
-1472 1351 0
-1309 -1351 1472 0
-1473 1311 0
-1473 1363 0
-1311 -1363 1473 0
-1474 1313 0
-1474 1375 0
-1313 -1375 1474 0
-1475 1315 0
-1475 1387 0
-1315 -1387 1475 0
-1476 1317 0
-1476 1399 0
-1317 -1399 1476 0
-1477 1319 0
-1477 1411 0
-1319 -1411 1477 0
-1478 1321 0
-1478 1423 0
-1321 -1423 1478 0
-1479 1323 0
-1479 1435 0
-1323 -1435 1479 0
-1480 1325 0
-1480 1447 0
-1325 -1447 1480 0
-144 -1470 0
-144 -1471 0
-144 -1472 0
-144 -1473 0
-144 -1474 0
-144 -1475 0
-144 -1476 0
-144 -1477 0
-144 -1478 0
-144 -1479 0
-144 -1480 0
-1302 144 1470 1471 1472 1473 1474 1475 1476 1477 1478 1479 1480 0
-170 1305 0
-1481 1302 0
-1481 1304 0
-1302 -1304 1481 0
-1482 1307 0
-1482 1340 0
-1307 -1340 1482 0
-1483 1309 0
-1483 1352 0
-1309 -1352 1483 0
-1484 1311 0
-1484 1364 0
-1311 -1364 1484 0
-1485 1313 0
-1485 1376 0
-1313 -1376 1485 0
-1486 1315 0
-1486 1388 0
-1315 -1388 1486 0
-1487 1317 0
-1487 1400 0
-1317 -1400 1487 0
-1488 1319 0
-1488 1412 0
-1319 -1412 1488 0
-1489 1321 0
-1489 1424 0
-1321 -1424 1489 0
-1490 1323 0
-1490 1436 0
-1323 -1436 1490 0
-1491 1325 0
-1491 1448 0
-1325 -1448 1491 0
-170 -1481 0
-170 -1482 0
-170 -1483 0
-170 -1484 0
-170 -1485 0
-170 -1486 0
-170 -1487 0
-170 -1488 0
-170 -1489 0
-170 -1490 0
-170 -1491 0
-1305 170 1481 1482 1483 1484 1485 1486 1487 1488 1489 1490 1491 0
-196 1307 0
-1492 1302 0
-1492 1306 0
-1302 -1306 1492 0
-1493 1305 0
-1493 1328 0
-1305 -1328 1493 0
-1494 1309 0
-1494 1353 0
-1309 -1353 1494 0
-1495 1311 0
-1495 1365 0
-1311 -1365 1495 0
-1496 1313 0
-1496 1377 0
-1313 -1377 1496 0
-1497 1315 0
-1497 1389 0
-1315 -1389 1497 0
-1498 1317 0
-1498 1401 0
-1317 -1401 1498 0
-1499 1319 0
-1499 1413 0
-1319 -1413 1499 0
-1500 1321 0
-1500 1425 0
-1321 -1425 1500 0
-1501 1323 0
-1501 1437 0
-1323 -1437 1501 0
-1502 1325 0
-1502 1449 0
-1325 -1449 1502 0
-196 -1492 0
-196 -1493 0
-196 -1494 0
-196 -1495 0
-196 -1496 0
-196 -1497 0
-196 -1498 0
-196 -1499 0
-196 -1500 0
-196 -1501 0
-196 -1502 0
-1307 196 1492 1493 1494 1495 1496 1497 1498 1499 1500 1501 1502 0
-222 1309 0
-1503 1302 0
-1503 1308 0
-1302 -1308 1503 0
-1504 1305 0
-1504 1329 0
-1305 -1329 1504 0
-1505 1307 0
-1505 1341 0
-1307 -1341 1505 0
-1506 1311 0
-1506 1366 0
-1311 -1366 1506 0
-1507 1313 0
-1507 1378 0
-1313 -1378 1507 0
-1508 1315 0
-1508 1390 0
-1315 -1390 1508 0
-1509 1317 0
-1509 1402 0
-1317 -1402 1509 0
-1510 1319 0
-1510 1414 0
-1319 -1414 1510 0
-1511 1321 0
-1511 1426 0
-1321 -1426 1511 0
-1512 1323 0
-1512 1438 0
-1323 -1438 1512 0
-1513 1325 0
-1513 1450 0
-1325 -1450 1513 0
-222 -1503 0
-222 -1504 0
-222 -1505 0
-222 -1506 0
-222 -1507 0
-222 -1508 0
-222 -1509 0
-222 -1510 0
-222 -1511 0
-222 -1512 0
-222 -1513 0
-1309 222 1503 1504 1505 1506 1507 1508 1509 1510 1511 1512 1513 0
-248 1311 0
-1514 1302 0
-1514 1310 0
-1302 -1310 1514 0
-1515 1305 0
-1515 1330 0
-1305 -1330 1515 0
-1516 1307 0
-1516 1342 0
-1307 -1342 1516 0
-1517 1309 0
-1517 1354 0
-1309 -1354 1517 0
-1518 1313 0
-1518 1379 0
-1313 -1379 1518 0
-1519 1315 0
-1519 1391 0
-1315 -1391 1519 0
-1520 1317 0
-1520 1403 0
-1317 -1403 1520 0
-1521 1319 0
-1521 1415 0
-1319 -1415 1521 0
-1522 1321 0
-1522 1427 0
-1321 -1427 1522 0
-1523 1323 0
-1523 1439 0
-1323 -1439 1523 0
-1524 1325 0
-1524 1451 0
-1325 -1451 1524 0
-248 -1514 0
-248 -1515 0
-248 -1516 0
-248 -1517 0
-248 -1518 0
-248 -1519 0
-248 -1520 0
-248 -1521 0
-248 -1522 0
-248 -1523 0
-248 -1524 0
-1311 248 1514 1515 1516 1517 1518 1519 1520 1521 1522 1523 1524 0
-274 1313 0
-1525 1302 0
-1525 1312 0
-1302 -1312 1525 0
-1526 1305 0
-1526 1331 0
-1305 -1331 1526 0
-1527 1307 0
-1527 1343 0
-1307 -1343 1527 0
-1528 1309 0
-1528 1355 0
-1309 -1355 1528 0
-1529 1311 0
-1529 1367 0
-1311 -1367 1529 0
-1530 1315 0
-1530 1392 0
-1315 -1392 1530 0
-1531 1317 0
-1531 1404 0
-1317 -1404 1531 0
-1532 1319 0
-1532 1416 0
-1319 -1416 1532 0
-1533 1321 0
-1533 1428 0
-1321 -1428 1533 0
-1534 1323 0
-1534 1440 0
-1323 -1440 1534 0
-1535 1325 0
-1535 1452 0
-1325 -1452 1535 0
-274 -1525 0
-274 -1526 0
-274 -1527 0
-274 -1528 0
-274 -1529 0
-274 -1530 0
-274 -1531 0
-274 -1532 0
-274 -1533 0
-274 -1534 0
-274 -1535 0
-1313 274 1525 1526 1527 1528 1529 1530 1531 1532 1533 1534 1535 0
-300 1315 0
-1536 1302 0
-1536 1314 0
-1302 -1314 1536 0
-1537 1305 0
-1537 1332 0
-1305 -1332 1537 0
-1538 1307 0
-1538 1344 0
-1307 -1344 1538 0
-1539 1309 0
-1539 1356 0
-1309 -1356 1539 0
-1540 1311 0
-1540 1368 0
-1311 -1368 1540 0
-1541 1313 0
-1541 1380 0
-1313 -1380 1541 0
-1542 1317 0
-1542 1405 0
-1317 -1405 1542 0
-1543 1319 0
-1543 1417 0
-1319 -1417 1543 0
-1544 1321 0
-1544 1429 0
-1321 -1429 1544 0
-1545 1323 0
-1545 1441 0
-1323 -1441 1545 0
-1546 1325 0
-1546 1453 0
-1325 -1453 1546 0
-300 -1536 0
-300 -1537 0
-300 -1538 0
-300 -1539 0
-300 -1540 0
-300 -1541 0
-300 -1542 0
-300 -1543 0
-300 -1544 0
-300 -1545 0
-300 -1546 0
-1315 300 1536 1537 1538 1539 1540 1541 1542 1543 1544 1545 1546 0
-326 1317 0
-1547 1302 0
-1547 1316 0
-1302 -1316 1547 0
-1548 1305 0
-1548 1333 0
-1305 -1333 1548 0
-1549 1307 0
-1549 1345 0
-1307 -1345 1549 0
-1550 1309 0
-1550 1357 0
-1309 -1357 1550 0
-1551 1311 0
-1551 1369 0
-1311 -1369 1551 0
-1552 1313 0
-1552 1381 0
-1313 -1381 1552 0
-1553 1315 0
-1553 1393 0
-1315 -1393 1553 0
-1554 1319 0
-1554 1418 0
-1319 -1418 1554 0
-1555 1321 0
-1555 1430 0
-1321 -1430 1555 0
-1556 1323 0
-1556 1442 0
-1323 -1442 1556 0
-1557 1325 0
-1557 1454 0
-1325 -1454 1557 0
-326 -1547 0
-326 -1548 0
-326 -1549 0
-326 -1550 0
-326 -1551 0
-326 -1552 0
-326 -1553 0
-326 -1554 0
-326 -1555 0
-326 -1556 0
-326 -1557 0
-1317 326 1547 1548 1549 1550 1551 1552 1553 1554 1555 1556 1557 0
-352 1319 0
-1558 1302 0
-1558 1318 0
-1302 -1318 1558 0
-1559 1305 0
-1559 1334 0
-1305 -1334 1559 0
-1560 1307 0
-1560 1346 0
-1307 -1346 1560 0
-1561 1309 0
-1561 1358 0
-1309 -1358 1561 0
-1562 1311 0
-1562 1370 0
-1311 -1370 1562 0
-1563 1313 0
-1563 1382 0
-1313 -1382 1563 0
-1564 1315 0
-1564 1394 0
-1315 -1394 1564 0
-1565 1317 0
-1565 1406 0
-1317 -1406 1565 0
-1566 1321 0
-1566 1431 0
-1321 -1431 1566 0
-1567 1323 0
-1567 1443 0
-1323 -1443 1567 0
-1568 1325 0
-1568 1455 0
-1325 -1455 1568 0
-352 -1558 0
-352 -1559 0
-352 -1560 0
-352 -1561 0
-352 -1562 0
-352 -1563 0
-352 -1564 0
-352 -1565 0
-352 -1566 0
-352 -1567 0
-352 -1568 0
-1319 352 1558 1559 1560 1561 1562 1563 1564 1565 1566 1567 1568 0
-378 1321 0
-1569 1302 0
-1569 1320 0
-1302 -1320 1569 0
-1570 1305 0
-1570 1335 0
-1305 -1335 1570 0
-1571 1307 0
-1571 1347 0
-1307 -1347 1571 0
-1572 1309 0
-1572 1359 0
-1309 -1359 1572 0
-1573 1311 0
-1573 1371 0
-1311 -1371 1573 0
-1574 1313 0
-1574 1383 0
-1313 -1383 1574 0
-1575 1315 0
-1575 1395 0
-1315 -1395 1575 0
-1576 1317 0
-1576 1407 0
-1317 -1407 1576 0
-1577 1319 0
-1577 1419 0
-1319 -1419 1577 0
-1578 1323 0
-1578 1444 0
-1323 -1444 1578 0
-1579 1325 0
-1579 1456 0
-1325 -1456 1579 0
-378 -1569 0
-378 -1570 0
-378 -1571 0
-378 -1572 0
-378 -1573 0
-378 -1574 0
-378 -1575 0
-378 -1576 0
-378 -1577 0
-378 -1578 0
-378 -1579 0
-1321 378 1569 1570 1571 1572 1573 1574 1575 1576 1577 1578 1579 0
-404 1323 0
-1580 1302 0
-1580 1322 0
-1302 -1322 1580 0
-1581 1305 0
-1581 1336 0
-1305 -1336 1581 0
-1582 1307 0
-1582 1348 0
-1307 -1348 1582 0
-1583 1309 0
-1583 1360 0
-1309 -1360 1583 0
-1584 1311 0
-1584 1372 0
-1311 -1372 1584 0
-1585 1313 0
-1585 1384 0
-1313 -1384 1585 0
-1586 1315 0
-1586 1396 0
-1315 -1396 1586 0
-1587 1317 0
-1587 1408 0
-1317 -1408 1587 0
-1588 1319 0
-1588 1420 0
-1319 -1420 1588 0
-1589 1321 0
-1589 1432 0
-1321 -1432 1589 0
-1590 1325 0
-1590 1457 0
-1325 -1457 1590 0
-404 -1580 0
-404 -1581 0
-404 -1582 0
-404 -1583 0
-404 -1584 0
-404 -1585 0
-404 -1586 0
-404 -1587 0
-404 -1588 0
-404 -1589 0
-404 -1590 0
-1323 404 1580 1581 1582 1583 1584 1585 1586 1587 1588 1589 1590 0
-430 1325 0
-1591 1302 0
-1591 1324 0
-1302 -1324 1591 0
-1592 1305 0
-1592 1337 0
-1305 -1337 1592 0
-1593 1307 0
-1593 1349 0
-1307 -1349 1593 0
-1594 1309 0
-1594 1361 0
-1309 -1361 1594 0
-1595 1311 0
-1595 1373 0
-1311 -1373 1595 0
-1596 1313 0
-1596 1385 0
-1313 -1385 1596 0
-1597 1315 0
-1597 1397 0
-1315 -1397 1597 0
-1598 1317 0
-1598 1409 0
-1317 -1409 1598 0
-1599 1319 0
-1599 1421 0
-1319 -1421 1599 0
-1600 1321 0
-1600 1433 0
-1321 -1433 1600 0
-1601 1323 0
-1601 1445 0
-1323 -1445 1601 0
-430 -1591 0
-430 -1592 0
-430 -1593 0
-430 -1594 0
-430 -1595 0
-430 -1596 0
-430 -1597 0
-430 -1598 0
-430 -1599 0
-430 -1600 0
-430 -1601 0
-1325 430 1591 1592 1593 1594 1595 1596 1597 1598 1599 1600 1601 0
-120 1303 0
-1602 1304 0
-1602 1326 0
-1304 -1326 1602 0
-1603 1306 0
-1603 1338 0
-1306 -1338 1603 0
-1604 1308 0
-1604 1350 0
-1308 -1350 1604 0
-1605 1310 0
-1605 1362 0
-1310 -1362 1605 0
-1606 1312 0
-1606 1374 0
-1312 -1374 1606 0
-1607 1314 0
-1607 1386 0
-1314 -1386 1607 0
-1608 1316 0
-1608 1398 0
-1316 -1398 1608 0
-1609 1318 0
-1609 1410 0
-1318 -1410 1609 0
-1610 1320 0
-1610 1422 0
-1320 -1422 1610 0
-1611 1322 0
-1611 1434 0
-1322 -1434 1611 0
-1612 1324 0
-1612 1446 0
-1324 -1446 1612 0
-120 -1602 0
-120 -1603 0
-120 -1604 0
-120 -1605 0
-120 -1606 0
-120 -1607 0
-120 -1608 0
-120 -1609 0
-120 -1610 0
-120 -1611 0
-120 -1612 0
-1303 120 1602 1603 1604 1605 1606 1607 1608 1609 1610 1611 1612 0
-146 0
-172 1304 0
-1613 1303 0
-1613 1305 0
-1303 -1305 1613 0
-1614 1306 0
-1614 1340 0
-1306 -1340 1614 0
-1615 1308 0
-1615 1352 0
-1308 -1352 1615 0
-1616 1310 0
-1616 1364 0
-1310 -1364 1616 0
-1617 1312 0
-1617 1376 0
-1312 -1376 1617 0
-1618 1314 0
-1618 1388 0
-1314 -1388 1618 0
-1619 1316 0
-1619 1400 0
-1316 -1400 1619 0
-1620 1318 0
-1620 1412 0
-1318 -1412 1620 0
-1621 1320 0
-1621 1424 0
-1320 -1424 1621 0
-1622 1322 0
-1622 1436 0
-1322 -1436 1622 0
-1623 1324 0
-1623 1448 0
-1324 -1448 1623 0
-172 -1613 0
-172 -1614 0
-172 -1615 0
-172 -1616 0
-172 -1617 0
-172 -1618 0
-172 -1619 0
-172 -1620 0
-172 -1621 0
-172 -1622 0
-172 -1623 0
-1304 172 1613 1614 1615 1616 1617 1618 1619 1620 1621 1622 1623 0
-198 1306 0
-1624 1303 0
-1624 1307 0
-1303 -1307 1624 0
-1625 1304 0
-1625 1328 0
-1304 -1328 1625 0
-1626 1308 0
-1626 1353 0
-1308 -1353 1626 0
-1627 1310 0
-1627 1365 0
-1310 -1365 1627 0
-1628 1312 0
-1628 1377 0
-1312 -1377 1628 0
-1629 1314 0
-1629 1389 0
-1314 -1389 1629 0
-1630 1316 0
-1630 1401 0
-1316 -1401 1630 0
-1631 1318 0
-1631 1413 0
-1318 -1413 1631 0
-1632 1320 0
-1632 1425 0
-1320 -1425 1632 0
-1633 1322 0
-1633 1437 0
-1322 -1437 1633 0
-1634 1324 0
-1634 1449 0
-1324 -1449 1634 0
-198 -1624 0
-198 -1625 0
-198 -1626 0
-198 -1627 0
-198 -1628 0
-198 -1629 0
-198 -1630 0
-198 -1631 0
-198 -1632 0
-198 -1633 0
-198 -1634 0
-1306 198 1624 1625 1626 1627 1628 1629 1630 1631 1632 1633 1634 0
-224 1308 0
-1635 1303 0
-1635 1309 0
-1303 -1309 1635 0
-1636 1304 0
-1636 1329 0
-1304 -1329 1636 0
-1637 1306 0
-1637 1341 0
-1306 -1341 1637 0
-1638 1310 0
-1638 1366 0
-1310 -1366 1638 0
-1639 1312 0
-1639 1378 0
-1312 -1378 1639 0
-1640 1314 0
-1640 1390 0
-1314 -1390 1640 0
-1641 1316 0
-1641 1402 0
-1316 -1402 1641 0
-1642 1318 0
-1642 1414 0
-1318 -1414 1642 0
-1643 1320 0
-1643 1426 0
-1320 -1426 1643 0
-1644 1322 0
-1644 1438 0
-1322 -1438 1644 0
-1645 1324 0
-1645 1450 0
-1324 -1450 1645 0
-224 -1635 0
-224 -1636 0
-224 -1637 0
-224 -1638 0
-224 -1639 0
-224 -1640 0
-224 -1641 0
-224 -1642 0
-224 -1643 0
-224 -1644 0
-224 -1645 0
-1308 224 1635 1636 1637 1638 1639 1640 1641 1642 1643 1644 1645 0
-250 1310 0
-1646 1303 0
-1646 1311 0
-1303 -1311 1646 0
-1647 1304 0
-1647 1330 0
-1304 -1330 1647 0
-1648 1306 0
-1648 1342 0
-1306 -1342 1648 0
-1649 1308 0
-1649 1354 0
-1308 -1354 1649 0
-1650 1312 0
-1650 1379 0
-1312 -1379 1650 0
-1651 1314 0
-1651 1391 0
-1314 -1391 1651 0
-1652 1316 0
-1652 1403 0
-1316 -1403 1652 0
-1653 1318 0
-1653 1415 0
-1318 -1415 1653 0
-1654 1320 0
-1654 1427 0
-1320 -1427 1654 0
-1655 1322 0
-1655 1439 0
-1322 -1439 1655 0
-1656 1324 0
-1656 1451 0
-1324 -1451 1656 0
-250 -1646 0
-250 -1647 0
-250 -1648 0
-250 -1649 0
-250 -1650 0
-250 -1651 0
-250 -1652 0
-250 -1653 0
-250 -1654 0
-250 -1655 0
-250 -1656 0
-1310 250 1646 1647 1648 1649 1650 1651 1652 1653 1654 1655 1656 0
-276 1312 0
-1657 1303 0
-1657 1313 0
-1303 -1313 1657 0
-1658 1304 0
-1658 1331 0
-1304 -1331 1658 0
-1659 1306 0
-1659 1343 0
-1306 -1343 1659 0
-1660 1308 0
-1660 1355 0
-1308 -1355 1660 0
-1661 1310 0
-1661 1367 0
-1310 -1367 1661 0
-1662 1314 0
-1662 1392 0
-1314 -1392 1662 0
-1663 1316 0
-1663 1404 0
-1316 -1404 1663 0
-1664 1318 0
-1664 1416 0
-1318 -1416 1664 0
-1665 1320 0
-1665 1428 0
-1320 -1428 1665 0
-1666 1322 0
-1666 1440 0
-1322 -1440 1666 0
-1667 1324 0
-1667 1452 0
-1324 -1452 1667 0
-276 -1657 0
-276 -1658 0
-276 -1659 0
-276 -1660 0
-276 -1661 0
-276 -1662 0
-276 -1663 0
-276 -1664 0
-276 -1665 0
-276 -1666 0
-276 -1667 0
-1312 276 1657 1658 1659 1660 1661 1662 1663 1664 1665 1666 1667 0
-302 1314 0
-1668 1303 0
-1668 1315 0
-1303 -1315 1668 0
-1669 1304 0
-1669 1332 0
-1304 -1332 1669 0
-1670 1306 0
-1670 1344 0
-1306 -1344 1670 0
-1671 1308 0
-1671 1356 0
-1308 -1356 1671 0
-1672 1310 0
-1672 1368 0
-1310 -1368 1672 0
-1673 1312 0
-1673 1380 0
-1312 -1380 1673 0
-1674 1316 0
-1674 1405 0
-1316 -1405 1674 0
-1675 1318 0
-1675 1417 0
-1318 -1417 1675 0
-1676 1320 0
-1676 1429 0
-1320 -1429 1676 0
-1677 1322 0
-1677 1441 0
-1322 -1441 1677 0
-1678 1324 0
-1678 1453 0
-1324 -1453 1678 0
-302 -1668 0
-302 -1669 0
-302 -1670 0
-302 -1671 0
-302 -1672 0
-302 -1673 0
-302 -1674 0
-302 -1675 0
-302 -1676 0
-302 -1677 0
-302 -1678 0
-1314 302 1668 1669 1670 1671 1672 1673 1674 1675 1676 1677 1678 0
-328 1316 0
-1679 1303 0
-1679 1317 0
-1303 -1317 1679 0
-1680 1304 0
-1680 1333 0
-1304 -1333 1680 0
-1681 1306 0
-1681 1345 0
-1306 -1345 1681 0
-1682 1308 0
-1682 1357 0
-1308 -1357 1682 0
-1683 1310 0
-1683 1369 0
-1310 -1369 1683 0
-1684 1312 0
-1684 1381 0
-1312 -1381 1684 0
-1685 1314 0
-1685 1393 0
-1314 -1393 1685 0
-1686 1318 0
-1686 1418 0
-1318 -1418 1686 0
-1687 1320 0
-1687 1430 0
-1320 -1430 1687 0
-1688 1322 0
-1688 1442 0
-1322 -1442 1688 0
-1689 1324 0
-1689 1454 0
-1324 -1454 1689 0
-328 -1679 0
-328 -1680 0
-328 -1681 0
-328 -1682 0
-328 -1683 0
-328 -1684 0
-328 -1685 0
-328 -1686 0
-328 -1687 0
-328 -1688 0
-328 -1689 0
-1316 328 1679 1680 1681 1682 1683 1684 1685 1686 1687 1688 1689 0
-354 1318 0
-1690 1303 0
-1690 1319 0
-1303 -1319 1690 0
-1691 1304 0
-1691 1334 0
-1304 -1334 1691 0
-1692 1306 0
-1692 1346 0
-1306 -1346 1692 0
-1693 1308 0
-1693 1358 0
-1308 -1358 1693 0
-1694 1310 0
-1694 1370 0
-1310 -1370 1694 0
-1695 1312 0
-1695 1382 0
-1312 -1382 1695 0
-1696 1314 0
-1696 1394 0
-1314 -1394 1696 0
-1697 1316 0
-1697 1406 0
-1316 -1406 1697 0
-1698 1320 0
-1698 1431 0
-1320 -1431 1698 0
-1699 1322 0
-1699 1443 0
-1322 -1443 1699 0
-1700 1324 0
-1700 1455 0
-1324 -1455 1700 0
-354 -1690 0
-354 -1691 0
-354 -1692 0
-354 -1693 0
-354 -1694 0
-354 -1695 0
-354 -1696 0
-354 -1697 0
-354 -1698 0
-354 -1699 0
-354 -1700 0
-1318 354 1690 1691 1692 1693 1694 1695 1696 1697 1698 1699 1700 0
-380 1320 0
-1701 1303 0
-1701 1321 0
-1303 -1321 1701 0
-1702 1304 0
-1702 1335 0
-1304 -1335 1702 0
-1703 1306 0
-1703 1347 0
-1306 -1347 1703 0
-1704 1308 0
-1704 1359 0
-1308 -1359 1704 0
-1705 1310 0
-1705 1371 0
-1310 -1371 1705 0
-1706 1312 0
-1706 1383 0
-1312 -1383 1706 0
-1707 1314 0
-1707 1395 0
-1314 -1395 1707 0
-1708 1316 0
-1708 1407 0
-1316 -1407 1708 0
-1709 1318 0
-1709 1419 0
-1318 -1419 1709 0
-1710 1322 0
-1710 1444 0
-1322 -1444 1710 0
-1711 1324 0
-1711 1456 0
-1324 -1456 1711 0
-380 -1701 0
-380 -1702 0
-380 -1703 0
-380 -1704 0
-380 -1705 0
-380 -1706 0
-380 -1707 0
-380 -1708 0
-380 -1709 0
-380 -1710 0
-380 -1711 0
-1320 380 1701 1702 1703 1704 1705 1706 1707 1708 1709 1710 1711 0
-406 1322 0
-1712 1303 0
-1712 1323 0
-1303 -1323 1712 0
-1713 1304 0
-1713 1336 0
-1304 -1336 1713 0
-1714 1306 0
-1714 1348 0
-1306 -1348 1714 0
-1715 1308 0
-1715 1360 0
-1308 -1360 1715 0
-1716 1310 0
-1716 1372 0
-1310 -1372 1716 0
-1717 1312 0
-1717 1384 0
-1312 -1384 1717 0
-1718 1314 0
-1718 1396 0
-1314 -1396 1718 0
-1719 1316 0
-1719 1408 0
-1316 -1408 1719 0
-1720 1318 0
-1720 1420 0
-1318 -1420 1720 0
-1721 1320 0
-1721 1432 0
-1320 -1432 1721 0
-1722 1324 0
-1722 1457 0
-1324 -1457 1722 0
-406 -1712 0
-406 -1713 0
-406 -1714 0
-406 -1715 0
-406 -1716 0
-406 -1717 0
-406 -1718 0
-406 -1719 0
-406 -1720 0
-406 -1721 0
-406 -1722 0
-1322 406 1712 1713 1714 1715 1716 1717 1718 1719 1720 1721 1722 0
-432 1324 0
-1723 1303 0
-1723 1325 0
-1303 -1325 1723 0
-1724 1304 0
-1724 1337 0
-1304 -1337 1724 0
-1725 1306 0
-1725 1349 0
-1306 -1349 1725 0
-1726 1308 0
-1726 1361 0
-1308 -1361 1726 0
-1727 1310 0
-1727 1373 0
-1310 -1373 1727 0
-1728 1312 0
-1728 1385 0
-1312 -1385 1728 0
-1729 1314 0
-1729 1397 0
-1314 -1397 1729 0
-1730 1316 0
-1730 1409 0
-1316 -1409 1730 0
-1731 1318 0
-1731 1421 0
-1318 -1421 1731 0
-1732 1320 0
-1732 1433 0
-1320 -1433 1732 0
-1733 1322 0
-1733 1445 0
-1322 -1445 1733 0
-432 -1723 0
-432 -1724 0
-432 -1725 0
-432 -1726 0
-432 -1727 0
-432 -1728 0
-432 -1729 0
-432 -1730 0
-432 -1731 0
-432 -1732 0
-432 -1733 0
-1324 432 1723 1724 1725 1726 1727 1728 1729 1730 1731 1732 1733 0
-122 1326 0
-1734 1327 0
-1734 1303 0
-1327 -1303 1734 0
-1735 1328 0
-1735 1338 0
-1328 -1338 1735 0
-1736 1329 0
-1736 1350 0
-1329 -1350 1736 0
-1737 1330 0
-1737 1362 0
-1330 -1362 1737 0
-1738 1331 0
-1738 1374 0
-1331 -1374 1738 0
-1739 1332 0
-1739 1386 0
-1332 -1386 1739 0
-1740 1333 0
-1740 1398 0
-1333 -1398 1740 0
-1741 1334 0
-1741 1410 0
-1334 -1410 1741 0
-1742 1335 0
-1742 1422 0
-1335 -1422 1742 0
-1743 1336 0
-1743 1434 0
-1336 -1434 1743 0
-1744 1337 0
-1744 1446 0
-1337 -1446 1744 0
-122 -1734 0
-122 -1735 0
-122 -1736 0
-122 -1737 0
-122 -1738 0
-122 -1739 0
-122 -1740 0
-122 -1741 0
-122 -1742 0
-122 -1743 0
-122 -1744 0
-1326 122 1734 1735 1736 1737 1738 1739 1740 1741 1742 1743 1744 0
-148 1327 0
-1745 1326 0
-1745 1302 0
-1326 -1302 1745 0
-1746 1328 0
-1746 1339 0
-1328 -1339 1746 0
-1747 1329 0
-1747 1351 0
-1329 -1351 1747 0
-1748 1330 0
-1748 1363 0
-1330 -1363 1748 0
-1749 1331 0
-1749 1375 0
-1331 -1375 1749 0
-1750 1332 0
-1750 1387 0
-1332 -1387 1750 0
-1751 1333 0
-1751 1399 0
-1333 -1399 1751 0
-1752 1334 0
-1752 1411 0
-1334 -1411 1752 0
-1753 1335 0
-1753 1423 0
-1335 -1423 1753 0
-1754 1336 0
-1754 1435 0
-1336 -1435 1754 0
-1755 1337 0
-1755 1447 0
-1337 -1447 1755 0
-148 -1745 0
-148 -1746 0
-148 -1747 0
-148 -1748 0
-148 -1749 0
-148 -1750 0
-148 -1751 0
-148 -1752 0
-148 -1753 0
-148 -1754 0
-148 -1755 0
-1327 148 1745 1746 1747 1748 1749 1750 1751 1752 1753 1754 1755 0
-174 0
-200 1328 0
-1756 1326 0
-1756 1307 0
-1326 -1307 1756 0
-1757 1327 0
-1757 1306 0
-1327 -1306 1757 0
-1758 1329 0
-1758 1353 0
-1329 -1353 1758 0
-1759 1330 0
-1759 1365 0
-1330 -1365 1759 0
-1760 1331 0
-1760 1377 0
-1331 -1377 1760 0
-1761 1332 0
-1761 1389 0
-1332 -1389 1761 0
-1762 1333 0
-1762 1401 0
-1333 -1401 1762 0
-1763 1334 0
-1763 1413 0
-1334 -1413 1763 0
-1764 1335 0
-1764 1425 0
-1335 -1425 1764 0
-1765 1336 0
-1765 1437 0
-1336 -1437 1765 0
-1766 1337 0
-1766 1449 0
-1337 -1449 1766 0
-200 -1756 0
-200 -1757 0
-200 -1758 0
-200 -1759 0
-200 -1760 0
-200 -1761 0
-200 -1762 0
-200 -1763 0
-200 -1764 0
-200 -1765 0
-200 -1766 0
-1328 200 1756 1757 1758 1759 1760 1761 1762 1763 1764 1765 1766 0
-226 1329 0
-1767 1326 0
-1767 1309 0
-1326 -1309 1767 0
-1768 1327 0
-1768 1308 0
-1327 -1308 1768 0
-1769 1328 0
-1769 1341 0
-1328 -1341 1769 0
-1770 1330 0
-1770 1366 0
-1330 -1366 1770 0
-1771 1331 0
-1771 1378 0
-1331 -1378 1771 0
-1772 1332 0
-1772 1390 0
-1332 -1390 1772 0
-1773 1333 0
-1773 1402 0
-1333 -1402 1773 0
-1774 1334 0
-1774 1414 0
-1334 -1414 1774 0
-1775 1335 0
-1775 1426 0
-1335 -1426 1775 0
-1776 1336 0
-1776 1438 0
-1336 -1438 1776 0
-1777 1337 0
-1777 1450 0
-1337 -1450 1777 0
-226 -1767 0
-226 -1768 0
-226 -1769 0
-226 -1770 0
-226 -1771 0
-226 -1772 0
-226 -1773 0
-226 -1774 0
-226 -1775 0
-226 -1776 0
-226 -1777 0
-1329 226 1767 1768 1769 1770 1771 1772 1773 1774 1775 1776 1777 0
-252 1330 0
-1778 1326 0
-1778 1311 0
-1326 -1311 1778 0
-1779 1327 0
-1779 1310 0
-1327 -1310 1779 0
-1780 1328 0
-1780 1342 0
-1328 -1342 1780 0
-1781 1329 0
-1781 1354 0
-1329 -1354 1781 0
-1782 1331 0
-1782 1379 0
-1331 -1379 1782 0
-1783 1332 0
-1783 1391 0
-1332 -1391 1783 0
-1784 1333 0
-1784 1403 0
-1333 -1403 1784 0
-1785 1334 0
-1785 1415 0
-1334 -1415 1785 0
-1786 1335 0
-1786 1427 0
-1335 -1427 1786 0
-1787 1336 0
-1787 1439 0
-1336 -1439 1787 0
-1788 1337 0
-1788 1451 0
-1337 -1451 1788 0
-252 -1778 0
-252 -1779 0
-252 -1780 0
-252 -1781 0
-252 -1782 0
-252 -1783 0
-252 -1784 0
-252 -1785 0
-252 -1786 0
-252 -1787 0
-252 -1788 0
-1330 252 1778 1779 1780 1781 1782 1783 1784 1785 1786 1787 1788 0
-278 1331 0
-1789 1326 0
-1789 1313 0
-1326 -1313 1789 0
-1790 1327 0
-1790 1312 0
-1327 -1312 1790 0
-1791 1328 0
-1791 1343 0
-1328 -1343 1791 0
-1792 1329 0
-1792 1355 0
-1329 -1355 1792 0
-1793 1330 0
-1793 1367 0
-1330 -1367 1793 0
-1794 1332 0
-1794 1392 0
-1332 -1392 1794 0
-1795 1333 0
-1795 1404 0
-1333 -1404 1795 0
-1796 1334 0
-1796 1416 0
-1334 -1416 1796 0
-1797 1335 0
-1797 1428 0
-1335 -1428 1797 0
-1798 1336 0
-1798 1440 0
-1336 -1440 1798 0
-1799 1337 0
-1799 1452 0
-1337 -1452 1799 0
-278 -1789 0
-278 -1790 0
-278 -1791 0
-278 -1792 0
-278 -1793 0
-278 -1794 0
-278 -1795 0
-278 -1796 0
-278 -1797 0
-278 -1798 0
-278 -1799 0
-1331 278 1789 1790 1791 1792 1793 1794 1795 1796 1797 1798 1799 0
-304 1332 0
-1800 1326 0
-1800 1315 0
-1326 -1315 1800 0
-1801 1327 0
-1801 1314 0
-1327 -1314 1801 0
-1802 1328 0
-1802 1344 0
-1328 -1344 1802 0
-1803 1329 0
-1803 1356 0
-1329 -1356 1803 0
-1804 1330 0
-1804 1368 0
-1330 -1368 1804 0
-1805 1331 0
-1805 1380 0
-1331 -1380 1805 0
-1806 1333 0
-1806 1405 0
-1333 -1405 1806 0
-1807 1334 0
-1807 1417 0
-1334 -1417 1807 0
-1808 1335 0
-1808 1429 0
-1335 -1429 1808 0
-1809 1336 0
-1809 1441 0
-1336 -1441 1809 0
-1810 1337 0
-1810 1453 0
-1337 -1453 1810 0
-304 -1800 0
-304 -1801 0
-304 -1802 0
-304 -1803 0
-304 -1804 0
-304 -1805 0
-304 -1806 0
-304 -1807 0
-304 -1808 0
-304 -1809 0
-304 -1810 0
-1332 304 1800 1801 1802 1803 1804 1805 1806 1807 1808 1809 1810 0
-330 1333 0
-1811 1326 0
-1811 1317 0
-1326 -1317 1811 0
-1812 1327 0
-1812 1316 0
-1327 -1316 1812 0
-1813 1328 0
-1813 1345 0
-1328 -1345 1813 0
-1814 1329 0
-1814 1357 0
-1329 -1357 1814 0
-1815 1330 0
-1815 1369 0
-1330 -1369 1815 0
-1816 1331 0
-1816 1381 0
-1331 -1381 1816 0
-1817 1332 0
-1817 1393 0
-1332 -1393 1817 0
-1818 1334 0
-1818 1418 0
-1334 -1418 1818 0
-1819 1335 0
-1819 1430 0
-1335 -1430 1819 0
-1820 1336 0
-1820 1442 0
-1336 -1442 1820 0
-1821 1337 0
-1821 1454 0
-1337 -1454 1821 0
-330 -1811 0
-330 -1812 0
-330 -1813 0
-330 -1814 0
-330 -1815 0
-330 -1816 0
-330 -1817 0
-330 -1818 0
-330 -1819 0
-330 -1820 0
-330 -1821 0
-1333 330 1811 1812 1813 1814 1815 1816 1817 1818 1819 1820 1821 0
-356 1334 0
-1822 1326 0
-1822 1319 0
-1326 -1319 1822 0
-1823 1327 0
-1823 1318 0
-1327 -1318 1823 0
-1824 1328 0
-1824 1346 0
-1328 -1346 1824 0
-1825 1329 0
-1825 1358 0
-1329 -1358 1825 0
-1826 1330 0
-1826 1370 0
-1330 -1370 1826 0
-1827 1331 0
-1827 1382 0
-1331 -1382 1827 0
-1828 1332 0
-1828 1394 0
-1332 -1394 1828 0
-1829 1333 0
-1829 1406 0
-1333 -1406 1829 0
-1830 1335 0
-1830 1431 0
-1335 -1431 1830 0
-1831 1336 0
-1831 1443 0
-1336 -1443 1831 0
-1832 1337 0
-1832 1455 0
-1337 -1455 1832 0
-356 -1822 0
-356 -1823 0
-356 -1824 0
-356 -1825 0
-356 -1826 0
-356 -1827 0
-356 -1828 0
-356 -1829 0
-356 -1830 0
-356 -1831 0
-356 -1832 0
-1334 356 1822 1823 1824 1825 1826 1827 1828 1829 1830 1831 1832 0
-382 1335 0
-1833 1326 0
-1833 1321 0
-1326 -1321 1833 0
-1834 1327 0
-1834 1320 0
-1327 -1320 1834 0
-1835 1328 0
-1835 1347 0
-1328 -1347 1835 0
-1836 1329 0
-1836 1359 0
-1329 -1359 1836 0
-1837 1330 0
-1837 1371 0
-1330 -1371 1837 0
-1838 1331 0
-1838 1383 0
-1331 -1383 1838 0
-1839 1332 0
-1839 1395 0
-1332 -1395 1839 0
-1840 1333 0
-1840 1407 0
-1333 -1407 1840 0
-1841 1334 0
-1841 1419 0
-1334 -1419 1841 0
-1842 1336 0
-1842 1444 0
-1336 -1444 1842 0
-1843 1337 0
-1843 1456 0
-1337 -1456 1843 0
-382 -1833 0
-382 -1834 0
-382 -1835 0
-382 -1836 0
-382 -1837 0
-382 -1838 0
-382 -1839 0
-382 -1840 0
-382 -1841 0
-382 -1842 0
-382 -1843 0
-1335 382 1833 1834 1835 1836 1837 1838 1839 1840 1841 1842 1843 0
-408 1336 0
-1844 1326 0
-1844 1323 0
-1326 -1323 1844 0
-1845 1327 0
-1845 1322 0
-1327 -1322 1845 0
-1846 1328 0
-1846 1348 0
-1328 -1348 1846 0
-1847 1329 0
-1847 1360 0
-1329 -1360 1847 0
-1848 1330 0
-1848 1372 0
-1330 -1372 1848 0
-1849 1331 0
-1849 1384 0
-1331 -1384 1849 0
-1850 1332 0
-1850 1396 0
-1332 -1396 1850 0
-1851 1333 0
-1851 1408 0
-1333 -1408 1851 0
-1852 1334 0
-1852 1420 0
-1334 -1420 1852 0
-1853 1335 0
-1853 1432 0
-1335 -1432 1853 0
-1854 1337 0
-1854 1457 0
-1337 -1457 1854 0
-408 -1844 0
-408 -1845 0
-408 -1846 0
-408 -1847 0
-408 -1848 0
-408 -1849 0
-408 -1850 0
-408 -1851 0
-408 -1852 0
-408 -1853 0
-408 -1854 0
-1336 408 1844 1845 1846 1847 1848 1849 1850 1851 1852 1853 1854 0
-434 1337 0
-1855 1326 0
-1855 1325 0
-1326 -1325 1855 0
-1856 1327 0
-1856 1324 0
-1327 -1324 1856 0
-1857 1328 0
-1857 1349 0
-1328 -1349 1857 0
-1858 1329 0
-1858 1361 0
-1329 -1361 1858 0
-1859 1330 0
-1859 1373 0
-1330 -1373 1859 0
-1860 1331 0
-1860 1385 0
-1331 -1385 1860 0
-1861 1332 0
-1861 1397 0
-1332 -1397 1861 0
-1862 1333 0
-1862 1409 0
-1333 -1409 1862 0
-1863 1334 0
-1863 1421 0
-1334 -1421 1863 0
-1864 1335 0
-1864 1433 0
-1335 -1433 1864 0
-1865 1336 0
-1865 1445 0
-1336 -1445 1865 0
-434 -1855 0
-434 -1856 0
-434 -1857 0
-434 -1858 0
-434 -1859 0
-434 -1860 0
-434 -1861 0
-434 -1862 0
-434 -1863 0
-434 -1864 0
-434 -1865 0
-1337 434 1855 1856 1857 1858 1859 1860 1861 1862 1863 1864 1865 0
-124 1338 0
-1866 1339 0
-1866 1303 0
-1339 -1303 1866 0
-1867 1340 0
-1867 1326 0
-1340 -1326 1867 0
-1868 1341 0
-1868 1350 0
-1341 -1350 1868 0
-1869 1342 0
-1869 1362 0
-1342 -1362 1869 0
-1870 1343 0
-1870 1374 0
-1343 -1374 1870 0
-1871 1344 0
-1871 1386 0
-1344 -1386 1871 0
-1872 1345 0
-1872 1398 0
-1345 -1398 1872 0
-1873 1346 0
-1873 1410 0
-1346 -1410 1873 0
-1874 1347 0
-1874 1422 0
-1347 -1422 1874 0
-1875 1348 0
-1875 1434 0
-1348 -1434 1875 0
-1876 1349 0
-1876 1446 0
-1349 -1446 1876 0
-124 -1866 0
-124 -1867 0
-124 -1868 0
-124 -1869 0
-124 -1870 0
-124 -1871 0
-124 -1872 0
-124 -1873 0
-124 -1874 0
-124 -1875 0
-124 -1876 0
-1338 124 1866 1867 1868 1869 1870 1871 1872 1873 1874 1875 1876 0
-150 1339 0
-1877 1338 0
-1877 1302 0
-1338 -1302 1877 0
-1878 1340 0
-1878 1327 0
-1340 -1327 1878 0
-1879 1341 0
-1879 1351 0
-1341 -1351 1879 0
-1880 1342 0
-1880 1363 0
-1342 -1363 1880 0
-1881 1343 0
-1881 1375 0
-1343 -1375 1881 0
-1882 1344 0
-1882 1387 0
-1344 -1387 1882 0
-1883 1345 0
-1883 1399 0
-1345 -1399 1883 0
-1884 1346 0
-1884 1411 0
-1346 -1411 1884 0
-1885 1347 0
-1885 1423 0
-1347 -1423 1885 0
-1886 1348 0
-1886 1435 0
-1348 -1435 1886 0
-1887 1349 0
-1887 1447 0
-1349 -1447 1887 0
-150 -1877 0
-150 -1878 0
-150 -1879 0
-150 -1880 0
-150 -1881 0
-150 -1882 0
-150 -1883 0
-150 -1884 0
-150 -1885 0
-150 -1886 0
-150 -1887 0
-1339 150 1877 1878 1879 1880 1881 1882 1883 1884 1885 1886 1887 0
-176 1340 0
-1888 1338 0
-1888 1305 0
-1338 -1305 1888 0
-1889 1339 0
-1889 1304 0
-1339 -1304 1889 0
-1890 1341 0
-1890 1352 0
-1341 -1352 1890 0
-1891 1342 0
-1891 1364 0
-1342 -1364 1891 0
-1892 1343 0
-1892 1376 0
-1343 -1376 1892 0
-1893 1344 0
-1893 1388 0
-1344 -1388 1893 0
-1894 1345 0
-1894 1400 0
-1345 -1400 1894 0
-1895 1346 0
-1895 1412 0
-1346 -1412 1895 0
-1896 1347 0
-1896 1424 0
-1347 -1424 1896 0
-1897 1348 0
-1897 1436 0
-1348 -1436 1897 0
-1898 1349 0
-1898 1448 0
-1349 -1448 1898 0
-176 -1888 0
-176 -1889 0
-176 -1890 0
-176 -1891 0
-176 -1892 0
-176 -1893 0
-176 -1894 0
-176 -1895 0
-176 -1896 0
-176 -1897 0
-176 -1898 0
-1340 176 1888 1889 1890 1891 1892 1893 1894 1895 1896 1897 1898 0
-202 0
-228 1341 0
-1899 1338 0
-1899 1309 0
-1338 -1309 1899 0
-1900 1339 0
-1900 1308 0
-1339 -1308 1900 0
-1901 1340 0
-1901 1329 0
-1340 -1329 1901 0
-1902 1342 0
-1902 1366 0
-1342 -1366 1902 0
-1903 1343 0
-1903 1378 0
-1343 -1378 1903 0
-1904 1344 0
-1904 1390 0
-1344 -1390 1904 0
-1905 1345 0
-1905 1402 0
-1345 -1402 1905 0
-1906 1346 0
-1906 1414 0
-1346 -1414 1906 0
-1907 1347 0
-1907 1426 0
-1347 -1426 1907 0
-1908 1348 0
-1908 1438 0
-1348 -1438 1908 0
-1909 1349 0
-1909 1450 0
-1349 -1450 1909 0
-228 -1899 0
-228 -1900 0
-228 -1901 0
-228 -1902 0
-228 -1903 0
-228 -1904 0
-228 -1905 0
-228 -1906 0
-228 -1907 0
-228 -1908 0
-228 -1909 0
-1341 228 1899 1900 1901 1902 1903 1904 1905 1906 1907 1908 1909 0
-254 1342 0
-1910 1338 0
-1910 1311 0
-1338 -1311 1910 0
-1911 1339 0
-1911 1310 0
-1339 -1310 1911 0
-1912 1340 0
-1912 1330 0
-1340 -1330 1912 0
-1913 1341 0
-1913 1354 0
-1341 -1354 1913 0
-1914 1343 0
-1914 1379 0
-1343 -1379 1914 0
-1915 1344 0
-1915 1391 0
-1344 -1391 1915 0
-1916 1345 0
-1916 1403 0
-1345 -1403 1916 0
-1917 1346 0
-1917 1415 0
-1346 -1415 1917 0
-1918 1347 0
-1918 1427 0
-1347 -1427 1918 0
-1919 1348 0
-1919 1439 0
-1348 -1439 1919 0
-1920 1349 0
-1920 1451 0
-1349 -1451 1920 0
-254 -1910 0
-254 -1911 0
-254 -1912 0
-254 -1913 0
-254 -1914 0
-254 -1915 0
-254 -1916 0
-254 -1917 0
-254 -1918 0
-254 -1919 0
-254 -1920 0
-1342 254 1910 1911 1912 1913 1914 1915 1916 1917 1918 1919 1920 0
-280 1343 0
-1921 1338 0
-1921 1313 0
-1338 -1313 1921 0
-1922 1339 0
-1922 1312 0
-1339 -1312 1922 0
-1923 1340 0
-1923 1331 0
-1340 -1331 1923 0
-1924 1341 0
-1924 1355 0
-1341 -1355 1924 0
-1925 1342 0
-1925 1367 0
-1342 -1367 1925 0
-1926 1344 0
-1926 1392 0
-1344 -1392 1926 0
-1927 1345 0
-1927 1404 0
-1345 -1404 1927 0
-1928 1346 0
-1928 1416 0
-1346 -1416 1928 0
-1929 1347 0
-1929 1428 0
-1347 -1428 1929 0
-1930 1348 0
-1930 1440 0
-1348 -1440 1930 0
-1931 1349 0
-1931 1452 0
-1349 -1452 1931 0
-280 -1921 0
-280 -1922 0
-280 -1923 0
-280 -1924 0
-280 -1925 0
-280 -1926 0
-280 -1927 0
-280 -1928 0
-280 -1929 0
-280 -1930 0
-280 -1931 0
-1343 280 1921 1922 1923 1924 1925 1926 1927 1928 1929 1930 1931 0
-306 1344 0
-1932 1338 0
-1932 1315 0
-1338 -1315 1932 0
-1933 1339 0
-1933 1314 0
-1339 -1314 1933 0
-1934 1340 0
-1934 1332 0
-1340 -1332 1934 0
-1935 1341 0
-1935 1356 0
-1341 -1356 1935 0
-1936 1342 0
-1936 1368 0
-1342 -1368 1936 0
-1937 1343 0
-1937 1380 0
-1343 -1380 1937 0
-1938 1345 0
-1938 1405 0
-1345 -1405 1938 0
-1939 1346 0
-1939 1417 0
-1346 -1417 1939 0
-1940 1347 0
-1940 1429 0
-1347 -1429 1940 0
-1941 1348 0
-1941 1441 0
-1348 -1441 1941 0
-1942 1349 0
-1942 1453 0
-1349 -1453 1942 0
-306 -1932 0
-306 -1933 0
-306 -1934 0
-306 -1935 0
-306 -1936 0
-306 -1937 0
-306 -1938 0
-306 -1939 0
-306 -1940 0
-306 -1941 0
-306 -1942 0
-1344 306 1932 1933 1934 1935 1936 1937 1938 1939 1940 1941 1942 0
-332 1345 0
-1943 1338 0
-1943 1317 0
-1338 -1317 1943 0
-1944 1339 0
-1944 1316 0
-1339 -1316 1944 0
-1945 1340 0
-1945 1333 0
-1340 -1333 1945 0
-1946 1341 0
-1946 1357 0
-1341 -1357 1946 0
-1947 1342 0
-1947 1369 0
-1342 -1369 1947 0
-1948 1343 0
-1948 1381 0
-1343 -1381 1948 0
-1949 1344 0
-1949 1393 0
-1344 -1393 1949 0
-1950 1346 0
-1950 1418 0
-1346 -1418 1950 0
-1951 1347 0
-1951 1430 0
-1347 -1430 1951 0
-1952 1348 0
-1952 1442 0
-1348 -1442 1952 0
-1953 1349 0
-1953 1454 0
-1349 -1454 1953 0
-332 -1943 0
-332 -1944 0
-332 -1945 0
-332 -1946 0
-332 -1947 0
-332 -1948 0
-332 -1949 0
-332 -1950 0
-332 -1951 0
-332 -1952 0
-332 -1953 0
-1345 332 1943 1944 1945 1946 1947 1948 1949 1950 1951 1952 1953 0
-358 1346 0
-1954 1338 0
-1954 1319 0
-1338 -1319 1954 0
-1955 1339 0
-1955 1318 0
-1339 -1318 1955 0
-1956 1340 0
-1956 1334 0
-1340 -1334 1956 0
-1957 1341 0
-1957 1358 0
-1341 -1358 1957 0
-1958 1342 0
-1958 1370 0
-1342 -1370 1958 0
-1959 1343 0
-1959 1382 0
-1343 -1382 1959 0
-1960 1344 0
-1960 1394 0
-1344 -1394 1960 0
-1961 1345 0
-1961 1406 0
-1345 -1406 1961 0
-1962 1347 0
-1962 1431 0
-1347 -1431 1962 0
-1963 1348 0
-1963 1443 0
-1348 -1443 1963 0
-1964 1349 0
-1964 1455 0
-1349 -1455 1964 0
-358 -1954 0
-358 -1955 0
-358 -1956 0
-358 -1957 0
-358 -1958 0
-358 -1959 0
-358 -1960 0
-358 -1961 0
-358 -1962 0
-358 -1963 0
-358 -1964 0
-1346 358 1954 1955 1956 1957 1958 1959 1960 1961 1962 1963 1964 0
-384 1347 0
-1965 1338 0
-1965 1321 0
-1338 -1321 1965 0
-1966 1339 0
-1966 1320 0
-1339 -1320 1966 0
-1967 1340 0
-1967 1335 0
-1340 -1335 1967 0
-1968 1341 0
-1968 1359 0
-1341 -1359 1968 0
-1969 1342 0
-1969 1371 0
-1342 -1371 1969 0
-1970 1343 0
-1970 1383 0
-1343 -1383 1970 0
-1971 1344 0
-1971 1395 0
-1344 -1395 1971 0
-1972 1345 0
-1972 1407 0
-1345 -1407 1972 0
-1973 1346 0
-1973 1419 0
-1346 -1419 1973 0
-1974 1348 0
-1974 1444 0
-1348 -1444 1974 0
-1975 1349 0
-1975 1456 0
-1349 -1456 1975 0
-384 -1965 0
-384 -1966 0
-384 -1967 0
-384 -1968 0
-384 -1969 0
-384 -1970 0
-384 -1971 0
-384 -1972 0
-384 -1973 0
-384 -1974 0
-384 -1975 0
-1347 384 1965 1966 1967 1968 1969 1970 1971 1972 1973 1974 1975 0
-410 1348 0
-1976 1338 0
-1976 1323 0
-1338 -1323 1976 0
-1977 1339 0
-1977 1322 0
-1339 -1322 1977 0
-1978 1340 0
-1978 1336 0
-1340 -1336 1978 0
-1979 1341 0
-1979 1360 0
-1341 -1360 1979 0
-1980 1342 0
-1980 1372 0
-1342 -1372 1980 0
-1981 1343 0
-1981 1384 0
-1343 -1384 1981 0
-1982 1344 0
-1982 1396 0
-1344 -1396 1982 0
-1983 1345 0
-1983 1408 0
-1345 -1408 1983 0
-1984 1346 0
-1984 1420 0
-1346 -1420 1984 0
-1985 1347 0
-1985 1432 0
-1347 -1432 1985 0
-1986 1349 0
-1986 1457 0
-1349 -1457 1986 0
-410 -1976 0
-410 -1977 0
-410 -1978 0
-410 -1979 0
-410 -1980 0
-410 -1981 0
-410 -1982 0
-410 -1983 0
-410 -1984 0
-410 -1985 0
-410 -1986 0
-1348 410 1976 1977 1978 1979 1980 1981 1982 1983 1984 1985 1986 0
-436 1349 0
-1987 1338 0
-1987 1325 0
-1338 -1325 1987 0
-1988 1339 0
-1988 1324 0
-1339 -1324 1988 0
-1989 1340 0
-1989 1337 0
-1340 -1337 1989 0
-1990 1341 0
-1990 1361 0
-1341 -1361 1990 0
-1991 1342 0
-1991 1373 0
-1342 -1373 1991 0
-1992 1343 0
-1992 1385 0
-1343 -1385 1992 0
-1993 1344 0
-1993 1397 0
-1344 -1397 1993 0
-1994 1345 0
-1994 1409 0
-1345 -1409 1994 0
-1995 1346 0
-1995 1421 0
-1346 -1421 1995 0
-1996 1347 0
-1996 1433 0
-1347 -1433 1996 0
-1997 1348 0
-1997 1445 0
-1348 -1445 1997 0
-436 -1987 0
-436 -1988 0
-436 -1989 0
-436 -1990 0
-436 -1991 0
-436 -1992 0
-436 -1993 0
-436 -1994 0
-436 -1995 0
-436 -1996 0
-436 -1997 0
-1349 436 1987 1988 1989 1990 1991 1992 1993 1994 1995 1996 1997 0
-126 1350 0
-1998 1351 0
-1998 1303 0
-1351 -1303 1998 0
-1999 1352 0
-1999 1326 0
-1352 -1326 1999 0
-2000 1353 0
-2000 1338 0
-1353 -1338 2000 0
-2001 1354 0
-2001 1362 0
-1354 -1362 2001 0
-2002 1355 0
-2002 1374 0
-1355 -1374 2002 0
-2003 1356 0
-2003 1386 0
-1356 -1386 2003 0
-2004 1357 0
-2004 1398 0
-1357 -1398 2004 0
-2005 1358 0
-2005 1410 0
-1358 -1410 2005 0
-2006 1359 0
-2006 1422 0
-1359 -1422 2006 0
-2007 1360 0
-2007 1434 0
-1360 -1434 2007 0
-2008 1361 0
-2008 1446 0
-1361 -1446 2008 0
-126 -1998 0
-126 -1999 0
-126 -2000 0
-126 -2001 0
-126 -2002 0
-126 -2003 0
-126 -2004 0
-126 -2005 0
-126 -2006 0
-126 -2007 0
-126 -2008 0
-1350 126 1998 1999 2000 2001 2002 2003 2004 2005 2006 2007 2008 0
-152 1351 0
-2009 1350 0
-2009 1302 0
-1350 -1302 2009 0
-2010 1352 0
-2010 1327 0
-1352 -1327 2010 0
-2011 1353 0
-2011 1339 0
-1353 -1339 2011 0
-2012 1354 0
-2012 1363 0
-1354 -1363 2012 0
-2013 1355 0
-2013 1375 0
-1355 -1375 2013 0
-2014 1356 0
-2014 1387 0
-1356 -1387 2014 0
-2015 1357 0
-2015 1399 0
-1357 -1399 2015 0
-2016 1358 0
-2016 1411 0
-1358 -1411 2016 0
-2017 1359 0
-2017 1423 0
-1359 -1423 2017 0
-2018 1360 0
-2018 1435 0
-1360 -1435 2018 0
-2019 1361 0
-2019 1447 0
-1361 -1447 2019 0
-152 -2009 0
-152 -2010 0
-152 -2011 0
-152 -2012 0
-152 -2013 0
-152 -2014 0
-152 -2015 0
-152 -2016 0
-152 -2017 0
-152 -2018 0
-152 -2019 0
-1351 152 2009 2010 2011 2012 2013 2014 2015 2016 2017 2018 2019 0
-178 1352 0
-2020 1350 0
-2020 1305 0
-1350 -1305 2020 0
-2021 1351 0
-2021 1304 0
-1351 -1304 2021 0
-2022 1353 0
-2022 1340 0
-1353 -1340 2022 0
-2023 1354 0
-2023 1364 0
-1354 -1364 2023 0
-2024 1355 0
-2024 1376 0
-1355 -1376 2024 0
-2025 1356 0
-2025 1388 0
-1356 -1388 2025 0
-2026 1357 0
-2026 1400 0
-1357 -1400 2026 0
-2027 1358 0
-2027 1412 0
-1358 -1412 2027 0
-2028 1359 0
-2028 1424 0
-1359 -1424 2028 0
-2029 1360 0
-2029 1436 0
-1360 -1436 2029 0
-2030 1361 0
-2030 1448 0
-1361 -1448 2030 0
-178 -2020 0
-178 -2021 0
-178 -2022 0
-178 -2023 0
-178 -2024 0
-178 -2025 0
-178 -2026 0
-178 -2027 0
-178 -2028 0
-178 -2029 0
-178 -2030 0
-1352 178 2020 2021 2022 2023 2024 2025 2026 2027 2028 2029 2030 0
-204 1353 0
-2031 1350 0
-2031 1307 0
-1350 -1307 2031 0
-2032 1351 0
-2032 1306 0
-1351 -1306 2032 0
-2033 1352 0
-2033 1328 0
-1352 -1328 2033 0
-2034 1354 0
-2034 1365 0
-1354 -1365 2034 0
-2035 1355 0
-2035 1377 0
-1355 -1377 2035 0
-2036 1356 0
-2036 1389 0
-1356 -1389 2036 0
-2037 1357 0
-2037 1401 0
-1357 -1401 2037 0
-2038 1358 0
-2038 1413 0
-1358 -1413 2038 0
-2039 1359 0
-2039 1425 0
-1359 -1425 2039 0
-2040 1360 0
-2040 1437 0
-1360 -1437 2040 0
-2041 1361 0
-2041 1449 0
-1361 -1449 2041 0
-204 -2031 0
-204 -2032 0
-204 -2033 0
-204 -2034 0
-204 -2035 0
-204 -2036 0
-204 -2037 0
-204 -2038 0
-204 -2039 0
-204 -2040 0
-204 -2041 0
-1353 204 2031 2032 2033 2034 2035 2036 2037 2038 2039 2040 2041 0
-230 0
-256 1354 0
-2042 1350 0
-2042 1311 0
-1350 -1311 2042 0
-2043 1351 0
-2043 1310 0
-1351 -1310 2043 0
-2044 1352 0
-2044 1330 0
-1352 -1330 2044 0
-2045 1353 0
-2045 1342 0
-1353 -1342 2045 0
-2046 1355 0
-2046 1379 0
-1355 -1379 2046 0
-2047 1356 0
-2047 1391 0
-1356 -1391 2047 0
-2048 1357 0
-2048 1403 0
-1357 -1403 2048 0
-2049 1358 0
-2049 1415 0
-1358 -1415 2049 0
-2050 1359 0
-2050 1427 0
-1359 -1427 2050 0
-2051 1360 0
-2051 1439 0
-1360 -1439 2051 0
-2052 1361 0
-2052 1451 0
-1361 -1451 2052 0
-256 -2042 0
-256 -2043 0
-256 -2044 0
-256 -2045 0
-256 -2046 0
-256 -2047 0
-256 -2048 0
-256 -2049 0
-256 -2050 0
-256 -2051 0
-256 -2052 0
-1354 256 2042 2043 2044 2045 2046 2047 2048 2049 2050 2051 2052 0
-282 1355 0
-2053 1350 0
-2053 1313 0
-1350 -1313 2053 0
-2054 1351 0
-2054 1312 0
-1351 -1312 2054 0
-2055 1352 0
-2055 1331 0
-1352 -1331 2055 0
-2056 1353 0
-2056 1343 0
-1353 -1343 2056 0
-2057 1354 0
-2057 1367 0
-1354 -1367 2057 0
-2058 1356 0
-2058 1392 0
-1356 -1392 2058 0
-2059 1357 0
-2059 1404 0
-1357 -1404 2059 0
-2060 1358 0
-2060 1416 0
-1358 -1416 2060 0
-2061 1359 0
-2061 1428 0
-1359 -1428 2061 0
-2062 1360 0
-2062 1440 0
-1360 -1440 2062 0
-2063 1361 0
-2063 1452 0
-1361 -1452 2063 0
-282 -2053 0
-282 -2054 0
-282 -2055 0
-282 -2056 0
-282 -2057 0
-282 -2058 0
-282 -2059 0
-282 -2060 0
-282 -2061 0
-282 -2062 0
-282 -2063 0
-1355 282 2053 2054 2055 2056 2057 2058 2059 2060 2061 2062 2063 0
-308 1356 0
-2064 1350 0
-2064 1315 0
-1350 -1315 2064 0
-2065 1351 0
-2065 1314 0
-1351 -1314 2065 0
-2066 1352 0
-2066 1332 0
-1352 -1332 2066 0
-2067 1353 0
-2067 1344 0
-1353 -1344 2067 0
-2068 1354 0
-2068 1368 0
-1354 -1368 2068 0
-2069 1355 0
-2069 1380 0
-1355 -1380 2069 0
-2070 1357 0
-2070 1405 0
-1357 -1405 2070 0
-2071 1358 0
-2071 1417 0
-1358 -1417 2071 0
-2072 1359 0
-2072 1429 0
-1359 -1429 2072 0
-2073 1360 0
-2073 1441 0
-1360 -1441 2073 0
-2074 1361 0
-2074 1453 0
-1361 -1453 2074 0
-308 -2064 0
-308 -2065 0
-308 -2066 0
-308 -2067 0
-308 -2068 0
-308 -2069 0
-308 -2070 0
-308 -2071 0
-308 -2072 0
-308 -2073 0
-308 -2074 0
-1356 308 2064 2065 2066 2067 2068 2069 2070 2071 2072 2073 2074 0
-334 1357 0
-2075 1350 0
-2075 1317 0
-1350 -1317 2075 0
-2076 1351 0
-2076 1316 0
-1351 -1316 2076 0
-2077 1352 0
-2077 1333 0
-1352 -1333 2077 0
-2078 1353 0
-2078 1345 0
-1353 -1345 2078 0
-2079 1354 0
-2079 1369 0
-1354 -1369 2079 0
-2080 1355 0
-2080 1381 0
-1355 -1381 2080 0
-2081 1356 0
-2081 1393 0
-1356 -1393 2081 0
-2082 1358 0
-2082 1418 0
-1358 -1418 2082 0
-2083 1359 0
-2083 1430 0
-1359 -1430 2083 0
-2084 1360 0
-2084 1442 0
-1360 -1442 2084 0
-2085 1361 0
-2085 1454 0
-1361 -1454 2085 0
-334 -2075 0
-334 -2076 0
-334 -2077 0
-334 -2078 0
-334 -2079 0
-334 -2080 0
-334 -2081 0
-334 -2082 0
-334 -2083 0
-334 -2084 0
-334 -2085 0
-1357 334 2075 2076 2077 2078 2079 2080 2081 2082 2083 2084 2085 0
-360 1358 0
-2086 1350 0
-2086 1319 0
-1350 -1319 2086 0
-2087 1351 0
-2087 1318 0
-1351 -1318 2087 0
-2088 1352 0
-2088 1334 0
-1352 -1334 2088 0
-2089 1353 0
-2089 1346 0
-1353 -1346 2089 0
-2090 1354 0
-2090 1370 0
-1354 -1370 2090 0
-2091 1355 0
-2091 1382 0
-1355 -1382 2091 0
-2092 1356 0
-2092 1394 0
-1356 -1394 2092 0
-2093 1357 0
-2093 1406 0
-1357 -1406 2093 0
-2094 1359 0
-2094 1431 0
-1359 -1431 2094 0
-2095 1360 0
-2095 1443 0
-1360 -1443 2095 0
-2096 1361 0
-2096 1455 0
-1361 -1455 2096 0
-360 -2086 0
-360 -2087 0
-360 -2088 0
-360 -2089 0
-360 -2090 0
-360 -2091 0
-360 -2092 0
-360 -2093 0
-360 -2094 0
-360 -2095 0
-360 -2096 0
-1358 360 2086 2087 2088 2089 2090 2091 2092 2093 2094 2095 2096 0
-386 1359 0
-2097 1350 0
-2097 1321 0
-1350 -1321 2097 0
-2098 1351 0
-2098 1320 0
-1351 -1320 2098 0
-2099 1352 0
-2099 1335 0
-1352 -1335 2099 0
-2100 1353 0
-2100 1347 0
-1353 -1347 2100 0
-2101 1354 0
-2101 1371 0
-1354 -1371 2101 0
-2102 1355 0
-2102 1383 0
-1355 -1383 2102 0
-2103 1356 0
-2103 1395 0
-1356 -1395 2103 0
-2104 1357 0
-2104 1407 0
-1357 -1407 2104 0
-2105 1358 0
-2105 1419 0
-1358 -1419 2105 0
-2106 1360 0
-2106 1444 0
-1360 -1444 2106 0
-2107 1361 0
-2107 1456 0
-1361 -1456 2107 0
-386 -2097 0
-386 -2098 0
-386 -2099 0
-386 -2100 0
-386 -2101 0
-386 -2102 0
-386 -2103 0
-386 -2104 0
-386 -2105 0
-386 -2106 0
-386 -2107 0
-1359 386 2097 2098 2099 2100 2101 2102 2103 2104 2105 2106 2107 0
-412 1360 0
-2108 1350 0
-2108 1323 0
-1350 -1323 2108 0
-2109 1351 0
-2109 1322 0
-1351 -1322 2109 0
-2110 1352 0
-2110 1336 0
-1352 -1336 2110 0
-2111 1353 0
-2111 1348 0
-1353 -1348 2111 0
-2112 1354 0
-2112 1372 0
-1354 -1372 2112 0
-2113 1355 0
-2113 1384 0
-1355 -1384 2113 0
-2114 1356 0
-2114 1396 0
-1356 -1396 2114 0
-2115 1357 0
-2115 1408 0
-1357 -1408 2115 0
-2116 1358 0
-2116 1420 0
-1358 -1420 2116 0
-2117 1359 0
-2117 1432 0
-1359 -1432 2117 0
-2118 1361 0
-2118 1457 0
-1361 -1457 2118 0
-412 -2108 0
-412 -2109 0
-412 -2110 0
-412 -2111 0
-412 -2112 0
-412 -2113 0
-412 -2114 0
-412 -2115 0
-412 -2116 0
-412 -2117 0
-412 -2118 0
-1360 412 2108 2109 2110 2111 2112 2113 2114 2115 2116 2117 2118 0
-438 1361 0
-2119 1350 0
-2119 1325 0
-1350 -1325 2119 0
-2120 1351 0
-2120 1324 0
-1351 -1324 2120 0
-2121 1352 0
-2121 1337 0
-1352 -1337 2121 0
-2122 1353 0
-2122 1349 0
-1353 -1349 2122 0
-2123 1354 0
-2123 1373 0
-1354 -1373 2123 0
-2124 1355 0
-2124 1385 0
-1355 -1385 2124 0
-2125 1356 0
-2125 1397 0
-1356 -1397 2125 0
-2126 1357 0
-2126 1409 0
-1357 -1409 2126 0
-2127 1358 0
-2127 1421 0
-1358 -1421 2127 0
-2128 1359 0
-2128 1433 0
-1359 -1433 2128 0
-2129 1360 0
-2129 1445 0
-1360 -1445 2129 0
-438 -2119 0
-438 -2120 0
-438 -2121 0
-438 -2122 0
-438 -2123 0
-438 -2124 0
-438 -2125 0
-438 -2126 0
-438 -2127 0
-438 -2128 0
-438 -2129 0
-1361 438 2119 2120 2121 2122 2123 2124 2125 2126 2127 2128 2129 0
-128 1362 0
-2130 1363 0
-2130 1303 0
-1363 -1303 2130 0
-2131 1364 0
-2131 1326 0
-1364 -1326 2131 0
-2132 1365 0
-2132 1338 0
-1365 -1338 2132 0
-2133 1366 0
-2133 1350 0
-1366 -1350 2133 0
-2134 1367 0
-2134 1374 0
-1367 -1374 2134 0
-2135 1368 0
-2135 1386 0
-1368 -1386 2135 0
-2136 1369 0
-2136 1398 0
-1369 -1398 2136 0
-2137 1370 0
-2137 1410 0
-1370 -1410 2137 0
-2138 1371 0
-2138 1422 0
-1371 -1422 2138 0
-2139 1372 0
-2139 1434 0
-1372 -1434 2139 0
-2140 1373 0
-2140 1446 0
-1373 -1446 2140 0
-128 -2130 0
-128 -2131 0
-128 -2132 0
-128 -2133 0
-128 -2134 0
-128 -2135 0
-128 -2136 0
-128 -2137 0
-128 -2138 0
-128 -2139 0
-128 -2140 0
-1362 128 2130 2131 2132 2133 2134 2135 2136 2137 2138 2139 2140 0
-154 1363 0
-2141 1362 0
-2141 1302 0
-1362 -1302 2141 0
-2142 1364 0
-2142 1327 0
-1364 -1327 2142 0
-2143 1365 0
-2143 1339 0
-1365 -1339 2143 0
-2144 1366 0
-2144 1351 0
-1366 -1351 2144 0
-2145 1367 0
-2145 1375 0
-1367 -1375 2145 0
-2146 1368 0
-2146 1387 0
-1368 -1387 2146 0
-2147 1369 0
-2147 1399 0
-1369 -1399 2147 0
-2148 1370 0
-2148 1411 0
-1370 -1411 2148 0
-2149 1371 0
-2149 1423 0
-1371 -1423 2149 0
-2150 1372 0
-2150 1435 0
-1372 -1435 2150 0
-2151 1373 0
-2151 1447 0
-1373 -1447 2151 0
-154 -2141 0
-154 -2142 0
-154 -2143 0
-154 -2144 0
-154 -2145 0
-154 -2146 0
-154 -2147 0
-154 -2148 0
-154 -2149 0
-154 -2150 0
-154 -2151 0
-1363 154 2141 2142 2143 2144 2145 2146 2147 2148 2149 2150 2151 0
-180 1364 0
-2152 1362 0
-2152 1305 0
-1362 -1305 2152 0
-2153 1363 0
-2153 1304 0
-1363 -1304 2153 0
-2154 1365 0
-2154 1340 0
-1365 -1340 2154 0
-2155 1366 0
-2155 1352 0
-1366 -1352 2155 0
-2156 1367 0
-2156 1376 0
-1367 -1376 2156 0
-2157 1368 0
-2157 1388 0
-1368 -1388 2157 0
-2158 1369 0
-2158 1400 0
-1369 -1400 2158 0
-2159 1370 0
-2159 1412 0
-1370 -1412 2159 0
-2160 1371 0
-2160 1424 0
-1371 -1424 2160 0
-2161 1372 0
-2161 1436 0
-1372 -1436 2161 0
-2162 1373 0
-2162 1448 0
-1373 -1448 2162 0
-180 -2152 0
-180 -2153 0
-180 -2154 0
-180 -2155 0
-180 -2156 0
-180 -2157 0
-180 -2158 0
-180 -2159 0
-180 -2160 0
-180 -2161 0
-180 -2162 0
-1364 180 2152 2153 2154 2155 2156 2157 2158 2159 2160 2161 2162 0
-206 1365 0
-2163 1362 0
-2163 1307 0
-1362 -1307 2163 0
-2164 1363 0
-2164 1306 0
-1363 -1306 2164 0
-2165 1364 0
-2165 1328 0
-1364 -1328 2165 0
-2166 1366 0
-2166 1353 0
-1366 -1353 2166 0
-2167 1367 0
-2167 1377 0
-1367 -1377 2167 0
-2168 1368 0
-2168 1389 0
-1368 -1389 2168 0
-2169 1369 0
-2169 1401 0
-1369 -1401 2169 0
-2170 1370 0
-2170 1413 0
-1370 -1413 2170 0
-2171 1371 0
-2171 1425 0
-1371 -1425 2171 0
-2172 1372 0
-2172 1437 0
-1372 -1437 2172 0
-2173 1373 0
-2173 1449 0
-1373 -1449 2173 0
-206 -2163 0
-206 -2164 0
-206 -2165 0
-206 -2166 0
-206 -2167 0
-206 -2168 0
-206 -2169 0
-206 -2170 0
-206 -2171 0
-206 -2172 0
-206 -2173 0
-1365 206 2163 2164 2165 2166 2167 2168 2169 2170 2171 2172 2173 0
-232 1366 0
-2174 1362 0
-2174 1309 0
-1362 -1309 2174 0
-2175 1363 0
-2175 1308 0
-1363 -1308 2175 0
-2176 1364 0
-2176 1329 0
-1364 -1329 2176 0
-2177 1365 0
-2177 1341 0
-1365 -1341 2177 0
-2178 1367 0
-2178 1378 0
-1367 -1378 2178 0
-2179 1368 0
-2179 1390 0
-1368 -1390 2179 0
-2180 1369 0
-2180 1402 0
-1369 -1402 2180 0
-2181 1370 0
-2181 1414 0
-1370 -1414 2181 0
-2182 1371 0
-2182 1426 0
-1371 -1426 2182 0
-2183 1372 0
-2183 1438 0
-1372 -1438 2183 0
-2184 1373 0
-2184 1450 0
-1373 -1450 2184 0
-232 -2174 0
-232 -2175 0
-232 -2176 0
-232 -2177 0
-232 -2178 0
-232 -2179 0
-232 -2180 0
-232 -2181 0
-232 -2182 0
-232 -2183 0
-232 -2184 0
-1366 232 2174 2175 2176 2177 2178 2179 2180 2181 2182 2183 2184 0
-258 0
-284 1367 0
-2185 1362 0
-2185 1313 0
-1362 -1313 2185 0
-2186 1363 0
-2186 1312 0
-1363 -1312 2186 0
-2187 1364 0
-2187 1331 0
-1364 -1331 2187 0
-2188 1365 0
-2188 1343 0
-1365 -1343 2188 0
-2189 1366 0
-2189 1355 0
-1366 -1355 2189 0
-2190 1368 0
-2190 1392 0
-1368 -1392 2190 0
-2191 1369 0
-2191 1404 0
-1369 -1404 2191 0
-2192 1370 0
-2192 1416 0
-1370 -1416 2192 0
-2193 1371 0
-2193 1428 0
-1371 -1428 2193 0
-2194 1372 0
-2194 1440 0
-1372 -1440 2194 0
-2195 1373 0
-2195 1452 0
-1373 -1452 2195 0
-284 -2185 0
-284 -2186 0
-284 -2187 0
-284 -2188 0
-284 -2189 0
-284 -2190 0
-284 -2191 0
-284 -2192 0
-284 -2193 0
-284 -2194 0
-284 -2195 0
-1367 284 2185 2186 2187 2188 2189 2190 2191 2192 2193 2194 2195 0
-310 1368 0
-2196 1362 0
-2196 1315 0
-1362 -1315 2196 0
-2197 1363 0
-2197 1314 0
-1363 -1314 2197 0
-2198 1364 0
-2198 1332 0
-1364 -1332 2198 0
-2199 1365 0
-2199 1344 0
-1365 -1344 2199 0
-2200 1366 0
-2200 1356 0
-1366 -1356 2200 0
-2201 1367 0
-2201 1380 0
-1367 -1380 2201 0
-2202 1369 0
-2202 1405 0
-1369 -1405 2202 0
-2203 1370 0
-2203 1417 0
-1370 -1417 2203 0
-2204 1371 0
-2204 1429 0
-1371 -1429 2204 0
-2205 1372 0
-2205 1441 0
-1372 -1441 2205 0
-2206 1373 0
-2206 1453 0
-1373 -1453 2206 0
-310 -2196 0
-310 -2197 0
-310 -2198 0
-310 -2199 0
-310 -2200 0
-310 -2201 0
-310 -2202 0
-310 -2203 0
-310 -2204 0
-310 -2205 0
-310 -2206 0
-1368 310 2196 2197 2198 2199 2200 2201 2202 2203 2204 2205 2206 0
-336 1369 0
-2207 1362 0
-2207 1317 0
-1362 -1317 2207 0
-2208 1363 0
-2208 1316 0
-1363 -1316 2208 0
-2209 1364 0
-2209 1333 0
-1364 -1333 2209 0
-2210 1365 0
-2210 1345 0
-1365 -1345 2210 0
-2211 1366 0
-2211 1357 0
-1366 -1357 2211 0
-2212 1367 0
-2212 1381 0
-1367 -1381 2212 0
-2213 1368 0
-2213 1393 0
-1368 -1393 2213 0
-2214 1370 0
-2214 1418 0
-1370 -1418 2214 0
-2215 1371 0
-2215 1430 0
-1371 -1430 2215 0
-2216 1372 0
-2216 1442 0
-1372 -1442 2216 0
-2217 1373 0
-2217 1454 0
-1373 -1454 2217 0
-336 -2207 0
-336 -2208 0
-336 -2209 0
-336 -2210 0
-336 -2211 0
-336 -2212 0
-336 -2213 0
-336 -2214 0
-336 -2215 0
-336 -2216 0
-336 -2217 0
-1369 336 2207 2208 2209 2210 2211 2212 2213 2214 2215 2216 2217 0
-362 1370 0
-2218 1362 0
-2218 1319 0
-1362 -1319 2218 0
-2219 1363 0
-2219 1318 0
-1363 -1318 2219 0
-2220 1364 0
-2220 1334 0
-1364 -1334 2220 0
-2221 1365 0
-2221 1346 0
-1365 -1346 2221 0
-2222 1366 0
-2222 1358 0
-1366 -1358 2222 0
-2223 1367 0
-2223 1382 0
-1367 -1382 2223 0
-2224 1368 0
-2224 1394 0
-1368 -1394 2224 0
-2225 1369 0
-2225 1406 0
-1369 -1406 2225 0
-2226 1371 0
-2226 1431 0
-1371 -1431 2226 0
-2227 1372 0
-2227 1443 0
-1372 -1443 2227 0
-2228 1373 0
-2228 1455 0
-1373 -1455 2228 0
-362 -2218 0
-362 -2219 0
-362 -2220 0
-362 -2221 0
-362 -2222 0
-362 -2223 0
-362 -2224 0
-362 -2225 0
-362 -2226 0
-362 -2227 0
-362 -2228 0
-1370 362 2218 2219 2220 2221 2222 2223 2224 2225 2226 2227 2228 0
-388 1371 0
-2229 1362 0
-2229 1321 0
-1362 -1321 2229 0
-2230 1363 0
-2230 1320 0
-1363 -1320 2230 0
-2231 1364 0
-2231 1335 0
-1364 -1335 2231 0
-2232 1365 0
-2232 1347 0
-1365 -1347 2232 0
-2233 1366 0
-2233 1359 0
-1366 -1359 2233 0
-2234 1367 0
-2234 1383 0
-1367 -1383 2234 0
-2235 1368 0
-2235 1395 0
-1368 -1395 2235 0
-2236 1369 0
-2236 1407 0
-1369 -1407 2236 0
-2237 1370 0
-2237 1419 0
-1370 -1419 2237 0
-2238 1372 0
-2238 1444 0
-1372 -1444 2238 0
-2239 1373 0
-2239 1456 0
-1373 -1456 2239 0
-388 -2229 0
-388 -2230 0
-388 -2231 0
-388 -2232 0
-388 -2233 0
-388 -2234 0
-388 -2235 0
-388 -2236 0
-388 -2237 0
-388 -2238 0
-388 -2239 0
-1371 388 2229 2230 2231 2232 2233 2234 2235 2236 2237 2238 2239 0
-414 1372 0
-2240 1362 0
-2240 1323 0
-1362 -1323 2240 0
-2241 1363 0
-2241 1322 0
-1363 -1322 2241 0
-2242 1364 0
-2242 1336 0
-1364 -1336 2242 0
-2243 1365 0
-2243 1348 0
-1365 -1348 2243 0
-2244 1366 0
-2244 1360 0
-1366 -1360 2244 0
-2245 1367 0
-2245 1384 0
-1367 -1384 2245 0
-2246 1368 0
-2246 1396 0
-1368 -1396 2246 0
-2247 1369 0
-2247 1408 0
-1369 -1408 2247 0
-2248 1370 0
-2248 1420 0
-1370 -1420 2248 0
-2249 1371 0
-2249 1432 0
-1371 -1432 2249 0
-2250 1373 0
-2250 1457 0
-1373 -1457 2250 0
-414 -2240 0
-414 -2241 0
-414 -2242 0
-414 -2243 0
-414 -2244 0
-414 -2245 0
-414 -2246 0
-414 -2247 0
-414 -2248 0
-414 -2249 0
-414 -2250 0
-1372 414 2240 2241 2242 2243 2244 2245 2246 2247 2248 2249 2250 0
-440 1373 0
-2251 1362 0
-2251 1325 0
-1362 -1325 2251 0
-2252 1363 0
-2252 1324 0
-1363 -1324 2252 0
-2253 1364 0
-2253 1337 0
-1364 -1337 2253 0
-2254 1365 0
-2254 1349 0
-1365 -1349 2254 0
-2255 1366 0
-2255 1361 0
-1366 -1361 2255 0
-2256 1367 0
-2256 1385 0
-1367 -1385 2256 0
-2257 1368 0
-2257 1397 0
-1368 -1397 2257 0
-2258 1369 0
-2258 1409 0
-1369 -1409 2258 0
-2259 1370 0
-2259 1421 0
-1370 -1421 2259 0
-2260 1371 0
-2260 1433 0
-1371 -1433 2260 0
-2261 1372 0
-2261 1445 0
-1372 -1445 2261 0
-440 -2251 0
-440 -2252 0
-440 -2253 0
-440 -2254 0
-440 -2255 0
-440 -2256 0
-440 -2257 0
-440 -2258 0
-440 -2259 0
-440 -2260 0
-440 -2261 0
-1373 440 2251 2252 2253 2254 2255 2256 2257 2258 2259 2260 2261 0
-130 1374 0
-2262 1375 0
-2262 1303 0
-1375 -1303 2262 0
-2263 1376 0
-2263 1326 0
-1376 -1326 2263 0
-2264 1377 0
-2264 1338 0
-1377 -1338 2264 0
-2265 1378 0
-2265 1350 0
-1378 -1350 2265 0
-2266 1379 0
-2266 1362 0
-1379 -1362 2266 0
-2267 1380 0
-2267 1386 0
-1380 -1386 2267 0
-2268 1381 0
-2268 1398 0
-1381 -1398 2268 0
-2269 1382 0
-2269 1410 0
-1382 -1410 2269 0
-2270 1383 0
-2270 1422 0
-1383 -1422 2270 0
-2271 1384 0
-2271 1434 0
-1384 -1434 2271 0
-2272 1385 0
-2272 1446 0
-1385 -1446 2272 0
-130 -2262 0
-130 -2263 0
-130 -2264 0
-130 -2265 0
-130 -2266 0
-130 -2267 0
-130 -2268 0
-130 -2269 0
-130 -2270 0
-130 -2271 0
-130 -2272 0
-1374 130 2262 2263 2264 2265 2266 2267 2268 2269 2270 2271 2272 0
-156 1375 0
-2273 1374 0
-2273 1302 0
-1374 -1302 2273 0
-2274 1376 0
-2274 1327 0
-1376 -1327 2274 0
-2275 1377 0
-2275 1339 0
-1377 -1339 2275 0
-2276 1378 0
-2276 1351 0
-1378 -1351 2276 0
-2277 1379 0
-2277 1363 0
-1379 -1363 2277 0
-2278 1380 0
-2278 1387 0
-1380 -1387 2278 0
-2279 1381 0
-2279 1399 0
-1381 -1399 2279 0
-2280 1382 0
-2280 1411 0
-1382 -1411 2280 0
-2281 1383 0
-2281 1423 0
-1383 -1423 2281 0
-2282 1384 0
-2282 1435 0
-1384 -1435 2282 0
-2283 1385 0
-2283 1447 0
-1385 -1447 2283 0
-156 -2273 0
-156 -2274 0
-156 -2275 0
-156 -2276 0
-156 -2277 0
-156 -2278 0
-156 -2279 0
-156 -2280 0
-156 -2281 0
-156 -2282 0
-156 -2283 0
-1375 156 2273 2274 2275 2276 2277 2278 2279 2280 2281 2282 2283 0
-182 1376 0
-2284 1374 0
-2284 1305 0
-1374 -1305 2284 0
-2285 1375 0
-2285 1304 0
-1375 -1304 2285 0
-2286 1377 0
-2286 1340 0
-1377 -1340 2286 0
-2287 1378 0
-2287 1352 0
-1378 -1352 2287 0
-2288 1379 0
-2288 1364 0
-1379 -1364 2288 0
-2289 1380 0
-2289 1388 0
-1380 -1388 2289 0
-2290 1381 0
-2290 1400 0
-1381 -1400 2290 0
-2291 1382 0
-2291 1412 0
-1382 -1412 2291 0
-2292 1383 0
-2292 1424 0
-1383 -1424 2292 0
-2293 1384 0
-2293 1436 0
-1384 -1436 2293 0
-2294 1385 0
-2294 1448 0
-1385 -1448 2294 0
-182 -2284 0
-182 -2285 0
-182 -2286 0
-182 -2287 0
-182 -2288 0
-182 -2289 0
-182 -2290 0
-182 -2291 0
-182 -2292 0
-182 -2293 0
-182 -2294 0
-1376 182 2284 2285 2286 2287 2288 2289 2290 2291 2292 2293 2294 0
-208 1377 0
-2295 1374 0
-2295 1307 0
-1374 -1307 2295 0
-2296 1375 0
-2296 1306 0
-1375 -1306 2296 0
-2297 1376 0
-2297 1328 0
-1376 -1328 2297 0
-2298 1378 0
-2298 1353 0
-1378 -1353 2298 0
-2299 1379 0
-2299 1365 0
-1379 -1365 2299 0
-2300 1380 0
-2300 1389 0
-1380 -1389 2300 0
-2301 1381 0
-2301 1401 0
-1381 -1401 2301 0
-2302 1382 0
-2302 1413 0
-1382 -1413 2302 0
-2303 1383 0
-2303 1425 0
-1383 -1425 2303 0
-2304 1384 0
-2304 1437 0
-1384 -1437 2304 0
-2305 1385 0
-2305 1449 0
-1385 -1449 2305 0
-208 -2295 0
-208 -2296 0
-208 -2297 0
-208 -2298 0
-208 -2299 0
-208 -2300 0
-208 -2301 0
-208 -2302 0
-208 -2303 0
-208 -2304 0
-208 -2305 0
-1377 208 2295 2296 2297 2298 2299 2300 2301 2302 2303 2304 2305 0
-234 1378 0
-2306 1374 0
-2306 1309 0
-1374 -1309 2306 0
-2307 1375 0
-2307 1308 0
-1375 -1308 2307 0
-2308 1376 0
-2308 1329 0
-1376 -1329 2308 0
-2309 1377 0
-2309 1341 0
-1377 -1341 2309 0
-2310 1379 0
-2310 1366 0
-1379 -1366 2310 0
-2311 1380 0
-2311 1390 0
-1380 -1390 2311 0
-2312 1381 0
-2312 1402 0
-1381 -1402 2312 0
-2313 1382 0
-2313 1414 0
-1382 -1414 2313 0
-2314 1383 0
-2314 1426 0
-1383 -1426 2314 0
-2315 1384 0
-2315 1438 0
-1384 -1438 2315 0
-2316 1385 0
-2316 1450 0
-1385 -1450 2316 0
-234 -2306 0
-234 -2307 0
-234 -2308 0
-234 -2309 0
-234 -2310 0
-234 -2311 0
-234 -2312 0
-234 -2313 0
-234 -2314 0
-234 -2315 0
-234 -2316 0
-1378 234 2306 2307 2308 2309 2310 2311 2312 2313 2314 2315 2316 0
-260 1379 0
-2317 1374 0
-2317 1311 0
-1374 -1311 2317 0
-2318 1375 0
-2318 1310 0
-1375 -1310 2318 0
-2319 1376 0
-2319 1330 0
-1376 -1330 2319 0
-2320 1377 0
-2320 1342 0
-1377 -1342 2320 0
-2321 1378 0
-2321 1354 0
-1378 -1354 2321 0
-2322 1380 0
-2322 1391 0
-1380 -1391 2322 0
-2323 1381 0
-2323 1403 0
-1381 -1403 2323 0
-2324 1382 0
-2324 1415 0
-1382 -1415 2324 0
-2325 1383 0
-2325 1427 0
-1383 -1427 2325 0
-2326 1384 0
-2326 1439 0
-1384 -1439 2326 0
-2327 1385 0
-2327 1451 0
-1385 -1451 2327 0
-260 -2317 0
-260 -2318 0
-260 -2319 0
-260 -2320 0
-260 -2321 0
-260 -2322 0
-260 -2323 0
-260 -2324 0
-260 -2325 0
-260 -2326 0
-260 -2327 0
-1379 260 2317 2318 2319 2320 2321 2322 2323 2324 2325 2326 2327 0
-286 0
-312 1380 0
-2328 1374 0
-2328 1315 0
-1374 -1315 2328 0
-2329 1375 0
-2329 1314 0
-1375 -1314 2329 0
-2330 1376 0
-2330 1332 0
-1376 -1332 2330 0
-2331 1377 0
-2331 1344 0
-1377 -1344 2331 0
-2332 1378 0
-2332 1356 0
-1378 -1356 2332 0
-2333 1379 0
-2333 1368 0
-1379 -1368 2333 0
-2334 1381 0
-2334 1405 0
-1381 -1405 2334 0
-2335 1382 0
-2335 1417 0
-1382 -1417 2335 0
-2336 1383 0
-2336 1429 0
-1383 -1429 2336 0
-2337 1384 0
-2337 1441 0
-1384 -1441 2337 0
-2338 1385 0
-2338 1453 0
-1385 -1453 2338 0
-312 -2328 0
-312 -2329 0
-312 -2330 0
-312 -2331 0
-312 -2332 0
-312 -2333 0
-312 -2334 0
-312 -2335 0
-312 -2336 0
-312 -2337 0
-312 -2338 0
-1380 312 2328 2329 2330 2331 2332 2333 2334 2335 2336 2337 2338 0
-338 1381 0
-2339 1374 0
-2339 1317 0
-1374 -1317 2339 0
-2340 1375 0
-2340 1316 0
-1375 -1316 2340 0
-2341 1376 0
-2341 1333 0
-1376 -1333 2341 0
-2342 1377 0
-2342 1345 0
-1377 -1345 2342 0
-2343 1378 0
-2343 1357 0
-1378 -1357 2343 0
-2344 1379 0
-2344 1369 0
-1379 -1369 2344 0
-2345 1380 0
-2345 1393 0
-1380 -1393 2345 0
-2346 1382 0
-2346 1418 0
-1382 -1418 2346 0
-2347 1383 0
-2347 1430 0
-1383 -1430 2347 0
-2348 1384 0
-2348 1442 0
-1384 -1442 2348 0
-2349 1385 0
-2349 1454 0
-1385 -1454 2349 0
-338 -2339 0
-338 -2340 0
-338 -2341 0
-338 -2342 0
-338 -2343 0
-338 -2344 0
-338 -2345 0
-338 -2346 0
-338 -2347 0
-338 -2348 0
-338 -2349 0
-1381 338 2339 2340 2341 2342 2343 2344 2345 2346 2347 2348 2349 0
-364 1382 0
-2350 1374 0
-2350 1319 0
-1374 -1319 2350 0
-2351 1375 0
-2351 1318 0
-1375 -1318 2351 0
-2352 1376 0
-2352 1334 0
-1376 -1334 2352 0
-2353 1377 0
-2353 1346 0
-1377 -1346 2353 0
-2354 1378 0
-2354 1358 0
-1378 -1358 2354 0
-2355 1379 0
-2355 1370 0
-1379 -1370 2355 0
-2356 1380 0
-2356 1394 0
-1380 -1394 2356 0
-2357 1381 0
-2357 1406 0
-1381 -1406 2357 0
-2358 1383 0
-2358 1431 0
-1383 -1431 2358 0
-2359 1384 0
-2359 1443 0
-1384 -1443 2359 0
-2360 1385 0
-2360 1455 0
-1385 -1455 2360 0
-364 -2350 0
-364 -2351 0
-364 -2352 0
-364 -2353 0
-364 -2354 0
-364 -2355 0
-364 -2356 0
-364 -2357 0
-364 -2358 0
-364 -2359 0
-364 -2360 0
-1382 364 2350 2351 2352 2353 2354 2355 2356 2357 2358 2359 2360 0
-390 1383 0
-2361 1374 0
-2361 1321 0
-1374 -1321 2361 0
-2362 1375 0
-2362 1320 0
-1375 -1320 2362 0
-2363 1376 0
-2363 1335 0
-1376 -1335 2363 0
-2364 1377 0
-2364 1347 0
-1377 -1347 2364 0
-2365 1378 0
-2365 1359 0
-1378 -1359 2365 0
-2366 1379 0
-2366 1371 0
-1379 -1371 2366 0
-2367 1380 0
-2367 1395 0
-1380 -1395 2367 0
-2368 1381 0
-2368 1407 0
-1381 -1407 2368 0
-2369 1382 0
-2369 1419 0
-1382 -1419 2369 0
-2370 1384 0
-2370 1444 0
-1384 -1444 2370 0
-2371 1385 0
-2371 1456 0
-1385 -1456 2371 0
-390 -2361 0
-390 -2362 0
-390 -2363 0
-390 -2364 0
-390 -2365 0
-390 -2366 0
-390 -2367 0
-390 -2368 0
-390 -2369 0
-390 -2370 0
-390 -2371 0
-1383 390 2361 2362 2363 2364 2365 2366 2367 2368 2369 2370 2371 0
-416 1384 0
-2372 1374 0
-2372 1323 0
-1374 -1323 2372 0
-2373 1375 0
-2373 1322 0
-1375 -1322 2373 0
-2374 1376 0
-2374 1336 0
-1376 -1336 2374 0
-2375 1377 0
-2375 1348 0
-1377 -1348 2375 0
-2376 1378 0
-2376 1360 0
-1378 -1360 2376 0
-2377 1379 0
-2377 1372 0
-1379 -1372 2377 0
-2378 1380 0
-2378 1396 0
-1380 -1396 2378 0
-2379 1381 0
-2379 1408 0
-1381 -1408 2379 0
-2380 1382 0
-2380 1420 0
-1382 -1420 2380 0
-2381 1383 0
-2381 1432 0
-1383 -1432 2381 0
-2382 1385 0
-2382 1457 0
-1385 -1457 2382 0
-416 -2372 0
-416 -2373 0
-416 -2374 0
-416 -2375 0
-416 -2376 0
-416 -2377 0
-416 -2378 0
-416 -2379 0
-416 -2380 0
-416 -2381 0
-416 -2382 0
-1384 416 2372 2373 2374 2375 2376 2377 2378 2379 2380 2381 2382 0
-442 1385 0
-2383 1374 0
-2383 1325 0
-1374 -1325 2383 0
-2384 1375 0
-2384 1324 0
-1375 -1324 2384 0
-2385 1376 0
-2385 1337 0
-1376 -1337 2385 0
-2386 1377 0
-2386 1349 0
-1377 -1349 2386 0
-2387 1378 0
-2387 1361 0
-1378 -1361 2387 0
-2388 1379 0
-2388 1373 0
-1379 -1373 2388 0
-2389 1380 0
-2389 1397 0
-1380 -1397 2389 0
-2390 1381 0
-2390 1409 0
-1381 -1409 2390 0
-2391 1382 0
-2391 1421 0
-1382 -1421 2391 0
-2392 1383 0
-2392 1433 0
-1383 -1433 2392 0
-2393 1384 0
-2393 1445 0
-1384 -1445 2393 0
-442 -2383 0
-442 -2384 0
-442 -2385 0
-442 -2386 0
-442 -2387 0
-442 -2388 0
-442 -2389 0
-442 -2390 0
-442 -2391 0
-442 -2392 0
-442 -2393 0
-1385 442 2383 2384 2385 2386 2387 2388 2389 2390 2391 2392 2393 0
-132 1386 0
-2394 1387 0
-2394 1303 0
-1387 -1303 2394 0
-2395 1388 0
-2395 1326 0
-1388 -1326 2395 0
-2396 1389 0
-2396 1338 0
-1389 -1338 2396 0
-2397 1390 0
-2397 1350 0
-1390 -1350 2397 0
-2398 1391 0
-2398 1362 0
-1391 -1362 2398 0
-2399 1392 0
-2399 1374 0
-1392 -1374 2399 0
-2400 1393 0
-2400 1398 0
-1393 -1398 2400 0
-2401 1394 0
-2401 1410 0
-1394 -1410 2401 0
-2402 1395 0
-2402 1422 0
-1395 -1422 2402 0
-2403 1396 0
-2403 1434 0
-1396 -1434 2403 0
-2404 1397 0
-2404 1446 0
-1397 -1446 2404 0
-132 -2394 0
-132 -2395 0
-132 -2396 0
-132 -2397 0
-132 -2398 0
-132 -2399 0
-132 -2400 0
-132 -2401 0
-132 -2402 0
-132 -2403 0
-132 -2404 0
-1386 132 2394 2395 2396 2397 2398 2399 2400 2401 2402 2403 2404 0
-158 1387 0
-2405 1386 0
-2405 1302 0
-1386 -1302 2405 0
-2406 1388 0
-2406 1327 0
-1388 -1327 2406 0
-2407 1389 0
-2407 1339 0
-1389 -1339 2407 0
-2408 1390 0
-2408 1351 0
-1390 -1351 2408 0
-2409 1391 0
-2409 1363 0
-1391 -1363 2409 0
-2410 1392 0
-2410 1375 0
-1392 -1375 2410 0
-2411 1393 0
-2411 1399 0
-1393 -1399 2411 0
-2412 1394 0
-2412 1411 0
-1394 -1411 2412 0
-2413 1395 0
-2413 1423 0
-1395 -1423 2413 0
-2414 1396 0
-2414 1435 0
-1396 -1435 2414 0
-2415 1397 0
-2415 1447 0
-1397 -1447 2415 0
-158 -2405 0
-158 -2406 0
-158 -2407 0
-158 -2408 0
-158 -2409 0
-158 -2410 0
-158 -2411 0
-158 -2412 0
-158 -2413 0
-158 -2414 0
-158 -2415 0
-1387 158 2405 2406 2407 2408 2409 2410 2411 2412 2413 2414 2415 0
-184 1388 0
-2416 1386 0
-2416 1305 0
-1386 -1305 2416 0
-2417 1387 0
-2417 1304 0
-1387 -1304 2417 0
-2418 1389 0
-2418 1340 0
-1389 -1340 2418 0
-2419 1390 0
-2419 1352 0
-1390 -1352 2419 0
-2420 1391 0
-2420 1364 0
-1391 -1364 2420 0
-2421 1392 0
-2421 1376 0
-1392 -1376 2421 0
-2422 1393 0
-2422 1400 0
-1393 -1400 2422 0
-2423 1394 0
-2423 1412 0
-1394 -1412 2423 0
-2424 1395 0
-2424 1424 0
-1395 -1424 2424 0
-2425 1396 0
-2425 1436 0
-1396 -1436 2425 0
-2426 1397 0
-2426 1448 0
-1397 -1448 2426 0
-184 -2416 0
-184 -2417 0
-184 -2418 0
-184 -2419 0
-184 -2420 0
-184 -2421 0
-184 -2422 0
-184 -2423 0
-184 -2424 0
-184 -2425 0
-184 -2426 0
-1388 184 2416 2417 2418 2419 2420 2421 2422 2423 2424 2425 2426 0
-210 1389 0
-2427 1386 0
-2427 1307 0
-1386 -1307 2427 0
-2428 1387 0
-2428 1306 0
-1387 -1306 2428 0
-2429 1388 0
-2429 1328 0
-1388 -1328 2429 0
-2430 1390 0
-2430 1353 0
-1390 -1353 2430 0
-2431 1391 0
-2431 1365 0
-1391 -1365 2431 0
-2432 1392 0
-2432 1377 0
-1392 -1377 2432 0
-2433 1393 0
-2433 1401 0
-1393 -1401 2433 0
-2434 1394 0
-2434 1413 0
-1394 -1413 2434 0
-2435 1395 0
-2435 1425 0
-1395 -1425 2435 0
-2436 1396 0
-2436 1437 0
-1396 -1437 2436 0
-2437 1397 0
-2437 1449 0
-1397 -1449 2437 0
-210 -2427 0
-210 -2428 0
-210 -2429 0
-210 -2430 0
-210 -2431 0
-210 -2432 0
-210 -2433 0
-210 -2434 0
-210 -2435 0
-210 -2436 0
-210 -2437 0
-1389 210 2427 2428 2429 2430 2431 2432 2433 2434 2435 2436 2437 0
-236 1390 0
-2438 1386 0
-2438 1309 0
-1386 -1309 2438 0
-2439 1387 0
-2439 1308 0
-1387 -1308 2439 0
-2440 1388 0
-2440 1329 0
-1388 -1329 2440 0
-2441 1389 0
-2441 1341 0
-1389 -1341 2441 0
-2442 1391 0
-2442 1366 0
-1391 -1366 2442 0
-2443 1392 0
-2443 1378 0
-1392 -1378 2443 0
-2444 1393 0
-2444 1402 0
-1393 -1402 2444 0
-2445 1394 0
-2445 1414 0
-1394 -1414 2445 0
-2446 1395 0
-2446 1426 0
-1395 -1426 2446 0
-2447 1396 0
-2447 1438 0
-1396 -1438 2447 0
-2448 1397 0
-2448 1450 0
-1397 -1450 2448 0
-236 -2438 0
-236 -2439 0
-236 -2440 0
-236 -2441 0
-236 -2442 0
-236 -2443 0
-236 -2444 0
-236 -2445 0
-236 -2446 0
-236 -2447 0
-236 -2448 0
-1390 236 2438 2439 2440 2441 2442 2443 2444 2445 2446 2447 2448 0
-262 1391 0
-2449 1386 0
-2449 1311 0
-1386 -1311 2449 0
-2450 1387 0
-2450 1310 0
-1387 -1310 2450 0
-2451 1388 0
-2451 1330 0
-1388 -1330 2451 0
-2452 1389 0
-2452 1342 0
-1389 -1342 2452 0
-2453 1390 0
-2453 1354 0
-1390 -1354 2453 0
-2454 1392 0
-2454 1379 0
-1392 -1379 2454 0
-2455 1393 0
-2455 1403 0
-1393 -1403 2455 0
-2456 1394 0
-2456 1415 0
-1394 -1415 2456 0
-2457 1395 0
-2457 1427 0
-1395 -1427 2457 0
-2458 1396 0
-2458 1439 0
-1396 -1439 2458 0
-2459 1397 0
-2459 1451 0
-1397 -1451 2459 0
-262 -2449 0
-262 -2450 0
-262 -2451 0
-262 -2452 0
-262 -2453 0
-262 -2454 0
-262 -2455 0
-262 -2456 0
-262 -2457 0
-262 -2458 0
-262 -2459 0
-1391 262 2449 2450 2451 2452 2453 2454 2455 2456 2457 2458 2459 0
-288 1392 0
-2460 1386 0
-2460 1313 0
-1386 -1313 2460 0
-2461 1387 0
-2461 1312 0
-1387 -1312 2461 0
-2462 1388 0
-2462 1331 0
-1388 -1331 2462 0
-2463 1389 0
-2463 1343 0
-1389 -1343 2463 0
-2464 1390 0
-2464 1355 0
-1390 -1355 2464 0
-2465 1391 0
-2465 1367 0
-1391 -1367 2465 0
-2466 1393 0
-2466 1404 0
-1393 -1404 2466 0
-2467 1394 0
-2467 1416 0
-1394 -1416 2467 0
-2468 1395 0
-2468 1428 0
-1395 -1428 2468 0
-2469 1396 0
-2469 1440 0
-1396 -1440 2469 0
-2470 1397 0
-2470 1452 0
-1397 -1452 2470 0
-288 -2460 0
-288 -2461 0
-288 -2462 0
-288 -2463 0
-288 -2464 0
-288 -2465 0
-288 -2466 0
-288 -2467 0
-288 -2468 0
-288 -2469 0
-288 -2470 0
-1392 288 2460 2461 2462 2463 2464 2465 2466 2467 2468 2469 2470 0
-314 0
-340 1393 0
-2471 1386 0
-2471 1317 0
-1386 -1317 2471 0
-2472 1387 0
-2472 1316 0
-1387 -1316 2472 0
-2473 1388 0
-2473 1333 0
-1388 -1333 2473 0
-2474 1389 0
-2474 1345 0
-1389 -1345 2474 0
-2475 1390 0
-2475 1357 0
-1390 -1357 2475 0
-2476 1391 0
-2476 1369 0
-1391 -1369 2476 0
-2477 1392 0
-2477 1381 0
-1392 -1381 2477 0
-2478 1394 0
-2478 1418 0
-1394 -1418 2478 0
-2479 1395 0
-2479 1430 0
-1395 -1430 2479 0
-2480 1396 0
-2480 1442 0
-1396 -1442 2480 0
-2481 1397 0
-2481 1454 0
-1397 -1454 2481 0
-340 -2471 0
-340 -2472 0
-340 -2473 0
-340 -2474 0
-340 -2475 0
-340 -2476 0
-340 -2477 0
-340 -2478 0
-340 -2479 0
-340 -2480 0
-340 -2481 0
-1393 340 2471 2472 2473 2474 2475 2476 2477 2478 2479 2480 2481 0
-366 1394 0
-2482 1386 0
-2482 1319 0
-1386 -1319 2482 0
-2483 1387 0
-2483 1318 0
-1387 -1318 2483 0
-2484 1388 0
-2484 1334 0
-1388 -1334 2484 0
-2485 1389 0
-2485 1346 0
-1389 -1346 2485 0
-2486 1390 0
-2486 1358 0
-1390 -1358 2486 0
-2487 1391 0
-2487 1370 0
-1391 -1370 2487 0
-2488 1392 0
-2488 1382 0
-1392 -1382 2488 0
-2489 1393 0
-2489 1406 0
-1393 -1406 2489 0
-2490 1395 0
-2490 1431 0
-1395 -1431 2490 0
-2491 1396 0
-2491 1443 0
-1396 -1443 2491 0
-2492 1397 0
-2492 1455 0
-1397 -1455 2492 0
-366 -2482 0
-366 -2483 0
-366 -2484 0
-366 -2485 0
-366 -2486 0
-366 -2487 0
-366 -2488 0
-366 -2489 0
-366 -2490 0
-366 -2491 0
-366 -2492 0
-1394 366 2482 2483 2484 2485 2486 2487 2488 2489 2490 2491 2492 0
-392 1395 0
-2493 1386 0
-2493 1321 0
-1386 -1321 2493 0
-2494 1387 0
-2494 1320 0
-1387 -1320 2494 0
-2495 1388 0
-2495 1335 0
-1388 -1335 2495 0
-2496 1389 0
-2496 1347 0
-1389 -1347 2496 0
-2497 1390 0
-2497 1359 0
-1390 -1359 2497 0
-2498 1391 0
-2498 1371 0
-1391 -1371 2498 0
-2499 1392 0
-2499 1383 0
-1392 -1383 2499 0
-2500 1393 0
-2500 1407 0
-1393 -1407 2500 0
-2501 1394 0
-2501 1419 0
-1394 -1419 2501 0
-2502 1396 0
-2502 1444 0
-1396 -1444 2502 0
-2503 1397 0
-2503 1456 0
-1397 -1456 2503 0
-392 -2493 0
-392 -2494 0
-392 -2495 0
-392 -2496 0
-392 -2497 0
-392 -2498 0
-392 -2499 0
-392 -2500 0
-392 -2501 0
-392 -2502 0
-392 -2503 0
-1395 392 2493 2494 2495 2496 2497 2498 2499 2500 2501 2502 2503 0
-418 1396 0
-2504 1386 0
-2504 1323 0
-1386 -1323 2504 0
-2505 1387 0
-2505 1322 0
-1387 -1322 2505 0
-2506 1388 0
-2506 1336 0
-1388 -1336 2506 0
-2507 1389 0
-2507 1348 0
-1389 -1348 2507 0
-2508 1390 0
-2508 1360 0
-1390 -1360 2508 0
-2509 1391 0
-2509 1372 0
-1391 -1372 2509 0
-2510 1392 0
-2510 1384 0
-1392 -1384 2510 0
-2511 1393 0
-2511 1408 0
-1393 -1408 2511 0
-2512 1394 0
-2512 1420 0
-1394 -1420 2512 0
-2513 1395 0
-2513 1432 0
-1395 -1432 2513 0
-2514 1397 0
-2514 1457 0
-1397 -1457 2514 0
-418 -2504 0
-418 -2505 0
-418 -2506 0
-418 -2507 0
-418 -2508 0
-418 -2509 0
-418 -2510 0
-418 -2511 0
-418 -2512 0
-418 -2513 0
-418 -2514 0
-1396 418 2504 2505 2506 2507 2508 2509 2510 2511 2512 2513 2514 0
-444 1397 0
-2515 1386 0
-2515 1325 0
-1386 -1325 2515 0
-2516 1387 0
-2516 1324 0
-1387 -1324 2516 0
-2517 1388 0
-2517 1337 0
-1388 -1337 2517 0
-2518 1389 0
-2518 1349 0
-1389 -1349 2518 0
-2519 1390 0
-2519 1361 0
-1390 -1361 2519 0
-2520 1391 0
-2520 1373 0
-1391 -1373 2520 0
-2521 1392 0
-2521 1385 0
-1392 -1385 2521 0
-2522 1393 0
-2522 1409 0
-1393 -1409 2522 0
-2523 1394 0
-2523 1421 0
-1394 -1421 2523 0
-2524 1395 0
-2524 1433 0
-1395 -1433 2524 0
-2525 1396 0
-2525 1445 0
-1396 -1445 2525 0
-444 -2515 0
-444 -2516 0
-444 -2517 0
-444 -2518 0
-444 -2519 0
-444 -2520 0
-444 -2521 0
-444 -2522 0
-444 -2523 0
-444 -2524 0
-444 -2525 0
-1397 444 2515 2516 2517 2518 2519 2520 2521 2522 2523 2524 2525 0
-134 1398 0
-2526 1399 0
-2526 1303 0
-1399 -1303 2526 0
-2527 1400 0
-2527 1326 0
-1400 -1326 2527 0
-2528 1401 0
-2528 1338 0
-1401 -1338 2528 0
-2529 1402 0
-2529 1350 0
-1402 -1350 2529 0
-2530 1403 0
-2530 1362 0
-1403 -1362 2530 0
-2531 1404 0
-2531 1374 0
-1404 -1374 2531 0
-2532 1405 0
-2532 1386 0
-1405 -1386 2532 0
-2533 1406 0
-2533 1410 0
-1406 -1410 2533 0
-2534 1407 0
-2534 1422 0
-1407 -1422 2534 0
-2535 1408 0
-2535 1434 0
-1408 -1434 2535 0
-2536 1409 0
-2536 1446 0
-1409 -1446 2536 0
-134 -2526 0
-134 -2527 0
-134 -2528 0
-134 -2529 0
-134 -2530 0
-134 -2531 0
-134 -2532 0
-134 -2533 0
-134 -2534 0
-134 -2535 0
-134 -2536 0
-1398 134 2526 2527 2528 2529 2530 2531 2532 2533 2534 2535 2536 0
-160 1399 0
-2537 1398 0
-2537 1302 0
-1398 -1302 2537 0
-2538 1400 0
-2538 1327 0
-1400 -1327 2538 0
-2539 1401 0
-2539 1339 0
-1401 -1339 2539 0
-2540 1402 0
-2540 1351 0
-1402 -1351 2540 0
-2541 1403 0
-2541 1363 0
-1403 -1363 2541 0
-2542 1404 0
-2542 1375 0
-1404 -1375 2542 0
-2543 1405 0
-2543 1387 0
-1405 -1387 2543 0
-2544 1406 0
-2544 1411 0
-1406 -1411 2544 0
-2545 1407 0
-2545 1423 0
-1407 -1423 2545 0
-2546 1408 0
-2546 1435 0
-1408 -1435 2546 0
-2547 1409 0
-2547 1447 0
-1409 -1447 2547 0
-160 -2537 0
-160 -2538 0
-160 -2539 0
-160 -2540 0
-160 -2541 0
-160 -2542 0
-160 -2543 0
-160 -2544 0
-160 -2545 0
-160 -2546 0
-160 -2547 0
-1399 160 2537 2538 2539 2540 2541 2542 2543 2544 2545 2546 2547 0
-186 1400 0
-2548 1398 0
-2548 1305 0
-1398 -1305 2548 0
-2549 1399 0
-2549 1304 0
-1399 -1304 2549 0
-2550 1401 0
-2550 1340 0
-1401 -1340 2550 0
-2551 1402 0
-2551 1352 0
-1402 -1352 2551 0
-2552 1403 0
-2552 1364 0
-1403 -1364 2552 0
-2553 1404 0
-2553 1376 0
-1404 -1376 2553 0
-2554 1405 0
-2554 1388 0
-1405 -1388 2554 0
-2555 1406 0
-2555 1412 0
-1406 -1412 2555 0
-2556 1407 0
-2556 1424 0
-1407 -1424 2556 0
-2557 1408 0
-2557 1436 0
-1408 -1436 2557 0
-2558 1409 0
-2558 1448 0
-1409 -1448 2558 0
-186 -2548 0
-186 -2549 0
-186 -2550 0
-186 -2551 0
-186 -2552 0
-186 -2553 0
-186 -2554 0
-186 -2555 0
-186 -2556 0
-186 -2557 0
-186 -2558 0
-1400 186 2548 2549 2550 2551 2552 2553 2554 2555 2556 2557 2558 0
-212 1401 0
-2559 1398 0
-2559 1307 0
-1398 -1307 2559 0
-2560 1399 0
-2560 1306 0
-1399 -1306 2560 0
-2561 1400 0
-2561 1328 0
-1400 -1328 2561 0
-2562 1402 0
-2562 1353 0
-1402 -1353 2562 0
-2563 1403 0
-2563 1365 0
-1403 -1365 2563 0
-2564 1404 0
-2564 1377 0
-1404 -1377 2564 0
-2565 1405 0
-2565 1389 0
-1405 -1389 2565 0
-2566 1406 0
-2566 1413 0
-1406 -1413 2566 0
-2567 1407 0
-2567 1425 0
-1407 -1425 2567 0
-2568 1408 0
-2568 1437 0
-1408 -1437 2568 0
-2569 1409 0
-2569 1449 0
-1409 -1449 2569 0
-212 -2559 0
-212 -2560 0
-212 -2561 0
-212 -2562 0
-212 -2563 0
-212 -2564 0
-212 -2565 0
-212 -2566 0
-212 -2567 0
-212 -2568 0
-212 -2569 0
-1401 212 2559 2560 2561 2562 2563 2564 2565 2566 2567 2568 2569 0
-238 1402 0
-2570 1398 0
-2570 1309 0
-1398 -1309 2570 0
-2571 1399 0
-2571 1308 0
-1399 -1308 2571 0
-2572 1400 0
-2572 1329 0
-1400 -1329 2572 0
-2573 1401 0
-2573 1341 0
-1401 -1341 2573 0
-2574 1403 0
-2574 1366 0
-1403 -1366 2574 0
-2575 1404 0
-2575 1378 0
-1404 -1378 2575 0
-2576 1405 0
-2576 1390 0
-1405 -1390 2576 0
-2577 1406 0
-2577 1414 0
-1406 -1414 2577 0
-2578 1407 0
-2578 1426 0
-1407 -1426 2578 0
-2579 1408 0
-2579 1438 0
-1408 -1438 2579 0
-2580 1409 0
-2580 1450 0
-1409 -1450 2580 0
-238 -2570 0
-238 -2571 0
-238 -2572 0
-238 -2573 0
-238 -2574 0
-238 -2575 0
-238 -2576 0
-238 -2577 0
-238 -2578 0
-238 -2579 0
-238 -2580 0
-1402 238 2570 2571 2572 2573 2574 2575 2576 2577 2578 2579 2580 0
-264 1403 0
-2581 1398 0
-2581 1311 0
-1398 -1311 2581 0
-2582 1399 0
-2582 1310 0
-1399 -1310 2582 0
-2583 1400 0
-2583 1330 0
-1400 -1330 2583 0
-2584 1401 0
-2584 1342 0
-1401 -1342 2584 0
-2585 1402 0
-2585 1354 0
-1402 -1354 2585 0
-2586 1404 0
-2586 1379 0
-1404 -1379 2586 0
-2587 1405 0
-2587 1391 0
-1405 -1391 2587 0
-2588 1406 0
-2588 1415 0
-1406 -1415 2588 0
-2589 1407 0
-2589 1427 0
-1407 -1427 2589 0
-2590 1408 0
-2590 1439 0
-1408 -1439 2590 0
-2591 1409 0
-2591 1451 0
-1409 -1451 2591 0
-264 -2581 0
-264 -2582 0
-264 -2583 0
-264 -2584 0
-264 -2585 0
-264 -2586 0
-264 -2587 0
-264 -2588 0
-264 -2589 0
-264 -2590 0
-264 -2591 0
-1403 264 2581 2582 2583 2584 2585 2586 2587 2588 2589 2590 2591 0
-290 1404 0
-2592 1398 0
-2592 1313 0
-1398 -1313 2592 0
-2593 1399 0
-2593 1312 0
-1399 -1312 2593 0
-2594 1400 0
-2594 1331 0
-1400 -1331 2594 0
-2595 1401 0
-2595 1343 0
-1401 -1343 2595 0
-2596 1402 0
-2596 1355 0
-1402 -1355 2596 0
-2597 1403 0
-2597 1367 0
-1403 -1367 2597 0
-2598 1405 0
-2598 1392 0
-1405 -1392 2598 0
-2599 1406 0
-2599 1416 0
-1406 -1416 2599 0
-2600 1407 0
-2600 1428 0
-1407 -1428 2600 0
-2601 1408 0
-2601 1440 0
-1408 -1440 2601 0
-2602 1409 0
-2602 1452 0
-1409 -1452 2602 0
-290 -2592 0
-290 -2593 0
-290 -2594 0
-290 -2595 0
-290 -2596 0
-290 -2597 0
-290 -2598 0
-290 -2599 0
-290 -2600 0
-290 -2601 0
-290 -2602 0
-1404 290 2592 2593 2594 2595 2596 2597 2598 2599 2600 2601 2602 0
-316 1405 0
-2603 1398 0
-2603 1315 0
-1398 -1315 2603 0
-2604 1399 0
-2604 1314 0
-1399 -1314 2604 0
-2605 1400 0
-2605 1332 0
-1400 -1332 2605 0
-2606 1401 0
-2606 1344 0
-1401 -1344 2606 0
-2607 1402 0
-2607 1356 0
-1402 -1356 2607 0
-2608 1403 0
-2608 1368 0
-1403 -1368 2608 0
-2609 1404 0
-2609 1380 0
-1404 -1380 2609 0
-2610 1406 0
-2610 1417 0
-1406 -1417 2610 0
-2611 1407 0
-2611 1429 0
-1407 -1429 2611 0
-2612 1408 0
-2612 1441 0
-1408 -1441 2612 0
-2613 1409 0
-2613 1453 0
-1409 -1453 2613 0
-316 -2603 0
-316 -2604 0
-316 -2605 0
-316 -2606 0
-316 -2607 0
-316 -2608 0
-316 -2609 0
-316 -2610 0
-316 -2611 0
-316 -2612 0
-316 -2613 0
-1405 316 2603 2604 2605 2606 2607 2608 2609 2610 2611 2612 2613 0
-342 0
-368 1406 0
-2614 1398 0
-2614 1319 0
-1398 -1319 2614 0
-2615 1399 0
-2615 1318 0
-1399 -1318 2615 0
-2616 1400 0
-2616 1334 0
-1400 -1334 2616 0
-2617 1401 0
-2617 1346 0
-1401 -1346 2617 0
-2618 1402 0
-2618 1358 0
-1402 -1358 2618 0
-2619 1403 0
-2619 1370 0
-1403 -1370 2619 0
-2620 1404 0
-2620 1382 0
-1404 -1382 2620 0
-2621 1405 0
-2621 1394 0
-1405 -1394 2621 0
-2622 1407 0
-2622 1431 0
-1407 -1431 2622 0
-2623 1408 0
-2623 1443 0
-1408 -1443 2623 0
-2624 1409 0
-2624 1455 0
-1409 -1455 2624 0
-368 -2614 0
-368 -2615 0
-368 -2616 0
-368 -2617 0
-368 -2618 0
-368 -2619 0
-368 -2620 0
-368 -2621 0
-368 -2622 0
-368 -2623 0
-368 -2624 0
-1406 368 2614 2615 2616 2617 2618 2619 2620 2621 2622 2623 2624 0
-394 1407 0
-2625 1398 0
-2625 1321 0
-1398 -1321 2625 0
-2626 1399 0
-2626 1320 0
-1399 -1320 2626 0
-2627 1400 0
-2627 1335 0
-1400 -1335 2627 0
-2628 1401 0
-2628 1347 0
-1401 -1347 2628 0
-2629 1402 0
-2629 1359 0
-1402 -1359 2629 0
-2630 1403 0
-2630 1371 0
-1403 -1371 2630 0
-2631 1404 0
-2631 1383 0
-1404 -1383 2631 0
-2632 1405 0
-2632 1395 0
-1405 -1395 2632 0
-2633 1406 0
-2633 1419 0
-1406 -1419 2633 0
-2634 1408 0
-2634 1444 0
-1408 -1444 2634 0
-2635 1409 0
-2635 1456 0
-1409 -1456 2635 0
-394 -2625 0
-394 -2626 0
-394 -2627 0
-394 -2628 0
-394 -2629 0
-394 -2630 0
-394 -2631 0
-394 -2632 0
-394 -2633 0
-394 -2634 0
-394 -2635 0
-1407 394 2625 2626 2627 2628 2629 2630 2631 2632 2633 2634 2635 0
-420 1408 0
-2636 1398 0
-2636 1323 0
-1398 -1323 2636 0
-2637 1399 0
-2637 1322 0
-1399 -1322 2637 0
-2638 1400 0
-2638 1336 0
-1400 -1336 2638 0
-2639 1401 0
-2639 1348 0
-1401 -1348 2639 0
-2640 1402 0
-2640 1360 0
-1402 -1360 2640 0
-2641 1403 0
-2641 1372 0
-1403 -1372 2641 0
-2642 1404 0
-2642 1384 0
-1404 -1384 2642 0
-2643 1405 0
-2643 1396 0
-1405 -1396 2643 0
-2644 1406 0
-2644 1420 0
-1406 -1420 2644 0
-2645 1407 0
-2645 1432 0
-1407 -1432 2645 0
-2646 1409 0
-2646 1457 0
-1409 -1457 2646 0
-420 -2636 0
-420 -2637 0
-420 -2638 0
-420 -2639 0
-420 -2640 0
-420 -2641 0
-420 -2642 0
-420 -2643 0
-420 -2644 0
-420 -2645 0
-420 -2646 0
-1408 420 2636 2637 2638 2639 2640 2641 2642 2643 2644 2645 2646 0
-446 1409 0
-2647 1398 0
-2647 1325 0
-1398 -1325 2647 0
-2648 1399 0
-2648 1324 0
-1399 -1324 2648 0
-2649 1400 0
-2649 1337 0
-1400 -1337 2649 0
-2650 1401 0
-2650 1349 0
-1401 -1349 2650 0
-2651 1402 0
-2651 1361 0
-1402 -1361 2651 0
-2652 1403 0
-2652 1373 0
-1403 -1373 2652 0
-2653 1404 0
-2653 1385 0
-1404 -1385 2653 0
-2654 1405 0
-2654 1397 0
-1405 -1397 2654 0
-2655 1406 0
-2655 1421 0
-1406 -1421 2655 0
-2656 1407 0
-2656 1433 0
-1407 -1433 2656 0
-2657 1408 0
-2657 1445 0
-1408 -1445 2657 0
-446 -2647 0
-446 -2648 0
-446 -2649 0
-446 -2650 0
-446 -2651 0
-446 -2652 0
-446 -2653 0
-446 -2654 0
-446 -2655 0
-446 -2656 0
-446 -2657 0
-1409 446 2647 2648 2649 2650 2651 2652 2653 2654 2655 2656 2657 0
-136 1410 0
-2658 1411 0
-2658 1303 0
-1411 -1303 2658 0
-2659 1412 0
-2659 1326 0
-1412 -1326 2659 0
-2660 1413 0
-2660 1338 0
-1413 -1338 2660 0
-2661 1414 0
-2661 1350 0
-1414 -1350 2661 0
-2662 1415 0
-2662 1362 0
-1415 -1362 2662 0
-2663 1416 0
-2663 1374 0
-1416 -1374 2663 0
-2664 1417 0
-2664 1386 0
-1417 -1386 2664 0
-2665 1418 0
-2665 1398 0
-1418 -1398 2665 0
-2666 1419 0
-2666 1422 0
-1419 -1422 2666 0
-2667 1420 0
-2667 1434 0
-1420 -1434 2667 0
-2668 1421 0
-2668 1446 0
-1421 -1446 2668 0
-136 -2658 0
-136 -2659 0
-136 -2660 0
-136 -2661 0
-136 -2662 0
-136 -2663 0
-136 -2664 0
-136 -2665 0
-136 -2666 0
-136 -2667 0
-136 -2668 0
-1410 136 2658 2659 2660 2661 2662 2663 2664 2665 2666 2667 2668 0
-162 1411 0
-2669 1410 0
-2669 1302 0
-1410 -1302 2669 0
-2670 1412 0
-2670 1327 0
-1412 -1327 2670 0
-2671 1413 0
-2671 1339 0
-1413 -1339 2671 0
-2672 1414 0
-2672 1351 0
-1414 -1351 2672 0
-2673 1415 0
-2673 1363 0
-1415 -1363 2673 0
-2674 1416 0
-2674 1375 0
-1416 -1375 2674 0
-2675 1417 0
-2675 1387 0
-1417 -1387 2675 0
-2676 1418 0
-2676 1399 0
-1418 -1399 2676 0
-2677 1419 0
-2677 1423 0
-1419 -1423 2677 0
-2678 1420 0
-2678 1435 0
-1420 -1435 2678 0
-2679 1421 0
-2679 1447 0
-1421 -1447 2679 0
-162 -2669 0
-162 -2670 0
-162 -2671 0
-162 -2672 0
-162 -2673 0
-162 -2674 0
-162 -2675 0
-162 -2676 0
-162 -2677 0
-162 -2678 0
-162 -2679 0
-1411 162 2669 2670 2671 2672 2673 2674 2675 2676 2677 2678 2679 0
-188 1412 0
-2680 1410 0
-2680 1305 0
-1410 -1305 2680 0
-2681 1411 0
-2681 1304 0
-1411 -1304 2681 0
-2682 1413 0
-2682 1340 0
-1413 -1340 2682 0
-2683 1414 0
-2683 1352 0
-1414 -1352 2683 0
-2684 1415 0
-2684 1364 0
-1415 -1364 2684 0
-2685 1416 0
-2685 1376 0
-1416 -1376 2685 0
-2686 1417 0
-2686 1388 0
-1417 -1388 2686 0
-2687 1418 0
-2687 1400 0
-1418 -1400 2687 0
-2688 1419 0
-2688 1424 0
-1419 -1424 2688 0
-2689 1420 0
-2689 1436 0
-1420 -1436 2689 0
-2690 1421 0
-2690 1448 0
-1421 -1448 2690 0
-188 -2680 0
-188 -2681 0
-188 -2682 0
-188 -2683 0
-188 -2684 0
-188 -2685 0
-188 -2686 0
-188 -2687 0
-188 -2688 0
-188 -2689 0
-188 -2690 0
-1412 188 2680 2681 2682 2683 2684 2685 2686 2687 2688 2689 2690 0
-214 1413 0
-2691 1410 0
-2691 1307 0
-1410 -1307 2691 0
-2692 1411 0
-2692 1306 0
-1411 -1306 2692 0
-2693 1412 0
-2693 1328 0
-1412 -1328 2693 0
-2694 1414 0
-2694 1353 0
-1414 -1353 2694 0
-2695 1415 0
-2695 1365 0
-1415 -1365 2695 0
-2696 1416 0
-2696 1377 0
-1416 -1377 2696 0
-2697 1417 0
-2697 1389 0
-1417 -1389 2697 0
-2698 1418 0
-2698 1401 0
-1418 -1401 2698 0
-2699 1419 0
-2699 1425 0
-1419 -1425 2699 0
-2700 1420 0
-2700 1437 0
-1420 -1437 2700 0
-2701 1421 0
-2701 1449 0
-1421 -1449 2701 0
-214 -2691 0
-214 -2692 0
-214 -2693 0
-214 -2694 0
-214 -2695 0
-214 -2696 0
-214 -2697 0
-214 -2698 0
-214 -2699 0
-214 -2700 0
-214 -2701 0
-1413 214 2691 2692 2693 2694 2695 2696 2697 2698 2699 2700 2701 0
-240 1414 0
-2702 1410 0
-2702 1309 0
-1410 -1309 2702 0
-2703 1411 0
-2703 1308 0
-1411 -1308 2703 0
-2704 1412 0
-2704 1329 0
-1412 -1329 2704 0
-2705 1413 0
-2705 1341 0
-1413 -1341 2705 0
-2706 1415 0
-2706 1366 0
-1415 -1366 2706 0
-2707 1416 0
-2707 1378 0
-1416 -1378 2707 0
-2708 1417 0
-2708 1390 0
-1417 -1390 2708 0
-2709 1418 0
-2709 1402 0
-1418 -1402 2709 0
-2710 1419 0
-2710 1426 0
-1419 -1426 2710 0
-2711 1420 0
-2711 1438 0
-1420 -1438 2711 0
-2712 1421 0
-2712 1450 0
-1421 -1450 2712 0
-240 -2702 0
-240 -2703 0
-240 -2704 0
-240 -2705 0
-240 -2706 0
-240 -2707 0
-240 -2708 0
-240 -2709 0
-240 -2710 0
-240 -2711 0
-240 -2712 0
-1414 240 2702 2703 2704 2705 2706 2707 2708 2709 2710 2711 2712 0
-266 1415 0
-2713 1410 0
-2713 1311 0
-1410 -1311 2713 0
-2714 1411 0
-2714 1310 0
-1411 -1310 2714 0
-2715 1412 0
-2715 1330 0
-1412 -1330 2715 0
-2716 1413 0
-2716 1342 0
-1413 -1342 2716 0
-2717 1414 0
-2717 1354 0
-1414 -1354 2717 0
-2718 1416 0
-2718 1379 0
-1416 -1379 2718 0
-2719 1417 0
-2719 1391 0
-1417 -1391 2719 0
-2720 1418 0
-2720 1403 0
-1418 -1403 2720 0
-2721 1419 0
-2721 1427 0
-1419 -1427 2721 0
-2722 1420 0
-2722 1439 0
-1420 -1439 2722 0
-2723 1421 0
-2723 1451 0
-1421 -1451 2723 0
-266 -2713 0
-266 -2714 0
-266 -2715 0
-266 -2716 0
-266 -2717 0
-266 -2718 0
-266 -2719 0
-266 -2720 0
-266 -2721 0
-266 -2722 0
-266 -2723 0
-1415 266 2713 2714 2715 2716 2717 2718 2719 2720 2721 2722 2723 0
-292 1416 0
-2724 1410 0
-2724 1313 0
-1410 -1313 2724 0
-2725 1411 0
-2725 1312 0
-1411 -1312 2725 0
-2726 1412 0
-2726 1331 0
-1412 -1331 2726 0
-2727 1413 0
-2727 1343 0
-1413 -1343 2727 0
-2728 1414 0
-2728 1355 0
-1414 -1355 2728 0
-2729 1415 0
-2729 1367 0
-1415 -1367 2729 0
-2730 1417 0
-2730 1392 0
-1417 -1392 2730 0
-2731 1418 0
-2731 1404 0
-1418 -1404 2731 0
-2732 1419 0
-2732 1428 0
-1419 -1428 2732 0
-2733 1420 0
-2733 1440 0
-1420 -1440 2733 0
-2734 1421 0
-2734 1452 0
-1421 -1452 2734 0
-292 -2724 0
-292 -2725 0
-292 -2726 0
-292 -2727 0
-292 -2728 0
-292 -2729 0
-292 -2730 0
-292 -2731 0
-292 -2732 0
-292 -2733 0
-292 -2734 0
-1416 292 2724 2725 2726 2727 2728 2729 2730 2731 2732 2733 2734 0
-318 1417 0
-2735 1410 0
-2735 1315 0
-1410 -1315 2735 0
-2736 1411 0
-2736 1314 0
-1411 -1314 2736 0
-2737 1412 0
-2737 1332 0
-1412 -1332 2737 0
-2738 1413 0
-2738 1344 0
-1413 -1344 2738 0
-2739 1414 0
-2739 1356 0
-1414 -1356 2739 0
-2740 1415 0
-2740 1368 0
-1415 -1368 2740 0
-2741 1416 0
-2741 1380 0
-1416 -1380 2741 0
-2742 1418 0
-2742 1405 0
-1418 -1405 2742 0
-2743 1419 0
-2743 1429 0
-1419 -1429 2743 0
-2744 1420 0
-2744 1441 0
-1420 -1441 2744 0
-2745 1421 0
-2745 1453 0
-1421 -1453 2745 0
-318 -2735 0
-318 -2736 0
-318 -2737 0
-318 -2738 0
-318 -2739 0
-318 -2740 0
-318 -2741 0
-318 -2742 0
-318 -2743 0
-318 -2744 0
-318 -2745 0
-1417 318 2735 2736 2737 2738 2739 2740 2741 2742 2743 2744 2745 0
-344 1418 0
-2746 1410 0
-2746 1317 0
-1410 -1317 2746 0
-2747 1411 0
-2747 1316 0
-1411 -1316 2747 0
-2748 1412 0
-2748 1333 0
-1412 -1333 2748 0
-2749 1413 0
-2749 1345 0
-1413 -1345 2749 0
-2750 1414 0
-2750 1357 0
-1414 -1357 2750 0
-2751 1415 0
-2751 1369 0
-1415 -1369 2751 0
-2752 1416 0
-2752 1381 0
-1416 -1381 2752 0
-2753 1417 0
-2753 1393 0
-1417 -1393 2753 0
-2754 1419 0
-2754 1430 0
-1419 -1430 2754 0
-2755 1420 0
-2755 1442 0
-1420 -1442 2755 0
-2756 1421 0
-2756 1454 0
-1421 -1454 2756 0
-344 -2746 0
-344 -2747 0
-344 -2748 0
-344 -2749 0
-344 -2750 0
-344 -2751 0
-344 -2752 0
-344 -2753 0
-344 -2754 0
-344 -2755 0
-344 -2756 0
-1418 344 2746 2747 2748 2749 2750 2751 2752 2753 2754 2755 2756 0
-370 0
-396 1419 0
-2757 1410 0
-2757 1321 0
-1410 -1321 2757 0
-2758 1411 0
-2758 1320 0
-1411 -1320 2758 0
-2759 1412 0
-2759 1335 0
-1412 -1335 2759 0
-2760 1413 0
-2760 1347 0
-1413 -1347 2760 0
-2761 1414 0
-2761 1359 0
-1414 -1359 2761 0
-2762 1415 0
-2762 1371 0
-1415 -1371 2762 0
-2763 1416 0
-2763 1383 0
-1416 -1383 2763 0
-2764 1417 0
-2764 1395 0
-1417 -1395 2764 0
-2765 1418 0
-2765 1407 0
-1418 -1407 2765 0
-2766 1420 0
-2766 1444 0
-1420 -1444 2766 0
-2767 1421 0
-2767 1456 0
-1421 -1456 2767 0
-396 -2757 0
-396 -2758 0
-396 -2759 0
-396 -2760 0
-396 -2761 0
-396 -2762 0
-396 -2763 0
-396 -2764 0
-396 -2765 0
-396 -2766 0
-396 -2767 0
-1419 396 2757 2758 2759 2760 2761 2762 2763 2764 2765 2766 2767 0
-422 1420 0
-2768 1410 0
-2768 1323 0
-1410 -1323 2768 0
-2769 1411 0
-2769 1322 0
-1411 -1322 2769 0
-2770 1412 0
-2770 1336 0
-1412 -1336 2770 0
-2771 1413 0
-2771 1348 0
-1413 -1348 2771 0
-2772 1414 0
-2772 1360 0
-1414 -1360 2772 0
-2773 1415 0
-2773 1372 0
-1415 -1372 2773 0
-2774 1416 0
-2774 1384 0
-1416 -1384 2774 0
-2775 1417 0
-2775 1396 0
-1417 -1396 2775 0
-2776 1418 0
-2776 1408 0
-1418 -1408 2776 0
-2777 1419 0
-2777 1432 0
-1419 -1432 2777 0
-2778 1421 0
-2778 1457 0
-1421 -1457 2778 0
-422 -2768 0
-422 -2769 0
-422 -2770 0
-422 -2771 0
-422 -2772 0
-422 -2773 0
-422 -2774 0
-422 -2775 0
-422 -2776 0
-422 -2777 0
-422 -2778 0
-1420 422 2768 2769 2770 2771 2772 2773 2774 2775 2776 2777 2778 0
-448 1421 0
-2779 1410 0
-2779 1325 0
-1410 -1325 2779 0
-2780 1411 0
-2780 1324 0
-1411 -1324 2780 0
-2781 1412 0
-2781 1337 0
-1412 -1337 2781 0
-2782 1413 0
-2782 1349 0
-1413 -1349 2782 0
-2783 1414 0
-2783 1361 0
-1414 -1361 2783 0
-2784 1415 0
-2784 1373 0
-1415 -1373 2784 0
-2785 1416 0
-2785 1385 0
-1416 -1385 2785 0
-2786 1417 0
-2786 1397 0
-1417 -1397 2786 0
-2787 1418 0
-2787 1409 0
-1418 -1409 2787 0
-2788 1419 0
-2788 1433 0
-1419 -1433 2788 0
-2789 1420 0
-2789 1445 0
-1420 -1445 2789 0
-448 -2779 0
-448 -2780 0
-448 -2781 0
-448 -2782 0
-448 -2783 0
-448 -2784 0
-448 -2785 0
-448 -2786 0
-448 -2787 0
-448 -2788 0
-448 -2789 0
-1421 448 2779 2780 2781 2782 2783 2784 2785 2786 2787 2788 2789 0
-138 1422 0
-2790 1423 0
-2790 1303 0
-1423 -1303 2790 0
-2791 1424 0
-2791 1326 0
-1424 -1326 2791 0
-2792 1425 0
-2792 1338 0
-1425 -1338 2792 0
-2793 1426 0
-2793 1350 0
-1426 -1350 2793 0
-2794 1427 0
-2794 1362 0
-1427 -1362 2794 0
-2795 1428 0
-2795 1374 0
-1428 -1374 2795 0
-2796 1429 0
-2796 1386 0
-1429 -1386 2796 0
-2797 1430 0
-2797 1398 0
-1430 -1398 2797 0
-2798 1431 0
-2798 1410 0
-1431 -1410 2798 0
-2799 1432 0
-2799 1434 0
-1432 -1434 2799 0
-2800 1433 0
-2800 1446 0
-1433 -1446 2800 0
-138 -2790 0
-138 -2791 0
-138 -2792 0
-138 -2793 0
-138 -2794 0
-138 -2795 0
-138 -2796 0
-138 -2797 0
-138 -2798 0
-138 -2799 0
-138 -2800 0
-1422 138 2790 2791 2792 2793 2794 2795 2796 2797 2798 2799 2800 0
-164 1423 0
-2801 1422 0
-2801 1302 0
-1422 -1302 2801 0
-2802 1424 0
-2802 1327 0
-1424 -1327 2802 0
-2803 1425 0
-2803 1339 0
-1425 -1339 2803 0
-2804 1426 0
-2804 1351 0
-1426 -1351 2804 0
-2805 1427 0
-2805 1363 0
-1427 -1363 2805 0
-2806 1428 0
-2806 1375 0
-1428 -1375 2806 0
-2807 1429 0
-2807 1387 0
-1429 -1387 2807 0
-2808 1430 0
-2808 1399 0
-1430 -1399 2808 0
-2809 1431 0
-2809 1411 0
-1431 -1411 2809 0
-2810 1432 0
-2810 1435 0
-1432 -1435 2810 0
-2811 1433 0
-2811 1447 0
-1433 -1447 2811 0
-164 -2801 0
-164 -2802 0
-164 -2803 0
-164 -2804 0
-164 -2805 0
-164 -2806 0
-164 -2807 0
-164 -2808 0
-164 -2809 0
-164 -2810 0
-164 -2811 0
-1423 164 2801 2802 2803 2804 2805 2806 2807 2808 2809 2810 2811 0
-190 1424 0
-2812 1422 0
-2812 1305 0
-1422 -1305 2812 0
-2813 1423 0
-2813 1304 0
-1423 -1304 2813 0
-2814 1425 0
-2814 1340 0
-1425 -1340 2814 0
-2815 1426 0
-2815 1352 0
-1426 -1352 2815 0
-2816 1427 0
-2816 1364 0
-1427 -1364 2816 0
-2817 1428 0
-2817 1376 0
-1428 -1376 2817 0
-2818 1429 0
-2818 1388 0
-1429 -1388 2818 0
-2819 1430 0
-2819 1400 0
-1430 -1400 2819 0
-2820 1431 0
-2820 1412 0
-1431 -1412 2820 0
-2821 1432 0
-2821 1436 0
-1432 -1436 2821 0
-2822 1433 0
-2822 1448 0
-1433 -1448 2822 0
-190 -2812 0
-190 -2813 0
-190 -2814 0
-190 -2815 0
-190 -2816 0
-190 -2817 0
-190 -2818 0
-190 -2819 0
-190 -2820 0
-190 -2821 0
-190 -2822 0
-1424 190 2812 2813 2814 2815 2816 2817 2818 2819 2820 2821 2822 0
-216 1425 0
-2823 1422 0
-2823 1307 0
-1422 -1307 2823 0
-2824 1423 0
-2824 1306 0
-1423 -1306 2824 0
-2825 1424 0
-2825 1328 0
-1424 -1328 2825 0
-2826 1426 0
-2826 1353 0
-1426 -1353 2826 0
-2827 1427 0
-2827 1365 0
-1427 -1365 2827 0
-2828 1428 0
-2828 1377 0
-1428 -1377 2828 0
-2829 1429 0
-2829 1389 0
-1429 -1389 2829 0
-2830 1430 0
-2830 1401 0
-1430 -1401 2830 0
-2831 1431 0
-2831 1413 0
-1431 -1413 2831 0
-2832 1432 0
-2832 1437 0
-1432 -1437 2832 0
-2833 1433 0
-2833 1449 0
-1433 -1449 2833 0
-216 -2823 0
-216 -2824 0
-216 -2825 0
-216 -2826 0
-216 -2827 0
-216 -2828 0
-216 -2829 0
-216 -2830 0
-216 -2831 0
-216 -2832 0
-216 -2833 0
-1425 216 2823 2824 2825 2826 2827 2828 2829 2830 2831 2832 2833 0
-242 1426 0
-2834 1422 0
-2834 1309 0
-1422 -1309 2834 0
-2835 1423 0
-2835 1308 0
-1423 -1308 2835 0
-2836 1424 0
-2836 1329 0
-1424 -1329 2836 0
-2837 1425 0
-2837 1341 0
-1425 -1341 2837 0
-2838 1427 0
-2838 1366 0
-1427 -1366 2838 0
-2839 1428 0
-2839 1378 0
-1428 -1378 2839 0
-2840 1429 0
-2840 1390 0
-1429 -1390 2840 0
-2841 1430 0
-2841 1402 0
-1430 -1402 2841 0
-2842 1431 0
-2842 1414 0
-1431 -1414 2842 0
-2843 1432 0
-2843 1438 0
-1432 -1438 2843 0
-2844 1433 0
-2844 1450 0
-1433 -1450 2844 0
-242 -2834 0
-242 -2835 0
-242 -2836 0
-242 -2837 0
-242 -2838 0
-242 -2839 0
-242 -2840 0
-242 -2841 0
-242 -2842 0
-242 -2843 0
-242 -2844 0
-1426 242 2834 2835 2836 2837 2838 2839 2840 2841 2842 2843 2844 0
-268 1427 0
-2845 1422 0
-2845 1311 0
-1422 -1311 2845 0
-2846 1423 0
-2846 1310 0
-1423 -1310 2846 0
-2847 1424 0
-2847 1330 0
-1424 -1330 2847 0
-2848 1425 0
-2848 1342 0
-1425 -1342 2848 0
-2849 1426 0
-2849 1354 0
-1426 -1354 2849 0
-2850 1428 0
-2850 1379 0
-1428 -1379 2850 0
-2851 1429 0
-2851 1391 0
-1429 -1391 2851 0
-2852 1430 0
-2852 1403 0
-1430 -1403 2852 0
-2853 1431 0
-2853 1415 0
-1431 -1415 2853 0
-2854 1432 0
-2854 1439 0
-1432 -1439 2854 0
-2855 1433 0
-2855 1451 0
-1433 -1451 2855 0
-268 -2845 0
-268 -2846 0
-268 -2847 0
-268 -2848 0
-268 -2849 0
-268 -2850 0
-268 -2851 0
-268 -2852 0
-268 -2853 0
-268 -2854 0
-268 -2855 0
-1427 268 2845 2846 2847 2848 2849 2850 2851 2852 2853 2854 2855 0
-294 1428 0
-2856 1422 0
-2856 1313 0
-1422 -1313 2856 0
-2857 1423 0
-2857 1312 0
-1423 -1312 2857 0
-2858 1424 0
-2858 1331 0
-1424 -1331 2858 0
-2859 1425 0
-2859 1343 0
-1425 -1343 2859 0
-2860 1426 0
-2860 1355 0
-1426 -1355 2860 0
-2861 1427 0
-2861 1367 0
-1427 -1367 2861 0
-2862 1429 0
-2862 1392 0
-1429 -1392 2862 0
-2863 1430 0
-2863 1404 0
-1430 -1404 2863 0
-2864 1431 0
-2864 1416 0
-1431 -1416 2864 0
-2865 1432 0
-2865 1440 0
-1432 -1440 2865 0
-2866 1433 0
-2866 1452 0
-1433 -1452 2866 0
-294 -2856 0
-294 -2857 0
-294 -2858 0
-294 -2859 0
-294 -2860 0
-294 -2861 0
-294 -2862 0
-294 -2863 0
-294 -2864 0
-294 -2865 0
-294 -2866 0
-1428 294 2856 2857 2858 2859 2860 2861 2862 2863 2864 2865 2866 0
-320 1429 0
-2867 1422 0
-2867 1315 0
-1422 -1315 2867 0
-2868 1423 0
-2868 1314 0
-1423 -1314 2868 0
-2869 1424 0
-2869 1332 0
-1424 -1332 2869 0
-2870 1425 0
-2870 1344 0
-1425 -1344 2870 0
-2871 1426 0
-2871 1356 0
-1426 -1356 2871 0
-2872 1427 0
-2872 1368 0
-1427 -1368 2872 0
-2873 1428 0
-2873 1380 0
-1428 -1380 2873 0
-2874 1430 0
-2874 1405 0
-1430 -1405 2874 0
-2875 1431 0
-2875 1417 0
-1431 -1417 2875 0
-2876 1432 0
-2876 1441 0
-1432 -1441 2876 0
-2877 1433 0
-2877 1453 0
-1433 -1453 2877 0
-320 -2867 0
-320 -2868 0
-320 -2869 0
-320 -2870 0
-320 -2871 0
-320 -2872 0
-320 -2873 0
-320 -2874 0
-320 -2875 0
-320 -2876 0
-320 -2877 0
-1429 320 2867 2868 2869 2870 2871 2872 2873 2874 2875 2876 2877 0
-346 1430 0
-2878 1422 0
-2878 1317 0
-1422 -1317 2878 0
-2879 1423 0
-2879 1316 0
-1423 -1316 2879 0
-2880 1424 0
-2880 1333 0
-1424 -1333 2880 0
-2881 1425 0
-2881 1345 0
-1425 -1345 2881 0
-2882 1426 0
-2882 1357 0
-1426 -1357 2882 0
-2883 1427 0
-2883 1369 0
-1427 -1369 2883 0
-2884 1428 0
-2884 1381 0
-1428 -1381 2884 0
-2885 1429 0
-2885 1393 0
-1429 -1393 2885 0
-2886 1431 0
-2886 1418 0
-1431 -1418 2886 0
-2887 1432 0
-2887 1442 0
-1432 -1442 2887 0
-2888 1433 0
-2888 1454 0
-1433 -1454 2888 0
-346 -2878 0
-346 -2879 0
-346 -2880 0
-346 -2881 0
-346 -2882 0
-346 -2883 0
-346 -2884 0
-346 -2885 0
-346 -2886 0
-346 -2887 0
-346 -2888 0
-1430 346 2878 2879 2880 2881 2882 2883 2884 2885 2886 2887 2888 0
-372 1431 0
-2889 1422 0
-2889 1319 0
-1422 -1319 2889 0
-2890 1423 0
-2890 1318 0
-1423 -1318 2890 0
-2891 1424 0
-2891 1334 0
-1424 -1334 2891 0
-2892 1425 0
-2892 1346 0
-1425 -1346 2892 0
-2893 1426 0
-2893 1358 0
-1426 -1358 2893 0
-2894 1427 0
-2894 1370 0
-1427 -1370 2894 0
-2895 1428 0
-2895 1382 0
-1428 -1382 2895 0
-2896 1429 0
-2896 1394 0
-1429 -1394 2896 0
-2897 1430 0
-2897 1406 0
-1430 -1406 2897 0
-2898 1432 0
-2898 1443 0
-1432 -1443 2898 0
-2899 1433 0
-2899 1455 0
-1433 -1455 2899 0
-372 -2889 0
-372 -2890 0
-372 -2891 0
-372 -2892 0
-372 -2893 0
-372 -2894 0
-372 -2895 0
-372 -2896 0
-372 -2897 0
-372 -2898 0
-372 -2899 0
-1431 372 2889 2890 2891 2892 2893 2894 2895 2896 2897 2898 2899 0
-398 0
-424 1432 0
-2900 1422 0
-2900 1323 0
-1422 -1323 2900 0
-2901 1423 0
-2901 1322 0
-1423 -1322 2901 0
-2902 1424 0
-2902 1336 0
-1424 -1336 2902 0
-2903 1425 0
-2903 1348 0
-1425 -1348 2903 0
-2904 1426 0
-2904 1360 0
-1426 -1360 2904 0
-2905 1427 0
-2905 1372 0
-1427 -1372 2905 0
-2906 1428 0
-2906 1384 0
-1428 -1384 2906 0
-2907 1429 0
-2907 1396 0
-1429 -1396 2907 0
-2908 1430 0
-2908 1408 0
-1430 -1408 2908 0
-2909 1431 0
-2909 1420 0
-1431 -1420 2909 0
-2910 1433 0
-2910 1457 0
-1433 -1457 2910 0
-424 -2900 0
-424 -2901 0
-424 -2902 0
-424 -2903 0
-424 -2904 0
-424 -2905 0
-424 -2906 0
-424 -2907 0
-424 -2908 0
-424 -2909 0
-424 -2910 0
-1432 424 2900 2901 2902 2903 2904 2905 2906 2907 2908 2909 2910 0
-450 1433 0
-2911 1422 0
-2911 1325 0
-1422 -1325 2911 0
-2912 1423 0
-2912 1324 0
-1423 -1324 2912 0
-2913 1424 0
-2913 1337 0
-1424 -1337 2913 0
-2914 1425 0
-2914 1349 0
-1425 -1349 2914 0
-2915 1426 0
-2915 1361 0
-1426 -1361 2915 0
-2916 1427 0
-2916 1373 0
-1427 -1373 2916 0
-2917 1428 0
-2917 1385 0
-1428 -1385 2917 0
-2918 1429 0
-2918 1397 0
-1429 -1397 2918 0
-2919 1430 0
-2919 1409 0
-1430 -1409 2919 0
-2920 1431 0
-2920 1421 0
-1431 -1421 2920 0
-2921 1432 0
-2921 1445 0
-1432 -1445 2921 0
-450 -2911 0
-450 -2912 0
-450 -2913 0
-450 -2914 0
-450 -2915 0
-450 -2916 0
-450 -2917 0
-450 -2918 0
-450 -2919 0
-450 -2920 0
-450 -2921 0
-1433 450 2911 2912 2913 2914 2915 2916 2917 2918 2919 2920 2921 0
-140 1434 0
-2922 1435 0
-2922 1303 0
-1435 -1303 2922 0
-2923 1436 0
-2923 1326 0
-1436 -1326 2923 0
-2924 1437 0
-2924 1338 0
-1437 -1338 2924 0
-2925 1438 0
-2925 1350 0
-1438 -1350 2925 0
-2926 1439 0
-2926 1362 0
-1439 -1362 2926 0
-2927 1440 0
-2927 1374 0
-1440 -1374 2927 0
-2928 1441 0
-2928 1386 0
-1441 -1386 2928 0
-2929 1442 0
-2929 1398 0
-1442 -1398 2929 0
-2930 1443 0
-2930 1410 0
-1443 -1410 2930 0
-2931 1444 0
-2931 1422 0
-1444 -1422 2931 0
-2932 1445 0
-2932 1446 0
-1445 -1446 2932 0
-140 -2922 0
-140 -2923 0
-140 -2924 0
-140 -2925 0
-140 -2926 0
-140 -2927 0
-140 -2928 0
-140 -2929 0
-140 -2930 0
-140 -2931 0
-140 -2932 0
-1434 140 2922 2923 2924 2925 2926 2927 2928 2929 2930 2931 2932 0
-166 1435 0
-2933 1434 0
-2933 1302 0
-1434 -1302 2933 0
-2934 1436 0
-2934 1327 0
-1436 -1327 2934 0
-2935 1437 0
-2935 1339 0
-1437 -1339 2935 0
-2936 1438 0
-2936 1351 0
-1438 -1351 2936 0
-2937 1439 0
-2937 1363 0
-1439 -1363 2937 0
-2938 1440 0
-2938 1375 0
-1440 -1375 2938 0
-2939 1441 0
-2939 1387 0
-1441 -1387 2939 0
-2940 1442 0
-2940 1399 0
-1442 -1399 2940 0
-2941 1443 0
-2941 1411 0
-1443 -1411 2941 0
-2942 1444 0
-2942 1423 0
-1444 -1423 2942 0
-2943 1445 0
-2943 1447 0
-1445 -1447 2943 0
-166 -2933 0
-166 -2934 0
-166 -2935 0
-166 -2936 0
-166 -2937 0
-166 -2938 0
-166 -2939 0
-166 -2940 0
-166 -2941 0
-166 -2942 0
-166 -2943 0
-1435 166 2933 2934 2935 2936 2937 2938 2939 2940 2941 2942 2943 0
-192 1436 0
-2944 1434 0
-2944 1305 0
-1434 -1305 2944 0
-2945 1435 0
-2945 1304 0
-1435 -1304 2945 0
-2946 1437 0
-2946 1340 0
-1437 -1340 2946 0
-2947 1438 0
-2947 1352 0
-1438 -1352 2947 0
-2948 1439 0
-2948 1364 0
-1439 -1364 2948 0
-2949 1440 0
-2949 1376 0
-1440 -1376 2949 0
-2950 1441 0
-2950 1388 0
-1441 -1388 2950 0
-2951 1442 0
-2951 1400 0
-1442 -1400 2951 0
-2952 1443 0
-2952 1412 0
-1443 -1412 2952 0
-2953 1444 0
-2953 1424 0
-1444 -1424 2953 0
-2954 1445 0
-2954 1448 0
-1445 -1448 2954 0
-192 -2944 0
-192 -2945 0
-192 -2946 0
-192 -2947 0
-192 -2948 0
-192 -2949 0
-192 -2950 0
-192 -2951 0
-192 -2952 0
-192 -2953 0
-192 -2954 0
-1436 192 2944 2945 2946 2947 2948 2949 2950 2951 2952 2953 2954 0
-218 1437 0
-2955 1434 0
-2955 1307 0
-1434 -1307 2955 0
-2956 1435 0
-2956 1306 0
-1435 -1306 2956 0
-2957 1436 0
-2957 1328 0
-1436 -1328 2957 0
-2958 1438 0
-2958 1353 0
-1438 -1353 2958 0
-2959 1439 0
-2959 1365 0
-1439 -1365 2959 0
-2960 1440 0
-2960 1377 0
-1440 -1377 2960 0
-2961 1441 0
-2961 1389 0
-1441 -1389 2961 0
-2962 1442 0
-2962 1401 0
-1442 -1401 2962 0
-2963 1443 0
-2963 1413 0
-1443 -1413 2963 0
-2964 1444 0
-2964 1425 0
-1444 -1425 2964 0
-2965 1445 0
-2965 1449 0
-1445 -1449 2965 0
-218 -2955 0
-218 -2956 0
-218 -2957 0
-218 -2958 0
-218 -2959 0
-218 -2960 0
-218 -2961 0
-218 -2962 0
-218 -2963 0
-218 -2964 0
-218 -2965 0
-1437 218 2955 2956 2957 2958 2959 2960 2961 2962 2963 2964 2965 0
-244 1438 0
-2966 1434 0
-2966 1309 0
-1434 -1309 2966 0
-2967 1435 0
-2967 1308 0
-1435 -1308 2967 0
-2968 1436 0
-2968 1329 0
-1436 -1329 2968 0
-2969 1437 0
-2969 1341 0
-1437 -1341 2969 0
-2970 1439 0
-2970 1366 0
-1439 -1366 2970 0
-2971 1440 0
-2971 1378 0
-1440 -1378 2971 0
-2972 1441 0
-2972 1390 0
-1441 -1390 2972 0
-2973 1442 0
-2973 1402 0
-1442 -1402 2973 0
-2974 1443 0
-2974 1414 0
-1443 -1414 2974 0
-2975 1444 0
-2975 1426 0
-1444 -1426 2975 0
-2976 1445 0
-2976 1450 0
-1445 -1450 2976 0
-244 -2966 0
-244 -2967 0
-244 -2968 0
-244 -2969 0
-244 -2970 0
-244 -2971 0
-244 -2972 0
-244 -2973 0
-244 -2974 0
-244 -2975 0
-244 -2976 0
-1438 244 2966 2967 2968 2969 2970 2971 2972 2973 2974 2975 2976 0
-270 1439 0
-2977 1434 0
-2977 1311 0
-1434 -1311 2977 0
-2978 1435 0
-2978 1310 0
-1435 -1310 2978 0
-2979 1436 0
-2979 1330 0
-1436 -1330 2979 0
-2980 1437 0
-2980 1342 0
-1437 -1342 2980 0
-2981 1438 0
-2981 1354 0
-1438 -1354 2981 0
-2982 1440 0
-2982 1379 0
-1440 -1379 2982 0
-2983 1441 0
-2983 1391 0
-1441 -1391 2983 0
-2984 1442 0
-2984 1403 0
-1442 -1403 2984 0
-2985 1443 0
-2985 1415 0
-1443 -1415 2985 0
-2986 1444 0
-2986 1427 0
-1444 -1427 2986 0
-2987 1445 0
-2987 1451 0
-1445 -1451 2987 0
-270 -2977 0
-270 -2978 0
-270 -2979 0
-270 -2980 0
-270 -2981 0
-270 -2982 0
-270 -2983 0
-270 -2984 0
-270 -2985 0
-270 -2986 0
-270 -2987 0
-1439 270 2977 2978 2979 2980 2981 2982 2983 2984 2985 2986 2987 0
-296 1440 0
-2988 1434 0
-2988 1313 0
-1434 -1313 2988 0
-2989 1435 0
-2989 1312 0
-1435 -1312 2989 0
-2990 1436 0
-2990 1331 0
-1436 -1331 2990 0
-2991 1437 0
-2991 1343 0
-1437 -1343 2991 0
-2992 1438 0
-2992 1355 0
-1438 -1355 2992 0
-2993 1439 0
-2993 1367 0
-1439 -1367 2993 0
-2994 1441 0
-2994 1392 0
-1441 -1392 2994 0
-2995 1442 0
-2995 1404 0
-1442 -1404 2995 0
-2996 1443 0
-2996 1416 0
-1443 -1416 2996 0
-2997 1444 0
-2997 1428 0
-1444 -1428 2997 0
-2998 1445 0
-2998 1452 0
-1445 -1452 2998 0
-296 -2988 0
-296 -2989 0
-296 -2990 0
-296 -2991 0
-296 -2992 0
-296 -2993 0
-296 -2994 0
-296 -2995 0
-296 -2996 0
-296 -2997 0
-296 -2998 0
-1440 296 2988 2989 2990 2991 2992 2993 2994 2995 2996 2997 2998 0
-322 1441 0
-2999 1434 0
-2999 1315 0
-1434 -1315 2999 0
-3000 1435 0
-3000 1314 0
-1435 -1314 3000 0
-3001 1436 0
-3001 1332 0
-1436 -1332 3001 0
-3002 1437 0
-3002 1344 0
-1437 -1344 3002 0
-3003 1438 0
-3003 1356 0
-1438 -1356 3003 0
-3004 1439 0
-3004 1368 0
-1439 -1368 3004 0
-3005 1440 0
-3005 1380 0
-1440 -1380 3005 0
-3006 1442 0
-3006 1405 0
-1442 -1405 3006 0
-3007 1443 0
-3007 1417 0
-1443 -1417 3007 0
-3008 1444 0
-3008 1429 0
-1444 -1429 3008 0
-3009 1445 0
-3009 1453 0
-1445 -1453 3009 0
-322 -2999 0
-322 -3000 0
-322 -3001 0
-322 -3002 0
-322 -3003 0
-322 -3004 0
-322 -3005 0
-322 -3006 0
-322 -3007 0
-322 -3008 0
-322 -3009 0
-1441 322 2999 3000 3001 3002 3003 3004 3005 3006 3007 3008 3009 0
-348 1442 0
-3010 1434 0
-3010 1317 0
-1434 -1317 3010 0
-3011 1435 0
-3011 1316 0
-1435 -1316 3011 0
-3012 1436 0
-3012 1333 0
-1436 -1333 3012 0
-3013 1437 0
-3013 1345 0
-1437 -1345 3013 0
-3014 1438 0
-3014 1357 0
-1438 -1357 3014 0
-3015 1439 0
-3015 1369 0
-1439 -1369 3015 0
-3016 1440 0
-3016 1381 0
-1440 -1381 3016 0
-3017 1441 0
-3017 1393 0
-1441 -1393 3017 0
-3018 1443 0
-3018 1418 0
-1443 -1418 3018 0
-3019 1444 0
-3019 1430 0
-1444 -1430 3019 0
-3020 1445 0
-3020 1454 0
-1445 -1454 3020 0
-348 -3010 0
-348 -3011 0
-348 -3012 0
-348 -3013 0
-348 -3014 0
-348 -3015 0
-348 -3016 0
-348 -3017 0
-348 -3018 0
-348 -3019 0
-348 -3020 0
-1442 348 3010 3011 3012 3013 3014 3015 3016 3017 3018 3019 3020 0
-374 1443 0
-3021 1434 0
-3021 1319 0
-1434 -1319 3021 0
-3022 1435 0
-3022 1318 0
-1435 -1318 3022 0
-3023 1436 0
-3023 1334 0
-1436 -1334 3023 0
-3024 1437 0
-3024 1346 0
-1437 -1346 3024 0
-3025 1438 0
-3025 1358 0
-1438 -1358 3025 0
-3026 1439 0
-3026 1370 0
-1439 -1370 3026 0
-3027 1440 0
-3027 1382 0
-1440 -1382 3027 0
-3028 1441 0
-3028 1394 0
-1441 -1394 3028 0
-3029 1442 0
-3029 1406 0
-1442 -1406 3029 0
-3030 1444 0
-3030 1431 0
-1444 -1431 3030 0
-3031 1445 0
-3031 1455 0
-1445 -1455 3031 0
-374 -3021 0
-374 -3022 0
-374 -3023 0
-374 -3024 0
-374 -3025 0
-374 -3026 0
-374 -3027 0
-374 -3028 0
-374 -3029 0
-374 -3030 0
-374 -3031 0
-1443 374 3021 3022 3023 3024 3025 3026 3027 3028 3029 3030 3031 0
-400 1444 0
-3032 1434 0
-3032 1321 0
-1434 -1321 3032 0
-3033 1435 0
-3033 1320 0
-1435 -1320 3033 0
-3034 1436 0
-3034 1335 0
-1436 -1335 3034 0
-3035 1437 0
-3035 1347 0
-1437 -1347 3035 0
-3036 1438 0
-3036 1359 0
-1438 -1359 3036 0
-3037 1439 0
-3037 1371 0
-1439 -1371 3037 0
-3038 1440 0
-3038 1383 0
-1440 -1383 3038 0
-3039 1441 0
-3039 1395 0
-1441 -1395 3039 0
-3040 1442 0
-3040 1407 0
-1442 -1407 3040 0
-3041 1443 0
-3041 1419 0
-1443 -1419 3041 0
-3042 1445 0
-3042 1456 0
-1445 -1456 3042 0
-400 -3032 0
-400 -3033 0
-400 -3034 0
-400 -3035 0
-400 -3036 0
-400 -3037 0
-400 -3038 0
-400 -3039 0
-400 -3040 0
-400 -3041 0
-400 -3042 0
-1444 400 3032 3033 3034 3035 3036 3037 3038 3039 3040 3041 3042 0
-426 0
-452 1445 0
-3043 1434 0
-3043 1325 0
-1434 -1325 3043 0
-3044 1435 0
-3044 1324 0
-1435 -1324 3044 0
-3045 1436 0
-3045 1337 0
-1436 -1337 3045 0
-3046 1437 0
-3046 1349 0
-1437 -1349 3046 0
-3047 1438 0
-3047 1361 0
-1438 -1361 3047 0
-3048 1439 0
-3048 1373 0
-1439 -1373 3048 0
-3049 1440 0
-3049 1385 0
-1440 -1385 3049 0
-3050 1441 0
-3050 1397 0
-1441 -1397 3050 0
-3051 1442 0
-3051 1409 0
-1442 -1409 3051 0
-3052 1443 0
-3052 1421 0
-1443 -1421 3052 0
-3053 1444 0
-3053 1433 0
-1444 -1433 3053 0
-452 -3043 0
-452 -3044 0
-452 -3045 0
-452 -3046 0
-452 -3047 0
-452 -3048 0
-452 -3049 0
-452 -3050 0
-452 -3051 0
-452 -3052 0
-452 -3053 0
-1445 452 3043 3044 3045 3046 3047 3048 3049 3050 3051 3052 3053 0
-142 1446 0
-3054 1447 0
-3054 1303 0
-1447 -1303 3054 0
-3055 1448 0
-3055 1326 0
-1448 -1326 3055 0
-3056 1449 0
-3056 1338 0
-1449 -1338 3056 0
-3057 1450 0
-3057 1350 0
-1450 -1350 3057 0
-3058 1451 0
-3058 1362 0
-1451 -1362 3058 0
-3059 1452 0
-3059 1374 0
-1452 -1374 3059 0
-3060 1453 0
-3060 1386 0
-1453 -1386 3060 0
-3061 1454 0
-3061 1398 0
-1454 -1398 3061 0
-3062 1455 0
-3062 1410 0
-1455 -1410 3062 0
-3063 1456 0
-3063 1422 0
-1456 -1422 3063 0
-3064 1457 0
-3064 1434 0
-1457 -1434 3064 0
-142 -3054 0
-142 -3055 0
-142 -3056 0
-142 -3057 0
-142 -3058 0
-142 -3059 0
-142 -3060 0
-142 -3061 0
-142 -3062 0
-142 -3063 0
-142 -3064 0
-1446 142 3054 3055 3056 3057 3058 3059 3060 3061 3062 3063 3064 0
-168 1447 0
-3065 1446 0
-3065 1302 0
-1446 -1302 3065 0
-3066 1448 0
-3066 1327 0
-1448 -1327 3066 0
-3067 1449 0
-3067 1339 0
-1449 -1339 3067 0
-3068 1450 0
-3068 1351 0
-1450 -1351 3068 0
-3069 1451 0
-3069 1363 0
-1451 -1363 3069 0
-3070 1452 0
-3070 1375 0
-1452 -1375 3070 0
-3071 1453 0
-3071 1387 0
-1453 -1387 3071 0
-3072 1454 0
-3072 1399 0
-1454 -1399 3072 0
-3073 1455 0
-3073 1411 0
-1455 -1411 3073 0
-3074 1456 0
-3074 1423 0
-1456 -1423 3074 0
-3075 1457 0
-3075 1435 0
-1457 -1435 3075 0
-168 -3065 0
-168 -3066 0
-168 -3067 0
-168 -3068 0
-168 -3069 0
-168 -3070 0
-168 -3071 0
-168 -3072 0
-168 -3073 0
-168 -3074 0
-168 -3075 0
-1447 168 3065 3066 3067 3068 3069 3070 3071 3072 3073 3074 3075 0
-194 1448 0
-3076 1446 0
-3076 1305 0
-1446 -1305 3076 0
-3077 1447 0
-3077 1304 0
-1447 -1304 3077 0
-3078 1449 0
-3078 1340 0
-1449 -1340 3078 0
-3079 1450 0
-3079 1352 0
-1450 -1352 3079 0
-3080 1451 0
-3080 1364 0
-1451 -1364 3080 0
-3081 1452 0
-3081 1376 0
-1452 -1376 3081 0
-3082 1453 0
-3082 1388 0
-1453 -1388 3082 0
-3083 1454 0
-3083 1400 0
-1454 -1400 3083 0
-3084 1455 0
-3084 1412 0
-1455 -1412 3084 0
-3085 1456 0
-3085 1424 0
-1456 -1424 3085 0
-3086 1457 0
-3086 1436 0
-1457 -1436 3086 0
-194 -3076 0
-194 -3077 0
-194 -3078 0
-194 -3079 0
-194 -3080 0
-194 -3081 0
-194 -3082 0
-194 -3083 0
-194 -3084 0
-194 -3085 0
-194 -3086 0
-1448 194 3076 3077 3078 3079 3080 3081 3082 3083 3084 3085 3086 0
-220 1449 0
-3087 1446 0
-3087 1307 0
-1446 -1307 3087 0
-3088 1447 0
-3088 1306 0
-1447 -1306 3088 0
-3089 1448 0
-3089 1328 0
-1448 -1328 3089 0
-3090 1450 0
-3090 1353 0
-1450 -1353 3090 0
-3091 1451 0
-3091 1365 0
-1451 -1365 3091 0
-3092 1452 0
-3092 1377 0
-1452 -1377 3092 0
-3093 1453 0
-3093 1389 0
-1453 -1389 3093 0
-3094 1454 0
-3094 1401 0
-1454 -1401 3094 0
-3095 1455 0
-3095 1413 0
-1455 -1413 3095 0
-3096 1456 0
-3096 1425 0
-1456 -1425 3096 0
-3097 1457 0
-3097 1437 0
-1457 -1437 3097 0
-220 -3087 0
-220 -3088 0
-220 -3089 0
-220 -3090 0
-220 -3091 0
-220 -3092 0
-220 -3093 0
-220 -3094 0
-220 -3095 0
-220 -3096 0
-220 -3097 0
-1449 220 3087 3088 3089 3090 3091 3092 3093 3094 3095 3096 3097 0
-246 1450 0
-3098 1446 0
-3098 1309 0
-1446 -1309 3098 0
-3099 1447 0
-3099 1308 0
-1447 -1308 3099 0
-3100 1448 0
-3100 1329 0
-1448 -1329 3100 0
-3101 1449 0
-3101 1341 0
-1449 -1341 3101 0
-3102 1451 0
-3102 1366 0
-1451 -1366 3102 0
-3103 1452 0
-3103 1378 0
-1452 -1378 3103 0
-3104 1453 0
-3104 1390 0
-1453 -1390 3104 0
-3105 1454 0
-3105 1402 0
-1454 -1402 3105 0
-3106 1455 0
-3106 1414 0
-1455 -1414 3106 0
-3107 1456 0
-3107 1426 0
-1456 -1426 3107 0
-3108 1457 0
-3108 1438 0
-1457 -1438 3108 0
-246 -3098 0
-246 -3099 0
-246 -3100 0
-246 -3101 0
-246 -3102 0
-246 -3103 0
-246 -3104 0
-246 -3105 0
-246 -3106 0
-246 -3107 0
-246 -3108 0
-1450 246 3098 3099 3100 3101 3102 3103 3104 3105 3106 3107 3108 0
-272 1451 0
-3109 1446 0
-3109 1311 0
-1446 -1311 3109 0
-3110 1447 0
-3110 1310 0
-1447 -1310 3110 0
-3111 1448 0
-3111 1330 0
-1448 -1330 3111 0
-3112 1449 0
-3112 1342 0
-1449 -1342 3112 0
-3113 1450 0
-3113 1354 0
-1450 -1354 3113 0
-3114 1452 0
-3114 1379 0
-1452 -1379 3114 0
-3115 1453 0
-3115 1391 0
-1453 -1391 3115 0
-3116 1454 0
-3116 1403 0
-1454 -1403 3116 0
-3117 1455 0
-3117 1415 0
-1455 -1415 3117 0
-3118 1456 0
-3118 1427 0
-1456 -1427 3118 0
-3119 1457 0
-3119 1439 0
-1457 -1439 3119 0
-272 -3109 0
-272 -3110 0
-272 -3111 0
-272 -3112 0
-272 -3113 0
-272 -3114 0
-272 -3115 0
-272 -3116 0
-272 -3117 0
-272 -3118 0
-272 -3119 0
-1451 272 3109 3110 3111 3112 3113 3114 3115 3116 3117 3118 3119 0
-298 1452 0
-3120 1446 0
-3120 1313 0
-1446 -1313 3120 0
-3121 1447 0
-3121 1312 0
-1447 -1312 3121 0
-3122 1448 0
-3122 1331 0
-1448 -1331 3122 0
-3123 1449 0
-3123 1343 0
-1449 -1343 3123 0
-3124 1450 0
-3124 1355 0
-1450 -1355 3124 0
-3125 1451 0
-3125 1367 0
-1451 -1367 3125 0
-3126 1453 0
-3126 1392 0
-1453 -1392 3126 0
-3127 1454 0
-3127 1404 0
-1454 -1404 3127 0
-3128 1455 0
-3128 1416 0
-1455 -1416 3128 0
-3129 1456 0
-3129 1428 0
-1456 -1428 3129 0
-3130 1457 0
-3130 1440 0
-1457 -1440 3130 0
-298 -3120 0
-298 -3121 0
-298 -3122 0
-298 -3123 0
-298 -3124 0
-298 -3125 0
-298 -3126 0
-298 -3127 0
-298 -3128 0
-298 -3129 0
-298 -3130 0
-1452 298 3120 3121 3122 3123 3124 3125 3126 3127 3128 3129 3130 0
-324 1453 0
-3131 1446 0
-3131 1315 0
-1446 -1315 3131 0
-3132 1447 0
-3132 1314 0
-1447 -1314 3132 0
-3133 1448 0
-3133 1332 0
-1448 -1332 3133 0
-3134 1449 0
-3134 1344 0
-1449 -1344 3134 0
-3135 1450 0
-3135 1356 0
-1450 -1356 3135 0
-3136 1451 0
-3136 1368 0
-1451 -1368 3136 0
-3137 1452 0
-3137 1380 0
-1452 -1380 3137 0
-3138 1454 0
-3138 1405 0
-1454 -1405 3138 0
-3139 1455 0
-3139 1417 0
-1455 -1417 3139 0
-3140 1456 0
-3140 1429 0
-1456 -1429 3140 0
-3141 1457 0
-3141 1441 0
-1457 -1441 3141 0
-324 -3131 0
-324 -3132 0
-324 -3133 0
-324 -3134 0
-324 -3135 0
-324 -3136 0
-324 -3137 0
-324 -3138 0
-324 -3139 0
-324 -3140 0
-324 -3141 0
-1453 324 3131 3132 3133 3134 3135 3136 3137 3138 3139 3140 3141 0
-350 1454 0
-3142 1446 0
-3142 1317 0
-1446 -1317 3142 0
-3143 1447 0
-3143 1316 0
-1447 -1316 3143 0
-3144 1448 0
-3144 1333 0
-1448 -1333 3144 0
-3145 1449 0
-3145 1345 0
-1449 -1345 3145 0
-3146 1450 0
-3146 1357 0
-1450 -1357 3146 0
-3147 1451 0
-3147 1369 0
-1451 -1369 3147 0
-3148 1452 0
-3148 1381 0
-1452 -1381 3148 0
-3149 1453 0
-3149 1393 0
-1453 -1393 3149 0
-3150 1455 0
-3150 1418 0
-1455 -1418 3150 0
-3151 1456 0
-3151 1430 0
-1456 -1430 3151 0
-3152 1457 0
-3152 1442 0
-1457 -1442 3152 0
-350 -3142 0
-350 -3143 0
-350 -3144 0
-350 -3145 0
-350 -3146 0
-350 -3147 0
-350 -3148 0
-350 -3149 0
-350 -3150 0
-350 -3151 0
-350 -3152 0
-1454 350 3142 3143 3144 3145 3146 3147 3148 3149 3150 3151 3152 0
-376 1455 0
-3153 1446 0
-3153 1319 0
-1446 -1319 3153 0
-3154 1447 0
-3154 1318 0
-1447 -1318 3154 0
-3155 1448 0
-3155 1334 0
-1448 -1334 3155 0
-3156 1449 0
-3156 1346 0
-1449 -1346 3156 0
-3157 1450 0
-3157 1358 0
-1450 -1358 3157 0
-3158 1451 0
-3158 1370 0
-1451 -1370 3158 0
-3159 1452 0
-3159 1382 0
-1452 -1382 3159 0
-3160 1453 0
-3160 1394 0
-1453 -1394 3160 0
-3161 1454 0
-3161 1406 0
-1454 -1406 3161 0
-3162 1456 0
-3162 1431 0
-1456 -1431 3162 0
-3163 1457 0
-3163 1443 0
-1457 -1443 3163 0
-376 -3153 0
-376 -3154 0
-376 -3155 0
-376 -3156 0
-376 -3157 0
-376 -3158 0
-376 -3159 0
-376 -3160 0
-376 -3161 0
-376 -3162 0
-376 -3163 0
-1455 376 3153 3154 3155 3156 3157 3158 3159 3160 3161 3162 3163 0
-402 1456 0
-3164 1446 0
-3164 1321 0
-1446 -1321 3164 0
-3165 1447 0
-3165 1320 0
-1447 -1320 3165 0
-3166 1448 0
-3166 1335 0
-1448 -1335 3166 0
-3167 1449 0
-3167 1347 0
-1449 -1347 3167 0
-3168 1450 0
-3168 1359 0
-1450 -1359 3168 0
-3169 1451 0
-3169 1371 0
-1451 -1371 3169 0
-3170 1452 0
-3170 1383 0
-1452 -1383 3170 0
-3171 1453 0
-3171 1395 0
-1453 -1395 3171 0
-3172 1454 0
-3172 1407 0
-1454 -1407 3172 0
-3173 1455 0
-3173 1419 0
-1455 -1419 3173 0
-3174 1457 0
-3174 1444 0
-1457 -1444 3174 0
-402 -3164 0
-402 -3165 0
-402 -3166 0
-402 -3167 0
-402 -3168 0
-402 -3169 0
-402 -3170 0
-402 -3171 0
-402 -3172 0
-402 -3173 0
-402 -3174 0
-1456 402 3164 3165 3166 3167 3168 3169 3170 3171 3172 3173 3174 0
-428 1457 0
-3175 1446 0
-3175 1323 0
-1446 -1323 3175 0
-3176 1447 0
-3176 1322 0
-1447 -1322 3176 0
-3177 1448 0
-3177 1336 0
-1448 -1336 3177 0
-3178 1449 0
-3178 1348 0
-1449 -1348 3178 0
-3179 1450 0
-3179 1360 0
-1450 -1360 3179 0
-3180 1451 0
-3180 1372 0
-1451 -1372 3180 0
-3181 1452 0
-3181 1384 0
-1452 -1384 3181 0
-3182 1453 0
-3182 1396 0
-1453 -1396 3182 0
-3183 1454 0
-3183 1408 0
-1454 -1408 3183 0
-3184 1455 0
-3184 1420 0
-1455 -1420 3184 0
-3185 1456 0
-3185 1432 0
-1456 -1432 3185 0
-428 -3175 0
-428 -3176 0
-428 -3177 0
-428 -3178 0
-428 -3179 0
-428 -3180 0
-428 -3181 0
-428 -3182 0
-428 -3183 0
-428 -3184 0
-428 -3185 0
-1457 428 3175 3176 3177 3178 3179 3180 3181 3182 3183 3184 3185 0
-454 0
