p cnf 188 640
1 2 -3 0
4 5 -6 0
7 8 -9 0
10 11 -12 0
3 -1 0
6 -4 0
9 -7 0
12 -10 0
3 -2 0
6 -5 0
9 -8 0
12 -11 0
-1 -2 -13 0
-4 -5 -14 0
-7 -8 -15 0
-10 -11 -16 0
13 1 0
14 4 0
15 7 0
16 10 0
13 2 0
14 5 0
15 8 0
16 11 0
-17 1 18 0
-19 4 20 0
-21 7 22 0
-23 10 24 0
-18 17 0
-20 19 0
-22 21 0
-24 23 0
-18 -1 0
-20 -4 0
-22 -7 0
-24 -10 0
25 18 -26 0
27 20 -28 0
29 22 -30 0
31 24 -32 0
26 -25 0
28 -27 0
30 -29 0
32 -31 0
26 -18 0
28 -20 0
30 -22 0
32 -24 0
1 -25 -17 -33 0
4 -27 -19 -34 0
7 -29 -21 -35 0
10 -31 -23 -36 0
33 -1 0
34 -4 0
35 -7 0
36 -10 0
33 25 0
34 27 0
35 29 0
36 31 0
33 17 0
34 19 0
35 21 0
36 23 0
1 -37 -2 -38 0
4 -39 -5 -40 0
7 -41 -8 -42 0
10 -43 -11 -44 0
1 -45 -2 -46 0
4 -47 -5 -48 0
7 -49 -8 -50 0
10 -51 -11 -52 0
1 -53 -2 -54 0
4 -55 -5 -56 0
7 -57 -8 -58 0
10 -59 -11 -60 0
1 -61 -2 -62 0
4 -63 -5 -64 0
7 -65 -8 -66 0
10 -67 -11 -68 0
38 -1 0
40 -4 0
42 -7 0
44 -10 0
46 -1 0
48 -4 0
50 -7 0
52 -10 0
54 -1 0
56 -4 0
58 -7 0
60 -10 0
62 -1 0
64 -4 0
66 -7 0
68 -10 0
38 37 0
40 39 0
42 41 0
44 43 0
46 45 0
48 47 0
50 49 0
52 51 0
54 53 0
56 55 0
58 57 0
60 59 0
62 61 0
64 63 0
66 65 0
68 67 0
38 2 0
40 5 0
42 8 0
44 11 0
46 2 0
48 5 0
50 8 0
52 11 0
54 2 0
56 5 0
58 8 0
60 11 0
62 2 0
64 5 0
66 8 0
68 11 0
-37 -17 17 69 0
-39 -19 17 70 0
-41 -21 17 71 0
-43 -23 17 72 0
-45 -17 19 73 0
-47 -19 19 74 0
-49 -21 19 75 0
-51 -23 19 76 0
-53 -17 21 77 0
-55 -19 21 78 0
-57 -21 21 79 0
-59 -23 21 80 0
-61 -17 23 81 0
-63 -19 23 82 0
-65 -21 23 83 0
-67 -23 23 84 0
-69 37 0
-70 39 0
-71 41 0
-72 43 0
-73 45 0
-74 47 0
-75 49 0
-76 51 0
-77 53 0
-78 55 0
-79 57 0
-80 59 0
-81 61 0
-82 63 0
-83 65 0
-84 67 0
-69 17 0
-70 19 0
-71 21 0
-72 23 0
-73 17 0
-74 19 0
-75 21 0
-76 23 0
-77 17 0
-78 19 0
-79 21 0
-80 23 0
-81 17 0
-82 19 0
-83 21 0
-84 23 0
-69 -17 0
-70 -17 0
-71 -17 0
-72 -17 0
-73 -19 0
-74 -19 0
-75 -19 0
-76 -19 0
-77 -21 0
-78 -21 0
-79 -21 0
-80 -21 0
-81 -23 0
-82 -23 0
-83 -23 0
-84 -23 0
85 69 -86 0
87 70 -88 0
89 71 -90 0
91 72 -92 0
93 73 -94 0
95 74 -96 0
97 75 -98 0
99 76 -100 0
101 77 -102 0
103 78 -104 0
105 79 -106 0
107 80 -108 0
109 81 -110 0
111 82 -112 0
113 83 -114 0
115 84 -116 0
86 -85 0
88 -87 0
90 -89 0
92 -91 0
94 -93 0
96 -95 0
98 -97 0
100 -99 0
102 -101 0
104 -103 0
106 -105 0
108 -107 0
110 -109 0
112 -111 0
114 -113 0
116 -115 0
86 -69 0
88 -70 0
90 -71 0
92 -72 0
94 -73 0
96 -74 0
98 -75 0
100 -76 0
102 -77 0
104 -78 0
106 -79 0
108 -80 0
110 -81 0
112 -82 0
114 -83 0
116 -84 0
17 -85 -37 -17 -117 0
17 -87 -39 -19 -118 0
17 -89 -41 -21 -119 0
17 -91 -43 -23 -120 0
19 -93 -45 -17 -121 0
19 -95 -47 -19 -122 0
19 -97 -49 -21 -123 0
19 -99 -51 -23 -124 0
21 -101 -53 -17 -125 0
21 -103 -55 -19 -126 0
21 -105 -57 -21 -127 0
21 -107 -59 -23 -128 0
23 -109 -61 -17 -129 0
23 -111 -63 -19 -130 0
23 -113 -65 -21 -131 0
23 -115 -67 -23 -132 0
117 -17 0
118 -17 0
119 -17 0
120 -17 0
121 -19 0
122 -19 0
123 -19 0
124 -19 0
125 -21 0
126 -21 0
127 -21 0
128 -21 0
129 -23 0
130 -23 0
131 -23 0
132 -23 0
117 85 0
118 87 0
119 89 0
120 91 0
121 93 0
122 95 0
123 97 0
124 99 0
125 101 0
126 103 0
127 105 0
128 107 0
129 109 0
130 111 0
131 113 0
132 115 0
117 37 0
118 39 0
119 41 0
120 43 0
121 45 0
122 47 0
123 49 0
124 51 0
125 53 0
126 55 0
127 57 0
128 59 0
129 61 0
130 63 0
131 65 0
132 67 0
117 17 0
118 19 0
119 21 0
120 23 0
121 17 0
122 19 0
123 21 0
124 23 0
125 17 0
126 19 0
127 21 0
128 23 0
129 17 0
130 19 0
131 21 0
132 23 0
-3 -13 -26 -33 -38 -86 -117 133 0
-3 -13 -26 -33 -40 -88 -118 134 0
-3 -13 -26 -33 -42 -90 -119 135 0
-3 -13 -26 -33 -44 -92 -120 136 0
-6 -14 -28 -34 -46 -94 -121 137 0
-6 -14 -28 -34 -48 -96 -122 138 0
-6 -14 -28 -34 -50 -98 -123 139 0
-6 -14 -28 -34 -52 -100 -124 140 0
-9 -15 -30 -35 -54 -102 -125 141 0
-9 -15 -30 -35 -56 -104 -126 142 0
-9 -15 -30 -35 -58 -106 -127 143 0
-9 -15 -30 -35 -60 -108 -128 144 0
-12 -16 -32 -36 -62 -110 -129 145 0
-12 -16 -32 -36 -64 -112 -130 146 0
-12 -16 -32 -36 -66 -114 -131 147 0
-12 -16 -32 -36 -68 -116 -132 148 0
-133 3 0
-134 3 0
-135 3 0
-136 3 0
-137 6 0
-138 6 0
-139 6 0
-140 6 0
-141 9 0
-142 9 0
-143 9 0
-144 9 0
-145 12 0
-146 12 0
-147 12 0
-148 12 0
-133 13 0
-134 13 0
-135 13 0
-136 13 0
-137 14 0
-138 14 0
-139 14 0
-140 14 0
-141 15 0
-142 15 0
-143 15 0
-144 15 0
-145 16 0
-146 16 0
-147 16 0
-148 16 0
-133 26 0
-134 26 0
-135 26 0
-136 26 0
-137 28 0
-138 28 0
-139 28 0
-140 28 0
-141 30 0
-142 30 0
-143 30 0
-144 30 0
-145 32 0
-146 32 0
-147 32 0
-148 32 0
-133 33 0
-134 33 0
-135 33 0
-136 33 0
-137 34 0
-138 34 0
-139 34 0
-140 34 0
-141 35 0
-142 35 0
-143 35 0
-144 35 0
-145 36 0
-146 36 0
-147 36 0
-148 36 0
-133 38 0
-134 40 0
-135 42 0
-136 44 0
-137 46 0
-138 48 0
-139 50 0
-140 52 0
-141 54 0
-142 56 0
-143 58 0
-144 60 0
-145 62 0
-146 64 0
-147 66 0
-148 68 0
-133 86 0
-134 88 0
-135 90 0
-136 92 0
-137 94 0
-138 96 0
-139 98 0
-140 100 0
-141 102 0
-142 104 0
-143 106 0
-144 108 0
-145 110 0
-146 112 0
-147 114 0
-148 116 0
-133 117 0
-134 118 0
-135 119 0
-136 120 0
-137 121 0
-138 122 0
-139 123 0
-140 124 0
-141 125 0
-142 126 0
-143 127 0
-144 128 0
-145 129 0
-146 130 0
-147 131 0
-148 132 0
133 0
134 0
135 0
136 0
137 0
138 0
139 0
140 0
141 0
142 0
143 0
144 0
145 0
146 0
147 0
148 0
149 0
150 151 0
-150 -151 0
-150 -152 153 0
-150 -154 155 0
153 156 0
-153 -156 0
-153 -157 150 0
-153 -158 155 0
155 159 0
-155 -159 0
-155 -160 150 0
-155 -161 153 0
162 0
151 150 0
-151 -150 0
-151 -153 152 0
-151 -155 154 0
152 157 0
-152 -157 0
-152 -156 151 0
-152 -158 154 0
154 160 0
-154 -160 0
-154 -159 151 0
-154 -161 152 0
163 0
156 153 0
-156 -153 0
-156 -150 157 0
-156 -155 158 0
157 152 0
-157 -152 0
-157 -151 156 0
-157 -154 158 0
158 161 0
-158 -161 0
-158 -159 156 0
-158 -160 157 0
164 0
159 155 0
-159 -155 0
-159 -150 160 0
-159 -153 161 0
160 154 0
-160 -154 0
-160 -151 159 0
-160 -152 161 0
161 158 0
-161 -158 0
-161 -156 159 0
-161 -157 160 0
-37 0
-45 150 0
-165 153 0
-165 157 0
-153 -157 165 0
-166 155 0
-166 160 0
-155 -160 166 0
-45 -165 0
-45 -166 0
-150 45 165 166 0
-53 153 0
-167 150 0
-167 152 0
-150 -152 167 0
-168 155 0
-168 161 0
-155 -161 168 0
-53 -167 0
-53 -168 0
-153 53 167 168 0
-61 155 0
-169 150 0
-169 154 0
-150 -154 169 0
-170 153 0
-170 158 0
-153 -158 170 0
-61 -169 0
-61 -170 0
-155 61 169 170 0
-39 151 0
-171 152 0
-171 156 0
-152 -156 171 0
-172 154 0
-172 159 0
-154 -159 172 0
-39 -171 0
-39 -172 0
-151 39 171 172 0
-47 0
-55 152 0
-173 151 0
-173 153 0
-151 -153 173 0
-174 154 0
-174 161 0
-154 -161 174 0
-55 -173 0
-55 -174 0
-152 55 173 174 0
-63 154 0
-175 151 0
-175 155 0
-151 -155 175 0
-176 152 0
-176 158 0
-152 -158 176 0
-63 -175 0
-63 -176 0
-154 63 175 176 0
-41 156 0
-177 157 0
-177 151 0
-157 -151 177 0
-178 158 0
-178 159 0
-158 -159 178 0
-41 -177 0
-41 -178 0
-156 41 177 178 0
-49 157 0
-179 156 0
-179 150 0
-156 -150 179 0
-180 158 0
-180 160 0
-158 -160 180 0
-49 -179 0
-49 -180 0
-157 49 179 180 0
-57 0
-65 158 0
-181 156 0
-181 155 0
-156 -155 181 0
-182 157 0
-182 154 0
-157 -154 182 0
-65 -181 0
-65 -182 0
-158 65 181 182 0
-43 159 0
-183 160 0
-183 151 0
-160 -151 183 0
-184 161 0
-184 156 0
-161 -156 184 0
-43 -183 0
-43 -184 0
-159 43 183 184 0
-51 160 0
-185 159 0
-185 150 0
-159 -150 185 0
-186 161 0
-186 157 0
-161 -157 186 0
-51 -185 0
-51 -186 0
-160 51 185 186 0
-59 161 0
-187 159 0
-187 153 0
-159 -153 187 0
-188 160 0
-188 152 0
-160 -152 188 0
-59 -187 0
-59 -188 0
-161 59 187 188 0
-67 0
