p cnf 305 1095
1 2 -3 0
4 5 -6 0
7 8 -9 0
10 11 -12 0
13 14 -15 0
3 -1 0
6 -4 0
9 -7 0
12 -10 0
15 -13 0
3 -2 0
6 -5 0
9 -8 0
12 -11 0
15 -14 0
-1 -2 -16 0
-4 -5 -17 0
-7 -8 -18 0
-10 -11 -19 0
-13 -14 -20 0
16 1 0
17 4 0
18 7 0
19 10 0
20 13 0
16 2 0
17 5 0
18 8 0
19 11 0
20 14 0
-21 1 22 0
-23 4 24 0
-25 7 26 0
-27 10 28 0
-29 13 30 0
-22 21 0
-24 23 0
-26 25 0
-28 27 0
-30 29 0
-22 -1 0
-24 -4 0
-26 -7 0
-28 -10 0
-30 -13 0
31 22 -32 0
33 24 -34 0
35 26 -36 0
37 28 -38 0
39 30 -40 0
32 -31 0
34 -33 0
36 -35 0
38 -37 0
40 -39 0
32 -22 0
34 -24 0
36 -26 0
38 -28 0
40 -30 0
1 -31 -21 -41 0
4 -33 -23 -42 0
7 -35 -25 -43 0
10 -37 -27 -44 0
13 -39 -29 -45 0
41 -1 0
42 -4 0
43 -7 0
44 -10 0
45 -13 0
41 31 0
42 33 0
43 35 0
44 37 0
45 39 0
41 21 0
42 23 0
43 25 0
44 27 0
45 29 0
1 -46 -2 -47 0
4 -48 -5 -49 0
7 -50 -8 -51 0
10 -52 -11 -53 0
13 -54 -14 -55 0
1 -56 -2 -57 0
4 -58 -5 -59 0
7 -60 -8 -61 0
10 -62 -11 -63 0
13 -64 -14 -65 0
1 -66 -2 -67 0
4 -68 -5 -69 0
7 -70 -8 -71 0
10 -72 -11 -73 0
13 -74 -14 -75 0
1 -76 -2 -77 0
4 -78 -5 -79 0
7 -80 -8 -81 0
10 -82 -11 -83 0
13 -84 -14 -85 0
1 -86 -2 -87 0
4 -88 -5 -89 0
7 -90 -8 -91 0
10 -92 -11 -93 0
13 -94 -14 -95 0
47 -1 0
49 -4 0
51 -7 0
53 -10 0
55 -13 0
57 -1 0
59 -4 0
61 -7 0
63 -10 0
65 -13 0
67 -1 0
69 -4 0
71 -7 0
73 -10 0
75 -13 0
77 -1 0
79 -4 0
81 -7 0
83 -10 0
85 -13 0
87 -1 0
89 -4 0
91 -7 0
93 -10 0
95 -13 0
47 46 0
49 48 0
51 50 0
53 52 0
55 54 0
57 56 0
59 58 0
61 60 0
63 62 0
65 64 0
67 66 0
69 68 0
71 70 0
73 72 0
75 74 0
77 76 0
79 78 0
81 80 0
83 82 0
85 84 0
87 86 0
89 88 0
91 90 0
93 92 0
95 94 0
47 2 0
49 5 0
51 8 0
53 11 0
55 14 0
57 2 0
59 5 0
61 8 0
63 11 0
65 14 0
67 2 0
69 5 0
71 8 0
73 11 0
75 14 0
77 2 0
79 5 0
81 8 0
83 11 0
85 14 0
87 2 0
89 5 0
91 8 0
93 11 0
95 14 0
-46 -21 21 96 0
-48 -23 21 97 0
-50 -25 21 98 0
-52 -27 21 99 0
-54 -29 21 100 0
-56 -21 23 101 0
-58 -23 23 102 0
-60 -25 23 103 0
-62 -27 23 104 0
-64 -29 23 105 0
-66 -21 25 106 0
-68 -23 25 107 0
-70 -25 25 108 0
-72 -27 25 109 0
-74 -29 25 110 0
-76 -21 27 111 0
-78 -23 27 112 0
-80 -25 27 113 0
-82 -27 27 114 0
-84 -29 27 115 0
-86 -21 29 116 0
-88 -23 29 117 0
-90 -25 29 118 0
-92 -27 29 119 0
-94 -29 29 120 0
-96 46 0
-97 48 0
-98 50 0
-99 52 0
-100 54 0
-101 56 0
-102 58 0
-103 60 0
-104 62 0
-105 64 0
-106 66 0
-107 68 0
-108 70 0
-109 72 0
-110 74 0
-111 76 0
-112 78 0
-113 80 0
-114 82 0
-115 84 0
-116 86 0
-117 88 0
-118 90 0
-119 92 0
-120 94 0
-96 21 0
-97 23 0
-98 25 0
-99 27 0
-100 29 0
-101 21 0
-102 23 0
-103 25 0
-104 27 0
-105 29 0
-106 21 0
-107 23 0
-108 25 0
-109 27 0
-110 29 0
-111 21 0
-112 23 0
-113 25 0
-114 27 0
-115 29 0
-116 21 0
-117 23 0
-118 25 0
-119 27 0
-120 29 0
-96 -21 0
-97 -21 0
-98 -21 0
-99 -21 0
-100 -21 0
-101 -23 0
-102 -23 0
-103 -23 0
-104 -23 0
-105 -23 0
-106 -25 0
-107 -25 0
-108 -25 0
-109 -25 0
-110 -25 0
-111 -27 0
-112 -27 0
-113 -27 0
-114 -27 0
-115 -27 0
-116 -29 0
-117 -29 0
-118 -29 0
-119 -29 0
-120 -29 0
121 96 -122 0
123 97 -124 0
125 98 -126 0
127 99 -128 0
129 100 -130 0
131 101 -132 0
133 102 -134 0
135 103 -136 0
137 104 -138 0
139 105 -140 0
141 106 -142 0
143 107 -144 0
145 108 -146 0
147 109 -148 0
149 110 -150 0
151 111 -152 0
153 112 -154 0
155 113 -156 0
157 114 -158 0
159 115 -160 0
161 116 -162 0
163 117 -164 0
165 118 -166 0
167 119 -168 0
169 120 -170 0
122 -121 0
124 -123 0
126 -125 0
128 -127 0
130 -129 0
132 -131 0
134 -133 0
136 -135 0
138 -137 0
140 -139 0
142 -141 0
144 -143 0
146 -145 0
148 -147 0
150 -149 0
152 -151 0
154 -153 0
156 -155 0
158 -157 0
160 -159 0
162 -161 0
164 -163 0
166 -165 0
168 -167 0
170 -169 0
122 -96 0
124 -97 0
126 -98 0
128 -99 0
130 -100 0
132 -101 0
134 -102 0
136 -103 0
138 -104 0
140 -105 0
142 -106 0
144 -107 0
146 -108 0
148 -109 0
150 -110 0
152 -111 0
154 -112 0
156 -113 0
158 -114 0
160 -115 0
162 -116 0
164 -117 0
166 -118 0
168 -119 0
170 -120 0
21 -121 -46 -21 -171 0
21 -123 -48 -23 -172 0
21 -125 -50 -25 -173 0
21 -127 -52 -27 -174 0
21 -129 -54 -29 -175 0
23 -131 -56 -21 -176 0
23 -133 -58 -23 -177 0
23 -135 -60 -25 -178 0
23 -137 -62 -27 -179 0
23 -139 -64 -29 -180 0
25 -141 -66 -21 -181 0
25 -143 -68 -23 -182 0
25 -145 -70 -25 -183 0
25 -147 -72 -27 -184 0
25 -149 -74 -29 -185 0
27 -151 -76 -21 -186 0
27 -153 -78 -23 -187 0
27 -155 -80 -25 -188 0
27 -157 -82 -27 -189 0
27 -159 -84 -29 -190 0
29 -161 -86 -21 -191 0
29 -163 -88 -23 -192 0
29 -165 -90 -25 -193 0
29 -167 -92 -27 -194 0
29 -169 -94 -29 -195 0
171 -21 0
172 -21 0
173 -21 0
174 -21 0
175 -21 0
176 -23 0
177 -23 0
178 -23 0
179 -23 0
180 -23 0
181 -25 0
182 -25 0
183 -25 0
184 -25 0
185 -25 0
186 -27 0
187 -27 0
188 -27 0
189 -27 0
190 -27 0
191 -29 0
192 -29 0
193 -29 0
194 -29 0
195 -29 0
171 121 0
172 123 0
173 125 0
174 127 0
175 129 0
176 131 0
177 133 0
178 135 0
179 137 0
180 139 0
181 141 0
182 143 0
183 145 0
184 147 0
185 149 0
186 151 0
187 153 0
188 155 0
189 157 0
190 159 0
191 161 0
192 163 0
193 165 0
194 167 0
195 169 0
171 46 0
172 48 0
173 50 0
174 52 0
175 54 0
176 56 0
177 58 0
178 60 0
179 62 0
180 64 0
181 66 0
182 68 0
183 70 0
184 72 0
185 74 0
186 76 0
187 78 0
188 80 0
189 82 0
190 84 0
191 86 0
192 88 0
193 90 0
194 92 0
195 94 0
171 21 0
172 23 0
173 25 0
174 27 0
175 29 0
176 21 0
177 23 0
178 25 0
179 27 0
180 29 0
181 21 0
182 23 0
183 25 0
184 27 0
185 29 0
186 21 0
187 23 0
188 25 0
189 27 0
190 29 0
191 21 0
192 23 0
193 25 0
194 27 0
195 29 0
-3 -16 -32 -41 -47 -122 -171 196 0
-3 -16 -32 -41 -49 -124 -172 197 0
-3 -16 -32 -41 -51 -126 -173 198 0
-3 -16 -32 -41 -53 -128 -174 199 0
-3 -16 -32 -41 -55 -130 -175 200 0
-6 -17 -34 -42 -57 -132 -176 201 0
-6 -17 -34 -42 -59 -134 -177 202 0
-6 -17 -34 -42 -61 -136 -178 203 0
-6 -17 -34 -42 -63 -138 -179 204 0
-6 -17 -34 -42 -65 -140 -180 205 0
-9 -18 -36 -43 -67 -142 -181 206 0
-9 -18 -36 -43 -69 -144 -182 207 0
-9 -18 -36 -43 -71 -146 -183 208 0
-9 -18 -36 -43 -73 -148 -184 209 0
-9 -18 -36 -43 -75 -150 -185 210 0
-12 -19 -38 -44 -77 -152 -186 211 0
-12 -19 -38 -44 -79 -154 -187 212 0
-12 -19 -38 -44 -81 -156 -188 213 0
-12 -19 -38 -44 -83 -158 -189 214 0
-12 -19 -38 -44 -85 -160 -190 215 0
-15 -20 -40 -45 -87 -162 -191 216 0
-15 -20 -40 -45 -89 -164 -192 217 0
-15 -20 -40 -45 -91 -166 -193 218 0
-15 -20 -40 -45 -93 -168 -194 219 0
-15 -20 -40 -45 -95 -170 -195 220 0
-196 3 0
-197 3 0
-198 3 0
-199 3 0
-200 3 0
-201 6 0
-202 6 0
-203 6 0
-204 6 0
-205 6 0
-206 9 0
-207 9 0
-208 9 0
-209 9 0
-210 9 0
-211 12 0
-212 12 0
-213 12 0
-214 12 0
-215 12 0
-216 15 0
-217 15 0
-218 15 0
-219 15 0
-220 15 0
-196 16 0
-197 16 0
-198 16 0
-199 16 0
-200 16 0
-201 17 0
-202 17 0
-203 17 0
-204 17 0
-205 17 0
-206 18 0
-207 18 0
-208 18 0
-209 18 0
-210 18 0
-211 19 0
-212 19 0
-213 19 0
-214 19 0
-215 19 0
-216 20 0
-217 20 0
-218 20 0
-219 20 0
-220 20 0
-196 32 0
-197 32 0
-198 32 0
-199 32 0
-200 32 0
-201 34 0
-202 34 0
-203 34 0
-204 34 0
-205 34 0
-206 36 0
-207 36 0
-208 36 0
-209 36 0
-210 36 0
-211 38 0
-212 38 0
-213 38 0
-214 38 0
-215 38 0
-216 40 0
-217 40 0
-218 40 0
-219 40 0
-220 40 0
-196 41 0
-197 41 0
-198 41 0
-199 41 0
-200 41 0
-201 42 0
-202 42 0
-203 42 0
-204 42 0
-205 42 0
-206 43 0
-207 43 0
-208 43 0
-209 43 0
-210 43 0
-211 44 0
-212 44 0
-213 44 0
-214 44 0
-215 44 0
-216 45 0
-217 45 0
-218 45 0
-219 45 0
-220 45 0
-196 47 0
-197 49 0
-198 51 0
-199 53 0
-200 55 0
-201 57 0
-202 59 0
-203 61 0
-204 63 0
-205 65 0
-206 67 0
-207 69 0
-208 71 0
-209 73 0
-210 75 0
-211 77 0
-212 79 0
-213 81 0
-214 83 0
-215 85 0
-216 87 0
-217 89 0
-218 91 0
-219 93 0
-220 95 0
-196 122 0
-197 124 0
-198 126 0
-199 128 0
-200 130 0
-201 132 0
-202 134 0
-203 136 0
-204 138 0
-205 140 0
-206 142 0
-207 144 0
-208 146 0
-209 148 0
-210 150 0
-211 152 0
-212 154 0
-213 156 0
-214 158 0
-215 160 0
-216 162 0
-217 164 0
-218 166 0
-219 168 0
-220 170 0
-196 171 0
-197 172 0
-198 173 0
-199 174 0
-200 175 0
-201 176 0
-202 177 0
-203 178 0
-204 179 0
-205 180 0
-206 181 0
-207 182 0
-208 183 0
-209 184 0
-210 185 0
-211 186 0
-212 187 0
-213 188 0
-214 189 0
-215 190 0
-216 191 0
-217 192 0
-218 193 0
-219 194 0
-220 195 0
196 0
197 0
198 0
199 0
200 0
201 0
202 0
203 0
204 0
205 0
206 0
207 0
208 0
209 0
210 0
211 0
212 0
213 0
214 0
215 0
216 0
217 0
218 0
219 0
220 0
221 0
222 223 0
-222 -223 0
-222 -224 225 0
-222 -226 227 0
-222 -228 229 0
225 230 0
-225 -230 0
-225 -231 222 0
-225 -232 227 0
-225 -233 229 0
227 234 0
-227 -234 0
-227 -235 222 0
-227 -236 225 0
-227 -237 229 0
229 238 0
-229 -238 0
-229 -239 222 0
-229 -240 225 0
-229 -241 227 0
242 0
223 222 0
-223 -222 0
-223 -225 224 0
-223 -227 226 0
-223 -229 228 0
224 231 0
-224 -231 0
-224 -230 223 0
-224 -232 226 0
-224 -233 228 0
226 235 0
-226 -235 0
-226 -234 223 0
-226 -236 224 0
-226 -237 228 0
228 239 0
-228 -239 0
-228 -238 223 0
-228 -240 224 0
-228 -241 226 0
243 0
230 225 0
-230 -225 0
-230 -222 231 0
-230 -227 232 0
-230 -229 233 0
231 224 0
-231 -224 0
-231 -223 230 0
-231 -226 232 0
-231 -228 233 0
232 236 0
-232 -236 0
-232 -234 230 0
-232 -235 231 0
-232 -237 233 0
233 240 0
-233 -240 0
-233 -238 230 0
-233 -239 231 0
-233 -241 232 0
244 0
234 227 0
-234 -227 0
-234 -222 235 0
-234 -225 236 0
-234 -229 237 0
235 226 0
-235 -226 0
-235 -223 234 0
-235 -224 236 0
-235 -228 237 0
236 232 0
-236 -232 0
-236 -230 234 0
-236 -231 235 0
-236 -233 237 0
237 241 0
-237 -241 0
-237 -238 234 0
-237 -239 235 0
-237 -240 236 0
245 0
238 229 0
-238 -229 0
-238 -222 239 0
-238 -225 240 0
-238 -227 241 0
239 228 0
-239 -228 0
-239 -223 238 0
-239 -224 240 0
-239 -226 241 0
240 233 0
-240 -233 0
-240 -230 238 0
-240 -231 239 0
-240 -232 241 0
241 237 0
-241 -237 0
-241 -234 238 0
-241 -235 239 0
-241 -236 240 0
-46 0
-56 222 0
-246 225 0
-246 231 0
-225 -231 246 0
-247 227 0
-247 235 0
-227 -235 247 0
-248 229 0
-248 239 0
-229 -239 248 0
-56 -246 0
-56 -247 0
-56 -248 0
-222 56 246 247 248 0
-66 225 0
-249 222 0
-249 224 0
-222 -224 249 0
-250 227 0
-250 236 0
-227 -236 250 0
-251 229 0
-251 240 0
-229 -240 251 0
-66 -249 0
-66 -250 0
-66 -251 0
-225 66 249 250 251 0
-76 227 0
-252 222 0
-252 226 0
-222 -226 252 0
-253 225 0
-253 232 0
-225 -232 253 0
-254 229 0
-254 241 0
-229 -241 254 0
-76 -252 0
-76 -253 0
-76 -254 0
-227 76 252 253 254 0
-86 229 0
-255 222 0
-255 228 0
-222 -228 255 0
-256 225 0
-256 233 0
-225 -233 256 0
-257 227 0
-257 237 0
-227 -237 257 0
-86 -255 0
-86 -256 0
-86 -257 0
-229 86 255 256 257 0
-48 223 0
-258 224 0
-258 230 0
-224 -230 258 0
-259 226 0
-259 234 0
-226 -234 259 0
-260 228 0
-260 238 0
-228 -238 260 0
-48 -258 0
-48 -259 0
-48 -260 0
-223 48 258 259 260 0
-58 0
-68 224 0
-261 223 0
-261 225 0
-223 -225 261 0
-262 226 0
-262 236 0
-226 -236 262 0
-263 228 0
-263 240 0
-228 -240 263 0
-68 -261 0
-68 -262 0
-68 -263 0
-224 68 261 262 263 0
-78 226 0
-264 223 0
-264 227 0
-223 -227 264 0
-265 224 0
-265 232 0
-224 -232 265 0
-266 228 0
-266 241 0
-228 -241 266 0
-78 -264 0
-78 -265 0
-78 -266 0
-226 78 264 265 266 0
-88 228 0
-267 223 0
-267 229 0
-223 -229 267 0
-268 224 0
-268 233 0
-224 -233 268 0
-269 226 0
-269 237 0
-226 -237 269 0
-88 -267 0
-88 -268 0
-88 -269 0
-228 88 267 268 269 0
-50 230 0
-270 231 0
-270 223 0
-231 -223 270 0
-271 232 0
-271 234 0
-232 -234 271 0
-272 233 0
-272 238 0
-233 -238 272 0
-50 -270 0
-50 -271 0
-50 -272 0
-230 50 270 271 272 0
-60 231 0
-273 230 0
-273 222 0
-230 -222 273 0
-274 232 0
-274 235 0
-232 -235 274 0
-275 233 0
-275 239 0
-233 -239 275 0
-60 -273 0
-60 -274 0
-60 -275 0
-231 60 273 274 275 0
-70 0
-80 232 0
-276 230 0
-276 227 0
-230 -227 276 0
-277 231 0
-277 226 0
-231 -226 277 0
-278 233 0
-278 241 0
-233 -241 278 0
-80 -276 0
-80 -277 0
-80 -278 0
-232 80 276 277 278 0
-90 233 0
-279 230 0
-279 229 0
-230 -229 279 0
-280 231 0
-280 228 0
-231 -228 280 0
-281 232 0
-281 237 0
-232 -237 281 0
-90 -279 0
-90 -280 0
-90 -281 0
-233 90 279 280 281 0
-52 234 0
-282 235 0
-282 223 0
-235 -223 282 0
-283 236 0
-283 230 0
-236 -230 283 0
-284 237 0
-284 238 0
-237 -238 284 0
-52 -282 0
-52 -283 0
-52 -284 0
-234 52 282 283 284 0
-62 235 0
-285 234 0
-285 222 0
-234 -222 285 0
-286 236 0
-286 231 0
-236 -231 286 0
-287 237 0
-287 239 0
-237 -239 287 0
-62 -285 0
-62 -286 0
-62 -287 0
-235 62 285 286 287 0
-72 236 0
-288 234 0
-288 225 0
-234 -225 288 0
-289 235 0
-289 224 0
-235 -224 289 0
-290 237 0
-290 240 0
-237 -240 290 0
-72 -288 0
-72 -289 0
-72 -290 0
-236 72 288 289 290 0
-82 0
-92 237 0
-291 234 0
-291 229 0
-234 -229 291 0
-292 235 0
-292 228 0
-235 -228 292 0
-293 236 0
-293 233 0
-236 -233 293 0
-92 -291 0
-92 -292 0
-92 -293 0
-237 92 291 292 293 0
-54 238 0
-294 239 0
-294 223 0
-239 -223 294 0
-295 240 0
-295 230 0
-240 -230 295 0
-296 241 0
-296 234 0
-241 -234 296 0
-54 -294 0
-54 -295 0
-54 -296 0
-238 54 294 295 296 0
-64 239 0
-297 238 0
-297 222 0
-238 -222 297 0
-298 240 0
-298 231 0
-240 -231 298 0
-299 241 0
-299 235 0
-241 -235 299 0
-64 -297 0
-64 -298 0
-64 -299 0
-239 64 297 298 299 0
-74 240 0
-300 238 0
-300 225 0
-238 -225 300 0
-301 239 0
-301 224 0
-239 -224 301 0
-302 241 0
-302 236 0
-241 -236 302 0
-74 -300 0
-74 -301 0
-74 -302 0
-240 74 300 301 302 0
-84 241 0
-303 238 0
-303 227 0
-238 -227 303 0
-304 239 0
-304 226 0
-239 -226 304 0
-305 240 0
-305 232 0
-240 -232 305 0
-84 -303 0
-84 -304 0
-84 -305 0
-241 84 303 304 305 0
-94 0
