p cnf 462 1728
1 2 -3 0
4 5 -6 0
7 8 -9 0
10 11 -12 0
13 14 -15 0
16 17 -18 0
3 -1 0
6 -4 0
9 -7 0
12 -10 0
15 -13 0
18 -16 0
3 -2 0
6 -5 0
9 -8 0
12 -11 0
15 -14 0
18 -17 0
-1 -2 -19 0
-4 -5 -20 0
-7 -8 -21 0
-10 -11 -22 0
-13 -14 -23 0
-16 -17 -24 0
19 1 0
20 4 0
21 7 0
22 10 0
23 13 0
24 16 0
19 2 0
20 5 0
21 8 0
22 11 0
23 14 0
24 17 0
-25 1 26 0
-27 4 28 0
-29 7 30 0
-31 10 32 0
-33 13 34 0
-35 16 36 0
-26 25 0
-28 27 0
-30 29 0
-32 31 0
-34 33 0
-36 35 0
-26 -1 0
-28 -4 0
-30 -7 0
-32 -10 0
-34 -13 0
-36 -16 0
37 26 -38 0
39 28 -40 0
41 30 -42 0
43 32 -44 0
45 34 -46 0
47 36 -48 0
38 -37 0
40 -39 0
42 -41 0
44 -43 0
46 -45 0
48 -47 0
38 -26 0
40 -28 0
42 -30 0
44 -32 0
46 -34 0
48 -36 0
1 -37 -25 -49 0
4 -39 -27 -50 0
7 -41 -29 -51 0
10 -43 -31 -52 0
13 -45 -33 -53 0
16 -47 -35 -54 0
49 -1 0
50 -4 0
51 -7 0
52 -10 0
53 -13 0
54 -16 0
49 37 0
50 39 0
51 41 0
52 43 0
53 45 0
54 47 0
49 25 0
50 27 0
51 29 0
52 31 0
53 33 0
54 35 0
1 -55 -2 -56 0
4 -57 -5 -58 0
7 -59 -8 -60 0
10 -61 -11 -62 0
13 -63 -14 -64 0
16 -65 -17 -66 0
1 -67 -2 -68 0
4 -69 -5 -70 0
7 -71 -8 -72 0
10 -73 -11 -74 0
13 -75 -14 -76 0
16 -77 -17 -78 0
1 -79 -2 -80 0
4 -81 -5 -82 0
7 -83 -8 -84 0
10 -85 -11 -86 0
13 -87 -14 -88 0
16 -89 -17 -90 0
1 -91 -2 -92 0
4 -93 -5 -94 0
7 -95 -8 -96 0
10 -97 -11 -98 0
13 -99 -14 -100 0
16 -101 -17 -102 0
1 -103 -2 -104 0
4 -105 -5 -106 0
7 -107 -8 -108 0
10 -109 -11 -110 0
13 -111 -14 -112 0
16 -113 -17 -114 0
1 -115 -2 -116 0
4 -117 -5 -118 0
7 -119 -8 -120 0
10 -121 -11 -122 0
13 -123 -14 -124 0
16 -125 -17 -126 0
56 -1 0
58 -4 0
60 -7 0
62 -10 0
64 -13 0
66 -16 0
68 -1 0
70 -4 0
72 -7 0
74 -10 0
76 -13 0
78 -16 0
80 -1 0
82 -4 0
84 -7 0
86 -10 0
88 -13 0
90 -16 0
92 -1 0
94 -4 0
96 -7 0
98 -10 0
100 -13 0
102 -16 0
104 -1 0
106 -4 0
108 -7 0
110 -10 0
112 -13 0
114 -16 0
116 -1 0
118 -4 0
120 -7 0
122 -10 0
124 -13 0
126 -16 0
56 55 0
58 57 0
60 59 0
62 61 0
64 63 0
66 65 0
68 67 0
70 69 0
72 71 0
74 73 0
76 75 0
78 77 0
80 79 0
82 81 0
84 83 0
86 85 0
88 87 0
90 89 0
92 91 0
94 93 0
96 95 0
98 97 0
100 99 0
102 101 0
104 103 0
106 105 0
108 107 0
110 109 0
112 111 0
114 113 0
116 115 0
118 117 0
120 119 0
122 121 0
124 123 0
126 125 0
56 2 0
58 5 0
60 8 0
62 11 0
64 14 0
66 17 0
68 2 0
70 5 0
72 8 0
74 11 0
76 14 0
78 17 0
80 2 0
82 5 0
84 8 0
86 11 0
88 14 0
90 17 0
92 2 0
94 5 0
96 8 0
98 11 0
100 14 0
102 17 0
104 2 0
106 5 0
108 8 0
110 11 0
112 14 0
114 17 0
116 2 0
118 5 0
120 8 0
122 11 0
124 14 0
126 17 0
-55 -25 25 127 0
-57 -27 25 128 0
-59 -29 25 129 0
-61 -31 25 130 0
-63 -33 25 131 0
-65 -35 25 132 0
-67 -25 27 133 0
-69 -27 27 134 0
-71 -29 27 135 0
-73 -31 27 136 0
-75 -33 27 137 0
-77 -35 27 138 0
-79 -25 29 139 0
-81 -27 29 140 0
-83 -29 29 141 0
-85 -31 29 142 0
-87 -33 29 143 0
-89 -35 29 144 0
-91 -25 31 145 0
-93 -27 31 146 0
-95 -29 31 147 0
-97 -31 31 148 0
-99 -33 31 149 0
-101 -35 31 150 0
-103 -25 33 151 0
-105 -27 33 152 0
-107 -29 33 153 0
-109 -31 33 154 0
-111 -33 33 155 0
-113 -35 33 156 0
-115 -25 35 157 0
-117 -27 35 158 0
-119 -29 35 159 0
-121 -31 35 160 0
-123 -33 35 161 0
-125 -35 35 162 0
-127 55 0
-128 57 0
-129 59 0
-130 61 0
-131 63 0
-132 65 0
-133 67 0
-134 69 0
-135 71 0
-136 73 0
-137 75 0
-138 77 0
-139 79 0
-140 81 0
-141 83 0
-142 85 0
-143 87 0
-144 89 0
-145 91 0
-146 93 0
-147 95 0
-148 97 0
-149 99 0
-150 101 0
-151 103 0
-152 105 0
-153 107 0
-154 109 0
-155 111 0
-156 113 0
-157 115 0
-158 117 0
-159 119 0
-160 121 0
-161 123 0
-162 125 0
-127 25 0
-128 27 0
-129 29 0
-130 31 0
-131 33 0
-132 35 0
-133 25 0
-134 27 0
-135 29 0
-136 31 0
-137 33 0
-138 35 0
-139 25 0
-140 27 0
-141 29 0
-142 31 0
-143 33 0
-144 35 0
-145 25 0
-146 27 0
-147 29 0
-148 31 0
-149 33 0
-150 35 0
-151 25 0
-152 27 0
-153 29 0
-154 31 0
-155 33 0
-156 35 0
-157 25 0
-158 27 0
-159 29 0
-160 31 0
-161 33 0
-162 35 0
-127 -25 0
-128 -25 0
-129 -25 0
-130 -25 0
-131 -25 0
-132 -25 0
-133 -27 0
-134 -27 0
-135 -27 0
-136 -27 0
-137 -27 0
-138 -27 0
-139 -29 0
-140 -29 0
-141 -29 0
-142 -29 0
-143 -29 0
-144 -29 0
-145 -31 0
-146 -31 0
-147 -31 0
-148 -31 0
-149 -31 0
-150 -31 0
-151 -33 0
-152 -33 0
-153 -33 0
-154 -33 0
-155 -33 0
-156 -33 0
-157 -35 0
-158 -35 0
-159 -35 0
-160 -35 0
-161 -35 0
-162 -35 0
163 127 -164 0
165 128 -166 0
167 129 -168 0
169 130 -170 0
171 131 -172 0
173 132 -174 0
175 133 -176 0
177 134 -178 0
179 135 -180 0
181 136 -182 0
183 137 -184 0
185 138 -186 0
187 139 -188 0
189 140 -190 0
191 141 -192 0
193 142 -194 0
195 143 -196 0
197 144 -198 0
199 145 -200 0
201 146 -202 0
203 147 -204 0
205 148 -206 0
207 149 -208 0
209 150 -210 0
211 151 -212 0
213 152 -214 0
215 153 -216 0
217 154 -218 0
219 155 -220 0
221 156 -222 0
223 157 -224 0
225 158 -226 0
227 159 -228 0
229 160 -230 0
231 161 -232 0
233 162 -234 0
164 -163 0
166 -165 0
168 -167 0
170 -169 0
172 -171 0
174 -173 0
176 -175 0
178 -177 0
180 -179 0
182 -181 0
184 -183 0
186 -185 0
188 -187 0
190 -189 0
192 -191 0
194 -193 0
196 -195 0
198 -197 0
200 -199 0
202 -201 0
204 -203 0
206 -205 0
208 -207 0
210 -209 0
212 -211 0
214 -213 0
216 -215 0
218 -217 0
220 -219 0
222 -221 0
224 -223 0
226 -225 0
228 -227 0
230 -229 0
232 -231 0
234 -233 0
164 -127 0
166 -128 0
168 -129 0
170 -130 0
172 -131 0
174 -132 0
176 -133 0
178 -134 0
180 -135 0
182 -136 0
184 -137 0
186 -138 0
188 -139 0
190 -140 0
192 -141 0
194 -142 0
196 -143 0
198 -144 0
200 -145 0
202 -146 0
204 -147 0
206 -148 0
208 -149 0
210 -150 0
212 -151 0
214 -152 0
216 -153 0
218 -154 0
220 -155 0
222 -156 0
224 -157 0
226 -158 0
228 -159 0
230 -160 0
232 -161 0
234 -162 0
25 -163 -55 -25 -235 0
25 -165 -57 -27 -236 0
25 -167 -59 -29 -237 0
25 -169 -61 -31 -238 0
25 -171 -63 -33 -239 0
25 -173 -65 -35 -240 0
27 -175 -67 -25 -241 0
27 -177 -69 -27 -242 0
27 -179 -71 -29 -243 0
27 -181 -73 -31 -244 0
27 -183 -75 -33 -245 0
27 -185 -77 -35 -246 0
29 -187 -79 -25 -247 0
29 -189 -81 -27 -248 0
29 -191 -83 -29 -249 0
29 -193 -85 -31 -250 0
29 -195 -87 -33 -251 0
29 -197 -89 -35 -252 0
31 -199 -91 -25 -253 0
31 -201 -93 -27 -254 0
31 -203 -95 -29 -255 0
31 -205 -97 -31 -256 0
31 -207 -99 -33 -257 0
31 -209 -101 -35 -258 0
33 -211 -103 -25 -259 0
33 -213 -105 -27 -260 0
33 -215 -107 -29 -261 0
33 -217 -109 -31 -262 0
33 -219 -111 -33 -263 0
33 -221 -113 -35 -264 0
35 -223 -115 -25 -265 0
35 -225 -117 -27 -266 0
35 -227 -119 -29 -267 0
35 -229 -121 -31 -268 0
35 -231 -123 -33 -269 0
35 -233 -125 -35 -270 0
235 -25 0
236 -25 0
237 -25 0
238 -25 0
239 -25 0
240 -25 0
241 -27 0
242 -27 0
243 -27 0
244 -27 0
245 -27 0
246 -27 0
247 -29 0
248 -29 0
249 -29 0
250 -29 0
251 -29 0
252 -29 0
253 -31 0
254 -31 0
255 -31 0
256 -31 0
257 -31 0
258 -31 0
259 -33 0
260 -33 0
261 -33 0
262 -33 0
263 -33 0
264 -33 0
265 -35 0
266 -35 0
267 -35 0
268 -35 0
269 -35 0
270 -35 0
235 163 0
236 165 0
237 167 0
238 169 0
239 171 0
240 173 0
241 175 0
242 177 0
243 179 0
244 181 0
245 183 0
246 185 0
247 187 0
248 189 0
249 191 0
250 193 0
251 195 0
252 197 0
253 199 0
254 201 0
255 203 0
256 205 0
257 207 0
258 209 0
259 211 0
260 213 0
261 215 0
262 217 0
263 219 0
264 221 0
265 223 0
266 225 0
267 227 0
268 229 0
269 231 0
270 233 0
235 55 0
236 57 0
237 59 0
238 61 0
239 63 0
240 65 0
241 67 0
242 69 0
243 71 0
244 73 0
245 75 0
246 77 0
247 79 0
248 81 0
249 83 0
250 85 0
251 87 0
252 89 0
253 91 0
254 93 0
255 95 0
256 97 0
257 99 0
258 101 0
259 103 0
260 105 0
261 107 0
262 109 0
263 111 0
264 113 0
265 115 0
266 117 0
267 119 0
268 121 0
269 123 0
270 125 0
235 25 0
236 27 0
237 29 0
238 31 0
239 33 0
240 35 0
241 25 0
242 27 0
243 29 0
244 31 0
245 33 0
246 35 0
247 25 0
248 27 0
249 29 0
250 31 0
251 33 0
252 35 0
253 25 0
254 27 0
255 29 0
256 31 0
257 33 0
258 35 0
259 25 0
260 27 0
261 29 0
262 31 0
263 33 0
264 35 0
265 25 0
266 27 0
267 29 0
268 31 0
269 33 0
270 35 0
-3 -19 -38 -49 -56 -164 -235 271 0
-3 -19 -38 -49 -58 -166 -236 272 0
-3 -19 -38 -49 -60 -168 -237 273 0
-3 -19 -38 -49 -62 -170 -238 274 0
-3 -19 -38 -49 -64 -172 -239 275 0
-3 -19 -38 -49 -66 -174 -240 276 0
-6 -20 -40 -50 -68 -176 -241 277 0
-6 -20 -40 -50 -70 -178 -242 278 0
-6 -20 -40 -50 -72 -180 -243 279 0
-6 -20 -40 -50 -74 -182 -244 280 0
-6 -20 -40 -50 -76 -184 -245 281 0
-6 -20 -40 -50 -78 -186 -246 282 0
-9 -21 -42 -51 -80 -188 -247 283 0
-9 -21 -42 -51 -82 -190 -248 284 0
-9 -21 -42 -51 -84 -192 -249 285 0
-9 -21 -42 -51 -86 -194 -250 286 0
-9 -21 -42 -51 -88 -196 -251 287 0
-9 -21 -42 -51 -90 -198 -252 288 0
-12 -22 -44 -52 -92 -200 -253 289 0
-12 -22 -44 -52 -94 -202 -254 290 0
-12 -22 -44 -52 -96 -204 -255 291 0
-12 -22 -44 -52 -98 -206 -256 292 0
-12 -22 -44 -52 -100 -208 -257 293 0
-12 -22 -44 -52 -102 -210 -258 294 0
-15 -23 -46 -53 -104 -212 -259 295 0
-15 -23 -46 -53 -106 -214 -260 296 0
-15 -23 -46 -53 -108 -216 -261 297 0
-15 -23 -46 -53 -110 -218 -262 298 0
-15 -23 -46 -53 -112 -220 -263 299 0
-15 -23 -46 -53 -114 -222 -264 300 0
-18 -24 -48 -54 -116 -224 -265 301 0
-18 -24 -48 -54 -118 -226 -266 302 0
-18 -24 -48 -54 -120 -228 -267 303 0
-18 -24 -48 -54 -122 -230 -268 304 0
-18 -24 -48 -54 -124 -232 -269 305 0
-18 -24 -48 -54 -126 -234 -270 306 0
-271 3 0
-272 3 0
-273 3 0
-274 3 0
-275 3 0
-276 3 0
-277 6 0
-278 6 0
-279 6 0
-280 6 0
-281 6 0
-282 6 0
-283 9 0
-284 9 0
-285 9 0
-286 9 0
-287 9 0
-288 9 0
-289 12 0
-290 12 0
-291 12 0
-292 12 0
-293 12 0
-294 12 0
-295 15 0
-296 15 0
-297 15 0
-298 15 0
-299 15 0
-300 15 0
-301 18 0
-302 18 0
-303 18 0
-304 18 0
-305 18 0
-306 18 0
-271 19 0
-272 19 0
-273 19 0
-274 19 0
-275 19 0
-276 19 0
-277 20 0
-278 20 0
-279 20 0
-280 20 0
-281 20 0
-282 20 0
-283 21 0
-284 21 0
-285 21 0
-286 21 0
-287 21 0
-288 21 0
-289 22 0
-290 22 0
-291 22 0
-292 22 0
-293 22 0
-294 22 0
-295 23 0
-296 23 0
-297 23 0
-298 23 0
-299 23 0
-300 23 0
-301 24 0
-302 24 0
-303 24 0
-304 24 0
-305 24 0
-306 24 0
-271 38 0
-272 38 0
-273 38 0
-274 38 0
-275 38 0
-276 38 0
-277 40 0
-278 40 0
-279 40 0
-280 40 0
-281 40 0
-282 40 0
-283 42 0
-284 42 0
-285 42 0
-286 42 0
-287 42 0
-288 42 0
-289 44 0
-290 44 0
-291 44 0
-292 44 0
-293 44 0
-294 44 0
-295 46 0
-296 46 0
-297 46 0
-298 46 0
-299 46 0
-300 46 0
-301 48 0
-302 48 0
-303 48 0
-304 48 0
-305 48 0
-306 48 0
-271 49 0
-272 49 0
-273 49 0
-274 49 0
-275 49 0
-276 49 0
-277 50 0
-278 50 0
-279 50 0
-280 50 0
-281 50 0
-282 50 0
-283 51 0
-284 51 0
-285 51 0
-286 51 0
-287 51 0
-288 51 0
-289 52 0
-290 52 0
-291 52 0
-292 52 0
-293 52 0
-294 52 0
-295 53 0
-296 53 0
-297 53 0
-298 53 0
-299 53 0
-300 53 0
-301 54 0
-302 54 0
-303 54 0
-304 54 0
-305 54 0
-306 54 0
-271 56 0
-272 58 0
-273 60 0
-274 62 0
-275 64 0
-276 66 0
-277 68 0
-278 70 0
-279 72 0
-280 74 0
-281 76 0
-282 78 0
-283 80 0
-284 82 0
-285 84 0
-286 86 0
-287 88 0
-288 90 0
-289 92 0
-290 94 0
-291 96 0
-292 98 0
-293 100 0
-294 102 0
-295 104 0
-296 106 0
-297 108 0
-298 110 0
-299 112 0
-300 114 0
-301 116 0
-302 118 0
-303 120 0
-304 122 0
-305 124 0
-306 126 0
-271 164 0
-272 166 0
-273 168 0
-274 170 0
-275 172 0
-276 174 0
-277 176 0
-278 178 0
-279 180 0
-280 182 0
-281 184 0
-282 186 0
-283 188 0
-284 190 0
-285 192 0
-286 194 0
-287 196 0
-288 198 0
-289 200 0
-290 202 0
-291 204 0
-292 206 0
-293 208 0
-294 210 0
-295 212 0
-296 214 0
-297 216 0
-298 218 0
-299 220 0
-300 222 0
-301 224 0
-302 226 0
-303 228 0
-304 230 0
-305 232 0
-306 234 0
-271 235 0
-272 236 0
-273 237 0
-274 238 0
-275 239 0
-276 240 0
-277 241 0
-278 242 0
-279 243 0
-280 244 0
-281 245 0
-282 246 0
-283 247 0
-284 248 0
-285 249 0
-286 250 0
-287 251 0
-288 252 0
-289 253 0
-290 254 0
-291 255 0
-292 256 0
-293 257 0
-294 258 0
-295 259 0
-296 260 0
-297 261 0
-298 262 0
-299 263 0
-300 264 0
-301 265 0
-302 266 0
-303 267 0
-304 268 0
-305 269 0
-306 270 0
271 0
272 0
273 0
274 0
275 0
276 0
277 0
278 0
279 0
280 0
281 0
282 0
283 0
284 0
285 0
286 0
287 0
288 0
289 0
290 0
291 0
292 0
293 0
294 0
295 0
296 0
297 0
298 0
299 0
300 0
301 0
302 0
303 0
304 0
305 0
306 0
307 0
308 309 0
-308 -309 0
-308 -310 311 0
-308 -312 313 0
-308 -314 315 0
-308 -316 317 0
311 318 0
-311 -318 0
-311 -319 308 0
-311 -320 313 0
-311 -321 315 0
-311 -322 317 0
313 323 0
-313 -323 0
-313 -324 308 0
-313 -325 311 0
-313 -326 315 0
-313 -327 317 0
315 328 0
-315 -328 0
-315 -329 308 0
-315 -330 311 0
-315 -331 313 0
-315 -332 317 0
317 333 0
-317 -333 0
-317 -334 308 0
-317 -335 311 0
-317 -336 313 0
-317 -337 315 0
338 0
309 308 0
-309 -308 0
-309 -311 310 0
-309 -313 312 0
-309 -315 314 0
-309 -317 316 0
310 319 0
-310 -319 0
-310 -318 309 0
-310 -320 312 0
-310 -321 314 0
-310 -322 316 0
312 324 0
-312 -324 0
-312 -323 309 0
-312 -325 310 0
-312 -326 314 0
-312 -327 316 0
314 329 0
-314 -329 0
-314 -328 309 0
-314 -330 310 0
-314 -331 312 0
-314 -332 316 0
316 334 0
-316 -334 0
-316 -333 309 0
-316 -335 310 0
-316 -336 312 0
-316 -337 314 0
339 0
318 311 0
-318 -311 0
-318 -308 319 0
-318 -313 320 0
-318 -315 321 0
-318 -317 322 0
319 310 0
-319 -310 0
-319 -309 318 0
-319 -312 320 0
-319 -314 321 0
-319 -316 322 0
320 325 0
-320 -325 0
-320 -323 318 0
-320 -324 319 0
-320 -326 321 0
-320 -327 322 0
321 330 0
-321 -330 0
-321 -328 318 0
-321 -329 319 0
-321 -331 320 0
-321 -332 322 0
322 335 0
-322 -335 0
-322 -333 318 0
-322 -334 319 0
-322 -336 320 0
-322 -337 321 0
340 0
323 313 0
-323 -313 0
-323 -308 324 0
-323 -311 325 0
-323 -315 326 0
-323 -317 327 0
324 312 0
-324 -312 0
-324 -309 323 0
-324 -310 325 0
-324 -314 326 0
-324 -316 327 0
325 320 0
-325 -320 0
-325 -318 323 0
-325 -319 324 0
-325 -321 326 0
-325 -322 327 0
326 331 0
-326 -331 0
-326 -328 323 0
-326 -329 324 0
-326 -330 325 0
-326 -332 327 0
327 336 0
-327 -336 0
-327 -333 323 0
-327 -334 324 0
-327 -335 325 0
-327 -337 326 0
341 0
328 315 0
-328 -315 0
-328 -308 329 0
-328 -311 330 0
-328 -313 331 0
-328 -317 332 0
329 314 0
-329 -314 0
-329 -309 328 0
-329 -310 330 0
-329 -312 331 0
-329 -316 332 0
330 321 0
-330 -321 0
-330 -318 328 0
-330 -319 329 0
-330 -320 331 0
-330 -322 332 0
331 326 0
-331 -326 0
-331 -323 328 0
-331 -324 329 0
-331 -325 330 0
-331 -327 332 0
332 337 0
-332 -337 0
-332 -333 328 0
-332 -334 329 0
-332 -335 330 0
-332 -336 331 0
342 0
333 317 0
-333 -317 0
-333 -308 334 0
-333 -311 335 0
-333 -313 336 0
-333 -315 337 0
334 316 0
-334 -316 0
-334 -309 333 0
-334 -310 335 0
-334 -312 336 0
-334 -314 337 0
335 322 0
-335 -322 0
-335 -318 333 0
-335 -319 334 0
-335 -320 336 0
-335 -321 337 0
336 327 0
-336 -327 0
-336 -323 333 0
-336 -324 334 0
-336 -325 335 0
-336 -326 337 0
337 332 0
-337 -332 0
-337 -328 333 0
-337 -329 334 0
-337 -330 335 0
-337 -331 336 0
-55 0
-67 308 0
-343 311 0
-343 319 0
-311 -319 343 0
-344 313 0
-344 324 0
-313 -324 344 0
-345 315 0
-345 329 0
-315 -329 345 0
-346 317 0
-346 334 0
-317 -334 346 0
-67 -343 0
-67 -344 0
-67 -345 0
-67 -346 0
-308 67 343 344 345 346 0
-79 311 0
-347 308 0
-347 310 0
-308 -310 347 0
-348 313 0
-348 325 0
-313 -325 348 0
-349 315 0
-349 330 0
-315 -330 349 0
-350 317 0
-350 335 0
-317 -335 350 0
-79 -347 0
-79 -348 0
-79 -349 0
-79 -350 0
-311 79 347 348 349 350 0
-91 313 0
-351 308 0
-351 312 0
-308 -312 351 0
-352 311 0
-352 320 0
-311 -320 352 0
-353 315 0
-353 331 0
-315 -331 353 0
-354 317 0
-354 336 0
-317 -336 354 0
-91 -351 0
-91 -352 0
-91 -353 0
-91 -354 0
-313 91 351 352 353 354 0
-103 315 0
-355 308 0
-355 314 0
-308 -314 355 0
-356 311 0
-356 321 0
-311 -321 356 0
-357 313 0
-357 326 0
-313 -326 357 0
-358 317 0
-358 337 0
-317 -337 358 0
-103 -355 0
-103 -356 0
-103 -357 0
-103 -358 0
-315 103 355 356 357 358 0
-115 317 0
-359 308 0
-359 316 0
-308 -316 359 0
-360 311 0
-360 322 0
-311 -322 360 0
-361 313 0
-361 327 0
-313 -327 361 0
-362 315 0
-362 332 0
-315 -332 362 0
-115 -359 0
-115 -360 0
-115 -361 0
-115 -362 0
-317 115 359 360 361 362 0
-57 309 0
-363 310 0
-363 318 0
-310 -318 363 0
-364 312 0
-364 323 0
-312 -323 364 0
-365 314 0
-365 328 0
-314 -328 365 0
-366 316 0
-366 333 0
-316 -333 366 0
-57 -363 0
-57 -364 0
-57 -365 0
-57 -366 0
-309 57 363 364 365 366 0
-69 0
-81 310 0
-367 309 0
-367 311 0
-309 -311 367 0
-368 312 0
-368 325 0
-312 -325 368 0
-369 314 0
-369 330 0
-314 -330 369 0
-370 316 0
-370 335 0
-316 -335 370 0
-81 -367 0
-81 -368 0
-81 -369 0
-81 -370 0
-310 81 367 368 369 370 0
-93 312 0
-371 309 0
-371 313 0
-309 -313 371 0
-372 310 0
-372 320 0
-310 -320 372 0
-373 314 0
-373 331 0
-314 -331 373 0
-374 316 0
-374 336 0
-316 -336 374 0
-93 -371 0
-93 -372 0
-93 -373 0
-93 -374 0
-312 93 371 372 373 374 0
-105 314 0
-375 309 0
-375 315 0
-309 -315 375 0
-376 310 0
-376 321 0
-310 -321 376 0
-377 312 0
-377 326 0
-312 -326 377 0
-378 316 0
-378 337 0
-316 -337 378 0
-105 -375 0
-105 -376 0
-105 -377 0
-105 -378 0
-314 105 375 376 377 378 0
-117 316 0
-379 309 0
-379 317 0
-309 -317 379 0
-380 310 0
-380 322 0
-310 -322 380 0
-381 312 0
-381 327 0
-312 -327 381 0
-382 314 0
-382 332 0
-314 -332 382 0
-117 -379 0
-117 -380 0
-117 -381 0
-117 -382 0
-316 117 379 380 381 382 0
-59 318 0
-383 319 0
-383 309 0
-319 -309 383 0
-384 320 0
-384 323 0
-320 -323 384 0
-385 321 0
-385 328 0
-321 -328 385 0
-386 322 0
-386 333 0
-322 -333 386 0
-59 -383 0
-59 -384 0
-59 -385 0
-59 -386 0
-318 59 383 384 385 386 0
-71 319 0
-387 318 0
-387 308 0
-318 -308 387 0
-388 320 0
-388 324 0
-320 -324 388 0
-389 321 0
-389 329 0
-321 -329 389 0
-390 322 0
-390 334 0
-322 -334 390 0
-71 -387 0
-71 -388 0
-71 -389 0
-71 -390 0
-319 71 387 388 389 390 0
-83 0
-95 320 0
-391 318 0
-391 313 0
-318 -313 391 0
-392 319 0
-392 312 0
-319 -312 392 0
-393 321 0
-393 331 0
-321 -331 393 0
-394 322 0
-394 336 0
-322 -336 394 0
-95 -391 0
-95 -392 0
-95 -393 0
-95 -394 0
-320 95 391 392 393 394 0
-107 321 0
-395 318 0
-395 315 0
-318 -315 395 0
-396 319 0
-396 314 0
-319 -314 396 0
-397 320 0
-397 326 0
-320 -326 397 0
-398 322 0
-398 337 0
-322 -337 398 0
-107 -395 0
-107 -396 0
-107 -397 0
-107 -398 0
-321 107 395 396 397 398 0
-119 322 0
-399 318 0
-399 317 0
-318 -317 399 0
-400 319 0
-400 316 0
-319 -316 400 0
-401 320 0
-401 327 0
-320 -327 401 0
-402 321 0
-402 332 0
-321 -332 402 0
-119 -399 0
-119 -400 0
-119 -401 0
-119 -402 0
-322 119 399 400 401 402 0
-61 323 0
-403 324 0
-403 309 0
-324 -309 403 0
-404 325 0
-404 318 0
-325 -318 404 0
-405 326 0
-405 328 0
-326 -328 405 0
-406 327 0
-406 333 0
-327 -333 406 0
-61 -403 0
-61 -404 0
-61 -405 0
-61 -406 0
-323 61 403 404 405 406 0
-73 324 0
-407 323 0
-407 308 0
-323 -308 407 0
-408 325 0
-408 319 0
-325 -319 408 0
-409 326 0
-409 329 0
-326 -329 409 0
-410 327 0
-410 334 0
-327 -334 410 0
-73 -407 0
-73 -408 0
-73 -409 0
-73 -410 0
-324 73 407 408 409 410 0
-85 325 0
-411 323 0
-411 311 0
-323 -311 411 0
-412 324 0
-412 310 0
-324 -310 412 0
-413 326 0
-413 330 0
-326 -330 413 0
-414 327 0
-414 335 0
-327 -335 414 0
-85 -411 0
-85 -412 0
-85 -413 0
-85 -414 0
-325 85 411 412 413 414 0
-97 0
-109 326 0
-415 323 0
-415 315 0
-323 -315 415 0
-416 324 0
-416 314 0
-324 -314 416 0
-417 325 0
-417 321 0
-325 -321 417 0
-418 327 0
-418 337 0
-327 -337 418 0
-109 -415 0
-109 -416 0
-109 -417 0
-109 -418 0
-326 109 415 416 417 418 0
-121 327 0
-419 323 0
-419 317 0
-323 -317 419 0
-420 324 0
-420 316 0
-324 -316 420 0
-421 325 0
-421 322 0
-325 -322 421 0
-422 326 0
-422 332 0
-326 -332 422 0
-121 -419 0
-121 -420 0
-121 -421 0
-121 -422 0
-327 121 419 420 421 422 0
-63 328 0
-423 329 0
-423 309 0
-329 -309 423 0
-424 330 0
-424 318 0
-330 -318 424 0
-425 331 0
-425 323 0
-331 -323 425 0
-426 332 0
-426 333 0
-332 -333 426 0
-63 -423 0
-63 -424 0
-63 -425 0
-63 -426 0
-328 63 423 424 425 426 0
-75 329 0
-427 328 0
-427 308 0
-328 -308 427 0
-428 330 0
-428 319 0
-330 -319 428 0
-429 331 0
-429 324 0
-331 -324 429 0
-430 332 0
-430 334 0
-332 -334 430 0
-75 -427 0
-75 -428 0
-75 -429 0
-75 -430 0
-329 75 427 428 429 430 0
-87 330 0
-431 328 0
-431 311 0
-328 -311 431 0
-432 329 0
-432 310 0
-329 -310 432 0
-433 331 0
-433 325 0
-331 -325 433 0
-434 332 0
-434 335 0
-332 -335 434 0
-87 -431 0
-87 -432 0
-87 -433 0
-87 -434 0
-330 87 431 432 433 434 0
-99 331 0
-435 328 0
-435 313 0
-328 -313 435 0
-436 329 0
-436 312 0
-329 -312 436 0
-437 330 0
-437 320 0
-330 -320 437 0
-438 332 0
-438 336 0
-332 -336 438 0
-99 -435 0
-99 -436 0
-99 -437 0
-99 -438 0
-331 99 435 436 437 438 0
-111 0
-123 332 0
-439 328 0
-439 317 0
-328 -317 439 0
-440 329 0
-440 316 0
-329 -316 440 0
-441 330 0
-441 322 0
-330 -322 441 0
-442 331 0
-442 327 0
-331 -327 442 0
-123 -439 0
-123 -440 0
-123 -441 0
-123 -442 0
-332 123 439 440 441 442 0
-65 333 0
-443 334 0
-443 309 0
-334 -309 443 0
-444 335 0
-444 318 0
-335 -318 444 0
-445 336 0
-445 323 0
-336 -323 445 0
-446 337 0
-446 328 0
-337 -328 446 0
-65 -443 0
-65 -444 0
-65 -445 0
-65 -446 0
-333 65 443 444 445 446 0
-77 334 0
-447 333 0
-447 308 0
-333 -308 447 0
-448 335 0
-448 319 0
-335 -319 448 0
-449 336 0
-449 324 0
-336 -324 449 0
-450 337 0
-450 329 0
-337 -329 450 0
-77 -447 0
-77 -448 0
-77 -449 0
-77 -450 0
-334 77 447 448 449 450 0
-89 335 0
-451 333 0
-451 311 0
-333 -311 451 0
-452 334 0
-452 310 0
-334 -310 452 0
-453 336 0
-453 325 0
-336 -325 453 0
-454 337 0
-454 330 0
-337 -330 454 0
-89 -451 0
-89 -452 0
-89 -453 0
-89 -454 0
-335 89 451 452 453 454 0
-101 336 0
-455 333 0
-455 313 0
-333 -313 455 0
-456 334 0
-456 312 0
-334 -312 456 0
-457 335 0
-457 320 0
-335 -320 457 0
-458 337 0
-458 331 0
-337 -331 458 0
-101 -455 0
-101 -456 0
-101 -457 0
-101 -458 0
-336 101 455 456 457 458 0
-113 337 0
-459 333 0
-459 315 0
-333 -315 459 0
-460 334 0
-460 314 0
-334 -314 460 0
-461 335 0
-461 321 0
-335 -321 461 0
-462 336 0
-462 326 0
-336 -326 462 0
-113 -459 0
-113 -460 0
-113 -461 0
-113 -462 0
-337 113 459 460 461 462 0
-125 0
