p cnf 665 2569
1 2 -3 0
4 5 -6 0
7 8 -9 0
10 11 -12 0
13 14 -15 0
16 17 -18 0
19 20 -21 0
3 -1 0
6 -4 0
9 -7 0
12 -10 0
15 -13 0
18 -16 0
21 -19 0
3 -2 0
6 -5 0
9 -8 0
12 -11 0
15 -14 0
18 -17 0
21 -20 0
-1 -2 -22 0
-4 -5 -23 0
-7 -8 -24 0
-10 -11 -25 0
-13 -14 -26 0
-16 -17 -27 0
-19 -20 -28 0
22 1 0
23 4 0
24 7 0
25 10 0
26 13 0
27 16 0
28 19 0
22 2 0
23 5 0
24 8 0
25 11 0
26 14 0
27 17 0
28 20 0
-29 1 30 0
-31 4 32 0
-33 7 34 0
-35 10 36 0
-37 13 38 0
-39 16 40 0
-41 19 42 0
-30 29 0
-32 31 0
-34 33 0
-36 35 0
-38 37 0
-40 39 0
-42 41 0
-30 -1 0
-32 -4 0
-34 -7 0
-36 -10 0
-38 -13 0
-40 -16 0
-42 -19 0
43 30 -44 0
45 32 -46 0
47 34 -48 0
49 36 -50 0
51 38 -52 0
53 40 -54 0
55 42 -56 0
44 -43 0
46 -45 0
48 -47 0
50 -49 0
52 -51 0
54 -53 0
56 -55 0
44 -30 0
46 -32 0
48 -34 0
50 -36 0
52 -38 0
54 -40 0
56 -42 0
1 -43 -29 -57 0
4 -45 -31 -58 0
7 -47 -33 -59 0
10 -49 -35 -60 0
13 -51 -37 -61 0
16 -53 -39 -62 0
19 -55 -41 -63 0
57 -1 0
58 -4 0
59 -7 0
60 -10 0
61 -13 0
62 -16 0
63 -19 0
57 43 0
58 45 0
59 47 0
60 49 0
61 51 0
62 53 0
63 55 0
57 29 0
58 31 0
59 33 0
60 35 0
61 37 0
62 39 0
63 41 0
1 -64 -2 -65 0
4 -66 -5 -67 0
7 -68 -8 -69 0
10 -70 -11 -71 0
13 -72 -14 -73 0
16 -74 -17 -75 0
19 -76 -20 -77 0
1 -78 -2 -79 0
4 -80 -5 -81 0
7 -82 -8 -83 0
10 -84 -11 -85 0
13 -86 -14 -87 0
16 -88 -17 -89 0
19 -90 -20 -91 0
1 -92 -2 -93 0
4 -94 -5 -95 0
7 -96 -8 -97 0
10 -98 -11 -99 0
13 -100 -14 -101 0
16 -102 -17 -103 0
19 -104 -20 -105 0
1 -106 -2 -107 0
4 -108 -5 -109 0
7 -110 -8 -111 0
10 -112 -11 -113 0
13 -114 -14 -115 0
16 -116 -17 -117 0
19 -118 -20 -119 0
1 -120 -2 -121 0
4 -122 -5 -123 0
7 -124 -8 -125 0
10 -126 -11 -127 0
13 -128 -14 -129 0
16 -130 -17 -131 0
19 -132 -20 -133 0
1 -134 -2 -135 0
4 -136 -5 -137 0
7 -138 -8 -139 0
10 -140 -11 -141 0
13 -142 -14 -143 0
16 -144 -17 -145 0
19 -146 -20 -147 0
1 -148 -2 -149 0
4 -150 -5 -151 0
7 -152 -8 -153 0
10 -154 -11 -155 0
13 -156 -14 -157 0
16 -158 -17 -159 0
19 -160 -20 -161 0
65 -1 0
67 -4 0
69 -7 0
71 -10 0
73 -13 0
75 -16 0
77 -19 0
79 -1 0
81 -4 0
83 -7 0
85 -10 0
87 -13 0
89 -16 0
91 -19 0
93 -1 0
95 -4 0
97 -7 0
99 -10 0
101 -13 0
103 -16 0
105 -19 0
107 -1 0
109 -4 0
111 -7 0
113 -10 0
115 -13 0
117 -16 0
119 -19 0
121 -1 0
123 -4 0
125 -7 0
127 -10 0
129 -13 0
131 -16 0
133 -19 0
135 -1 0
137 -4 0
139 -7 0
141 -10 0
143 -13 0
145 -16 0
147 -19 0
149 -1 0
151 -4 0
153 -7 0
155 -10 0
157 -13 0
159 -16 0
161 -19 0
65 64 0
67 66 0
69 68 0
71 70 0
73 72 0
75 74 0
77 76 0
79 78 0
81 80 0
83 82 0
85 84 0
87 86 0
89 88 0
91 90 0
93 92 0
95 94 0
97 96 0
99 98 0
101 100 0
103 102 0
105 104 0
107 106 0
109 108 0
111 110 0
113 112 0
115 114 0
117 116 0
119 118 0
121 120 0
123 122 0
125 124 0
127 126 0
129 128 0
131 130 0
133 132 0
135 134 0
137 136 0
139 138 0
141 140 0
143 142 0
145 144 0
147 146 0
149 148 0
151 150 0
153 152 0
155 154 0
157 156 0
159 158 0
161 160 0
65 2 0
67 5 0
69 8 0
71 11 0
73 14 0
75 17 0
77 20 0
79 2 0
81 5 0
83 8 0
85 11 0
87 14 0
89 17 0
91 20 0
93 2 0
95 5 0
97 8 0
99 11 0
101 14 0
103 17 0
105 20 0
107 2 0
109 5 0
111 8 0
113 11 0
115 14 0
117 17 0
119 20 0
121 2 0
123 5 0
125 8 0
127 11 0
129 14 0
131 17 0
133 20 0
135 2 0
137 5 0
139 8 0
141 11 0
143 14 0
145 17 0
147 20 0
149 2 0
151 5 0
153 8 0
155 11 0
157 14 0
159 17 0
161 20 0
-64 -29 29 162 0
-66 -31 29 163 0
-68 -33 29 164 0
-70 -35 29 165 0
-72 -37 29 166 0
-74 -39 29 167 0
-76 -41 29 168 0
-78 -29 31 169 0
-80 -31 31 170 0
-82 -33 31 171 0
-84 -35 31 172 0
-86 -37 31 173 0
-88 -39 31 174 0
-90 -41 31 175 0
-92 -29 33 176 0
-94 -31 33 177 0
-96 -33 33 178 0
-98 -35 33 179 0
-100 -37 33 180 0
-102 -39 33 181 0
-104 -41 33 182 0
-106 -29 35 183 0
-108 -31 35 184 0
-110 -33 35 185 0
-112 -35 35 186 0
-114 -37 35 187 0
-116 -39 35 188 0
-118 -41 35 189 0
-120 -29 37 190 0
-122 -31 37 191 0
-124 -33 37 192 0
-126 -35 37 193 0
-128 -37 37 194 0
-130 -39 37 195 0
-132 -41 37 196 0
-134 -29 39 197 0
-136 -31 39 198 0
-138 -33 39 199 0
-140 -35 39 200 0
-142 -37 39 201 0
-144 -39 39 202 0
-146 -41 39 203 0
-148 -29 41 204 0
-150 -31 41 205 0
-152 -33 41 206 0
-154 -35 41 207 0
-156 -37 41 208 0
-158 -39 41 209 0
-160 -41 41 210 0
-162 64 0
-163 66 0
-164 68 0
-165 70 0
-166 72 0
-167 74 0
-168 76 0
-169 78 0
-170 80 0
-171 82 0
-172 84 0
-173 86 0
-174 88 0
-175 90 0
-176 92 0
-177 94 0
-178 96 0
-179 98 0
-180 100 0
-181 102 0
-182 104 0
-183 106 0
-184 108 0
-185 110 0
-186 112 0
-187 114 0
-188 116 0
-189 118 0
-190 120 0
-191 122 0
-192 124 0
-193 126 0
-194 128 0
-195 130 0
-196 132 0
-197 134 0
-198 136 0
-199 138 0
-200 140 0
-201 142 0
-202 144 0
-203 146 0
-204 148 0
-205 150 0
-206 152 0
-207 154 0
-208 156 0
-209 158 0
-210 160 0
-162 29 0
-163 31 0
-164 33 0
-165 35 0
-166 37 0
-167 39 0
-168 41 0
-169 29 0
-170 31 0
-171 33 0
-172 35 0
-173 37 0
-174 39 0
-175 41 0
-176 29 0
-177 31 0
-178 33 0
-179 35 0
-180 37 0
-181 39 0
-182 41 0
-183 29 0
-184 31 0
-185 33 0
-186 35 0
-187 37 0
-188 39 0
-189 41 0
-190 29 0
-191 31 0
-192 33 0
-193 35 0
-194 37 0
-195 39 0
-196 41 0
-197 29 0
-198 31 0
-199 33 0
-200 35 0
-201 37 0
-202 39 0
-203 41 0
-204 29 0
-205 31 0
-206 33 0
-207 35 0
-208 37 0
-209 39 0
-210 41 0
-162 -29 0
-163 -29 0
-164 -29 0
-165 -29 0
-166 -29 0
-167 -29 0
-168 -29 0
-169 -31 0
-170 -31 0
-171 -31 0
-172 -31 0
-173 -31 0
-174 -31 0
-175 -31 0
-176 -33 0
-177 -33 0
-178 -33 0
-179 -33 0
-180 -33 0
-181 -33 0
-182 -33 0
-183 -35 0
-184 -35 0
-185 -35 0
-186 -35 0
-187 -35 0
-188 -35 0
-189 -35 0
-190 -37 0
-191 -37 0
-192 -37 0
-193 -37 0
-194 -37 0
-195 -37 0
-196 -37 0
-197 -39 0
-198 -39 0
-199 -39 0
-200 -39 0
-201 -39 0
-202 -39 0
-203 -39 0
-204 -41 0
-205 -41 0
-206 -41 0
-207 -41 0
-208 -41 0
-209 -41 0
-210 -41 0
211 162 -212 0
213 163 -214 0
215 164 -216 0
217 165 -218 0
219 166 -220 0
221 167 -222 0
223 168 -224 0
225 169 -226 0
227 170 -228 0
229 171 -230 0
231 172 -232 0
233 173 -234 0
235 174 -236 0
237 175 -238 0
239 176 -240 0
241 177 -242 0
243 178 -244 0
245 179 -246 0
247 180 -248 0
249 181 -250 0
251 182 -252 0
253 183 -254 0
255 184 -256 0
257 185 -258 0
259 186 -260 0
261 187 -262 0
263 188 -264 0
265 189 -266 0
267 190 -268 0
269 191 -270 0
271 192 -272 0
273 193 -274 0
275 194 -276 0
277 195 -278 0
279 196 -280 0
281 197 -282 0
283 198 -284 0
285 199 -286 0
287 200 -288 0
289 201 -290 0
291 202 -292 0
293 203 -294 0
295 204 -296 0
297 205 -298 0
299 206 -300 0
301 207 -302 0
303 208 -304 0
305 209 -306 0
307 210 -308 0
212 -211 0
214 -213 0
216 -215 0
218 -217 0
220 -219 0
222 -221 0
224 -223 0
226 -225 0
228 -227 0
230 -229 0
232 -231 0
234 -233 0
236 -235 0
238 -237 0
240 -239 0
242 -241 0
244 -243 0
246 -245 0
248 -247 0
250 -249 0
252 -251 0
254 -253 0
256 -255 0
258 -257 0
260 -259 0
262 -261 0
264 -263 0
266 -265 0
268 -267 0
270 -269 0
272 -271 0
274 -273 0
276 -275 0
278 -277 0
280 -279 0
282 -281 0
284 -283 0
286 -285 0
288 -287 0
290 -289 0
292 -291 0
294 -293 0
296 -295 0
298 -297 0
300 -299 0
302 -301 0
304 -303 0
306 -305 0
308 -307 0
212 -162 0
214 -163 0
216 -164 0
218 -165 0
220 -166 0
222 -167 0
224 -168 0
226 -169 0
228 -170 0
230 -171 0
232 -172 0
234 -173 0
236 -174 0
238 -175 0
240 -176 0
242 -177 0
244 -178 0
246 -179 0
248 -180 0
250 -181 0
252 -182 0
254 -183 0
256 -184 0
258 -185 0
260 -186 0
262 -187 0
264 -188 0
266 -189 0
268 -190 0
270 -191 0
272 -192 0
274 -193 0
276 -194 0
278 -195 0
280 -196 0
282 -197 0
284 -198 0
286 -199 0
288 -200 0
290 -201 0
292 -202 0
294 -203 0
296 -204 0
298 -205 0
300 -206 0
302 -207 0
304 -208 0
306 -209 0
308 -210 0
29 -211 -64 -29 -309 0
29 -213 -66 -31 -310 0
29 -215 -68 -33 -311 0
29 -217 -70 -35 -312 0
29 -219 -72 -37 -313 0
29 -221 -74 -39 -314 0
29 -223 -76 -41 -315 0
31 -225 -78 -29 -316 0
31 -227 -80 -31 -317 0
31 -229 -82 -33 -318 0
31 -231 -84 -35 -319 0
31 -233 -86 -37 -320 0
31 -235 -88 -39 -321 0
31 -237 -90 -41 -322 0
33 -239 -92 -29 -323 0
33 -241 -94 -31 -324 0
33 -243 -96 -33 -325 0
33 -245 -98 -35 -326 0
33 -247 -100 -37 -327 0
33 -249 -102 -39 -328 0
33 -251 -104 -41 -329 0
35 -253 -106 -29 -330 0
35 -255 -108 -31 -331 0
35 -257 -110 -33 -332 0
35 -259 -112 -35 -333 0
35 -261 -114 -37 -334 0
35 -263 -116 -39 -335 0
35 -265 -118 -41 -336 0
37 -267 -120 -29 -337 0
37 -269 -122 -31 -338 0
37 -271 -124 -33 -339 0
37 -273 -126 -35 -340 0
37 -275 -128 -37 -341 0
37 -277 -130 -39 -342 0
37 -279 -132 -41 -343 0
39 -281 -134 -29 -344 0
39 -283 -136 -31 -345 0
39 -285 -138 -33 -346 0
39 -287 -140 -35 -347 0
39 -289 -142 -37 -348 0
39 -291 -144 -39 -349 0
39 -293 -146 -41 -350 0
41 -295 -148 -29 -351 0
41 -297 -150 -31 -352 0
41 -299 -152 -33 -353 0
41 -301 -154 -35 -354 0
41 -303 -156 -37 -355 0
41 -305 -158 -39 -356 0
41 -307 -160 -41 -357 0
309 -29 0
310 -29 0
311 -29 0
312 -29 0
313 -29 0
314 -29 0
315 -29 0
316 -31 0
317 -31 0
318 -31 0
319 -31 0
320 -31 0
321 -31 0
322 -31 0
323 -33 0
324 -33 0
325 -33 0
326 -33 0
327 -33 0
328 -33 0
329 -33 0
330 -35 0
331 -35 0
332 -35 0
333 -35 0
334 -35 0
335 -35 0
336 -35 0
337 -37 0
338 -37 0
339 -37 0
340 -37 0
341 -37 0
342 -37 0
343 -37 0
344 -39 0
345 -39 0
346 -39 0
347 -39 0
348 -39 0
349 -39 0
350 -39 0
351 -41 0
352 -41 0
353 -41 0
354 -41 0
355 -41 0
356 -41 0
357 -41 0
309 211 0
310 213 0
311 215 0
312 217 0
313 219 0
314 221 0
315 223 0
316 225 0
317 227 0
318 229 0
319 231 0
320 233 0
321 235 0
322 237 0
323 239 0
324 241 0
325 243 0
326 245 0
327 247 0
328 249 0
329 251 0
330 253 0
331 255 0
332 257 0
333 259 0
334 261 0
335 263 0
336 265 0
337 267 0
338 269 0
339 271 0
340 273 0
341 275 0
342 277 0
343 279 0
344 281 0
345 283 0
346 285 0
347 287 0
348 289 0
349 291 0
350 293 0
351 295 0
352 297 0
353 299 0
354 301 0
355 303 0
356 305 0
357 307 0
309 64 0
310 66 0
311 68 0
312 70 0
313 72 0
314 74 0
315 76 0
316 78 0
317 80 0
318 82 0
319 84 0
320 86 0
321 88 0
322 90 0
323 92 0
324 94 0
325 96 0
326 98 0
327 100 0
328 102 0
329 104 0
330 106 0
331 108 0
332 110 0
333 112 0
334 114 0
335 116 0
336 118 0
337 120 0
338 122 0
339 124 0
340 126 0
341 128 0
342 130 0
343 132 0
344 134 0
345 136 0
346 138 0
347 140 0
348 142 0
349 144 0
350 146 0
351 148 0
352 150 0
353 152 0
354 154 0
355 156 0
356 158 0
357 160 0
309 29 0
310 31 0
311 33 0
312 35 0
313 37 0
314 39 0
315 41 0
316 29 0
317 31 0
318 33 0
319 35 0
320 37 0
321 39 0
322 41 0
323 29 0
324 31 0
325 33 0
326 35 0
327 37 0
328 39 0
329 41 0
330 29 0
331 31 0
332 33 0
333 35 0
334 37 0
335 39 0
336 41 0
337 29 0
338 31 0
339 33 0
340 35 0
341 37 0
342 39 0
343 41 0
344 29 0
345 31 0
346 33 0
347 35 0
348 37 0
349 39 0
350 41 0
351 29 0
352 31 0
353 33 0
354 35 0
355 37 0
356 39 0
357 41 0
-3 -22 -44 -57 -65 -212 -309 358 0
-3 -22 -44 -57 -67 -214 -310 359 0
-3 -22 -44 -57 -69 -216 -311 360 0
-3 -22 -44 -57 -71 -218 -312 361 0
-3 -22 -44 -57 -73 -220 -313 362 0
-3 -22 -44 -57 -75 -222 -314 363 0
-3 -22 -44 -57 -77 -224 -315 364 0
-6 -23 -46 -58 -79 -226 -316 365 0
-6 -23 -46 -58 -81 -228 -317 366 0
-6 -23 -46 -58 -83 -230 -318 367 0
-6 -23 -46 -58 -85 -232 -319 368 0
-6 -23 -46 -58 -87 -234 -320 369 0
-6 -23 -46 -58 -89 -236 -321 370 0
-6 -23 -46 -58 -91 -238 -322 371 0
-9 -24 -48 -59 -93 -240 -323 372 0
-9 -24 -48 -59 -95 -242 -324 373 0
-9 -24 -48 -59 -97 -244 -325 374 0
-9 -24 -48 -59 -99 -246 -326 375 0
-9 -24 -48 -59 -101 -248 -327 376 0
-9 -24 -48 -59 -103 -250 -328 377 0
-9 -24 -48 -59 -105 -252 -329 378 0
-12 -25 -50 -60 -107 -254 -330 379 0
-12 -25 -50 -60 -109 -256 -331 380 0
-12 -25 -50 -60 -111 -258 -332 381 0
-12 -25 -50 -60 -113 -260 -333 382 0
-12 -25 -50 -60 -115 -262 -334 383 0
-12 -25 -50 -60 -117 -264 -335 384 0
-12 -25 -50 -60 -119 -266 -336 385 0
-15 -26 -52 -61 -121 -268 -337 386 0
-15 -26 -52 -61 -123 -270 -338 387 0
-15 -26 -52 -61 -125 -272 -339 388 0
-15 -26 -52 -61 -127 -274 -340 389 0
-15 -26 -52 -61 -129 -276 -341 390 0
-15 -26 -52 -61 -131 -278 -342 391 0
-15 -26 -52 -61 -133 -280 -343 392 0
-18 -27 -54 -62 -135 -282 -344 393 0
-18 -27 -54 -62 -137 -284 -345 394 0
-18 -27 -54 -62 -139 -286 -346 395 0
-18 -27 -54 -62 -141 -288 -347 396 0
-18 -27 -54 -62 -143 -290 -348 397 0
-18 -27 -54 -62 -145 -292 -349 398 0
-18 -27 -54 -62 -147 -294 -350 399 0
-21 -28 -56 -63 -149 -296 -351 400 0
-21 -28 -56 -63 -151 -298 -352 401 0
-21 -28 -56 -63 -153 -300 -353 402 0
-21 -28 -56 -63 -155 -302 -354 403 0
-21 -28 -56 -63 -157 -304 -355 404 0
-21 -28 -56 -63 -159 -306 -356 405 0
-21 -28 -56 -63 -161 -308 -357 406 0
-358 3 0
-359 3 0
-360 3 0
-361 3 0
-362 3 0
-363 3 0
-364 3 0
-365 6 0
-366 6 0
-367 6 0
-368 6 0
-369 6 0
-370 6 0
-371 6 0
-372 9 0
-373 9 0
-374 9 0
-375 9 0
-376 9 0
-377 9 0
-378 9 0
-379 12 0
-380 12 0
-381 12 0
-382 12 0
-383 12 0
-384 12 0
-385 12 0
-386 15 0
-387 15 0
-388 15 0
-389 15 0
-390 15 0
-391 15 0
-392 15 0
-393 18 0
-394 18 0
-395 18 0
-396 18 0
-397 18 0
-398 18 0
-399 18 0
-400 21 0
-401 21 0
-402 21 0
-403 21 0
-404 21 0
-405 21 0
-406 21 0
-358 22 0
-359 22 0
-360 22 0
-361 22 0
-362 22 0
-363 22 0
-364 22 0
-365 23 0
-366 23 0
-367 23 0
-368 23 0
-369 23 0
-370 23 0
-371 23 0
-372 24 0
-373 24 0
-374 24 0
-375 24 0
-376 24 0
-377 24 0
-378 24 0
-379 25 0
-380 25 0
-381 25 0
-382 25 0
-383 25 0
-384 25 0
-385 25 0
-386 26 0
-387 26 0
-388 26 0
-389 26 0
-390 26 0
-391 26 0
-392 26 0
-393 27 0
-394 27 0
-395 27 0
-396 27 0
-397 27 0
-398 27 0
-399 27 0
-400 28 0
-401 28 0
-402 28 0
-403 28 0
-404 28 0
-405 28 0
-406 28 0
-358 44 0
-359 44 0
-360 44 0
-361 44 0
-362 44 0
-363 44 0
-364 44 0
-365 46 0
-366 46 0
-367 46 0
-368 46 0
-369 46 0
-370 46 0
-371 46 0
-372 48 0
-373 48 0
-374 48 0
-375 48 0
-376 48 0
-377 48 0
-378 48 0
-379 50 0
-380 50 0
-381 50 0
-382 50 0
-383 50 0
-384 50 0
-385 50 0
-386 52 0
-387 52 0
-388 52 0
-389 52 0
-390 52 0
-391 52 0
-392 52 0
-393 54 0
-394 54 0
-395 54 0
-396 54 0
-397 54 0
-398 54 0
-399 54 0
-400 56 0
-401 56 0
-402 56 0
-403 56 0
-404 56 0
-405 56 0
-406 56 0
-358 57 0
-359 57 0
-360 57 0
-361 57 0
-362 57 0
-363 57 0
-364 57 0
-365 58 0
-366 58 0
-367 58 0
-368 58 0
-369 58 0
-370 58 0
-371 58 0
-372 59 0
-373 59 0
-374 59 0
-375 59 0
-376 59 0
-377 59 0
-378 59 0
-379 60 0
-380 60 0
-381 60 0
-382 60 0
-383 60 0
-384 60 0
-385 60 0
-386 61 0
-387 61 0
-388 61 0
-389 61 0
-390 61 0
-391 61 0
-392 61 0
-393 62 0
-394 62 0
-395 62 0
-396 62 0
-397 62 0
-398 62 0
-399 62 0
-400 63 0
-401 63 0
-402 63 0
-403 63 0
-404 63 0
-405 63 0
-406 63 0
-358 65 0
-359 67 0
-360 69 0
-361 71 0
-362 73 0
-363 75 0
-364 77 0
-365 79 0
-366 81 0
-367 83 0
-368 85 0
-369 87 0
-370 89 0
-371 91 0
-372 93 0
-373 95 0
-374 97 0
-375 99 0
-376 101 0
-377 103 0
-378 105 0
-379 107 0
-380 109 0
-381 111 0
-382 113 0
-383 115 0
-384 117 0
-385 119 0
-386 121 0
-387 123 0
-388 125 0
-389 127 0
-390 129 0
-391 131 0
-392 133 0
-393 135 0
-394 137 0
-395 139 0
-396 141 0
-397 143 0
-398 145 0
-399 147 0
-400 149 0
-401 151 0
-402 153 0
-403 155 0
-404 157 0
-405 159 0
-406 161 0
-358 212 0
-359 214 0
-360 216 0
-361 218 0
-362 220 0
-363 222 0
-364 224 0
-365 226 0
-366 228 0
-367 230 0
-368 232 0
-369 234 0
-370 236 0
-371 238 0
-372 240 0
-373 242 0
-374 244 0
-375 246 0
-376 248 0
-377 250 0
-378 252 0
-379 254 0
-380 256 0
-381 258 0
-382 260 0
-383 262 0
-384 264 0
-385 266 0
-386 268 0
-387 270 0
-388 272 0
-389 274 0
-390 276 0
-391 278 0
-392 280 0
-393 282 0
-394 284 0
-395 286 0
-396 288 0
-397 290 0
-398 292 0
-399 294 0
-400 296 0
-401 298 0
-402 300 0
-403 302 0
-404 304 0
-405 306 0
-406 308 0
-358 309 0
-359 310 0
-360 311 0
-361 312 0
-362 313 0
-363 314 0
-364 315 0
-365 316 0
-366 317 0
-367 318 0
-368 319 0
-369 320 0
-370 321 0
-371 322 0
-372 323 0
-373 324 0
-374 325 0
-375 326 0
-376 327 0
-377 328 0
-378 329 0
-379 330 0
-380 331 0
-381 332 0
-382 333 0
-383 334 0
-384 335 0
-385 336 0
-386 337 0
-387 338 0
-388 339 0
-389 340 0
-390 341 0
-391 342 0
-392 343 0
-393 344 0
-394 345 0
-395 346 0
-396 347 0
-397 348 0
-398 349 0
-399 350 0
-400 351 0
-401 352 0
-402 353 0
-403 354 0
-404 355 0
-405 356 0
-406 357 0
358 0
359 0
360 0
361 0
362 0
363 0
364 0
365 0
366 0
367 0
368 0
369 0
370 0
371 0
372 0
373 0
374 0
375 0
376 0
377 0
378 0
379 0
380 0
381 0
382 0
383 0
384 0
385 0
386 0
387 0
388 0
389 0
390 0
391 0
392 0
393 0
394 0
395 0
396 0
397 0
398 0
399 0
400 0
401 0
402 0
403 0
404 0
405 0
406 0
407 0
408 409 0
-408 -409 0
-408 -410 411 0
-408 -412 413 0
-408 -414 415 0
-408 -416 417 0
-408 -418 419 0
411 420 0
-411 -420 0
-411 -421 408 0
-411 -422 413 0
-411 -423 415 0
-411 -424 417 0
-411 -425 419 0
413 426 0
-413 -426 0
-413 -427 408 0
-413 -428 411 0
-413 -429 415 0
-413 -430 417 0
-413 -431 419 0
415 432 0
-415 -432 0
-415 -433 408 0
-415 -434 411 0
-415 -435 413 0
-415 -436 417 0
-415 -437 419 0
417 438 0
-417 -438 0
-417 -439 408 0
-417 -440 411 0
-417 -441 413 0
-417 -442 415 0
-417 -443 419 0
419 444 0
-419 -444 0
-419 -445 408 0
-419 -446 411 0
-419 -447 413 0
-419 -448 415 0
-419 -449 417 0
450 0
409 408 0
-409 -408 0
-409 -411 410 0
-409 -413 412 0
-409 -415 414 0
-409 -417 416 0
-409 -419 418 0
410 421 0
-410 -421 0
-410 -420 409 0
-410 -422 412 0
-410 -423 414 0
-410 -424 416 0
-410 -425 418 0
412 427 0
-412 -427 0
-412 -426 409 0
-412 -428 410 0
-412 -429 414 0
-412 -430 416 0
-412 -431 418 0
414 433 0
-414 -433 0
-414 -432 409 0
-414 -434 410 0
-414 -435 412 0
-414 -436 416 0
-414 -437 418 0
416 439 0
-416 -439 0
-416 -438 409 0
-416 -440 410 0
-416 -441 412 0
-416 -442 414 0
-416 -443 418 0
418 445 0
-418 -445 0
-418 -444 409 0
-418 -446 410 0
-418 -447 412 0
-418 -448 414 0
-418 -449 416 0
451 0
420 411 0
-420 -411 0
-420 -408 421 0
-420 -413 422 0
-420 -415 423 0
-420 -417 424 0
-420 -419 425 0
421 410 0
-421 -410 0
-421 -409 420 0
-421 -412 422 0
-421 -414 423 0
-421 -416 424 0
-421 -418 425 0
422 428 0
-422 -428 0
-422 -426 420 0
-422 -427 421 0
-422 -429 423 0
-422 -430 424 0
-422 -431 425 0
423 434 0
-423 -434 0
-423 -432 420 0
-423 -433 421 0
-423 -435 422 0
-423 -436 424 0
-423 -437 425 0
424 440 0
-424 -440 0
-424 -438 420 0
-424 -439 421 0
-424 -441 422 0
-424 -442 423 0
-424 -443 425 0
425 446 0
-425 -446 0
-425 -444 420 0
-425 -445 421 0
-425 -447 422 0
-425 -448 423 0
-425 -449 424 0
452 0
426 413 0
-426 -413 0
-426 -408 427 0
-426 -411 428 0
-426 -415 429 0
-426 -417 430 0
-426 -419 431 0
427 412 0
-427 -412 0
-427 -409 426 0
-427 -410 428 0
-427 -414 429 0
-427 -416 430 0
-427 -418 431 0
428 422 0
-428 -422 0
-428 -420 426 0
-428 -421 427 0
-428 -423 429 0
-428 -424 430 0
-428 -425 431 0
429 435 0
-429 -435 0
-429 -432 426 0
-429 -433 427 0
-429 -434 428 0
-429 -436 430 0
-429 -437 431 0
430 441 0
-430 -441 0
-430 -438 426 0
-430 -439 427 0
-430 -440 428 0
-430 -442 429 0
-430 -443 431 0
431 447 0
-431 -447 0
-431 -444 426 0
-431 -445 427 0
-431 -446 428 0
-431 -448 429 0
-431 -449 430 0
453 0
432 415 0
-432 -415 0
-432 -408 433 0
-432 -411 434 0
-432 -413 435 0
-432 -417 436 0
-432 -419 437 0
433 414 0
-433 -414 0
-433 -409 432 0
-433 -410 434 0
-433 -412 435 0
-433 -416 436 0
-433 -418 437 0
434 423 0
-434 -423 0
-434 -420 432 0
-434 -421 433 0
-434 -422 435 0
-434 -424 436 0
-434 -425 437 0
435 429 0
-435 -429 0
-435 -426 432 0
-435 -427 433 0
-435 -428 434 0
-435 -430 436 0
-435 -431 437 0
436 442 0
-436 -442 0
-436 -438 432 0
-436 -439 433 0
-436 -440 434 0
-436 -441 435 0
-436 -443 437 0
437 448 0
-437 -448 0
-437 -444 432 0
-437 -445 433 0
-437 -446 434 0
-437 -447 435 0
-437 -449 436 0
454 0
438 417 0
-438 -417 0
-438 -408 439 0
-438 -411 440 0
-438 -413 441 0
-438 -415 442 0
-438 -419 443 0
439 416 0
-439 -416 0
-439 -409 438 0
-439 -410 440 0
-439 -412 441 0
-439 -414 442 0
-439 -418 443 0
440 424 0
-440 -424 0
-440 -420 438 0
-440 -421 439 0
-440 -422 441 0
-440 -423 442 0
-440 -425 443 0
441 430 0
-441 -430 0
-441 -426 438 0
-441 -427 439 0
-441 -428 440 0
-441 -429 442 0
-441 -431 443 0
442 436 0
-442 -436 0
-442 -432 438 0
-442 -433 439 0
-442 -434 440 0
-442 -435 441 0
-442 -437 443 0
443 449 0
-443 -449 0
-443 -444 438 0
-443 -445 439 0
-443 -446 440 0
-443 -447 441 0
-443 -448 442 0
455 0
444 419 0
-444 -419 0
-444 -408 445 0
-444 -411 446 0
-444 -413 447 0
-444 -415 448 0
-444 -417 449 0
445 418 0
-445 -418 0
-445 -409 444 0
-445 -410 446 0
-445 -412 447 0
-445 -414 448 0
-445 -416 449 0
446 425 0
-446 -425 0
-446 -420 444 0
-446 -421 445 0
-446 -422 447 0
-446 -423 448 0
-446 -424 449 0
447 431 0
-447 -431 0
-447 -426 444 0
-447 -427 445 0
-447 -428 446 0
-447 -429 448 0
-447 -430 449 0
448 437 0
-448 -437 0
-448 -432 444 0
-448 -433 445 0
-448 -434 446 0
-448 -435 447 0
-448 -436 449 0
449 443 0
-449 -443 0
-449 -438 444 0
-449 -439 445 0
-449 -440 446 0
-449 -441 447 0
-449 -442 448 0
-64 0
-78 408 0
-456 411 0
-456 421 0
-411 -421 456 0
-457 413 0
-457 427 0
-413 -427 457 0
-458 415 0
-458 433 0
-415 -433 458 0
-459 417 0
-459 439 0
-417 -439 459 0
-460 419 0
-460 445 0
-419 -445 460 0
-78 -456 0
-78 -457 0
-78 -458 0
-78 -459 0
-78 -460 0
-408 78 456 457 458 459 460 0
-92 411 0
-461 408 0
-461 410 0
-408 -410 461 0
-462 413 0
-462 428 0
-413 -428 462 0
-463 415 0
-463 434 0
-415 -434 463 0
-464 417 0
-464 440 0
-417 -440 464 0
-465 419 0
-465 446 0
-419 -446 465 0
-92 -461 0
-92 -462 0
-92 -463 0
-92 -464 0
-92 -465 0
-411 92 461 462 463 464 465 0
-106 413 0
-466 408 0
-466 412 0
-408 -412 466 0
-467 411 0
-467 422 0
-411 -422 467 0
-468 415 0
-468 435 0
-415 -435 468 0
-469 417 0
-469 441 0
-417 -441 469 0
-470 419 0
-470 447 0
-419 -447 470 0
-106 -466 0
-106 -467 0
-106 -468 0
-106 -469 0
-106 -470 0
-413 106 466 467 468 469 470 0
-120 415 0
-471 408 0
-471 414 0
-408 -414 471 0
-472 411 0
-472 423 0
-411 -423 472 0
-473 413 0
-473 429 0
-413 -429 473 0
-474 417 0
-474 442 0
-417 -442 474 0
-475 419 0
-475 448 0
-419 -448 475 0
-120 -471 0
-120 -472 0
-120 -473 0
-120 -474 0
-120 -475 0
-415 120 471 472 473 474 475 0
-134 417 0
-476 408 0
-476 416 0
-408 -416 476 0
-477 411 0
-477 424 0
-411 -424 477 0
-478 413 0
-478 430 0
-413 -430 478 0
-479 415 0
-479 436 0
-415 -436 479 0
-480 419 0
-480 449 0
-419 -449 480 0
-134 -476 0
-134 -477 0
-134 -478 0
-134 -479 0
-134 -480 0
-417 134 476 477 478 479 480 0
-148 419 0
-481 408 0
-481 418 0
-408 -418 481 0
-482 411 0
-482 425 0
-411 -425 482 0
-483 413 0
-483 431 0
-413 -431 483 0
-484 415 0
-484 437 0
-415 -437 484 0
-485 417 0
-485 443 0
-417 -443 485 0
-148 -481 0
-148 -482 0
-148 -483 0
-148 -484 0
-148 -485 0
-419 148 481 482 483 484 485 0
-66 409 0
-486 410 0
-486 420 0
-410 -420 486 0
-487 412 0
-487 426 0
-412 -426 487 0
-488 414 0
-488 432 0
-414 -432 488 0
-489 416 0
-489 438 0
-416 -438 489 0
-490 418 0
-490 444 0
-418 -444 490 0
-66 -486 0
-66 -487 0
-66 -488 0
-66 -489 0
-66 -490 0
-409 66 486 487 488 489 490 0
-80 0
-94 410 0
-491 409 0
-491 411 0
-409 -411 491 0
-492 412 0
-492 428 0
-412 -428 492 0
-493 414 0
-493 434 0
-414 -434 493 0
-494 416 0
-494 440 0
-416 -440 494 0
-495 418 0
-495 446 0
-418 -446 495 0
-94 -491 0
-94 -492 0
-94 -493 0
-94 -494 0
-94 -495 0
-410 94 491 492 493 494 495 0
-108 412 0
-496 409 0
-496 413 0
-409 -413 496 0
-497 410 0
-497 422 0
-410 -422 497 0
-498 414 0
-498 435 0
-414 -435 498 0
-499 416 0
-499 441 0
-416 -441 499 0
-500 418 0
-500 447 0
-418 -447 500 0
-108 -496 0
-108 -497 0
-108 -498 0
-108 -499 0
-108 -500 0
-412 108 496 497 498 499 500 0
-122 414 0
-501 409 0
-501 415 0
-409 -415 501 0
-502 410 0
-502 423 0
-410 -423 502 0
-503 412 0
-503 429 0
-412 -429 503 0
-504 416 0
-504 442 0
-416 -442 504 0
-505 418 0
-505 448 0
-418 -448 505 0
-122 -501 0
-122 -502 0
-122 -503 0
-122 -504 0
-122 -505 0
-414 122 501 502 503 504 505 0
-136 416 0
-506 409 0
-506 417 0
-409 -417 506 0
-507 410 0
-507 424 0
-410 -424 507 0
-508 412 0
-508 430 0
-412 -430 508 0
-509 414 0
-509 436 0
-414 -436 509 0
-510 418 0
-510 449 0
-418 -449 510 0
-136 -506 0
-136 -507 0
-136 -508 0
-136 -509 0
-136 -510 0
-416 136 506 507 508 509 510 0
-150 418 0
-511 409 0
-511 419 0
-409 -419 511 0
-512 410 0
-512 425 0
-410 -425 512 0
-513 412 0
-513 431 0
-412 -431 513 0
-514 414 0
-514 437 0
-414 -437 514 0
-515 416 0
-515 443 0
-416 -443 515 0
-150 -511 0
-150 -512 0
-150 -513 0
-150 -514 0
-150 -515 0
-418 150 511 512 513 514 515 0
-68 420 0
-516 421 0
-516 409 0
-421 -409 516 0
-517 422 0
-517 426 0
-422 -426 517 0
-518 423 0
-518 432 0
-423 -432 518 0
-519 424 0
-519 438 0
-424 -438 519 0
-520 425 0
-520 444 0
-425 -444 520 0
-68 -516 0
-68 -517 0
-68 -518 0
-68 -519 0
-68 -520 0
-420 68 516 517 518 519 520 0
-82 421 0
-521 420 0
-521 408 0
-420 -408 521 0
-522 422 0
-522 427 0
-422 -427 522 0
-523 423 0
-523 433 0
-423 -433 523 0
-524 424 0
-524 439 0
-424 -439 524 0
-525 425 0
-525 445 0
-425 -445 525 0
-82 -521 0
-82 -522 0
-82 -523 0
-82 -524 0
-82 -525 0
-421 82 521 522 523 524 525 0
-96 0
-110 422 0
-526 420 0
-526 413 0
-420 -413 526 0
-527 421 0
-527 412 0
-421 -412 527 0
-528 423 0
-528 435 0
-423 -435 528 0
-529 424 0
-529 441 0
-424 -441 529 0
-530 425 0
-530 447 0
-425 -447 530 0
-110 -526 0
-110 -527 0
-110 -528 0
-110 -529 0
-110 -530 0
-422 110 526 527 528 529 530 0
-124 423 0
-531 420 0
-531 415 0
-420 -415 531 0
-532 421 0
-532 414 0
-421 -414 532 0
-533 422 0
-533 429 0
-422 -429 533 0
-534 424 0
-534 442 0
-424 -442 534 0
-535 425 0
-535 448 0
-425 -448 535 0
-124 -531 0
-124 -532 0
-124 -533 0
-124 -534 0
-124 -535 0
-423 124 531 532 533 534 535 0
-138 424 0
-536 420 0
-536 417 0
-420 -417 536 0
-537 421 0
-537 416 0
-421 -416 537 0
-538 422 0
-538 430 0
-422 -430 538 0
-539 423 0
-539 436 0
-423 -436 539 0
-540 425 0
-540 449 0
-425 -449 540 0
-138 -536 0
-138 -537 0
-138 -538 0
-138 -539 0
-138 -540 0
-424 138 536 537 538 539 540 0
-152 425 0
-541 420 0
-541 419 0
-420 -419 541 0
-542 421 0
-542 418 0
-421 -418 542 0
-543 422 0
-543 431 0
-422 -431 543 0
-544 423 0
-544 437 0
-423 -437 544 0
-545 424 0
-545 443 0
-424 -443 545 0
-152 -541 0
-152 -542 0
-152 -543 0
-152 -544 0
-152 -545 0
-425 152 541 542 543 544 545 0
-70 426 0
-546 427 0
-546 409 0
-427 -409 546 0
-547 428 0
-547 420 0
-428 -420 547 0
-548 429 0
-548 432 0
-429 -432 548 0
-549 430 0
-549 438 0
-430 -438 549 0
-550 431 0
-550 444 0
-431 -444 550 0
-70 -546 0
-70 -547 0
-70 -548 0
-70 -549 0
-70 -550 0
-426 70 546 547 548 549 550 0
-84 427 0
-551 426 0
-551 408 0
-426 -408 551 0
-552 428 0
-552 421 0
-428 -421 552 0
-553 429 0
-553 433 0
-429 -433 553 0
-554 430 0
-554 439 0
-430 -439 554 0
-555 431 0
-555 445 0
-431 -445 555 0
-84 -551 0
-84 -552 0
-84 -553 0
-84 -554 0
-84 -555 0
-427 84 551 552 553 554 555 0
-98 428 0
-556 426 0
-556 411 0
-426 -411 556 0
-557 427 0
-557 410 0
-427 -410 557 0
-558 429 0
-558 434 0
-429 -434 558 0
-559 430 0
-559 440 0
-430 -440 559 0
-560 431 0
-560 446 0
-431 -446 560 0
-98 -556 0
-98 -557 0
-98 -558 0
-98 -559 0
-98 -560 0
-428 98 556 557 558 559 560 0
-112 0
-126 429 0
-561 426 0
-561 415 0
-426 -415 561 0
-562 427 0
-562 414 0
-427 -414 562 0
-563 428 0
-563 423 0
-428 -423 563 0
-564 430 0
-564 442 0
-430 -442 564 0
-565 431 0
-565 448 0
-431 -448 565 0
-126 -561 0
-126 -562 0
-126 -563 0
-126 -564 0
-126 -565 0
-429 126 561 562 563 564 565 0
-140 430 0
-566 426 0
-566 417 0
-426 -417 566 0
-567 427 0
-567 416 0
-427 -416 567 0
-568 428 0
-568 424 0
-428 -424 568 0
-569 429 0
-569 436 0
-429 -436 569 0
-570 431 0
-570 449 0
-431 -449 570 0
-140 -566 0
-140 -567 0
-140 -568 0
-140 -569 0
-140 -570 0
-430 140 566 567 568 569 570 0
-154 431 0
-571 426 0
-571 419 0
-426 -419 571 0
-572 427 0
-572 418 0
-427 -418 572 0
-573 428 0
-573 425 0
-428 -425 573 0
-574 429 0
-574 437 0
-429 -437 574 0
-575 430 0
-575 443 0
-430 -443 575 0
-154 -571 0
-154 -572 0
-154 -573 0
-154 -574 0
-154 -575 0
-431 154 571 572 573 574 575 0
-72 432 0
-576 433 0
-576 409 0
-433 -409 576 0
-577 434 0
-577 420 0
-434 -420 577 0
-578 435 0
-578 426 0
-435 -426 578 0
-579 436 0
-579 438 0
-436 -438 579 0
-580 437 0
-580 444 0
-437 -444 580 0
-72 -576 0
-72 -577 0
-72 -578 0
-72 -579 0
-72 -580 0
-432 72 576 577 578 579 580 0
-86 433 0
-581 432 0
-581 408 0
-432 -408 581 0
-582 434 0
-582 421 0
-434 -421 582 0
-583 435 0
-583 427 0
-435 -427 583 0
-584 436 0
-584 439 0
-436 -439 584 0
-585 437 0
-585 445 0
-437 -445 585 0
-86 -581 0
-86 -582 0
-86 -583 0
-86 -584 0
-86 -585 0
-433 86 581 582 583 584 585 0
-100 434 0
-586 432 0
-586 411 0
-432 -411 586 0
-587 433 0
-587 410 0
-433 -410 587 0
-588 435 0
-588 428 0
-435 -428 588 0
-589 436 0
-589 440 0
-436 -440 589 0
-590 437 0
-590 446 0
-437 -446 590 0
-100 -586 0
-100 -587 0
-100 -588 0
-100 -589 0
-100 -590 0
-434 100 586 587 588 589 590 0
-114 435 0
-591 432 0
-591 413 0
-432 -413 591 0
-592 433 0
-592 412 0
-433 -412 592 0
-593 434 0
-593 422 0
-434 -422 593 0
-594 436 0
-594 441 0
-436 -441 594 0
-595 437 0
-595 447 0
-437 -447 595 0
-114 -591 0
-114 -592 0
-114 -593 0
-114 -594 0
-114 -595 0
-435 114 591 592 593 594 595 0
-128 0
-142 436 0
-596 432 0
-596 417 0
-432 -417 596 0
-597 433 0
-597 416 0
-433 -416 597 0
-598 434 0
-598 424 0
-434 -424 598 0
-599 435 0
-599 430 0
-435 -430 599 0
-600 437 0
-600 449 0
-437 -449 600 0
-142 -596 0
-142 -597 0
-142 -598 0
-142 -599 0
-142 -600 0
-436 142 596 597 598 599 600 0
-156 437 0
-601 432 0
-601 419 0
-432 -419 601 0
-602 433 0
-602 418 0
-433 -418 602 0
-603 434 0
-603 425 0
-434 -425 603 0
-604 435 0
-604 431 0
-435 -431 604 0
-605 436 0
-605 443 0
-436 -443 605 0
-156 -601 0
-156 -602 0
-156 -603 0
-156 -604 0
-156 -605 0
-437 156 601 602 603 604 605 0
-74 438 0
-606 439 0
-606 409 0
-439 -409 606 0
-607 440 0
-607 420 0
-440 -420 607 0
-608 441 0
-608 426 0
-441 -426 608 0
-609 442 0
-609 432 0
-442 -432 609 0
-610 443 0
-610 444 0
-443 -444 610 0
-74 -606 0
-74 -607 0
-74 -608 0
-74 -609 0
-74 -610 0
-438 74 606 607 608 609 610 0
-88 439 0
-611 438 0
-611 408 0
-438 -408 611 0
-612 440 0
-612 421 0
-440 -421 612 0
-613 441 0
-613 427 0
-441 -427 613 0
-614 442 0
-614 433 0
-442 -433 614 0
-615 443 0
-615 445 0
-443 -445 615 0
-88 -611 0
-88 -612 0
-88 -613 0
-88 -614 0
-88 -615 0
-439 88 611 612 613 614 615 0
-102 440 0
-616 438 0
-616 411 0
-438 -411 616 0
-617 439 0
-617 410 0
-439 -410 617 0
-618 441 0
-618 428 0
-441 -428 618 0
-619 442 0
-619 434 0
-442 -434 619 0
-620 443 0
-620 446 0
-443 -446 620 0
-102 -616 0
-102 -617 0
-102 -618 0
-102 -619 0
-102 -620 0
-440 102 616 617 618 619 620 0
-116 441 0
-621 438 0
-621 413 0
-438 -413 621 0
-622 439 0
-622 412 0
-439 -412 622 0
-623 440 0
-623 422 0
-440 -422 623 0
-624 442 0
-624 435 0
-442 -435 624 0
-625 443 0
-625 447 0
-443 -447 625 0
-116 -621 0
-116 -622 0
-116 -623 0
-116 -624 0
-116 -625 0
-441 116 621 622 623 624 625 0
-130 442 0
-626 438 0
-626 415 0
-438 -415 626 0
-627 439 0
-627 414 0
-439 -414 627 0
-628 440 0
-628 423 0
-440 -423 628 0
-629 441 0
-629 429 0
-441 -429 629 0
-630 443 0
-630 448 0
-443 -448 630 0
-130 -626 0
-130 -627 0
-130 -628 0
-130 -629 0
-130 -630 0
-442 130 626 627 628 629 630 0
-144 0
-158 443 0
-631 438 0
-631 419 0
-438 -419 631 0
-632 439 0
-632 418 0
-439 -418 632 0
-633 440 0
-633 425 0
-440 -425 633 0
-634 441 0
-634 431 0
-441 -431 634 0
-635 442 0
-635 437 0
-442 -437 635 0
-158 -631 0
-158 -632 0
-158 -633 0
-158 -634 0
-158 -635 0
-443 158 631 632 633 634 635 0
-76 444 0
-636 445 0
-636 409 0
-445 -409 636 0
-637 446 0
-637 420 0
-446 -420 637 0
-638 447 0
-638 426 0
-447 -426 638 0
-639 448 0
-639 432 0
-448 -432 639 0
-640 449 0
-640 438 0
-449 -438 640 0
-76 -636 0
-76 -637 0
-76 -638 0
-76 -639 0
-76 -640 0
-444 76 636 637 638 639 640 0
-90 445 0
-641 444 0
-641 408 0
-444 -408 641 0
-642 446 0
-642 421 0
-446 -421 642 0
-643 447 0
-643 427 0
-447 -427 643 0
-644 448 0
-644 433 0
-448 -433 644 0
-645 449 0
-645 439 0
-449 -439 645 0
-90 -641 0
-90 -642 0
-90 -643 0
-90 -644 0
-90 -645 0
-445 90 641 642 643 644 645 0
-104 446 0
-646 444 0
-646 411 0
-444 -411 646 0
-647 445 0
-647 410 0
-445 -410 647 0
-648 447 0
-648 428 0
-447 -428 648 0
-649 448 0
-649 434 0
-448 -434 649 0
-650 449 0
-650 440 0
-449 -440 650 0
-104 -646 0
-104 -647 0
-104 -648 0
-104 -649 0
-104 -650 0
-446 104 646 647 648 649 650 0
-118 447 0
-651 444 0
-651 413 0
-444 -413 651 0
-652 445 0
-652 412 0
-445 -412 652 0
-653 446 0
-653 422 0
-446 -422 653 0
-654 448 0
-654 435 0
-448 -435 654 0
-655 449 0
-655 441 0
-449 -441 655 0
-118 -651 0
-118 -652 0
-118 -653 0
-118 -654 0
-118 -655 0
-447 118 651 652 653 654 655 0
-132 448 0
-656 444 0
-656 415 0
-444 -415 656 0
-657 445 0
-657 414 0
-445 -414 657 0
-658 446 0
-658 423 0
-446 -423 658 0
-659 447 0
-659 429 0
-447 -429 659 0
-660 449 0
-660 442 0
-449 -442 660 0
-132 -656 0
-132 -657 0
-132 -658 0
-132 -659 0
-132 -660 0
-448 132 656 657 658 659 660 0
-146 449 0
-661 444 0
-661 417 0
-444 -417 661 0
-662 445 0
-662 416 0
-445 -416 662 0
-663 446 0
-663 424 0
-446 -424 663 0
-664 447 0
-664 430 0
-447 -430 664 0
-665 448 0
-665 436 0
-448 -436 665 0
-146 -661 0
-146 -662 0
-146 -663 0
-146 -664 0
-146 -665 0
-449 146 661 662 663 664 665 0
-160 0
