p cnf 920 3648
1 2 -3 0
4 5 -6 0
7 8 -9 0
10 11 -12 0
13 14 -15 0
16 17 -18 0
19 20 -21 0
22 23 -24 0
3 -1 0
6 -4 0
9 -7 0
12 -10 0
15 -13 0
18 -16 0
21 -19 0
24 -22 0
3 -2 0
6 -5 0
9 -8 0
12 -11 0
15 -14 0
18 -17 0
21 -20 0
24 -23 0
-1 -2 -25 0
-4 -5 -26 0
-7 -8 -27 0
-10 -11 -28 0
-13 -14 -29 0
-16 -17 -30 0
-19 -20 -31 0
-22 -23 -32 0
25 1 0
26 4 0
27 7 0
28 10 0
29 13 0
30 16 0
31 19 0
32 22 0
25 2 0
26 5 0
27 8 0
28 11 0
29 14 0
30 17 0
31 20 0
32 23 0
-33 1 34 0
-35 4 36 0
-37 7 38 0
-39 10 40 0
-41 13 42 0
-43 16 44 0
-45 19 46 0
-47 22 48 0
-34 33 0
-36 35 0
-38 37 0
-40 39 0
-42 41 0
-44 43 0
-46 45 0
-48 47 0
-34 -1 0
-36 -4 0
-38 -7 0
-40 -10 0
-42 -13 0
-44 -16 0
-46 -19 0
-48 -22 0
49 34 -50 0
51 36 -52 0
53 38 -54 0
55 40 -56 0
57 42 -58 0
59 44 -60 0
61 46 -62 0
63 48 -64 0
50 -49 0
52 -51 0
54 -53 0
56 -55 0
58 -57 0
60 -59 0
62 -61 0
64 -63 0
50 -34 0
52 -36 0
54 -38 0
56 -40 0
58 -42 0
60 -44 0
62 -46 0
64 -48 0
1 -49 -33 -65 0
4 -51 -35 -66 0
7 -53 -37 -67 0
10 -55 -39 -68 0
13 -57 -41 -69 0
16 -59 -43 -70 0
19 -61 -45 -71 0
22 -63 -47 -72 0
65 -1 0
66 -4 0
67 -7 0
68 -10 0
69 -13 0
70 -16 0
71 -19 0
72 -22 0
65 49 0
66 51 0
67 53 0
68 55 0
69 57 0
70 59 0
71 61 0
72 63 0
65 33 0
66 35 0
67 37 0
68 39 0
69 41 0
70 43 0
71 45 0
72 47 0
1 -73 -2 -74 0
4 -75 -5 -76 0
7 -77 -8 -78 0
10 -79 -11 -80 0
13 -81 -14 -82 0
16 -83 -17 -84 0
19 -85 -20 -86 0
22 -87 -23 -88 0
1 -89 -2 -90 0
4 -91 -5 -92 0
7 -93 -8 -94 0
10 -95 -11 -96 0
13 -97 -14 -98 0
16 -99 -17 -100 0
19 -101 -20 -102 0
22 -103 -23 -104 0
1 -105 -2 -106 0
4 -107 -5 -108 0
7 -109 -8 -110 0
10 -111 -11 -112 0
13 -113 -14 -114 0
16 -115 -17 -116 0
19 -117 -20 -118 0
22 -119 -23 -120 0
1 -121 -2 -122 0
4 -123 -5 -124 0
7 -125 -8 -126 0
10 -127 -11 -128 0
13 -129 -14 -130 0
16 -131 -17 -132 0
19 -133 -20 -134 0
22 -135 -23 -136 0
1 -137 -2 -138 0
4 -139 -5 -140 0
7 -141 -8 -142 0
10 -143 -11 -144 0
13 -145 -14 -146 0
16 -147 -17 -148 0
19 -149 -20 -150 0
22 -151 -23 -152 0
1 -153 -2 -154 0
4 -155 -5 -156 0
7 -157 -8 -158 0
10 -159 -11 -160 0
13 -161 -14 -162 0
16 -163 -17 -164 0
19 -165 -20 -166 0
22 -167 -23 -168 0
1 -169 -2 -170 0
4 -171 -5 -172 0
7 -173 -8 -174 0
10 -175 -11 -176 0
13 -177 -14 -178 0
16 -179 -17 -180 0
19 -181 -20 -182 0
22 -183 -23 -184 0
1 -185 -2 -186 0
4 -187 -5 -188 0
7 -189 -8 -190 0
10 -191 -11 -192 0
13 -193 -14 -194 0
16 -195 -17 -196 0
19 -197 -20 -198 0
22 -199 -23 -200 0
74 -1 0
76 -4 0
78 -7 0
80 -10 0
82 -13 0
84 -16 0
86 -19 0
88 -22 0
90 -1 0
92 -4 0
94 -7 0
96 -10 0
98 -13 0
100 -16 0
102 -19 0
104 -22 0
106 -1 0
108 -4 0
110 -7 0
112 -10 0
114 -13 0
116 -16 0
118 -19 0
120 -22 0
122 -1 0
124 -4 0
126 -7 0
128 -10 0
130 -13 0
132 -16 0
134 -19 0
136 -22 0
138 -1 0
140 -4 0
142 -7 0
144 -10 0
146 -13 0
148 -16 0
150 -19 0
152 -22 0
154 -1 0
156 -4 0
158 -7 0
160 -10 0
162 -13 0
164 -16 0
166 -19 0
168 -22 0
170 -1 0
172 -4 0
174 -7 0
176 -10 0
178 -13 0
180 -16 0
182 -19 0
184 -22 0
186 -1 0
188 -4 0
190 -7 0
192 -10 0
194 -13 0
196 -16 0
198 -19 0
200 -22 0
74 73 0
76 75 0
78 77 0
80 79 0
82 81 0
84 83 0
86 85 0
88 87 0
90 89 0
92 91 0
94 93 0
96 95 0
98 97 0
100 99 0
102 101 0
104 103 0
106 105 0
108 107 0
110 109 0
112 111 0
114 113 0
116 115 0
118 117 0
120 119 0
122 121 0
124 123 0
126 125 0
128 127 0
130 129 0
132 131 0
134 133 0
136 135 0
138 137 0
140 139 0
142 141 0
144 143 0
146 145 0
148 147 0
150 149 0
152 151 0
154 153 0
156 155 0
158 157 0
160 159 0
162 161 0
164 163 0
166 165 0
168 167 0
170 169 0
172 171 0
174 173 0
176 175 0
178 177 0
180 179 0
182 181 0
184 183 0
186 185 0
188 187 0
190 189 0
192 191 0
194 193 0
196 195 0
198 197 0
200 199 0
74 2 0
76 5 0
78 8 0
80 11 0
82 14 0
84 17 0
86 20 0
88 23 0
90 2 0
92 5 0
94 8 0
96 11 0
98 14 0
100 17 0
102 20 0
104 23 0
106 2 0
108 5 0
110 8 0
112 11 0
114 14 0
116 17 0
118 20 0
120 23 0
122 2 0
124 5 0
126 8 0
128 11 0
130 14 0
132 17 0
134 20 0
136 23 0
138 2 0
140 5 0
142 8 0
144 11 0
146 14 0
148 17 0
150 20 0
152 23 0
154 2 0
156 5 0
158 8 0
160 11 0
162 14 0
164 17 0
166 20 0
168 23 0
170 2 0
172 5 0
174 8 0
176 11 0
178 14 0
180 17 0
182 20 0
184 23 0
186 2 0
188 5 0
190 8 0
192 11 0
194 14 0
196 17 0
198 20 0
200 23 0
-73 -33 33 201 0
-75 -35 33 202 0
-77 -37 33 203 0
-79 -39 33 204 0
-81 -41 33 205 0
-83 -43 33 206 0
-85 -45 33 207 0
-87 -47 33 208 0
-89 -33 35 209 0
-91 -35 35 210 0
-93 -37 35 211 0
-95 -39 35 212 0
-97 -41 35 213 0
-99 -43 35 214 0
-101 -45 35 215 0
-103 -47 35 216 0
-105 -33 37 217 0
-107 -35 37 218 0
-109 -37 37 219 0
-111 -39 37 220 0
-113 -41 37 221 0
-115 -43 37 222 0
-117 -45 37 223 0
-119 -47 37 224 0
-121 -33 39 225 0
-123 -35 39 226 0
-125 -37 39 227 0
-127 -39 39 228 0
-129 -41 39 229 0
-131 -43 39 230 0
-133 -45 39 231 0
-135 -47 39 232 0
-137 -33 41 233 0
-139 -35 41 234 0
-141 -37 41 235 0
-143 -39 41 236 0
-145 -41 41 237 0
-147 -43 41 238 0
-149 -45 41 239 0
-151 -47 41 240 0
-153 -33 43 241 0
-155 -35 43 242 0
-157 -37 43 243 0
-159 -39 43 244 0
-161 -41 43 245 0
-163 -43 43 246 0
-165 -45 43 247 0
-167 -47 43 248 0
-169 -33 45 249 0
-171 -35 45 250 0
-173 -37 45 251 0
-175 -39 45 252 0
-177 -41 45 253 0
-179 -43 45 254 0
-181 -45 45 255 0
-183 -47 45 256 0
-185 -33 47 257 0
-187 -35 47 258 0
-189 -37 47 259 0
-191 -39 47 260 0
-193 -41 47 261 0
-195 -43 47 262 0
-197 -45 47 263 0
-199 -47 47 264 0
-201 73 0
-202 75 0
-203 77 0
-204 79 0
-205 81 0
-206 83 0
-207 85 0
-208 87 0
-209 89 0
-210 91 0
-211 93 0
-212 95 0
-213 97 0
-214 99 0
-215 101 0
-216 103 0
-217 105 0
-218 107 0
-219 109 0
-220 111 0
-221 113 0
-222 115 0
-223 117 0
-224 119 0
-225 121 0
-226 123 0
-227 125 0
-228 127 0
-229 129 0
-230 131 0
-231 133 0
-232 135 0
-233 137 0
-234 139 0
-235 141 0
-236 143 0
-237 145 0
-238 147 0
-239 149 0
-240 151 0
-241 153 0
-242 155 0
-243 157 0
-244 159 0
-245 161 0
-246 163 0
-247 165 0
-248 167 0
-249 169 0
-250 171 0
-251 173 0
-252 175 0
-253 177 0
-254 179 0
-255 181 0
-256 183 0
-257 185 0
-258 187 0
-259 189 0
-260 191 0
-261 193 0
-262 195 0
-263 197 0
-264 199 0
-201 33 0
-202 35 0
-203 37 0
-204 39 0
-205 41 0
-206 43 0
-207 45 0
-208 47 0
-209 33 0
-210 35 0
-211 37 0
-212 39 0
-213 41 0
-214 43 0
-215 45 0
-216 47 0
-217 33 0
-218 35 0
-219 37 0
-220 39 0
-221 41 0
-222 43 0
-223 45 0
-224 47 0
-225 33 0
-226 35 0
-227 37 0
-228 39 0
-229 41 0
-230 43 0
-231 45 0
-232 47 0
-233 33 0
-234 35 0
-235 37 0
-236 39 0
-237 41 0
-238 43 0
-239 45 0
-240 47 0
-241 33 0
-242 35 0
-243 37 0
-244 39 0
-245 41 0
-246 43 0
-247 45 0
-248 47 0
-249 33 0
-250 35 0
-251 37 0
-252 39 0
-253 41 0
-254 43 0
-255 45 0
-256 47 0
-257 33 0
-258 35 0
-259 37 0
-260 39 0
-261 41 0
-262 43 0
-263 45 0
-264 47 0
-201 -33 0
-202 -33 0
-203 -33 0
-204 -33 0
-205 -33 0
-206 -33 0
-207 -33 0
-208 -33 0
-209 -35 0
-210 -35 0
-211 -35 0
-212 -35 0
-213 -35 0
-214 -35 0
-215 -35 0
-216 -35 0
-217 -37 0
-218 -37 0
-219 -37 0
-220 -37 0
-221 -37 0
-222 -37 0
-223 -37 0
-224 -37 0
-225 -39 0
-226 -39 0
-227 -39 0
-228 -39 0
-229 -39 0
-230 -39 0
-231 -39 0
-232 -39 0
-233 -41 0
-234 -41 0
-235 -41 0
-236 -41 0
-237 -41 0
-238 -41 0
-239 -41 0
-240 -41 0
-241 -43 0
-242 -43 0
-243 -43 0
-244 -43 0
-245 -43 0
-246 -43 0
-247 -43 0
-248 -43 0
-249 -45 0
-250 -45 0
-251 -45 0
-252 -45 0
-253 -45 0
-254 -45 0
-255 -45 0
-256 -45 0
-257 -47 0
-258 -47 0
-259 -47 0
-260 -47 0
-261 -47 0
-262 -47 0
-263 -47 0
-264 -47 0
265 201 -266 0
267 202 -268 0
269 203 -270 0
271 204 -272 0
273 205 -274 0
275 206 -276 0
277 207 -278 0
279 208 -280 0
281 209 -282 0
283 210 -284 0
285 211 -286 0
287 212 -288 0
289 213 -290 0
291 214 -292 0
293 215 -294 0
295 216 -296 0
297 217 -298 0
299 218 -300 0
301 219 -302 0
303 220 -304 0
305 221 -306 0
307 222 -308 0
309 223 -310 0
311 224 -312 0
313 225 -314 0
315 226 -316 0
317 227 -318 0
319 228 -320 0
321 229 -322 0
323 230 -324 0
325 231 -326 0
327 232 -328 0
329 233 -330 0
331 234 -332 0
333 235 -334 0
335 236 -336 0
337 237 -338 0
339 238 -340 0
341 239 -342 0
343 240 -344 0
345 241 -346 0
347 242 -348 0
349 243 -350 0
351 244 -352 0
353 245 -354 0
355 246 -356 0
357 247 -358 0
359 248 -360 0
361 249 -362 0
363 250 -364 0
365 251 -366 0
367 252 -368 0
369 253 -370 0
371 254 -372 0
373 255 -374 0
375 256 -376 0
377 257 -378 0
379 258 -380 0
381 259 -382 0
383 260 -384 0
385 261 -386 0
387 262 -388 0
389 263 -390 0
391 264 -392 0
266 -265 0
268 -267 0
270 -269 0
272 -271 0
274 -273 0
276 -275 0
278 -277 0
280 -279 0
282 -281 0
284 -283 0
286 -285 0
288 -287 0
290 -289 0
292 -291 0
294 -293 0
296 -295 0
298 -297 0
300 -299 0
302 -301 0
304 -303 0
306 -305 0
308 -307 0
310 -309 0
312 -311 0
314 -313 0
316 -315 0
318 -317 0
320 -319 0
322 -321 0
324 -323 0
326 -325 0
328 -327 0
330 -329 0
332 -331 0
334 -333 0
336 -335 0
338 -337 0
340 -339 0
342 -341 0
344 -343 0
346 -345 0
348 -347 0
350 -349 0
352 -351 0
354 -353 0
356 -355 0
358 -357 0
360 -359 0
362 -361 0
364 -363 0
366 -365 0
368 -367 0
370 -369 0
372 -371 0
374 -373 0
376 -375 0
378 -377 0
380 -379 0
382 -381 0
384 -383 0
386 -385 0
388 -387 0
390 -389 0
392 -391 0
266 -201 0
268 -202 0
270 -203 0
272 -204 0
274 -205 0
276 -206 0
278 -207 0
280 -208 0
282 -209 0
284 -210 0
286 -211 0
288 -212 0
290 -213 0
292 -214 0
294 -215 0
296 -216 0
298 -217 0
300 -218 0
302 -219 0
304 -220 0
306 -221 0
308 -222 0
310 -223 0
312 -224 0
314 -225 0
316 -226 0
318 -227 0
320 -228 0
322 -229 0
324 -230 0
326 -231 0
328 -232 0
330 -233 0
332 -234 0
334 -235 0
336 -236 0
338 -237 0
340 -238 0
342 -239 0
344 -240 0
346 -241 0
348 -242 0
350 -243 0
352 -244 0
354 -245 0
356 -246 0
358 -247 0
360 -248 0
362 -249 0
364 -250 0
366 -251 0
368 -252 0
370 -253 0
372 -254 0
374 -255 0
376 -256 0
378 -257 0
380 -258 0
382 -259 0
384 -260 0
386 -261 0
388 -262 0
390 -263 0
392 -264 0
33 -265 -73 -33 -393 0
33 -267 -75 -35 -394 0
33 -269 -77 -37 -395 0
33 -271 -79 -39 -396 0
33 -273 -81 -41 -397 0
33 -275 -83 -43 -398 0
33 -277 -85 -45 -399 0
33 -279 -87 -47 -400 0
35 -281 -89 -33 -401 0
35 -283 -91 -35 -402 0
35 -285 -93 -37 -403 0
35 -287 -95 -39 -404 0
35 -289 -97 -41 -405 0
35 -291 -99 -43 -406 0
35 -293 -101 -45 -407 0
35 -295 -103 -47 -408 0
37 -297 -105 -33 -409 0
37 -299 -107 -35 -410 0
37 -301 -109 -37 -411 0
37 -303 -111 -39 -412 0
37 -305 -113 -41 -413 0
37 -307 -115 -43 -414 0
37 -309 -117 -45 -415 0
37 -311 -119 -47 -416 0
39 -313 -121 -33 -417 0
39 -315 -123 -35 -418 0
39 -317 -125 -37 -419 0
39 -319 -127 -39 -420 0
39 -321 -129 -41 -421 0
39 -323 -131 -43 -422 0
39 -325 -133 -45 -423 0
39 -327 -135 -47 -424 0
41 -329 -137 -33 -425 0
41 -331 -139 -35 -426 0
41 -333 -141 -37 -427 0
41 -335 -143 -39 -428 0
41 -337 -145 -41 -429 0
41 -339 -147 -43 -430 0
41 -341 -149 -45 -431 0
41 -343 -151 -47 -432 0
43 -345 -153 -33 -433 0
43 -347 -155 -35 -434 0
43 -349 -157 -37 -435 0
43 -351 -159 -39 -436 0
43 -353 -161 -41 -437 0
43 -355 -163 -43 -438 0
43 -357 -165 -45 -439 0
43 -359 -167 -47 -440 0
45 -361 -169 -33 -441 0
45 -363 -171 -35 -442 0
45 -365 -173 -37 -443 0
45 -367 -175 -39 -444 0
45 -369 -177 -41 -445 0
45 -371 -179 -43 -446 0
45 -373 -181 -45 -447 0
45 -375 -183 -47 -448 0
47 -377 -185 -33 -449 0
47 -379 -187 -35 -450 0
47 -381 -189 -37 -451 0
47 -383 -191 -39 -452 0
47 -385 -193 -41 -453 0
47 -387 -195 -43 -454 0
47 -389 -197 -45 -455 0
47 -391 -199 -47 -456 0
393 -33 0
394 -33 0
395 -33 0
396 -33 0
397 -33 0
398 -33 0
399 -33 0
400 -33 0
401 -35 0
402 -35 0
403 -35 0
404 -35 0
405 -35 0
406 -35 0
407 -35 0
408 -35 0
409 -37 0
410 -37 0
411 -37 0
412 -37 0
413 -37 0
414 -37 0
415 -37 0
416 -37 0
417 -39 0
418 -39 0
419 -39 0
420 -39 0
421 -39 0
422 -39 0
423 -39 0
424 -39 0
425 -41 0
426 -41 0
427 -41 0
428 -41 0
429 -41 0
430 -41 0
431 -41 0
432 -41 0
433 -43 0
434 -43 0
435 -43 0
436 -43 0
437 -43 0
438 -43 0
439 -43 0
440 -43 0
441 -45 0
442 -45 0
443 -45 0
444 -45 0
445 -45 0
446 -45 0
447 -45 0
448 -45 0
449 -47 0
450 -47 0
451 -47 0
452 -47 0
453 -47 0
454 -47 0
455 -47 0
456 -47 0
393 265 0
394 267 0
395 269 0
396 271 0
397 273 0
398 275 0
399 277 0
400 279 0
401 281 0
402 283 0
403 285 0
404 287 0
405 289 0
406 291 0
407 293 0
408 295 0
409 297 0
410 299 0
411 301 0
412 303 0
413 305 0
414 307 0
415 309 0
416 311 0
417 313 0
418 315 0
419 317 0
420 319 0
421 321 0
422 323 0
423 325 0
424 327 0
425 329 0
426 331 0
427 333 0
428 335 0
429 337 0
430 339 0
431 341 0
432 343 0
433 345 0
434 347 0
435 349 0
436 351 0
437 353 0
438 355 0
439 357 0
440 359 0
441 361 0
442 363 0
443 365 0
444 367 0
445 369 0
446 371 0
447 373 0
448 375 0
449 377 0
450 379 0
451 381 0
452 383 0
453 385 0
454 387 0
455 389 0
456 391 0
393 73 0
394 75 0
395 77 0
396 79 0
397 81 0
398 83 0
399 85 0
400 87 0
401 89 0
402 91 0
403 93 0
404 95 0
405 97 0
406 99 0
407 101 0
408 103 0
409 105 0
410 107 0
411 109 0
412 111 0
413 113 0
414 115 0
415 117 0
416 119 0
417 121 0
418 123 0
419 125 0
420 127 0
421 129 0
422 131 0
423 133 0
424 135 0
425 137 0
426 139 0
427 141 0
428 143 0
429 145 0
430 147 0
431 149 0
432 151 0
433 153 0
434 155 0
435 157 0
436 159 0
437 161 0
438 163 0
439 165 0
440 167 0
441 169 0
442 171 0
443 173 0
444 175 0
445 177 0
446 179 0
447 181 0
448 183 0
449 185 0
450 187 0
451 189 0
452 191 0
453 193 0
454 195 0
455 197 0
456 199 0
393 33 0
394 35 0
395 37 0
396 39 0
397 41 0
398 43 0
399 45 0
400 47 0
401 33 0
402 35 0
403 37 0
404 39 0
405 41 0
406 43 0
407 45 0
408 47 0
409 33 0
410 35 0
411 37 0
412 39 0
413 41 0
414 43 0
415 45 0
416 47 0
417 33 0
418 35 0
419 37 0
420 39 0
421 41 0
422 43 0
423 45 0
424 47 0
425 33 0
426 35 0
427 37 0
428 39 0
429 41 0
430 43 0
431 45 0
432 47 0
433 33 0
434 35 0
435 37 0
436 39 0
437 41 0
438 43 0
439 45 0
440 47 0
441 33 0
442 35 0
443 37 0
444 39 0
445 41 0
446 43 0
447 45 0
448 47 0
449 33 0
450 35 0
451 37 0
452 39 0
453 41 0
454 43 0
455 45 0
456 47 0
-3 -25 -50 -65 -74 -266 -393 457 0
-3 -25 -50 -65 -76 -268 -394 458 0
-3 -25 -50 -65 -78 -270 -395 459 0
-3 -25 -50 -65 -80 -272 -396 460 0
-3 -25 -50 -65 -82 -274 -397 461 0
-3 -25 -50 -65 -84 -276 -398 462 0
-3 -25 -50 -65 -86 -278 -399 463 0
-3 -25 -50 -65 -88 -280 -400 464 0
-6 -26 -52 -66 -90 -282 -401 465 0
-6 -26 -52 -66 -92 -284 -402 466 0
-6 -26 -52 -66 -94 -286 -403 467 0
-6 -26 -52 -66 -96 -288 -404 468 0
-6 -26 -52 -66 -98 -290 -405 469 0
-6 -26 -52 -66 -100 -292 -406 470 0
-6 -26 -52 -66 -102 -294 -407 471 0
-6 -26 -52 -66 -104 -296 -408 472 0
-9 -27 -54 -67 -106 -298 -409 473 0
-9 -27 -54 -67 -108 -300 -410 474 0
-9 -27 -54 -67 -110 -302 -411 475 0
-9 -27 -54 -67 -112 -304 -412 476 0
-9 -27 -54 -67 -114 -306 -413 477 0
-9 -27 -54 -67 -116 -308 -414 478 0
-9 -27 -54 -67 -118 -310 -415 479 0
-9 -27 -54 -67 -120 -312 -416 480 0
-12 -28 -56 -68 -122 -314 -417 481 0
-12 -28 -56 -68 -124 -316 -418 482 0
-12 -28 -56 -68 -126 -318 -419 483 0
-12 -28 -56 -68 -128 -320 -420 484 0
-12 -28 -56 -68 -130 -322 -421 485 0
-12 -28 -56 -68 -132 -324 -422 486 0
-12 -28 -56 -68 -134 -326 -423 487 0
-12 -28 -56 -68 -136 -328 -424 488 0
-15 -29 -58 -69 -138 -330 -425 489 0
-15 -29 -58 -69 -140 -332 -426 490 0
-15 -29 -58 -69 -142 -334 -427 491 0
-15 -29 -58 -69 -144 -336 -428 492 0
-15 -29 -58 -69 -146 -338 -429 493 0
-15 -29 -58 -69 -148 -340 -430 494 0
-15 -29 -58 -69 -150 -342 -431 495 0
-15 -29 -58 -69 -152 -344 -432 496 0
-18 -30 -60 -70 -154 -346 -433 497 0
-18 -30 -60 -70 -156 -348 -434 498 0
-18 -30 -60 -70 -158 -350 -435 499 0
-18 -30 -60 -70 -160 -352 -436 500 0
-18 -30 -60 -70 -162 -354 -437 501 0
-18 -30 -60 -70 -164 -356 -438 502 0
-18 -30 -60 -70 -166 -358 -439 503 0
-18 -30 -60 -70 -168 -360 -440 504 0
-21 -31 -62 -71 -170 -362 -441 505 0
-21 -31 -62 -71 -172 -364 -442 506 0
-21 -31 -62 -71 -174 -366 -443 507 0
-21 -31 -62 -71 -176 -368 -444 508 0
-21 -31 -62 -71 -178 -370 -445 509 0
-21 -31 -62 -71 -180 -372 -446 510 0
-21 -31 -62 -71 -182 -374 -447 511 0
-21 -31 -62 -71 -184 -376 -448 512 0
-24 -32 -64 -72 -186 -378 -449 513 0
-24 -32 -64 -72 -188 -380 -450 514 0
-24 -32 -64 -72 -190 -382 -451 515 0
-24 -32 -64 -72 -192 -384 -452 516 0
-24 -32 -64 -72 -194 -386 -453 517 0
-24 -32 -64 -72 -196 -388 -454 518 0
-24 -32 -64 -72 -198 -390 -455 519 0
-24 -32 -64 -72 -200 -392 -456 520 0
-457 3 0
-458 3 0
-459 3 0
-460 3 0
-461 3 0
-462 3 0
-463 3 0
-464 3 0
-465 6 0
-466 6 0
-467 6 0
-468 6 0
-469 6 0
-470 6 0
-471 6 0
-472 6 0
-473 9 0
-474 9 0
-475 9 0
-476 9 0
-477 9 0
-478 9 0
-479 9 0
-480 9 0
-481 12 0
-482 12 0
-483 12 0
-484 12 0
-485 12 0
-486 12 0
-487 12 0
-488 12 0
-489 15 0
-490 15 0
-491 15 0
-492 15 0
-493 15 0
-494 15 0
-495 15 0
-496 15 0
-497 18 0
-498 18 0
-499 18 0
-500 18 0
-501 18 0
-502 18 0
-503 18 0
-504 18 0
-505 21 0
-506 21 0
-507 21 0
-508 21 0
-509 21 0
-510 21 0
-511 21 0
-512 21 0
-513 24 0
-514 24 0
-515 24 0
-516 24 0
-517 24 0
-518 24 0
-519 24 0
-520 24 0
-457 25 0
-458 25 0
-459 25 0
-460 25 0
-461 25 0
-462 25 0
-463 25 0
-464 25 0
-465 26 0
-466 26 0
-467 26 0
-468 26 0
-469 26 0
-470 26 0
-471 26 0
-472 26 0
-473 27 0
-474 27 0
-475 27 0
-476 27 0
-477 27 0
-478 27 0
-479 27 0
-480 27 0
-481 28 0
-482 28 0
-483 28 0
-484 28 0
-485 28 0
-486 28 0
-487 28 0
-488 28 0
-489 29 0
-490 29 0
-491 29 0
-492 29 0
-493 29 0
-494 29 0
-495 29 0
-496 29 0
-497 30 0
-498 30 0
-499 30 0
-500 30 0
-501 30 0
-502 30 0
-503 30 0
-504 30 0
-505 31 0
-506 31 0
-507 31 0
-508 31 0
-509 31 0
-510 31 0
-511 31 0
-512 31 0
-513 32 0
-514 32 0
-515 32 0
-516 32 0
-517 32 0
-518 32 0
-519 32 0
-520 32 0
-457 50 0
-458 50 0
-459 50 0
-460 50 0
-461 50 0
-462 50 0
-463 50 0
-464 50 0
-465 52 0
-466 52 0
-467 52 0
-468 52 0
-469 52 0
-470 52 0
-471 52 0
-472 52 0
-473 54 0
-474 54 0
-475 54 0
-476 54 0
-477 54 0
-478 54 0
-479 54 0
-480 54 0
-481 56 0
-482 56 0
-483 56 0
-484 56 0
-485 56 0
-486 56 0
-487 56 0
-488 56 0
-489 58 0
-490 58 0
-491 58 0
-492 58 0
-493 58 0
-494 58 0
-495 58 0
-496 58 0
-497 60 0
-498 60 0
-499 60 0
-500 60 0
-501 60 0
-502 60 0
-503 60 0
-504 60 0
-505 62 0
-506 62 0
-507 62 0
-508 62 0
-509 62 0
-510 62 0
-511 62 0
-512 62 0
-513 64 0
-514 64 0
-515 64 0
-516 64 0
-517 64 0
-518 64 0
-519 64 0
-520 64 0
-457 65 0
-458 65 0
-459 65 0
-460 65 0
-461 65 0
-462 65 0
-463 65 0
-464 65 0
-465 66 0
-466 66 0
-467 66 0
-468 66 0
-469 66 0
-470 66 0
-471 66 0
-472 66 0
-473 67 0
-474 67 0
-475 67 0
-476 67 0
-477 67 0
-478 67 0
-479 67 0
-480 67 0
-481 68 0
-482 68 0
-483 68 0
-484 68 0
-485 68 0
-486 68 0
-487 68 0
-488 68 0
-489 69 0
-490 69 0
-491 69 0
-492 69 0
-493 69 0
-494 69 0
-495 69 0
-496 69 0
-497 70 0
-498 70 0
-499 70 0
-500 70 0
-501 70 0
-502 70 0
-503 70 0
-504 70 0
-505 71 0
-506 71 0
-507 71 0
-508 71 0
-509 71 0
-510 71 0
-511 71 0
-512 71 0
-513 72 0
-514 72 0
-515 72 0
-516 72 0
-517 72 0
-518 72 0
-519 72 0
-520 72 0
-457 74 0
-458 76 0
-459 78 0
-460 80 0
-461 82 0
-462 84 0
-463 86 0
-464 88 0
-465 90 0
-466 92 0
-467 94 0
-468 96 0
-469 98 0
-470 100 0
-471 102 0
-472 104 0
-473 106 0
-474 108 0
-475 110 0
-476 112 0
-477 114 0
-478 116 0
-479 118 0
-480 120 0
-481 122 0
-482 124 0
-483 126 0
-484 128 0
-485 130 0
-486 132 0
-487 134 0
-488 136 0
-489 138 0
-490 140 0
-491 142 0
-492 144 0
-493 146 0
-494 148 0
-495 150 0
-496 152 0
-497 154 0
-498 156 0
-499 158 0
-500 160 0
-501 162 0
-502 164 0
-503 166 0
-504 168 0
-505 170 0
-506 172 0
-507 174 0
-508 176 0
-509 178 0
-510 180 0
-511 182 0
-512 184 0
-513 186 0
-514 188 0
-515 190 0
-516 192 0
-517 194 0
-518 196 0
-519 198 0
-520 200 0
-457 266 0
-458 268 0
-459 270 0
-460 272 0
-461 274 0
-462 276 0
-463 278 0
-464 280 0
-465 282 0
-466 284 0
-467 286 0
-468 288 0
-469 290 0
-470 292 0
-471 294 0
-472 296 0
-473 298 0
-474 300 0
-475 302 0
-476 304 0
-477 306 0
-478 308 0
-479 310 0
-480 312 0
-481 314 0
-482 316 0
-483 318 0
-484 320 0
-485 322 0
-486 324 0
-487 326 0
-488 328 0
-489 330 0
-490 332 0
-491 334 0
-492 336 0
-493 338 0
-494 340 0
-495 342 0
-496 344 0
-497 346 0
-498 348 0
-499 350 0
-500 352 0
-501 354 0
-502 356 0
-503 358 0
-504 360 0
-505 362 0
-506 364 0
-507 366 0
-508 368 0
-509 370 0
-510 372 0
-511 374 0
-512 376 0
-513 378 0
-514 380 0
-515 382 0
-516 384 0
-517 386 0
-518 388 0
-519 390 0
-520 392 0
-457 393 0
-458 394 0
-459 395 0
-460 396 0
-461 397 0
-462 398 0
-463 399 0
-464 400 0
-465 401 0
-466 402 0
-467 403 0
-468 404 0
-469 405 0
-470 406 0
-471 407 0
-472 408 0
-473 409 0
-474 410 0
-475 411 0
-476 412 0
-477 413 0
-478 414 0
-479 415 0
-480 416 0
-481 417 0
-482 418 0
-483 419 0
-484 420 0
-485 421 0
-486 422 0
-487 423 0
-488 424 0
-489 425 0
-490 426 0
-491 427 0
-492 428 0
-493 429 0
-494 430 0
-495 431 0
-496 432 0
-497 433 0
-498 434 0
-499 435 0
-500 436 0
-501 437 0
-502 438 0
-503 439 0
-504 440 0
-505 441 0
-506 442 0
-507 443 0
-508 444 0
-509 445 0
-510 446 0
-511 447 0
-512 448 0
-513 449 0
-514 450 0
-515 451 0
-516 452 0
-517 453 0
-518 454 0
-519 455 0
-520 456 0
457 0
458 0
459 0
460 0
461 0
462 0
463 0
464 0
465 0
466 0
467 0
468 0
469 0
470 0
471 0
472 0
473 0
474 0
475 0
476 0
477 0
478 0
479 0
480 0
481 0
482 0
483 0
484 0
485 0
486 0
487 0
488 0
489 0
490 0
491 0
492 0
493 0
494 0
495 0
496 0
497 0
498 0
499 0
500 0
501 0
502 0
503 0
504 0
505 0
506 0
507 0
508 0
509 0
510 0
511 0
512 0
513 0
514 0
515 0
516 0
517 0
518 0
519 0
520 0
521 0
522 523 0
-522 -523 0
-522 -524 525 0
-522 -526 527 0
-522 -528 529 0
-522 -530 531 0
-522 -532 533 0
-522 -534 535 0
525 536 0
-525 -536 0
-525 -537 522 0
-525 -538 527 0
-525 -539 529 0
-525 -540 531 0
-525 -541 533 0
-525 -542 535 0
527 543 0
-527 -543 0
-527 -544 522 0
-527 -545 525 0
-527 -546 529 0
-527 -547 531 0
-527 -548 533 0
-527 -549 535 0
529 550 0
-529 -550 0
-529 -551 522 0
-529 -552 525 0
-529 -553 527 0
-529 -554 531 0
-529 -555 533 0
-529 -556 535 0
531 557 0
-531 -557 0
-531 -558 522 0
-531 -559 525 0
-531 -560 527 0
-531 -561 529 0
-531 -562 533 0
-531 -563 535 0
533 564 0
-533 -564 0
-533 -565 522 0
-533 -566 525 0
-533 -567 527 0
-533 -568 529 0
-533 -569 531 0
-533 -570 535 0
535 571 0
-535 -571 0
-535 -572 522 0
-535 -573 525 0
-535 -574 527 0
-535 -575 529 0
-535 -576 531 0
-535 -577 533 0
578 0
523 522 0
-523 -522 0
-523 -525 524 0
-523 -527 526 0
-523 -529 528 0
-523 -531 530 0
-523 -533 532 0
-523 -535 534 0
524 537 0
-524 -537 0
-524 -536 523 0
-524 -538 526 0
-524 -539 528 0
-524 -540 530 0
-524 -541 532 0
-524 -542 534 0
526 544 0
-526 -544 0
-526 -543 523 0
-526 -545 524 0
-526 -546 528 0
-526 -547 530 0
-526 -548 532 0
-526 -549 534 0
528 551 0
-528 -551 0
-528 -550 523 0
-528 -552 524 0
-528 -553 526 0
-528 -554 530 0
-528 -555 532 0
-528 -556 534 0
530 558 0
-530 -558 0
-530 -557 523 0
-530 -559 524 0
-530 -560 526 0
-530 -561 528 0
-530 -562 532 0
-530 -563 534 0
532 565 0
-532 -565 0
-532 -564 523 0
-532 -566 524 0
-532 -567 526 0
-532 -568 528 0
-532 -569 530 0
-532 -570 534 0
534 572 0
-534 -572 0
-534 -571 523 0
-534 -573 524 0
-534 -574 526 0
-534 -575 528 0
-534 -576 530 0
-534 -577 532 0
579 0
536 525 0
-536 -525 0
-536 -522 537 0
-536 -527 538 0
-536 -529 539 0
-536 -531 540 0
-536 -533 541 0
-536 -535 542 0
537 524 0
-537 -524 0
-537 -523 536 0
-537 -526 538 0
-537 -528 539 0
-537 -530 540 0
-537 -532 541 0
-537 -534 542 0
538 545 0
-538 -545 0
-538 -543 536 0
-538 -544 537 0
-538 -546 539 0
-538 -547 540 0
-538 -548 541 0
-538 -549 542 0
539 552 0
-539 -552 0
-539 -550 536 0
-539 -551 537 0
-539 -553 538 0
-539 -554 540 0
-539 -555 541 0
-539 -556 542 0
540 559 0
-540 -559 0
-540 -557 536 0
-540 -558 537 0
-540 -560 538 0
-540 -561 539 0
-540 -562 541 0
-540 -563 542 0
541 566 0
-541 -566 0
-541 -564 536 0
-541 -565 537 0
-541 -567 538 0
-541 -568 539 0
-541 -569 540 0
-541 -570 542 0
542 573 0
-542 -573 0
-542 -571 536 0
-542 -572 537 0
-542 -574 538 0
-542 -575 539 0
-542 -576 540 0
-542 -577 541 0
580 0
543 527 0
-543 -527 0
-543 -522 544 0
-543 -525 545 0
-543 -529 546 0
-543 -531 547 0
-543 -533 548 0
-543 -535 549 0
544 526 0
-544 -526 0
-544 -523 543 0
-544 -524 545 0
-544 -528 546 0
-544 -530 547 0
-544 -532 548 0
-544 -534 549 0
545 538 0
-545 -538 0
-545 -536 543 0
-545 -537 544 0
-545 -539 546 0
-545 -540 547 0
-545 -541 548 0
-545 -542 549 0
546 553 0
-546 -553 0
-546 -550 543 0
-546 -551 544 0
-546 -552 545 0
-546 -554 547 0
-546 -555 548 0
-546 -556 549 0
547 560 0
-547 -560 0
-547 -557 543 0
-547 -558 544 0
-547 -559 545 0
-547 -561 546 0
-547 -562 548 0
-547 -563 549 0
548 567 0
-548 -567 0
-548 -564 543 0
-548 -565 544 0
-548 -566 545 0
-548 -568 546 0
-548 -569 547 0
-548 -570 549 0
549 574 0
-549 -574 0
-549 -571 543 0
-549 -572 544 0
-549 -573 545 0
-549 -575 546 0
-549 -576 547 0
-549 -577 548 0
581 0
550 529 0
-550 -529 0
-550 -522 551 0
-550 -525 552 0
-550 -527 553 0
-550 -531 554 0
-550 -533 555 0
-550 -535 556 0
551 528 0
-551 -528 0
-551 -523 550 0
-551 -524 552 0
-551 -526 553 0
-551 -530 554 0
-551 -532 555 0
-551 -534 556 0
552 539 0
-552 -539 0
-552 -536 550 0
-552 -537 551 0
-552 -538 553 0
-552 -540 554 0
-552 -541 555 0
-552 -542 556 0
553 546 0
-553 -546 0
-553 -543 550 0
-553 -544 551 0
-553 -545 552 0
-553 -547 554 0
-553 -548 555 0
-553 -549 556 0
554 561 0
-554 -561 0
-554 -557 550 0
-554 -558 551 0
-554 -559 552 0
-554 -560 553 0
-554 -562 555 0
-554 -563 556 0
555 568 0
-555 -568 0
-555 -564 550 0
-555 -565 551 0
-555 -566 552 0
-555 -567 553 0
-555 -569 554 0
-555 -570 556 0
556 575 0
-556 -575 0
-556 -571 550 0
-556 -572 551 0
-556 -573 552 0
-556 -574 553 0
-556 -576 554 0
-556 -577 555 0
582 0
557 531 0
-557 -531 0
-557 -522 558 0
-557 -525 559 0
-557 -527 560 0
-557 -529 561 0
-557 -533 562 0
-557 -535 563 0
558 530 0
-558 -530 0
-558 -523 557 0
-558 -524 559 0
-558 -526 560 0
-558 -528 561 0
-558 -532 562 0
-558 -534 563 0
559 540 0
-559 -540 0
-559 -536 557 0
-559 -537 558 0
-559 -538 560 0
-559 -539 561 0
-559 -541 562 0
-559 -542 563 0
560 547 0
-560 -547 0
-560 -543 557 0
-560 -544 558 0
-560 -545 559 0
-560 -546 561 0
-560 -548 562 0
-560 -549 563 0
561 554 0
-561 -554 0
-561 -550 557 0
-561 -551 558 0
-561 -552 559 0
-561 -553 560 0
-561 -555 562 0
-561 -556 563 0
562 569 0
-562 -569 0
-562 -564 557 0
-562 -565 558 0
-562 -566 559 0
-562 -567 560 0
-562 -568 561 0
-562 -570 563 0
563 576 0
-563 -576 0
-563 -571 557 0
-563 -572 558 0
-563 -573 559 0
-563 -574 560 0
-563 -575 561 0
-563 -577 562 0
583 0
564 533 0
-564 -533 0
-564 -522 565 0
-564 -525 566 0
-564 -527 567 0
-564 -529 568 0
-564 -531 569 0
-564 -535 570 0
565 532 0
-565 -532 0
-565 -523 564 0
-565 -524 566 0
-565 -526 567 0
-565 -528 568 0
-565 -530 569 0
-565 -534 570 0
566 541 0
-566 -541 0
-566 -536 564 0
-566 -537 565 0
-566 -538 567 0
-566 -539 568 0
-566 -540 569 0
-566 -542 570 0
567 548 0
-567 -548 0
-567 -543 564 0
-567 -544 565 0
-567 -545 566 0
-567 -546 568 0
-567 -547 569 0
-567 -549 570 0
568 555 0
-568 -555 0
-568 -550 564 0
-568 -551 565 0
-568 -552 566 0
-568 -553 567 0
-568 -554 569 0
-568 -556 570 0
569 562 0
-569 -562 0
-569 -557 564 0
-569 -558 565 0
-569 -559 566 0
-569 -560 567 0
-569 -561 568 0
-569 -563 570 0
570 577 0
-570 -577 0
-570 -571 564 0
-570 -572 565 0
-570 -573 566 0
-570 -574 567 0
-570 -575 568 0
-570 -576 569 0
584 0
571 535 0
-571 -535 0
-571 -522 572 0
-571 -525 573 0
-571 -527 574 0
-571 -529 575 0
-571 -531 576 0
-571 -533 577 0
572 534 0
-572 -534 0
-572 -523 571 0
-572 -524 573 0
-572 -526 574 0
-572 -528 575 0
-572 -530 576 0
-572 -532 577 0
573 542 0
-573 -542 0
-573 -536 571 0
-573 -537 572 0
-573 -538 574 0
-573 -539 575 0
-573 -540 576 0
-573 -541 577 0
574 549 0
-574 -549 0
-574 -543 571 0
-574 -544 572 0
-574 -545 573 0
-574 -546 575 0
-574 -547 576 0
-574 -548 577 0
575 556 0
-575 -556 0
-575 -550 571 0
-575 -551 572 0
-575 -552 573 0
-575 -553 574 0
-575 -554 576 0
-575 -555 577 0
576 563 0
-576 -563 0
-576 -557 571 0
-576 -558 572 0
-576 -559 573 0
-576 -560 574 0
-576 -561 575 0
-576 -562 577 0
577 570 0
-577 -570 0
-577 -564 571 0
-577 -565 572 0
-577 -566 573 0
-577 -567 574 0
-577 -568 575 0
-577 -569 576 0
-73 0
-89 522 0
-585 525 0
-585 537 0
-525 -537 585 0
-586 527 0
-586 544 0
-527 -544 586 0
-587 529 0
-587 551 0
-529 -551 587 0
-588 531 0
-588 558 0
-531 -558 588 0
-589 533 0
-589 565 0
-533 -565 589 0
-590 535 0
-590 572 0
-535 -572 590 0
-89 -585 0
-89 -586 0
-89 -587 0
-89 -588 0
-89 -589 0
-89 -590 0
-522 89 585 586 587 588 589 590 0
-105 525 0
-591 522 0
-591 524 0
-522 -524 591 0
-592 527 0
-592 545 0
-527 -545 592 0
-593 529 0
-593 552 0
-529 -552 593 0
-594 531 0
-594 559 0
-531 -559 594 0
-595 533 0
-595 566 0
-533 -566 595 0
-596 535 0
-596 573 0
-535 -573 596 0
-105 -591 0
-105 -592 0
-105 -593 0
-105 -594 0
-105 -595 0
-105 -596 0
-525 105 591 592 593 594 595 596 0
-121 527 0
-597 522 0
-597 526 0
-522 -526 597 0
-598 525 0
-598 538 0
-525 -538 598 0
-599 529 0
-599 553 0
-529 -553 599 0
-600 531 0
-600 560 0
-531 -560 600 0
-601 533 0
-601 567 0
-533 -567 601 0
-602 535 0
-602 574 0
-535 -574 602 0
-121 -597 0
-121 -598 0
-121 -599 0
-121 -600 0
-121 -601 0
-121 -602 0
-527 121 597 598 599 600 601 602 0
-137 529 0
-603 522 0
-603 528 0
-522 -528 603 0
-604 525 0
-604 539 0
-525 -539 604 0
-605 527 0
-605 546 0
-527 -546 605 0
-606 531 0
-606 561 0
-531 -561 606 0
-607 533 0
-607 568 0
-533 -568 607 0
-608 535 0
-608 575 0
-535 -575 608 0
-137 -603 0
-137 -604 0
-137 -605 0
-137 -606 0
-137 -607 0
-137 -608 0
-529 137 603 604 605 606 607 608 0
-153 531 0
-609 522 0
-609 530 0
-522 -530 609 0
-610 525 0
-610 540 0
-525 -540 610 0
-611 527 0
-611 547 0
-527 -547 611 0
-612 529 0
-612 554 0
-529 -554 612 0
-613 533 0
-613 569 0
-533 -569 613 0
-614 535 0
-614 576 0
-535 -576 614 0
-153 -609 0
-153 -610 0
-153 -611 0
-153 -612 0
-153 -613 0
-153 -614 0
-531 153 609 610 611 612 613 614 0
-169 533 0
-615 522 0
-615 532 0
-522 -532 615 0
-616 525 0
-616 541 0
-525 -541 616 0
-617 527 0
-617 548 0
-527 -548 617 0
-618 529 0
-618 555 0
-529 -555 618 0
-619 531 0
-619 562 0
-531 -562 619 0
-620 535 0
-620 577 0
-535 -577 620 0
-169 -615 0
-169 -616 0
-169 -617 0
-169 -618 0
-169 -619 0
-169 -620 0
-533 169 615 616 617 618 619 620 0
-185 535 0
-621 522 0
-621 534 0
-522 -534 621 0
-622 525 0
-622 542 0
-525 -542 622 0
-623 527 0
-623 549 0
-527 -549 623 0
-624 529 0
-624 556 0
-529 -556 624 0
-625 531 0
-625 563 0
-531 -563 625 0
-626 533 0
-626 570 0
-533 -570 626 0
-185 -621 0
-185 -622 0
-185 -623 0
-185 -624 0
-185 -625 0
-185 -626 0
-535 185 621 622 623 624 625 626 0
-75 523 0
-627 524 0
-627 536 0
-524 -536 627 0
-628 526 0
-628 543 0
-526 -543 628 0
-629 528 0
-629 550 0
-528 -550 629 0
-630 530 0
-630 557 0
-530 -557 630 0
-631 532 0
-631 564 0
-532 -564 631 0
-632 534 0
-632 571 0
-534 -571 632 0
-75 -627 0
-75 -628 0
-75 -629 0
-75 -630 0
-75 -631 0
-75 -632 0
-523 75 627 628 629 630 631 632 0
-91 0
-107 524 0
-633 523 0
-633 525 0
-523 -525 633 0
-634 526 0
-634 545 0
-526 -545 634 0
-635 528 0
-635 552 0
-528 -552 635 0
-636 530 0
-636 559 0
-530 -559 636 0
-637 532 0
-637 566 0
-532 -566 637 0
-638 534 0
-638 573 0
-534 -573 638 0
-107 -633 0
-107 -634 0
-107 -635 0
-107 -636 0
-107 -637 0
-107 -638 0
-524 107 633 634 635 636 637 638 0
-123 526 0
-639 523 0
-639 527 0
-523 -527 639 0
-640 524 0
-640 538 0
-524 -538 640 0
-641 528 0
-641 553 0
-528 -553 641 0
-642 530 0
-642 560 0
-530 -560 642 0
-643 532 0
-643 567 0
-532 -567 643 0
-644 534 0
-644 574 0
-534 -574 644 0
-123 -639 0
-123 -640 0
-123 -641 0
-123 -642 0
-123 -643 0
-123 -644 0
-526 123 639 640 641 642 643 644 0
-139 528 0
-645 523 0
-645 529 0
-523 -529 645 0
-646 524 0
-646 539 0
-524 -539 646 0
-647 526 0
-647 546 0
-526 -546 647 0
-648 530 0
-648 561 0
-530 -561 648 0
-649 532 0
-649 568 0
-532 -568 649 0
-650 534 0
-650 575 0
-534 -575 650 0
-139 -645 0
-139 -646 0
-139 -647 0
-139 -648 0
-139 -649 0
-139 -650 0
-528 139 645 646 647 648 649 650 0
-155 530 0
-651 523 0
-651 531 0
-523 -531 651 0
-652 524 0
-652 540 0
-524 -540 652 0
-653 526 0
-653 547 0
-526 -547 653 0
-654 528 0
-654 554 0
-528 -554 654 0
-655 532 0
-655 569 0
-532 -569 655 0
-656 534 0
-656 576 0
-534 -576 656 0
-155 -651 0
-155 -652 0
-155 -653 0
-155 -654 0
-155 -655 0
-155 -656 0
-530 155 651 652 653 654 655 656 0
-171 532 0
-657 523 0
-657 533 0
-523 -533 657 0
-658 524 0
-658 541 0
-524 -541 658 0
-659 526 0
-659 548 0
-526 -548 659 0
-660 528 0
-660 555 0
-528 -555 660 0
-661 530 0
-661 562 0
-530 -562 661 0
-662 534 0
-662 577 0
-534 -577 662 0
-171 -657 0
-171 -658 0
-171 -659 0
-171 -660 0
-171 -661 0
-171 -662 0
-532 171 657 658 659 660 661 662 0
-187 534 0
-663 523 0
-663 535 0
-523 -535 663 0
-664 524 0
-664 542 0
-524 -542 664 0
-665 526 0
-665 549 0
-526 -549 665 0
-666 528 0
-666 556 0
-528 -556 666 0
-667 530 0
-667 563 0
-530 -563 667 0
-668 532 0
-668 570 0
-532 -570 668 0
-187 -663 0
-187 -664 0
-187 -665 0
-187 -666 0
-187 -667 0
-187 -668 0
-534 187 663 664 665 666 667 668 0
-77 536 0
-669 537 0
-669 523 0
-537 -523 669 0
-670 538 0
-670 543 0
-538 -543 670 0
-671 539 0
-671 550 0
-539 -550 671 0
-672 540 0
-672 557 0
-540 -557 672 0
-673 541 0
-673 564 0
-541 -564 673 0
-674 542 0
-674 571 0
-542 -571 674 0
-77 -669 0
-77 -670 0
-77 -671 0
-77 -672 0
-77 -673 0
-77 -674 0
-536 77 669 670 671 672 673 674 0
-93 537 0
-675 536 0
-675 522 0
-536 -522 675 0
-676 538 0
-676 544 0
-538 -544 676 0
-677 539 0
-677 551 0
-539 -551 677 0
-678 540 0
-678 558 0
-540 -558 678 0
-679 541 0
-679 565 0
-541 -565 679 0
-680 542 0
-680 572 0
-542 -572 680 0
-93 -675 0
-93 -676 0
-93 -677 0
-93 -678 0
-93 -679 0
-93 -680 0
-537 93 675 676 677 678 679 680 0
-109 0
-125 538 0
-681 536 0
-681 527 0
-536 -527 681 0
-682 537 0
-682 526 0
-537 -526 682 0
-683 539 0
-683 553 0
-539 -553 683 0
-684 540 0
-684 560 0
-540 -560 684 0
-685 541 0
-685 567 0
-541 -567 685 0
-686 542 0
-686 574 0
-542 -574 686 0
-125 -681 0
-125 -682 0
-125 -683 0
-125 -684 0
-125 -685 0
-125 -686 0
-538 125 681 682 683 684 685 686 0
-141 539 0
-687 536 0
-687 529 0
-536 -529 687 0
-688 537 0
-688 528 0
-537 -528 688 0
-689 538 0
-689 546 0
-538 -546 689 0
-690 540 0
-690 561 0
-540 -561 690 0
-691 541 0
-691 568 0
-541 -568 691 0
-692 542 0
-692 575 0
-542 -575 692 0
-141 -687 0
-141 -688 0
-141 -689 0
-141 -690 0
-141 -691 0
-141 -692 0
-539 141 687 688 689 690 691 692 0
-157 540 0
-693 536 0
-693 531 0
-536 -531 693 0
-694 537 0
-694 530 0
-537 -530 694 0
-695 538 0
-695 547 0
-538 -547 695 0
-696 539 0
-696 554 0
-539 -554 696 0
-697 541 0
-697 569 0
-541 -569 697 0
-698 542 0
-698 576 0
-542 -576 698 0
-157 -693 0
-157 -694 0
-157 -695 0
-157 -696 0
-157 -697 0
-157 -698 0
-540 157 693 694 695 696 697 698 0
-173 541 0
-699 536 0
-699 533 0
-536 -533 699 0
-700 537 0
-700 532 0
-537 -532 700 0
-701 538 0
-701 548 0
-538 -548 701 0
-702 539 0
-702 555 0
-539 -555 702 0
-703 540 0
-703 562 0
-540 -562 703 0
-704 542 0
-704 577 0
-542 -577 704 0
-173 -699 0
-173 -700 0
-173 -701 0
-173 -702 0
-173 -703 0
-173 -704 0
-541 173 699 700 701 702 703 704 0
-189 542 0
-705 536 0
-705 535 0
-536 -535 705 0
-706 537 0
-706 534 0
-537 -534 706 0
-707 538 0
-707 549 0
-538 -549 707 0
-708 539 0
-708 556 0
-539 -556 708 0
-709 540 0
-709 563 0
-540 -563 709 0
-710 541 0
-710 570 0
-541 -570 710 0
-189 -705 0
-189 -706 0
-189 -707 0
-189 -708 0
-189 -709 0
-189 -710 0
-542 189 705 706 707 708 709 710 0
-79 543 0
-711 544 0
-711 523 0
-544 -523 711 0
-712 545 0
-712 536 0
-545 -536 712 0
-713 546 0
-713 550 0
-546 -550 713 0
-714 547 0
-714 557 0
-547 -557 714 0
-715 548 0
-715 564 0
-548 -564 715 0
-716 549 0
-716 571 0
-549 -571 716 0
-79 -711 0
-79 -712 0
-79 -713 0
-79 -714 0
-79 -715 0
-79 -716 0
-543 79 711 712 713 714 715 716 0
-95 544 0
-717 543 0
-717 522 0
-543 -522 717 0
-718 545 0
-718 537 0
-545 -537 718 0
-719 546 0
-719 551 0
-546 -551 719 0
-720 547 0
-720 558 0
-547 -558 720 0
-721 548 0
-721 565 0
-548 -565 721 0
-722 549 0
-722 572 0
-549 -572 722 0
-95 -717 0
-95 -718 0
-95 -719 0
-95 -720 0
-95 -721 0
-95 -722 0
-544 95 717 718 719 720 721 722 0
-111 545 0
-723 543 0
-723 525 0
-543 -525 723 0
-724 544 0
-724 524 0
-544 -524 724 0
-725 546 0
-725 552 0
-546 -552 725 0
-726 547 0
-726 559 0
-547 -559 726 0
-727 548 0
-727 566 0
-548 -566 727 0
-728 549 0
-728 573 0
-549 -573 728 0
-111 -723 0
-111 -724 0
-111 -725 0
-111 -726 0
-111 -727 0
-111 -728 0
-545 111 723 724 725 726 727 728 0
-127 0
-143 546 0
-729 543 0
-729 529 0
-543 -529 729 0
-730 544 0
-730 528 0
-544 -528 730 0
-731 545 0
-731 539 0
-545 -539 731 0
-732 547 0
-732 561 0
-547 -561 732 0
-733 548 0
-733 568 0
-548 -568 733 0
-734 549 0
-734 575 0
-549 -575 734 0
-143 -729 0
-143 -730 0
-143 -731 0
-143 -732 0
-143 -733 0
-143 -734 0
-546 143 729 730 731 732 733 734 0
-159 547 0
-735 543 0
-735 531 0
-543 -531 735 0
-736 544 0
-736 530 0
-544 -530 736 0
-737 545 0
-737 540 0
-545 -540 737 0
-738 546 0
-738 554 0
-546 -554 738 0
-739 548 0
-739 569 0
-548 -569 739 0
-740 549 0
-740 576 0
-549 -576 740 0
-159 -735 0
-159 -736 0
-159 -737 0
-159 -738 0
-159 -739 0
-159 -740 0
-547 159 735 736 737 738 739 740 0
-175 548 0
-741 543 0
-741 533 0
-543 -533 741 0
-742 544 0
-742 532 0
-544 -532 742 0
-743 545 0
-743 541 0
-545 -541 743 0
-744 546 0
-744 555 0
-546 -555 744 0
-745 547 0
-745 562 0
-547 -562 745 0
-746 549 0
-746 577 0
-549 -577 746 0
-175 -741 0
-175 -742 0
-175 -743 0
-175 -744 0
-175 -745 0
-175 -746 0
-548 175 741 742 743 744 745 746 0
-191 549 0
-747 543 0
-747 535 0
-543 -535 747 0
-748 544 0
-748 534 0
-544 -534 748 0
-749 545 0
-749 542 0
-545 -542 749 0
-750 546 0
-750 556 0
-546 -556 750 0
-751 547 0
-751 563 0
-547 -563 751 0
-752 548 0
-752 570 0
-548 -570 752 0
-191 -747 0
-191 -748 0
-191 -749 0
-191 -750 0
-191 -751 0
-191 -752 0
-549 191 747 748 749 750 751 752 0
-81 550 0
-753 551 0
-753 523 0
-551 -523 753 0
-754 552 0
-754 536 0
-552 -536 754 0
-755 553 0
-755 543 0
-553 -543 755 0
-756 554 0
-756 557 0
-554 -557 756 0
-757 555 0
-757 564 0
-555 -564 757 0
-758 556 0
-758 571 0
-556 -571 758 0
-81 -753 0
-81 -754 0
-81 -755 0
-81 -756 0
-81 -757 0
-81 -758 0
-550 81 753 754 755 756 757 758 0
-97 551 0
-759 550 0
-759 522 0
-550 -522 759 0
-760 552 0
-760 537 0
-552 -537 760 0
-761 553 0
-761 544 0
-553 -544 761 0
-762 554 0
-762 558 0
-554 -558 762 0
-763 555 0
-763 565 0
-555 -565 763 0
-764 556 0
-764 572 0
-556 -572 764 0
-97 -759 0
-97 -760 0
-97 -761 0
-97 -762 0
-97 -763 0
-97 -764 0
-551 97 759 760 761 762 763 764 0
-113 552 0
-765 550 0
-765 525 0
-550 -525 765 0
-766 551 0
-766 524 0
-551 -524 766 0
-767 553 0
-767 545 0
-553 -545 767 0
-768 554 0
-768 559 0
-554 -559 768 0
-769 555 0
-769 566 0
-555 -566 769 0
-770 556 0
-770 573 0
-556 -573 770 0
-113 -765 0
-113 -766 0
-113 -767 0
-113 -768 0
-113 -769 0
-113 -770 0
-552 113 765 766 767 768 769 770 0
-129 553 0
-771 550 0
-771 527 0
-550 -527 771 0
-772 551 0
-772 526 0
-551 -526 772 0
-773 552 0
-773 538 0
-552 -538 773 0
-774 554 0
-774 560 0
-554 -560 774 0
-775 555 0
-775 567 0
-555 -567 775 0
-776 556 0
-776 574 0
-556 -574 776 0
-129 -771 0
-129 -772 0
-129 -773 0
-129 -774 0
-129 -775 0
-129 -776 0
-553 129 771 772 773 774 775 776 0
-145 0
-161 554 0
-777 550 0
-777 531 0
-550 -531 777 0
-778 551 0
-778 530 0
-551 -530 778 0
-779 552 0
-779 540 0
-552 -540 779 0
-780 553 0
-780 547 0
-553 -547 780 0
-781 555 0
-781 569 0
-555 -569 781 0
-782 556 0
-782 576 0
-556 -576 782 0
-161 -777 0
-161 -778 0
-161 -779 0
-161 -780 0
-161 -781 0
-161 -782 0
-554 161 777 778 779 780 781 782 0
-177 555 0
-783 550 0
-783 533 0
-550 -533 783 0
-784 551 0
-784 532 0
-551 -532 784 0
-785 552 0
-785 541 0
-552 -541 785 0
-786 553 0
-786 548 0
-553 -548 786 0
-787 554 0
-787 562 0
-554 -562 787 0
-788 556 0
-788 577 0
-556 -577 788 0
-177 -783 0
-177 -784 0
-177 -785 0
-177 -786 0
-177 -787 0
-177 -788 0
-555 177 783 784 785 786 787 788 0
-193 556 0
-789 550 0
-789 535 0
-550 -535 789 0
-790 551 0
-790 534 0
-551 -534 790 0
-791 552 0
-791 542 0
-552 -542 791 0
-792 553 0
-792 549 0
-553 -549 792 0
-793 554 0
-793 563 0
-554 -563 793 0
-794 555 0
-794 570 0
-555 -570 794 0
-193 -789 0
-193 -790 0
-193 -791 0
-193 -792 0
-193 -793 0
-193 -794 0
-556 193 789 790 791 792 793 794 0
-83 557 0
-795 558 0
-795 523 0
-558 -523 795 0
-796 559 0
-796 536 0
-559 -536 796 0
-797 560 0
-797 543 0
-560 -543 797 0
-798 561 0
-798 550 0
-561 -550 798 0
-799 562 0
-799 564 0
-562 -564 799 0
-800 563 0
-800 571 0
-563 -571 800 0
-83 -795 0
-83 -796 0
-83 -797 0
-83 -798 0
-83 -799 0
-83 -800 0
-557 83 795 796 797 798 799 800 0
-99 558 0
-801 557 0
-801 522 0
-557 -522 801 0
-802 559 0
-802 537 0
-559 -537 802 0
-803 560 0
-803 544 0
-560 -544 803 0
-804 561 0
-804 551 0
-561 -551 804 0
-805 562 0
-805 565 0
-562 -565 805 0
-806 563 0
-806 572 0
-563 -572 806 0
-99 -801 0
-99 -802 0
-99 -803 0
-99 -804 0
-99 -805 0
-99 -806 0
-558 99 801 802 803 804 805 806 0
-115 559 0
-807 557 0
-807 525 0
-557 -525 807 0
-808 558 0
-808 524 0
-558 -524 808 0
-809 560 0
-809 545 0
-560 -545 809 0
-810 561 0
-810 552 0
-561 -552 810 0
-811 562 0
-811 566 0
-562 -566 811 0
-812 563 0
-812 573 0
-563 -573 812 0
-115 -807 0
-115 -808 0
-115 -809 0
-115 -810 0
-115 -811 0
-115 -812 0
-559 115 807 808 809 810 811 812 0
-131 560 0
-813 557 0
-813 527 0
-557 -527 813 0
-814 558 0
-814 526 0
-558 -526 814 0
-815 559 0
-815 538 0
-559 -538 815 0
-816 561 0
-816 553 0
-561 -553 816 0
-817 562 0
-817 567 0
-562 -567 817 0
-818 563 0
-818 574 0
-563 -574 818 0
-131 -813 0
-131 -814 0
-131 -815 0
-131 -816 0
-131 -817 0
-131 -818 0
-560 131 813 814 815 816 817 818 0
-147 561 0
-819 557 0
-819 529 0
-557 -529 819 0
-820 558 0
-820 528 0
-558 -528 820 0
-821 559 0
-821 539 0
-559 -539 821 0
-822 560 0
-822 546 0
-560 -546 822 0
-823 562 0
-823 568 0
-562 -568 823 0
-824 563 0
-824 575 0
-563 -575 824 0
-147 -819 0
-147 -820 0
-147 -821 0
-147 -822 0
-147 -823 0
-147 -824 0
-561 147 819 820 821 822 823 824 0
-163 0
-179 562 0
-825 557 0
-825 533 0
-557 -533 825 0
-826 558 0
-826 532 0
-558 -532 826 0
-827 559 0
-827 541 0
-559 -541 827 0
-828 560 0
-828 548 0
-560 -548 828 0
-829 561 0
-829 555 0
-561 -555 829 0
-830 563 0
-830 577 0
-563 -577 830 0
-179 -825 0
-179 -826 0
-179 -827 0
-179 -828 0
-179 -829 0
-179 -830 0
-562 179 825 826 827 828 829 830 0
-195 563 0
-831 557 0
-831 535 0
-557 -535 831 0
-832 558 0
-832 534 0
-558 -534 832 0
-833 559 0
-833 542 0
-559 -542 833 0
-834 560 0
-834 549 0
-560 -549 834 0
-835 561 0
-835 556 0
-561 -556 835 0
-836 562 0
-836 570 0
-562 -570 836 0
-195 -831 0
-195 -832 0
-195 -833 0
-195 -834 0
-195 -835 0
-195 -836 0
-563 195 831 832 833 834 835 836 0
-85 564 0
-837 565 0
-837 523 0
-565 -523 837 0
-838 566 0
-838 536 0
-566 -536 838 0
-839 567 0
-839 543 0
-567 -543 839 0
-840 568 0
-840 550 0
-568 -550 840 0
-841 569 0
-841 557 0
-569 -557 841 0
-842 570 0
-842 571 0
-570 -571 842 0
-85 -837 0
-85 -838 0
-85 -839 0
-85 -840 0
-85 -841 0
-85 -842 0
-564 85 837 838 839 840 841 842 0
-101 565 0
-843 564 0
-843 522 0
-564 -522 843 0
-844 566 0
-844 537 0
-566 -537 844 0
-845 567 0
-845 544 0
-567 -544 845 0
-846 568 0
-846 551 0
-568 -551 846 0
-847 569 0
-847 558 0
-569 -558 847 0
-848 570 0
-848 572 0
-570 -572 848 0
-101 -843 0
-101 -844 0
-101 -845 0
-101 -846 0
-101 -847 0
-101 -848 0
-565 101 843 844 845 846 847 848 0
-117 566 0
-849 564 0
-849 525 0
-564 -525 849 0
-850 565 0
-850 524 0
-565 -524 850 0
-851 567 0
-851 545 0
-567 -545 851 0
-852 568 0
-852 552 0
-568 -552 852 0
-853 569 0
-853 559 0
-569 -559 853 0
-854 570 0
-854 573 0
-570 -573 854 0
-117 -849 0
-117 -850 0
-117 -851 0
-117 -852 0
-117 -853 0
-117 -854 0
-566 117 849 850 851 852 853 854 0
-133 567 0
-855 564 0
-855 527 0
-564 -527 855 0
-856 565 0
-856 526 0
-565 -526 856 0
-857 566 0
-857 538 0
-566 -538 857 0
-858 568 0
-858 553 0
-568 -553 858 0
-859 569 0
-859 560 0
-569 -560 859 0
-860 570 0
-860 574 0
-570 -574 860 0
-133 -855 0
-133 -856 0
-133 -857 0
-133 -858 0
-133 -859 0
-133 -860 0
-567 133 855 856 857 858 859 860 0
-149 568 0
-861 564 0
-861 529 0
-564 -529 861 0
-862 565 0
-862 528 0
-565 -528 862 0
-863 566 0
-863 539 0
-566 -539 863 0
-864 567 0
-864 546 0
-567 -546 864 0
-865 569 0
-865 561 0
-569 -561 865 0
-866 570 0
-866 575 0
-570 -575 866 0
-149 -861 0
-149 -862 0
-149 -863 0
-149 -864 0
-149 -865 0
-149 -866 0
-568 149 861 862 863 864 865 866 0
-165 569 0
-867 564 0
-867 531 0
-564 -531 867 0
-868 565 0
-868 530 0
-565 -530 868 0
-869 566 0
-869 540 0
-566 -540 869 0
-870 567 0
-870 547 0
-567 -547 870 0
-871 568 0
-871 554 0
-568 -554 871 0
-872 570 0
-872 576 0
-570 -576 872 0
-165 -867 0
-165 -868 0
-165 -869 0
-165 -870 0
-165 -871 0
-165 -872 0
-569 165 867 868 869 870 871 872 0
-181 0
-197 570 0
-873 564 0
-873 535 0
-564 -535 873 0
-874 565 0
-874 534 0
-565 -534 874 0
-875 566 0
-875 542 0
-566 -542 875 0
-876 567 0
-876 549 0
-567 -549 876 0
-877 568 0
-877 556 0
-568 -556 877 0
-878 569 0
-878 563 0
-569 -563 878 0
-197 -873 0
-197 -874 0
-197 -875 0
-197 -876 0
-197 -877 0
-197 -878 0
-570 197 873 874 875 876 877 878 0
-87 571 0
-879 572 0
-879 523 0
-572 -523 879 0
-880 573 0
-880 536 0
-573 -536 880 0
-881 574 0
-881 543 0
-574 -543 881 0
-882 575 0
-882 550 0
-575 -550 882 0
-883 576 0
-883 557 0
-576 -557 883 0
-884 577 0
-884 564 0
-577 -564 884 0
-87 -879 0
-87 -880 0
-87 -881 0
-87 -882 0
-87 -883 0
-87 -884 0
-571 87 879 880 881 882 883 884 0
-103 572 0
-885 571 0
-885 522 0
-571 -522 885 0
-886 573 0
-886 537 0
-573 -537 886 0
-887 574 0
-887 544 0
-574 -544 887 0
-888 575 0
-888 551 0
-575 -551 888 0
-889 576 0
-889 558 0
-576 -558 889 0
-890 577 0
-890 565 0
-577 -565 890 0
-103 -885 0
-103 -886 0
-103 -887 0
-103 -888 0
-103 -889 0
-103 -890 0
-572 103 885 886 887 888 889 890 0
-119 573 0
-891 571 0
-891 525 0
-571 -525 891 0
-892 572 0
-892 524 0
-572 -524 892 0
-893 574 0
-893 545 0
-574 -545 893 0
-894 575 0
-894 552 0
-575 -552 894 0
-895 576 0
-895 559 0
-576 -559 895 0
-896 577 0
-896 566 0
-577 -566 896 0
-119 -891 0
-119 -892 0
-119 -893 0
-119 -894 0
-119 -895 0
-119 -896 0
-573 119 891 892 893 894 895 896 0
-135 574 0
-897 571 0
-897 527 0
-571 -527 897 0
-898 572 0
-898 526 0
-572 -526 898 0
-899 573 0
-899 538 0
-573 -538 899 0
-900 575 0
-900 553 0
-575 -553 900 0
-901 576 0
-901 560 0
-576 -560 901 0
-902 577 0
-902 567 0
-577 -567 902 0
-135 -897 0
-135 -898 0
-135 -899 0
-135 -900 0
-135 -901 0
-135 -902 0
-574 135 897 898 899 900 901 902 0
-151 575 0
-903 571 0
-903 529 0
-571 -529 903 0
-904 572 0
-904 528 0
-572 -528 904 0
-905 573 0
-905 539 0
-573 -539 905 0
-906 574 0
-906 546 0
-574 -546 906 0
-907 576 0
-907 561 0
-576 -561 907 0
-908 577 0
-908 568 0
-577 -568 908 0
-151 -903 0
-151 -904 0
-151 -905 0
-151 -906 0
-151 -907 0
-151 -908 0
-575 151 903 904 905 906 907 908 0
-167 576 0
-909 571 0
-909 531 0
-571 -531 909 0
-910 572 0
-910 530 0
-572 -530 910 0
-911 573 0
-911 540 0
-573 -540 911 0
-912 574 0
-912 547 0
-574 -547 912 0
-913 575 0
-913 554 0
-575 -554 913 0
-914 577 0
-914 569 0
-577 -569 914 0
-167 -909 0
-167 -910 0
-167 -911 0
-167 -912 0
-167 -913 0
-167 -914 0
-576 167 909 910 911 912 913 914 0
-183 577 0
-915 571 0
-915 533 0
-571 -533 915 0
-916 572 0
-916 532 0
-572 -532 916 0
-917 573 0
-917 541 0
-573 -541 917 0
-918 574 0
-918 548 0
-574 -548 918 0
-919 575 0
-919 555 0
-575 -555 919 0
-920 576 0
-920 562 0
-576 -562 920 0
-183 -915 0
-183 -916 0
-183 -917 0
-183 -918 0
-183 -919 0
-183 -920 0
-577 183 915 916 917 918 919 920 0
-199 0
