p cnf 1233 4995
1 2 -3 0
4 5 -6 0
7 8 -9 0
10 11 -12 0
13 14 -15 0
16 17 -18 0
19 20 -21 0
22 23 -24 0
25 26 -27 0
3 -1 0
6 -4 0
9 -7 0
12 -10 0
15 -13 0
18 -16 0
21 -19 0
24 -22 0
27 -25 0
3 -2 0
6 -5 0
9 -8 0
12 -11 0
15 -14 0
18 -17 0
21 -20 0
24 -23 0
27 -26 0
-1 -2 -28 0
-4 -5 -29 0
-7 -8 -30 0
-10 -11 -31 0
-13 -14 -32 0
-16 -17 -33 0
-19 -20 -34 0
-22 -23 -35 0
-25 -26 -36 0
28 1 0
29 4 0
30 7 0
31 10 0
32 13 0
33 16 0
34 19 0
35 22 0
36 25 0
28 2 0
29 5 0
30 8 0
31 11 0
32 14 0
33 17 0
34 20 0
35 23 0
36 26 0
-37 1 38 0
-39 4 40 0
-41 7 42 0
-43 10 44 0
-45 13 46 0
-47 16 48 0
-49 19 50 0
-51 22 52 0
-53 25 54 0
-38 37 0
-40 39 0
-42 41 0
-44 43 0
-46 45 0
-48 47 0
-50 49 0
-52 51 0
-54 53 0
-38 -1 0
-40 -4 0
-42 -7 0
-44 -10 0
-46 -13 0
-48 -16 0
-50 -19 0
-52 -22 0
-54 -25 0
55 38 -56 0
57 40 -58 0
59 42 -60 0
61 44 -62 0
63 46 -64 0
65 48 -66 0
67 50 -68 0
69 52 -70 0
71 54 -72 0
56 -55 0
58 -57 0
60 -59 0
62 -61 0
64 -63 0
66 -65 0
68 -67 0
70 -69 0
72 -71 0
56 -38 0
58 -40 0
60 -42 0
62 -44 0
64 -46 0
66 -48 0
68 -50 0
70 -52 0
72 -54 0
1 -55 -37 -73 0
4 -57 -39 -74 0
7 -59 -41 -75 0
10 -61 -43 -76 0
13 -63 -45 -77 0
16 -65 -47 -78 0
19 -67 -49 -79 0
22 -69 -51 -80 0
25 -71 -53 -81 0
73 -1 0
74 -4 0
75 -7 0
76 -10 0
77 -13 0
78 -16 0
79 -19 0
80 -22 0
81 -25 0
73 55 0
74 57 0
75 59 0
76 61 0
77 63 0
78 65 0
79 67 0
80 69 0
81 71 0
73 37 0
74 39 0
75 41 0
76 43 0
77 45 0
78 47 0
79 49 0
80 51 0
81 53 0
1 -82 -2 -83 0
4 -84 -5 -85 0
7 -86 -8 -87 0
10 -88 -11 -89 0
13 -90 -14 -91 0
16 -92 -17 -93 0
19 -94 -20 -95 0
22 -96 -23 -97 0
25 -98 -26 -99 0
1 -100 -2 -101 0
4 -102 -5 -103 0
7 -104 -8 -105 0
10 -106 -11 -107 0
13 -108 -14 -109 0
16 -110 -17 -111 0
19 -112 -20 -113 0
22 -114 -23 -115 0
25 -116 -26 -117 0
1 -118 -2 -119 0
4 -120 -5 -121 0
7 -122 -8 -123 0
10 -124 -11 -125 0
13 -126 -14 -127 0
16 -128 -17 -129 0
19 -130 -20 -131 0
22 -132 -23 -133 0
25 -134 -26 -135 0
1 -136 -2 -137 0
4 -138 -5 -139 0
7 -140 -8 -141 0
10 -142 -11 -143 0
13 -144 -14 -145 0
16 -146 -17 -147 0
19 -148 -20 -149 0
22 -150 -23 -151 0
25 -152 -26 -153 0
1 -154 -2 -155 0
4 -156 -5 -157 0
7 -158 -8 -159 0
10 -160 -11 -161 0
13 -162 -14 -163 0
16 -164 -17 -165 0
19 -166 -20 -167 0
22 -168 -23 -169 0
25 -170 -26 -171 0
1 -172 -2 -173 0
4 -174 -5 -175 0
7 -176 -8 -177 0
10 -178 -11 -179 0
13 -180 -14 -181 0
16 -182 -17 -183 0
19 -184 -20 -185 0
22 -186 -23 -187 0
25 -188 -26 -189 0
1 -190 -2 -191 0
4 -192 -5 -193 0
7 -194 -8 -195 0
10 -196 -11 -197 0
13 -198 -14 -199 0
16 -200 -17 -201 0
19 -202 -20 -203 0
22 -204 -23 -205 0
25 -206 -26 -207 0
1 -208 -2 -209 0
4 -210 -5 -211 0
7 -212 -8 -213 0
10 -214 -11 -215 0
13 -216 -14 -217 0
16 -218 -17 -219 0
19 -220 -20 -221 0
22 -222 -23 -223 0
25 -224 -26 -225 0
1 -226 -2 -227 0
4 -228 -5 -229 0
7 -230 -8 -231 0
10 -232 -11 -233 0
13 -234 -14 -235 0
16 -236 -17 -237 0
19 -238 -20 -239 0
22 -240 -23 -241 0
25 -242 -26 -243 0
83 -1 0
85 -4 0
87 -7 0
89 -10 0
91 -13 0
93 -16 0
95 -19 0
97 -22 0
99 -25 0
101 -1 0
103 -4 0
105 -7 0
107 -10 0
109 -13 0
111 -16 0
113 -19 0
115 -22 0
117 -25 0
119 -1 0
121 -4 0
123 -7 0
125 -10 0
127 -13 0
129 -16 0
131 -19 0
133 -22 0
135 -25 0
137 -1 0
139 -4 0
141 -7 0
143 -10 0
145 -13 0
147 -16 0
149 -19 0
151 -22 0
153 -25 0
155 -1 0
157 -4 0
159 -7 0
161 -10 0
163 -13 0
165 -16 0
167 -19 0
169 -22 0
171 -25 0
173 -1 0
175 -4 0
177 -7 0
179 -10 0
181 -13 0
183 -16 0
185 -19 0
187 -22 0
189 -25 0
191 -1 0
193 -4 0
195 -7 0
197 -10 0
199 -13 0
201 -16 0
203 -19 0
205 -22 0
207 -25 0
209 -1 0
211 -4 0
213 -7 0
215 -10 0
217 -13 0
219 -16 0
221 -19 0
223 -22 0
225 -25 0
227 -1 0
229 -4 0
231 -7 0
233 -10 0
235 -13 0
237 -16 0
239 -19 0
241 -22 0
243 -25 0
83 82 0
85 84 0
87 86 0
89 88 0
91 90 0
93 92 0
95 94 0
97 96 0
99 98 0
101 100 0
103 102 0
105 104 0
107 106 0
109 108 0
111 110 0
113 112 0
115 114 0
117 116 0
119 118 0
121 120 0
123 122 0
125 124 0
127 126 0
129 128 0
131 130 0
133 132 0
135 134 0
137 136 0
139 138 0
141 140 0
143 142 0
145 144 0
147 146 0
149 148 0
151 150 0
153 152 0
155 154 0
157 156 0
159 158 0
161 160 0
163 162 0
165 164 0
167 166 0
169 168 0
171 170 0
173 172 0
175 174 0
177 176 0
179 178 0
181 180 0
183 182 0
185 184 0
187 186 0
189 188 0
191 190 0
193 192 0
195 194 0
197 196 0
199 198 0
201 200 0
203 202 0
205 204 0
207 206 0
209 208 0
211 210 0
213 212 0
215 214 0
217 216 0
219 218 0
221 220 0
223 222 0
225 224 0
227 226 0
229 228 0
231 230 0
233 232 0
235 234 0
237 236 0
239 238 0
241 240 0
243 242 0
83 2 0
85 5 0
87 8 0
89 11 0
91 14 0
93 17 0
95 20 0
97 23 0
99 26 0
101 2 0
103 5 0
105 8 0
107 11 0
109 14 0
111 17 0
113 20 0
115 23 0
117 26 0
119 2 0
121 5 0
123 8 0
125 11 0
127 14 0
129 17 0
131 20 0
133 23 0
135 26 0
137 2 0
139 5 0
141 8 0
143 11 0
145 14 0
147 17 0
149 20 0
151 23 0
153 26 0
155 2 0
157 5 0
159 8 0
161 11 0
163 14 0
165 17 0
167 20 0
169 23 0
171 26 0
173 2 0
175 5 0
177 8 0
179 11 0
181 14 0
183 17 0
185 20 0
187 23 0
189 26 0
191 2 0
193 5 0
195 8 0
197 11 0
199 14 0
201 17 0
203 20 0
205 23 0
207 26 0
209 2 0
211 5 0
213 8 0
215 11 0
217 14 0
219 17 0
221 20 0
223 23 0
225 26 0
227 2 0
229 5 0
231 8 0
233 11 0
235 14 0
237 17 0
239 20 0
241 23 0
243 26 0
-82 -37 37 244 0
-84 -39 37 245 0
-86 -41 37 246 0
-88 -43 37 247 0
-90 -45 37 248 0
-92 -47 37 249 0
-94 -49 37 250 0
-96 -51 37 251 0
-98 -53 37 252 0
-100 -37 39 253 0
-102 -39 39 254 0
-104 -41 39 255 0
-106 -43 39 256 0
-108 -45 39 257 0
-110 -47 39 258 0
-112 -49 39 259 0
-114 -51 39 260 0
-116 -53 39 261 0
-118 -37 41 262 0
-120 -39 41 263 0
-122 -41 41 264 0
-124 -43 41 265 0
-126 -45 41 266 0
-128 -47 41 267 0
-130 -49 41 268 0
-132 -51 41 269 0
-134 -53 41 270 0
-136 -37 43 271 0
-138 -39 43 272 0
-140 -41 43 273 0
-142 -43 43 274 0
-144 -45 43 275 0
-146 -47 43 276 0
-148 -49 43 277 0
-150 -51 43 278 0
-152 -53 43 279 0
-154 -37 45 280 0
-156 -39 45 281 0
-158 -41 45 282 0
-160 -43 45 283 0
-162 -45 45 284 0
-164 -47 45 285 0
-166 -49 45 286 0
-168 -51 45 287 0
-170 -53 45 288 0
-172 -37 47 289 0
-174 -39 47 290 0
-176 -41 47 291 0
-178 -43 47 292 0
-180 -45 47 293 0
-182 -47 47 294 0
-184 -49 47 295 0
-186 -51 47 296 0
-188 -53 47 297 0
-190 -37 49 298 0
-192 -39 49 299 0
-194 -41 49 300 0
-196 -43 49 301 0
-198 -45 49 302 0
-200 -47 49 303 0
-202 -49 49 304 0
-204 -51 49 305 0
-206 -53 49 306 0
-208 -37 51 307 0
-210 -39 51 308 0
-212 -41 51 309 0
-214 -43 51 310 0
-216 -45 51 311 0
-218 -47 51 312 0
-220 -49 51 313 0
-222 -51 51 314 0
-224 -53 51 315 0
-226 -37 53 316 0
-228 -39 53 317 0
-230 -41 53 318 0
-232 -43 53 319 0
-234 -45 53 320 0
-236 -47 53 321 0
-238 -49 53 322 0
-240 -51 53 323 0
-242 -53 53 324 0
-244 82 0
-245 84 0
-246 86 0
-247 88 0
-248 90 0
-249 92 0
-250 94 0
-251 96 0
-252 98 0
-253 100 0
-254 102 0
-255 104 0
-256 106 0
-257 108 0
-258 110 0
-259 112 0
-260 114 0
-261 116 0
-262 118 0
-263 120 0
-264 122 0
-265 124 0
-266 126 0
-267 128 0
-268 130 0
-269 132 0
-270 134 0
-271 136 0
-272 138 0
-273 140 0
-274 142 0
-275 144 0
-276 146 0
-277 148 0
-278 150 0
-279 152 0
-280 154 0
-281 156 0
-282 158 0
-283 160 0
-284 162 0
-285 164 0
-286 166 0
-287 168 0
-288 170 0
-289 172 0
-290 174 0
-291 176 0
-292 178 0
-293 180 0
-294 182 0
-295 184 0
-296 186 0
-297 188 0
-298 190 0
-299 192 0
-300 194 0
-301 196 0
-302 198 0
-303 200 0
-304 202 0
-305 204 0
-306 206 0
-307 208 0
-308 210 0
-309 212 0
-310 214 0
-311 216 0
-312 218 0
-313 220 0
-314 222 0
-315 224 0
-316 226 0
-317 228 0
-318 230 0
-319 232 0
-320 234 0
-321 236 0
-322 238 0
-323 240 0
-324 242 0
-244 37 0
-245 39 0
-246 41 0
-247 43 0
-248 45 0
-249 47 0
-250 49 0
-251 51 0
-252 53 0
-253 37 0
-254 39 0
-255 41 0
-256 43 0
-257 45 0
-258 47 0
-259 49 0
-260 51 0
-261 53 0
-262 37 0
-263 39 0
-264 41 0
-265 43 0
-266 45 0
-267 47 0
-268 49 0
-269 51 0
-270 53 0
-271 37 0
-272 39 0
-273 41 0
-274 43 0
-275 45 0
-276 47 0
-277 49 0
-278 51 0
-279 53 0
-280 37 0
-281 39 0
-282 41 0
-283 43 0
-284 45 0
-285 47 0
-286 49 0
-287 51 0
-288 53 0
-289 37 0
-290 39 0
-291 41 0
-292 43 0
-293 45 0
-294 47 0
-295 49 0
-296 51 0
-297 53 0
-298 37 0
-299 39 0
-300 41 0
-301 43 0
-302 45 0
-303 47 0
-304 49 0
-305 51 0
-306 53 0
-307 37 0
-308 39 0
-309 41 0
-310 43 0
-311 45 0
-312 47 0
-313 49 0
-314 51 0
-315 53 0
-316 37 0
-317 39 0
-318 41 0
-319 43 0
-320 45 0
-321 47 0
-322 49 0
-323 51 0
-324 53 0
-244 -37 0
-245 -37 0
-246 -37 0
-247 -37 0
-248 -37 0
-249 -37 0
-250 -37 0
-251 -37 0
-252 -37 0
-253 -39 0
-254 -39 0
-255 -39 0
-256 -39 0
-257 -39 0
-258 -39 0
-259 -39 0
-260 -39 0
-261 -39 0
-262 -41 0
-263 -41 0
-264 -41 0
-265 -41 0
-266 -41 0
-267 -41 0
-268 -41 0
-269 -41 0
-270 -41 0
-271 -43 0
-272 -43 0
-273 -43 0
-274 -43 0
-275 -43 0
-276 -43 0
-277 -43 0
-278 -43 0
-279 -43 0
-280 -45 0
-281 -45 0
-282 -45 0
-283 -45 0
-284 -45 0
-285 -45 0
-286 -45 0
-287 -45 0
-288 -45 0
-289 -47 0
-290 -47 0
-291 -47 0
-292 -47 0
-293 -47 0
-294 -47 0
-295 -47 0
-296 -47 0
-297 -47 0
-298 -49 0
-299 -49 0
-300 -49 0
-301 -49 0
-302 -49 0
-303 -49 0
-304 -49 0
-305 -49 0
-306 -49 0
-307 -51 0
-308 -51 0
-309 -51 0
-310 -51 0
-311 -51 0
-312 -51 0
-313 -51 0
-314 -51 0
-315 -51 0
-316 -53 0
-317 -53 0
-318 -53 0
-319 -53 0
-320 -53 0
-321 -53 0
-322 -53 0
-323 -53 0
-324 -53 0
325 244 -326 0
327 245 -328 0
329 246 -330 0
331 247 -332 0
333 248 -334 0
335 249 -336 0
337 250 -338 0
339 251 -340 0
341 252 -342 0
343 253 -344 0
345 254 -346 0
347 255 -348 0
349 256 -350 0
351 257 -352 0
353 258 -354 0
355 259 -356 0
357 260 -358 0
359 261 -360 0
361 262 -362 0
363 263 -364 0
365 264 -366 0
367 265 -368 0
369 266 -370 0
371 267 -372 0
373 268 -374 0
375 269 -376 0
377 270 -378 0
379 271 -380 0
381 272 -382 0
383 273 -384 0
385 274 -386 0
387 275 -388 0
389 276 -390 0
391 277 -392 0
393 278 -394 0
395 279 -396 0
397 280 -398 0
399 281 -400 0
401 282 -402 0
403 283 -404 0
405 284 -406 0
407 285 -408 0
409 286 -410 0
411 287 -412 0
413 288 -414 0
415 289 -416 0
417 290 -418 0
419 291 -420 0
421 292 -422 0
423 293 -424 0
425 294 -426 0
427 295 -428 0
429 296 -430 0
431 297 -432 0
433 298 -434 0
435 299 -436 0
437 300 -438 0
439 301 -440 0
441 302 -442 0
443 303 -444 0
445 304 -446 0
447 305 -448 0
449 306 -450 0
451 307 -452 0
453 308 -454 0
455 309 -456 0
457 310 -458 0
459 311 -460 0
461 312 -462 0
463 313 -464 0
465 314 -466 0
467 315 -468 0
469 316 -470 0
471 317 -472 0
473 318 -474 0
475 319 -476 0
477 320 -478 0
479 321 -480 0
481 322 -482 0
483 323 -484 0
485 324 -486 0
326 -325 0
328 -327 0
330 -329 0
332 -331 0
334 -333 0
336 -335 0
338 -337 0
340 -339 0
342 -341 0
344 -343 0
346 -345 0
348 -347 0
350 -349 0
352 -351 0
354 -353 0
356 -355 0
358 -357 0
360 -359 0
362 -361 0
364 -363 0
366 -365 0
368 -367 0
370 -369 0
372 -371 0
374 -373 0
376 -375 0
378 -377 0
380 -379 0
382 -381 0
384 -383 0
386 -385 0
388 -387 0
390 -389 0
392 -391 0
394 -393 0
396 -395 0
398 -397 0
400 -399 0
402 -401 0
404 -403 0
406 -405 0
408 -407 0
410 -409 0
412 -411 0
414 -413 0
416 -415 0
418 -417 0
420 -419 0
422 -421 0
424 -423 0
426 -425 0
428 -427 0
430 -429 0
432 -431 0
434 -433 0
436 -435 0
438 -437 0
440 -439 0
442 -441 0
444 -443 0
446 -445 0
448 -447 0
450 -449 0
452 -451 0
454 -453 0
456 -455 0
458 -457 0
460 -459 0
462 -461 0
464 -463 0
466 -465 0
468 -467 0
470 -469 0
472 -471 0
474 -473 0
476 -475 0
478 -477 0
480 -479 0
482 -481 0
484 -483 0
486 -485 0
326 -244 0
328 -245 0
330 -246 0
332 -247 0
334 -248 0
336 -249 0
338 -250 0
340 -251 0
342 -252 0
344 -253 0
346 -254 0
348 -255 0
350 -256 0
352 -257 0
354 -258 0
356 -259 0
358 -260 0
360 -261 0
362 -262 0
364 -263 0
366 -264 0
368 -265 0
370 -266 0
372 -267 0
374 -268 0
376 -269 0
378 -270 0
380 -271 0
382 -272 0
384 -273 0
386 -274 0
388 -275 0
390 -276 0
392 -277 0
394 -278 0
396 -279 0
398 -280 0
400 -281 0
402 -282 0
404 -283 0
406 -284 0
408 -285 0
410 -286 0
412 -287 0
414 -288 0
416 -289 0
418 -290 0
420 -291 0
422 -292 0
424 -293 0
426 -294 0
428 -295 0
430 -296 0
432 -297 0
434 -298 0
436 -299 0
438 -300 0
440 -301 0
442 -302 0
444 -303 0
446 -304 0
448 -305 0
450 -306 0
452 -307 0
454 -308 0
456 -309 0
458 -310 0
460 -311 0
462 -312 0
464 -313 0
466 -314 0
468 -315 0
470 -316 0
472 -317 0
474 -318 0
476 -319 0
478 -320 0
480 -321 0
482 -322 0
484 -323 0
486 -324 0
37 -325 -82 -37 -487 0
37 -327 -84 -39 -488 0
37 -329 -86 -41 -489 0
37 -331 -88 -43 -490 0
37 -333 -90 -45 -491 0
37 -335 -92 -47 -492 0
37 -337 -94 -49 -493 0
37 -339 -96 -51 -494 0
37 -341 -98 -53 -495 0
39 -343 -100 -37 -496 0
39 -345 -102 -39 -497 0
39 -347 -104 -41 -498 0
39 -349 -106 -43 -499 0
39 -351 -108 -45 -500 0
39 -353 -110 -47 -501 0
39 -355 -112 -49 -502 0
39 -357 -114 -51 -503 0
39 -359 -116 -53 -504 0
41 -361 -118 -37 -505 0
41 -363 -120 -39 -506 0
41 -365 -122 -41 -507 0
41 -367 -124 -43 -508 0
41 -369 -126 -45 -509 0
41 -371 -128 -47 -510 0
41 -373 -130 -49 -511 0
41 -375 -132 -51 -512 0
41 -377 -134 -53 -513 0
43 -379 -136 -37 -514 0
43 -381 -138 -39 -515 0
43 -383 -140 -41 -516 0
43 -385 -142 -43 -517 0
43 -387 -144 -45 -518 0
43 -389 -146 -47 -519 0
43 -391 -148 -49 -520 0
43 -393 -150 -51 -521 0
43 -395 -152 -53 -522 0
45 -397 -154 -37 -523 0
45 -399 -156 -39 -524 0
45 -401 -158 -41 -525 0
45 -403 -160 -43 -526 0
45 -405 -162 -45 -527 0
45 -407 -164 -47 -528 0
45 -409 -166 -49 -529 0
45 -411 -168 -51 -530 0
45 -413 -170 -53 -531 0
47 -415 -172 -37 -532 0
47 -417 -174 -39 -533 0
47 -419 -176 -41 -534 0
47 -421 -178 -43 -535 0
47 -423 -180 -45 -536 0
47 -425 -182 -47 -537 0
47 -427 -184 -49 -538 0
47 -429 -186 -51 -539 0
47 -431 -188 -53 -540 0
49 -433 -190 -37 -541 0
49 -435 -192 -39 -542 0
49 -437 -194 -41 -543 0
49 -439 -196 -43 -544 0
49 -441 -198 -45 -545 0
49 -443 -200 -47 -546 0
49 -445 -202 -49 -547 0
49 -447 -204 -51 -548 0
49 -449 -206 -53 -549 0
51 -451 -208 -37 -550 0
51 -453 -210 -39 -551 0
51 -455 -212 -41 -552 0
51 -457 -214 -43 -553 0
51 -459 -216 -45 -554 0
51 -461 -218 -47 -555 0
51 -463 -220 -49 -556 0
51 -465 -222 -51 -557 0
51 -467 -224 -53 -558 0
53 -469 -226 -37 -559 0
53 -471 -228 -39 -560 0
53 -473 -230 -41 -561 0
53 -475 -232 -43 -562 0
53 -477 -234 -45 -563 0
53 -479 -236 -47 -564 0
53 -481 -238 -49 -565 0
53 -483 -240 -51 -566 0
53 -485 -242 -53 -567 0
487 -37 0
488 -37 0
489 -37 0
490 -37 0
491 -37 0
492 -37 0
493 -37 0
494 -37 0
495 -37 0
496 -39 0
497 -39 0
498 -39 0
499 -39 0
500 -39 0
501 -39 0
502 -39 0
503 -39 0
504 -39 0
505 -41 0
506 -41 0
507 -41 0
508 -41 0
509 -41 0
510 -41 0
511 -41 0
512 -41 0
513 -41 0
514 -43 0
515 -43 0
516 -43 0
517 -43 0
518 -43 0
519 -43 0
520 -43 0
521 -43 0
522 -43 0
523 -45 0
524 -45 0
525 -45 0
526 -45 0
527 -45 0
528 -45 0
529 -45 0
530 -45 0
531 -45 0
532 -47 0
533 -47 0
534 -47 0
535 -47 0
536 -47 0
537 -47 0
538 -47 0
539 -47 0
540 -47 0
541 -49 0
542 -49 0
543 -49 0
544 -49 0
545 -49 0
546 -49 0
547 -49 0
548 -49 0
549 -49 0
550 -51 0
551 -51 0
552 -51 0
553 -51 0
554 -51 0
555 -51 0
556 -51 0
557 -51 0
558 -51 0
559 -53 0
560 -53 0
561 -53 0
562 -53 0
563 -53 0
564 -53 0
565 -53 0
566 -53 0
567 -53 0
487 325 0
488 327 0
489 329 0
490 331 0
491 333 0
492 335 0
493 337 0
494 339 0
495 341 0
496 343 0
497 345 0
498 347 0
499 349 0
500 351 0
501 353 0
502 355 0
503 357 0
504 359 0
505 361 0
506 363 0
507 365 0
508 367 0
509 369 0
510 371 0
511 373 0
512 375 0
513 377 0
514 379 0
515 381 0
516 383 0
517 385 0
518 387 0
519 389 0
520 391 0
521 393 0
522 395 0
523 397 0
524 399 0
525 401 0
526 403 0
527 405 0
528 407 0
529 409 0
530 411 0
531 413 0
532 415 0
533 417 0
534 419 0
535 421 0
536 423 0
537 425 0
538 427 0
539 429 0
540 431 0
541 433 0
542 435 0
543 437 0
544 439 0
545 441 0
546 443 0
547 445 0
548 447 0
549 449 0
550 451 0
551 453 0
552 455 0
553 457 0
554 459 0
555 461 0
556 463 0
557 465 0
558 467 0
559 469 0
560 471 0
561 473 0
562 475 0
563 477 0
564 479 0
565 481 0
566 483 0
567 485 0
487 82 0
488 84 0
489 86 0
490 88 0
491 90 0
492 92 0
493 94 0
494 96 0
495 98 0
496 100 0
497 102 0
498 104 0
499 106 0
500 108 0
501 110 0
502 112 0
503 114 0
504 116 0
505 118 0
506 120 0
507 122 0
508 124 0
509 126 0
510 128 0
511 130 0
512 132 0
513 134 0
514 136 0
515 138 0
516 140 0
517 142 0
518 144 0
519 146 0
520 148 0
521 150 0
522 152 0
523 154 0
524 156 0
525 158 0
526 160 0
527 162 0
528 164 0
529 166 0
530 168 0
531 170 0
532 172 0
533 174 0
534 176 0
535 178 0
536 180 0
537 182 0
538 184 0
539 186 0
540 188 0
541 190 0
542 192 0
543 194 0
544 196 0
545 198 0
546 200 0
547 202 0
548 204 0
549 206 0
550 208 0
551 210 0
552 212 0
553 214 0
554 216 0
555 218 0
556 220 0
557 222 0
558 224 0
559 226 0
560 228 0
561 230 0
562 232 0
563 234 0
564 236 0
565 238 0
566 240 0
567 242 0
487 37 0
488 39 0
489 41 0
490 43 0
491 45 0
492 47 0
493 49 0
494 51 0
495 53 0
496 37 0
497 39 0
498 41 0
499 43 0
500 45 0
501 47 0
502 49 0
503 51 0
504 53 0
505 37 0
506 39 0
507 41 0
508 43 0
509 45 0
510 47 0
511 49 0
512 51 0
513 53 0
514 37 0
515 39 0
516 41 0
517 43 0
518 45 0
519 47 0
520 49 0
521 51 0
522 53 0
523 37 0
524 39 0
525 41 0
526 43 0
527 45 0
528 47 0
529 49 0
530 51 0
531 53 0
532 37 0
533 39 0
534 41 0
535 43 0
536 45 0
537 47 0
538 49 0
539 51 0
540 53 0
541 37 0
542 39 0
543 41 0
544 43 0
545 45 0
546 47 0
547 49 0
548 51 0
549 53 0
550 37 0
551 39 0
552 41 0
553 43 0
554 45 0
555 47 0
556 49 0
557 51 0
558 53 0
559 37 0
560 39 0
561 41 0
562 43 0
563 45 0
564 47 0
565 49 0
566 51 0
567 53 0
-3 -28 -56 -73 -83 -326 -487 568 0
-3 -28 -56 -73 -85 -328 -488 569 0
-3 -28 -56 -73 -87 -330 -489 570 0
-3 -28 -56 -73 -89 -332 -490 571 0
-3 -28 -56 -73 -91 -334 -491 572 0
-3 -28 -56 -73 -93 -336 -492 573 0
-3 -28 -56 -73 -95 -338 -493 574 0
-3 -28 -56 -73 -97 -340 -494 575 0
-3 -28 -56 -73 -99 -342 -495 576 0
-6 -29 -58 -74 -101 -344 -496 577 0
-6 -29 -58 -74 -103 -346 -497 578 0
-6 -29 -58 -74 -105 -348 -498 579 0
-6 -29 -58 -74 -107 -350 -499 580 0
-6 -29 -58 -74 -109 -352 -500 581 0
-6 -29 -58 -74 -111 -354 -501 582 0
-6 -29 -58 -74 -113 -356 -502 583 0
-6 -29 -58 -74 -115 -358 -503 584 0
-6 -29 -58 -74 -117 -360 -504 585 0
-9 -30 -60 -75 -119 -362 -505 586 0
-9 -30 -60 -75 -121 -364 -506 587 0
-9 -30 -60 -75 -123 -366 -507 588 0
-9 -30 -60 -75 -125 -368 -508 589 0
-9 -30 -60 -75 -127 -370 -509 590 0
-9 -30 -60 -75 -129 -372 -510 591 0
-9 -30 -60 -75 -131 -374 -511 592 0
-9 -30 -60 -75 -133 -376 -512 593 0
-9 -30 -60 -75 -135 -378 -513 594 0
-12 -31 -62 -76 -137 -380 -514 595 0
-12 -31 -62 -76 -139 -382 -515 596 0
-12 -31 -62 -76 -141 -384 -516 597 0
-12 -31 -62 -76 -143 -386 -517 598 0
-12 -31 -62 -76 -145 -388 -518 599 0
-12 -31 -62 -76 -147 -390 -519 600 0
-12 -31 -62 -76 -149 -392 -520 601 0
-12 -31 -62 -76 -151 -394 -521 602 0
-12 -31 -62 -76 -153 -396 -522 603 0
-15 -32 -64 -77 -155 -398 -523 604 0
-15 -32 -64 -77 -157 -400 -524 605 0
-15 -32 -64 -77 -159 -402 -525 606 0
-15 -32 -64 -77 -161 -404 -526 607 0
-15 -32 -64 -77 -163 -406 -527 608 0
-15 -32 -64 -77 -165 -408 -528 609 0
-15 -32 -64 -77 -167 -410 -529 610 0
-15 -32 -64 -77 -169 -412 -530 611 0
-15 -32 -64 -77 -171 -414 -531 612 0
-18 -33 -66 -78 -173 -416 -532 613 0
-18 -33 -66 -78 -175 -418 -533 614 0
-18 -33 -66 -78 -177 -420 -534 615 0
-18 -33 -66 -78 -179 -422 -535 616 0
-18 -33 -66 -78 -181 -424 -536 617 0
-18 -33 -66 -78 -183 -426 -537 618 0
-18 -33 -66 -78 -185 -428 -538 619 0
-18 -33 -66 -78 -187 -430 -539 620 0
-18 -33 -66 -78 -189 -432 -540 621 0
-21 -34 -68 -79 -191 -434 -541 622 0
-21 -34 -68 -79 -193 -436 -542 623 0
-21 -34 -68 -79 -195 -438 -543 624 0
-21 -34 -68 -79 -197 -440 -544 625 0
-21 -34 -68 -79 -199 -442 -545 626 0
-21 -34 -68 -79 -201 -444 -546 627 0
-21 -34 -68 -79 -203 -446 -547 628 0
-21 -34 -68 -79 -205 -448 -548 629 0
-21 -34 -68 -79 -207 -450 -549 630 0
-24 -35 -70 -80 -209 -452 -550 631 0
-24 -35 -70 -80 -211 -454 -551 632 0
-24 -35 -70 -80 -213 -456 -552 633 0
-24 -35 -70 -80 -215 -458 -553 634 0
-24 -35 -70 -80 -217 -460 -554 635 0
-24 -35 -70 -80 -219 -462 -555 636 0
-24 -35 -70 -80 -221 -464 -556 637 0
-24 -35 -70 -80 -223 -466 -557 638 0
-24 -35 -70 -80 -225 -468 -558 639 0
-27 -36 -72 -81 -227 -470 -559 640 0
-27 -36 -72 -81 -229 -472 -560 641 0
-27 -36 -72 -81 -231 -474 -561 642 0
-27 -36 -72 -81 -233 -476 -562 643 0
-27 -36 -72 -81 -235 -478 -563 644 0
-27 -36 -72 -81 -237 -480 -564 645 0
-27 -36 -72 -81 -239 -482 -565 646 0
-27 -36 -72 -81 -241 -484 -566 647 0
-27 -36 -72 -81 -243 -486 -567 648 0
-568 3 0
-569 3 0
-570 3 0
-571 3 0
-572 3 0
-573 3 0
-574 3 0
-575 3 0
-576 3 0
-577 6 0
-578 6 0
-579 6 0
-580 6 0
-581 6 0
-582 6 0
-583 6 0
-584 6 0
-585 6 0
-586 9 0
-587 9 0
-588 9 0
-589 9 0
-590 9 0
-591 9 0
-592 9 0
-593 9 0
-594 9 0
-595 12 0
-596 12 0
-597 12 0
-598 12 0
-599 12 0
-600 12 0
-601 12 0
-602 12 0
-603 12 0
-604 15 0
-605 15 0
-606 15 0
-607 15 0
-608 15 0
-609 15 0
-610 15 0
-611 15 0
-612 15 0
-613 18 0
-614 18 0
-615 18 0
-616 18 0
-617 18 0
-618 18 0
-619 18 0
-620 18 0
-621 18 0
-622 21 0
-623 21 0
-624 21 0
-625 21 0
-626 21 0
-627 21 0
-628 21 0
-629 21 0
-630 21 0
-631 24 0
-632 24 0
-633 24 0
-634 24 0
-635 24 0
-636 24 0
-637 24 0
-638 24 0
-639 24 0
-640 27 0
-641 27 0
-642 27 0
-643 27 0
-644 27 0
-645 27 0
-646 27 0
-647 27 0
-648 27 0
-568 28 0
-569 28 0
-570 28 0
-571 28 0
-572 28 0
-573 28 0
-574 28 0
-575 28 0
-576 28 0
-577 29 0
-578 29 0
-579 29 0
-580 29 0
-581 29 0
-582 29 0
-583 29 0
-584 29 0
-585 29 0
-586 30 0
-587 30 0
-588 30 0
-589 30 0
-590 30 0
-591 30 0
-592 30 0
-593 30 0
-594 30 0
-595 31 0
-596 31 0
-597 31 0
-598 31 0
-599 31 0
-600 31 0
-601 31 0
-602 31 0
-603 31 0
-604 32 0
-605 32 0
-606 32 0
-607 32 0
-608 32 0
-609 32 0
-610 32 0
-611 32 0
-612 32 0
-613 33 0
-614 33 0
-615 33 0
-616 33 0
-617 33 0
-618 33 0
-619 33 0
-620 33 0
-621 33 0
-622 34 0
-623 34 0
-624 34 0
-625 34 0
-626 34 0
-627 34 0
-628 34 0
-629 34 0
-630 34 0
-631 35 0
-632 35 0
-633 35 0
-634 35 0
-635 35 0
-636 35 0
-637 35 0
-638 35 0
-639 35 0
-640 36 0
-641 36 0
-642 36 0
-643 36 0
-644 36 0
-645 36 0
-646 36 0
-647 36 0
-648 36 0
-568 56 0
-569 56 0
-570 56 0
-571 56 0
-572 56 0
-573 56 0
-574 56 0
-575 56 0
-576 56 0
-577 58 0
-578 58 0
-579 58 0
-580 58 0
-581 58 0
-582 58 0
-583 58 0
-584 58 0
-585 58 0
-586 60 0
-587 60 0
-588 60 0
-589 60 0
-590 60 0
-591 60 0
-592 60 0
-593 60 0
-594 60 0
-595 62 0
-596 62 0
-597 62 0
-598 62 0
-599 62 0
-600 62 0
-601 62 0
-602 62 0
-603 62 0
-604 64 0
-605 64 0
-606 64 0
-607 64 0
-608 64 0
-609 64 0
-610 64 0
-611 64 0
-612 64 0
-613 66 0
-614 66 0
-615 66 0
-616 66 0
-617 66 0
-618 66 0
-619 66 0
-620 66 0
-621 66 0
-622 68 0
-623 68 0
-624 68 0
-625 68 0
-626 68 0
-627 68 0
-628 68 0
-629 68 0
-630 68 0
-631 70 0
-632 70 0
-633 70 0
-634 70 0
-635 70 0
-636 70 0
-637 70 0
-638 70 0
-639 70 0
-640 72 0
-641 72 0
-642 72 0
-643 72 0
-644 72 0
-645 72 0
-646 72 0
-647 72 0
-648 72 0
-568 73 0
-569 73 0
-570 73 0
-571 73 0
-572 73 0
-573 73 0
-574 73 0
-575 73 0
-576 73 0
-577 74 0
-578 74 0
-579 74 0
-580 74 0
-581 74 0
-582 74 0
-583 74 0
-584 74 0
-585 74 0
-586 75 0
-587 75 0
-588 75 0
-589 75 0
-590 75 0
-591 75 0
-592 75 0
-593 75 0
-594 75 0
-595 76 0
-596 76 0
-597 76 0
-598 76 0
-599 76 0
-600 76 0
-601 76 0
-602 76 0
-603 76 0
-604 77 0
-605 77 0
-606 77 0
-607 77 0
-608 77 0
-609 77 0
-610 77 0
-611 77 0
-612 77 0
-613 78 0
-614 78 0
-615 78 0
-616 78 0
-617 78 0
-618 78 0
-619 78 0
-620 78 0
-621 78 0
-622 79 0
-623 79 0
-624 79 0
-625 79 0
-626 79 0
-627 79 0
-628 79 0
-629 79 0
-630 79 0
-631 80 0
-632 80 0
-633 80 0
-634 80 0
-635 80 0
-636 80 0
-637 80 0
-638 80 0
-639 80 0
-640 81 0
-641 81 0
-642 81 0
-643 81 0
-644 81 0
-645 81 0
-646 81 0
-647 81 0
-648 81 0
-568 83 0
-569 85 0
-570 87 0
-571 89 0
-572 91 0
-573 93 0
-574 95 0
-575 97 0
-576 99 0
-577 101 0
-578 103 0
-579 105 0
-580 107 0
-581 109 0
-582 111 0
-583 113 0
-584 115 0
-585 117 0
-586 119 0
-587 121 0
-588 123 0
-589 125 0
-590 127 0
-591 129 0
-592 131 0
-593 133 0
-594 135 0
-595 137 0
-596 139 0
-597 141 0
-598 143 0
-599 145 0
-600 147 0
-601 149 0
-602 151 0
-603 153 0
-604 155 0
-605 157 0
-606 159 0
-607 161 0
-608 163 0
-609 165 0
-610 167 0
-611 169 0
-612 171 0
-613 173 0
-614 175 0
-615 177 0
-616 179 0
-617 181 0
-618 183 0
-619 185 0
-620 187 0
-621 189 0
-622 191 0
-623 193 0
-624 195 0
-625 197 0
-626 199 0
-627 201 0
-628 203 0
-629 205 0
-630 207 0
-631 209 0
-632 211 0
-633 213 0
-634 215 0
-635 217 0
-636 219 0
-637 221 0
-638 223 0
-639 225 0
-640 227 0
-641 229 0
-642 231 0
-643 233 0
-644 235 0
-645 237 0
-646 239 0
-647 241 0
-648 243 0
-568 326 0
-569 328 0
-570 330 0
-571 332 0
-572 334 0
-573 336 0
-574 338 0
-575 340 0
-576 342 0
-577 344 0
-578 346 0
-579 348 0
-580 350 0
-581 352 0
-582 354 0
-583 356 0
-584 358 0
-585 360 0
-586 362 0
-587 364 0
-588 366 0
-589 368 0
-590 370 0
-591 372 0
-592 374 0
-593 376 0
-594 378 0
-595 380 0
-596 382 0
-597 384 0
-598 386 0
-599 388 0
-600 390 0
-601 392 0
-602 394 0
-603 396 0
-604 398 0
-605 400 0
-606 402 0
-607 404 0
-608 406 0
-609 408 0
-610 410 0
-611 412 0
-612 414 0
-613 416 0
-614 418 0
-615 420 0
-616 422 0
-617 424 0
-618 426 0
-619 428 0
-620 430 0
-621 432 0
-622 434 0
-623 436 0
-624 438 0
-625 440 0
-626 442 0
-627 444 0
-628 446 0
-629 448 0
-630 450 0
-631 452 0
-632 454 0
-633 456 0
-634 458 0
-635 460 0
-636 462 0
-637 464 0
-638 466 0
-639 468 0
-640 470 0
-641 472 0
-642 474 0
-643 476 0
-644 478 0
-645 480 0
-646 482 0
-647 484 0
-648 486 0
-568 487 0
-569 488 0
-570 489 0
-571 490 0
-572 491 0
-573 492 0
-574 493 0
-575 494 0
-576 495 0
-577 496 0
-578 497 0
-579 498 0
-580 499 0
-581 500 0
-582 501 0
-583 502 0
-584 503 0
-585 504 0
-586 505 0
-587 506 0
-588 507 0
-589 508 0
-590 509 0
-591 510 0
-592 511 0
-593 512 0
-594 513 0
-595 514 0
-596 515 0
-597 516 0
-598 517 0
-599 518 0
-600 519 0
-601 520 0
-602 521 0
-603 522 0
-604 523 0
-605 524 0
-606 525 0
-607 526 0
-608 527 0
-609 528 0
-610 529 0
-611 530 0
-612 531 0
-613 532 0
-614 533 0
-615 534 0
-616 535 0
-617 536 0
-618 537 0
-619 538 0
-620 539 0
-621 540 0
-622 541 0
-623 542 0
-624 543 0
-625 544 0
-626 545 0
-627 546 0
-628 547 0
-629 548 0
-630 549 0
-631 550 0
-632 551 0
-633 552 0
-634 553 0
-635 554 0
-636 555 0
-637 556 0
-638 557 0
-639 558 0
-640 559 0
-641 560 0
-642 561 0
-643 562 0
-644 563 0
-645 564 0
-646 565 0
-647 566 0
-648 567 0
568 0
569 0
570 0
571 0
572 0
573 0
574 0
575 0
576 0
577 0
578 0
579 0
580 0
581 0
582 0
583 0
584 0
585 0
586 0
587 0
588 0
589 0
590 0
591 0
592 0
593 0
594 0
595 0
596 0
597 0
598 0
599 0
600 0
601 0
602 0
603 0
604 0
605 0
606 0
607 0
608 0
609 0
610 0
611 0
612 0
613 0
614 0
615 0
616 0
617 0
618 0
619 0
620 0
621 0
622 0
623 0
624 0
625 0
626 0
627 0
628 0
629 0
630 0
631 0
632 0
633 0
634 0
635 0
636 0
637 0
638 0
639 0
640 0
641 0
642 0
643 0
644 0
645 0
646 0
647 0
648 0
649 0
650 651 0
-650 -651 0
-650 -652 653 0
-650 -654 655 0
-650 -656 657 0
-650 -658 659 0
-650 -660 661 0
-650 -662 663 0
-650 -664 665 0
653 666 0
-653 -666 0
-653 -667 650 0
-653 -668 655 0
-653 -669 657 0
-653 -670 659 0
-653 -671 661 0
-653 -672 663 0
-653 -673 665 0
655 674 0
-655 -674 0
-655 -675 650 0
-655 -676 653 0
-655 -677 657 0
-655 -678 659 0
-655 -679 661 0
-655 -680 663 0
-655 -681 665 0
657 682 0
-657 -682 0
-657 -683 650 0
-657 -684 653 0
-657 -685 655 0
-657 -686 659 0
-657 -687 661 0
-657 -688 663 0
-657 -689 665 0
659 690 0
-659 -690 0
-659 -691 650 0
-659 -692 653 0
-659 -693 655 0
-659 -694 657 0
-659 -695 661 0
-659 -696 663 0
-659 -697 665 0
661 698 0
-661 -698 0
-661 -699 650 0
-661 -700 653 0
-661 -701 655 0
-661 -702 657 0
-661 -703 659 0
-661 -704 663 0
-661 -705 665 0
663 706 0
-663 -706 0
-663 -707 650 0
-663 -708 653 0
-663 -709 655 0
-663 -710 657 0
-663 -711 659 0
-663 -712 661 0
-663 -713 665 0
665 714 0
-665 -714 0
-665 -715 650 0
-665 -716 653 0
-665 -717 655 0
-665 -718 657 0
-665 -719 659 0
-665 -720 661 0
-665 -721 663 0
722 0
651 650 0
-651 -650 0
-651 -653 652 0
-651 -655 654 0
-651 -657 656 0
-651 -659 658 0
-651 -661 660 0
-651 -663 662 0
-651 -665 664 0
652 667 0
-652 -667 0
-652 -666 651 0
-652 -668 654 0
-652 -669 656 0
-652 -670 658 0
-652 -671 660 0
-652 -672 662 0
-652 -673 664 0
654 675 0
-654 -675 0
-654 -674 651 0
-654 -676 652 0
-654 -677 656 0
-654 -678 658 0
-654 -679 660 0
-654 -680 662 0
-654 -681 664 0
656 683 0
-656 -683 0
-656 -682 651 0
-656 -684 652 0
-656 -685 654 0
-656 -686 658 0
-656 -687 660 0
-656 -688 662 0
-656 -689 664 0
658 691 0
-658 -691 0
-658 -690 651 0
-658 -692 652 0
-658 -693 654 0
-658 -694 656 0
-658 -695 660 0
-658 -696 662 0
-658 -697 664 0
660 699 0
-660 -699 0
-660 -698 651 0
-660 -700 652 0
-660 -701 654 0
-660 -702 656 0
-660 -703 658 0
-660 -704 662 0
-660 -705 664 0
662 707 0
-662 -707 0
-662 -706 651 0
-662 -708 652 0
-662 -709 654 0
-662 -710 656 0
-662 -711 658 0
-662 -712 660 0
-662 -713 664 0
664 715 0
-664 -715 0
-664 -714 651 0
-664 -716 652 0
-664 -717 654 0
-664 -718 656 0
-664 -719 658 0
-664 -720 660 0
-664 -721 662 0
723 0
666 653 0
-666 -653 0
-666 -650 667 0
-666 -655 668 0
-666 -657 669 0
-666 -659 670 0
-666 -661 671 0
-666 -663 672 0
-666 -665 673 0
667 652 0
-667 -652 0
-667 -651 666 0
-667 -654 668 0
-667 -656 669 0
-667 -658 670 0
-667 -660 671 0
-667 -662 672 0
-667 -664 673 0
668 676 0
-668 -676 0
-668 -674 666 0
-668 -675 667 0
-668 -677 669 0
-668 -678 670 0
-668 -679 671 0
-668 -680 672 0
-668 -681 673 0
669 684 0
-669 -684 0
-669 -682 666 0
-669 -683 667 0
-669 -685 668 0
-669 -686 670 0
-669 -687 671 0
-669 -688 672 0
-669 -689 673 0
670 692 0
-670 -692 0
-670 -690 666 0
-670 -691 667 0
-670 -693 668 0
-670 -694 669 0
-670 -695 671 0
-670 -696 672 0
-670 -697 673 0
671 700 0
-671 -700 0
-671 -698 666 0
-671 -699 667 0
-671 -701 668 0
-671 -702 669 0
-671 -703 670 0
-671 -704 672 0
-671 -705 673 0
672 708 0
-672 -708 0
-672 -706 666 0
-672 -707 667 0
-672 -709 668 0
-672 -710 669 0
-672 -711 670 0
-672 -712 671 0
-672 -713 673 0
673 716 0
-673 -716 0
-673 -714 666 0
-673 -715 667 0
-673 -717 668 0
-673 -718 669 0
-673 -719 670 0
-673 -720 671 0
-673 -721 672 0
724 0
674 655 0
-674 -655 0
-674 -650 675 0
-674 -653 676 0
-674 -657 677 0
-674 -659 678 0
-674 -661 679 0
-674 -663 680 0
-674 -665 681 0
675 654 0
-675 -654 0
-675 -651 674 0
-675 -652 676 0
-675 -656 677 0
-675 -658 678 0
-675 -660 679 0
-675 -662 680 0
-675 -664 681 0
676 668 0
-676 -668 0
-676 -666 674 0
-676 -667 675 0
-676 -669 677 0
-676 -670 678 0
-676 -671 679 0
-676 -672 680 0
-676 -673 681 0
677 685 0
-677 -685 0
-677 -682 674 0
-677 -683 675 0
-677 -684 676 0
-677 -686 678 0
-677 -687 679 0
-677 -688 680 0
-677 -689 681 0
678 693 0
-678 -693 0
-678 -690 674 0
-678 -691 675 0
-678 -692 676 0
-678 -694 677 0
-678 -695 679 0
-678 -696 680 0
-678 -697 681 0
679 701 0
-679 -701 0
-679 -698 674 0
-679 -699 675 0
-679 -700 676 0
-679 -702 677 0
-679 -703 678 0
-679 -704 680 0
-679 -705 681 0
680 709 0
-680 -709 0
-680 -706 674 0
-680 -707 675 0
-680 -708 676 0
-680 -710 677 0
-680 -711 678 0
-680 -712 679 0
-680 -713 681 0
681 717 0
-681 -717 0
-681 -714 674 0
-681 -715 675 0
-681 -716 676 0
-681 -718 677 0
-681 -719 678 0
-681 -720 679 0
-681 -721 680 0
725 0
682 657 0
-682 -657 0
-682 -650 683 0
-682 -653 684 0
-682 -655 685 0
-682 -659 686 0
-682 -661 687 0
-682 -663 688 0
-682 -665 689 0
683 656 0
-683 -656 0
-683 -651 682 0
-683 -652 684 0
-683 -654 685 0
-683 -658 686 0
-683 -660 687 0
-683 -662 688 0
-683 -664 689 0
684 669 0
-684 -669 0
-684 -666 682 0
-684 -667 683 0
-684 -668 685 0
-684 -670 686 0
-684 -671 687 0
-684 -672 688 0
-684 -673 689 0
685 677 0
-685 -677 0
-685 -674 682 0
-685 -675 683 0
-685 -676 684 0
-685 -678 686 0
-685 -679 687 0
-685 -680 688 0
-685 -681 689 0
686 694 0
-686 -694 0
-686 -690 682 0
-686 -691 683 0
-686 -692 684 0
-686 -693 685 0
-686 -695 687 0
-686 -696 688 0
-686 -697 689 0
687 702 0
-687 -702 0
-687 -698 682 0
-687 -699 683 0
-687 -700 684 0
-687 -701 685 0
-687 -703 686 0
-687 -704 688 0
-687 -705 689 0
688 710 0
-688 -710 0
-688 -706 682 0
-688 -707 683 0
-688 -708 684 0
-688 -709 685 0
-688 -711 686 0
-688 -712 687 0
-688 -713 689 0
689 718 0
-689 -718 0
-689 -714 682 0
-689 -715 683 0
-689 -716 684 0
-689 -717 685 0
-689 -719 686 0
-689 -720 687 0
-689 -721 688 0
726 0
690 659 0
-690 -659 0
-690 -650 691 0
-690 -653 692 0
-690 -655 693 0
-690 -657 694 0
-690 -661 695 0
-690 -663 696 0
-690 -665 697 0
691 658 0
-691 -658 0
-691 -651 690 0
-691 -652 692 0
-691 -654 693 0
-691 -656 694 0
-691 -660 695 0
-691 -662 696 0
-691 -664 697 0
692 670 0
-692 -670 0
-692 -666 690 0
-692 -667 691 0
-692 -668 693 0
-692 -669 694 0
-692 -671 695 0
-692 -672 696 0
-692 -673 697 0
693 678 0
-693 -678 0
-693 -674 690 0
-693 -675 691 0
-693 -676 692 0
-693 -677 694 0
-693 -679 695 0
-693 -680 696 0
-693 -681 697 0
694 686 0
-694 -686 0
-694 -682 690 0
-694 -683 691 0
-694 -684 692 0
-694 -685 693 0
-694 -687 695 0
-694 -688 696 0
-694 -689 697 0
695 703 0
-695 -703 0
-695 -698 690 0
-695 -699 691 0
-695 -700 692 0
-695 -701 693 0
-695 -702 694 0
-695 -704 696 0
-695 -705 697 0
696 711 0
-696 -711 0
-696 -706 690 0
-696 -707 691 0
-696 -708 692 0
-696 -709 693 0
-696 -710 694 0
-696 -712 695 0
-696 -713 697 0
697 719 0
-697 -719 0
-697 -714 690 0
-697 -715 691 0
-697 -716 692 0
-697 -717 693 0
-697 -718 694 0
-697 -720 695 0
-697 -721 696 0
727 0
698 661 0
-698 -661 0
-698 -650 699 0
-698 -653 700 0
-698 -655 701 0
-698 -657 702 0
-698 -659 703 0
-698 -663 704 0
-698 -665 705 0
699 660 0
-699 -660 0
-699 -651 698 0
-699 -652 700 0
-699 -654 701 0
-699 -656 702 0
-699 -658 703 0
-699 -662 704 0
-699 -664 705 0
700 671 0
-700 -671 0
-700 -666 698 0
-700 -667 699 0
-700 -668 701 0
-700 -669 702 0
-700 -670 703 0
-700 -672 704 0
-700 -673 705 0
701 679 0
-701 -679 0
-701 -674 698 0
-701 -675 699 0
-701 -676 700 0
-701 -677 702 0
-701 -678 703 0
-701 -680 704 0
-701 -681 705 0
702 687 0
-702 -687 0
-702 -682 698 0
-702 -683 699 0
-702 -684 700 0
-702 -685 701 0
-702 -686 703 0
-702 -688 704 0
-702 -689 705 0
703 695 0
-703 -695 0
-703 -690 698 0
-703 -691 699 0
-703 -692 700 0
-703 -693 701 0
-703 -694 702 0
-703 -696 704 0
-703 -697 705 0
704 712 0
-704 -712 0
-704 -706 698 0
-704 -707 699 0
-704 -708 700 0
-704 -709 701 0
-704 -710 702 0
-704 -711 703 0
-704 -713 705 0
705 720 0
-705 -720 0
-705 -714 698 0
-705 -715 699 0
-705 -716 700 0
-705 -717 701 0
-705 -718 702 0
-705 -719 703 0
-705 -721 704 0
728 0
706 663 0
-706 -663 0
-706 -650 707 0
-706 -653 708 0
-706 -655 709 0
-706 -657 710 0
-706 -659 711 0
-706 -661 712 0
-706 -665 713 0
707 662 0
-707 -662 0
-707 -651 706 0
-707 -652 708 0
-707 -654 709 0
-707 -656 710 0
-707 -658 711 0
-707 -660 712 0
-707 -664 713 0
708 672 0
-708 -672 0
-708 -666 706 0
-708 -667 707 0
-708 -668 709 0
-708 -669 710 0
-708 -670 711 0
-708 -671 712 0
-708 -673 713 0
709 680 0
-709 -680 0
-709 -674 706 0
-709 -675 707 0
-709 -676 708 0
-709 -677 710 0
-709 -678 711 0
-709 -679 712 0
-709 -681 713 0
710 688 0
-710 -688 0
-710 -682 706 0
-710 -683 707 0
-710 -684 708 0
-710 -685 709 0
-710 -686 711 0
-710 -687 712 0
-710 -689 713 0
711 696 0
-711 -696 0
-711 -690 706 0
-711 -691 707 0
-711 -692 708 0
-711 -693 709 0
-711 -694 710 0
-711 -695 712 0
-711 -697 713 0
712 704 0
-712 -704 0
-712 -698 706 0
-712 -699 707 0
-712 -700 708 0
-712 -701 709 0
-712 -702 710 0
-712 -703 711 0
-712 -705 713 0
713 721 0
-713 -721 0
-713 -714 706 0
-713 -715 707 0
-713 -716 708 0
-713 -717 709 0
-713 -718 710 0
-713 -719 711 0
-713 -720 712 0
729 0
714 665 0
-714 -665 0
-714 -650 715 0
-714 -653 716 0
-714 -655 717 0
-714 -657 718 0
-714 -659 719 0
-714 -661 720 0
-714 -663 721 0
715 664 0
-715 -664 0
-715 -651 714 0
-715 -652 716 0
-715 -654 717 0
-715 -656 718 0
-715 -658 719 0
-715 -660 720 0
-715 -662 721 0
716 673 0
-716 -673 0
-716 -666 714 0
-716 -667 715 0
-716 -668 717 0
-716 -669 718 0
-716 -670 719 0
-716 -671 720 0
-716 -672 721 0
717 681 0
-717 -681 0
-717 -674 714 0
-717 -675 715 0
-717 -676 716 0
-717 -677 718 0
-717 -678 719 0
-717 -679 720 0
-717 -680 721 0
718 689 0
-718 -689 0
-718 -682 714 0
-718 -683 715 0
-718 -684 716 0
-718 -685 717 0
-718 -686 719 0
-718 -687 720 0
-718 -688 721 0
719 697 0
-719 -697 0
-719 -690 714 0
-719 -691 715 0
-719 -692 716 0
-719 -693 717 0
-719 -694 718 0
-719 -695 720 0
-719 -696 721 0
720 705 0
-720 -705 0
-720 -698 714 0
-720 -699 715 0
-720 -700 716 0
-720 -701 717 0
-720 -702 718 0
-720 -703 719 0
-720 -704 721 0
721 713 0
-721 -713 0
-721 -706 714 0
-721 -707 715 0
-721 -708 716 0
-721 -709 717 0
-721 -710 718 0
-721 -711 719 0
-721 -712 720 0
-82 0
-100 650 0
-730 653 0
-730 667 0
-653 -667 730 0
-731 655 0
-731 675 0
-655 -675 731 0
-732 657 0
-732 683 0
-657 -683 732 0
-733 659 0
-733 691 0
-659 -691 733 0
-734 661 0
-734 699 0
-661 -699 734 0
-735 663 0
-735 707 0
-663 -707 735 0
-736 665 0
-736 715 0
-665 -715 736 0
-100 -730 0
-100 -731 0
-100 -732 0
-100 -733 0
-100 -734 0
-100 -735 0
-100 -736 0
-650 100 730 731 732 733 734 735 736 0
-118 653 0
-737 650 0
-737 652 0
-650 -652 737 0
-738 655 0
-738 676 0
-655 -676 738 0
-739 657 0
-739 684 0
-657 -684 739 0
-740 659 0
-740 692 0
-659 -692 740 0
-741 661 0
-741 700 0
-661 -700 741 0
-742 663 0
-742 708 0
-663 -708 742 0
-743 665 0
-743 716 0
-665 -716 743 0
-118 -737 0
-118 -738 0
-118 -739 0
-118 -740 0
-118 -741 0
-118 -742 0
-118 -743 0
-653 118 737 738 739 740 741 742 743 0
-136 655 0
-744 650 0
-744 654 0
-650 -654 744 0
-745 653 0
-745 668 0
-653 -668 745 0
-746 657 0
-746 685 0
-657 -685 746 0
-747 659 0
-747 693 0
-659 -693 747 0
-748 661 0
-748 701 0
-661 -701 748 0
-749 663 0
-749 709 0
-663 -709 749 0
-750 665 0
-750 717 0
-665 -717 750 0
-136 -744 0
-136 -745 0
-136 -746 0
-136 -747 0
-136 -748 0
-136 -749 0
-136 -750 0
-655 136 744 745 746 747 748 749 750 0
-154 657 0
-751 650 0
-751 656 0
-650 -656 751 0
-752 653 0
-752 669 0
-653 -669 752 0
-753 655 0
-753 677 0
-655 -677 753 0
-754 659 0
-754 694 0
-659 -694 754 0
-755 661 0
-755 702 0
-661 -702 755 0
-756 663 0
-756 710 0
-663 -710 756 0
-757 665 0
-757 718 0
-665 -718 757 0
-154 -751 0
-154 -752 0
-154 -753 0
-154 -754 0
-154 -755 0
-154 -756 0
-154 -757 0
-657 154 751 752 753 754 755 756 757 0
-172 659 0
-758 650 0
-758 658 0
-650 -658 758 0
-759 653 0
-759 670 0
-653 -670 759 0
-760 655 0
-760 678 0
-655 -678 760 0
-761 657 0
-761 686 0
-657 -686 761 0
-762 661 0
-762 703 0
-661 -703 762 0
-763 663 0
-763 711 0
-663 -711 763 0
-764 665 0
-764 719 0
-665 -719 764 0
-172 -758 0
-172 -759 0
-172 -760 0
-172 -761 0
-172 -762 0
-172 -763 0
-172 -764 0
-659 172 758 759 760 761 762 763 764 0
-190 661 0
-765 650 0
-765 660 0
-650 -660 765 0
-766 653 0
-766 671 0
-653 -671 766 0
-767 655 0
-767 679 0
-655 -679 767 0
-768 657 0
-768 687 0
-657 -687 768 0
-769 659 0
-769 695 0
-659 -695 769 0
-770 663 0
-770 712 0
-663 -712 770 0
-771 665 0
-771 720 0
-665 -720 771 0
-190 -765 0
-190 -766 0
-190 -767 0
-190 -768 0
-190 -769 0
-190 -770 0
-190 -771 0
-661 190 765 766 767 768 769 770 771 0
-208 663 0
-772 650 0
-772 662 0
-650 -662 772 0
-773 653 0
-773 672 0
-653 -672 773 0
-774 655 0
-774 680 0
-655 -680 774 0
-775 657 0
-775 688 0
-657 -688 775 0
-776 659 0
-776 696 0
-659 -696 776 0
-777 661 0
-777 704 0
-661 -704 777 0
-778 665 0
-778 721 0
-665 -721 778 0
-208 -772 0
-208 -773 0
-208 -774 0
-208 -775 0
-208 -776 0
-208 -777 0
-208 -778 0
-663 208 772 773 774 775 776 777 778 0
-226 665 0
-779 650 0
-779 664 0
-650 -664 779 0
-780 653 0
-780 673 0
-653 -673 780 0
-781 655 0
-781 681 0
-655 -681 781 0
-782 657 0
-782 689 0
-657 -689 782 0
-783 659 0
-783 697 0
-659 -697 783 0
-784 661 0
-784 705 0
-661 -705 784 0
-785 663 0
-785 713 0
-663 -713 785 0
-226 -779 0
-226 -780 0
-226 -781 0
-226 -782 0
-226 -783 0
-226 -784 0
-226 -785 0
-665 226 779 780 781 782 783 784 785 0
-84 651 0
-786 652 0
-786 666 0
-652 -666 786 0
-787 654 0
-787 674 0
-654 -674 787 0
-788 656 0
-788 682 0
-656 -682 788 0
-789 658 0
-789 690 0
-658 -690 789 0
-790 660 0
-790 698 0
-660 -698 790 0
-791 662 0
-791 706 0
-662 -706 791 0
-792 664 0
-792 714 0
-664 -714 792 0
-84 -786 0
-84 -787 0
-84 -788 0
-84 -789 0
-84 -790 0
-84 -791 0
-84 -792 0
-651 84 786 787 788 789 790 791 792 0
-102 0
-120 652 0
-793 651 0
-793 653 0
-651 -653 793 0
-794 654 0
-794 676 0
-654 -676 794 0
-795 656 0
-795 684 0
-656 -684 795 0
-796 658 0
-796 692 0
-658 -692 796 0
-797 660 0
-797 700 0
-660 -700 797 0
-798 662 0
-798 708 0
-662 -708 798 0
-799 664 0
-799 716 0
-664 -716 799 0
-120 -793 0
-120 -794 0
-120 -795 0
-120 -796 0
-120 -797 0
-120 -798 0
-120 -799 0
-652 120 793 794 795 796 797 798 799 0
-138 654 0
-800 651 0
-800 655 0
-651 -655 800 0
-801 652 0
-801 668 0
-652 -668 801 0
-802 656 0
-802 685 0
-656 -685 802 0
-803 658 0
-803 693 0
-658 -693 803 0
-804 660 0
-804 701 0
-660 -701 804 0
-805 662 0
-805 709 0
-662 -709 805 0
-806 664 0
-806 717 0
-664 -717 806 0
-138 -800 0
-138 -801 0
-138 -802 0
-138 -803 0
-138 -804 0
-138 -805 0
-138 -806 0
-654 138 800 801 802 803 804 805 806 0
-156 656 0
-807 651 0
-807 657 0
-651 -657 807 0
-808 652 0
-808 669 0
-652 -669 808 0
-809 654 0
-809 677 0
-654 -677 809 0
-810 658 0
-810 694 0
-658 -694 810 0
-811 660 0
-811 702 0
-660 -702 811 0
-812 662 0
-812 710 0
-662 -710 812 0
-813 664 0
-813 718 0
-664 -718 813 0
-156 -807 0
-156 -808 0
-156 -809 0
-156 -810 0
-156 -811 0
-156 -812 0
-156 -813 0
-656 156 807 808 809 810 811 812 813 0
-174 658 0
-814 651 0
-814 659 0
-651 -659 814 0
-815 652 0
-815 670 0
-652 -670 815 0
-816 654 0
-816 678 0
-654 -678 816 0
-817 656 0
-817 686 0
-656 -686 817 0
-818 660 0
-818 703 0
-660 -703 818 0
-819 662 0
-819 711 0
-662 -711 819 0
-820 664 0
-820 719 0
-664 -719 820 0
-174 -814 0
-174 -815 0
-174 -816 0
-174 -817 0
-174 -818 0
-174 -819 0
-174 -820 0
-658 174 814 815 816 817 818 819 820 0
-192 660 0
-821 651 0
-821 661 0
-651 -661 821 0
-822 652 0
-822 671 0
-652 -671 822 0
-823 654 0
-823 679 0
-654 -679 823 0
-824 656 0
-824 687 0
-656 -687 824 0
-825 658 0
-825 695 0
-658 -695 825 0
-826 662 0
-826 712 0
-662 -712 826 0
-827 664 0
-827 720 0
-664 -720 827 0
-192 -821 0
-192 -822 0
-192 -823 0
-192 -824 0
-192 -825 0
-192 -826 0
-192 -827 0
-660 192 821 822 823 824 825 826 827 0
-210 662 0
-828 651 0
-828 663 0
-651 -663 828 0
-829 652 0
-829 672 0
-652 -672 829 0
-830 654 0
-830 680 0
-654 -680 830 0
-831 656 0
-831 688 0
-656 -688 831 0
-832 658 0
-832 696 0
-658 -696 832 0
-833 660 0
-833 704 0
-660 -704 833 0
-834 664 0
-834 721 0
-664 -721 834 0
-210 -828 0
-210 -829 0
-210 -830 0
-210 -831 0
-210 -832 0
-210 -833 0
-210 -834 0
-662 210 828 829 830 831 832 833 834 0
-228 664 0
-835 651 0
-835 665 0
-651 -665 835 0
-836 652 0
-836 673 0
-652 -673 836 0
-837 654 0
-837 681 0
-654 -681 837 0
-838 656 0
-838 689 0
-656 -689 838 0
-839 658 0
-839 697 0
-658 -697 839 0
-840 660 0
-840 705 0
-660 -705 840 0
-841 662 0
-841 713 0
-662 -713 841 0
-228 -835 0
-228 -836 0
-228 -837 0
-228 -838 0
-228 -839 0
-228 -840 0
-228 -841 0
-664 228 835 836 837 838 839 840 841 0
-86 666 0
-842 667 0
-842 651 0
-667 -651 842 0
-843 668 0
-843 674 0
-668 -674 843 0
-844 669 0
-844 682 0
-669 -682 844 0
-845 670 0
-845 690 0
-670 -690 845 0
-846 671 0
-846 698 0
-671 -698 846 0
-847 672 0
-847 706 0
-672 -706 847 0
-848 673 0
-848 714 0
-673 -714 848 0
-86 -842 0
-86 -843 0
-86 -844 0
-86 -845 0
-86 -846 0
-86 -847 0
-86 -848 0
-666 86 842 843 844 845 846 847 848 0
-104 667 0
-849 666 0
-849 650 0
-666 -650 849 0
-850 668 0
-850 675 0
-668 -675 850 0
-851 669 0
-851 683 0
-669 -683 851 0
-852 670 0
-852 691 0
-670 -691 852 0
-853 671 0
-853 699 0
-671 -699 853 0
-854 672 0
-854 707 0
-672 -707 854 0
-855 673 0
-855 715 0
-673 -715 855 0
-104 -849 0
-104 -850 0
-104 -851 0
-104 -852 0
-104 -853 0
-104 -854 0
-104 -855 0
-667 104 849 850 851 852 853 854 855 0
-122 0
-140 668 0
-856 666 0
-856 655 0
-666 -655 856 0
-857 667 0
-857 654 0
-667 -654 857 0
-858 669 0
-858 685 0
-669 -685 858 0
-859 670 0
-859 693 0
-670 -693 859 0
-860 671 0
-860 701 0
-671 -701 860 0
-861 672 0
-861 709 0
-672 -709 861 0
-862 673 0
-862 717 0
-673 -717 862 0
-140 -856 0
-140 -857 0
-140 -858 0
-140 -859 0
-140 -860 0
-140 -861 0
-140 -862 0
-668 140 856 857 858 859 860 861 862 0
-158 669 0
-863 666 0
-863 657 0
-666 -657 863 0
-864 667 0
-864 656 0
-667 -656 864 0
-865 668 0
-865 677 0
-668 -677 865 0
-866 670 0
-866 694 0
-670 -694 866 0
-867 671 0
-867 702 0
-671 -702 867 0
-868 672 0
-868 710 0
-672 -710 868 0
-869 673 0
-869 718 0
-673 -718 869 0
-158 -863 0
-158 -864 0
-158 -865 0
-158 -866 0
-158 -867 0
-158 -868 0
-158 -869 0
-669 158 863 864 865 866 867 868 869 0
-176 670 0
-870 666 0
-870 659 0
-666 -659 870 0
-871 667 0
-871 658 0
-667 -658 871 0
-872 668 0
-872 678 0
-668 -678 872 0
-873 669 0
-873 686 0
-669 -686 873 0
-874 671 0
-874 703 0
-671 -703 874 0
-875 672 0
-875 711 0
-672 -711 875 0
-876 673 0
-876 719 0
-673 -719 876 0
-176 -870 0
-176 -871 0
-176 -872 0
-176 -873 0
-176 -874 0
-176 -875 0
-176 -876 0
-670 176 870 871 872 873 874 875 876 0
-194 671 0
-877 666 0
-877 661 0
-666 -661 877 0
-878 667 0
-878 660 0
-667 -660 878 0
-879 668 0
-879 679 0
-668 -679 879 0
-880 669 0
-880 687 0
-669 -687 880 0
-881 670 0
-881 695 0
-670 -695 881 0
-882 672 0
-882 712 0
-672 -712 882 0
-883 673 0
-883 720 0
-673 -720 883 0
-194 -877 0
-194 -878 0
-194 -879 0
-194 -880 0
-194 -881 0
-194 -882 0
-194 -883 0
-671 194 877 878 879 880 881 882 883 0
-212 672 0
-884 666 0
-884 663 0
-666 -663 884 0
-885 667 0
-885 662 0
-667 -662 885 0
-886 668 0
-886 680 0
-668 -680 886 0
-887 669 0
-887 688 0
-669 -688 887 0
-888 670 0
-888 696 0
-670 -696 888 0
-889 671 0
-889 704 0
-671 -704 889 0
-890 673 0
-890 721 0
-673 -721 890 0
-212 -884 0
-212 -885 0
-212 -886 0
-212 -887 0
-212 -888 0
-212 -889 0
-212 -890 0
-672 212 884 885 886 887 888 889 890 0
-230 673 0
-891 666 0
-891 665 0
-666 -665 891 0
-892 667 0
-892 664 0
-667 -664 892 0
-893 668 0
-893 681 0
-668 -681 893 0
-894 669 0
-894 689 0
-669 -689 894 0
-895 670 0
-895 697 0
-670 -697 895 0
-896 671 0
-896 705 0
-671 -705 896 0
-897 672 0
-897 713 0
-672 -713 897 0
-230 -891 0
-230 -892 0
-230 -893 0
-230 -894 0
-230 -895 0
-230 -896 0
-230 -897 0
-673 230 891 892 893 894 895 896 897 0
-88 674 0
-898 675 0
-898 651 0
-675 -651 898 0
-899 676 0
-899 666 0
-676 -666 899 0
-900 677 0
-900 682 0
-677 -682 900 0
-901 678 0
-901 690 0
-678 -690 901 0
-902 679 0
-902 698 0
-679 -698 902 0
-903 680 0
-903 706 0
-680 -706 903 0
-904 681 0
-904 714 0
-681 -714 904 0
-88 -898 0
-88 -899 0
-88 -900 0
-88 -901 0
-88 -902 0
-88 -903 0
-88 -904 0
-674 88 898 899 900 901 902 903 904 0
-106 675 0
-905 674 0
-905 650 0
-674 -650 905 0
-906 676 0
-906 667 0
-676 -667 906 0
-907 677 0
-907 683 0
-677 -683 907 0
-908 678 0
-908 691 0
-678 -691 908 0
-909 679 0
-909 699 0
-679 -699 909 0
-910 680 0
-910 707 0
-680 -707 910 0
-911 681 0
-911 715 0
-681 -715 911 0
-106 -905 0
-106 -906 0
-106 -907 0
-106 -908 0
-106 -909 0
-106 -910 0
-106 -911 0
-675 106 905 906 907 908 909 910 911 0
-124 676 0
-912 674 0
-912 653 0
-674 -653 912 0
-913 675 0
-913 652 0
-675 -652 913 0
-914 677 0
-914 684 0
-677 -684 914 0
-915 678 0
-915 692 0
-678 -692 915 0
-916 679 0
-916 700 0
-679 -700 916 0
-917 680 0
-917 708 0
-680 -708 917 0
-918 681 0
-918 716 0
-681 -716 918 0
-124 -912 0
-124 -913 0
-124 -914 0
-124 -915 0
-124 -916 0
-124 -917 0
-124 -918 0
-676 124 912 913 914 915 916 917 918 0
-142 0
-160 677 0
-919 674 0
-919 657 0
-674 -657 919 0
-920 675 0
-920 656 0
-675 -656 920 0
-921 676 0
-921 669 0
-676 -669 921 0
-922 678 0
-922 694 0
-678 -694 922 0
-923 679 0
-923 702 0
-679 -702 923 0
-924 680 0
-924 710 0
-680 -710 924 0
-925 681 0
-925 718 0
-681 -718 925 0
-160 -919 0
-160 -920 0
-160 -921 0
-160 -922 0
-160 -923 0
-160 -924 0
-160 -925 0
-677 160 919 920 921 922 923 924 925 0
-178 678 0
-926 674 0
-926 659 0
-674 -659 926 0
-927 675 0
-927 658 0
-675 -658 927 0
-928 676 0
-928 670 0
-676 -670 928 0
-929 677 0
-929 686 0
-677 -686 929 0
-930 679 0
-930 703 0
-679 -703 930 0
-931 680 0
-931 711 0
-680 -711 931 0
-932 681 0
-932 719 0
-681 -719 932 0
-178 -926 0
-178 -927 0
-178 -928 0
-178 -929 0
-178 -930 0
-178 -931 0
-178 -932 0
-678 178 926 927 928 929 930 931 932 0
-196 679 0
-933 674 0
-933 661 0
-674 -661 933 0
-934 675 0
-934 660 0
-675 -660 934 0
-935 676 0
-935 671 0
-676 -671 935 0
-936 677 0
-936 687 0
-677 -687 936 0
-937 678 0
-937 695 0
-678 -695 937 0
-938 680 0
-938 712 0
-680 -712 938 0
-939 681 0
-939 720 0
-681 -720 939 0
-196 -933 0
-196 -934 0
-196 -935 0
-196 -936 0
-196 -937 0
-196 -938 0
-196 -939 0
-679 196 933 934 935 936 937 938 939 0
-214 680 0
-940 674 0
-940 663 0
-674 -663 940 0
-941 675 0
-941 662 0
-675 -662 941 0
-942 676 0
-942 672 0
-676 -672 942 0
-943 677 0
-943 688 0
-677 -688 943 0
-944 678 0
-944 696 0
-678 -696 944 0
-945 679 0
-945 704 0
-679 -704 945 0
-946 681 0
-946 721 0
-681 -721 946 0
-214 -940 0
-214 -941 0
-214 -942 0
-214 -943 0
-214 -944 0
-214 -945 0
-214 -946 0
-680 214 940 941 942 943 944 945 946 0
-232 681 0
-947 674 0
-947 665 0
-674 -665 947 0
-948 675 0
-948 664 0
-675 -664 948 0
-949 676 0
-949 673 0
-676 -673 949 0
-950 677 0
-950 689 0
-677 -689 950 0
-951 678 0
-951 697 0
-678 -697 951 0
-952 679 0
-952 705 0
-679 -705 952 0
-953 680 0
-953 713 0
-680 -713 953 0
-232 -947 0
-232 -948 0
-232 -949 0
-232 -950 0
-232 -951 0
-232 -952 0
-232 -953 0
-681 232 947 948 949 950 951 952 953 0
-90 682 0
-954 683 0
-954 651 0
-683 -651 954 0
-955 684 0
-955 666 0
-684 -666 955 0
-956 685 0
-956 674 0
-685 -674 956 0
-957 686 0
-957 690 0
-686 -690 957 0
-958 687 0
-958 698 0
-687 -698 958 0
-959 688 0
-959 706 0
-688 -706 959 0
-960 689 0
-960 714 0
-689 -714 960 0
-90 -954 0
-90 -955 0
-90 -956 0
-90 -957 0
-90 -958 0
-90 -959 0
-90 -960 0
-682 90 954 955 956 957 958 959 960 0
-108 683 0
-961 682 0
-961 650 0
-682 -650 961 0
-962 684 0
-962 667 0
-684 -667 962 0
-963 685 0
-963 675 0
-685 -675 963 0
-964 686 0
-964 691 0
-686 -691 964 0
-965 687 0
-965 699 0
-687 -699 965 0
-966 688 0
-966 707 0
-688 -707 966 0
-967 689 0
-967 715 0
-689 -715 967 0
-108 -961 0
-108 -962 0
-108 -963 0
-108 -964 0
-108 -965 0
-108 -966 0
-108 -967 0
-683 108 961 962 963 964 965 966 967 0
-126 684 0
-968 682 0
-968 653 0
-682 -653 968 0
-969 683 0
-969 652 0
-683 -652 969 0
-970 685 0
-970 676 0
-685 -676 970 0
-971 686 0
-971 692 0
-686 -692 971 0
-972 687 0
-972 700 0
-687 -700 972 0
-973 688 0
-973 708 0
-688 -708 973 0
-974 689 0
-974 716 0
-689 -716 974 0
-126 -968 0
-126 -969 0
-126 -970 0
-126 -971 0
-126 -972 0
-126 -973 0
-126 -974 0
-684 126 968 969 970 971 972 973 974 0
-144 685 0
-975 682 0
-975 655 0
-682 -655 975 0
-976 683 0
-976 654 0
-683 -654 976 0
-977 684 0
-977 668 0
-684 -668 977 0
-978 686 0
-978 693 0
-686 -693 978 0
-979 687 0
-979 701 0
-687 -701 979 0
-980 688 0
-980 709 0
-688 -709 980 0
-981 689 0
-981 717 0
-689 -717 981 0
-144 -975 0
-144 -976 0
-144 -977 0
-144 -978 0
-144 -979 0
-144 -980 0
-144 -981 0
-685 144 975 976 977 978 979 980 981 0
-162 0
-180 686 0
-982 682 0
-982 659 0
-682 -659 982 0
-983 683 0
-983 658 0
-683 -658 983 0
-984 684 0
-984 670 0
-684 -670 984 0
-985 685 0
-985 678 0
-685 -678 985 0
-986 687 0
-986 703 0
-687 -703 986 0
-987 688 0
-987 711 0
-688 -711 987 0
-988 689 0
-988 719 0
-689 -719 988 0
-180 -982 0
-180 -983 0
-180 -984 0
-180 -985 0
-180 -986 0
-180 -987 0
-180 -988 0
-686 180 982 983 984 985 986 987 988 0
-198 687 0
-989 682 0
-989 661 0
-682 -661 989 0
-990 683 0
-990 660 0
-683 -660 990 0
-991 684 0
-991 671 0
-684 -671 991 0
-992 685 0
-992 679 0
-685 -679 992 0
-993 686 0
-993 695 0
-686 -695 993 0
-994 688 0
-994 712 0
-688 -712 994 0
-995 689 0
-995 720 0
-689 -720 995 0
-198 -989 0
-198 -990 0
-198 -991 0
-198 -992 0
-198 -993 0
-198 -994 0
-198 -995 0
-687 198 989 990 991 992 993 994 995 0
-216 688 0
-996 682 0
-996 663 0
-682 -663 996 0
-997 683 0
-997 662 0
-683 -662 997 0
-998 684 0
-998 672 0
-684 -672 998 0
-999 685 0
-999 680 0
-685 -680 999 0
-1000 686 0
-1000 696 0
-686 -696 1000 0
-1001 687 0
-1001 704 0
-687 -704 1001 0
-1002 689 0
-1002 721 0
-689 -721 1002 0
-216 -996 0
-216 -997 0
-216 -998 0
-216 -999 0
-216 -1000 0
-216 -1001 0
-216 -1002 0
-688 216 996 997 998 999 1000 1001 1002 0
-234 689 0
-1003 682 0
-1003 665 0
-682 -665 1003 0
-1004 683 0
-1004 664 0
-683 -664 1004 0
-1005 684 0
-1005 673 0
-684 -673 1005 0
-1006 685 0
-1006 681 0
-685 -681 1006 0
-1007 686 0
-1007 697 0
-686 -697 1007 0
-1008 687 0
-1008 705 0
-687 -705 1008 0
-1009 688 0
-1009 713 0
-688 -713 1009 0
-234 -1003 0
-234 -1004 0
-234 -1005 0
-234 -1006 0
-234 -1007 0
-234 -1008 0
-234 -1009 0
-689 234 1003 1004 1005 1006 1007 1008 1009 0
-92 690 0
-1010 691 0
-1010 651 0
-691 -651 1010 0
-1011 692 0
-1011 666 0
-692 -666 1011 0
-1012 693 0
-1012 674 0
-693 -674 1012 0
-1013 694 0
-1013 682 0
-694 -682 1013 0
-1014 695 0
-1014 698 0
-695 -698 1014 0
-1015 696 0
-1015 706 0
-696 -706 1015 0
-1016 697 0
-1016 714 0
-697 -714 1016 0
-92 -1010 0
-92 -1011 0
-92 -1012 0
-92 -1013 0
-92 -1014 0
-92 -1015 0
-92 -1016 0
-690 92 1010 1011 1012 1013 1014 1015 1016 0
-110 691 0
-1017 690 0
-1017 650 0
-690 -650 1017 0
-1018 692 0
-1018 667 0
-692 -667 1018 0
-1019 693 0
-1019 675 0
-693 -675 1019 0
-1020 694 0
-1020 683 0
-694 -683 1020 0
-1021 695 0
-1021 699 0
-695 -699 1021 0
-1022 696 0
-1022 707 0
-696 -707 1022 0
-1023 697 0
-1023 715 0
-697 -715 1023 0
-110 -1017 0
-110 -1018 0
-110 -1019 0
-110 -1020 0
-110 -1021 0
-110 -1022 0
-110 -1023 0
-691 110 1017 1018 1019 1020 1021 1022 1023 0
-128 692 0
-1024 690 0
-1024 653 0
-690 -653 1024 0
-1025 691 0
-1025 652 0
-691 -652 1025 0
-1026 693 0
-1026 676 0
-693 -676 1026 0
-1027 694 0
-1027 684 0
-694 -684 1027 0
-1028 695 0
-1028 700 0
-695 -700 1028 0
-1029 696 0
-1029 708 0
-696 -708 1029 0
-1030 697 0
-1030 716 0
-697 -716 1030 0
-128 -1024 0
-128 -1025 0
-128 -1026 0
-128 -1027 0
-128 -1028 0
-128 -1029 0
-128 -1030 0
-692 128 1024 1025 1026 1027 1028 1029 1030 0
-146 693 0
-1031 690 0
-1031 655 0
-690 -655 1031 0
-1032 691 0
-1032 654 0
-691 -654 1032 0
-1033 692 0
-1033 668 0
-692 -668 1033 0
-1034 694 0
-1034 685 0
-694 -685 1034 0
-1035 695 0
-1035 701 0
-695 -701 1035 0
-1036 696 0
-1036 709 0
-696 -709 1036 0
-1037 697 0
-1037 717 0
-697 -717 1037 0
-146 -1031 0
-146 -1032 0
-146 -1033 0
-146 -1034 0
-146 -1035 0
-146 -1036 0
-146 -1037 0
-693 146 1031 1032 1033 1034 1035 1036 1037 0
-164 694 0
-1038 690 0
-1038 657 0
-690 -657 1038 0
-1039 691 0
-1039 656 0
-691 -656 1039 0
-1040 692 0
-1040 669 0
-692 -669 1040 0
-1041 693 0
-1041 677 0
-693 -677 1041 0
-1042 695 0
-1042 702 0
-695 -702 1042 0
-1043 696 0
-1043 710 0
-696 -710 1043 0
-1044 697 0
-1044 718 0
-697 -718 1044 0
-164 -1038 0
-164 -1039 0
-164 -1040 0
-164 -1041 0
-164 -1042 0
-164 -1043 0
-164 -1044 0
-694 164 1038 1039 1040 1041 1042 1043 1044 0
-182 0
-200 695 0
-1045 690 0
-1045 661 0
-690 -661 1045 0
-1046 691 0
-1046 660 0
-691 -660 1046 0
-1047 692 0
-1047 671 0
-692 -671 1047 0
-1048 693 0
-1048 679 0
-693 -679 1048 0
-1049 694 0
-1049 687 0
-694 -687 1049 0
-1050 696 0
-1050 712 0
-696 -712 1050 0
-1051 697 0
-1051 720 0
-697 -720 1051 0
-200 -1045 0
-200 -1046 0
-200 -1047 0
-200 -1048 0
-200 -1049 0
-200 -1050 0
-200 -1051 0
-695 200 1045 1046 1047 1048 1049 1050 1051 0
-218 696 0
-1052 690 0
-1052 663 0
-690 -663 1052 0
-1053 691 0
-1053 662 0
-691 -662 1053 0
-1054 692 0
-1054 672 0
-692 -672 1054 0
-1055 693 0
-1055 680 0
-693 -680 1055 0
-1056 694 0
-1056 688 0
-694 -688 1056 0
-1057 695 0
-1057 704 0
-695 -704 1057 0
-1058 697 0
-1058 721 0
-697 -721 1058 0
-218 -1052 0
-218 -1053 0
-218 -1054 0
-218 -1055 0
-218 -1056 0
-218 -1057 0
-218 -1058 0
-696 218 1052 1053 1054 1055 1056 1057 1058 0
-236 697 0
-1059 690 0
-1059 665 0
-690 -665 1059 0
-1060 691 0
-1060 664 0
-691 -664 1060 0
-1061 692 0
-1061 673 0
-692 -673 1061 0
-1062 693 0
-1062 681 0
-693 -681 1062 0
-1063 694 0
-1063 689 0
-694 -689 1063 0
-1064 695 0
-1064 705 0
-695 -705 1064 0
-1065 696 0
-1065 713 0
-696 -713 1065 0
-236 -1059 0
-236 -1060 0
-236 -1061 0
-236 -1062 0
-236 -1063 0
-236 -1064 0
-236 -1065 0
-697 236 1059 1060 1061 1062 1063 1064 1065 0
-94 698 0
-1066 699 0
-1066 651 0
-699 -651 1066 0
-1067 700 0
-1067 666 0
-700 -666 1067 0
-1068 701 0
-1068 674 0
-701 -674 1068 0
-1069 702 0
-1069 682 0
-702 -682 1069 0
-1070 703 0
-1070 690 0
-703 -690 1070 0
-1071 704 0
-1071 706 0
-704 -706 1071 0
-1072 705 0
-1072 714 0
-705 -714 1072 0
-94 -1066 0
-94 -1067 0
-94 -1068 0
-94 -1069 0
-94 -1070 0
-94 -1071 0
-94 -1072 0
-698 94 1066 1067 1068 1069 1070 1071 1072 0
-112 699 0
-1073 698 0
-1073 650 0
-698 -650 1073 0
-1074 700 0
-1074 667 0
-700 -667 1074 0
-1075 701 0
-1075 675 0
-701 -675 1075 0
-1076 702 0
-1076 683 0
-702 -683 1076 0
-1077 703 0
-1077 691 0
-703 -691 1077 0
-1078 704 0
-1078 707 0
-704 -707 1078 0
-1079 705 0
-1079 715 0
-705 -715 1079 0
-112 -1073 0
-112 -1074 0
-112 -1075 0
-112 -1076 0
-112 -1077 0
-112 -1078 0
-112 -1079 0
-699 112 1073 1074 1075 1076 1077 1078 1079 0
-130 700 0
-1080 698 0
-1080 653 0
-698 -653 1080 0
-1081 699 0
-1081 652 0
-699 -652 1081 0
-1082 701 0
-1082 676 0
-701 -676 1082 0
-1083 702 0
-1083 684 0
-702 -684 1083 0
-1084 703 0
-1084 692 0
-703 -692 1084 0
-1085 704 0
-1085 708 0
-704 -708 1085 0
-1086 705 0
-1086 716 0
-705 -716 1086 0
-130 -1080 0
-130 -1081 0
-130 -1082 0
-130 -1083 0
-130 -1084 0
-130 -1085 0
-130 -1086 0
-700 130 1080 1081 1082 1083 1084 1085 1086 0
-148 701 0
-1087 698 0
-1087 655 0
-698 -655 1087 0
-1088 699 0
-1088 654 0
-699 -654 1088 0
-1089 700 0
-1089 668 0
-700 -668 1089 0
-1090 702 0
-1090 685 0
-702 -685 1090 0
-1091 703 0
-1091 693 0
-703 -693 1091 0
-1092 704 0
-1092 709 0
-704 -709 1092 0
-1093 705 0
-1093 717 0
-705 -717 1093 0
-148 -1087 0
-148 -1088 0
-148 -1089 0
-148 -1090 0
-148 -1091 0
-148 -1092 0
-148 -1093 0
-701 148 1087 1088 1089 1090 1091 1092 1093 0
-166 702 0
-1094 698 0
-1094 657 0
-698 -657 1094 0
-1095 699 0
-1095 656 0
-699 -656 1095 0
-1096 700 0
-1096 669 0
-700 -669 1096 0
-1097 701 0
-1097 677 0
-701 -677 1097 0
-1098 703 0
-1098 694 0
-703 -694 1098 0
-1099 704 0
-1099 710 0
-704 -710 1099 0
-1100 705 0
-1100 718 0
-705 -718 1100 0
-166 -1094 0
-166 -1095 0
-166 -1096 0
-166 -1097 0
-166 -1098 0
-166 -1099 0
-166 -1100 0
-702 166 1094 1095 1096 1097 1098 1099 1100 0
-184 703 0
-1101 698 0
-1101 659 0
-698 -659 1101 0
-1102 699 0
-1102 658 0
-699 -658 1102 0
-1103 700 0
-1103 670 0
-700 -670 1103 0
-1104 701 0
-1104 678 0
-701 -678 1104 0
-1105 702 0
-1105 686 0
-702 -686 1105 0
-1106 704 0
-1106 711 0
-704 -711 1106 0
-1107 705 0
-1107 719 0
-705 -719 1107 0
-184 -1101 0
-184 -1102 0
-184 -1103 0
-184 -1104 0
-184 -1105 0
-184 -1106 0
-184 -1107 0
-703 184 1101 1102 1103 1104 1105 1106 1107 0
-202 0
-220 704 0
-1108 698 0
-1108 663 0
-698 -663 1108 0
-1109 699 0
-1109 662 0
-699 -662 1109 0
-1110 700 0
-1110 672 0
-700 -672 1110 0
-1111 701 0
-1111 680 0
-701 -680 1111 0
-1112 702 0
-1112 688 0
-702 -688 1112 0
-1113 703 0
-1113 696 0
-703 -696 1113 0
-1114 705 0
-1114 721 0
-705 -721 1114 0
-220 -1108 0
-220 -1109 0
-220 -1110 0
-220 -1111 0
-220 -1112 0
-220 -1113 0
-220 -1114 0
-704 220 1108 1109 1110 1111 1112 1113 1114 0
-238 705 0
-1115 698 0
-1115 665 0
-698 -665 1115 0
-1116 699 0
-1116 664 0
-699 -664 1116 0
-1117 700 0
-1117 673 0
-700 -673 1117 0
-1118 701 0
-1118 681 0
-701 -681 1118 0
-1119 702 0
-1119 689 0
-702 -689 1119 0
-1120 703 0
-1120 697 0
-703 -697 1120 0
-1121 704 0
-1121 713 0
-704 -713 1121 0
-238 -1115 0
-238 -1116 0
-238 -1117 0
-238 -1118 0
-238 -1119 0
-238 -1120 0
-238 -1121 0
-705 238 1115 1116 1117 1118 1119 1120 1121 0
-96 706 0
-1122 707 0
-1122 651 0
-707 -651 1122 0
-1123 708 0
-1123 666 0
-708 -666 1123 0
-1124 709 0
-1124 674 0
-709 -674 1124 0
-1125 710 0
-1125 682 0
-710 -682 1125 0
-1126 711 0
-1126 690 0
-711 -690 1126 0
-1127 712 0
-1127 698 0
-712 -698 1127 0
-1128 713 0
-1128 714 0
-713 -714 1128 0
-96 -1122 0
-96 -1123 0
-96 -1124 0
-96 -1125 0
-96 -1126 0
-96 -1127 0
-96 -1128 0
-706 96 1122 1123 1124 1125 1126 1127 1128 0
-114 707 0
-1129 706 0
-1129 650 0
-706 -650 1129 0
-1130 708 0
-1130 667 0
-708 -667 1130 0
-1131 709 0
-1131 675 0
-709 -675 1131 0
-1132 710 0
-1132 683 0
-710 -683 1132 0
-1133 711 0
-1133 691 0
-711 -691 1133 0
-1134 712 0
-1134 699 0
-712 -699 1134 0
-1135 713 0
-1135 715 0
-713 -715 1135 0
-114 -1129 0
-114 -1130 0
-114 -1131 0
-114 -1132 0
-114 -1133 0
-114 -1134 0
-114 -1135 0
-707 114 1129 1130 1131 1132 1133 1134 1135 0
-132 708 0
-1136 706 0
-1136 653 0
-706 -653 1136 0
-1137 707 0
-1137 652 0
-707 -652 1137 0
-1138 709 0
-1138 676 0
-709 -676 1138 0
-1139 710 0
-1139 684 0
-710 -684 1139 0
-1140 711 0
-1140 692 0
-711 -692 1140 0
-1141 712 0
-1141 700 0
-712 -700 1141 0
-1142 713 0
-1142 716 0
-713 -716 1142 0
-132 -1136 0
-132 -1137 0
-132 -1138 0
-132 -1139 0
-132 -1140 0
-132 -1141 0
-132 -1142 0
-708 132 1136 1137 1138 1139 1140 1141 1142 0
-150 709 0
-1143 706 0
-1143 655 0
-706 -655 1143 0
-1144 707 0
-1144 654 0
-707 -654 1144 0
-1145 708 0
-1145 668 0
-708 -668 1145 0
-1146 710 0
-1146 685 0
-710 -685 1146 0
-1147 711 0
-1147 693 0
-711 -693 1147 0
-1148 712 0
-1148 701 0
-712 -701 1148 0
-1149 713 0
-1149 717 0
-713 -717 1149 0
-150 -1143 0
-150 -1144 0
-150 -1145 0
-150 -1146 0
-150 -1147 0
-150 -1148 0
-150 -1149 0
-709 150 1143 1144 1145 1146 1147 1148 1149 0
-168 710 0
-1150 706 0
-1150 657 0
-706 -657 1150 0
-1151 707 0
-1151 656 0
-707 -656 1151 0
-1152 708 0
-1152 669 0
-708 -669 1152 0
-1153 709 0
-1153 677 0
-709 -677 1153 0
-1154 711 0
-1154 694 0
-711 -694 1154 0
-1155 712 0
-1155 702 0
-712 -702 1155 0
-1156 713 0
-1156 718 0
-713 -718 1156 0
-168 -1150 0
-168 -1151 0
-168 -1152 0
-168 -1153 0
-168 -1154 0
-168 -1155 0
-168 -1156 0
-710 168 1150 1151 1152 1153 1154 1155 1156 0
-186 711 0
-1157 706 0
-1157 659 0
-706 -659 1157 0
-1158 707 0
-1158 658 0
-707 -658 1158 0
-1159 708 0
-1159 670 0
-708 -670 1159 0
-1160 709 0
-1160 678 0
-709 -678 1160 0
-1161 710 0
-1161 686 0
-710 -686 1161 0
-1162 712 0
-1162 703 0
-712 -703 1162 0
-1163 713 0
-1163 719 0
-713 -719 1163 0
-186 -1157 0
-186 -1158 0
-186 -1159 0
-186 -1160 0
-186 -1161 0
-186 -1162 0
-186 -1163 0
-711 186 1157 1158 1159 1160 1161 1162 1163 0
-204 712 0
-1164 706 0
-1164 661 0
-706 -661 1164 0
-1165 707 0
-1165 660 0
-707 -660 1165 0
-1166 708 0
-1166 671 0
-708 -671 1166 0
-1167 709 0
-1167 679 0
-709 -679 1167 0
-1168 710 0
-1168 687 0
-710 -687 1168 0
-1169 711 0
-1169 695 0
-711 -695 1169 0
-1170 713 0
-1170 720 0
-713 -720 1170 0
-204 -1164 0
-204 -1165 0
-204 -1166 0
-204 -1167 0
-204 -1168 0
-204 -1169 0
-204 -1170 0
-712 204 1164 1165 1166 1167 1168 1169 1170 0
-222 0
-240 713 0
-1171 706 0
-1171 665 0
-706 -665 1171 0
-1172 707 0
-1172 664 0
-707 -664 1172 0
-1173 708 0
-1173 673 0
-708 -673 1173 0
-1174 709 0
-1174 681 0
-709 -681 1174 0
-1175 710 0
-1175 689 0
-710 -689 1175 0
-1176 711 0
-1176 697 0
-711 -697 1176 0
-1177 712 0
-1177 705 0
-712 -705 1177 0
-240 -1171 0
-240 -1172 0
-240 -1173 0
-240 -1174 0
-240 -1175 0
-240 -1176 0
-240 -1177 0
-713 240 1171 1172 1173 1174 1175 1176 1177 0
-98 714 0
-1178 715 0
-1178 651 0
-715 -651 1178 0
-1179 716 0
-1179 666 0
-716 -666 1179 0
-1180 717 0
-1180 674 0
-717 -674 1180 0
-1181 718 0
-1181 682 0
-718 -682 1181 0
-1182 719 0
-1182 690 0
-719 -690 1182 0
-1183 720 0
-1183 698 0
-720 -698 1183 0
-1184 721 0
-1184 706 0
-721 -706 1184 0
-98 -1178 0
-98 -1179 0
-98 -1180 0
-98 -1181 0
-98 -1182 0
-98 -1183 0
-98 -1184 0
-714 98 1178 1179 1180 1181 1182 1183 1184 0
-116 715 0
-1185 714 0
-1185 650 0
-714 -650 1185 0
-1186 716 0
-1186 667 0
-716 -667 1186 0
-1187 717 0
-1187 675 0
-717 -675 1187 0
-1188 718 0
-1188 683 0
-718 -683 1188 0
-1189 719 0
-1189 691 0
-719 -691 1189 0
-1190 720 0
-1190 699 0
-720 -699 1190 0
-1191 721 0
-1191 707 0
-721 -707 1191 0
-116 -1185 0
-116 -1186 0
-116 -1187 0
-116 -1188 0
-116 -1189 0
-116 -1190 0
-116 -1191 0
-715 116 1185 1186 1187 1188 1189 1190 1191 0
-134 716 0
-1192 714 0
-1192 653 0
-714 -653 1192 0
-1193 715 0
-1193 652 0
-715 -652 1193 0
-1194 717 0
-1194 676 0
-717 -676 1194 0
-1195 718 0
-1195 684 0
-718 -684 1195 0
-1196 719 0
-1196 692 0
-719 -692 1196 0
-1197 720 0
-1197 700 0
-720 -700 1197 0
-1198 721 0
-1198 708 0
-721 -708 1198 0
-134 -1192 0
-134 -1193 0
-134 -1194 0
-134 -1195 0
-134 -1196 0
-134 -1197 0
-134 -1198 0
-716 134 1192 1193 1194 1195 1196 1197 1198 0
-152 717 0
-1199 714 0
-1199 655 0
-714 -655 1199 0
-1200 715 0
-1200 654 0
-715 -654 1200 0
-1201 716 0
-1201 668 0
-716 -668 1201 0
-1202 718 0
-1202 685 0
-718 -685 1202 0
-1203 719 0
-1203 693 0
-719 -693 1203 0
-1204 720 0
-1204 701 0
-720 -701 1204 0
-1205 721 0
-1205 709 0
-721 -709 1205 0
-152 -1199 0
-152 -1200 0
-152 -1201 0
-152 -1202 0
-152 -1203 0
-152 -1204 0
-152 -1205 0
-717 152 1199 1200 1201 1202 1203 1204 1205 0
-170 718 0
-1206 714 0
-1206 657 0
-714 -657 1206 0
-1207 715 0
-1207 656 0
-715 -656 1207 0
-1208 716 0
-1208 669 0
-716 -669 1208 0
-1209 717 0
-1209 677 0
-717 -677 1209 0
-1210 719 0
-1210 694 0
-719 -694 1210 0
-1211 720 0
-1211 702 0
-720 -702 1211 0
-1212 721 0
-1212 710 0
-721 -710 1212 0
-170 -1206 0
-170 -1207 0
-170 -1208 0
-170 -1209 0
-170 -1210 0
-170 -1211 0
-170 -1212 0
-718 170 1206 1207 1208 1209 1210 1211 1212 0
-188 719 0
-1213 714 0
-1213 659 0
-714 -659 1213 0
-1214 715 0
-1214 658 0
-715 -658 1214 0
-1215 716 0
-1215 670 0
-716 -670 1215 0
-1216 717 0
-1216 678 0
-717 -678 1216 0
-1217 718 0
-1217 686 0
-718 -686 1217 0
-1218 720 0
-1218 703 0
-720 -703 1218 0
-1219 721 0
-1219 711 0
-721 -711 1219 0
-188 -1213 0
-188 -1214 0
-188 -1215 0
-188 -1216 0
-188 -1217 0
-188 -1218 0
-188 -1219 0
-719 188 1213 1214 1215 1216 1217 1218 1219 0
-206 720 0
-1220 714 0
-1220 661 0
-714 -661 1220 0
-1221 715 0
-1221 660 0
-715 -660 1221 0
-1222 716 0
-1222 671 0
-716 -671 1222 0
-1223 717 0
-1223 679 0
-717 -679 1223 0
-1224 718 0
-1224 687 0
-718 -687 1224 0
-1225 719 0
-1225 695 0
-719 -695 1225 0
-1226 721 0
-1226 712 0
-721 -712 1226 0
-206 -1220 0
-206 -1221 0
-206 -1222 0
-206 -1223 0
-206 -1224 0
-206 -1225 0
-206 -1226 0
-720 206 1220 1221 1222 1223 1224 1225 1226 0
-224 721 0
-1227 714 0
-1227 663 0
-714 -663 1227 0
-1228 715 0
-1228 662 0
-715 -662 1228 0
-1229 716 0
-1229 672 0
-716 -672 1229 0
-1230 717 0
-1230 680 0
-717 -680 1230 0
-1231 718 0
-1231 688 0
-718 -688 1231 0
-1232 719 0
-1232 696 0
-719 -696 1232 0
-1233 720 0
-1233 704 0
-720 -704 1233 0
-224 -1227 0
-224 -1228 0
-224 -1229 0
-224 -1230 0
-224 -1231 0
-224 -1232 0
-224 -1233 0
-721 224 1227 1228 1229 1230 1231 1232 1233 0
-242 0
