p cnf 27 71
1 2 -3 0
3 -1 0
3 -2 0
-1 -2 -4 0
4 1 0
4 2 0
-5 1 6 0
-6 5 0
-6 -1 0
7 6 -8 0
8 -7 0
8 -6 0
1 -7 -5 -9 0
9 -1 0
9 7 0
9 5 0
1 -10 -2 -11 0
11 -1 0
11 10 0
11 2 0
-10 -5 5 12 0
-12 10 0
-12 5 0
-12 -5 0
13 12 -14 0
14 -13 0
14 -12 0
-15 -5 5 16 0
-16 15 0
-16 5 0
-16 -5 0
17 16 -18 0
18 -17 0
18 -16 0
-19 -5 5 20 0
-20 19 0
-20 5 0
-20 -5 0
21 20 -22 0
22 -21 0
22 -20 0
5 -13 -10 -5 -23 0
23 -5 0
23 13 0
23 10 0
23 5 0
5 -17 -15 -5 -24 0
24 -5 0
24 17 0
24 15 0
24 5 0
5 -21 -19 -5 -25 0
25 -5 0
25 21 0
25 19 0
25 5 0
-3 -4 -8 -9 -11 -14 -18 -22 -23 -24 -25 26 0
-26 3 0
-26 4 0
-26 8 0
-26 9 0
-26 11 0
-26 14 0
-26 18 0
-26 22 0
-26 23 0
-26 24 0
-26 25 0
26 0
27 0
-10 0
