p cnf 90 256
1 2 -3 0
4 5 -6 0
3 -1 0
6 -4 0
3 -2 0
6 -5 0
-1 -2 -7 0
-4 -5 -8 0
7 1 0
8 4 0
7 2 0
8 5 0
-9 1 10 0
-11 4 12 0
-10 9 0
-12 11 0
-10 -1 0
-12 -4 0
13 10 -14 0
15 12 -16 0
14 -13 0
16 -15 0
14 -10 0
16 -12 0
1 -13 -9 -17 0
4 -15 -11 -18 0
17 -1 0
18 -4 0
17 13 0
18 15 0
17 9 0
18 11 0
1 -19 -2 -20 0
4 -21 -5 -22 0
1 -23 -2 -24 0
4 -25 -5 -26 0
20 -1 0
22 -4 0
24 -1 0
26 -4 0
20 19 0
22 21 0
24 23 0
26 25 0
20 2 0
22 5 0
24 2 0
26 5 0
-19 -9 9 27 0
-21 -11 9 28 0
-23 -9 11 29 0
-25 -11 11 30 0
-27 19 0
-28 21 0
-29 23 0
-30 25 0
-27 9 0
-28 11 0
-29 9 0
-30 11 0
-27 -9 0
-28 -9 0
-29 -11 0
-30 -11 0
31 27 -32 0
33 28 -34 0
35 29 -36 0
37 30 -38 0
32 -31 0
34 -33 0
36 -35 0
38 -37 0
32 -27 0
34 -28 0
36 -29 0
38 -30 0
-39 -9 9 40 0
-41 -11 9 42 0
-43 -9 11 44 0
-45 -11 11 46 0
-40 39 0
-42 41 0
-44 43 0
-46 45 0
-40 9 0
-42 11 0
-44 9 0
-46 11 0
-40 -9 0
-42 -9 0
-44 -11 0
-46 -11 0
47 40 -48 0
49 42 -50 0
51 44 -52 0
53 46 -54 0
48 -47 0
50 -49 0
52 -51 0
54 -53 0
48 -40 0
50 -42 0
52 -44 0
54 -46 0
-55 -9 9 56 0
-57 -11 9 58 0
-59 -9 11 60 0
-61 -11 11 62 0
-56 55 0
-58 57 0
-60 59 0
-62 61 0
-56 9 0
-58 11 0
-60 9 0
-62 11 0
-56 -9 0
-58 -9 0
-60 -11 0
-62 -11 0
63 56 -64 0
65 58 -66 0
67 60 -68 0
69 62 -70 0
64 -63 0
66 -65 0
68 -67 0
70 -69 0
64 -56 0
66 -58 0
68 -60 0
70 -62 0
9 -31 -19 -9 -71 0
9 -33 -21 -11 -72 0
11 -35 -23 -9 -73 0
11 -37 -25 -11 -74 0
71 -9 0
72 -9 0
73 -11 0
74 -11 0
71 31 0
72 33 0
73 35 0
74 37 0
71 19 0
72 21 0
73 23 0
74 25 0
71 9 0
72 11 0
73 9 0
74 11 0
9 -47 -39 -9 -75 0
9 -49 -41 -11 -76 0
11 -51 -43 -9 -77 0
11 -53 -45 -11 -78 0
75 -9 0
76 -9 0
77 -11 0
78 -11 0
75 47 0
76 49 0
77 51 0
78 53 0
75 39 0
76 41 0
77 43 0
78 45 0
75 9 0
76 11 0
77 9 0
78 11 0
9 -63 -55 -9 -79 0
9 -65 -57 -11 -80 0
11 -67 -59 -9 -81 0
11 -69 -61 -11 -82 0
79 -9 0
80 -9 0
81 -11 0
82 -11 0
79 63 0
80 65 0
81 67 0
82 69 0
79 55 0
80 57 0
81 59 0
82 61 0
79 9 0
80 11 0
81 9 0
82 11 0
-3 -7 -14 -17 -20 -32 -48 -64 -71 -75 -79 83 0
-6 -8 -16 -18 -22 -34 -50 -66 -72 -76 -80 84 0
-3 -7 -14 -17 -24 -36 -52 -68 -73 -77 -81 85 0
-6 -8 -16 -18 -26 -38 -54 -70 -74 -78 -82 86 0
-83 3 0
-84 6 0
-85 3 0
-86 6 0
-83 7 0
-84 8 0
-85 7 0
-86 8 0
-83 14 0
-84 16 0
-85 14 0
-86 16 0
-83 17 0
-84 18 0
-85 17 0
-86 18 0
-83 20 0
-84 22 0
-85 24 0
-86 26 0
-83 32 0
-84 34 0
-85 36 0
-86 38 0
-83 48 0
-84 50 0
-85 52 0
-86 54 0
-83 64 0
-84 66 0
-85 68 0
-86 70 0
-83 71 0
-84 72 0
-85 73 0
-86 74 0
-83 75 0
-84 76 0
-85 77 0
-86 78 0
-83 79 0
-84 80 0
-85 81 0
-86 82 0
83 0
84 0
85 0
86 0
87 0
88 89 0
-88 -89 0
90 0
89 88 0
-89 -88 0
-19 0
-23 88 0
-88 23 0
-21 89 0
-89 21 0
-25 0
