p cnf 195 585
1 2 -3 0
4 5 -6 0
7 8 -9 0
3 -1 0
6 -4 0
9 -7 0
3 -2 0
6 -5 0
9 -8 0
-1 -2 -10 0
-4 -5 -11 0
-7 -8 -12 0
10 1 0
11 4 0
12 7 0
10 2 0
11 5 0
12 8 0
-13 1 14 0
-15 4 16 0
-17 7 18 0
-14 13 0
-16 15 0
-18 17 0
-14 -1 0
-16 -4 0
-18 -7 0
19 14 -20 0
21 16 -22 0
23 18 -24 0
20 -19 0
22 -21 0
24 -23 0
20 -14 0
22 -16 0
24 -18 0
1 -19 -13 -25 0
4 -21 -15 -26 0
7 -23 -17 -27 0
25 -1 0
26 -4 0
27 -7 0
25 19 0
26 21 0
27 23 0
25 13 0
26 15 0
27 17 0
1 -28 -2 -29 0
4 -30 -5 -31 0
7 -32 -8 -33 0
1 -34 -2 -35 0
4 -36 -5 -37 0
7 -38 -8 -39 0
1 -40 -2 -41 0
4 -42 -5 -43 0
7 -44 -8 -45 0
29 -1 0
31 -4 0
33 -7 0
35 -1 0
37 -4 0
39 -7 0
41 -1 0
43 -4 0
45 -7 0
29 28 0
31 30 0
33 32 0
35 34 0
37 36 0
39 38 0
41 40 0
43 42 0
45 44 0
29 2 0
31 5 0
33 8 0
35 2 0
37 5 0
39 8 0
41 2 0
43 5 0
45 8 0
-46 -13 13 47 0
-48 -15 13 49 0
-50 -17 13 51 0
-52 -13 15 53 0
-54 -15 15 55 0
-56 -17 15 57 0
-58 -13 17 59 0
-60 -15 17 61 0
-62 -17 17 63 0
-47 46 0
-49 48 0
-51 50 0
-53 52 0
-55 54 0
-57 56 0
-59 58 0
-61 60 0
-63 62 0
-47 13 0
-49 15 0
-51 17 0
-53 13 0
-55 15 0
-57 17 0
-59 13 0
-61 15 0
-63 17 0
-47 -13 0
-49 -13 0
-51 -13 0
-53 -15 0
-55 -15 0
-57 -15 0
-59 -17 0
-61 -17 0
-63 -17 0
64 47 -65 0
66 49 -67 0
68 51 -69 0
70 53 -71 0
72 55 -73 0
74 57 -75 0
76 59 -77 0
78 61 -79 0
80 63 -81 0
65 -64 0
67 -66 0
69 -68 0
71 -70 0
73 -72 0
75 -74 0
77 -76 0
79 -78 0
81 -80 0
65 -47 0
67 -49 0
69 -51 0
71 -53 0
73 -55 0
75 -57 0
77 -59 0
79 -61 0
81 -63 0
-82 -13 13 83 0
-84 -15 13 85 0
-86 -17 13 87 0
-88 -13 15 89 0
-90 -15 15 91 0
-92 -17 15 93 0
-94 -13 17 95 0
-96 -15 17 97 0
-98 -17 17 99 0
-83 82 0
-85 84 0
-87 86 0
-89 88 0
-91 90 0
-93 92 0
-95 94 0
-97 96 0
-99 98 0
-83 13 0
-85 15 0
-87 17 0
-89 13 0
-91 15 0
-93 17 0
-95 13 0
-97 15 0
-99 17 0
-83 -13 0
-85 -13 0
-87 -13 0
-89 -15 0
-91 -15 0
-93 -15 0
-95 -17 0
-97 -17 0
-99 -17 0
100 83 -101 0
102 85 -103 0
104 87 -105 0
106 89 -107 0
108 91 -109 0
110 93 -111 0
112 95 -113 0
114 97 -115 0
116 99 -117 0
101 -100 0
103 -102 0
105 -104 0
107 -106 0
109 -108 0
111 -110 0
113 -112 0
115 -114 0
117 -116 0
101 -83 0
103 -85 0
105 -87 0
107 -89 0
109 -91 0
111 -93 0
113 -95 0
115 -97 0
117 -99 0
-28 -13 13 118 0
-30 -15 13 119 0
-32 -17 13 120 0
-34 -13 15 121 0
-36 -15 15 122 0
-38 -17 15 123 0
-40 -13 17 124 0
-42 -15 17 125 0
-44 -17 17 126 0
-118 28 0
-119 30 0
-120 32 0
-121 34 0
-122 36 0
-123 38 0
-124 40 0
-125 42 0
-126 44 0
-118 13 0
-119 15 0
-120 17 0
-121 13 0
-122 15 0
-123 17 0
-124 13 0
-125 15 0
-126 17 0
-118 -13 0
-119 -13 0
-120 -13 0
-121 -15 0
-122 -15 0
-123 -15 0
-124 -17 0
-125 -17 0
-126 -17 0
127 118 -128 0
129 119 -130 0
131 120 -132 0
133 121 -134 0
135 122 -136 0
137 123 -138 0
139 124 -140 0
141 125 -142 0
143 126 -144 0
128 -127 0
130 -129 0
132 -131 0
134 -133 0
136 -135 0
138 -137 0
140 -139 0
142 -141 0
144 -143 0
128 -118 0
130 -119 0
132 -120 0
134 -121 0
136 -122 0
138 -123 0
140 -124 0
142 -125 0
144 -126 0
13 -64 -46 -13 -145 0
13 -66 -48 -15 -146 0
13 -68 -50 -17 -147 0
15 -70 -52 -13 -148 0
15 -72 -54 -15 -149 0
15 -74 -56 -17 -150 0
17 -76 -58 -13 -151 0
17 -78 -60 -15 -152 0
17 -80 -62 -17 -153 0
145 -13 0
146 -13 0
147 -13 0
148 -15 0
149 -15 0
150 -15 0
151 -17 0
152 -17 0
153 -17 0
145 64 0
146 66 0
147 68 0
148 70 0
149 72 0
150 74 0
151 76 0
152 78 0
153 80 0
145 46 0
146 48 0
147 50 0
148 52 0
149 54 0
150 56 0
151 58 0
152 60 0
153 62 0
145 13 0
146 15 0
147 17 0
148 13 0
149 15 0
150 17 0
151 13 0
152 15 0
153 17 0
13 -100 -82 -13 -154 0
13 -102 -84 -15 -155 0
13 -104 -86 -17 -156 0
15 -106 -88 -13 -157 0
15 -108 -90 -15 -158 0
15 -110 -92 -17 -159 0
17 -112 -94 -13 -160 0
17 -114 -96 -15 -161 0
17 -116 -98 -17 -162 0
154 -13 0
155 -13 0
156 -13 0
157 -15 0
158 -15 0
159 -15 0
160 -17 0
161 -17 0
162 -17 0
154 100 0
155 102 0
156 104 0
157 106 0
158 108 0
159 110 0
160 112 0
161 114 0
162 116 0
154 82 0
155 84 0
156 86 0
157 88 0
158 90 0
159 92 0
160 94 0
161 96 0
162 98 0
154 13 0
155 15 0
156 17 0
157 13 0
158 15 0
159 17 0
160 13 0
161 15 0
162 17 0
13 -127 -28 -13 -163 0
13 -129 -30 -15 -164 0
13 -131 -32 -17 -165 0
15 -133 -34 -13 -166 0
15 -135 -36 -15 -167 0
15 -137 -38 -17 -168 0
17 -139 -40 -13 -169 0
17 -141 -42 -15 -170 0
17 -143 -44 -17 -171 0
163 -13 0
164 -13 0
165 -13 0
166 -15 0
167 -15 0
168 -15 0
169 -17 0
170 -17 0
171 -17 0
163 127 0
164 129 0
165 131 0
166 133 0
167 135 0
168 137 0
169 139 0
170 141 0
171 143 0
163 28 0
164 30 0
165 32 0
166 34 0
167 36 0
168 38 0
169 40 0
170 42 0
171 44 0
163 13 0
164 15 0
165 17 0
166 13 0
167 15 0
168 17 0
169 13 0
170 15 0
171 17 0
-3 -10 -20 -25 -29 -65 -101 -128 -145 -154 -163 172 0
-6 -11 -22 -26 -31 -67 -103 -130 -146 -155 -164 173 0
-9 -12 -24 -27 -33 -69 -105 -132 -147 -156 -165 174 0
-3 -10 -20 -25 -35 -71 -107 -134 -148 -157 -166 175 0
-6 -11 -22 -26 -37 -73 -109 -136 -149 -158 -167 176 0
-9 -12 -24 -27 -39 -75 -111 -138 -150 -159 -168 177 0
-3 -10 -20 -25 -41 -77 -113 -140 -151 -160 -169 178 0
-6 -11 -22 -26 -43 -79 -115 -142 -152 -161 -170 179 0
-9 -12 -24 -27 -45 -81 -117 -144 -153 -162 -171 180 0
-172 3 0
-173 6 0
-174 9 0
-175 3 0
-176 6 0
-177 9 0
-178 3 0
-179 6 0
-180 9 0
-172 10 0
-173 11 0
-174 12 0
-175 10 0
-176 11 0
-177 12 0
-178 10 0
-179 11 0
-180 12 0
-172 20 0
-173 22 0
-174 24 0
-175 20 0
-176 22 0
-177 24 0
-178 20 0
-179 22 0
-180 24 0
-172 25 0
-173 26 0
-174 27 0
-175 25 0
-176 26 0
-177 27 0
-178 25 0
-179 26 0
-180 27 0
-172 29 0
-173 31 0
-174 33 0
-175 35 0
-176 37 0
-177 39 0
-178 41 0
-179 43 0
-180 45 0
-172 65 0
-173 67 0
-174 69 0
-175 71 0
-176 73 0
-177 75 0
-178 77 0
-179 79 0
-180 81 0
-172 101 0
-173 103 0
-174 105 0
-175 107 0
-176 109 0
-177 111 0
-178 113 0
-179 115 0
-180 117 0
-172 128 0
-173 130 0
-174 132 0
-175 134 0
-176 136 0
-177 138 0
-178 140 0
-179 142 0
-180 144 0
-172 145 0
-173 146 0
-174 147 0
-175 148 0
-176 149 0
-177 150 0
-178 151 0
-179 152 0
-180 153 0
-172 154 0
-173 155 0
-174 156 0
-175 157 0
-176 158 0
-177 159 0
-178 160 0
-179 161 0
-180 162 0
-172 163 0
-173 164 0
-174 165 0
-175 166 0
-176 167 0
-177 168 0
-178 169 0
-179 170 0
-180 171 0
172 0
173 0
174 0
175 0
176 0
177 0
178 0
179 0
180 0
181 0
182 183 0
-182 -183 0
-182 -184 185 0
185 186 0
-185 -186 0
-185 -187 182 0
188 0
183 182 0
-183 -182 0
-183 -185 184 0
184 187 0
-184 -187 0
-184 -186 183 0
189 0
186 185 0
-186 -185 0
-186 -182 187 0
187 184 0
-187 -184 0
-187 -183 186 0
-28 0
-34 182 0
-190 185 0
-190 187 0
-185 -187 190 0
-34 -190 0
-182 34 190 0
-40 185 0
-191 182 0
-191 184 0
-182 -184 191 0
-40 -191 0
-185 40 191 0
-30 183 0
-192 184 0
-192 186 0
-184 -186 192 0
-30 -192 0
-183 30 192 0
-36 0
-42 184 0
-193 183 0
-193 185 0
-183 -185 193 0
-42 -193 0
-184 42 193 0
-32 186 0
-194 187 0
-194 183 0
-187 -183 194 0
-32 -194 0
-186 32 194 0
-38 187 0
-195 186 0
-195 182 0
-186 -182 195 0
-38 -195 0
-187 38 195 0
-44 0
