p cnf 348 1088
1 2 -3 0
4 5 -6 0
7 8 -9 0
10 11 -12 0
3 -1 0
6 -4 0
9 -7 0
12 -10 0
3 -2 0
6 -5 0
9 -8 0
12 -11 0
-1 -2 -13 0
-4 -5 -14 0
-7 -8 -15 0
-10 -11 -16 0
13 1 0
14 4 0
15 7 0
16 10 0
13 2 0
14 5 0
15 8 0
16 11 0
-17 1 18 0
-19 4 20 0
-21 7 22 0
-23 10 24 0
-18 17 0
-20 19 0
-22 21 0
-24 23 0
-18 -1 0
-20 -4 0
-22 -7 0
-24 -10 0
25 18 -26 0
27 20 -28 0
29 22 -30 0
31 24 -32 0
26 -25 0
28 -27 0
30 -29 0
32 -31 0
26 -18 0
28 -20 0
30 -22 0
32 -24 0
1 -25 -17 -33 0
4 -27 -19 -34 0
7 -29 -21 -35 0
10 -31 -23 -36 0
33 -1 0
34 -4 0
35 -7 0
36 -10 0
33 25 0
34 27 0
35 29 0
36 31 0
33 17 0
34 19 0
35 21 0
36 23 0
1 -37 -2 -38 0
4 -39 -5 -40 0
7 -41 -8 -42 0
10 -43 -11 -44 0
1 -45 -2 -46 0
4 -47 -5 -48 0
7 -49 -8 -50 0
10 -51 -11 -52 0
1 -53 -2 -54 0
4 -55 -5 -56 0
7 -57 -8 -58 0
10 -59 -11 -60 0
1 -61 -2 -62 0
4 -63 -5 -64 0
7 -65 -8 -66 0
10 -67 -11 -68 0
38 -1 0
40 -4 0
42 -7 0
44 -10 0
46 -1 0
48 -4 0
50 -7 0
52 -10 0
54 -1 0
56 -4 0
58 -7 0
60 -10 0
62 -1 0
64 -4 0
66 -7 0
68 -10 0
38 37 0
40 39 0
42 41 0
44 43 0
46 45 0
48 47 0
50 49 0
52 51 0
54 53 0
56 55 0
58 57 0
60 59 0
62 61 0
64 63 0
66 65 0
68 67 0
38 2 0
40 5 0
42 8 0
44 11 0
46 2 0
48 5 0
50 8 0
52 11 0
54 2 0
56 5 0
58 8 0
60 11 0
62 2 0
64 5 0
66 8 0
68 11 0
-37 -17 17 69 0
-39 -19 17 70 0
-41 -21 17 71 0
-43 -23 17 72 0
-45 -17 19 73 0
-47 -19 19 74 0
-49 -21 19 75 0
-51 -23 19 76 0
-53 -17 21 77 0
-55 -19 21 78 0
-57 -21 21 79 0
-59 -23 21 80 0
-61 -17 23 81 0
-63 -19 23 82 0
-65 -21 23 83 0
-67 -23 23 84 0
-69 37 0
-70 39 0
-71 41 0
-72 43 0
-73 45 0
-74 47 0
-75 49 0
-76 51 0
-77 53 0
-78 55 0
-79 57 0
-80 59 0
-81 61 0
-82 63 0
-83 65 0
-84 67 0
-69 17 0
-70 19 0
-71 21 0
-72 23 0
-73 17 0
-74 19 0
-75 21 0
-76 23 0
-77 17 0
-78 19 0
-79 21 0
-80 23 0
-81 17 0
-82 19 0
-83 21 0
-84 23 0
-69 -17 0
-70 -17 0
-71 -17 0
-72 -17 0
-73 -19 0
-74 -19 0
-75 -19 0
-76 -19 0
-77 -21 0
-78 -21 0
-79 -21 0
-80 -21 0
-81 -23 0
-82 -23 0
-83 -23 0
-84 -23 0
85 69 -86 0
87 70 -88 0
89 71 -90 0
91 72 -92 0
93 73 -94 0
95 74 -96 0
97 75 -98 0
99 76 -100 0
101 77 -102 0
103 78 -104 0
105 79 -106 0
107 80 -108 0
109 81 -110 0
111 82 -112 0
113 83 -114 0
115 84 -116 0
86 -85 0
88 -87 0
90 -89 0
92 -91 0
94 -93 0
96 -95 0
98 -97 0
100 -99 0
102 -101 0
104 -103 0
106 -105 0
108 -107 0
110 -109 0
112 -111 0
114 -113 0
116 -115 0
86 -69 0
88 -70 0
90 -71 0
92 -72 0
94 -73 0
96 -74 0
98 -75 0
100 -76 0
102 -77 0
104 -78 0
106 -79 0
108 -80 0
110 -81 0
112 -82 0
114 -83 0
116 -84 0
-117 -17 17 118 0
-119 -19 17 120 0
-121 -21 17 122 0
-123 -23 17 124 0
-125 -17 19 126 0
-127 -19 19 128 0
-129 -21 19 130 0
-131 -23 19 132 0
-133 -17 21 134 0
-135 -19 21 136 0
-137 -21 21 138 0
-139 -23 21 140 0
-141 -17 23 142 0
-143 -19 23 144 0
-145 -21 23 146 0
-147 -23 23 148 0
-118 117 0
-120 119 0
-122 121 0
-124 123 0
-126 125 0
-128 127 0
-130 129 0
-132 131 0
-134 133 0
-136 135 0
-138 137 0
-140 139 0
-142 141 0
-144 143 0
-146 145 0
-148 147 0
-118 17 0
-120 19 0
-122 21 0
-124 23 0
-126 17 0
-128 19 0
-130 21 0
-132 23 0
-134 17 0
-136 19 0
-138 21 0
-140 23 0
-142 17 0
-144 19 0
-146 21 0
-148 23 0
-118 -17 0
-120 -17 0
-122 -17 0
-124 -17 0
-126 -19 0
-128 -19 0
-130 -19 0
-132 -19 0
-134 -21 0
-136 -21 0
-138 -21 0
-140 -21 0
-142 -23 0
-144 -23 0
-146 -23 0
-148 -23 0
149 118 -150 0
151 120 -152 0
153 122 -154 0
155 124 -156 0
157 126 -158 0
159 128 -160 0
161 130 -162 0
163 132 -164 0
165 134 -166 0
167 136 -168 0
169 138 -170 0
171 140 -172 0
173 142 -174 0
175 144 -176 0
177 146 -178 0
179 148 -180 0
150 -149 0
152 -151 0
154 -153 0
156 -155 0
158 -157 0
160 -159 0
162 -161 0
164 -163 0
166 -165 0
168 -167 0
170 -169 0
172 -171 0
174 -173 0
176 -175 0
178 -177 0
180 -179 0
150 -118 0
152 -120 0
154 -122 0
156 -124 0
158 -126 0
160 -128 0
162 -130 0
164 -132 0
166 -134 0
168 -136 0
170 -138 0
172 -140 0
174 -142 0
176 -144 0
178 -146 0
180 -148 0
-181 -17 17 182 0
-183 -19 17 184 0
-185 -21 17 186 0
-187 -23 17 188 0
-189 -17 19 190 0
-191 -19 19 192 0
-193 -21 19 194 0
-195 -23 19 196 0
-197 -17 21 198 0
-199 -19 21 200 0
-201 -21 21 202 0
-203 -23 21 204 0
-205 -17 23 206 0
-207 -19 23 208 0
-209 -21 23 210 0
-211 -23 23 212 0
-182 181 0
-184 183 0
-186 185 0
-188 187 0
-190 189 0
-192 191 0
-194 193 0
-196 195 0
-198 197 0
-200 199 0
-202 201 0
-204 203 0
-206 205 0
-208 207 0
-210 209 0
-212 211 0
-182 17 0
-184 19 0
-186 21 0
-188 23 0
-190 17 0
-192 19 0
-194 21 0
-196 23 0
-198 17 0
-200 19 0
-202 21 0
-204 23 0
-206 17 0
-208 19 0
-210 21 0
-212 23 0
-182 -17 0
-184 -17 0
-186 -17 0
-188 -17 0
-190 -19 0
-192 -19 0
-194 -19 0
-196 -19 0
-198 -21 0
-200 -21 0
-202 -21 0
-204 -21 0
-206 -23 0
-208 -23 0
-210 -23 0
-212 -23 0
213 182 -214 0
215 184 -216 0
217 186 -218 0
219 188 -220 0
221 190 -222 0
223 192 -224 0
225 194 -226 0
227 196 -228 0
229 198 -230 0
231 200 -232 0
233 202 -234 0
235 204 -236 0
237 206 -238 0
239 208 -240 0
241 210 -242 0
243 212 -244 0
214 -213 0
216 -215 0
218 -217 0
220 -219 0
222 -221 0
224 -223 0
226 -225 0
228 -227 0
230 -229 0
232 -231 0
234 -233 0
236 -235 0
238 -237 0
240 -239 0
242 -241 0
244 -243 0
214 -182 0
216 -184 0
218 -186 0
220 -188 0
222 -190 0
224 -192 0
226 -194 0
228 -196 0
230 -198 0
232 -200 0
234 -202 0
236 -204 0
238 -206 0
240 -208 0
242 -210 0
244 -212 0
17 -85 -37 -17 -245 0
17 -87 -39 -19 -246 0
17 -89 -41 -21 -247 0
17 -91 -43 -23 -248 0
19 -93 -45 -17 -249 0
19 -95 -47 -19 -250 0
19 -97 -49 -21 -251 0
19 -99 -51 -23 -252 0
21 -101 -53 -17 -253 0
21 -103 -55 -19 -254 0
21 -105 -57 -21 -255 0
21 -107 -59 -23 -256 0
23 -109 -61 -17 -257 0
23 -111 -63 -19 -258 0
23 -113 -65 -21 -259 0
23 -115 -67 -23 -260 0
245 -17 0
246 -17 0
247 -17 0
248 -17 0
249 -19 0
250 -19 0
251 -19 0
252 -19 0
253 -21 0
254 -21 0
255 -21 0
256 -21 0
257 -23 0
258 -23 0
259 -23 0
260 -23 0
245 85 0
246 87 0
247 89 0
248 91 0
249 93 0
250 95 0
251 97 0
252 99 0
253 101 0
254 103 0
255 105 0
256 107 0
257 109 0
258 111 0
259 113 0
260 115 0
245 37 0
246 39 0
247 41 0
248 43 0
249 45 0
250 47 0
251 49 0
252 51 0
253 53 0
254 55 0
255 57 0
256 59 0
257 61 0
258 63 0
259 65 0
260 67 0
245 17 0
246 19 0
247 21 0
248 23 0
249 17 0
250 19 0
251 21 0
252 23 0
253 17 0
254 19 0
255 21 0
256 23 0
257 17 0
258 19 0
259 21 0
260 23 0
17 -149 -117 -17 -261 0
17 -151 -119 -19 -262 0
17 -153 -121 -21 -263 0
17 -155 -123 -23 -264 0
19 -157 -125 -17 -265 0
19 -159 -127 -19 -266 0
19 -161 -129 -21 -267 0
19 -163 -131 -23 -268 0
21 -165 -133 -17 -269 0
21 -167 -135 -19 -270 0
21 -169 -137 -21 -271 0
21 -171 -139 -23 -272 0
23 -173 -141 -17 -273 0
23 -175 -143 -19 -274 0
23 -177 -145 -21 -275 0
23 -179 -147 -23 -276 0
261 -17 0
262 -17 0
263 -17 0
264 -17 0
265 -19 0
266 -19 0
267 -19 0
268 -19 0
269 -21 0
270 -21 0
271 -21 0
272 -21 0
273 -23 0
274 -23 0
275 -23 0
276 -23 0
261 149 0
262 151 0
263 153 0
264 155 0
265 157 0
266 159 0
267 161 0
268 163 0
269 165 0
270 167 0
271 169 0
272 171 0
273 173 0
274 175 0
275 177 0
276 179 0
261 117 0
262 119 0
263 121 0
264 123 0
265 125 0
266 127 0
267 129 0
268 131 0
269 133 0
270 135 0
271 137 0
272 139 0
273 141 0
274 143 0
275 145 0
276 147 0
261 17 0
262 19 0
263 21 0
264 23 0
265 17 0
266 19 0
267 21 0
268 23 0
269 17 0
270 19 0
271 21 0
272 23 0
273 17 0
274 19 0
275 21 0
276 23 0
17 -213 -181 -17 -277 0
17 -215 -183 -19 -278 0
17 -217 -185 -21 -279 0
17 -219 -187 -23 -280 0
19 -221 -189 -17 -281 0
19 -223 -191 -19 -282 0
19 -225 -193 -21 -283 0
19 -227 -195 -23 -284 0
21 -229 -197 -17 -285 0
21 -231 -199 -19 -286 0
21 -233 -201 -21 -287 0
21 -235 -203 -23 -288 0
23 -237 -205 -17 -289 0
23 -239 -207 -19 -290 0
23 -241 -209 -21 -291 0
23 -243 -211 -23 -292 0
277 -17 0
278 -17 0
279 -17 0
280 -17 0
281 -19 0
282 -19 0
283 -19 0
284 -19 0
285 -21 0
286 -21 0
287 -21 0
288 -21 0
289 -23 0
290 -23 0
291 -23 0
292 -23 0
277 213 0
278 215 0
279 217 0
280 219 0
281 221 0
282 223 0
283 225 0
284 227 0
285 229 0
286 231 0
287 233 0
288 235 0
289 237 0
290 239 0
291 241 0
292 243 0
277 181 0
278 183 0
279 185 0
280 187 0
281 189 0
282 191 0
283 193 0
284 195 0
285 197 0
286 199 0
287 201 0
288 203 0
289 205 0
290 207 0
291 209 0
292 211 0
277 17 0
278 19 0
279 21 0
280 23 0
281 17 0
282 19 0
283 21 0
284 23 0
285 17 0
286 19 0
287 21 0
288 23 0
289 17 0
290 19 0
291 21 0
292 23 0
-3 -13 -26 -33 -38 -86 -150 -214 -245 -261 -277 293 0
-6 -14 -28 -34 -40 -88 -152 -216 -246 -262 -278 294 0
-9 -15 -30 -35 -42 -90 -154 -218 -247 -263 -279 295 0
-12 -16 -32 -36 -44 -92 -156 -220 -248 -264 -280 296 0
-3 -13 -26 -33 -46 -94 -158 -222 -249 -265 -281 297 0
-6 -14 -28 -34 -48 -96 -160 -224 -250 -266 -282 298 0
-9 -15 -30 -35 -50 -98 -162 -226 -251 -267 -283 299 0
-12 -16 -32 -36 -52 -100 -164 -228 -252 -268 -284 300 0
-3 -13 -26 -33 -54 -102 -166 -230 -253 -269 -285 301 0
-6 -14 -28 -34 -56 -104 -168 -232 -254 -270 -286 302 0
-9 -15 -30 -35 -58 -106 -170 -234 -255 -271 -287 303 0
-12 -16 -32 -36 -60 -108 -172 -236 -256 -272 -288 304 0
-3 -13 -26 -33 -62 -110 -174 -238 -257 -273 -289 305 0
-6 -14 -28 -34 -64 -112 -176 -240 -258 -274 -290 306 0
-9 -15 -30 -35 -66 -114 -178 -242 -259 -275 -291 307 0
-12 -16 -32 -36 -68 -116 -180 -244 -260 -276 -292 308 0
-293 3 0
-294 6 0
-295 9 0
-296 12 0
-297 3 0
-298 6 0
-299 9 0
-300 12 0
-301 3 0
-302 6 0
-303 9 0
-304 12 0
-305 3 0
-306 6 0
-307 9 0
-308 12 0
-293 13 0
-294 14 0
-295 15 0
-296 16 0
-297 13 0
-298 14 0
-299 15 0
-300 16 0
-301 13 0
-302 14 0
-303 15 0
-304 16 0
-305 13 0
-306 14 0
-307 15 0
-308 16 0
-293 26 0
-294 28 0
-295 30 0
-296 32 0
-297 26 0
-298 28 0
-299 30 0
-300 32 0
-301 26 0
-302 28 0
-303 30 0
-304 32 0
-305 26 0
-306 28 0
-307 30 0
-308 32 0
-293 33 0
-294 34 0
-295 35 0
-296 36 0
-297 33 0
-298 34 0
-299 35 0
-300 36 0
-301 33 0
-302 34 0
-303 35 0
-304 36 0
-305 33 0
-306 34 0
-307 35 0
-308 36 0
-293 38 0
-294 40 0
-295 42 0
-296 44 0
-297 46 0
-298 48 0
-299 50 0
-300 52 0
-301 54 0
-302 56 0
-303 58 0
-304 60 0
-305 62 0
-306 64 0
-307 66 0
-308 68 0
-293 86 0
-294 88 0
-295 90 0
-296 92 0
-297 94 0
-298 96 0
-299 98 0
-300 100 0
-301 102 0
-302 104 0
-303 106 0
-304 108 0
-305 110 0
-306 112 0
-307 114 0
-308 116 0
-293 150 0
-294 152 0
-295 154 0
-296 156 0
-297 158 0
-298 160 0
-299 162 0
-300 164 0
-301 166 0
-302 168 0
-303 170 0
-304 172 0
-305 174 0
-306 176 0
-307 178 0
-308 180 0
-293 214 0
-294 216 0
-295 218 0
-296 220 0
-297 222 0
-298 224 0
-299 226 0
-300 228 0
-301 230 0
-302 232 0
-303 234 0
-304 236 0
-305 238 0
-306 240 0
-307 242 0
-308 244 0
-293 245 0
-294 246 0
-295 247 0
-296 248 0
-297 249 0
-298 250 0
-299 251 0
-300 252 0
-301 253 0
-302 254 0
-303 255 0
-304 256 0
-305 257 0
-306 258 0
-307 259 0
-308 260 0
-293 261 0
-294 262 0
-295 263 0
-296 264 0
-297 265 0
-298 266 0
-299 267 0
-300 268 0
-301 269 0
-302 270 0
-303 271 0
-304 272 0
-305 273 0
-306 274 0
-307 275 0
-308 276 0
-293 277 0
-294 278 0
-295 279 0
-296 280 0
-297 281 0
-298 282 0
-299 283 0
-300 284 0
-301 285 0
-302 286 0
-303 287 0
-304 288 0
-305 289 0
-306 290 0
-307 291 0
-308 292 0
293 0
294 0
295 0
296 0
297 0
298 0
299 0
300 0
301 0
302 0
303 0
304 0
305 0
306 0
307 0
308 0
309 0
310 311 0
-310 -311 0
-310 -312 313 0
-310 -314 315 0
313 316 0
-313 -316 0
-313 -317 310 0
-313 -318 315 0
315 319 0
-315 -319 0
-315 -320 310 0
-315 -321 313 0
322 0
311 310 0
-311 -310 0
-311 -313 312 0
-311 -315 314 0
312 317 0
-312 -317 0
-312 -316 311 0
-312 -318 314 0
314 320 0
-314 -320 0
-314 -319 311 0
-314 -321 312 0
323 0
316 313 0
-316 -313 0
-316 -310 317 0
-316 -315 318 0
317 312 0
-317 -312 0
-317 -311 316 0
-317 -314 318 0
318 321 0
-318 -321 0
-318 -319 316 0
-318 -320 317 0
324 0
319 315 0
-319 -315 0
-319 -310 320 0
-319 -313 321 0
320 314 0
-320 -314 0
-320 -311 319 0
-320 -312 321 0
321 318 0
-321 -318 0
-321 -316 319 0
-321 -317 320 0
-37 0
-45 310 0
-325 313 0
-325 317 0
-313 -317 325 0
-326 315 0
-326 320 0
-315 -320 326 0
-45 -325 0
-45 -326 0
-310 45 325 326 0
-53 313 0
-327 310 0
-327 312 0
-310 -312 327 0
-328 315 0
-328 321 0
-315 -321 328 0
-53 -327 0
-53 -328 0
-313 53 327 328 0
-61 315 0
-329 310 0
-329 314 0
-310 -314 329 0
-330 313 0
-330 318 0
-313 -318 330 0
-61 -329 0
-61 -330 0
-315 61 329 330 0
-39 311 0
-331 312 0
-331 316 0
-312 -316 331 0
-332 314 0
-332 319 0
-314 -319 332 0
-39 -331 0
-39 -332 0
-311 39 331 332 0
-47 0
-55 312 0
-333 311 0
-333 313 0
-311 -313 333 0
-334 314 0
-334 321 0
-314 -321 334 0
-55 -333 0
-55 -334 0
-312 55 333 334 0
-63 314 0
-335 311 0
-335 315 0
-311 -315 335 0
-336 312 0
-336 318 0
-312 -318 336 0
-63 -335 0
-63 -336 0
-314 63 335 336 0
-41 316 0
-337 317 0
-337 311 0
-317 -311 337 0
-338 318 0
-338 319 0
-318 -319 338 0
-41 -337 0
-41 -338 0
-316 41 337 338 0
-49 317 0
-339 316 0
-339 310 0
-316 -310 339 0
-340 318 0
-340 320 0
-318 -320 340 0
-49 -339 0
-49 -340 0
-317 49 339 340 0
-57 0
-65 318 0
-341 316 0
-341 315 0
-316 -315 341 0
-342 317 0
-342 314 0
-317 -314 342 0
-65 -341 0
-65 -342 0
-318 65 341 342 0
-43 319 0
-343 320 0
-343 311 0
-320 -311 343 0
-344 321 0
-344 316 0
-321 -316 344 0
-43 -343 0
-43 -344 0
-319 43 343 344 0
-51 320 0
-345 319 0
-345 310 0
-319 -310 345 0
-346 321 0
-346 317 0
-321 -317 346 0
-51 -345 0
-51 -346 0
-320 51 345 346 0
-59 321 0
-347 319 0
-347 313 0
-319 -313 347 0
-348 320 0
-348 312 0
-320 -312 348 0
-59 -347 0
-59 -348 0
-321 59 347 348 0
-67 0
