p cnf 555 1795
1 2 -3 0
4 5 -6 0
7 8 -9 0
10 11 -12 0
13 14 -15 0
3 -1 0
6 -4 0
9 -7 0
12 -10 0
15 -13 0
3 -2 0
6 -5 0
9 -8 0
12 -11 0
15 -14 0
-1 -2 -16 0
-4 -5 -17 0
-7 -8 -18 0
-10 -11 -19 0
-13 -14 -20 0
16 1 0
17 4 0
18 7 0
19 10 0
20 13 0
16 2 0
17 5 0
18 8 0
19 11 0
20 14 0
-21 1 22 0
-23 4 24 0
-25 7 26 0
-27 10 28 0
-29 13 30 0
-22 21 0
-24 23 0
-26 25 0
-28 27 0
-30 29 0
-22 -1 0
-24 -4 0
-26 -7 0
-28 -10 0
-30 -13 0
31 22 -32 0
33 24 -34 0
35 26 -36 0
37 28 -38 0
39 30 -40 0
32 -31 0
34 -33 0
36 -35 0
38 -37 0
40 -39 0
32 -22 0
34 -24 0
36 -26 0
38 -28 0
40 -30 0
1 -31 -21 -41 0
4 -33 -23 -42 0
7 -35 -25 -43 0
10 -37 -27 -44 0
13 -39 -29 -45 0
41 -1 0
42 -4 0
43 -7 0
44 -10 0
45 -13 0
41 31 0
42 33 0
43 35 0
44 37 0
45 39 0
41 21 0
42 23 0
43 25 0
44 27 0
45 29 0
1 -46 -2 -47 0
4 -48 -5 -49 0
7 -50 -8 -51 0
10 -52 -11 -53 0
13 -54 -14 -55 0
1 -56 -2 -57 0
4 -58 -5 -59 0
7 -60 -8 -61 0
10 -62 -11 -63 0
13 -64 -14 -65 0
1 -66 -2 -67 0
4 -68 -5 -69 0
7 -70 -8 -71 0
10 -72 -11 -73 0
13 -74 -14 -75 0
1 -76 -2 -77 0
4 -78 -5 -79 0
7 -80 -8 -81 0
10 -82 -11 -83 0
13 -84 -14 -85 0
1 -86 -2 -87 0
4 -88 -5 -89 0
7 -90 -8 -91 0
10 -92 -11 -93 0
13 -94 -14 -95 0
47 -1 0
49 -4 0
51 -7 0
53 -10 0
55 -13 0
57 -1 0
59 -4 0
61 -7 0
63 -10 0
65 -13 0
67 -1 0
69 -4 0
71 -7 0
73 -10 0
75 -13 0
77 -1 0
79 -4 0
81 -7 0
83 -10 0
85 -13 0
87 -1 0
89 -4 0
91 -7 0
93 -10 0
95 -13 0
47 46 0
49 48 0
51 50 0
53 52 0
55 54 0
57 56 0
59 58 0
61 60 0
63 62 0
65 64 0
67 66 0
69 68 0
71 70 0
73 72 0
75 74 0
77 76 0
79 78 0
81 80 0
83 82 0
85 84 0
87 86 0
89 88 0
91 90 0
93 92 0
95 94 0
47 2 0
49 5 0
51 8 0
53 11 0
55 14 0
57 2 0
59 5 0
61 8 0
63 11 0
65 14 0
67 2 0
69 5 0
71 8 0
73 11 0
75 14 0
77 2 0
79 5 0
81 8 0
83 11 0
85 14 0
87 2 0
89 5 0
91 8 0
93 11 0
95 14 0
-46 -21 21 96 0
-48 -23 21 97 0
-50 -25 21 98 0
-52 -27 21 99 0
-54 -29 21 100 0
-56 -21 23 101 0
-58 -23 23 102 0
-60 -25 23 103 0
-62 -27 23 104 0
-64 -29 23 105 0
-66 -21 25 106 0
-68 -23 25 107 0
-70 -25 25 108 0
-72 -27 25 109 0
-74 -29 25 110 0
-76 -21 27 111 0
-78 -23 27 112 0
-80 -25 27 113 0
-82 -27 27 114 0
-84 -29 27 115 0
-86 -21 29 116 0
-88 -23 29 117 0
-90 -25 29 118 0
-92 -27 29 119 0
-94 -29 29 120 0
-96 46 0
-97 48 0
-98 50 0
-99 52 0
-100 54 0
-101 56 0
-102 58 0
-103 60 0
-104 62 0
-105 64 0
-106 66 0
-107 68 0
-108 70 0
-109 72 0
-110 74 0
-111 76 0
-112 78 0
-113 80 0
-114 82 0
-115 84 0
-116 86 0
-117 88 0
-118 90 0
-119 92 0
-120 94 0
-96 21 0
-97 23 0
-98 25 0
-99 27 0
-100 29 0
-101 21 0
-102 23 0
-103 25 0
-104 27 0
-105 29 0
-106 21 0
-107 23 0
-108 25 0
-109 27 0
-110 29 0
-111 21 0
-112 23 0
-113 25 0
-114 27 0
-115 29 0
-116 21 0
-117 23 0
-118 25 0
-119 27 0
-120 29 0
-96 -21 0
-97 -21 0
-98 -21 0
-99 -21 0
-100 -21 0
-101 -23 0
-102 -23 0
-103 -23 0
-104 -23 0
-105 -23 0
-106 -25 0
-107 -25 0
-108 -25 0
-109 -25 0
-110 -25 0
-111 -27 0
-112 -27 0
-113 -27 0
-114 -27 0
-115 -27 0
-116 -29 0
-117 -29 0
-118 -29 0
-119 -29 0
-120 -29 0
121 96 -122 0
123 97 -124 0
125 98 -126 0
127 99 -128 0
129 100 -130 0
131 101 -132 0
133 102 -134 0
135 103 -136 0
137 104 -138 0
139 105 -140 0
141 106 -142 0
143 107 -144 0
145 108 -146 0
147 109 -148 0
149 110 -150 0
151 111 -152 0
153 112 -154 0
155 113 -156 0
157 114 -158 0
159 115 -160 0
161 116 -162 0
163 117 -164 0
165 118 -166 0
167 119 -168 0
169 120 -170 0
122 -121 0
124 -123 0
126 -125 0
128 -127 0
130 -129 0
132 -131 0
134 -133 0
136 -135 0
138 -137 0
140 -139 0
142 -141 0
144 -143 0
146 -145 0
148 -147 0
150 -149 0
152 -151 0
154 -153 0
156 -155 0
158 -157 0
160 -159 0
162 -161 0
164 -163 0
166 -165 0
168 -167 0
170 -169 0
122 -96 0
124 -97 0
126 -98 0
128 -99 0
130 -100 0
132 -101 0
134 -102 0
136 -103 0
138 -104 0
140 -105 0
142 -106 0
144 -107 0
146 -108 0
148 -109 0
150 -110 0
152 -111 0
154 -112 0
156 -113 0
158 -114 0
160 -115 0
162 -116 0
164 -117 0
166 -118 0
168 -119 0
170 -120 0
-171 -21 21 172 0
-173 -23 21 174 0
-175 -25 21 176 0
-177 -27 21 178 0
-179 -29 21 180 0
-181 -21 23 182 0
-183 -23 23 184 0
-185 -25 23 186 0
-187 -27 23 188 0
-189 -29 23 190 0
-191 -21 25 192 0
-193 -23 25 194 0
-195 -25 25 196 0
-197 -27 25 198 0
-199 -29 25 200 0
-201 -21 27 202 0
-203 -23 27 204 0
-205 -25 27 206 0
-207 -27 27 208 0
-209 -29 27 210 0
-211 -21 29 212 0
-213 -23 29 214 0
-215 -25 29 216 0
-217 -27 29 218 0
-219 -29 29 220 0
-172 171 0
-174 173 0
-176 175 0
-178 177 0
-180 179 0
-182 181 0
-184 183 0
-186 185 0
-188 187 0
-190 189 0
-192 191 0
-194 193 0
-196 195 0
-198 197 0
-200 199 0
-202 201 0
-204 203 0
-206 205 0
-208 207 0
-210 209 0
-212 211 0
-214 213 0
-216 215 0
-218 217 0
-220 219 0
-172 21 0
-174 23 0
-176 25 0
-178 27 0
-180 29 0
-182 21 0
-184 23 0
-186 25 0
-188 27 0
-190 29 0
-192 21 0
-194 23 0
-196 25 0
-198 27 0
-200 29 0
-202 21 0
-204 23 0
-206 25 0
-208 27 0
-210 29 0
-212 21 0
-214 23 0
-216 25 0
-218 27 0
-220 29 0
-172 -21 0
-174 -21 0
-176 -21 0
-178 -21 0
-180 -21 0
-182 -23 0
-184 -23 0
-186 -23 0
-188 -23 0
-190 -23 0
-192 -25 0
-194 -25 0
-196 -25 0
-198 -25 0
-200 -25 0
-202 -27 0
-204 -27 0
-206 -27 0
-208 -27 0
-210 -27 0
-212 -29 0
-214 -29 0
-216 -29 0
-218 -29 0
-220 -29 0
221 172 -222 0
223 174 -224 0
225 176 -226 0
227 178 -228 0
229 180 -230 0
231 182 -232 0
233 184 -234 0
235 186 -236 0
237 188 -238 0
239 190 -240 0
241 192 -242 0
243 194 -244 0
245 196 -246 0
247 198 -248 0
249 200 -250 0
251 202 -252 0
253 204 -254 0
255 206 -256 0
257 208 -258 0
259 210 -260 0
261 212 -262 0
263 214 -264 0
265 216 -266 0
267 218 -268 0
269 220 -270 0
222 -221 0
224 -223 0
226 -225 0
228 -227 0
230 -229 0
232 -231 0
234 -233 0
236 -235 0
238 -237 0
240 -239 0
242 -241 0
244 -243 0
246 -245 0
248 -247 0
250 -249 0
252 -251 0
254 -253 0
256 -255 0
258 -257 0
260 -259 0
262 -261 0
264 -263 0
266 -265 0
268 -267 0
270 -269 0
222 -172 0
224 -174 0
226 -176 0
228 -178 0
230 -180 0
232 -182 0
234 -184 0
236 -186 0
238 -188 0
240 -190 0
242 -192 0
244 -194 0
246 -196 0
248 -198 0
250 -200 0
252 -202 0
254 -204 0
256 -206 0
258 -208 0
260 -210 0
262 -212 0
264 -214 0
266 -216 0
268 -218 0
270 -220 0
-271 -21 21 272 0
-273 -23 21 274 0
-275 -25 21 276 0
-277 -27 21 278 0
-279 -29 21 280 0
-281 -21 23 282 0
-283 -23 23 284 0
-285 -25 23 286 0
-287 -27 23 288 0
-289 -29 23 290 0
-291 -21 25 292 0
-293 -23 25 294 0
-295 -25 25 296 0
-297 -27 25 298 0
-299 -29 25 300 0
-301 -21 27 302 0
-303 -23 27 304 0
-305 -25 27 306 0
-307 -27 27 308 0
-309 -29 27 310 0
-311 -21 29 312 0
-313 -23 29 314 0
-315 -25 29 316 0
-317 -27 29 318 0
-319 -29 29 320 0
-272 271 0
-274 273 0
-276 275 0
-278 277 0
-280 279 0
-282 281 0
-284 283 0
-286 285 0
-288 287 0
-290 289 0
-292 291 0
-294 293 0
-296 295 0
-298 297 0
-300 299 0
-302 301 0
-304 303 0
-306 305 0
-308 307 0
-310 309 0
-312 311 0
-314 313 0
-316 315 0
-318 317 0
-320 319 0
-272 21 0
-274 23 0
-276 25 0
-278 27 0
-280 29 0
-282 21 0
-284 23 0
-286 25 0
-288 27 0
-290 29 0
-292 21 0
-294 23 0
-296 25 0
-298 27 0
-300 29 0
-302 21 0
-304 23 0
-306 25 0
-308 27 0
-310 29 0
-312 21 0
-314 23 0
-316 25 0
-318 27 0
-320 29 0
-272 -21 0
-274 -21 0
-276 -21 0
-278 -21 0
-280 -21 0
-282 -23 0
-284 -23 0
-286 -23 0
-288 -23 0
-290 -23 0
-292 -25 0
-294 -25 0
-296 -25 0
-298 -25 0
-300 -25 0
-302 -27 0
-304 -27 0
-306 -27 0
-308 -27 0
-310 -27 0
-312 -29 0
-314 -29 0
-316 -29 0
-318 -29 0
-320 -29 0
321 272 -322 0
323 274 -324 0
325 276 -326 0
327 278 -328 0
329 280 -330 0
331 282 -332 0
333 284 -334 0
335 286 -336 0
337 288 -338 0
339 290 -340 0
341 292 -342 0
343 294 -344 0
345 296 -346 0
347 298 -348 0
349 300 -350 0
351 302 -352 0
353 304 -354 0
355 306 -356 0
357 308 -358 0
359 310 -360 0
361 312 -362 0
363 314 -364 0
365 316 -366 0
367 318 -368 0
369 320 -370 0
322 -321 0
324 -323 0
326 -325 0
328 -327 0
330 -329 0
332 -331 0
334 -333 0
336 -335 0
338 -337 0
340 -339 0
342 -341 0
344 -343 0
346 -345 0
348 -347 0
350 -349 0
352 -351 0
354 -353 0
356 -355 0
358 -357 0
360 -359 0
362 -361 0
364 -363 0
366 -365 0
368 -367 0
370 -369 0
322 -272 0
324 -274 0
326 -276 0
328 -278 0
330 -280 0
332 -282 0
334 -284 0
336 -286 0
338 -288 0
340 -290 0
342 -292 0
344 -294 0
346 -296 0
348 -298 0
350 -300 0
352 -302 0
354 -304 0
356 -306 0
358 -308 0
360 -310 0
362 -312 0
364 -314 0
366 -316 0
368 -318 0
370 -320 0
21 -121 -46 -21 -371 0
21 -123 -48 -23 -372 0
21 -125 -50 -25 -373 0
21 -127 -52 -27 -374 0
21 -129 -54 -29 -375 0
23 -131 -56 -21 -376 0
23 -133 -58 -23 -377 0
23 -135 -60 -25 -378 0
23 -137 -62 -27 -379 0
23 -139 -64 -29 -380 0
25 -141 -66 -21 -381 0
25 -143 -68 -23 -382 0
25 -145 -70 -25 -383 0
25 -147 -72 -27 -384 0
25 -149 -74 -29 -385 0
27 -151 -76 -21 -386 0
27 -153 -78 -23 -387 0
27 -155 -80 -25 -388 0
27 -157 -82 -27 -389 0
27 -159 -84 -29 -390 0
29 -161 -86 -21 -391 0
29 -163 -88 -23 -392 0
29 -165 -90 -25 -393 0
29 -167 -92 -27 -394 0
29 -169 -94 -29 -395 0
371 -21 0
372 -21 0
373 -21 0
374 -21 0
375 -21 0
376 -23 0
377 -23 0
378 -23 0
379 -23 0
380 -23 0
381 -25 0
382 -25 0
383 -25 0
384 -25 0
385 -25 0
386 -27 0
387 -27 0
388 -27 0
389 -27 0
390 -27 0
391 -29 0
392 -29 0
393 -29 0
394 -29 0
395 -29 0
371 121 0
372 123 0
373 125 0
374 127 0
375 129 0
376 131 0
377 133 0
378 135 0
379 137 0
380 139 0
381 141 0
382 143 0
383 145 0
384 147 0
385 149 0
386 151 0
387 153 0
388 155 0
389 157 0
390 159 0
391 161 0
392 163 0
393 165 0
394 167 0
395 169 0
371 46 0
372 48 0
373 50 0
374 52 0
375 54 0
376 56 0
377 58 0
378 60 0
379 62 0
380 64 0
381 66 0
382 68 0
383 70 0
384 72 0
385 74 0
386 76 0
387 78 0
388 80 0
389 82 0
390 84 0
391 86 0
392 88 0
393 90 0
394 92 0
395 94 0
371 21 0
372 23 0
373 25 0
374 27 0
375 29 0
376 21 0
377 23 0
378 25 0
379 27 0
380 29 0
381 21 0
382 23 0
383 25 0
384 27 0
385 29 0
386 21 0
387 23 0
388 25 0
389 27 0
390 29 0
391 21 0
392 23 0
393 25 0
394 27 0
395 29 0
21 -221 -171 -21 -396 0
21 -223 -173 -23 -397 0
21 -225 -175 -25 -398 0
21 -227 -177 -27 -399 0
21 -229 -179 -29 -400 0
23 -231 -181 -21 -401 0
23 -233 -183 -23 -402 0
23 -235 -185 -25 -403 0
23 -237 -187 -27 -404 0
23 -239 -189 -29 -405 0
25 -241 -191 -21 -406 0
25 -243 -193 -23 -407 0
25 -245 -195 -25 -408 0
25 -247 -197 -27 -409 0
25 -249 -199 -29 -410 0
27 -251 -201 -21 -411 0
27 -253 -203 -23 -412 0
27 -255 -205 -25 -413 0
27 -257 -207 -27 -414 0
27 -259 -209 -29 -415 0
29 -261 -211 -21 -416 0
29 -263 -213 -23 -417 0
29 -265 -215 -25 -418 0
29 -267 -217 -27 -419 0
29 -269 -219 -29 -420 0
396 -21 0
397 -21 0
398 -21 0
399 -21 0
400 -21 0
401 -23 0
402 -23 0
403 -23 0
404 -23 0
405 -23 0
406 -25 0
407 -25 0
408 -25 0
409 -25 0
410 -25 0
411 -27 0
412 -27 0
413 -27 0
414 -27 0
415 -27 0
416 -29 0
417 -29 0
418 -29 0
419 -29 0
420 -29 0
396 221 0
397 223 0
398 225 0
399 227 0
400 229 0
401 231 0
402 233 0
403 235 0
404 237 0
405 239 0
406 241 0
407 243 0
408 245 0
409 247 0
410 249 0
411 251 0
412 253 0
413 255 0
414 257 0
415 259 0
416 261 0
417 263 0
418 265 0
419 267 0
420 269 0
396 171 0
397 173 0
398 175 0
399 177 0
400 179 0
401 181 0
402 183 0
403 185 0
404 187 0
405 189 0
406 191 0
407 193 0
408 195 0
409 197 0
410 199 0
411 201 0
412 203 0
413 205 0
414 207 0
415 209 0
416 211 0
417 213 0
418 215 0
419 217 0
420 219 0
396 21 0
397 23 0
398 25 0
399 27 0
400 29 0
401 21 0
402 23 0
403 25 0
404 27 0
405 29 0
406 21 0
407 23 0
408 25 0
409 27 0
410 29 0
411 21 0
412 23 0
413 25 0
414 27 0
415 29 0
416 21 0
417 23 0
418 25 0
419 27 0
420 29 0
21 -321 -271 -21 -421 0
21 -323 -273 -23 -422 0
21 -325 -275 -25 -423 0
21 -327 -277 -27 -424 0
21 -329 -279 -29 -425 0
23 -331 -281 -21 -426 0
23 -333 -283 -23 -427 0
23 -335 -285 -25 -428 0
23 -337 -287 -27 -429 0
23 -339 -289 -29 -430 0
25 -341 -291 -21 -431 0
25 -343 -293 -23 -432 0
25 -345 -295 -25 -433 0
25 -347 -297 -27 -434 0
25 -349 -299 -29 -435 0
27 -351 -301 -21 -436 0
27 -353 -303 -23 -437 0
27 -355 -305 -25 -438 0
27 -357 -307 -27 -439 0
27 -359 -309 -29 -440 0
29 -361 -311 -21 -441 0
29 -363 -313 -23 -442 0
29 -365 -315 -25 -443 0
29 -367 -317 -27 -444 0
29 -369 -319 -29 -445 0
421 -21 0
422 -21 0
423 -21 0
424 -21 0
425 -21 0
426 -23 0
427 -23 0
428 -23 0
429 -23 0
430 -23 0
431 -25 0
432 -25 0
433 -25 0
434 -25 0
435 -25 0
436 -27 0
437 -27 0
438 -27 0
439 -27 0
440 -27 0
441 -29 0
442 -29 0
443 -29 0
444 -29 0
445 -29 0
421 321 0
422 323 0
423 325 0
424 327 0
425 329 0
426 331 0
427 333 0
428 335 0
429 337 0
430 339 0
431 341 0
432 343 0
433 345 0
434 347 0
435 349 0
436 351 0
437 353 0
438 355 0
439 357 0
440 359 0
441 361 0
442 363 0
443 365 0
444 367 0
445 369 0
421 271 0
422 273 0
423 275 0
424 277 0
425 279 0
426 281 0
427 283 0
428 285 0
429 287 0
430 289 0
431 291 0
432 293 0
433 295 0
434 297 0
435 299 0
436 301 0
437 303 0
438 305 0
439 307 0
440 309 0
441 311 0
442 313 0
443 315 0
444 317 0
445 319 0
421 21 0
422 23 0
423 25 0
424 27 0
425 29 0
426 21 0
427 23 0
428 25 0
429 27 0
430 29 0
431 21 0
432 23 0
433 25 0
434 27 0
435 29 0
436 21 0
437 23 0
438 25 0
439 27 0
440 29 0
441 21 0
442 23 0
443 25 0
444 27 0
445 29 0
-3 -16 -32 -41 -47 -122 -222 -322 -371 -396 -421 446 0
-6 -17 -34 -42 -49 -124 -224 -324 -372 -397 -422 447 0
-9 -18 -36 -43 -51 -126 -226 -326 -373 -398 -423 448 0
-12 -19 -38 -44 -53 -128 -228 -328 -374 -399 -424 449 0
-15 -20 -40 -45 -55 -130 -230 -330 -375 -400 -425 450 0
-3 -16 -32 -41 -57 -132 -232 -332 -376 -401 -426 451 0
-6 -17 -34 -42 -59 -134 -234 -334 -377 -402 -427 452 0
-9 -18 -36 -43 -61 -136 -236 -336 -378 -403 -428 453 0
-12 -19 -38 -44 -63 -138 -238 -338 -379 -404 -429 454 0
-15 -20 -40 -45 -65 -140 -240 -340 -380 -405 -430 455 0
-3 -16 -32 -41 -67 -142 -242 -342 -381 -406 -431 456 0
-6 -17 -34 -42 -69 -144 -244 -344 -382 -407 -432 457 0
-9 -18 -36 -43 -71 -146 -246 -346 -383 -408 -433 458 0
-12 -19 -38 -44 -73 -148 -248 -348 -384 -409 -434 459 0
-15 -20 -40 -45 -75 -150 -250 -350 -385 -410 -435 460 0
-3 -16 -32 -41 -77 -152 -252 -352 -386 -411 -436 461 0
-6 -17 -34 -42 -79 -154 -254 -354 -387 -412 -437 462 0
-9 -18 -36 -43 -81 -156 -256 -356 -388 -413 -438 463 0
-12 -19 -38 -44 -83 -158 -258 -358 -389 -414 -439 464 0
-15 -20 -40 -45 -85 -160 -260 -360 -390 -415 -440 465 0
-3 -16 -32 -41 -87 -162 -262 -362 -391 -416 -441 466 0
-6 -17 -34 -42 -89 -164 -264 -364 -392 -417 -442 467 0
-9 -18 -36 -43 -91 -166 -266 -366 -393 -418 -443 468 0
-12 -19 -38 -44 -93 -168 -268 -368 -394 -419 -444 469 0
-15 -20 -40 -45 -95 -170 -270 -370 -395 -420 -445 470 0
-446 3 0
-447 6 0
-448 9 0
-449 12 0
-450 15 0
-451 3 0
-452 6 0
-453 9 0
-454 12 0
-455 15 0
-456 3 0
-457 6 0
-458 9 0
-459 12 0
-460 15 0
-461 3 0
-462 6 0
-463 9 0
-464 12 0
-465 15 0
-466 3 0
-467 6 0
-468 9 0
-469 12 0
-470 15 0
-446 16 0
-447 17 0
-448 18 0
-449 19 0
-450 20 0
-451 16 0
-452 17 0
-453 18 0
-454 19 0
-455 20 0
-456 16 0
-457 17 0
-458 18 0
-459 19 0
-460 20 0
-461 16 0
-462 17 0
-463 18 0
-464 19 0
-465 20 0
-466 16 0
-467 17 0
-468 18 0
-469 19 0
-470 20 0
-446 32 0
-447 34 0
-448 36 0
-449 38 0
-450 40 0
-451 32 0
-452 34 0
-453 36 0
-454 38 0
-455 40 0
-456 32 0
-457 34 0
-458 36 0
-459 38 0
-460 40 0
-461 32 0
-462 34 0
-463 36 0
-464 38 0
-465 40 0
-466 32 0
-467 34 0
-468 36 0
-469 38 0
-470 40 0
-446 41 0
-447 42 0
-448 43 0
-449 44 0
-450 45 0
-451 41 0
-452 42 0
-453 43 0
-454 44 0
-455 45 0
-456 41 0
-457 42 0
-458 43 0
-459 44 0
-460 45 0
-461 41 0
-462 42 0
-463 43 0
-464 44 0
-465 45 0
-466 41 0
-467 42 0
-468 43 0
-469 44 0
-470 45 0
-446 47 0
-447 49 0
-448 51 0
-449 53 0
-450 55 0
-451 57 0
-452 59 0
-453 61 0
-454 63 0
-455 65 0
-456 67 0
-457 69 0
-458 71 0
-459 73 0
-460 75 0
-461 77 0
-462 79 0
-463 81 0
-464 83 0
-465 85 0
-466 87 0
-467 89 0
-468 91 0
-469 93 0
-470 95 0
-446 122 0
-447 124 0
-448 126 0
-449 128 0
-450 130 0
-451 132 0
-452 134 0
-453 136 0
-454 138 0
-455 140 0
-456 142 0
-457 144 0
-458 146 0
-459 148 0
-460 150 0
-461 152 0
-462 154 0
-463 156 0
-464 158 0
-465 160 0
-466 162 0
-467 164 0
-468 166 0
-469 168 0
-470 170 0
-446 222 0
-447 224 0
-448 226 0
-449 228 0
-450 230 0
-451 232 0
-452 234 0
-453 236 0
-454 238 0
-455 240 0
-456 242 0
-457 244 0
-458 246 0
-459 248 0
-460 250 0
-461 252 0
-462 254 0
-463 256 0
-464 258 0
-465 260 0
-466 262 0
-467 264 0
-468 266 0
-469 268 0
-470 270 0
-446 322 0
-447 324 0
-448 326 0
-449 328 0
-450 330 0
-451 332 0
-452 334 0
-453 336 0
-454 338 0
-455 340 0
-456 342 0
-457 344 0
-458 346 0
-459 348 0
-460 350 0
-461 352 0
-462 354 0
-463 356 0
-464 358 0
-465 360 0
-466 362 0
-467 364 0
-468 366 0
-469 368 0
-470 370 0
-446 371 0
-447 372 0
-448 373 0
-449 374 0
-450 375 0
-451 376 0
-452 377 0
-453 378 0
-454 379 0
-455 380 0
-456 381 0
-457 382 0
-458 383 0
-459 384 0
-460 385 0
-461 386 0
-462 387 0
-463 388 0
-464 389 0
-465 390 0
-466 391 0
-467 392 0
-468 393 0
-469 394 0
-470 395 0
-446 396 0
-447 397 0
-448 398 0
-449 399 0
-450 400 0
-451 401 0
-452 402 0
-453 403 0
-454 404 0
-455 405 0
-456 406 0
-457 407 0
-458 408 0
-459 409 0
-460 410 0
-461 411 0
-462 412 0
-463 413 0
-464 414 0
-465 415 0
-466 416 0
-467 417 0
-468 418 0
-469 419 0
-470 420 0
-446 421 0
-447 422 0
-448 423 0
-449 424 0
-450 425 0
-451 426 0
-452 427 0
-453 428 0
-454 429 0
-455 430 0
-456 431 0
-457 432 0
-458 433 0
-459 434 0
-460 435 0
-461 436 0
-462 437 0
-463 438 0
-464 439 0
-465 440 0
-466 441 0
-467 442 0
-468 443 0
-469 444 0
-470 445 0
446 0
447 0
448 0
449 0
450 0
451 0
452 0
453 0
454 0
455 0
456 0
457 0
458 0
459 0
460 0
461 0
462 0
463 0
464 0
465 0
466 0
467 0
468 0
469 0
470 0
471 0
472 473 0
-472 -473 0
-472 -474 475 0
-472 -476 477 0
-472 -478 479 0
475 480 0
-475 -480 0
-475 -481 472 0
-475 -482 477 0
-475 -483 479 0
477 484 0
-477 -484 0
-477 -485 472 0
-477 -486 475 0
-477 -487 479 0
479 488 0
-479 -488 0
-479 -489 472 0
-479 -490 475 0
-479 -491 477 0
492 0
473 472 0
-473 -472 0
-473 -475 474 0
-473 -477 476 0
-473 -479 478 0
474 481 0
-474 -481 0
-474 -480 473 0
-474 -482 476 0
-474 -483 478 0
476 485 0
-476 -485 0
-476 -484 473 0
-476 -486 474 0
-476 -487 478 0
478 489 0
-478 -489 0
-478 -488 473 0
-478 -490 474 0
-478 -491 476 0
493 0
480 475 0
-480 -475 0
-480 -472 481 0
-480 -477 482 0
-480 -479 483 0
481 474 0
-481 -474 0
-481 -473 480 0
-481 -476 482 0
-481 -478 483 0
482 486 0
-482 -486 0
-482 -484 480 0
-482 -485 481 0
-482 -487 483 0
483 490 0
-483 -490 0
-483 -488 480 0
-483 -489 481 0
-483 -491 482 0
494 0
484 477 0
-484 -477 0
-484 -472 485 0
-484 -475 486 0
-484 -479 487 0
485 476 0
-485 -476 0
-485 -473 484 0
-485 -474 486 0
-485 -478 487 0
486 482 0
-486 -482 0
-486 -480 484 0
-486 -481 485 0
-486 -483 487 0
487 491 0
-487 -491 0
-487 -488 484 0
-487 -489 485 0
-487 -490 486 0
495 0
488 479 0
-488 -479 0
-488 -472 489 0
-488 -475 490 0
-488 -477 491 0
489 478 0
-489 -478 0
-489 -473 488 0
-489 -474 490 0
-489 -476 491 0
490 483 0
-490 -483 0
-490 -480 488 0
-490 -481 489 0
-490 -482 491 0
491 487 0
-491 -487 0
-491 -484 488 0
-491 -485 489 0
-491 -486 490 0
-46 0
-56 472 0
-496 475 0
-496 481 0
-475 -481 496 0
-497 477 0
-497 485 0
-477 -485 497 0
-498 479 0
-498 489 0
-479 -489 498 0
-56 -496 0
-56 -497 0
-56 -498 0
-472 56 496 497 498 0
-66 475 0
-499 472 0
-499 474 0
-472 -474 499 0
-500 477 0
-500 486 0
-477 -486 500 0
-501 479 0
-501 490 0
-479 -490 501 0
-66 -499 0
-66 -500 0
-66 -501 0
-475 66 499 500 501 0
-76 477 0
-502 472 0
-502 476 0
-472 -476 502 0
-503 475 0
-503 482 0
-475 -482 503 0
-504 479 0
-504 491 0
-479 -491 504 0
-76 -502 0
-76 -503 0
-76 -504 0
-477 76 502 503 504 0
-86 479 0
-505 472 0
-505 478 0
-472 -478 505 0
-506 475 0
-506 483 0
-475 -483 506 0
-507 477 0
-507 487 0
-477 -487 507 0
-86 -505 0
-86 -506 0
-86 -507 0
-479 86 505 506 507 0
-48 473 0
-508 474 0
-508 480 0
-474 -480 508 0
-509 476 0
-509 484 0
-476 -484 509 0
-510 478 0
-510 488 0
-478 -488 510 0
-48 -508 0
-48 -509 0
-48 -510 0
-473 48 508 509 510 0
-58 0
-68 474 0
-511 473 0
-511 475 0
-473 -475 511 0
-512 476 0
-512 486 0
-476 -486 512 0
-513 478 0
-513 490 0
-478 -490 513 0
-68 -511 0
-68 -512 0
-68 -513 0
-474 68 511 512 513 0
-78 476 0
-514 473 0
-514 477 0
-473 -477 514 0
-515 474 0
-515 482 0
-474 -482 515 0
-516 478 0
-516 491 0
-478 -491 516 0
-78 -514 0
-78 -515 0
-78 -516 0
-476 78 514 515 516 0
-88 478 0
-517 473 0
-517 479 0
-473 -479 517 0
-518 474 0
-518 483 0
-474 -483 518 0
-519 476 0
-519 487 0
-476 -487 519 0
-88 -517 0
-88 -518 0
-88 -519 0
-478 88 517 518 519 0
-50 480 0
-520 481 0
-520 473 0
-481 -473 520 0
-521 482 0
-521 484 0
-482 -484 521 0
-522 483 0
-522 488 0
-483 -488 522 0
-50 -520 0
-50 -521 0
-50 -522 0
-480 50 520 521 522 0
-60 481 0
-523 480 0
-523 472 0
-480 -472 523 0
-524 482 0
-524 485 0
-482 -485 524 0
-525 483 0
-525 489 0
-483 -489 525 0
-60 -523 0
-60 -524 0
-60 -525 0
-481 60 523 524 525 0
-70 0
-80 482 0
-526 480 0
-526 477 0
-480 -477 526 0
-527 481 0
-527 476 0
-481 -476 527 0
-528 483 0
-528 491 0
-483 -491 528 0
-80 -526 0
-80 -527 0
-80 -528 0
-482 80 526 527 528 0
-90 483 0
-529 480 0
-529 479 0
-480 -479 529 0
-530 481 0
-530 478 0
-481 -478 530 0
-531 482 0
-531 487 0
-482 -487 531 0
-90 -529 0
-90 -530 0
-90 -531 0
-483 90 529 530 531 0
-52 484 0
-532 485 0
-532 473 0
-485 -473 532 0
-533 486 0
-533 480 0
-486 -480 533 0
-534 487 0
-534 488 0
-487 -488 534 0
-52 -532 0
-52 -533 0
-52 -534 0
-484 52 532 533 534 0
-62 485 0
-535 484 0
-535 472 0
-484 -472 535 0
-536 486 0
-536 481 0
-486 -481 536 0
-537 487 0
-537 489 0
-487 -489 537 0
-62 -535 0
-62 -536 0
-62 -537 0
-485 62 535 536 537 0
-72 486 0
-538 484 0
-538 475 0
-484 -475 538 0
-539 485 0
-539 474 0
-485 -474 539 0
-540 487 0
-540 490 0
-487 -490 540 0
-72 -538 0
-72 -539 0
-72 -540 0
-486 72 538 539 540 0
-82 0
-92 487 0
-541 484 0
-541 479 0
-484 -479 541 0
-542 485 0
-542 478 0
-485 -478 542 0
-543 486 0
-543 483 0
-486 -483 543 0
-92 -541 0
-92 -542 0
-92 -543 0
-487 92 541 542 543 0
-54 488 0
-544 489 0
-544 473 0
-489 -473 544 0
-545 490 0
-545 480 0
-490 -480 545 0
-546 491 0
-546 484 0
-491 -484 546 0
-54 -544 0
-54 -545 0
-54 -546 0
-488 54 544 545 546 0
-64 489 0
-547 488 0
-547 472 0
-488 -472 547 0
-548 490 0
-548 481 0
-490 -481 548 0
-549 491 0
-549 485 0
-491 -485 549 0
-64 -547 0
-64 -548 0
-64 -549 0
-489 64 547 548 549 0
-74 490 0
-550 488 0
-550 475 0
-488 -475 550 0
-551 489 0
-551 474 0
-489 -474 551 0
-552 491 0
-552 486 0
-491 -486 552 0
-74 -550 0
-74 -551 0
-74 -552 0
-490 74 550 551 552 0
-84 491 0
-553 488 0
-553 477 0
-488 -477 553 0
-554 489 0
-554 476 0
-489 -476 554 0
-555 490 0
-555 482 0
-490 -482 555 0
-84 -553 0
-84 -554 0
-84 -555 0
-491 84 553 554 555 0
-94 0
