p cnf 822 2736
1 2 -3 0
4 5 -6 0
7 8 -9 0
10 11 -12 0
13 14 -15 0
16 17 -18 0
3 -1 0
6 -4 0
9 -7 0
12 -10 0
15 -13 0
18 -16 0
3 -2 0
6 -5 0
9 -8 0
12 -11 0
15 -14 0
18 -17 0
-1 -2 -19 0
-4 -5 -20 0
-7 -8 -21 0
-10 -11 -22 0
-13 -14 -23 0
-16 -17 -24 0
19 1 0
20 4 0
21 7 0
22 10 0
23 13 0
24 16 0
19 2 0
20 5 0
21 8 0
22 11 0
23 14 0
24 17 0
-25 1 26 0
-27 4 28 0
-29 7 30 0
-31 10 32 0
-33 13 34 0
-35 16 36 0
-26 25 0
-28 27 0
-30 29 0
-32 31 0
-34 33 0
-36 35 0
-26 -1 0
-28 -4 0
-30 -7 0
-32 -10 0
-34 -13 0
-36 -16 0
37 26 -38 0
39 28 -40 0
41 30 -42 0
43 32 -44 0
45 34 -46 0
47 36 -48 0
38 -37 0
40 -39 0
42 -41 0
44 -43 0
46 -45 0
48 -47 0
38 -26 0
40 -28 0
42 -30 0
44 -32 0
46 -34 0
48 -36 0
1 -37 -25 -49 0
4 -39 -27 -50 0
7 -41 -29 -51 0
10 -43 -31 -52 0
13 -45 -33 -53 0
16 -47 -35 -54 0
49 -1 0
50 -4 0
51 -7 0
52 -10 0
53 -13 0
54 -16 0
49 37 0
50 39 0
51 41 0
52 43 0
53 45 0
54 47 0
49 25 0
50 27 0
51 29 0
52 31 0
53 33 0
54 35 0
1 -55 -2 -56 0
4 -57 -5 -58 0
7 -59 -8 -60 0
10 -61 -11 -62 0
13 -63 -14 -64 0
16 -65 -17 -66 0
1 -67 -2 -68 0
4 -69 -5 -70 0
7 -71 -8 -72 0
10 -73 -11 -74 0
13 -75 -14 -76 0
16 -77 -17 -78 0
1 -79 -2 -80 0
4 -81 -5 -82 0
7 -83 -8 -84 0
10 -85 -11 -86 0
13 -87 -14 -88 0
16 -89 -17 -90 0
1 -91 -2 -92 0
4 -93 -5 -94 0
7 -95 -8 -96 0
10 -97 -11 -98 0
13 -99 -14 -100 0
16 -101 -17 -102 0
1 -103 -2 -104 0
4 -105 -5 -106 0
7 -107 -8 -108 0
10 -109 -11 -110 0
13 -111 -14 -112 0
16 -113 -17 -114 0
1 -115 -2 -116 0
4 -117 -5 -118 0
7 -119 -8 -120 0
10 -121 -11 -122 0
13 -123 -14 -124 0
16 -125 -17 -126 0
56 -1 0
58 -4 0
60 -7 0
62 -10 0
64 -13 0
66 -16 0
68 -1 0
70 -4 0
72 -7 0
74 -10 0
76 -13 0
78 -16 0
80 -1 0
82 -4 0
84 -7 0
86 -10 0
88 -13 0
90 -16 0
92 -1 0
94 -4 0
96 -7 0
98 -10 0
100 -13 0
102 -16 0
104 -1 0
106 -4 0
108 -7 0
110 -10 0
112 -13 0
114 -16 0
116 -1 0
118 -4 0
120 -7 0
122 -10 0
124 -13 0
126 -16 0
56 55 0
58 57 0
60 59 0
62 61 0
64 63 0
66 65 0
68 67 0
70 69 0
72 71 0
74 73 0
76 75 0
78 77 0
80 79 0
82 81 0
84 83 0
86 85 0
88 87 0
90 89 0
92 91 0
94 93 0
96 95 0
98 97 0
100 99 0
102 101 0
104 103 0
106 105 0
108 107 0
110 109 0
112 111 0
114 113 0
116 115 0
118 117 0
120 119 0
122 121 0
124 123 0
126 125 0
56 2 0
58 5 0
60 8 0
62 11 0
64 14 0
66 17 0
68 2 0
70 5 0
72 8 0
74 11 0
76 14 0
78 17 0
80 2 0
82 5 0
84 8 0
86 11 0
88 14 0
90 17 0
92 2 0
94 5 0
96 8 0
98 11 0
100 14 0
102 17 0
104 2 0
106 5 0
108 8 0
110 11 0
112 14 0
114 17 0
116 2 0
118 5 0
120 8 0
122 11 0
124 14 0
126 17 0
-55 -25 25 127 0
-57 -27 25 128 0
-59 -29 25 129 0
-61 -31 25 130 0
-63 -33 25 131 0
-65 -35 25 132 0
-67 -25 27 133 0
-69 -27 27 134 0
-71 -29 27 135 0
-73 -31 27 136 0
-75 -33 27 137 0
-77 -35 27 138 0
-79 -25 29 139 0
-81 -27 29 140 0
-83 -29 29 141 0
-85 -31 29 142 0
-87 -33 29 143 0
-89 -35 29 144 0
-91 -25 31 145 0
-93 -27 31 146 0
-95 -29 31 147 0
-97 -31 31 148 0
-99 -33 31 149 0
-101 -35 31 150 0
-103 -25 33 151 0
-105 -27 33 152 0
-107 -29 33 153 0
-109 -31 33 154 0
-111 -33 33 155 0
-113 -35 33 156 0
-115 -25 35 157 0
-117 -27 35 158 0
-119 -29 35 159 0
-121 -31 35 160 0
-123 -33 35 161 0
-125 -35 35 162 0
-127 55 0
-128 57 0
-129 59 0
-130 61 0
-131 63 0
-132 65 0
-133 67 0
-134 69 0
-135 71 0
-136 73 0
-137 75 0
-138 77 0
-139 79 0
-140 81 0
-141 83 0
-142 85 0
-143 87 0
-144 89 0
-145 91 0
-146 93 0
-147 95 0
-148 97 0
-149 99 0
-150 101 0
-151 103 0
-152 105 0
-153 107 0
-154 109 0
-155 111 0
-156 113 0
-157 115 0
-158 117 0
-159 119 0
-160 121 0
-161 123 0
-162 125 0
-127 25 0
-128 27 0
-129 29 0
-130 31 0
-131 33 0
-132 35 0
-133 25 0
-134 27 0
-135 29 0
-136 31 0
-137 33 0
-138 35 0
-139 25 0
-140 27 0
-141 29 0
-142 31 0
-143 33 0
-144 35 0
-145 25 0
-146 27 0
-147 29 0
-148 31 0
-149 33 0
-150 35 0
-151 25 0
-152 27 0
-153 29 0
-154 31 0
-155 33 0
-156 35 0
-157 25 0
-158 27 0
-159 29 0
-160 31 0
-161 33 0
-162 35 0
-127 -25 0
-128 -25 0
-129 -25 0
-130 -25 0
-131 -25 0
-132 -25 0
-133 -27 0
-134 -27 0
-135 -27 0
-136 -27 0
-137 -27 0
-138 -27 0
-139 -29 0
-140 -29 0
-141 -29 0
-142 -29 0
-143 -29 0
-144 -29 0
-145 -31 0
-146 -31 0
-147 -31 0
-148 -31 0
-149 -31 0
-150 -31 0
-151 -33 0
-152 -33 0
-153 -33 0
-154 -33 0
-155 -33 0
-156 -33 0
-157 -35 0
-158 -35 0
-159 -35 0
-160 -35 0
-161 -35 0
-162 -35 0
163 127 -164 0
165 128 -166 0
167 129 -168 0
169 130 -170 0
171 131 -172 0
173 132 -174 0
175 133 -176 0
177 134 -178 0
179 135 -180 0
181 136 -182 0
183 137 -184 0
185 138 -186 0
187 139 -188 0
189 140 -190 0
191 141 -192 0
193 142 -194 0
195 143 -196 0
197 144 -198 0
199 145 -200 0
201 146 -202 0
203 147 -204 0
205 148 -206 0
207 149 -208 0
209 150 -210 0
211 151 -212 0
213 152 -214 0
215 153 -216 0
217 154 -218 0
219 155 -220 0
221 156 -222 0
223 157 -224 0
225 158 -226 0
227 159 -228 0
229 160 -230 0
231 161 -232 0
233 162 -234 0
164 -163 0
166 -165 0
168 -167 0
170 -169 0
172 -171 0
174 -173 0
176 -175 0
178 -177 0
180 -179 0
182 -181 0
184 -183 0
186 -185 0
188 -187 0
190 -189 0
192 -191 0
194 -193 0
196 -195 0
198 -197 0
200 -199 0
202 -201 0
204 -203 0
206 -205 0
208 -207 0
210 -209 0
212 -211 0
214 -213 0
216 -215 0
218 -217 0
220 -219 0
222 -221 0
224 -223 0
226 -225 0
228 -227 0
230 -229 0
232 -231 0
234 -233 0
164 -127 0
166 -128 0
168 -129 0
170 -130 0
172 -131 0
174 -132 0
176 -133 0
178 -134 0
180 -135 0
182 -136 0
184 -137 0
186 -138 0
188 -139 0
190 -140 0
192 -141 0
194 -142 0
196 -143 0
198 -144 0
200 -145 0
202 -146 0
204 -147 0
206 -148 0
208 -149 0
210 -150 0
212 -151 0
214 -152 0
216 -153 0
218 -154 0
220 -155 0
222 -156 0
224 -157 0
226 -158 0
228 -159 0
230 -160 0
232 -161 0
234 -162 0
-235 -25 25 236 0
-237 -27 25 238 0
-239 -29 25 240 0
-241 -31 25 242 0
-243 -33 25 244 0
-245 -35 25 246 0
-247 -25 27 248 0
-249 -27 27 250 0
-251 -29 27 252 0
-253 -31 27 254 0
-255 -33 27 256 0
-257 -35 27 258 0
-259 -25 29 260 0
-261 -27 29 262 0
-263 -29 29 264 0
-265 -31 29 266 0
-267 -33 29 268 0
-269 -35 29 270 0
-271 -25 31 272 0
-273 -27 31 274 0
-275 -29 31 276 0
-277 -31 31 278 0
-279 -33 31 280 0
-281 -35 31 282 0
-283 -25 33 284 0
-285 -27 33 286 0
-287 -29 33 288 0
-289 -31 33 290 0
-291 -33 33 292 0
-293 -35 33 294 0
-295 -25 35 296 0
-297 -27 35 298 0
-299 -29 35 300 0
-301 -31 35 302 0
-303 -33 35 304 0
-305 -35 35 306 0
-236 235 0
-238 237 0
-240 239 0
-242 241 0
-244 243 0
-246 245 0
-248 247 0
-250 249 0
-252 251 0
-254 253 0
-256 255 0
-258 257 0
-260 259 0
-262 261 0
-264 263 0
-266 265 0
-268 267 0
-270 269 0
-272 271 0
-274 273 0
-276 275 0
-278 277 0
-280 279 0
-282 281 0
-284 283 0
-286 285 0
-288 287 0
-290 289 0
-292 291 0
-294 293 0
-296 295 0
-298 297 0
-300 299 0
-302 301 0
-304 303 0
-306 305 0
-236 25 0
-238 27 0
-240 29 0
-242 31 0
-244 33 0
-246 35 0
-248 25 0
-250 27 0
-252 29 0
-254 31 0
-256 33 0
-258 35 0
-260 25 0
-262 27 0
-264 29 0
-266 31 0
-268 33 0
-270 35 0
-272 25 0
-274 27 0
-276 29 0
-278 31 0
-280 33 0
-282 35 0
-284 25 0
-286 27 0
-288 29 0
-290 31 0
-292 33 0
-294 35 0
-296 25 0
-298 27 0
-300 29 0
-302 31 0
-304 33 0
-306 35 0
-236 -25 0
-238 -25 0
-240 -25 0
-242 -25 0
-244 -25 0
-246 -25 0
-248 -27 0
-250 -27 0
-252 -27 0
-254 -27 0
-256 -27 0
-258 -27 0
-260 -29 0
-262 -29 0
-264 -29 0
-266 -29 0
-268 -29 0
-270 -29 0
-272 -31 0
-274 -31 0
-276 -31 0
-278 -31 0
-280 -31 0
-282 -31 0
-284 -33 0
-286 -33 0
-288 -33 0
-290 -33 0
-292 -33 0
-294 -33 0
-296 -35 0
-298 -35 0
-300 -35 0
-302 -35 0
-304 -35 0
-306 -35 0
307 236 -308 0
309 238 -310 0
311 240 -312 0
313 242 -314 0
315 244 -316 0
317 246 -318 0
319 248 -320 0
321 250 -322 0
323 252 -324 0
325 254 -326 0
327 256 -328 0
329 258 -330 0
331 260 -332 0
333 262 -334 0
335 264 -336 0
337 266 -338 0
339 268 -340 0
341 270 -342 0
343 272 -344 0
345 274 -346 0
347 276 -348 0
349 278 -350 0
351 280 -352 0
353 282 -354 0
355 284 -356 0
357 286 -358 0
359 288 -360 0
361 290 -362 0
363 292 -364 0
365 294 -366 0
367 296 -368 0
369 298 -370 0
371 300 -372 0
373 302 -374 0
375 304 -376 0
377 306 -378 0
308 -307 0
310 -309 0
312 -311 0
314 -313 0
316 -315 0
318 -317 0
320 -319 0
322 -321 0
324 -323 0
326 -325 0
328 -327 0
330 -329 0
332 -331 0
334 -333 0
336 -335 0
338 -337 0
340 -339 0
342 -341 0
344 -343 0
346 -345 0
348 -347 0
350 -349 0
352 -351 0
354 -353 0
356 -355 0
358 -357 0
360 -359 0
362 -361 0
364 -363 0
366 -365 0
368 -367 0
370 -369 0
372 -371 0
374 -373 0
376 -375 0
378 -377 0
308 -236 0
310 -238 0
312 -240 0
314 -242 0
316 -244 0
318 -246 0
320 -248 0
322 -250 0
324 -252 0
326 -254 0
328 -256 0
330 -258 0
332 -260 0
334 -262 0
336 -264 0
338 -266 0
340 -268 0
342 -270 0
344 -272 0
346 -274 0
348 -276 0
350 -278 0
352 -280 0
354 -282 0
356 -284 0
358 -286 0
360 -288 0
362 -290 0
364 -292 0
366 -294 0
368 -296 0
370 -298 0
372 -300 0
374 -302 0
376 -304 0
378 -306 0
-379 -25 25 380 0
-381 -27 25 382 0
-383 -29 25 384 0
-385 -31 25 386 0
-387 -33 25 388 0
-389 -35 25 390 0
-391 -25 27 392 0
-393 -27 27 394 0
-395 -29 27 396 0
-397 -31 27 398 0
-399 -33 27 400 0
-401 -35 27 402 0
-403 -25 29 404 0
-405 -27 29 406 0
-407 -29 29 408 0
-409 -31 29 410 0
-411 -33 29 412 0
-413 -35 29 414 0
-415 -25 31 416 0
-417 -27 31 418 0
-419 -29 31 420 0
-421 -31 31 422 0
-423 -33 31 424 0
-425 -35 31 426 0
-427 -25 33 428 0
-429 -27 33 430 0
-431 -29 33 432 0
-433 -31 33 434 0
-435 -33 33 436 0
-437 -35 33 438 0
-439 -25 35 440 0
-441 -27 35 442 0
-443 -29 35 444 0
-445 -31 35 446 0
-447 -33 35 448 0
-449 -35 35 450 0
-380 379 0
-382 381 0
-384 383 0
-386 385 0
-388 387 0
-390 389 0
-392 391 0
-394 393 0
-396 395 0
-398 397 0
-400 399 0
-402 401 0
-404 403 0
-406 405 0
-408 407 0
-410 409 0
-412 411 0
-414 413 0
-416 415 0
-418 417 0
-420 419 0
-422 421 0
-424 423 0
-426 425 0
-428 427 0
-430 429 0
-432 431 0
-434 433 0
-436 435 0
-438 437 0
-440 439 0
-442 441 0
-444 443 0
-446 445 0
-448 447 0
-450 449 0
-380 25 0
-382 27 0
-384 29 0
-386 31 0
-388 33 0
-390 35 0
-392 25 0
-394 27 0
-396 29 0
-398 31 0
-400 33 0
-402 35 0
-404 25 0
-406 27 0
-408 29 0
-410 31 0
-412 33 0
-414 35 0
-416 25 0
-418 27 0
-420 29 0
-422 31 0
-424 33 0
-426 35 0
-428 25 0
-430 27 0
-432 29 0
-434 31 0
-436 33 0
-438 35 0
-440 25 0
-442 27 0
-444 29 0
-446 31 0
-448 33 0
-450 35 0
-380 -25 0
-382 -25 0
-384 -25 0
-386 -25 0
-388 -25 0
-390 -25 0
-392 -27 0
-394 -27 0
-396 -27 0
-398 -27 0
-400 -27 0
-402 -27 0
-404 -29 0
-406 -29 0
-408 -29 0
-410 -29 0
-412 -29 0
-414 -29 0
-416 -31 0
-418 -31 0
-420 -31 0
-422 -31 0
-424 -31 0
-426 -31 0
-428 -33 0
-430 -33 0
-432 -33 0
-434 -33 0
-436 -33 0
-438 -33 0
-440 -35 0
-442 -35 0
-444 -35 0
-446 -35 0
-448 -35 0
-450 -35 0
451 380 -452 0
453 382 -454 0
455 384 -456 0
457 386 -458 0
459 388 -460 0
461 390 -462 0
463 392 -464 0
465 394 -466 0
467 396 -468 0
469 398 -470 0
471 400 -472 0
473 402 -474 0
475 404 -476 0
477 406 -478 0
479 408 -480 0
481 410 -482 0
483 412 -484 0
485 414 -486 0
487 416 -488 0
489 418 -490 0
491 420 -492 0
493 422 -494 0
495 424 -496 0
497 426 -498 0
499 428 -500 0
501 430 -502 0
503 432 -504 0
505 434 -506 0
507 436 -508 0
509 438 -510 0
511 440 -512 0
513 442 -514 0
515 444 -516 0
517 446 -518 0
519 448 -520 0
521 450 -522 0
452 -451 0
454 -453 0
456 -455 0
458 -457 0
460 -459 0
462 -461 0
464 -463 0
466 -465 0
468 -467 0
470 -469 0
472 -471 0
474 -473 0
476 -475 0
478 -477 0
480 -479 0
482 -481 0
484 -483 0
486 -485 0
488 -487 0
490 -489 0
492 -491 0
494 -493 0
496 -495 0
498 -497 0
500 -499 0
502 -501 0
504 -503 0
506 -505 0
508 -507 0
510 -509 0
512 -511 0
514 -513 0
516 -515 0
518 -517 0
520 -519 0
522 -521 0
452 -380 0
454 -382 0
456 -384 0
458 -386 0
460 -388 0
462 -390 0
464 -392 0
466 -394 0
468 -396 0
470 -398 0
472 -400 0
474 -402 0
476 -404 0
478 -406 0
480 -408 0
482 -410 0
484 -412 0
486 -414 0
488 -416 0
490 -418 0
492 -420 0
494 -422 0
496 -424 0
498 -426 0
500 -428 0
502 -430 0
504 -432 0
506 -434 0
508 -436 0
510 -438 0
512 -440 0
514 -442 0
516 -444 0
518 -446 0
520 -448 0
522 -450 0
25 -163 -55 -25 -523 0
25 -165 -57 -27 -524 0
25 -167 -59 -29 -525 0
25 -169 -61 -31 -526 0
25 -171 -63 -33 -527 0
25 -173 -65 -35 -528 0
27 -175 -67 -25 -529 0
27 -177 -69 -27 -530 0
27 -179 -71 -29 -531 0
27 -181 -73 -31 -532 0
27 -183 -75 -33 -533 0
27 -185 -77 -35 -534 0
29 -187 -79 -25 -535 0
29 -189 -81 -27 -536 0
29 -191 -83 -29 -537 0
29 -193 -85 -31 -538 0
29 -195 -87 -33 -539 0
29 -197 -89 -35 -540 0
31 -199 -91 -25 -541 0
31 -201 -93 -27 -542 0
31 -203 -95 -29 -543 0
31 -205 -97 -31 -544 0
31 -207 -99 -33 -545 0
31 -209 -101 -35 -546 0
33 -211 -103 -25 -547 0
33 -213 -105 -27 -548 0
33 -215 -107 -29 -549 0
33 -217 -109 -31 -550 0
33 -219 -111 -33 -551 0
33 -221 -113 -35 -552 0
35 -223 -115 -25 -553 0
35 -225 -117 -27 -554 0
35 -227 -119 -29 -555 0
35 -229 -121 -31 -556 0
35 -231 -123 -33 -557 0
35 -233 -125 -35 -558 0
523 -25 0
524 -25 0
525 -25 0
526 -25 0
527 -25 0
528 -25 0
529 -27 0
530 -27 0
531 -27 0
532 -27 0
533 -27 0
534 -27 0
535 -29 0
536 -29 0
537 -29 0
538 -29 0
539 -29 0
540 -29 0
541 -31 0
542 -31 0
543 -31 0
544 -31 0
545 -31 0
546 -31 0
547 -33 0
548 -33 0
549 -33 0
550 -33 0
551 -33 0
552 -33 0
553 -35 0
554 -35 0
555 -35 0
556 -35 0
557 -35 0
558 -35 0
523 163 0
524 165 0
525 167 0
526 169 0
527 171 0
528 173 0
529 175 0
530 177 0
531 179 0
532 181 0
533 183 0
534 185 0
535 187 0
536 189 0
537 191 0
538 193 0
539 195 0
540 197 0
541 199 0
542 201 0
543 203 0
544 205 0
545 207 0
546 209 0
547 211 0
548 213 0
549 215 0
550 217 0
551 219 0
552 221 0
553 223 0
554 225 0
555 227 0
556 229 0
557 231 0
558 233 0
523 55 0
524 57 0
525 59 0
526 61 0
527 63 0
528 65 0
529 67 0
530 69 0
531 71 0
532 73 0
533 75 0
534 77 0
535 79 0
536 81 0
537 83 0
538 85 0
539 87 0
540 89 0
541 91 0
542 93 0
543 95 0
544 97 0
545 99 0
546 101 0
547 103 0
548 105 0
549 107 0
550 109 0
551 111 0
552 113 0
553 115 0
554 117 0
555 119 0
556 121 0
557 123 0
558 125 0
523 25 0
524 27 0
525 29 0
526 31 0
527 33 0
528 35 0
529 25 0
530 27 0
531 29 0
532 31 0
533 33 0
534 35 0
535 25 0
536 27 0
537 29 0
538 31 0
539 33 0
540 35 0
541 25 0
542 27 0
543 29 0
544 31 0
545 33 0
546 35 0
547 25 0
548 27 0
549 29 0
550 31 0
551 33 0
552 35 0
553 25 0
554 27 0
555 29 0
556 31 0
557 33 0
558 35 0
25 -307 -235 -25 -559 0
25 -309 -237 -27 -560 0
25 -311 -239 -29 -561 0
25 -313 -241 -31 -562 0
25 -315 -243 -33 -563 0
25 -317 -245 -35 -564 0
27 -319 -247 -25 -565 0
27 -321 -249 -27 -566 0
27 -323 -251 -29 -567 0
27 -325 -253 -31 -568 0
27 -327 -255 -33 -569 0
27 -329 -257 -35 -570 0
29 -331 -259 -25 -571 0
29 -333 -261 -27 -572 0
29 -335 -263 -29 -573 0
29 -337 -265 -31 -574 0
29 -339 -267 -33 -575 0
29 -341 -269 -35 -576 0
31 -343 -271 -25 -577 0
31 -345 -273 -27 -578 0
31 -347 -275 -29 -579 0
31 -349 -277 -31 -580 0
31 -351 -279 -33 -581 0
31 -353 -281 -35 -582 0
33 -355 -283 -25 -583 0
33 -357 -285 -27 -584 0
33 -359 -287 -29 -585 0
33 -361 -289 -31 -586 0
33 -363 -291 -33 -587 0
33 -365 -293 -35 -588 0
35 -367 -295 -25 -589 0
35 -369 -297 -27 -590 0
35 -371 -299 -29 -591 0
35 -373 -301 -31 -592 0
35 -375 -303 -33 -593 0
35 -377 -305 -35 -594 0
559 -25 0
560 -25 0
561 -25 0
562 -25 0
563 -25 0
564 -25 0
565 -27 0
566 -27 0
567 -27 0
568 -27 0
569 -27 0
570 -27 0
571 -29 0
572 -29 0
573 -29 0
574 -29 0
575 -29 0
576 -29 0
577 -31 0
578 -31 0
579 -31 0
580 -31 0
581 -31 0
582 -31 0
583 -33 0
584 -33 0
585 -33 0
586 -33 0
587 -33 0
588 -33 0
589 -35 0
590 -35 0
591 -35 0
592 -35 0
593 -35 0
594 -35 0
559 307 0
560 309 0
561 311 0
562 313 0
563 315 0
564 317 0
565 319 0
566 321 0
567 323 0
568 325 0
569 327 0
570 329 0
571 331 0
572 333 0
573 335 0
574 337 0
575 339 0
576 341 0
577 343 0
578 345 0
579 347 0
580 349 0
581 351 0
582 353 0
583 355 0
584 357 0
585 359 0
586 361 0
587 363 0
588 365 0
589 367 0
590 369 0
591 371 0
592 373 0
593 375 0
594 377 0
559 235 0
560 237 0
561 239 0
562 241 0
563 243 0
564 245 0
565 247 0
566 249 0
567 251 0
568 253 0
569 255 0
570 257 0
571 259 0
572 261 0
573 263 0
574 265 0
575 267 0
576 269 0
577 271 0
578 273 0
579 275 0
580 277 0
581 279 0
582 281 0
583 283 0
584 285 0
585 287 0
586 289 0
587 291 0
588 293 0
589 295 0
590 297 0
591 299 0
592 301 0
593 303 0
594 305 0
559 25 0
560 27 0
561 29 0
562 31 0
563 33 0
564 35 0
565 25 0
566 27 0
567 29 0
568 31 0
569 33 0
570 35 0
571 25 0
572 27 0
573 29 0
574 31 0
575 33 0
576 35 0
577 25 0
578 27 0
579 29 0
580 31 0
581 33 0
582 35 0
583 25 0
584 27 0
585 29 0
586 31 0
587 33 0
588 35 0
589 25 0
590 27 0
591 29 0
592 31 0
593 33 0
594 35 0
25 -451 -379 -25 -595 0
25 -453 -381 -27 -596 0
25 -455 -383 -29 -597 0
25 -457 -385 -31 -598 0
25 -459 -387 -33 -599 0
25 -461 -389 -35 -600 0
27 -463 -391 -25 -601 0
27 -465 -393 -27 -602 0
27 -467 -395 -29 -603 0
27 -469 -397 -31 -604 0
27 -471 -399 -33 -605 0
27 -473 -401 -35 -606 0
29 -475 -403 -25 -607 0
29 -477 -405 -27 -608 0
29 -479 -407 -29 -609 0
29 -481 -409 -31 -610 0
29 -483 -411 -33 -611 0
29 -485 -413 -35 -612 0
31 -487 -415 -25 -613 0
31 -489 -417 -27 -614 0
31 -491 -419 -29 -615 0
31 -493 -421 -31 -616 0
31 -495 -423 -33 -617 0
31 -497 -425 -35 -618 0
33 -499 -427 -25 -619 0
33 -501 -429 -27 -620 0
33 -503 -431 -29 -621 0
33 -505 -433 -31 -622 0
33 -507 -435 -33 -623 0
33 -509 -437 -35 -624 0
35 -511 -439 -25 -625 0
35 -513 -441 -27 -626 0
35 -515 -443 -29 -627 0
35 -517 -445 -31 -628 0
35 -519 -447 -33 -629 0
35 -521 -449 -35 -630 0
595 -25 0
596 -25 0
597 -25 0
598 -25 0
599 -25 0
600 -25 0
601 -27 0
602 -27 0
603 -27 0
604 -27 0
605 -27 0
606 -27 0
607 -29 0
608 -29 0
609 -29 0
610 -29 0
611 -29 0
612 -29 0
613 -31 0
614 -31 0
615 -31 0
616 -31 0
617 -31 0
618 -31 0
619 -33 0
620 -33 0
621 -33 0
622 -33 0
623 -33 0
624 -33 0
625 -35 0
626 -35 0
627 -35 0
628 -35 0
629 -35 0
630 -35 0
595 451 0
596 453 0
597 455 0
598 457 0
599 459 0
600 461 0
601 463 0
602 465 0
603 467 0
604 469 0
605 471 0
606 473 0
607 475 0
608 477 0
609 479 0
610 481 0
611 483 0
612 485 0
613 487 0
614 489 0
615 491 0
616 493 0
617 495 0
618 497 0
619 499 0
620 501 0
621 503 0
622 505 0
623 507 0
624 509 0
625 511 0
626 513 0
627 515 0
628 517 0
629 519 0
630 521 0
595 379 0
596 381 0
597 383 0
598 385 0
599 387 0
600 389 0
601 391 0
602 393 0
603 395 0
604 397 0
605 399 0
606 401 0
607 403 0
608 405 0
609 407 0
610 409 0
611 411 0
612 413 0
613 415 0
614 417 0
615 419 0
616 421 0
617 423 0
618 425 0
619 427 0
620 429 0
621 431 0
622 433 0
623 435 0
624 437 0
625 439 0
626 441 0
627 443 0
628 445 0
629 447 0
630 449 0
595 25 0
596 27 0
597 29 0
598 31 0
599 33 0
600 35 0
601 25 0
602 27 0
603 29 0
604 31 0
605 33 0
606 35 0
607 25 0
608 27 0
609 29 0
610 31 0
611 33 0
612 35 0
613 25 0
614 27 0
615 29 0
616 31 0
617 33 0
618 35 0
619 25 0
620 27 0
621 29 0
622 31 0
623 33 0
624 35 0
625 25 0
626 27 0
627 29 0
628 31 0
629 33 0
630 35 0
-3 -19 -38 -49 -56 -164 -308 -452 -523 -559 -595 631 0
-6 -20 -40 -50 -58 -166 -310 -454 -524 -560 -596 632 0
-9 -21 -42 -51 -60 -168 -312 -456 -525 -561 -597 633 0
-12 -22 -44 -52 -62 -170 -314 -458 -526 -562 -598 634 0
-15 -23 -46 -53 -64 -172 -316 -460 -527 -563 -599 635 0
-18 -24 -48 -54 -66 -174 -318 -462 -528 -564 -600 636 0
-3 -19 -38 -49 -68 -176 -320 -464 -529 -565 -601 637 0
-6 -20 -40 -50 -70 -178 -322 -466 -530 -566 -602 638 0
-9 -21 -42 -51 -72 -180 -324 -468 -531 -567 -603 639 0
-12 -22 -44 -52 -74 -182 -326 -470 -532 -568 -604 640 0
-15 -23 -46 -53 -76 -184 -328 -472 -533 -569 -605 641 0
-18 -24 -48 -54 -78 -186 -330 -474 -534 -570 -606 642 0
-3 -19 -38 -49 -80 -188 -332 -476 -535 -571 -607 643 0
-6 -20 -40 -50 -82 -190 -334 -478 -536 -572 -608 644 0
-9 -21 -42 -51 -84 -192 -336 -480 -537 -573 -609 645 0
-12 -22 -44 -52 -86 -194 -338 -482 -538 -574 -610 646 0
-15 -23 -46 -53 -88 -196 -340 -484 -539 -575 -611 647 0
-18 -24 -48 -54 -90 -198 -342 -486 -540 -576 -612 648 0
-3 -19 -38 -49 -92 -200 -344 -488 -541 -577 -613 649 0
-6 -20 -40 -50 -94 -202 -346 -490 -542 -578 -614 650 0
-9 -21 -42 -51 -96 -204 -348 -492 -543 -579 -615 651 0
-12 -22 -44 -52 -98 -206 -350 -494 -544 -580 -616 652 0
-15 -23 -46 -53 -100 -208 -352 -496 -545 -581 -617 653 0
-18 -24 -48 -54 -102 -210 -354 -498 -546 -582 -618 654 0
-3 -19 -38 -49 -104 -212 -356 -500 -547 -583 -619 655 0
-6 -20 -40 -50 -106 -214 -358 -502 -548 -584 -620 656 0
-9 -21 -42 -51 -108 -216 -360 -504 -549 -585 -621 657 0
-12 -22 -44 -52 -110 -218 -362 -506 -550 -586 -622 658 0
-15 -23 -46 -53 -112 -220 -364 -508 -551 -587 -623 659 0
-18 -24 -48 -54 -114 -222 -366 -510 -552 -588 -624 660 0
-3 -19 -38 -49 -116 -224 -368 -512 -553 -589 -625 661 0
-6 -20 -40 -50 -118 -226 -370 -514 -554 -590 -626 662 0
-9 -21 -42 -51 -120 -228 -372 -516 -555 -591 -627 663 0
-12 -22 -44 -52 -122 -230 -374 -518 -556 -592 -628 664 0
-15 -23 -46 -53 -124 -232 -376 -520 -557 -593 -629 665 0
-18 -24 -48 -54 -126 -234 -378 -522 -558 -594 -630 666 0
-631 3 0
-632 6 0
-633 9 0
-634 12 0
-635 15 0
-636 18 0
-637 3 0
-638 6 0
-639 9 0
-640 12 0
-641 15 0
-642 18 0
-643 3 0
-644 6 0
-645 9 0
-646 12 0
-647 15 0
-648 18 0
-649 3 0
-650 6 0
-651 9 0
-652 12 0
-653 15 0
-654 18 0
-655 3 0
-656 6 0
-657 9 0
-658 12 0
-659 15 0
-660 18 0
-661 3 0
-662 6 0
-663 9 0
-664 12 0
-665 15 0
-666 18 0
-631 19 0
-632 20 0
-633 21 0
-634 22 0
-635 23 0
-636 24 0
-637 19 0
-638 20 0
-639 21 0
-640 22 0
-641 23 0
-642 24 0
-643 19 0
-644 20 0
-645 21 0
-646 22 0
-647 23 0
-648 24 0
-649 19 0
-650 20 0
-651 21 0
-652 22 0
-653 23 0
-654 24 0
-655 19 0
-656 20 0
-657 21 0
-658 22 0
-659 23 0
-660 24 0
-661 19 0
-662 20 0
-663 21 0
-664 22 0
-665 23 0
-666 24 0
-631 38 0
-632 40 0
-633 42 0
-634 44 0
-635 46 0
-636 48 0
-637 38 0
-638 40 0
-639 42 0
-640 44 0
-641 46 0
-642 48 0
-643 38 0
-644 40 0
-645 42 0
-646 44 0
-647 46 0
-648 48 0
-649 38 0
-650 40 0
-651 42 0
-652 44 0
-653 46 0
-654 48 0
-655 38 0
-656 40 0
-657 42 0
-658 44 0
-659 46 0
-660 48 0
-661 38 0
-662 40 0
-663 42 0
-664 44 0
-665 46 0
-666 48 0
-631 49 0
-632 50 0
-633 51 0
-634 52 0
-635 53 0
-636 54 0
-637 49 0
-638 50 0
-639 51 0
-640 52 0
-641 53 0
-642 54 0
-643 49 0
-644 50 0
-645 51 0
-646 52 0
-647 53 0
-648 54 0
-649 49 0
-650 50 0
-651 51 0
-652 52 0
-653 53 0
-654 54 0
-655 49 0
-656 50 0
-657 51 0
-658 52 0
-659 53 0
-660 54 0
-661 49 0
-662 50 0
-663 51 0
-664 52 0
-665 53 0
-666 54 0
-631 56 0
-632 58 0
-633 60 0
-634 62 0
-635 64 0
-636 66 0
-637 68 0
-638 70 0
-639 72 0
-640 74 0
-641 76 0
-642 78 0
-643 80 0
-644 82 0
-645 84 0
-646 86 0
-647 88 0
-648 90 0
-649 92 0
-650 94 0
-651 96 0
-652 98 0
-653 100 0
-654 102 0
-655 104 0
-656 106 0
-657 108 0
-658 110 0
-659 112 0
-660 114 0
-661 116 0
-662 118 0
-663 120 0
-664 122 0
-665 124 0
-666 126 0
-631 164 0
-632 166 0
-633 168 0
-634 170 0
-635 172 0
-636 174 0
-637 176 0
-638 178 0
-639 180 0
-640 182 0
-641 184 0
-642 186 0
-643 188 0
-644 190 0
-645 192 0
-646 194 0
-647 196 0
-648 198 0
-649 200 0
-650 202 0
-651 204 0
-652 206 0
-653 208 0
-654 210 0
-655 212 0
-656 214 0
-657 216 0
-658 218 0
-659 220 0
-660 222 0
-661 224 0
-662 226 0
-663 228 0
-664 230 0
-665 232 0
-666 234 0
-631 308 0
-632 310 0
-633 312 0
-634 314 0
-635 316 0
-636 318 0
-637 320 0
-638 322 0
-639 324 0
-640 326 0
-641 328 0
-642 330 0
-643 332 0
-644 334 0
-645 336 0
-646 338 0
-647 340 0
-648 342 0
-649 344 0
-650 346 0
-651 348 0
-652 350 0
-653 352 0
-654 354 0
-655 356 0
-656 358 0
-657 360 0
-658 362 0
-659 364 0
-660 366 0
-661 368 0
-662 370 0
-663 372 0
-664 374 0
-665 376 0
-666 378 0
-631 452 0
-632 454 0
-633 456 0
-634 458 0
-635 460 0
-636 462 0
-637 464 0
-638 466 0
-639 468 0
-640 470 0
-641 472 0
-642 474 0
-643 476 0
-644 478 0
-645 480 0
-646 482 0
-647 484 0
-648 486 0
-649 488 0
-650 490 0
-651 492 0
-652 494 0
-653 496 0
-654 498 0
-655 500 0
-656 502 0
-657 504 0
-658 506 0
-659 508 0
-660 510 0
-661 512 0
-662 514 0
-663 516 0
-664 518 0
-665 520 0
-666 522 0
-631 523 0
-632 524 0
-633 525 0
-634 526 0
-635 527 0
-636 528 0
-637 529 0
-638 530 0
-639 531 0
-640 532 0
-641 533 0
-642 534 0
-643 535 0
-644 536 0
-645 537 0
-646 538 0
-647 539 0
-648 540 0
-649 541 0
-650 542 0
-651 543 0
-652 544 0
-653 545 0
-654 546 0
-655 547 0
-656 548 0
-657 549 0
-658 550 0
-659 551 0
-660 552 0
-661 553 0
-662 554 0
-663 555 0
-664 556 0
-665 557 0
-666 558 0
-631 559 0
-632 560 0
-633 561 0
-634 562 0
-635 563 0
-636 564 0
-637 565 0
-638 566 0
-639 567 0
-640 568 0
-641 569 0
-642 570 0
-643 571 0
-644 572 0
-645 573 0
-646 574 0
-647 575 0
-648 576 0
-649 577 0
-650 578 0
-651 579 0
-652 580 0
-653 581 0
-654 582 0
-655 583 0
-656 584 0
-657 585 0
-658 586 0
-659 587 0
-660 588 0
-661 589 0
-662 590 0
-663 591 0
-664 592 0
-665 593 0
-666 594 0
-631 595 0
-632 596 0
-633 597 0
-634 598 0
-635 599 0
-636 600 0
-637 601 0
-638 602 0
-639 603 0
-640 604 0
-641 605 0
-642 606 0
-643 607 0
-644 608 0
-645 609 0
-646 610 0
-647 611 0
-648 612 0
-649 613 0
-650 614 0
-651 615 0
-652 616 0
-653 617 0
-654 618 0
-655 619 0
-656 620 0
-657 621 0
-658 622 0
-659 623 0
-660 624 0
-661 625 0
-662 626 0
-663 627 0
-664 628 0
-665 629 0
-666 630 0
631 0
632 0
633 0
634 0
635 0
636 0
637 0
638 0
639 0
640 0
641 0
642 0
643 0
644 0
645 0
646 0
647 0
648 0
649 0
650 0
651 0
652 0
653 0
654 0
655 0
656 0
657 0
658 0
659 0
660 0
661 0
662 0
663 0
664 0
665 0
666 0
667 0
668 669 0
-668 -669 0
-668 -670 671 0
-668 -672 673 0
-668 -674 675 0
-668 -676 677 0
671 678 0
-671 -678 0
-671 -679 668 0
-671 -680 673 0
-671 -681 675 0
-671 -682 677 0
673 683 0
-673 -683 0
-673 -684 668 0
-673 -685 671 0
-673 -686 675 0
-673 -687 677 0
675 688 0
-675 -688 0
-675 -689 668 0
-675 -690 671 0
-675 -691 673 0
-675 -692 677 0
677 693 0
-677 -693 0
-677 -694 668 0
-677 -695 671 0
-677 -696 673 0
-677 -697 675 0
698 0
669 668 0
-669 -668 0
-669 -671 670 0
-669 -673 672 0
-669 -675 674 0
-669 -677 676 0
670 679 0
-670 -679 0
-670 -678 669 0
-670 -680 672 0
-670 -681 674 0
-670 -682 676 0
672 684 0
-672 -684 0
-672 -683 669 0
-672 -685 670 0
-672 -686 674 0
-672 -687 676 0
674 689 0
-674 -689 0
-674 -688 669 0
-674 -690 670 0
-674 -691 672 0
-674 -692 676 0
676 694 0
-676 -694 0
-676 -693 669 0
-676 -695 670 0
-676 -696 672 0
-676 -697 674 0
699 0
678 671 0
-678 -671 0
-678 -668 679 0
-678 -673 680 0
-678 -675 681 0
-678 -677 682 0
679 670 0
-679 -670 0
-679 -669 678 0
-679 -672 680 0
-679 -674 681 0
-679 -676 682 0
680 685 0
-680 -685 0
-680 -683 678 0
-680 -684 679 0
-680 -686 681 0
-680 -687 682 0
681 690 0
-681 -690 0
-681 -688 678 0
-681 -689 679 0
-681 -691 680 0
-681 -692 682 0
682 695 0
-682 -695 0
-682 -693 678 0
-682 -694 679 0
-682 -696 680 0
-682 -697 681 0
700 0
683 673 0
-683 -673 0
-683 -668 684 0
-683 -671 685 0
-683 -675 686 0
-683 -677 687 0
684 672 0
-684 -672 0
-684 -669 683 0
-684 -670 685 0
-684 -674 686 0
-684 -676 687 0
685 680 0
-685 -680 0
-685 -678 683 0
-685 -679 684 0
-685 -681 686 0
-685 -682 687 0
686 691 0
-686 -691 0
-686 -688 683 0
-686 -689 684 0
-686 -690 685 0
-686 -692 687 0
687 696 0
-687 -696 0
-687 -693 683 0
-687 -694 684 0
-687 -695 685 0
-687 -697 686 0
701 0
688 675 0
-688 -675 0
-688 -668 689 0
-688 -671 690 0
-688 -673 691 0
-688 -677 692 0
689 674 0
-689 -674 0
-689 -669 688 0
-689 -670 690 0
-689 -672 691 0
-689 -676 692 0
690 681 0
-690 -681 0
-690 -678 688 0
-690 -679 689 0
-690 -680 691 0
-690 -682 692 0
691 686 0
-691 -686 0
-691 -683 688 0
-691 -684 689 0
-691 -685 690 0
-691 -687 692 0
692 697 0
-692 -697 0
-692 -693 688 0
-692 -694 689 0
-692 -695 690 0
-692 -696 691 0
702 0
693 677 0
-693 -677 0
-693 -668 694 0
-693 -671 695 0
-693 -673 696 0
-693 -675 697 0
694 676 0
-694 -676 0
-694 -669 693 0
-694 -670 695 0
-694 -672 696 0
-694 -674 697 0
695 682 0
-695 -682 0
-695 -678 693 0
-695 -679 694 0
-695 -680 696 0
-695 -681 697 0
696 687 0
-696 -687 0
-696 -683 693 0
-696 -684 694 0
-696 -685 695 0
-696 -686 697 0
697 692 0
-697 -692 0
-697 -688 693 0
-697 -689 694 0
-697 -690 695 0
-697 -691 696 0
-55 0
-67 668 0
-703 671 0
-703 679 0
-671 -679 703 0
-704 673 0
-704 684 0
-673 -684 704 0
-705 675 0
-705 689 0
-675 -689 705 0
-706 677 0
-706 694 0
-677 -694 706 0
-67 -703 0
-67 -704 0
-67 -705 0
-67 -706 0
-668 67 703 704 705 706 0
-79 671 0
-707 668 0
-707 670 0
-668 -670 707 0
-708 673 0
-708 685 0
-673 -685 708 0
-709 675 0
-709 690 0
-675 -690 709 0
-710 677 0
-710 695 0
-677 -695 710 0
-79 -707 0
-79 -708 0
-79 -709 0
-79 -710 0
-671 79 707 708 709 710 0
-91 673 0
-711 668 0
-711 672 0
-668 -672 711 0
-712 671 0
-712 680 0
-671 -680 712 0
-713 675 0
-713 691 0
-675 -691 713 0
-714 677 0
-714 696 0
-677 -696 714 0
-91 -711 0
-91 -712 0
-91 -713 0
-91 -714 0
-673 91 711 712 713 714 0
-103 675 0
-715 668 0
-715 674 0
-668 -674 715 0
-716 671 0
-716 681 0
-671 -681 716 0
-717 673 0
-717 686 0
-673 -686 717 0
-718 677 0
-718 697 0
-677 -697 718 0
-103 -715 0
-103 -716 0
-103 -717 0
-103 -718 0
-675 103 715 716 717 718 0
-115 677 0
-719 668 0
-719 676 0
-668 -676 719 0
-720 671 0
-720 682 0
-671 -682 720 0
-721 673 0
-721 687 0
-673 -687 721 0
-722 675 0
-722 692 0
-675 -692 722 0
-115 -719 0
-115 -720 0
-115 -721 0
-115 -722 0
-677 115 719 720 721 722 0
-57 669 0
-723 670 0
-723 678 0
-670 -678 723 0
-724 672 0
-724 683 0
-672 -683 724 0
-725 674 0
-725 688 0
-674 -688 725 0
-726 676 0
-726 693 0
-676 -693 726 0
-57 -723 0
-57 -724 0
-57 -725 0
-57 -726 0
-669 57 723 724 725 726 0
-69 0
-81 670 0
-727 669 0
-727 671 0
-669 -671 727 0
-728 672 0
-728 685 0
-672 -685 728 0
-729 674 0
-729 690 0
-674 -690 729 0
-730 676 0
-730 695 0
-676 -695 730 0
-81 -727 0
-81 -728 0
-81 -729 0
-81 -730 0
-670 81 727 728 729 730 0
-93 672 0
-731 669 0
-731 673 0
-669 -673 731 0
-732 670 0
-732 680 0
-670 -680 732 0
-733 674 0
-733 691 0
-674 -691 733 0
-734 676 0
-734 696 0
-676 -696 734 0
-93 -731 0
-93 -732 0
-93 -733 0
-93 -734 0
-672 93 731 732 733 734 0
-105 674 0
-735 669 0
-735 675 0
-669 -675 735 0
-736 670 0
-736 681 0
-670 -681 736 0
-737 672 0
-737 686 0
-672 -686 737 0
-738 676 0
-738 697 0
-676 -697 738 0
-105 -735 0
-105 -736 0
-105 -737 0
-105 -738 0
-674 105 735 736 737 738 0
-117 676 0
-739 669 0
-739 677 0
-669 -677 739 0
-740 670 0
-740 682 0
-670 -682 740 0
-741 672 0
-741 687 0
-672 -687 741 0
-742 674 0
-742 692 0
-674 -692 742 0
-117 -739 0
-117 -740 0
-117 -741 0
-117 -742 0
-676 117 739 740 741 742 0
-59 678 0
-743 679 0
-743 669 0
-679 -669 743 0
-744 680 0
-744 683 0
-680 -683 744 0
-745 681 0
-745 688 0
-681 -688 745 0
-746 682 0
-746 693 0
-682 -693 746 0
-59 -743 0
-59 -744 0
-59 -745 0
-59 -746 0
-678 59 743 744 745 746 0
-71 679 0
-747 678 0
-747 668 0
-678 -668 747 0
-748 680 0
-748 684 0
-680 -684 748 0
-749 681 0
-749 689 0
-681 -689 749 0
-750 682 0
-750 694 0
-682 -694 750 0
-71 -747 0
-71 -748 0
-71 -749 0
-71 -750 0
-679 71 747 748 749 750 0
-83 0
-95 680 0
-751 678 0
-751 673 0
-678 -673 751 0
-752 679 0
-752 672 0
-679 -672 752 0
-753 681 0
-753 691 0
-681 -691 753 0
-754 682 0
-754 696 0
-682 -696 754 0
-95 -751 0
-95 -752 0
-95 -753 0
-95 -754 0
-680 95 751 752 753 754 0
-107 681 0
-755 678 0
-755 675 0
-678 -675 755 0
-756 679 0
-756 674 0
-679 -674 756 0
-757 680 0
-757 686 0
-680 -686 757 0
-758 682 0
-758 697 0
-682 -697 758 0
-107 -755 0
-107 -756 0
-107 -757 0
-107 -758 0
-681 107 755 756 757 758 0
-119 682 0
-759 678 0
-759 677 0
-678 -677 759 0
-760 679 0
-760 676 0
-679 -676 760 0
-761 680 0
-761 687 0
-680 -687 761 0
-762 681 0
-762 692 0
-681 -692 762 0
-119 -759 0
-119 -760 0
-119 -761 0
-119 -762 0
-682 119 759 760 761 762 0
-61 683 0
-763 684 0
-763 669 0
-684 -669 763 0
-764 685 0
-764 678 0
-685 -678 764 0
-765 686 0
-765 688 0
-686 -688 765 0
-766 687 0
-766 693 0
-687 -693 766 0
-61 -763 0
-61 -764 0
-61 -765 0
-61 -766 0
-683 61 763 764 765 766 0
-73 684 0
-767 683 0
-767 668 0
-683 -668 767 0
-768 685 0
-768 679 0
-685 -679 768 0
-769 686 0
-769 689 0
-686 -689 769 0
-770 687 0
-770 694 0
-687 -694 770 0
-73 -767 0
-73 -768 0
-73 -769 0
-73 -770 0
-684 73 767 768 769 770 0
-85 685 0
-771 683 0
-771 671 0
-683 -671 771 0
-772 684 0
-772 670 0
-684 -670 772 0
-773 686 0
-773 690 0
-686 -690 773 0
-774 687 0
-774 695 0
-687 -695 774 0
-85 -771 0
-85 -772 0
-85 -773 0
-85 -774 0
-685 85 771 772 773 774 0
-97 0
-109 686 0
-775 683 0
-775 675 0
-683 -675 775 0
-776 684 0
-776 674 0
-684 -674 776 0
-777 685 0
-777 681 0
-685 -681 777 0
-778 687 0
-778 697 0
-687 -697 778 0
-109 -775 0
-109 -776 0
-109 -777 0
-109 -778 0
-686 109 775 776 777 778 0
-121 687 0
-779 683 0
-779 677 0
-683 -677 779 0
-780 684 0
-780 676 0
-684 -676 780 0
-781 685 0
-781 682 0
-685 -682 781 0
-782 686 0
-782 692 0
-686 -692 782 0
-121 -779 0
-121 -780 0
-121 -781 0
-121 -782 0
-687 121 779 780 781 782 0
-63 688 0
-783 689 0
-783 669 0
-689 -669 783 0
-784 690 0
-784 678 0
-690 -678 784 0
-785 691 0
-785 683 0
-691 -683 785 0
-786 692 0
-786 693 0
-692 -693 786 0
-63 -783 0
-63 -784 0
-63 -785 0
-63 -786 0
-688 63 783 784 785 786 0
-75 689 0
-787 688 0
-787 668 0
-688 -668 787 0
-788 690 0
-788 679 0
-690 -679 788 0
-789 691 0
-789 684 0
-691 -684 789 0
-790 692 0
-790 694 0
-692 -694 790 0
-75 -787 0
-75 -788 0
-75 -789 0
-75 -790 0
-689 75 787 788 789 790 0
-87 690 0
-791 688 0
-791 671 0
-688 -671 791 0
-792 689 0
-792 670 0
-689 -670 792 0
-793 691 0
-793 685 0
-691 -685 793 0
-794 692 0
-794 695 0
-692 -695 794 0
-87 -791 0
-87 -792 0
-87 -793 0
-87 -794 0
-690 87 791 792 793 794 0
-99 691 0
-795 688 0
-795 673 0
-688 -673 795 0
-796 689 0
-796 672 0
-689 -672 796 0
-797 690 0
-797 680 0
-690 -680 797 0
-798 692 0
-798 696 0
-692 -696 798 0
-99 -795 0
-99 -796 0
-99 -797 0
-99 -798 0
-691 99 795 796 797 798 0
-111 0
-123 692 0
-799 688 0
-799 677 0
-688 -677 799 0
-800 689 0
-800 676 0
-689 -676 800 0
-801 690 0
-801 682 0
-690 -682 801 0
-802 691 0
-802 687 0
-691 -687 802 0
-123 -799 0
-123 -800 0
-123 -801 0
-123 -802 0
-692 123 799 800 801 802 0
-65 693 0
-803 694 0
-803 669 0
-694 -669 803 0
-804 695 0
-804 678 0
-695 -678 804 0
-805 696 0
-805 683 0
-696 -683 805 0
-806 697 0
-806 688 0
-697 -688 806 0
-65 -803 0
-65 -804 0
-65 -805 0
-65 -806 0
-693 65 803 804 805 806 0
-77 694 0
-807 693 0
-807 668 0
-693 -668 807 0
-808 695 0
-808 679 0
-695 -679 808 0
-809 696 0
-809 684 0
-696 -684 809 0
-810 697 0
-810 689 0
-697 -689 810 0
-77 -807 0
-77 -808 0
-77 -809 0
-77 -810 0
-694 77 807 808 809 810 0
-89 695 0
-811 693 0
-811 671 0
-693 -671 811 0
-812 694 0
-812 670 0
-694 -670 812 0
-813 696 0
-813 685 0
-696 -685 813 0
-814 697 0
-814 690 0
-697 -690 814 0
-89 -811 0
-89 -812 0
-89 -813 0
-89 -814 0
-695 89 811 812 813 814 0
-101 696 0
-815 693 0
-815 673 0
-693 -673 815 0
-816 694 0
-816 672 0
-694 -672 816 0
-817 695 0
-817 680 0
-695 -680 817 0
-818 697 0
-818 691 0
-697 -691 818 0
-101 -815 0
-101 -816 0
-101 -817 0
-101 -818 0
-696 101 815 816 817 818 0
-113 697 0
-819 693 0
-819 675 0
-693 -675 819 0
-820 694 0
-820 674 0
-694 -674 820 0
-821 695 0
-821 681 0
-695 -681 821 0
-822 696 0
-822 686 0
-696 -686 822 0
-113 -819 0
-113 -820 0
-113 -821 0
-113 -822 0
-697 113 819 820 821 822 0
-125 0
