p cnf 1155 3941
1 2 -3 0
4 5 -6 0
7 8 -9 0
10 11 -12 0
13 14 -15 0
16 17 -18 0
19 20 -21 0
3 -1 0
6 -4 0
9 -7 0
12 -10 0
15 -13 0
18 -16 0
21 -19 0
3 -2 0
6 -5 0
9 -8 0
12 -11 0
15 -14 0
18 -17 0
21 -20 0
-1 -2 -22 0
-4 -5 -23 0
-7 -8 -24 0
-10 -11 -25 0
-13 -14 -26 0
-16 -17 -27 0
-19 -20 -28 0
22 1 0
23 4 0
24 7 0
25 10 0
26 13 0
27 16 0
28 19 0
22 2 0
23 5 0
24 8 0
25 11 0
26 14 0
27 17 0
28 20 0
-29 1 30 0
-31 4 32 0
-33 7 34 0
-35 10 36 0
-37 13 38 0
-39 16 40 0
-41 19 42 0
-30 29 0
-32 31 0
-34 33 0
-36 35 0
-38 37 0
-40 39 0
-42 41 0
-30 -1 0
-32 -4 0
-34 -7 0
-36 -10 0
-38 -13 0
-40 -16 0
-42 -19 0
43 30 -44 0
45 32 -46 0
47 34 -48 0
49 36 -50 0
51 38 -52 0
53 40 -54 0
55 42 -56 0
44 -43 0
46 -45 0
48 -47 0
50 -49 0
52 -51 0
54 -53 0
56 -55 0
44 -30 0
46 -32 0
48 -34 0
50 -36 0
52 -38 0
54 -40 0
56 -42 0
1 -43 -29 -57 0
4 -45 -31 -58 0
7 -47 -33 -59 0
10 -49 -35 -60 0
13 -51 -37 -61 0
16 -53 -39 -62 0
19 -55 -41 -63 0
57 -1 0
58 -4 0
59 -7 0
60 -10 0
61 -13 0
62 -16 0
63 -19 0
57 43 0
58 45 0
59 47 0
60 49 0
61 51 0
62 53 0
63 55 0
57 29 0
58 31 0
59 33 0
60 35 0
61 37 0
62 39 0
63 41 0
1 -64 -2 -65 0
4 -66 -5 -67 0
7 -68 -8 -69 0
10 -70 -11 -71 0
13 -72 -14 -73 0
16 -74 -17 -75 0
19 -76 -20 -77 0
1 -78 -2 -79 0
4 -80 -5 -81 0
7 -82 -8 -83 0
10 -84 -11 -85 0
13 -86 -14 -87 0
16 -88 -17 -89 0
19 -90 -20 -91 0
1 -92 -2 -93 0
4 -94 -5 -95 0
7 -96 -8 -97 0
10 -98 -11 -99 0
13 -100 -14 -101 0
16 -102 -17 -103 0
19 -104 -20 -105 0
1 -106 -2 -107 0
4 -108 -5 -109 0
7 -110 -8 -111 0
10 -112 -11 -113 0
13 -114 -14 -115 0
16 -116 -17 -117 0
19 -118 -20 -119 0
1 -120 -2 -121 0
4 -122 -5 -123 0
7 -124 -8 -125 0
10 -126 -11 -127 0
13 -128 -14 -129 0
16 -130 -17 -131 0
19 -132 -20 -133 0
1 -134 -2 -135 0
4 -136 -5 -137 0
7 -138 -8 -139 0
10 -140 -11 -141 0
13 -142 -14 -143 0
16 -144 -17 -145 0
19 -146 -20 -147 0
1 -148 -2 -149 0
4 -150 -5 -151 0
7 -152 -8 -153 0
10 -154 -11 -155 0
13 -156 -14 -157 0
16 -158 -17 -159 0
19 -160 -20 -161 0
65 -1 0
67 -4 0
69 -7 0
71 -10 0
73 -13 0
75 -16 0
77 -19 0
79 -1 0
81 -4 0
83 -7 0
85 -10 0
87 -13 0
89 -16 0
91 -19 0
93 -1 0
95 -4 0
97 -7 0
99 -10 0
101 -13 0
103 -16 0
105 -19 0
107 -1 0
109 -4 0
111 -7 0
113 -10 0
115 -13 0
117 -16 0
119 -19 0
121 -1 0
123 -4 0
125 -7 0
127 -10 0
129 -13 0
131 -16 0
133 -19 0
135 -1 0
137 -4 0
139 -7 0
141 -10 0
143 -13 0
145 -16 0
147 -19 0
149 -1 0
151 -4 0
153 -7 0
155 -10 0
157 -13 0
159 -16 0
161 -19 0
65 64 0
67 66 0
69 68 0
71 70 0
73 72 0
75 74 0
77 76 0
79 78 0
81 80 0
83 82 0
85 84 0
87 86 0
89 88 0
91 90 0
93 92 0
95 94 0
97 96 0
99 98 0
101 100 0
103 102 0
105 104 0
107 106 0
109 108 0
111 110 0
113 112 0
115 114 0
117 116 0
119 118 0
121 120 0
123 122 0
125 124 0
127 126 0
129 128 0
131 130 0
133 132 0
135 134 0
137 136 0
139 138 0
141 140 0
143 142 0
145 144 0
147 146 0
149 148 0
151 150 0
153 152 0
155 154 0
157 156 0
159 158 0
161 160 0
65 2 0
67 5 0
69 8 0
71 11 0
73 14 0
75 17 0
77 20 0
79 2 0
81 5 0
83 8 0
85 11 0
87 14 0
89 17 0
91 20 0
93 2 0
95 5 0
97 8 0
99 11 0
101 14 0
103 17 0
105 20 0
107 2 0
109 5 0
111 8 0
113 11 0
115 14 0
117 17 0
119 20 0
121 2 0
123 5 0
125 8 0
127 11 0
129 14 0
131 17 0
133 20 0
135 2 0
137 5 0
139 8 0
141 11 0
143 14 0
145 17 0
147 20 0
149 2 0
151 5 0
153 8 0
155 11 0
157 14 0
159 17 0
161 20 0
-64 -29 29 162 0
-66 -31 29 163 0
-68 -33 29 164 0
-70 -35 29 165 0
-72 -37 29 166 0
-74 -39 29 167 0
-76 -41 29 168 0
-78 -29 31 169 0
-80 -31 31 170 0
-82 -33 31 171 0
-84 -35 31 172 0
-86 -37 31 173 0
-88 -39 31 174 0
-90 -41 31 175 0
-92 -29 33 176 0
-94 -31 33 177 0
-96 -33 33 178 0
-98 -35 33 179 0
-100 -37 33 180 0
-102 -39 33 181 0
-104 -41 33 182 0
-106 -29 35 183 0
-108 -31 35 184 0
-110 -33 35 185 0
-112 -35 35 186 0
-114 -37 35 187 0
-116 -39 35 188 0
-118 -41 35 189 0
-120 -29 37 190 0
-122 -31 37 191 0
-124 -33 37 192 0
-126 -35 37 193 0
-128 -37 37 194 0
-130 -39 37 195 0
-132 -41 37 196 0
-134 -29 39 197 0
-136 -31 39 198 0
-138 -33 39 199 0
-140 -35 39 200 0
-142 -37 39 201 0
-144 -39 39 202 0
-146 -41 39 203 0
-148 -29 41 204 0
-150 -31 41 205 0
-152 -33 41 206 0
-154 -35 41 207 0
-156 -37 41 208 0
-158 -39 41 209 0
-160 -41 41 210 0
-162 64 0
-163 66 0
-164 68 0
-165 70 0
-166 72 0
-167 74 0
-168 76 0
-169 78 0
-170 80 0
-171 82 0
-172 84 0
-173 86 0
-174 88 0
-175 90 0
-176 92 0
-177 94 0
-178 96 0
-179 98 0
-180 100 0
-181 102 0
-182 104 0
-183 106 0
-184 108 0
-185 110 0
-186 112 0
-187 114 0
-188 116 0
-189 118 0
-190 120 0
-191 122 0
-192 124 0
-193 126 0
-194 128 0
-195 130 0
-196 132 0
-197 134 0
-198 136 0
-199 138 0
-200 140 0
-201 142 0
-202 144 0
-203 146 0
-204 148 0
-205 150 0
-206 152 0
-207 154 0
-208 156 0
-209 158 0
-210 160 0
-162 29 0
-163 31 0
-164 33 0
-165 35 0
-166 37 0
-167 39 0
-168 41 0
-169 29 0
-170 31 0
-171 33 0
-172 35 0
-173 37 0
-174 39 0
-175 41 0
-176 29 0
-177 31 0
-178 33 0
-179 35 0
-180 37 0
-181 39 0
-182 41 0
-183 29 0
-184 31 0
-185 33 0
-186 35 0
-187 37 0
-188 39 0
-189 41 0
-190 29 0
-191 31 0
-192 33 0
-193 35 0
-194 37 0
-195 39 0
-196 41 0
-197 29 0
-198 31 0
-199 33 0
-200 35 0
-201 37 0
-202 39 0
-203 41 0
-204 29 0
-205 31 0
-206 33 0
-207 35 0
-208 37 0
-209 39 0
-210 41 0
-162 -29 0
-163 -29 0
-164 -29 0
-165 -29 0
-166 -29 0
-167 -29 0
-168 -29 0
-169 -31 0
-170 -31 0
-171 -31 0
-172 -31 0
-173 -31 0
-174 -31 0
-175 -31 0
-176 -33 0
-177 -33 0
-178 -33 0
-179 -33 0
-180 -33 0
-181 -33 0
-182 -33 0
-183 -35 0
-184 -35 0
-185 -35 0
-186 -35 0
-187 -35 0
-188 -35 0
-189 -35 0
-190 -37 0
-191 -37 0
-192 -37 0
-193 -37 0
-194 -37 0
-195 -37 0
-196 -37 0
-197 -39 0
-198 -39 0
-199 -39 0
-200 -39 0
-201 -39 0
-202 -39 0
-203 -39 0
-204 -41 0
-205 -41 0
-206 -41 0
-207 -41 0
-208 -41 0
-209 -41 0
-210 -41 0
211 162 -212 0
213 163 -214 0
215 164 -216 0
217 165 -218 0
219 166 -220 0
221 167 -222 0
223 168 -224 0
225 169 -226 0
227 170 -228 0
229 171 -230 0
231 172 -232 0
233 173 -234 0
235 174 -236 0
237 175 -238 0
239 176 -240 0
241 177 -242 0
243 178 -244 0
245 179 -246 0
247 180 -248 0
249 181 -250 0
251 182 -252 0
253 183 -254 0
255 184 -256 0
257 185 -258 0
259 186 -260 0
261 187 -262 0
263 188 -264 0
265 189 -266 0
267 190 -268 0
269 191 -270 0
271 192 -272 0
273 193 -274 0
275 194 -276 0
277 195 -278 0
279 196 -280 0
281 197 -282 0
283 198 -284 0
285 199 -286 0
287 200 -288 0
289 201 -290 0
291 202 -292 0
293 203 -294 0
295 204 -296 0
297 205 -298 0
299 206 -300 0
301 207 -302 0
303 208 -304 0
305 209 -306 0
307 210 -308 0
212 -211 0
214 -213 0
216 -215 0
218 -217 0
220 -219 0
222 -221 0
224 -223 0
226 -225 0
228 -227 0
230 -229 0
232 -231 0
234 -233 0
236 -235 0
238 -237 0
240 -239 0
242 -241 0
244 -243 0
246 -245 0
248 -247 0
250 -249 0
252 -251 0
254 -253 0
256 -255 0
258 -257 0
260 -259 0
262 -261 0
264 -263 0
266 -265 0
268 -267 0
270 -269 0
272 -271 0
274 -273 0
276 -275 0
278 -277 0
280 -279 0
282 -281 0
284 -283 0
286 -285 0
288 -287 0
290 -289 0
292 -291 0
294 -293 0
296 -295 0
298 -297 0
300 -299 0
302 -301 0
304 -303 0
306 -305 0
308 -307 0
212 -162 0
214 -163 0
216 -164 0
218 -165 0
220 -166 0
222 -167 0
224 -168 0
226 -169 0
228 -170 0
230 -171 0
232 -172 0
234 -173 0
236 -174 0
238 -175 0
240 -176 0
242 -177 0
244 -178 0
246 -179 0
248 -180 0
250 -181 0
252 -182 0
254 -183 0
256 -184 0
258 -185 0
260 -186 0
262 -187 0
264 -188 0
266 -189 0
268 -190 0
270 -191 0
272 -192 0
274 -193 0
276 -194 0
278 -195 0
280 -196 0
282 -197 0
284 -198 0
286 -199 0
288 -200 0
290 -201 0
292 -202 0
294 -203 0
296 -204 0
298 -205 0
300 -206 0
302 -207 0
304 -208 0
306 -209 0
308 -210 0
-309 -29 29 310 0
-311 -31 29 312 0
-313 -33 29 314 0
-315 -35 29 316 0
-317 -37 29 318 0
-319 -39 29 320 0
-321 -41 29 322 0
-323 -29 31 324 0
-325 -31 31 326 0
-327 -33 31 328 0
-329 -35 31 330 0
-331 -37 31 332 0
-333 -39 31 334 0
-335 -41 31 336 0
-337 -29 33 338 0
-339 -31 33 340 0
-341 -33 33 342 0
-343 -35 33 344 0
-345 -37 33 346 0
-347 -39 33 348 0
-349 -41 33 350 0
-351 -29 35 352 0
-353 -31 35 354 0
-355 -33 35 356 0
-357 -35 35 358 0
-359 -37 35 360 0
-361 -39 35 362 0
-363 -41 35 364 0
-365 -29 37 366 0
-367 -31 37 368 0
-369 -33 37 370 0
-371 -35 37 372 0
-373 -37 37 374 0
-375 -39 37 376 0
-377 -41 37 378 0
-379 -29 39 380 0
-381 -31 39 382 0
-383 -33 39 384 0
-385 -35 39 386 0
-387 -37 39 388 0
-389 -39 39 390 0
-391 -41 39 392 0
-393 -29 41 394 0
-395 -31 41 396 0
-397 -33 41 398 0
-399 -35 41 400 0
-401 -37 41 402 0
-403 -39 41 404 0
-405 -41 41 406 0
-310 309 0
-312 311 0
-314 313 0
-316 315 0
-318 317 0
-320 319 0
-322 321 0
-324 323 0
-326 325 0
-328 327 0
-330 329 0
-332 331 0
-334 333 0
-336 335 0
-338 337 0
-340 339 0
-342 341 0
-344 343 0
-346 345 0
-348 347 0
-350 349 0
-352 351 0
-354 353 0
-356 355 0
-358 357 0
-360 359 0
-362 361 0
-364 363 0
-366 365 0
-368 367 0
-370 369 0
-372 371 0
-374 373 0
-376 375 0
-378 377 0
-380 379 0
-382 381 0
-384 383 0
-386 385 0
-388 387 0
-390 389 0
-392 391 0
-394 393 0
-396 395 0
-398 397 0
-400 399 0
-402 401 0
-404 403 0
-406 405 0
-310 29 0
-312 31 0
-314 33 0
-316 35 0
-318 37 0
-320 39 0
-322 41 0
-324 29 0
-326 31 0
-328 33 0
-330 35 0
-332 37 0
-334 39 0
-336 41 0
-338 29 0
-340 31 0
-342 33 0
-344 35 0
-346 37 0
-348 39 0
-350 41 0
-352 29 0
-354 31 0
-356 33 0
-358 35 0
-360 37 0
-362 39 0
-364 41 0
-366 29 0
-368 31 0
-370 33 0
-372 35 0
-374 37 0
-376 39 0
-378 41 0
-380 29 0
-382 31 0
-384 33 0
-386 35 0
-388 37 0
-390 39 0
-392 41 0
-394 29 0
-396 31 0
-398 33 0
-400 35 0
-402 37 0
-404 39 0
-406 41 0
-310 -29 0
-312 -29 0
-314 -29 0
-316 -29 0
-318 -29 0
-320 -29 0
-322 -29 0
-324 -31 0
-326 -31 0
-328 -31 0
-330 -31 0
-332 -31 0
-334 -31 0
-336 -31 0
-338 -33 0
-340 -33 0
-342 -33 0
-344 -33 0
-346 -33 0
-348 -33 0
-350 -33 0
-352 -35 0
-354 -35 0
-356 -35 0
-358 -35 0
-360 -35 0
-362 -35 0
-364 -35 0
-366 -37 0
-368 -37 0
-370 -37 0
-372 -37 0
-374 -37 0
-376 -37 0
-378 -37 0
-380 -39 0
-382 -39 0
-384 -39 0
-386 -39 0
-388 -39 0
-390 -39 0
-392 -39 0
-394 -41 0
-396 -41 0
-398 -41 0
-400 -41 0
-402 -41 0
-404 -41 0
-406 -41 0
407 310 -408 0
409 312 -410 0
411 314 -412 0
413 316 -414 0
415 318 -416 0
417 320 -418 0
419 322 -420 0
421 324 -422 0
423 326 -424 0
425 328 -426 0
427 330 -428 0
429 332 -430 0
431 334 -432 0
433 336 -434 0
435 338 -436 0
437 340 -438 0
439 342 -440 0
441 344 -442 0
443 346 -444 0
445 348 -446 0
447 350 -448 0
449 352 -450 0
451 354 -452 0
453 356 -454 0
455 358 -456 0
457 360 -458 0
459 362 -460 0
461 364 -462 0
463 366 -464 0
465 368 -466 0
467 370 -468 0
469 372 -470 0
471 374 -472 0
473 376 -474 0
475 378 -476 0
477 380 -478 0
479 382 -480 0
481 384 -482 0
483 386 -484 0
485 388 -486 0
487 390 -488 0
489 392 -490 0
491 394 -492 0
493 396 -494 0
495 398 -496 0
497 400 -498 0
499 402 -500 0
501 404 -502 0
503 406 -504 0
408 -407 0
410 -409 0
412 -411 0
414 -413 0
416 -415 0
418 -417 0
420 -419 0
422 -421 0
424 -423 0
426 -425 0
428 -427 0
430 -429 0
432 -431 0
434 -433 0
436 -435 0
438 -437 0
440 -439 0
442 -441 0
444 -443 0
446 -445 0
448 -447 0
450 -449 0
452 -451 0
454 -453 0
456 -455 0
458 -457 0
460 -459 0
462 -461 0
464 -463 0
466 -465 0
468 -467 0
470 -469 0
472 -471 0
474 -473 0
476 -475 0
478 -477 0
480 -479 0
482 -481 0
484 -483 0
486 -485 0
488 -487 0
490 -489 0
492 -491 0
494 -493 0
496 -495 0
498 -497 0
500 -499 0
502 -501 0
504 -503 0
408 -310 0
410 -312 0
412 -314 0
414 -316 0
416 -318 0
418 -320 0
420 -322 0
422 -324 0
424 -326 0
426 -328 0
428 -330 0
430 -332 0
432 -334 0
434 -336 0
436 -338 0
438 -340 0
440 -342 0
442 -344 0
444 -346 0
446 -348 0
448 -350 0
450 -352 0
452 -354 0
454 -356 0
456 -358 0
458 -360 0
460 -362 0
462 -364 0
464 -366 0
466 -368 0
468 -370 0
470 -372 0
472 -374 0
474 -376 0
476 -378 0
478 -380 0
480 -382 0
482 -384 0
484 -386 0
486 -388 0
488 -390 0
490 -392 0
492 -394 0
494 -396 0
496 -398 0
498 -400 0
500 -402 0
502 -404 0
504 -406 0
-505 -29 29 506 0
-507 -31 29 508 0
-509 -33 29 510 0
-511 -35 29 512 0
-513 -37 29 514 0
-515 -39 29 516 0
-517 -41 29 518 0
-519 -29 31 520 0
-521 -31 31 522 0
-523 -33 31 524 0
-525 -35 31 526 0
-527 -37 31 528 0
-529 -39 31 530 0
-531 -41 31 532 0
-533 -29 33 534 0
-535 -31 33 536 0
-537 -33 33 538 0
-539 -35 33 540 0
-541 -37 33 542 0
-543 -39 33 544 0
-545 -41 33 546 0
-547 -29 35 548 0
-549 -31 35 550 0
-551 -33 35 552 0
-553 -35 35 554 0
-555 -37 35 556 0
-557 -39 35 558 0
-559 -41 35 560 0
-561 -29 37 562 0
-563 -31 37 564 0
-565 -33 37 566 0
-567 -35 37 568 0
-569 -37 37 570 0
-571 -39 37 572 0
-573 -41 37 574 0
-575 -29 39 576 0
-577 -31 39 578 0
-579 -33 39 580 0
-581 -35 39 582 0
-583 -37 39 584 0
-585 -39 39 586 0
-587 -41 39 588 0
-589 -29 41 590 0
-591 -31 41 592 0
-593 -33 41 594 0
-595 -35 41 596 0
-597 -37 41 598 0
-599 -39 41 600 0
-601 -41 41 602 0
-506 505 0
-508 507 0
-510 509 0
-512 511 0
-514 513 0
-516 515 0
-518 517 0
-520 519 0
-522 521 0
-524 523 0
-526 525 0
-528 527 0
-530 529 0
-532 531 0
-534 533 0
-536 535 0
-538 537 0
-540 539 0
-542 541 0
-544 543 0
-546 545 0
-548 547 0
-550 549 0
-552 551 0
-554 553 0
-556 555 0
-558 557 0
-560 559 0
-562 561 0
-564 563 0
-566 565 0
-568 567 0
-570 569 0
-572 571 0
-574 573 0
-576 575 0
-578 577 0
-580 579 0
-582 581 0
-584 583 0
-586 585 0
-588 587 0
-590 589 0
-592 591 0
-594 593 0
-596 595 0
-598 597 0
-600 599 0
-602 601 0
-506 29 0
-508 31 0
-510 33 0
-512 35 0
-514 37 0
-516 39 0
-518 41 0
-520 29 0
-522 31 0
-524 33 0
-526 35 0
-528 37 0
-530 39 0
-532 41 0
-534 29 0
-536 31 0
-538 33 0
-540 35 0
-542 37 0
-544 39 0
-546 41 0
-548 29 0
-550 31 0
-552 33 0
-554 35 0
-556 37 0
-558 39 0
-560 41 0
-562 29 0
-564 31 0
-566 33 0
-568 35 0
-570 37 0
-572 39 0
-574 41 0
-576 29 0
-578 31 0
-580 33 0
-582 35 0
-584 37 0
-586 39 0
-588 41 0
-590 29 0
-592 31 0
-594 33 0
-596 35 0
-598 37 0
-600 39 0
-602 41 0
-506 -29 0
-508 -29 0
-510 -29 0
-512 -29 0
-514 -29 0
-516 -29 0
-518 -29 0
-520 -31 0
-522 -31 0
-524 -31 0
-526 -31 0
-528 -31 0
-530 -31 0
-532 -31 0
-534 -33 0
-536 -33 0
-538 -33 0
-540 -33 0
-542 -33 0
-544 -33 0
-546 -33 0
-548 -35 0
-550 -35 0
-552 -35 0
-554 -35 0
-556 -35 0
-558 -35 0
-560 -35 0
-562 -37 0
-564 -37 0
-566 -37 0
-568 -37 0
-570 -37 0
-572 -37 0
-574 -37 0
-576 -39 0
-578 -39 0
-580 -39 0
-582 -39 0
-584 -39 0
-586 -39 0
-588 -39 0
-590 -41 0
-592 -41 0
-594 -41 0
-596 -41 0
-598 -41 0
-600 -41 0
-602 -41 0
603 506 -604 0
605 508 -606 0
607 510 -608 0
609 512 -610 0
611 514 -612 0
613 516 -614 0
615 518 -616 0
617 520 -618 0
619 522 -620 0
621 524 -622 0
623 526 -624 0
625 528 -626 0
627 530 -628 0
629 532 -630 0
631 534 -632 0
633 536 -634 0
635 538 -636 0
637 540 -638 0
639 542 -640 0
641 544 -642 0
643 546 -644 0
645 548 -646 0
647 550 -648 0
649 552 -650 0
651 554 -652 0
653 556 -654 0
655 558 -656 0
657 560 -658 0
659 562 -660 0
661 564 -662 0
663 566 -664 0
665 568 -666 0
667 570 -668 0
669 572 -670 0
671 574 -672 0
673 576 -674 0
675 578 -676 0
677 580 -678 0
679 582 -680 0
681 584 -682 0
683 586 -684 0
685 588 -686 0
687 590 -688 0
689 592 -690 0
691 594 -692 0
693 596 -694 0
695 598 -696 0
697 600 -698 0
699 602 -700 0
604 -603 0
606 -605 0
608 -607 0
610 -609 0
612 -611 0
614 -613 0
616 -615 0
618 -617 0
620 -619 0
622 -621 0
624 -623 0
626 -625 0
628 -627 0
630 -629 0
632 -631 0
634 -633 0
636 -635 0
638 -637 0
640 -639 0
642 -641 0
644 -643 0
646 -645 0
648 -647 0
650 -649 0
652 -651 0
654 -653 0
656 -655 0
658 -657 0
660 -659 0
662 -661 0
664 -663 0
666 -665 0
668 -667 0
670 -669 0
672 -671 0
674 -673 0
676 -675 0
678 -677 0
680 -679 0
682 -681 0
684 -683 0
686 -685 0
688 -687 0
690 -689 0
692 -691 0
694 -693 0
696 -695 0
698 -697 0
700 -699 0
604 -506 0
606 -508 0
608 -510 0
610 -512 0
612 -514 0
614 -516 0
616 -518 0
618 -520 0
620 -522 0
622 -524 0
624 -526 0
626 -528 0
628 -530 0
630 -532 0
632 -534 0
634 -536 0
636 -538 0
638 -540 0
640 -542 0
642 -544 0
644 -546 0
646 -548 0
648 -550 0
650 -552 0
652 -554 0
654 -556 0
656 -558 0
658 -560 0
660 -562 0
662 -564 0
664 -566 0
666 -568 0
668 -570 0
670 -572 0
672 -574 0
674 -576 0
676 -578 0
678 -580 0
680 -582 0
682 -584 0
684 -586 0
686 -588 0
688 -590 0
690 -592 0
692 -594 0
694 -596 0
696 -598 0
698 -600 0
700 -602 0
29 -211 -64 -29 -701 0
29 -213 -66 -31 -702 0
29 -215 -68 -33 -703 0
29 -217 -70 -35 -704 0
29 -219 -72 -37 -705 0
29 -221 -74 -39 -706 0
29 -223 -76 -41 -707 0
31 -225 -78 -29 -708 0
31 -227 -80 -31 -709 0
31 -229 -82 -33 -710 0
31 -231 -84 -35 -711 0
31 -233 -86 -37 -712 0
31 -235 -88 -39 -713 0
31 -237 -90 -41 -714 0
33 -239 -92 -29 -715 0
33 -241 -94 -31 -716 0
33 -243 -96 -33 -717 0
33 -245 -98 -35 -718 0
33 -247 -100 -37 -719 0
33 -249 -102 -39 -720 0
33 -251 -104 -41 -721 0
35 -253 -106 -29 -722 0
35 -255 -108 -31 -723 0
35 -257 -110 -33 -724 0
35 -259 -112 -35 -725 0
35 -261 -114 -37 -726 0
35 -263 -116 -39 -727 0
35 -265 -118 -41 -728 0
37 -267 -120 -29 -729 0
37 -269 -122 -31 -730 0
37 -271 -124 -33 -731 0
37 -273 -126 -35 -732 0
37 -275 -128 -37 -733 0
37 -277 -130 -39 -734 0
37 -279 -132 -41 -735 0
39 -281 -134 -29 -736 0
39 -283 -136 -31 -737 0
39 -285 -138 -33 -738 0
39 -287 -140 -35 -739 0
39 -289 -142 -37 -740 0
39 -291 -144 -39 -741 0
39 -293 -146 -41 -742 0
41 -295 -148 -29 -743 0
41 -297 -150 -31 -744 0
41 -299 -152 -33 -745 0
41 -301 -154 -35 -746 0
41 -303 -156 -37 -747 0
41 -305 -158 -39 -748 0
41 -307 -160 -41 -749 0
701 -29 0
702 -29 0
703 -29 0
704 -29 0
705 -29 0
706 -29 0
707 -29 0
708 -31 0
709 -31 0
710 -31 0
711 -31 0
712 -31 0
713 -31 0
714 -31 0
715 -33 0
716 -33 0
717 -33 0
718 -33 0
719 -33 0
720 -33 0
721 -33 0
722 -35 0
723 -35 0
724 -35 0
725 -35 0
726 -35 0
727 -35 0
728 -35 0
729 -37 0
730 -37 0
731 -37 0
732 -37 0
733 -37 0
734 -37 0
735 -37 0
736 -39 0
737 -39 0
738 -39 0
739 -39 0
740 -39 0
741 -39 0
742 -39 0
743 -41 0
744 -41 0
745 -41 0
746 -41 0
747 -41 0
748 -41 0
749 -41 0
701 211 0
702 213 0
703 215 0
704 217 0
705 219 0
706 221 0
707 223 0
708 225 0
709 227 0
710 229 0
711 231 0
712 233 0
713 235 0
714 237 0
715 239 0
716 241 0
717 243 0
718 245 0
719 247 0
720 249 0
721 251 0
722 253 0
723 255 0
724 257 0
725 259 0
726 261 0
727 263 0
728 265 0
729 267 0
730 269 0
731 271 0
732 273 0
733 275 0
734 277 0
735 279 0
736 281 0
737 283 0
738 285 0
739 287 0
740 289 0
741 291 0
742 293 0
743 295 0
744 297 0
745 299 0
746 301 0
747 303 0
748 305 0
749 307 0
701 64 0
702 66 0
703 68 0
704 70 0
705 72 0
706 74 0
707 76 0
708 78 0
709 80 0
710 82 0
711 84 0
712 86 0
713 88 0
714 90 0
715 92 0
716 94 0
717 96 0
718 98 0
719 100 0
720 102 0
721 104 0
722 106 0
723 108 0
724 110 0
725 112 0
726 114 0
727 116 0
728 118 0
729 120 0
730 122 0
731 124 0
732 126 0
733 128 0
734 130 0
735 132 0
736 134 0
737 136 0
738 138 0
739 140 0
740 142 0
741 144 0
742 146 0
743 148 0
744 150 0
745 152 0
746 154 0
747 156 0
748 158 0
749 160 0
701 29 0
702 31 0
703 33 0
704 35 0
705 37 0
706 39 0
707 41 0
708 29 0
709 31 0
710 33 0
711 35 0
712 37 0
713 39 0
714 41 0
715 29 0
716 31 0
717 33 0
718 35 0
719 37 0
720 39 0
721 41 0
722 29 0
723 31 0
724 33 0
725 35 0
726 37 0
727 39 0
728 41 0
729 29 0
730 31 0
731 33 0
732 35 0
733 37 0
734 39 0
735 41 0
736 29 0
737 31 0
738 33 0
739 35 0
740 37 0
741 39 0
742 41 0
743 29 0
744 31 0
745 33 0
746 35 0
747 37 0
748 39 0
749 41 0
29 -407 -309 -29 -750 0
29 -409 -311 -31 -751 0
29 -411 -313 -33 -752 0
29 -413 -315 -35 -753 0
29 -415 -317 -37 -754 0
29 -417 -319 -39 -755 0
29 -419 -321 -41 -756 0
31 -421 -323 -29 -757 0
31 -423 -325 -31 -758 0
31 -425 -327 -33 -759 0
31 -427 -329 -35 -760 0
31 -429 -331 -37 -761 0
31 -431 -333 -39 -762 0
31 -433 -335 -41 -763 0
33 -435 -337 -29 -764 0
33 -437 -339 -31 -765 0
33 -439 -341 -33 -766 0
33 -441 -343 -35 -767 0
33 -443 -345 -37 -768 0
33 -445 -347 -39 -769 0
33 -447 -349 -41 -770 0
35 -449 -351 -29 -771 0
35 -451 -353 -31 -772 0
35 -453 -355 -33 -773 0
35 -455 -357 -35 -774 0
35 -457 -359 -37 -775 0
35 -459 -361 -39 -776 0
35 -461 -363 -41 -777 0
37 -463 -365 -29 -778 0
37 -465 -367 -31 -779 0
37 -467 -369 -33 -780 0
37 -469 -371 -35 -781 0
37 -471 -373 -37 -782 0
37 -473 -375 -39 -783 0
37 -475 -377 -41 -784 0
39 -477 -379 -29 -785 0
39 -479 -381 -31 -786 0
39 -481 -383 -33 -787 0
39 -483 -385 -35 -788 0
39 -485 -387 -37 -789 0
39 -487 -389 -39 -790 0
39 -489 -391 -41 -791 0
41 -491 -393 -29 -792 0
41 -493 -395 -31 -793 0
41 -495 -397 -33 -794 0
41 -497 -399 -35 -795 0
41 -499 -401 -37 -796 0
41 -501 -403 -39 -797 0
41 -503 -405 -41 -798 0
750 -29 0
751 -29 0
752 -29 0
753 -29 0
754 -29 0
755 -29 0
756 -29 0
757 -31 0
758 -31 0
759 -31 0
760 -31 0
761 -31 0
762 -31 0
763 -31 0
764 -33 0
765 -33 0
766 -33 0
767 -33 0
768 -33 0
769 -33 0
770 -33 0
771 -35 0
772 -35 0
773 -35 0
774 -35 0
775 -35 0
776 -35 0
777 -35 0
778 -37 0
779 -37 0
780 -37 0
781 -37 0
782 -37 0
783 -37 0
784 -37 0
785 -39 0
786 -39 0
787 -39 0
788 -39 0
789 -39 0
790 -39 0
791 -39 0
792 -41 0
793 -41 0
794 -41 0
795 -41 0
796 -41 0
797 -41 0
798 -41 0
750 407 0
751 409 0
752 411 0
753 413 0
754 415 0
755 417 0
756 419 0
757 421 0
758 423 0
759 425 0
760 427 0
761 429 0
762 431 0
763 433 0
764 435 0
765 437 0
766 439 0
767 441 0
768 443 0
769 445 0
770 447 0
771 449 0
772 451 0
773 453 0
774 455 0
775 457 0
776 459 0
777 461 0
778 463 0
779 465 0
780 467 0
781 469 0
782 471 0
783 473 0
784 475 0
785 477 0
786 479 0
787 481 0
788 483 0
789 485 0
790 487 0
791 489 0
792 491 0
793 493 0
794 495 0
795 497 0
796 499 0
797 501 0
798 503 0
750 309 0
751 311 0
752 313 0
753 315 0
754 317 0
755 319 0
756 321 0
757 323 0
758 325 0
759 327 0
760 329 0
761 331 0
762 333 0
763 335 0
764 337 0
765 339 0
766 341 0
767 343 0
768 345 0
769 347 0
770 349 0
771 351 0
772 353 0
773 355 0
774 357 0
775 359 0
776 361 0
777 363 0
778 365 0
779 367 0
780 369 0
781 371 0
782 373 0
783 375 0
784 377 0
785 379 0
786 381 0
787 383 0
788 385 0
789 387 0
790 389 0
791 391 0
792 393 0
793 395 0
794 397 0
795 399 0
796 401 0
797 403 0
798 405 0
750 29 0
751 31 0
752 33 0
753 35 0
754 37 0
755 39 0
756 41 0
757 29 0
758 31 0
759 33 0
760 35 0
761 37 0
762 39 0
763 41 0
764 29 0
765 31 0
766 33 0
767 35 0
768 37 0
769 39 0
770 41 0
771 29 0
772 31 0
773 33 0
774 35 0
775 37 0
776 39 0
777 41 0
778 29 0
779 31 0
780 33 0
781 35 0
782 37 0
783 39 0
784 41 0
785 29 0
786 31 0
787 33 0
788 35 0
789 37 0
790 39 0
791 41 0
792 29 0
793 31 0
794 33 0
795 35 0
796 37 0
797 39 0
798 41 0
29 -603 -505 -29 -799 0
29 -605 -507 -31 -800 0
29 -607 -509 -33 -801 0
29 -609 -511 -35 -802 0
29 -611 -513 -37 -803 0
29 -613 -515 -39 -804 0
29 -615 -517 -41 -805 0
31 -617 -519 -29 -806 0
31 -619 -521 -31 -807 0
31 -621 -523 -33 -808 0
31 -623 -525 -35 -809 0
31 -625 -527 -37 -810 0
31 -627 -529 -39 -811 0
31 -629 -531 -41 -812 0
33 -631 -533 -29 -813 0
33 -633 -535 -31 -814 0
33 -635 -537 -33 -815 0
33 -637 -539 -35 -816 0
33 -639 -541 -37 -817 0
33 -641 -543 -39 -818 0
33 -643 -545 -41 -819 0
35 -645 -547 -29 -820 0
35 -647 -549 -31 -821 0
35 -649 -551 -33 -822 0
35 -651 -553 -35 -823 0
35 -653 -555 -37 -824 0
35 -655 -557 -39 -825 0
35 -657 -559 -41 -826 0
37 -659 -561 -29 -827 0
37 -661 -563 -31 -828 0
37 -663 -565 -33 -829 0
37 -665 -567 -35 -830 0
37 -667 -569 -37 -831 0
37 -669 -571 -39 -832 0
37 -671 -573 -41 -833 0
39 -673 -575 -29 -834 0
39 -675 -577 -31 -835 0
39 -677 -579 -33 -836 0
39 -679 -581 -35 -837 0
39 -681 -583 -37 -838 0
39 -683 -585 -39 -839 0
39 -685 -587 -41 -840 0
41 -687 -589 -29 -841 0
41 -689 -591 -31 -842 0
41 -691 -593 -33 -843 0
41 -693 -595 -35 -844 0
41 -695 -597 -37 -845 0
41 -697 -599 -39 -846 0
41 -699 -601 -41 -847 0
799 -29 0
800 -29 0
801 -29 0
802 -29 0
803 -29 0
804 -29 0
805 -29 0
806 -31 0
807 -31 0
808 -31 0
809 -31 0
810 -31 0
811 -31 0
812 -31 0
813 -33 0
814 -33 0
815 -33 0
816 -33 0
817 -33 0
818 -33 0
819 -33 0
820 -35 0
821 -35 0
822 -35 0
823 -35 0
824 -35 0
825 -35 0
826 -35 0
827 -37 0
828 -37 0
829 -37 0
830 -37 0
831 -37 0
832 -37 0
833 -37 0
834 -39 0
835 -39 0
836 -39 0
837 -39 0
838 -39 0
839 -39 0
840 -39 0
841 -41 0
842 -41 0
843 -41 0
844 -41 0
845 -41 0
846 -41 0
847 -41 0
799 603 0
800 605 0
801 607 0
802 609 0
803 611 0
804 613 0
805 615 0
806 617 0
807 619 0
808 621 0
809 623 0
810 625 0
811 627 0
812 629 0
813 631 0
814 633 0
815 635 0
816 637 0
817 639 0
818 641 0
819 643 0
820 645 0
821 647 0
822 649 0
823 651 0
824 653 0
825 655 0
826 657 0
827 659 0
828 661 0
829 663 0
830 665 0
831 667 0
832 669 0
833 671 0
834 673 0
835 675 0
836 677 0
837 679 0
838 681 0
839 683 0
840 685 0
841 687 0
842 689 0
843 691 0
844 693 0
845 695 0
846 697 0
847 699 0
799 505 0
800 507 0
801 509 0
802 511 0
803 513 0
804 515 0
805 517 0
806 519 0
807 521 0
808 523 0
809 525 0
810 527 0
811 529 0
812 531 0
813 533 0
814 535 0
815 537 0
816 539 0
817 541 0
818 543 0
819 545 0
820 547 0
821 549 0
822 551 0
823 553 0
824 555 0
825 557 0
826 559 0
827 561 0
828 563 0
829 565 0
830 567 0
831 569 0
832 571 0
833 573 0
834 575 0
835 577 0
836 579 0
837 581 0
838 583 0
839 585 0
840 587 0
841 589 0
842 591 0
843 593 0
844 595 0
845 597 0
846 599 0
847 601 0
799 29 0
800 31 0
801 33 0
802 35 0
803 37 0
804 39 0
805 41 0
806 29 0
807 31 0
808 33 0
809 35 0
810 37 0
811 39 0
812 41 0
813 29 0
814 31 0
815 33 0
816 35 0
817 37 0
818 39 0
819 41 0
820 29 0
821 31 0
822 33 0
823 35 0
824 37 0
825 39 0
826 41 0
827 29 0
828 31 0
829 33 0
830 35 0
831 37 0
832 39 0
833 41 0
834 29 0
835 31 0
836 33 0
837 35 0
838 37 0
839 39 0
840 41 0
841 29 0
842 31 0
843 33 0
844 35 0
845 37 0
846 39 0
847 41 0
-3 -22 -44 -57 -65 -212 -408 -604 -701 -750 -799 848 0
-6 -23 -46 -58 -67 -214 -410 -606 -702 -751 -800 849 0
-9 -24 -48 -59 -69 -216 -412 -608 -703 -752 -801 850 0
-12 -25 -50 -60 -71 -218 -414 -610 -704 -753 -802 851 0
-15 -26 -52 -61 -73 -220 -416 -612 -705 -754 -803 852 0
-18 -27 -54 -62 -75 -222 -418 -614 -706 -755 -804 853 0
-21 -28 -56 -63 -77 -224 -420 -616 -707 -756 -805 854 0
-3 -22 -44 -57 -79 -226 -422 -618 -708 -757 -806 855 0
-6 -23 -46 -58 -81 -228 -424 -620 -709 -758 -807 856 0
-9 -24 -48 -59 -83 -230 -426 -622 -710 -759 -808 857 0
-12 -25 -50 -60 -85 -232 -428 -624 -711 -760 -809 858 0
-15 -26 -52 -61 -87 -234 -430 -626 -712 -761 -810 859 0
-18 -27 -54 -62 -89 -236 -432 -628 -713 -762 -811 860 0
-21 -28 -56 -63 -91 -238 -434 -630 -714 -763 -812 861 0
-3 -22 -44 -57 -93 -240 -436 -632 -715 -764 -813 862 0
-6 -23 -46 -58 -95 -242 -438 -634 -716 -765 -814 863 0
-9 -24 -48 -59 -97 -244 -440 -636 -717 -766 -815 864 0
-12 -25 -50 -60 -99 -246 -442 -638 -718 -767 -816 865 0
-15 -26 -52 -61 -101 -248 -444 -640 -719 -768 -817 866 0
-18 -27 -54 -62 -103 -250 -446 -642 -720 -769 -818 867 0
-21 -28 -56 -63 -105 -252 -448 -644 -721 -770 -819 868 0
-3 -22 -44 -57 -107 -254 -450 -646 -722 -771 -820 869 0
-6 -23 -46 -58 -109 -256 -452 -648 -723 -772 -821 870 0
-9 -24 -48 -59 -111 -258 -454 -650 -724 -773 -822 871 0
-12 -25 -50 -60 -113 -260 -456 -652 -725 -774 -823 872 0
-15 -26 -52 -61 -115 -262 -458 -654 -726 -775 -824 873 0
-18 -27 -54 -62 -117 -264 -460 -656 -727 -776 -825 874 0
-21 -28 -56 -63 -119 -266 -462 -658 -728 -777 -826 875 0
-3 -22 -44 -57 -121 -268 -464 -660 -729 -778 -827 876 0
-6 -23 -46 -58 -123 -270 -466 -662 -730 -779 -828 877 0
-9 -24 -48 -59 -125 -272 -468 -664 -731 -780 -829 878 0
-12 -25 -50 -60 -127 -274 -470 -666 -732 -781 -830 879 0
-15 -26 -52 -61 -129 -276 -472 -668 -733 -782 -831 880 0
-18 -27 -54 -62 -131 -278 -474 -670 -734 -783 -832 881 0
-21 -28 -56 -63 -133 -280 -476 -672 -735 -784 -833 882 0
-3 -22 -44 -57 -135 -282 -478 -674 -736 -785 -834 883 0
-6 -23 -46 -58 -137 -284 -480 -676 -737 -786 -835 884 0
-9 -24 -48 -59 -139 -286 -482 -678 -738 -787 -836 885 0
-12 -25 -50 -60 -141 -288 -484 -680 -739 -788 -837 886 0
-15 -26 -52 -61 -143 -290 -486 -682 -740 -789 -838 887 0
-18 -27 -54 -62 -145 -292 -488 -684 -741 -790 -839 888 0
-21 -28 -56 -63 -147 -294 -490 -686 -742 -791 -840 889 0
-3 -22 -44 -57 -149 -296 -492 -688 -743 -792 -841 890 0
-6 -23 -46 -58 -151 -298 -494 -690 -744 -793 -842 891 0
-9 -24 -48 -59 -153 -300 -496 -692 -745 -794 -843 892 0
-12 -25 -50 -60 -155 -302 -498 -694 -746 -795 -844 893 0
-15 -26 -52 -61 -157 -304 -500 -696 -747 -796 -845 894 0
-18 -27 -54 -62 -159 -306 -502 -698 -748 -797 -846 895 0
-21 -28 -56 -63 -161 -308 -504 -700 -749 -798 -847 896 0
-848 3 0
-849 6 0
-850 9 0
-851 12 0
-852 15 0
-853 18 0
-854 21 0
-855 3 0
-856 6 0
-857 9 0
-858 12 0
-859 15 0
-860 18 0
-861 21 0
-862 3 0
-863 6 0
-864 9 0
-865 12 0
-866 15 0
-867 18 0
-868 21 0
-869 3 0
-870 6 0
-871 9 0
-872 12 0
-873 15 0
-874 18 0
-875 21 0
-876 3 0
-877 6 0
-878 9 0
-879 12 0
-880 15 0
-881 18 0
-882 21 0
-883 3 0
-884 6 0
-885 9 0
-886 12 0
-887 15 0
-888 18 0
-889 21 0
-890 3 0
-891 6 0
-892 9 0
-893 12 0
-894 15 0
-895 18 0
-896 21 0
-848 22 0
-849 23 0
-850 24 0
-851 25 0
-852 26 0
-853 27 0
-854 28 0
-855 22 0
-856 23 0
-857 24 0
-858 25 0
-859 26 0
-860 27 0
-861 28 0
-862 22 0
-863 23 0
-864 24 0
-865 25 0
-866 26 0
-867 27 0
-868 28 0
-869 22 0
-870 23 0
-871 24 0
-872 25 0
-873 26 0
-874 27 0
-875 28 0
-876 22 0
-877 23 0
-878 24 0
-879 25 0
-880 26 0
-881 27 0
-882 28 0
-883 22 0
-884 23 0
-885 24 0
-886 25 0
-887 26 0
-888 27 0
-889 28 0
-890 22 0
-891 23 0
-892 24 0
-893 25 0
-894 26 0
-895 27 0
-896 28 0
-848 44 0
-849 46 0
-850 48 0
-851 50 0
-852 52 0
-853 54 0
-854 56 0
-855 44 0
-856 46 0
-857 48 0
-858 50 0
-859 52 0
-860 54 0
-861 56 0
-862 44 0
-863 46 0
-864 48 0
-865 50 0
-866 52 0
-867 54 0
-868 56 0
-869 44 0
-870 46 0
-871 48 0
-872 50 0
-873 52 0
-874 54 0
-875 56 0
-876 44 0
-877 46 0
-878 48 0
-879 50 0
-880 52 0
-881 54 0
-882 56 0
-883 44 0
-884 46 0
-885 48 0
-886 50 0
-887 52 0
-888 54 0
-889 56 0
-890 44 0
-891 46 0
-892 48 0
-893 50 0
-894 52 0
-895 54 0
-896 56 0
-848 57 0
-849 58 0
-850 59 0
-851 60 0
-852 61 0
-853 62 0
-854 63 0
-855 57 0
-856 58 0
-857 59 0
-858 60 0
-859 61 0
-860 62 0
-861 63 0
-862 57 0
-863 58 0
-864 59 0
-865 60 0
-866 61 0
-867 62 0
-868 63 0
-869 57 0
-870 58 0
-871 59 0
-872 60 0
-873 61 0
-874 62 0
-875 63 0
-876 57 0
-877 58 0
-878 59 0
-879 60 0
-880 61 0
-881 62 0
-882 63 0
-883 57 0
-884 58 0
-885 59 0
-886 60 0
-887 61 0
-888 62 0
-889 63 0
-890 57 0
-891 58 0
-892 59 0
-893 60 0
-894 61 0
-895 62 0
-896 63 0
-848 65 0
-849 67 0
-850 69 0
-851 71 0
-852 73 0
-853 75 0
-854 77 0
-855 79 0
-856 81 0
-857 83 0
-858 85 0
-859 87 0
-860 89 0
-861 91 0
-862 93 0
-863 95 0
-864 97 0
-865 99 0
-866 101 0
-867 103 0
-868 105 0
-869 107 0
-870 109 0
-871 111 0
-872 113 0
-873 115 0
-874 117 0
-875 119 0
-876 121 0
-877 123 0
-878 125 0
-879 127 0
-880 129 0
-881 131 0
-882 133 0
-883 135 0
-884 137 0
-885 139 0
-886 141 0
-887 143 0
-888 145 0
-889 147 0
-890 149 0
-891 151 0
-892 153 0
-893 155 0
-894 157 0
-895 159 0
-896 161 0
-848 212 0
-849 214 0
-850 216 0
-851 218 0
-852 220 0
-853 222 0
-854 224 0
-855 226 0
-856 228 0
-857 230 0
-858 232 0
-859 234 0
-860 236 0
-861 238 0
-862 240 0
-863 242 0
-864 244 0
-865 246 0
-866 248 0
-867 250 0
-868 252 0
-869 254 0
-870 256 0
-871 258 0
-872 260 0
-873 262 0
-874 264 0
-875 266 0
-876 268 0
-877 270 0
-878 272 0
-879 274 0
-880 276 0
-881 278 0
-882 280 0
-883 282 0
-884 284 0
-885 286 0
-886 288 0
-887 290 0
-888 292 0
-889 294 0
-890 296 0
-891 298 0
-892 300 0
-893 302 0
-894 304 0
-895 306 0
-896 308 0
-848 408 0
-849 410 0
-850 412 0
-851 414 0
-852 416 0
-853 418 0
-854 420 0
-855 422 0
-856 424 0
-857 426 0
-858 428 0
-859 430 0
-860 432 0
-861 434 0
-862 436 0
-863 438 0
-864 440 0
-865 442 0
-866 444 0
-867 446 0
-868 448 0
-869 450 0
-870 452 0
-871 454 0
-872 456 0
-873 458 0
-874 460 0
-875 462 0
-876 464 0
-877 466 0
-878 468 0
-879 470 0
-880 472 0
-881 474 0
-882 476 0
-883 478 0
-884 480 0
-885 482 0
-886 484 0
-887 486 0
-888 488 0
-889 490 0
-890 492 0
-891 494 0
-892 496 0
-893 498 0
-894 500 0
-895 502 0
-896 504 0
-848 604 0
-849 606 0
-850 608 0
-851 610 0
-852 612 0
-853 614 0
-854 616 0
-855 618 0
-856 620 0
-857 622 0
-858 624 0
-859 626 0
-860 628 0
-861 630 0
-862 632 0
-863 634 0
-864 636 0
-865 638 0
-866 640 0
-867 642 0
-868 644 0
-869 646 0
-870 648 0
-871 650 0
-872 652 0
-873 654 0
-874 656 0
-875 658 0
-876 660 0
-877 662 0
-878 664 0
-879 666 0
-880 668 0
-881 670 0
-882 672 0
-883 674 0
-884 676 0
-885 678 0
-886 680 0
-887 682 0
-888 684 0
-889 686 0
-890 688 0
-891 690 0
-892 692 0
-893 694 0
-894 696 0
-895 698 0
-896 700 0
-848 701 0
-849 702 0
-850 703 0
-851 704 0
-852 705 0
-853 706 0
-854 707 0
-855 708 0
-856 709 0
-857 710 0
-858 711 0
-859 712 0
-860 713 0
-861 714 0
-862 715 0
-863 716 0
-864 717 0
-865 718 0
-866 719 0
-867 720 0
-868 721 0
-869 722 0
-870 723 0
-871 724 0
-872 725 0
-873 726 0
-874 727 0
-875 728 0
-876 729 0
-877 730 0
-878 731 0
-879 732 0
-880 733 0
-881 734 0
-882 735 0
-883 736 0
-884 737 0
-885 738 0
-886 739 0
-887 740 0
-888 741 0
-889 742 0
-890 743 0
-891 744 0
-892 745 0
-893 746 0
-894 747 0
-895 748 0
-896 749 0
-848 750 0
-849 751 0
-850 752 0
-851 753 0
-852 754 0
-853 755 0
-854 756 0
-855 757 0
-856 758 0
-857 759 0
-858 760 0
-859 761 0
-860 762 0
-861 763 0
-862 764 0
-863 765 0
-864 766 0
-865 767 0
-866 768 0
-867 769 0
-868 770 0
-869 771 0
-870 772 0
-871 773 0
-872 774 0
-873 775 0
-874 776 0
-875 777 0
-876 778 0
-877 779 0
-878 780 0
-879 781 0
-880 782 0
-881 783 0
-882 784 0
-883 785 0
-884 786 0
-885 787 0
-886 788 0
-887 789 0
-888 790 0
-889 791 0
-890 792 0
-891 793 0
-892 794 0
-893 795 0
-894 796 0
-895 797 0
-896 798 0
-848 799 0
-849 800 0
-850 801 0
-851 802 0
-852 803 0
-853 804 0
-854 805 0
-855 806 0
-856 807 0
-857 808 0
-858 809 0
-859 810 0
-860 811 0
-861 812 0
-862 813 0
-863 814 0
-864 815 0
-865 816 0
-866 817 0
-867 818 0
-868 819 0
-869 820 0
-870 821 0
-871 822 0
-872 823 0
-873 824 0
-874 825 0
-875 826 0
-876 827 0
-877 828 0
-878 829 0
-879 830 0
-880 831 0
-881 832 0
-882 833 0
-883 834 0
-884 835 0
-885 836 0
-886 837 0
-887 838 0
-888 839 0
-889 840 0
-890 841 0
-891 842 0
-892 843 0
-893 844 0
-894 845 0
-895 846 0
-896 847 0
848 0
849 0
850 0
851 0
852 0
853 0
854 0
855 0
856 0
857 0
858 0
859 0
860 0
861 0
862 0
863 0
864 0
865 0
866 0
867 0
868 0
869 0
870 0
871 0
872 0
873 0
874 0
875 0
876 0
877 0
878 0
879 0
880 0
881 0
882 0
883 0
884 0
885 0
886 0
887 0
888 0
889 0
890 0
891 0
892 0
893 0
894 0
895 0
896 0
897 0
898 899 0
-898 -899 0
-898 -900 901 0
-898 -902 903 0
-898 -904 905 0
-898 -906 907 0
-898 -908 909 0
901 910 0
-901 -910 0
-901 -911 898 0
-901 -912 903 0
-901 -913 905 0
-901 -914 907 0
-901 -915 909 0
903 916 0
-903 -916 0
-903 -917 898 0
-903 -918 901 0
-903 -919 905 0
-903 -920 907 0
-903 -921 909 0
905 922 0
-905 -922 0
-905 -923 898 0
-905 -924 901 0
-905 -925 903 0
-905 -926 907 0
-905 -927 909 0
907 928 0
-907 -928 0
-907 -929 898 0
-907 -930 901 0
-907 -931 903 0
-907 -932 905 0
-907 -933 909 0
909 934 0
-909 -934 0
-909 -935 898 0
-909 -936 901 0
-909 -937 903 0
-909 -938 905 0
-909 -939 907 0
940 0
899 898 0
-899 -898 0
-899 -901 900 0
-899 -903 902 0
-899 -905 904 0
-899 -907 906 0
-899 -909 908 0
900 911 0
-900 -911 0
-900 -910 899 0
-900 -912 902 0
-900 -913 904 0
-900 -914 906 0
-900 -915 908 0
902 917 0
-902 -917 0
-902 -916 899 0
-902 -918 900 0
-902 -919 904 0
-902 -920 906 0
-902 -921 908 0
904 923 0
-904 -923 0
-904 -922 899 0
-904 -924 900 0
-904 -925 902 0
-904 -926 906 0
-904 -927 908 0
906 929 0
-906 -929 0
-906 -928 899 0
-906 -930 900 0
-906 -931 902 0
-906 -932 904 0
-906 -933 908 0
908 935 0
-908 -935 0
-908 -934 899 0
-908 -936 900 0
-908 -937 902 0
-908 -938 904 0
-908 -939 906 0
941 0
910 901 0
-910 -901 0
-910 -898 911 0
-910 -903 912 0
-910 -905 913 0
-910 -907 914 0
-910 -909 915 0
911 900 0
-911 -900 0
-911 -899 910 0
-911 -902 912 0
-911 -904 913 0
-911 -906 914 0
-911 -908 915 0
912 918 0
-912 -918 0
-912 -916 910 0
-912 -917 911 0
-912 -919 913 0
-912 -920 914 0
-912 -921 915 0
913 924 0
-913 -924 0
-913 -922 910 0
-913 -923 911 0
-913 -925 912 0
-913 -926 914 0
-913 -927 915 0
914 930 0
-914 -930 0
-914 -928 910 0
-914 -929 911 0
-914 -931 912 0
-914 -932 913 0
-914 -933 915 0
915 936 0
-915 -936 0
-915 -934 910 0
-915 -935 911 0
-915 -937 912 0
-915 -938 913 0
-915 -939 914 0
942 0
916 903 0
-916 -903 0
-916 -898 917 0
-916 -901 918 0
-916 -905 919 0
-916 -907 920 0
-916 -909 921 0
917 902 0
-917 -902 0
-917 -899 916 0
-917 -900 918 0
-917 -904 919 0
-917 -906 920 0
-917 -908 921 0
918 912 0
-918 -912 0
-918 -910 916 0
-918 -911 917 0
-918 -913 919 0
-918 -914 920 0
-918 -915 921 0
919 925 0
-919 -925 0
-919 -922 916 0
-919 -923 917 0
-919 -924 918 0
-919 -926 920 0
-919 -927 921 0
920 931 0
-920 -931 0
-920 -928 916 0
-920 -929 917 0
-920 -930 918 0
-920 -932 919 0
-920 -933 921 0
921 937 0
-921 -937 0
-921 -934 916 0
-921 -935 917 0
-921 -936 918 0
-921 -938 919 0
-921 -939 920 0
943 0
922 905 0
-922 -905 0
-922 -898 923 0
-922 -901 924 0
-922 -903 925 0
-922 -907 926 0
-922 -909 927 0
923 904 0
-923 -904 0
-923 -899 922 0
-923 -900 924 0
-923 -902 925 0
-923 -906 926 0
-923 -908 927 0
924 913 0
-924 -913 0
-924 -910 922 0
-924 -911 923 0
-924 -912 925 0
-924 -914 926 0
-924 -915 927 0
925 919 0
-925 -919 0
-925 -916 922 0
-925 -917 923 0
-925 -918 924 0
-925 -920 926 0
-925 -921 927 0
926 932 0
-926 -932 0
-926 -928 922 0
-926 -929 923 0
-926 -930 924 0
-926 -931 925 0
-926 -933 927 0
927 938 0
-927 -938 0
-927 -934 922 0
-927 -935 923 0
-927 -936 924 0
-927 -937 925 0
-927 -939 926 0
944 0
928 907 0
-928 -907 0
-928 -898 929 0
-928 -901 930 0
-928 -903 931 0
-928 -905 932 0
-928 -909 933 0
929 906 0
-929 -906 0
-929 -899 928 0
-929 -900 930 0
-929 -902 931 0
-929 -904 932 0
-929 -908 933 0
930 914 0
-930 -914 0
-930 -910 928 0
-930 -911 929 0
-930 -912 931 0
-930 -913 932 0
-930 -915 933 0
931 920 0
-931 -920 0
-931 -916 928 0
-931 -917 929 0
-931 -918 930 0
-931 -919 932 0
-931 -921 933 0
932 926 0
-932 -926 0
-932 -922 928 0
-932 -923 929 0
-932 -924 930 0
-932 -925 931 0
-932 -927 933 0
933 939 0
-933 -939 0
-933 -934 928 0
-933 -935 929 0
-933 -936 930 0
-933 -937 931 0
-933 -938 932 0
945 0
934 909 0
-934 -909 0
-934 -898 935 0
-934 -901 936 0
-934 -903 937 0
-934 -905 938 0
-934 -907 939 0
935 908 0
-935 -908 0
-935 -899 934 0
-935 -900 936 0
-935 -902 937 0
-935 -904 938 0
-935 -906 939 0
936 915 0
-936 -915 0
-936 -910 934 0
-936 -911 935 0
-936 -912 937 0
-936 -913 938 0
-936 -914 939 0
937 921 0
-937 -921 0
-937 -916 934 0
-937 -917 935 0
-937 -918 936 0
-937 -919 938 0
-937 -920 939 0
938 927 0
-938 -927 0
-938 -922 934 0
-938 -923 935 0
-938 -924 936 0
-938 -925 937 0
-938 -926 939 0
939 933 0
-939 -933 0
-939 -928 934 0
-939 -929 935 0
-939 -930 936 0
-939 -931 937 0
-939 -932 938 0
-64 0
-78 898 0
-946 901 0
-946 911 0
-901 -911 946 0
-947 903 0
-947 917 0
-903 -917 947 0
-948 905 0
-948 923 0
-905 -923 948 0
-949 907 0
-949 929 0
-907 -929 949 0
-950 909 0
-950 935 0
-909 -935 950 0
-78 -946 0
-78 -947 0
-78 -948 0
-78 -949 0
-78 -950 0
-898 78 946 947 948 949 950 0
-92 901 0
-951 898 0
-951 900 0
-898 -900 951 0
-952 903 0
-952 918 0
-903 -918 952 0
-953 905 0
-953 924 0
-905 -924 953 0
-954 907 0
-954 930 0
-907 -930 954 0
-955 909 0
-955 936 0
-909 -936 955 0
-92 -951 0
-92 -952 0
-92 -953 0
-92 -954 0
-92 -955 0
-901 92 951 952 953 954 955 0
-106 903 0
-956 898 0
-956 902 0
-898 -902 956 0
-957 901 0
-957 912 0
-901 -912 957 0
-958 905 0
-958 925 0
-905 -925 958 0
-959 907 0
-959 931 0
-907 -931 959 0
-960 909 0
-960 937 0
-909 -937 960 0
-106 -956 0
-106 -957 0
-106 -958 0
-106 -959 0
-106 -960 0
-903 106 956 957 958 959 960 0
-120 905 0
-961 898 0
-961 904 0
-898 -904 961 0
-962 901 0
-962 913 0
-901 -913 962 0
-963 903 0
-963 919 0
-903 -919 963 0
-964 907 0
-964 932 0
-907 -932 964 0
-965 909 0
-965 938 0
-909 -938 965 0
-120 -961 0
-120 -962 0
-120 -963 0
-120 -964 0
-120 -965 0
-905 120 961 962 963 964 965 0
-134 907 0
-966 898 0
-966 906 0
-898 -906 966 0
-967 901 0
-967 914 0
-901 -914 967 0
-968 903 0
-968 920 0
-903 -920 968 0
-969 905 0
-969 926 0
-905 -926 969 0
-970 909 0
-970 939 0
-909 -939 970 0
-134 -966 0
-134 -967 0
-134 -968 0
-134 -969 0
-134 -970 0
-907 134 966 967 968 969 970 0
-148 909 0
-971 898 0
-971 908 0
-898 -908 971 0
-972 901 0
-972 915 0
-901 -915 972 0
-973 903 0
-973 921 0
-903 -921 973 0
-974 905 0
-974 927 0
-905 -927 974 0
-975 907 0
-975 933 0
-907 -933 975 0
-148 -971 0
-148 -972 0
-148 -973 0
-148 -974 0
-148 -975 0
-909 148 971 972 973 974 975 0
-66 899 0
-976 900 0
-976 910 0
-900 -910 976 0
-977 902 0
-977 916 0
-902 -916 977 0
-978 904 0
-978 922 0
-904 -922 978 0
-979 906 0
-979 928 0
-906 -928 979 0
-980 908 0
-980 934 0
-908 -934 980 0
-66 -976 0
-66 -977 0
-66 -978 0
-66 -979 0
-66 -980 0
-899 66 976 977 978 979 980 0
-80 0
-94 900 0
-981 899 0
-981 901 0
-899 -901 981 0
-982 902 0
-982 918 0
-902 -918 982 0
-983 904 0
-983 924 0
-904 -924 983 0
-984 906 0
-984 930 0
-906 -930 984 0
-985 908 0
-985 936 0
-908 -936 985 0
-94 -981 0
-94 -982 0
-94 -983 0
-94 -984 0
-94 -985 0
-900 94 981 982 983 984 985 0
-108 902 0
-986 899 0
-986 903 0
-899 -903 986 0
-987 900 0
-987 912 0
-900 -912 987 0
-988 904 0
-988 925 0
-904 -925 988 0
-989 906 0
-989 931 0
-906 -931 989 0
-990 908 0
-990 937 0
-908 -937 990 0
-108 -986 0
-108 -987 0
-108 -988 0
-108 -989 0
-108 -990 0
-902 108 986 987 988 989 990 0
-122 904 0
-991 899 0
-991 905 0
-899 -905 991 0
-992 900 0
-992 913 0
-900 -913 992 0
-993 902 0
-993 919 0
-902 -919 993 0
-994 906 0
-994 932 0
-906 -932 994 0
-995 908 0
-995 938 0
-908 -938 995 0
-122 -991 0
-122 -992 0
-122 -993 0
-122 -994 0
-122 -995 0
-904 122 991 992 993 994 995 0
-136 906 0
-996 899 0
-996 907 0
-899 -907 996 0
-997 900 0
-997 914 0
-900 -914 997 0
-998 902 0
-998 920 0
-902 -920 998 0
-999 904 0
-999 926 0
-904 -926 999 0
-1000 908 0
-1000 939 0
-908 -939 1000 0
-136 -996 0
-136 -997 0
-136 -998 0
-136 -999 0
-136 -1000 0
-906 136 996 997 998 999 1000 0
-150 908 0
-1001 899 0
-1001 909 0
-899 -909 1001 0
-1002 900 0
-1002 915 0
-900 -915 1002 0
-1003 902 0
-1003 921 0
-902 -921 1003 0
-1004 904 0
-1004 927 0
-904 -927 1004 0
-1005 906 0
-1005 933 0
-906 -933 1005 0
-150 -1001 0
-150 -1002 0
-150 -1003 0
-150 -1004 0
-150 -1005 0
-908 150 1001 1002 1003 1004 1005 0
-68 910 0
-1006 911 0
-1006 899 0
-911 -899 1006 0
-1007 912 0
-1007 916 0
-912 -916 1007 0
-1008 913 0
-1008 922 0
-913 -922 1008 0
-1009 914 0
-1009 928 0
-914 -928 1009 0
-1010 915 0
-1010 934 0
-915 -934 1010 0
-68 -1006 0
-68 -1007 0
-68 -1008 0
-68 -1009 0
-68 -1010 0
-910 68 1006 1007 1008 1009 1010 0
-82 911 0
-1011 910 0
-1011 898 0
-910 -898 1011 0
-1012 912 0
-1012 917 0
-912 -917 1012 0
-1013 913 0
-1013 923 0
-913 -923 1013 0
-1014 914 0
-1014 929 0
-914 -929 1014 0
-1015 915 0
-1015 935 0
-915 -935 1015 0
-82 -1011 0
-82 -1012 0
-82 -1013 0
-82 -1014 0
-82 -1015 0
-911 82 1011 1012 1013 1014 1015 0
-96 0
-110 912 0
-1016 910 0
-1016 903 0
-910 -903 1016 0
-1017 911 0
-1017 902 0
-911 -902 1017 0
-1018 913 0
-1018 925 0
-913 -925 1018 0
-1019 914 0
-1019 931 0
-914 -931 1019 0
-1020 915 0
-1020 937 0
-915 -937 1020 0
-110 -1016 0
-110 -1017 0
-110 -1018 0
-110 -1019 0
-110 -1020 0
-912 110 1016 1017 1018 1019 1020 0
-124 913 0
-1021 910 0
-1021 905 0
-910 -905 1021 0
-1022 911 0
-1022 904 0
-911 -904 1022 0
-1023 912 0
-1023 919 0
-912 -919 1023 0
-1024 914 0
-1024 932 0
-914 -932 1024 0
-1025 915 0
-1025 938 0
-915 -938 1025 0
-124 -1021 0
-124 -1022 0
-124 -1023 0
-124 -1024 0
-124 -1025 0
-913 124 1021 1022 1023 1024 1025 0
-138 914 0
-1026 910 0
-1026 907 0
-910 -907 1026 0
-1027 911 0
-1027 906 0
-911 -906 1027 0
-1028 912 0
-1028 920 0
-912 -920 1028 0
-1029 913 0
-1029 926 0
-913 -926 1029 0
-1030 915 0
-1030 939 0
-915 -939 1030 0
-138 -1026 0
-138 -1027 0
-138 -1028 0
-138 -1029 0
-138 -1030 0
-914 138 1026 1027 1028 1029 1030 0
-152 915 0
-1031 910 0
-1031 909 0
-910 -909 1031 0
-1032 911 0
-1032 908 0
-911 -908 1032 0
-1033 912 0
-1033 921 0
-912 -921 1033 0
-1034 913 0
-1034 927 0
-913 -927 1034 0
-1035 914 0
-1035 933 0
-914 -933 1035 0
-152 -1031 0
-152 -1032 0
-152 -1033 0
-152 -1034 0
-152 -1035 0
-915 152 1031 1032 1033 1034 1035 0
-70 916 0
-1036 917 0
-1036 899 0
-917 -899 1036 0
-1037 918 0
-1037 910 0
-918 -910 1037 0
-1038 919 0
-1038 922 0
-919 -922 1038 0
-1039 920 0
-1039 928 0
-920 -928 1039 0
-1040 921 0
-1040 934 0
-921 -934 1040 0
-70 -1036 0
-70 -1037 0
-70 -1038 0
-70 -1039 0
-70 -1040 0
-916 70 1036 1037 1038 1039 1040 0
-84 917 0
-1041 916 0
-1041 898 0
-916 -898 1041 0
-1042 918 0
-1042 911 0
-918 -911 1042 0
-1043 919 0
-1043 923 0
-919 -923 1043 0
-1044 920 0
-1044 929 0
-920 -929 1044 0
-1045 921 0
-1045 935 0
-921 -935 1045 0
-84 -1041 0
-84 -1042 0
-84 -1043 0
-84 -1044 0
-84 -1045 0
-917 84 1041 1042 1043 1044 1045 0
-98 918 0
-1046 916 0
-1046 901 0
-916 -901 1046 0
-1047 917 0
-1047 900 0
-917 -900 1047 0
-1048 919 0
-1048 924 0
-919 -924 1048 0
-1049 920 0
-1049 930 0
-920 -930 1049 0
-1050 921 0
-1050 936 0
-921 -936 1050 0
-98 -1046 0
-98 -1047 0
-98 -1048 0
-98 -1049 0
-98 -1050 0
-918 98 1046 1047 1048 1049 1050 0
-112 0
-126 919 0
-1051 916 0
-1051 905 0
-916 -905 1051 0
-1052 917 0
-1052 904 0
-917 -904 1052 0
-1053 918 0
-1053 913 0
-918 -913 1053 0
-1054 920 0
-1054 932 0
-920 -932 1054 0
-1055 921 0
-1055 938 0
-921 -938 1055 0
-126 -1051 0
-126 -1052 0
-126 -1053 0
-126 -1054 0
-126 -1055 0
-919 126 1051 1052 1053 1054 1055 0
-140 920 0
-1056 916 0
-1056 907 0
-916 -907 1056 0
-1057 917 0
-1057 906 0
-917 -906 1057 0
-1058 918 0
-1058 914 0
-918 -914 1058 0
-1059 919 0
-1059 926 0
-919 -926 1059 0
-1060 921 0
-1060 939 0
-921 -939 1060 0
-140 -1056 0
-140 -1057 0
-140 -1058 0
-140 -1059 0
-140 -1060 0
-920 140 1056 1057 1058 1059 1060 0
-154 921 0
-1061 916 0
-1061 909 0
-916 -909 1061 0
-1062 917 0
-1062 908 0
-917 -908 1062 0
-1063 918 0
-1063 915 0
-918 -915 1063 0
-1064 919 0
-1064 927 0
-919 -927 1064 0
-1065 920 0
-1065 933 0
-920 -933 1065 0
-154 -1061 0
-154 -1062 0
-154 -1063 0
-154 -1064 0
-154 -1065 0
-921 154 1061 1062 1063 1064 1065 0
-72 922 0
-1066 923 0
-1066 899 0
-923 -899 1066 0
-1067 924 0
-1067 910 0
-924 -910 1067 0
-1068 925 0
-1068 916 0
-925 -916 1068 0
-1069 926 0
-1069 928 0
-926 -928 1069 0
-1070 927 0
-1070 934 0
-927 -934 1070 0
-72 -1066 0
-72 -1067 0
-72 -1068 0
-72 -1069 0
-72 -1070 0
-922 72 1066 1067 1068 1069 1070 0
-86 923 0
-1071 922 0
-1071 898 0
-922 -898 1071 0
-1072 924 0
-1072 911 0
-924 -911 1072 0
-1073 925 0
-1073 917 0
-925 -917 1073 0
-1074 926 0
-1074 929 0
-926 -929 1074 0
-1075 927 0
-1075 935 0
-927 -935 1075 0
-86 -1071 0
-86 -1072 0
-86 -1073 0
-86 -1074 0
-86 -1075 0
-923 86 1071 1072 1073 1074 1075 0
-100 924 0
-1076 922 0
-1076 901 0
-922 -901 1076 0
-1077 923 0
-1077 900 0
-923 -900 1077 0
-1078 925 0
-1078 918 0
-925 -918 1078 0
-1079 926 0
-1079 930 0
-926 -930 1079 0
-1080 927 0
-1080 936 0
-927 -936 1080 0
-100 -1076 0
-100 -1077 0
-100 -1078 0
-100 -1079 0
-100 -1080 0
-924 100 1076 1077 1078 1079 1080 0
-114 925 0
-1081 922 0
-1081 903 0
-922 -903 1081 0
-1082 923 0
-1082 902 0
-923 -902 1082 0
-1083 924 0
-1083 912 0
-924 -912 1083 0
-1084 926 0
-1084 931 0
-926 -931 1084 0
-1085 927 0
-1085 937 0
-927 -937 1085 0
-114 -1081 0
-114 -1082 0
-114 -1083 0
-114 -1084 0
-114 -1085 0
-925 114 1081 1082 1083 1084 1085 0
-128 0
-142 926 0
-1086 922 0
-1086 907 0
-922 -907 1086 0
-1087 923 0
-1087 906 0
-923 -906 1087 0
-1088 924 0
-1088 914 0
-924 -914 1088 0
-1089 925 0
-1089 920 0
-925 -920 1089 0
-1090 927 0
-1090 939 0
-927 -939 1090 0
-142 -1086 0
-142 -1087 0
-142 -1088 0
-142 -1089 0
-142 -1090 0
-926 142 1086 1087 1088 1089 1090 0
-156 927 0
-1091 922 0
-1091 909 0
-922 -909 1091 0
-1092 923 0
-1092 908 0
-923 -908 1092 0
-1093 924 0
-1093 915 0
-924 -915 1093 0
-1094 925 0
-1094 921 0
-925 -921 1094 0
-1095 926 0
-1095 933 0
-926 -933 1095 0
-156 -1091 0
-156 -1092 0
-156 -1093 0
-156 -1094 0
-156 -1095 0
-927 156 1091 1092 1093 1094 1095 0
-74 928 0
-1096 929 0
-1096 899 0
-929 -899 1096 0
-1097 930 0
-1097 910 0
-930 -910 1097 0
-1098 931 0
-1098 916 0
-931 -916 1098 0
-1099 932 0
-1099 922 0
-932 -922 1099 0
-1100 933 0
-1100 934 0
-933 -934 1100 0
-74 -1096 0
-74 -1097 0
-74 -1098 0
-74 -1099 0
-74 -1100 0
-928 74 1096 1097 1098 1099 1100 0
-88 929 0
-1101 928 0
-1101 898 0
-928 -898 1101 0
-1102 930 0
-1102 911 0
-930 -911 1102 0
-1103 931 0
-1103 917 0
-931 -917 1103 0
-1104 932 0
-1104 923 0
-932 -923 1104 0
-1105 933 0
-1105 935 0
-933 -935 1105 0
-88 -1101 0
-88 -1102 0
-88 -1103 0
-88 -1104 0
-88 -1105 0
-929 88 1101 1102 1103 1104 1105 0
-102 930 0
-1106 928 0
-1106 901 0
-928 -901 1106 0
-1107 929 0
-1107 900 0
-929 -900 1107 0
-1108 931 0
-1108 918 0
-931 -918 1108 0
-1109 932 0
-1109 924 0
-932 -924 1109 0
-1110 933 0
-1110 936 0
-933 -936 1110 0
-102 -1106 0
-102 -1107 0
-102 -1108 0
-102 -1109 0
-102 -1110 0
-930 102 1106 1107 1108 1109 1110 0
-116 931 0
-1111 928 0
-1111 903 0
-928 -903 1111 0
-1112 929 0
-1112 902 0
-929 -902 1112 0
-1113 930 0
-1113 912 0
-930 -912 1113 0
-1114 932 0
-1114 925 0
-932 -925 1114 0
-1115 933 0
-1115 937 0
-933 -937 1115 0
-116 -1111 0
-116 -1112 0
-116 -1113 0
-116 -1114 0
-116 -1115 0
-931 116 1111 1112 1113 1114 1115 0
-130 932 0
-1116 928 0
-1116 905 0
-928 -905 1116 0
-1117 929 0
-1117 904 0
-929 -904 1117 0
-1118 930 0
-1118 913 0
-930 -913 1118 0
-1119 931 0
-1119 919 0
-931 -919 1119 0
-1120 933 0
-1120 938 0
-933 -938 1120 0
-130 -1116 0
-130 -1117 0
-130 -1118 0
-130 -1119 0
-130 -1120 0
-932 130 1116 1117 1118 1119 1120 0
-144 0
-158 933 0
-1121 928 0
-1121 909 0
-928 -909 1121 0
-1122 929 0
-1122 908 0
-929 -908 1122 0
-1123 930 0
-1123 915 0
-930 -915 1123 0
-1124 931 0
-1124 921 0
-931 -921 1124 0
-1125 932 0
-1125 927 0
-932 -927 1125 0
-158 -1121 0
-158 -1122 0
-158 -1123 0
-158 -1124 0
-158 -1125 0
-933 158 1121 1122 1123 1124 1125 0
-76 934 0
-1126 935 0
-1126 899 0
-935 -899 1126 0
-1127 936 0
-1127 910 0
-936 -910 1127 0
-1128 937 0
-1128 916 0
-937 -916 1128 0
-1129 938 0
-1129 922 0
-938 -922 1129 0
-1130 939 0
-1130 928 0
-939 -928 1130 0
-76 -1126 0
-76 -1127 0
-76 -1128 0
-76 -1129 0
-76 -1130 0
-934 76 1126 1127 1128 1129 1130 0
-90 935 0
-1131 934 0
-1131 898 0
-934 -898 1131 0
-1132 936 0
-1132 911 0
-936 -911 1132 0
-1133 937 0
-1133 917 0
-937 -917 1133 0
-1134 938 0
-1134 923 0
-938 -923 1134 0
-1135 939 0
-1135 929 0
-939 -929 1135 0
-90 -1131 0
-90 -1132 0
-90 -1133 0
-90 -1134 0
-90 -1135 0
-935 90 1131 1132 1133 1134 1135 0
-104 936 0
-1136 934 0
-1136 901 0
-934 -901 1136 0
-1137 935 0
-1137 900 0
-935 -900 1137 0
-1138 937 0
-1138 918 0
-937 -918 1138 0
-1139 938 0
-1139 924 0
-938 -924 1139 0
-1140 939 0
-1140 930 0
-939 -930 1140 0
-104 -1136 0
-104 -1137 0
-104 -1138 0
-104 -1139 0
-104 -1140 0
-936 104 1136 1137 1138 1139 1140 0
-118 937 0
-1141 934 0
-1141 903 0
-934 -903 1141 0
-1142 935 0
-1142 902 0
-935 -902 1142 0
-1143 936 0
-1143 912 0
-936 -912 1143 0
-1144 938 0
-1144 925 0
-938 -925 1144 0
-1145 939 0
-1145 931 0
-939 -931 1145 0
-118 -1141 0
-118 -1142 0
-118 -1143 0
-118 -1144 0
-118 -1145 0
-937 118 1141 1142 1143 1144 1145 0
-132 938 0
-1146 934 0
-1146 905 0
-934 -905 1146 0
-1147 935 0
-1147 904 0
-935 -904 1147 0
-1148 936 0
-1148 913 0
-936 -913 1148 0
-1149 937 0
-1149 919 0
-937 -919 1149 0
-1150 939 0
-1150 932 0
-939 -932 1150 0
-132 -1146 0
-132 -1147 0
-132 -1148 0
-132 -1149 0
-132 -1150 0
-938 132 1146 1147 1148 1149 1150 0
-146 939 0
-1151 934 0
-1151 907 0
-934 -907 1151 0
-1152 935 0
-1152 906 0
-935 -906 1152 0
-1153 936 0
-1153 914 0
-936 -914 1153 0
-1154 937 0
-1154 920 0
-937 -920 1154 0
-1155 938 0
-1155 926 0
-938 -926 1155 0
-146 -1151 0
-146 -1152 0
-146 -1153 0
-146 -1154 0
-146 -1155 0
-939 146 1151 1152 1153 1154 1155 0
-160 0
