p cnf 1560 5440
1 2 -3 0
4 5 -6 0
7 8 -9 0
10 11 -12 0
13 14 -15 0
16 17 -18 0
19 20 -21 0
22 23 -24 0
3 -1 0
6 -4 0
9 -7 0
12 -10 0
15 -13 0
18 -16 0
21 -19 0
24 -22 0
3 -2 0
6 -5 0
9 -8 0
12 -11 0
15 -14 0
18 -17 0
21 -20 0
24 -23 0
-1 -2 -25 0
-4 -5 -26 0
-7 -8 -27 0
-10 -11 -28 0
-13 -14 -29 0
-16 -17 -30 0
-19 -20 -31 0
-22 -23 -32 0
25 1 0
26 4 0
27 7 0
28 10 0
29 13 0
30 16 0
31 19 0
32 22 0
25 2 0
26 5 0
27 8 0
28 11 0
29 14 0
30 17 0
31 20 0
32 23 0
-33 1 34 0
-35 4 36 0
-37 7 38 0
-39 10 40 0
-41 13 42 0
-43 16 44 0
-45 19 46 0
-47 22 48 0
-34 33 0
-36 35 0
-38 37 0
-40 39 0
-42 41 0
-44 43 0
-46 45 0
-48 47 0
-34 -1 0
-36 -4 0
-38 -7 0
-40 -10 0
-42 -13 0
-44 -16 0
-46 -19 0
-48 -22 0
49 34 -50 0
51 36 -52 0
53 38 -54 0
55 40 -56 0
57 42 -58 0
59 44 -60 0
61 46 -62 0
63 48 -64 0
50 -49 0
52 -51 0
54 -53 0
56 -55 0
58 -57 0
60 -59 0
62 -61 0
64 -63 0
50 -34 0
52 -36 0
54 -38 0
56 -40 0
58 -42 0
60 -44 0
62 -46 0
64 -48 0
1 -49 -33 -65 0
4 -51 -35 -66 0
7 -53 -37 -67 0
10 -55 -39 -68 0
13 -57 -41 -69 0
16 -59 -43 -70 0
19 -61 -45 -71 0
22 -63 -47 -72 0
65 -1 0
66 -4 0
67 -7 0
68 -10 0
69 -13 0
70 -16 0
71 -19 0
72 -22 0
65 49 0
66 51 0
67 53 0
68 55 0
69 57 0
70 59 0
71 61 0
72 63 0
65 33 0
66 35 0
67 37 0
68 39 0
69 41 0
70 43 0
71 45 0
72 47 0
1 -73 -2 -74 0
4 -75 -5 -76 0
7 -77 -8 -78 0
10 -79 -11 -80 0
13 -81 -14 -82 0
16 -83 -17 -84 0
19 -85 -20 -86 0
22 -87 -23 -88 0
1 -89 -2 -90 0
4 -91 -5 -92 0
7 -93 -8 -94 0
10 -95 -11 -96 0
13 -97 -14 -98 0
16 -99 -17 -100 0
19 -101 -20 -102 0
22 -103 -23 -104 0
1 -105 -2 -106 0
4 -107 -5 -108 0
7 -109 -8 -110 0
10 -111 -11 -112 0
13 -113 -14 -114 0
16 -115 -17 -116 0
19 -117 -20 -118 0
22 -119 -23 -120 0
1 -121 -2 -122 0
4 -123 -5 -124 0
7 -125 -8 -126 0
10 -127 -11 -128 0
13 -129 -14 -130 0
16 -131 -17 -132 0
19 -133 -20 -134 0
22 -135 -23 -136 0
1 -137 -2 -138 0
4 -139 -5 -140 0
7 -141 -8 -142 0
10 -143 -11 -144 0
13 -145 -14 -146 0
16 -147 -17 -148 0
19 -149 -20 -150 0
22 -151 -23 -152 0
1 -153 -2 -154 0
4 -155 -5 -156 0
7 -157 -8 -158 0
10 -159 -11 -160 0
13 -161 -14 -162 0
16 -163 -17 -164 0
19 -165 -20 -166 0
22 -167 -23 -168 0
1 -169 -2 -170 0
4 -171 -5 -172 0
7 -173 -8 -174 0
10 -175 -11 -176 0
13 -177 -14 -178 0
16 -179 -17 -180 0
19 -181 -20 -182 0
22 -183 -23 -184 0
1 -185 -2 -186 0
4 -187 -5 -188 0
7 -189 -8 -190 0
10 -191 -11 -192 0
13 -193 -14 -194 0
16 -195 -17 -196 0
19 -197 -20 -198 0
22 -199 -23 -200 0
74 -1 0
76 -4 0
78 -7 0
80 -10 0
82 -13 0
84 -16 0
86 -19 0
88 -22 0
90 -1 0
92 -4 0
94 -7 0
96 -10 0
98 -13 0
100 -16 0
102 -19 0
104 -22 0
106 -1 0
108 -4 0
110 -7 0
112 -10 0
114 -13 0
116 -16 0
118 -19 0
120 -22 0
122 -1 0
124 -4 0
126 -7 0
128 -10 0
130 -13 0
132 -16 0
134 -19 0
136 -22 0
138 -1 0
140 -4 0
142 -7 0
144 -10 0
146 -13 0
148 -16 0
150 -19 0
152 -22 0
154 -1 0
156 -4 0
158 -7 0
160 -10 0
162 -13 0
164 -16 0
166 -19 0
168 -22 0
170 -1 0
172 -4 0
174 -7 0
176 -10 0
178 -13 0
180 -16 0
182 -19 0
184 -22 0
186 -1 0
188 -4 0
190 -7 0
192 -10 0
194 -13 0
196 -16 0
198 -19 0
200 -22 0
74 73 0
76 75 0
78 77 0
80 79 0
82 81 0
84 83 0
86 85 0
88 87 0
90 89 0
92 91 0
94 93 0
96 95 0
98 97 0
100 99 0
102 101 0
104 103 0
106 105 0
108 107 0
110 109 0
112 111 0
114 113 0
116 115 0
118 117 0
120 119 0
122 121 0
124 123 0
126 125 0
128 127 0
130 129 0
132 131 0
134 133 0
136 135 0
138 137 0
140 139 0
142 141 0
144 143 0
146 145 0
148 147 0
150 149 0
152 151 0
154 153 0
156 155 0
158 157 0
160 159 0
162 161 0
164 163 0
166 165 0
168 167 0
170 169 0
172 171 0
174 173 0
176 175 0
178 177 0
180 179 0
182 181 0
184 183 0
186 185 0
188 187 0
190 189 0
192 191 0
194 193 0
196 195 0
198 197 0
200 199 0
74 2 0
76 5 0
78 8 0
80 11 0
82 14 0
84 17 0
86 20 0
88 23 0
90 2 0
92 5 0
94 8 0
96 11 0
98 14 0
100 17 0
102 20 0
104 23 0
106 2 0
108 5 0
110 8 0
112 11 0
114 14 0
116 17 0
118 20 0
120 23 0
122 2 0
124 5 0
126 8 0
128 11 0
130 14 0
132 17 0
134 20 0
136 23 0
138 2 0
140 5 0
142 8 0
144 11 0
146 14 0
148 17 0
150 20 0
152 23 0
154 2 0
156 5 0
158 8 0
160 11 0
162 14 0
164 17 0
166 20 0
168 23 0
170 2 0
172 5 0
174 8 0
176 11 0
178 14 0
180 17 0
182 20 0
184 23 0
186 2 0
188 5 0
190 8 0
192 11 0
194 14 0
196 17 0
198 20 0
200 23 0
-73 -33 33 201 0
-75 -35 33 202 0
-77 -37 33 203 0
-79 -39 33 204 0
-81 -41 33 205 0
-83 -43 33 206 0
-85 -45 33 207 0
-87 -47 33 208 0
-89 -33 35 209 0
-91 -35 35 210 0
-93 -37 35 211 0
-95 -39 35 212 0
-97 -41 35 213 0
-99 -43 35 214 0
-101 -45 35 215 0
-103 -47 35 216 0
-105 -33 37 217 0
-107 -35 37 218 0
-109 -37 37 219 0
-111 -39 37 220 0
-113 -41 37 221 0
-115 -43 37 222 0
-117 -45 37 223 0
-119 -47 37 224 0
-121 -33 39 225 0
-123 -35 39 226 0
-125 -37 39 227 0
-127 -39 39 228 0
-129 -41 39 229 0
-131 -43 39 230 0
-133 -45 39 231 0
-135 -47 39 232 0
-137 -33 41 233 0
-139 -35 41 234 0
-141 -37 41 235 0
-143 -39 41 236 0
-145 -41 41 237 0
-147 -43 41 238 0
-149 -45 41 239 0
-151 -47 41 240 0
-153 -33 43 241 0
-155 -35 43 242 0
-157 -37 43 243 0
-159 -39 43 244 0
-161 -41 43 245 0
-163 -43 43 246 0
-165 -45 43 247 0
-167 -47 43 248 0
-169 -33 45 249 0
-171 -35 45 250 0
-173 -37 45 251 0
-175 -39 45 252 0
-177 -41 45 253 0
-179 -43 45 254 0
-181 -45 45 255 0
-183 -47 45 256 0
-185 -33 47 257 0
-187 -35 47 258 0
-189 -37 47 259 0
-191 -39 47 260 0
-193 -41 47 261 0
-195 -43 47 262 0
-197 -45 47 263 0
-199 -47 47 264 0
-201 73 0
-202 75 0
-203 77 0
-204 79 0
-205 81 0
-206 83 0
-207 85 0
-208 87 0
-209 89 0
-210 91 0
-211 93 0
-212 95 0
-213 97 0
-214 99 0
-215 101 0
-216 103 0
-217 105 0
-218 107 0
-219 109 0
-220 111 0
-221 113 0
-222 115 0
-223 117 0
-224 119 0
-225 121 0
-226 123 0
-227 125 0
-228 127 0
-229 129 0
-230 131 0
-231 133 0
-232 135 0
-233 137 0
-234 139 0
-235 141 0
-236 143 0
-237 145 0
-238 147 0
-239 149 0
-240 151 0
-241 153 0
-242 155 0
-243 157 0
-244 159 0
-245 161 0
-246 163 0
-247 165 0
-248 167 0
-249 169 0
-250 171 0
-251 173 0
-252 175 0
-253 177 0
-254 179 0
-255 181 0
-256 183 0
-257 185 0
-258 187 0
-259 189 0
-260 191 0
-261 193 0
-262 195 0
-263 197 0
-264 199 0
-201 33 0
-202 35 0
-203 37 0
-204 39 0
-205 41 0
-206 43 0
-207 45 0
-208 47 0
-209 33 0
-210 35 0
-211 37 0
-212 39 0
-213 41 0
-214 43 0
-215 45 0
-216 47 0
-217 33 0
-218 35 0
-219 37 0
-220 39 0
-221 41 0
-222 43 0
-223 45 0
-224 47 0
-225 33 0
-226 35 0
-227 37 0
-228 39 0
-229 41 0
-230 43 0
-231 45 0
-232 47 0
-233 33 0
-234 35 0
-235 37 0
-236 39 0
-237 41 0
-238 43 0
-239 45 0
-240 47 0
-241 33 0
-242 35 0
-243 37 0
-244 39 0
-245 41 0
-246 43 0
-247 45 0
-248 47 0
-249 33 0
-250 35 0
-251 37 0
-252 39 0
-253 41 0
-254 43 0
-255 45 0
-256 47 0
-257 33 0
-258 35 0
-259 37 0
-260 39 0
-261 41 0
-262 43 0
-263 45 0
-264 47 0
-201 -33 0
-202 -33 0
-203 -33 0
-204 -33 0
-205 -33 0
-206 -33 0
-207 -33 0
-208 -33 0
-209 -35 0
-210 -35 0
-211 -35 0
-212 -35 0
-213 -35 0
-214 -35 0
-215 -35 0
-216 -35 0
-217 -37 0
-218 -37 0
-219 -37 0
-220 -37 0
-221 -37 0
-222 -37 0
-223 -37 0
-224 -37 0
-225 -39 0
-226 -39 0
-227 -39 0
-228 -39 0
-229 -39 0
-230 -39 0
-231 -39 0
-232 -39 0
-233 -41 0
-234 -41 0
-235 -41 0
-236 -41 0
-237 -41 0
-238 -41 0
-239 -41 0
-240 -41 0
-241 -43 0
-242 -43 0
-243 -43 0
-244 -43 0
-245 -43 0
-246 -43 0
-247 -43 0
-248 -43 0
-249 -45 0
-250 -45 0
-251 -45 0
-252 -45 0
-253 -45 0
-254 -45 0
-255 -45 0
-256 -45 0
-257 -47 0
-258 -47 0
-259 -47 0
-260 -47 0
-261 -47 0
-262 -47 0
-263 -47 0
-264 -47 0
265 201 -266 0
267 202 -268 0
269 203 -270 0
271 204 -272 0
273 205 -274 0
275 206 -276 0
277 207 -278 0
279 208 -280 0
281 209 -282 0
283 210 -284 0
285 211 -286 0
287 212 -288 0
289 213 -290 0
291 214 -292 0
293 215 -294 0
295 216 -296 0
297 217 -298 0
299 218 -300 0
301 219 -302 0
303 220 -304 0
305 221 -306 0
307 222 -308 0
309 223 -310 0
311 224 -312 0
313 225 -314 0
315 226 -316 0
317 227 -318 0
319 228 -320 0
321 229 -322 0
323 230 -324 0
325 231 -326 0
327 232 -328 0
329 233 -330 0
331 234 -332 0
333 235 -334 0
335 236 -336 0
337 237 -338 0
339 238 -340 0
341 239 -342 0
343 240 -344 0
345 241 -346 0
347 242 -348 0
349 243 -350 0
351 244 -352 0
353 245 -354 0
355 246 -356 0
357 247 -358 0
359 248 -360 0
361 249 -362 0
363 250 -364 0
365 251 -366 0
367 252 -368 0
369 253 -370 0
371 254 -372 0
373 255 -374 0
375 256 -376 0
377 257 -378 0
379 258 -380 0
381 259 -382 0
383 260 -384 0
385 261 -386 0
387 262 -388 0
389 263 -390 0
391 264 -392 0
266 -265 0
268 -267 0
270 -269 0
272 -271 0
274 -273 0
276 -275 0
278 -277 0
280 -279 0
282 -281 0
284 -283 0
286 -285 0
288 -287 0
290 -289 0
292 -291 0
294 -293 0
296 -295 0
298 -297 0
300 -299 0
302 -301 0
304 -303 0
306 -305 0
308 -307 0
310 -309 0
312 -311 0
314 -313 0
316 -315 0
318 -317 0
320 -319 0
322 -321 0
324 -323 0
326 -325 0
328 -327 0
330 -329 0
332 -331 0
334 -333 0
336 -335 0
338 -337 0
340 -339 0
342 -341 0
344 -343 0
346 -345 0
348 -347 0
350 -349 0
352 -351 0
354 -353 0
356 -355 0
358 -357 0
360 -359 0
362 -361 0
364 -363 0
366 -365 0
368 -367 0
370 -369 0
372 -371 0
374 -373 0
376 -375 0
378 -377 0
380 -379 0
382 -381 0
384 -383 0
386 -385 0
388 -387 0
390 -389 0
392 -391 0
266 -201 0
268 -202 0
270 -203 0
272 -204 0
274 -205 0
276 -206 0
278 -207 0
280 -208 0
282 -209 0
284 -210 0
286 -211 0
288 -212 0
290 -213 0
292 -214 0
294 -215 0
296 -216 0
298 -217 0
300 -218 0
302 -219 0
304 -220 0
306 -221 0
308 -222 0
310 -223 0
312 -224 0
314 -225 0
316 -226 0
318 -227 0
320 -228 0
322 -229 0
324 -230 0
326 -231 0
328 -232 0
330 -233 0
332 -234 0
334 -235 0
336 -236 0
338 -237 0
340 -238 0
342 -239 0
344 -240 0
346 -241 0
348 -242 0
350 -243 0
352 -244 0
354 -245 0
356 -246 0
358 -247 0
360 -248 0
362 -249 0
364 -250 0
366 -251 0
368 -252 0
370 -253 0
372 -254 0
374 -255 0
376 -256 0
378 -257 0
380 -258 0
382 -259 0
384 -260 0
386 -261 0
388 -262 0
390 -263 0
392 -264 0
-393 -33 33 394 0
-395 -35 33 396 0
-397 -37 33 398 0
-399 -39 33 400 0
-401 -41 33 402 0
-403 -43 33 404 0
-405 -45 33 406 0
-407 -47 33 408 0
-409 -33 35 410 0
-411 -35 35 412 0
-413 -37 35 414 0
-415 -39 35 416 0
-417 -41 35 418 0
-419 -43 35 420 0
-421 -45 35 422 0
-423 -47 35 424 0
-425 -33 37 426 0
-427 -35 37 428 0
-429 -37 37 430 0
-431 -39 37 432 0
-433 -41 37 434 0
-435 -43 37 436 0
-437 -45 37 438 0
-439 -47 37 440 0
-441 -33 39 442 0
-443 -35 39 444 0
-445 -37 39 446 0
-447 -39 39 448 0
-449 -41 39 450 0
-451 -43 39 452 0
-453 -45 39 454 0
-455 -47 39 456 0
-457 -33 41 458 0
-459 -35 41 460 0
-461 -37 41 462 0
-463 -39 41 464 0
-465 -41 41 466 0
-467 -43 41 468 0
-469 -45 41 470 0
-471 -47 41 472 0
-473 -33 43 474 0
-475 -35 43 476 0
-477 -37 43 478 0
-479 -39 43 480 0
-481 -41 43 482 0
-483 -43 43 484 0
-485 -45 43 486 0
-487 -47 43 488 0
-489 -33 45 490 0
-491 -35 45 492 0
-493 -37 45 494 0
-495 -39 45 496 0
-497 -41 45 498 0
-499 -43 45 500 0
-501 -45 45 502 0
-503 -47 45 504 0
-505 -33 47 506 0
-507 -35 47 508 0
-509 -37 47 510 0
-511 -39 47 512 0
-513 -41 47 514 0
-515 -43 47 516 0
-517 -45 47 518 0
-519 -47 47 520 0
-394 393 0
-396 395 0
-398 397 0
-400 399 0
-402 401 0
-404 403 0
-406 405 0
-408 407 0
-410 409 0
-412 411 0
-414 413 0
-416 415 0
-418 417 0
-420 419 0
-422 421 0
-424 423 0
-426 425 0
-428 427 0
-430 429 0
-432 431 0
-434 433 0
-436 435 0
-438 437 0
-440 439 0
-442 441 0
-444 443 0
-446 445 0
-448 447 0
-450 449 0
-452 451 0
-454 453 0
-456 455 0
-458 457 0
-460 459 0
-462 461 0
-464 463 0
-466 465 0
-468 467 0
-470 469 0
-472 471 0
-474 473 0
-476 475 0
-478 477 0
-480 479 0
-482 481 0
-484 483 0
-486 485 0
-488 487 0
-490 489 0
-492 491 0
-494 493 0
-496 495 0
-498 497 0
-500 499 0
-502 501 0
-504 503 0
-506 505 0
-508 507 0
-510 509 0
-512 511 0
-514 513 0
-516 515 0
-518 517 0
-520 519 0
-394 33 0
-396 35 0
-398 37 0
-400 39 0
-402 41 0
-404 43 0
-406 45 0
-408 47 0
-410 33 0
-412 35 0
-414 37 0
-416 39 0
-418 41 0
-420 43 0
-422 45 0
-424 47 0
-426 33 0
-428 35 0
-430 37 0
-432 39 0
-434 41 0
-436 43 0
-438 45 0
-440 47 0
-442 33 0
-444 35 0
-446 37 0
-448 39 0
-450 41 0
-452 43 0
-454 45 0
-456 47 0
-458 33 0
-460 35 0
-462 37 0
-464 39 0
-466 41 0
-468 43 0
-470 45 0
-472 47 0
-474 33 0
-476 35 0
-478 37 0
-480 39 0
-482 41 0
-484 43 0
-486 45 0
-488 47 0
-490 33 0
-492 35 0
-494 37 0
-496 39 0
-498 41 0
-500 43 0
-502 45 0
-504 47 0
-506 33 0
-508 35 0
-510 37 0
-512 39 0
-514 41 0
-516 43 0
-518 45 0
-520 47 0
-394 -33 0
-396 -33 0
-398 -33 0
-400 -33 0
-402 -33 0
-404 -33 0
-406 -33 0
-408 -33 0
-410 -35 0
-412 -35 0
-414 -35 0
-416 -35 0
-418 -35 0
-420 -35 0
-422 -35 0
-424 -35 0
-426 -37 0
-428 -37 0
-430 -37 0
-432 -37 0
-434 -37 0
-436 -37 0
-438 -37 0
-440 -37 0
-442 -39 0
-444 -39 0
-446 -39 0
-448 -39 0
-450 -39 0
-452 -39 0
-454 -39 0
-456 -39 0
-458 -41 0
-460 -41 0
-462 -41 0
-464 -41 0
-466 -41 0
-468 -41 0
-470 -41 0
-472 -41 0
-474 -43 0
-476 -43 0
-478 -43 0
-480 -43 0
-482 -43 0
-484 -43 0
-486 -43 0
-488 -43 0
-490 -45 0
-492 -45 0
-494 -45 0
-496 -45 0
-498 -45 0
-500 -45 0
-502 -45 0
-504 -45 0
-506 -47 0
-508 -47 0
-510 -47 0
-512 -47 0
-514 -47 0
-516 -47 0
-518 -47 0
-520 -47 0
521 394 -522 0
523 396 -524 0
525 398 -526 0
527 400 -528 0
529 402 -530 0
531 404 -532 0
533 406 -534 0
535 408 -536 0
537 410 -538 0
539 412 -540 0
541 414 -542 0
543 416 -544 0
545 418 -546 0
547 420 -548 0
549 422 -550 0
551 424 -552 0
553 426 -554 0
555 428 -556 0
557 430 -558 0
559 432 -560 0
561 434 -562 0
563 436 -564 0
565 438 -566 0
567 440 -568 0
569 442 -570 0
571 444 -572 0
573 446 -574 0
575 448 -576 0
577 450 -578 0
579 452 -580 0
581 454 -582 0
583 456 -584 0
585 458 -586 0
587 460 -588 0
589 462 -590 0
591 464 -592 0
593 466 -594 0
595 468 -596 0
597 470 -598 0
599 472 -600 0
601 474 -602 0
603 476 -604 0
605 478 -606 0
607 480 -608 0
609 482 -610 0
611 484 -612 0
613 486 -614 0
615 488 -616 0
617 490 -618 0
619 492 -620 0
621 494 -622 0
623 496 -624 0
625 498 -626 0
627 500 -628 0
629 502 -630 0
631 504 -632 0
633 506 -634 0
635 508 -636 0
637 510 -638 0
639 512 -640 0
641 514 -642 0
643 516 -644 0
645 518 -646 0
647 520 -648 0
522 -521 0
524 -523 0
526 -525 0
528 -527 0
530 -529 0
532 -531 0
534 -533 0
536 -535 0
538 -537 0
540 -539 0
542 -541 0
544 -543 0
546 -545 0
548 -547 0
550 -549 0
552 -551 0
554 -553 0
556 -555 0
558 -557 0
560 -559 0
562 -561 0
564 -563 0
566 -565 0
568 -567 0
570 -569 0
572 -571 0
574 -573 0
576 -575 0
578 -577 0
580 -579 0
582 -581 0
584 -583 0
586 -585 0
588 -587 0
590 -589 0
592 -591 0
594 -593 0
596 -595 0
598 -597 0
600 -599 0
602 -601 0
604 -603 0
606 -605 0
608 -607 0
610 -609 0
612 -611 0
614 -613 0
616 -615 0
618 -617 0
620 -619 0
622 -621 0
624 -623 0
626 -625 0
628 -627 0
630 -629 0
632 -631 0
634 -633 0
636 -635 0
638 -637 0
640 -639 0
642 -641 0
644 -643 0
646 -645 0
648 -647 0
522 -394 0
524 -396 0
526 -398 0
528 -400 0
530 -402 0
532 -404 0
534 -406 0
536 -408 0
538 -410 0
540 -412 0
542 -414 0
544 -416 0
546 -418 0
548 -420 0
550 -422 0
552 -424 0
554 -426 0
556 -428 0
558 -430 0
560 -432 0
562 -434 0
564 -436 0
566 -438 0
568 -440 0
570 -442 0
572 -444 0
574 -446 0
576 -448 0
578 -450 0
580 -452 0
582 -454 0
584 -456 0
586 -458 0
588 -460 0
590 -462 0
592 -464 0
594 -466 0
596 -468 0
598 -470 0
600 -472 0
602 -474 0
604 -476 0
606 -478 0
608 -480 0
610 -482 0
612 -484 0
614 -486 0
616 -488 0
618 -490 0
620 -492 0
622 -494 0
624 -496 0
626 -498 0
628 -500 0
630 -502 0
632 -504 0
634 -506 0
636 -508 0
638 -510 0
640 -512 0
642 -514 0
644 -516 0
646 -518 0
648 -520 0
-649 -33 33 650 0
-651 -35 33 652 0
-653 -37 33 654 0
-655 -39 33 656 0
-657 -41 33 658 0
-659 -43 33 660 0
-661 -45 33 662 0
-663 -47 33 664 0
-665 -33 35 666 0
-667 -35 35 668 0
-669 -37 35 670 0
-671 -39 35 672 0
-673 -41 35 674 0
-675 -43 35 676 0
-677 -45 35 678 0
-679 -47 35 680 0
-681 -33 37 682 0
-683 -35 37 684 0
-685 -37 37 686 0
-687 -39 37 688 0
-689 -41 37 690 0
-691 -43 37 692 0
-693 -45 37 694 0
-695 -47 37 696 0
-697 -33 39 698 0
-699 -35 39 700 0
-701 -37 39 702 0
-703 -39 39 704 0
-705 -41 39 706 0
-707 -43 39 708 0
-709 -45 39 710 0
-711 -47 39 712 0
-713 -33 41 714 0
-715 -35 41 716 0
-717 -37 41 718 0
-719 -39 41 720 0
-721 -41 41 722 0
-723 -43 41 724 0
-725 -45 41 726 0
-727 -47 41 728 0
-729 -33 43 730 0
-731 -35 43 732 0
-733 -37 43 734 0
-735 -39 43 736 0
-737 -41 43 738 0
-739 -43 43 740 0
-741 -45 43 742 0
-743 -47 43 744 0
-745 -33 45 746 0
-747 -35 45 748 0
-749 -37 45 750 0
-751 -39 45 752 0
-753 -41 45 754 0
-755 -43 45 756 0
-757 -45 45 758 0
-759 -47 45 760 0
-761 -33 47 762 0
-763 -35 47 764 0
-765 -37 47 766 0
-767 -39 47 768 0
-769 -41 47 770 0
-771 -43 47 772 0
-773 -45 47 774 0
-775 -47 47 776 0
-650 649 0
-652 651 0
-654 653 0
-656 655 0
-658 657 0
-660 659 0
-662 661 0
-664 663 0
-666 665 0
-668 667 0
-670 669 0
-672 671 0
-674 673 0
-676 675 0
-678 677 0
-680 679 0
-682 681 0
-684 683 0
-686 685 0
-688 687 0
-690 689 0
-692 691 0
-694 693 0
-696 695 0
-698 697 0
-700 699 0
-702 701 0
-704 703 0
-706 705 0
-708 707 0
-710 709 0
-712 711 0
-714 713 0
-716 715 0
-718 717 0
-720 719 0
-722 721 0
-724 723 0
-726 725 0
-728 727 0
-730 729 0
-732 731 0
-734 733 0
-736 735 0
-738 737 0
-740 739 0
-742 741 0
-744 743 0
-746 745 0
-748 747 0
-750 749 0
-752 751 0
-754 753 0
-756 755 0
-758 757 0
-760 759 0
-762 761 0
-764 763 0
-766 765 0
-768 767 0
-770 769 0
-772 771 0
-774 773 0
-776 775 0
-650 33 0
-652 35 0
-654 37 0
-656 39 0
-658 41 0
-660 43 0
-662 45 0
-664 47 0
-666 33 0
-668 35 0
-670 37 0
-672 39 0
-674 41 0
-676 43 0
-678 45 0
-680 47 0
-682 33 0
-684 35 0
-686 37 0
-688 39 0
-690 41 0
-692 43 0
-694 45 0
-696 47 0
-698 33 0
-700 35 0
-702 37 0
-704 39 0
-706 41 0
-708 43 0
-710 45 0
-712 47 0
-714 33 0
-716 35 0
-718 37 0
-720 39 0
-722 41 0
-724 43 0
-726 45 0
-728 47 0
-730 33 0
-732 35 0
-734 37 0
-736 39 0
-738 41 0
-740 43 0
-742 45 0
-744 47 0
-746 33 0
-748 35 0
-750 37 0
-752 39 0
-754 41 0
-756 43 0
-758 45 0
-760 47 0
-762 33 0
-764 35 0
-766 37 0
-768 39 0
-770 41 0
-772 43 0
-774 45 0
-776 47 0
-650 -33 0
-652 -33 0
-654 -33 0
-656 -33 0
-658 -33 0
-660 -33 0
-662 -33 0
-664 -33 0
-666 -35 0
-668 -35 0
-670 -35 0
-672 -35 0
-674 -35 0
-676 -35 0
-678 -35 0
-680 -35 0
-682 -37 0
-684 -37 0
-686 -37 0
-688 -37 0
-690 -37 0
-692 -37 0
-694 -37 0
-696 -37 0
-698 -39 0
-700 -39 0
-702 -39 0
-704 -39 0
-706 -39 0
-708 -39 0
-710 -39 0
-712 -39 0
-714 -41 0
-716 -41 0
-718 -41 0
-720 -41 0
-722 -41 0
-724 -41 0
-726 -41 0
-728 -41 0
-730 -43 0
-732 -43 0
-734 -43 0
-736 -43 0
-738 -43 0
-740 -43 0
-742 -43 0
-744 -43 0
-746 -45 0
-748 -45 0
-750 -45 0
-752 -45 0
-754 -45 0
-756 -45 0
-758 -45 0
-760 -45 0
-762 -47 0
-764 -47 0
-766 -47 0
-768 -47 0
-770 -47 0
-772 -47 0
-774 -47 0
-776 -47 0
777 650 -778 0
779 652 -780 0
781 654 -782 0
783 656 -784 0
785 658 -786 0
787 660 -788 0
789 662 -790 0
791 664 -792 0
793 666 -794 0
795 668 -796 0
797 670 -798 0
799 672 -800 0
801 674 -802 0
803 676 -804 0
805 678 -806 0
807 680 -808 0
809 682 -810 0
811 684 -812 0
813 686 -814 0
815 688 -816 0
817 690 -818 0
819 692 -820 0
821 694 -822 0
823 696 -824 0
825 698 -826 0
827 700 -828 0
829 702 -830 0
831 704 -832 0
833 706 -834 0
835 708 -836 0
837 710 -838 0
839 712 -840 0
841 714 -842 0
843 716 -844 0
845 718 -846 0
847 720 -848 0
849 722 -850 0
851 724 -852 0
853 726 -854 0
855 728 -856 0
857 730 -858 0
859 732 -860 0
861 734 -862 0
863 736 -864 0
865 738 -866 0
867 740 -868 0
869 742 -870 0
871 744 -872 0
873 746 -874 0
875 748 -876 0
877 750 -878 0
879 752 -880 0
881 754 -882 0
883 756 -884 0
885 758 -886 0
887 760 -888 0
889 762 -890 0
891 764 -892 0
893 766 -894 0
895 768 -896 0
897 770 -898 0
899 772 -900 0
901 774 -902 0
903 776 -904 0
778 -777 0
780 -779 0
782 -781 0
784 -783 0
786 -785 0
788 -787 0
790 -789 0
792 -791 0
794 -793 0
796 -795 0
798 -797 0
800 -799 0
802 -801 0
804 -803 0
806 -805 0
808 -807 0
810 -809 0
812 -811 0
814 -813 0
816 -815 0
818 -817 0
820 -819 0
822 -821 0
824 -823 0
826 -825 0
828 -827 0
830 -829 0
832 -831 0
834 -833 0
836 -835 0
838 -837 0
840 -839 0
842 -841 0
844 -843 0
846 -845 0
848 -847 0
850 -849 0
852 -851 0
854 -853 0
856 -855 0
858 -857 0
860 -859 0
862 -861 0
864 -863 0
866 -865 0
868 -867 0
870 -869 0
872 -871 0
874 -873 0
876 -875 0
878 -877 0
880 -879 0
882 -881 0
884 -883 0
886 -885 0
888 -887 0
890 -889 0
892 -891 0
894 -893 0
896 -895 0
898 -897 0
900 -899 0
902 -901 0
904 -903 0
778 -650 0
780 -652 0
782 -654 0
784 -656 0
786 -658 0
788 -660 0
790 -662 0
792 -664 0
794 -666 0
796 -668 0
798 -670 0
800 -672 0
802 -674 0
804 -676 0
806 -678 0
808 -680 0
810 -682 0
812 -684 0
814 -686 0
816 -688 0
818 -690 0
820 -692 0
822 -694 0
824 -696 0
826 -698 0
828 -700 0
830 -702 0
832 -704 0
834 -706 0
836 -708 0
838 -710 0
840 -712 0
842 -714 0
844 -716 0
846 -718 0
848 -720 0
850 -722 0
852 -724 0
854 -726 0
856 -728 0
858 -730 0
860 -732 0
862 -734 0
864 -736 0
866 -738 0
868 -740 0
870 -742 0
872 -744 0
874 -746 0
876 -748 0
878 -750 0
880 -752 0
882 -754 0
884 -756 0
886 -758 0
888 -760 0
890 -762 0
892 -764 0
894 -766 0
896 -768 0
898 -770 0
900 -772 0
902 -774 0
904 -776 0
33 -265 -73 -33 -905 0
33 -267 -75 -35 -906 0
33 -269 -77 -37 -907 0
33 -271 -79 -39 -908 0
33 -273 -81 -41 -909 0
33 -275 -83 -43 -910 0
33 -277 -85 -45 -911 0
33 -279 -87 -47 -912 0
35 -281 -89 -33 -913 0
35 -283 -91 -35 -914 0
35 -285 -93 -37 -915 0
35 -287 -95 -39 -916 0
35 -289 -97 -41 -917 0
35 -291 -99 -43 -918 0
35 -293 -101 -45 -919 0
35 -295 -103 -47 -920 0
37 -297 -105 -33 -921 0
37 -299 -107 -35 -922 0
37 -301 -109 -37 -923 0
37 -303 -111 -39 -924 0
37 -305 -113 -41 -925 0
37 -307 -115 -43 -926 0
37 -309 -117 -45 -927 0
37 -311 -119 -47 -928 0
39 -313 -121 -33 -929 0
39 -315 -123 -35 -930 0
39 -317 -125 -37 -931 0
39 -319 -127 -39 -932 0
39 -321 -129 -41 -933 0
39 -323 -131 -43 -934 0
39 -325 -133 -45 -935 0
39 -327 -135 -47 -936 0
41 -329 -137 -33 -937 0
41 -331 -139 -35 -938 0
41 -333 -141 -37 -939 0
41 -335 -143 -39 -940 0
41 -337 -145 -41 -941 0
41 -339 -147 -43 -942 0
41 -341 -149 -45 -943 0
41 -343 -151 -47 -944 0
43 -345 -153 -33 -945 0
43 -347 -155 -35 -946 0
43 -349 -157 -37 -947 0
43 -351 -159 -39 -948 0
43 -353 -161 -41 -949 0
43 -355 -163 -43 -950 0
43 -357 -165 -45 -951 0
43 -359 -167 -47 -952 0
45 -361 -169 -33 -953 0
45 -363 -171 -35 -954 0
45 -365 -173 -37 -955 0
45 -367 -175 -39 -956 0
45 -369 -177 -41 -957 0
45 -371 -179 -43 -958 0
45 -373 -181 -45 -959 0
45 -375 -183 -47 -960 0
47 -377 -185 -33 -961 0
47 -379 -187 -35 -962 0
47 -381 -189 -37 -963 0
47 -383 -191 -39 -964 0
47 -385 -193 -41 -965 0
47 -387 -195 -43 -966 0
47 -389 -197 -45 -967 0
47 -391 -199 -47 -968 0
905 -33 0
906 -33 0
907 -33 0
908 -33 0
909 -33 0
910 -33 0
911 -33 0
912 -33 0
913 -35 0
914 -35 0
915 -35 0
916 -35 0
917 -35 0
918 -35 0
919 -35 0
920 -35 0
921 -37 0
922 -37 0
923 -37 0
924 -37 0
925 -37 0
926 -37 0
927 -37 0
928 -37 0
929 -39 0
930 -39 0
931 -39 0
932 -39 0
933 -39 0
934 -39 0
935 -39 0
936 -39 0
937 -41 0
938 -41 0
939 -41 0
940 -41 0
941 -41 0
942 -41 0
943 -41 0
944 -41 0
945 -43 0
946 -43 0
947 -43 0
948 -43 0
949 -43 0
950 -43 0
951 -43 0
952 -43 0
953 -45 0
954 -45 0
955 -45 0
956 -45 0
957 -45 0
958 -45 0
959 -45 0
960 -45 0
961 -47 0
962 -47 0
963 -47 0
964 -47 0
965 -47 0
966 -47 0
967 -47 0
968 -47 0
905 265 0
906 267 0
907 269 0
908 271 0
909 273 0
910 275 0
911 277 0
912 279 0
913 281 0
914 283 0
915 285 0
916 287 0
917 289 0
918 291 0
919 293 0
920 295 0
921 297 0
922 299 0
923 301 0
924 303 0
925 305 0
926 307 0
927 309 0
928 311 0
929 313 0
930 315 0
931 317 0
932 319 0
933 321 0
934 323 0
935 325 0
936 327 0
937 329 0
938 331 0
939 333 0
940 335 0
941 337 0
942 339 0
943 341 0
944 343 0
945 345 0
946 347 0
947 349 0
948 351 0
949 353 0
950 355 0
951 357 0
952 359 0
953 361 0
954 363 0
955 365 0
956 367 0
957 369 0
958 371 0
959 373 0
960 375 0
961 377 0
962 379 0
963 381 0
964 383 0
965 385 0
966 387 0
967 389 0
968 391 0
905 73 0
906 75 0
907 77 0
908 79 0
909 81 0
910 83 0
911 85 0
912 87 0
913 89 0
914 91 0
915 93 0
916 95 0
917 97 0
918 99 0
919 101 0
920 103 0
921 105 0
922 107 0
923 109 0
924 111 0
925 113 0
926 115 0
927 117 0
928 119 0
929 121 0
930 123 0
931 125 0
932 127 0
933 129 0
934 131 0
935 133 0
936 135 0
937 137 0
938 139 0
939 141 0
940 143 0
941 145 0
942 147 0
943 149 0
944 151 0
945 153 0
946 155 0
947 157 0
948 159 0
949 161 0
950 163 0
951 165 0
952 167 0
953 169 0
954 171 0
955 173 0
956 175 0
957 177 0
958 179 0
959 181 0
960 183 0
961 185 0
962 187 0
963 189 0
964 191 0
965 193 0
966 195 0
967 197 0
968 199 0
905 33 0
906 35 0
907 37 0
908 39 0
909 41 0
910 43 0
911 45 0
912 47 0
913 33 0
914 35 0
915 37 0
916 39 0
917 41 0
918 43 0
919 45 0
920 47 0
921 33 0
922 35 0
923 37 0
924 39 0
925 41 0
926 43 0
927 45 0
928 47 0
929 33 0
930 35 0
931 37 0
932 39 0
933 41 0
934 43 0
935 45 0
936 47 0
937 33 0
938 35 0
939 37 0
940 39 0
941 41 0
942 43 0
943 45 0
944 47 0
945 33 0
946 35 0
947 37 0
948 39 0
949 41 0
950 43 0
951 45 0
952 47 0
953 33 0
954 35 0
955 37 0
956 39 0
957 41 0
958 43 0
959 45 0
960 47 0
961 33 0
962 35 0
963 37 0
964 39 0
965 41 0
966 43 0
967 45 0
968 47 0
33 -521 -393 -33 -969 0
33 -523 -395 -35 -970 0
33 -525 -397 -37 -971 0
33 -527 -399 -39 -972 0
33 -529 -401 -41 -973 0
33 -531 -403 -43 -974 0
33 -533 -405 -45 -975 0
33 -535 -407 -47 -976 0
35 -537 -409 -33 -977 0
35 -539 -411 -35 -978 0
35 -541 -413 -37 -979 0
35 -543 -415 -39 -980 0
35 -545 -417 -41 -981 0
35 -547 -419 -43 -982 0
35 -549 -421 -45 -983 0
35 -551 -423 -47 -984 0
37 -553 -425 -33 -985 0
37 -555 -427 -35 -986 0
37 -557 -429 -37 -987 0
37 -559 -431 -39 -988 0
37 -561 -433 -41 -989 0
37 -563 -435 -43 -990 0
37 -565 -437 -45 -991 0
37 -567 -439 -47 -992 0
39 -569 -441 -33 -993 0
39 -571 -443 -35 -994 0
39 -573 -445 -37 -995 0
39 -575 -447 -39 -996 0
39 -577 -449 -41 -997 0
39 -579 -451 -43 -998 0
39 -581 -453 -45 -999 0
39 -583 -455 -47 -1000 0
41 -585 -457 -33 -1001 0
41 -587 -459 -35 -1002 0
41 -589 -461 -37 -1003 0
41 -591 -463 -39 -1004 0
41 -593 -465 -41 -1005 0
41 -595 -467 -43 -1006 0
41 -597 -469 -45 -1007 0
41 -599 -471 -47 -1008 0
43 -601 -473 -33 -1009 0
43 -603 -475 -35 -1010 0
43 -605 -477 -37 -1011 0
43 -607 -479 -39 -1012 0
43 -609 -481 -41 -1013 0
43 -611 -483 -43 -1014 0
43 -613 -485 -45 -1015 0
43 -615 -487 -47 -1016 0
45 -617 -489 -33 -1017 0
45 -619 -491 -35 -1018 0
45 -621 -493 -37 -1019 0
45 -623 -495 -39 -1020 0
45 -625 -497 -41 -1021 0
45 -627 -499 -43 -1022 0
45 -629 -501 -45 -1023 0
45 -631 -503 -47 -1024 0
47 -633 -505 -33 -1025 0
47 -635 -507 -35 -1026 0
47 -637 -509 -37 -1027 0
47 -639 -511 -39 -1028 0
47 -641 -513 -41 -1029 0
47 -643 -515 -43 -1030 0
47 -645 -517 -45 -1031 0
47 -647 -519 -47 -1032 0
969 -33 0
970 -33 0
971 -33 0
972 -33 0
973 -33 0
974 -33 0
975 -33 0
976 -33 0
977 -35 0
978 -35 0
979 -35 0
980 -35 0
981 -35 0
982 -35 0
983 -35 0
984 -35 0
985 -37 0
986 -37 0
987 -37 0
988 -37 0
989 -37 0
990 -37 0
991 -37 0
992 -37 0
993 -39 0
994 -39 0
995 -39 0
996 -39 0
997 -39 0
998 -39 0
999 -39 0
1000 -39 0
1001 -41 0
1002 -41 0
1003 -41 0
1004 -41 0
1005 -41 0
1006 -41 0
1007 -41 0
1008 -41 0
1009 -43 0
1010 -43 0
1011 -43 0
1012 -43 0
1013 -43 0
1014 -43 0
1015 -43 0
1016 -43 0
1017 -45 0
1018 -45 0
1019 -45 0
1020 -45 0
1021 -45 0
1022 -45 0
1023 -45 0
1024 -45 0
1025 -47 0
1026 -47 0
1027 -47 0
1028 -47 0
1029 -47 0
1030 -47 0
1031 -47 0
1032 -47 0
969 521 0
970 523 0
971 525 0
972 527 0
973 529 0
974 531 0
975 533 0
976 535 0
977 537 0
978 539 0
979 541 0
980 543 0
981 545 0
982 547 0
983 549 0
984 551 0
985 553 0
986 555 0
987 557 0
988 559 0
989 561 0
990 563 0
991 565 0
992 567 0
993 569 0
994 571 0
995 573 0
996 575 0
997 577 0
998 579 0
999 581 0
1000 583 0
1001 585 0
1002 587 0
1003 589 0
1004 591 0
1005 593 0
1006 595 0
1007 597 0
1008 599 0
1009 601 0
1010 603 0
1011 605 0
1012 607 0
1013 609 0
1014 611 0
1015 613 0
1016 615 0
1017 617 0
1018 619 0
1019 621 0
1020 623 0
1021 625 0
1022 627 0
1023 629 0
1024 631 0
1025 633 0
1026 635 0
1027 637 0
1028 639 0
1029 641 0
1030 643 0
1031 645 0
1032 647 0
969 393 0
970 395 0
971 397 0
972 399 0
973 401 0
974 403 0
975 405 0
976 407 0
977 409 0
978 411 0
979 413 0
980 415 0
981 417 0
982 419 0
983 421 0
984 423 0
985 425 0
986 427 0
987 429 0
988 431 0
989 433 0
990 435 0
991 437 0
992 439 0
993 441 0
994 443 0
995 445 0
996 447 0
997 449 0
998 451 0
999 453 0
1000 455 0
1001 457 0
1002 459 0
1003 461 0
1004 463 0
1005 465 0
1006 467 0
1007 469 0
1008 471 0
1009 473 0
1010 475 0
1011 477 0
1012 479 0
1013 481 0
1014 483 0
1015 485 0
1016 487 0
1017 489 0
1018 491 0
1019 493 0
1020 495 0
1021 497 0
1022 499 0
1023 501 0
1024 503 0
1025 505 0
1026 507 0
1027 509 0
1028 511 0
1029 513 0
1030 515 0
1031 517 0
1032 519 0
969 33 0
970 35 0
971 37 0
972 39 0
973 41 0
974 43 0
975 45 0
976 47 0
977 33 0
978 35 0
979 37 0
980 39 0
981 41 0
982 43 0
983 45 0
984 47 0
985 33 0
986 35 0
987 37 0
988 39 0
989 41 0
990 43 0
991 45 0
992 47 0
993 33 0
994 35 0
995 37 0
996 39 0
997 41 0
998 43 0
999 45 0
1000 47 0
1001 33 0
1002 35 0
1003 37 0
1004 39 0
1005 41 0
1006 43 0
1007 45 0
1008 47 0
1009 33 0
1010 35 0
1011 37 0
1012 39 0
1013 41 0
1014 43 0
1015 45 0
1016 47 0
1017 33 0
1018 35 0
1019 37 0
1020 39 0
1021 41 0
1022 43 0
1023 45 0
1024 47 0
1025 33 0
1026 35 0
1027 37 0
1028 39 0
1029 41 0
1030 43 0
1031 45 0
1032 47 0
33 -777 -649 -33 -1033 0
33 -779 -651 -35 -1034 0
33 -781 -653 -37 -1035 0
33 -783 -655 -39 -1036 0
33 -785 -657 -41 -1037 0
33 -787 -659 -43 -1038 0
33 -789 -661 -45 -1039 0
33 -791 -663 -47 -1040 0
35 -793 -665 -33 -1041 0
35 -795 -667 -35 -1042 0
35 -797 -669 -37 -1043 0
35 -799 -671 -39 -1044 0
35 -801 -673 -41 -1045 0
35 -803 -675 -43 -1046 0
35 -805 -677 -45 -1047 0
35 -807 -679 -47 -1048 0
37 -809 -681 -33 -1049 0
37 -811 -683 -35 -1050 0
37 -813 -685 -37 -1051 0
37 -815 -687 -39 -1052 0
37 -817 -689 -41 -1053 0
37 -819 -691 -43 -1054 0
37 -821 -693 -45 -1055 0
37 -823 -695 -47 -1056 0
39 -825 -697 -33 -1057 0
39 -827 -699 -35 -1058 0
39 -829 -701 -37 -1059 0
39 -831 -703 -39 -1060 0
39 -833 -705 -41 -1061 0
39 -835 -707 -43 -1062 0
39 -837 -709 -45 -1063 0
39 -839 -711 -47 -1064 0
41 -841 -713 -33 -1065 0
41 -843 -715 -35 -1066 0
41 -845 -717 -37 -1067 0
41 -847 -719 -39 -1068 0
41 -849 -721 -41 -1069 0
41 -851 -723 -43 -1070 0
41 -853 -725 -45 -1071 0
41 -855 -727 -47 -1072 0
43 -857 -729 -33 -1073 0
43 -859 -731 -35 -1074 0
43 -861 -733 -37 -1075 0
43 -863 -735 -39 -1076 0
43 -865 -737 -41 -1077 0
43 -867 -739 -43 -1078 0
43 -869 -741 -45 -1079 0
43 -871 -743 -47 -1080 0
45 -873 -745 -33 -1081 0
45 -875 -747 -35 -1082 0
45 -877 -749 -37 -1083 0
45 -879 -751 -39 -1084 0
45 -881 -753 -41 -1085 0
45 -883 -755 -43 -1086 0
45 -885 -757 -45 -1087 0
45 -887 -759 -47 -1088 0
47 -889 -761 -33 -1089 0
47 -891 -763 -35 -1090 0
47 -893 -765 -37 -1091 0
47 -895 -767 -39 -1092 0
47 -897 -769 -41 -1093 0
47 -899 -771 -43 -1094 0
47 -901 -773 -45 -1095 0
47 -903 -775 -47 -1096 0
1033 -33 0
1034 -33 0
1035 -33 0
1036 -33 0
1037 -33 0
1038 -33 0
1039 -33 0
1040 -33 0
1041 -35 0
1042 -35 0
1043 -35 0
1044 -35 0
1045 -35 0
1046 -35 0
1047 -35 0
1048 -35 0
1049 -37 0
1050 -37 0
1051 -37 0
1052 -37 0
1053 -37 0
1054 -37 0
1055 -37 0
1056 -37 0
1057 -39 0
1058 -39 0
1059 -39 0
1060 -39 0
1061 -39 0
1062 -39 0
1063 -39 0
1064 -39 0
1065 -41 0
1066 -41 0
1067 -41 0
1068 -41 0
1069 -41 0
1070 -41 0
1071 -41 0
1072 -41 0
1073 -43 0
1074 -43 0
1075 -43 0
1076 -43 0
1077 -43 0
1078 -43 0
1079 -43 0
1080 -43 0
1081 -45 0
1082 -45 0
1083 -45 0
1084 -45 0
1085 -45 0
1086 -45 0
1087 -45 0
1088 -45 0
1089 -47 0
1090 -47 0
1091 -47 0
1092 -47 0
1093 -47 0
1094 -47 0
1095 -47 0
1096 -47 0
1033 777 0
1034 779 0
1035 781 0
1036 783 0
1037 785 0
1038 787 0
1039 789 0
1040 791 0
1041 793 0
1042 795 0
1043 797 0
1044 799 0
1045 801 0
1046 803 0
1047 805 0
1048 807 0
1049 809 0
1050 811 0
1051 813 0
1052 815 0
1053 817 0
1054 819 0
1055 821 0
1056 823 0
1057 825 0
1058 827 0
1059 829 0
1060 831 0
1061 833 0
1062 835 0
1063 837 0
1064 839 0
1065 841 0
1066 843 0
1067 845 0
1068 847 0
1069 849 0
1070 851 0
1071 853 0
1072 855 0
1073 857 0
1074 859 0
1075 861 0
1076 863 0
1077 865 0
1078 867 0
1079 869 0
1080 871 0
1081 873 0
1082 875 0
1083 877 0
1084 879 0
1085 881 0
1086 883 0
1087 885 0
1088 887 0
1089 889 0
1090 891 0
1091 893 0
1092 895 0
1093 897 0
1094 899 0
1095 901 0
1096 903 0
1033 649 0
1034 651 0
1035 653 0
1036 655 0
1037 657 0
1038 659 0
1039 661 0
1040 663 0
1041 665 0
1042 667 0
1043 669 0
1044 671 0
1045 673 0
1046 675 0
1047 677 0
1048 679 0
1049 681 0
1050 683 0
1051 685 0
1052 687 0
1053 689 0
1054 691 0
1055 693 0
1056 695 0
1057 697 0
1058 699 0
1059 701 0
1060 703 0
1061 705 0
1062 707 0
1063 709 0
1064 711 0
1065 713 0
1066 715 0
1067 717 0
1068 719 0
1069 721 0
1070 723 0
1071 725 0
1072 727 0
1073 729 0
1074 731 0
1075 733 0
1076 735 0
1077 737 0
1078 739 0
1079 741 0
1080 743 0
1081 745 0
1082 747 0
1083 749 0
1084 751 0
1085 753 0
1086 755 0
1087 757 0
1088 759 0
1089 761 0
1090 763 0
1091 765 0
1092 767 0
1093 769 0
1094 771 0
1095 773 0
1096 775 0
1033 33 0
1034 35 0
1035 37 0
1036 39 0
1037 41 0
1038 43 0
1039 45 0
1040 47 0
1041 33 0
1042 35 0
1043 37 0
1044 39 0
1045 41 0
1046 43 0
1047 45 0
1048 47 0
1049 33 0
1050 35 0
1051 37 0
1052 39 0
1053 41 0
1054 43 0
1055 45 0
1056 47 0
1057 33 0
1058 35 0
1059 37 0
1060 39 0
1061 41 0
1062 43 0
1063 45 0
1064 47 0
1065 33 0
1066 35 0
1067 37 0
1068 39 0
1069 41 0
1070 43 0
1071 45 0
1072 47 0
1073 33 0
1074 35 0
1075 37 0
1076 39 0
1077 41 0
1078 43 0
1079 45 0
1080 47 0
1081 33 0
1082 35 0
1083 37 0
1084 39 0
1085 41 0
1086 43 0
1087 45 0
1088 47 0
1089 33 0
1090 35 0
1091 37 0
1092 39 0
1093 41 0
1094 43 0
1095 45 0
1096 47 0
-3 -25 -50 -65 -74 -266 -522 -778 -905 -969 -1033 1097 0
-6 -26 -52 -66 -76 -268 -524 -780 -906 -970 -1034 1098 0
-9 -27 -54 -67 -78 -270 -526 -782 -907 -971 -1035 1099 0
-12 -28 -56 -68 -80 -272 -528 -784 -908 -972 -1036 1100 0
-15 -29 -58 -69 -82 -274 -530 -786 -909 -973 -1037 1101 0
-18 -30 -60 -70 -84 -276 -532 -788 -910 -974 -1038 1102 0
-21 -31 -62 -71 -86 -278 -534 -790 -911 -975 -1039 1103 0
-24 -32 -64 -72 -88 -280 -536 -792 -912 -976 -1040 1104 0
-3 -25 -50 -65 -90 -282 -538 -794 -913 -977 -1041 1105 0
-6 -26 -52 -66 -92 -284 -540 -796 -914 -978 -1042 1106 0
-9 -27 -54 -67 -94 -286 -542 -798 -915 -979 -1043 1107 0
-12 -28 -56 -68 -96 -288 -544 -800 -916 -980 -1044 1108 0
-15 -29 -58 -69 -98 -290 -546 -802 -917 -981 -1045 1109 0
-18 -30 -60 -70 -100 -292 -548 -804 -918 -982 -1046 1110 0
-21 -31 -62 -71 -102 -294 -550 -806 -919 -983 -1047 1111 0
-24 -32 -64 -72 -104 -296 -552 -808 -920 -984 -1048 1112 0
-3 -25 -50 -65 -106 -298 -554 -810 -921 -985 -1049 1113 0
-6 -26 -52 -66 -108 -300 -556 -812 -922 -986 -1050 1114 0
-9 -27 -54 -67 -110 -302 -558 -814 -923 -987 -1051 1115 0
-12 -28 -56 -68 -112 -304 -560 -816 -924 -988 -1052 1116 0
-15 -29 -58 -69 -114 -306 -562 -818 -925 -989 -1053 1117 0
-18 -30 -60 -70 -116 -308 -564 -820 -926 -990 -1054 1118 0
-21 -31 -62 -71 -118 -310 -566 -822 -927 -991 -1055 1119 0
-24 -32 -64 -72 -120 -312 -568 -824 -928 -992 -1056 1120 0
-3 -25 -50 -65 -122 -314 -570 -826 -929 -993 -1057 1121 0
-6 -26 -52 -66 -124 -316 -572 -828 -930 -994 -1058 1122 0
-9 -27 -54 -67 -126 -318 -574 -830 -931 -995 -1059 1123 0
-12 -28 -56 -68 -128 -320 -576 -832 -932 -996 -1060 1124 0
-15 -29 -58 -69 -130 -322 -578 -834 -933 -997 -1061 1125 0
-18 -30 -60 -70 -132 -324 -580 -836 -934 -998 -1062 1126 0
-21 -31 -62 -71 -134 -326 -582 -838 -935 -999 -1063 1127 0
-24 -32 -64 -72 -136 -328 -584 -840 -936 -1000 -1064 1128 0
-3 -25 -50 -65 -138 -330 -586 -842 -937 -1001 -1065 1129 0
-6 -26 -52 -66 -140 -332 -588 -844 -938 -1002 -1066 1130 0
-9 -27 -54 -67 -142 -334 -590 -846 -939 -1003 -1067 1131 0
-12 -28 -56 -68 -144 -336 -592 -848 -940 -1004 -1068 1132 0
-15 -29 -58 -69 -146 -338 -594 -850 -941 -1005 -1069 1133 0
-18 -30 -60 -70 -148 -340 -596 -852 -942 -1006 -1070 1134 0
-21 -31 -62 -71 -150 -342 -598 -854 -943 -1007 -1071 1135 0
-24 -32 -64 -72 -152 -344 -600 -856 -944 -1008 -1072 1136 0
-3 -25 -50 -65 -154 -346 -602 -858 -945 -1009 -1073 1137 0
-6 -26 -52 -66 -156 -348 -604 -860 -946 -1010 -1074 1138 0
-9 -27 -54 -67 -158 -350 -606 -862 -947 -1011 -1075 1139 0
-12 -28 -56 -68 -160 -352 -608 -864 -948 -1012 -1076 1140 0
-15 -29 -58 -69 -162 -354 -610 -866 -949 -1013 -1077 1141 0
-18 -30 -60 -70 -164 -356 -612 -868 -950 -1014 -1078 1142 0
-21 -31 -62 -71 -166 -358 -614 -870 -951 -1015 -1079 1143 0
-24 -32 -64 -72 -168 -360 -616 -872 -952 -1016 -1080 1144 0
-3 -25 -50 -65 -170 -362 -618 -874 -953 -1017 -1081 1145 0
-6 -26 -52 -66 -172 -364 -620 -876 -954 -1018 -1082 1146 0
-9 -27 -54 -67 -174 -366 -622 -878 -955 -1019 -1083 1147 0
-12 -28 -56 -68 -176 -368 -624 -880 -956 -1020 -1084 1148 0
-15 -29 -58 -69 -178 -370 -626 -882 -957 -1021 -1085 1149 0
-18 -30 -60 -70 -180 -372 -628 -884 -958 -1022 -1086 1150 0
-21 -31 -62 -71 -182 -374 -630 -886 -959 -1023 -1087 1151 0
-24 -32 -64 -72 -184 -376 -632 -888 -960 -1024 -1088 1152 0
-3 -25 -50 -65 -186 -378 -634 -890 -961 -1025 -1089 1153 0
-6 -26 -52 -66 -188 -380 -636 -892 -962 -1026 -1090 1154 0
-9 -27 -54 -67 -190 -382 -638 -894 -963 -1027 -1091 1155 0
-12 -28 -56 -68 -192 -384 -640 -896 -964 -1028 -1092 1156 0
-15 -29 -58 -69 -194 -386 -642 -898 -965 -1029 -1093 1157 0
-18 -30 -60 -70 -196 -388 -644 -900 -966 -1030 -1094 1158 0
-21 -31 -62 -71 -198 -390 -646 -902 -967 -1031 -1095 1159 0
-24 -32 -64 -72 -200 -392 -648 -904 -968 -1032 -1096 1160 0
-1097 3 0
-1098 6 0
-1099 9 0
-1100 12 0
-1101 15 0
-1102 18 0
-1103 21 0
-1104 24 0
-1105 3 0
-1106 6 0
-1107 9 0
-1108 12 0
-1109 15 0
-1110 18 0
-1111 21 0
-1112 24 0
-1113 3 0
-1114 6 0
-1115 9 0
-1116 12 0
-1117 15 0
-1118 18 0
-1119 21 0
-1120 24 0
-1121 3 0
-1122 6 0
-1123 9 0
-1124 12 0
-1125 15 0
-1126 18 0
-1127 21 0
-1128 24 0
-1129 3 0
-1130 6 0
-1131 9 0
-1132 12 0
-1133 15 0
-1134 18 0
-1135 21 0
-1136 24 0
-1137 3 0
-1138 6 0
-1139 9 0
-1140 12 0
-1141 15 0
-1142 18 0
-1143 21 0
-1144 24 0
-1145 3 0
-1146 6 0
-1147 9 0
-1148 12 0
-1149 15 0
-1150 18 0
-1151 21 0
-1152 24 0
-1153 3 0
-1154 6 0
-1155 9 0
-1156 12 0
-1157 15 0
-1158 18 0
-1159 21 0
-1160 24 0
-1097 25 0
-1098 26 0
-1099 27 0
-1100 28 0
-1101 29 0
-1102 30 0
-1103 31 0
-1104 32 0
-1105 25 0
-1106 26 0
-1107 27 0
-1108 28 0
-1109 29 0
-1110 30 0
-1111 31 0
-1112 32 0
-1113 25 0
-1114 26 0
-1115 27 0
-1116 28 0
-1117 29 0
-1118 30 0
-1119 31 0
-1120 32 0
-1121 25 0
-1122 26 0
-1123 27 0
-1124 28 0
-1125 29 0
-1126 30 0
-1127 31 0
-1128 32 0
-1129 25 0
-1130 26 0
-1131 27 0
-1132 28 0
-1133 29 0
-1134 30 0
-1135 31 0
-1136 32 0
-1137 25 0
-1138 26 0
-1139 27 0
-1140 28 0
-1141 29 0
-1142 30 0
-1143 31 0
-1144 32 0
-1145 25 0
-1146 26 0
-1147 27 0
-1148 28 0
-1149 29 0
-1150 30 0
-1151 31 0
-1152 32 0
-1153 25 0
-1154 26 0
-1155 27 0
-1156 28 0
-1157 29 0
-1158 30 0
-1159 31 0
-1160 32 0
-1097 50 0
-1098 52 0
-1099 54 0
-1100 56 0
-1101 58 0
-1102 60 0
-1103 62 0
-1104 64 0
-1105 50 0
-1106 52 0
-1107 54 0
-1108 56 0
-1109 58 0
-1110 60 0
-1111 62 0
-1112 64 0
-1113 50 0
-1114 52 0
-1115 54 0
-1116 56 0
-1117 58 0
-1118 60 0
-1119 62 0
-1120 64 0
-1121 50 0
-1122 52 0
-1123 54 0
-1124 56 0
-1125 58 0
-1126 60 0
-1127 62 0
-1128 64 0
-1129 50 0
-1130 52 0
-1131 54 0
-1132 56 0
-1133 58 0
-1134 60 0
-1135 62 0
-1136 64 0
-1137 50 0
-1138 52 0
-1139 54 0
-1140 56 0
-1141 58 0
-1142 60 0
-1143 62 0
-1144 64 0
-1145 50 0
-1146 52 0
-1147 54 0
-1148 56 0
-1149 58 0
-1150 60 0
-1151 62 0
-1152 64 0
-1153 50 0
-1154 52 0
-1155 54 0
-1156 56 0
-1157 58 0
-1158 60 0
-1159 62 0
-1160 64 0
-1097 65 0
-1098 66 0
-1099 67 0
-1100 68 0
-1101 69 0
-1102 70 0
-1103 71 0
-1104 72 0
-1105 65 0
-1106 66 0
-1107 67 0
-1108 68 0
-1109 69 0
-1110 70 0
-1111 71 0
-1112 72 0
-1113 65 0
-1114 66 0
-1115 67 0
-1116 68 0
-1117 69 0
-1118 70 0
-1119 71 0
-1120 72 0
-1121 65 0
-1122 66 0
-1123 67 0
-1124 68 0
-1125 69 0
-1126 70 0
-1127 71 0
-1128 72 0
-1129 65 0
-1130 66 0
-1131 67 0
-1132 68 0
-1133 69 0
-1134 70 0
-1135 71 0
-1136 72 0
-1137 65 0
-1138 66 0
-1139 67 0
-1140 68 0
-1141 69 0
-1142 70 0
-1143 71 0
-1144 72 0
-1145 65 0
-1146 66 0
-1147 67 0
-1148 68 0
-1149 69 0
-1150 70 0
-1151 71 0
-1152 72 0
-1153 65 0
-1154 66 0
-1155 67 0
-1156 68 0
-1157 69 0
-1158 70 0
-1159 71 0
-1160 72 0
-1097 74 0
-1098 76 0
-1099 78 0
-1100 80 0
-1101 82 0
-1102 84 0
-1103 86 0
-1104 88 0
-1105 90 0
-1106 92 0
-1107 94 0
-1108 96 0
-1109 98 0
-1110 100 0
-1111 102 0
-1112 104 0
-1113 106 0
-1114 108 0
-1115 110 0
-1116 112 0
-1117 114 0
-1118 116 0
-1119 118 0
-1120 120 0
-1121 122 0
-1122 124 0
-1123 126 0
-1124 128 0
-1125 130 0
-1126 132 0
-1127 134 0
-1128 136 0
-1129 138 0
-1130 140 0
-1131 142 0
-1132 144 0
-1133 146 0
-1134 148 0
-1135 150 0
-1136 152 0
-1137 154 0
-1138 156 0
-1139 158 0
-1140 160 0
-1141 162 0
-1142 164 0
-1143 166 0
-1144 168 0
-1145 170 0
-1146 172 0
-1147 174 0
-1148 176 0
-1149 178 0
-1150 180 0
-1151 182 0
-1152 184 0
-1153 186 0
-1154 188 0
-1155 190 0
-1156 192 0
-1157 194 0
-1158 196 0
-1159 198 0
-1160 200 0
-1097 266 0
-1098 268 0
-1099 270 0
-1100 272 0
-1101 274 0
-1102 276 0
-1103 278 0
-1104 280 0
-1105 282 0
-1106 284 0
-1107 286 0
-1108 288 0
-1109 290 0
-1110 292 0
-1111 294 0
-1112 296 0
-1113 298 0
-1114 300 0
-1115 302 0
-1116 304 0
-1117 306 0
-1118 308 0
-1119 310 0
-1120 312 0
-1121 314 0
-1122 316 0
-1123 318 0
-1124 320 0
-1125 322 0
-1126 324 0
-1127 326 0
-1128 328 0
-1129 330 0
-1130 332 0
-1131 334 0
-1132 336 0
-1133 338 0
-1134 340 0
-1135 342 0
-1136 344 0
-1137 346 0
-1138 348 0
-1139 350 0
-1140 352 0
-1141 354 0
-1142 356 0
-1143 358 0
-1144 360 0
-1145 362 0
-1146 364 0
-1147 366 0
-1148 368 0
-1149 370 0
-1150 372 0
-1151 374 0
-1152 376 0
-1153 378 0
-1154 380 0
-1155 382 0
-1156 384 0
-1157 386 0
-1158 388 0
-1159 390 0
-1160 392 0
-1097 522 0
-1098 524 0
-1099 526 0
-1100 528 0
-1101 530 0
-1102 532 0
-1103 534 0
-1104 536 0
-1105 538 0
-1106 540 0
-1107 542 0
-1108 544 0
-1109 546 0
-1110 548 0
-1111 550 0
-1112 552 0
-1113 554 0
-1114 556 0
-1115 558 0
-1116 560 0
-1117 562 0
-1118 564 0
-1119 566 0
-1120 568 0
-1121 570 0
-1122 572 0
-1123 574 0
-1124 576 0
-1125 578 0
-1126 580 0
-1127 582 0
-1128 584 0
-1129 586 0
-1130 588 0
-1131 590 0
-1132 592 0
-1133 594 0
-1134 596 0
-1135 598 0
-1136 600 0
-1137 602 0
-1138 604 0
-1139 606 0
-1140 608 0
-1141 610 0
-1142 612 0
-1143 614 0
-1144 616 0
-1145 618 0
-1146 620 0
-1147 622 0
-1148 624 0
-1149 626 0
-1150 628 0
-1151 630 0
-1152 632 0
-1153 634 0
-1154 636 0
-1155 638 0
-1156 640 0
-1157 642 0
-1158 644 0
-1159 646 0
-1160 648 0
-1097 778 0
-1098 780 0
-1099 782 0
-1100 784 0
-1101 786 0
-1102 788 0
-1103 790 0
-1104 792 0
-1105 794 0
-1106 796 0
-1107 798 0
-1108 800 0
-1109 802 0
-1110 804 0
-1111 806 0
-1112 808 0
-1113 810 0
-1114 812 0
-1115 814 0
-1116 816 0
-1117 818 0
-1118 820 0
-1119 822 0
-1120 824 0
-1121 826 0
-1122 828 0
-1123 830 0
-1124 832 0
-1125 834 0
-1126 836 0
-1127 838 0
-1128 840 0
-1129 842 0
-1130 844 0
-1131 846 0
-1132 848 0
-1133 850 0
-1134 852 0
-1135 854 0
-1136 856 0
-1137 858 0
-1138 860 0
-1139 862 0
-1140 864 0
-1141 866 0
-1142 868 0
-1143 870 0
-1144 872 0
-1145 874 0
-1146 876 0
-1147 878 0
-1148 880 0
-1149 882 0
-1150 884 0
-1151 886 0
-1152 888 0
-1153 890 0
-1154 892 0
-1155 894 0
-1156 896 0
-1157 898 0
-1158 900 0
-1159 902 0
-1160 904 0
-1097 905 0
-1098 906 0
-1099 907 0
-1100 908 0
-1101 909 0
-1102 910 0
-1103 911 0
-1104 912 0
-1105 913 0
-1106 914 0
-1107 915 0
-1108 916 0
-1109 917 0
-1110 918 0
-1111 919 0
-1112 920 0
-1113 921 0
-1114 922 0
-1115 923 0
-1116 924 0
-1117 925 0
-1118 926 0
-1119 927 0
-1120 928 0
-1121 929 0
-1122 930 0
-1123 931 0
-1124 932 0
-1125 933 0
-1126 934 0
-1127 935 0
-1128 936 0
-1129 937 0
-1130 938 0
-1131 939 0
-1132 940 0
-1133 941 0
-1134 942 0
-1135 943 0
-1136 944 0
-1137 945 0
-1138 946 0
-1139 947 0
-1140 948 0
-1141 949 0
-1142 950 0
-1143 951 0
-1144 952 0
-1145 953 0
-1146 954 0
-1147 955 0
-1148 956 0
-1149 957 0
-1150 958 0
-1151 959 0
-1152 960 0
-1153 961 0
-1154 962 0
-1155 963 0
-1156 964 0
-1157 965 0
-1158 966 0
-1159 967 0
-1160 968 0
-1097 969 0
-1098 970 0
-1099 971 0
-1100 972 0
-1101 973 0
-1102 974 0
-1103 975 0
-1104 976 0
-1105 977 0
-1106 978 0
-1107 979 0
-1108 980 0
-1109 981 0
-1110 982 0
-1111 983 0
-1112 984 0
-1113 985 0
-1114 986 0
-1115 987 0
-1116 988 0
-1117 989 0
-1118 990 0
-1119 991 0
-1120 992 0
-1121 993 0
-1122 994 0
-1123 995 0
-1124 996 0
-1125 997 0
-1126 998 0
-1127 999 0
-1128 1000 0
-1129 1001 0
-1130 1002 0
-1131 1003 0
-1132 1004 0
-1133 1005 0
-1134 1006 0
-1135 1007 0
-1136 1008 0
-1137 1009 0
-1138 1010 0
-1139 1011 0
-1140 1012 0
-1141 1013 0
-1142 1014 0
-1143 1015 0
-1144 1016 0
-1145 1017 0
-1146 1018 0
-1147 1019 0
-1148 1020 0
-1149 1021 0
-1150 1022 0
-1151 1023 0
-1152 1024 0
-1153 1025 0
-1154 1026 0
-1155 1027 0
-1156 1028 0
-1157 1029 0
-1158 1030 0
-1159 1031 0
-1160 1032 0
-1097 1033 0
-1098 1034 0
-1099 1035 0
-1100 1036 0
-1101 1037 0
-1102 1038 0
-1103 1039 0
-1104 1040 0
-1105 1041 0
-1106 1042 0
-1107 1043 0
-1108 1044 0
-1109 1045 0
-1110 1046 0
-1111 1047 0
-1112 1048 0
-1113 1049 0
-1114 1050 0
-1115 1051 0
-1116 1052 0
-1117 1053 0
-1118 1054 0
-1119 1055 0
-1120 1056 0
-1121 1057 0
-1122 1058 0
-1123 1059 0
-1124 1060 0
-1125 1061 0
-1126 1062 0
-1127 1063 0
-1128 1064 0
-1129 1065 0
-1130 1066 0
-1131 1067 0
-1132 1068 0
-1133 1069 0
-1134 1070 0
-1135 1071 0
-1136 1072 0
-1137 1073 0
-1138 1074 0
-1139 1075 0
-1140 1076 0
-1141 1077 0
-1142 1078 0
-1143 1079 0
-1144 1080 0
-1145 1081 0
-1146 1082 0
-1147 1083 0
-1148 1084 0
-1149 1085 0
-1150 1086 0
-1151 1087 0
-1152 1088 0
-1153 1089 0
-1154 1090 0
-1155 1091 0
-1156 1092 0
-1157 1093 0
-1158 1094 0
-1159 1095 0
-1160 1096 0
1097 0
1098 0
1099 0
1100 0
1101 0
1102 0
1103 0
1104 0
1105 0
1106 0
1107 0
1108 0
1109 0
1110 0
1111 0
1112 0
1113 0
1114 0
1115 0
1116 0
1117 0
1118 0
1119 0
1120 0
1121 0
1122 0
1123 0
1124 0
1125 0
1126 0
1127 0
1128 0
1129 0
1130 0
1131 0
1132 0
1133 0
1134 0
1135 0
1136 0
1137 0
1138 0
1139 0
1140 0
1141 0
1142 0
1143 0
1144 0
1145 0
1146 0
1147 0
1148 0
1149 0
1150 0
1151 0
1152 0
1153 0
1154 0
1155 0
1156 0
1157 0
1158 0
1159 0
1160 0
1161 0
1162 1163 0
-1162 -1163 0
-1162 -1164 1165 0
-1162 -1166 1167 0
-1162 -1168 1169 0
-1162 -1170 1171 0
-1162 -1172 1173 0
-1162 -1174 1175 0
1165 1176 0
-1165 -1176 0
-1165 -1177 1162 0
-1165 -1178 1167 0
-1165 -1179 1169 0
-1165 -1180 1171 0
-1165 -1181 1173 0
-1165 -1182 1175 0
1167 1183 0
-1167 -1183 0
-1167 -1184 1162 0
-1167 -1185 1165 0
-1167 -1186 1169 0
-1167 -1187 1171 0
-1167 -1188 1173 0
-1167 -1189 1175 0
1169 1190 0
-1169 -1190 0
-1169 -1191 1162 0
-1169 -1192 1165 0
-1169 -1193 1167 0
-1169 -1194 1171 0
-1169 -1195 1173 0
-1169 -1196 1175 0
1171 1197 0
-1171 -1197 0
-1171 -1198 1162 0
-1171 -1199 1165 0
-1171 -1200 1167 0
-1171 -1201 1169 0
-1171 -1202 1173 0
-1171 -1203 1175 0
1173 1204 0
-1173 -1204 0
-1173 -1205 1162 0
-1173 -1206 1165 0
-1173 -1207 1167 0
-1173 -1208 1169 0
-1173 -1209 1171 0
-1173 -1210 1175 0
1175 1211 0
-1175 -1211 0
-1175 -1212 1162 0
-1175 -1213 1165 0
-1175 -1214 1167 0
-1175 -1215 1169 0
-1175 -1216 1171 0
-1175 -1217 1173 0
1218 0
1163 1162 0
-1163 -1162 0
-1163 -1165 1164 0
-1163 -1167 1166 0
-1163 -1169 1168 0
-1163 -1171 1170 0
-1163 -1173 1172 0
-1163 -1175 1174 0
1164 1177 0
-1164 -1177 0
-1164 -1176 1163 0
-1164 -1178 1166 0
-1164 -1179 1168 0
-1164 -1180 1170 0
-1164 -1181 1172 0
-1164 -1182 1174 0
1166 1184 0
-1166 -1184 0
-1166 -1183 1163 0
-1166 -1185 1164 0
-1166 -1186 1168 0
-1166 -1187 1170 0
-1166 -1188 1172 0
-1166 -1189 1174 0
1168 1191 0
-1168 -1191 0
-1168 -1190 1163 0
-1168 -1192 1164 0
-1168 -1193 1166 0
-1168 -1194 1170 0
-1168 -1195 1172 0
-1168 -1196 1174 0
1170 1198 0
-1170 -1198 0
-1170 -1197 1163 0
-1170 -1199 1164 0
-1170 -1200 1166 0
-1170 -1201 1168 0
-1170 -1202 1172 0
-1170 -1203 1174 0
1172 1205 0
-1172 -1205 0
-1172 -1204 1163 0
-1172 -1206 1164 0
-1172 -1207 1166 0
-1172 -1208 1168 0
-1172 -1209 1170 0
-1172 -1210 1174 0
1174 1212 0
-1174 -1212 0
-1174 -1211 1163 0
-1174 -1213 1164 0
-1174 -1214 1166 0
-1174 -1215 1168 0
-1174 -1216 1170 0
-1174 -1217 1172 0
1219 0
1176 1165 0
-1176 -1165 0
-1176 -1162 1177 0
-1176 -1167 1178 0
-1176 -1169 1179 0
-1176 -1171 1180 0
-1176 -1173 1181 0
-1176 -1175 1182 0
1177 1164 0
-1177 -1164 0
-1177 -1163 1176 0
-1177 -1166 1178 0
-1177 -1168 1179 0
-1177 -1170 1180 0
-1177 -1172 1181 0
-1177 -1174 1182 0
1178 1185 0
-1178 -1185 0
-1178 -1183 1176 0
-1178 -1184 1177 0
-1178 -1186 1179 0
-1178 -1187 1180 0
-1178 -1188 1181 0
-1178 -1189 1182 0
1179 1192 0
-1179 -1192 0
-1179 -1190 1176 0
-1179 -1191 1177 0
-1179 -1193 1178 0
-1179 -1194 1180 0
-1179 -1195 1181 0
-1179 -1196 1182 0
1180 1199 0
-1180 -1199 0
-1180 -1197 1176 0
-1180 -1198 1177 0
-1180 -1200 1178 0
-1180 -1201 1179 0
-1180 -1202 1181 0
-1180 -1203 1182 0
1181 1206 0
-1181 -1206 0
-1181 -1204 1176 0
-1181 -1205 1177 0
-1181 -1207 1178 0
-1181 -1208 1179 0
-1181 -1209 1180 0
-1181 -1210 1182 0
1182 1213 0
-1182 -1213 0
-1182 -1211 1176 0
-1182 -1212 1177 0
-1182 -1214 1178 0
-1182 -1215 1179 0
-1182 -1216 1180 0
-1182 -1217 1181 0
1220 0
1183 1167 0
-1183 -1167 0
-1183 -1162 1184 0
-1183 -1165 1185 0
-1183 -1169 1186 0
-1183 -1171 1187 0
-1183 -1173 1188 0
-1183 -1175 1189 0
1184 1166 0
-1184 -1166 0
-1184 -1163 1183 0
-1184 -1164 1185 0
-1184 -1168 1186 0
-1184 -1170 1187 0
-1184 -1172 1188 0
-1184 -1174 1189 0
1185 1178 0
-1185 -1178 0
-1185 -1176 1183 0
-1185 -1177 1184 0
-1185 -1179 1186 0
-1185 -1180 1187 0
-1185 -1181 1188 0
-1185 -1182 1189 0
1186 1193 0
-1186 -1193 0
-1186 -1190 1183 0
-1186 -1191 1184 0
-1186 -1192 1185 0
-1186 -1194 1187 0
-1186 -1195 1188 0
-1186 -1196 1189 0
1187 1200 0
-1187 -1200 0
-1187 -1197 1183 0
-1187 -1198 1184 0
-1187 -1199 1185 0
-1187 -1201 1186 0
-1187 -1202 1188 0
-1187 -1203 1189 0
1188 1207 0
-1188 -1207 0
-1188 -1204 1183 0
-1188 -1205 1184 0
-1188 -1206 1185 0
-1188 -1208 1186 0
-1188 -1209 1187 0
-1188 -1210 1189 0
1189 1214 0
-1189 -1214 0
-1189 -1211 1183 0
-1189 -1212 1184 0
-1189 -1213 1185 0
-1189 -1215 1186 0
-1189 -1216 1187 0
-1189 -1217 1188 0
1221 0
1190 1169 0
-1190 -1169 0
-1190 -1162 1191 0
-1190 -1165 1192 0
-1190 -1167 1193 0
-1190 -1171 1194 0
-1190 -1173 1195 0
-1190 -1175 1196 0
1191 1168 0
-1191 -1168 0
-1191 -1163 1190 0
-1191 -1164 1192 0
-1191 -1166 1193 0
-1191 -1170 1194 0
-1191 -1172 1195 0
-1191 -1174 1196 0
1192 1179 0
-1192 -1179 0
-1192 -1176 1190 0
-1192 -1177 1191 0
-1192 -1178 1193 0
-1192 -1180 1194 0
-1192 -1181 1195 0
-1192 -1182 1196 0
1193 1186 0
-1193 -1186 0
-1193 -1183 1190 0
-1193 -1184 1191 0
-1193 -1185 1192 0
-1193 -1187 1194 0
-1193 -1188 1195 0
-1193 -1189 1196 0
1194 1201 0
-1194 -1201 0
-1194 -1197 1190 0
-1194 -1198 1191 0
-1194 -1199 1192 0
-1194 -1200 1193 0
-1194 -1202 1195 0
-1194 -1203 1196 0
1195 1208 0
-1195 -1208 0
-1195 -1204 1190 0
-1195 -1205 1191 0
-1195 -1206 1192 0
-1195 -1207 1193 0
-1195 -1209 1194 0
-1195 -1210 1196 0
1196 1215 0
-1196 -1215 0
-1196 -1211 1190 0
-1196 -1212 1191 0
-1196 -1213 1192 0
-1196 -1214 1193 0
-1196 -1216 1194 0
-1196 -1217 1195 0
1222 0
1197 1171 0
-1197 -1171 0
-1197 -1162 1198 0
-1197 -1165 1199 0
-1197 -1167 1200 0
-1197 -1169 1201 0
-1197 -1173 1202 0
-1197 -1175 1203 0
1198 1170 0
-1198 -1170 0
-1198 -1163 1197 0
-1198 -1164 1199 0
-1198 -1166 1200 0
-1198 -1168 1201 0
-1198 -1172 1202 0
-1198 -1174 1203 0
1199 1180 0
-1199 -1180 0
-1199 -1176 1197 0
-1199 -1177 1198 0
-1199 -1178 1200 0
-1199 -1179 1201 0
-1199 -1181 1202 0
-1199 -1182 1203 0
1200 1187 0
-1200 -1187 0
-1200 -1183 1197 0
-1200 -1184 1198 0
-1200 -1185 1199 0
-1200 -1186 1201 0
-1200 -1188 1202 0
-1200 -1189 1203 0
1201 1194 0
-1201 -1194 0
-1201 -1190 1197 0
-1201 -1191 1198 0
-1201 -1192 1199 0
-1201 -1193 1200 0
-1201 -1195 1202 0
-1201 -1196 1203 0
1202 1209 0
-1202 -1209 0
-1202 -1204 1197 0
-1202 -1205 1198 0
-1202 -1206 1199 0
-1202 -1207 1200 0
-1202 -1208 1201 0
-1202 -1210 1203 0
1203 1216 0
-1203 -1216 0
-1203 -1211 1197 0
-1203 -1212 1198 0
-1203 -1213 1199 0
-1203 -1214 1200 0
-1203 -1215 1201 0
-1203 -1217 1202 0
1223 0
1204 1173 0
-1204 -1173 0
-1204 -1162 1205 0
-1204 -1165 1206 0
-1204 -1167 1207 0
-1204 -1169 1208 0
-1204 -1171 1209 0
-1204 -1175 1210 0
1205 1172 0
-1205 -1172 0
-1205 -1163 1204 0
-1205 -1164 1206 0
-1205 -1166 1207 0
-1205 -1168 1208 0
-1205 -1170 1209 0
-1205 -1174 1210 0
1206 1181 0
-1206 -1181 0
-1206 -1176 1204 0
-1206 -1177 1205 0
-1206 -1178 1207 0
-1206 -1179 1208 0
-1206 -1180 1209 0
-1206 -1182 1210 0
1207 1188 0
-1207 -1188 0
-1207 -1183 1204 0
-1207 -1184 1205 0
-1207 -1185 1206 0
-1207 -1186 1208 0
-1207 -1187 1209 0
-1207 -1189 1210 0
1208 1195 0
-1208 -1195 0
-1208 -1190 1204 0
-1208 -1191 1205 0
-1208 -1192 1206 0
-1208 -1193 1207 0
-1208 -1194 1209 0
-1208 -1196 1210 0
1209 1202 0
-1209 -1202 0
-1209 -1197 1204 0
-1209 -1198 1205 0
-1209 -1199 1206 0
-1209 -1200 1207 0
-1209 -1201 1208 0
-1209 -1203 1210 0
1210 1217 0
-1210 -1217 0
-1210 -1211 1204 0
-1210 -1212 1205 0
-1210 -1213 1206 0
-1210 -1214 1207 0
-1210 -1215 1208 0
-1210 -1216 1209 0
1224 0
1211 1175 0
-1211 -1175 0
-1211 -1162 1212 0
-1211 -1165 1213 0
-1211 -1167 1214 0
-1211 -1169 1215 0
-1211 -1171 1216 0
-1211 -1173 1217 0
1212 1174 0
-1212 -1174 0
-1212 -1163 1211 0
-1212 -1164 1213 0
-1212 -1166 1214 0
-1212 -1168 1215 0
-1212 -1170 1216 0
-1212 -1172 1217 0
1213 1182 0
-1213 -1182 0
-1213 -1176 1211 0
-1213 -1177 1212 0
-1213 -1178 1214 0
-1213 -1179 1215 0
-1213 -1180 1216 0
-1213 -1181 1217 0
1214 1189 0
-1214 -1189 0
-1214 -1183 1211 0
-1214 -1184 1212 0
-1214 -1185 1213 0
-1214 -1186 1215 0
-1214 -1187 1216 0
-1214 -1188 1217 0
1215 1196 0
-1215 -1196 0
-1215 -1190 1211 0
-1215 -1191 1212 0
-1215 -1192 1213 0
-1215 -1193 1214 0
-1215 -1194 1216 0
-1215 -1195 1217 0
1216 1203 0
-1216 -1203 0
-1216 -1197 1211 0
-1216 -1198 1212 0
-1216 -1199 1213 0
-1216 -1200 1214 0
-1216 -1201 1215 0
-1216 -1202 1217 0
1217 1210 0
-1217 -1210 0
-1217 -1204 1211 0
-1217 -1205 1212 0
-1217 -1206 1213 0
-1217 -1207 1214 0
-1217 -1208 1215 0
-1217 -1209 1216 0
-73 0
-89 1162 0
-1225 1165 0
-1225 1177 0
-1165 -1177 1225 0
-1226 1167 0
-1226 1184 0
-1167 -1184 1226 0
-1227 1169 0
-1227 1191 0
-1169 -1191 1227 0
-1228 1171 0
-1228 1198 0
-1171 -1198 1228 0
-1229 1173 0
-1229 1205 0
-1173 -1205 1229 0
-1230 1175 0
-1230 1212 0
-1175 -1212 1230 0
-89 -1225 0
-89 -1226 0
-89 -1227 0
-89 -1228 0
-89 -1229 0
-89 -1230 0
-1162 89 1225 1226 1227 1228 1229 1230 0
-105 1165 0
-1231 1162 0
-1231 1164 0
-1162 -1164 1231 0
-1232 1167 0
-1232 1185 0
-1167 -1185 1232 0
-1233 1169 0
-1233 1192 0
-1169 -1192 1233 0
-1234 1171 0
-1234 1199 0
-1171 -1199 1234 0
-1235 1173 0
-1235 1206 0
-1173 -1206 1235 0
-1236 1175 0
-1236 1213 0
-1175 -1213 1236 0
-105 -1231 0
-105 -1232 0
-105 -1233 0
-105 -1234 0
-105 -1235 0
-105 -1236 0
-1165 105 1231 1232 1233 1234 1235 1236 0
-121 1167 0
-1237 1162 0
-1237 1166 0
-1162 -1166 1237 0
-1238 1165 0
-1238 1178 0
-1165 -1178 1238 0
-1239 1169 0
-1239 1193 0
-1169 -1193 1239 0
-1240 1171 0
-1240 1200 0
-1171 -1200 1240 0
-1241 1173 0
-1241 1207 0
-1173 -1207 1241 0
-1242 1175 0
-1242 1214 0
-1175 -1214 1242 0
-121 -1237 0
-121 -1238 0
-121 -1239 0
-121 -1240 0
-121 -1241 0
-121 -1242 0
-1167 121 1237 1238 1239 1240 1241 1242 0
-137 1169 0
-1243 1162 0
-1243 1168 0
-1162 -1168 1243 0
-1244 1165 0
-1244 1179 0
-1165 -1179 1244 0
-1245 1167 0
-1245 1186 0
-1167 -1186 1245 0
-1246 1171 0
-1246 1201 0
-1171 -1201 1246 0
-1247 1173 0
-1247 1208 0
-1173 -1208 1247 0
-1248 1175 0
-1248 1215 0
-1175 -1215 1248 0
-137 -1243 0
-137 -1244 0
-137 -1245 0
-137 -1246 0
-137 -1247 0
-137 -1248 0
-1169 137 1243 1244 1245 1246 1247 1248 0
-153 1171 0
-1249 1162 0
-1249 1170 0
-1162 -1170 1249 0
-1250 1165 0
-1250 1180 0
-1165 -1180 1250 0
-1251 1167 0
-1251 1187 0
-1167 -1187 1251 0
-1252 1169 0
-1252 1194 0
-1169 -1194 1252 0
-1253 1173 0
-1253 1209 0
-1173 -1209 1253 0
-1254 1175 0
-1254 1216 0
-1175 -1216 1254 0
-153 -1249 0
-153 -1250 0
-153 -1251 0
-153 -1252 0
-153 -1253 0
-153 -1254 0
-1171 153 1249 1250 1251 1252 1253 1254 0
-169 1173 0
-1255 1162 0
-1255 1172 0
-1162 -1172 1255 0
-1256 1165 0
-1256 1181 0
-1165 -1181 1256 0
-1257 1167 0
-1257 1188 0
-1167 -1188 1257 0
-1258 1169 0
-1258 1195 0
-1169 -1195 1258 0
-1259 1171 0
-1259 1202 0
-1171 -1202 1259 0
-1260 1175 0
-1260 1217 0
-1175 -1217 1260 0
-169 -1255 0
-169 -1256 0
-169 -1257 0
-169 -1258 0
-169 -1259 0
-169 -1260 0
-1173 169 1255 1256 1257 1258 1259 1260 0
-185 1175 0
-1261 1162 0
-1261 1174 0
-1162 -1174 1261 0
-1262 1165 0
-1262 1182 0
-1165 -1182 1262 0
-1263 1167 0
-1263 1189 0
-1167 -1189 1263 0
-1264 1169 0
-1264 1196 0
-1169 -1196 1264 0
-1265 1171 0
-1265 1203 0
-1171 -1203 1265 0
-1266 1173 0
-1266 1210 0
-1173 -1210 1266 0
-185 -1261 0
-185 -1262 0
-185 -1263 0
-185 -1264 0
-185 -1265 0
-185 -1266 0
-1175 185 1261 1262 1263 1264 1265 1266 0
-75 1163 0
-1267 1164 0
-1267 1176 0
-1164 -1176 1267 0
-1268 1166 0
-1268 1183 0
-1166 -1183 1268 0
-1269 1168 0
-1269 1190 0
-1168 -1190 1269 0
-1270 1170 0
-1270 1197 0
-1170 -1197 1270 0
-1271 1172 0
-1271 1204 0
-1172 -1204 1271 0
-1272 1174 0
-1272 1211 0
-1174 -1211 1272 0
-75 -1267 0
-75 -1268 0
-75 -1269 0
-75 -1270 0
-75 -1271 0
-75 -1272 0
-1163 75 1267 1268 1269 1270 1271 1272 0
-91 0
-107 1164 0
-1273 1163 0
-1273 1165 0
-1163 -1165 1273 0
-1274 1166 0
-1274 1185 0
-1166 -1185 1274 0
-1275 1168 0
-1275 1192 0
-1168 -1192 1275 0
-1276 1170 0
-1276 1199 0
-1170 -1199 1276 0
-1277 1172 0
-1277 1206 0
-1172 -1206 1277 0
-1278 1174 0
-1278 1213 0
-1174 -1213 1278 0
-107 -1273 0
-107 -1274 0
-107 -1275 0
-107 -1276 0
-107 -1277 0
-107 -1278 0
-1164 107 1273 1274 1275 1276 1277 1278 0
-123 1166 0
-1279 1163 0
-1279 1167 0
-1163 -1167 1279 0
-1280 1164 0
-1280 1178 0
-1164 -1178 1280 0
-1281 1168 0
-1281 1193 0
-1168 -1193 1281 0
-1282 1170 0
-1282 1200 0
-1170 -1200 1282 0
-1283 1172 0
-1283 1207 0
-1172 -1207 1283 0
-1284 1174 0
-1284 1214 0
-1174 -1214 1284 0
-123 -1279 0
-123 -1280 0
-123 -1281 0
-123 -1282 0
-123 -1283 0
-123 -1284 0
-1166 123 1279 1280 1281 1282 1283 1284 0
-139 1168 0
-1285 1163 0
-1285 1169 0
-1163 -1169 1285 0
-1286 1164 0
-1286 1179 0
-1164 -1179 1286 0
-1287 1166 0
-1287 1186 0
-1166 -1186 1287 0
-1288 1170 0
-1288 1201 0
-1170 -1201 1288 0
-1289 1172 0
-1289 1208 0
-1172 -1208 1289 0
-1290 1174 0
-1290 1215 0
-1174 -1215 1290 0
-139 -1285 0
-139 -1286 0
-139 -1287 0
-139 -1288 0
-139 -1289 0
-139 -1290 0
-1168 139 1285 1286 1287 1288 1289 1290 0
-155 1170 0
-1291 1163 0
-1291 1171 0
-1163 -1171 1291 0
-1292 1164 0
-1292 1180 0
-1164 -1180 1292 0
-1293 1166 0
-1293 1187 0
-1166 -1187 1293 0
-1294 1168 0
-1294 1194 0
-1168 -1194 1294 0
-1295 1172 0
-1295 1209 0
-1172 -1209 1295 0
-1296 1174 0
-1296 1216 0
-1174 -1216 1296 0
-155 -1291 0
-155 -1292 0
-155 -1293 0
-155 -1294 0
-155 -1295 0
-155 -1296 0
-1170 155 1291 1292 1293 1294 1295 1296 0
-171 1172 0
-1297 1163 0
-1297 1173 0
-1163 -1173 1297 0
-1298 1164 0
-1298 1181 0
-1164 -1181 1298 0
-1299 1166 0
-1299 1188 0
-1166 -1188 1299 0
-1300 1168 0
-1300 1195 0
-1168 -1195 1300 0
-1301 1170 0
-1301 1202 0
-1170 -1202 1301 0
-1302 1174 0
-1302 1217 0
-1174 -1217 1302 0
-171 -1297 0
-171 -1298 0
-171 -1299 0
-171 -1300 0
-171 -1301 0
-171 -1302 0
-1172 171 1297 1298 1299 1300 1301 1302 0
-187 1174 0
-1303 1163 0
-1303 1175 0
-1163 -1175 1303 0
-1304 1164 0
-1304 1182 0
-1164 -1182 1304 0
-1305 1166 0
-1305 1189 0
-1166 -1189 1305 0
-1306 1168 0
-1306 1196 0
-1168 -1196 1306 0
-1307 1170 0
-1307 1203 0
-1170 -1203 1307 0
-1308 1172 0
-1308 1210 0
-1172 -1210 1308 0
-187 -1303 0
-187 -1304 0
-187 -1305 0
-187 -1306 0
-187 -1307 0
-187 -1308 0
-1174 187 1303 1304 1305 1306 1307 1308 0
-77 1176 0
-1309 1177 0
-1309 1163 0
-1177 -1163 1309 0
-1310 1178 0
-1310 1183 0
-1178 -1183 1310 0
-1311 1179 0
-1311 1190 0
-1179 -1190 1311 0
-1312 1180 0
-1312 1197 0
-1180 -1197 1312 0
-1313 1181 0
-1313 1204 0
-1181 -1204 1313 0
-1314 1182 0
-1314 1211 0
-1182 -1211 1314 0
-77 -1309 0
-77 -1310 0
-77 -1311 0
-77 -1312 0
-77 -1313 0
-77 -1314 0
-1176 77 1309 1310 1311 1312 1313 1314 0
-93 1177 0
-1315 1176 0
-1315 1162 0
-1176 -1162 1315 0
-1316 1178 0
-1316 1184 0
-1178 -1184 1316 0
-1317 1179 0
-1317 1191 0
-1179 -1191 1317 0
-1318 1180 0
-1318 1198 0
-1180 -1198 1318 0
-1319 1181 0
-1319 1205 0
-1181 -1205 1319 0
-1320 1182 0
-1320 1212 0
-1182 -1212 1320 0
-93 -1315 0
-93 -1316 0
-93 -1317 0
-93 -1318 0
-93 -1319 0
-93 -1320 0
-1177 93 1315 1316 1317 1318 1319 1320 0
-109 0
-125 1178 0
-1321 1176 0
-1321 1167 0
-1176 -1167 1321 0
-1322 1177 0
-1322 1166 0
-1177 -1166 1322 0
-1323 1179 0
-1323 1193 0
-1179 -1193 1323 0
-1324 1180 0
-1324 1200 0
-1180 -1200 1324 0
-1325 1181 0
-1325 1207 0
-1181 -1207 1325 0
-1326 1182 0
-1326 1214 0
-1182 -1214 1326 0
-125 -1321 0
-125 -1322 0
-125 -1323 0
-125 -1324 0
-125 -1325 0
-125 -1326 0
-1178 125 1321 1322 1323 1324 1325 1326 0
-141 1179 0
-1327 1176 0
-1327 1169 0
-1176 -1169 1327 0
-1328 1177 0
-1328 1168 0
-1177 -1168 1328 0
-1329 1178 0
-1329 1186 0
-1178 -1186 1329 0
-1330 1180 0
-1330 1201 0
-1180 -1201 1330 0
-1331 1181 0
-1331 1208 0
-1181 -1208 1331 0
-1332 1182 0
-1332 1215 0
-1182 -1215 1332 0
-141 -1327 0
-141 -1328 0
-141 -1329 0
-141 -1330 0
-141 -1331 0
-141 -1332 0
-1179 141 1327 1328 1329 1330 1331 1332 0
-157 1180 0
-1333 1176 0
-1333 1171 0
-1176 -1171 1333 0
-1334 1177 0
-1334 1170 0
-1177 -1170 1334 0
-1335 1178 0
-1335 1187 0
-1178 -1187 1335 0
-1336 1179 0
-1336 1194 0
-1179 -1194 1336 0
-1337 1181 0
-1337 1209 0
-1181 -1209 1337 0
-1338 1182 0
-1338 1216 0
-1182 -1216 1338 0
-157 -1333 0
-157 -1334 0
-157 -1335 0
-157 -1336 0
-157 -1337 0
-157 -1338 0
-1180 157 1333 1334 1335 1336 1337 1338 0
-173 1181 0
-1339 1176 0
-1339 1173 0
-1176 -1173 1339 0
-1340 1177 0
-1340 1172 0
-1177 -1172 1340 0
-1341 1178 0
-1341 1188 0
-1178 -1188 1341 0
-1342 1179 0
-1342 1195 0
-1179 -1195 1342 0
-1343 1180 0
-1343 1202 0
-1180 -1202 1343 0
-1344 1182 0
-1344 1217 0
-1182 -1217 1344 0
-173 -1339 0
-173 -1340 0
-173 -1341 0
-173 -1342 0
-173 -1343 0
-173 -1344 0
-1181 173 1339 1340 1341 1342 1343 1344 0
-189 1182 0
-1345 1176 0
-1345 1175 0
-1176 -1175 1345 0
-1346 1177 0
-1346 1174 0
-1177 -1174 1346 0
-1347 1178 0
-1347 1189 0
-1178 -1189 1347 0
-1348 1179 0
-1348 1196 0
-1179 -1196 1348 0
-1349 1180 0
-1349 1203 0
-1180 -1203 1349 0
-1350 1181 0
-1350 1210 0
-1181 -1210 1350 0
-189 -1345 0
-189 -1346 0
-189 -1347 0
-189 -1348 0
-189 -1349 0
-189 -1350 0
-1182 189 1345 1346 1347 1348 1349 1350 0
-79 1183 0
-1351 1184 0
-1351 1163 0
-1184 -1163 1351 0
-1352 1185 0
-1352 1176 0
-1185 -1176 1352 0
-1353 1186 0
-1353 1190 0
-1186 -1190 1353 0
-1354 1187 0
-1354 1197 0
-1187 -1197 1354 0
-1355 1188 0
-1355 1204 0
-1188 -1204 1355 0
-1356 1189 0
-1356 1211 0
-1189 -1211 1356 0
-79 -1351 0
-79 -1352 0
-79 -1353 0
-79 -1354 0
-79 -1355 0
-79 -1356 0
-1183 79 1351 1352 1353 1354 1355 1356 0
-95 1184 0
-1357 1183 0
-1357 1162 0
-1183 -1162 1357 0
-1358 1185 0
-1358 1177 0
-1185 -1177 1358 0
-1359 1186 0
-1359 1191 0
-1186 -1191 1359 0
-1360 1187 0
-1360 1198 0
-1187 -1198 1360 0
-1361 1188 0
-1361 1205 0
-1188 -1205 1361 0
-1362 1189 0
-1362 1212 0
-1189 -1212 1362 0
-95 -1357 0
-95 -1358 0
-95 -1359 0
-95 -1360 0
-95 -1361 0
-95 -1362 0
-1184 95 1357 1358 1359 1360 1361 1362 0
-111 1185 0
-1363 1183 0
-1363 1165 0
-1183 -1165 1363 0
-1364 1184 0
-1364 1164 0
-1184 -1164 1364 0
-1365 1186 0
-1365 1192 0
-1186 -1192 1365 0
-1366 1187 0
-1366 1199 0
-1187 -1199 1366 0
-1367 1188 0
-1367 1206 0
-1188 -1206 1367 0
-1368 1189 0
-1368 1213 0
-1189 -1213 1368 0
-111 -1363 0
-111 -1364 0
-111 -1365 0
-111 -1366 0
-111 -1367 0
-111 -1368 0
-1185 111 1363 1364 1365 1366 1367 1368 0
-127 0
-143 1186 0
-1369 1183 0
-1369 1169 0
-1183 -1169 1369 0
-1370 1184 0
-1370 1168 0
-1184 -1168 1370 0
-1371 1185 0
-1371 1179 0
-1185 -1179 1371 0
-1372 1187 0
-1372 1201 0
-1187 -1201 1372 0
-1373 1188 0
-1373 1208 0
-1188 -1208 1373 0
-1374 1189 0
-1374 1215 0
-1189 -1215 1374 0
-143 -1369 0
-143 -1370 0
-143 -1371 0
-143 -1372 0
-143 -1373 0
-143 -1374 0
-1186 143 1369 1370 1371 1372 1373 1374 0
-159 1187 0
-1375 1183 0
-1375 1171 0
-1183 -1171 1375 0
-1376 1184 0
-1376 1170 0
-1184 -1170 1376 0
-1377 1185 0
-1377 1180 0
-1185 -1180 1377 0
-1378 1186 0
-1378 1194 0
-1186 -1194 1378 0
-1379 1188 0
-1379 1209 0
-1188 -1209 1379 0
-1380 1189 0
-1380 1216 0
-1189 -1216 1380 0
-159 -1375 0
-159 -1376 0
-159 -1377 0
-159 -1378 0
-159 -1379 0
-159 -1380 0
-1187 159 1375 1376 1377 1378 1379 1380 0
-175 1188 0
-1381 1183 0
-1381 1173 0
-1183 -1173 1381 0
-1382 1184 0
-1382 1172 0
-1184 -1172 1382 0
-1383 1185 0
-1383 1181 0
-1185 -1181 1383 0
-1384 1186 0
-1384 1195 0
-1186 -1195 1384 0
-1385 1187 0
-1385 1202 0
-1187 -1202 1385 0
-1386 1189 0
-1386 1217 0
-1189 -1217 1386 0
-175 -1381 0
-175 -1382 0
-175 -1383 0
-175 -1384 0
-175 -1385 0
-175 -1386 0
-1188 175 1381 1382 1383 1384 1385 1386 0
-191 1189 0
-1387 1183 0
-1387 1175 0
-1183 -1175 1387 0
-1388 1184 0
-1388 1174 0
-1184 -1174 1388 0
-1389 1185 0
-1389 1182 0
-1185 -1182 1389 0
-1390 1186 0
-1390 1196 0
-1186 -1196 1390 0
-1391 1187 0
-1391 1203 0
-1187 -1203 1391 0
-1392 1188 0
-1392 1210 0
-1188 -1210 1392 0
-191 -1387 0
-191 -1388 0
-191 -1389 0
-191 -1390 0
-191 -1391 0
-191 -1392 0
-1189 191 1387 1388 1389 1390 1391 1392 0
-81 1190 0
-1393 1191 0
-1393 1163 0
-1191 -1163 1393 0
-1394 1192 0
-1394 1176 0
-1192 -1176 1394 0
-1395 1193 0
-1395 1183 0
-1193 -1183 1395 0
-1396 1194 0
-1396 1197 0
-1194 -1197 1396 0
-1397 1195 0
-1397 1204 0
-1195 -1204 1397 0
-1398 1196 0
-1398 1211 0
-1196 -1211 1398 0
-81 -1393 0
-81 -1394 0
-81 -1395 0
-81 -1396 0
-81 -1397 0
-81 -1398 0
-1190 81 1393 1394 1395 1396 1397 1398 0
-97 1191 0
-1399 1190 0
-1399 1162 0
-1190 -1162 1399 0
-1400 1192 0
-1400 1177 0
-1192 -1177 1400 0
-1401 1193 0
-1401 1184 0
-1193 -1184 1401 0
-1402 1194 0
-1402 1198 0
-1194 -1198 1402 0
-1403 1195 0
-1403 1205 0
-1195 -1205 1403 0
-1404 1196 0
-1404 1212 0
-1196 -1212 1404 0
-97 -1399 0
-97 -1400 0
-97 -1401 0
-97 -1402 0
-97 -1403 0
-97 -1404 0
-1191 97 1399 1400 1401 1402 1403 1404 0
-113 1192 0
-1405 1190 0
-1405 1165 0
-1190 -1165 1405 0
-1406 1191 0
-1406 1164 0
-1191 -1164 1406 0
-1407 1193 0
-1407 1185 0
-1193 -1185 1407 0
-1408 1194 0
-1408 1199 0
-1194 -1199 1408 0
-1409 1195 0
-1409 1206 0
-1195 -1206 1409 0
-1410 1196 0
-1410 1213 0
-1196 -1213 1410 0
-113 -1405 0
-113 -1406 0
-113 -1407 0
-113 -1408 0
-113 -1409 0
-113 -1410 0
-1192 113 1405 1406 1407 1408 1409 1410 0
-129 1193 0
-1411 1190 0
-1411 1167 0
-1190 -1167 1411 0
-1412 1191 0
-1412 1166 0
-1191 -1166 1412 0
-1413 1192 0
-1413 1178 0
-1192 -1178 1413 0
-1414 1194 0
-1414 1200 0
-1194 -1200 1414 0
-1415 1195 0
-1415 1207 0
-1195 -1207 1415 0
-1416 1196 0
-1416 1214 0
-1196 -1214 1416 0
-129 -1411 0
-129 -1412 0
-129 -1413 0
-129 -1414 0
-129 -1415 0
-129 -1416 0
-1193 129 1411 1412 1413 1414 1415 1416 0
-145 0
-161 1194 0
-1417 1190 0
-1417 1171 0
-1190 -1171 1417 0
-1418 1191 0
-1418 1170 0
-1191 -1170 1418 0
-1419 1192 0
-1419 1180 0
-1192 -1180 1419 0
-1420 1193 0
-1420 1187 0
-1193 -1187 1420 0
-1421 1195 0
-1421 1209 0
-1195 -1209 1421 0
-1422 1196 0
-1422 1216 0
-1196 -1216 1422 0
-161 -1417 0
-161 -1418 0
-161 -1419 0
-161 -1420 0
-161 -1421 0
-161 -1422 0
-1194 161 1417 1418 1419 1420 1421 1422 0
-177 1195 0
-1423 1190 0
-1423 1173 0
-1190 -1173 1423 0
-1424 1191 0
-1424 1172 0
-1191 -1172 1424 0
-1425 1192 0
-1425 1181 0
-1192 -1181 1425 0
-1426 1193 0
-1426 1188 0
-1193 -1188 1426 0
-1427 1194 0
-1427 1202 0
-1194 -1202 1427 0
-1428 1196 0
-1428 1217 0
-1196 -1217 1428 0
-177 -1423 0
-177 -1424 0
-177 -1425 0
-177 -1426 0
-177 -1427 0
-177 -1428 0
-1195 177 1423 1424 1425 1426 1427 1428 0
-193 1196 0
-1429 1190 0
-1429 1175 0
-1190 -1175 1429 0
-1430 1191 0
-1430 1174 0
-1191 -1174 1430 0
-1431 1192 0
-1431 1182 0
-1192 -1182 1431 0
-1432 1193 0
-1432 1189 0
-1193 -1189 1432 0
-1433 1194 0
-1433 1203 0
-1194 -1203 1433 0
-1434 1195 0
-1434 1210 0
-1195 -1210 1434 0
-193 -1429 0
-193 -1430 0
-193 -1431 0
-193 -1432 0
-193 -1433 0
-193 -1434 0
-1196 193 1429 1430 1431 1432 1433 1434 0
-83 1197 0
-1435 1198 0
-1435 1163 0
-1198 -1163 1435 0
-1436 1199 0
-1436 1176 0
-1199 -1176 1436 0
-1437 1200 0
-1437 1183 0
-1200 -1183 1437 0
-1438 1201 0
-1438 1190 0
-1201 -1190 1438 0
-1439 1202 0
-1439 1204 0
-1202 -1204 1439 0
-1440 1203 0
-1440 1211 0
-1203 -1211 1440 0
-83 -1435 0
-83 -1436 0
-83 -1437 0
-83 -1438 0
-83 -1439 0
-83 -1440 0
-1197 83 1435 1436 1437 1438 1439 1440 0
-99 1198 0
-1441 1197 0
-1441 1162 0
-1197 -1162 1441 0
-1442 1199 0
-1442 1177 0
-1199 -1177 1442 0
-1443 1200 0
-1443 1184 0
-1200 -1184 1443 0
-1444 1201 0
-1444 1191 0
-1201 -1191 1444 0
-1445 1202 0
-1445 1205 0
-1202 -1205 1445 0
-1446 1203 0
-1446 1212 0
-1203 -1212 1446 0
-99 -1441 0
-99 -1442 0
-99 -1443 0
-99 -1444 0
-99 -1445 0
-99 -1446 0
-1198 99 1441 1442 1443 1444 1445 1446 0
-115 1199 0
-1447 1197 0
-1447 1165 0
-1197 -1165 1447 0
-1448 1198 0
-1448 1164 0
-1198 -1164 1448 0
-1449 1200 0
-1449 1185 0
-1200 -1185 1449 0
-1450 1201 0
-1450 1192 0
-1201 -1192 1450 0
-1451 1202 0
-1451 1206 0
-1202 -1206 1451 0
-1452 1203 0
-1452 1213 0
-1203 -1213 1452 0
-115 -1447 0
-115 -1448 0
-115 -1449 0
-115 -1450 0
-115 -1451 0
-115 -1452 0
-1199 115 1447 1448 1449 1450 1451 1452 0
-131 1200 0
-1453 1197 0
-1453 1167 0
-1197 -1167 1453 0
-1454 1198 0
-1454 1166 0
-1198 -1166 1454 0
-1455 1199 0
-1455 1178 0
-1199 -1178 1455 0
-1456 1201 0
-1456 1193 0
-1201 -1193 1456 0
-1457 1202 0
-1457 1207 0
-1202 -1207 1457 0
-1458 1203 0
-1458 1214 0
-1203 -1214 1458 0
-131 -1453 0
-131 -1454 0
-131 -1455 0
-131 -1456 0
-131 -1457 0
-131 -1458 0
-1200 131 1453 1454 1455 1456 1457 1458 0
-147 1201 0
-1459 1197 0
-1459 1169 0
-1197 -1169 1459 0
-1460 1198 0
-1460 1168 0
-1198 -1168 1460 0
-1461 1199 0
-1461 1179 0
-1199 -1179 1461 0
-1462 1200 0
-1462 1186 0
-1200 -1186 1462 0
-1463 1202 0
-1463 1208 0
-1202 -1208 1463 0
-1464 1203 0
-1464 1215 0
-1203 -1215 1464 0
-147 -1459 0
-147 -1460 0
-147 -1461 0
-147 -1462 0
-147 -1463 0
-147 -1464 0
-1201 147 1459 1460 1461 1462 1463 1464 0
-163 0
-179 1202 0
-1465 1197 0
-1465 1173 0
-1197 -1173 1465 0
-1466 1198 0
-1466 1172 0
-1198 -1172 1466 0
-1467 1199 0
-1467 1181 0
-1199 -1181 1467 0
-1468 1200 0
-1468 1188 0
-1200 -1188 1468 0
-1469 1201 0
-1469 1195 0
-1201 -1195 1469 0
-1470 1203 0
-1470 1217 0
-1203 -1217 1470 0
-179 -1465 0
-179 -1466 0
-179 -1467 0
-179 -1468 0
-179 -1469 0
-179 -1470 0
-1202 179 1465 1466 1467 1468 1469 1470 0
-195 1203 0
-1471 1197 0
-1471 1175 0
-1197 -1175 1471 0
-1472 1198 0
-1472 1174 0
-1198 -1174 1472 0
-1473 1199 0
-1473 1182 0
-1199 -1182 1473 0
-1474 1200 0
-1474 1189 0
-1200 -1189 1474 0
-1475 1201 0
-1475 1196 0
-1201 -1196 1475 0
-1476 1202 0
-1476 1210 0
-1202 -1210 1476 0
-195 -1471 0
-195 -1472 0
-195 -1473 0
-195 -1474 0
-195 -1475 0
-195 -1476 0
-1203 195 1471 1472 1473 1474 1475 1476 0
-85 1204 0
-1477 1205 0
-1477 1163 0
-1205 -1163 1477 0
-1478 1206 0
-1478 1176 0
-1206 -1176 1478 0
-1479 1207 0
-1479 1183 0
-1207 -1183 1479 0
-1480 1208 0
-1480 1190 0
-1208 -1190 1480 0
-1481 1209 0
-1481 1197 0
-1209 -1197 1481 0
-1482 1210 0
-1482 1211 0
-1210 -1211 1482 0
-85 -1477 0
-85 -1478 0
-85 -1479 0
-85 -1480 0
-85 -1481 0
-85 -1482 0
-1204 85 1477 1478 1479 1480 1481 1482 0
-101 1205 0
-1483 1204 0
-1483 1162 0
-1204 -1162 1483 0
-1484 1206 0
-1484 1177 0
-1206 -1177 1484 0
-1485 1207 0
-1485 1184 0
-1207 -1184 1485 0
-1486 1208 0
-1486 1191 0
-1208 -1191 1486 0
-1487 1209 0
-1487 1198 0
-1209 -1198 1487 0
-1488 1210 0
-1488 1212 0
-1210 -1212 1488 0
-101 -1483 0
-101 -1484 0
-101 -1485 0
-101 -1486 0
-101 -1487 0
-101 -1488 0
-1205 101 1483 1484 1485 1486 1487 1488 0
-117 1206 0
-1489 1204 0
-1489 1165 0
-1204 -1165 1489 0
-1490 1205 0
-1490 1164 0
-1205 -1164 1490 0
-1491 1207 0
-1491 1185 0
-1207 -1185 1491 0
-1492 1208 0
-1492 1192 0
-1208 -1192 1492 0
-1493 1209 0
-1493 1199 0
-1209 -1199 1493 0
-1494 1210 0
-1494 1213 0
-1210 -1213 1494 0
-117 -1489 0
-117 -1490 0
-117 -1491 0
-117 -1492 0
-117 -1493 0
-117 -1494 0
-1206 117 1489 1490 1491 1492 1493 1494 0
-133 1207 0
-1495 1204 0
-1495 1167 0
-1204 -1167 1495 0
-1496 1205 0
-1496 1166 0
-1205 -1166 1496 0
-1497 1206 0
-1497 1178 0
-1206 -1178 1497 0
-1498 1208 0
-1498 1193 0
-1208 -1193 1498 0
-1499 1209 0
-1499 1200 0
-1209 -1200 1499 0
-1500 1210 0
-1500 1214 0
-1210 -1214 1500 0
-133 -1495 0
-133 -1496 0
-133 -1497 0
-133 -1498 0
-133 -1499 0
-133 -1500 0
-1207 133 1495 1496 1497 1498 1499 1500 0
-149 1208 0
-1501 1204 0
-1501 1169 0
-1204 -1169 1501 0
-1502 1205 0
-1502 1168 0
-1205 -1168 1502 0
-1503 1206 0
-1503 1179 0
-1206 -1179 1503 0
-1504 1207 0
-1504 1186 0
-1207 -1186 1504 0
-1505 1209 0
-1505 1201 0
-1209 -1201 1505 0
-1506 1210 0
-1506 1215 0
-1210 -1215 1506 0
-149 -1501 0
-149 -1502 0
-149 -1503 0
-149 -1504 0
-149 -1505 0
-149 -1506 0
-1208 149 1501 1502 1503 1504 1505 1506 0
-165 1209 0
-1507 1204 0
-1507 1171 0
-1204 -1171 1507 0
-1508 1205 0
-1508 1170 0
-1205 -1170 1508 0
-1509 1206 0
-1509 1180 0
-1206 -1180 1509 0
-1510 1207 0
-1510 1187 0
-1207 -1187 1510 0
-1511 1208 0
-1511 1194 0
-1208 -1194 1511 0
-1512 1210 0
-1512 1216 0
-1210 -1216 1512 0
-165 -1507 0
-165 -1508 0
-165 -1509 0
-165 -1510 0
-165 -1511 0
-165 -1512 0
-1209 165 1507 1508 1509 1510 1511 1512 0
-181 0
-197 1210 0
-1513 1204 0
-1513 1175 0
-1204 -1175 1513 0
-1514 1205 0
-1514 1174 0
-1205 -1174 1514 0
-1515 1206 0
-1515 1182 0
-1206 -1182 1515 0
-1516 1207 0
-1516 1189 0
-1207 -1189 1516 0
-1517 1208 0
-1517 1196 0
-1208 -1196 1517 0
-1518 1209 0
-1518 1203 0
-1209 -1203 1518 0
-197 -1513 0
-197 -1514 0
-197 -1515 0
-197 -1516 0
-197 -1517 0
-197 -1518 0
-1210 197 1513 1514 1515 1516 1517 1518 0
-87 1211 0
-1519 1212 0
-1519 1163 0
-1212 -1163 1519 0
-1520 1213 0
-1520 1176 0
-1213 -1176 1520 0
-1521 1214 0
-1521 1183 0
-1214 -1183 1521 0
-1522 1215 0
-1522 1190 0
-1215 -1190 1522 0
-1523 1216 0
-1523 1197 0
-1216 -1197 1523 0
-1524 1217 0
-1524 1204 0
-1217 -1204 1524 0
-87 -1519 0
-87 -1520 0
-87 -1521 0
-87 -1522 0
-87 -1523 0
-87 -1524 0
-1211 87 1519 1520 1521 1522 1523 1524 0
-103 1212 0
-1525 1211 0
-1525 1162 0
-1211 -1162 1525 0
-1526 1213 0
-1526 1177 0
-1213 -1177 1526 0
-1527 1214 0
-1527 1184 0
-1214 -1184 1527 0
-1528 1215 0
-1528 1191 0
-1215 -1191 1528 0
-1529 1216 0
-1529 1198 0
-1216 -1198 1529 0
-1530 1217 0
-1530 1205 0
-1217 -1205 1530 0
-103 -1525 0
-103 -1526 0
-103 -1527 0
-103 -1528 0
-103 -1529 0
-103 -1530 0
-1212 103 1525 1526 1527 1528 1529 1530 0
-119 1213 0
-1531 1211 0
-1531 1165 0
-1211 -1165 1531 0
-1532 1212 0
-1532 1164 0
-1212 -1164 1532 0
-1533 1214 0
-1533 1185 0
-1214 -1185 1533 0
-1534 1215 0
-1534 1192 0
-1215 -1192 1534 0
-1535 1216 0
-1535 1199 0
-1216 -1199 1535 0
-1536 1217 0
-1536 1206 0
-1217 -1206 1536 0
-119 -1531 0
-119 -1532 0
-119 -1533 0
-119 -1534 0
-119 -1535 0
-119 -1536 0
-1213 119 1531 1532 1533 1534 1535 1536 0
-135 1214 0
-1537 1211 0
-1537 1167 0
-1211 -1167 1537 0
-1538 1212 0
-1538 1166 0
-1212 -1166 1538 0
-1539 1213 0
-1539 1178 0
-1213 -1178 1539 0
-1540 1215 0
-1540 1193 0
-1215 -1193 1540 0
-1541 1216 0
-1541 1200 0
-1216 -1200 1541 0
-1542 1217 0
-1542 1207 0
-1217 -1207 1542 0
-135 -1537 0
-135 -1538 0
-135 -1539 0
-135 -1540 0
-135 -1541 0
-135 -1542 0
-1214 135 1537 1538 1539 1540 1541 1542 0
-151 1215 0
-1543 1211 0
-1543 1169 0
-1211 -1169 1543 0
-1544 1212 0
-1544 1168 0
-1212 -1168 1544 0
-1545 1213 0
-1545 1179 0
-1213 -1179 1545 0
-1546 1214 0
-1546 1186 0
-1214 -1186 1546 0
-1547 1216 0
-1547 1201 0
-1216 -1201 1547 0
-1548 1217 0
-1548 1208 0
-1217 -1208 1548 0
-151 -1543 0
-151 -1544 0
-151 -1545 0
-151 -1546 0
-151 -1547 0
-151 -1548 0
-1215 151 1543 1544 1545 1546 1547 1548 0
-167 1216 0
-1549 1211 0
-1549 1171 0
-1211 -1171 1549 0
-1550 1212 0
-1550 1170 0
-1212 -1170 1550 0
-1551 1213 0
-1551 1180 0
-1213 -1180 1551 0
-1552 1214 0
-1552 1187 0
-1214 -1187 1552 0
-1553 1215 0
-1553 1194 0
-1215 -1194 1553 0
-1554 1217 0
-1554 1209 0
-1217 -1209 1554 0
-167 -1549 0
-167 -1550 0
-167 -1551 0
-167 -1552 0
-167 -1553 0
-167 -1554 0
-1216 167 1549 1550 1551 1552 1553 1554 0
-183 1217 0
-1555 1211 0
-1555 1173 0
-1211 -1173 1555 0
-1556 1212 0
-1556 1172 0
-1212 -1172 1556 0
-1557 1213 0
-1557 1181 0
-1213 -1181 1557 0
-1558 1214 0
-1558 1188 0
-1214 -1188 1558 0
-1559 1215 0
-1559 1195 0
-1215 -1195 1559 0
-1560 1216 0
-1560 1202 0
-1216 -1202 1560 0
-183 -1555 0
-183 -1556 0
-183 -1557 0
-183 -1558 0
-183 -1559 0
-183 -1560 0
-1217 183 1555 1556 1557 1558 1559 1560 0
-199 0
