p cnf 1430 6290
1 1 -2 0
1 3 -4 0
1 5 -6 0
1 7 -8 0
1 9 -10 0
1 11 -12 0
1 13 -14 0
1 15 -16 0
1 17 -18 0
1 19 -20 0
3 1 -21 0
3 3 -22 0
3 5 -23 0
3 7 -24 0
3 9 -25 0
3 11 -26 0
3 13 -27 0
3 15 -28 0
3 17 -29 0
3 19 -30 0
5 1 -31 0
5 3 -32 0
5 5 -33 0
5 7 -34 0
5 9 -35 0
5 11 -36 0
5 13 -37 0
5 15 -38 0
5 17 -39 0
5 19 -40 0
7 1 -41 0
7 3 -42 0
7 5 -43 0
7 7 -44 0
7 9 -45 0
7 11 -46 0
7 13 -47 0
7 15 -48 0
7 17 -49 0
7 19 -50 0
9 1 -51 0
9 3 -52 0
9 5 -53 0
9 7 -54 0
9 9 -55 0
9 11 -56 0
9 13 -57 0
9 15 -58 0
9 17 -59 0
9 19 -60 0
11 1 -61 0
11 3 -62 0
11 5 -63 0
11 7 -64 0
11 9 -65 0
11 11 -66 0
11 13 -67 0
11 15 -68 0
11 17 -69 0
11 19 -70 0
13 1 -71 0
13 3 -72 0
13 5 -73 0
13 7 -74 0
13 9 -75 0
13 11 -76 0
13 13 -77 0
13 15 -78 0
13 17 -79 0
13 19 -80 0
15 1 -81 0
15 3 -82 0
15 5 -83 0
15 7 -84 0
15 9 -85 0
15 11 -86 0
15 13 -87 0
15 15 -88 0
15 17 -89 0
15 19 -90 0
17 1 -91 0
17 3 -92 0
17 5 -93 0
17 7 -94 0
17 9 -95 0
17 11 -96 0
17 13 -97 0
17 15 -98 0
17 17 -99 0
17 19 -100 0
19 1 -101 0
19 3 -102 0
19 5 -103 0
19 7 -104 0
19 9 -105 0
19 11 -106 0
19 13 -107 0
19 15 -108 0
19 17 -109 0
19 19 -110 0
2 -1 0
4 -1 0
6 -1 0
8 -1 0
10 -1 0
12 -1 0
14 -1 0
16 -1 0
18 -1 0
20 -1 0
21 -3 0
22 -3 0
23 -3 0
24 -3 0
25 -3 0
26 -3 0
27 -3 0
28 -3 0
29 -3 0
30 -3 0
31 -5 0
32 -5 0
33 -5 0
34 -5 0
35 -5 0
36 -5 0
37 -5 0
38 -5 0
39 -5 0
40 -5 0
41 -7 0
42 -7 0
43 -7 0
44 -7 0
45 -7 0
46 -7 0
47 -7 0
48 -7 0
49 -7 0
50 -7 0
51 -9 0
52 -9 0
53 -9 0
54 -9 0
55 -9 0
56 -9 0
57 -9 0
58 -9 0
59 -9 0
60 -9 0
61 -11 0
62 -11 0
63 -11 0
64 -11 0
65 -11 0
66 -11 0
67 -11 0
68 -11 0
69 -11 0
70 -11 0
71 -13 0
72 -13 0
73 -13 0
74 -13 0
75 -13 0
76 -13 0
77 -13 0
78 -13 0
79 -13 0
80 -13 0
81 -15 0
82 -15 0
83 -15 0
84 -15 0
85 -15 0
86 -15 0
87 -15 0
88 -15 0
89 -15 0
90 -15 0
91 -17 0
92 -17 0
93 -17 0
94 -17 0
95 -17 0
96 -17 0
97 -17 0
98 -17 0
99 -17 0
100 -17 0
101 -19 0
102 -19 0
103 -19 0
104 -19 0
105 -19 0
106 -19 0
107 -19 0
108 -19 0
109 -19 0
110 -19 0
2 -1 0
4 -3 0
6 -5 0
8 -7 0
10 -9 0
12 -11 0
14 -13 0
16 -15 0
18 -17 0
20 -19 0
21 -1 0
22 -3 0
23 -5 0
24 -7 0
25 -9 0
26 -11 0
27 -13 0
28 -15 0
29 -17 0
30 -19 0
31 -1 0
32 -3 0
33 -5 0
34 -7 0
35 -9 0
36 -11 0
37 -13 0
38 -15 0
39 -17 0
40 -19 0
41 -1 0
42 -3 0
43 -5 0
44 -7 0
45 -9 0
46 -11 0
47 -13 0
48 -15 0
49 -17 0
50 -19 0
51 -1 0
52 -3 0
53 -5 0
54 -7 0
55 -9 0
56 -11 0
57 -13 0
58 -15 0
59 -17 0
60 -19 0
61 -1 0
62 -3 0
63 -5 0
64 -7 0
65 -9 0
66 -11 0
67 -13 0
68 -15 0
69 -17 0
70 -19 0
71 -1 0
72 -3 0
73 -5 0
74 -7 0
75 -9 0
76 -11 0
77 -13 0
78 -15 0
79 -17 0
80 -19 0
81 -1 0
82 -3 0
83 -5 0
84 -7 0
85 -9 0
86 -11 0
87 -13 0
88 -15 0
89 -17 0
90 -19 0
91 -1 0
92 -3 0
93 -5 0
94 -7 0
95 -9 0
96 -11 0
97 -13 0
98 -15 0
99 -17 0
100 -19 0
101 -1 0
102 -3 0
103 -5 0
104 -7 0
105 -9 0
106 -11 0
107 -13 0
108 -15 0
109 -17 0
110 -19 0
-1 -1 -111 0
-1 -3 -112 0
-1 -5 -113 0
-1 -7 -114 0
-1 -9 -115 0
-1 -11 -116 0
-1 -13 -117 0
-1 -15 -118 0
-1 -17 -119 0
-1 -19 -120 0
-3 -1 -121 0
-3 -3 -122 0
-3 -5 -123 0
-3 -7 -124 0
-3 -9 -125 0
-3 -11 -126 0
-3 -13 -127 0
-3 -15 -128 0
-3 -17 -129 0
-3 -19 -130 0
-5 -1 -131 0
-5 -3 -132 0
-5 -5 -133 0
-5 -7 -134 0
-5 -9 -135 0
-5 -11 -136 0
-5 -13 -137 0
-5 -15 -138 0
-5 -17 -139 0
-5 -19 -140 0
-7 -1 -141 0
-7 -3 -142 0
-7 -5 -143 0
-7 -7 -144 0
-7 -9 -145 0
-7 -11 -146 0
-7 -13 -147 0
-7 -15 -148 0
-7 -17 -149 0
-7 -19 -150 0
-9 -1 -151 0
-9 -3 -152 0
-9 -5 -153 0
-9 -7 -154 0
-9 -9 -155 0
-9 -11 -156 0
-9 -13 -157 0
-9 -15 -158 0
-9 -17 -159 0
-9 -19 -160 0
-11 -1 -161 0
-11 -3 -162 0
-11 -5 -163 0
-11 -7 -164 0
-11 -9 -165 0
-11 -11 -166 0
-11 -13 -167 0
-11 -15 -168 0
-11 -17 -169 0
-11 -19 -170 0
-13 -1 -171 0
-13 -3 -172 0
-13 -5 -173 0
-13 -7 -174 0
-13 -9 -175 0
-13 -11 -176 0
-13 -13 -177 0
-13 -15 -178 0
-13 -17 -179 0
-13 -19 -180 0
-15 -1 -181 0
-15 -3 -182 0
-15 -5 -183 0
-15 -7 -184 0
-15 -9 -185 0
-15 -11 -186 0
-15 -13 -187 0
-15 -15 -188 0
-15 -17 -189 0
-15 -19 -190 0
-17 -1 -191 0
-17 -3 -192 0
-17 -5 -193 0
-17 -7 -194 0
-17 -9 -195 0
-17 -11 -196 0
-17 -13 -197 0
-17 -15 -198 0
-17 -17 -199 0
-17 -19 -200 0
-19 -1 -201 0
-19 -3 -202 0
-19 -5 -203 0
-19 -7 -204 0
-19 -9 -205 0
-19 -11 -206 0
-19 -13 -207 0
-19 -15 -208 0
-19 -17 -209 0
-19 -19 -210 0
111 1 0
112 1 0
113 1 0
114 1 0
115 1 0
116 1 0
117 1 0
118 1 0
119 1 0
120 1 0
121 3 0
122 3 0
123 3 0
124 3 0
125 3 0
126 3 0
127 3 0
128 3 0
129 3 0
130 3 0
131 5 0
132 5 0
133 5 0
134 5 0
135 5 0
136 5 0
137 5 0
138 5 0
139 5 0
140 5 0
141 7 0
142 7 0
143 7 0
144 7 0
145 7 0
146 7 0
147 7 0
148 7 0
149 7 0
150 7 0
151 9 0
152 9 0
153 9 0
154 9 0
155 9 0
156 9 0
157 9 0
158 9 0
159 9 0
160 9 0
161 11 0
162 11 0
163 11 0
164 11 0
165 11 0
166 11 0
167 11 0
168 11 0
169 11 0
170 11 0
171 13 0
172 13 0
173 13 0
174 13 0
175 13 0
176 13 0
177 13 0
178 13 0
179 13 0
180 13 0
181 15 0
182 15 0
183 15 0
184 15 0
185 15 0
186 15 0
187 15 0
188 15 0
189 15 0
190 15 0
191 17 0
192 17 0
193 17 0
194 17 0
195 17 0
196 17 0
197 17 0
198 17 0
199 17 0
200 17 0
201 19 0
202 19 0
203 19 0
204 19 0
205 19 0
206 19 0
207 19 0
208 19 0
209 19 0
210 19 0
111 1 0
112 3 0
113 5 0
114 7 0
115 9 0
116 11 0
117 13 0
118 15 0
119 17 0
120 19 0
121 1 0
122 3 0
123 5 0
124 7 0
125 9 0
126 11 0
127 13 0
128 15 0
129 17 0
130 19 0
131 1 0
132 3 0
133 5 0
134 7 0
135 9 0
136 11 0
137 13 0
138 15 0
139 17 0
140 19 0
141 1 0
142 3 0
143 5 0
144 7 0
145 9 0
146 11 0
147 13 0
148 15 0
149 17 0
150 19 0
151 1 0
152 3 0
153 5 0
154 7 0
155 9 0
156 11 0
157 13 0
158 15 0
159 17 0
160 19 0
161 1 0
162 3 0
163 5 0
164 7 0
165 9 0
166 11 0
167 13 0
168 15 0
169 17 0
170 19 0
171 1 0
172 3 0
173 5 0
174 7 0
175 9 0
176 11 0
177 13 0
178 15 0
179 17 0
180 19 0
181 1 0
182 3 0
183 5 0
184 7 0
185 9 0
186 11 0
187 13 0
188 15 0
189 17 0
190 19 0
191 1 0
192 3 0
193 5 0
194 7 0
195 9 0
196 11 0
197 13 0
198 15 0
199 17 0
200 19 0
201 1 0
202 3 0
203 5 0
204 7 0
205 9 0
206 11 0
207 13 0
208 15 0
209 17 0
210 19 0
-2 -111 211 0
-4 -112 212 0
-6 -113 213 0
-8 -114 214 0
-10 -115 215 0
-12 -116 216 0
-14 -117 217 0
-16 -118 218 0
-18 -119 219 0
-20 -120 220 0
-21 -121 221 0
-22 -122 222 0
-23 -123 223 0
-24 -124 224 0
-25 -125 225 0
-26 -126 226 0
-27 -127 227 0
-28 -128 228 0
-29 -129 229 0
-30 -130 230 0
-31 -131 231 0
-32 -132 232 0
-33 -133 233 0
-34 -134 234 0
-35 -135 235 0
-36 -136 236 0
-37 -137 237 0
-38 -138 238 0
-39 -139 239 0
-40 -140 240 0
-41 -141 241 0
-42 -142 242 0
-43 -143 243 0
-44 -144 244 0
-45 -145 245 0
-46 -146 246 0
-47 -147 247 0
-48 -148 248 0
-49 -149 249 0
-50 -150 250 0
-51 -151 251 0
-52 -152 252 0
-53 -153 253 0
-54 -154 254 0
-55 -155 255 0
-56 -156 256 0
-57 -157 257 0
-58 -158 258 0
-59 -159 259 0
-60 -160 260 0
-61 -161 261 0
-62 -162 262 0
-63 -163 263 0
-64 -164 264 0
-65 -165 265 0
-66 -166 266 0
-67 -167 267 0
-68 -168 268 0
-69 -169 269 0
-70 -170 270 0
-71 -171 271 0
-72 -172 272 0
-73 -173 273 0
-74 -174 274 0
-75 -175 275 0
-76 -176 276 0
-77 -177 277 0
-78 -178 278 0
-79 -179 279 0
-80 -180 280 0
-81 -181 281 0
-82 -182 282 0
-83 -183 283 0
-84 -184 284 0
-85 -185 285 0
-86 -186 286 0
-87 -187 287 0
-88 -188 288 0
-89 -189 289 0
-90 -190 290 0
-91 -191 291 0
-92 -192 292 0
-93 -193 293 0
-94 -194 294 0
-95 -195 295 0
-96 -196 296 0
-97 -197 297 0
-98 -198 298 0
-99 -199 299 0
-100 -200 300 0
-101 -201 301 0
-102 -202 302 0
-103 -203 303 0
-104 -204 304 0
-105 -205 305 0
-106 -206 306 0
-107 -207 307 0
-108 -208 308 0
-109 -209 309 0
-110 -210 310 0
-211 2 0
-212 4 0
-213 6 0
-214 8 0
-215 10 0
-216 12 0
-217 14 0
-218 16 0
-219 18 0
-220 20 0
-221 21 0
-222 22 0
-223 23 0
-224 24 0
-225 25 0
-226 26 0
-227 27 0
-228 28 0
-229 29 0
-230 30 0
-231 31 0
-232 32 0
-233 33 0
-234 34 0
-235 35 0
-236 36 0
-237 37 0
-238 38 0
-239 39 0
-240 40 0
-241 41 0
-242 42 0
-243 43 0
-244 44 0
-245 45 0
-246 46 0
-247 47 0
-248 48 0
-249 49 0
-250 50 0
-251 51 0
-252 52 0
-253 53 0
-254 54 0
-255 55 0
-256 56 0
-257 57 0
-258 58 0
-259 59 0
-260 60 0
-261 61 0
-262 62 0
-263 63 0
-264 64 0
-265 65 0
-266 66 0
-267 67 0
-268 68 0
-269 69 0
-270 70 0
-271 71 0
-272 72 0
-273 73 0
-274 74 0
-275 75 0
-276 76 0
-277 77 0
-278 78 0
-279 79 0
-280 80 0
-281 81 0
-282 82 0
-283 83 0
-284 84 0
-285 85 0
-286 86 0
-287 87 0
-288 88 0
-289 89 0
-290 90 0
-291 91 0
-292 92 0
-293 93 0
-294 94 0
-295 95 0
-296 96 0
-297 97 0
-298 98 0
-299 99 0
-300 100 0
-301 101 0
-302 102 0
-303 103 0
-304 104 0
-305 105 0
-306 106 0
-307 107 0
-308 108 0
-309 109 0
-310 110 0
-211 111 0
-212 112 0
-213 113 0
-214 114 0
-215 115 0
-216 116 0
-217 117 0
-218 118 0
-219 119 0
-220 120 0
-221 121 0
-222 122 0
-223 123 0
-224 124 0
-225 125 0
-226 126 0
-227 127 0
-228 128 0
-229 129 0
-230 130 0
-231 131 0
-232 132 0
-233 133 0
-234 134 0
-235 135 0
-236 136 0
-237 137 0
-238 138 0
-239 139 0
-240 140 0
-241 141 0
-242 142 0
-243 143 0
-244 144 0
-245 145 0
-246 146 0
-247 147 0
-248 148 0
-249 149 0
-250 150 0
-251 151 0
-252 152 0
-253 153 0
-254 154 0
-255 155 0
-256 156 0
-257 157 0
-258 158 0
-259 159 0
-260 160 0
-261 161 0
-262 162 0
-263 163 0
-264 164 0
-265 165 0
-266 166 0
-267 167 0
-268 168 0
-269 169 0
-270 170 0
-271 171 0
-272 172 0
-273 173 0
-274 174 0
-275 175 0
-276 176 0
-277 177 0
-278 178 0
-279 179 0
-280 180 0
-281 181 0
-282 182 0
-283 183 0
-284 184 0
-285 185 0
-286 186 0
-287 187 0
-288 188 0
-289 189 0
-290 190 0
-291 191 0
-292 192 0
-293 193 0
-294 194 0
-295 195 0
-296 196 0
-297 197 0
-298 198 0
-299 199 0
-300 200 0
-301 201 0
-302 202 0
-303 203 0
-304 204 0
-305 205 0
-306 206 0
-307 207 0
-308 208 0
-309 209 0
-310 210 0
-311 -312 211 -313 0
-314 -315 212 -316 0
-317 -318 213 -319 0
-320 -321 214 -322 0
-323 -324 215 -325 0
-326 -327 216 -328 0
-329 -330 217 -331 0
-332 -333 218 -334 0
-335 -336 219 -337 0
-338 -339 220 -340 0
-341 -342 221 -343 0
-344 -345 222 -346 0
-347 -348 223 -349 0
-350 -351 224 -352 0
-353 -354 225 -355 0
-356 -357 226 -358 0
-359 -360 227 -361 0
-362 -363 228 -364 0
-365 -366 229 -367 0
-368 -369 230 -370 0
-371 -372 231 -373 0
-374 -375 232 -376 0
-377 -378 233 -379 0
-380 -381 234 -382 0
-383 -384 235 -385 0
-386 -387 236 -388 0
-389 -390 237 -391 0
-392 -393 238 -394 0
-395 -396 239 -397 0
-398 -399 240 -400 0
-401 -402 241 -403 0
-404 -405 242 -406 0
-407 -408 243 -409 0
-410 -411 244 -412 0
-413 -414 245 -415 0
-416 -417 246 -418 0
-419 -420 247 -421 0
-422 -423 248 -424 0
-425 -426 249 -427 0
-428 -429 250 -430 0
-431 -432 251 -433 0
-434 -435 252 -436 0
-437 -438 253 -439 0
-440 -441 254 -442 0
-443 -444 255 -445 0
-446 -447 256 -448 0
-449 -450 257 -451 0
-452 -453 258 -454 0
-455 -456 259 -457 0
-458 -459 260 -460 0
-461 -462 261 -463 0
-464 -465 262 -466 0
-467 -468 263 -469 0
-470 -471 264 -472 0
-473 -474 265 -475 0
-476 -477 266 -478 0
-479 -480 267 -481 0
-482 -483 268 -484 0
-485 -486 269 -487 0
-488 -489 270 -490 0
-491 -492 271 -493 0
-494 -495 272 -496 0
-497 -498 273 -499 0
-500 -501 274 -502 0
-503 -504 275 -505 0
-506 -507 276 -508 0
-509 -510 277 -511 0
-512 -513 278 -514 0
-515 -516 279 -517 0
-518 -519 280 -520 0
-521 -522 281 -523 0
-524 -525 282 -526 0
-527 -528 283 -529 0
-530 -531 284 -532 0
-533 -534 285 -535 0
-536 -537 286 -538 0
-539 -540 287 -541 0
-542 -543 288 -544 0
-545 -546 289 -547 0
-548 -549 290 -550 0
-551 -552 291 -553 0
-554 -555 292 -556 0
-557 -558 293 -559 0
-560 -561 294 -562 0
-563 -564 295 -565 0
-566 -567 296 -568 0
-569 -570 297 -571 0
-572 -573 298 -574 0
-575 -576 299 -577 0
-578 -579 300 -580 0
-581 -582 301 -583 0
-584 -585 302 -586 0
-587 -588 303 -589 0
-590 -591 304 -592 0
-593 -594 305 -595 0
-596 -597 306 -598 0
-599 -600 307 -601 0
-602 -603 308 -604 0
-605 -606 309 -607 0
-608 -609 310 -610 0
313 311 0
316 314 0
319 317 0
322 320 0
325 323 0
328 326 0
331 329 0
334 332 0
337 335 0
340 338 0
343 341 0
346 344 0
349 347 0
352 350 0
355 353 0
358 356 0
361 359 0
364 362 0
367 365 0
370 368 0
373 371 0
376 374 0
379 377 0
382 380 0
385 383 0
388 386 0
391 389 0
394 392 0
397 395 0
400 398 0
403 401 0
406 404 0
409 407 0
412 410 0
415 413 0
418 416 0
421 419 0
424 422 0
427 425 0
430 428 0
433 431 0
436 434 0
439 437 0
442 440 0
445 443 0
448 446 0
451 449 0
454 452 0
457 455 0
460 458 0
463 461 0
466 464 0
469 467 0
472 470 0
475 473 0
478 476 0
481 479 0
484 482 0
487 485 0
490 488 0
493 491 0
496 494 0
499 497 0
502 500 0
505 503 0
508 506 0
511 509 0
514 512 0
517 515 0
520 518 0
523 521 0
526 524 0
529 527 0
532 530 0
535 533 0
538 536 0
541 539 0
544 542 0
547 545 0
550 548 0
553 551 0
556 554 0
559 557 0
562 560 0
565 563 0
568 566 0
571 569 0
574 572 0
577 575 0
580 578 0
583 581 0
586 584 0
589 587 0
592 590 0
595 593 0
598 596 0
601 599 0
604 602 0
607 605 0
610 608 0
313 312 0
316 315 0
319 318 0
322 321 0
325 324 0
328 327 0
331 330 0
334 333 0
337 336 0
340 339 0
343 342 0
346 345 0
349 348 0
352 351 0
355 354 0
358 357 0
361 360 0
364 363 0
367 366 0
370 369 0
373 372 0
376 375 0
379 378 0
382 381 0
385 384 0
388 387 0
391 390 0
394 393 0
397 396 0
400 399 0
403 402 0
406 405 0
409 408 0
412 411 0
415 414 0
418 417 0
421 420 0
424 423 0
427 426 0
430 429 0
433 432 0
436 435 0
439 438 0
442 441 0
445 444 0
448 447 0
451 450 0
454 453 0
457 456 0
460 459 0
463 462 0
466 465 0
469 468 0
472 471 0
475 474 0
478 477 0
481 480 0
484 483 0
487 486 0
490 489 0
493 492 0
496 495 0
499 498 0
502 501 0
505 504 0
508 507 0
511 510 0
514 513 0
517 516 0
520 519 0
523 522 0
526 525 0
529 528 0
532 531 0
535 534 0
538 537 0
541 540 0
544 543 0
547 546 0
550 549 0
553 552 0
556 555 0
559 558 0
562 561 0
565 564 0
568 567 0
571 570 0
574 573 0
577 576 0
580 579 0
583 582 0
586 585 0
589 588 0
592 591 0
595 594 0
598 597 0
601 600 0
604 603 0
607 606 0
610 609 0
313 -211 0
316 -212 0
319 -213 0
322 -214 0
325 -215 0
328 -216 0
331 -217 0
334 -218 0
337 -219 0
340 -220 0
343 -221 0
346 -222 0
349 -223 0
352 -224 0
355 -225 0
358 -226 0
361 -227 0
364 -228 0
367 -229 0
370 -230 0
373 -231 0
376 -232 0
379 -233 0
382 -234 0
385 -235 0
388 -236 0
391 -237 0
394 -238 0
397 -239 0
400 -240 0
403 -241 0
406 -242 0
409 -243 0
412 -244 0
415 -245 0
418 -246 0
421 -247 0
424 -248 0
427 -249 0
430 -250 0
433 -251 0
436 -252 0
439 -253 0
442 -254 0
445 -255 0
448 -256 0
451 -257 0
454 -258 0
457 -259 0
460 -260 0
463 -261 0
466 -262 0
469 -263 0
472 -264 0
475 -265 0
478 -266 0
481 -267 0
484 -268 0
487 -269 0
490 -270 0
493 -271 0
496 -272 0
499 -273 0
502 -274 0
505 -275 0
508 -276 0
511 -277 0
514 -278 0
517 -279 0
520 -280 0
523 -281 0
526 -282 0
529 -283 0
532 -284 0
535 -285 0
538 -286 0
541 -287 0
544 -288 0
547 -289 0
550 -290 0
553 -291 0
556 -292 0
559 -293 0
562 -294 0
565 -295 0
568 -296 0
571 -297 0
574 -298 0
577 -299 0
580 -300 0
583 -301 0
586 -302 0
589 -303 0
592 -304 0
595 -305 0
598 -306 0
601 -307 0
604 -308 0
607 -309 0
610 -310 0
313 0
316 0
319 0
322 0
325 0
328 0
331 0
334 0
337 0
340 0
343 0
346 0
349 0
352 0
355 0
358 0
361 0
364 0
367 0
370 0
373 0
376 0
379 0
382 0
385 0
388 0
391 0
394 0
397 0
400 0
403 0
406 0
409 0
412 0
415 0
418 0
421 0
424 0
427 0
430 0
433 0
436 0
439 0
442 0
445 0
448 0
451 0
454 0
457 0
460 0
463 0
466 0
469 0
472 0
475 0
478 0
481 0
484 0
487 0
490 0
493 0
496 0
499 0
502 0
505 0
508 0
511 0
514 0
517 0
520 0
523 0
526 0
529 0
532 0
535 0
538 0
541 0
544 0
547 0
550 0
553 0
556 0
559 0
562 0
565 0
568 0
571 0
574 0
577 0
580 0
583 0
586 0
589 0
592 0
595 0
598 0
601 0
604 0
607 0
610 0
311 0
314 341 0
-314 -341 0
-314 -347 317 0
-314 -350 320 0
-314 -353 323 0
-314 -356 326 0
-314 -359 329 0
-314 -362 332 0
-314 -365 335 0
-314 -368 338 0
317 371 0
-317 -371 0
-317 -374 314 0
-317 -380 320 0
-317 -383 323 0
-317 -386 326 0
-317 -389 329 0
-317 -392 332 0
-317 -395 335 0
-317 -398 338 0
320 401 0
-320 -401 0
-320 -404 314 0
-320 -407 317 0
-320 -413 323 0
-320 -416 326 0
-320 -419 329 0
-320 -422 332 0
-320 -425 335 0
-320 -428 338 0
323 431 0
-323 -431 0
-323 -434 314 0
-323 -437 317 0
-323 -440 320 0
-323 -446 326 0
-323 -449 329 0
-323 -452 332 0
-323 -455 335 0
-323 -458 338 0
326 461 0
-326 -461 0
-326 -464 314 0
-326 -467 317 0
-326 -470 320 0
-326 -473 323 0
-326 -479 329 0
-326 -482 332 0
-326 -485 335 0
-326 -488 338 0
329 491 0
-329 -491 0
-329 -494 314 0
-329 -497 317 0
-329 -500 320 0
-329 -503 323 0
-329 -506 326 0
-329 -512 332 0
-329 -515 335 0
-329 -518 338 0
332 521 0
-332 -521 0
-332 -524 314 0
-332 -527 317 0
-332 -530 320 0
-332 -533 323 0
-332 -536 326 0
-332 -539 329 0
-332 -545 335 0
-332 -548 338 0
335 551 0
-335 -551 0
-335 -554 314 0
-335 -557 317 0
-335 -560 320 0
-335 -563 323 0
-335 -566 326 0
-335 -569 329 0
-335 -572 332 0
-335 -578 338 0
338 581 0
-338 -581 0
-338 -584 314 0
-338 -587 317 0
-338 -590 320 0
-338 -593 323 0
-338 -596 326 0
-338 -599 329 0
-338 -602 332 0
-338 -605 335 0
344 0
341 314 0
-341 -314 0
-341 -317 347 0
-341 -320 350 0
-341 -323 353 0
-341 -326 356 0
-341 -329 359 0
-341 -332 362 0
-341 -335 365 0
-341 -338 368 0
347 374 0
-347 -374 0
-347 -371 341 0
-347 -380 350 0
-347 -383 353 0
-347 -386 356 0
-347 -389 359 0
-347 -392 362 0
-347 -395 365 0
-347 -398 368 0
350 404 0
-350 -404 0
-350 -401 341 0
-350 -407 347 0
-350 -413 353 0
-350 -416 356 0
-350 -419 359 0
-350 -422 362 0
-350 -425 365 0
-350 -428 368 0
353 434 0
-353 -434 0
-353 -431 341 0
-353 -437 347 0
-353 -440 350 0
-353 -446 356 0
-353 -449 359 0
-353 -452 362 0
-353 -455 365 0
-353 -458 368 0
356 464 0
-356 -464 0
-356 -461 341 0
-356 -467 347 0
-356 -470 350 0
-356 -473 353 0
-356 -479 359 0
-356 -482 362 0
-356 -485 365 0
-356 -488 368 0
359 494 0
-359 -494 0
-359 -491 341 0
-359 -497 347 0
-359 -500 350 0
-359 -503 353 0
-359 -506 356 0
-359 -512 362 0
-359 -515 365 0
-359 -518 368 0
362 524 0
-362 -524 0
-362 -521 341 0
-362 -527 347 0
-362 -530 350 0
-362 -533 353 0
-362 -536 356 0
-362 -539 359 0
-362 -545 365 0
-362 -548 368 0
365 554 0
-365 -554 0
-365 -551 341 0
-365 -557 347 0
-365 -560 350 0
-365 -563 353 0
-365 -566 356 0
-365 -569 359 0
-365 -572 362 0
-365 -578 368 0
368 584 0
-368 -584 0
-368 -581 341 0
-368 -587 347 0
-368 -590 350 0
-368 -593 353 0
-368 -596 356 0
-368 -599 359 0
-368 -602 362 0
-368 -605 365 0
377 0
371 317 0
-371 -317 0
-371 -314 374 0
-371 -320 380 0
-371 -323 383 0
-371 -326 386 0
-371 -329 389 0
-371 -332 392 0
-371 -335 395 0
-371 -338 398 0
374 347 0
-374 -347 0
-374 -341 371 0
-374 -350 380 0
-374 -353 383 0
-374 -356 386 0
-374 -359 389 0
-374 -362 392 0
-374 -365 395 0
-374 -368 398 0
380 407 0
-380 -407 0
-380 -401 371 0
-380 -404 374 0
-380 -413 383 0
-380 -416 386 0
-380 -419 389 0
-380 -422 392 0
-380 -425 395 0
-380 -428 398 0
383 437 0
-383 -437 0
-383 -431 371 0
-383 -434 374 0
-383 -440 380 0
-383 -446 386 0
-383 -449 389 0
-383 -452 392 0
-383 -455 395 0
-383 -458 398 0
386 467 0
-386 -467 0
-386 -461 371 0
-386 -464 374 0
-386 -470 380 0
-386 -473 383 0
-386 -479 389 0
-386 -482 392 0
-386 -485 395 0
-386 -488 398 0
389 497 0
-389 -497 0
-389 -491 371 0
-389 -494 374 0
-389 -500 380 0
-389 -503 383 0
-389 -506 386 0
-389 -512 392 0
-389 -515 395 0
-389 -518 398 0
392 527 0
-392 -527 0
-392 -521 371 0
-392 -524 374 0
-392 -530 380 0
-392 -533 383 0
-392 -536 386 0
-392 -539 389 0
-392 -545 395 0
-392 -548 398 0
395 557 0
-395 -557 0
-395 -551 371 0
-395 -554 374 0
-395 -560 380 0
-395 -563 383 0
-395 -566 386 0
-395 -569 389 0
-395 -572 392 0
-395 -578 398 0
398 587 0
-398 -587 0
-398 -581 371 0
-398 -584 374 0
-398 -590 380 0
-398 -593 383 0
-398 -596 386 0
-398 -599 389 0
-398 -602 392 0
-398 -605 395 0
410 0
401 320 0
-401 -320 0
-401 -314 404 0
-401 -317 407 0
-401 -323 413 0
-401 -326 416 0
-401 -329 419 0
-401 -332 422 0
-401 -335 425 0
-401 -338 428 0
404 350 0
-404 -350 0
-404 -341 401 0
-404 -347 407 0
-404 -353 413 0
-404 -356 416 0
-404 -359 419 0
-404 -362 422 0
-404 -365 425 0
-404 -368 428 0
407 380 0
-407 -380 0
-407 -371 401 0
-407 -374 404 0
-407 -383 413 0
-407 -386 416 0
-407 -389 419 0
-407 -392 422 0
-407 -395 425 0
-407 -398 428 0
413 440 0
-413 -440 0
-413 -431 401 0
-413 -434 404 0
-413 -437 407 0
-413 -446 416 0
-413 -449 419 0
-413 -452 422 0
-413 -455 425 0
-413 -458 428 0
416 470 0
-416 -470 0
-416 -461 401 0
-416 -464 404 0
-416 -467 407 0
-416 -473 413 0
-416 -479 419 0
-416 -482 422 0
-416 -485 425 0
-416 -488 428 0
419 500 0
-419 -500 0
-419 -491 401 0
-419 -494 404 0
-419 -497 407 0
-419 -503 413 0
-419 -506 416 0
-419 -512 422 0
-419 -515 425 0
-419 -518 428 0
422 530 0
-422 -530 0
-422 -521 401 0
-422 -524 404 0
-422 -527 407 0
-422 -533 413 0
-422 -536 416 0
-422 -539 419 0
-422 -545 425 0
-422 -548 428 0
425 560 0
-425 -560 0
-425 -551 401 0
-425 -554 404 0
-425 -557 407 0
-425 -563 413 0
-425 -566 416 0
-425 -569 419 0
-425 -572 422 0
-425 -578 428 0
428 590 0
-428 -590 0
-428 -581 401 0
-428 -584 404 0
-428 -587 407 0
-428 -593 413 0
-428 -596 416 0
-428 -599 419 0
-428 -602 422 0
-428 -605 425 0
443 0
431 323 0
-431 -323 0
-431 -314 434 0
-431 -317 437 0
-431 -320 440 0
-431 -326 446 0
-431 -329 449 0
-431 -332 452 0
-431 -335 455 0
-431 -338 458 0
434 353 0
-434 -353 0
-434 -341 431 0
-434 -347 437 0
-434 -350 440 0
-434 -356 446 0
-434 -359 449 0
-434 -362 452 0
-434 -365 455 0
-434 -368 458 0
437 383 0
-437 -383 0
-437 -371 431 0
-437 -374 434 0
-437 -380 440 0
-437 -386 446 0
-437 -389 449 0
-437 -392 452 0
-437 -395 455 0
-437 -398 458 0
440 413 0
-440 -413 0
-440 -401 431 0
-440 -404 434 0
-440 -407 437 0
-440 -416 446 0
-440 -419 449 0
-440 -422 452 0
-440 -425 455 0
-440 -428 458 0
446 473 0
-446 -473 0
-446 -461 431 0
-446 -464 434 0
-446 -467 437 0
-446 -470 440 0
-446 -479 449 0
-446 -482 452 0
-446 -485 455 0
-446 -488 458 0
449 503 0
-449 -503 0
-449 -491 431 0
-449 -494 434 0
-449 -497 437 0
-449 -500 440 0
-449 -506 446 0
-449 -512 452 0
-449 -515 455 0
-449 -518 458 0
452 533 0
-452 -533 0
-452 -521 431 0
-452 -524 434 0
-452 -527 437 0
-452 -530 440 0
-452 -536 446 0
-452 -539 449 0
-452 -545 455 0
-452 -548 458 0
455 563 0
-455 -563 0
-455 -551 431 0
-455 -554 434 0
-455 -557 437 0
-455 -560 440 0
-455 -566 446 0
-455 -569 449 0
-455 -572 452 0
-455 -578 458 0
458 593 0
-458 -593 0
-458 -581 431 0
-458 -584 434 0
-458 -587 437 0
-458 -590 440 0
-458 -596 446 0
-458 -599 449 0
-458 -602 452 0
-458 -605 455 0
476 0
461 326 0
-461 -326 0
-461 -314 464 0
-461 -317 467 0
-461 -320 470 0
-461 -323 473 0
-461 -329 479 0
-461 -332 482 0
-461 -335 485 0
-461 -338 488 0
464 356 0
-464 -356 0
-464 -341 461 0
-464 -347 467 0
-464 -350 470 0
-464 -353 473 0
-464 -359 479 0
-464 -362 482 0
-464 -365 485 0
-464 -368 488 0
467 386 0
-467 -386 0
-467 -371 461 0
-467 -374 464 0
-467 -380 470 0
-467 -383 473 0
-467 -389 479 0
-467 -392 482 0
-467 -395 485 0
-467 -398 488 0
470 416 0
-470 -416 0
-470 -401 461 0
-470 -404 464 0
-470 -407 467 0
-470 -413 473 0
-470 -419 479 0
-470 -422 482 0
-470 -425 485 0
-470 -428 488 0
473 446 0
-473 -446 0
-473 -431 461 0
-473 -434 464 0
-473 -437 467 0
-473 -440 470 0
-473 -449 479 0
-473 -452 482 0
-473 -455 485 0
-473 -458 488 0
479 506 0
-479 -506 0
-479 -491 461 0
-479 -494 464 0
-479 -497 467 0
-479 -500 470 0
-479 -503 473 0
-479 -512 482 0
-479 -515 485 0
-479 -518 488 0
482 536 0
-482 -536 0
-482 -521 461 0
-482 -524 464 0
-482 -527 467 0
-482 -530 470 0
-482 -533 473 0
-482 -539 479 0
-482 -545 485 0
-482 -548 488 0
485 566 0
-485 -566 0
-485 -551 461 0
-485 -554 464 0
-485 -557 467 0
-485 -560 470 0
-485 -563 473 0
-485 -569 479 0
-485 -572 482 0
-485 -578 488 0
488 596 0
-488 -596 0
-488 -581 461 0
-488 -584 464 0
-488 -587 467 0
-488 -590 470 0
-488 -593 473 0
-488 -599 479 0
-488 -602 482 0
-488 -605 485 0
509 0
491 329 0
-491 -329 0
-491 -314 494 0
-491 -317 497 0
-491 -320 500 0
-491 -323 503 0
-491 -326 506 0
-491 -332 512 0
-491 -335 515 0
-491 -338 518 0
494 359 0
-494 -359 0
-494 -341 491 0
-494 -347 497 0
-494 -350 500 0
-494 -353 503 0
-494 -356 506 0
-494 -362 512 0
-494 -365 515 0
-494 -368 518 0
497 389 0
-497 -389 0
-497 -371 491 0
-497 -374 494 0
-497 -380 500 0
-497 -383 503 0
-497 -386 506 0
-497 -392 512 0
-497 -395 515 0
-497 -398 518 0
500 419 0
-500 -419 0
-500 -401 491 0
-500 -404 494 0
-500 -407 497 0
-500 -413 503 0
-500 -416 506 0
-500 -422 512 0
-500 -425 515 0
-500 -428 518 0
503 449 0
-503 -449 0
-503 -431 491 0
-503 -434 494 0
-503 -437 497 0
-503 -440 500 0
-503 -446 506 0
-503 -452 512 0
-503 -455 515 0
-503 -458 518 0
506 479 0
-506 -479 0
-506 -461 491 0
-506 -464 494 0
-506 -467 497 0
-506 -470 500 0
-506 -473 503 0
-506 -482 512 0
-506 -485 515 0
-506 -488 518 0
512 539 0
-512 -539 0
-512 -521 491 0
-512 -524 494 0
-512 -527 497 0
-512 -530 500 0
-512 -533 503 0
-512 -536 506 0
-512 -545 515 0
-512 -548 518 0
515 569 0
-515 -569 0
-515 -551 491 0
-515 -554 494 0
-515 -557 497 0
-515 -560 500 0
-515 -563 503 0
-515 -566 506 0
-515 -572 512 0
-515 -578 518 0
518 599 0
-518 -599 0
-518 -581 491 0
-518 -584 494 0
-518 -587 497 0
-518 -590 500 0
-518 -593 503 0
-518 -596 506 0
-518 -602 512 0
-518 -605 515 0
542 0
521 332 0
-521 -332 0
-521 -314 524 0
-521 -317 527 0
-521 -320 530 0
-521 -323 533 0
-521 -326 536 0
-521 -329 539 0
-521 -335 545 0
-521 -338 548 0
524 362 0
-524 -362 0
-524 -341 521 0
-524 -347 527 0
-524 -350 530 0
-524 -353 533 0
-524 -356 536 0
-524 -359 539 0
-524 -365 545 0
-524 -368 548 0
527 392 0
-527 -392 0
-527 -371 521 0
-527 -374 524 0
-527 -380 530 0
-527 -383 533 0
-527 -386 536 0
-527 -389 539 0
-527 -395 545 0
-527 -398 548 0
530 422 0
-530 -422 0
-530 -401 521 0
-530 -404 524 0
-530 -407 527 0
-530 -413 533 0
-530 -416 536 0
-530 -419 539 0
-530 -425 545 0
-530 -428 548 0
533 452 0
-533 -452 0
-533 -431 521 0
-533 -434 524 0
-533 -437 527 0
-533 -440 530 0
-533 -446 536 0
-533 -449 539 0
-533 -455 545 0
-533 -458 548 0
536 482 0
-536 -482 0
-536 -461 521 0
-536 -464 524 0
-536 -467 527 0
-536 -470 530 0
-536 -473 533 0
-536 -479 539 0
-536 -485 545 0
-536 -488 548 0
539 512 0
-539 -512 0
-539 -491 521 0
-539 -494 524 0
-539 -497 527 0
-539 -500 530 0
-539 -503 533 0
-539 -506 536 0
-539 -515 545 0
-539 -518 548 0
545 572 0
-545 -572 0
-545 -551 521 0
-545 -554 524 0
-545 -557 527 0
-545 -560 530 0
-545 -563 533 0
-545 -566 536 0
-545 -569 539 0
-545 -578 548 0
548 602 0
-548 -602 0
-548 -581 521 0
-548 -584 524 0
-548 -587 527 0
-548 -590 530 0
-548 -593 533 0
-548 -596 536 0
-548 -599 539 0
-548 -605 545 0
575 0
551 335 0
-551 -335 0
-551 -314 554 0
-551 -317 557 0
-551 -320 560 0
-551 -323 563 0
-551 -326 566 0
-551 -329 569 0
-551 -332 572 0
-551 -338 578 0
554 365 0
-554 -365 0
-554 -341 551 0
-554 -347 557 0
-554 -350 560 0
-554 -353 563 0
-554 -356 566 0
-554 -359 569 0
-554 -362 572 0
-554 -368 578 0
557 395 0
-557 -395 0
-557 -371 551 0
-557 -374 554 0
-557 -380 560 0
-557 -383 563 0
-557 -386 566 0
-557 -389 569 0
-557 -392 572 0
-557 -398 578 0
560 425 0
-560 -425 0
-560 -401 551 0
-560 -404 554 0
-560 -407 557 0
-560 -413 563 0
-560 -416 566 0
-560 -419 569 0
-560 -422 572 0
-560 -428 578 0
563 455 0
-563 -455 0
-563 -431 551 0
-563 -434 554 0
-563 -437 557 0
-563 -440 560 0
-563 -446 566 0
-563 -449 569 0
-563 -452 572 0
-563 -458 578 0
566 485 0
-566 -485 0
-566 -461 551 0
-566 -464 554 0
-566 -467 557 0
-566 -470 560 0
-566 -473 563 0
-566 -479 569 0
-566 -482 572 0
-566 -488 578 0
569 515 0
-569 -515 0
-569 -491 551 0
-569 -494 554 0
-569 -497 557 0
-569 -500 560 0
-569 -503 563 0
-569 -506 566 0
-569 -512 572 0
-569 -518 578 0
572 545 0
-572 -545 0
-572 -521 551 0
-572 -524 554 0
-572 -527 557 0
-572 -530 560 0
-572 -533 563 0
-572 -536 566 0
-572 -539 569 0
-572 -548 578 0
578 605 0
-578 -605 0
-578 -581 551 0
-578 -584 554 0
-578 -587 557 0
-578 -590 560 0
-578 -593 563 0
-578 -596 566 0
-578 -599 569 0
-578 -602 572 0
608 0
581 338 0
-581 -338 0
-581 -314 584 0
-581 -317 587 0
-581 -320 590 0
-581 -323 593 0
-581 -326 596 0
-581 -329 599 0
-581 -332 602 0
-581 -335 605 0
584 368 0
-584 -368 0
-584 -341 581 0
-584 -347 587 0
-584 -350 590 0
-584 -353 593 0
-584 -356 596 0
-584 -359 599 0
-584 -362 602 0
-584 -365 605 0
587 398 0
-587 -398 0
-587 -371 581 0
-587 -374 584 0
-587 -380 590 0
-587 -383 593 0
-587 -386 596 0
-587 -389 599 0
-587 -392 602 0
-587 -395 605 0
590 428 0
-590 -428 0
-590 -401 581 0
-590 -404 584 0
-590 -407 587 0
-590 -413 593 0
-590 -416 596 0
-590 -419 599 0
-590 -422 602 0
-590 -425 605 0
593 458 0
-593 -458 0
-593 -431 581 0
-593 -434 584 0
-593 -437 587 0
-593 -440 590 0
-593 -446 596 0
-593 -449 599 0
-593 -452 602 0
-593 -455 605 0
596 488 0
-596 -488 0
-596 -461 581 0
-596 -464 584 0
-596 -467 587 0
-596 -470 590 0
-596 -473 593 0
-596 -479 599 0
-596 -482 602 0
-596 -485 605 0
599 518 0
-599 -518 0
-599 -491 581 0
-599 -494 584 0
-599 -497 587 0
-599 -500 590 0
-599 -503 593 0
-599 -506 596 0
-599 -512 602 0
-599 -515 605 0
602 548 0
-602 -548 0
-602 -521 581 0
-602 -524 584 0
-602 -527 587 0
-602 -530 590 0
-602 -533 593 0
-602 -536 596 0
-602 -539 599 0
-602 -545 605 0
605 578 0
-605 -578 0
-605 -551 581 0
-605 -554 584 0
-605 -557 587 0
-605 -560 590 0
-605 -563 593 0
-605 -566 596 0
-605 -569 599 0
-605 -572 602 0
611 0
612 613 0
-612 -613 0
-612 -614 615 0
-612 -616 617 0
-612 -618 619 0
-612 -620 621 0
-612 -622 623 0
-612 -624 625 0
-612 -626 627 0
-612 -628 629 0
615 630 0
-615 -630 0
-615 -631 612 0
-615 -632 617 0
-615 -633 619 0
-615 -634 621 0
-615 -635 623 0
-615 -636 625 0
-615 -637 627 0
-615 -638 629 0
617 639 0
-617 -639 0
-617 -640 612 0
-617 -641 615 0
-617 -642 619 0
-617 -643 621 0
-617 -644 623 0
-617 -645 625 0
-617 -646 627 0
-617 -647 629 0
619 648 0
-619 -648 0
-619 -649 612 0
-619 -650 615 0
-619 -651 617 0
-619 -652 621 0
-619 -653 623 0
-619 -654 625 0
-619 -655 627 0
-619 -656 629 0
621 657 0
-621 -657 0
-621 -658 612 0
-621 -659 615 0
-621 -660 617 0
-621 -661 619 0
-621 -662 623 0
-621 -663 625 0
-621 -664 627 0
-621 -665 629 0
623 666 0
-623 -666 0
-623 -667 612 0
-623 -668 615 0
-623 -669 617 0
-623 -670 619 0
-623 -671 621 0
-623 -672 625 0
-623 -673 627 0
-623 -674 629 0
625 675 0
-625 -675 0
-625 -676 612 0
-625 -677 615 0
-625 -678 617 0
-625 -679 619 0
-625 -680 621 0
-625 -681 623 0
-625 -682 627 0
-625 -683 629 0
627 684 0
-627 -684 0
-627 -685 612 0
-627 -686 615 0
-627 -687 617 0
-627 -688 619 0
-627 -689 621 0
-627 -690 623 0
-627 -691 625 0
-627 -692 629 0
629 693 0
-629 -693 0
-629 -694 612 0
-629 -695 615 0
-629 -696 617 0
-629 -697 619 0
-629 -698 621 0
-629 -699 623 0
-629 -700 625 0
-629 -701 627 0
702 0
613 612 0
-613 -612 0
-613 -615 614 0
-613 -617 616 0
-613 -619 618 0
-613 -621 620 0
-613 -623 622 0
-613 -625 624 0
-613 -627 626 0
-613 -629 628 0
614 631 0
-614 -631 0
-614 -630 613 0
-614 -632 616 0
-614 -633 618 0
-614 -634 620 0
-614 -635 622 0
-614 -636 624 0
-614 -637 626 0
-614 -638 628 0
616 640 0
-616 -640 0
-616 -639 613 0
-616 -641 614 0
-616 -642 618 0
-616 -643 620 0
-616 -644 622 0
-616 -645 624 0
-616 -646 626 0
-616 -647 628 0
618 649 0
-618 -649 0
-618 -648 613 0
-618 -650 614 0
-618 -651 616 0
-618 -652 620 0
-618 -653 622 0
-618 -654 624 0
-618 -655 626 0
-618 -656 628 0
620 658 0
-620 -658 0
-620 -657 613 0
-620 -659 614 0
-620 -660 616 0
-620 -661 618 0
-620 -662 622 0
-620 -663 624 0
-620 -664 626 0
-620 -665 628 0
622 667 0
-622 -667 0
-622 -666 613 0
-622 -668 614 0
-622 -669 616 0
-622 -670 618 0
-622 -671 620 0
-622 -672 624 0
-622 -673 626 0
-622 -674 628 0
624 676 0
-624 -676 0
-624 -675 613 0
-624 -677 614 0
-624 -678 616 0
-624 -679 618 0
-624 -680 620 0
-624 -681 622 0
-624 -682 626 0
-624 -683 628 0
626 685 0
-626 -685 0
-626 -684 613 0
-626 -686 614 0
-626 -687 616 0
-626 -688 618 0
-626 -689 620 0
-626 -690 622 0
-626 -691 624 0
-626 -692 628 0
628 694 0
-628 -694 0
-628 -693 613 0
-628 -695 614 0
-628 -696 616 0
-628 -697 618 0
-628 -698 620 0
-628 -699 622 0
-628 -700 624 0
-628 -701 626 0
703 0
630 615 0
-630 -615 0
-630 -612 631 0
-630 -617 632 0
-630 -619 633 0
-630 -621 634 0
-630 -623 635 0
-630 -625 636 0
-630 -627 637 0
-630 -629 638 0
631 614 0
-631 -614 0
-631 -613 630 0
-631 -616 632 0
-631 -618 633 0
-631 -620 634 0
-631 -622 635 0
-631 -624 636 0
-631 -626 637 0
-631 -628 638 0
632 641 0
-632 -641 0
-632 -639 630 0
-632 -640 631 0
-632 -642 633 0
-632 -643 634 0
-632 -644 635 0
-632 -645 636 0
-632 -646 637 0
-632 -647 638 0
633 650 0
-633 -650 0
-633 -648 630 0
-633 -649 631 0
-633 -651 632 0
-633 -652 634 0
-633 -653 635 0
-633 -654 636 0
-633 -655 637 0
-633 -656 638 0
634 659 0
-634 -659 0
-634 -657 630 0
-634 -658 631 0
-634 -660 632 0
-634 -661 633 0
-634 -662 635 0
-634 -663 636 0
-634 -664 637 0
-634 -665 638 0
635 668 0
-635 -668 0
-635 -666 630 0
-635 -667 631 0
-635 -669 632 0
-635 -670 633 0
-635 -671 634 0
-635 -672 636 0
-635 -673 637 0
-635 -674 638 0
636 677 0
-636 -677 0
-636 -675 630 0
-636 -676 631 0
-636 -678 632 0
-636 -679 633 0
-636 -680 634 0
-636 -681 635 0
-636 -682 637 0
-636 -683 638 0
637 686 0
-637 -686 0
-637 -684 630 0
-637 -685 631 0
-637 -687 632 0
-637 -688 633 0
-637 -689 634 0
-637 -690 635 0
-637 -691 636 0
-637 -692 638 0
638 695 0
-638 -695 0
-638 -693 630 0
-638 -694 631 0
-638 -696 632 0
-638 -697 633 0
-638 -698 634 0
-638 -699 635 0
-638 -700 636 0
-638 -701 637 0
704 0
639 617 0
-639 -617 0
-639 -612 640 0
-639 -615 641 0
-639 -619 642 0
-639 -621 643 0
-639 -623 644 0
-639 -625 645 0
-639 -627 646 0
-639 -629 647 0
640 616 0
-640 -616 0
-640 -613 639 0
-640 -614 641 0
-640 -618 642 0
-640 -620 643 0
-640 -622 644 0
-640 -624 645 0
-640 -626 646 0
-640 -628 647 0
641 632 0
-641 -632 0
-641 -630 639 0
-641 -631 640 0
-641 -633 642 0
-641 -634 643 0
-641 -635 644 0
-641 -636 645 0
-641 -637 646 0
-641 -638 647 0
642 651 0
-642 -651 0
-642 -648 639 0
-642 -649 640 0
-642 -650 641 0
-642 -652 643 0
-642 -653 644 0
-642 -654 645 0
-642 -655 646 0
-642 -656 647 0
643 660 0
-643 -660 0
-643 -657 639 0
-643 -658 640 0
-643 -659 641 0
-643 -661 642 0
-643 -662 644 0
-643 -663 645 0
-643 -664 646 0
-643 -665 647 0
644 669 0
-644 -669 0
-644 -666 639 0
-644 -667 640 0
-644 -668 641 0
-644 -670 642 0
-644 -671 643 0
-644 -672 645 0
-644 -673 646 0
-644 -674 647 0
645 678 0
-645 -678 0
-645 -675 639 0
-645 -676 640 0
-645 -677 641 0
-645 -679 642 0
-645 -680 643 0
-645 -681 644 0
-645 -682 646 0
-645 -683 647 0
646 687 0
-646 -687 0
-646 -684 639 0
-646 -685 640 0
-646 -686 641 0
-646 -688 642 0
-646 -689 643 0
-646 -690 644 0
-646 -691 645 0
-646 -692 647 0
647 696 0
-647 -696 0
-647 -693 639 0
-647 -694 640 0
-647 -695 641 0
-647 -697 642 0
-647 -698 643 0
-647 -699 644 0
-647 -700 645 0
-647 -701 646 0
705 0
648 619 0
-648 -619 0
-648 -612 649 0
-648 -615 650 0
-648 -617 651 0
-648 -621 652 0
-648 -623 653 0
-648 -625 654 0
-648 -627 655 0
-648 -629 656 0
649 618 0
-649 -618 0
-649 -613 648 0
-649 -614 650 0
-649 -616 651 0
-649 -620 652 0
-649 -622 653 0
-649 -624 654 0
-649 -626 655 0
-649 -628 656 0
650 633 0
-650 -633 0
-650 -630 648 0
-650 -631 649 0
-650 -632 651 0
-650 -634 652 0
-650 -635 653 0
-650 -636 654 0
-650 -637 655 0
-650 -638 656 0
651 642 0
-651 -642 0
-651 -639 648 0
-651 -640 649 0
-651 -641 650 0
-651 -643 652 0
-651 -644 653 0
-651 -645 654 0
-651 -646 655 0
-651 -647 656 0
652 661 0
-652 -661 0
-652 -657 648 0
-652 -658 649 0
-652 -659 650 0
-652 -660 651 0
-652 -662 653 0
-652 -663 654 0
-652 -664 655 0
-652 -665 656 0
653 670 0
-653 -670 0
-653 -666 648 0
-653 -667 649 0
-653 -668 650 0
-653 -669 651 0
-653 -671 652 0
-653 -672 654 0
-653 -673 655 0
-653 -674 656 0
654 679 0
-654 -679 0
-654 -675 648 0
-654 -676 649 0
-654 -677 650 0
-654 -678 651 0
-654 -680 652 0
-654 -681 653 0
-654 -682 655 0
-654 -683 656 0
655 688 0
-655 -688 0
-655 -684 648 0
-655 -685 649 0
-655 -686 650 0
-655 -687 651 0
-655 -689 652 0
-655 -690 653 0
-655 -691 654 0
-655 -692 656 0
656 697 0
-656 -697 0
-656 -693 648 0
-656 -694 649 0
-656 -695 650 0
-656 -696 651 0
-656 -698 652 0
-656 -699 653 0
-656 -700 654 0
-656 -701 655 0
706 0
657 621 0
-657 -621 0
-657 -612 658 0
-657 -615 659 0
-657 -617 660 0
-657 -619 661 0
-657 -623 662 0
-657 -625 663 0
-657 -627 664 0
-657 -629 665 0
658 620 0
-658 -620 0
-658 -613 657 0
-658 -614 659 0
-658 -616 660 0
-658 -618 661 0
-658 -622 662 0
-658 -624 663 0
-658 -626 664 0
-658 -628 665 0
659 634 0
-659 -634 0
-659 -630 657 0
-659 -631 658 0
-659 -632 660 0
-659 -633 661 0
-659 -635 662 0
-659 -636 663 0
-659 -637 664 0
-659 -638 665 0
660 643 0
-660 -643 0
-660 -639 657 0
-660 -640 658 0
-660 -641 659 0
-660 -642 661 0
-660 -644 662 0
-660 -645 663 0
-660 -646 664 0
-660 -647 665 0
661 652 0
-661 -652 0
-661 -648 657 0
-661 -649 658 0
-661 -650 659 0
-661 -651 660 0
-661 -653 662 0
-661 -654 663 0
-661 -655 664 0
-661 -656 665 0
662 671 0
-662 -671 0
-662 -666 657 0
-662 -667 658 0
-662 -668 659 0
-662 -669 660 0
-662 -670 661 0
-662 -672 663 0
-662 -673 664 0
-662 -674 665 0
663 680 0
-663 -680 0
-663 -675 657 0
-663 -676 658 0
-663 -677 659 0
-663 -678 660 0
-663 -679 661 0
-663 -681 662 0
-663 -682 664 0
-663 -683 665 0
664 689 0
-664 -689 0
-664 -684 657 0
-664 -685 658 0
-664 -686 659 0
-664 -687 660 0
-664 -688 661 0
-664 -690 662 0
-664 -691 663 0
-664 -692 665 0
665 698 0
-665 -698 0
-665 -693 657 0
-665 -694 658 0
-665 -695 659 0
-665 -696 660 0
-665 -697 661 0
-665 -699 662 0
-665 -700 663 0
-665 -701 664 0
707 0
666 623 0
-666 -623 0
-666 -612 667 0
-666 -615 668 0
-666 -617 669 0
-666 -619 670 0
-666 -621 671 0
-666 -625 672 0
-666 -627 673 0
-666 -629 674 0
667 622 0
-667 -622 0
-667 -613 666 0
-667 -614 668 0
-667 -616 669 0
-667 -618 670 0
-667 -620 671 0
-667 -624 672 0
-667 -626 673 0
-667 -628 674 0
668 635 0
-668 -635 0
-668 -630 666 0
-668 -631 667 0
-668 -632 669 0
-668 -633 670 0
-668 -634 671 0
-668 -636 672 0
-668 -637 673 0
-668 -638 674 0
669 644 0
-669 -644 0
-669 -639 666 0
-669 -640 667 0
-669 -641 668 0
-669 -642 670 0
-669 -643 671 0
-669 -645 672 0
-669 -646 673 0
-669 -647 674 0
670 653 0
-670 -653 0
-670 -648 666 0
-670 -649 667 0
-670 -650 668 0
-670 -651 669 0
-670 -652 671 0
-670 -654 672 0
-670 -655 673 0
-670 -656 674 0
671 662 0
-671 -662 0
-671 -657 666 0
-671 -658 667 0
-671 -659 668 0
-671 -660 669 0
-671 -661 670 0
-671 -663 672 0
-671 -664 673 0
-671 -665 674 0
672 681 0
-672 -681 0
-672 -675 666 0
-672 -676 667 0
-672 -677 668 0
-672 -678 669 0
-672 -679 670 0
-672 -680 671 0
-672 -682 673 0
-672 -683 674 0
673 690 0
-673 -690 0
-673 -684 666 0
-673 -685 667 0
-673 -686 668 0
-673 -687 669 0
-673 -688 670 0
-673 -689 671 0
-673 -691 672 0
-673 -692 674 0
674 699 0
-674 -699 0
-674 -693 666 0
-674 -694 667 0
-674 -695 668 0
-674 -696 669 0
-674 -697 670 0
-674 -698 671 0
-674 -700 672 0
-674 -701 673 0
708 0
675 625 0
-675 -625 0
-675 -612 676 0
-675 -615 677 0
-675 -617 678 0
-675 -619 679 0
-675 -621 680 0
-675 -623 681 0
-675 -627 682 0
-675 -629 683 0
676 624 0
-676 -624 0
-676 -613 675 0
-676 -614 677 0
-676 -616 678 0
-676 -618 679 0
-676 -620 680 0
-676 -622 681 0
-676 -626 682 0
-676 -628 683 0
677 636 0
-677 -636 0
-677 -630 675 0
-677 -631 676 0
-677 -632 678 0
-677 -633 679 0
-677 -634 680 0
-677 -635 681 0
-677 -637 682 0
-677 -638 683 0
678 645 0
-678 -645 0
-678 -639 675 0
-678 -640 676 0
-678 -641 677 0
-678 -642 679 0
-678 -643 680 0
-678 -644 681 0
-678 -646 682 0
-678 -647 683 0
679 654 0
-679 -654 0
-679 -648 675 0
-679 -649 676 0
-679 -650 677 0
-679 -651 678 0
-679 -652 680 0
-679 -653 681 0
-679 -655 682 0
-679 -656 683 0
680 663 0
-680 -663 0
-680 -657 675 0
-680 -658 676 0
-680 -659 677 0
-680 -660 678 0
-680 -661 679 0
-680 -662 681 0
-680 -664 682 0
-680 -665 683 0
681 672 0
-681 -672 0
-681 -666 675 0
-681 -667 676 0
-681 -668 677 0
-681 -669 678 0
-681 -670 679 0
-681 -671 680 0
-681 -673 682 0
-681 -674 683 0
682 691 0
-682 -691 0
-682 -684 675 0
-682 -685 676 0
-682 -686 677 0
-682 -687 678 0
-682 -688 679 0
-682 -689 680 0
-682 -690 681 0
-682 -692 683 0
683 700 0
-683 -700 0
-683 -693 675 0
-683 -694 676 0
-683 -695 677 0
-683 -696 678 0
-683 -697 679 0
-683 -698 680 0
-683 -699 681 0
-683 -701 682 0
709 0
684 627 0
-684 -627 0
-684 -612 685 0
-684 -615 686 0
-684 -617 687 0
-684 -619 688 0
-684 -621 689 0
-684 -623 690 0
-684 -625 691 0
-684 -629 692 0
685 626 0
-685 -626 0
-685 -613 684 0
-685 -614 686 0
-685 -616 687 0
-685 -618 688 0
-685 -620 689 0
-685 -622 690 0
-685 -624 691 0
-685 -628 692 0
686 637 0
-686 -637 0
-686 -630 684 0
-686 -631 685 0
-686 -632 687 0
-686 -633 688 0
-686 -634 689 0
-686 -635 690 0
-686 -636 691 0
-686 -638 692 0
687 646 0
-687 -646 0
-687 -639 684 0
-687 -640 685 0
-687 -641 686 0
-687 -642 688 0
-687 -643 689 0
-687 -644 690 0
-687 -645 691 0
-687 -647 692 0
688 655 0
-688 -655 0
-688 -648 684 0
-688 -649 685 0
-688 -650 686 0
-688 -651 687 0
-688 -652 689 0
-688 -653 690 0
-688 -654 691 0
-688 -656 692 0
689 664 0
-689 -664 0
-689 -657 684 0
-689 -658 685 0
-689 -659 686 0
-689 -660 687 0
-689 -661 688 0
-689 -662 690 0
-689 -663 691 0
-689 -665 692 0
690 673 0
-690 -673 0
-690 -666 684 0
-690 -667 685 0
-690 -668 686 0
-690 -669 687 0
-690 -670 688 0
-690 -671 689 0
-690 -672 691 0
-690 -674 692 0
691 682 0
-691 -682 0
-691 -675 684 0
-691 -676 685 0
-691 -677 686 0
-691 -678 687 0
-691 -679 688 0
-691 -680 689 0
-691 -681 690 0
-691 -683 692 0
692 701 0
-692 -701 0
-692 -693 684 0
-692 -694 685 0
-692 -695 686 0
-692 -696 687 0
-692 -697 688 0
-692 -698 689 0
-692 -699 690 0
-692 -700 691 0
710 0
693 629 0
-693 -629 0
-693 -612 694 0
-693 -615 695 0
-693 -617 696 0
-693 -619 697 0
-693 -621 698 0
-693 -623 699 0
-693 -625 700 0
-693 -627 701 0
694 628 0
-694 -628 0
-694 -613 693 0
-694 -614 695 0
-694 -616 696 0
-694 -618 697 0
-694 -620 698 0
-694 -622 699 0
-694 -624 700 0
-694 -626 701 0
695 638 0
-695 -638 0
-695 -630 693 0
-695 -631 694 0
-695 -632 696 0
-695 -633 697 0
-695 -634 698 0
-695 -635 699 0
-695 -636 700 0
-695 -637 701 0
696 647 0
-696 -647 0
-696 -639 693 0
-696 -640 694 0
-696 -641 695 0
-696 -642 697 0
-696 -643 698 0
-696 -644 699 0
-696 -645 700 0
-696 -646 701 0
697 656 0
-697 -656 0
-697 -648 693 0
-697 -649 694 0
-697 -650 695 0
-697 -651 696 0
-697 -652 698 0
-697 -653 699 0
-697 -654 700 0
-697 -655 701 0
698 665 0
-698 -665 0
-698 -657 693 0
-698 -658 694 0
-698 -659 695 0
-698 -660 696 0
-698 -661 697 0
-698 -662 699 0
-698 -663 700 0
-698 -664 701 0
699 674 0
-699 -674 0
-699 -666 693 0
-699 -667 694 0
-699 -668 695 0
-699 -669 696 0
-699 -670 697 0
-699 -671 698 0
-699 -672 700 0
-699 -673 701 0
700 683 0
-700 -683 0
-700 -675 693 0
-700 -676 694 0
-700 -677 695 0
-700 -678 696 0
-700 -679 697 0
-700 -680 698 0
-700 -681 699 0
-700 -682 701 0
701 692 0
-701 -692 0
-701 -684 693 0
-701 -685 694 0
-701 -686 695 0
-701 -687 696 0
-701 -688 697 0
-701 -689 698 0
-701 -690 699 0
-701 -691 700 0
-312 0
-315 612 0
-711 615 0
-711 631 0
-615 -631 711 0
-712 617 0
-712 640 0
-617 -640 712 0
-713 619 0
-713 649 0
-619 -649 713 0
-714 621 0
-714 658 0
-621 -658 714 0
-715 623 0
-715 667 0
-623 -667 715 0
-716 625 0
-716 676 0
-625 -676 716 0
-717 627 0
-717 685 0
-627 -685 717 0
-718 629 0
-718 694 0
-629 -694 718 0
-315 -711 0
-315 -712 0
-315 -713 0
-315 -714 0
-315 -715 0
-315 -716 0
-315 -717 0
-315 -718 0
-612 315 711 712 713 714 715 716 717 718 0
-318 615 0
-719 612 0
-719 614 0
-612 -614 719 0
-720 617 0
-720 641 0
-617 -641 720 0
-721 619 0
-721 650 0
-619 -650 721 0
-722 621 0
-722 659 0
-621 -659 722 0
-723 623 0
-723 668 0
-623 -668 723 0
-724 625 0
-724 677 0
-625 -677 724 0
-725 627 0
-725 686 0
-627 -686 725 0
-726 629 0
-726 695 0
-629 -695 726 0
-318 -719 0
-318 -720 0
-318 -721 0
-318 -722 0
-318 -723 0
-318 -724 0
-318 -725 0
-318 -726 0
-615 318 719 720 721 722 723 724 725 726 0
-321 617 0
-727 612 0
-727 616 0
-612 -616 727 0
-728 615 0
-728 632 0
-615 -632 728 0
-729 619 0
-729 651 0
-619 -651 729 0
-730 621 0
-730 660 0
-621 -660 730 0
-731 623 0
-731 669 0
-623 -669 731 0
-732 625 0
-732 678 0
-625 -678 732 0
-733 627 0
-733 687 0
-627 -687 733 0
-734 629 0
-734 696 0
-629 -696 734 0
-321 -727 0
-321 -728 0
-321 -729 0
-321 -730 0
-321 -731 0
-321 -732 0
-321 -733 0
-321 -734 0
-617 321 727 728 729 730 731 732 733 734 0
-324 619 0
-735 612 0
-735 618 0
-612 -618 735 0
-736 615 0
-736 633 0
-615 -633 736 0
-737 617 0
-737 642 0
-617 -642 737 0
-738 621 0
-738 661 0
-621 -661 738 0
-739 623 0
-739 670 0
-623 -670 739 0
-740 625 0
-740 679 0
-625 -679 740 0
-741 627 0
-741 688 0
-627 -688 741 0
-742 629 0
-742 697 0
-629 -697 742 0
-324 -735 0
-324 -736 0
-324 -737 0
-324 -738 0
-324 -739 0
-324 -740 0
-324 -741 0
-324 -742 0
-619 324 735 736 737 738 739 740 741 742 0
-327 621 0
-743 612 0
-743 620 0
-612 -620 743 0
-744 615 0
-744 634 0
-615 -634 744 0
-745 617 0
-745 643 0
-617 -643 745 0
-746 619 0
-746 652 0
-619 -652 746 0
-747 623 0
-747 671 0
-623 -671 747 0
-748 625 0
-748 680 0
-625 -680 748 0
-749 627 0
-749 689 0
-627 -689 749 0
-750 629 0
-750 698 0
-629 -698 750 0
-327 -743 0
-327 -744 0
-327 -745 0
-327 -746 0
-327 -747 0
-327 -748 0
-327 -749 0
-327 -750 0
-621 327 743 744 745 746 747 748 749 750 0
-330 623 0
-751 612 0
-751 622 0
-612 -622 751 0
-752 615 0
-752 635 0
-615 -635 752 0
-753 617 0
-753 644 0
-617 -644 753 0
-754 619 0
-754 653 0
-619 -653 754 0
-755 621 0
-755 662 0
-621 -662 755 0
-756 625 0
-756 681 0
-625 -681 756 0
-757 627 0
-757 690 0
-627 -690 757 0
-758 629 0
-758 699 0
-629 -699 758 0
-330 -751 0
-330 -752 0
-330 -753 0
-330 -754 0
-330 -755 0
-330 -756 0
-330 -757 0
-330 -758 0
-623 330 751 752 753 754 755 756 757 758 0
-333 625 0
-759 612 0
-759 624 0
-612 -624 759 0
-760 615 0
-760 636 0
-615 -636 760 0
-761 617 0
-761 645 0
-617 -645 761 0
-762 619 0
-762 654 0
-619 -654 762 0
-763 621 0
-763 663 0
-621 -663 763 0
-764 623 0
-764 672 0
-623 -672 764 0
-765 627 0
-765 691 0
-627 -691 765 0
-766 629 0
-766 700 0
-629 -700 766 0
-333 -759 0
-333 -760 0
-333 -761 0
-333 -762 0
-333 -763 0
-333 -764 0
-333 -765 0
-333 -766 0
-625 333 759 760 761 762 763 764 765 766 0
-336 627 0
-767 612 0
-767 626 0
-612 -626 767 0
-768 615 0
-768 637 0
-615 -637 768 0
-769 617 0
-769 646 0
-617 -646 769 0
-770 619 0
-770 655 0
-619 -655 770 0
-771 621 0
-771 664 0
-621 -664 771 0
-772 623 0
-772 673 0
-623 -673 772 0
-773 625 0
-773 682 0
-625 -682 773 0
-774 629 0
-774 701 0
-629 -701 774 0
-336 -767 0
-336 -768 0
-336 -769 0
-336 -770 0
-336 -771 0
-336 -772 0
-336 -773 0
-336 -774 0
-627 336 767 768 769 770 771 772 773 774 0
-339 629 0
-775 612 0
-775 628 0
-612 -628 775 0
-776 615 0
-776 638 0
-615 -638 776 0
-777 617 0
-777 647 0
-617 -647 777 0
-778 619 0
-778 656 0
-619 -656 778 0
-779 621 0
-779 665 0
-621 -665 779 0
-780 623 0
-780 674 0
-623 -674 780 0
-781 625 0
-781 683 0
-625 -683 781 0
-782 627 0
-782 692 0
-627 -692 782 0
-339 -775 0
-339 -776 0
-339 -777 0
-339 -778 0
-339 -779 0
-339 -780 0
-339 -781 0
-339 -782 0
-629 339 775 776 777 778 779 780 781 782 0
-342 613 0
-783 614 0
-783 630 0
-614 -630 783 0
-784 616 0
-784 639 0
-616 -639 784 0
-785 618 0
-785 648 0
-618 -648 785 0
-786 620 0
-786 657 0
-620 -657 786 0
-787 622 0
-787 666 0
-622 -666 787 0
-788 624 0
-788 675 0
-624 -675 788 0
-789 626 0
-789 684 0
-626 -684 789 0
-790 628 0
-790 693 0
-628 -693 790 0
-342 -783 0
-342 -784 0
-342 -785 0
-342 -786 0
-342 -787 0
-342 -788 0
-342 -789 0
-342 -790 0
-613 342 783 784 785 786 787 788 789 790 0
-345 0
-348 614 0
-791 613 0
-791 615 0
-613 -615 791 0
-792 616 0
-792 641 0
-616 -641 792 0
-793 618 0
-793 650 0
-618 -650 793 0
-794 620 0
-794 659 0
-620 -659 794 0
-795 622 0
-795 668 0
-622 -668 795 0
-796 624 0
-796 677 0
-624 -677 796 0
-797 626 0
-797 686 0
-626 -686 797 0
-798 628 0
-798 695 0
-628 -695 798 0
-348 -791 0
-348 -792 0
-348 -793 0
-348 -794 0
-348 -795 0
-348 -796 0
-348 -797 0
-348 -798 0
-614 348 791 792 793 794 795 796 797 798 0
-351 616 0
-799 613 0
-799 617 0
-613 -617 799 0
-800 614 0
-800 632 0
-614 -632 800 0
-801 618 0
-801 651 0
-618 -651 801 0
-802 620 0
-802 660 0
-620 -660 802 0
-803 622 0
-803 669 0
-622 -669 803 0
-804 624 0
-804 678 0
-624 -678 804 0
-805 626 0
-805 687 0
-626 -687 805 0
-806 628 0
-806 696 0
-628 -696 806 0
-351 -799 0
-351 -800 0
-351 -801 0
-351 -802 0
-351 -803 0
-351 -804 0
-351 -805 0
-351 -806 0
-616 351 799 800 801 802 803 804 805 806 0
-354 618 0
-807 613 0
-807 619 0
-613 -619 807 0
-808 614 0
-808 633 0
-614 -633 808 0
-809 616 0
-809 642 0
-616 -642 809 0
-810 620 0
-810 661 0
-620 -661 810 0
-811 622 0
-811 670 0
-622 -670 811 0
-812 624 0
-812 679 0
-624 -679 812 0
-813 626 0
-813 688 0
-626 -688 813 0
-814 628 0
-814 697 0
-628 -697 814 0
-354 -807 0
-354 -808 0
-354 -809 0
-354 -810 0
-354 -811 0
-354 -812 0
-354 -813 0
-354 -814 0
-618 354 807 808 809 810 811 812 813 814 0
-357 620 0
-815 613 0
-815 621 0
-613 -621 815 0
-816 614 0
-816 634 0
-614 -634 816 0
-817 616 0
-817 643 0
-616 -643 817 0
-818 618 0
-818 652 0
-618 -652 818 0
-819 622 0
-819 671 0
-622 -671 819 0
-820 624 0
-820 680 0
-624 -680 820 0
-821 626 0
-821 689 0
-626 -689 821 0
-822 628 0
-822 698 0
-628 -698 822 0
-357 -815 0
-357 -816 0
-357 -817 0
-357 -818 0
-357 -819 0
-357 -820 0
-357 -821 0
-357 -822 0
-620 357 815 816 817 818 819 820 821 822 0
-360 622 0
-823 613 0
-823 623 0
-613 -623 823 0
-824 614 0
-824 635 0
-614 -635 824 0
-825 616 0
-825 644 0
-616 -644 825 0
-826 618 0
-826 653 0
-618 -653 826 0
-827 620 0
-827 662 0
-620 -662 827 0
-828 624 0
-828 681 0
-624 -681 828 0
-829 626 0
-829 690 0
-626 -690 829 0
-830 628 0
-830 699 0
-628 -699 830 0
-360 -823 0
-360 -824 0
-360 -825 0
-360 -826 0
-360 -827 0
-360 -828 0
-360 -829 0
-360 -830 0
-622 360 823 824 825 826 827 828 829 830 0
-363 624 0
-831 613 0
-831 625 0
-613 -625 831 0
-832 614 0
-832 636 0
-614 -636 832 0
-833 616 0
-833 645 0
-616 -645 833 0
-834 618 0
-834 654 0
-618 -654 834 0
-835 620 0
-835 663 0
-620 -663 835 0
-836 622 0
-836 672 0
-622 -672 836 0
-837 626 0
-837 691 0
-626 -691 837 0
-838 628 0
-838 700 0
-628 -700 838 0
-363 -831 0
-363 -832 0
-363 -833 0
-363 -834 0
-363 -835 0
-363 -836 0
-363 -837 0
-363 -838 0
-624 363 831 832 833 834 835 836 837 838 0
-366 626 0
-839 613 0
-839 627 0
-613 -627 839 0
-840 614 0
-840 637 0
-614 -637 840 0
-841 616 0
-841 646 0
-616 -646 841 0
-842 618 0
-842 655 0
-618 -655 842 0
-843 620 0
-843 664 0
-620 -664 843 0
-844 622 0
-844 673 0
-622 -673 844 0
-845 624 0
-845 682 0
-624 -682 845 0
-846 628 0
-846 701 0
-628 -701 846 0
-366 -839 0
-366 -840 0
-366 -841 0
-366 -842 0
-366 -843 0
-366 -844 0
-366 -845 0
-366 -846 0
-626 366 839 840 841 842 843 844 845 846 0
-369 628 0
-847 613 0
-847 629 0
-613 -629 847 0
-848 614 0
-848 638 0
-614 -638 848 0
-849 616 0
-849 647 0
-616 -647 849 0
-850 618 0
-850 656 0
-618 -656 850 0
-851 620 0
-851 665 0
-620 -665 851 0
-852 622 0
-852 674 0
-622 -674 852 0
-853 624 0
-853 683 0
-624 -683 853 0
-854 626 0
-854 692 0
-626 -692 854 0
-369 -847 0
-369 -848 0
-369 -849 0
-369 -850 0
-369 -851 0
-369 -852 0
-369 -853 0
-369 -854 0
-628 369 847 848 849 850 851 852 853 854 0
-372 630 0
-855 631 0
-855 613 0
-631 -613 855 0
-856 632 0
-856 639 0
-632 -639 856 0
-857 633 0
-857 648 0
-633 -648 857 0
-858 634 0
-858 657 0
-634 -657 858 0
-859 635 0
-859 666 0
-635 -666 859 0
-860 636 0
-860 675 0
-636 -675 860 0
-861 637 0
-861 684 0
-637 -684 861 0
-862 638 0
-862 693 0
-638 -693 862 0
-372 -855 0
-372 -856 0
-372 -857 0
-372 -858 0
-372 -859 0
-372 -860 0
-372 -861 0
-372 -862 0
-630 372 855 856 857 858 859 860 861 862 0
-375 631 0
-863 630 0
-863 612 0
-630 -612 863 0
-864 632 0
-864 640 0
-632 -640 864 0
-865 633 0
-865 649 0
-633 -649 865 0
-866 634 0
-866 658 0
-634 -658 866 0
-867 635 0
-867 667 0
-635 -667 867 0
-868 636 0
-868 676 0
-636 -676 868 0
-869 637 0
-869 685 0
-637 -685 869 0
-870 638 0
-870 694 0
-638 -694 870 0
-375 -863 0
-375 -864 0
-375 -865 0
-375 -866 0
-375 -867 0
-375 -868 0
-375 -869 0
-375 -870 0
-631 375 863 864 865 866 867 868 869 870 0
-378 0
-381 632 0
-871 630 0
-871 617 0
-630 -617 871 0
-872 631 0
-872 616 0
-631 -616 872 0
-873 633 0
-873 651 0
-633 -651 873 0
-874 634 0
-874 660 0
-634 -660 874 0
-875 635 0
-875 669 0
-635 -669 875 0
-876 636 0
-876 678 0
-636 -678 876 0
-877 637 0
-877 687 0
-637 -687 877 0
-878 638 0
-878 696 0
-638 -696 878 0
-381 -871 0
-381 -872 0
-381 -873 0
-381 -874 0
-381 -875 0
-381 -876 0
-381 -877 0
-381 -878 0
-632 381 871 872 873 874 875 876 877 878 0
-384 633 0
-879 630 0
-879 619 0
-630 -619 879 0
-880 631 0
-880 618 0
-631 -618 880 0
-881 632 0
-881 642 0
-632 -642 881 0
-882 634 0
-882 661 0
-634 -661 882 0
-883 635 0
-883 670 0
-635 -670 883 0
-884 636 0
-884 679 0
-636 -679 884 0
-885 637 0
-885 688 0
-637 -688 885 0
-886 638 0
-886 697 0
-638 -697 886 0
-384 -879 0
-384 -880 0
-384 -881 0
-384 -882 0
-384 -883 0
-384 -884 0
-384 -885 0
-384 -886 0
-633 384 879 880 881 882 883 884 885 886 0
-387 634 0
-887 630 0
-887 621 0
-630 -621 887 0
-888 631 0
-888 620 0
-631 -620 888 0
-889 632 0
-889 643 0
-632 -643 889 0
-890 633 0
-890 652 0
-633 -652 890 0
-891 635 0
-891 671 0
-635 -671 891 0
-892 636 0
-892 680 0
-636 -680 892 0
-893 637 0
-893 689 0
-637 -689 893 0
-894 638 0
-894 698 0
-638 -698 894 0
-387 -887 0
-387 -888 0
-387 -889 0
-387 -890 0
-387 -891 0
-387 -892 0
-387 -893 0
-387 -894 0
-634 387 887 888 889 890 891 892 893 894 0
-390 635 0
-895 630 0
-895 623 0
-630 -623 895 0
-896 631 0
-896 622 0
-631 -622 896 0
-897 632 0
-897 644 0
-632 -644 897 0
-898 633 0
-898 653 0
-633 -653 898 0
-899 634 0
-899 662 0
-634 -662 899 0
-900 636 0
-900 681 0
-636 -681 900 0
-901 637 0
-901 690 0
-637 -690 901 0
-902 638 0
-902 699 0
-638 -699 902 0
-390 -895 0
-390 -896 0
-390 -897 0
-390 -898 0
-390 -899 0
-390 -900 0
-390 -901 0
-390 -902 0
-635 390 895 896 897 898 899 900 901 902 0
-393 636 0
-903 630 0
-903 625 0
-630 -625 903 0
-904 631 0
-904 624 0
-631 -624 904 0
-905 632 0
-905 645 0
-632 -645 905 0
-906 633 0
-906 654 0
-633 -654 906 0
-907 634 0
-907 663 0
-634 -663 907 0
-908 635 0
-908 672 0
-635 -672 908 0
-909 637 0
-909 691 0
-637 -691 909 0
-910 638 0
-910 700 0
-638 -700 910 0
-393 -903 0
-393 -904 0
-393 -905 0
-393 -906 0
-393 -907 0
-393 -908 0
-393 -909 0
-393 -910 0
-636 393 903 904 905 906 907 908 909 910 0
-396 637 0
-911 630 0
-911 627 0
-630 -627 911 0
-912 631 0
-912 626 0
-631 -626 912 0
-913 632 0
-913 646 0
-632 -646 913 0
-914 633 0
-914 655 0
-633 -655 914 0
-915 634 0
-915 664 0
-634 -664 915 0
-916 635 0
-916 673 0
-635 -673 916 0
-917 636 0
-917 682 0
-636 -682 917 0
-918 638 0
-918 701 0
-638 -701 918 0
-396 -911 0
-396 -912 0
-396 -913 0
-396 -914 0
-396 -915 0
-396 -916 0
-396 -917 0
-396 -918 0
-637 396 911 912 913 914 915 916 917 918 0
-399 638 0
-919 630 0
-919 629 0
-630 -629 919 0
-920 631 0
-920 628 0
-631 -628 920 0
-921 632 0
-921 647 0
-632 -647 921 0
-922 633 0
-922 656 0
-633 -656 922 0
-923 634 0
-923 665 0
-634 -665 923 0
-924 635 0
-924 674 0
-635 -674 924 0
-925 636 0
-925 683 0
-636 -683 925 0
-926 637 0
-926 692 0
-637 -692 926 0
-399 -919 0
-399 -920 0
-399 -921 0
-399 -922 0
-399 -923 0
-399 -924 0
-399 -925 0
-399 -926 0
-638 399 919 920 921 922 923 924 925 926 0
-402 639 0
-927 640 0
-927 613 0
-640 -613 927 0
-928 641 0
-928 630 0
-641 -630 928 0
-929 642 0
-929 648 0
-642 -648 929 0
-930 643 0
-930 657 0
-643 -657 930 0
-931 644 0
-931 666 0
-644 -666 931 0
-932 645 0
-932 675 0
-645 -675 932 0
-933 646 0
-933 684 0
-646 -684 933 0
-934 647 0
-934 693 0
-647 -693 934 0
-402 -927 0
-402 -928 0
-402 -929 0
-402 -930 0
-402 -931 0
-402 -932 0
-402 -933 0
-402 -934 0
-639 402 927 928 929 930 931 932 933 934 0
-405 640 0
-935 639 0
-935 612 0
-639 -612 935 0
-936 641 0
-936 631 0
-641 -631 936 0
-937 642 0
-937 649 0
-642 -649 937 0
-938 643 0
-938 658 0
-643 -658 938 0
-939 644 0
-939 667 0
-644 -667 939 0
-940 645 0
-940 676 0
-645 -676 940 0
-941 646 0
-941 685 0
-646 -685 941 0
-942 647 0
-942 694 0
-647 -694 942 0
-405 -935 0
-405 -936 0
-405 -937 0
-405 -938 0
-405 -939 0
-405 -940 0
-405 -941 0
-405 -942 0
-640 405 935 936 937 938 939 940 941 942 0
-408 641 0
-943 639 0
-943 615 0
-639 -615 943 0
-944 640 0
-944 614 0
-640 -614 944 0
-945 642 0
-945 650 0
-642 -650 945 0
-946 643 0
-946 659 0
-643 -659 946 0
-947 644 0
-947 668 0
-644 -668 947 0
-948 645 0
-948 677 0
-645 -677 948 0
-949 646 0
-949 686 0
-646 -686 949 0
-950 647 0
-950 695 0
-647 -695 950 0
-408 -943 0
-408 -944 0
-408 -945 0
-408 -946 0
-408 -947 0
-408 -948 0
-408 -949 0
-408 -950 0
-641 408 943 944 945 946 947 948 949 950 0
-411 0
-414 642 0
-951 639 0
-951 619 0
-639 -619 951 0
-952 640 0
-952 618 0
-640 -618 952 0
-953 641 0
-953 633 0
-641 -633 953 0
-954 643 0
-954 661 0
-643 -661 954 0
-955 644 0
-955 670 0
-644 -670 955 0
-956 645 0
-956 679 0
-645 -679 956 0
-957 646 0
-957 688 0
-646 -688 957 0
-958 647 0
-958 697 0
-647 -697 958 0
-414 -951 0
-414 -952 0
-414 -953 0
-414 -954 0
-414 -955 0
-414 -956 0
-414 -957 0
-414 -958 0
-642 414 951 952 953 954 955 956 957 958 0
-417 643 0
-959 639 0
-959 621 0
-639 -621 959 0
-960 640 0
-960 620 0
-640 -620 960 0
-961 641 0
-961 634 0
-641 -634 961 0
-962 642 0
-962 652 0
-642 -652 962 0
-963 644 0
-963 671 0
-644 -671 963 0
-964 645 0
-964 680 0
-645 -680 964 0
-965 646 0
-965 689 0
-646 -689 965 0
-966 647 0
-966 698 0
-647 -698 966 0
-417 -959 0
-417 -960 0
-417 -961 0
-417 -962 0
-417 -963 0
-417 -964 0
-417 -965 0
-417 -966 0
-643 417 959 960 961 962 963 964 965 966 0
-420 644 0
-967 639 0
-967 623 0
-639 -623 967 0
-968 640 0
-968 622 0
-640 -622 968 0
-969 641 0
-969 635 0
-641 -635 969 0
-970 642 0
-970 653 0
-642 -653 970 0
-971 643 0
-971 662 0
-643 -662 971 0
-972 645 0
-972 681 0
-645 -681 972 0
-973 646 0
-973 690 0
-646 -690 973 0
-974 647 0
-974 699 0
-647 -699 974 0
-420 -967 0
-420 -968 0
-420 -969 0
-420 -970 0
-420 -971 0
-420 -972 0
-420 -973 0
-420 -974 0
-644 420 967 968 969 970 971 972 973 974 0
-423 645 0
-975 639 0
-975 625 0
-639 -625 975 0
-976 640 0
-976 624 0
-640 -624 976 0
-977 641 0
-977 636 0
-641 -636 977 0
-978 642 0
-978 654 0
-642 -654 978 0
-979 643 0
-979 663 0
-643 -663 979 0
-980 644 0
-980 672 0
-644 -672 980 0
-981 646 0
-981 691 0
-646 -691 981 0
-982 647 0
-982 700 0
-647 -700 982 0
-423 -975 0
-423 -976 0
-423 -977 0
-423 -978 0
-423 -979 0
-423 -980 0
-423 -981 0
-423 -982 0
-645 423 975 976 977 978 979 980 981 982 0
-426 646 0
-983 639 0
-983 627 0
-639 -627 983 0
-984 640 0
-984 626 0
-640 -626 984 0
-985 641 0
-985 637 0
-641 -637 985 0
-986 642 0
-986 655 0
-642 -655 986 0
-987 643 0
-987 664 0
-643 -664 987 0
-988 644 0
-988 673 0
-644 -673 988 0
-989 645 0
-989 682 0
-645 -682 989 0
-990 647 0
-990 701 0
-647 -701 990 0
-426 -983 0
-426 -984 0
-426 -985 0
-426 -986 0
-426 -987 0
-426 -988 0
-426 -989 0
-426 -990 0
-646 426 983 984 985 986 987 988 989 990 0
-429 647 0
-991 639 0
-991 629 0
-639 -629 991 0
-992 640 0
-992 628 0
-640 -628 992 0
-993 641 0
-993 638 0
-641 -638 993 0
-994 642 0
-994 656 0
-642 -656 994 0
-995 643 0
-995 665 0
-643 -665 995 0
-996 644 0
-996 674 0
-644 -674 996 0
-997 645 0
-997 683 0
-645 -683 997 0
-998 646 0
-998 692 0
-646 -692 998 0
-429 -991 0
-429 -992 0
-429 -993 0
-429 -994 0
-429 -995 0
-429 -996 0
-429 -997 0
-429 -998 0
-647 429 991 992 993 994 995 996 997 998 0
-432 648 0
-999 649 0
-999 613 0
-649 -613 999 0
-1000 650 0
-1000 630 0
-650 -630 1000 0
-1001 651 0
-1001 639 0
-651 -639 1001 0
-1002 652 0
-1002 657 0
-652 -657 1002 0
-1003 653 0
-1003 666 0
-653 -666 1003 0
-1004 654 0
-1004 675 0
-654 -675 1004 0
-1005 655 0
-1005 684 0
-655 -684 1005 0
-1006 656 0
-1006 693 0
-656 -693 1006 0
-432 -999 0
-432 -1000 0
-432 -1001 0
-432 -1002 0
-432 -1003 0
-432 -1004 0
-432 -1005 0
-432 -1006 0
-648 432 999 1000 1001 1002 1003 1004 1005 1006 0
-435 649 0
-1007 648 0
-1007 612 0
-648 -612 1007 0
-1008 650 0
-1008 631 0
-650 -631 1008 0
-1009 651 0
-1009 640 0
-651 -640 1009 0
-1010 652 0
-1010 658 0
-652 -658 1010 0
-1011 653 0
-1011 667 0
-653 -667 1011 0
-1012 654 0
-1012 676 0
-654 -676 1012 0
-1013 655 0
-1013 685 0
-655 -685 1013 0
-1014 656 0
-1014 694 0
-656 -694 1014 0
-435 -1007 0
-435 -1008 0
-435 -1009 0
-435 -1010 0
-435 -1011 0
-435 -1012 0
-435 -1013 0
-435 -1014 0
-649 435 1007 1008 1009 1010 1011 1012 1013 1014 0
-438 650 0
-1015 648 0
-1015 615 0
-648 -615 1015 0
-1016 649 0
-1016 614 0
-649 -614 1016 0
-1017 651 0
-1017 641 0
-651 -641 1017 0
-1018 652 0
-1018 659 0
-652 -659 1018 0
-1019 653 0
-1019 668 0
-653 -668 1019 0
-1020 654 0
-1020 677 0
-654 -677 1020 0
-1021 655 0
-1021 686 0
-655 -686 1021 0
-1022 656 0
-1022 695 0
-656 -695 1022 0
-438 -1015 0
-438 -1016 0
-438 -1017 0
-438 -1018 0
-438 -1019 0
-438 -1020 0
-438 -1021 0
-438 -1022 0
-650 438 1015 1016 1017 1018 1019 1020 1021 1022 0
-441 651 0
-1023 648 0
-1023 617 0
-648 -617 1023 0
-1024 649 0
-1024 616 0
-649 -616 1024 0
-1025 650 0
-1025 632 0
-650 -632 1025 0
-1026 652 0
-1026 660 0
-652 -660 1026 0
-1027 653 0
-1027 669 0
-653 -669 1027 0
-1028 654 0
-1028 678 0
-654 -678 1028 0
-1029 655 0
-1029 687 0
-655 -687 1029 0
-1030 656 0
-1030 696 0
-656 -696 1030 0
-441 -1023 0
-441 -1024 0
-441 -1025 0
-441 -1026 0
-441 -1027 0
-441 -1028 0
-441 -1029 0
-441 -1030 0
-651 441 1023 1024 1025 1026 1027 1028 1029 1030 0
-444 0
-447 652 0
-1031 648 0
-1031 621 0
-648 -621 1031 0
-1032 649 0
-1032 620 0
-649 -620 1032 0
-1033 650 0
-1033 634 0
-650 -634 1033 0
-1034 651 0
-1034 643 0
-651 -643 1034 0
-1035 653 0
-1035 671 0
-653 -671 1035 0
-1036 654 0
-1036 680 0
-654 -680 1036 0
-1037 655 0
-1037 689 0
-655 -689 1037 0
-1038 656 0
-1038 698 0
-656 -698 1038 0
-447 -1031 0
-447 -1032 0
-447 -1033 0
-447 -1034 0
-447 -1035 0
-447 -1036 0
-447 -1037 0
-447 -1038 0
-652 447 1031 1032 1033 1034 1035 1036 1037 1038 0
-450 653 0
-1039 648 0
-1039 623 0
-648 -623 1039 0
-1040 649 0
-1040 622 0
-649 -622 1040 0
-1041 650 0
-1041 635 0
-650 -635 1041 0
-1042 651 0
-1042 644 0
-651 -644 1042 0
-1043 652 0
-1043 662 0
-652 -662 1043 0
-1044 654 0
-1044 681 0
-654 -681 1044 0
-1045 655 0
-1045 690 0
-655 -690 1045 0
-1046 656 0
-1046 699 0
-656 -699 1046 0
-450 -1039 0
-450 -1040 0
-450 -1041 0
-450 -1042 0
-450 -1043 0
-450 -1044 0
-450 -1045 0
-450 -1046 0
-653 450 1039 1040 1041 1042 1043 1044 1045 1046 0
-453 654 0
-1047 648 0
-1047 625 0
-648 -625 1047 0
-1048 649 0
-1048 624 0
-649 -624 1048 0
-1049 650 0
-1049 636 0
-650 -636 1049 0
-1050 651 0
-1050 645 0
-651 -645 1050 0
-1051 652 0
-1051 663 0
-652 -663 1051 0
-1052 653 0
-1052 672 0
-653 -672 1052 0
-1053 655 0
-1053 691 0
-655 -691 1053 0
-1054 656 0
-1054 700 0
-656 -700 1054 0
-453 -1047 0
-453 -1048 0
-453 -1049 0
-453 -1050 0
-453 -1051 0
-453 -1052 0
-453 -1053 0
-453 -1054 0
-654 453 1047 1048 1049 1050 1051 1052 1053 1054 0
-456 655 0
-1055 648 0
-1055 627 0
-648 -627 1055 0
-1056 649 0
-1056 626 0
-649 -626 1056 0
-1057 650 0
-1057 637 0
-650 -637 1057 0
-1058 651 0
-1058 646 0
-651 -646 1058 0
-1059 652 0
-1059 664 0
-652 -664 1059 0
-1060 653 0
-1060 673 0
-653 -673 1060 0
-1061 654 0
-1061 682 0
-654 -682 1061 0
-1062 656 0
-1062 701 0
-656 -701 1062 0
-456 -1055 0
-456 -1056 0
-456 -1057 0
-456 -1058 0
-456 -1059 0
-456 -1060 0
-456 -1061 0
-456 -1062 0
-655 456 1055 1056 1057 1058 1059 1060 1061 1062 0
-459 656 0
-1063 648 0
-1063 629 0
-648 -629 1063 0
-1064 649 0
-1064 628 0
-649 -628 1064 0
-1065 650 0
-1065 638 0
-650 -638 1065 0
-1066 651 0
-1066 647 0
-651 -647 1066 0
-1067 652 0
-1067 665 0
-652 -665 1067 0
-1068 653 0
-1068 674 0
-653 -674 1068 0
-1069 654 0
-1069 683 0
-654 -683 1069 0
-1070 655 0
-1070 692 0
-655 -692 1070 0
-459 -1063 0
-459 -1064 0
-459 -1065 0
-459 -1066 0
-459 -1067 0
-459 -1068 0
-459 -1069 0
-459 -1070 0
-656 459 1063 1064 1065 1066 1067 1068 1069 1070 0
-462 657 0
-1071 658 0
-1071 613 0
-658 -613 1071 0
-1072 659 0
-1072 630 0
-659 -630 1072 0
-1073 660 0
-1073 639 0
-660 -639 1073 0
-1074 661 0
-1074 648 0
-661 -648 1074 0
-1075 662 0
-1075 666 0
-662 -666 1075 0
-1076 663 0
-1076 675 0
-663 -675 1076 0
-1077 664 0
-1077 684 0
-664 -684 1077 0
-1078 665 0
-1078 693 0
-665 -693 1078 0
-462 -1071 0
-462 -1072 0
-462 -1073 0
-462 -1074 0
-462 -1075 0
-462 -1076 0
-462 -1077 0
-462 -1078 0
-657 462 1071 1072 1073 1074 1075 1076 1077 1078 0
-465 658 0
-1079 657 0
-1079 612 0
-657 -612 1079 0
-1080 659 0
-1080 631 0
-659 -631 1080 0
-1081 660 0
-1081 640 0
-660 -640 1081 0
-1082 661 0
-1082 649 0
-661 -649 1082 0
-1083 662 0
-1083 667 0
-662 -667 1083 0
-1084 663 0
-1084 676 0
-663 -676 1084 0
-1085 664 0
-1085 685 0
-664 -685 1085 0
-1086 665 0
-1086 694 0
-665 -694 1086 0
-465 -1079 0
-465 -1080 0
-465 -1081 0
-465 -1082 0
-465 -1083 0
-465 -1084 0
-465 -1085 0
-465 -1086 0
-658 465 1079 1080 1081 1082 1083 1084 1085 1086 0
-468 659 0
-1087 657 0
-1087 615 0
-657 -615 1087 0
-1088 658 0
-1088 614 0
-658 -614 1088 0
-1089 660 0
-1089 641 0
-660 -641 1089 0
-1090 661 0
-1090 650 0
-661 -650 1090 0
-1091 662 0
-1091 668 0
-662 -668 1091 0
-1092 663 0
-1092 677 0
-663 -677 1092 0
-1093 664 0
-1093 686 0
-664 -686 1093 0
-1094 665 0
-1094 695 0
-665 -695 1094 0
-468 -1087 0
-468 -1088 0
-468 -1089 0
-468 -1090 0
-468 -1091 0
-468 -1092 0
-468 -1093 0
-468 -1094 0
-659 468 1087 1088 1089 1090 1091 1092 1093 1094 0
-471 660 0
-1095 657 0
-1095 617 0
-657 -617 1095 0
-1096 658 0
-1096 616 0
-658 -616 1096 0
-1097 659 0
-1097 632 0
-659 -632 1097 0
-1098 661 0
-1098 651 0
-661 -651 1098 0
-1099 662 0
-1099 669 0
-662 -669 1099 0
-1100 663 0
-1100 678 0
-663 -678 1100 0
-1101 664 0
-1101 687 0
-664 -687 1101 0
-1102 665 0
-1102 696 0
-665 -696 1102 0
-471 -1095 0
-471 -1096 0
-471 -1097 0
-471 -1098 0
-471 -1099 0
-471 -1100 0
-471 -1101 0
-471 -1102 0
-660 471 1095 1096 1097 1098 1099 1100 1101 1102 0
-474 661 0
-1103 657 0
-1103 619 0
-657 -619 1103 0
-1104 658 0
-1104 618 0
-658 -618 1104 0
-1105 659 0
-1105 633 0
-659 -633 1105 0
-1106 660 0
-1106 642 0
-660 -642 1106 0
-1107 662 0
-1107 670 0
-662 -670 1107 0
-1108 663 0
-1108 679 0
-663 -679 1108 0
-1109 664 0
-1109 688 0
-664 -688 1109 0
-1110 665 0
-1110 697 0
-665 -697 1110 0
-474 -1103 0
-474 -1104 0
-474 -1105 0
-474 -1106 0
-474 -1107 0
-474 -1108 0
-474 -1109 0
-474 -1110 0
-661 474 1103 1104 1105 1106 1107 1108 1109 1110 0
-477 0
-480 662 0
-1111 657 0
-1111 623 0
-657 -623 1111 0
-1112 658 0
-1112 622 0
-658 -622 1112 0
-1113 659 0
-1113 635 0
-659 -635 1113 0
-1114 660 0
-1114 644 0
-660 -644 1114 0
-1115 661 0
-1115 653 0
-661 -653 1115 0
-1116 663 0
-1116 681 0
-663 -681 1116 0
-1117 664 0
-1117 690 0
-664 -690 1117 0
-1118 665 0
-1118 699 0
-665 -699 1118 0
-480 -1111 0
-480 -1112 0
-480 -1113 0
-480 -1114 0
-480 -1115 0
-480 -1116 0
-480 -1117 0
-480 -1118 0
-662 480 1111 1112 1113 1114 1115 1116 1117 1118 0
-483 663 0
-1119 657 0
-1119 625 0
-657 -625 1119 0
-1120 658 0
-1120 624 0
-658 -624 1120 0
-1121 659 0
-1121 636 0
-659 -636 1121 0
-1122 660 0
-1122 645 0
-660 -645 1122 0
-1123 661 0
-1123 654 0
-661 -654 1123 0
-1124 662 0
-1124 672 0
-662 -672 1124 0
-1125 664 0
-1125 691 0
-664 -691 1125 0
-1126 665 0
-1126 700 0
-665 -700 1126 0
-483 -1119 0
-483 -1120 0
-483 -1121 0
-483 -1122 0
-483 -1123 0
-483 -1124 0
-483 -1125 0
-483 -1126 0
-663 483 1119 1120 1121 1122 1123 1124 1125 1126 0
-486 664 0
-1127 657 0
-1127 627 0
-657 -627 1127 0
-1128 658 0
-1128 626 0
-658 -626 1128 0
-1129 659 0
-1129 637 0
-659 -637 1129 0
-1130 660 0
-1130 646 0
-660 -646 1130 0
-1131 661 0
-1131 655 0
-661 -655 1131 0
-1132 662 0
-1132 673 0
-662 -673 1132 0
-1133 663 0
-1133 682 0
-663 -682 1133 0
-1134 665 0
-1134 701 0
-665 -701 1134 0
-486 -1127 0
-486 -1128 0
-486 -1129 0
-486 -1130 0
-486 -1131 0
-486 -1132 0
-486 -1133 0
-486 -1134 0
-664 486 1127 1128 1129 1130 1131 1132 1133 1134 0
-489 665 0
-1135 657 0
-1135 629 0
-657 -629 1135 0
-1136 658 0
-1136 628 0
-658 -628 1136 0
-1137 659 0
-1137 638 0
-659 -638 1137 0
-1138 660 0
-1138 647 0
-660 -647 1138 0
-1139 661 0
-1139 656 0
-661 -656 1139 0
-1140 662 0
-1140 674 0
-662 -674 1140 0
-1141 663 0
-1141 683 0
-663 -683 1141 0
-1142 664 0
-1142 692 0
-664 -692 1142 0
-489 -1135 0
-489 -1136 0
-489 -1137 0
-489 -1138 0
-489 -1139 0
-489 -1140 0
-489 -1141 0
-489 -1142 0
-665 489 1135 1136 1137 1138 1139 1140 1141 1142 0
-492 666 0
-1143 667 0
-1143 613 0
-667 -613 1143 0
-1144 668 0
-1144 630 0
-668 -630 1144 0
-1145 669 0
-1145 639 0
-669 -639 1145 0
-1146 670 0
-1146 648 0
-670 -648 1146 0
-1147 671 0
-1147 657 0
-671 -657 1147 0
-1148 672 0
-1148 675 0
-672 -675 1148 0
-1149 673 0
-1149 684 0
-673 -684 1149 0
-1150 674 0
-1150 693 0
-674 -693 1150 0
-492 -1143 0
-492 -1144 0
-492 -1145 0
-492 -1146 0
-492 -1147 0
-492 -1148 0
-492 -1149 0
-492 -1150 0
-666 492 1143 1144 1145 1146 1147 1148 1149 1150 0
-495 667 0
-1151 666 0
-1151 612 0
-666 -612 1151 0
-1152 668 0
-1152 631 0
-668 -631 1152 0
-1153 669 0
-1153 640 0
-669 -640 1153 0
-1154 670 0
-1154 649 0
-670 -649 1154 0
-1155 671 0
-1155 658 0
-671 -658 1155 0
-1156 672 0
-1156 676 0
-672 -676 1156 0
-1157 673 0
-1157 685 0
-673 -685 1157 0
-1158 674 0
-1158 694 0
-674 -694 1158 0
-495 -1151 0
-495 -1152 0
-495 -1153 0
-495 -1154 0
-495 -1155 0
-495 -1156 0
-495 -1157 0
-495 -1158 0
-667 495 1151 1152 1153 1154 1155 1156 1157 1158 0
-498 668 0
-1159 666 0
-1159 615 0
-666 -615 1159 0
-1160 667 0
-1160 614 0
-667 -614 1160 0
-1161 669 0
-1161 641 0
-669 -641 1161 0
-1162 670 0
-1162 650 0
-670 -650 1162 0
-1163 671 0
-1163 659 0
-671 -659 1163 0
-1164 672 0
-1164 677 0
-672 -677 1164 0
-1165 673 0
-1165 686 0
-673 -686 1165 0
-1166 674 0
-1166 695 0
-674 -695 1166 0
-498 -1159 0
-498 -1160 0
-498 -1161 0
-498 -1162 0
-498 -1163 0
-498 -1164 0
-498 -1165 0
-498 -1166 0
-668 498 1159 1160 1161 1162 1163 1164 1165 1166 0
-501 669 0
-1167 666 0
-1167 617 0
-666 -617 1167 0
-1168 667 0
-1168 616 0
-667 -616 1168 0
-1169 668 0
-1169 632 0
-668 -632 1169 0
-1170 670 0
-1170 651 0
-670 -651 1170 0
-1171 671 0
-1171 660 0
-671 -660 1171 0
-1172 672 0
-1172 678 0
-672 -678 1172 0
-1173 673 0
-1173 687 0
-673 -687 1173 0
-1174 674 0
-1174 696 0
-674 -696 1174 0
-501 -1167 0
-501 -1168 0
-501 -1169 0
-501 -1170 0
-501 -1171 0
-501 -1172 0
-501 -1173 0
-501 -1174 0
-669 501 1167 1168 1169 1170 1171 1172 1173 1174 0
-504 670 0
-1175 666 0
-1175 619 0
-666 -619 1175 0
-1176 667 0
-1176 618 0
-667 -618 1176 0
-1177 668 0
-1177 633 0
-668 -633 1177 0
-1178 669 0
-1178 642 0
-669 -642 1178 0
-1179 671 0
-1179 661 0
-671 -661 1179 0
-1180 672 0
-1180 679 0
-672 -679 1180 0
-1181 673 0
-1181 688 0
-673 -688 1181 0
-1182 674 0
-1182 697 0
-674 -697 1182 0
-504 -1175 0
-504 -1176 0
-504 -1177 0
-504 -1178 0
-504 -1179 0
-504 -1180 0
-504 -1181 0
-504 -1182 0
-670 504 1175 1176 1177 1178 1179 1180 1181 1182 0
-507 671 0
-1183 666 0
-1183 621 0
-666 -621 1183 0
-1184 667 0
-1184 620 0
-667 -620 1184 0
-1185 668 0
-1185 634 0
-668 -634 1185 0
-1186 669 0
-1186 643 0
-669 -643 1186 0
-1187 670 0
-1187 652 0
-670 -652 1187 0
-1188 672 0
-1188 680 0
-672 -680 1188 0
-1189 673 0
-1189 689 0
-673 -689 1189 0
-1190 674 0
-1190 698 0
-674 -698 1190 0
-507 -1183 0
-507 -1184 0
-507 -1185 0
-507 -1186 0
-507 -1187 0
-507 -1188 0
-507 -1189 0
-507 -1190 0
-671 507 1183 1184 1185 1186 1187 1188 1189 1190 0
-510 0
-513 672 0
-1191 666 0
-1191 625 0
-666 -625 1191 0
-1192 667 0
-1192 624 0
-667 -624 1192 0
-1193 668 0
-1193 636 0
-668 -636 1193 0
-1194 669 0
-1194 645 0
-669 -645 1194 0
-1195 670 0
-1195 654 0
-670 -654 1195 0
-1196 671 0
-1196 663 0
-671 -663 1196 0
-1197 673 0
-1197 691 0
-673 -691 1197 0
-1198 674 0
-1198 700 0
-674 -700 1198 0
-513 -1191 0
-513 -1192 0
-513 -1193 0
-513 -1194 0
-513 -1195 0
-513 -1196 0
-513 -1197 0
-513 -1198 0
-672 513 1191 1192 1193 1194 1195 1196 1197 1198 0
-516 673 0
-1199 666 0
-1199 627 0
-666 -627 1199 0
-1200 667 0
-1200 626 0
-667 -626 1200 0
-1201 668 0
-1201 637 0
-668 -637 1201 0
-1202 669 0
-1202 646 0
-669 -646 1202 0
-1203 670 0
-1203 655 0
-670 -655 1203 0
-1204 671 0
-1204 664 0
-671 -664 1204 0
-1205 672 0
-1205 682 0
-672 -682 1205 0
-1206 674 0
-1206 701 0
-674 -701 1206 0
-516 -1199 0
-516 -1200 0
-516 -1201 0
-516 -1202 0
-516 -1203 0
-516 -1204 0
-516 -1205 0
-516 -1206 0
-673 516 1199 1200 1201 1202 1203 1204 1205 1206 0
-519 674 0
-1207 666 0
-1207 629 0
-666 -629 1207 0
-1208 667 0
-1208 628 0
-667 -628 1208 0
-1209 668 0
-1209 638 0
-668 -638 1209 0
-1210 669 0
-1210 647 0
-669 -647 1210 0
-1211 670 0
-1211 656 0
-670 -656 1211 0
-1212 671 0
-1212 665 0
-671 -665 1212 0
-1213 672 0
-1213 683 0
-672 -683 1213 0
-1214 673 0
-1214 692 0
-673 -692 1214 0
-519 -1207 0
-519 -1208 0
-519 -1209 0
-519 -1210 0
-519 -1211 0
-519 -1212 0
-519 -1213 0
-519 -1214 0
-674 519 1207 1208 1209 1210 1211 1212 1213 1214 0
-522 675 0
-1215 676 0
-1215 613 0
-676 -613 1215 0
-1216 677 0
-1216 630 0
-677 -630 1216 0
-1217 678 0
-1217 639 0
-678 -639 1217 0
-1218 679 0
-1218 648 0
-679 -648 1218 0
-1219 680 0
-1219 657 0
-680 -657 1219 0
-1220 681 0
-1220 666 0
-681 -666 1220 0
-1221 682 0
-1221 684 0
-682 -684 1221 0
-1222 683 0
-1222 693 0
-683 -693 1222 0
-522 -1215 0
-522 -1216 0
-522 -1217 0
-522 -1218 0
-522 -1219 0
-522 -1220 0
-522 -1221 0
-522 -1222 0
-675 522 1215 1216 1217 1218 1219 1220 1221 1222 0
-525 676 0
-1223 675 0
-1223 612 0
-675 -612 1223 0
-1224 677 0
-1224 631 0
-677 -631 1224 0
-1225 678 0
-1225 640 0
-678 -640 1225 0
-1226 679 0
-1226 649 0
-679 -649 1226 0
-1227 680 0
-1227 658 0
-680 -658 1227 0
-1228 681 0
-1228 667 0
-681 -667 1228 0
-1229 682 0
-1229 685 0
-682 -685 1229 0
-1230 683 0
-1230 694 0
-683 -694 1230 0
-525 -1223 0
-525 -1224 0
-525 -1225 0
-525 -1226 0
-525 -1227 0
-525 -1228 0
-525 -1229 0
-525 -1230 0
-676 525 1223 1224 1225 1226 1227 1228 1229 1230 0
-528 677 0
-1231 675 0
-1231 615 0
-675 -615 1231 0
-1232 676 0
-1232 614 0
-676 -614 1232 0
-1233 678 0
-1233 641 0
-678 -641 1233 0
-1234 679 0
-1234 650 0
-679 -650 1234 0
-1235 680 0
-1235 659 0
-680 -659 1235 0
-1236 681 0
-1236 668 0
-681 -668 1236 0
-1237 682 0
-1237 686 0
-682 -686 1237 0
-1238 683 0
-1238 695 0
-683 -695 1238 0
-528 -1231 0
-528 -1232 0
-528 -1233 0
-528 -1234 0
-528 -1235 0
-528 -1236 0
-528 -1237 0
-528 -1238 0
-677 528 1231 1232 1233 1234 1235 1236 1237 1238 0
-531 678 0
-1239 675 0
-1239 617 0
-675 -617 1239 0
-1240 676 0
-1240 616 0
-676 -616 1240 0
-1241 677 0
-1241 632 0
-677 -632 1241 0
-1242 679 0
-1242 651 0
-679 -651 1242 0
-1243 680 0
-1243 660 0
-680 -660 1243 0
-1244 681 0
-1244 669 0
-681 -669 1244 0
-1245 682 0
-1245 687 0
-682 -687 1245 0
-1246 683 0
-1246 696 0
-683 -696 1246 0
-531 -1239 0
-531 -1240 0
-531 -1241 0
-531 -1242 0
-531 -1243 0
-531 -1244 0
-531 -1245 0
-531 -1246 0
-678 531 1239 1240 1241 1242 1243 1244 1245 1246 0
-534 679 0
-1247 675 0
-1247 619 0
-675 -619 1247 0
-1248 676 0
-1248 618 0
-676 -618 1248 0
-1249 677 0
-1249 633 0
-677 -633 1249 0
-1250 678 0
-1250 642 0
-678 -642 1250 0
-1251 680 0
-1251 661 0
-680 -661 1251 0
-1252 681 0
-1252 670 0
-681 -670 1252 0
-1253 682 0
-1253 688 0
-682 -688 1253 0
-1254 683 0
-1254 697 0
-683 -697 1254 0
-534 -1247 0
-534 -1248 0
-534 -1249 0
-534 -1250 0
-534 -1251 0
-534 -1252 0
-534 -1253 0
-534 -1254 0
-679 534 1247 1248 1249 1250 1251 1252 1253 1254 0
-537 680 0
-1255 675 0
-1255 621 0
-675 -621 1255 0
-1256 676 0
-1256 620 0
-676 -620 1256 0
-1257 677 0
-1257 634 0
-677 -634 1257 0
-1258 678 0
-1258 643 0
-678 -643 1258 0
-1259 679 0
-1259 652 0
-679 -652 1259 0
-1260 681 0
-1260 671 0
-681 -671 1260 0
-1261 682 0
-1261 689 0
-682 -689 1261 0
-1262 683 0
-1262 698 0
-683 -698 1262 0
-537 -1255 0
-537 -1256 0
-537 -1257 0
-537 -1258 0
-537 -1259 0
-537 -1260 0
-537 -1261 0
-537 -1262 0
-680 537 1255 1256 1257 1258 1259 1260 1261 1262 0
-540 681 0
-1263 675 0
-1263 623 0
-675 -623 1263 0
-1264 676 0
-1264 622 0
-676 -622 1264 0
-1265 677 0
-1265 635 0
-677 -635 1265 0
-1266 678 0
-1266 644 0
-678 -644 1266 0
-1267 679 0
-1267 653 0
-679 -653 1267 0
-1268 680 0
-1268 662 0
-680 -662 1268 0
-1269 682 0
-1269 690 0
-682 -690 1269 0
-1270 683 0
-1270 699 0
-683 -699 1270 0
-540 -1263 0
-540 -1264 0
-540 -1265 0
-540 -1266 0
-540 -1267 0
-540 -1268 0
-540 -1269 0
-540 -1270 0
-681 540 1263 1264 1265 1266 1267 1268 1269 1270 0
-543 0
-546 682 0
-1271 675 0
-1271 627 0
-675 -627 1271 0
-1272 676 0
-1272 626 0
-676 -626 1272 0
-1273 677 0
-1273 637 0
-677 -637 1273 0
-1274 678 0
-1274 646 0
-678 -646 1274 0
-1275 679 0
-1275 655 0
-679 -655 1275 0
-1276 680 0
-1276 664 0
-680 -664 1276 0
-1277 681 0
-1277 673 0
-681 -673 1277 0
-1278 683 0
-1278 701 0
-683 -701 1278 0
-546 -1271 0
-546 -1272 0
-546 -1273 0
-546 -1274 0
-546 -1275 0
-546 -1276 0
-546 -1277 0
-546 -1278 0
-682 546 1271 1272 1273 1274 1275 1276 1277 1278 0
-549 683 0
-1279 675 0
-1279 629 0
-675 -629 1279 0
-1280 676 0
-1280 628 0
-676 -628 1280 0
-1281 677 0
-1281 638 0
-677 -638 1281 0
-1282 678 0
-1282 647 0
-678 -647 1282 0
-1283 679 0
-1283 656 0
-679 -656 1283 0
-1284 680 0
-1284 665 0
-680 -665 1284 0
-1285 681 0
-1285 674 0
-681 -674 1285 0
-1286 682 0
-1286 692 0
-682 -692 1286 0
-549 -1279 0
-549 -1280 0
-549 -1281 0
-549 -1282 0
-549 -1283 0
-549 -1284 0
-549 -1285 0
-549 -1286 0
-683 549 1279 1280 1281 1282 1283 1284 1285 1286 0
-552 684 0
-1287 685 0
-1287 613 0
-685 -613 1287 0
-1288 686 0
-1288 630 0
-686 -630 1288 0
-1289 687 0
-1289 639 0
-687 -639 1289 0
-1290 688 0
-1290 648 0
-688 -648 1290 0
-1291 689 0
-1291 657 0
-689 -657 1291 0
-1292 690 0
-1292 666 0
-690 -666 1292 0
-1293 691 0
-1293 675 0
-691 -675 1293 0
-1294 692 0
-1294 693 0
-692 -693 1294 0
-552 -1287 0
-552 -1288 0
-552 -1289 0
-552 -1290 0
-552 -1291 0
-552 -1292 0
-552 -1293 0
-552 -1294 0
-684 552 1287 1288 1289 1290 1291 1292 1293 1294 0
-555 685 0
-1295 684 0
-1295 612 0
-684 -612 1295 0
-1296 686 0
-1296 631 0
-686 -631 1296 0
-1297 687 0
-1297 640 0
-687 -640 1297 0
-1298 688 0
-1298 649 0
-688 -649 1298 0
-1299 689 0
-1299 658 0
-689 -658 1299 0
-1300 690 0
-1300 667 0
-690 -667 1300 0
-1301 691 0
-1301 676 0
-691 -676 1301 0
-1302 692 0
-1302 694 0
-692 -694 1302 0
-555 -1295 0
-555 -1296 0
-555 -1297 0
-555 -1298 0
-555 -1299 0
-555 -1300 0
-555 -1301 0
-555 -1302 0
-685 555 1295 1296 1297 1298 1299 1300 1301 1302 0
-558 686 0
-1303 684 0
-1303 615 0
-684 -615 1303 0
-1304 685 0
-1304 614 0
-685 -614 1304 0
-1305 687 0
-1305 641 0
-687 -641 1305 0
-1306 688 0
-1306 650 0
-688 -650 1306 0
-1307 689 0
-1307 659 0
-689 -659 1307 0
-1308 690 0
-1308 668 0
-690 -668 1308 0
-1309 691 0
-1309 677 0
-691 -677 1309 0
-1310 692 0
-1310 695 0
-692 -695 1310 0
-558 -1303 0
-558 -1304 0
-558 -1305 0
-558 -1306 0
-558 -1307 0
-558 -1308 0
-558 -1309 0
-558 -1310 0
-686 558 1303 1304 1305 1306 1307 1308 1309 1310 0
-561 687 0
-1311 684 0
-1311 617 0
-684 -617 1311 0
-1312 685 0
-1312 616 0
-685 -616 1312 0
-1313 686 0
-1313 632 0
-686 -632 1313 0
-1314 688 0
-1314 651 0
-688 -651 1314 0
-1315 689 0
-1315 660 0
-689 -660 1315 0
-1316 690 0
-1316 669 0
-690 -669 1316 0
-1317 691 0
-1317 678 0
-691 -678 1317 0
-1318 692 0
-1318 696 0
-692 -696 1318 0
-561 -1311 0
-561 -1312 0
-561 -1313 0
-561 -1314 0
-561 -1315 0
-561 -1316 0
-561 -1317 0
-561 -1318 0
-687 561 1311 1312 1313 1314 1315 1316 1317 1318 0
-564 688 0
-1319 684 0
-1319 619 0
-684 -619 1319 0
-1320 685 0
-1320 618 0
-685 -618 1320 0
-1321 686 0
-1321 633 0
-686 -633 1321 0
-1322 687 0
-1322 642 0
-687 -642 1322 0
-1323 689 0
-1323 661 0
-689 -661 1323 0
-1324 690 0
-1324 670 0
-690 -670 1324 0
-1325 691 0
-1325 679 0
-691 -679 1325 0
-1326 692 0
-1326 697 0
-692 -697 1326 0
-564 -1319 0
-564 -1320 0
-564 -1321 0
-564 -1322 0
-564 -1323 0
-564 -1324 0
-564 -1325 0
-564 -1326 0
-688 564 1319 1320 1321 1322 1323 1324 1325 1326 0
-567 689 0
-1327 684 0
-1327 621 0
-684 -621 1327 0
-1328 685 0
-1328 620 0
-685 -620 1328 0
-1329 686 0
-1329 634 0
-686 -634 1329 0
-1330 687 0
-1330 643 0
-687 -643 1330 0
-1331 688 0
-1331 652 0
-688 -652 1331 0
-1332 690 0
-1332 671 0
-690 -671 1332 0
-1333 691 0
-1333 680 0
-691 -680 1333 0
-1334 692 0
-1334 698 0
-692 -698 1334 0
-567 -1327 0
-567 -1328 0
-567 -1329 0
-567 -1330 0
-567 -1331 0
-567 -1332 0
-567 -1333 0
-567 -1334 0
-689 567 1327 1328 1329 1330 1331 1332 1333 1334 0
-570 690 0
-1335 684 0
-1335 623 0
-684 -623 1335 0
-1336 685 0
-1336 622 0
-685 -622 1336 0
-1337 686 0
-1337 635 0
-686 -635 1337 0
-1338 687 0
-1338 644 0
-687 -644 1338 0
-1339 688 0
-1339 653 0
-688 -653 1339 0
-1340 689 0
-1340 662 0
-689 -662 1340 0
-1341 691 0
-1341 681 0
-691 -681 1341 0
-1342 692 0
-1342 699 0
-692 -699 1342 0
-570 -1335 0
-570 -1336 0
-570 -1337 0
-570 -1338 0
-570 -1339 0
-570 -1340 0
-570 -1341 0
-570 -1342 0
-690 570 1335 1336 1337 1338 1339 1340 1341 1342 0
-573 691 0
-1343 684 0
-1343 625 0
-684 -625 1343 0
-1344 685 0
-1344 624 0
-685 -624 1344 0
-1345 686 0
-1345 636 0
-686 -636 1345 0
-1346 687 0
-1346 645 0
-687 -645 1346 0
-1347 688 0
-1347 654 0
-688 -654 1347 0
-1348 689 0
-1348 663 0
-689 -663 1348 0
-1349 690 0
-1349 672 0
-690 -672 1349 0
-1350 692 0
-1350 700 0
-692 -700 1350 0
-573 -1343 0
-573 -1344 0
-573 -1345 0
-573 -1346 0
-573 -1347 0
-573 -1348 0
-573 -1349 0
-573 -1350 0
-691 573 1343 1344 1345 1346 1347 1348 1349 1350 0
-576 0
-579 692 0
-1351 684 0
-1351 629 0
-684 -629 1351 0
-1352 685 0
-1352 628 0
-685 -628 1352 0
-1353 686 0
-1353 638 0
-686 -638 1353 0
-1354 687 0
-1354 647 0
-687 -647 1354 0
-1355 688 0
-1355 656 0
-688 -656 1355 0
-1356 689 0
-1356 665 0
-689 -665 1356 0
-1357 690 0
-1357 674 0
-690 -674 1357 0
-1358 691 0
-1358 683 0
-691 -683 1358 0
-579 -1351 0
-579 -1352 0
-579 -1353 0
-579 -1354 0
-579 -1355 0
-579 -1356 0
-579 -1357 0
-579 -1358 0
-692 579 1351 1352 1353 1354 1355 1356 1357 1358 0
-582 693 0
-1359 694 0
-1359 613 0
-694 -613 1359 0
-1360 695 0
-1360 630 0
-695 -630 1360 0
-1361 696 0
-1361 639 0
-696 -639 1361 0
-1362 697 0
-1362 648 0
-697 -648 1362 0
-1363 698 0
-1363 657 0
-698 -657 1363 0
-1364 699 0
-1364 666 0
-699 -666 1364 0
-1365 700 0
-1365 675 0
-700 -675 1365 0
-1366 701 0
-1366 684 0
-701 -684 1366 0
-582 -1359 0
-582 -1360 0
-582 -1361 0
-582 -1362 0
-582 -1363 0
-582 -1364 0
-582 -1365 0
-582 -1366 0
-693 582 1359 1360 1361 1362 1363 1364 1365 1366 0
-585 694 0
-1367 693 0
-1367 612 0
-693 -612 1367 0
-1368 695 0
-1368 631 0
-695 -631 1368 0
-1369 696 0
-1369 640 0
-696 -640 1369 0
-1370 697 0
-1370 649 0
-697 -649 1370 0
-1371 698 0
-1371 658 0
-698 -658 1371 0
-1372 699 0
-1372 667 0
-699 -667 1372 0
-1373 700 0
-1373 676 0
-700 -676 1373 0
-1374 701 0
-1374 685 0
-701 -685 1374 0
-585 -1367 0
-585 -1368 0
-585 -1369 0
-585 -1370 0
-585 -1371 0
-585 -1372 0
-585 -1373 0
-585 -1374 0
-694 585 1367 1368 1369 1370 1371 1372 1373 1374 0
-588 695 0
-1375 693 0
-1375 615 0
-693 -615 1375 0
-1376 694 0
-1376 614 0
-694 -614 1376 0
-1377 696 0
-1377 641 0
-696 -641 1377 0
-1378 697 0
-1378 650 0
-697 -650 1378 0
-1379 698 0
-1379 659 0
-698 -659 1379 0
-1380 699 0
-1380 668 0
-699 -668 1380 0
-1381 700 0
-1381 677 0
-700 -677 1381 0
-1382 701 0
-1382 686 0
-701 -686 1382 0
-588 -1375 0
-588 -1376 0
-588 -1377 0
-588 -1378 0
-588 -1379 0
-588 -1380 0
-588 -1381 0
-588 -1382 0
-695 588 1375 1376 1377 1378 1379 1380 1381 1382 0
-591 696 0
-1383 693 0
-1383 617 0
-693 -617 1383 0
-1384 694 0
-1384 616 0
-694 -616 1384 0
-1385 695 0
-1385 632 0
-695 -632 1385 0
-1386 697 0
-1386 651 0
-697 -651 1386 0
-1387 698 0
-1387 660 0
-698 -660 1387 0
-1388 699 0
-1388 669 0
-699 -669 1388 0
-1389 700 0
-1389 678 0
-700 -678 1389 0
-1390 701 0
-1390 687 0
-701 -687 1390 0
-591 -1383 0
-591 -1384 0
-591 -1385 0
-591 -1386 0
-591 -1387 0
-591 -1388 0
-591 -1389 0
-591 -1390 0
-696 591 1383 1384 1385 1386 1387 1388 1389 1390 0
-594 697 0
-1391 693 0
-1391 619 0
-693 -619 1391 0
-1392 694 0
-1392 618 0
-694 -618 1392 0
-1393 695 0
-1393 633 0
-695 -633 1393 0
-1394 696 0
-1394 642 0
-696 -642 1394 0
-1395 698 0
-1395 661 0
-698 -661 1395 0
-1396 699 0
-1396 670 0
-699 -670 1396 0
-1397 700 0
-1397 679 0
-700 -679 1397 0
-1398 701 0
-1398 688 0
-701 -688 1398 0
-594 -1391 0
-594 -1392 0
-594 -1393 0
-594 -1394 0
-594 -1395 0
-594 -1396 0
-594 -1397 0
-594 -1398 0
-697 594 1391 1392 1393 1394 1395 1396 1397 1398 0
-597 698 0
-1399 693 0
-1399 621 0
-693 -621 1399 0
-1400 694 0
-1400 620 0
-694 -620 1400 0
-1401 695 0
-1401 634 0
-695 -634 1401 0
-1402 696 0
-1402 643 0
-696 -643 1402 0
-1403 697 0
-1403 652 0
-697 -652 1403 0
-1404 699 0
-1404 671 0
-699 -671 1404 0
-1405 700 0
-1405 680 0
-700 -680 1405 0
-1406 701 0
-1406 689 0
-701 -689 1406 0
-597 -1399 0
-597 -1400 0
-597 -1401 0
-597 -1402 0
-597 -1403 0
-597 -1404 0
-597 -1405 0
-597 -1406 0
-698 597 1399 1400 1401 1402 1403 1404 1405 1406 0
-600 699 0
-1407 693 0
-1407 623 0
-693 -623 1407 0
-1408 694 0
-1408 622 0
-694 -622 1408 0
-1409 695 0
-1409 635 0
-695 -635 1409 0
-1410 696 0
-1410 644 0
-696 -644 1410 0
-1411 697 0
-1411 653 0
-697 -653 1411 0
-1412 698 0
-1412 662 0
-698 -662 1412 0
-1413 700 0
-1413 681 0
-700 -681 1413 0
-1414 701 0
-1414 690 0
-701 -690 1414 0
-600 -1407 0
-600 -1408 0
-600 -1409 0
-600 -1410 0
-600 -1411 0
-600 -1412 0
-600 -1413 0
-600 -1414 0
-699 600 1407 1408 1409 1410 1411 1412 1413 1414 0
-603 700 0
-1415 693 0
-1415 625 0
-693 -625 1415 0
-1416 694 0
-1416 624 0
-694 -624 1416 0
-1417 695 0
-1417 636 0
-695 -636 1417 0
-1418 696 0
-1418 645 0
-696 -645 1418 0
-1419 697 0
-1419 654 0
-697 -654 1419 0
-1420 698 0
-1420 663 0
-698 -663 1420 0
-1421 699 0
-1421 672 0
-699 -672 1421 0
-1422 701 0
-1422 691 0
-701 -691 1422 0
-603 -1415 0
-603 -1416 0
-603 -1417 0
-603 -1418 0
-603 -1419 0
-603 -1420 0
-603 -1421 0
-603 -1422 0
-700 603 1415 1416 1417 1418 1419 1420 1421 1422 0
-606 701 0
-1423 693 0
-1423 627 0
-693 -627 1423 0
-1424 694 0
-1424 626 0
-694 -626 1424 0
-1425 695 0
-1425 637 0
-695 -637 1425 0
-1426 696 0
-1426 646 0
-696 -646 1426 0
-1427 697 0
-1427 655 0
-697 -655 1427 0
-1428 698 0
-1428 664 0
-698 -664 1428 0
-1429 699 0
-1429 673 0
-699 -673 1429 0
-1430 700 0
-1430 682 0
-700 -682 1430 0
-606 -1423 0
-606 -1424 0
-606 -1425 0
-606 -1426 0
-606 -1427 0
-606 -1428 0
-606 -1429 0
-606 -1430 0
-701 606 1423 1424 1425 1426 1427 1428 1429 1430 0
-609 0
