p cnf 7182 35802
1 1 -2 0
1 3 -4 0
1 5 -6 0
1 7 -8 0
1 9 -10 0
1 11 -12 0
1 13 -14 0
1 15 -16 0
1 17 -18 0
1 19 -20 0
1 21 -22 0
1 23 -24 0
1 25 -26 0
1 27 -28 0
1 29 -30 0
1 31 -32 0
1 33 -34 0
1 35 -36 0
3 1 -37 0
3 3 -38 0
3 5 -39 0
3 7 -40 0
3 9 -41 0
3 11 -42 0
3 13 -43 0
3 15 -44 0
3 17 -45 0
3 19 -46 0
3 21 -47 0
3 23 -48 0
3 25 -49 0
3 27 -50 0
3 29 -51 0
3 31 -52 0
3 33 -53 0
3 35 -54 0
5 1 -55 0
5 3 -56 0
5 5 -57 0
5 7 -58 0
5 9 -59 0
5 11 -60 0
5 13 -61 0
5 15 -62 0
5 17 -63 0
5 19 -64 0
5 21 -65 0
5 23 -66 0
5 25 -67 0
5 27 -68 0
5 29 -69 0
5 31 -70 0
5 33 -71 0
5 35 -72 0
7 1 -73 0
7 3 -74 0
7 5 -75 0
7 7 -76 0
7 9 -77 0
7 11 -78 0
7 13 -79 0
7 15 -80 0
7 17 -81 0
7 19 -82 0
7 21 -83 0
7 23 -84 0
7 25 -85 0
7 27 -86 0
7 29 -87 0
7 31 -88 0
7 33 -89 0
7 35 -90 0
9 1 -91 0
9 3 -92 0
9 5 -93 0
9 7 -94 0
9 9 -95 0
9 11 -96 0
9 13 -97 0
9 15 -98 0
9 17 -99 0
9 19 -100 0
9 21 -101 0
9 23 -102 0
9 25 -103 0
9 27 -104 0
9 29 -105 0
9 31 -106 0
9 33 -107 0
9 35 -108 0
11 1 -109 0
11 3 -110 0
11 5 -111 0
11 7 -112 0
11 9 -113 0
11 11 -114 0
11 13 -115 0
11 15 -116 0
11 17 -117 0
11 19 -118 0
11 21 -119 0
11 23 -120 0
11 25 -121 0
11 27 -122 0
11 29 -123 0
11 31 -124 0
11 33 -125 0
11 35 -126 0
13 1 -127 0
13 3 -128 0
13 5 -129 0
13 7 -130 0
13 9 -131 0
13 11 -132 0
13 13 -133 0
13 15 -134 0
13 17 -135 0
13 19 -136 0
13 21 -137 0
13 23 -138 0
13 25 -139 0
13 27 -140 0
13 29 -141 0
13 31 -142 0
13 33 -143 0
13 35 -144 0
15 1 -145 0
15 3 -146 0
15 5 -147 0
15 7 -148 0
15 9 -149 0
15 11 -150 0
15 13 -151 0
15 15 -152 0
15 17 -153 0
15 19 -154 0
15 21 -155 0
15 23 -156 0
15 25 -157 0
15 27 -158 0
15 29 -159 0
15 31 -160 0
15 33 -161 0
15 35 -162 0
17 1 -163 0
17 3 -164 0
17 5 -165 0
17 7 -166 0
17 9 -167 0
17 11 -168 0
17 13 -169 0
17 15 -170 0
17 17 -171 0
17 19 -172 0
17 21 -173 0
17 23 -174 0
17 25 -175 0
17 27 -176 0
17 29 -177 0
17 31 -178 0
17 33 -179 0
17 35 -180 0
19 1 -181 0
19 3 -182 0
19 5 -183 0
19 7 -184 0
19 9 -185 0
19 11 -186 0
19 13 -187 0
19 15 -188 0
19 17 -189 0
19 19 -190 0
19 21 -191 0
19 23 -192 0
19 25 -193 0
19 27 -194 0
19 29 -195 0
19 31 -196 0
19 33 -197 0
19 35 -198 0
21 1 -199 0
21 3 -200 0
21 5 -201 0
21 7 -202 0
21 9 -203 0
21 11 -204 0
21 13 -205 0
21 15 -206 0
21 17 -207 0
21 19 -208 0
21 21 -209 0
21 23 -210 0
21 25 -211 0
21 27 -212 0
21 29 -213 0
21 31 -214 0
21 33 -215 0
21 35 -216 0
23 1 -217 0
23 3 -218 0
23 5 -219 0
23 7 -220 0
23 9 -221 0
23 11 -222 0
23 13 -223 0
23 15 -224 0
23 17 -225 0
23 19 -226 0
23 21 -227 0
23 23 -228 0
23 25 -229 0
23 27 -230 0
23 29 -231 0
23 31 -232 0
23 33 -233 0
23 35 -234 0
25 1 -235 0
25 3 -236 0
25 5 -237 0
25 7 -238 0
25 9 -239 0
25 11 -240 0
25 13 -241 0
25 15 -242 0
25 17 -243 0
25 19 -244 0
25 21 -245 0
25 23 -246 0
25 25 -247 0
25 27 -248 0
25 29 -249 0
25 31 -250 0
25 33 -251 0
25 35 -252 0
27 1 -253 0
27 3 -254 0
27 5 -255 0
27 7 -256 0
27 9 -257 0
27 11 -258 0
27 13 -259 0
27 15 -260 0
27 17 -261 0
27 19 -262 0
27 21 -263 0
27 23 -264 0
27 25 -265 0
27 27 -266 0
27 29 -267 0
27 31 -268 0
27 33 -269 0
27 35 -270 0
29 1 -271 0
29 3 -272 0
29 5 -273 0
29 7 -274 0
29 9 -275 0
29 11 -276 0
29 13 -277 0
29 15 -278 0
29 17 -279 0
29 19 -280 0
29 21 -281 0
29 23 -282 0
29 25 -283 0
29 27 -284 0
29 29 -285 0
29 31 -286 0
29 33 -287 0
29 35 -288 0
31 1 -289 0
31 3 -290 0
31 5 -291 0
31 7 -292 0
31 9 -293 0
31 11 -294 0
31 13 -295 0
31 15 -296 0
31 17 -297 0
31 19 -298 0
31 21 -299 0
31 23 -300 0
31 25 -301 0
31 27 -302 0
31 29 -303 0
31 31 -304 0
31 33 -305 0
31 35 -306 0
33 1 -307 0
33 3 -308 0
33 5 -309 0
33 7 -310 0
33 9 -311 0
33 11 -312 0
33 13 -313 0
33 15 -314 0
33 17 -315 0
33 19 -316 0
33 21 -317 0
33 23 -318 0
33 25 -319 0
33 27 -320 0
33 29 -321 0
33 31 -322 0
33 33 -323 0
33 35 -324 0
35 1 -325 0
35 3 -326 0
35 5 -327 0
35 7 -328 0
35 9 -329 0
35 11 -330 0
35 13 -331 0
35 15 -332 0
35 17 -333 0
35 19 -334 0
35 21 -335 0
35 23 -336 0
35 25 -337 0
35 27 -338 0
35 29 -339 0
35 31 -340 0
35 33 -341 0
35 35 -342 0
2 -1 0
4 -1 0
6 -1 0
8 -1 0
10 -1 0
12 -1 0
14 -1 0
16 -1 0
18 -1 0
20 -1 0
22 -1 0
24 -1 0
26 -1 0
28 -1 0
30 -1 0
32 -1 0
34 -1 0
36 -1 0
37 -3 0
38 -3 0
39 -3 0
40 -3 0
41 -3 0
42 -3 0
43 -3 0
44 -3 0
45 -3 0
46 -3 0
47 -3 0
48 -3 0
49 -3 0
50 -3 0
51 -3 0
52 -3 0
53 -3 0
54 -3 0
55 -5 0
56 -5 0
57 -5 0
58 -5 0
59 -5 0
60 -5 0
61 -5 0
62 -5 0
63 -5 0
64 -5 0
65 -5 0
66 -5 0
67 -5 0
68 -5 0
69 -5 0
70 -5 0
71 -5 0
72 -5 0
73 -7 0
74 -7 0
75 -7 0
76 -7 0
77 -7 0
78 -7 0
79 -7 0
80 -7 0
81 -7 0
82 -7 0
83 -7 0
84 -7 0
85 -7 0
86 -7 0
87 -7 0
88 -7 0
89 -7 0
90 -7 0
91 -9 0
92 -9 0
93 -9 0
94 -9 0
95 -9 0
96 -9 0
97 -9 0
98 -9 0
99 -9 0
100 -9 0
101 -9 0
102 -9 0
103 -9 0
104 -9 0
105 -9 0
106 -9 0
107 -9 0
108 -9 0
109 -11 0
110 -11 0
111 -11 0
112 -11 0
113 -11 0
114 -11 0
115 -11 0
116 -11 0
117 -11 0
118 -11 0
119 -11 0
120 -11 0
121 -11 0
122 -11 0
123 -11 0
124 -11 0
125 -11 0
126 -11 0
127 -13 0
128 -13 0
129 -13 0
130 -13 0
131 -13 0
132 -13 0
133 -13 0
134 -13 0
135 -13 0
136 -13 0
137 -13 0
138 -13 0
139 -13 0
140 -13 0
141 -13 0
142 -13 0
143 -13 0
144 -13 0
145 -15 0
146 -15 0
147 -15 0
148 -15 0
149 -15 0
150 -15 0
151 -15 0
152 -15 0
153 -15 0
154 -15 0
155 -15 0
156 -15 0
157 -15 0
158 -15 0
159 -15 0
160 -15 0
161 -15 0
162 -15 0
163 -17 0
164 -17 0
165 -17 0
166 -17 0
167 -17 0
168 -17 0
169 -17 0
170 -17 0
171 -17 0
172 -17 0
173 -17 0
174 -17 0
175 -17 0
176 -17 0
177 -17 0
178 -17 0
179 -17 0
180 -17 0
181 -19 0
182 -19 0
183 -19 0
184 -19 0
185 -19 0
186 -19 0
187 -19 0
188 -19 0
189 -19 0
190 -19 0
191 -19 0
192 -19 0
193 -19 0
194 -19 0
195 -19 0
196 -19 0
197 -19 0
198 -19 0
199 -21 0
200 -21 0
201 -21 0
202 -21 0
203 -21 0
204 -21 0
205 -21 0
206 -21 0
207 -21 0
208 -21 0
209 -21 0
210 -21 0
211 -21 0
212 -21 0
213 -21 0
214 -21 0
215 -21 0
216 -21 0
217 -23 0
218 -23 0
219 -23 0
220 -23 0
221 -23 0
222 -23 0
223 -23 0
224 -23 0
225 -23 0
226 -23 0
227 -23 0
228 -23 0
229 -23 0
230 -23 0
231 -23 0
232 -23 0
233 -23 0
234 -23 0
235 -25 0
236 -25 0
237 -25 0
238 -25 0
239 -25 0
240 -25 0
241 -25 0
242 -25 0
243 -25 0
244 -25 0
245 -25 0
246 -25 0
247 -25 0
248 -25 0
249 -25 0
250 -25 0
251 -25 0
252 -25 0
253 -27 0
254 -27 0
255 -27 0
256 -27 0
257 -27 0
258 -27 0
259 -27 0
260 -27 0
261 -27 0
262 -27 0
263 -27 0
264 -27 0
265 -27 0
266 -27 0
267 -27 0
268 -27 0
269 -27 0
270 -27 0
271 -29 0
272 -29 0
273 -29 0
274 -29 0
275 -29 0
276 -29 0
277 -29 0
278 -29 0
279 -29 0
280 -29 0
281 -29 0
282 -29 0
283 -29 0
284 -29 0
285 -29 0
286 -29 0
287 -29 0
288 -29 0
289 -31 0
290 -31 0
291 -31 0
292 -31 0
293 -31 0
294 -31 0
295 -31 0
296 -31 0
297 -31 0
298 -31 0
299 -31 0
300 -31 0
301 -31 0
302 -31 0
303 -31 0
304 -31 0
305 -31 0
306 -31 0
307 -33 0
308 -33 0
309 -33 0
310 -33 0
311 -33 0
312 -33 0
313 -33 0
314 -33 0
315 -33 0
316 -33 0
317 -33 0
318 -33 0
319 -33 0
320 -33 0
321 -33 0
322 -33 0
323 -33 0
324 -33 0
325 -35 0
326 -35 0
327 -35 0
328 -35 0
329 -35 0
330 -35 0
331 -35 0
332 -35 0
333 -35 0
334 -35 0
335 -35 0
336 -35 0
337 -35 0
338 -35 0
339 -35 0
340 -35 0
341 -35 0
342 -35 0
2 -1 0
4 -3 0
6 -5 0
8 -7 0
10 -9 0
12 -11 0
14 -13 0
16 -15 0
18 -17 0
20 -19 0
22 -21 0
24 -23 0
26 -25 0
28 -27 0
30 -29 0
32 -31 0
34 -33 0
36 -35 0
37 -1 0
38 -3 0
39 -5 0
40 -7 0
41 -9 0
42 -11 0
43 -13 0
44 -15 0
45 -17 0
46 -19 0
47 -21 0
48 -23 0
49 -25 0
50 -27 0
51 -29 0
52 -31 0
53 -33 0
54 -35 0
55 -1 0
56 -3 0
57 -5 0
58 -7 0
59 -9 0
60 -11 0
61 -13 0
62 -15 0
63 -17 0
64 -19 0
65 -21 0
66 -23 0
67 -25 0
68 -27 0
69 -29 0
70 -31 0
71 -33 0
72 -35 0
73 -1 0
74 -3 0
75 -5 0
76 -7 0
77 -9 0
78 -11 0
79 -13 0
80 -15 0
81 -17 0
82 -19 0
83 -21 0
84 -23 0
85 -25 0
86 -27 0
87 -29 0
88 -31 0
89 -33 0
90 -35 0
91 -1 0
92 -3 0
93 -5 0
94 -7 0
95 -9 0
96 -11 0
97 -13 0
98 -15 0
99 -17 0
100 -19 0
101 -21 0
102 -23 0
103 -25 0
104 -27 0
105 -29 0
106 -31 0
107 -33 0
108 -35 0
109 -1 0
110 -3 0
111 -5 0
112 -7 0
113 -9 0
114 -11 0
115 -13 0
116 -15 0
117 -17 0
118 -19 0
119 -21 0
120 -23 0
121 -25 0
122 -27 0
123 -29 0
124 -31 0
125 -33 0
126 -35 0
127 -1 0
128 -3 0
129 -5 0
130 -7 0
131 -9 0
132 -11 0
133 -13 0
134 -15 0
135 -17 0
136 -19 0
137 -21 0
138 -23 0
139 -25 0
140 -27 0
141 -29 0
142 -31 0
143 -33 0
144 -35 0
145 -1 0
146 -3 0
147 -5 0
148 -7 0
149 -9 0
150 -11 0
151 -13 0
152 -15 0
153 -17 0
154 -19 0
155 -21 0
156 -23 0
157 -25 0
158 -27 0
159 -29 0
160 -31 0
161 -33 0
162 -35 0
163 -1 0
164 -3 0
165 -5 0
166 -7 0
167 -9 0
168 -11 0
169 -13 0
170 -15 0
171 -17 0
172 -19 0
173 -21 0
174 -23 0
175 -25 0
176 -27 0
177 -29 0
178 -31 0
179 -33 0
180 -35 0
181 -1 0
182 -3 0
183 -5 0
184 -7 0
185 -9 0
186 -11 0
187 -13 0
188 -15 0
189 -17 0
190 -19 0
191 -21 0
192 -23 0
193 -25 0
194 -27 0
195 -29 0
196 -31 0
197 -33 0
198 -35 0
199 -1 0
200 -3 0
201 -5 0
202 -7 0
203 -9 0
204 -11 0
205 -13 0
206 -15 0
207 -17 0
208 -19 0
209 -21 0
210 -23 0
211 -25 0
212 -27 0
213 -29 0
214 -31 0
215 -33 0
216 -35 0
217 -1 0
218 -3 0
219 -5 0
220 -7 0
221 -9 0
222 -11 0
223 -13 0
224 -15 0
225 -17 0
226 -19 0
227 -21 0
228 -23 0
229 -25 0
230 -27 0
231 -29 0
232 -31 0
233 -33 0
234 -35 0
235 -1 0
236 -3 0
237 -5 0
238 -7 0
239 -9 0
240 -11 0
241 -13 0
242 -15 0
243 -17 0
244 -19 0
245 -21 0
246 -23 0
247 -25 0
248 -27 0
249 -29 0
250 -31 0
251 -33 0
252 -35 0
253 -1 0
254 -3 0
255 -5 0
256 -7 0
257 -9 0
258 -11 0
259 -13 0
260 -15 0
261 -17 0
262 -19 0
263 -21 0
264 -23 0
265 -25 0
266 -27 0
267 -29 0
268 -31 0
269 -33 0
270 -35 0
271 -1 0
272 -3 0
273 -5 0
274 -7 0
275 -9 0
276 -11 0
277 -13 0
278 -15 0
279 -17 0
280 -19 0
281 -21 0
282 -23 0
283 -25 0
284 -27 0
285 -29 0
286 -31 0
287 -33 0
288 -35 0
289 -1 0
290 -3 0
291 -5 0
292 -7 0
293 -9 0
294 -11 0
295 -13 0
296 -15 0
297 -17 0
298 -19 0
299 -21 0
300 -23 0
301 -25 0
302 -27 0
303 -29 0
304 -31 0
305 -33 0
306 -35 0
307 -1 0
308 -3 0
309 -5 0
310 -7 0
311 -9 0
312 -11 0
313 -13 0
314 -15 0
315 -17 0
316 -19 0
317 -21 0
318 -23 0
319 -25 0
320 -27 0
321 -29 0
322 -31 0
323 -33 0
324 -35 0
325 -1 0
326 -3 0
327 -5 0
328 -7 0
329 -9 0
330 -11 0
331 -13 0
332 -15 0
333 -17 0
334 -19 0
335 -21 0
336 -23 0
337 -25 0
338 -27 0
339 -29 0
340 -31 0
341 -33 0
342 -35 0
-1 -1 -343 0
-1 -3 -344 0
-1 -5 -345 0
-1 -7 -346 0
-1 -9 -347 0
-1 -11 -348 0
-1 -13 -349 0
-1 -15 -350 0
-1 -17 -351 0
-1 -19 -352 0
-1 -21 -353 0
-1 -23 -354 0
-1 -25 -355 0
-1 -27 -356 0
-1 -29 -357 0
-1 -31 -358 0
-1 -33 -359 0
-1 -35 -360 0
-3 -1 -361 0
-3 -3 -362 0
-3 -5 -363 0
-3 -7 -364 0
-3 -9 -365 0
-3 -11 -366 0
-3 -13 -367 0
-3 -15 -368 0
-3 -17 -369 0
-3 -19 -370 0
-3 -21 -371 0
-3 -23 -372 0
-3 -25 -373 0
-3 -27 -374 0
-3 -29 -375 0
-3 -31 -376 0
-3 -33 -377 0
-3 -35 -378 0
-5 -1 -379 0
-5 -3 -380 0
-5 -5 -381 0
-5 -7 -382 0
-5 -9 -383 0
-5 -11 -384 0
-5 -13 -385 0
-5 -15 -386 0
-5 -17 -387 0
-5 -19 -388 0
-5 -21 -389 0
-5 -23 -390 0
-5 -25 -391 0
-5 -27 -392 0
-5 -29 -393 0
-5 -31 -394 0
-5 -33 -395 0
-5 -35 -396 0
-7 -1 -397 0
-7 -3 -398 0
-7 -5 -399 0
-7 -7 -400 0
-7 -9 -401 0
-7 -11 -402 0
-7 -13 -403 0
-7 -15 -404 0
-7 -17 -405 0
-7 -19 -406 0
-7 -21 -407 0
-7 -23 -408 0
-7 -25 -409 0
-7 -27 -410 0
-7 -29 -411 0
-7 -31 -412 0
-7 -33 -413 0
-7 -35 -414 0
-9 -1 -415 0
-9 -3 -416 0
-9 -5 -417 0
-9 -7 -418 0
-9 -9 -419 0
-9 -11 -420 0
-9 -13 -421 0
-9 -15 -422 0
-9 -17 -423 0
-9 -19 -424 0
-9 -21 -425 0
-9 -23 -426 0
-9 -25 -427 0
-9 -27 -428 0
-9 -29 -429 0
-9 -31 -430 0
-9 -33 -431 0
-9 -35 -432 0
-11 -1 -433 0
-11 -3 -434 0
-11 -5 -435 0
-11 -7 -436 0
-11 -9 -437 0
-11 -11 -438 0
-11 -13 -439 0
-11 -15 -440 0
-11 -17 -441 0
-11 -19 -442 0
-11 -21 -443 0
-11 -23 -444 0
-11 -25 -445 0
-11 -27 -446 0
-11 -29 -447 0
-11 -31 -448 0
-11 -33 -449 0
-11 -35 -450 0
-13 -1 -451 0
-13 -3 -452 0
-13 -5 -453 0
-13 -7 -454 0
-13 -9 -455 0
-13 -11 -456 0
-13 -13 -457 0
-13 -15 -458 0
-13 -17 -459 0
-13 -19 -460 0
-13 -21 -461 0
-13 -23 -462 0
-13 -25 -463 0
-13 -27 -464 0
-13 -29 -465 0
-13 -31 -466 0
-13 -33 -467 0
-13 -35 -468 0
-15 -1 -469 0
-15 -3 -470 0
-15 -5 -471 0
-15 -7 -472 0
-15 -9 -473 0
-15 -11 -474 0
-15 -13 -475 0
-15 -15 -476 0
-15 -17 -477 0
-15 -19 -478 0
-15 -21 -479 0
-15 -23 -480 0
-15 -25 -481 0
-15 -27 -482 0
-15 -29 -483 0
-15 -31 -484 0
-15 -33 -485 0
-15 -35 -486 0
-17 -1 -487 0
-17 -3 -488 0
-17 -5 -489 0
-17 -7 -490 0
-17 -9 -491 0
-17 -11 -492 0
-17 -13 -493 0
-17 -15 -494 0
-17 -17 -495 0
-17 -19 -496 0
-17 -21 -497 0
-17 -23 -498 0
-17 -25 -499 0
-17 -27 -500 0
-17 -29 -501 0
-17 -31 -502 0
-17 -33 -503 0
-17 -35 -504 0
-19 -1 -505 0
-19 -3 -506 0
-19 -5 -507 0
-19 -7 -508 0
-19 -9 -509 0
-19 -11 -510 0
-19 -13 -511 0
-19 -15 -512 0
-19 -17 -513 0
-19 -19 -514 0
-19 -21 -515 0
-19 -23 -516 0
-19 -25 -517 0
-19 -27 -518 0
-19 -29 -519 0
-19 -31 -520 0
-19 -33 -521 0
-19 -35 -522 0
-21 -1 -523 0
-21 -3 -524 0
-21 -5 -525 0
-21 -7 -526 0
-21 -9 -527 0
-21 -11 -528 0
-21 -13 -529 0
-21 -15 -530 0
-21 -17 -531 0
-21 -19 -532 0
-21 -21 -533 0
-21 -23 -534 0
-21 -25 -535 0
-21 -27 -536 0
-21 -29 -537 0
-21 -31 -538 0
-21 -33 -539 0
-21 -35 -540 0
-23 -1 -541 0
-23 -3 -542 0
-23 -5 -543 0
-23 -7 -544 0
-23 -9 -545 0
-23 -11 -546 0
-23 -13 -547 0
-23 -15 -548 0
-23 -17 -549 0
-23 -19 -550 0
-23 -21 -551 0
-23 -23 -552 0
-23 -25 -553 0
-23 -27 -554 0
-23 -29 -555 0
-23 -31 -556 0
-23 -33 -557 0
-23 -35 -558 0
-25 -1 -559 0
-25 -3 -560 0
-25 -5 -561 0
-25 -7 -562 0
-25 -9 -563 0
-25 -11 -564 0
-25 -13 -565 0
-25 -15 -566 0
-25 -17 -567 0
-25 -19 -568 0
-25 -21 -569 0
-25 -23 -570 0
-25 -25 -571 0
-25 -27 -572 0
-25 -29 -573 0
-25 -31 -574 0
-25 -33 -575 0
-25 -35 -576 0
-27 -1 -577 0
-27 -3 -578 0
-27 -5 -579 0
-27 -7 -580 0
-27 -9 -581 0
-27 -11 -582 0
-27 -13 -583 0
-27 -15 -584 0
-27 -17 -585 0
-27 -19 -586 0
-27 -21 -587 0
-27 -23 -588 0
-27 -25 -589 0
-27 -27 -590 0
-27 -29 -591 0
-27 -31 -592 0
-27 -33 -593 0
-27 -35 -594 0
-29 -1 -595 0
-29 -3 -596 0
-29 -5 -597 0
-29 -7 -598 0
-29 -9 -599 0
-29 -11 -600 0
-29 -13 -601 0
-29 -15 -602 0
-29 -17 -603 0
-29 -19 -604 0
-29 -21 -605 0
-29 -23 -606 0
-29 -25 -607 0
-29 -27 -608 0
-29 -29 -609 0
-29 -31 -610 0
-29 -33 -611 0
-29 -35 -612 0
-31 -1 -613 0
-31 -3 -614 0
-31 -5 -615 0
-31 -7 -616 0
-31 -9 -617 0
-31 -11 -618 0
-31 -13 -619 0
-31 -15 -620 0
-31 -17 -621 0
-31 -19 -622 0
-31 -21 -623 0
-31 -23 -624 0
-31 -25 -625 0
-31 -27 -626 0
-31 -29 -627 0
-31 -31 -628 0
-31 -33 -629 0
-31 -35 -630 0
-33 -1 -631 0
-33 -3 -632 0
-33 -5 -633 0
-33 -7 -634 0
-33 -9 -635 0
-33 -11 -636 0
-33 -13 -637 0
-33 -15 -638 0
-33 -17 -639 0
-33 -19 -640 0
-33 -21 -641 0
-33 -23 -642 0
-33 -25 -643 0
-33 -27 -644 0
-33 -29 -645 0
-33 -31 -646 0
-33 -33 -647 0
-33 -35 -648 0
-35 -1 -649 0
-35 -3 -650 0
-35 -5 -651 0
-35 -7 -652 0
-35 -9 -653 0
-35 -11 -654 0
-35 -13 -655 0
-35 -15 -656 0
-35 -17 -657 0
-35 -19 -658 0
-35 -21 -659 0
-35 -23 -660 0
-35 -25 -661 0
-35 -27 -662 0
-35 -29 -663 0
-35 -31 -664 0
-35 -33 -665 0
-35 -35 -666 0
343 1 0
344 1 0
345 1 0
346 1 0
347 1 0
348 1 0
349 1 0
350 1 0
351 1 0
352 1 0
353 1 0
354 1 0
355 1 0
356 1 0
357 1 0
358 1 0
359 1 0
360 1 0
361 3 0
362 3 0
363 3 0
364 3 0
365 3 0
366 3 0
367 3 0
368 3 0
369 3 0
370 3 0
371 3 0
372 3 0
373 3 0
374 3 0
375 3 0
376 3 0
377 3 0
378 3 0
379 5 0
380 5 0
381 5 0
382 5 0
383 5 0
384 5 0
385 5 0
386 5 0
387 5 0
388 5 0
389 5 0
390 5 0
391 5 0
392 5 0
393 5 0
394 5 0
395 5 0
396 5 0
397 7 0
398 7 0
399 7 0
400 7 0
401 7 0
402 7 0
403 7 0
404 7 0
405 7 0
406 7 0
407 7 0
408 7 0
409 7 0
410 7 0
411 7 0
412 7 0
413 7 0
414 7 0
415 9 0
416 9 0
417 9 0
418 9 0
419 9 0
420 9 0
421 9 0
422 9 0
423 9 0
424 9 0
425 9 0
426 9 0
427 9 0
428 9 0
429 9 0
430 9 0
431 9 0
432 9 0
433 11 0
434 11 0
435 11 0
436 11 0
437 11 0
438 11 0
439 11 0
440 11 0
441 11 0
442 11 0
443 11 0
444 11 0
445 11 0
446 11 0
447 11 0
448 11 0
449 11 0
450 11 0
451 13 0
452 13 0
453 13 0
454 13 0
455 13 0
456 13 0
457 13 0
458 13 0
459 13 0
460 13 0
461 13 0
462 13 0
463 13 0
464 13 0
465 13 0
466 13 0
467 13 0
468 13 0
469 15 0
470 15 0
471 15 0
472 15 0
473 15 0
474 15 0
475 15 0
476 15 0
477 15 0
478 15 0
479 15 0
480 15 0
481 15 0
482 15 0
483 15 0
484 15 0
485 15 0
486 15 0
487 17 0
488 17 0
489 17 0
490 17 0
491 17 0
492 17 0
493 17 0
494 17 0
495 17 0
496 17 0
497 17 0
498 17 0
499 17 0
500 17 0
501 17 0
502 17 0
503 17 0
504 17 0
505 19 0
506 19 0
507 19 0
508 19 0
509 19 0
510 19 0
511 19 0
512 19 0
513 19 0
514 19 0
515 19 0
516 19 0
517 19 0
518 19 0
519 19 0
520 19 0
521 19 0
522 19 0
523 21 0
524 21 0
525 21 0
526 21 0
527 21 0
528 21 0
529 21 0
530 21 0
531 21 0
532 21 0
533 21 0
534 21 0
535 21 0
536 21 0
537 21 0
538 21 0
539 21 0
540 21 0
541 23 0
542 23 0
543 23 0
544 23 0
545 23 0
546 23 0
547 23 0
548 23 0
549 23 0
550 23 0
551 23 0
552 23 0
553 23 0
554 23 0
555 23 0
556 23 0
557 23 0
558 23 0
559 25 0
560 25 0
561 25 0
562 25 0
563 25 0
564 25 0
565 25 0
566 25 0
567 25 0
568 25 0
569 25 0
570 25 0
571 25 0
572 25 0
573 25 0
574 25 0
575 25 0
576 25 0
577 27 0
578 27 0
579 27 0
580 27 0
581 27 0
582 27 0
583 27 0
584 27 0
585 27 0
586 27 0
587 27 0
588 27 0
589 27 0
590 27 0
591 27 0
592 27 0
593 27 0
594 27 0
595 29 0
596 29 0
597 29 0
598 29 0
599 29 0
600 29 0
601 29 0
602 29 0
603 29 0
604 29 0
605 29 0
606 29 0
607 29 0
608 29 0
609 29 0
610 29 0
611 29 0
612 29 0
613 31 0
614 31 0
615 31 0
616 31 0
617 31 0
618 31 0
619 31 0
620 31 0
621 31 0
622 31 0
623 31 0
624 31 0
625 31 0
626 31 0
627 31 0
628 31 0
629 31 0
630 31 0
631 33 0
632 33 0
633 33 0
634 33 0
635 33 0
636 33 0
637 33 0
638 33 0
639 33 0
640 33 0
641 33 0
642 33 0
643 33 0
644 33 0
645 33 0
646 33 0
647 33 0
648 33 0
649 35 0
650 35 0
651 35 0
652 35 0
653 35 0
654 35 0
655 35 0
656 35 0
657 35 0
658 35 0
659 35 0
660 35 0
661 35 0
662 35 0
663 35 0
664 35 0
665 35 0
666 35 0
343 1 0
344 3 0
345 5 0
346 7 0
347 9 0
348 11 0
349 13 0
350 15 0
351 17 0
352 19 0
353 21 0
354 23 0
355 25 0
356 27 0
357 29 0
358 31 0
359 33 0
360 35 0
361 1 0
362 3 0
363 5 0
364 7 0
365 9 0
366 11 0
367 13 0
368 15 0
369 17 0
370 19 0
371 21 0
372 23 0
373 25 0
374 27 0
375 29 0
376 31 0
377 33 0
378 35 0
379 1 0
380 3 0
381 5 0
382 7 0
383 9 0
384 11 0
385 13 0
386 15 0
387 17 0
388 19 0
389 21 0
390 23 0
391 25 0
392 27 0
393 29 0
394 31 0
395 33 0
396 35 0
397 1 0
398 3 0
399 5 0
400 7 0
401 9 0
402 11 0
403 13 0
404 15 0
405 17 0
406 19 0
407 21 0
408 23 0
409 25 0
410 27 0
411 29 0
412 31 0
413 33 0
414 35 0
415 1 0
416 3 0
417 5 0
418 7 0
419 9 0
420 11 0
421 13 0
422 15 0
423 17 0
424 19 0
425 21 0
426 23 0
427 25 0
428 27 0
429 29 0
430 31 0
431 33 0
432 35 0
433 1 0
434 3 0
435 5 0
436 7 0
437 9 0
438 11 0
439 13 0
440 15 0
441 17 0
442 19 0
443 21 0
444 23 0
445 25 0
446 27 0
447 29 0
448 31 0
449 33 0
450 35 0
451 1 0
452 3 0
453 5 0
454 7 0
455 9 0
456 11 0
457 13 0
458 15 0
459 17 0
460 19 0
461 21 0
462 23 0
463 25 0
464 27 0
465 29 0
466 31 0
467 33 0
468 35 0
469 1 0
470 3 0
471 5 0
472 7 0
473 9 0
474 11 0
475 13 0
476 15 0
477 17 0
478 19 0
479 21 0
480 23 0
481 25 0
482 27 0
483 29 0
484 31 0
485 33 0
486 35 0
487 1 0
488 3 0
489 5 0
490 7 0
491 9 0
492 11 0
493 13 0
494 15 0
495 17 0
496 19 0
497 21 0
498 23 0
499 25 0
500 27 0
501 29 0
502 31 0
503 33 0
504 35 0
505 1 0
506 3 0
507 5 0
508 7 0
509 9 0
510 11 0
511 13 0
512 15 0
513 17 0
514 19 0
515 21 0
516 23 0
517 25 0
518 27 0
519 29 0
520 31 0
521 33 0
522 35 0
523 1 0
524 3 0
525 5 0
526 7 0
527 9 0
528 11 0
529 13 0
530 15 0
531 17 0
532 19 0
533 21 0
534 23 0
535 25 0
536 27 0
537 29 0
538 31 0
539 33 0
540 35 0
541 1 0
542 3 0
543 5 0
544 7 0
545 9 0
546 11 0
547 13 0
548 15 0
549 17 0
550 19 0
551 21 0
552 23 0
553 25 0
554 27 0
555 29 0
556 31 0
557 33 0
558 35 0
559 1 0
560 3 0
561 5 0
562 7 0
563 9 0
564 11 0
565 13 0
566 15 0
567 17 0
568 19 0
569 21 0
570 23 0
571 25 0
572 27 0
573 29 0
574 31 0
575 33 0
576 35 0
577 1 0
578 3 0
579 5 0
580 7 0
581 9 0
582 11 0
583 13 0
584 15 0
585 17 0
586 19 0
587 21 0
588 23 0
589 25 0
590 27 0
591 29 0
592 31 0
593 33 0
594 35 0
595 1 0
596 3 0
597 5 0
598 7 0
599 9 0
600 11 0
601 13 0
602 15 0
603 17 0
604 19 0
605 21 0
606 23 0
607 25 0
608 27 0
609 29 0
610 31 0
611 33 0
612 35 0
613 1 0
614 3 0
615 5 0
616 7 0
617 9 0
618 11 0
619 13 0
620 15 0
621 17 0
622 19 0
623 21 0
624 23 0
625 25 0
626 27 0
627 29 0
628 31 0
629 33 0
630 35 0
631 1 0
632 3 0
633 5 0
634 7 0
635 9 0
636 11 0
637 13 0
638 15 0
639 17 0
640 19 0
641 21 0
642 23 0
643 25 0
644 27 0
645 29 0
646 31 0
647 33 0
648 35 0
649 1 0
650 3 0
651 5 0
652 7 0
653 9 0
654 11 0
655 13 0
656 15 0
657 17 0
658 19 0
659 21 0
660 23 0
661 25 0
662 27 0
663 29 0
664 31 0
665 33 0
666 35 0
-2 -343 667 0
-4 -344 668 0
-6 -345 669 0
-8 -346 670 0
-10 -347 671 0
-12 -348 672 0
-14 -349 673 0
-16 -350 674 0
-18 -351 675 0
-20 -352 676 0
-22 -353 677 0
-24 -354 678 0
-26 -355 679 0
-28 -356 680 0
-30 -357 681 0
-32 -358 682 0
-34 -359 683 0
-36 -360 684 0
-37 -361 685 0
-38 -362 686 0
-39 -363 687 0
-40 -364 688 0
-41 -365 689 0
-42 -366 690 0
-43 -367 691 0
-44 -368 692 0
-45 -369 693 0
-46 -370 694 0
-47 -371 695 0
-48 -372 696 0
-49 -373 697 0
-50 -374 698 0
-51 -375 699 0
-52 -376 700 0
-53 -377 701 0
-54 -378 702 0
-55 -379 703 0
-56 -380 704 0
-57 -381 705 0
-58 -382 706 0
-59 -383 707 0
-60 -384 708 0
-61 -385 709 0
-62 -386 710 0
-63 -387 711 0
-64 -388 712 0
-65 -389 713 0
-66 -390 714 0
-67 -391 715 0
-68 -392 716 0
-69 -393 717 0
-70 -394 718 0
-71 -395 719 0
-72 -396 720 0
-73 -397 721 0
-74 -398 722 0
-75 -399 723 0
-76 -400 724 0
-77 -401 725 0
-78 -402 726 0
-79 -403 727 0
-80 -404 728 0
-81 -405 729 0
-82 -406 730 0
-83 -407 731 0
-84 -408 732 0
-85 -409 733 0
-86 -410 734 0
-87 -411 735 0
-88 -412 736 0
-89 -413 737 0
-90 -414 738 0
-91 -415 739 0
-92 -416 740 0
-93 -417 741 0
-94 -418 742 0
-95 -419 743 0
-96 -420 744 0
-97 -421 745 0
-98 -422 746 0
-99 -423 747 0
-100 -424 748 0
-101 -425 749 0
-102 -426 750 0
-103 -427 751 0
-104 -428 752 0
-105 -429 753 0
-106 -430 754 0
-107 -431 755 0
-108 -432 756 0
-109 -433 757 0
-110 -434 758 0
-111 -435 759 0
-112 -436 760 0
-113 -437 761 0
-114 -438 762 0
-115 -439 763 0
-116 -440 764 0
-117 -441 765 0
-118 -442 766 0
-119 -443 767 0
-120 -444 768 0
-121 -445 769 0
-122 -446 770 0
-123 -447 771 0
-124 -448 772 0
-125 -449 773 0
-126 -450 774 0
-127 -451 775 0
-128 -452 776 0
-129 -453 777 0
-130 -454 778 0
-131 -455 779 0
-132 -456 780 0
-133 -457 781 0
-134 -458 782 0
-135 -459 783 0
-136 -460 784 0
-137 -461 785 0
-138 -462 786 0
-139 -463 787 0
-140 -464 788 0
-141 -465 789 0
-142 -466 790 0
-143 -467 791 0
-144 -468 792 0
-145 -469 793 0
-146 -470 794 0
-147 -471 795 0
-148 -472 796 0
-149 -473 797 0
-150 -474 798 0
-151 -475 799 0
-152 -476 800 0
-153 -477 801 0
-154 -478 802 0
-155 -479 803 0
-156 -480 804 0
-157 -481 805 0
-158 -482 806 0
-159 -483 807 0
-160 -484 808 0
-161 -485 809 0
-162 -486 810 0
-163 -487 811 0
-164 -488 812 0
-165 -489 813 0
-166 -490 814 0
-167 -491 815 0
-168 -492 816 0
-169 -493 817 0
-170 -494 818 0
-171 -495 819 0
-172 -496 820 0
-173 -497 821 0
-174 -498 822 0
-175 -499 823 0
-176 -500 824 0
-177 -501 825 0
-178 -502 826 0
-179 -503 827 0
-180 -504 828 0
-181 -505 829 0
-182 -506 830 0
-183 -507 831 0
-184 -508 832 0
-185 -509 833 0
-186 -510 834 0
-187 -511 835 0
-188 -512 836 0
-189 -513 837 0
-190 -514 838 0
-191 -515 839 0
-192 -516 840 0
-193 -517 841 0
-194 -518 842 0
-195 -519 843 0
-196 -520 844 0
-197 -521 845 0
-198 -522 846 0
-199 -523 847 0
-200 -524 848 0
-201 -525 849 0
-202 -526 850 0
-203 -527 851 0
-204 -528 852 0
-205 -529 853 0
-206 -530 854 0
-207 -531 855 0
-208 -532 856 0
-209 -533 857 0
-210 -534 858 0
-211 -535 859 0
-212 -536 860 0
-213 -537 861 0
-214 -538 862 0
-215 -539 863 0
-216 -540 864 0
-217 -541 865 0
-218 -542 866 0
-219 -543 867 0
-220 -544 868 0
-221 -545 869 0
-222 -546 870 0
-223 -547 871 0
-224 -548 872 0
-225 -549 873 0
-226 -550 874 0
-227 -551 875 0
-228 -552 876 0
-229 -553 877 0
-230 -554 878 0
-231 -555 879 0
-232 -556 880 0
-233 -557 881 0
-234 -558 882 0
-235 -559 883 0
-236 -560 884 0
-237 -561 885 0
-238 -562 886 0
-239 -563 887 0
-240 -564 888 0
-241 -565 889 0
-242 -566 890 0
-243 -567 891 0
-244 -568 892 0
-245 -569 893 0
-246 -570 894 0
-247 -571 895 0
-248 -572 896 0
-249 -573 897 0
-250 -574 898 0
-251 -575 899 0
-252 -576 900 0
-253 -577 901 0
-254 -578 902 0
-255 -579 903 0
-256 -580 904 0
-257 -581 905 0
-258 -582 906 0
-259 -583 907 0
-260 -584 908 0
-261 -585 909 0
-262 -586 910 0
-263 -587 911 0
-264 -588 912 0
-265 -589 913 0
-266 -590 914 0
-267 -591 915 0
-268 -592 916 0
-269 -593 917 0
-270 -594 918 0
-271 -595 919 0
-272 -596 920 0
-273 -597 921 0
-274 -598 922 0
-275 -599 923 0
-276 -600 924 0
-277 -601 925 0
-278 -602 926 0
-279 -603 927 0
-280 -604 928 0
-281 -605 929 0
-282 -606 930 0
-283 -607 931 0
-284 -608 932 0
-285 -609 933 0
-286 -610 934 0
-287 -611 935 0
-288 -612 936 0
-289 -613 937 0
-290 -614 938 0
-291 -615 939 0
-292 -616 940 0
-293 -617 941 0
-294 -618 942 0
-295 -619 943 0
-296 -620 944 0
-297 -621 945 0
-298 -622 946 0
-299 -623 947 0
-300 -624 948 0
-301 -625 949 0
-302 -626 950 0
-303 -627 951 0
-304 -628 952 0
-305 -629 953 0
-306 -630 954 0
-307 -631 955 0
-308 -632 956 0
-309 -633 957 0
-310 -634 958 0
-311 -635 959 0
-312 -636 960 0
-313 -637 961 0
-314 -638 962 0
-315 -639 963 0
-316 -640 964 0
-317 -641 965 0
-318 -642 966 0
-319 -643 967 0
-320 -644 968 0
-321 -645 969 0
-322 -646 970 0
-323 -647 971 0
-324 -648 972 0
-325 -649 973 0
-326 -650 974 0
-327 -651 975 0
-328 -652 976 0
-329 -653 977 0
-330 -654 978 0
-331 -655 979 0
-332 -656 980 0
-333 -657 981 0
-334 -658 982 0
-335 -659 983 0
-336 -660 984 0
-337 -661 985 0
-338 -662 986 0
-339 -663 987 0
-340 -664 988 0
-341 -665 989 0
-342 -666 990 0
-667 2 0
-668 4 0
-669 6 0
-670 8 0
-671 10 0
-672 12 0
-673 14 0
-674 16 0
-675 18 0
-676 20 0
-677 22 0
-678 24 0
-679 26 0
-680 28 0
-681 30 0
-682 32 0
-683 34 0
-684 36 0
-685 37 0
-686 38 0
-687 39 0
-688 40 0
-689 41 0
-690 42 0
-691 43 0
-692 44 0
-693 45 0
-694 46 0
-695 47 0
-696 48 0
-697 49 0
-698 50 0
-699 51 0
-700 52 0
-701 53 0
-702 54 0
-703 55 0
-704 56 0
-705 57 0
-706 58 0
-707 59 0
-708 60 0
-709 61 0
-710 62 0
-711 63 0
-712 64 0
-713 65 0
-714 66 0
-715 67 0
-716 68 0
-717 69 0
-718 70 0
-719 71 0
-720 72 0
-721 73 0
-722 74 0
-723 75 0
-724 76 0
-725 77 0
-726 78 0
-727 79 0
-728 80 0
-729 81 0
-730 82 0
-731 83 0
-732 84 0
-733 85 0
-734 86 0
-735 87 0
-736 88 0
-737 89 0
-738 90 0
-739 91 0
-740 92 0
-741 93 0
-742 94 0
-743 95 0
-744 96 0
-745 97 0
-746 98 0
-747 99 0
-748 100 0
-749 101 0
-750 102 0
-751 103 0
-752 104 0
-753 105 0
-754 106 0
-755 107 0
-756 108 0
-757 109 0
-758 110 0
-759 111 0
-760 112 0
-761 113 0
-762 114 0
-763 115 0
-764 116 0
-765 117 0
-766 118 0
-767 119 0
-768 120 0
-769 121 0
-770 122 0
-771 123 0
-772 124 0
-773 125 0
-774 126 0
-775 127 0
-776 128 0
-777 129 0
-778 130 0
-779 131 0
-780 132 0
-781 133 0
-782 134 0
-783 135 0
-784 136 0
-785 137 0
-786 138 0
-787 139 0
-788 140 0
-789 141 0
-790 142 0
-791 143 0
-792 144 0
-793 145 0
-794 146 0
-795 147 0
-796 148 0
-797 149 0
-798 150 0
-799 151 0
-800 152 0
-801 153 0
-802 154 0
-803 155 0
-804 156 0
-805 157 0
-806 158 0
-807 159 0
-808 160 0
-809 161 0
-810 162 0
-811 163 0
-812 164 0
-813 165 0
-814 166 0
-815 167 0
-816 168 0
-817 169 0
-818 170 0
-819 171 0
-820 172 0
-821 173 0
-822 174 0
-823 175 0
-824 176 0
-825 177 0
-826 178 0
-827 179 0
-828 180 0
-829 181 0
-830 182 0
-831 183 0
-832 184 0
-833 185 0
-834 186 0
-835 187 0
-836 188 0
-837 189 0
-838 190 0
-839 191 0
-840 192 0
-841 193 0
-842 194 0
-843 195 0
-844 196 0
-845 197 0
-846 198 0
-847 199 0
-848 200 0
-849 201 0
-850 202 0
-851 203 0
-852 204 0
-853 205 0
-854 206 0
-855 207 0
-856 208 0
-857 209 0
-858 210 0
-859 211 0
-860 212 0
-861 213 0
-862 214 0
-863 215 0
-864 216 0
-865 217 0
-866 218 0
-867 219 0
-868 220 0
-869 221 0
-870 222 0
-871 223 0
-872 224 0
-873 225 0
-874 226 0
-875 227 0
-876 228 0
-877 229 0
-878 230 0
-879 231 0
-880 232 0
-881 233 0
-882 234 0
-883 235 0
-884 236 0
-885 237 0
-886 238 0
-887 239 0
-888 240 0
-889 241 0
-890 242 0
-891 243 0
-892 244 0
-893 245 0
-894 246 0
-895 247 0
-896 248 0
-897 249 0
-898 250 0
-899 251 0
-900 252 0
-901 253 0
-902 254 0
-903 255 0
-904 256 0
-905 257 0
-906 258 0
-907 259 0
-908 260 0
-909 261 0
-910 262 0
-911 263 0
-912 264 0
-913 265 0
-914 266 0
-915 267 0
-916 268 0
-917 269 0
-918 270 0
-919 271 0
-920 272 0
-921 273 0
-922 274 0
-923 275 0
-924 276 0
-925 277 0
-926 278 0
-927 279 0
-928 280 0
-929 281 0
-930 282 0
-931 283 0
-932 284 0
-933 285 0
-934 286 0
-935 287 0
-936 288 0
-937 289 0
-938 290 0
-939 291 0
-940 292 0
-941 293 0
-942 294 0
-943 295 0
-944 296 0
-945 297 0
-946 298 0
-947 299 0
-948 300 0
-949 301 0
-950 302 0
-951 303 0
-952 304 0
-953 305 0
-954 306 0
-955 307 0
-956 308 0
-957 309 0
-958 310 0
-959 311 0
-960 312 0
-961 313 0
-962 314 0
-963 315 0
-964 316 0
-965 317 0
-966 318 0
-967 319 0
-968 320 0
-969 321 0
-970 322 0
-971 323 0
-972 324 0
-973 325 0
-974 326 0
-975 327 0
-976 328 0
-977 329 0
-978 330 0
-979 331 0
-980 332 0
-981 333 0
-982 334 0
-983 335 0
-984 336 0
-985 337 0
-986 338 0
-987 339 0
-988 340 0
-989 341 0
-990 342 0
-667 343 0
-668 344 0
-669 345 0
-670 346 0
-671 347 0
-672 348 0
-673 349 0
-674 350 0
-675 351 0
-676 352 0
-677 353 0
-678 354 0
-679 355 0
-680 356 0
-681 357 0
-682 358 0
-683 359 0
-684 360 0
-685 361 0
-686 362 0
-687 363 0
-688 364 0
-689 365 0
-690 366 0
-691 367 0
-692 368 0
-693 369 0
-694 370 0
-695 371 0
-696 372 0
-697 373 0
-698 374 0
-699 375 0
-700 376 0
-701 377 0
-702 378 0
-703 379 0
-704 380 0
-705 381 0
-706 382 0
-707 383 0
-708 384 0
-709 385 0
-710 386 0
-711 387 0
-712 388 0
-713 389 0
-714 390 0
-715 391 0
-716 392 0
-717 393 0
-718 394 0
-719 395 0
-720 396 0
-721 397 0
-722 398 0
-723 399 0
-724 400 0
-725 401 0
-726 402 0
-727 403 0
-728 404 0
-729 405 0
-730 406 0
-731 407 0
-732 408 0
-733 409 0
-734 410 0
-735 411 0
-736 412 0
-737 413 0
-738 414 0
-739 415 0
-740 416 0
-741 417 0
-742 418 0
-743 419 0
-744 420 0
-745 421 0
-746 422 0
-747 423 0
-748 424 0
-749 425 0
-750 426 0
-751 427 0
-752 428 0
-753 429 0
-754 430 0
-755 431 0
-756 432 0
-757 433 0
-758 434 0
-759 435 0
-760 436 0
-761 437 0
-762 438 0
-763 439 0
-764 440 0
-765 441 0
-766 442 0
-767 443 0
-768 444 0
-769 445 0
-770 446 0
-771 447 0
-772 448 0
-773 449 0
-774 450 0
-775 451 0
-776 452 0
-777 453 0
-778 454 0
-779 455 0
-780 456 0
-781 457 0
-782 458 0
-783 459 0
-784 460 0
-785 461 0
-786 462 0
-787 463 0
-788 464 0
-789 465 0
-790 466 0
-791 467 0
-792 468 0
-793 469 0
-794 470 0
-795 471 0
-796 472 0
-797 473 0
-798 474 0
-799 475 0
-800 476 0
-801 477 0
-802 478 0
-803 479 0
-804 480 0
-805 481 0
-806 482 0
-807 483 0
-808 484 0
-809 485 0
-810 486 0
-811 487 0
-812 488 0
-813 489 0
-814 490 0
-815 491 0
-816 492 0
-817 493 0
-818 494 0
-819 495 0
-820 496 0
-821 497 0
-822 498 0
-823 499 0
-824 500 0
-825 501 0
-826 502 0
-827 503 0
-828 504 0
-829 505 0
-830 506 0
-831 507 0
-832 508 0
-833 509 0
-834 510 0
-835 511 0
-836 512 0
-837 513 0
-838 514 0
-839 515 0
-840 516 0
-841 517 0
-842 518 0
-843 519 0
-844 520 0
-845 521 0
-846 522 0
-847 523 0
-848 524 0
-849 525 0
-850 526 0
-851 527 0
-852 528 0
-853 529 0
-854 530 0
-855 531 0
-856 532 0
-857 533 0
-858 534 0
-859 535 0
-860 536 0
-861 537 0
-862 538 0
-863 539 0
-864 540 0
-865 541 0
-866 542 0
-867 543 0
-868 544 0
-869 545 0
-870 546 0
-871 547 0
-872 548 0
-873 549 0
-874 550 0
-875 551 0
-876 552 0
-877 553 0
-878 554 0
-879 555 0
-880 556 0
-881 557 0
-882 558 0
-883 559 0
-884 560 0
-885 561 0
-886 562 0
-887 563 0
-888 564 0
-889 565 0
-890 566 0
-891 567 0
-892 568 0
-893 569 0
-894 570 0
-895 571 0
-896 572 0
-897 573 0
-898 574 0
-899 575 0
-900 576 0
-901 577 0
-902 578 0
-903 579 0
-904 580 0
-905 581 0
-906 582 0
-907 583 0
-908 584 0
-909 585 0
-910 586 0
-911 587 0
-912 588 0
-913 589 0
-914 590 0
-915 591 0
-916 592 0
-917 593 0
-918 594 0
-919 595 0
-920 596 0
-921 597 0
-922 598 0
-923 599 0
-924 600 0
-925 601 0
-926 602 0
-927 603 0
-928 604 0
-929 605 0
-930 606 0
-931 607 0
-932 608 0
-933 609 0
-934 610 0
-935 611 0
-936 612 0
-937 613 0
-938 614 0
-939 615 0
-940 616 0
-941 617 0
-942 618 0
-943 619 0
-944 620 0
-945 621 0
-946 622 0
-947 623 0
-948 624 0
-949 625 0
-950 626 0
-951 627 0
-952 628 0
-953 629 0
-954 630 0
-955 631 0
-956 632 0
-957 633 0
-958 634 0
-959 635 0
-960 636 0
-961 637 0
-962 638 0
-963 639 0
-964 640 0
-965 641 0
-966 642 0
-967 643 0
-968 644 0
-969 645 0
-970 646 0
-971 647 0
-972 648 0
-973 649 0
-974 650 0
-975 651 0
-976 652 0
-977 653 0
-978 654 0
-979 655 0
-980 656 0
-981 657 0
-982 658 0
-983 659 0
-984 660 0
-985 661 0
-986 662 0
-987 663 0
-988 664 0
-989 665 0
-990 666 0
-991 -992 667 -993 0
-994 -995 668 -996 0
-997 -998 669 -999 0
-1000 -1001 670 -1002 0
-1003 -1004 671 -1005 0
-1006 -1007 672 -1008 0
-1009 -1010 673 -1011 0
-1012 -1013 674 -1014 0
-1015 -1016 675 -1017 0
-1018 -1019 676 -1020 0
-1021 -1022 677 -1023 0
-1024 -1025 678 -1026 0
-1027 -1028 679 -1029 0
-1030 -1031 680 -1032 0
-1033 -1034 681 -1035 0
-1036 -1037 682 -1038 0
-1039 -1040 683 -1041 0
-1042 -1043 684 -1044 0
-1045 -1046 685 -1047 0
-1048 -1049 686 -1050 0
-1051 -1052 687 -1053 0
-1054 -1055 688 -1056 0
-1057 -1058 689 -1059 0
-1060 -1061 690 -1062 0
-1063 -1064 691 -1065 0
-1066 -1067 692 -1068 0
-1069 -1070 693 -1071 0
-1072 -1073 694 -1074 0
-1075 -1076 695 -1077 0
-1078 -1079 696 -1080 0
-1081 -1082 697 -1083 0
-1084 -1085 698 -1086 0
-1087 -1088 699 -1089 0
-1090 -1091 700 -1092 0
-1093 -1094 701 -1095 0
-1096 -1097 702 -1098 0
-1099 -1100 703 -1101 0
-1102 -1103 704 -1104 0
-1105 -1106 705 -1107 0
-1108 -1109 706 -1110 0
-1111 -1112 707 -1113 0
-1114 -1115 708 -1116 0
-1117 -1118 709 -1119 0
-1120 -1121 710 -1122 0
-1123 -1124 711 -1125 0
-1126 -1127 712 -1128 0
-1129 -1130 713 -1131 0
-1132 -1133 714 -1134 0
-1135 -1136 715 -1137 0
-1138 -1139 716 -1140 0
-1141 -1142 717 -1143 0
-1144 -1145 718 -1146 0
-1147 -1148 719 -1149 0
-1150 -1151 720 -1152 0
-1153 -1154 721 -1155 0
-1156 -1157 722 -1158 0
-1159 -1160 723 -1161 0
-1162 -1163 724 -1164 0
-1165 -1166 725 -1167 0
-1168 -1169 726 -1170 0
-1171 -1172 727 -1173 0
-1174 -1175 728 -1176 0
-1177 -1178 729 -1179 0
-1180 -1181 730 -1182 0
-1183 -1184 731 -1185 0
-1186 -1187 732 -1188 0
-1189 -1190 733 -1191 0
-1192 -1193 734 -1194 0
-1195 -1196 735 -1197 0
-1198 -1199 736 -1200 0
-1201 -1202 737 -1203 0
-1204 -1205 738 -1206 0
-1207 -1208 739 -1209 0
-1210 -1211 740 -1212 0
-1213 -1214 741 -1215 0
-1216 -1217 742 -1218 0
-1219 -1220 743 -1221 0
-1222 -1223 744 -1224 0
-1225 -1226 745 -1227 0
-1228 -1229 746 -1230 0
-1231 -1232 747 -1233 0
-1234 -1235 748 -1236 0
-1237 -1238 749 -1239 0
-1240 -1241 750 -1242 0
-1243 -1244 751 -1245 0
-1246 -1247 752 -1248 0
-1249 -1250 753 -1251 0
-1252 -1253 754 -1254 0
-1255 -1256 755 -1257 0
-1258 -1259 756 -1260 0
-1261 -1262 757 -1263 0
-1264 -1265 758 -1266 0
-1267 -1268 759 -1269 0
-1270 -1271 760 -1272 0
-1273 -1274 761 -1275 0
-1276 -1277 762 -1278 0
-1279 -1280 763 -1281 0
-1282 -1283 764 -1284 0
-1285 -1286 765 -1287 0
-1288 -1289 766 -1290 0
-1291 -1292 767 -1293 0
-1294 -1295 768 -1296 0
-1297 -1298 769 -1299 0
-1300 -1301 770 -1302 0
-1303 -1304 771 -1305 0
-1306 -1307 772 -1308 0
-1309 -1310 773 -1311 0
-1312 -1313 774 -1314 0
-1315 -1316 775 -1317 0
-1318 -1319 776 -1320 0
-1321 -1322 777 -1323 0
-1324 -1325 778 -1326 0
-1327 -1328 779 -1329 0
-1330 -1331 780 -1332 0
-1333 -1334 781 -1335 0
-1336 -1337 782 -1338 0
-1339 -1340 783 -1341 0
-1342 -1343 784 -1344 0
-1345 -1346 785 -1347 0
-1348 -1349 786 -1350 0
-1351 -1352 787 -1353 0
-1354 -1355 788 -1356 0
-1357 -1358 789 -1359 0
-1360 -1361 790 -1362 0
-1363 -1364 791 -1365 0
-1366 -1367 792 -1368 0
-1369 -1370 793 -1371 0
-1372 -1373 794 -1374 0
-1375 -1376 795 -1377 0
-1378 -1379 796 -1380 0
-1381 -1382 797 -1383 0
-1384 -1385 798 -1386 0
-1387 -1388 799 -1389 0
-1390 -1391 800 -1392 0
-1393 -1394 801 -1395 0
-1396 -1397 802 -1398 0
-1399 -1400 803 -1401 0
-1402 -1403 804 -1404 0
-1405 -1406 805 -1407 0
-1408 -1409 806 -1410 0
-1411 -1412 807 -1413 0
-1414 -1415 808 -1416 0
-1417 -1418 809 -1419 0
-1420 -1421 810 -1422 0
-1423 -1424 811 -1425 0
-1426 -1427 812 -1428 0
-1429 -1430 813 -1431 0
-1432 -1433 814 -1434 0
-1435 -1436 815 -1437 0
-1438 -1439 816 -1440 0
-1441 -1442 817 -1443 0
-1444 -1445 818 -1446 0
-1447 -1448 819 -1449 0
-1450 -1451 820 -1452 0
-1453 -1454 821 -1455 0
-1456 -1457 822 -1458 0
-1459 -1460 823 -1461 0
-1462 -1463 824 -1464 0
-1465 -1466 825 -1467 0
-1468 -1469 826 -1470 0
-1471 -1472 827 -1473 0
-1474 -1475 828 -1476 0
-1477 -1478 829 -1479 0
-1480 -1481 830 -1482 0
-1483 -1484 831 -1485 0
-1486 -1487 832 -1488 0
-1489 -1490 833 -1491 0
-1492 -1493 834 -1494 0
-1495 -1496 835 -1497 0
-1498 -1499 836 -1500 0
-1501 -1502 837 -1503 0
-1504 -1505 838 -1506 0
-1507 -1508 839 -1509 0
-1510 -1511 840 -1512 0
-1513 -1514 841 -1515 0
-1516 -1517 842 -1518 0
-1519 -1520 843 -1521 0
-1522 -1523 844 -1524 0
-1525 -1526 845 -1527 0
-1528 -1529 846 -1530 0
-1531 -1532 847 -1533 0
-1534 -1535 848 -1536 0
-1537 -1538 849 -1539 0
-1540 -1541 850 -1542 0
-1543 -1544 851 -1545 0
-1546 -1547 852 -1548 0
-1549 -1550 853 -1551 0
-1552 -1553 854 -1554 0
-1555 -1556 855 -1557 0
-1558 -1559 856 -1560 0
-1561 -1562 857 -1563 0
-1564 -1565 858 -1566 0
-1567 -1568 859 -1569 0
-1570 -1571 860 -1572 0
-1573 -1574 861 -1575 0
-1576 -1577 862 -1578 0
-1579 -1580 863 -1581 0
-1582 -1583 864 -1584 0
-1585 -1586 865 -1587 0
-1588 -1589 866 -1590 0
-1591 -1592 867 -1593 0
-1594 -1595 868 -1596 0
-1597 -1598 869 -1599 0
-1600 -1601 870 -1602 0
-1603 -1604 871 -1605 0
-1606 -1607 872 -1608 0
-1609 -1610 873 -1611 0
-1612 -1613 874 -1614 0
-1615 -1616 875 -1617 0
-1618 -1619 876 -1620 0
-1621 -1622 877 -1623 0
-1624 -1625 878 -1626 0
-1627 -1628 879 -1629 0
-1630 -1631 880 -1632 0
-1633 -1634 881 -1635 0
-1636 -1637 882 -1638 0
-1639 -1640 883 -1641 0
-1642 -1643 884 -1644 0
-1645 -1646 885 -1647 0
-1648 -1649 886 -1650 0
-1651 -1652 887 -1653 0
-1654 -1655 888 -1656 0
-1657 -1658 889 -1659 0
-1660 -1661 890 -1662 0
-1663 -1664 891 -1665 0
-1666 -1667 892 -1668 0
-1669 -1670 893 -1671 0
-1672 -1673 894 -1674 0
-1675 -1676 895 -1677 0
-1678 -1679 896 -1680 0
-1681 -1682 897 -1683 0
-1684 -1685 898 -1686 0
-1687 -1688 899 -1689 0
-1690 -1691 900 -1692 0
-1693 -1694 901 -1695 0
-1696 -1697 902 -1698 0
-1699 -1700 903 -1701 0
-1702 -1703 904 -1704 0
-1705 -1706 905 -1707 0
-1708 -1709 906 -1710 0
-1711 -1712 907 -1713 0
-1714 -1715 908 -1716 0
-1717 -1718 909 -1719 0
-1720 -1721 910 -1722 0
-1723 -1724 911 -1725 0
-1726 -1727 912 -1728 0
-1729 -1730 913 -1731 0
-1732 -1733 914 -1734 0
-1735 -1736 915 -1737 0
-1738 -1739 916 -1740 0
-1741 -1742 917 -1743 0
-1744 -1745 918 -1746 0
-1747 -1748 919 -1749 0
-1750 -1751 920 -1752 0
-1753 -1754 921 -1755 0
-1756 -1757 922 -1758 0
-1759 -1760 923 -1761 0
-1762 -1763 924 -1764 0
-1765 -1766 925 -1767 0
-1768 -1769 926 -1770 0
-1771 -1772 927 -1773 0
-1774 -1775 928 -1776 0
-1777 -1778 929 -1779 0
-1780 -1781 930 -1782 0
-1783 -1784 931 -1785 0
-1786 -1787 932 -1788 0
-1789 -1790 933 -1791 0
-1792 -1793 934 -1794 0
-1795 -1796 935 -1797 0
-1798 -1799 936 -1800 0
-1801 -1802 937 -1803 0
-1804 -1805 938 -1806 0
-1807 -1808 939 -1809 0
-1810 -1811 940 -1812 0
-1813 -1814 941 -1815 0
-1816 -1817 942 -1818 0
-1819 -1820 943 -1821 0
-1822 -1823 944 -1824 0
-1825 -1826 945 -1827 0
-1828 -1829 946 -1830 0
-1831 -1832 947 -1833 0
-1834 -1835 948 -1836 0
-1837 -1838 949 -1839 0
-1840 -1841 950 -1842 0
-1843 -1844 951 -1845 0
-1846 -1847 952 -1848 0
-1849 -1850 953 -1851 0
-1852 -1853 954 -1854 0
-1855 -1856 955 -1857 0
-1858 -1859 956 -1860 0
-1861 -1862 957 -1863 0
-1864 -1865 958 -1866 0
-1867 -1868 959 -1869 0
-1870 -1871 960 -1872 0
-1873 -1874 961 -1875 0
-1876 -1877 962 -1878 0
-1879 -1880 963 -1881 0
-1882 -1883 964 -1884 0
-1885 -1886 965 -1887 0
-1888 -1889 966 -1890 0
-1891 -1892 967 -1893 0
-1894 -1895 968 -1896 0
-1897 -1898 969 -1899 0
-1900 -1901 970 -1902 0
-1903 -1904 971 -1905 0
-1906 -1907 972 -1908 0
-1909 -1910 973 -1911 0
-1912 -1913 974 -1914 0
-1915 -1916 975 -1917 0
-1918 -1919 976 -1920 0
-1921 -1922 977 -1923 0
-1924 -1925 978 -1926 0
-1927 -1928 979 -1929 0
-1930 -1931 980 -1932 0
-1933 -1934 981 -1935 0
-1936 -1937 982 -1938 0
-1939 -1940 983 -1941 0
-1942 -1943 984 -1944 0
-1945 -1946 985 -1947 0
-1948 -1949 986 -1950 0
-1951 -1952 987 -1953 0
-1954 -1955 988 -1956 0
-1957 -1958 989 -1959 0
-1960 -1961 990 -1962 0
993 991 0
996 994 0
999 997 0
1002 1000 0
1005 1003 0
1008 1006 0
1011 1009 0
1014 1012 0
1017 1015 0
1020 1018 0
1023 1021 0
1026 1024 0
1029 1027 0
1032 1030 0
1035 1033 0
1038 1036 0
1041 1039 0
1044 1042 0
1047 1045 0
1050 1048 0
1053 1051 0
1056 1054 0
1059 1057 0
1062 1060 0
1065 1063 0
1068 1066 0
1071 1069 0
1074 1072 0
1077 1075 0
1080 1078 0
1083 1081 0
1086 1084 0
1089 1087 0
1092 1090 0
1095 1093 0
1098 1096 0
1101 1099 0
1104 1102 0
1107 1105 0
1110 1108 0
1113 1111 0
1116 1114 0
1119 1117 0
1122 1120 0
1125 1123 0
1128 1126 0
1131 1129 0
1134 1132 0
1137 1135 0
1140 1138 0
1143 1141 0
1146 1144 0
1149 1147 0
1152 1150 0
1155 1153 0
1158 1156 0
1161 1159 0
1164 1162 0
1167 1165 0
1170 1168 0
1173 1171 0
1176 1174 0
1179 1177 0
1182 1180 0
1185 1183 0
1188 1186 0
1191 1189 0
1194 1192 0
1197 1195 0
1200 1198 0
1203 1201 0
1206 1204 0
1209 1207 0
1212 1210 0
1215 1213 0
1218 1216 0
1221 1219 0
1224 1222 0
1227 1225 0
1230 1228 0
1233 1231 0
1236 1234 0
1239 1237 0
1242 1240 0
1245 1243 0
1248 1246 0
1251 1249 0
1254 1252 0
1257 1255 0
1260 1258 0
1263 1261 0
1266 1264 0
1269 1267 0
1272 1270 0
1275 1273 0
1278 1276 0
1281 1279 0
1284 1282 0
1287 1285 0
1290 1288 0
1293 1291 0
1296 1294 0
1299 1297 0
1302 1300 0
1305 1303 0
1308 1306 0
1311 1309 0
1314 1312 0
1317 1315 0
1320 1318 0
1323 1321 0
1326 1324 0
1329 1327 0
1332 1330 0
1335 1333 0
1338 1336 0
1341 1339 0
1344 1342 0
1347 1345 0
1350 1348 0
1353 1351 0
1356 1354 0
1359 1357 0
1362 1360 0
1365 1363 0
1368 1366 0
1371 1369 0
1374 1372 0
1377 1375 0
1380 1378 0
1383 1381 0
1386 1384 0
1389 1387 0
1392 1390 0
1395 1393 0
1398 1396 0
1401 1399 0
1404 1402 0
1407 1405 0
1410 1408 0
1413 1411 0
1416 1414 0
1419 1417 0
1422 1420 0
1425 1423 0
1428 1426 0
1431 1429 0
1434 1432 0
1437 1435 0
1440 1438 0
1443 1441 0
1446 1444 0
1449 1447 0
1452 1450 0
1455 1453 0
1458 1456 0
1461 1459 0
1464 1462 0
1467 1465 0
1470 1468 0
1473 1471 0
1476 1474 0
1479 1477 0
1482 1480 0
1485 1483 0
1488 1486 0
1491 1489 0
1494 1492 0
1497 1495 0
1500 1498 0
1503 1501 0
1506 1504 0
1509 1507 0
1512 1510 0
1515 1513 0
1518 1516 0
1521 1519 0
1524 1522 0
1527 1525 0
1530 1528 0
1533 1531 0
1536 1534 0
1539 1537 0
1542 1540 0
1545 1543 0
1548 1546 0
1551 1549 0
1554 1552 0
1557 1555 0
1560 1558 0
1563 1561 0
1566 1564 0
1569 1567 0
1572 1570 0
1575 1573 0
1578 1576 0
1581 1579 0
1584 1582 0
1587 1585 0
1590 1588 0
1593 1591 0
1596 1594 0
1599 1597 0
1602 1600 0
1605 1603 0
1608 1606 0
1611 1609 0
1614 1612 0
1617 1615 0
1620 1618 0
1623 1621 0
1626 1624 0
1629 1627 0
1632 1630 0
1635 1633 0
1638 1636 0
1641 1639 0
1644 1642 0
1647 1645 0
1650 1648 0
1653 1651 0
1656 1654 0
1659 1657 0
1662 1660 0
1665 1663 0
1668 1666 0
1671 1669 0
1674 1672 0
1677 1675 0
1680 1678 0
1683 1681 0
1686 1684 0
1689 1687 0
1692 1690 0
1695 1693 0
1698 1696 0
1701 1699 0
1704 1702 0
1707 1705 0
1710 1708 0
1713 1711 0
1716 1714 0
1719 1717 0
1722 1720 0
1725 1723 0
1728 1726 0
1731 1729 0
1734 1732 0
1737 1735 0
1740 1738 0
1743 1741 0
1746 1744 0
1749 1747 0
1752 1750 0
1755 1753 0
1758 1756 0
1761 1759 0
1764 1762 0
1767 1765 0
1770 1768 0
1773 1771 0
1776 1774 0
1779 1777 0
1782 1780 0
1785 1783 0
1788 1786 0
1791 1789 0
1794 1792 0
1797 1795 0
1800 1798 0
1803 1801 0
1806 1804 0
1809 1807 0
1812 1810 0
1815 1813 0
1818 1816 0
1821 1819 0
1824 1822 0
1827 1825 0
1830 1828 0
1833 1831 0
1836 1834 0
1839 1837 0
1842 1840 0
1845 1843 0
1848 1846 0
1851 1849 0
1854 1852 0
1857 1855 0
1860 1858 0
1863 1861 0
1866 1864 0
1869 1867 0
1872 1870 0
1875 1873 0
1878 1876 0
1881 1879 0
1884 1882 0
1887 1885 0
1890 1888 0
1893 1891 0
1896 1894 0
1899 1897 0
1902 1900 0
1905 1903 0
1908 1906 0
1911 1909 0
1914 1912 0
1917 1915 0
1920 1918 0
1923 1921 0
1926 1924 0
1929 1927 0
1932 1930 0
1935 1933 0
1938 1936 0
1941 1939 0
1944 1942 0
1947 1945 0
1950 1948 0
1953 1951 0
1956 1954 0
1959 1957 0
1962 1960 0
993 992 0
996 995 0
999 998 0
1002 1001 0
1005 1004 0
1008 1007 0
1011 1010 0
1014 1013 0
1017 1016 0
1020 1019 0
1023 1022 0
1026 1025 0
1029 1028 0
1032 1031 0
1035 1034 0
1038 1037 0
1041 1040 0
1044 1043 0
1047 1046 0
1050 1049 0
1053 1052 0
1056 1055 0
1059 1058 0
1062 1061 0
1065 1064 0
1068 1067 0
1071 1070 0
1074 1073 0
1077 1076 0
1080 1079 0
1083 1082 0
1086 1085 0
1089 1088 0
1092 1091 0
1095 1094 0
1098 1097 0
1101 1100 0
1104 1103 0
1107 1106 0
1110 1109 0
1113 1112 0
1116 1115 0
1119 1118 0
1122 1121 0
1125 1124 0
1128 1127 0
1131 1130 0
1134 1133 0
1137 1136 0
1140 1139 0
1143 1142 0
1146 1145 0
1149 1148 0
1152 1151 0
1155 1154 0
1158 1157 0
1161 1160 0
1164 1163 0
1167 1166 0
1170 1169 0
1173 1172 0
1176 1175 0
1179 1178 0
1182 1181 0
1185 1184 0
1188 1187 0
1191 1190 0
1194 1193 0
1197 1196 0
1200 1199 0
1203 1202 0
1206 1205 0
1209 1208 0
1212 1211 0
1215 1214 0
1218 1217 0
1221 1220 0
1224 1223 0
1227 1226 0
1230 1229 0
1233 1232 0
1236 1235 0
1239 1238 0
1242 1241 0
1245 1244 0
1248 1247 0
1251 1250 0
1254 1253 0
1257 1256 0
1260 1259 0
1263 1262 0
1266 1265 0
1269 1268 0
1272 1271 0
1275 1274 0
1278 1277 0
1281 1280 0
1284 1283 0
1287 1286 0
1290 1289 0
1293 1292 0
1296 1295 0
1299 1298 0
1302 1301 0
1305 1304 0
1308 1307 0
1311 1310 0
1314 1313 0
1317 1316 0
1320 1319 0
1323 1322 0
1326 1325 0
1329 1328 0
1332 1331 0
1335 1334 0
1338 1337 0
1341 1340 0
1344 1343 0
1347 1346 0
1350 1349 0
1353 1352 0
1356 1355 0
1359 1358 0
1362 1361 0
1365 1364 0
1368 1367 0
1371 1370 0
1374 1373 0
1377 1376 0
1380 1379 0
1383 1382 0
1386 1385 0
1389 1388 0
1392 1391 0
1395 1394 0
1398 1397 0
1401 1400 0
1404 1403 0
1407 1406 0
1410 1409 0
1413 1412 0
1416 1415 0
1419 1418 0
1422 1421 0
1425 1424 0
1428 1427 0
1431 1430 0
1434 1433 0
1437 1436 0
1440 1439 0
1443 1442 0
1446 1445 0
1449 1448 0
1452 1451 0
1455 1454 0
1458 1457 0
1461 1460 0
1464 1463 0
1467 1466 0
1470 1469 0
1473 1472 0
1476 1475 0
1479 1478 0
1482 1481 0
1485 1484 0
1488 1487 0
1491 1490 0
1494 1493 0
1497 1496 0
1500 1499 0
1503 1502 0
1506 1505 0
1509 1508 0
1512 1511 0
1515 1514 0
1518 1517 0
1521 1520 0
1524 1523 0
1527 1526 0
1530 1529 0
1533 1532 0
1536 1535 0
1539 1538 0
1542 1541 0
1545 1544 0
1548 1547 0
1551 1550 0
1554 1553 0
1557 1556 0
1560 1559 0
1563 1562 0
1566 1565 0
1569 1568 0
1572 1571 0
1575 1574 0
1578 1577 0
1581 1580 0
1584 1583 0
1587 1586 0
1590 1589 0
1593 1592 0
1596 1595 0
1599 1598 0
1602 1601 0
1605 1604 0
1608 1607 0
1611 1610 0
1614 1613 0
1617 1616 0
1620 1619 0
1623 1622 0
1626 1625 0
1629 1628 0
1632 1631 0
1635 1634 0
1638 1637 0
1641 1640 0
1644 1643 0
1647 1646 0
1650 1649 0
1653 1652 0
1656 1655 0
1659 1658 0
1662 1661 0
1665 1664 0
1668 1667 0
1671 1670 0
1674 1673 0
1677 1676 0
1680 1679 0
1683 1682 0
1686 1685 0
1689 1688 0
1692 1691 0
1695 1694 0
1698 1697 0
1701 1700 0
1704 1703 0
1707 1706 0
1710 1709 0
1713 1712 0
1716 1715 0
1719 1718 0
1722 1721 0
1725 1724 0
1728 1727 0
1731 1730 0
1734 1733 0
1737 1736 0
1740 1739 0
1743 1742 0
1746 1745 0
1749 1748 0
1752 1751 0
1755 1754 0
1758 1757 0
1761 1760 0
1764 1763 0
1767 1766 0
1770 1769 0
1773 1772 0
1776 1775 0
1779 1778 0
1782 1781 0
1785 1784 0
1788 1787 0
1791 1790 0
1794 1793 0
1797 1796 0
1800 1799 0
1803 1802 0
1806 1805 0
1809 1808 0
1812 1811 0
1815 1814 0
1818 1817 0
1821 1820 0
1824 1823 0
1827 1826 0
1830 1829 0
1833 1832 0
1836 1835 0
1839 1838 0
1842 1841 0
1845 1844 0
1848 1847 0
1851 1850 0
1854 1853 0
1857 1856 0
1860 1859 0
1863 1862 0
1866 1865 0
1869 1868 0
1872 1871 0
1875 1874 0
1878 1877 0
1881 1880 0
1884 1883 0
1887 1886 0
1890 1889 0
1893 1892 0
1896 1895 0
1899 1898 0
1902 1901 0
1905 1904 0
1908 1907 0
1911 1910 0
1914 1913 0
1917 1916 0
1920 1919 0
1923 1922 0
1926 1925 0
1929 1928 0
1932 1931 0
1935 1934 0
1938 1937 0
1941 1940 0
1944 1943 0
1947 1946 0
1950 1949 0
1953 1952 0
1956 1955 0
1959 1958 0
1962 1961 0
993 -667 0
996 -668 0
999 -669 0
1002 -670 0
1005 -671 0
1008 -672 0
1011 -673 0
1014 -674 0
1017 -675 0
1020 -676 0
1023 -677 0
1026 -678 0
1029 -679 0
1032 -680 0
1035 -681 0
1038 -682 0
1041 -683 0
1044 -684 0
1047 -685 0
1050 -686 0
1053 -687 0
1056 -688 0
1059 -689 0
1062 -690 0
1065 -691 0
1068 -692 0
1071 -693 0
1074 -694 0
1077 -695 0
1080 -696 0
1083 -697 0
1086 -698 0
1089 -699 0
1092 -700 0
1095 -701 0
1098 -702 0
1101 -703 0
1104 -704 0
1107 -705 0
1110 -706 0
1113 -707 0
1116 -708 0
1119 -709 0
1122 -710 0
1125 -711 0
1128 -712 0
1131 -713 0
1134 -714 0
1137 -715 0
1140 -716 0
1143 -717 0
1146 -718 0
1149 -719 0
1152 -720 0
1155 -721 0
1158 -722 0
1161 -723 0
1164 -724 0
1167 -725 0
1170 -726 0
1173 -727 0
1176 -728 0
1179 -729 0
1182 -730 0
1185 -731 0
1188 -732 0
1191 -733 0
1194 -734 0
1197 -735 0
1200 -736 0
1203 -737 0
1206 -738 0
1209 -739 0
1212 -740 0
1215 -741 0
1218 -742 0
1221 -743 0
1224 -744 0
1227 -745 0
1230 -746 0
1233 -747 0
1236 -748 0
1239 -749 0
1242 -750 0
1245 -751 0
1248 -752 0
1251 -753 0
1254 -754 0
1257 -755 0
1260 -756 0
1263 -757 0
1266 -758 0
1269 -759 0
1272 -760 0
1275 -761 0
1278 -762 0
1281 -763 0
1284 -764 0
1287 -765 0
1290 -766 0
1293 -767 0
1296 -768 0
1299 -769 0
1302 -770 0
1305 -771 0
1308 -772 0
1311 -773 0
1314 -774 0
1317 -775 0
1320 -776 0
1323 -777 0
1326 -778 0
1329 -779 0
1332 -780 0
1335 -781 0
1338 -782 0
1341 -783 0
1344 -784 0
1347 -785 0
1350 -786 0
1353 -787 0
1356 -788 0
1359 -789 0
1362 -790 0
1365 -791 0
1368 -792 0
1371 -793 0
1374 -794 0
1377 -795 0
1380 -796 0
1383 -797 0
1386 -798 0
1389 -799 0
1392 -800 0
1395 -801 0
1398 -802 0
1401 -803 0
1404 -804 0
1407 -805 0
1410 -806 0
1413 -807 0
1416 -808 0
1419 -809 0
1422 -810 0
1425 -811 0
1428 -812 0
1431 -813 0
1434 -814 0
1437 -815 0
1440 -816 0
1443 -817 0
1446 -818 0
1449 -819 0
1452 -820 0
1455 -821 0
1458 -822 0
1461 -823 0
1464 -824 0
1467 -825 0
1470 -826 0
1473 -827 0
1476 -828 0
1479 -829 0
1482 -830 0
1485 -831 0
1488 -832 0
1491 -833 0
1494 -834 0
1497 -835 0
1500 -836 0
1503 -837 0
1506 -838 0
1509 -839 0
1512 -840 0
1515 -841 0
1518 -842 0
1521 -843 0
1524 -844 0
1527 -845 0
1530 -846 0
1533 -847 0
1536 -848 0
1539 -849 0
1542 -850 0
1545 -851 0
1548 -852 0
1551 -853 0
1554 -854 0
1557 -855 0
1560 -856 0
1563 -857 0
1566 -858 0
1569 -859 0
1572 -860 0
1575 -861 0
1578 -862 0
1581 -863 0
1584 -864 0
1587 -865 0
1590 -866 0
1593 -867 0
1596 -868 0
1599 -869 0
1602 -870 0
1605 -871 0
1608 -872 0
1611 -873 0
1614 -874 0
1617 -875 0
1620 -876 0
1623 -877 0
1626 -878 0
1629 -879 0
1632 -880 0
1635 -881 0
1638 -882 0
1641 -883 0
1644 -884 0
1647 -885 0
1650 -886 0
1653 -887 0
1656 -888 0
1659 -889 0
1662 -890 0
1665 -891 0
1668 -892 0
1671 -893 0
1674 -894 0
1677 -895 0
1680 -896 0
1683 -897 0
1686 -898 0
1689 -899 0
1692 -900 0
1695 -901 0
1698 -902 0
1701 -903 0
1704 -904 0
1707 -905 0
1710 -906 0
1713 -907 0
1716 -908 0
1719 -909 0
1722 -910 0
1725 -911 0
1728 -912 0
1731 -913 0
1734 -914 0
1737 -915 0
1740 -916 0
1743 -917 0
1746 -918 0
1749 -919 0
1752 -920 0
1755 -921 0
1758 -922 0
1761 -923 0
1764 -924 0
1767 -925 0
1770 -926 0
1773 -927 0
1776 -928 0
1779 -929 0
1782 -930 0
1785 -931 0
1788 -932 0
1791 -933 0
1794 -934 0
1797 -935 0
1800 -936 0
1803 -937 0
1806 -938 0
1809 -939 0
1812 -940 0
1815 -941 0
1818 -942 0
1821 -943 0
1824 -944 0
1827 -945 0
1830 -946 0
1833 -947 0
1836 -948 0
1839 -949 0
1842 -950 0
1845 -951 0
1848 -952 0
1851 -953 0
1854 -954 0
1857 -955 0
1860 -956 0
1863 -957 0
1866 -958 0
1869 -959 0
1872 -960 0
1875 -961 0
1878 -962 0
1881 -963 0
1884 -964 0
1887 -965 0
1890 -966 0
1893 -967 0
1896 -968 0
1899 -969 0
1902 -970 0
1905 -971 0
1908 -972 0
1911 -973 0
1914 -974 0
1917 -975 0
1920 -976 0
1923 -977 0
1926 -978 0
1929 -979 0
1932 -980 0
1935 -981 0
1938 -982 0
1941 -983 0
1944 -984 0
1947 -985 0
1950 -986 0
1953 -987 0
1956 -988 0
1959 -989 0
1962 -990 0
993 0
996 0
999 0
1002 0
1005 0
1008 0
1011 0
1014 0
1017 0
1020 0
1023 0
1026 0
1029 0
1032 0
1035 0
1038 0
1041 0
1044 0
1047 0
1050 0
1053 0
1056 0
1059 0
1062 0
1065 0
1068 0
1071 0
1074 0
1077 0
1080 0
1083 0
1086 0
1089 0
1092 0
1095 0
1098 0
1101 0
1104 0
1107 0
1110 0
1113 0
1116 0
1119 0
1122 0
1125 0
1128 0
1131 0
1134 0
1137 0
1140 0
1143 0
1146 0
1149 0
1152 0
1155 0
1158 0
1161 0
1164 0
1167 0
1170 0
1173 0
1176 0
1179 0
1182 0
1185 0
1188 0
1191 0
1194 0
1197 0
1200 0
1203 0
1206 0
1209 0
1212 0
1215 0
1218 0
1221 0
1224 0
1227 0
1230 0
1233 0
1236 0
1239 0
1242 0
1245 0
1248 0
1251 0
1254 0
1257 0
1260 0
1263 0
1266 0
1269 0
1272 0
1275 0
1278 0
1281 0
1284 0
1287 0
1290 0
1293 0
1296 0
1299 0
1302 0
1305 0
1308 0
1311 0
1314 0
1317 0
1320 0
1323 0
1326 0
1329 0
1332 0
1335 0
1338 0
1341 0
1344 0
1347 0
1350 0
1353 0
1356 0
1359 0
1362 0
1365 0
1368 0
1371 0
1374 0
1377 0
1380 0
1383 0
1386 0
1389 0
1392 0
1395 0
1398 0
1401 0
1404 0
1407 0
1410 0
1413 0
1416 0
1419 0
1422 0
1425 0
1428 0
1431 0
1434 0
1437 0
1440 0
1443 0
1446 0
1449 0
1452 0
1455 0
1458 0
1461 0
1464 0
1467 0
1470 0
1473 0
1476 0
1479 0
1482 0
1485 0
1488 0
1491 0
1494 0
1497 0
1500 0
1503 0
1506 0
1509 0
1512 0
1515 0
1518 0
1521 0
1524 0
1527 0
1530 0
1533 0
1536 0
1539 0
1542 0
1545 0
1548 0
1551 0
1554 0
1557 0
1560 0
1563 0
1566 0
1569 0
1572 0
1575 0
1578 0
1581 0
1584 0
1587 0
1590 0
1593 0
1596 0
1599 0
1602 0
1605 0
1608 0
1611 0
1614 0
1617 0
1620 0
1623 0
1626 0
1629 0
1632 0
1635 0
1638 0
1641 0
1644 0
1647 0
1650 0
1653 0
1656 0
1659 0
1662 0
1665 0
1668 0
1671 0
1674 0
1677 0
1680 0
1683 0
1686 0
1689 0
1692 0
1695 0
1698 0
1701 0
1704 0
1707 0
1710 0
1713 0
1716 0
1719 0
1722 0
1725 0
1728 0
1731 0
1734 0
1737 0
1740 0
1743 0
1746 0
1749 0
1752 0
1755 0
1758 0
1761 0
1764 0
1767 0
1770 0
1773 0
1776 0
1779 0
1782 0
1785 0
1788 0
1791 0
1794 0
1797 0
1800 0
1803 0
1806 0
1809 0
1812 0
1815 0
1818 0
1821 0
1824 0
1827 0
1830 0
1833 0
1836 0
1839 0
1842 0
1845 0
1848 0
1851 0
1854 0
1857 0
1860 0
1863 0
1866 0
1869 0
1872 0
1875 0
1878 0
1881 0
1884 0
1887 0
1890 0
1893 0
1896 0
1899 0
1902 0
1905 0
1908 0
1911 0
1914 0
1917 0
1920 0
1923 0
1926 0
1929 0
1932 0
1935 0
1938 0
1941 0
1944 0
1947 0
1950 0
1953 0
1956 0
1959 0
1962 0
991 0
994 1045 0
-994 -1045 0
-994 -1051 997 0
-994 -1054 1000 0
-994 -1057 1003 0
-994 -1060 1006 0
-994 -1063 1009 0
-994 -1066 1012 0
-994 -1069 1015 0
-994 -1072 1018 0
-994 -1075 1021 0
-994 -1078 1024 0
-994 -1081 1027 0
-994 -1084 1030 0
-994 -1087 1033 0
-994 -1090 1036 0
-994 -1093 1039 0
-994 -1096 1042 0
997 1099 0
-997 -1099 0
-997 -1102 994 0
-997 -1108 1000 0
-997 -1111 1003 0
-997 -1114 1006 0
-997 -1117 1009 0
-997 -1120 1012 0
-997 -1123 1015 0
-997 -1126 1018 0
-997 -1129 1021 0
-997 -1132 1024 0
-997 -1135 1027 0
-997 -1138 1030 0
-997 -1141 1033 0
-997 -1144 1036 0
-997 -1147 1039 0
-997 -1150 1042 0
1000 1153 0
-1000 -1153 0
-1000 -1156 994 0
-1000 -1159 997 0
-1000 -1165 1003 0
-1000 -1168 1006 0
-1000 -1171 1009 0
-1000 -1174 1012 0
-1000 -1177 1015 0
-1000 -1180 1018 0
-1000 -1183 1021 0
-1000 -1186 1024 0
-1000 -1189 1027 0
-1000 -1192 1030 0
-1000 -1195 1033 0
-1000 -1198 1036 0
-1000 -1201 1039 0
-1000 -1204 1042 0
1003 1207 0
-1003 -1207 0
-1003 -1210 994 0
-1003 -1213 997 0
-1003 -1216 1000 0
-1003 -1222 1006 0
-1003 -1225 1009 0
-1003 -1228 1012 0
-1003 -1231 1015 0
-1003 -1234 1018 0
-1003 -1237 1021 0
-1003 -1240 1024 0
-1003 -1243 1027 0
-1003 -1246 1030 0
-1003 -1249 1033 0
-1003 -1252 1036 0
-1003 -1255 1039 0
-1003 -1258 1042 0
1006 1261 0
-1006 -1261 0
-1006 -1264 994 0
-1006 -1267 997 0
-1006 -1270 1000 0
-1006 -1273 1003 0
-1006 -1279 1009 0
-1006 -1282 1012 0
-1006 -1285 1015 0
-1006 -1288 1018 0
-1006 -1291 1021 0
-1006 -1294 1024 0
-1006 -1297 1027 0
-1006 -1300 1030 0
-1006 -1303 1033 0
-1006 -1306 1036 0
-1006 -1309 1039 0
-1006 -1312 1042 0
1009 1315 0
-1009 -1315 0
-1009 -1318 994 0
-1009 -1321 997 0
-1009 -1324 1000 0
-1009 -1327 1003 0
-1009 -1330 1006 0
-1009 -1336 1012 0
-1009 -1339 1015 0
-1009 -1342 1018 0
-1009 -1345 1021 0
-1009 -1348 1024 0
-1009 -1351 1027 0
-1009 -1354 1030 0
-1009 -1357 1033 0
-1009 -1360 1036 0
-1009 -1363 1039 0
-1009 -1366 1042 0
1012 1369 0
-1012 -1369 0
-1012 -1372 994 0
-1012 -1375 997 0
-1012 -1378 1000 0
-1012 -1381 1003 0
-1012 -1384 1006 0
-1012 -1387 1009 0
-1012 -1393 1015 0
-1012 -1396 1018 0
-1012 -1399 1021 0
-1012 -1402 1024 0
-1012 -1405 1027 0
-1012 -1408 1030 0
-1012 -1411 1033 0
-1012 -1414 1036 0
-1012 -1417 1039 0
-1012 -1420 1042 0
1015 1423 0
-1015 -1423 0
-1015 -1426 994 0
-1015 -1429 997 0
-1015 -1432 1000 0
-1015 -1435 1003 0
-1015 -1438 1006 0
-1015 -1441 1009 0
-1015 -1444 1012 0
-1015 -1450 1018 0
-1015 -1453 1021 0
-1015 -1456 1024 0
-1015 -1459 1027 0
-1015 -1462 1030 0
-1015 -1465 1033 0
-1015 -1468 1036 0
-1015 -1471 1039 0
-1015 -1474 1042 0
1018 1477 0
-1018 -1477 0
-1018 -1480 994 0
-1018 -1483 997 0
-1018 -1486 1000 0
-1018 -1489 1003 0
-1018 -1492 1006 0
-1018 -1495 1009 0
-1018 -1498 1012 0
-1018 -1501 1015 0
-1018 -1507 1021 0
-1018 -1510 1024 0
-1018 -1513 1027 0
-1018 -1516 1030 0
-1018 -1519 1033 0
-1018 -1522 1036 0
-1018 -1525 1039 0
-1018 -1528 1042 0
1021 1531 0
-1021 -1531 0
-1021 -1534 994 0
-1021 -1537 997 0
-1021 -1540 1000 0
-1021 -1543 1003 0
-1021 -1546 1006 0
-1021 -1549 1009 0
-1021 -1552 1012 0
-1021 -1555 1015 0
-1021 -1558 1018 0
-1021 -1564 1024 0
-1021 -1567 1027 0
-1021 -1570 1030 0
-1021 -1573 1033 0
-1021 -1576 1036 0
-1021 -1579 1039 0
-1021 -1582 1042 0
1024 1585 0
-1024 -1585 0
-1024 -1588 994 0
-1024 -1591 997 0
-1024 -1594 1000 0
-1024 -1597 1003 0
-1024 -1600 1006 0
-1024 -1603 1009 0
-1024 -1606 1012 0
-1024 -1609 1015 0
-1024 -1612 1018 0
-1024 -1615 1021 0
-1024 -1621 1027 0
-1024 -1624 1030 0
-1024 -1627 1033 0
-1024 -1630 1036 0
-1024 -1633 1039 0
-1024 -1636 1042 0
1027 1639 0
-1027 -1639 0
-1027 -1642 994 0
-1027 -1645 997 0
-1027 -1648 1000 0
-1027 -1651 1003 0
-1027 -1654 1006 0
-1027 -1657 1009 0
-1027 -1660 1012 0
-1027 -1663 1015 0
-1027 -1666 1018 0
-1027 -1669 1021 0
-1027 -1672 1024 0
-1027 -1678 1030 0
-1027 -1681 1033 0
-1027 -1684 1036 0
-1027 -1687 1039 0
-1027 -1690 1042 0
1030 1693 0
-1030 -1693 0
-1030 -1696 994 0
-1030 -1699 997 0
-1030 -1702 1000 0
-1030 -1705 1003 0
-1030 -1708 1006 0
-1030 -1711 1009 0
-1030 -1714 1012 0
-1030 -1717 1015 0
-1030 -1720 1018 0
-1030 -1723 1021 0
-1030 -1726 1024 0
-1030 -1729 1027 0
-1030 -1735 1033 0
-1030 -1738 1036 0
-1030 -1741 1039 0
-1030 -1744 1042 0
1033 1747 0
-1033 -1747 0
-1033 -1750 994 0
-1033 -1753 997 0
-1033 -1756 1000 0
-1033 -1759 1003 0
-1033 -1762 1006 0
-1033 -1765 1009 0
-1033 -1768 1012 0
-1033 -1771 1015 0
-1033 -1774 1018 0
-1033 -1777 1021 0
-1033 -1780 1024 0
-1033 -1783 1027 0
-1033 -1786 1030 0
-1033 -1792 1036 0
-1033 -1795 1039 0
-1033 -1798 1042 0
1036 1801 0
-1036 -1801 0
-1036 -1804 994 0
-1036 -1807 997 0
-1036 -1810 1000 0
-1036 -1813 1003 0
-1036 -1816 1006 0
-1036 -1819 1009 0
-1036 -1822 1012 0
-1036 -1825 1015 0
-1036 -1828 1018 0
-1036 -1831 1021 0
-1036 -1834 1024 0
-1036 -1837 1027 0
-1036 -1840 1030 0
-1036 -1843 1033 0
-1036 -1849 1039 0
-1036 -1852 1042 0
1039 1855 0
-1039 -1855 0
-1039 -1858 994 0
-1039 -1861 997 0
-1039 -1864 1000 0
-1039 -1867 1003 0
-1039 -1870 1006 0
-1039 -1873 1009 0
-1039 -1876 1012 0
-1039 -1879 1015 0
-1039 -1882 1018 0
-1039 -1885 1021 0
-1039 -1888 1024 0
-1039 -1891 1027 0
-1039 -1894 1030 0
-1039 -1897 1033 0
-1039 -1900 1036 0
-1039 -1906 1042 0
1042 1909 0
-1042 -1909 0
-1042 -1912 994 0
-1042 -1915 997 0
-1042 -1918 1000 0
-1042 -1921 1003 0
-1042 -1924 1006 0
-1042 -1927 1009 0
-1042 -1930 1012 0
-1042 -1933 1015 0
-1042 -1936 1018 0
-1042 -1939 1021 0
-1042 -1942 1024 0
-1042 -1945 1027 0
-1042 -1948 1030 0
-1042 -1951 1033 0
-1042 -1954 1036 0
-1042 -1957 1039 0
1048 0
1045 994 0
-1045 -994 0
-1045 -997 1051 0
-1045 -1000 1054 0
-1045 -1003 1057 0
-1045 -1006 1060 0
-1045 -1009 1063 0
-1045 -1012 1066 0
-1045 -1015 1069 0
-1045 -1018 1072 0
-1045 -1021 1075 0
-1045 -1024 1078 0
-1045 -1027 1081 0
-1045 -1030 1084 0
-1045 -1033 1087 0
-1045 -1036 1090 0
-1045 -1039 1093 0
-1045 -1042 1096 0
1051 1102 0
-1051 -1102 0
-1051 -1099 1045 0
-1051 -1108 1054 0
-1051 -1111 1057 0
-1051 -1114 1060 0
-1051 -1117 1063 0
-1051 -1120 1066 0
-1051 -1123 1069 0
-1051 -1126 1072 0
-1051 -1129 1075 0
-1051 -1132 1078 0
-1051 -1135 1081 0
-1051 -1138 1084 0
-1051 -1141 1087 0
-1051 -1144 1090 0
-1051 -1147 1093 0
-1051 -1150 1096 0
1054 1156 0
-1054 -1156 0
-1054 -1153 1045 0
-1054 -1159 1051 0
-1054 -1165 1057 0
-1054 -1168 1060 0
-1054 -1171 1063 0
-1054 -1174 1066 0
-1054 -1177 1069 0
-1054 -1180 1072 0
-1054 -1183 1075 0
-1054 -1186 1078 0
-1054 -1189 1081 0
-1054 -1192 1084 0
-1054 -1195 1087 0
-1054 -1198 1090 0
-1054 -1201 1093 0
-1054 -1204 1096 0
1057 1210 0
-1057 -1210 0
-1057 -1207 1045 0
-1057 -1213 1051 0
-1057 -1216 1054 0
-1057 -1222 1060 0
-1057 -1225 1063 0
-1057 -1228 1066 0
-1057 -1231 1069 0
-1057 -1234 1072 0
-1057 -1237 1075 0
-1057 -1240 1078 0
-1057 -1243 1081 0
-1057 -1246 1084 0
-1057 -1249 1087 0
-1057 -1252 1090 0
-1057 -1255 1093 0
-1057 -1258 1096 0
1060 1264 0
-1060 -1264 0
-1060 -1261 1045 0
-1060 -1267 1051 0
-1060 -1270 1054 0
-1060 -1273 1057 0
-1060 -1279 1063 0
-1060 -1282 1066 0
-1060 -1285 1069 0
-1060 -1288 1072 0
-1060 -1291 1075 0
-1060 -1294 1078 0
-1060 -1297 1081 0
-1060 -1300 1084 0
-1060 -1303 1087 0
-1060 -1306 1090 0
-1060 -1309 1093 0
-1060 -1312 1096 0
1063 1318 0
-1063 -1318 0
-1063 -1315 1045 0
-1063 -1321 1051 0
-1063 -1324 1054 0
-1063 -1327 1057 0
-1063 -1330 1060 0
-1063 -1336 1066 0
-1063 -1339 1069 0
-1063 -1342 1072 0
-1063 -1345 1075 0
-1063 -1348 1078 0
-1063 -1351 1081 0
-1063 -1354 1084 0
-1063 -1357 1087 0
-1063 -1360 1090 0
-1063 -1363 1093 0
-1063 -1366 1096 0
1066 1372 0
-1066 -1372 0
-1066 -1369 1045 0
-1066 -1375 1051 0
-1066 -1378 1054 0
-1066 -1381 1057 0
-1066 -1384 1060 0
-1066 -1387 1063 0
-1066 -1393 1069 0
-1066 -1396 1072 0
-1066 -1399 1075 0
-1066 -1402 1078 0
-1066 -1405 1081 0
-1066 -1408 1084 0
-1066 -1411 1087 0
-1066 -1414 1090 0
-1066 -1417 1093 0
-1066 -1420 1096 0
1069 1426 0
-1069 -1426 0
-1069 -1423 1045 0
-1069 -1429 1051 0
-1069 -1432 1054 0
-1069 -1435 1057 0
-1069 -1438 1060 0
-1069 -1441 1063 0
-1069 -1444 1066 0
-1069 -1450 1072 0
-1069 -1453 1075 0
-1069 -1456 1078 0
-1069 -1459 1081 0
-1069 -1462 1084 0
-1069 -1465 1087 0
-1069 -1468 1090 0
-1069 -1471 1093 0
-1069 -1474 1096 0
1072 1480 0
-1072 -1480 0
-1072 -1477 1045 0
-1072 -1483 1051 0
-1072 -1486 1054 0
-1072 -1489 1057 0
-1072 -1492 1060 0
-1072 -1495 1063 0
-1072 -1498 1066 0
-1072 -1501 1069 0
-1072 -1507 1075 0
-1072 -1510 1078 0
-1072 -1513 1081 0
-1072 -1516 1084 0
-1072 -1519 1087 0
-1072 -1522 1090 0
-1072 -1525 1093 0
-1072 -1528 1096 0
1075 1534 0
-1075 -1534 0
-1075 -1531 1045 0
-1075 -1537 1051 0
-1075 -1540 1054 0
-1075 -1543 1057 0
-1075 -1546 1060 0
-1075 -1549 1063 0
-1075 -1552 1066 0
-1075 -1555 1069 0
-1075 -1558 1072 0
-1075 -1564 1078 0
-1075 -1567 1081 0
-1075 -1570 1084 0
-1075 -1573 1087 0
-1075 -1576 1090 0
-1075 -1579 1093 0
-1075 -1582 1096 0
1078 1588 0
-1078 -1588 0
-1078 -1585 1045 0
-1078 -1591 1051 0
-1078 -1594 1054 0
-1078 -1597 1057 0
-1078 -1600 1060 0
-1078 -1603 1063 0
-1078 -1606 1066 0
-1078 -1609 1069 0
-1078 -1612 1072 0
-1078 -1615 1075 0
-1078 -1621 1081 0
-1078 -1624 1084 0
-1078 -1627 1087 0
-1078 -1630 1090 0
-1078 -1633 1093 0
-1078 -1636 1096 0
1081 1642 0
-1081 -1642 0
-1081 -1639 1045 0
-1081 -1645 1051 0
-1081 -1648 1054 0
-1081 -1651 1057 0
-1081 -1654 1060 0
-1081 -1657 1063 0
-1081 -1660 1066 0
-1081 -1663 1069 0
-1081 -1666 1072 0
-1081 -1669 1075 0
-1081 -1672 1078 0
-1081 -1678 1084 0
-1081 -1681 1087 0
-1081 -1684 1090 0
-1081 -1687 1093 0
-1081 -1690 1096 0
1084 1696 0
-1084 -1696 0
-1084 -1693 1045 0
-1084 -1699 1051 0
-1084 -1702 1054 0
-1084 -1705 1057 0
-1084 -1708 1060 0
-1084 -1711 1063 0
-1084 -1714 1066 0
-1084 -1717 1069 0
-1084 -1720 1072 0
-1084 -1723 1075 0
-1084 -1726 1078 0
-1084 -1729 1081 0
-1084 -1735 1087 0
-1084 -1738 1090 0
-1084 -1741 1093 0
-1084 -1744 1096 0
1087 1750 0
-1087 -1750 0
-1087 -1747 1045 0
-1087 -1753 1051 0
-1087 -1756 1054 0
-1087 -1759 1057 0
-1087 -1762 1060 0
-1087 -1765 1063 0
-1087 -1768 1066 0
-1087 -1771 1069 0
-1087 -1774 1072 0
-1087 -1777 1075 0
-1087 -1780 1078 0
-1087 -1783 1081 0
-1087 -1786 1084 0
-1087 -1792 1090 0
-1087 -1795 1093 0
-1087 -1798 1096 0
1090 1804 0
-1090 -1804 0
-1090 -1801 1045 0
-1090 -1807 1051 0
-1090 -1810 1054 0
-1090 -1813 1057 0
-1090 -1816 1060 0
-1090 -1819 1063 0
-1090 -1822 1066 0
-1090 -1825 1069 0
-1090 -1828 1072 0
-1090 -1831 1075 0
-1090 -1834 1078 0
-1090 -1837 1081 0
-1090 -1840 1084 0
-1090 -1843 1087 0
-1090 -1849 1093 0
-1090 -1852 1096 0
1093 1858 0
-1093 -1858 0
-1093 -1855 1045 0
-1093 -1861 1051 0
-1093 -1864 1054 0
-1093 -1867 1057 0
-1093 -1870 1060 0
-1093 -1873 1063 0
-1093 -1876 1066 0
-1093 -1879 1069 0
-1093 -1882 1072 0
-1093 -1885 1075 0
-1093 -1888 1078 0
-1093 -1891 1081 0
-1093 -1894 1084 0
-1093 -1897 1087 0
-1093 -1900 1090 0
-1093 -1906 1096 0
1096 1912 0
-1096 -1912 0
-1096 -1909 1045 0
-1096 -1915 1051 0
-1096 -1918 1054 0
-1096 -1921 1057 0
-1096 -1924 1060 0
-1096 -1927 1063 0
-1096 -1930 1066 0
-1096 -1933 1069 0
-1096 -1936 1072 0
-1096 -1939 1075 0
-1096 -1942 1078 0
-1096 -1945 1081 0
-1096 -1948 1084 0
-1096 -1951 1087 0
-1096 -1954 1090 0
-1096 -1957 1093 0
1105 0
1099 997 0
-1099 -997 0
-1099 -994 1102 0
-1099 -1000 1108 0
-1099 -1003 1111 0
-1099 -1006 1114 0
-1099 -1009 1117 0
-1099 -1012 1120 0
-1099 -1015 1123 0
-1099 -1018 1126 0
-1099 -1021 1129 0
-1099 -1024 1132 0
-1099 -1027 1135 0
-1099 -1030 1138 0
-1099 -1033 1141 0
-1099 -1036 1144 0
-1099 -1039 1147 0
-1099 -1042 1150 0
1102 1051 0
-1102 -1051 0
-1102 -1045 1099 0
-1102 -1054 1108 0
-1102 -1057 1111 0
-1102 -1060 1114 0
-1102 -1063 1117 0
-1102 -1066 1120 0
-1102 -1069 1123 0
-1102 -1072 1126 0
-1102 -1075 1129 0
-1102 -1078 1132 0
-1102 -1081 1135 0
-1102 -1084 1138 0
-1102 -1087 1141 0
-1102 -1090 1144 0
-1102 -1093 1147 0
-1102 -1096 1150 0
1108 1159 0
-1108 -1159 0
-1108 -1153 1099 0
-1108 -1156 1102 0
-1108 -1165 1111 0
-1108 -1168 1114 0
-1108 -1171 1117 0
-1108 -1174 1120 0
-1108 -1177 1123 0
-1108 -1180 1126 0
-1108 -1183 1129 0
-1108 -1186 1132 0
-1108 -1189 1135 0
-1108 -1192 1138 0
-1108 -1195 1141 0
-1108 -1198 1144 0
-1108 -1201 1147 0
-1108 -1204 1150 0
1111 1213 0
-1111 -1213 0
-1111 -1207 1099 0
-1111 -1210 1102 0
-1111 -1216 1108 0
-1111 -1222 1114 0
-1111 -1225 1117 0
-1111 -1228 1120 0
-1111 -1231 1123 0
-1111 -1234 1126 0
-1111 -1237 1129 0
-1111 -1240 1132 0
-1111 -1243 1135 0
-1111 -1246 1138 0
-1111 -1249 1141 0
-1111 -1252 1144 0
-1111 -1255 1147 0
-1111 -1258 1150 0
1114 1267 0
-1114 -1267 0
-1114 -1261 1099 0
-1114 -1264 1102 0
-1114 -1270 1108 0
-1114 -1273 1111 0
-1114 -1279 1117 0
-1114 -1282 1120 0
-1114 -1285 1123 0
-1114 -1288 1126 0
-1114 -1291 1129 0
-1114 -1294 1132 0
-1114 -1297 1135 0
-1114 -1300 1138 0
-1114 -1303 1141 0
-1114 -1306 1144 0
-1114 -1309 1147 0
-1114 -1312 1150 0
1117 1321 0
-1117 -1321 0
-1117 -1315 1099 0
-1117 -1318 1102 0
-1117 -1324 1108 0
-1117 -1327 1111 0
-1117 -1330 1114 0
-1117 -1336 1120 0
-1117 -1339 1123 0
-1117 -1342 1126 0
-1117 -1345 1129 0
-1117 -1348 1132 0
-1117 -1351 1135 0
-1117 -1354 1138 0
-1117 -1357 1141 0
-1117 -1360 1144 0
-1117 -1363 1147 0
-1117 -1366 1150 0
1120 1375 0
-1120 -1375 0
-1120 -1369 1099 0
-1120 -1372 1102 0
-1120 -1378 1108 0
-1120 -1381 1111 0
-1120 -1384 1114 0
-1120 -1387 1117 0
-1120 -1393 1123 0
-1120 -1396 1126 0
-1120 -1399 1129 0
-1120 -1402 1132 0
-1120 -1405 1135 0
-1120 -1408 1138 0
-1120 -1411 1141 0
-1120 -1414 1144 0
-1120 -1417 1147 0
-1120 -1420 1150 0
1123 1429 0
-1123 -1429 0
-1123 -1423 1099 0
-1123 -1426 1102 0
-1123 -1432 1108 0
-1123 -1435 1111 0
-1123 -1438 1114 0
-1123 -1441 1117 0
-1123 -1444 1120 0
-1123 -1450 1126 0
-1123 -1453 1129 0
-1123 -1456 1132 0
-1123 -1459 1135 0
-1123 -1462 1138 0
-1123 -1465 1141 0
-1123 -1468 1144 0
-1123 -1471 1147 0
-1123 -1474 1150 0
1126 1483 0
-1126 -1483 0
-1126 -1477 1099 0
-1126 -1480 1102 0
-1126 -1486 1108 0
-1126 -1489 1111 0
-1126 -1492 1114 0
-1126 -1495 1117 0
-1126 -1498 1120 0
-1126 -1501 1123 0
-1126 -1507 1129 0
-1126 -1510 1132 0
-1126 -1513 1135 0
-1126 -1516 1138 0
-1126 -1519 1141 0
-1126 -1522 1144 0
-1126 -1525 1147 0
-1126 -1528 1150 0
1129 1537 0
-1129 -1537 0
-1129 -1531 1099 0
-1129 -1534 1102 0
-1129 -1540 1108 0
-1129 -1543 1111 0
-1129 -1546 1114 0
-1129 -1549 1117 0
-1129 -1552 1120 0
-1129 -1555 1123 0
-1129 -1558 1126 0
-1129 -1564 1132 0
-1129 -1567 1135 0
-1129 -1570 1138 0
-1129 -1573 1141 0
-1129 -1576 1144 0
-1129 -1579 1147 0
-1129 -1582 1150 0
1132 1591 0
-1132 -1591 0
-1132 -1585 1099 0
-1132 -1588 1102 0
-1132 -1594 1108 0
-1132 -1597 1111 0
-1132 -1600 1114 0
-1132 -1603 1117 0
-1132 -1606 1120 0
-1132 -1609 1123 0
-1132 -1612 1126 0
-1132 -1615 1129 0
-1132 -1621 1135 0
-1132 -1624 1138 0
-1132 -1627 1141 0
-1132 -1630 1144 0
-1132 -1633 1147 0
-1132 -1636 1150 0
1135 1645 0
-1135 -1645 0
-1135 -1639 1099 0
-1135 -1642 1102 0
-1135 -1648 1108 0
-1135 -1651 1111 0
-1135 -1654 1114 0
-1135 -1657 1117 0
-1135 -1660 1120 0
-1135 -1663 1123 0
-1135 -1666 1126 0
-1135 -1669 1129 0
-1135 -1672 1132 0
-1135 -1678 1138 0
-1135 -1681 1141 0
-1135 -1684 1144 0
-1135 -1687 1147 0
-1135 -1690 1150 0
1138 1699 0
-1138 -1699 0
-1138 -1693 1099 0
-1138 -1696 1102 0
-1138 -1702 1108 0
-1138 -1705 1111 0
-1138 -1708 1114 0
-1138 -1711 1117 0
-1138 -1714 1120 0
-1138 -1717 1123 0
-1138 -1720 1126 0
-1138 -1723 1129 0
-1138 -1726 1132 0
-1138 -1729 1135 0
-1138 -1735 1141 0
-1138 -1738 1144 0
-1138 -1741 1147 0
-1138 -1744 1150 0
1141 1753 0
-1141 -1753 0
-1141 -1747 1099 0
-1141 -1750 1102 0
-1141 -1756 1108 0
-1141 -1759 1111 0
-1141 -1762 1114 0
-1141 -1765 1117 0
-1141 -1768 1120 0
-1141 -1771 1123 0
-1141 -1774 1126 0
-1141 -1777 1129 0
-1141 -1780 1132 0
-1141 -1783 1135 0
-1141 -1786 1138 0
-1141 -1792 1144 0
-1141 -1795 1147 0
-1141 -1798 1150 0
1144 1807 0
-1144 -1807 0
-1144 -1801 1099 0
-1144 -1804 1102 0
-1144 -1810 1108 0
-1144 -1813 1111 0
-1144 -1816 1114 0
-1144 -1819 1117 0
-1144 -1822 1120 0
-1144 -1825 1123 0
-1144 -1828 1126 0
-1144 -1831 1129 0
-1144 -1834 1132 0
-1144 -1837 1135 0
-1144 -1840 1138 0
-1144 -1843 1141 0
-1144 -1849 1147 0
-1144 -1852 1150 0
1147 1861 0
-1147 -1861 0
-1147 -1855 1099 0
-1147 -1858 1102 0
-1147 -1864 1108 0
-1147 -1867 1111 0
-1147 -1870 1114 0
-1147 -1873 1117 0
-1147 -1876 1120 0
-1147 -1879 1123 0
-1147 -1882 1126 0
-1147 -1885 1129 0
-1147 -1888 1132 0
-1147 -1891 1135 0
-1147 -1894 1138 0
-1147 -1897 1141 0
-1147 -1900 1144 0
-1147 -1906 1150 0
1150 1915 0
-1150 -1915 0
-1150 -1909 1099 0
-1150 -1912 1102 0
-1150 -1918 1108 0
-1150 -1921 1111 0
-1150 -1924 1114 0
-1150 -1927 1117 0
-1150 -1930 1120 0
-1150 -1933 1123 0
-1150 -1936 1126 0
-1150 -1939 1129 0
-1150 -1942 1132 0
-1150 -1945 1135 0
-1150 -1948 1138 0
-1150 -1951 1141 0
-1150 -1954 1144 0
-1150 -1957 1147 0
1162 0
1153 1000 0
-1153 -1000 0
-1153 -994 1156 0
-1153 -997 1159 0
-1153 -1003 1165 0
-1153 -1006 1168 0
-1153 -1009 1171 0
-1153 -1012 1174 0
-1153 -1015 1177 0
-1153 -1018 1180 0
-1153 -1021 1183 0
-1153 -1024 1186 0
-1153 -1027 1189 0
-1153 -1030 1192 0
-1153 -1033 1195 0
-1153 -1036 1198 0
-1153 -1039 1201 0
-1153 -1042 1204 0
1156 1054 0
-1156 -1054 0
-1156 -1045 1153 0
-1156 -1051 1159 0
-1156 -1057 1165 0
-1156 -1060 1168 0
-1156 -1063 1171 0
-1156 -1066 1174 0
-1156 -1069 1177 0
-1156 -1072 1180 0
-1156 -1075 1183 0
-1156 -1078 1186 0
-1156 -1081 1189 0
-1156 -1084 1192 0
-1156 -1087 1195 0
-1156 -1090 1198 0
-1156 -1093 1201 0
-1156 -1096 1204 0
1159 1108 0
-1159 -1108 0
-1159 -1099 1153 0
-1159 -1102 1156 0
-1159 -1111 1165 0
-1159 -1114 1168 0
-1159 -1117 1171 0
-1159 -1120 1174 0
-1159 -1123 1177 0
-1159 -1126 1180 0
-1159 -1129 1183 0
-1159 -1132 1186 0
-1159 -1135 1189 0
-1159 -1138 1192 0
-1159 -1141 1195 0
-1159 -1144 1198 0
-1159 -1147 1201 0
-1159 -1150 1204 0
1165 1216 0
-1165 -1216 0
-1165 -1207 1153 0
-1165 -1210 1156 0
-1165 -1213 1159 0
-1165 -1222 1168 0
-1165 -1225 1171 0
-1165 -1228 1174 0
-1165 -1231 1177 0
-1165 -1234 1180 0
-1165 -1237 1183 0
-1165 -1240 1186 0
-1165 -1243 1189 0
-1165 -1246 1192 0
-1165 -1249 1195 0
-1165 -1252 1198 0
-1165 -1255 1201 0
-1165 -1258 1204 0
1168 1270 0
-1168 -1270 0
-1168 -1261 1153 0
-1168 -1264 1156 0
-1168 -1267 1159 0
-1168 -1273 1165 0
-1168 -1279 1171 0
-1168 -1282 1174 0
-1168 -1285 1177 0
-1168 -1288 1180 0
-1168 -1291 1183 0
-1168 -1294 1186 0
-1168 -1297 1189 0
-1168 -1300 1192 0
-1168 -1303 1195 0
-1168 -1306 1198 0
-1168 -1309 1201 0
-1168 -1312 1204 0
1171 1324 0
-1171 -1324 0
-1171 -1315 1153 0
-1171 -1318 1156 0
-1171 -1321 1159 0
-1171 -1327 1165 0
-1171 -1330 1168 0
-1171 -1336 1174 0
-1171 -1339 1177 0
-1171 -1342 1180 0
-1171 -1345 1183 0
-1171 -1348 1186 0
-1171 -1351 1189 0
-1171 -1354 1192 0
-1171 -1357 1195 0
-1171 -1360 1198 0
-1171 -1363 1201 0
-1171 -1366 1204 0
1174 1378 0
-1174 -1378 0
-1174 -1369 1153 0
-1174 -1372 1156 0
-1174 -1375 1159 0
-1174 -1381 1165 0
-1174 -1384 1168 0
-1174 -1387 1171 0
-1174 -1393 1177 0
-1174 -1396 1180 0
-1174 -1399 1183 0
-1174 -1402 1186 0
-1174 -1405 1189 0
-1174 -1408 1192 0
-1174 -1411 1195 0
-1174 -1414 1198 0
-1174 -1417 1201 0
-1174 -1420 1204 0
1177 1432 0
-1177 -1432 0
-1177 -1423 1153 0
-1177 -1426 1156 0
-1177 -1429 1159 0
-1177 -1435 1165 0
-1177 -1438 1168 0
-1177 -1441 1171 0
-1177 -1444 1174 0
-1177 -1450 1180 0
-1177 -1453 1183 0
-1177 -1456 1186 0
-1177 -1459 1189 0
-1177 -1462 1192 0
-1177 -1465 1195 0
-1177 -1468 1198 0
-1177 -1471 1201 0
-1177 -1474 1204 0
1180 1486 0
-1180 -1486 0
-1180 -1477 1153 0
-1180 -1480 1156 0
-1180 -1483 1159 0
-1180 -1489 1165 0
-1180 -1492 1168 0
-1180 -1495 1171 0
-1180 -1498 1174 0
-1180 -1501 1177 0
-1180 -1507 1183 0
-1180 -1510 1186 0
-1180 -1513 1189 0
-1180 -1516 1192 0
-1180 -1519 1195 0
-1180 -1522 1198 0
-1180 -1525 1201 0
-1180 -1528 1204 0
1183 1540 0
-1183 -1540 0
-1183 -1531 1153 0
-1183 -1534 1156 0
-1183 -1537 1159 0
-1183 -1543 1165 0
-1183 -1546 1168 0
-1183 -1549 1171 0
-1183 -1552 1174 0
-1183 -1555 1177 0
-1183 -1558 1180 0
-1183 -1564 1186 0
-1183 -1567 1189 0
-1183 -1570 1192 0
-1183 -1573 1195 0
-1183 -1576 1198 0
-1183 -1579 1201 0
-1183 -1582 1204 0
1186 1594 0
-1186 -1594 0
-1186 -1585 1153 0
-1186 -1588 1156 0
-1186 -1591 1159 0
-1186 -1597 1165 0
-1186 -1600 1168 0
-1186 -1603 1171 0
-1186 -1606 1174 0
-1186 -1609 1177 0
-1186 -1612 1180 0
-1186 -1615 1183 0
-1186 -1621 1189 0
-1186 -1624 1192 0
-1186 -1627 1195 0
-1186 -1630 1198 0
-1186 -1633 1201 0
-1186 -1636 1204 0
1189 1648 0
-1189 -1648 0
-1189 -1639 1153 0
-1189 -1642 1156 0
-1189 -1645 1159 0
-1189 -1651 1165 0
-1189 -1654 1168 0
-1189 -1657 1171 0
-1189 -1660 1174 0
-1189 -1663 1177 0
-1189 -1666 1180 0
-1189 -1669 1183 0
-1189 -1672 1186 0
-1189 -1678 1192 0
-1189 -1681 1195 0
-1189 -1684 1198 0
-1189 -1687 1201 0
-1189 -1690 1204 0
1192 1702 0
-1192 -1702 0
-1192 -1693 1153 0
-1192 -1696 1156 0
-1192 -1699 1159 0
-1192 -1705 1165 0
-1192 -1708 1168 0
-1192 -1711 1171 0
-1192 -1714 1174 0
-1192 -1717 1177 0
-1192 -1720 1180 0
-1192 -1723 1183 0
-1192 -1726 1186 0
-1192 -1729 1189 0
-1192 -1735 1195 0
-1192 -1738 1198 0
-1192 -1741 1201 0
-1192 -1744 1204 0
1195 1756 0
-1195 -1756 0
-1195 -1747 1153 0
-1195 -1750 1156 0
-1195 -1753 1159 0
-1195 -1759 1165 0
-1195 -1762 1168 0
-1195 -1765 1171 0
-1195 -1768 1174 0
-1195 -1771 1177 0
-1195 -1774 1180 0
-1195 -1777 1183 0
-1195 -1780 1186 0
-1195 -1783 1189 0
-1195 -1786 1192 0
-1195 -1792 1198 0
-1195 -1795 1201 0
-1195 -1798 1204 0
1198 1810 0
-1198 -1810 0
-1198 -1801 1153 0
-1198 -1804 1156 0
-1198 -1807 1159 0
-1198 -1813 1165 0
-1198 -1816 1168 0
-1198 -1819 1171 0
-1198 -1822 1174 0
-1198 -1825 1177 0
-1198 -1828 1180 0
-1198 -1831 1183 0
-1198 -1834 1186 0
-1198 -1837 1189 0
-1198 -1840 1192 0
-1198 -1843 1195 0
-1198 -1849 1201 0
-1198 -1852 1204 0
1201 1864 0
-1201 -1864 0
-1201 -1855 1153 0
-1201 -1858 1156 0
-1201 -1861 1159 0
-1201 -1867 1165 0
-1201 -1870 1168 0
-1201 -1873 1171 0
-1201 -1876 1174 0
-1201 -1879 1177 0
-1201 -1882 1180 0
-1201 -1885 1183 0
-1201 -1888 1186 0
-1201 -1891 1189 0
-1201 -1894 1192 0
-1201 -1897 1195 0
-1201 -1900 1198 0
-1201 -1906 1204 0
1204 1918 0
-1204 -1918 0
-1204 -1909 1153 0
-1204 -1912 1156 0
-1204 -1915 1159 0
-1204 -1921 1165 0
-1204 -1924 1168 0
-1204 -1927 1171 0
-1204 -1930 1174 0
-1204 -1933 1177 0
-1204 -1936 1180 0
-1204 -1939 1183 0
-1204 -1942 1186 0
-1204 -1945 1189 0
-1204 -1948 1192 0
-1204 -1951 1195 0
-1204 -1954 1198 0
-1204 -1957 1201 0
1219 0
1207 1003 0
-1207 -1003 0
-1207 -994 1210 0
-1207 -997 1213 0
-1207 -1000 1216 0
-1207 -1006 1222 0
-1207 -1009 1225 0
-1207 -1012 1228 0
-1207 -1015 1231 0
-1207 -1018 1234 0
-1207 -1021 1237 0
-1207 -1024 1240 0
-1207 -1027 1243 0
-1207 -1030 1246 0
-1207 -1033 1249 0
-1207 -1036 1252 0
-1207 -1039 1255 0
-1207 -1042 1258 0
1210 1057 0
-1210 -1057 0
-1210 -1045 1207 0
-1210 -1051 1213 0
-1210 -1054 1216 0
-1210 -1060 1222 0
-1210 -1063 1225 0
-1210 -1066 1228 0
-1210 -1069 1231 0
-1210 -1072 1234 0
-1210 -1075 1237 0
-1210 -1078 1240 0
-1210 -1081 1243 0
-1210 -1084 1246 0
-1210 -1087 1249 0
-1210 -1090 1252 0
-1210 -1093 1255 0
-1210 -1096 1258 0
1213 1111 0
-1213 -1111 0
-1213 -1099 1207 0
-1213 -1102 1210 0
-1213 -1108 1216 0
-1213 -1114 1222 0
-1213 -1117 1225 0
-1213 -1120 1228 0
-1213 -1123 1231 0
-1213 -1126 1234 0
-1213 -1129 1237 0
-1213 -1132 1240 0
-1213 -1135 1243 0
-1213 -1138 1246 0
-1213 -1141 1249 0
-1213 -1144 1252 0
-1213 -1147 1255 0
-1213 -1150 1258 0
1216 1165 0
-1216 -1165 0
-1216 -1153 1207 0
-1216 -1156 1210 0
-1216 -1159 1213 0
-1216 -1168 1222 0
-1216 -1171 1225 0
-1216 -1174 1228 0
-1216 -1177 1231 0
-1216 -1180 1234 0
-1216 -1183 1237 0
-1216 -1186 1240 0
-1216 -1189 1243 0
-1216 -1192 1246 0
-1216 -1195 1249 0
-1216 -1198 1252 0
-1216 -1201 1255 0
-1216 -1204 1258 0
1222 1273 0
-1222 -1273 0
-1222 -1261 1207 0
-1222 -1264 1210 0
-1222 -1267 1213 0
-1222 -1270 1216 0
-1222 -1279 1225 0
-1222 -1282 1228 0
-1222 -1285 1231 0
-1222 -1288 1234 0
-1222 -1291 1237 0
-1222 -1294 1240 0
-1222 -1297 1243 0
-1222 -1300 1246 0
-1222 -1303 1249 0
-1222 -1306 1252 0
-1222 -1309 1255 0
-1222 -1312 1258 0
1225 1327 0
-1225 -1327 0
-1225 -1315 1207 0
-1225 -1318 1210 0
-1225 -1321 1213 0
-1225 -1324 1216 0
-1225 -1330 1222 0
-1225 -1336 1228 0
-1225 -1339 1231 0
-1225 -1342 1234 0
-1225 -1345 1237 0
-1225 -1348 1240 0
-1225 -1351 1243 0
-1225 -1354 1246 0
-1225 -1357 1249 0
-1225 -1360 1252 0
-1225 -1363 1255 0
-1225 -1366 1258 0
1228 1381 0
-1228 -1381 0
-1228 -1369 1207 0
-1228 -1372 1210 0
-1228 -1375 1213 0
-1228 -1378 1216 0
-1228 -1384 1222 0
-1228 -1387 1225 0
-1228 -1393 1231 0
-1228 -1396 1234 0
-1228 -1399 1237 0
-1228 -1402 1240 0
-1228 -1405 1243 0
-1228 -1408 1246 0
-1228 -1411 1249 0
-1228 -1414 1252 0
-1228 -1417 1255 0
-1228 -1420 1258 0
1231 1435 0
-1231 -1435 0
-1231 -1423 1207 0
-1231 -1426 1210 0
-1231 -1429 1213 0
-1231 -1432 1216 0
-1231 -1438 1222 0
-1231 -1441 1225 0
-1231 -1444 1228 0
-1231 -1450 1234 0
-1231 -1453 1237 0
-1231 -1456 1240 0
-1231 -1459 1243 0
-1231 -1462 1246 0
-1231 -1465 1249 0
-1231 -1468 1252 0
-1231 -1471 1255 0
-1231 -1474 1258 0
1234 1489 0
-1234 -1489 0
-1234 -1477 1207 0
-1234 -1480 1210 0
-1234 -1483 1213 0
-1234 -1486 1216 0
-1234 -1492 1222 0
-1234 -1495 1225 0
-1234 -1498 1228 0
-1234 -1501 1231 0
-1234 -1507 1237 0
-1234 -1510 1240 0
-1234 -1513 1243 0
-1234 -1516 1246 0
-1234 -1519 1249 0
-1234 -1522 1252 0
-1234 -1525 1255 0
-1234 -1528 1258 0
1237 1543 0
-1237 -1543 0
-1237 -1531 1207 0
-1237 -1534 1210 0
-1237 -1537 1213 0
-1237 -1540 1216 0
-1237 -1546 1222 0
-1237 -1549 1225 0
-1237 -1552 1228 0
-1237 -1555 1231 0
-1237 -1558 1234 0
-1237 -1564 1240 0
-1237 -1567 1243 0
-1237 -1570 1246 0
-1237 -1573 1249 0
-1237 -1576 1252 0
-1237 -1579 1255 0
-1237 -1582 1258 0
1240 1597 0
-1240 -1597 0
-1240 -1585 1207 0
-1240 -1588 1210 0
-1240 -1591 1213 0
-1240 -1594 1216 0
-1240 -1600 1222 0
-1240 -1603 1225 0
-1240 -1606 1228 0
-1240 -1609 1231 0
-1240 -1612 1234 0
-1240 -1615 1237 0
-1240 -1621 1243 0
-1240 -1624 1246 0
-1240 -1627 1249 0
-1240 -1630 1252 0
-1240 -1633 1255 0
-1240 -1636 1258 0
1243 1651 0
-1243 -1651 0
-1243 -1639 1207 0
-1243 -1642 1210 0
-1243 -1645 1213 0
-1243 -1648 1216 0
-1243 -1654 1222 0
-1243 -1657 1225 0
-1243 -1660 1228 0
-1243 -1663 1231 0
-1243 -1666 1234 0
-1243 -1669 1237 0
-1243 -1672 1240 0
-1243 -1678 1246 0
-1243 -1681 1249 0
-1243 -1684 1252 0
-1243 -1687 1255 0
-1243 -1690 1258 0
1246 1705 0
-1246 -1705 0
-1246 -1693 1207 0
-1246 -1696 1210 0
-1246 -1699 1213 0
-1246 -1702 1216 0
-1246 -1708 1222 0
-1246 -1711 1225 0
-1246 -1714 1228 0
-1246 -1717 1231 0
-1246 -1720 1234 0
-1246 -1723 1237 0
-1246 -1726 1240 0
-1246 -1729 1243 0
-1246 -1735 1249 0
-1246 -1738 1252 0
-1246 -1741 1255 0
-1246 -1744 1258 0
1249 1759 0
-1249 -1759 0
-1249 -1747 1207 0
-1249 -1750 1210 0
-1249 -1753 1213 0
-1249 -1756 1216 0
-1249 -1762 1222 0
-1249 -1765 1225 0
-1249 -1768 1228 0
-1249 -1771 1231 0
-1249 -1774 1234 0
-1249 -1777 1237 0
-1249 -1780 1240 0
-1249 -1783 1243 0
-1249 -1786 1246 0
-1249 -1792 1252 0
-1249 -1795 1255 0
-1249 -1798 1258 0
1252 1813 0
-1252 -1813 0
-1252 -1801 1207 0
-1252 -1804 1210 0
-1252 -1807 1213 0
-1252 -1810 1216 0
-1252 -1816 1222 0
-1252 -1819 1225 0
-1252 -1822 1228 0
-1252 -1825 1231 0
-1252 -1828 1234 0
-1252 -1831 1237 0
-1252 -1834 1240 0
-1252 -1837 1243 0
-1252 -1840 1246 0
-1252 -1843 1249 0
-1252 -1849 1255 0
-1252 -1852 1258 0
1255 1867 0
-1255 -1867 0
-1255 -1855 1207 0
-1255 -1858 1210 0
-1255 -1861 1213 0
-1255 -1864 1216 0
-1255 -1870 1222 0
-1255 -1873 1225 0
-1255 -1876 1228 0
-1255 -1879 1231 0
-1255 -1882 1234 0
-1255 -1885 1237 0
-1255 -1888 1240 0
-1255 -1891 1243 0
-1255 -1894 1246 0
-1255 -1897 1249 0
-1255 -1900 1252 0
-1255 -1906 1258 0
1258 1921 0
-1258 -1921 0
-1258 -1909 1207 0
-1258 -1912 1210 0
-1258 -1915 1213 0
-1258 -1918 1216 0
-1258 -1924 1222 0
-1258 -1927 1225 0
-1258 -1930 1228 0
-1258 -1933 1231 0
-1258 -1936 1234 0
-1258 -1939 1237 0
-1258 -1942 1240 0
-1258 -1945 1243 0
-1258 -1948 1246 0
-1258 -1951 1249 0
-1258 -1954 1252 0
-1258 -1957 1255 0
1276 0
1261 1006 0
-1261 -1006 0
-1261 -994 1264 0
-1261 -997 1267 0
-1261 -1000 1270 0
-1261 -1003 1273 0
-1261 -1009 1279 0
-1261 -1012 1282 0
-1261 -1015 1285 0
-1261 -1018 1288 0
-1261 -1021 1291 0
-1261 -1024 1294 0
-1261 -1027 1297 0
-1261 -1030 1300 0
-1261 -1033 1303 0
-1261 -1036 1306 0
-1261 -1039 1309 0
-1261 -1042 1312 0
1264 1060 0
-1264 -1060 0
-1264 -1045 1261 0
-1264 -1051 1267 0
-1264 -1054 1270 0
-1264 -1057 1273 0
-1264 -1063 1279 0
-1264 -1066 1282 0
-1264 -1069 1285 0
-1264 -1072 1288 0
-1264 -1075 1291 0
-1264 -1078 1294 0
-1264 -1081 1297 0
-1264 -1084 1300 0
-1264 -1087 1303 0
-1264 -1090 1306 0
-1264 -1093 1309 0
-1264 -1096 1312 0
1267 1114 0
-1267 -1114 0
-1267 -1099 1261 0
-1267 -1102 1264 0
-1267 -1108 1270 0
-1267 -1111 1273 0
-1267 -1117 1279 0
-1267 -1120 1282 0
-1267 -1123 1285 0
-1267 -1126 1288 0
-1267 -1129 1291 0
-1267 -1132 1294 0
-1267 -1135 1297 0
-1267 -1138 1300 0
-1267 -1141 1303 0
-1267 -1144 1306 0
-1267 -1147 1309 0
-1267 -1150 1312 0
1270 1168 0
-1270 -1168 0
-1270 -1153 1261 0
-1270 -1156 1264 0
-1270 -1159 1267 0
-1270 -1165 1273 0
-1270 -1171 1279 0
-1270 -1174 1282 0
-1270 -1177 1285 0
-1270 -1180 1288 0
-1270 -1183 1291 0
-1270 -1186 1294 0
-1270 -1189 1297 0
-1270 -1192 1300 0
-1270 -1195 1303 0
-1270 -1198 1306 0
-1270 -1201 1309 0
-1270 -1204 1312 0
1273 1222 0
-1273 -1222 0
-1273 -1207 1261 0
-1273 -1210 1264 0
-1273 -1213 1267 0
-1273 -1216 1270 0
-1273 -1225 1279 0
-1273 -1228 1282 0
-1273 -1231 1285 0
-1273 -1234 1288 0
-1273 -1237 1291 0
-1273 -1240 1294 0
-1273 -1243 1297 0
-1273 -1246 1300 0
-1273 -1249 1303 0
-1273 -1252 1306 0
-1273 -1255 1309 0
-1273 -1258 1312 0
1279 1330 0
-1279 -1330 0
-1279 -1315 1261 0
-1279 -1318 1264 0
-1279 -1321 1267 0
-1279 -1324 1270 0
-1279 -1327 1273 0
-1279 -1336 1282 0
-1279 -1339 1285 0
-1279 -1342 1288 0
-1279 -1345 1291 0
-1279 -1348 1294 0
-1279 -1351 1297 0
-1279 -1354 1300 0
-1279 -1357 1303 0
-1279 -1360 1306 0
-1279 -1363 1309 0
-1279 -1366 1312 0
1282 1384 0
-1282 -1384 0
-1282 -1369 1261 0
-1282 -1372 1264 0
-1282 -1375 1267 0
-1282 -1378 1270 0
-1282 -1381 1273 0
-1282 -1387 1279 0
-1282 -1393 1285 0
-1282 -1396 1288 0
-1282 -1399 1291 0
-1282 -1402 1294 0
-1282 -1405 1297 0
-1282 -1408 1300 0
-1282 -1411 1303 0
-1282 -1414 1306 0
-1282 -1417 1309 0
-1282 -1420 1312 0
1285 1438 0
-1285 -1438 0
-1285 -1423 1261 0
-1285 -1426 1264 0
-1285 -1429 1267 0
-1285 -1432 1270 0
-1285 -1435 1273 0
-1285 -1441 1279 0
-1285 -1444 1282 0
-1285 -1450 1288 0
-1285 -1453 1291 0
-1285 -1456 1294 0
-1285 -1459 1297 0
-1285 -1462 1300 0
-1285 -1465 1303 0
-1285 -1468 1306 0
-1285 -1471 1309 0
-1285 -1474 1312 0
1288 1492 0
-1288 -1492 0
-1288 -1477 1261 0
-1288 -1480 1264 0
-1288 -1483 1267 0
-1288 -1486 1270 0
-1288 -1489 1273 0
-1288 -1495 1279 0
-1288 -1498 1282 0
-1288 -1501 1285 0
-1288 -1507 1291 0
-1288 -1510 1294 0
-1288 -1513 1297 0
-1288 -1516 1300 0
-1288 -1519 1303 0
-1288 -1522 1306 0
-1288 -1525 1309 0
-1288 -1528 1312 0
1291 1546 0
-1291 -1546 0
-1291 -1531 1261 0
-1291 -1534 1264 0
-1291 -1537 1267 0
-1291 -1540 1270 0
-1291 -1543 1273 0
-1291 -1549 1279 0
-1291 -1552 1282 0
-1291 -1555 1285 0
-1291 -1558 1288 0
-1291 -1564 1294 0
-1291 -1567 1297 0
-1291 -1570 1300 0
-1291 -1573 1303 0
-1291 -1576 1306 0
-1291 -1579 1309 0
-1291 -1582 1312 0
1294 1600 0
-1294 -1600 0
-1294 -1585 1261 0
-1294 -1588 1264 0
-1294 -1591 1267 0
-1294 -1594 1270 0
-1294 -1597 1273 0
-1294 -1603 1279 0
-1294 -1606 1282 0
-1294 -1609 1285 0
-1294 -1612 1288 0
-1294 -1615 1291 0
-1294 -1621 1297 0
-1294 -1624 1300 0
-1294 -1627 1303 0
-1294 -1630 1306 0
-1294 -1633 1309 0
-1294 -1636 1312 0
1297 1654 0
-1297 -1654 0
-1297 -1639 1261 0
-1297 -1642 1264 0
-1297 -1645 1267 0
-1297 -1648 1270 0
-1297 -1651 1273 0
-1297 -1657 1279 0
-1297 -1660 1282 0
-1297 -1663 1285 0
-1297 -1666 1288 0
-1297 -1669 1291 0
-1297 -1672 1294 0
-1297 -1678 1300 0
-1297 -1681 1303 0
-1297 -1684 1306 0
-1297 -1687 1309 0
-1297 -1690 1312 0
1300 1708 0
-1300 -1708 0
-1300 -1693 1261 0
-1300 -1696 1264 0
-1300 -1699 1267 0
-1300 -1702 1270 0
-1300 -1705 1273 0
-1300 -1711 1279 0
-1300 -1714 1282 0
-1300 -1717 1285 0
-1300 -1720 1288 0
-1300 -1723 1291 0
-1300 -1726 1294 0
-1300 -1729 1297 0
-1300 -1735 1303 0
-1300 -1738 1306 0
-1300 -1741 1309 0
-1300 -1744 1312 0
1303 1762 0
-1303 -1762 0
-1303 -1747 1261 0
-1303 -1750 1264 0
-1303 -1753 1267 0
-1303 -1756 1270 0
-1303 -1759 1273 0
-1303 -1765 1279 0
-1303 -1768 1282 0
-1303 -1771 1285 0
-1303 -1774 1288 0
-1303 -1777 1291 0
-1303 -1780 1294 0
-1303 -1783 1297 0
-1303 -1786 1300 0
-1303 -1792 1306 0
-1303 -1795 1309 0
-1303 -1798 1312 0
1306 1816 0
-1306 -1816 0
-1306 -1801 1261 0
-1306 -1804 1264 0
-1306 -1807 1267 0
-1306 -1810 1270 0
-1306 -1813 1273 0
-1306 -1819 1279 0
-1306 -1822 1282 0
-1306 -1825 1285 0
-1306 -1828 1288 0
-1306 -1831 1291 0
-1306 -1834 1294 0
-1306 -1837 1297 0
-1306 -1840 1300 0
-1306 -1843 1303 0
-1306 -1849 1309 0
-1306 -1852 1312 0
1309 1870 0
-1309 -1870 0
-1309 -1855 1261 0
-1309 -1858 1264 0
-1309 -1861 1267 0
-1309 -1864 1270 0
-1309 -1867 1273 0
-1309 -1873 1279 0
-1309 -1876 1282 0
-1309 -1879 1285 0
-1309 -1882 1288 0
-1309 -1885 1291 0
-1309 -1888 1294 0
-1309 -1891 1297 0
-1309 -1894 1300 0
-1309 -1897 1303 0
-1309 -1900 1306 0
-1309 -1906 1312 0
1312 1924 0
-1312 -1924 0
-1312 -1909 1261 0
-1312 -1912 1264 0
-1312 -1915 1267 0
-1312 -1918 1270 0
-1312 -1921 1273 0
-1312 -1927 1279 0
-1312 -1930 1282 0
-1312 -1933 1285 0
-1312 -1936 1288 0
-1312 -1939 1291 0
-1312 -1942 1294 0
-1312 -1945 1297 0
-1312 -1948 1300 0
-1312 -1951 1303 0
-1312 -1954 1306 0
-1312 -1957 1309 0
1333 0
1315 1009 0
-1315 -1009 0
-1315 -994 1318 0
-1315 -997 1321 0
-1315 -1000 1324 0
-1315 -1003 1327 0
-1315 -1006 1330 0
-1315 -1012 1336 0
-1315 -1015 1339 0
-1315 -1018 1342 0
-1315 -1021 1345 0
-1315 -1024 1348 0
-1315 -1027 1351 0
-1315 -1030 1354 0
-1315 -1033 1357 0
-1315 -1036 1360 0
-1315 -1039 1363 0
-1315 -1042 1366 0
1318 1063 0
-1318 -1063 0
-1318 -1045 1315 0
-1318 -1051 1321 0
-1318 -1054 1324 0
-1318 -1057 1327 0
-1318 -1060 1330 0
-1318 -1066 1336 0
-1318 -1069 1339 0
-1318 -1072 1342 0
-1318 -1075 1345 0
-1318 -1078 1348 0
-1318 -1081 1351 0
-1318 -1084 1354 0
-1318 -1087 1357 0
-1318 -1090 1360 0
-1318 -1093 1363 0
-1318 -1096 1366 0
1321 1117 0
-1321 -1117 0
-1321 -1099 1315 0
-1321 -1102 1318 0
-1321 -1108 1324 0
-1321 -1111 1327 0
-1321 -1114 1330 0
-1321 -1120 1336 0
-1321 -1123 1339 0
-1321 -1126 1342 0
-1321 -1129 1345 0
-1321 -1132 1348 0
-1321 -1135 1351 0
-1321 -1138 1354 0
-1321 -1141 1357 0
-1321 -1144 1360 0
-1321 -1147 1363 0
-1321 -1150 1366 0
1324 1171 0
-1324 -1171 0
-1324 -1153 1315 0
-1324 -1156 1318 0
-1324 -1159 1321 0
-1324 -1165 1327 0
-1324 -1168 1330 0
-1324 -1174 1336 0
-1324 -1177 1339 0
-1324 -1180 1342 0
-1324 -1183 1345 0
-1324 -1186 1348 0
-1324 -1189 1351 0
-1324 -1192 1354 0
-1324 -1195 1357 0
-1324 -1198 1360 0
-1324 -1201 1363 0
-1324 -1204 1366 0
1327 1225 0
-1327 -1225 0
-1327 -1207 1315 0
-1327 -1210 1318 0
-1327 -1213 1321 0
-1327 -1216 1324 0
-1327 -1222 1330 0
-1327 -1228 1336 0
-1327 -1231 1339 0
-1327 -1234 1342 0
-1327 -1237 1345 0
-1327 -1240 1348 0
-1327 -1243 1351 0
-1327 -1246 1354 0
-1327 -1249 1357 0
-1327 -1252 1360 0
-1327 -1255 1363 0
-1327 -1258 1366 0
1330 1279 0
-1330 -1279 0
-1330 -1261 1315 0
-1330 -1264 1318 0
-1330 -1267 1321 0
-1330 -1270 1324 0
-1330 -1273 1327 0
-1330 -1282 1336 0
-1330 -1285 1339 0
-1330 -1288 1342 0
-1330 -1291 1345 0
-1330 -1294 1348 0
-1330 -1297 1351 0
-1330 -1300 1354 0
-1330 -1303 1357 0
-1330 -1306 1360 0
-1330 -1309 1363 0
-1330 -1312 1366 0
1336 1387 0
-1336 -1387 0
-1336 -1369 1315 0
-1336 -1372 1318 0
-1336 -1375 1321 0
-1336 -1378 1324 0
-1336 -1381 1327 0
-1336 -1384 1330 0
-1336 -1393 1339 0
-1336 -1396 1342 0
-1336 -1399 1345 0
-1336 -1402 1348 0
-1336 -1405 1351 0
-1336 -1408 1354 0
-1336 -1411 1357 0
-1336 -1414 1360 0
-1336 -1417 1363 0
-1336 -1420 1366 0
1339 1441 0
-1339 -1441 0
-1339 -1423 1315 0
-1339 -1426 1318 0
-1339 -1429 1321 0
-1339 -1432 1324 0
-1339 -1435 1327 0
-1339 -1438 1330 0
-1339 -1444 1336 0
-1339 -1450 1342 0
-1339 -1453 1345 0
-1339 -1456 1348 0
-1339 -1459 1351 0
-1339 -1462 1354 0
-1339 -1465 1357 0
-1339 -1468 1360 0
-1339 -1471 1363 0
-1339 -1474 1366 0
1342 1495 0
-1342 -1495 0
-1342 -1477 1315 0
-1342 -1480 1318 0
-1342 -1483 1321 0
-1342 -1486 1324 0
-1342 -1489 1327 0
-1342 -1492 1330 0
-1342 -1498 1336 0
-1342 -1501 1339 0
-1342 -1507 1345 0
-1342 -1510 1348 0
-1342 -1513 1351 0
-1342 -1516 1354 0
-1342 -1519 1357 0
-1342 -1522 1360 0
-1342 -1525 1363 0
-1342 -1528 1366 0
1345 1549 0
-1345 -1549 0
-1345 -1531 1315 0
-1345 -1534 1318 0
-1345 -1537 1321 0
-1345 -1540 1324 0
-1345 -1543 1327 0
-1345 -1546 1330 0
-1345 -1552 1336 0
-1345 -1555 1339 0
-1345 -1558 1342 0
-1345 -1564 1348 0
-1345 -1567 1351 0
-1345 -1570 1354 0
-1345 -1573 1357 0
-1345 -1576 1360 0
-1345 -1579 1363 0
-1345 -1582 1366 0
1348 1603 0
-1348 -1603 0
-1348 -1585 1315 0
-1348 -1588 1318 0
-1348 -1591 1321 0
-1348 -1594 1324 0
-1348 -1597 1327 0
-1348 -1600 1330 0
-1348 -1606 1336 0
-1348 -1609 1339 0
-1348 -1612 1342 0
-1348 -1615 1345 0
-1348 -1621 1351 0
-1348 -1624 1354 0
-1348 -1627 1357 0
-1348 -1630 1360 0
-1348 -1633 1363 0
-1348 -1636 1366 0
1351 1657 0
-1351 -1657 0
-1351 -1639 1315 0
-1351 -1642 1318 0
-1351 -1645 1321 0
-1351 -1648 1324 0
-1351 -1651 1327 0
-1351 -1654 1330 0
-1351 -1660 1336 0
-1351 -1663 1339 0
-1351 -1666 1342 0
-1351 -1669 1345 0
-1351 -1672 1348 0
-1351 -1678 1354 0
-1351 -1681 1357 0
-1351 -1684 1360 0
-1351 -1687 1363 0
-1351 -1690 1366 0
1354 1711 0
-1354 -1711 0
-1354 -1693 1315 0
-1354 -1696 1318 0
-1354 -1699 1321 0
-1354 -1702 1324 0
-1354 -1705 1327 0
-1354 -1708 1330 0
-1354 -1714 1336 0
-1354 -1717 1339 0
-1354 -1720 1342 0
-1354 -1723 1345 0
-1354 -1726 1348 0
-1354 -1729 1351 0
-1354 -1735 1357 0
-1354 -1738 1360 0
-1354 -1741 1363 0
-1354 -1744 1366 0
1357 1765 0
-1357 -1765 0
-1357 -1747 1315 0
-1357 -1750 1318 0
-1357 -1753 1321 0
-1357 -1756 1324 0
-1357 -1759 1327 0
-1357 -1762 1330 0
-1357 -1768 1336 0
-1357 -1771 1339 0
-1357 -1774 1342 0
-1357 -1777 1345 0
-1357 -1780 1348 0
-1357 -1783 1351 0
-1357 -1786 1354 0
-1357 -1792 1360 0
-1357 -1795 1363 0
-1357 -1798 1366 0
1360 1819 0
-1360 -1819 0
-1360 -1801 1315 0
-1360 -1804 1318 0
-1360 -1807 1321 0
-1360 -1810 1324 0
-1360 -1813 1327 0
-1360 -1816 1330 0
-1360 -1822 1336 0
-1360 -1825 1339 0
-1360 -1828 1342 0
-1360 -1831 1345 0
-1360 -1834 1348 0
-1360 -1837 1351 0
-1360 -1840 1354 0
-1360 -1843 1357 0
-1360 -1849 1363 0
-1360 -1852 1366 0
1363 1873 0
-1363 -1873 0
-1363 -1855 1315 0
-1363 -1858 1318 0
-1363 -1861 1321 0
-1363 -1864 1324 0
-1363 -1867 1327 0
-1363 -1870 1330 0
-1363 -1876 1336 0
-1363 -1879 1339 0
-1363 -1882 1342 0
-1363 -1885 1345 0
-1363 -1888 1348 0
-1363 -1891 1351 0
-1363 -1894 1354 0
-1363 -1897 1357 0
-1363 -1900 1360 0
-1363 -1906 1366 0
1366 1927 0
-1366 -1927 0
-1366 -1909 1315 0
-1366 -1912 1318 0
-1366 -1915 1321 0
-1366 -1918 1324 0
-1366 -1921 1327 0
-1366 -1924 1330 0
-1366 -1930 1336 0
-1366 -1933 1339 0
-1366 -1936 1342 0
-1366 -1939 1345 0
-1366 -1942 1348 0
-1366 -1945 1351 0
-1366 -1948 1354 0
-1366 -1951 1357 0
-1366 -1954 1360 0
-1366 -1957 1363 0
1390 0
1369 1012 0
-1369 -1012 0
-1369 -994 1372 0
-1369 -997 1375 0
-1369 -1000 1378 0
-1369 -1003 1381 0
-1369 -1006 1384 0
-1369 -1009 1387 0
-1369 -1015 1393 0
-1369 -1018 1396 0
-1369 -1021 1399 0
-1369 -1024 1402 0
-1369 -1027 1405 0
-1369 -1030 1408 0
-1369 -1033 1411 0
-1369 -1036 1414 0
-1369 -1039 1417 0
-1369 -1042 1420 0
1372 1066 0
-1372 -1066 0
-1372 -1045 1369 0
-1372 -1051 1375 0
-1372 -1054 1378 0
-1372 -1057 1381 0
-1372 -1060 1384 0
-1372 -1063 1387 0
-1372 -1069 1393 0
-1372 -1072 1396 0
-1372 -1075 1399 0
-1372 -1078 1402 0
-1372 -1081 1405 0
-1372 -1084 1408 0
-1372 -1087 1411 0
-1372 -1090 1414 0
-1372 -1093 1417 0
-1372 -1096 1420 0
1375 1120 0
-1375 -1120 0
-1375 -1099 1369 0
-1375 -1102 1372 0
-1375 -1108 1378 0
-1375 -1111 1381 0
-1375 -1114 1384 0
-1375 -1117 1387 0
-1375 -1123 1393 0
-1375 -1126 1396 0
-1375 -1129 1399 0
-1375 -1132 1402 0
-1375 -1135 1405 0
-1375 -1138 1408 0
-1375 -1141 1411 0
-1375 -1144 1414 0
-1375 -1147 1417 0
-1375 -1150 1420 0
1378 1174 0
-1378 -1174 0
-1378 -1153 1369 0
-1378 -1156 1372 0
-1378 -1159 1375 0
-1378 -1165 1381 0
-1378 -1168 1384 0
-1378 -1171 1387 0
-1378 -1177 1393 0
-1378 -1180 1396 0
-1378 -1183 1399 0
-1378 -1186 1402 0
-1378 -1189 1405 0
-1378 -1192 1408 0
-1378 -1195 1411 0
-1378 -1198 1414 0
-1378 -1201 1417 0
-1378 -1204 1420 0
1381 1228 0
-1381 -1228 0
-1381 -1207 1369 0
-1381 -1210 1372 0
-1381 -1213 1375 0
-1381 -1216 1378 0
-1381 -1222 1384 0
-1381 -1225 1387 0
-1381 -1231 1393 0
-1381 -1234 1396 0
-1381 -1237 1399 0
-1381 -1240 1402 0
-1381 -1243 1405 0
-1381 -1246 1408 0
-1381 -1249 1411 0
-1381 -1252 1414 0
-1381 -1255 1417 0
-1381 -1258 1420 0
1384 1282 0
-1384 -1282 0
-1384 -1261 1369 0
-1384 -1264 1372 0
-1384 -1267 1375 0
-1384 -1270 1378 0
-1384 -1273 1381 0
-1384 -1279 1387 0
-1384 -1285 1393 0
-1384 -1288 1396 0
-1384 -1291 1399 0
-1384 -1294 1402 0
-1384 -1297 1405 0
-1384 -1300 1408 0
-1384 -1303 1411 0
-1384 -1306 1414 0
-1384 -1309 1417 0
-1384 -1312 1420 0
1387 1336 0
-1387 -1336 0
-1387 -1315 1369 0
-1387 -1318 1372 0
-1387 -1321 1375 0
-1387 -1324 1378 0
-1387 -1327 1381 0
-1387 -1330 1384 0
-1387 -1339 1393 0
-1387 -1342 1396 0
-1387 -1345 1399 0
-1387 -1348 1402 0
-1387 -1351 1405 0
-1387 -1354 1408 0
-1387 -1357 1411 0
-1387 -1360 1414 0
-1387 -1363 1417 0
-1387 -1366 1420 0
1393 1444 0
-1393 -1444 0
-1393 -1423 1369 0
-1393 -1426 1372 0
-1393 -1429 1375 0
-1393 -1432 1378 0
-1393 -1435 1381 0
-1393 -1438 1384 0
-1393 -1441 1387 0
-1393 -1450 1396 0
-1393 -1453 1399 0
-1393 -1456 1402 0
-1393 -1459 1405 0
-1393 -1462 1408 0
-1393 -1465 1411 0
-1393 -1468 1414 0
-1393 -1471 1417 0
-1393 -1474 1420 0
1396 1498 0
-1396 -1498 0
-1396 -1477 1369 0
-1396 -1480 1372 0
-1396 -1483 1375 0
-1396 -1486 1378 0
-1396 -1489 1381 0
-1396 -1492 1384 0
-1396 -1495 1387 0
-1396 -1501 1393 0
-1396 -1507 1399 0
-1396 -1510 1402 0
-1396 -1513 1405 0
-1396 -1516 1408 0
-1396 -1519 1411 0
-1396 -1522 1414 0
-1396 -1525 1417 0
-1396 -1528 1420 0
1399 1552 0
-1399 -1552 0
-1399 -1531 1369 0
-1399 -1534 1372 0
-1399 -1537 1375 0
-1399 -1540 1378 0
-1399 -1543 1381 0
-1399 -1546 1384 0
-1399 -1549 1387 0
-1399 -1555 1393 0
-1399 -1558 1396 0
-1399 -1564 1402 0
-1399 -1567 1405 0
-1399 -1570 1408 0
-1399 -1573 1411 0
-1399 -1576 1414 0
-1399 -1579 1417 0
-1399 -1582 1420 0
1402 1606 0
-1402 -1606 0
-1402 -1585 1369 0
-1402 -1588 1372 0
-1402 -1591 1375 0
-1402 -1594 1378 0
-1402 -1597 1381 0
-1402 -1600 1384 0
-1402 -1603 1387 0
-1402 -1609 1393 0
-1402 -1612 1396 0
-1402 -1615 1399 0
-1402 -1621 1405 0
-1402 -1624 1408 0
-1402 -1627 1411 0
-1402 -1630 1414 0
-1402 -1633 1417 0
-1402 -1636 1420 0
1405 1660 0
-1405 -1660 0
-1405 -1639 1369 0
-1405 -1642 1372 0
-1405 -1645 1375 0
-1405 -1648 1378 0
-1405 -1651 1381 0
-1405 -1654 1384 0
-1405 -1657 1387 0
-1405 -1663 1393 0
-1405 -1666 1396 0
-1405 -1669 1399 0
-1405 -1672 1402 0
-1405 -1678 1408 0
-1405 -1681 1411 0
-1405 -1684 1414 0
-1405 -1687 1417 0
-1405 -1690 1420 0
1408 1714 0
-1408 -1714 0
-1408 -1693 1369 0
-1408 -1696 1372 0
-1408 -1699 1375 0
-1408 -1702 1378 0
-1408 -1705 1381 0
-1408 -1708 1384 0
-1408 -1711 1387 0
-1408 -1717 1393 0
-1408 -1720 1396 0
-1408 -1723 1399 0
-1408 -1726 1402 0
-1408 -1729 1405 0
-1408 -1735 1411 0
-1408 -1738 1414 0
-1408 -1741 1417 0
-1408 -1744 1420 0
1411 1768 0
-1411 -1768 0
-1411 -1747 1369 0
-1411 -1750 1372 0
-1411 -1753 1375 0
-1411 -1756 1378 0
-1411 -1759 1381 0
-1411 -1762 1384 0
-1411 -1765 1387 0
-1411 -1771 1393 0
-1411 -1774 1396 0
-1411 -1777 1399 0
-1411 -1780 1402 0
-1411 -1783 1405 0
-1411 -1786 1408 0
-1411 -1792 1414 0
-1411 -1795 1417 0
-1411 -1798 1420 0
1414 1822 0
-1414 -1822 0
-1414 -1801 1369 0
-1414 -1804 1372 0
-1414 -1807 1375 0
-1414 -1810 1378 0
-1414 -1813 1381 0
-1414 -1816 1384 0
-1414 -1819 1387 0
-1414 -1825 1393 0
-1414 -1828 1396 0
-1414 -1831 1399 0
-1414 -1834 1402 0
-1414 -1837 1405 0
-1414 -1840 1408 0
-1414 -1843 1411 0
-1414 -1849 1417 0
-1414 -1852 1420 0
1417 1876 0
-1417 -1876 0
-1417 -1855 1369 0
-1417 -1858 1372 0
-1417 -1861 1375 0
-1417 -1864 1378 0
-1417 -1867 1381 0
-1417 -1870 1384 0
-1417 -1873 1387 0
-1417 -1879 1393 0
-1417 -1882 1396 0
-1417 -1885 1399 0
-1417 -1888 1402 0
-1417 -1891 1405 0
-1417 -1894 1408 0
-1417 -1897 1411 0
-1417 -1900 1414 0
-1417 -1906 1420 0
1420 1930 0
-1420 -1930 0
-1420 -1909 1369 0
-1420 -1912 1372 0
-1420 -1915 1375 0
-1420 -1918 1378 0
-1420 -1921 1381 0
-1420 -1924 1384 0
-1420 -1927 1387 0
-1420 -1933 1393 0
-1420 -1936 1396 0
-1420 -1939 1399 0
-1420 -1942 1402 0
-1420 -1945 1405 0
-1420 -1948 1408 0
-1420 -1951 1411 0
-1420 -1954 1414 0
-1420 -1957 1417 0
1447 0
1423 1015 0
-1423 -1015 0
-1423 -994 1426 0
-1423 -997 1429 0
-1423 -1000 1432 0
-1423 -1003 1435 0
-1423 -1006 1438 0
-1423 -1009 1441 0
-1423 -1012 1444 0
-1423 -1018 1450 0
-1423 -1021 1453 0
-1423 -1024 1456 0
-1423 -1027 1459 0
-1423 -1030 1462 0
-1423 -1033 1465 0
-1423 -1036 1468 0
-1423 -1039 1471 0
-1423 -1042 1474 0
1426 1069 0
-1426 -1069 0
-1426 -1045 1423 0
-1426 -1051 1429 0
-1426 -1054 1432 0
-1426 -1057 1435 0
-1426 -1060 1438 0
-1426 -1063 1441 0
-1426 -1066 1444 0
-1426 -1072 1450 0
-1426 -1075 1453 0
-1426 -1078 1456 0
-1426 -1081 1459 0
-1426 -1084 1462 0
-1426 -1087 1465 0
-1426 -1090 1468 0
-1426 -1093 1471 0
-1426 -1096 1474 0
1429 1123 0
-1429 -1123 0
-1429 -1099 1423 0
-1429 -1102 1426 0
-1429 -1108 1432 0
-1429 -1111 1435 0
-1429 -1114 1438 0
-1429 -1117 1441 0
-1429 -1120 1444 0
-1429 -1126 1450 0
-1429 -1129 1453 0
-1429 -1132 1456 0
-1429 -1135 1459 0
-1429 -1138 1462 0
-1429 -1141 1465 0
-1429 -1144 1468 0
-1429 -1147 1471 0
-1429 -1150 1474 0
1432 1177 0
-1432 -1177 0
-1432 -1153 1423 0
-1432 -1156 1426 0
-1432 -1159 1429 0
-1432 -1165 1435 0
-1432 -1168 1438 0
-1432 -1171 1441 0
-1432 -1174 1444 0
-1432 -1180 1450 0
-1432 -1183 1453 0
-1432 -1186 1456 0
-1432 -1189 1459 0
-1432 -1192 1462 0
-1432 -1195 1465 0
-1432 -1198 1468 0
-1432 -1201 1471 0
-1432 -1204 1474 0
1435 1231 0
-1435 -1231 0
-1435 -1207 1423 0
-1435 -1210 1426 0
-1435 -1213 1429 0
-1435 -1216 1432 0
-1435 -1222 1438 0
-1435 -1225 1441 0
-1435 -1228 1444 0
-1435 -1234 1450 0
-1435 -1237 1453 0
-1435 -1240 1456 0
-1435 -1243 1459 0
-1435 -1246 1462 0
-1435 -1249 1465 0
-1435 -1252 1468 0
-1435 -1255 1471 0
-1435 -1258 1474 0
1438 1285 0
-1438 -1285 0
-1438 -1261 1423 0
-1438 -1264 1426 0
-1438 -1267 1429 0
-1438 -1270 1432 0
-1438 -1273 1435 0
-1438 -1279 1441 0
-1438 -1282 1444 0
-1438 -1288 1450 0
-1438 -1291 1453 0
-1438 -1294 1456 0
-1438 -1297 1459 0
-1438 -1300 1462 0
-1438 -1303 1465 0
-1438 -1306 1468 0
-1438 -1309 1471 0
-1438 -1312 1474 0
1441 1339 0
-1441 -1339 0
-1441 -1315 1423 0
-1441 -1318 1426 0
-1441 -1321 1429 0
-1441 -1324 1432 0
-1441 -1327 1435 0
-1441 -1330 1438 0
-1441 -1336 1444 0
-1441 -1342 1450 0
-1441 -1345 1453 0
-1441 -1348 1456 0
-1441 -1351 1459 0
-1441 -1354 1462 0
-1441 -1357 1465 0
-1441 -1360 1468 0
-1441 -1363 1471 0
-1441 -1366 1474 0
1444 1393 0
-1444 -1393 0
-1444 -1369 1423 0
-1444 -1372 1426 0
-1444 -1375 1429 0
-1444 -1378 1432 0
-1444 -1381 1435 0
-1444 -1384 1438 0
-1444 -1387 1441 0
-1444 -1396 1450 0
-1444 -1399 1453 0
-1444 -1402 1456 0
-1444 -1405 1459 0
-1444 -1408 1462 0
-1444 -1411 1465 0
-1444 -1414 1468 0
-1444 -1417 1471 0
-1444 -1420 1474 0
1450 1501 0
-1450 -1501 0
-1450 -1477 1423 0
-1450 -1480 1426 0
-1450 -1483 1429 0
-1450 -1486 1432 0
-1450 -1489 1435 0
-1450 -1492 1438 0
-1450 -1495 1441 0
-1450 -1498 1444 0
-1450 -1507 1453 0
-1450 -1510 1456 0
-1450 -1513 1459 0
-1450 -1516 1462 0
-1450 -1519 1465 0
-1450 -1522 1468 0
-1450 -1525 1471 0
-1450 -1528 1474 0
1453 1555 0
-1453 -1555 0
-1453 -1531 1423 0
-1453 -1534 1426 0
-1453 -1537 1429 0
-1453 -1540 1432 0
-1453 -1543 1435 0
-1453 -1546 1438 0
-1453 -1549 1441 0
-1453 -1552 1444 0
-1453 -1558 1450 0
-1453 -1564 1456 0
-1453 -1567 1459 0
-1453 -1570 1462 0
-1453 -1573 1465 0
-1453 -1576 1468 0
-1453 -1579 1471 0
-1453 -1582 1474 0
1456 1609 0
-1456 -1609 0
-1456 -1585 1423 0
-1456 -1588 1426 0
-1456 -1591 1429 0
-1456 -1594 1432 0
-1456 -1597 1435 0
-1456 -1600 1438 0
-1456 -1603 1441 0
-1456 -1606 1444 0
-1456 -1612 1450 0
-1456 -1615 1453 0
-1456 -1621 1459 0
-1456 -1624 1462 0
-1456 -1627 1465 0
-1456 -1630 1468 0
-1456 -1633 1471 0
-1456 -1636 1474 0
1459 1663 0
-1459 -1663 0
-1459 -1639 1423 0
-1459 -1642 1426 0
-1459 -1645 1429 0
-1459 -1648 1432 0
-1459 -1651 1435 0
-1459 -1654 1438 0
-1459 -1657 1441 0
-1459 -1660 1444 0
-1459 -1666 1450 0
-1459 -1669 1453 0
-1459 -1672 1456 0
-1459 -1678 1462 0
-1459 -1681 1465 0
-1459 -1684 1468 0
-1459 -1687 1471 0
-1459 -1690 1474 0
1462 1717 0
-1462 -1717 0
-1462 -1693 1423 0
-1462 -1696 1426 0
-1462 -1699 1429 0
-1462 -1702 1432 0
-1462 -1705 1435 0
-1462 -1708 1438 0
-1462 -1711 1441 0
-1462 -1714 1444 0
-1462 -1720 1450 0
-1462 -1723 1453 0
-1462 -1726 1456 0
-1462 -1729 1459 0
-1462 -1735 1465 0
-1462 -1738 1468 0
-1462 -1741 1471 0
-1462 -1744 1474 0
1465 1771 0
-1465 -1771 0
-1465 -1747 1423 0
-1465 -1750 1426 0
-1465 -1753 1429 0
-1465 -1756 1432 0
-1465 -1759 1435 0
-1465 -1762 1438 0
-1465 -1765 1441 0
-1465 -1768 1444 0
-1465 -1774 1450 0
-1465 -1777 1453 0
-1465 -1780 1456 0
-1465 -1783 1459 0
-1465 -1786 1462 0
-1465 -1792 1468 0
-1465 -1795 1471 0
-1465 -1798 1474 0
1468 1825 0
-1468 -1825 0
-1468 -1801 1423 0
-1468 -1804 1426 0
-1468 -1807 1429 0
-1468 -1810 1432 0
-1468 -1813 1435 0
-1468 -1816 1438 0
-1468 -1819 1441 0
-1468 -1822 1444 0
-1468 -1828 1450 0
-1468 -1831 1453 0
-1468 -1834 1456 0
-1468 -1837 1459 0
-1468 -1840 1462 0
-1468 -1843 1465 0
-1468 -1849 1471 0
-1468 -1852 1474 0
1471 1879 0
-1471 -1879 0
-1471 -1855 1423 0
-1471 -1858 1426 0
-1471 -1861 1429 0
-1471 -1864 1432 0
-1471 -1867 1435 0
-1471 -1870 1438 0
-1471 -1873 1441 0
-1471 -1876 1444 0
-1471 -1882 1450 0
-1471 -1885 1453 0
-1471 -1888 1456 0
-1471 -1891 1459 0
-1471 -1894 1462 0
-1471 -1897 1465 0
-1471 -1900 1468 0
-1471 -1906 1474 0
1474 1933 0
-1474 -1933 0
-1474 -1909 1423 0
-1474 -1912 1426 0
-1474 -1915 1429 0
-1474 -1918 1432 0
-1474 -1921 1435 0
-1474 -1924 1438 0
-1474 -1927 1441 0
-1474 -1930 1444 0
-1474 -1936 1450 0
-1474 -1939 1453 0
-1474 -1942 1456 0
-1474 -1945 1459 0
-1474 -1948 1462 0
-1474 -1951 1465 0
-1474 -1954 1468 0
-1474 -1957 1471 0
1504 0
1477 1018 0
-1477 -1018 0
-1477 -994 1480 0
-1477 -997 1483 0
-1477 -1000 1486 0
-1477 -1003 1489 0
-1477 -1006 1492 0
-1477 -1009 1495 0
-1477 -1012 1498 0
-1477 -1015 1501 0
-1477 -1021 1507 0
-1477 -1024 1510 0
-1477 -1027 1513 0
-1477 -1030 1516 0
-1477 -1033 1519 0
-1477 -1036 1522 0
-1477 -1039 1525 0
-1477 -1042 1528 0
1480 1072 0
-1480 -1072 0
-1480 -1045 1477 0
-1480 -1051 1483 0
-1480 -1054 1486 0
-1480 -1057 1489 0
-1480 -1060 1492 0
-1480 -1063 1495 0
-1480 -1066 1498 0
-1480 -1069 1501 0
-1480 -1075 1507 0
-1480 -1078 1510 0
-1480 -1081 1513 0
-1480 -1084 1516 0
-1480 -1087 1519 0
-1480 -1090 1522 0
-1480 -1093 1525 0
-1480 -1096 1528 0
1483 1126 0
-1483 -1126 0
-1483 -1099 1477 0
-1483 -1102 1480 0
-1483 -1108 1486 0
-1483 -1111 1489 0
-1483 -1114 1492 0
-1483 -1117 1495 0
-1483 -1120 1498 0
-1483 -1123 1501 0
-1483 -1129 1507 0
-1483 -1132 1510 0
-1483 -1135 1513 0
-1483 -1138 1516 0
-1483 -1141 1519 0
-1483 -1144 1522 0
-1483 -1147 1525 0
-1483 -1150 1528 0
1486 1180 0
-1486 -1180 0
-1486 -1153 1477 0
-1486 -1156 1480 0
-1486 -1159 1483 0
-1486 -1165 1489 0
-1486 -1168 1492 0
-1486 -1171 1495 0
-1486 -1174 1498 0
-1486 -1177 1501 0
-1486 -1183 1507 0
-1486 -1186 1510 0
-1486 -1189 1513 0
-1486 -1192 1516 0
-1486 -1195 1519 0
-1486 -1198 1522 0
-1486 -1201 1525 0
-1486 -1204 1528 0
1489 1234 0
-1489 -1234 0
-1489 -1207 1477 0
-1489 -1210 1480 0
-1489 -1213 1483 0
-1489 -1216 1486 0
-1489 -1222 1492 0
-1489 -1225 1495 0
-1489 -1228 1498 0
-1489 -1231 1501 0
-1489 -1237 1507 0
-1489 -1240 1510 0
-1489 -1243 1513 0
-1489 -1246 1516 0
-1489 -1249 1519 0
-1489 -1252 1522 0
-1489 -1255 1525 0
-1489 -1258 1528 0
1492 1288 0
-1492 -1288 0
-1492 -1261 1477 0
-1492 -1264 1480 0
-1492 -1267 1483 0
-1492 -1270 1486 0
-1492 -1273 1489 0
-1492 -1279 1495 0
-1492 -1282 1498 0
-1492 -1285 1501 0
-1492 -1291 1507 0
-1492 -1294 1510 0
-1492 -1297 1513 0
-1492 -1300 1516 0
-1492 -1303 1519 0
-1492 -1306 1522 0
-1492 -1309 1525 0
-1492 -1312 1528 0
1495 1342 0
-1495 -1342 0
-1495 -1315 1477 0
-1495 -1318 1480 0
-1495 -1321 1483 0
-1495 -1324 1486 0
-1495 -1327 1489 0
-1495 -1330 1492 0
-1495 -1336 1498 0
-1495 -1339 1501 0
-1495 -1345 1507 0
-1495 -1348 1510 0
-1495 -1351 1513 0
-1495 -1354 1516 0
-1495 -1357 1519 0
-1495 -1360 1522 0
-1495 -1363 1525 0
-1495 -1366 1528 0
1498 1396 0
-1498 -1396 0
-1498 -1369 1477 0
-1498 -1372 1480 0
-1498 -1375 1483 0
-1498 -1378 1486 0
-1498 -1381 1489 0
-1498 -1384 1492 0
-1498 -1387 1495 0
-1498 -1393 1501 0
-1498 -1399 1507 0
-1498 -1402 1510 0
-1498 -1405 1513 0
-1498 -1408 1516 0
-1498 -1411 1519 0
-1498 -1414 1522 0
-1498 -1417 1525 0
-1498 -1420 1528 0
1501 1450 0
-1501 -1450 0
-1501 -1423 1477 0
-1501 -1426 1480 0
-1501 -1429 1483 0
-1501 -1432 1486 0
-1501 -1435 1489 0
-1501 -1438 1492 0
-1501 -1441 1495 0
-1501 -1444 1498 0
-1501 -1453 1507 0
-1501 -1456 1510 0
-1501 -1459 1513 0
-1501 -1462 1516 0
-1501 -1465 1519 0
-1501 -1468 1522 0
-1501 -1471 1525 0
-1501 -1474 1528 0
1507 1558 0
-1507 -1558 0
-1507 -1531 1477 0
-1507 -1534 1480 0
-1507 -1537 1483 0
-1507 -1540 1486 0
-1507 -1543 1489 0
-1507 -1546 1492 0
-1507 -1549 1495 0
-1507 -1552 1498 0
-1507 -1555 1501 0
-1507 -1564 1510 0
-1507 -1567 1513 0
-1507 -1570 1516 0
-1507 -1573 1519 0
-1507 -1576 1522 0
-1507 -1579 1525 0
-1507 -1582 1528 0
1510 1612 0
-1510 -1612 0
-1510 -1585 1477 0
-1510 -1588 1480 0
-1510 -1591 1483 0
-1510 -1594 1486 0
-1510 -1597 1489 0
-1510 -1600 1492 0
-1510 -1603 1495 0
-1510 -1606 1498 0
-1510 -1609 1501 0
-1510 -1615 1507 0
-1510 -1621 1513 0
-1510 -1624 1516 0
-1510 -1627 1519 0
-1510 -1630 1522 0
-1510 -1633 1525 0
-1510 -1636 1528 0
1513 1666 0
-1513 -1666 0
-1513 -1639 1477 0
-1513 -1642 1480 0
-1513 -1645 1483 0
-1513 -1648 1486 0
-1513 -1651 1489 0
-1513 -1654 1492 0
-1513 -1657 1495 0
-1513 -1660 1498 0
-1513 -1663 1501 0
-1513 -1669 1507 0
-1513 -1672 1510 0
-1513 -1678 1516 0
-1513 -1681 1519 0
-1513 -1684 1522 0
-1513 -1687 1525 0
-1513 -1690 1528 0
1516 1720 0
-1516 -1720 0
-1516 -1693 1477 0
-1516 -1696 1480 0
-1516 -1699 1483 0
-1516 -1702 1486 0
-1516 -1705 1489 0
-1516 -1708 1492 0
-1516 -1711 1495 0
-1516 -1714 1498 0
-1516 -1717 1501 0
-1516 -1723 1507 0
-1516 -1726 1510 0
-1516 -1729 1513 0
-1516 -1735 1519 0
-1516 -1738 1522 0
-1516 -1741 1525 0
-1516 -1744 1528 0
1519 1774 0
-1519 -1774 0
-1519 -1747 1477 0
-1519 -1750 1480 0
-1519 -1753 1483 0
-1519 -1756 1486 0
-1519 -1759 1489 0
-1519 -1762 1492 0
-1519 -1765 1495 0
-1519 -1768 1498 0
-1519 -1771 1501 0
-1519 -1777 1507 0
-1519 -1780 1510 0
-1519 -1783 1513 0
-1519 -1786 1516 0
-1519 -1792 1522 0
-1519 -1795 1525 0
-1519 -1798 1528 0
1522 1828 0
-1522 -1828 0
-1522 -1801 1477 0
-1522 -1804 1480 0
-1522 -1807 1483 0
-1522 -1810 1486 0
-1522 -1813 1489 0
-1522 -1816 1492 0
-1522 -1819 1495 0
-1522 -1822 1498 0
-1522 -1825 1501 0
-1522 -1831 1507 0
-1522 -1834 1510 0
-1522 -1837 1513 0
-1522 -1840 1516 0
-1522 -1843 1519 0
-1522 -1849 1525 0
-1522 -1852 1528 0
1525 1882 0
-1525 -1882 0
-1525 -1855 1477 0
-1525 -1858 1480 0
-1525 -1861 1483 0
-1525 -1864 1486 0
-1525 -1867 1489 0
-1525 -1870 1492 0
-1525 -1873 1495 0
-1525 -1876 1498 0
-1525 -1879 1501 0
-1525 -1885 1507 0
-1525 -1888 1510 0
-1525 -1891 1513 0
-1525 -1894 1516 0
-1525 -1897 1519 0
-1525 -1900 1522 0
-1525 -1906 1528 0
1528 1936 0
-1528 -1936 0
-1528 -1909 1477 0
-1528 -1912 1480 0
-1528 -1915 1483 0
-1528 -1918 1486 0
-1528 -1921 1489 0
-1528 -1924 1492 0
-1528 -1927 1495 0
-1528 -1930 1498 0
-1528 -1933 1501 0
-1528 -1939 1507 0
-1528 -1942 1510 0
-1528 -1945 1513 0
-1528 -1948 1516 0
-1528 -1951 1519 0
-1528 -1954 1522 0
-1528 -1957 1525 0
1561 0
1531 1021 0
-1531 -1021 0
-1531 -994 1534 0
-1531 -997 1537 0
-1531 -1000 1540 0
-1531 -1003 1543 0
-1531 -1006 1546 0
-1531 -1009 1549 0
-1531 -1012 1552 0
-1531 -1015 1555 0
-1531 -1018 1558 0
-1531 -1024 1564 0
-1531 -1027 1567 0
-1531 -1030 1570 0
-1531 -1033 1573 0
-1531 -1036 1576 0
-1531 -1039 1579 0
-1531 -1042 1582 0
1534 1075 0
-1534 -1075 0
-1534 -1045 1531 0
-1534 -1051 1537 0
-1534 -1054 1540 0
-1534 -1057 1543 0
-1534 -1060 1546 0
-1534 -1063 1549 0
-1534 -1066 1552 0
-1534 -1069 1555 0
-1534 -1072 1558 0
-1534 -1078 1564 0
-1534 -1081 1567 0
-1534 -1084 1570 0
-1534 -1087 1573 0
-1534 -1090 1576 0
-1534 -1093 1579 0
-1534 -1096 1582 0
1537 1129 0
-1537 -1129 0
-1537 -1099 1531 0
-1537 -1102 1534 0
-1537 -1108 1540 0
-1537 -1111 1543 0
-1537 -1114 1546 0
-1537 -1117 1549 0
-1537 -1120 1552 0
-1537 -1123 1555 0
-1537 -1126 1558 0
-1537 -1132 1564 0
-1537 -1135 1567 0
-1537 -1138 1570 0
-1537 -1141 1573 0
-1537 -1144 1576 0
-1537 -1147 1579 0
-1537 -1150 1582 0
1540 1183 0
-1540 -1183 0
-1540 -1153 1531 0
-1540 -1156 1534 0
-1540 -1159 1537 0
-1540 -1165 1543 0
-1540 -1168 1546 0
-1540 -1171 1549 0
-1540 -1174 1552 0
-1540 -1177 1555 0
-1540 -1180 1558 0
-1540 -1186 1564 0
-1540 -1189 1567 0
-1540 -1192 1570 0
-1540 -1195 1573 0
-1540 -1198 1576 0
-1540 -1201 1579 0
-1540 -1204 1582 0
1543 1237 0
-1543 -1237 0
-1543 -1207 1531 0
-1543 -1210 1534 0
-1543 -1213 1537 0
-1543 -1216 1540 0
-1543 -1222 1546 0
-1543 -1225 1549 0
-1543 -1228 1552 0
-1543 -1231 1555 0
-1543 -1234 1558 0
-1543 -1240 1564 0
-1543 -1243 1567 0
-1543 -1246 1570 0
-1543 -1249 1573 0
-1543 -1252 1576 0
-1543 -1255 1579 0
-1543 -1258 1582 0
1546 1291 0
-1546 -1291 0
-1546 -1261 1531 0
-1546 -1264 1534 0
-1546 -1267 1537 0
-1546 -1270 1540 0
-1546 -1273 1543 0
-1546 -1279 1549 0
-1546 -1282 1552 0
-1546 -1285 1555 0
-1546 -1288 1558 0
-1546 -1294 1564 0
-1546 -1297 1567 0
-1546 -1300 1570 0
-1546 -1303 1573 0
-1546 -1306 1576 0
-1546 -1309 1579 0
-1546 -1312 1582 0
1549 1345 0
-1549 -1345 0
-1549 -1315 1531 0
-1549 -1318 1534 0
-1549 -1321 1537 0
-1549 -1324 1540 0
-1549 -1327 1543 0
-1549 -1330 1546 0
-1549 -1336 1552 0
-1549 -1339 1555 0
-1549 -1342 1558 0
-1549 -1348 1564 0
-1549 -1351 1567 0
-1549 -1354 1570 0
-1549 -1357 1573 0
-1549 -1360 1576 0
-1549 -1363 1579 0
-1549 -1366 1582 0
1552 1399 0
-1552 -1399 0
-1552 -1369 1531 0
-1552 -1372 1534 0
-1552 -1375 1537 0
-1552 -1378 1540 0
-1552 -1381 1543 0
-1552 -1384 1546 0
-1552 -1387 1549 0
-1552 -1393 1555 0
-1552 -1396 1558 0
-1552 -1402 1564 0
-1552 -1405 1567 0
-1552 -1408 1570 0
-1552 -1411 1573 0
-1552 -1414 1576 0
-1552 -1417 1579 0
-1552 -1420 1582 0
1555 1453 0
-1555 -1453 0
-1555 -1423 1531 0
-1555 -1426 1534 0
-1555 -1429 1537 0
-1555 -1432 1540 0
-1555 -1435 1543 0
-1555 -1438 1546 0
-1555 -1441 1549 0
-1555 -1444 1552 0
-1555 -1450 1558 0
-1555 -1456 1564 0
-1555 -1459 1567 0
-1555 -1462 1570 0
-1555 -1465 1573 0
-1555 -1468 1576 0
-1555 -1471 1579 0
-1555 -1474 1582 0
1558 1507 0
-1558 -1507 0
-1558 -1477 1531 0
-1558 -1480 1534 0
-1558 -1483 1537 0
-1558 -1486 1540 0
-1558 -1489 1543 0
-1558 -1492 1546 0
-1558 -1495 1549 0
-1558 -1498 1552 0
-1558 -1501 1555 0
-1558 -1510 1564 0
-1558 -1513 1567 0
-1558 -1516 1570 0
-1558 -1519 1573 0
-1558 -1522 1576 0
-1558 -1525 1579 0
-1558 -1528 1582 0
1564 1615 0
-1564 -1615 0
-1564 -1585 1531 0
-1564 -1588 1534 0
-1564 -1591 1537 0
-1564 -1594 1540 0
-1564 -1597 1543 0
-1564 -1600 1546 0
-1564 -1603 1549 0
-1564 -1606 1552 0
-1564 -1609 1555 0
-1564 -1612 1558 0
-1564 -1621 1567 0
-1564 -1624 1570 0
-1564 -1627 1573 0
-1564 -1630 1576 0
-1564 -1633 1579 0
-1564 -1636 1582 0
1567 1669 0
-1567 -1669 0
-1567 -1639 1531 0
-1567 -1642 1534 0
-1567 -1645 1537 0
-1567 -1648 1540 0
-1567 -1651 1543 0
-1567 -1654 1546 0
-1567 -1657 1549 0
-1567 -1660 1552 0
-1567 -1663 1555 0
-1567 -1666 1558 0
-1567 -1672 1564 0
-1567 -1678 1570 0
-1567 -1681 1573 0
-1567 -1684 1576 0
-1567 -1687 1579 0
-1567 -1690 1582 0
1570 1723 0
-1570 -1723 0
-1570 -1693 1531 0
-1570 -1696 1534 0
-1570 -1699 1537 0
-1570 -1702 1540 0
-1570 -1705 1543 0
-1570 -1708 1546 0
-1570 -1711 1549 0
-1570 -1714 1552 0
-1570 -1717 1555 0
-1570 -1720 1558 0
-1570 -1726 1564 0
-1570 -1729 1567 0
-1570 -1735 1573 0
-1570 -1738 1576 0
-1570 -1741 1579 0
-1570 -1744 1582 0
1573 1777 0
-1573 -1777 0
-1573 -1747 1531 0
-1573 -1750 1534 0
-1573 -1753 1537 0
-1573 -1756 1540 0
-1573 -1759 1543 0
-1573 -1762 1546 0
-1573 -1765 1549 0
-1573 -1768 1552 0
-1573 -1771 1555 0
-1573 -1774 1558 0
-1573 -1780 1564 0
-1573 -1783 1567 0
-1573 -1786 1570 0
-1573 -1792 1576 0
-1573 -1795 1579 0
-1573 -1798 1582 0
1576 1831 0
-1576 -1831 0
-1576 -1801 1531 0
-1576 -1804 1534 0
-1576 -1807 1537 0
-1576 -1810 1540 0
-1576 -1813 1543 0
-1576 -1816 1546 0
-1576 -1819 1549 0
-1576 -1822 1552 0
-1576 -1825 1555 0
-1576 -1828 1558 0
-1576 -1834 1564 0
-1576 -1837 1567 0
-1576 -1840 1570 0
-1576 -1843 1573 0
-1576 -1849 1579 0
-1576 -1852 1582 0
1579 1885 0
-1579 -1885 0
-1579 -1855 1531 0
-1579 -1858 1534 0
-1579 -1861 1537 0
-1579 -1864 1540 0
-1579 -1867 1543 0
-1579 -1870 1546 0
-1579 -1873 1549 0
-1579 -1876 1552 0
-1579 -1879 1555 0
-1579 -1882 1558 0
-1579 -1888 1564 0
-1579 -1891 1567 0
-1579 -1894 1570 0
-1579 -1897 1573 0
-1579 -1900 1576 0
-1579 -1906 1582 0
1582 1939 0
-1582 -1939 0
-1582 -1909 1531 0
-1582 -1912 1534 0
-1582 -1915 1537 0
-1582 -1918 1540 0
-1582 -1921 1543 0
-1582 -1924 1546 0
-1582 -1927 1549 0
-1582 -1930 1552 0
-1582 -1933 1555 0
-1582 -1936 1558 0
-1582 -1942 1564 0
-1582 -1945 1567 0
-1582 -1948 1570 0
-1582 -1951 1573 0
-1582 -1954 1576 0
-1582 -1957 1579 0
1618 0
1585 1024 0
-1585 -1024 0
-1585 -994 1588 0
-1585 -997 1591 0
-1585 -1000 1594 0
-1585 -1003 1597 0
-1585 -1006 1600 0
-1585 -1009 1603 0
-1585 -1012 1606 0
-1585 -1015 1609 0
-1585 -1018 1612 0
-1585 -1021 1615 0
-1585 -1027 1621 0
-1585 -1030 1624 0
-1585 -1033 1627 0
-1585 -1036 1630 0
-1585 -1039 1633 0
-1585 -1042 1636 0
1588 1078 0
-1588 -1078 0
-1588 -1045 1585 0
-1588 -1051 1591 0
-1588 -1054 1594 0
-1588 -1057 1597 0
-1588 -1060 1600 0
-1588 -1063 1603 0
-1588 -1066 1606 0
-1588 -1069 1609 0
-1588 -1072 1612 0
-1588 -1075 1615 0
-1588 -1081 1621 0
-1588 -1084 1624 0
-1588 -1087 1627 0
-1588 -1090 1630 0
-1588 -1093 1633 0
-1588 -1096 1636 0
1591 1132 0
-1591 -1132 0
-1591 -1099 1585 0
-1591 -1102 1588 0
-1591 -1108 1594 0
-1591 -1111 1597 0
-1591 -1114 1600 0
-1591 -1117 1603 0
-1591 -1120 1606 0
-1591 -1123 1609 0
-1591 -1126 1612 0
-1591 -1129 1615 0
-1591 -1135 1621 0
-1591 -1138 1624 0
-1591 -1141 1627 0
-1591 -1144 1630 0
-1591 -1147 1633 0
-1591 -1150 1636 0
1594 1186 0
-1594 -1186 0
-1594 -1153 1585 0
-1594 -1156 1588 0
-1594 -1159 1591 0
-1594 -1165 1597 0
-1594 -1168 1600 0
-1594 -1171 1603 0
-1594 -1174 1606 0
-1594 -1177 1609 0
-1594 -1180 1612 0
-1594 -1183 1615 0
-1594 -1189 1621 0
-1594 -1192 1624 0
-1594 -1195 1627 0
-1594 -1198 1630 0
-1594 -1201 1633 0
-1594 -1204 1636 0
1597 1240 0
-1597 -1240 0
-1597 -1207 1585 0
-1597 -1210 1588 0
-1597 -1213 1591 0
-1597 -1216 1594 0
-1597 -1222 1600 0
-1597 -1225 1603 0
-1597 -1228 1606 0
-1597 -1231 1609 0
-1597 -1234 1612 0
-1597 -1237 1615 0
-1597 -1243 1621 0
-1597 -1246 1624 0
-1597 -1249 1627 0
-1597 -1252 1630 0
-1597 -1255 1633 0
-1597 -1258 1636 0
1600 1294 0
-1600 -1294 0
-1600 -1261 1585 0
-1600 -1264 1588 0
-1600 -1267 1591 0
-1600 -1270 1594 0
-1600 -1273 1597 0
-1600 -1279 1603 0
-1600 -1282 1606 0
-1600 -1285 1609 0
-1600 -1288 1612 0
-1600 -1291 1615 0
-1600 -1297 1621 0
-1600 -1300 1624 0
-1600 -1303 1627 0
-1600 -1306 1630 0
-1600 -1309 1633 0
-1600 -1312 1636 0
1603 1348 0
-1603 -1348 0
-1603 -1315 1585 0
-1603 -1318 1588 0
-1603 -1321 1591 0
-1603 -1324 1594 0
-1603 -1327 1597 0
-1603 -1330 1600 0
-1603 -1336 1606 0
-1603 -1339 1609 0
-1603 -1342 1612 0
-1603 -1345 1615 0
-1603 -1351 1621 0
-1603 -1354 1624 0
-1603 -1357 1627 0
-1603 -1360 1630 0
-1603 -1363 1633 0
-1603 -1366 1636 0
1606 1402 0
-1606 -1402 0
-1606 -1369 1585 0
-1606 -1372 1588 0
-1606 -1375 1591 0
-1606 -1378 1594 0
-1606 -1381 1597 0
-1606 -1384 1600 0
-1606 -1387 1603 0
-1606 -1393 1609 0
-1606 -1396 1612 0
-1606 -1399 1615 0
-1606 -1405 1621 0
-1606 -1408 1624 0
-1606 -1411 1627 0
-1606 -1414 1630 0
-1606 -1417 1633 0
-1606 -1420 1636 0
1609 1456 0
-1609 -1456 0
-1609 -1423 1585 0
-1609 -1426 1588 0
-1609 -1429 1591 0
-1609 -1432 1594 0
-1609 -1435 1597 0
-1609 -1438 1600 0
-1609 -1441 1603 0
-1609 -1444 1606 0
-1609 -1450 1612 0
-1609 -1453 1615 0
-1609 -1459 1621 0
-1609 -1462 1624 0
-1609 -1465 1627 0
-1609 -1468 1630 0
-1609 -1471 1633 0
-1609 -1474 1636 0
1612 1510 0
-1612 -1510 0
-1612 -1477 1585 0
-1612 -1480 1588 0
-1612 -1483 1591 0
-1612 -1486 1594 0
-1612 -1489 1597 0
-1612 -1492 1600 0
-1612 -1495 1603 0
-1612 -1498 1606 0
-1612 -1501 1609 0
-1612 -1507 1615 0
-1612 -1513 1621 0
-1612 -1516 1624 0
-1612 -1519 1627 0
-1612 -1522 1630 0
-1612 -1525 1633 0
-1612 -1528 1636 0
1615 1564 0
-1615 -1564 0
-1615 -1531 1585 0
-1615 -1534 1588 0
-1615 -1537 1591 0
-1615 -1540 1594 0
-1615 -1543 1597 0
-1615 -1546 1600 0
-1615 -1549 1603 0
-1615 -1552 1606 0
-1615 -1555 1609 0
-1615 -1558 1612 0
-1615 -1567 1621 0
-1615 -1570 1624 0
-1615 -1573 1627 0
-1615 -1576 1630 0
-1615 -1579 1633 0
-1615 -1582 1636 0
1621 1672 0
-1621 -1672 0
-1621 -1639 1585 0
-1621 -1642 1588 0
-1621 -1645 1591 0
-1621 -1648 1594 0
-1621 -1651 1597 0
-1621 -1654 1600 0
-1621 -1657 1603 0
-1621 -1660 1606 0
-1621 -1663 1609 0
-1621 -1666 1612 0
-1621 -1669 1615 0
-1621 -1678 1624 0
-1621 -1681 1627 0
-1621 -1684 1630 0
-1621 -1687 1633 0
-1621 -1690 1636 0
1624 1726 0
-1624 -1726 0
-1624 -1693 1585 0
-1624 -1696 1588 0
-1624 -1699 1591 0
-1624 -1702 1594 0
-1624 -1705 1597 0
-1624 -1708 1600 0
-1624 -1711 1603 0
-1624 -1714 1606 0
-1624 -1717 1609 0
-1624 -1720 1612 0
-1624 -1723 1615 0
-1624 -1729 1621 0
-1624 -1735 1627 0
-1624 -1738 1630 0
-1624 -1741 1633 0
-1624 -1744 1636 0
1627 1780 0
-1627 -1780 0
-1627 -1747 1585 0
-1627 -1750 1588 0
-1627 -1753 1591 0
-1627 -1756 1594 0
-1627 -1759 1597 0
-1627 -1762 1600 0
-1627 -1765 1603 0
-1627 -1768 1606 0
-1627 -1771 1609 0
-1627 -1774 1612 0
-1627 -1777 1615 0
-1627 -1783 1621 0
-1627 -1786 1624 0
-1627 -1792 1630 0
-1627 -1795 1633 0
-1627 -1798 1636 0
1630 1834 0
-1630 -1834 0
-1630 -1801 1585 0
-1630 -1804 1588 0
-1630 -1807 1591 0
-1630 -1810 1594 0
-1630 -1813 1597 0
-1630 -1816 1600 0
-1630 -1819 1603 0
-1630 -1822 1606 0
-1630 -1825 1609 0
-1630 -1828 1612 0
-1630 -1831 1615 0
-1630 -1837 1621 0
-1630 -1840 1624 0
-1630 -1843 1627 0
-1630 -1849 1633 0
-1630 -1852 1636 0
1633 1888 0
-1633 -1888 0
-1633 -1855 1585 0
-1633 -1858 1588 0
-1633 -1861 1591 0
-1633 -1864 1594 0
-1633 -1867 1597 0
-1633 -1870 1600 0
-1633 -1873 1603 0
-1633 -1876 1606 0
-1633 -1879 1609 0
-1633 -1882 1612 0
-1633 -1885 1615 0
-1633 -1891 1621 0
-1633 -1894 1624 0
-1633 -1897 1627 0
-1633 -1900 1630 0
-1633 -1906 1636 0
1636 1942 0
-1636 -1942 0
-1636 -1909 1585 0
-1636 -1912 1588 0
-1636 -1915 1591 0
-1636 -1918 1594 0
-1636 -1921 1597 0
-1636 -1924 1600 0
-1636 -1927 1603 0
-1636 -1930 1606 0
-1636 -1933 1609 0
-1636 -1936 1612 0
-1636 -1939 1615 0
-1636 -1945 1621 0
-1636 -1948 1624 0
-1636 -1951 1627 0
-1636 -1954 1630 0
-1636 -1957 1633 0
1675 0
1639 1027 0
-1639 -1027 0
-1639 -994 1642 0
-1639 -997 1645 0
-1639 -1000 1648 0
-1639 -1003 1651 0
-1639 -1006 1654 0
-1639 -1009 1657 0
-1639 -1012 1660 0
-1639 -1015 1663 0
-1639 -1018 1666 0
-1639 -1021 1669 0
-1639 -1024 1672 0
-1639 -1030 1678 0
-1639 -1033 1681 0
-1639 -1036 1684 0
-1639 -1039 1687 0
-1639 -1042 1690 0
1642 1081 0
-1642 -1081 0
-1642 -1045 1639 0
-1642 -1051 1645 0
-1642 -1054 1648 0
-1642 -1057 1651 0
-1642 -1060 1654 0
-1642 -1063 1657 0
-1642 -1066 1660 0
-1642 -1069 1663 0
-1642 -1072 1666 0
-1642 -1075 1669 0
-1642 -1078 1672 0
-1642 -1084 1678 0
-1642 -1087 1681 0
-1642 -1090 1684 0
-1642 -1093 1687 0
-1642 -1096 1690 0
1645 1135 0
-1645 -1135 0
-1645 -1099 1639 0
-1645 -1102 1642 0
-1645 -1108 1648 0
-1645 -1111 1651 0
-1645 -1114 1654 0
-1645 -1117 1657 0
-1645 -1120 1660 0
-1645 -1123 1663 0
-1645 -1126 1666 0
-1645 -1129 1669 0
-1645 -1132 1672 0
-1645 -1138 1678 0
-1645 -1141 1681 0
-1645 -1144 1684 0
-1645 -1147 1687 0
-1645 -1150 1690 0
1648 1189 0
-1648 -1189 0
-1648 -1153 1639 0
-1648 -1156 1642 0
-1648 -1159 1645 0
-1648 -1165 1651 0
-1648 -1168 1654 0
-1648 -1171 1657 0
-1648 -1174 1660 0
-1648 -1177 1663 0
-1648 -1180 1666 0
-1648 -1183 1669 0
-1648 -1186 1672 0
-1648 -1192 1678 0
-1648 -1195 1681 0
-1648 -1198 1684 0
-1648 -1201 1687 0
-1648 -1204 1690 0
1651 1243 0
-1651 -1243 0
-1651 -1207 1639 0
-1651 -1210 1642 0
-1651 -1213 1645 0
-1651 -1216 1648 0
-1651 -1222 1654 0
-1651 -1225 1657 0
-1651 -1228 1660 0
-1651 -1231 1663 0
-1651 -1234 1666 0
-1651 -1237 1669 0
-1651 -1240 1672 0
-1651 -1246 1678 0
-1651 -1249 1681 0
-1651 -1252 1684 0
-1651 -1255 1687 0
-1651 -1258 1690 0
1654 1297 0
-1654 -1297 0
-1654 -1261 1639 0
-1654 -1264 1642 0
-1654 -1267 1645 0
-1654 -1270 1648 0
-1654 -1273 1651 0
-1654 -1279 1657 0
-1654 -1282 1660 0
-1654 -1285 1663 0
-1654 -1288 1666 0
-1654 -1291 1669 0
-1654 -1294 1672 0
-1654 -1300 1678 0
-1654 -1303 1681 0
-1654 -1306 1684 0
-1654 -1309 1687 0
-1654 -1312 1690 0
1657 1351 0
-1657 -1351 0
-1657 -1315 1639 0
-1657 -1318 1642 0
-1657 -1321 1645 0
-1657 -1324 1648 0
-1657 -1327 1651 0
-1657 -1330 1654 0
-1657 -1336 1660 0
-1657 -1339 1663 0
-1657 -1342 1666 0
-1657 -1345 1669 0
-1657 -1348 1672 0
-1657 -1354 1678 0
-1657 -1357 1681 0
-1657 -1360 1684 0
-1657 -1363 1687 0
-1657 -1366 1690 0
1660 1405 0
-1660 -1405 0
-1660 -1369 1639 0
-1660 -1372 1642 0
-1660 -1375 1645 0
-1660 -1378 1648 0
-1660 -1381 1651 0
-1660 -1384 1654 0
-1660 -1387 1657 0
-1660 -1393 1663 0
-1660 -1396 1666 0
-1660 -1399 1669 0
-1660 -1402 1672 0
-1660 -1408 1678 0
-1660 -1411 1681 0
-1660 -1414 1684 0
-1660 -1417 1687 0
-1660 -1420 1690 0
1663 1459 0
-1663 -1459 0
-1663 -1423 1639 0
-1663 -1426 1642 0
-1663 -1429 1645 0
-1663 -1432 1648 0
-1663 -1435 1651 0
-1663 -1438 1654 0
-1663 -1441 1657 0
-1663 -1444 1660 0
-1663 -1450 1666 0
-1663 -1453 1669 0
-1663 -1456 1672 0
-1663 -1462 1678 0
-1663 -1465 1681 0
-1663 -1468 1684 0
-1663 -1471 1687 0
-1663 -1474 1690 0
1666 1513 0
-1666 -1513 0
-1666 -1477 1639 0
-1666 -1480 1642 0
-1666 -1483 1645 0
-1666 -1486 1648 0
-1666 -1489 1651 0
-1666 -1492 1654 0
-1666 -1495 1657 0
-1666 -1498 1660 0
-1666 -1501 1663 0
-1666 -1507 1669 0
-1666 -1510 1672 0
-1666 -1516 1678 0
-1666 -1519 1681 0
-1666 -1522 1684 0
-1666 -1525 1687 0
-1666 -1528 1690 0
1669 1567 0
-1669 -1567 0
-1669 -1531 1639 0
-1669 -1534 1642 0
-1669 -1537 1645 0
-1669 -1540 1648 0
-1669 -1543 1651 0
-1669 -1546 1654 0
-1669 -1549 1657 0
-1669 -1552 1660 0
-1669 -1555 1663 0
-1669 -1558 1666 0
-1669 -1564 1672 0
-1669 -1570 1678 0
-1669 -1573 1681 0
-1669 -1576 1684 0
-1669 -1579 1687 0
-1669 -1582 1690 0
1672 1621 0
-1672 -1621 0
-1672 -1585 1639 0
-1672 -1588 1642 0
-1672 -1591 1645 0
-1672 -1594 1648 0
-1672 -1597 1651 0
-1672 -1600 1654 0
-1672 -1603 1657 0
-1672 -1606 1660 0
-1672 -1609 1663 0
-1672 -1612 1666 0
-1672 -1615 1669 0
-1672 -1624 1678 0
-1672 -1627 1681 0
-1672 -1630 1684 0
-1672 -1633 1687 0
-1672 -1636 1690 0
1678 1729 0
-1678 -1729 0
-1678 -1693 1639 0
-1678 -1696 1642 0
-1678 -1699 1645 0
-1678 -1702 1648 0
-1678 -1705 1651 0
-1678 -1708 1654 0
-1678 -1711 1657 0
-1678 -1714 1660 0
-1678 -1717 1663 0
-1678 -1720 1666 0
-1678 -1723 1669 0
-1678 -1726 1672 0
-1678 -1735 1681 0
-1678 -1738 1684 0
-1678 -1741 1687 0
-1678 -1744 1690 0
1681 1783 0
-1681 -1783 0
-1681 -1747 1639 0
-1681 -1750 1642 0
-1681 -1753 1645 0
-1681 -1756 1648 0
-1681 -1759 1651 0
-1681 -1762 1654 0
-1681 -1765 1657 0
-1681 -1768 1660 0
-1681 -1771 1663 0
-1681 -1774 1666 0
-1681 -1777 1669 0
-1681 -1780 1672 0
-1681 -1786 1678 0
-1681 -1792 1684 0
-1681 -1795 1687 0
-1681 -1798 1690 0
1684 1837 0
-1684 -1837 0
-1684 -1801 1639 0
-1684 -1804 1642 0
-1684 -1807 1645 0
-1684 -1810 1648 0
-1684 -1813 1651 0
-1684 -1816 1654 0
-1684 -1819 1657 0
-1684 -1822 1660 0
-1684 -1825 1663 0
-1684 -1828 1666 0
-1684 -1831 1669 0
-1684 -1834 1672 0
-1684 -1840 1678 0
-1684 -1843 1681 0
-1684 -1849 1687 0
-1684 -1852 1690 0
1687 1891 0
-1687 -1891 0
-1687 -1855 1639 0
-1687 -1858 1642 0
-1687 -1861 1645 0
-1687 -1864 1648 0
-1687 -1867 1651 0
-1687 -1870 1654 0
-1687 -1873 1657 0
-1687 -1876 1660 0
-1687 -1879 1663 0
-1687 -1882 1666 0
-1687 -1885 1669 0
-1687 -1888 1672 0
-1687 -1894 1678 0
-1687 -1897 1681 0
-1687 -1900 1684 0
-1687 -1906 1690 0
1690 1945 0
-1690 -1945 0
-1690 -1909 1639 0
-1690 -1912 1642 0
-1690 -1915 1645 0
-1690 -1918 1648 0
-1690 -1921 1651 0
-1690 -1924 1654 0
-1690 -1927 1657 0
-1690 -1930 1660 0
-1690 -1933 1663 0
-1690 -1936 1666 0
-1690 -1939 1669 0
-1690 -1942 1672 0
-1690 -1948 1678 0
-1690 -1951 1681 0
-1690 -1954 1684 0
-1690 -1957 1687 0
1732 0
1693 1030 0
-1693 -1030 0
-1693 -994 1696 0
-1693 -997 1699 0
-1693 -1000 1702 0
-1693 -1003 1705 0
-1693 -1006 1708 0
-1693 -1009 1711 0
-1693 -1012 1714 0
-1693 -1015 1717 0
-1693 -1018 1720 0
-1693 -1021 1723 0
-1693 -1024 1726 0
-1693 -1027 1729 0
-1693 -1033 1735 0
-1693 -1036 1738 0
-1693 -1039 1741 0
-1693 -1042 1744 0
1696 1084 0
-1696 -1084 0
-1696 -1045 1693 0
-1696 -1051 1699 0
-1696 -1054 1702 0
-1696 -1057 1705 0
-1696 -1060 1708 0
-1696 -1063 1711 0
-1696 -1066 1714 0
-1696 -1069 1717 0
-1696 -1072 1720 0
-1696 -1075 1723 0
-1696 -1078 1726 0
-1696 -1081 1729 0
-1696 -1087 1735 0
-1696 -1090 1738 0
-1696 -1093 1741 0
-1696 -1096 1744 0
1699 1138 0
-1699 -1138 0
-1699 -1099 1693 0
-1699 -1102 1696 0
-1699 -1108 1702 0
-1699 -1111 1705 0
-1699 -1114 1708 0
-1699 -1117 1711 0
-1699 -1120 1714 0
-1699 -1123 1717 0
-1699 -1126 1720 0
-1699 -1129 1723 0
-1699 -1132 1726 0
-1699 -1135 1729 0
-1699 -1141 1735 0
-1699 -1144 1738 0
-1699 -1147 1741 0
-1699 -1150 1744 0
1702 1192 0
-1702 -1192 0
-1702 -1153 1693 0
-1702 -1156 1696 0
-1702 -1159 1699 0
-1702 -1165 1705 0
-1702 -1168 1708 0
-1702 -1171 1711 0
-1702 -1174 1714 0
-1702 -1177 1717 0
-1702 -1180 1720 0
-1702 -1183 1723 0
-1702 -1186 1726 0
-1702 -1189 1729 0
-1702 -1195 1735 0
-1702 -1198 1738 0
-1702 -1201 1741 0
-1702 -1204 1744 0
1705 1246 0
-1705 -1246 0
-1705 -1207 1693 0
-1705 -1210 1696 0
-1705 -1213 1699 0
-1705 -1216 1702 0
-1705 -1222 1708 0
-1705 -1225 1711 0
-1705 -1228 1714 0
-1705 -1231 1717 0
-1705 -1234 1720 0
-1705 -1237 1723 0
-1705 -1240 1726 0
-1705 -1243 1729 0
-1705 -1249 1735 0
-1705 -1252 1738 0
-1705 -1255 1741 0
-1705 -1258 1744 0
1708 1300 0
-1708 -1300 0
-1708 -1261 1693 0
-1708 -1264 1696 0
-1708 -1267 1699 0
-1708 -1270 1702 0
-1708 -1273 1705 0
-1708 -1279 1711 0
-1708 -1282 1714 0
-1708 -1285 1717 0
-1708 -1288 1720 0
-1708 -1291 1723 0
-1708 -1294 1726 0
-1708 -1297 1729 0
-1708 -1303 1735 0
-1708 -1306 1738 0
-1708 -1309 1741 0
-1708 -1312 1744 0
1711 1354 0
-1711 -1354 0
-1711 -1315 1693 0
-1711 -1318 1696 0
-1711 -1321 1699 0
-1711 -1324 1702 0
-1711 -1327 1705 0
-1711 -1330 1708 0
-1711 -1336 1714 0
-1711 -1339 1717 0
-1711 -1342 1720 0
-1711 -1345 1723 0
-1711 -1348 1726 0
-1711 -1351 1729 0
-1711 -1357 1735 0
-1711 -1360 1738 0
-1711 -1363 1741 0
-1711 -1366 1744 0
1714 1408 0
-1714 -1408 0
-1714 -1369 1693 0
-1714 -1372 1696 0
-1714 -1375 1699 0
-1714 -1378 1702 0
-1714 -1381 1705 0
-1714 -1384 1708 0
-1714 -1387 1711 0
-1714 -1393 1717 0
-1714 -1396 1720 0
-1714 -1399 1723 0
-1714 -1402 1726 0
-1714 -1405 1729 0
-1714 -1411 1735 0
-1714 -1414 1738 0
-1714 -1417 1741 0
-1714 -1420 1744 0
1717 1462 0
-1717 -1462 0
-1717 -1423 1693 0
-1717 -1426 1696 0
-1717 -1429 1699 0
-1717 -1432 1702 0
-1717 -1435 1705 0
-1717 -1438 1708 0
-1717 -1441 1711 0
-1717 -1444 1714 0
-1717 -1450 1720 0
-1717 -1453 1723 0
-1717 -1456 1726 0
-1717 -1459 1729 0
-1717 -1465 1735 0
-1717 -1468 1738 0
-1717 -1471 1741 0
-1717 -1474 1744 0
1720 1516 0
-1720 -1516 0
-1720 -1477 1693 0
-1720 -1480 1696 0
-1720 -1483 1699 0
-1720 -1486 1702 0
-1720 -1489 1705 0
-1720 -1492 1708 0
-1720 -1495 1711 0
-1720 -1498 1714 0
-1720 -1501 1717 0
-1720 -1507 1723 0
-1720 -1510 1726 0
-1720 -1513 1729 0
-1720 -1519 1735 0
-1720 -1522 1738 0
-1720 -1525 1741 0
-1720 -1528 1744 0
1723 1570 0
-1723 -1570 0
-1723 -1531 1693 0
-1723 -1534 1696 0
-1723 -1537 1699 0
-1723 -1540 1702 0
-1723 -1543 1705 0
-1723 -1546 1708 0
-1723 -1549 1711 0
-1723 -1552 1714 0
-1723 -1555 1717 0
-1723 -1558 1720 0
-1723 -1564 1726 0
-1723 -1567 1729 0
-1723 -1573 1735 0
-1723 -1576 1738 0
-1723 -1579 1741 0
-1723 -1582 1744 0
1726 1624 0
-1726 -1624 0
-1726 -1585 1693 0
-1726 -1588 1696 0
-1726 -1591 1699 0
-1726 -1594 1702 0
-1726 -1597 1705 0
-1726 -1600 1708 0
-1726 -1603 1711 0
-1726 -1606 1714 0
-1726 -1609 1717 0
-1726 -1612 1720 0
-1726 -1615 1723 0
-1726 -1621 1729 0
-1726 -1627 1735 0
-1726 -1630 1738 0
-1726 -1633 1741 0
-1726 -1636 1744 0
1729 1678 0
-1729 -1678 0
-1729 -1639 1693 0
-1729 -1642 1696 0
-1729 -1645 1699 0
-1729 -1648 1702 0
-1729 -1651 1705 0
-1729 -1654 1708 0
-1729 -1657 1711 0
-1729 -1660 1714 0
-1729 -1663 1717 0
-1729 -1666 1720 0
-1729 -1669 1723 0
-1729 -1672 1726 0
-1729 -1681 1735 0
-1729 -1684 1738 0
-1729 -1687 1741 0
-1729 -1690 1744 0
1735 1786 0
-1735 -1786 0
-1735 -1747 1693 0
-1735 -1750 1696 0
-1735 -1753 1699 0
-1735 -1756 1702 0
-1735 -1759 1705 0
-1735 -1762 1708 0
-1735 -1765 1711 0
-1735 -1768 1714 0
-1735 -1771 1717 0
-1735 -1774 1720 0
-1735 -1777 1723 0
-1735 -1780 1726 0
-1735 -1783 1729 0
-1735 -1792 1738 0
-1735 -1795 1741 0
-1735 -1798 1744 0
1738 1840 0
-1738 -1840 0
-1738 -1801 1693 0
-1738 -1804 1696 0
-1738 -1807 1699 0
-1738 -1810 1702 0
-1738 -1813 1705 0
-1738 -1816 1708 0
-1738 -1819 1711 0
-1738 -1822 1714 0
-1738 -1825 1717 0
-1738 -1828 1720 0
-1738 -1831 1723 0
-1738 -1834 1726 0
-1738 -1837 1729 0
-1738 -1843 1735 0
-1738 -1849 1741 0
-1738 -1852 1744 0
1741 1894 0
-1741 -1894 0
-1741 -1855 1693 0
-1741 -1858 1696 0
-1741 -1861 1699 0
-1741 -1864 1702 0
-1741 -1867 1705 0
-1741 -1870 1708 0
-1741 -1873 1711 0
-1741 -1876 1714 0
-1741 -1879 1717 0
-1741 -1882 1720 0
-1741 -1885 1723 0
-1741 -1888 1726 0
-1741 -1891 1729 0
-1741 -1897 1735 0
-1741 -1900 1738 0
-1741 -1906 1744 0
1744 1948 0
-1744 -1948 0
-1744 -1909 1693 0
-1744 -1912 1696 0
-1744 -1915 1699 0
-1744 -1918 1702 0
-1744 -1921 1705 0
-1744 -1924 1708 0
-1744 -1927 1711 0
-1744 -1930 1714 0
-1744 -1933 1717 0
-1744 -1936 1720 0
-1744 -1939 1723 0
-1744 -1942 1726 0
-1744 -1945 1729 0
-1744 -1951 1735 0
-1744 -1954 1738 0
-1744 -1957 1741 0
1789 0
1747 1033 0
-1747 -1033 0
-1747 -994 1750 0
-1747 -997 1753 0
-1747 -1000 1756 0
-1747 -1003 1759 0
-1747 -1006 1762 0
-1747 -1009 1765 0
-1747 -1012 1768 0
-1747 -1015 1771 0
-1747 -1018 1774 0
-1747 -1021 1777 0
-1747 -1024 1780 0
-1747 -1027 1783 0
-1747 -1030 1786 0
-1747 -1036 1792 0
-1747 -1039 1795 0
-1747 -1042 1798 0
1750 1087 0
-1750 -1087 0
-1750 -1045 1747 0
-1750 -1051 1753 0
-1750 -1054 1756 0
-1750 -1057 1759 0
-1750 -1060 1762 0
-1750 -1063 1765 0
-1750 -1066 1768 0
-1750 -1069 1771 0
-1750 -1072 1774 0
-1750 -1075 1777 0
-1750 -1078 1780 0
-1750 -1081 1783 0
-1750 -1084 1786 0
-1750 -1090 1792 0
-1750 -1093 1795 0
-1750 -1096 1798 0
1753 1141 0
-1753 -1141 0
-1753 -1099 1747 0
-1753 -1102 1750 0
-1753 -1108 1756 0
-1753 -1111 1759 0
-1753 -1114 1762 0
-1753 -1117 1765 0
-1753 -1120 1768 0
-1753 -1123 1771 0
-1753 -1126 1774 0
-1753 -1129 1777 0
-1753 -1132 1780 0
-1753 -1135 1783 0
-1753 -1138 1786 0
-1753 -1144 1792 0
-1753 -1147 1795 0
-1753 -1150 1798 0
1756 1195 0
-1756 -1195 0
-1756 -1153 1747 0
-1756 -1156 1750 0
-1756 -1159 1753 0
-1756 -1165 1759 0
-1756 -1168 1762 0
-1756 -1171 1765 0
-1756 -1174 1768 0
-1756 -1177 1771 0
-1756 -1180 1774 0
-1756 -1183 1777 0
-1756 -1186 1780 0
-1756 -1189 1783 0
-1756 -1192 1786 0
-1756 -1198 1792 0
-1756 -1201 1795 0
-1756 -1204 1798 0
1759 1249 0
-1759 -1249 0
-1759 -1207 1747 0
-1759 -1210 1750 0
-1759 -1213 1753 0
-1759 -1216 1756 0
-1759 -1222 1762 0
-1759 -1225 1765 0
-1759 -1228 1768 0
-1759 -1231 1771 0
-1759 -1234 1774 0
-1759 -1237 1777 0
-1759 -1240 1780 0
-1759 -1243 1783 0
-1759 -1246 1786 0
-1759 -1252 1792 0
-1759 -1255 1795 0
-1759 -1258 1798 0
1762 1303 0
-1762 -1303 0
-1762 -1261 1747 0
-1762 -1264 1750 0
-1762 -1267 1753 0
-1762 -1270 1756 0
-1762 -1273 1759 0
-1762 -1279 1765 0
-1762 -1282 1768 0
-1762 -1285 1771 0
-1762 -1288 1774 0
-1762 -1291 1777 0
-1762 -1294 1780 0
-1762 -1297 1783 0
-1762 -1300 1786 0
-1762 -1306 1792 0
-1762 -1309 1795 0
-1762 -1312 1798 0
1765 1357 0
-1765 -1357 0
-1765 -1315 1747 0
-1765 -1318 1750 0
-1765 -1321 1753 0
-1765 -1324 1756 0
-1765 -1327 1759 0
-1765 -1330 1762 0
-1765 -1336 1768 0
-1765 -1339 1771 0
-1765 -1342 1774 0
-1765 -1345 1777 0
-1765 -1348 1780 0
-1765 -1351 1783 0
-1765 -1354 1786 0
-1765 -1360 1792 0
-1765 -1363 1795 0
-1765 -1366 1798 0
1768 1411 0
-1768 -1411 0
-1768 -1369 1747 0
-1768 -1372 1750 0
-1768 -1375 1753 0
-1768 -1378 1756 0
-1768 -1381 1759 0
-1768 -1384 1762 0
-1768 -1387 1765 0
-1768 -1393 1771 0
-1768 -1396 1774 0
-1768 -1399 1777 0
-1768 -1402 1780 0
-1768 -1405 1783 0
-1768 -1408 1786 0
-1768 -1414 1792 0
-1768 -1417 1795 0
-1768 -1420 1798 0
1771 1465 0
-1771 -1465 0
-1771 -1423 1747 0
-1771 -1426 1750 0
-1771 -1429 1753 0
-1771 -1432 1756 0
-1771 -1435 1759 0
-1771 -1438 1762 0
-1771 -1441 1765 0
-1771 -1444 1768 0
-1771 -1450 1774 0
-1771 -1453 1777 0
-1771 -1456 1780 0
-1771 -1459 1783 0
-1771 -1462 1786 0
-1771 -1468 1792 0
-1771 -1471 1795 0
-1771 -1474 1798 0
1774 1519 0
-1774 -1519 0
-1774 -1477 1747 0
-1774 -1480 1750 0
-1774 -1483 1753 0
-1774 -1486 1756 0
-1774 -1489 1759 0
-1774 -1492 1762 0
-1774 -1495 1765 0
-1774 -1498 1768 0
-1774 -1501 1771 0
-1774 -1507 1777 0
-1774 -1510 1780 0
-1774 -1513 1783 0
-1774 -1516 1786 0
-1774 -1522 1792 0
-1774 -1525 1795 0
-1774 -1528 1798 0
1777 1573 0
-1777 -1573 0
-1777 -1531 1747 0
-1777 -1534 1750 0
-1777 -1537 1753 0
-1777 -1540 1756 0
-1777 -1543 1759 0
-1777 -1546 1762 0
-1777 -1549 1765 0
-1777 -1552 1768 0
-1777 -1555 1771 0
-1777 -1558 1774 0
-1777 -1564 1780 0
-1777 -1567 1783 0
-1777 -1570 1786 0
-1777 -1576 1792 0
-1777 -1579 1795 0
-1777 -1582 1798 0
1780 1627 0
-1780 -1627 0
-1780 -1585 1747 0
-1780 -1588 1750 0
-1780 -1591 1753 0
-1780 -1594 1756 0
-1780 -1597 1759 0
-1780 -1600 1762 0
-1780 -1603 1765 0
-1780 -1606 1768 0
-1780 -1609 1771 0
-1780 -1612 1774 0
-1780 -1615 1777 0
-1780 -1621 1783 0
-1780 -1624 1786 0
-1780 -1630 1792 0
-1780 -1633 1795 0
-1780 -1636 1798 0
1783 1681 0
-1783 -1681 0
-1783 -1639 1747 0
-1783 -1642 1750 0
-1783 -1645 1753 0
-1783 -1648 1756 0
-1783 -1651 1759 0
-1783 -1654 1762 0
-1783 -1657 1765 0
-1783 -1660 1768 0
-1783 -1663 1771 0
-1783 -1666 1774 0
-1783 -1669 1777 0
-1783 -1672 1780 0
-1783 -1678 1786 0
-1783 -1684 1792 0
-1783 -1687 1795 0
-1783 -1690 1798 0
1786 1735 0
-1786 -1735 0
-1786 -1693 1747 0
-1786 -1696 1750 0
-1786 -1699 1753 0
-1786 -1702 1756 0
-1786 -1705 1759 0
-1786 -1708 1762 0
-1786 -1711 1765 0
-1786 -1714 1768 0
-1786 -1717 1771 0
-1786 -1720 1774 0
-1786 -1723 1777 0
-1786 -1726 1780 0
-1786 -1729 1783 0
-1786 -1738 1792 0
-1786 -1741 1795 0
-1786 -1744 1798 0
1792 1843 0
-1792 -1843 0
-1792 -1801 1747 0
-1792 -1804 1750 0
-1792 -1807 1753 0
-1792 -1810 1756 0
-1792 -1813 1759 0
-1792 -1816 1762 0
-1792 -1819 1765 0
-1792 -1822 1768 0
-1792 -1825 1771 0
-1792 -1828 1774 0
-1792 -1831 1777 0
-1792 -1834 1780 0
-1792 -1837 1783 0
-1792 -1840 1786 0
-1792 -1849 1795 0
-1792 -1852 1798 0
1795 1897 0
-1795 -1897 0
-1795 -1855 1747 0
-1795 -1858 1750 0
-1795 -1861 1753 0
-1795 -1864 1756 0
-1795 -1867 1759 0
-1795 -1870 1762 0
-1795 -1873 1765 0
-1795 -1876 1768 0
-1795 -1879 1771 0
-1795 -1882 1774 0
-1795 -1885 1777 0
-1795 -1888 1780 0
-1795 -1891 1783 0
-1795 -1894 1786 0
-1795 -1900 1792 0
-1795 -1906 1798 0
1798 1951 0
-1798 -1951 0
-1798 -1909 1747 0
-1798 -1912 1750 0
-1798 -1915 1753 0
-1798 -1918 1756 0
-1798 -1921 1759 0
-1798 -1924 1762 0
-1798 -1927 1765 0
-1798 -1930 1768 0
-1798 -1933 1771 0
-1798 -1936 1774 0
-1798 -1939 1777 0
-1798 -1942 1780 0
-1798 -1945 1783 0
-1798 -1948 1786 0
-1798 -1954 1792 0
-1798 -1957 1795 0
1846 0
1801 1036 0
-1801 -1036 0
-1801 -994 1804 0
-1801 -997 1807 0
-1801 -1000 1810 0
-1801 -1003 1813 0
-1801 -1006 1816 0
-1801 -1009 1819 0
-1801 -1012 1822 0
-1801 -1015 1825 0
-1801 -1018 1828 0
-1801 -1021 1831 0
-1801 -1024 1834 0
-1801 -1027 1837 0
-1801 -1030 1840 0
-1801 -1033 1843 0
-1801 -1039 1849 0
-1801 -1042 1852 0
1804 1090 0
-1804 -1090 0
-1804 -1045 1801 0
-1804 -1051 1807 0
-1804 -1054 1810 0
-1804 -1057 1813 0
-1804 -1060 1816 0
-1804 -1063 1819 0
-1804 -1066 1822 0
-1804 -1069 1825 0
-1804 -1072 1828 0
-1804 -1075 1831 0
-1804 -1078 1834 0
-1804 -1081 1837 0
-1804 -1084 1840 0
-1804 -1087 1843 0
-1804 -1093 1849 0
-1804 -1096 1852 0
1807 1144 0
-1807 -1144 0
-1807 -1099 1801 0
-1807 -1102 1804 0
-1807 -1108 1810 0
-1807 -1111 1813 0
-1807 -1114 1816 0
-1807 -1117 1819 0
-1807 -1120 1822 0
-1807 -1123 1825 0
-1807 -1126 1828 0
-1807 -1129 1831 0
-1807 -1132 1834 0
-1807 -1135 1837 0
-1807 -1138 1840 0
-1807 -1141 1843 0
-1807 -1147 1849 0
-1807 -1150 1852 0
1810 1198 0
-1810 -1198 0
-1810 -1153 1801 0
-1810 -1156 1804 0
-1810 -1159 1807 0
-1810 -1165 1813 0
-1810 -1168 1816 0
-1810 -1171 1819 0
-1810 -1174 1822 0
-1810 -1177 1825 0
-1810 -1180 1828 0
-1810 -1183 1831 0
-1810 -1186 1834 0
-1810 -1189 1837 0
-1810 -1192 1840 0
-1810 -1195 1843 0
-1810 -1201 1849 0
-1810 -1204 1852 0
1813 1252 0
-1813 -1252 0
-1813 -1207 1801 0
-1813 -1210 1804 0
-1813 -1213 1807 0
-1813 -1216 1810 0
-1813 -1222 1816 0
-1813 -1225 1819 0
-1813 -1228 1822 0
-1813 -1231 1825 0
-1813 -1234 1828 0
-1813 -1237 1831 0
-1813 -1240 1834 0
-1813 -1243 1837 0
-1813 -1246 1840 0
-1813 -1249 1843 0
-1813 -1255 1849 0
-1813 -1258 1852 0
1816 1306 0
-1816 -1306 0
-1816 -1261 1801 0
-1816 -1264 1804 0
-1816 -1267 1807 0
-1816 -1270 1810 0
-1816 -1273 1813 0
-1816 -1279 1819 0
-1816 -1282 1822 0
-1816 -1285 1825 0
-1816 -1288 1828 0
-1816 -1291 1831 0
-1816 -1294 1834 0
-1816 -1297 1837 0
-1816 -1300 1840 0
-1816 -1303 1843 0
-1816 -1309 1849 0
-1816 -1312 1852 0
1819 1360 0
-1819 -1360 0
-1819 -1315 1801 0
-1819 -1318 1804 0
-1819 -1321 1807 0
-1819 -1324 1810 0
-1819 -1327 1813 0
-1819 -1330 1816 0
-1819 -1336 1822 0
-1819 -1339 1825 0
-1819 -1342 1828 0
-1819 -1345 1831 0
-1819 -1348 1834 0
-1819 -1351 1837 0
-1819 -1354 1840 0
-1819 -1357 1843 0
-1819 -1363 1849 0
-1819 -1366 1852 0
1822 1414 0
-1822 -1414 0
-1822 -1369 1801 0
-1822 -1372 1804 0
-1822 -1375 1807 0
-1822 -1378 1810 0
-1822 -1381 1813 0
-1822 -1384 1816 0
-1822 -1387 1819 0
-1822 -1393 1825 0
-1822 -1396 1828 0
-1822 -1399 1831 0
-1822 -1402 1834 0
-1822 -1405 1837 0
-1822 -1408 1840 0
-1822 -1411 1843 0
-1822 -1417 1849 0
-1822 -1420 1852 0
1825 1468 0
-1825 -1468 0
-1825 -1423 1801 0
-1825 -1426 1804 0
-1825 -1429 1807 0
-1825 -1432 1810 0
-1825 -1435 1813 0
-1825 -1438 1816 0
-1825 -1441 1819 0
-1825 -1444 1822 0
-1825 -1450 1828 0
-1825 -1453 1831 0
-1825 -1456 1834 0
-1825 -1459 1837 0
-1825 -1462 1840 0
-1825 -1465 1843 0
-1825 -1471 1849 0
-1825 -1474 1852 0
1828 1522 0
-1828 -1522 0
-1828 -1477 1801 0
-1828 -1480 1804 0
-1828 -1483 1807 0
-1828 -1486 1810 0
-1828 -1489 1813 0
-1828 -1492 1816 0
-1828 -1495 1819 0
-1828 -1498 1822 0
-1828 -1501 1825 0
-1828 -1507 1831 0
-1828 -1510 1834 0
-1828 -1513 1837 0
-1828 -1516 1840 0
-1828 -1519 1843 0
-1828 -1525 1849 0
-1828 -1528 1852 0
1831 1576 0
-1831 -1576 0
-1831 -1531 1801 0
-1831 -1534 1804 0
-1831 -1537 1807 0
-1831 -1540 1810 0
-1831 -1543 1813 0
-1831 -1546 1816 0
-1831 -1549 1819 0
-1831 -1552 1822 0
-1831 -1555 1825 0
-1831 -1558 1828 0
-1831 -1564 1834 0
-1831 -1567 1837 0
-1831 -1570 1840 0
-1831 -1573 1843 0
-1831 -1579 1849 0
-1831 -1582 1852 0
1834 1630 0
-1834 -1630 0
-1834 -1585 1801 0
-1834 -1588 1804 0
-1834 -1591 1807 0
-1834 -1594 1810 0
-1834 -1597 1813 0
-1834 -1600 1816 0
-1834 -1603 1819 0
-1834 -1606 1822 0
-1834 -1609 1825 0
-1834 -1612 1828 0
-1834 -1615 1831 0
-1834 -1621 1837 0
-1834 -1624 1840 0
-1834 -1627 1843 0
-1834 -1633 1849 0
-1834 -1636 1852 0
1837 1684 0
-1837 -1684 0
-1837 -1639 1801 0
-1837 -1642 1804 0
-1837 -1645 1807 0
-1837 -1648 1810 0
-1837 -1651 1813 0
-1837 -1654 1816 0
-1837 -1657 1819 0
-1837 -1660 1822 0
-1837 -1663 1825 0
-1837 -1666 1828 0
-1837 -1669 1831 0
-1837 -1672 1834 0
-1837 -1678 1840 0
-1837 -1681 1843 0
-1837 -1687 1849 0
-1837 -1690 1852 0
1840 1738 0
-1840 -1738 0
-1840 -1693 1801 0
-1840 -1696 1804 0
-1840 -1699 1807 0
-1840 -1702 1810 0
-1840 -1705 1813 0
-1840 -1708 1816 0
-1840 -1711 1819 0
-1840 -1714 1822 0
-1840 -1717 1825 0
-1840 -1720 1828 0
-1840 -1723 1831 0
-1840 -1726 1834 0
-1840 -1729 1837 0
-1840 -1735 1843 0
-1840 -1741 1849 0
-1840 -1744 1852 0
1843 1792 0
-1843 -1792 0
-1843 -1747 1801 0
-1843 -1750 1804 0
-1843 -1753 1807 0
-1843 -1756 1810 0
-1843 -1759 1813 0
-1843 -1762 1816 0
-1843 -1765 1819 0
-1843 -1768 1822 0
-1843 -1771 1825 0
-1843 -1774 1828 0
-1843 -1777 1831 0
-1843 -1780 1834 0
-1843 -1783 1837 0
-1843 -1786 1840 0
-1843 -1795 1849 0
-1843 -1798 1852 0
1849 1900 0
-1849 -1900 0
-1849 -1855 1801 0
-1849 -1858 1804 0
-1849 -1861 1807 0
-1849 -1864 1810 0
-1849 -1867 1813 0
-1849 -1870 1816 0
-1849 -1873 1819 0
-1849 -1876 1822 0
-1849 -1879 1825 0
-1849 -1882 1828 0
-1849 -1885 1831 0
-1849 -1888 1834 0
-1849 -1891 1837 0
-1849 -1894 1840 0
-1849 -1897 1843 0
-1849 -1906 1852 0
1852 1954 0
-1852 -1954 0
-1852 -1909 1801 0
-1852 -1912 1804 0
-1852 -1915 1807 0
-1852 -1918 1810 0
-1852 -1921 1813 0
-1852 -1924 1816 0
-1852 -1927 1819 0
-1852 -1930 1822 0
-1852 -1933 1825 0
-1852 -1936 1828 0
-1852 -1939 1831 0
-1852 -1942 1834 0
-1852 -1945 1837 0
-1852 -1948 1840 0
-1852 -1951 1843 0
-1852 -1957 1849 0
1903 0
1855 1039 0
-1855 -1039 0
-1855 -994 1858 0
-1855 -997 1861 0
-1855 -1000 1864 0
-1855 -1003 1867 0
-1855 -1006 1870 0
-1855 -1009 1873 0
-1855 -1012 1876 0
-1855 -1015 1879 0
-1855 -1018 1882 0
-1855 -1021 1885 0
-1855 -1024 1888 0
-1855 -1027 1891 0
-1855 -1030 1894 0
-1855 -1033 1897 0
-1855 -1036 1900 0
-1855 -1042 1906 0
1858 1093 0
-1858 -1093 0
-1858 -1045 1855 0
-1858 -1051 1861 0
-1858 -1054 1864 0
-1858 -1057 1867 0
-1858 -1060 1870 0
-1858 -1063 1873 0
-1858 -1066 1876 0
-1858 -1069 1879 0
-1858 -1072 1882 0
-1858 -1075 1885 0
-1858 -1078 1888 0
-1858 -1081 1891 0
-1858 -1084 1894 0
-1858 -1087 1897 0
-1858 -1090 1900 0
-1858 -1096 1906 0
1861 1147 0
-1861 -1147 0
-1861 -1099 1855 0
-1861 -1102 1858 0
-1861 -1108 1864 0
-1861 -1111 1867 0
-1861 -1114 1870 0
-1861 -1117 1873 0
-1861 -1120 1876 0
-1861 -1123 1879 0
-1861 -1126 1882 0
-1861 -1129 1885 0
-1861 -1132 1888 0
-1861 -1135 1891 0
-1861 -1138 1894 0
-1861 -1141 1897 0
-1861 -1144 1900 0
-1861 -1150 1906 0
1864 1201 0
-1864 -1201 0
-1864 -1153 1855 0
-1864 -1156 1858 0
-1864 -1159 1861 0
-1864 -1165 1867 0
-1864 -1168 1870 0
-1864 -1171 1873 0
-1864 -1174 1876 0
-1864 -1177 1879 0
-1864 -1180 1882 0
-1864 -1183 1885 0
-1864 -1186 1888 0
-1864 -1189 1891 0
-1864 -1192 1894 0
-1864 -1195 1897 0
-1864 -1198 1900 0
-1864 -1204 1906 0
1867 1255 0
-1867 -1255 0
-1867 -1207 1855 0
-1867 -1210 1858 0
-1867 -1213 1861 0
-1867 -1216 1864 0
-1867 -1222 1870 0
-1867 -1225 1873 0
-1867 -1228 1876 0
-1867 -1231 1879 0
-1867 -1234 1882 0
-1867 -1237 1885 0
-1867 -1240 1888 0
-1867 -1243 1891 0
-1867 -1246 1894 0
-1867 -1249 1897 0
-1867 -1252 1900 0
-1867 -1258 1906 0
1870 1309 0
-1870 -1309 0
-1870 -1261 1855 0
-1870 -1264 1858 0
-1870 -1267 1861 0
-1870 -1270 1864 0
-1870 -1273 1867 0
-1870 -1279 1873 0
-1870 -1282 1876 0
-1870 -1285 1879 0
-1870 -1288 1882 0
-1870 -1291 1885 0
-1870 -1294 1888 0
-1870 -1297 1891 0
-1870 -1300 1894 0
-1870 -1303 1897 0
-1870 -1306 1900 0
-1870 -1312 1906 0
1873 1363 0
-1873 -1363 0
-1873 -1315 1855 0
-1873 -1318 1858 0
-1873 -1321 1861 0
-1873 -1324 1864 0
-1873 -1327 1867 0
-1873 -1330 1870 0
-1873 -1336 1876 0
-1873 -1339 1879 0
-1873 -1342 1882 0
-1873 -1345 1885 0
-1873 -1348 1888 0
-1873 -1351 1891 0
-1873 -1354 1894 0
-1873 -1357 1897 0
-1873 -1360 1900 0
-1873 -1366 1906 0
1876 1417 0
-1876 -1417 0
-1876 -1369 1855 0
-1876 -1372 1858 0
-1876 -1375 1861 0
-1876 -1378 1864 0
-1876 -1381 1867 0
-1876 -1384 1870 0
-1876 -1387 1873 0
-1876 -1393 1879 0
-1876 -1396 1882 0
-1876 -1399 1885 0
-1876 -1402 1888 0
-1876 -1405 1891 0
-1876 -1408 1894 0
-1876 -1411 1897 0
-1876 -1414 1900 0
-1876 -1420 1906 0
1879 1471 0
-1879 -1471 0
-1879 -1423 1855 0
-1879 -1426 1858 0
-1879 -1429 1861 0
-1879 -1432 1864 0
-1879 -1435 1867 0
-1879 -1438 1870 0
-1879 -1441 1873 0
-1879 -1444 1876 0
-1879 -1450 1882 0
-1879 -1453 1885 0
-1879 -1456 1888 0
-1879 -1459 1891 0
-1879 -1462 1894 0
-1879 -1465 1897 0
-1879 -1468 1900 0
-1879 -1474 1906 0
1882 1525 0
-1882 -1525 0
-1882 -1477 1855 0
-1882 -1480 1858 0
-1882 -1483 1861 0
-1882 -1486 1864 0
-1882 -1489 1867 0
-1882 -1492 1870 0
-1882 -1495 1873 0
-1882 -1498 1876 0
-1882 -1501 1879 0
-1882 -1507 1885 0
-1882 -1510 1888 0
-1882 -1513 1891 0
-1882 -1516 1894 0
-1882 -1519 1897 0
-1882 -1522 1900 0
-1882 -1528 1906 0
1885 1579 0
-1885 -1579 0
-1885 -1531 1855 0
-1885 -1534 1858 0
-1885 -1537 1861 0
-1885 -1540 1864 0
-1885 -1543 1867 0
-1885 -1546 1870 0
-1885 -1549 1873 0
-1885 -1552 1876 0
-1885 -1555 1879 0
-1885 -1558 1882 0
-1885 -1564 1888 0
-1885 -1567 1891 0
-1885 -1570 1894 0
-1885 -1573 1897 0
-1885 -1576 1900 0
-1885 -1582 1906 0
1888 1633 0
-1888 -1633 0
-1888 -1585 1855 0
-1888 -1588 1858 0
-1888 -1591 1861 0
-1888 -1594 1864 0
-1888 -1597 1867 0
-1888 -1600 1870 0
-1888 -1603 1873 0
-1888 -1606 1876 0
-1888 -1609 1879 0
-1888 -1612 1882 0
-1888 -1615 1885 0
-1888 -1621 1891 0
-1888 -1624 1894 0
-1888 -1627 1897 0
-1888 -1630 1900 0
-1888 -1636 1906 0
1891 1687 0
-1891 -1687 0
-1891 -1639 1855 0
-1891 -1642 1858 0
-1891 -1645 1861 0
-1891 -1648 1864 0
-1891 -1651 1867 0
-1891 -1654 1870 0
-1891 -1657 1873 0
-1891 -1660 1876 0
-1891 -1663 1879 0
-1891 -1666 1882 0
-1891 -1669 1885 0
-1891 -1672 1888 0
-1891 -1678 1894 0
-1891 -1681 1897 0
-1891 -1684 1900 0
-1891 -1690 1906 0
1894 1741 0
-1894 -1741 0
-1894 -1693 1855 0
-1894 -1696 1858 0
-1894 -1699 1861 0
-1894 -1702 1864 0
-1894 -1705 1867 0
-1894 -1708 1870 0
-1894 -1711 1873 0
-1894 -1714 1876 0
-1894 -1717 1879 0
-1894 -1720 1882 0
-1894 -1723 1885 0
-1894 -1726 1888 0
-1894 -1729 1891 0
-1894 -1735 1897 0
-1894 -1738 1900 0
-1894 -1744 1906 0
1897 1795 0
-1897 -1795 0
-1897 -1747 1855 0
-1897 -1750 1858 0
-1897 -1753 1861 0
-1897 -1756 1864 0
-1897 -1759 1867 0
-1897 -1762 1870 0
-1897 -1765 1873 0
-1897 -1768 1876 0
-1897 -1771 1879 0
-1897 -1774 1882 0
-1897 -1777 1885 0
-1897 -1780 1888 0
-1897 -1783 1891 0
-1897 -1786 1894 0
-1897 -1792 1900 0
-1897 -1798 1906 0
1900 1849 0
-1900 -1849 0
-1900 -1801 1855 0
-1900 -1804 1858 0
-1900 -1807 1861 0
-1900 -1810 1864 0
-1900 -1813 1867 0
-1900 -1816 1870 0
-1900 -1819 1873 0
-1900 -1822 1876 0
-1900 -1825 1879 0
-1900 -1828 1882 0
-1900 -1831 1885 0
-1900 -1834 1888 0
-1900 -1837 1891 0
-1900 -1840 1894 0
-1900 -1843 1897 0
-1900 -1852 1906 0
1906 1957 0
-1906 -1957 0
-1906 -1909 1855 0
-1906 -1912 1858 0
-1906 -1915 1861 0
-1906 -1918 1864 0
-1906 -1921 1867 0
-1906 -1924 1870 0
-1906 -1927 1873 0
-1906 -1930 1876 0
-1906 -1933 1879 0
-1906 -1936 1882 0
-1906 -1939 1885 0
-1906 -1942 1888 0
-1906 -1945 1891 0
-1906 -1948 1894 0
-1906 -1951 1897 0
-1906 -1954 1900 0
1960 0
1909 1042 0
-1909 -1042 0
-1909 -994 1912 0
-1909 -997 1915 0
-1909 -1000 1918 0
-1909 -1003 1921 0
-1909 -1006 1924 0
-1909 -1009 1927 0
-1909 -1012 1930 0
-1909 -1015 1933 0
-1909 -1018 1936 0
-1909 -1021 1939 0
-1909 -1024 1942 0
-1909 -1027 1945 0
-1909 -1030 1948 0
-1909 -1033 1951 0
-1909 -1036 1954 0
-1909 -1039 1957 0
1912 1096 0
-1912 -1096 0
-1912 -1045 1909 0
-1912 -1051 1915 0
-1912 -1054 1918 0
-1912 -1057 1921 0
-1912 -1060 1924 0
-1912 -1063 1927 0
-1912 -1066 1930 0
-1912 -1069 1933 0
-1912 -1072 1936 0
-1912 -1075 1939 0
-1912 -1078 1942 0
-1912 -1081 1945 0
-1912 -1084 1948 0
-1912 -1087 1951 0
-1912 -1090 1954 0
-1912 -1093 1957 0
1915 1150 0
-1915 -1150 0
-1915 -1099 1909 0
-1915 -1102 1912 0
-1915 -1108 1918 0
-1915 -1111 1921 0
-1915 -1114 1924 0
-1915 -1117 1927 0
-1915 -1120 1930 0
-1915 -1123 1933 0
-1915 -1126 1936 0
-1915 -1129 1939 0
-1915 -1132 1942 0
-1915 -1135 1945 0
-1915 -1138 1948 0
-1915 -1141 1951 0
-1915 -1144 1954 0
-1915 -1147 1957 0
1918 1204 0
-1918 -1204 0
-1918 -1153 1909 0
-1918 -1156 1912 0
-1918 -1159 1915 0
-1918 -1165 1921 0
-1918 -1168 1924 0
-1918 -1171 1927 0
-1918 -1174 1930 0
-1918 -1177 1933 0
-1918 -1180 1936 0
-1918 -1183 1939 0
-1918 -1186 1942 0
-1918 -1189 1945 0
-1918 -1192 1948 0
-1918 -1195 1951 0
-1918 -1198 1954 0
-1918 -1201 1957 0
1921 1258 0
-1921 -1258 0
-1921 -1207 1909 0
-1921 -1210 1912 0
-1921 -1213 1915 0
-1921 -1216 1918 0
-1921 -1222 1924 0
-1921 -1225 1927 0
-1921 -1228 1930 0
-1921 -1231 1933 0
-1921 -1234 1936 0
-1921 -1237 1939 0
-1921 -1240 1942 0
-1921 -1243 1945 0
-1921 -1246 1948 0
-1921 -1249 1951 0
-1921 -1252 1954 0
-1921 -1255 1957 0
1924 1312 0
-1924 -1312 0
-1924 -1261 1909 0
-1924 -1264 1912 0
-1924 -1267 1915 0
-1924 -1270 1918 0
-1924 -1273 1921 0
-1924 -1279 1927 0
-1924 -1282 1930 0
-1924 -1285 1933 0
-1924 -1288 1936 0
-1924 -1291 1939 0
-1924 -1294 1942 0
-1924 -1297 1945 0
-1924 -1300 1948 0
-1924 -1303 1951 0
-1924 -1306 1954 0
-1924 -1309 1957 0
1927 1366 0
-1927 -1366 0
-1927 -1315 1909 0
-1927 -1318 1912 0
-1927 -1321 1915 0
-1927 -1324 1918 0
-1927 -1327 1921 0
-1927 -1330 1924 0
-1927 -1336 1930 0
-1927 -1339 1933 0
-1927 -1342 1936 0
-1927 -1345 1939 0
-1927 -1348 1942 0
-1927 -1351 1945 0
-1927 -1354 1948 0
-1927 -1357 1951 0
-1927 -1360 1954 0
-1927 -1363 1957 0
1930 1420 0
-1930 -1420 0
-1930 -1369 1909 0
-1930 -1372 1912 0
-1930 -1375 1915 0
-1930 -1378 1918 0
-1930 -1381 1921 0
-1930 -1384 1924 0
-1930 -1387 1927 0
-1930 -1393 1933 0
-1930 -1396 1936 0
-1930 -1399 1939 0
-1930 -1402 1942 0
-1930 -1405 1945 0
-1930 -1408 1948 0
-1930 -1411 1951 0
-1930 -1414 1954 0
-1930 -1417 1957 0
1933 1474 0
-1933 -1474 0
-1933 -1423 1909 0
-1933 -1426 1912 0
-1933 -1429 1915 0
-1933 -1432 1918 0
-1933 -1435 1921 0
-1933 -1438 1924 0
-1933 -1441 1927 0
-1933 -1444 1930 0
-1933 -1450 1936 0
-1933 -1453 1939 0
-1933 -1456 1942 0
-1933 -1459 1945 0
-1933 -1462 1948 0
-1933 -1465 1951 0
-1933 -1468 1954 0
-1933 -1471 1957 0
1936 1528 0
-1936 -1528 0
-1936 -1477 1909 0
-1936 -1480 1912 0
-1936 -1483 1915 0
-1936 -1486 1918 0
-1936 -1489 1921 0
-1936 -1492 1924 0
-1936 -1495 1927 0
-1936 -1498 1930 0
-1936 -1501 1933 0
-1936 -1507 1939 0
-1936 -1510 1942 0
-1936 -1513 1945 0
-1936 -1516 1948 0
-1936 -1519 1951 0
-1936 -1522 1954 0
-1936 -1525 1957 0
1939 1582 0
-1939 -1582 0
-1939 -1531 1909 0
-1939 -1534 1912 0
-1939 -1537 1915 0
-1939 -1540 1918 0
-1939 -1543 1921 0
-1939 -1546 1924 0
-1939 -1549 1927 0
-1939 -1552 1930 0
-1939 -1555 1933 0
-1939 -1558 1936 0
-1939 -1564 1942 0
-1939 -1567 1945 0
-1939 -1570 1948 0
-1939 -1573 1951 0
-1939 -1576 1954 0
-1939 -1579 1957 0
1942 1636 0
-1942 -1636 0
-1942 -1585 1909 0
-1942 -1588 1912 0
-1942 -1591 1915 0
-1942 -1594 1918 0
-1942 -1597 1921 0
-1942 -1600 1924 0
-1942 -1603 1927 0
-1942 -1606 1930 0
-1942 -1609 1933 0
-1942 -1612 1936 0
-1942 -1615 1939 0
-1942 -1621 1945 0
-1942 -1624 1948 0
-1942 -1627 1951 0
-1942 -1630 1954 0
-1942 -1633 1957 0
1945 1690 0
-1945 -1690 0
-1945 -1639 1909 0
-1945 -1642 1912 0
-1945 -1645 1915 0
-1945 -1648 1918 0
-1945 -1651 1921 0
-1945 -1654 1924 0
-1945 -1657 1927 0
-1945 -1660 1930 0
-1945 -1663 1933 0
-1945 -1666 1936 0
-1945 -1669 1939 0
-1945 -1672 1942 0
-1945 -1678 1948 0
-1945 -1681 1951 0
-1945 -1684 1954 0
-1945 -1687 1957 0
1948 1744 0
-1948 -1744 0
-1948 -1693 1909 0
-1948 -1696 1912 0
-1948 -1699 1915 0
-1948 -1702 1918 0
-1948 -1705 1921 0
-1948 -1708 1924 0
-1948 -1711 1927 0
-1948 -1714 1930 0
-1948 -1717 1933 0
-1948 -1720 1936 0
-1948 -1723 1939 0
-1948 -1726 1942 0
-1948 -1729 1945 0
-1948 -1735 1951 0
-1948 -1738 1954 0
-1948 -1741 1957 0
1951 1798 0
-1951 -1798 0
-1951 -1747 1909 0
-1951 -1750 1912 0
-1951 -1753 1915 0
-1951 -1756 1918 0
-1951 -1759 1921 0
-1951 -1762 1924 0
-1951 -1765 1927 0
-1951 -1768 1930 0
-1951 -1771 1933 0
-1951 -1774 1936 0
-1951 -1777 1939 0
-1951 -1780 1942 0
-1951 -1783 1945 0
-1951 -1786 1948 0
-1951 -1792 1954 0
-1951 -1795 1957 0
1954 1852 0
-1954 -1852 0
-1954 -1801 1909 0
-1954 -1804 1912 0
-1954 -1807 1915 0
-1954 -1810 1918 0
-1954 -1813 1921 0
-1954 -1816 1924 0
-1954 -1819 1927 0
-1954 -1822 1930 0
-1954 -1825 1933 0
-1954 -1828 1936 0
-1954 -1831 1939 0
-1954 -1834 1942 0
-1954 -1837 1945 0
-1954 -1840 1948 0
-1954 -1843 1951 0
-1954 -1849 1957 0
1957 1906 0
-1957 -1906 0
-1957 -1855 1909 0
-1957 -1858 1912 0
-1957 -1861 1915 0
-1957 -1864 1918 0
-1957 -1867 1921 0
-1957 -1870 1924 0
-1957 -1873 1927 0
-1957 -1876 1930 0
-1957 -1879 1933 0
-1957 -1882 1936 0
-1957 -1885 1939 0
-1957 -1888 1942 0
-1957 -1891 1945 0
-1957 -1894 1948 0
-1957 -1897 1951 0
-1957 -1900 1954 0
1963 0
1964 1965 0
-1964 -1965 0
-1964 -1966 1967 0
-1964 -1968 1969 0
-1964 -1970 1971 0
-1964 -1972 1973 0
-1964 -1974 1975 0
-1964 -1976 1977 0
-1964 -1978 1979 0
-1964 -1980 1981 0
-1964 -1982 1983 0
-1964 -1984 1985 0
-1964 -1986 1987 0
-1964 -1988 1989 0
-1964 -1990 1991 0
-1964 -1992 1993 0
-1964 -1994 1995 0
-1964 -1996 1997 0
1967 1998 0
-1967 -1998 0
-1967 -1999 1964 0
-1967 -2000 1969 0
-1967 -2001 1971 0
-1967 -2002 1973 0
-1967 -2003 1975 0
-1967 -2004 1977 0
-1967 -2005 1979 0
-1967 -2006 1981 0
-1967 -2007 1983 0
-1967 -2008 1985 0
-1967 -2009 1987 0
-1967 -2010 1989 0
-1967 -2011 1991 0
-1967 -2012 1993 0
-1967 -2013 1995 0
-1967 -2014 1997 0
1969 2015 0
-1969 -2015 0
-1969 -2016 1964 0
-1969 -2017 1967 0
-1969 -2018 1971 0
-1969 -2019 1973 0
-1969 -2020 1975 0
-1969 -2021 1977 0
-1969 -2022 1979 0
-1969 -2023 1981 0
-1969 -2024 1983 0
-1969 -2025 1985 0
-1969 -2026 1987 0
-1969 -2027 1989 0
-1969 -2028 1991 0
-1969 -2029 1993 0
-1969 -2030 1995 0
-1969 -2031 1997 0
1971 2032 0
-1971 -2032 0
-1971 -2033 1964 0
-1971 -2034 1967 0
-1971 -2035 1969 0
-1971 -2036 1973 0
-1971 -2037 1975 0
-1971 -2038 1977 0
-1971 -2039 1979 0
-1971 -2040 1981 0
-1971 -2041 1983 0
-1971 -2042 1985 0
-1971 -2043 1987 0
-1971 -2044 1989 0
-1971 -2045 1991 0
-1971 -2046 1993 0
-1971 -2047 1995 0
-1971 -2048 1997 0
1973 2049 0
-1973 -2049 0
-1973 -2050 1964 0
-1973 -2051 1967 0
-1973 -2052 1969 0
-1973 -2053 1971 0
-1973 -2054 1975 0
-1973 -2055 1977 0
-1973 -2056 1979 0
-1973 -2057 1981 0
-1973 -2058 1983 0
-1973 -2059 1985 0
-1973 -2060 1987 0
-1973 -2061 1989 0
-1973 -2062 1991 0
-1973 -2063 1993 0
-1973 -2064 1995 0
-1973 -2065 1997 0
1975 2066 0
-1975 -2066 0
-1975 -2067 1964 0
-1975 -2068 1967 0
-1975 -2069 1969 0
-1975 -2070 1971 0
-1975 -2071 1973 0
-1975 -2072 1977 0
-1975 -2073 1979 0
-1975 -2074 1981 0
-1975 -2075 1983 0
-1975 -2076 1985 0
-1975 -2077 1987 0
-1975 -2078 1989 0
-1975 -2079 1991 0
-1975 -2080 1993 0
-1975 -2081 1995 0
-1975 -2082 1997 0
1977 2083 0
-1977 -2083 0
-1977 -2084 1964 0
-1977 -2085 1967 0
-1977 -2086 1969 0
-1977 -2087 1971 0
-1977 -2088 1973 0
-1977 -2089 1975 0
-1977 -2090 1979 0
-1977 -2091 1981 0
-1977 -2092 1983 0
-1977 -2093 1985 0
-1977 -2094 1987 0
-1977 -2095 1989 0
-1977 -2096 1991 0
-1977 -2097 1993 0
-1977 -2098 1995 0
-1977 -2099 1997 0
1979 2100 0
-1979 -2100 0
-1979 -2101 1964 0
-1979 -2102 1967 0
-1979 -2103 1969 0
-1979 -2104 1971 0
-1979 -2105 1973 0
-1979 -2106 1975 0
-1979 -2107 1977 0
-1979 -2108 1981 0
-1979 -2109 1983 0
-1979 -2110 1985 0
-1979 -2111 1987 0
-1979 -2112 1989 0
-1979 -2113 1991 0
-1979 -2114 1993 0
-1979 -2115 1995 0
-1979 -2116 1997 0
1981 2117 0
-1981 -2117 0
-1981 -2118 1964 0
-1981 -2119 1967 0
-1981 -2120 1969 0
-1981 -2121 1971 0
-1981 -2122 1973 0
-1981 -2123 1975 0
-1981 -2124 1977 0
-1981 -2125 1979 0
-1981 -2126 1983 0
-1981 -2127 1985 0
-1981 -2128 1987 0
-1981 -2129 1989 0
-1981 -2130 1991 0
-1981 -2131 1993 0
-1981 -2132 1995 0
-1981 -2133 1997 0
1983 2134 0
-1983 -2134 0
-1983 -2135 1964 0
-1983 -2136 1967 0
-1983 -2137 1969 0
-1983 -2138 1971 0
-1983 -2139 1973 0
-1983 -2140 1975 0
-1983 -2141 1977 0
-1983 -2142 1979 0
-1983 -2143 1981 0
-1983 -2144 1985 0
-1983 -2145 1987 0
-1983 -2146 1989 0
-1983 -2147 1991 0
-1983 -2148 1993 0
-1983 -2149 1995 0
-1983 -2150 1997 0
1985 2151 0
-1985 -2151 0
-1985 -2152 1964 0
-1985 -2153 1967 0
-1985 -2154 1969 0
-1985 -2155 1971 0
-1985 -2156 1973 0
-1985 -2157 1975 0
-1985 -2158 1977 0
-1985 -2159 1979 0
-1985 -2160 1981 0
-1985 -2161 1983 0
-1985 -2162 1987 0
-1985 -2163 1989 0
-1985 -2164 1991 0
-1985 -2165 1993 0
-1985 -2166 1995 0
-1985 -2167 1997 0
1987 2168 0
-1987 -2168 0
-1987 -2169 1964 0
-1987 -2170 1967 0
-1987 -2171 1969 0
-1987 -2172 1971 0
-1987 -2173 1973 0
-1987 -2174 1975 0
-1987 -2175 1977 0
-1987 -2176 1979 0
-1987 -2177 1981 0
-1987 -2178 1983 0
-1987 -2179 1985 0
-1987 -2180 1989 0
-1987 -2181 1991 0
-1987 -2182 1993 0
-1987 -2183 1995 0
-1987 -2184 1997 0
1989 2185 0
-1989 -2185 0
-1989 -2186 1964 0
-1989 -2187 1967 0
-1989 -2188 1969 0
-1989 -2189 1971 0
-1989 -2190 1973 0
-1989 -2191 1975 0
-1989 -2192 1977 0
-1989 -2193 1979 0
-1989 -2194 1981 0
-1989 -2195 1983 0
-1989 -2196 1985 0
-1989 -2197 1987 0
-1989 -2198 1991 0
-1989 -2199 1993 0
-1989 -2200 1995 0
-1989 -2201 1997 0
1991 2202 0
-1991 -2202 0
-1991 -2203 1964 0
-1991 -2204 1967 0
-1991 -2205 1969 0
-1991 -2206 1971 0
-1991 -2207 1973 0
-1991 -2208 1975 0
-1991 -2209 1977 0
-1991 -2210 1979 0
-1991 -2211 1981 0
-1991 -2212 1983 0
-1991 -2213 1985 0
-1991 -2214 1987 0
-1991 -2215 1989 0
-1991 -2216 1993 0
-1991 -2217 1995 0
-1991 -2218 1997 0
1993 2219 0
-1993 -2219 0
-1993 -2220 1964 0
-1993 -2221 1967 0
-1993 -2222 1969 0
-1993 -2223 1971 0
-1993 -2224 1973 0
-1993 -2225 1975 0
-1993 -2226 1977 0
-1993 -2227 1979 0
-1993 -2228 1981 0
-1993 -2229 1983 0
-1993 -2230 1985 0
-1993 -2231 1987 0
-1993 -2232 1989 0
-1993 -2233 1991 0
-1993 -2234 1995 0
-1993 -2235 1997 0
1995 2236 0
-1995 -2236 0
-1995 -2237 1964 0
-1995 -2238 1967 0
-1995 -2239 1969 0
-1995 -2240 1971 0
-1995 -2241 1973 0
-1995 -2242 1975 0
-1995 -2243 1977 0
-1995 -2244 1979 0
-1995 -2245 1981 0
-1995 -2246 1983 0
-1995 -2247 1985 0
-1995 -2248 1987 0
-1995 -2249 1989 0
-1995 -2250 1991 0
-1995 -2251 1993 0
-1995 -2252 1997 0
1997 2253 0
-1997 -2253 0
-1997 -2254 1964 0
-1997 -2255 1967 0
-1997 -2256 1969 0
-1997 -2257 1971 0
-1997 -2258 1973 0
-1997 -2259 1975 0
-1997 -2260 1977 0
-1997 -2261 1979 0
-1997 -2262 1981 0
-1997 -2263 1983 0
-1997 -2264 1985 0
-1997 -2265 1987 0
-1997 -2266 1989 0
-1997 -2267 1991 0
-1997 -2268 1993 0
-1997 -2269 1995 0
2270 0
1965 1964 0
-1965 -1964 0
-1965 -1967 1966 0
-1965 -1969 1968 0
-1965 -1971 1970 0
-1965 -1973 1972 0
-1965 -1975 1974 0
-1965 -1977 1976 0
-1965 -1979 1978 0
-1965 -1981 1980 0
-1965 -1983 1982 0
-1965 -1985 1984 0
-1965 -1987 1986 0
-1965 -1989 1988 0
-1965 -1991 1990 0
-1965 -1993 1992 0
-1965 -1995 1994 0
-1965 -1997 1996 0
1966 1999 0
-1966 -1999 0
-1966 -1998 1965 0
-1966 -2000 1968 0
-1966 -2001 1970 0
-1966 -2002 1972 0
-1966 -2003 1974 0
-1966 -2004 1976 0
-1966 -2005 1978 0
-1966 -2006 1980 0
-1966 -2007 1982 0
-1966 -2008 1984 0
-1966 -2009 1986 0
-1966 -2010 1988 0
-1966 -2011 1990 0
-1966 -2012 1992 0
-1966 -2013 1994 0
-1966 -2014 1996 0
1968 2016 0
-1968 -2016 0
-1968 -2015 1965 0
-1968 -2017 1966 0
-1968 -2018 1970 0
-1968 -2019 1972 0
-1968 -2020 1974 0
-1968 -2021 1976 0
-1968 -2022 1978 0
-1968 -2023 1980 0
-1968 -2024 1982 0
-1968 -2025 1984 0
-1968 -2026 1986 0
-1968 -2027 1988 0
-1968 -2028 1990 0
-1968 -2029 1992 0
-1968 -2030 1994 0
-1968 -2031 1996 0
1970 2033 0
-1970 -2033 0
-1970 -2032 1965 0
-1970 -2034 1966 0
-1970 -2035 1968 0
-1970 -2036 1972 0
-1970 -2037 1974 0
-1970 -2038 1976 0
-1970 -2039 1978 0
-1970 -2040 1980 0
-1970 -2041 1982 0
-1970 -2042 1984 0
-1970 -2043 1986 0
-1970 -2044 1988 0
-1970 -2045 1990 0
-1970 -2046 1992 0
-1970 -2047 1994 0
-1970 -2048 1996 0
1972 2050 0
-1972 -2050 0
-1972 -2049 1965 0
-1972 -2051 1966 0
-1972 -2052 1968 0
-1972 -2053 1970 0
-1972 -2054 1974 0
-1972 -2055 1976 0
-1972 -2056 1978 0
-1972 -2057 1980 0
-1972 -2058 1982 0
-1972 -2059 1984 0
-1972 -2060 1986 0
-1972 -2061 1988 0
-1972 -2062 1990 0
-1972 -2063 1992 0
-1972 -2064 1994 0
-1972 -2065 1996 0
1974 2067 0
-1974 -2067 0
-1974 -2066 1965 0
-1974 -2068 1966 0
-1974 -2069 1968 0
-1974 -2070 1970 0
-1974 -2071 1972 0
-1974 -2072 1976 0
-1974 -2073 1978 0
-1974 -2074 1980 0
-1974 -2075 1982 0
-1974 -2076 1984 0
-1974 -2077 1986 0
-1974 -2078 1988 0
-1974 -2079 1990 0
-1974 -2080 1992 0
-1974 -2081 1994 0
-1974 -2082 1996 0
1976 2084 0
-1976 -2084 0
-1976 -2083 1965 0
-1976 -2085 1966 0
-1976 -2086 1968 0
-1976 -2087 1970 0
-1976 -2088 1972 0
-1976 -2089 1974 0
-1976 -2090 1978 0
-1976 -2091 1980 0
-1976 -2092 1982 0
-1976 -2093 1984 0
-1976 -2094 1986 0
-1976 -2095 1988 0
-1976 -2096 1990 0
-1976 -2097 1992 0
-1976 -2098 1994 0
-1976 -2099 1996 0
1978 2101 0
-1978 -2101 0
-1978 -2100 1965 0
-1978 -2102 1966 0
-1978 -2103 1968 0
-1978 -2104 1970 0
-1978 -2105 1972 0
-1978 -2106 1974 0
-1978 -2107 1976 0
-1978 -2108 1980 0
-1978 -2109 1982 0
-1978 -2110 1984 0
-1978 -2111 1986 0
-1978 -2112 1988 0
-1978 -2113 1990 0
-1978 -2114 1992 0
-1978 -2115 1994 0
-1978 -2116 1996 0
1980 2118 0
-1980 -2118 0
-1980 -2117 1965 0
-1980 -2119 1966 0
-1980 -2120 1968 0
-1980 -2121 1970 0
-1980 -2122 1972 0
-1980 -2123 1974 0
-1980 -2124 1976 0
-1980 -2125 1978 0
-1980 -2126 1982 0
-1980 -2127 1984 0
-1980 -2128 1986 0
-1980 -2129 1988 0
-1980 -2130 1990 0
-1980 -2131 1992 0
-1980 -2132 1994 0
-1980 -2133 1996 0
1982 2135 0
-1982 -2135 0
-1982 -2134 1965 0
-1982 -2136 1966 0
-1982 -2137 1968 0
-1982 -2138 1970 0
-1982 -2139 1972 0
-1982 -2140 1974 0
-1982 -2141 1976 0
-1982 -2142 1978 0
-1982 -2143 1980 0
-1982 -2144 1984 0
-1982 -2145 1986 0
-1982 -2146 1988 0
-1982 -2147 1990 0
-1982 -2148 1992 0
-1982 -2149 1994 0
-1982 -2150 1996 0
1984 2152 0
-1984 -2152 0
-1984 -2151 1965 0
-1984 -2153 1966 0
-1984 -2154 1968 0
-1984 -2155 1970 0
-1984 -2156 1972 0
-1984 -2157 1974 0
-1984 -2158 1976 0
-1984 -2159 1978 0
-1984 -2160 1980 0
-1984 -2161 1982 0
-1984 -2162 1986 0
-1984 -2163 1988 0
-1984 -2164 1990 0
-1984 -2165 1992 0
-1984 -2166 1994 0
-1984 -2167 1996 0
1986 2169 0
-1986 -2169 0
-1986 -2168 1965 0
-1986 -2170 1966 0
-1986 -2171 1968 0
-1986 -2172 1970 0
-1986 -2173 1972 0
-1986 -2174 1974 0
-1986 -2175 1976 0
-1986 -2176 1978 0
-1986 -2177 1980 0
-1986 -2178 1982 0
-1986 -2179 1984 0
-1986 -2180 1988 0
-1986 -2181 1990 0
-1986 -2182 1992 0
-1986 -2183 1994 0
-1986 -2184 1996 0
1988 2186 0
-1988 -2186 0
-1988 -2185 1965 0
-1988 -2187 1966 0
-1988 -2188 1968 0
-1988 -2189 1970 0
-1988 -2190 1972 0
-1988 -2191 1974 0
-1988 -2192 1976 0
-1988 -2193 1978 0
-1988 -2194 1980 0
-1988 -2195 1982 0
-1988 -2196 1984 0
-1988 -2197 1986 0
-1988 -2198 1990 0
-1988 -2199 1992 0
-1988 -2200 1994 0
-1988 -2201 1996 0
1990 2203 0
-1990 -2203 0
-1990 -2202 1965 0
-1990 -2204 1966 0
-1990 -2205 1968 0
-1990 -2206 1970 0
-1990 -2207 1972 0
-1990 -2208 1974 0
-1990 -2209 1976 0
-1990 -2210 1978 0
-1990 -2211 1980 0
-1990 -2212 1982 0
-1990 -2213 1984 0
-1990 -2214 1986 0
-1990 -2215 1988 0
-1990 -2216 1992 0
-1990 -2217 1994 0
-1990 -2218 1996 0
1992 2220 0
-1992 -2220 0
-1992 -2219 1965 0
-1992 -2221 1966 0
-1992 -2222 1968 0
-1992 -2223 1970 0
-1992 -2224 1972 0
-1992 -2225 1974 0
-1992 -2226 1976 0
-1992 -2227 1978 0
-1992 -2228 1980 0
-1992 -2229 1982 0
-1992 -2230 1984 0
-1992 -2231 1986 0
-1992 -2232 1988 0
-1992 -2233 1990 0
-1992 -2234 1994 0
-1992 -2235 1996 0
1994 2237 0
-1994 -2237 0
-1994 -2236 1965 0
-1994 -2238 1966 0
-1994 -2239 1968 0
-1994 -2240 1970 0
-1994 -2241 1972 0
-1994 -2242 1974 0
-1994 -2243 1976 0
-1994 -2244 1978 0
-1994 -2245 1980 0
-1994 -2246 1982 0
-1994 -2247 1984 0
-1994 -2248 1986 0
-1994 -2249 1988 0
-1994 -2250 1990 0
-1994 -2251 1992 0
-1994 -2252 1996 0
1996 2254 0
-1996 -2254 0
-1996 -2253 1965 0
-1996 -2255 1966 0
-1996 -2256 1968 0
-1996 -2257 1970 0
-1996 -2258 1972 0
-1996 -2259 1974 0
-1996 -2260 1976 0
-1996 -2261 1978 0
-1996 -2262 1980 0
-1996 -2263 1982 0
-1996 -2264 1984 0
-1996 -2265 1986 0
-1996 -2266 1988 0
-1996 -2267 1990 0
-1996 -2268 1992 0
-1996 -2269 1994 0
2271 0
1998 1967 0
-1998 -1967 0
-1998 -1964 1999 0
-1998 -1969 2000 0
-1998 -1971 2001 0
-1998 -1973 2002 0
-1998 -1975 2003 0
-1998 -1977 2004 0
-1998 -1979 2005 0
-1998 -1981 2006 0
-1998 -1983 2007 0
-1998 -1985 2008 0
-1998 -1987 2009 0
-1998 -1989 2010 0
-1998 -1991 2011 0
-1998 -1993 2012 0
-1998 -1995 2013 0
-1998 -1997 2014 0
1999 1966 0
-1999 -1966 0
-1999 -1965 1998 0
-1999 -1968 2000 0
-1999 -1970 2001 0
-1999 -1972 2002 0
-1999 -1974 2003 0
-1999 -1976 2004 0
-1999 -1978 2005 0
-1999 -1980 2006 0
-1999 -1982 2007 0
-1999 -1984 2008 0
-1999 -1986 2009 0
-1999 -1988 2010 0
-1999 -1990 2011 0
-1999 -1992 2012 0
-1999 -1994 2013 0
-1999 -1996 2014 0
2000 2017 0
-2000 -2017 0
-2000 -2015 1998 0
-2000 -2016 1999 0
-2000 -2018 2001 0
-2000 -2019 2002 0
-2000 -2020 2003 0
-2000 -2021 2004 0
-2000 -2022 2005 0
-2000 -2023 2006 0
-2000 -2024 2007 0
-2000 -2025 2008 0
-2000 -2026 2009 0
-2000 -2027 2010 0
-2000 -2028 2011 0
-2000 -2029 2012 0
-2000 -2030 2013 0
-2000 -2031 2014 0
2001 2034 0
-2001 -2034 0
-2001 -2032 1998 0
-2001 -2033 1999 0
-2001 -2035 2000 0
-2001 -2036 2002 0
-2001 -2037 2003 0
-2001 -2038 2004 0
-2001 -2039 2005 0
-2001 -2040 2006 0
-2001 -2041 2007 0
-2001 -2042 2008 0
-2001 -2043 2009 0
-2001 -2044 2010 0
-2001 -2045 2011 0
-2001 -2046 2012 0
-2001 -2047 2013 0
-2001 -2048 2014 0
2002 2051 0
-2002 -2051 0
-2002 -2049 1998 0
-2002 -2050 1999 0
-2002 -2052 2000 0
-2002 -2053 2001 0
-2002 -2054 2003 0
-2002 -2055 2004 0
-2002 -2056 2005 0
-2002 -2057 2006 0
-2002 -2058 2007 0
-2002 -2059 2008 0
-2002 -2060 2009 0
-2002 -2061 2010 0
-2002 -2062 2011 0
-2002 -2063 2012 0
-2002 -2064 2013 0
-2002 -2065 2014 0
2003 2068 0
-2003 -2068 0
-2003 -2066 1998 0
-2003 -2067 1999 0
-2003 -2069 2000 0
-2003 -2070 2001 0
-2003 -2071 2002 0
-2003 -2072 2004 0
-2003 -2073 2005 0
-2003 -2074 2006 0
-2003 -2075 2007 0
-2003 -2076 2008 0
-2003 -2077 2009 0
-2003 -2078 2010 0
-2003 -2079 2011 0
-2003 -2080 2012 0
-2003 -2081 2013 0
-2003 -2082 2014 0
2004 2085 0
-2004 -2085 0
-2004 -2083 1998 0
-2004 -2084 1999 0
-2004 -2086 2000 0
-2004 -2087 2001 0
-2004 -2088 2002 0
-2004 -2089 2003 0
-2004 -2090 2005 0
-2004 -2091 2006 0
-2004 -2092 2007 0
-2004 -2093 2008 0
-2004 -2094 2009 0
-2004 -2095 2010 0
-2004 -2096 2011 0
-2004 -2097 2012 0
-2004 -2098 2013 0
-2004 -2099 2014 0
2005 2102 0
-2005 -2102 0
-2005 -2100 1998 0
-2005 -2101 1999 0
-2005 -2103 2000 0
-2005 -2104 2001 0
-2005 -2105 2002 0
-2005 -2106 2003 0
-2005 -2107 2004 0
-2005 -2108 2006 0
-2005 -2109 2007 0
-2005 -2110 2008 0
-2005 -2111 2009 0
-2005 -2112 2010 0
-2005 -2113 2011 0
-2005 -2114 2012 0
-2005 -2115 2013 0
-2005 -2116 2014 0
2006 2119 0
-2006 -2119 0
-2006 -2117 1998 0
-2006 -2118 1999 0
-2006 -2120 2000 0
-2006 -2121 2001 0
-2006 -2122 2002 0
-2006 -2123 2003 0
-2006 -2124 2004 0
-2006 -2125 2005 0
-2006 -2126 2007 0
-2006 -2127 2008 0
-2006 -2128 2009 0
-2006 -2129 2010 0
-2006 -2130 2011 0
-2006 -2131 2012 0
-2006 -2132 2013 0
-2006 -2133 2014 0
2007 2136 0
-2007 -2136 0
-2007 -2134 1998 0
-2007 -2135 1999 0
-2007 -2137 2000 0
-2007 -2138 2001 0
-2007 -2139 2002 0
-2007 -2140 2003 0
-2007 -2141 2004 0
-2007 -2142 2005 0
-2007 -2143 2006 0
-2007 -2144 2008 0
-2007 -2145 2009 0
-2007 -2146 2010 0
-2007 -2147 2011 0
-2007 -2148 2012 0
-2007 -2149 2013 0
-2007 -2150 2014 0
2008 2153 0
-2008 -2153 0
-2008 -2151 1998 0
-2008 -2152 1999 0
-2008 -2154 2000 0
-2008 -2155 2001 0
-2008 -2156 2002 0
-2008 -2157 2003 0
-2008 -2158 2004 0
-2008 -2159 2005 0
-2008 -2160 2006 0
-2008 -2161 2007 0
-2008 -2162 2009 0
-2008 -2163 2010 0
-2008 -2164 2011 0
-2008 -2165 2012 0
-2008 -2166 2013 0
-2008 -2167 2014 0
2009 2170 0
-2009 -2170 0
-2009 -2168 1998 0
-2009 -2169 1999 0
-2009 -2171 2000 0
-2009 -2172 2001 0
-2009 -2173 2002 0
-2009 -2174 2003 0
-2009 -2175 2004 0
-2009 -2176 2005 0
-2009 -2177 2006 0
-2009 -2178 2007 0
-2009 -2179 2008 0
-2009 -2180 2010 0
-2009 -2181 2011 0
-2009 -2182 2012 0
-2009 -2183 2013 0
-2009 -2184 2014 0
2010 2187 0
-2010 -2187 0
-2010 -2185 1998 0
-2010 -2186 1999 0
-2010 -2188 2000 0
-2010 -2189 2001 0
-2010 -2190 2002 0
-2010 -2191 2003 0
-2010 -2192 2004 0
-2010 -2193 2005 0
-2010 -2194 2006 0
-2010 -2195 2007 0
-2010 -2196 2008 0
-2010 -2197 2009 0
-2010 -2198 2011 0
-2010 -2199 2012 0
-2010 -2200 2013 0
-2010 -2201 2014 0
2011 2204 0
-2011 -2204 0
-2011 -2202 1998 0
-2011 -2203 1999 0
-2011 -2205 2000 0
-2011 -2206 2001 0
-2011 -2207 2002 0
-2011 -2208 2003 0
-2011 -2209 2004 0
-2011 -2210 2005 0
-2011 -2211 2006 0
-2011 -2212 2007 0
-2011 -2213 2008 0
-2011 -2214 2009 0
-2011 -2215 2010 0
-2011 -2216 2012 0
-2011 -2217 2013 0
-2011 -2218 2014 0
2012 2221 0
-2012 -2221 0
-2012 -2219 1998 0
-2012 -2220 1999 0
-2012 -2222 2000 0
-2012 -2223 2001 0
-2012 -2224 2002 0
-2012 -2225 2003 0
-2012 -2226 2004 0
-2012 -2227 2005 0
-2012 -2228 2006 0
-2012 -2229 2007 0
-2012 -2230 2008 0
-2012 -2231 2009 0
-2012 -2232 2010 0
-2012 -2233 2011 0
-2012 -2234 2013 0
-2012 -2235 2014 0
2013 2238 0
-2013 -2238 0
-2013 -2236 1998 0
-2013 -2237 1999 0
-2013 -2239 2000 0
-2013 -2240 2001 0
-2013 -2241 2002 0
-2013 -2242 2003 0
-2013 -2243 2004 0
-2013 -2244 2005 0
-2013 -2245 2006 0
-2013 -2246 2007 0
-2013 -2247 2008 0
-2013 -2248 2009 0
-2013 -2249 2010 0
-2013 -2250 2011 0
-2013 -2251 2012 0
-2013 -2252 2014 0
2014 2255 0
-2014 -2255 0
-2014 -2253 1998 0
-2014 -2254 1999 0
-2014 -2256 2000 0
-2014 -2257 2001 0
-2014 -2258 2002 0
-2014 -2259 2003 0
-2014 -2260 2004 0
-2014 -2261 2005 0
-2014 -2262 2006 0
-2014 -2263 2007 0
-2014 -2264 2008 0
-2014 -2265 2009 0
-2014 -2266 2010 0
-2014 -2267 2011 0
-2014 -2268 2012 0
-2014 -2269 2013 0
2272 0
2015 1969 0
-2015 -1969 0
-2015 -1964 2016 0
-2015 -1967 2017 0
-2015 -1971 2018 0
-2015 -1973 2019 0
-2015 -1975 2020 0
-2015 -1977 2021 0
-2015 -1979 2022 0
-2015 -1981 2023 0
-2015 -1983 2024 0
-2015 -1985 2025 0
-2015 -1987 2026 0
-2015 -1989 2027 0
-2015 -1991 2028 0
-2015 -1993 2029 0
-2015 -1995 2030 0
-2015 -1997 2031 0
2016 1968 0
-2016 -1968 0
-2016 -1965 2015 0
-2016 -1966 2017 0
-2016 -1970 2018 0
-2016 -1972 2019 0
-2016 -1974 2020 0
-2016 -1976 2021 0
-2016 -1978 2022 0
-2016 -1980 2023 0
-2016 -1982 2024 0
-2016 -1984 2025 0
-2016 -1986 2026 0
-2016 -1988 2027 0
-2016 -1990 2028 0
-2016 -1992 2029 0
-2016 -1994 2030 0
-2016 -1996 2031 0
2017 2000 0
-2017 -2000 0
-2017 -1998 2015 0
-2017 -1999 2016 0
-2017 -2001 2018 0
-2017 -2002 2019 0
-2017 -2003 2020 0
-2017 -2004 2021 0
-2017 -2005 2022 0
-2017 -2006 2023 0
-2017 -2007 2024 0
-2017 -2008 2025 0
-2017 -2009 2026 0
-2017 -2010 2027 0
-2017 -2011 2028 0
-2017 -2012 2029 0
-2017 -2013 2030 0
-2017 -2014 2031 0
2018 2035 0
-2018 -2035 0
-2018 -2032 2015 0
-2018 -2033 2016 0
-2018 -2034 2017 0
-2018 -2036 2019 0
-2018 -2037 2020 0
-2018 -2038 2021 0
-2018 -2039 2022 0
-2018 -2040 2023 0
-2018 -2041 2024 0
-2018 -2042 2025 0
-2018 -2043 2026 0
-2018 -2044 2027 0
-2018 -2045 2028 0
-2018 -2046 2029 0
-2018 -2047 2030 0
-2018 -2048 2031 0
2019 2052 0
-2019 -2052 0
-2019 -2049 2015 0
-2019 -2050 2016 0
-2019 -2051 2017 0
-2019 -2053 2018 0
-2019 -2054 2020 0
-2019 -2055 2021 0
-2019 -2056 2022 0
-2019 -2057 2023 0
-2019 -2058 2024 0
-2019 -2059 2025 0
-2019 -2060 2026 0
-2019 -2061 2027 0
-2019 -2062 2028 0
-2019 -2063 2029 0
-2019 -2064 2030 0
-2019 -2065 2031 0
2020 2069 0
-2020 -2069 0
-2020 -2066 2015 0
-2020 -2067 2016 0
-2020 -2068 2017 0
-2020 -2070 2018 0
-2020 -2071 2019 0
-2020 -2072 2021 0
-2020 -2073 2022 0
-2020 -2074 2023 0
-2020 -2075 2024 0
-2020 -2076 2025 0
-2020 -2077 2026 0
-2020 -2078 2027 0
-2020 -2079 2028 0
-2020 -2080 2029 0
-2020 -2081 2030 0
-2020 -2082 2031 0
2021 2086 0
-2021 -2086 0
-2021 -2083 2015 0
-2021 -2084 2016 0
-2021 -2085 2017 0
-2021 -2087 2018 0
-2021 -2088 2019 0
-2021 -2089 2020 0
-2021 -2090 2022 0
-2021 -2091 2023 0
-2021 -2092 2024 0
-2021 -2093 2025 0
-2021 -2094 2026 0
-2021 -2095 2027 0
-2021 -2096 2028 0
-2021 -2097 2029 0
-2021 -2098 2030 0
-2021 -2099 2031 0
2022 2103 0
-2022 -2103 0
-2022 -2100 2015 0
-2022 -2101 2016 0
-2022 -2102 2017 0
-2022 -2104 2018 0
-2022 -2105 2019 0
-2022 -2106 2020 0
-2022 -2107 2021 0
-2022 -2108 2023 0
-2022 -2109 2024 0
-2022 -2110 2025 0
-2022 -2111 2026 0
-2022 -2112 2027 0
-2022 -2113 2028 0
-2022 -2114 2029 0
-2022 -2115 2030 0
-2022 -2116 2031 0
2023 2120 0
-2023 -2120 0
-2023 -2117 2015 0
-2023 -2118 2016 0
-2023 -2119 2017 0
-2023 -2121 2018 0
-2023 -2122 2019 0
-2023 -2123 2020 0
-2023 -2124 2021 0
-2023 -2125 2022 0
-2023 -2126 2024 0
-2023 -2127 2025 0
-2023 -2128 2026 0
-2023 -2129 2027 0
-2023 -2130 2028 0
-2023 -2131 2029 0
-2023 -2132 2030 0
-2023 -2133 2031 0
2024 2137 0
-2024 -2137 0
-2024 -2134 2015 0
-2024 -2135 2016 0
-2024 -2136 2017 0
-2024 -2138 2018 0
-2024 -2139 2019 0
-2024 -2140 2020 0
-2024 -2141 2021 0
-2024 -2142 2022 0
-2024 -2143 2023 0
-2024 -2144 2025 0
-2024 -2145 2026 0
-2024 -2146 2027 0
-2024 -2147 2028 0
-2024 -2148 2029 0
-2024 -2149 2030 0
-2024 -2150 2031 0
2025 2154 0
-2025 -2154 0
-2025 -2151 2015 0
-2025 -2152 2016 0
-2025 -2153 2017 0
-2025 -2155 2018 0
-2025 -2156 2019 0
-2025 -2157 2020 0
-2025 -2158 2021 0
-2025 -2159 2022 0
-2025 -2160 2023 0
-2025 -2161 2024 0
-2025 -2162 2026 0
-2025 -2163 2027 0
-2025 -2164 2028 0
-2025 -2165 2029 0
-2025 -2166 2030 0
-2025 -2167 2031 0
2026 2171 0
-2026 -2171 0
-2026 -2168 2015 0
-2026 -2169 2016 0
-2026 -2170 2017 0
-2026 -2172 2018 0
-2026 -2173 2019 0
-2026 -2174 2020 0
-2026 -2175 2021 0
-2026 -2176 2022 0
-2026 -2177 2023 0
-2026 -2178 2024 0
-2026 -2179 2025 0
-2026 -2180 2027 0
-2026 -2181 2028 0
-2026 -2182 2029 0
-2026 -2183 2030 0
-2026 -2184 2031 0
2027 2188 0
-2027 -2188 0
-2027 -2185 2015 0
-2027 -2186 2016 0
-2027 -2187 2017 0
-2027 -2189 2018 0
-2027 -2190 2019 0
-2027 -2191 2020 0
-2027 -2192 2021 0
-2027 -2193 2022 0
-2027 -2194 2023 0
-2027 -2195 2024 0
-2027 -2196 2025 0
-2027 -2197 2026 0
-2027 -2198 2028 0
-2027 -2199 2029 0
-2027 -2200 2030 0
-2027 -2201 2031 0
2028 2205 0
-2028 -2205 0
-2028 -2202 2015 0
-2028 -2203 2016 0
-2028 -2204 2017 0
-2028 -2206 2018 0
-2028 -2207 2019 0
-2028 -2208 2020 0
-2028 -2209 2021 0
-2028 -2210 2022 0
-2028 -2211 2023 0
-2028 -2212 2024 0
-2028 -2213 2025 0
-2028 -2214 2026 0
-2028 -2215 2027 0
-2028 -2216 2029 0
-2028 -2217 2030 0
-2028 -2218 2031 0
2029 2222 0
-2029 -2222 0
-2029 -2219 2015 0
-2029 -2220 2016 0
-2029 -2221 2017 0
-2029 -2223 2018 0
-2029 -2224 2019 0
-2029 -2225 2020 0
-2029 -2226 2021 0
-2029 -2227 2022 0
-2029 -2228 2023 0
-2029 -2229 2024 0
-2029 -2230 2025 0
-2029 -2231 2026 0
-2029 -2232 2027 0
-2029 -2233 2028 0
-2029 -2234 2030 0
-2029 -2235 2031 0
2030 2239 0
-2030 -2239 0
-2030 -2236 2015 0
-2030 -2237 2016 0
-2030 -2238 2017 0
-2030 -2240 2018 0
-2030 -2241 2019 0
-2030 -2242 2020 0
-2030 -2243 2021 0
-2030 -2244 2022 0
-2030 -2245 2023 0
-2030 -2246 2024 0
-2030 -2247 2025 0
-2030 -2248 2026 0
-2030 -2249 2027 0
-2030 -2250 2028 0
-2030 -2251 2029 0
-2030 -2252 2031 0
2031 2256 0
-2031 -2256 0
-2031 -2253 2015 0
-2031 -2254 2016 0
-2031 -2255 2017 0
-2031 -2257 2018 0
-2031 -2258 2019 0
-2031 -2259 2020 0
-2031 -2260 2021 0
-2031 -2261 2022 0
-2031 -2262 2023 0
-2031 -2263 2024 0
-2031 -2264 2025 0
-2031 -2265 2026 0
-2031 -2266 2027 0
-2031 -2267 2028 0
-2031 -2268 2029 0
-2031 -2269 2030 0
2273 0
2032 1971 0
-2032 -1971 0
-2032 -1964 2033 0
-2032 -1967 2034 0
-2032 -1969 2035 0
-2032 -1973 2036 0
-2032 -1975 2037 0
-2032 -1977 2038 0
-2032 -1979 2039 0
-2032 -1981 2040 0
-2032 -1983 2041 0
-2032 -1985 2042 0
-2032 -1987 2043 0
-2032 -1989 2044 0
-2032 -1991 2045 0
-2032 -1993 2046 0
-2032 -1995 2047 0
-2032 -1997 2048 0
2033 1970 0
-2033 -1970 0
-2033 -1965 2032 0
-2033 -1966 2034 0
-2033 -1968 2035 0
-2033 -1972 2036 0
-2033 -1974 2037 0
-2033 -1976 2038 0
-2033 -1978 2039 0
-2033 -1980 2040 0
-2033 -1982 2041 0
-2033 -1984 2042 0
-2033 -1986 2043 0
-2033 -1988 2044 0
-2033 -1990 2045 0
-2033 -1992 2046 0
-2033 -1994 2047 0
-2033 -1996 2048 0
2034 2001 0
-2034 -2001 0
-2034 -1998 2032 0
-2034 -1999 2033 0
-2034 -2000 2035 0
-2034 -2002 2036 0
-2034 -2003 2037 0
-2034 -2004 2038 0
-2034 -2005 2039 0
-2034 -2006 2040 0
-2034 -2007 2041 0
-2034 -2008 2042 0
-2034 -2009 2043 0
-2034 -2010 2044 0
-2034 -2011 2045 0
-2034 -2012 2046 0
-2034 -2013 2047 0
-2034 -2014 2048 0
2035 2018 0
-2035 -2018 0
-2035 -2015 2032 0
-2035 -2016 2033 0
-2035 -2017 2034 0
-2035 -2019 2036 0
-2035 -2020 2037 0
-2035 -2021 2038 0
-2035 -2022 2039 0
-2035 -2023 2040 0
-2035 -2024 2041 0
-2035 -2025 2042 0
-2035 -2026 2043 0
-2035 -2027 2044 0
-2035 -2028 2045 0
-2035 -2029 2046 0
-2035 -2030 2047 0
-2035 -2031 2048 0
2036 2053 0
-2036 -2053 0
-2036 -2049 2032 0
-2036 -2050 2033 0
-2036 -2051 2034 0
-2036 -2052 2035 0
-2036 -2054 2037 0
-2036 -2055 2038 0
-2036 -2056 2039 0
-2036 -2057 2040 0
-2036 -2058 2041 0
-2036 -2059 2042 0
-2036 -2060 2043 0
-2036 -2061 2044 0
-2036 -2062 2045 0
-2036 -2063 2046 0
-2036 -2064 2047 0
-2036 -2065 2048 0
2037 2070 0
-2037 -2070 0
-2037 -2066 2032 0
-2037 -2067 2033 0
-2037 -2068 2034 0
-2037 -2069 2035 0
-2037 -2071 2036 0
-2037 -2072 2038 0
-2037 -2073 2039 0
-2037 -2074 2040 0
-2037 -2075 2041 0
-2037 -2076 2042 0
-2037 -2077 2043 0
-2037 -2078 2044 0
-2037 -2079 2045 0
-2037 -2080 2046 0
-2037 -2081 2047 0
-2037 -2082 2048 0
2038 2087 0
-2038 -2087 0
-2038 -2083 2032 0
-2038 -2084 2033 0
-2038 -2085 2034 0
-2038 -2086 2035 0
-2038 -2088 2036 0
-2038 -2089 2037 0
-2038 -2090 2039 0
-2038 -2091 2040 0
-2038 -2092 2041 0
-2038 -2093 2042 0
-2038 -2094 2043 0
-2038 -2095 2044 0
-2038 -2096 2045 0
-2038 -2097 2046 0
-2038 -2098 2047 0
-2038 -2099 2048 0
2039 2104 0
-2039 -2104 0
-2039 -2100 2032 0
-2039 -2101 2033 0
-2039 -2102 2034 0
-2039 -2103 2035 0
-2039 -2105 2036 0
-2039 -2106 2037 0
-2039 -2107 2038 0
-2039 -2108 2040 0
-2039 -2109 2041 0
-2039 -2110 2042 0
-2039 -2111 2043 0
-2039 -2112 2044 0
-2039 -2113 2045 0
-2039 -2114 2046 0
-2039 -2115 2047 0
-2039 -2116 2048 0
2040 2121 0
-2040 -2121 0
-2040 -2117 2032 0
-2040 -2118 2033 0
-2040 -2119 2034 0
-2040 -2120 2035 0
-2040 -2122 2036 0
-2040 -2123 2037 0
-2040 -2124 2038 0
-2040 -2125 2039 0
-2040 -2126 2041 0
-2040 -2127 2042 0
-2040 -2128 2043 0
-2040 -2129 2044 0
-2040 -2130 2045 0
-2040 -2131 2046 0
-2040 -2132 2047 0
-2040 -2133 2048 0
2041 2138 0
-2041 -2138 0
-2041 -2134 2032 0
-2041 -2135 2033 0
-2041 -2136 2034 0
-2041 -2137 2035 0
-2041 -2139 2036 0
-2041 -2140 2037 0
-2041 -2141 2038 0
-2041 -2142 2039 0
-2041 -2143 2040 0
-2041 -2144 2042 0
-2041 -2145 2043 0
-2041 -2146 2044 0
-2041 -2147 2045 0
-2041 -2148 2046 0
-2041 -2149 2047 0
-2041 -2150 2048 0
2042 2155 0
-2042 -2155 0
-2042 -2151 2032 0
-2042 -2152 2033 0
-2042 -2153 2034 0
-2042 -2154 2035 0
-2042 -2156 2036 0
-2042 -2157 2037 0
-2042 -2158 2038 0
-2042 -2159 2039 0
-2042 -2160 2040 0
-2042 -2161 2041 0
-2042 -2162 2043 0
-2042 -2163 2044 0
-2042 -2164 2045 0
-2042 -2165 2046 0
-2042 -2166 2047 0
-2042 -2167 2048 0
2043 2172 0
-2043 -2172 0
-2043 -2168 2032 0
-2043 -2169 2033 0
-2043 -2170 2034 0
-2043 -2171 2035 0
-2043 -2173 2036 0
-2043 -2174 2037 0
-2043 -2175 2038 0
-2043 -2176 2039 0
-2043 -2177 2040 0
-2043 -2178 2041 0
-2043 -2179 2042 0
-2043 -2180 2044 0
-2043 -2181 2045 0
-2043 -2182 2046 0
-2043 -2183 2047 0
-2043 -2184 2048 0
2044 2189 0
-2044 -2189 0
-2044 -2185 2032 0
-2044 -2186 2033 0
-2044 -2187 2034 0
-2044 -2188 2035 0
-2044 -2190 2036 0
-2044 -2191 2037 0
-2044 -2192 2038 0
-2044 -2193 2039 0
-2044 -2194 2040 0
-2044 -2195 2041 0
-2044 -2196 2042 0
-2044 -2197 2043 0
-2044 -2198 2045 0
-2044 -2199 2046 0
-2044 -2200 2047 0
-2044 -2201 2048 0
2045 2206 0
-2045 -2206 0
-2045 -2202 2032 0
-2045 -2203 2033 0
-2045 -2204 2034 0
-2045 -2205 2035 0
-2045 -2207 2036 0
-2045 -2208 2037 0
-2045 -2209 2038 0
-2045 -2210 2039 0
-2045 -2211 2040 0
-2045 -2212 2041 0
-2045 -2213 2042 0
-2045 -2214 2043 0
-2045 -2215 2044 0
-2045 -2216 2046 0
-2045 -2217 2047 0
-2045 -2218 2048 0
2046 2223 0
-2046 -2223 0
-2046 -2219 2032 0
-2046 -2220 2033 0
-2046 -2221 2034 0
-2046 -2222 2035 0
-2046 -2224 2036 0
-2046 -2225 2037 0
-2046 -2226 2038 0
-2046 -2227 2039 0
-2046 -2228 2040 0
-2046 -2229 2041 0
-2046 -2230 2042 0
-2046 -2231 2043 0
-2046 -2232 2044 0
-2046 -2233 2045 0
-2046 -2234 2047 0
-2046 -2235 2048 0
2047 2240 0
-2047 -2240 0
-2047 -2236 2032 0
-2047 -2237 2033 0
-2047 -2238 2034 0
-2047 -2239 2035 0
-2047 -2241 2036 0
-2047 -2242 2037 0
-2047 -2243 2038 0
-2047 -2244 2039 0
-2047 -2245 2040 0
-2047 -2246 2041 0
-2047 -2247 2042 0
-2047 -2248 2043 0
-2047 -2249 2044 0
-2047 -2250 2045 0
-2047 -2251 2046 0
-2047 -2252 2048 0
2048 2257 0
-2048 -2257 0
-2048 -2253 2032 0
-2048 -2254 2033 0
-2048 -2255 2034 0
-2048 -2256 2035 0
-2048 -2258 2036 0
-2048 -2259 2037 0
-2048 -2260 2038 0
-2048 -2261 2039 0
-2048 -2262 2040 0
-2048 -2263 2041 0
-2048 -2264 2042 0
-2048 -2265 2043 0
-2048 -2266 2044 0
-2048 -2267 2045 0
-2048 -2268 2046 0
-2048 -2269 2047 0
2274 0
2049 1973 0
-2049 -1973 0
-2049 -1964 2050 0
-2049 -1967 2051 0
-2049 -1969 2052 0
-2049 -1971 2053 0
-2049 -1975 2054 0
-2049 -1977 2055 0
-2049 -1979 2056 0
-2049 -1981 2057 0
-2049 -1983 2058 0
-2049 -1985 2059 0
-2049 -1987 2060 0
-2049 -1989 2061 0
-2049 -1991 2062 0
-2049 -1993 2063 0
-2049 -1995 2064 0
-2049 -1997 2065 0
2050 1972 0
-2050 -1972 0
-2050 -1965 2049 0
-2050 -1966 2051 0
-2050 -1968 2052 0
-2050 -1970 2053 0
-2050 -1974 2054 0
-2050 -1976 2055 0
-2050 -1978 2056 0
-2050 -1980 2057 0
-2050 -1982 2058 0
-2050 -1984 2059 0
-2050 -1986 2060 0
-2050 -1988 2061 0
-2050 -1990 2062 0
-2050 -1992 2063 0
-2050 -1994 2064 0
-2050 -1996 2065 0
2051 2002 0
-2051 -2002 0
-2051 -1998 2049 0
-2051 -1999 2050 0
-2051 -2000 2052 0
-2051 -2001 2053 0
-2051 -2003 2054 0
-2051 -2004 2055 0
-2051 -2005 2056 0
-2051 -2006 2057 0
-2051 -2007 2058 0
-2051 -2008 2059 0
-2051 -2009 2060 0
-2051 -2010 2061 0
-2051 -2011 2062 0
-2051 -2012 2063 0
-2051 -2013 2064 0
-2051 -2014 2065 0
2052 2019 0
-2052 -2019 0
-2052 -2015 2049 0
-2052 -2016 2050 0
-2052 -2017 2051 0
-2052 -2018 2053 0
-2052 -2020 2054 0
-2052 -2021 2055 0
-2052 -2022 2056 0
-2052 -2023 2057 0
-2052 -2024 2058 0
-2052 -2025 2059 0
-2052 -2026 2060 0
-2052 -2027 2061 0
-2052 -2028 2062 0
-2052 -2029 2063 0
-2052 -2030 2064 0
-2052 -2031 2065 0
2053 2036 0
-2053 -2036 0
-2053 -2032 2049 0
-2053 -2033 2050 0
-2053 -2034 2051 0
-2053 -2035 2052 0
-2053 -2037 2054 0
-2053 -2038 2055 0
-2053 -2039 2056 0
-2053 -2040 2057 0
-2053 -2041 2058 0
-2053 -2042 2059 0
-2053 -2043 2060 0
-2053 -2044 2061 0
-2053 -2045 2062 0
-2053 -2046 2063 0
-2053 -2047 2064 0
-2053 -2048 2065 0
2054 2071 0
-2054 -2071 0
-2054 -2066 2049 0
-2054 -2067 2050 0
-2054 -2068 2051 0
-2054 -2069 2052 0
-2054 -2070 2053 0
-2054 -2072 2055 0
-2054 -2073 2056 0
-2054 -2074 2057 0
-2054 -2075 2058 0
-2054 -2076 2059 0
-2054 -2077 2060 0
-2054 -2078 2061 0
-2054 -2079 2062 0
-2054 -2080 2063 0
-2054 -2081 2064 0
-2054 -2082 2065 0
2055 2088 0
-2055 -2088 0
-2055 -2083 2049 0
-2055 -2084 2050 0
-2055 -2085 2051 0
-2055 -2086 2052 0
-2055 -2087 2053 0
-2055 -2089 2054 0
-2055 -2090 2056 0
-2055 -2091 2057 0
-2055 -2092 2058 0
-2055 -2093 2059 0
-2055 -2094 2060 0
-2055 -2095 2061 0
-2055 -2096 2062 0
-2055 -2097 2063 0
-2055 -2098 2064 0
-2055 -2099 2065 0
2056 2105 0
-2056 -2105 0
-2056 -2100 2049 0
-2056 -2101 2050 0
-2056 -2102 2051 0
-2056 -2103 2052 0
-2056 -2104 2053 0
-2056 -2106 2054 0
-2056 -2107 2055 0
-2056 -2108 2057 0
-2056 -2109 2058 0
-2056 -2110 2059 0
-2056 -2111 2060 0
-2056 -2112 2061 0
-2056 -2113 2062 0
-2056 -2114 2063 0
-2056 -2115 2064 0
-2056 -2116 2065 0
2057 2122 0
-2057 -2122 0
-2057 -2117 2049 0
-2057 -2118 2050 0
-2057 -2119 2051 0
-2057 -2120 2052 0
-2057 -2121 2053 0
-2057 -2123 2054 0
-2057 -2124 2055 0
-2057 -2125 2056 0
-2057 -2126 2058 0
-2057 -2127 2059 0
-2057 -2128 2060 0
-2057 -2129 2061 0
-2057 -2130 2062 0
-2057 -2131 2063 0
-2057 -2132 2064 0
-2057 -2133 2065 0
2058 2139 0
-2058 -2139 0
-2058 -2134 2049 0
-2058 -2135 2050 0
-2058 -2136 2051 0
-2058 -2137 2052 0
-2058 -2138 2053 0
-2058 -2140 2054 0
-2058 -2141 2055 0
-2058 -2142 2056 0
-2058 -2143 2057 0
-2058 -2144 2059 0
-2058 -2145 2060 0
-2058 -2146 2061 0
-2058 -2147 2062 0
-2058 -2148 2063 0
-2058 -2149 2064 0
-2058 -2150 2065 0
2059 2156 0
-2059 -2156 0
-2059 -2151 2049 0
-2059 -2152 2050 0
-2059 -2153 2051 0
-2059 -2154 2052 0
-2059 -2155 2053 0
-2059 -2157 2054 0
-2059 -2158 2055 0
-2059 -2159 2056 0
-2059 -2160 2057 0
-2059 -2161 2058 0
-2059 -2162 2060 0
-2059 -2163 2061 0
-2059 -2164 2062 0
-2059 -2165 2063 0
-2059 -2166 2064 0
-2059 -2167 2065 0
2060 2173 0
-2060 -2173 0
-2060 -2168 2049 0
-2060 -2169 2050 0
-2060 -2170 2051 0
-2060 -2171 2052 0
-2060 -2172 2053 0
-2060 -2174 2054 0
-2060 -2175 2055 0
-2060 -2176 2056 0
-2060 -2177 2057 0
-2060 -2178 2058 0
-2060 -2179 2059 0
-2060 -2180 2061 0
-2060 -2181 2062 0
-2060 -2182 2063 0
-2060 -2183 2064 0
-2060 -2184 2065 0
2061 2190 0
-2061 -2190 0
-2061 -2185 2049 0
-2061 -2186 2050 0
-2061 -2187 2051 0
-2061 -2188 2052 0
-2061 -2189 2053 0
-2061 -2191 2054 0
-2061 -2192 2055 0
-2061 -2193 2056 0
-2061 -2194 2057 0
-2061 -2195 2058 0
-2061 -2196 2059 0
-2061 -2197 2060 0
-2061 -2198 2062 0
-2061 -2199 2063 0
-2061 -2200 2064 0
-2061 -2201 2065 0
2062 2207 0
-2062 -2207 0
-2062 -2202 2049 0
-2062 -2203 2050 0
-2062 -2204 2051 0
-2062 -2205 2052 0
-2062 -2206 2053 0
-2062 -2208 2054 0
-2062 -2209 2055 0
-2062 -2210 2056 0
-2062 -2211 2057 0
-2062 -2212 2058 0
-2062 -2213 2059 0
-2062 -2214 2060 0
-2062 -2215 2061 0
-2062 -2216 2063 0
-2062 -2217 2064 0
-2062 -2218 2065 0
2063 2224 0
-2063 -2224 0
-2063 -2219 2049 0
-2063 -2220 2050 0
-2063 -2221 2051 0
-2063 -2222 2052 0
-2063 -2223 2053 0
-2063 -2225 2054 0
-2063 -2226 2055 0
-2063 -2227 2056 0
-2063 -2228 2057 0
-2063 -2229 2058 0
-2063 -2230 2059 0
-2063 -2231 2060 0
-2063 -2232 2061 0
-2063 -2233 2062 0
-2063 -2234 2064 0
-2063 -2235 2065 0
2064 2241 0
-2064 -2241 0
-2064 -2236 2049 0
-2064 -2237 2050 0
-2064 -2238 2051 0
-2064 -2239 2052 0
-2064 -2240 2053 0
-2064 -2242 2054 0
-2064 -2243 2055 0
-2064 -2244 2056 0
-2064 -2245 2057 0
-2064 -2246 2058 0
-2064 -2247 2059 0
-2064 -2248 2060 0
-2064 -2249 2061 0
-2064 -2250 2062 0
-2064 -2251 2063 0
-2064 -2252 2065 0
2065 2258 0
-2065 -2258 0
-2065 -2253 2049 0
-2065 -2254 2050 0
-2065 -2255 2051 0
-2065 -2256 2052 0
-2065 -2257 2053 0
-2065 -2259 2054 0
-2065 -2260 2055 0
-2065 -2261 2056 0
-2065 -2262 2057 0
-2065 -2263 2058 0
-2065 -2264 2059 0
-2065 -2265 2060 0
-2065 -2266 2061 0
-2065 -2267 2062 0
-2065 -2268 2063 0
-2065 -2269 2064 0
2275 0
2066 1975 0
-2066 -1975 0
-2066 -1964 2067 0
-2066 -1967 2068 0
-2066 -1969 2069 0
-2066 -1971 2070 0
-2066 -1973 2071 0
-2066 -1977 2072 0
-2066 -1979 2073 0
-2066 -1981 2074 0
-2066 -1983 2075 0
-2066 -1985 2076 0
-2066 -1987 2077 0
-2066 -1989 2078 0
-2066 -1991 2079 0
-2066 -1993 2080 0
-2066 -1995 2081 0
-2066 -1997 2082 0
2067 1974 0
-2067 -1974 0
-2067 -1965 2066 0
-2067 -1966 2068 0
-2067 -1968 2069 0
-2067 -1970 2070 0
-2067 -1972 2071 0
-2067 -1976 2072 0
-2067 -1978 2073 0
-2067 -1980 2074 0
-2067 -1982 2075 0
-2067 -1984 2076 0
-2067 -1986 2077 0
-2067 -1988 2078 0
-2067 -1990 2079 0
-2067 -1992 2080 0
-2067 -1994 2081 0
-2067 -1996 2082 0
2068 2003 0
-2068 -2003 0
-2068 -1998 2066 0
-2068 -1999 2067 0
-2068 -2000 2069 0
-2068 -2001 2070 0
-2068 -2002 2071 0
-2068 -2004 2072 0
-2068 -2005 2073 0
-2068 -2006 2074 0
-2068 -2007 2075 0
-2068 -2008 2076 0
-2068 -2009 2077 0
-2068 -2010 2078 0
-2068 -2011 2079 0
-2068 -2012 2080 0
-2068 -2013 2081 0
-2068 -2014 2082 0
2069 2020 0
-2069 -2020 0
-2069 -2015 2066 0
-2069 -2016 2067 0
-2069 -2017 2068 0
-2069 -2018 2070 0
-2069 -2019 2071 0
-2069 -2021 2072 0
-2069 -2022 2073 0
-2069 -2023 2074 0
-2069 -2024 2075 0
-2069 -2025 2076 0
-2069 -2026 2077 0
-2069 -2027 2078 0
-2069 -2028 2079 0
-2069 -2029 2080 0
-2069 -2030 2081 0
-2069 -2031 2082 0
2070 2037 0
-2070 -2037 0
-2070 -2032 2066 0
-2070 -2033 2067 0
-2070 -2034 2068 0
-2070 -2035 2069 0
-2070 -2036 2071 0
-2070 -2038 2072 0
-2070 -2039 2073 0
-2070 -2040 2074 0
-2070 -2041 2075 0
-2070 -2042 2076 0
-2070 -2043 2077 0
-2070 -2044 2078 0
-2070 -2045 2079 0
-2070 -2046 2080 0
-2070 -2047 2081 0
-2070 -2048 2082 0
2071 2054 0
-2071 -2054 0
-2071 -2049 2066 0
-2071 -2050 2067 0
-2071 -2051 2068 0
-2071 -2052 2069 0
-2071 -2053 2070 0
-2071 -2055 2072 0
-2071 -2056 2073 0
-2071 -2057 2074 0
-2071 -2058 2075 0
-2071 -2059 2076 0
-2071 -2060 2077 0
-2071 -2061 2078 0
-2071 -2062 2079 0
-2071 -2063 2080 0
-2071 -2064 2081 0
-2071 -2065 2082 0
2072 2089 0
-2072 -2089 0
-2072 -2083 2066 0
-2072 -2084 2067 0
-2072 -2085 2068 0
-2072 -2086 2069 0
-2072 -2087 2070 0
-2072 -2088 2071 0
-2072 -2090 2073 0
-2072 -2091 2074 0
-2072 -2092 2075 0
-2072 -2093 2076 0
-2072 -2094 2077 0
-2072 -2095 2078 0
-2072 -2096 2079 0
-2072 -2097 2080 0
-2072 -2098 2081 0
-2072 -2099 2082 0
2073 2106 0
-2073 -2106 0
-2073 -2100 2066 0
-2073 -2101 2067 0
-2073 -2102 2068 0
-2073 -2103 2069 0
-2073 -2104 2070 0
-2073 -2105 2071 0
-2073 -2107 2072 0
-2073 -2108 2074 0
-2073 -2109 2075 0
-2073 -2110 2076 0
-2073 -2111 2077 0
-2073 -2112 2078 0
-2073 -2113 2079 0
-2073 -2114 2080 0
-2073 -2115 2081 0
-2073 -2116 2082 0
2074 2123 0
-2074 -2123 0
-2074 -2117 2066 0
-2074 -2118 2067 0
-2074 -2119 2068 0
-2074 -2120 2069 0
-2074 -2121 2070 0
-2074 -2122 2071 0
-2074 -2124 2072 0
-2074 -2125 2073 0
-2074 -2126 2075 0
-2074 -2127 2076 0
-2074 -2128 2077 0
-2074 -2129 2078 0
-2074 -2130 2079 0
-2074 -2131 2080 0
-2074 -2132 2081 0
-2074 -2133 2082 0
2075 2140 0
-2075 -2140 0
-2075 -2134 2066 0
-2075 -2135 2067 0
-2075 -2136 2068 0
-2075 -2137 2069 0
-2075 -2138 2070 0
-2075 -2139 2071 0
-2075 -2141 2072 0
-2075 -2142 2073 0
-2075 -2143 2074 0
-2075 -2144 2076 0
-2075 -2145 2077 0
-2075 -2146 2078 0
-2075 -2147 2079 0
-2075 -2148 2080 0
-2075 -2149 2081 0
-2075 -2150 2082 0
2076 2157 0
-2076 -2157 0
-2076 -2151 2066 0
-2076 -2152 2067 0
-2076 -2153 2068 0
-2076 -2154 2069 0
-2076 -2155 2070 0
-2076 -2156 2071 0
-2076 -2158 2072 0
-2076 -2159 2073 0
-2076 -2160 2074 0
-2076 -2161 2075 0
-2076 -2162 2077 0
-2076 -2163 2078 0
-2076 -2164 2079 0
-2076 -2165 2080 0
-2076 -2166 2081 0
-2076 -2167 2082 0
2077 2174 0
-2077 -2174 0
-2077 -2168 2066 0
-2077 -2169 2067 0
-2077 -2170 2068 0
-2077 -2171 2069 0
-2077 -2172 2070 0
-2077 -2173 2071 0
-2077 -2175 2072 0
-2077 -2176 2073 0
-2077 -2177 2074 0
-2077 -2178 2075 0
-2077 -2179 2076 0
-2077 -2180 2078 0
-2077 -2181 2079 0
-2077 -2182 2080 0
-2077 -2183 2081 0
-2077 -2184 2082 0
2078 2191 0
-2078 -2191 0
-2078 -2185 2066 0
-2078 -2186 2067 0
-2078 -2187 2068 0
-2078 -2188 2069 0
-2078 -2189 2070 0
-2078 -2190 2071 0
-2078 -2192 2072 0
-2078 -2193 2073 0
-2078 -2194 2074 0
-2078 -2195 2075 0
-2078 -2196 2076 0
-2078 -2197 2077 0
-2078 -2198 2079 0
-2078 -2199 2080 0
-2078 -2200 2081 0
-2078 -2201 2082 0
2079 2208 0
-2079 -2208 0
-2079 -2202 2066 0
-2079 -2203 2067 0
-2079 -2204 2068 0
-2079 -2205 2069 0
-2079 -2206 2070 0
-2079 -2207 2071 0
-2079 -2209 2072 0
-2079 -2210 2073 0
-2079 -2211 2074 0
-2079 -2212 2075 0
-2079 -2213 2076 0
-2079 -2214 2077 0
-2079 -2215 2078 0
-2079 -2216 2080 0
-2079 -2217 2081 0
-2079 -2218 2082 0
2080 2225 0
-2080 -2225 0
-2080 -2219 2066 0
-2080 -2220 2067 0
-2080 -2221 2068 0
-2080 -2222 2069 0
-2080 -2223 2070 0
-2080 -2224 2071 0
-2080 -2226 2072 0
-2080 -2227 2073 0
-2080 -2228 2074 0
-2080 -2229 2075 0
-2080 -2230 2076 0
-2080 -2231 2077 0
-2080 -2232 2078 0
-2080 -2233 2079 0
-2080 -2234 2081 0
-2080 -2235 2082 0
2081 2242 0
-2081 -2242 0
-2081 -2236 2066 0
-2081 -2237 2067 0
-2081 -2238 2068 0
-2081 -2239 2069 0
-2081 -2240 2070 0
-2081 -2241 2071 0
-2081 -2243 2072 0
-2081 -2244 2073 0
-2081 -2245 2074 0
-2081 -2246 2075 0
-2081 -2247 2076 0
-2081 -2248 2077 0
-2081 -2249 2078 0
-2081 -2250 2079 0
-2081 -2251 2080 0
-2081 -2252 2082 0
2082 2259 0
-2082 -2259 0
-2082 -2253 2066 0
-2082 -2254 2067 0
-2082 -2255 2068 0
-2082 -2256 2069 0
-2082 -2257 2070 0
-2082 -2258 2071 0
-2082 -2260 2072 0
-2082 -2261 2073 0
-2082 -2262 2074 0
-2082 -2263 2075 0
-2082 -2264 2076 0
-2082 -2265 2077 0
-2082 -2266 2078 0
-2082 -2267 2079 0
-2082 -2268 2080 0
-2082 -2269 2081 0
2276 0
2083 1977 0
-2083 -1977 0
-2083 -1964 2084 0
-2083 -1967 2085 0
-2083 -1969 2086 0
-2083 -1971 2087 0
-2083 -1973 2088 0
-2083 -1975 2089 0
-2083 -1979 2090 0
-2083 -1981 2091 0
-2083 -1983 2092 0
-2083 -1985 2093 0
-2083 -1987 2094 0
-2083 -1989 2095 0
-2083 -1991 2096 0
-2083 -1993 2097 0
-2083 -1995 2098 0
-2083 -1997 2099 0
2084 1976 0
-2084 -1976 0
-2084 -1965 2083 0
-2084 -1966 2085 0
-2084 -1968 2086 0
-2084 -1970 2087 0
-2084 -1972 2088 0
-2084 -1974 2089 0
-2084 -1978 2090 0
-2084 -1980 2091 0
-2084 -1982 2092 0
-2084 -1984 2093 0
-2084 -1986 2094 0
-2084 -1988 2095 0
-2084 -1990 2096 0
-2084 -1992 2097 0
-2084 -1994 2098 0
-2084 -1996 2099 0
2085 2004 0
-2085 -2004 0
-2085 -1998 2083 0
-2085 -1999 2084 0
-2085 -2000 2086 0
-2085 -2001 2087 0
-2085 -2002 2088 0
-2085 -2003 2089 0
-2085 -2005 2090 0
-2085 -2006 2091 0
-2085 -2007 2092 0
-2085 -2008 2093 0
-2085 -2009 2094 0
-2085 -2010 2095 0
-2085 -2011 2096 0
-2085 -2012 2097 0
-2085 -2013 2098 0
-2085 -2014 2099 0
2086 2021 0
-2086 -2021 0
-2086 -2015 2083 0
-2086 -2016 2084 0
-2086 -2017 2085 0
-2086 -2018 2087 0
-2086 -2019 2088 0
-2086 -2020 2089 0
-2086 -2022 2090 0
-2086 -2023 2091 0
-2086 -2024 2092 0
-2086 -2025 2093 0
-2086 -2026 2094 0
-2086 -2027 2095 0
-2086 -2028 2096 0
-2086 -2029 2097 0
-2086 -2030 2098 0
-2086 -2031 2099 0
2087 2038 0
-2087 -2038 0
-2087 -2032 2083 0
-2087 -2033 2084 0
-2087 -2034 2085 0
-2087 -2035 2086 0
-2087 -2036 2088 0
-2087 -2037 2089 0
-2087 -2039 2090 0
-2087 -2040 2091 0
-2087 -2041 2092 0
-2087 -2042 2093 0
-2087 -2043 2094 0
-2087 -2044 2095 0
-2087 -2045 2096 0
-2087 -2046 2097 0
-2087 -2047 2098 0
-2087 -2048 2099 0
2088 2055 0
-2088 -2055 0
-2088 -2049 2083 0
-2088 -2050 2084 0
-2088 -2051 2085 0
-2088 -2052 2086 0
-2088 -2053 2087 0
-2088 -2054 2089 0
-2088 -2056 2090 0
-2088 -2057 2091 0
-2088 -2058 2092 0
-2088 -2059 2093 0
-2088 -2060 2094 0
-2088 -2061 2095 0
-2088 -2062 2096 0
-2088 -2063 2097 0
-2088 -2064 2098 0
-2088 -2065 2099 0
2089 2072 0
-2089 -2072 0
-2089 -2066 2083 0
-2089 -2067 2084 0
-2089 -2068 2085 0
-2089 -2069 2086 0
-2089 -2070 2087 0
-2089 -2071 2088 0
-2089 -2073 2090 0
-2089 -2074 2091 0
-2089 -2075 2092 0
-2089 -2076 2093 0
-2089 -2077 2094 0
-2089 -2078 2095 0
-2089 -2079 2096 0
-2089 -2080 2097 0
-2089 -2081 2098 0
-2089 -2082 2099 0
2090 2107 0
-2090 -2107 0
-2090 -2100 2083 0
-2090 -2101 2084 0
-2090 -2102 2085 0
-2090 -2103 2086 0
-2090 -2104 2087 0
-2090 -2105 2088 0
-2090 -2106 2089 0
-2090 -2108 2091 0
-2090 -2109 2092 0
-2090 -2110 2093 0
-2090 -2111 2094 0
-2090 -2112 2095 0
-2090 -2113 2096 0
-2090 -2114 2097 0
-2090 -2115 2098 0
-2090 -2116 2099 0
2091 2124 0
-2091 -2124 0
-2091 -2117 2083 0
-2091 -2118 2084 0
-2091 -2119 2085 0
-2091 -2120 2086 0
-2091 -2121 2087 0
-2091 -2122 2088 0
-2091 -2123 2089 0
-2091 -2125 2090 0
-2091 -2126 2092 0
-2091 -2127 2093 0
-2091 -2128 2094 0
-2091 -2129 2095 0
-2091 -2130 2096 0
-2091 -2131 2097 0
-2091 -2132 2098 0
-2091 -2133 2099 0
2092 2141 0
-2092 -2141 0
-2092 -2134 2083 0
-2092 -2135 2084 0
-2092 -2136 2085 0
-2092 -2137 2086 0
-2092 -2138 2087 0
-2092 -2139 2088 0
-2092 -2140 2089 0
-2092 -2142 2090 0
-2092 -2143 2091 0
-2092 -2144 2093 0
-2092 -2145 2094 0
-2092 -2146 2095 0
-2092 -2147 2096 0
-2092 -2148 2097 0
-2092 -2149 2098 0
-2092 -2150 2099 0
2093 2158 0
-2093 -2158 0
-2093 -2151 2083 0
-2093 -2152 2084 0
-2093 -2153 2085 0
-2093 -2154 2086 0
-2093 -2155 2087 0
-2093 -2156 2088 0
-2093 -2157 2089 0
-2093 -2159 2090 0
-2093 -2160 2091 0
-2093 -2161 2092 0
-2093 -2162 2094 0
-2093 -2163 2095 0
-2093 -2164 2096 0
-2093 -2165 2097 0
-2093 -2166 2098 0
-2093 -2167 2099 0
2094 2175 0
-2094 -2175 0
-2094 -2168 2083 0
-2094 -2169 2084 0
-2094 -2170 2085 0
-2094 -2171 2086 0
-2094 -2172 2087 0
-2094 -2173 2088 0
-2094 -2174 2089 0
-2094 -2176 2090 0
-2094 -2177 2091 0
-2094 -2178 2092 0
-2094 -2179 2093 0
-2094 -2180 2095 0
-2094 -2181 2096 0
-2094 -2182 2097 0
-2094 -2183 2098 0
-2094 -2184 2099 0
2095 2192 0
-2095 -2192 0
-2095 -2185 2083 0
-2095 -2186 2084 0
-2095 -2187 2085 0
-2095 -2188 2086 0
-2095 -2189 2087 0
-2095 -2190 2088 0
-2095 -2191 2089 0
-2095 -2193 2090 0
-2095 -2194 2091 0
-2095 -2195 2092 0
-2095 -2196 2093 0
-2095 -2197 2094 0
-2095 -2198 2096 0
-2095 -2199 2097 0
-2095 -2200 2098 0
-2095 -2201 2099 0
2096 2209 0
-2096 -2209 0
-2096 -2202 2083 0
-2096 -2203 2084 0
-2096 -2204 2085 0
-2096 -2205 2086 0
-2096 -2206 2087 0
-2096 -2207 2088 0
-2096 -2208 2089 0
-2096 -2210 2090 0
-2096 -2211 2091 0
-2096 -2212 2092 0
-2096 -2213 2093 0
-2096 -2214 2094 0
-2096 -2215 2095 0
-2096 -2216 2097 0
-2096 -2217 2098 0
-2096 -2218 2099 0
2097 2226 0
-2097 -2226 0
-2097 -2219 2083 0
-2097 -2220 2084 0
-2097 -2221 2085 0
-2097 -2222 2086 0
-2097 -2223 2087 0
-2097 -2224 2088 0
-2097 -2225 2089 0
-2097 -2227 2090 0
-2097 -2228 2091 0
-2097 -2229 2092 0
-2097 -2230 2093 0
-2097 -2231 2094 0
-2097 -2232 2095 0
-2097 -2233 2096 0
-2097 -2234 2098 0
-2097 -2235 2099 0
2098 2243 0
-2098 -2243 0
-2098 -2236 2083 0
-2098 -2237 2084 0
-2098 -2238 2085 0
-2098 -2239 2086 0
-2098 -2240 2087 0
-2098 -2241 2088 0
-2098 -2242 2089 0
-2098 -2244 2090 0
-2098 -2245 2091 0
-2098 -2246 2092 0
-2098 -2247 2093 0
-2098 -2248 2094 0
-2098 -2249 2095 0
-2098 -2250 2096 0
-2098 -2251 2097 0
-2098 -2252 2099 0
2099 2260 0
-2099 -2260 0
-2099 -2253 2083 0
-2099 -2254 2084 0
-2099 -2255 2085 0
-2099 -2256 2086 0
-2099 -2257 2087 0
-2099 -2258 2088 0
-2099 -2259 2089 0
-2099 -2261 2090 0
-2099 -2262 2091 0
-2099 -2263 2092 0
-2099 -2264 2093 0
-2099 -2265 2094 0
-2099 -2266 2095 0
-2099 -2267 2096 0
-2099 -2268 2097 0
-2099 -2269 2098 0
2277 0
2100 1979 0
-2100 -1979 0
-2100 -1964 2101 0
-2100 -1967 2102 0
-2100 -1969 2103 0
-2100 -1971 2104 0
-2100 -1973 2105 0
-2100 -1975 2106 0
-2100 -1977 2107 0
-2100 -1981 2108 0
-2100 -1983 2109 0
-2100 -1985 2110 0
-2100 -1987 2111 0
-2100 -1989 2112 0
-2100 -1991 2113 0
-2100 -1993 2114 0
-2100 -1995 2115 0
-2100 -1997 2116 0
2101 1978 0
-2101 -1978 0
-2101 -1965 2100 0
-2101 -1966 2102 0
-2101 -1968 2103 0
-2101 -1970 2104 0
-2101 -1972 2105 0
-2101 -1974 2106 0
-2101 -1976 2107 0
-2101 -1980 2108 0
-2101 -1982 2109 0
-2101 -1984 2110 0
-2101 -1986 2111 0
-2101 -1988 2112 0
-2101 -1990 2113 0
-2101 -1992 2114 0
-2101 -1994 2115 0
-2101 -1996 2116 0
2102 2005 0
-2102 -2005 0
-2102 -1998 2100 0
-2102 -1999 2101 0
-2102 -2000 2103 0
-2102 -2001 2104 0
-2102 -2002 2105 0
-2102 -2003 2106 0
-2102 -2004 2107 0
-2102 -2006 2108 0
-2102 -2007 2109 0
-2102 -2008 2110 0
-2102 -2009 2111 0
-2102 -2010 2112 0
-2102 -2011 2113 0
-2102 -2012 2114 0
-2102 -2013 2115 0
-2102 -2014 2116 0
2103 2022 0
-2103 -2022 0
-2103 -2015 2100 0
-2103 -2016 2101 0
-2103 -2017 2102 0
-2103 -2018 2104 0
-2103 -2019 2105 0
-2103 -2020 2106 0
-2103 -2021 2107 0
-2103 -2023 2108 0
-2103 -2024 2109 0
-2103 -2025 2110 0
-2103 -2026 2111 0
-2103 -2027 2112 0
-2103 -2028 2113 0
-2103 -2029 2114 0
-2103 -2030 2115 0
-2103 -2031 2116 0
2104 2039 0
-2104 -2039 0
-2104 -2032 2100 0
-2104 -2033 2101 0
-2104 -2034 2102 0
-2104 -2035 2103 0
-2104 -2036 2105 0
-2104 -2037 2106 0
-2104 -2038 2107 0
-2104 -2040 2108 0
-2104 -2041 2109 0
-2104 -2042 2110 0
-2104 -2043 2111 0
-2104 -2044 2112 0
-2104 -2045 2113 0
-2104 -2046 2114 0
-2104 -2047 2115 0
-2104 -2048 2116 0
2105 2056 0
-2105 -2056 0
-2105 -2049 2100 0
-2105 -2050 2101 0
-2105 -2051 2102 0
-2105 -2052 2103 0
-2105 -2053 2104 0
-2105 -2054 2106 0
-2105 -2055 2107 0
-2105 -2057 2108 0
-2105 -2058 2109 0
-2105 -2059 2110 0
-2105 -2060 2111 0
-2105 -2061 2112 0
-2105 -2062 2113 0
-2105 -2063 2114 0
-2105 -2064 2115 0
-2105 -2065 2116 0
2106 2073 0
-2106 -2073 0
-2106 -2066 2100 0
-2106 -2067 2101 0
-2106 -2068 2102 0
-2106 -2069 2103 0
-2106 -2070 2104 0
-2106 -2071 2105 0
-2106 -2072 2107 0
-2106 -2074 2108 0
-2106 -2075 2109 0
-2106 -2076 2110 0
-2106 -2077 2111 0
-2106 -2078 2112 0
-2106 -2079 2113 0
-2106 -2080 2114 0
-2106 -2081 2115 0
-2106 -2082 2116 0
2107 2090 0
-2107 -2090 0
-2107 -2083 2100 0
-2107 -2084 2101 0
-2107 -2085 2102 0
-2107 -2086 2103 0
-2107 -2087 2104 0
-2107 -2088 2105 0
-2107 -2089 2106 0
-2107 -2091 2108 0
-2107 -2092 2109 0
-2107 -2093 2110 0
-2107 -2094 2111 0
-2107 -2095 2112 0
-2107 -2096 2113 0
-2107 -2097 2114 0
-2107 -2098 2115 0
-2107 -2099 2116 0
2108 2125 0
-2108 -2125 0
-2108 -2117 2100 0
-2108 -2118 2101 0
-2108 -2119 2102 0
-2108 -2120 2103 0
-2108 -2121 2104 0
-2108 -2122 2105 0
-2108 -2123 2106 0
-2108 -2124 2107 0
-2108 -2126 2109 0
-2108 -2127 2110 0
-2108 -2128 2111 0
-2108 -2129 2112 0
-2108 -2130 2113 0
-2108 -2131 2114 0
-2108 -2132 2115 0
-2108 -2133 2116 0
2109 2142 0
-2109 -2142 0
-2109 -2134 2100 0
-2109 -2135 2101 0
-2109 -2136 2102 0
-2109 -2137 2103 0
-2109 -2138 2104 0
-2109 -2139 2105 0
-2109 -2140 2106 0
-2109 -2141 2107 0
-2109 -2143 2108 0
-2109 -2144 2110 0
-2109 -2145 2111 0
-2109 -2146 2112 0
-2109 -2147 2113 0
-2109 -2148 2114 0
-2109 -2149 2115 0
-2109 -2150 2116 0
2110 2159 0
-2110 -2159 0
-2110 -2151 2100 0
-2110 -2152 2101 0
-2110 -2153 2102 0
-2110 -2154 2103 0
-2110 -2155 2104 0
-2110 -2156 2105 0
-2110 -2157 2106 0
-2110 -2158 2107 0
-2110 -2160 2108 0
-2110 -2161 2109 0
-2110 -2162 2111 0
-2110 -2163 2112 0
-2110 -2164 2113 0
-2110 -2165 2114 0
-2110 -2166 2115 0
-2110 -2167 2116 0
2111 2176 0
-2111 -2176 0
-2111 -2168 2100 0
-2111 -2169 2101 0
-2111 -2170 2102 0
-2111 -2171 2103 0
-2111 -2172 2104 0
-2111 -2173 2105 0
-2111 -2174 2106 0
-2111 -2175 2107 0
-2111 -2177 2108 0
-2111 -2178 2109 0
-2111 -2179 2110 0
-2111 -2180 2112 0
-2111 -2181 2113 0
-2111 -2182 2114 0
-2111 -2183 2115 0
-2111 -2184 2116 0
2112 2193 0
-2112 -2193 0
-2112 -2185 2100 0
-2112 -2186 2101 0
-2112 -2187 2102 0
-2112 -2188 2103 0
-2112 -2189 2104 0
-2112 -2190 2105 0
-2112 -2191 2106 0
-2112 -2192 2107 0
-2112 -2194 2108 0
-2112 -2195 2109 0
-2112 -2196 2110 0
-2112 -2197 2111 0
-2112 -2198 2113 0
-2112 -2199 2114 0
-2112 -2200 2115 0
-2112 -2201 2116 0
2113 2210 0
-2113 -2210 0
-2113 -2202 2100 0
-2113 -2203 2101 0
-2113 -2204 2102 0
-2113 -2205 2103 0
-2113 -2206 2104 0
-2113 -2207 2105 0
-2113 -2208 2106 0
-2113 -2209 2107 0
-2113 -2211 2108 0
-2113 -2212 2109 0
-2113 -2213 2110 0
-2113 -2214 2111 0
-2113 -2215 2112 0
-2113 -2216 2114 0
-2113 -2217 2115 0
-2113 -2218 2116 0
2114 2227 0
-2114 -2227 0
-2114 -2219 2100 0
-2114 -2220 2101 0
-2114 -2221 2102 0
-2114 -2222 2103 0
-2114 -2223 2104 0
-2114 -2224 2105 0
-2114 -2225 2106 0
-2114 -2226 2107 0
-2114 -2228 2108 0
-2114 -2229 2109 0
-2114 -2230 2110 0
-2114 -2231 2111 0
-2114 -2232 2112 0
-2114 -2233 2113 0
-2114 -2234 2115 0
-2114 -2235 2116 0
2115 2244 0
-2115 -2244 0
-2115 -2236 2100 0
-2115 -2237 2101 0
-2115 -2238 2102 0
-2115 -2239 2103 0
-2115 -2240 2104 0
-2115 -2241 2105 0
-2115 -2242 2106 0
-2115 -2243 2107 0
-2115 -2245 2108 0
-2115 -2246 2109 0
-2115 -2247 2110 0
-2115 -2248 2111 0
-2115 -2249 2112 0
-2115 -2250 2113 0
-2115 -2251 2114 0
-2115 -2252 2116 0
2116 2261 0
-2116 -2261 0
-2116 -2253 2100 0
-2116 -2254 2101 0
-2116 -2255 2102 0
-2116 -2256 2103 0
-2116 -2257 2104 0
-2116 -2258 2105 0
-2116 -2259 2106 0
-2116 -2260 2107 0
-2116 -2262 2108 0
-2116 -2263 2109 0
-2116 -2264 2110 0
-2116 -2265 2111 0
-2116 -2266 2112 0
-2116 -2267 2113 0
-2116 -2268 2114 0
-2116 -2269 2115 0
2278 0
2117 1981 0
-2117 -1981 0
-2117 -1964 2118 0
-2117 -1967 2119 0
-2117 -1969 2120 0
-2117 -1971 2121 0
-2117 -1973 2122 0
-2117 -1975 2123 0
-2117 -1977 2124 0
-2117 -1979 2125 0
-2117 -1983 2126 0
-2117 -1985 2127 0
-2117 -1987 2128 0
-2117 -1989 2129 0
-2117 -1991 2130 0
-2117 -1993 2131 0
-2117 -1995 2132 0
-2117 -1997 2133 0
2118 1980 0
-2118 -1980 0
-2118 -1965 2117 0
-2118 -1966 2119 0
-2118 -1968 2120 0
-2118 -1970 2121 0
-2118 -1972 2122 0
-2118 -1974 2123 0
-2118 -1976 2124 0
-2118 -1978 2125 0
-2118 -1982 2126 0
-2118 -1984 2127 0
-2118 -1986 2128 0
-2118 -1988 2129 0
-2118 -1990 2130 0
-2118 -1992 2131 0
-2118 -1994 2132 0
-2118 -1996 2133 0
2119 2006 0
-2119 -2006 0
-2119 -1998 2117 0
-2119 -1999 2118 0
-2119 -2000 2120 0
-2119 -2001 2121 0
-2119 -2002 2122 0
-2119 -2003 2123 0
-2119 -2004 2124 0
-2119 -2005 2125 0
-2119 -2007 2126 0
-2119 -2008 2127 0
-2119 -2009 2128 0
-2119 -2010 2129 0
-2119 -2011 2130 0
-2119 -2012 2131 0
-2119 -2013 2132 0
-2119 -2014 2133 0
2120 2023 0
-2120 -2023 0
-2120 -2015 2117 0
-2120 -2016 2118 0
-2120 -2017 2119 0
-2120 -2018 2121 0
-2120 -2019 2122 0
-2120 -2020 2123 0
-2120 -2021 2124 0
-2120 -2022 2125 0
-2120 -2024 2126 0
-2120 -2025 2127 0
-2120 -2026 2128 0
-2120 -2027 2129 0
-2120 -2028 2130 0
-2120 -2029 2131 0
-2120 -2030 2132 0
-2120 -2031 2133 0
2121 2040 0
-2121 -2040 0
-2121 -2032 2117 0
-2121 -2033 2118 0
-2121 -2034 2119 0
-2121 -2035 2120 0
-2121 -2036 2122 0
-2121 -2037 2123 0
-2121 -2038 2124 0
-2121 -2039 2125 0
-2121 -2041 2126 0
-2121 -2042 2127 0
-2121 -2043 2128 0
-2121 -2044 2129 0
-2121 -2045 2130 0
-2121 -2046 2131 0
-2121 -2047 2132 0
-2121 -2048 2133 0
2122 2057 0
-2122 -2057 0
-2122 -2049 2117 0
-2122 -2050 2118 0
-2122 -2051 2119 0
-2122 -2052 2120 0
-2122 -2053 2121 0
-2122 -2054 2123 0
-2122 -2055 2124 0
-2122 -2056 2125 0
-2122 -2058 2126 0
-2122 -2059 2127 0
-2122 -2060 2128 0
-2122 -2061 2129 0
-2122 -2062 2130 0
-2122 -2063 2131 0
-2122 -2064 2132 0
-2122 -2065 2133 0
2123 2074 0
-2123 -2074 0
-2123 -2066 2117 0
-2123 -2067 2118 0
-2123 -2068 2119 0
-2123 -2069 2120 0
-2123 -2070 2121 0
-2123 -2071 2122 0
-2123 -2072 2124 0
-2123 -2073 2125 0
-2123 -2075 2126 0
-2123 -2076 2127 0
-2123 -2077 2128 0
-2123 -2078 2129 0
-2123 -2079 2130 0
-2123 -2080 2131 0
-2123 -2081 2132 0
-2123 -2082 2133 0
2124 2091 0
-2124 -2091 0
-2124 -2083 2117 0
-2124 -2084 2118 0
-2124 -2085 2119 0
-2124 -2086 2120 0
-2124 -2087 2121 0
-2124 -2088 2122 0
-2124 -2089 2123 0
-2124 -2090 2125 0
-2124 -2092 2126 0
-2124 -2093 2127 0
-2124 -2094 2128 0
-2124 -2095 2129 0
-2124 -2096 2130 0
-2124 -2097 2131 0
-2124 -2098 2132 0
-2124 -2099 2133 0
2125 2108 0
-2125 -2108 0
-2125 -2100 2117 0
-2125 -2101 2118 0
-2125 -2102 2119 0
-2125 -2103 2120 0
-2125 -2104 2121 0
-2125 -2105 2122 0
-2125 -2106 2123 0
-2125 -2107 2124 0
-2125 -2109 2126 0
-2125 -2110 2127 0
-2125 -2111 2128 0
-2125 -2112 2129 0
-2125 -2113 2130 0
-2125 -2114 2131 0
-2125 -2115 2132 0
-2125 -2116 2133 0
2126 2143 0
-2126 -2143 0
-2126 -2134 2117 0
-2126 -2135 2118 0
-2126 -2136 2119 0
-2126 -2137 2120 0
-2126 -2138 2121 0
-2126 -2139 2122 0
-2126 -2140 2123 0
-2126 -2141 2124 0
-2126 -2142 2125 0
-2126 -2144 2127 0
-2126 -2145 2128 0
-2126 -2146 2129 0
-2126 -2147 2130 0
-2126 -2148 2131 0
-2126 -2149 2132 0
-2126 -2150 2133 0
2127 2160 0
-2127 -2160 0
-2127 -2151 2117 0
-2127 -2152 2118 0
-2127 -2153 2119 0
-2127 -2154 2120 0
-2127 -2155 2121 0
-2127 -2156 2122 0
-2127 -2157 2123 0
-2127 -2158 2124 0
-2127 -2159 2125 0
-2127 -2161 2126 0
-2127 -2162 2128 0
-2127 -2163 2129 0
-2127 -2164 2130 0
-2127 -2165 2131 0
-2127 -2166 2132 0
-2127 -2167 2133 0
2128 2177 0
-2128 -2177 0
-2128 -2168 2117 0
-2128 -2169 2118 0
-2128 -2170 2119 0
-2128 -2171 2120 0
-2128 -2172 2121 0
-2128 -2173 2122 0
-2128 -2174 2123 0
-2128 -2175 2124 0
-2128 -2176 2125 0
-2128 -2178 2126 0
-2128 -2179 2127 0
-2128 -2180 2129 0
-2128 -2181 2130 0
-2128 -2182 2131 0
-2128 -2183 2132 0
-2128 -2184 2133 0
2129 2194 0
-2129 -2194 0
-2129 -2185 2117 0
-2129 -2186 2118 0
-2129 -2187 2119 0
-2129 -2188 2120 0
-2129 -2189 2121 0
-2129 -2190 2122 0
-2129 -2191 2123 0
-2129 -2192 2124 0
-2129 -2193 2125 0
-2129 -2195 2126 0
-2129 -2196 2127 0
-2129 -2197 2128 0
-2129 -2198 2130 0
-2129 -2199 2131 0
-2129 -2200 2132 0
-2129 -2201 2133 0
2130 2211 0
-2130 -2211 0
-2130 -2202 2117 0
-2130 -2203 2118 0
-2130 -2204 2119 0
-2130 -2205 2120 0
-2130 -2206 2121 0
-2130 -2207 2122 0
-2130 -2208 2123 0
-2130 -2209 2124 0
-2130 -2210 2125 0
-2130 -2212 2126 0
-2130 -2213 2127 0
-2130 -2214 2128 0
-2130 -2215 2129 0
-2130 -2216 2131 0
-2130 -2217 2132 0
-2130 -2218 2133 0
2131 2228 0
-2131 -2228 0
-2131 -2219 2117 0
-2131 -2220 2118 0
-2131 -2221 2119 0
-2131 -2222 2120 0
-2131 -2223 2121 0
-2131 -2224 2122 0
-2131 -2225 2123 0
-2131 -2226 2124 0
-2131 -2227 2125 0
-2131 -2229 2126 0
-2131 -2230 2127 0
-2131 -2231 2128 0
-2131 -2232 2129 0
-2131 -2233 2130 0
-2131 -2234 2132 0
-2131 -2235 2133 0
2132 2245 0
-2132 -2245 0
-2132 -2236 2117 0
-2132 -2237 2118 0
-2132 -2238 2119 0
-2132 -2239 2120 0
-2132 -2240 2121 0
-2132 -2241 2122 0
-2132 -2242 2123 0
-2132 -2243 2124 0
-2132 -2244 2125 0
-2132 -2246 2126 0
-2132 -2247 2127 0
-2132 -2248 2128 0
-2132 -2249 2129 0
-2132 -2250 2130 0
-2132 -2251 2131 0
-2132 -2252 2133 0
2133 2262 0
-2133 -2262 0
-2133 -2253 2117 0
-2133 -2254 2118 0
-2133 -2255 2119 0
-2133 -2256 2120 0
-2133 -2257 2121 0
-2133 -2258 2122 0
-2133 -2259 2123 0
-2133 -2260 2124 0
-2133 -2261 2125 0
-2133 -2263 2126 0
-2133 -2264 2127 0
-2133 -2265 2128 0
-2133 -2266 2129 0
-2133 -2267 2130 0
-2133 -2268 2131 0
-2133 -2269 2132 0
2279 0
2134 1983 0
-2134 -1983 0
-2134 -1964 2135 0
-2134 -1967 2136 0
-2134 -1969 2137 0
-2134 -1971 2138 0
-2134 -1973 2139 0
-2134 -1975 2140 0
-2134 -1977 2141 0
-2134 -1979 2142 0
-2134 -1981 2143 0
-2134 -1985 2144 0
-2134 -1987 2145 0
-2134 -1989 2146 0
-2134 -1991 2147 0
-2134 -1993 2148 0
-2134 -1995 2149 0
-2134 -1997 2150 0
2135 1982 0
-2135 -1982 0
-2135 -1965 2134 0
-2135 -1966 2136 0
-2135 -1968 2137 0
-2135 -1970 2138 0
-2135 -1972 2139 0
-2135 -1974 2140 0
-2135 -1976 2141 0
-2135 -1978 2142 0
-2135 -1980 2143 0
-2135 -1984 2144 0
-2135 -1986 2145 0
-2135 -1988 2146 0
-2135 -1990 2147 0
-2135 -1992 2148 0
-2135 -1994 2149 0
-2135 -1996 2150 0
2136 2007 0
-2136 -2007 0
-2136 -1998 2134 0
-2136 -1999 2135 0
-2136 -2000 2137 0
-2136 -2001 2138 0
-2136 -2002 2139 0
-2136 -2003 2140 0
-2136 -2004 2141 0
-2136 -2005 2142 0
-2136 -2006 2143 0
-2136 -2008 2144 0
-2136 -2009 2145 0
-2136 -2010 2146 0
-2136 -2011 2147 0
-2136 -2012 2148 0
-2136 -2013 2149 0
-2136 -2014 2150 0
2137 2024 0
-2137 -2024 0
-2137 -2015 2134 0
-2137 -2016 2135 0
-2137 -2017 2136 0
-2137 -2018 2138 0
-2137 -2019 2139 0
-2137 -2020 2140 0
-2137 -2021 2141 0
-2137 -2022 2142 0
-2137 -2023 2143 0
-2137 -2025 2144 0
-2137 -2026 2145 0
-2137 -2027 2146 0
-2137 -2028 2147 0
-2137 -2029 2148 0
-2137 -2030 2149 0
-2137 -2031 2150 0
2138 2041 0
-2138 -2041 0
-2138 -2032 2134 0
-2138 -2033 2135 0
-2138 -2034 2136 0
-2138 -2035 2137 0
-2138 -2036 2139 0
-2138 -2037 2140 0
-2138 -2038 2141 0
-2138 -2039 2142 0
-2138 -2040 2143 0
-2138 -2042 2144 0
-2138 -2043 2145 0
-2138 -2044 2146 0
-2138 -2045 2147 0
-2138 -2046 2148 0
-2138 -2047 2149 0
-2138 -2048 2150 0
2139 2058 0
-2139 -2058 0
-2139 -2049 2134 0
-2139 -2050 2135 0
-2139 -2051 2136 0
-2139 -2052 2137 0
-2139 -2053 2138 0
-2139 -2054 2140 0
-2139 -2055 2141 0
-2139 -2056 2142 0
-2139 -2057 2143 0
-2139 -2059 2144 0
-2139 -2060 2145 0
-2139 -2061 2146 0
-2139 -2062 2147 0
-2139 -2063 2148 0
-2139 -2064 2149 0
-2139 -2065 2150 0
2140 2075 0
-2140 -2075 0
-2140 -2066 2134 0
-2140 -2067 2135 0
-2140 -2068 2136 0
-2140 -2069 2137 0
-2140 -2070 2138 0
-2140 -2071 2139 0
-2140 -2072 2141 0
-2140 -2073 2142 0
-2140 -2074 2143 0
-2140 -2076 2144 0
-2140 -2077 2145 0
-2140 -2078 2146 0
-2140 -2079 2147 0
-2140 -2080 2148 0
-2140 -2081 2149 0
-2140 -2082 2150 0
2141 2092 0
-2141 -2092 0
-2141 -2083 2134 0
-2141 -2084 2135 0
-2141 -2085 2136 0
-2141 -2086 2137 0
-2141 -2087 2138 0
-2141 -2088 2139 0
-2141 -2089 2140 0
-2141 -2090 2142 0
-2141 -2091 2143 0
-2141 -2093 2144 0
-2141 -2094 2145 0
-2141 -2095 2146 0
-2141 -2096 2147 0
-2141 -2097 2148 0
-2141 -2098 2149 0
-2141 -2099 2150 0
2142 2109 0
-2142 -2109 0
-2142 -2100 2134 0
-2142 -2101 2135 0
-2142 -2102 2136 0
-2142 -2103 2137 0
-2142 -2104 2138 0
-2142 -2105 2139 0
-2142 -2106 2140 0
-2142 -2107 2141 0
-2142 -2108 2143 0
-2142 -2110 2144 0
-2142 -2111 2145 0
-2142 -2112 2146 0
-2142 -2113 2147 0
-2142 -2114 2148 0
-2142 -2115 2149 0
-2142 -2116 2150 0
2143 2126 0
-2143 -2126 0
-2143 -2117 2134 0
-2143 -2118 2135 0
-2143 -2119 2136 0
-2143 -2120 2137 0
-2143 -2121 2138 0
-2143 -2122 2139 0
-2143 -2123 2140 0
-2143 -2124 2141 0
-2143 -2125 2142 0
-2143 -2127 2144 0
-2143 -2128 2145 0
-2143 -2129 2146 0
-2143 -2130 2147 0
-2143 -2131 2148 0
-2143 -2132 2149 0
-2143 -2133 2150 0
2144 2161 0
-2144 -2161 0
-2144 -2151 2134 0
-2144 -2152 2135 0
-2144 -2153 2136 0
-2144 -2154 2137 0
-2144 -2155 2138 0
-2144 -2156 2139 0
-2144 -2157 2140 0
-2144 -2158 2141 0
-2144 -2159 2142 0
-2144 -2160 2143 0
-2144 -2162 2145 0
-2144 -2163 2146 0
-2144 -2164 2147 0
-2144 -2165 2148 0
-2144 -2166 2149 0
-2144 -2167 2150 0
2145 2178 0
-2145 -2178 0
-2145 -2168 2134 0
-2145 -2169 2135 0
-2145 -2170 2136 0
-2145 -2171 2137 0
-2145 -2172 2138 0
-2145 -2173 2139 0
-2145 -2174 2140 0
-2145 -2175 2141 0
-2145 -2176 2142 0
-2145 -2177 2143 0
-2145 -2179 2144 0
-2145 -2180 2146 0
-2145 -2181 2147 0
-2145 -2182 2148 0
-2145 -2183 2149 0
-2145 -2184 2150 0
2146 2195 0
-2146 -2195 0
-2146 -2185 2134 0
-2146 -2186 2135 0
-2146 -2187 2136 0
-2146 -2188 2137 0
-2146 -2189 2138 0
-2146 -2190 2139 0
-2146 -2191 2140 0
-2146 -2192 2141 0
-2146 -2193 2142 0
-2146 -2194 2143 0
-2146 -2196 2144 0
-2146 -2197 2145 0
-2146 -2198 2147 0
-2146 -2199 2148 0
-2146 -2200 2149 0
-2146 -2201 2150 0
2147 2212 0
-2147 -2212 0
-2147 -2202 2134 0
-2147 -2203 2135 0
-2147 -2204 2136 0
-2147 -2205 2137 0
-2147 -2206 2138 0
-2147 -2207 2139 0
-2147 -2208 2140 0
-2147 -2209 2141 0
-2147 -2210 2142 0
-2147 -2211 2143 0
-2147 -2213 2144 0
-2147 -2214 2145 0
-2147 -2215 2146 0
-2147 -2216 2148 0
-2147 -2217 2149 0
-2147 -2218 2150 0
2148 2229 0
-2148 -2229 0
-2148 -2219 2134 0
-2148 -2220 2135 0
-2148 -2221 2136 0
-2148 -2222 2137 0
-2148 -2223 2138 0
-2148 -2224 2139 0
-2148 -2225 2140 0
-2148 -2226 2141 0
-2148 -2227 2142 0
-2148 -2228 2143 0
-2148 -2230 2144 0
-2148 -2231 2145 0
-2148 -2232 2146 0
-2148 -2233 2147 0
-2148 -2234 2149 0
-2148 -2235 2150 0
2149 2246 0
-2149 -2246 0
-2149 -2236 2134 0
-2149 -2237 2135 0
-2149 -2238 2136 0
-2149 -2239 2137 0
-2149 -2240 2138 0
-2149 -2241 2139 0
-2149 -2242 2140 0
-2149 -2243 2141 0
-2149 -2244 2142 0
-2149 -2245 2143 0
-2149 -2247 2144 0
-2149 -2248 2145 0
-2149 -2249 2146 0
-2149 -2250 2147 0
-2149 -2251 2148 0
-2149 -2252 2150 0
2150 2263 0
-2150 -2263 0
-2150 -2253 2134 0
-2150 -2254 2135 0
-2150 -2255 2136 0
-2150 -2256 2137 0
-2150 -2257 2138 0
-2150 -2258 2139 0
-2150 -2259 2140 0
-2150 -2260 2141 0
-2150 -2261 2142 0
-2150 -2262 2143 0
-2150 -2264 2144 0
-2150 -2265 2145 0
-2150 -2266 2146 0
-2150 -2267 2147 0
-2150 -2268 2148 0
-2150 -2269 2149 0
2280 0
2151 1985 0
-2151 -1985 0
-2151 -1964 2152 0
-2151 -1967 2153 0
-2151 -1969 2154 0
-2151 -1971 2155 0
-2151 -1973 2156 0
-2151 -1975 2157 0
-2151 -1977 2158 0
-2151 -1979 2159 0
-2151 -1981 2160 0
-2151 -1983 2161 0
-2151 -1987 2162 0
-2151 -1989 2163 0
-2151 -1991 2164 0
-2151 -1993 2165 0
-2151 -1995 2166 0
-2151 -1997 2167 0
2152 1984 0
-2152 -1984 0
-2152 -1965 2151 0
-2152 -1966 2153 0
-2152 -1968 2154 0
-2152 -1970 2155 0
-2152 -1972 2156 0
-2152 -1974 2157 0
-2152 -1976 2158 0
-2152 -1978 2159 0
-2152 -1980 2160 0
-2152 -1982 2161 0
-2152 -1986 2162 0
-2152 -1988 2163 0
-2152 -1990 2164 0
-2152 -1992 2165 0
-2152 -1994 2166 0
-2152 -1996 2167 0
2153 2008 0
-2153 -2008 0
-2153 -1998 2151 0
-2153 -1999 2152 0
-2153 -2000 2154 0
-2153 -2001 2155 0
-2153 -2002 2156 0
-2153 -2003 2157 0
-2153 -2004 2158 0
-2153 -2005 2159 0
-2153 -2006 2160 0
-2153 -2007 2161 0
-2153 -2009 2162 0
-2153 -2010 2163 0
-2153 -2011 2164 0
-2153 -2012 2165 0
-2153 -2013 2166 0
-2153 -2014 2167 0
2154 2025 0
-2154 -2025 0
-2154 -2015 2151 0
-2154 -2016 2152 0
-2154 -2017 2153 0
-2154 -2018 2155 0
-2154 -2019 2156 0
-2154 -2020 2157 0
-2154 -2021 2158 0
-2154 -2022 2159 0
-2154 -2023 2160 0
-2154 -2024 2161 0
-2154 -2026 2162 0
-2154 -2027 2163 0
-2154 -2028 2164 0
-2154 -2029 2165 0
-2154 -2030 2166 0
-2154 -2031 2167 0
2155 2042 0
-2155 -2042 0
-2155 -2032 2151 0
-2155 -2033 2152 0
-2155 -2034 2153 0
-2155 -2035 2154 0
-2155 -2036 2156 0
-2155 -2037 2157 0
-2155 -2038 2158 0
-2155 -2039 2159 0
-2155 -2040 2160 0
-2155 -2041 2161 0
-2155 -2043 2162 0
-2155 -2044 2163 0
-2155 -2045 2164 0
-2155 -2046 2165 0
-2155 -2047 2166 0
-2155 -2048 2167 0
2156 2059 0
-2156 -2059 0
-2156 -2049 2151 0
-2156 -2050 2152 0
-2156 -2051 2153 0
-2156 -2052 2154 0
-2156 -2053 2155 0
-2156 -2054 2157 0
-2156 -2055 2158 0
-2156 -2056 2159 0
-2156 -2057 2160 0
-2156 -2058 2161 0
-2156 -2060 2162 0
-2156 -2061 2163 0
-2156 -2062 2164 0
-2156 -2063 2165 0
-2156 -2064 2166 0
-2156 -2065 2167 0
2157 2076 0
-2157 -2076 0
-2157 -2066 2151 0
-2157 -2067 2152 0
-2157 -2068 2153 0
-2157 -2069 2154 0
-2157 -2070 2155 0
-2157 -2071 2156 0
-2157 -2072 2158 0
-2157 -2073 2159 0
-2157 -2074 2160 0
-2157 -2075 2161 0
-2157 -2077 2162 0
-2157 -2078 2163 0
-2157 -2079 2164 0
-2157 -2080 2165 0
-2157 -2081 2166 0
-2157 -2082 2167 0
2158 2093 0
-2158 -2093 0
-2158 -2083 2151 0
-2158 -2084 2152 0
-2158 -2085 2153 0
-2158 -2086 2154 0
-2158 -2087 2155 0
-2158 -2088 2156 0
-2158 -2089 2157 0
-2158 -2090 2159 0
-2158 -2091 2160 0
-2158 -2092 2161 0
-2158 -2094 2162 0
-2158 -2095 2163 0
-2158 -2096 2164 0
-2158 -2097 2165 0
-2158 -2098 2166 0
-2158 -2099 2167 0
2159 2110 0
-2159 -2110 0
-2159 -2100 2151 0
-2159 -2101 2152 0
-2159 -2102 2153 0
-2159 -2103 2154 0
-2159 -2104 2155 0
-2159 -2105 2156 0
-2159 -2106 2157 0
-2159 -2107 2158 0
-2159 -2108 2160 0
-2159 -2109 2161 0
-2159 -2111 2162 0
-2159 -2112 2163 0
-2159 -2113 2164 0
-2159 -2114 2165 0
-2159 -2115 2166 0
-2159 -2116 2167 0
2160 2127 0
-2160 -2127 0
-2160 -2117 2151 0
-2160 -2118 2152 0
-2160 -2119 2153 0
-2160 -2120 2154 0
-2160 -2121 2155 0
-2160 -2122 2156 0
-2160 -2123 2157 0
-2160 -2124 2158 0
-2160 -2125 2159 0
-2160 -2126 2161 0
-2160 -2128 2162 0
-2160 -2129 2163 0
-2160 -2130 2164 0
-2160 -2131 2165 0
-2160 -2132 2166 0
-2160 -2133 2167 0
2161 2144 0
-2161 -2144 0
-2161 -2134 2151 0
-2161 -2135 2152 0
-2161 -2136 2153 0
-2161 -2137 2154 0
-2161 -2138 2155 0
-2161 -2139 2156 0
-2161 -2140 2157 0
-2161 -2141 2158 0
-2161 -2142 2159 0
-2161 -2143 2160 0
-2161 -2145 2162 0
-2161 -2146 2163 0
-2161 -2147 2164 0
-2161 -2148 2165 0
-2161 -2149 2166 0
-2161 -2150 2167 0
2162 2179 0
-2162 -2179 0
-2162 -2168 2151 0
-2162 -2169 2152 0
-2162 -2170 2153 0
-2162 -2171 2154 0
-2162 -2172 2155 0
-2162 -2173 2156 0
-2162 -2174 2157 0
-2162 -2175 2158 0
-2162 -2176 2159 0
-2162 -2177 2160 0
-2162 -2178 2161 0
-2162 -2180 2163 0
-2162 -2181 2164 0
-2162 -2182 2165 0
-2162 -2183 2166 0
-2162 -2184 2167 0
2163 2196 0
-2163 -2196 0
-2163 -2185 2151 0
-2163 -2186 2152 0
-2163 -2187 2153 0
-2163 -2188 2154 0
-2163 -2189 2155 0
-2163 -2190 2156 0
-2163 -2191 2157 0
-2163 -2192 2158 0
-2163 -2193 2159 0
-2163 -2194 2160 0
-2163 -2195 2161 0
-2163 -2197 2162 0
-2163 -2198 2164 0
-2163 -2199 2165 0
-2163 -2200 2166 0
-2163 -2201 2167 0
2164 2213 0
-2164 -2213 0
-2164 -2202 2151 0
-2164 -2203 2152 0
-2164 -2204 2153 0
-2164 -2205 2154 0
-2164 -2206 2155 0
-2164 -2207 2156 0
-2164 -2208 2157 0
-2164 -2209 2158 0
-2164 -2210 2159 0
-2164 -2211 2160 0
-2164 -2212 2161 0
-2164 -2214 2162 0
-2164 -2215 2163 0
-2164 -2216 2165 0
-2164 -2217 2166 0
-2164 -2218 2167 0
2165 2230 0
-2165 -2230 0
-2165 -2219 2151 0
-2165 -2220 2152 0
-2165 -2221 2153 0
-2165 -2222 2154 0
-2165 -2223 2155 0
-2165 -2224 2156 0
-2165 -2225 2157 0
-2165 -2226 2158 0
-2165 -2227 2159 0
-2165 -2228 2160 0
-2165 -2229 2161 0
-2165 -2231 2162 0
-2165 -2232 2163 0
-2165 -2233 2164 0
-2165 -2234 2166 0
-2165 -2235 2167 0
2166 2247 0
-2166 -2247 0
-2166 -2236 2151 0
-2166 -2237 2152 0
-2166 -2238 2153 0
-2166 -2239 2154 0
-2166 -2240 2155 0
-2166 -2241 2156 0
-2166 -2242 2157 0
-2166 -2243 2158 0
-2166 -2244 2159 0
-2166 -2245 2160 0
-2166 -2246 2161 0
-2166 -2248 2162 0
-2166 -2249 2163 0
-2166 -2250 2164 0
-2166 -2251 2165 0
-2166 -2252 2167 0
2167 2264 0
-2167 -2264 0
-2167 -2253 2151 0
-2167 -2254 2152 0
-2167 -2255 2153 0
-2167 -2256 2154 0
-2167 -2257 2155 0
-2167 -2258 2156 0
-2167 -2259 2157 0
-2167 -2260 2158 0
-2167 -2261 2159 0
-2167 -2262 2160 0
-2167 -2263 2161 0
-2167 -2265 2162 0
-2167 -2266 2163 0
-2167 -2267 2164 0
-2167 -2268 2165 0
-2167 -2269 2166 0
2281 0
2168 1987 0
-2168 -1987 0
-2168 -1964 2169 0
-2168 -1967 2170 0
-2168 -1969 2171 0
-2168 -1971 2172 0
-2168 -1973 2173 0
-2168 -1975 2174 0
-2168 -1977 2175 0
-2168 -1979 2176 0
-2168 -1981 2177 0
-2168 -1983 2178 0
-2168 -1985 2179 0
-2168 -1989 2180 0
-2168 -1991 2181 0
-2168 -1993 2182 0
-2168 -1995 2183 0
-2168 -1997 2184 0
2169 1986 0
-2169 -1986 0
-2169 -1965 2168 0
-2169 -1966 2170 0
-2169 -1968 2171 0
-2169 -1970 2172 0
-2169 -1972 2173 0
-2169 -1974 2174 0
-2169 -1976 2175 0
-2169 -1978 2176 0
-2169 -1980 2177 0
-2169 -1982 2178 0
-2169 -1984 2179 0
-2169 -1988 2180 0
-2169 -1990 2181 0
-2169 -1992 2182 0
-2169 -1994 2183 0
-2169 -1996 2184 0
2170 2009 0
-2170 -2009 0
-2170 -1998 2168 0
-2170 -1999 2169 0
-2170 -2000 2171 0
-2170 -2001 2172 0
-2170 -2002 2173 0
-2170 -2003 2174 0
-2170 -2004 2175 0
-2170 -2005 2176 0
-2170 -2006 2177 0
-2170 -2007 2178 0
-2170 -2008 2179 0
-2170 -2010 2180 0
-2170 -2011 2181 0
-2170 -2012 2182 0
-2170 -2013 2183 0
-2170 -2014 2184 0
2171 2026 0
-2171 -2026 0
-2171 -2015 2168 0
-2171 -2016 2169 0
-2171 -2017 2170 0
-2171 -2018 2172 0
-2171 -2019 2173 0
-2171 -2020 2174 0
-2171 -2021 2175 0
-2171 -2022 2176 0
-2171 -2023 2177 0
-2171 -2024 2178 0
-2171 -2025 2179 0
-2171 -2027 2180 0
-2171 -2028 2181 0
-2171 -2029 2182 0
-2171 -2030 2183 0
-2171 -2031 2184 0
2172 2043 0
-2172 -2043 0
-2172 -2032 2168 0
-2172 -2033 2169 0
-2172 -2034 2170 0
-2172 -2035 2171 0
-2172 -2036 2173 0
-2172 -2037 2174 0
-2172 -2038 2175 0
-2172 -2039 2176 0
-2172 -2040 2177 0
-2172 -2041 2178 0
-2172 -2042 2179 0
-2172 -2044 2180 0
-2172 -2045 2181 0
-2172 -2046 2182 0
-2172 -2047 2183 0
-2172 -2048 2184 0
2173 2060 0
-2173 -2060 0
-2173 -2049 2168 0
-2173 -2050 2169 0
-2173 -2051 2170 0
-2173 -2052 2171 0
-2173 -2053 2172 0
-2173 -2054 2174 0
-2173 -2055 2175 0
-2173 -2056 2176 0
-2173 -2057 2177 0
-2173 -2058 2178 0
-2173 -2059 2179 0
-2173 -2061 2180 0
-2173 -2062 2181 0
-2173 -2063 2182 0
-2173 -2064 2183 0
-2173 -2065 2184 0
2174 2077 0
-2174 -2077 0
-2174 -2066 2168 0
-2174 -2067 2169 0
-2174 -2068 2170 0
-2174 -2069 2171 0
-2174 -2070 2172 0
-2174 -2071 2173 0
-2174 -2072 2175 0
-2174 -2073 2176 0
-2174 -2074 2177 0
-2174 -2075 2178 0
-2174 -2076 2179 0
-2174 -2078 2180 0
-2174 -2079 2181 0
-2174 -2080 2182 0
-2174 -2081 2183 0
-2174 -2082 2184 0
2175 2094 0
-2175 -2094 0
-2175 -2083 2168 0
-2175 -2084 2169 0
-2175 -2085 2170 0
-2175 -2086 2171 0
-2175 -2087 2172 0
-2175 -2088 2173 0
-2175 -2089 2174 0
-2175 -2090 2176 0
-2175 -2091 2177 0
-2175 -2092 2178 0
-2175 -2093 2179 0
-2175 -2095 2180 0
-2175 -2096 2181 0
-2175 -2097 2182 0
-2175 -2098 2183 0
-2175 -2099 2184 0
2176 2111 0
-2176 -2111 0
-2176 -2100 2168 0
-2176 -2101 2169 0
-2176 -2102 2170 0
-2176 -2103 2171 0
-2176 -2104 2172 0
-2176 -2105 2173 0
-2176 -2106 2174 0
-2176 -2107 2175 0
-2176 -2108 2177 0
-2176 -2109 2178 0
-2176 -2110 2179 0
-2176 -2112 2180 0
-2176 -2113 2181 0
-2176 -2114 2182 0
-2176 -2115 2183 0
-2176 -2116 2184 0
2177 2128 0
-2177 -2128 0
-2177 -2117 2168 0
-2177 -2118 2169 0
-2177 -2119 2170 0
-2177 -2120 2171 0
-2177 -2121 2172 0
-2177 -2122 2173 0
-2177 -2123 2174 0
-2177 -2124 2175 0
-2177 -2125 2176 0
-2177 -2126 2178 0
-2177 -2127 2179 0
-2177 -2129 2180 0
-2177 -2130 2181 0
-2177 -2131 2182 0
-2177 -2132 2183 0
-2177 -2133 2184 0
2178 2145 0
-2178 -2145 0
-2178 -2134 2168 0
-2178 -2135 2169 0
-2178 -2136 2170 0
-2178 -2137 2171 0
-2178 -2138 2172 0
-2178 -2139 2173 0
-2178 -2140 2174 0
-2178 -2141 2175 0
-2178 -2142 2176 0
-2178 -2143 2177 0
-2178 -2144 2179 0
-2178 -2146 2180 0
-2178 -2147 2181 0
-2178 -2148 2182 0
-2178 -2149 2183 0
-2178 -2150 2184 0
2179 2162 0
-2179 -2162 0
-2179 -2151 2168 0
-2179 -2152 2169 0
-2179 -2153 2170 0
-2179 -2154 2171 0
-2179 -2155 2172 0
-2179 -2156 2173 0
-2179 -2157 2174 0
-2179 -2158 2175 0
-2179 -2159 2176 0
-2179 -2160 2177 0
-2179 -2161 2178 0
-2179 -2163 2180 0
-2179 -2164 2181 0
-2179 -2165 2182 0
-2179 -2166 2183 0
-2179 -2167 2184 0
2180 2197 0
-2180 -2197 0
-2180 -2185 2168 0
-2180 -2186 2169 0
-2180 -2187 2170 0
-2180 -2188 2171 0
-2180 -2189 2172 0
-2180 -2190 2173 0
-2180 -2191 2174 0
-2180 -2192 2175 0
-2180 -2193 2176 0
-2180 -2194 2177 0
-2180 -2195 2178 0
-2180 -2196 2179 0
-2180 -2198 2181 0
-2180 -2199 2182 0
-2180 -2200 2183 0
-2180 -2201 2184 0
2181 2214 0
-2181 -2214 0
-2181 -2202 2168 0
-2181 -2203 2169 0
-2181 -2204 2170 0
-2181 -2205 2171 0
-2181 -2206 2172 0
-2181 -2207 2173 0
-2181 -2208 2174 0
-2181 -2209 2175 0
-2181 -2210 2176 0
-2181 -2211 2177 0
-2181 -2212 2178 0
-2181 -2213 2179 0
-2181 -2215 2180 0
-2181 -2216 2182 0
-2181 -2217 2183 0
-2181 -2218 2184 0
2182 2231 0
-2182 -2231 0
-2182 -2219 2168 0
-2182 -2220 2169 0
-2182 -2221 2170 0
-2182 -2222 2171 0
-2182 -2223 2172 0
-2182 -2224 2173 0
-2182 -2225 2174 0
-2182 -2226 2175 0
-2182 -2227 2176 0
-2182 -2228 2177 0
-2182 -2229 2178 0
-2182 -2230 2179 0
-2182 -2232 2180 0
-2182 -2233 2181 0
-2182 -2234 2183 0
-2182 -2235 2184 0
2183 2248 0
-2183 -2248 0
-2183 -2236 2168 0
-2183 -2237 2169 0
-2183 -2238 2170 0
-2183 -2239 2171 0
-2183 -2240 2172 0
-2183 -2241 2173 0
-2183 -2242 2174 0
-2183 -2243 2175 0
-2183 -2244 2176 0
-2183 -2245 2177 0
-2183 -2246 2178 0
-2183 -2247 2179 0
-2183 -2249 2180 0
-2183 -2250 2181 0
-2183 -2251 2182 0
-2183 -2252 2184 0
2184 2265 0
-2184 -2265 0
-2184 -2253 2168 0
-2184 -2254 2169 0
-2184 -2255 2170 0
-2184 -2256 2171 0
-2184 -2257 2172 0
-2184 -2258 2173 0
-2184 -2259 2174 0
-2184 -2260 2175 0
-2184 -2261 2176 0
-2184 -2262 2177 0
-2184 -2263 2178 0
-2184 -2264 2179 0
-2184 -2266 2180 0
-2184 -2267 2181 0
-2184 -2268 2182 0
-2184 -2269 2183 0
2282 0
2185 1989 0
-2185 -1989 0
-2185 -1964 2186 0
-2185 -1967 2187 0
-2185 -1969 2188 0
-2185 -1971 2189 0
-2185 -1973 2190 0
-2185 -1975 2191 0
-2185 -1977 2192 0
-2185 -1979 2193 0
-2185 -1981 2194 0
-2185 -1983 2195 0
-2185 -1985 2196 0
-2185 -1987 2197 0
-2185 -1991 2198 0
-2185 -1993 2199 0
-2185 -1995 2200 0
-2185 -1997 2201 0
2186 1988 0
-2186 -1988 0
-2186 -1965 2185 0
-2186 -1966 2187 0
-2186 -1968 2188 0
-2186 -1970 2189 0
-2186 -1972 2190 0
-2186 -1974 2191 0
-2186 -1976 2192 0
-2186 -1978 2193 0
-2186 -1980 2194 0
-2186 -1982 2195 0
-2186 -1984 2196 0
-2186 -1986 2197 0
-2186 -1990 2198 0
-2186 -1992 2199 0
-2186 -1994 2200 0
-2186 -1996 2201 0
2187 2010 0
-2187 -2010 0
-2187 -1998 2185 0
-2187 -1999 2186 0
-2187 -2000 2188 0
-2187 -2001 2189 0
-2187 -2002 2190 0
-2187 -2003 2191 0
-2187 -2004 2192 0
-2187 -2005 2193 0
-2187 -2006 2194 0
-2187 -2007 2195 0
-2187 -2008 2196 0
-2187 -2009 2197 0
-2187 -2011 2198 0
-2187 -2012 2199 0
-2187 -2013 2200 0
-2187 -2014 2201 0
2188 2027 0
-2188 -2027 0
-2188 -2015 2185 0
-2188 -2016 2186 0
-2188 -2017 2187 0
-2188 -2018 2189 0
-2188 -2019 2190 0
-2188 -2020 2191 0
-2188 -2021 2192 0
-2188 -2022 2193 0
-2188 -2023 2194 0
-2188 -2024 2195 0
-2188 -2025 2196 0
-2188 -2026 2197 0
-2188 -2028 2198 0
-2188 -2029 2199 0
-2188 -2030 2200 0
-2188 -2031 2201 0
2189 2044 0
-2189 -2044 0
-2189 -2032 2185 0
-2189 -2033 2186 0
-2189 -2034 2187 0
-2189 -2035 2188 0
-2189 -2036 2190 0
-2189 -2037 2191 0
-2189 -2038 2192 0
-2189 -2039 2193 0
-2189 -2040 2194 0
-2189 -2041 2195 0
-2189 -2042 2196 0
-2189 -2043 2197 0
-2189 -2045 2198 0
-2189 -2046 2199 0
-2189 -2047 2200 0
-2189 -2048 2201 0
2190 2061 0
-2190 -2061 0
-2190 -2049 2185 0
-2190 -2050 2186 0
-2190 -2051 2187 0
-2190 -2052 2188 0
-2190 -2053 2189 0
-2190 -2054 2191 0
-2190 -2055 2192 0
-2190 -2056 2193 0
-2190 -2057 2194 0
-2190 -2058 2195 0
-2190 -2059 2196 0
-2190 -2060 2197 0
-2190 -2062 2198 0
-2190 -2063 2199 0
-2190 -2064 2200 0
-2190 -2065 2201 0
2191 2078 0
-2191 -2078 0
-2191 -2066 2185 0
-2191 -2067 2186 0
-2191 -2068 2187 0
-2191 -2069 2188 0
-2191 -2070 2189 0
-2191 -2071 2190 0
-2191 -2072 2192 0
-2191 -2073 2193 0
-2191 -2074 2194 0
-2191 -2075 2195 0
-2191 -2076 2196 0
-2191 -2077 2197 0
-2191 -2079 2198 0
-2191 -2080 2199 0
-2191 -2081 2200 0
-2191 -2082 2201 0
2192 2095 0
-2192 -2095 0
-2192 -2083 2185 0
-2192 -2084 2186 0
-2192 -2085 2187 0
-2192 -2086 2188 0
-2192 -2087 2189 0
-2192 -2088 2190 0
-2192 -2089 2191 0
-2192 -2090 2193 0
-2192 -2091 2194 0
-2192 -2092 2195 0
-2192 -2093 2196 0
-2192 -2094 2197 0
-2192 -2096 2198 0
-2192 -2097 2199 0
-2192 -2098 2200 0
-2192 -2099 2201 0
2193 2112 0
-2193 -2112 0
-2193 -2100 2185 0
-2193 -2101 2186 0
-2193 -2102 2187 0
-2193 -2103 2188 0
-2193 -2104 2189 0
-2193 -2105 2190 0
-2193 -2106 2191 0
-2193 -2107 2192 0
-2193 -2108 2194 0
-2193 -2109 2195 0
-2193 -2110 2196 0
-2193 -2111 2197 0
-2193 -2113 2198 0
-2193 -2114 2199 0
-2193 -2115 2200 0
-2193 -2116 2201 0
2194 2129 0
-2194 -2129 0
-2194 -2117 2185 0
-2194 -2118 2186 0
-2194 -2119 2187 0
-2194 -2120 2188 0
-2194 -2121 2189 0
-2194 -2122 2190 0
-2194 -2123 2191 0
-2194 -2124 2192 0
-2194 -2125 2193 0
-2194 -2126 2195 0
-2194 -2127 2196 0
-2194 -2128 2197 0
-2194 -2130 2198 0
-2194 -2131 2199 0
-2194 -2132 2200 0
-2194 -2133 2201 0
2195 2146 0
-2195 -2146 0
-2195 -2134 2185 0
-2195 -2135 2186 0
-2195 -2136 2187 0
-2195 -2137 2188 0
-2195 -2138 2189 0
-2195 -2139 2190 0
-2195 -2140 2191 0
-2195 -2141 2192 0
-2195 -2142 2193 0
-2195 -2143 2194 0
-2195 -2144 2196 0
-2195 -2145 2197 0
-2195 -2147 2198 0
-2195 -2148 2199 0
-2195 -2149 2200 0
-2195 -2150 2201 0
2196 2163 0
-2196 -2163 0
-2196 -2151 2185 0
-2196 -2152 2186 0
-2196 -2153 2187 0
-2196 -2154 2188 0
-2196 -2155 2189 0
-2196 -2156 2190 0
-2196 -2157 2191 0
-2196 -2158 2192 0
-2196 -2159 2193 0
-2196 -2160 2194 0
-2196 -2161 2195 0
-2196 -2162 2197 0
-2196 -2164 2198 0
-2196 -2165 2199 0
-2196 -2166 2200 0
-2196 -2167 2201 0
2197 2180 0
-2197 -2180 0
-2197 -2168 2185 0
-2197 -2169 2186 0
-2197 -2170 2187 0
-2197 -2171 2188 0
-2197 -2172 2189 0
-2197 -2173 2190 0
-2197 -2174 2191 0
-2197 -2175 2192 0
-2197 -2176 2193 0
-2197 -2177 2194 0
-2197 -2178 2195 0
-2197 -2179 2196 0
-2197 -2181 2198 0
-2197 -2182 2199 0
-2197 -2183 2200 0
-2197 -2184 2201 0
2198 2215 0
-2198 -2215 0
-2198 -2202 2185 0
-2198 -2203 2186 0
-2198 -2204 2187 0
-2198 -2205 2188 0
-2198 -2206 2189 0
-2198 -2207 2190 0
-2198 -2208 2191 0
-2198 -2209 2192 0
-2198 -2210 2193 0
-2198 -2211 2194 0
-2198 -2212 2195 0
-2198 -2213 2196 0
-2198 -2214 2197 0
-2198 -2216 2199 0
-2198 -2217 2200 0
-2198 -2218 2201 0
2199 2232 0
-2199 -2232 0
-2199 -2219 2185 0
-2199 -2220 2186 0
-2199 -2221 2187 0
-2199 -2222 2188 0
-2199 -2223 2189 0
-2199 -2224 2190 0
-2199 -2225 2191 0
-2199 -2226 2192 0
-2199 -2227 2193 0
-2199 -2228 2194 0
-2199 -2229 2195 0
-2199 -2230 2196 0
-2199 -2231 2197 0
-2199 -2233 2198 0
-2199 -2234 2200 0
-2199 -2235 2201 0
2200 2249 0
-2200 -2249 0
-2200 -2236 2185 0
-2200 -2237 2186 0
-2200 -2238 2187 0
-2200 -2239 2188 0
-2200 -2240 2189 0
-2200 -2241 2190 0
-2200 -2242 2191 0
-2200 -2243 2192 0
-2200 -2244 2193 0
-2200 -2245 2194 0
-2200 -2246 2195 0
-2200 -2247 2196 0
-2200 -2248 2197 0
-2200 -2250 2198 0
-2200 -2251 2199 0
-2200 -2252 2201 0
2201 2266 0
-2201 -2266 0
-2201 -2253 2185 0
-2201 -2254 2186 0
-2201 -2255 2187 0
-2201 -2256 2188 0
-2201 -2257 2189 0
-2201 -2258 2190 0
-2201 -2259 2191 0
-2201 -2260 2192 0
-2201 -2261 2193 0
-2201 -2262 2194 0
-2201 -2263 2195 0
-2201 -2264 2196 0
-2201 -2265 2197 0
-2201 -2267 2198 0
-2201 -2268 2199 0
-2201 -2269 2200 0
2283 0
2202 1991 0
-2202 -1991 0
-2202 -1964 2203 0
-2202 -1967 2204 0
-2202 -1969 2205 0
-2202 -1971 2206 0
-2202 -1973 2207 0
-2202 -1975 2208 0
-2202 -1977 2209 0
-2202 -1979 2210 0
-2202 -1981 2211 0
-2202 -1983 2212 0
-2202 -1985 2213 0
-2202 -1987 2214 0
-2202 -1989 2215 0
-2202 -1993 2216 0
-2202 -1995 2217 0
-2202 -1997 2218 0
2203 1990 0
-2203 -1990 0
-2203 -1965 2202 0
-2203 -1966 2204 0
-2203 -1968 2205 0
-2203 -1970 2206 0
-2203 -1972 2207 0
-2203 -1974 2208 0
-2203 -1976 2209 0
-2203 -1978 2210 0
-2203 -1980 2211 0
-2203 -1982 2212 0
-2203 -1984 2213 0
-2203 -1986 2214 0
-2203 -1988 2215 0
-2203 -1992 2216 0
-2203 -1994 2217 0
-2203 -1996 2218 0
2204 2011 0
-2204 -2011 0
-2204 -1998 2202 0
-2204 -1999 2203 0
-2204 -2000 2205 0
-2204 -2001 2206 0
-2204 -2002 2207 0
-2204 -2003 2208 0
-2204 -2004 2209 0
-2204 -2005 2210 0
-2204 -2006 2211 0
-2204 -2007 2212 0
-2204 -2008 2213 0
-2204 -2009 2214 0
-2204 -2010 2215 0
-2204 -2012 2216 0
-2204 -2013 2217 0
-2204 -2014 2218 0
2205 2028 0
-2205 -2028 0
-2205 -2015 2202 0
-2205 -2016 2203 0
-2205 -2017 2204 0
-2205 -2018 2206 0
-2205 -2019 2207 0
-2205 -2020 2208 0
-2205 -2021 2209 0
-2205 -2022 2210 0
-2205 -2023 2211 0
-2205 -2024 2212 0
-2205 -2025 2213 0
-2205 -2026 2214 0
-2205 -2027 2215 0
-2205 -2029 2216 0
-2205 -2030 2217 0
-2205 -2031 2218 0
2206 2045 0
-2206 -2045 0
-2206 -2032 2202 0
-2206 -2033 2203 0
-2206 -2034 2204 0
-2206 -2035 2205 0
-2206 -2036 2207 0
-2206 -2037 2208 0
-2206 -2038 2209 0
-2206 -2039 2210 0
-2206 -2040 2211 0
-2206 -2041 2212 0
-2206 -2042 2213 0
-2206 -2043 2214 0
-2206 -2044 2215 0
-2206 -2046 2216 0
-2206 -2047 2217 0
-2206 -2048 2218 0
2207 2062 0
-2207 -2062 0
-2207 -2049 2202 0
-2207 -2050 2203 0
-2207 -2051 2204 0
-2207 -2052 2205 0
-2207 -2053 2206 0
-2207 -2054 2208 0
-2207 -2055 2209 0
-2207 -2056 2210 0
-2207 -2057 2211 0
-2207 -2058 2212 0
-2207 -2059 2213 0
-2207 -2060 2214 0
-2207 -2061 2215 0
-2207 -2063 2216 0
-2207 -2064 2217 0
-2207 -2065 2218 0
2208 2079 0
-2208 -2079 0
-2208 -2066 2202 0
-2208 -2067 2203 0
-2208 -2068 2204 0
-2208 -2069 2205 0
-2208 -2070 2206 0
-2208 -2071 2207 0
-2208 -2072 2209 0
-2208 -2073 2210 0
-2208 -2074 2211 0
-2208 -2075 2212 0
-2208 -2076 2213 0
-2208 -2077 2214 0
-2208 -2078 2215 0
-2208 -2080 2216 0
-2208 -2081 2217 0
-2208 -2082 2218 0
2209 2096 0
-2209 -2096 0
-2209 -2083 2202 0
-2209 -2084 2203 0
-2209 -2085 2204 0
-2209 -2086 2205 0
-2209 -2087 2206 0
-2209 -2088 2207 0
-2209 -2089 2208 0
-2209 -2090 2210 0
-2209 -2091 2211 0
-2209 -2092 2212 0
-2209 -2093 2213 0
-2209 -2094 2214 0
-2209 -2095 2215 0
-2209 -2097 2216 0
-2209 -2098 2217 0
-2209 -2099 2218 0
2210 2113 0
-2210 -2113 0
-2210 -2100 2202 0
-2210 -2101 2203 0
-2210 -2102 2204 0
-2210 -2103 2205 0
-2210 -2104 2206 0
-2210 -2105 2207 0
-2210 -2106 2208 0
-2210 -2107 2209 0
-2210 -2108 2211 0
-2210 -2109 2212 0
-2210 -2110 2213 0
-2210 -2111 2214 0
-2210 -2112 2215 0
-2210 -2114 2216 0
-2210 -2115 2217 0
-2210 -2116 2218 0
2211 2130 0
-2211 -2130 0
-2211 -2117 2202 0
-2211 -2118 2203 0
-2211 -2119 2204 0
-2211 -2120 2205 0
-2211 -2121 2206 0
-2211 -2122 2207 0
-2211 -2123 2208 0
-2211 -2124 2209 0
-2211 -2125 2210 0
-2211 -2126 2212 0
-2211 -2127 2213 0
-2211 -2128 2214 0
-2211 -2129 2215 0
-2211 -2131 2216 0
-2211 -2132 2217 0
-2211 -2133 2218 0
2212 2147 0
-2212 -2147 0
-2212 -2134 2202 0
-2212 -2135 2203 0
-2212 -2136 2204 0
-2212 -2137 2205 0
-2212 -2138 2206 0
-2212 -2139 2207 0
-2212 -2140 2208 0
-2212 -2141 2209 0
-2212 -2142 2210 0
-2212 -2143 2211 0
-2212 -2144 2213 0
-2212 -2145 2214 0
-2212 -2146 2215 0
-2212 -2148 2216 0
-2212 -2149 2217 0
-2212 -2150 2218 0
2213 2164 0
-2213 -2164 0
-2213 -2151 2202 0
-2213 -2152 2203 0
-2213 -2153 2204 0
-2213 -2154 2205 0
-2213 -2155 2206 0
-2213 -2156 2207 0
-2213 -2157 2208 0
-2213 -2158 2209 0
-2213 -2159 2210 0
-2213 -2160 2211 0
-2213 -2161 2212 0
-2213 -2162 2214 0
-2213 -2163 2215 0
-2213 -2165 2216 0
-2213 -2166 2217 0
-2213 -2167 2218 0
2214 2181 0
-2214 -2181 0
-2214 -2168 2202 0
-2214 -2169 2203 0
-2214 -2170 2204 0
-2214 -2171 2205 0
-2214 -2172 2206 0
-2214 -2173 2207 0
-2214 -2174 2208 0
-2214 -2175 2209 0
-2214 -2176 2210 0
-2214 -2177 2211 0
-2214 -2178 2212 0
-2214 -2179 2213 0
-2214 -2180 2215 0
-2214 -2182 2216 0
-2214 -2183 2217 0
-2214 -2184 2218 0
2215 2198 0
-2215 -2198 0
-2215 -2185 2202 0
-2215 -2186 2203 0
-2215 -2187 2204 0
-2215 -2188 2205 0
-2215 -2189 2206 0
-2215 -2190 2207 0
-2215 -2191 2208 0
-2215 -2192 2209 0
-2215 -2193 2210 0
-2215 -2194 2211 0
-2215 -2195 2212 0
-2215 -2196 2213 0
-2215 -2197 2214 0
-2215 -2199 2216 0
-2215 -2200 2217 0
-2215 -2201 2218 0
2216 2233 0
-2216 -2233 0
-2216 -2219 2202 0
-2216 -2220 2203 0
-2216 -2221 2204 0
-2216 -2222 2205 0
-2216 -2223 2206 0
-2216 -2224 2207 0
-2216 -2225 2208 0
-2216 -2226 2209 0
-2216 -2227 2210 0
-2216 -2228 2211 0
-2216 -2229 2212 0
-2216 -2230 2213 0
-2216 -2231 2214 0
-2216 -2232 2215 0
-2216 -2234 2217 0
-2216 -2235 2218 0
2217 2250 0
-2217 -2250 0
-2217 -2236 2202 0
-2217 -2237 2203 0
-2217 -2238 2204 0
-2217 -2239 2205 0
-2217 -2240 2206 0
-2217 -2241 2207 0
-2217 -2242 2208 0
-2217 -2243 2209 0
-2217 -2244 2210 0
-2217 -2245 2211 0
-2217 -2246 2212 0
-2217 -2247 2213 0
-2217 -2248 2214 0
-2217 -2249 2215 0
-2217 -2251 2216 0
-2217 -2252 2218 0
2218 2267 0
-2218 -2267 0
-2218 -2253 2202 0
-2218 -2254 2203 0
-2218 -2255 2204 0
-2218 -2256 2205 0
-2218 -2257 2206 0
-2218 -2258 2207 0
-2218 -2259 2208 0
-2218 -2260 2209 0
-2218 -2261 2210 0
-2218 -2262 2211 0
-2218 -2263 2212 0
-2218 -2264 2213 0
-2218 -2265 2214 0
-2218 -2266 2215 0
-2218 -2268 2216 0
-2218 -2269 2217 0
2284 0
2219 1993 0
-2219 -1993 0
-2219 -1964 2220 0
-2219 -1967 2221 0
-2219 -1969 2222 0
-2219 -1971 2223 0
-2219 -1973 2224 0
-2219 -1975 2225 0
-2219 -1977 2226 0
-2219 -1979 2227 0
-2219 -1981 2228 0
-2219 -1983 2229 0
-2219 -1985 2230 0
-2219 -1987 2231 0
-2219 -1989 2232 0
-2219 -1991 2233 0
-2219 -1995 2234 0
-2219 -1997 2235 0
2220 1992 0
-2220 -1992 0
-2220 -1965 2219 0
-2220 -1966 2221 0
-2220 -1968 2222 0
-2220 -1970 2223 0
-2220 -1972 2224 0
-2220 -1974 2225 0
-2220 -1976 2226 0
-2220 -1978 2227 0
-2220 -1980 2228 0
-2220 -1982 2229 0
-2220 -1984 2230 0
-2220 -1986 2231 0
-2220 -1988 2232 0
-2220 -1990 2233 0
-2220 -1994 2234 0
-2220 -1996 2235 0
2221 2012 0
-2221 -2012 0
-2221 -1998 2219 0
-2221 -1999 2220 0
-2221 -2000 2222 0
-2221 -2001 2223 0
-2221 -2002 2224 0
-2221 -2003 2225 0
-2221 -2004 2226 0
-2221 -2005 2227 0
-2221 -2006 2228 0
-2221 -2007 2229 0
-2221 -2008 2230 0
-2221 -2009 2231 0
-2221 -2010 2232 0
-2221 -2011 2233 0
-2221 -2013 2234 0
-2221 -2014 2235 0
2222 2029 0
-2222 -2029 0
-2222 -2015 2219 0
-2222 -2016 2220 0
-2222 -2017 2221 0
-2222 -2018 2223 0
-2222 -2019 2224 0
-2222 -2020 2225 0
-2222 -2021 2226 0
-2222 -2022 2227 0
-2222 -2023 2228 0
-2222 -2024 2229 0
-2222 -2025 2230 0
-2222 -2026 2231 0
-2222 -2027 2232 0
-2222 -2028 2233 0
-2222 -2030 2234 0
-2222 -2031 2235 0
2223 2046 0
-2223 -2046 0
-2223 -2032 2219 0
-2223 -2033 2220 0
-2223 -2034 2221 0
-2223 -2035 2222 0
-2223 -2036 2224 0
-2223 -2037 2225 0
-2223 -2038 2226 0
-2223 -2039 2227 0
-2223 -2040 2228 0
-2223 -2041 2229 0
-2223 -2042 2230 0
-2223 -2043 2231 0
-2223 -2044 2232 0
-2223 -2045 2233 0
-2223 -2047 2234 0
-2223 -2048 2235 0
2224 2063 0
-2224 -2063 0
-2224 -2049 2219 0
-2224 -2050 2220 0
-2224 -2051 2221 0
-2224 -2052 2222 0
-2224 -2053 2223 0
-2224 -2054 2225 0
-2224 -2055 2226 0
-2224 -2056 2227 0
-2224 -2057 2228 0
-2224 -2058 2229 0
-2224 -2059 2230 0
-2224 -2060 2231 0
-2224 -2061 2232 0
-2224 -2062 2233 0
-2224 -2064 2234 0
-2224 -2065 2235 0
2225 2080 0
-2225 -2080 0
-2225 -2066 2219 0
-2225 -2067 2220 0
-2225 -2068 2221 0
-2225 -2069 2222 0
-2225 -2070 2223 0
-2225 -2071 2224 0
-2225 -2072 2226 0
-2225 -2073 2227 0
-2225 -2074 2228 0
-2225 -2075 2229 0
-2225 -2076 2230 0
-2225 -2077 2231 0
-2225 -2078 2232 0
-2225 -2079 2233 0
-2225 -2081 2234 0
-2225 -2082 2235 0
2226 2097 0
-2226 -2097 0
-2226 -2083 2219 0
-2226 -2084 2220 0
-2226 -2085 2221 0
-2226 -2086 2222 0
-2226 -2087 2223 0
-2226 -2088 2224 0
-2226 -2089 2225 0
-2226 -2090 2227 0
-2226 -2091 2228 0
-2226 -2092 2229 0
-2226 -2093 2230 0
-2226 -2094 2231 0
-2226 -2095 2232 0
-2226 -2096 2233 0
-2226 -2098 2234 0
-2226 -2099 2235 0
2227 2114 0
-2227 -2114 0
-2227 -2100 2219 0
-2227 -2101 2220 0
-2227 -2102 2221 0
-2227 -2103 2222 0
-2227 -2104 2223 0
-2227 -2105 2224 0
-2227 -2106 2225 0
-2227 -2107 2226 0
-2227 -2108 2228 0
-2227 -2109 2229 0
-2227 -2110 2230 0
-2227 -2111 2231 0
-2227 -2112 2232 0
-2227 -2113 2233 0
-2227 -2115 2234 0
-2227 -2116 2235 0
2228 2131 0
-2228 -2131 0
-2228 -2117 2219 0
-2228 -2118 2220 0
-2228 -2119 2221 0
-2228 -2120 2222 0
-2228 -2121 2223 0
-2228 -2122 2224 0
-2228 -2123 2225 0
-2228 -2124 2226 0
-2228 -2125 2227 0
-2228 -2126 2229 0
-2228 -2127 2230 0
-2228 -2128 2231 0
-2228 -2129 2232 0
-2228 -2130 2233 0
-2228 -2132 2234 0
-2228 -2133 2235 0
2229 2148 0
-2229 -2148 0
-2229 -2134 2219 0
-2229 -2135 2220 0
-2229 -2136 2221 0
-2229 -2137 2222 0
-2229 -2138 2223 0
-2229 -2139 2224 0
-2229 -2140 2225 0
-2229 -2141 2226 0
-2229 -2142 2227 0
-2229 -2143 2228 0
-2229 -2144 2230 0
-2229 -2145 2231 0
-2229 -2146 2232 0
-2229 -2147 2233 0
-2229 -2149 2234 0
-2229 -2150 2235 0
2230 2165 0
-2230 -2165 0
-2230 -2151 2219 0
-2230 -2152 2220 0
-2230 -2153 2221 0
-2230 -2154 2222 0
-2230 -2155 2223 0
-2230 -2156 2224 0
-2230 -2157 2225 0
-2230 -2158 2226 0
-2230 -2159 2227 0
-2230 -2160 2228 0
-2230 -2161 2229 0
-2230 -2162 2231 0
-2230 -2163 2232 0
-2230 -2164 2233 0
-2230 -2166 2234 0
-2230 -2167 2235 0
2231 2182 0
-2231 -2182 0
-2231 -2168 2219 0
-2231 -2169 2220 0
-2231 -2170 2221 0
-2231 -2171 2222 0
-2231 -2172 2223 0
-2231 -2173 2224 0
-2231 -2174 2225 0
-2231 -2175 2226 0
-2231 -2176 2227 0
-2231 -2177 2228 0
-2231 -2178 2229 0
-2231 -2179 2230 0
-2231 -2180 2232 0
-2231 -2181 2233 0
-2231 -2183 2234 0
-2231 -2184 2235 0
2232 2199 0
-2232 -2199 0
-2232 -2185 2219 0
-2232 -2186 2220 0
-2232 -2187 2221 0
-2232 -2188 2222 0
-2232 -2189 2223 0
-2232 -2190 2224 0
-2232 -2191 2225 0
-2232 -2192 2226 0
-2232 -2193 2227 0
-2232 -2194 2228 0
-2232 -2195 2229 0
-2232 -2196 2230 0
-2232 -2197 2231 0
-2232 -2198 2233 0
-2232 -2200 2234 0
-2232 -2201 2235 0
2233 2216 0
-2233 -2216 0
-2233 -2202 2219 0
-2233 -2203 2220 0
-2233 -2204 2221 0
-2233 -2205 2222 0
-2233 -2206 2223 0
-2233 -2207 2224 0
-2233 -2208 2225 0
-2233 -2209 2226 0
-2233 -2210 2227 0
-2233 -2211 2228 0
-2233 -2212 2229 0
-2233 -2213 2230 0
-2233 -2214 2231 0
-2233 -2215 2232 0
-2233 -2217 2234 0
-2233 -2218 2235 0
2234 2251 0
-2234 -2251 0
-2234 -2236 2219 0
-2234 -2237 2220 0
-2234 -2238 2221 0
-2234 -2239 2222 0
-2234 -2240 2223 0
-2234 -2241 2224 0
-2234 -2242 2225 0
-2234 -2243 2226 0
-2234 -2244 2227 0
-2234 -2245 2228 0
-2234 -2246 2229 0
-2234 -2247 2230 0
-2234 -2248 2231 0
-2234 -2249 2232 0
-2234 -2250 2233 0
-2234 -2252 2235 0
2235 2268 0
-2235 -2268 0
-2235 -2253 2219 0
-2235 -2254 2220 0
-2235 -2255 2221 0
-2235 -2256 2222 0
-2235 -2257 2223 0
-2235 -2258 2224 0
-2235 -2259 2225 0
-2235 -2260 2226 0
-2235 -2261 2227 0
-2235 -2262 2228 0
-2235 -2263 2229 0
-2235 -2264 2230 0
-2235 -2265 2231 0
-2235 -2266 2232 0
-2235 -2267 2233 0
-2235 -2269 2234 0
2285 0
2236 1995 0
-2236 -1995 0
-2236 -1964 2237 0
-2236 -1967 2238 0
-2236 -1969 2239 0
-2236 -1971 2240 0
-2236 -1973 2241 0
-2236 -1975 2242 0
-2236 -1977 2243 0
-2236 -1979 2244 0
-2236 -1981 2245 0
-2236 -1983 2246 0
-2236 -1985 2247 0
-2236 -1987 2248 0
-2236 -1989 2249 0
-2236 -1991 2250 0
-2236 -1993 2251 0
-2236 -1997 2252 0
2237 1994 0
-2237 -1994 0
-2237 -1965 2236 0
-2237 -1966 2238 0
-2237 -1968 2239 0
-2237 -1970 2240 0
-2237 -1972 2241 0
-2237 -1974 2242 0
-2237 -1976 2243 0
-2237 -1978 2244 0
-2237 -1980 2245 0
-2237 -1982 2246 0
-2237 -1984 2247 0
-2237 -1986 2248 0
-2237 -1988 2249 0
-2237 -1990 2250 0
-2237 -1992 2251 0
-2237 -1996 2252 0
2238 2013 0
-2238 -2013 0
-2238 -1998 2236 0
-2238 -1999 2237 0
-2238 -2000 2239 0
-2238 -2001 2240 0
-2238 -2002 2241 0
-2238 -2003 2242 0
-2238 -2004 2243 0
-2238 -2005 2244 0
-2238 -2006 2245 0
-2238 -2007 2246 0
-2238 -2008 2247 0
-2238 -2009 2248 0
-2238 -2010 2249 0
-2238 -2011 2250 0
-2238 -2012 2251 0
-2238 -2014 2252 0
2239 2030 0
-2239 -2030 0
-2239 -2015 2236 0
-2239 -2016 2237 0
-2239 -2017 2238 0
-2239 -2018 2240 0
-2239 -2019 2241 0
-2239 -2020 2242 0
-2239 -2021 2243 0
-2239 -2022 2244 0
-2239 -2023 2245 0
-2239 -2024 2246 0
-2239 -2025 2247 0
-2239 -2026 2248 0
-2239 -2027 2249 0
-2239 -2028 2250 0
-2239 -2029 2251 0
-2239 -2031 2252 0
2240 2047 0
-2240 -2047 0
-2240 -2032 2236 0
-2240 -2033 2237 0
-2240 -2034 2238 0
-2240 -2035 2239 0
-2240 -2036 2241 0
-2240 -2037 2242 0
-2240 -2038 2243 0
-2240 -2039 2244 0
-2240 -2040 2245 0
-2240 -2041 2246 0
-2240 -2042 2247 0
-2240 -2043 2248 0
-2240 -2044 2249 0
-2240 -2045 2250 0
-2240 -2046 2251 0
-2240 -2048 2252 0
2241 2064 0
-2241 -2064 0
-2241 -2049 2236 0
-2241 -2050 2237 0
-2241 -2051 2238 0
-2241 -2052 2239 0
-2241 -2053 2240 0
-2241 -2054 2242 0
-2241 -2055 2243 0
-2241 -2056 2244 0
-2241 -2057 2245 0
-2241 -2058 2246 0
-2241 -2059 2247 0
-2241 -2060 2248 0
-2241 -2061 2249 0
-2241 -2062 2250 0
-2241 -2063 2251 0
-2241 -2065 2252 0
2242 2081 0
-2242 -2081 0
-2242 -2066 2236 0
-2242 -2067 2237 0
-2242 -2068 2238 0
-2242 -2069 2239 0
-2242 -2070 2240 0
-2242 -2071 2241 0
-2242 -2072 2243 0
-2242 -2073 2244 0
-2242 -2074 2245 0
-2242 -2075 2246 0
-2242 -2076 2247 0
-2242 -2077 2248 0
-2242 -2078 2249 0
-2242 -2079 2250 0
-2242 -2080 2251 0
-2242 -2082 2252 0
2243 2098 0
-2243 -2098 0
-2243 -2083 2236 0
-2243 -2084 2237 0
-2243 -2085 2238 0
-2243 -2086 2239 0
-2243 -2087 2240 0
-2243 -2088 2241 0
-2243 -2089 2242 0
-2243 -2090 2244 0
-2243 -2091 2245 0
-2243 -2092 2246 0
-2243 -2093 2247 0
-2243 -2094 2248 0
-2243 -2095 2249 0
-2243 -2096 2250 0
-2243 -2097 2251 0
-2243 -2099 2252 0
2244 2115 0
-2244 -2115 0
-2244 -2100 2236 0
-2244 -2101 2237 0
-2244 -2102 2238 0
-2244 -2103 2239 0
-2244 -2104 2240 0
-2244 -2105 2241 0
-2244 -2106 2242 0
-2244 -2107 2243 0
-2244 -2108 2245 0
-2244 -2109 2246 0
-2244 -2110 2247 0
-2244 -2111 2248 0
-2244 -2112 2249 0
-2244 -2113 2250 0
-2244 -2114 2251 0
-2244 -2116 2252 0
2245 2132 0
-2245 -2132 0
-2245 -2117 2236 0
-2245 -2118 2237 0
-2245 -2119 2238 0
-2245 -2120 2239 0
-2245 -2121 2240 0
-2245 -2122 2241 0
-2245 -2123 2242 0
-2245 -2124 2243 0
-2245 -2125 2244 0
-2245 -2126 2246 0
-2245 -2127 2247 0
-2245 -2128 2248 0
-2245 -2129 2249 0
-2245 -2130 2250 0
-2245 -2131 2251 0
-2245 -2133 2252 0
2246 2149 0
-2246 -2149 0
-2246 -2134 2236 0
-2246 -2135 2237 0
-2246 -2136 2238 0
-2246 -2137 2239 0
-2246 -2138 2240 0
-2246 -2139 2241 0
-2246 -2140 2242 0
-2246 -2141 2243 0
-2246 -2142 2244 0
-2246 -2143 2245 0
-2246 -2144 2247 0
-2246 -2145 2248 0
-2246 -2146 2249 0
-2246 -2147 2250 0
-2246 -2148 2251 0
-2246 -2150 2252 0
2247 2166 0
-2247 -2166 0
-2247 -2151 2236 0
-2247 -2152 2237 0
-2247 -2153 2238 0
-2247 -2154 2239 0
-2247 -2155 2240 0
-2247 -2156 2241 0
-2247 -2157 2242 0
-2247 -2158 2243 0
-2247 -2159 2244 0
-2247 -2160 2245 0
-2247 -2161 2246 0
-2247 -2162 2248 0
-2247 -2163 2249 0
-2247 -2164 2250 0
-2247 -2165 2251 0
-2247 -2167 2252 0
2248 2183 0
-2248 -2183 0
-2248 -2168 2236 0
-2248 -2169 2237 0
-2248 -2170 2238 0
-2248 -2171 2239 0
-2248 -2172 2240 0
-2248 -2173 2241 0
-2248 -2174 2242 0
-2248 -2175 2243 0
-2248 -2176 2244 0
-2248 -2177 2245 0
-2248 -2178 2246 0
-2248 -2179 2247 0
-2248 -2180 2249 0
-2248 -2181 2250 0
-2248 -2182 2251 0
-2248 -2184 2252 0
2249 2200 0
-2249 -2200 0
-2249 -2185 2236 0
-2249 -2186 2237 0
-2249 -2187 2238 0
-2249 -2188 2239 0
-2249 -2189 2240 0
-2249 -2190 2241 0
-2249 -2191 2242 0
-2249 -2192 2243 0
-2249 -2193 2244 0
-2249 -2194 2245 0
-2249 -2195 2246 0
-2249 -2196 2247 0
-2249 -2197 2248 0
-2249 -2198 2250 0
-2249 -2199 2251 0
-2249 -2201 2252 0
2250 2217 0
-2250 -2217 0
-2250 -2202 2236 0
-2250 -2203 2237 0
-2250 -2204 2238 0
-2250 -2205 2239 0
-2250 -2206 2240 0
-2250 -2207 2241 0
-2250 -2208 2242 0
-2250 -2209 2243 0
-2250 -2210 2244 0
-2250 -2211 2245 0
-2250 -2212 2246 0
-2250 -2213 2247 0
-2250 -2214 2248 0
-2250 -2215 2249 0
-2250 -2216 2251 0
-2250 -2218 2252 0
2251 2234 0
-2251 -2234 0
-2251 -2219 2236 0
-2251 -2220 2237 0
-2251 -2221 2238 0
-2251 -2222 2239 0
-2251 -2223 2240 0
-2251 -2224 2241 0
-2251 -2225 2242 0
-2251 -2226 2243 0
-2251 -2227 2244 0
-2251 -2228 2245 0
-2251 -2229 2246 0
-2251 -2230 2247 0
-2251 -2231 2248 0
-2251 -2232 2249 0
-2251 -2233 2250 0
-2251 -2235 2252 0
2252 2269 0
-2252 -2269 0
-2252 -2253 2236 0
-2252 -2254 2237 0
-2252 -2255 2238 0
-2252 -2256 2239 0
-2252 -2257 2240 0
-2252 -2258 2241 0
-2252 -2259 2242 0
-2252 -2260 2243 0
-2252 -2261 2244 0
-2252 -2262 2245 0
-2252 -2263 2246 0
-2252 -2264 2247 0
-2252 -2265 2248 0
-2252 -2266 2249 0
-2252 -2267 2250 0
-2252 -2268 2251 0
2286 0
2253 1997 0
-2253 -1997 0
-2253 -1964 2254 0
-2253 -1967 2255 0
-2253 -1969 2256 0
-2253 -1971 2257 0
-2253 -1973 2258 0
-2253 -1975 2259 0
-2253 -1977 2260 0
-2253 -1979 2261 0
-2253 -1981 2262 0
-2253 -1983 2263 0
-2253 -1985 2264 0
-2253 -1987 2265 0
-2253 -1989 2266 0
-2253 -1991 2267 0
-2253 -1993 2268 0
-2253 -1995 2269 0
2254 1996 0
-2254 -1996 0
-2254 -1965 2253 0
-2254 -1966 2255 0
-2254 -1968 2256 0
-2254 -1970 2257 0
-2254 -1972 2258 0
-2254 -1974 2259 0
-2254 -1976 2260 0
-2254 -1978 2261 0
-2254 -1980 2262 0
-2254 -1982 2263 0
-2254 -1984 2264 0
-2254 -1986 2265 0
-2254 -1988 2266 0
-2254 -1990 2267 0
-2254 -1992 2268 0
-2254 -1994 2269 0
2255 2014 0
-2255 -2014 0
-2255 -1998 2253 0
-2255 -1999 2254 0
-2255 -2000 2256 0
-2255 -2001 2257 0
-2255 -2002 2258 0
-2255 -2003 2259 0
-2255 -2004 2260 0
-2255 -2005 2261 0
-2255 -2006 2262 0
-2255 -2007 2263 0
-2255 -2008 2264 0
-2255 -2009 2265 0
-2255 -2010 2266 0
-2255 -2011 2267 0
-2255 -2012 2268 0
-2255 -2013 2269 0
2256 2031 0
-2256 -2031 0
-2256 -2015 2253 0
-2256 -2016 2254 0
-2256 -2017 2255 0
-2256 -2018 2257 0
-2256 -2019 2258 0
-2256 -2020 2259 0
-2256 -2021 2260 0
-2256 -2022 2261 0
-2256 -2023 2262 0
-2256 -2024 2263 0
-2256 -2025 2264 0
-2256 -2026 2265 0
-2256 -2027 2266 0
-2256 -2028 2267 0
-2256 -2029 2268 0
-2256 -2030 2269 0
2257 2048 0
-2257 -2048 0
-2257 -2032 2253 0
-2257 -2033 2254 0
-2257 -2034 2255 0
-2257 -2035 2256 0
-2257 -2036 2258 0
-2257 -2037 2259 0
-2257 -2038 2260 0
-2257 -2039 2261 0
-2257 -2040 2262 0
-2257 -2041 2263 0
-2257 -2042 2264 0
-2257 -2043 2265 0
-2257 -2044 2266 0
-2257 -2045 2267 0
-2257 -2046 2268 0
-2257 -2047 2269 0
2258 2065 0
-2258 -2065 0
-2258 -2049 2253 0
-2258 -2050 2254 0
-2258 -2051 2255 0
-2258 -2052 2256 0
-2258 -2053 2257 0
-2258 -2054 2259 0
-2258 -2055 2260 0
-2258 -2056 2261 0
-2258 -2057 2262 0
-2258 -2058 2263 0
-2258 -2059 2264 0
-2258 -2060 2265 0
-2258 -2061 2266 0
-2258 -2062 2267 0
-2258 -2063 2268 0
-2258 -2064 2269 0
2259 2082 0
-2259 -2082 0
-2259 -2066 2253 0
-2259 -2067 2254 0
-2259 -2068 2255 0
-2259 -2069 2256 0
-2259 -2070 2257 0
-2259 -2071 2258 0
-2259 -2072 2260 0
-2259 -2073 2261 0
-2259 -2074 2262 0
-2259 -2075 2263 0
-2259 -2076 2264 0
-2259 -2077 2265 0
-2259 -2078 2266 0
-2259 -2079 2267 0
-2259 -2080 2268 0
-2259 -2081 2269 0
2260 2099 0
-2260 -2099 0
-2260 -2083 2253 0
-2260 -2084 2254 0
-2260 -2085 2255 0
-2260 -2086 2256 0
-2260 -2087 2257 0
-2260 -2088 2258 0
-2260 -2089 2259 0
-2260 -2090 2261 0
-2260 -2091 2262 0
-2260 -2092 2263 0
-2260 -2093 2264 0
-2260 -2094 2265 0
-2260 -2095 2266 0
-2260 -2096 2267 0
-2260 -2097 2268 0
-2260 -2098 2269 0
2261 2116 0
-2261 -2116 0
-2261 -2100 2253 0
-2261 -2101 2254 0
-2261 -2102 2255 0
-2261 -2103 2256 0
-2261 -2104 2257 0
-2261 -2105 2258 0
-2261 -2106 2259 0
-2261 -2107 2260 0
-2261 -2108 2262 0
-2261 -2109 2263 0
-2261 -2110 2264 0
-2261 -2111 2265 0
-2261 -2112 2266 0
-2261 -2113 2267 0
-2261 -2114 2268 0
-2261 -2115 2269 0
2262 2133 0
-2262 -2133 0
-2262 -2117 2253 0
-2262 -2118 2254 0
-2262 -2119 2255 0
-2262 -2120 2256 0
-2262 -2121 2257 0
-2262 -2122 2258 0
-2262 -2123 2259 0
-2262 -2124 2260 0
-2262 -2125 2261 0
-2262 -2126 2263 0
-2262 -2127 2264 0
-2262 -2128 2265 0
-2262 -2129 2266 0
-2262 -2130 2267 0
-2262 -2131 2268 0
-2262 -2132 2269 0
2263 2150 0
-2263 -2150 0
-2263 -2134 2253 0
-2263 -2135 2254 0
-2263 -2136 2255 0
-2263 -2137 2256 0
-2263 -2138 2257 0
-2263 -2139 2258 0
-2263 -2140 2259 0
-2263 -2141 2260 0
-2263 -2142 2261 0
-2263 -2143 2262 0
-2263 -2144 2264 0
-2263 -2145 2265 0
-2263 -2146 2266 0
-2263 -2147 2267 0
-2263 -2148 2268 0
-2263 -2149 2269 0
2264 2167 0
-2264 -2167 0
-2264 -2151 2253 0
-2264 -2152 2254 0
-2264 -2153 2255 0
-2264 -2154 2256 0
-2264 -2155 2257 0
-2264 -2156 2258 0
-2264 -2157 2259 0
-2264 -2158 2260 0
-2264 -2159 2261 0
-2264 -2160 2262 0
-2264 -2161 2263 0
-2264 -2162 2265 0
-2264 -2163 2266 0
-2264 -2164 2267 0
-2264 -2165 2268 0
-2264 -2166 2269 0
2265 2184 0
-2265 -2184 0
-2265 -2168 2253 0
-2265 -2169 2254 0
-2265 -2170 2255 0
-2265 -2171 2256 0
-2265 -2172 2257 0
-2265 -2173 2258 0
-2265 -2174 2259 0
-2265 -2175 2260 0
-2265 -2176 2261 0
-2265 -2177 2262 0
-2265 -2178 2263 0
-2265 -2179 2264 0
-2265 -2180 2266 0
-2265 -2181 2267 0
-2265 -2182 2268 0
-2265 -2183 2269 0
2266 2201 0
-2266 -2201 0
-2266 -2185 2253 0
-2266 -2186 2254 0
-2266 -2187 2255 0
-2266 -2188 2256 0
-2266 -2189 2257 0
-2266 -2190 2258 0
-2266 -2191 2259 0
-2266 -2192 2260 0
-2266 -2193 2261 0
-2266 -2194 2262 0
-2266 -2195 2263 0
-2266 -2196 2264 0
-2266 -2197 2265 0
-2266 -2198 2267 0
-2266 -2199 2268 0
-2266 -2200 2269 0
2267 2218 0
-2267 -2218 0
-2267 -2202 2253 0
-2267 -2203 2254 0
-2267 -2204 2255 0
-2267 -2205 2256 0
-2267 -2206 2257 0
-2267 -2207 2258 0
-2267 -2208 2259 0
-2267 -2209 2260 0
-2267 -2210 2261 0
-2267 -2211 2262 0
-2267 -2212 2263 0
-2267 -2213 2264 0
-2267 -2214 2265 0
-2267 -2215 2266 0
-2267 -2216 2268 0
-2267 -2217 2269 0
2268 2235 0
-2268 -2235 0
-2268 -2219 2253 0
-2268 -2220 2254 0
-2268 -2221 2255 0
-2268 -2222 2256 0
-2268 -2223 2257 0
-2268 -2224 2258 0
-2268 -2225 2259 0
-2268 -2226 2260 0
-2268 -2227 2261 0
-2268 -2228 2262 0
-2268 -2229 2263 0
-2268 -2230 2264 0
-2268 -2231 2265 0
-2268 -2232 2266 0
-2268 -2233 2267 0
-2268 -2234 2269 0
2269 2252 0
-2269 -2252 0
-2269 -2236 2253 0
-2269 -2237 2254 0
-2269 -2238 2255 0
-2269 -2239 2256 0
-2269 -2240 2257 0
-2269 -2241 2258 0
-2269 -2242 2259 0
-2269 -2243 2260 0
-2269 -2244 2261 0
-2269 -2245 2262 0
-2269 -2246 2263 0
-2269 -2247 2264 0
-2269 -2248 2265 0
-2269 -2249 2266 0
-2269 -2250 2267 0
-2269 -2251 2268 0
-992 0
-995 1964 0
-2287 1967 0
-2287 1999 0
-1967 -1999 2287 0
-2288 1969 0
-2288 2016 0
-1969 -2016 2288 0
-2289 1971 0
-2289 2033 0
-1971 -2033 2289 0
-2290 1973 0
-2290 2050 0
-1973 -2050 2290 0
-2291 1975 0
-2291 2067 0
-1975 -2067 2291 0
-2292 1977 0
-2292 2084 0
-1977 -2084 2292 0
-2293 1979 0
-2293 2101 0
-1979 -2101 2293 0
-2294 1981 0
-2294 2118 0
-1981 -2118 2294 0
-2295 1983 0
-2295 2135 0
-1983 -2135 2295 0
-2296 1985 0
-2296 2152 0
-1985 -2152 2296 0
-2297 1987 0
-2297 2169 0
-1987 -2169 2297 0
-2298 1989 0
-2298 2186 0
-1989 -2186 2298 0
-2299 1991 0
-2299 2203 0
-1991 -2203 2299 0
-2300 1993 0
-2300 2220 0
-1993 -2220 2300 0
-2301 1995 0
-2301 2237 0
-1995 -2237 2301 0
-2302 1997 0
-2302 2254 0
-1997 -2254 2302 0
-995 -2287 0
-995 -2288 0
-995 -2289 0
-995 -2290 0
-995 -2291 0
-995 -2292 0
-995 -2293 0
-995 -2294 0
-995 -2295 0
-995 -2296 0
-995 -2297 0
-995 -2298 0
-995 -2299 0
-995 -2300 0
-995 -2301 0
-995 -2302 0
-1964 995 2287 2288 2289 2290 2291 2292 2293 2294 2295 2296 2297 2298 2299 2300 2301 2302 0
-998 1967 0
-2303 1964 0
-2303 1966 0
-1964 -1966 2303 0
-2304 1969 0
-2304 2017 0
-1969 -2017 2304 0
-2305 1971 0
-2305 2034 0
-1971 -2034 2305 0
-2306 1973 0
-2306 2051 0
-1973 -2051 2306 0
-2307 1975 0
-2307 2068 0
-1975 -2068 2307 0
-2308 1977 0
-2308 2085 0
-1977 -2085 2308 0
-2309 1979 0
-2309 2102 0
-1979 -2102 2309 0
-2310 1981 0
-2310 2119 0
-1981 -2119 2310 0
-2311 1983 0
-2311 2136 0
-1983 -2136 2311 0
-2312 1985 0
-2312 2153 0
-1985 -2153 2312 0
-2313 1987 0
-2313 2170 0
-1987 -2170 2313 0
-2314 1989 0
-2314 2187 0
-1989 -2187 2314 0
-2315 1991 0
-2315 2204 0
-1991 -2204 2315 0
-2316 1993 0
-2316 2221 0
-1993 -2221 2316 0
-2317 1995 0
-2317 2238 0
-1995 -2238 2317 0
-2318 1997 0
-2318 2255 0
-1997 -2255 2318 0
-998 -2303 0
-998 -2304 0
-998 -2305 0
-998 -2306 0
-998 -2307 0
-998 -2308 0
-998 -2309 0
-998 -2310 0
-998 -2311 0
-998 -2312 0
-998 -2313 0
-998 -2314 0
-998 -2315 0
-998 -2316 0
-998 -2317 0
-998 -2318 0
-1967 998 2303 2304 2305 2306 2307 2308 2309 2310 2311 2312 2313 2314 2315 2316 2317 2318 0
-1001 1969 0
-2319 1964 0
-2319 1968 0
-1964 -1968 2319 0
-2320 1967 0
-2320 2000 0
-1967 -2000 2320 0
-2321 1971 0
-2321 2035 0
-1971 -2035 2321 0
-2322 1973 0
-2322 2052 0
-1973 -2052 2322 0
-2323 1975 0
-2323 2069 0
-1975 -2069 2323 0
-2324 1977 0
-2324 2086 0
-1977 -2086 2324 0
-2325 1979 0
-2325 2103 0
-1979 -2103 2325 0
-2326 1981 0
-2326 2120 0
-1981 -2120 2326 0
-2327 1983 0
-2327 2137 0
-1983 -2137 2327 0
-2328 1985 0
-2328 2154 0
-1985 -2154 2328 0
-2329 1987 0
-2329 2171 0
-1987 -2171 2329 0
-2330 1989 0
-2330 2188 0
-1989 -2188 2330 0
-2331 1991 0
-2331 2205 0
-1991 -2205 2331 0
-2332 1993 0
-2332 2222 0
-1993 -2222 2332 0
-2333 1995 0
-2333 2239 0
-1995 -2239 2333 0
-2334 1997 0
-2334 2256 0
-1997 -2256 2334 0
-1001 -2319 0
-1001 -2320 0
-1001 -2321 0
-1001 -2322 0
-1001 -2323 0
-1001 -2324 0
-1001 -2325 0
-1001 -2326 0
-1001 -2327 0
-1001 -2328 0
-1001 -2329 0
-1001 -2330 0
-1001 -2331 0
-1001 -2332 0
-1001 -2333 0
-1001 -2334 0
-1969 1001 2319 2320 2321 2322 2323 2324 2325 2326 2327 2328 2329 2330 2331 2332 2333 2334 0
-1004 1971 0
-2335 1964 0
-2335 1970 0
-1964 -1970 2335 0
-2336 1967 0
-2336 2001 0
-1967 -2001 2336 0
-2337 1969 0
-2337 2018 0
-1969 -2018 2337 0
-2338 1973 0
-2338 2053 0
-1973 -2053 2338 0
-2339 1975 0
-2339 2070 0
-1975 -2070 2339 0
-2340 1977 0
-2340 2087 0
-1977 -2087 2340 0
-2341 1979 0
-2341 2104 0
-1979 -2104 2341 0
-2342 1981 0
-2342 2121 0
-1981 -2121 2342 0
-2343 1983 0
-2343 2138 0
-1983 -2138 2343 0
-2344 1985 0
-2344 2155 0
-1985 -2155 2344 0
-2345 1987 0
-2345 2172 0
-1987 -2172 2345 0
-2346 1989 0
-2346 2189 0
-1989 -2189 2346 0
-2347 1991 0
-2347 2206 0
-1991 -2206 2347 0
-2348 1993 0
-2348 2223 0
-1993 -2223 2348 0
-2349 1995 0
-2349 2240 0
-1995 -2240 2349 0
-2350 1997 0
-2350 2257 0
-1997 -2257 2350 0
-1004 -2335 0
-1004 -2336 0
-1004 -2337 0
-1004 -2338 0
-1004 -2339 0
-1004 -2340 0
-1004 -2341 0
-1004 -2342 0
-1004 -2343 0
-1004 -2344 0
-1004 -2345 0
-1004 -2346 0
-1004 -2347 0
-1004 -2348 0
-1004 -2349 0
-1004 -2350 0
-1971 1004 2335 2336 2337 2338 2339 2340 2341 2342 2343 2344 2345 2346 2347 2348 2349 2350 0
-1007 1973 0
-2351 1964 0
-2351 1972 0
-1964 -1972 2351 0
-2352 1967 0
-2352 2002 0
-1967 -2002 2352 0
-2353 1969 0
-2353 2019 0
-1969 -2019 2353 0
-2354 1971 0
-2354 2036 0
-1971 -2036 2354 0
-2355 1975 0
-2355 2071 0
-1975 -2071 2355 0
-2356 1977 0
-2356 2088 0
-1977 -2088 2356 0
-2357 1979 0
-2357 2105 0
-1979 -2105 2357 0
-2358 1981 0
-2358 2122 0
-1981 -2122 2358 0
-2359 1983 0
-2359 2139 0
-1983 -2139 2359 0
-2360 1985 0
-2360 2156 0
-1985 -2156 2360 0
-2361 1987 0
-2361 2173 0
-1987 -2173 2361 0
-2362 1989 0
-2362 2190 0
-1989 -2190 2362 0
-2363 1991 0
-2363 2207 0
-1991 -2207 2363 0
-2364 1993 0
-2364 2224 0
-1993 -2224 2364 0
-2365 1995 0
-2365 2241 0
-1995 -2241 2365 0
-2366 1997 0
-2366 2258 0
-1997 -2258 2366 0
-1007 -2351 0
-1007 -2352 0
-1007 -2353 0
-1007 -2354 0
-1007 -2355 0
-1007 -2356 0
-1007 -2357 0
-1007 -2358 0
-1007 -2359 0
-1007 -2360 0
-1007 -2361 0
-1007 -2362 0
-1007 -2363 0
-1007 -2364 0
-1007 -2365 0
-1007 -2366 0
-1973 1007 2351 2352 2353 2354 2355 2356 2357 2358 2359 2360 2361 2362 2363 2364 2365 2366 0
-1010 1975 0
-2367 1964 0
-2367 1974 0
-1964 -1974 2367 0
-2368 1967 0
-2368 2003 0
-1967 -2003 2368 0
-2369 1969 0
-2369 2020 0
-1969 -2020 2369 0
-2370 1971 0
-2370 2037 0
-1971 -2037 2370 0
-2371 1973 0
-2371 2054 0
-1973 -2054 2371 0
-2372 1977 0
-2372 2089 0
-1977 -2089 2372 0
-2373 1979 0
-2373 2106 0
-1979 -2106 2373 0
-2374 1981 0
-2374 2123 0
-1981 -2123 2374 0
-2375 1983 0
-2375 2140 0
-1983 -2140 2375 0
-2376 1985 0
-2376 2157 0
-1985 -2157 2376 0
-2377 1987 0
-2377 2174 0
-1987 -2174 2377 0
-2378 1989 0
-2378 2191 0
-1989 -2191 2378 0
-2379 1991 0
-2379 2208 0
-1991 -2208 2379 0
-2380 1993 0
-2380 2225 0
-1993 -2225 2380 0
-2381 1995 0
-2381 2242 0
-1995 -2242 2381 0
-2382 1997 0
-2382 2259 0
-1997 -2259 2382 0
-1010 -2367 0
-1010 -2368 0
-1010 -2369 0
-1010 -2370 0
-1010 -2371 0
-1010 -2372 0
-1010 -2373 0
-1010 -2374 0
-1010 -2375 0
-1010 -2376 0
-1010 -2377 0
-1010 -2378 0
-1010 -2379 0
-1010 -2380 0
-1010 -2381 0
-1010 -2382 0
-1975 1010 2367 2368 2369 2370 2371 2372 2373 2374 2375 2376 2377 2378 2379 2380 2381 2382 0
-1013 1977 0
-2383 1964 0
-2383 1976 0
-1964 -1976 2383 0
-2384 1967 0
-2384 2004 0
-1967 -2004 2384 0
-2385 1969 0
-2385 2021 0
-1969 -2021 2385 0
-2386 1971 0
-2386 2038 0
-1971 -2038 2386 0
-2387 1973 0
-2387 2055 0
-1973 -2055 2387 0
-2388 1975 0
-2388 2072 0
-1975 -2072 2388 0
-2389 1979 0
-2389 2107 0
-1979 -2107 2389 0
-2390 1981 0
-2390 2124 0
-1981 -2124 2390 0
-2391 1983 0
-2391 2141 0
-1983 -2141 2391 0
-2392 1985 0
-2392 2158 0
-1985 -2158 2392 0
-2393 1987 0
-2393 2175 0
-1987 -2175 2393 0
-2394 1989 0
-2394 2192 0
-1989 -2192 2394 0
-2395 1991 0
-2395 2209 0
-1991 -2209 2395 0
-2396 1993 0
-2396 2226 0
-1993 -2226 2396 0
-2397 1995 0
-2397 2243 0
-1995 -2243 2397 0
-2398 1997 0
-2398 2260 0
-1997 -2260 2398 0
-1013 -2383 0
-1013 -2384 0
-1013 -2385 0
-1013 -2386 0
-1013 -2387 0
-1013 -2388 0
-1013 -2389 0
-1013 -2390 0
-1013 -2391 0
-1013 -2392 0
-1013 -2393 0
-1013 -2394 0
-1013 -2395 0
-1013 -2396 0
-1013 -2397 0
-1013 -2398 0
-1977 1013 2383 2384 2385 2386 2387 2388 2389 2390 2391 2392 2393 2394 2395 2396 2397 2398 0
-1016 1979 0
-2399 1964 0
-2399 1978 0
-1964 -1978 2399 0
-2400 1967 0
-2400 2005 0
-1967 -2005 2400 0
-2401 1969 0
-2401 2022 0
-1969 -2022 2401 0
-2402 1971 0
-2402 2039 0
-1971 -2039 2402 0
-2403 1973 0
-2403 2056 0
-1973 -2056 2403 0
-2404 1975 0
-2404 2073 0
-1975 -2073 2404 0
-2405 1977 0
-2405 2090 0
-1977 -2090 2405 0
-2406 1981 0
-2406 2125 0
-1981 -2125 2406 0
-2407 1983 0
-2407 2142 0
-1983 -2142 2407 0
-2408 1985 0
-2408 2159 0
-1985 -2159 2408 0
-2409 1987 0
-2409 2176 0
-1987 -2176 2409 0
-2410 1989 0
-2410 2193 0
-1989 -2193 2410 0
-2411 1991 0
-2411 2210 0
-1991 -2210 2411 0
-2412 1993 0
-2412 2227 0
-1993 -2227 2412 0
-2413 1995 0
-2413 2244 0
-1995 -2244 2413 0
-2414 1997 0
-2414 2261 0
-1997 -2261 2414 0
-1016 -2399 0
-1016 -2400 0
-1016 -2401 0
-1016 -2402 0
-1016 -2403 0
-1016 -2404 0
-1016 -2405 0
-1016 -2406 0
-1016 -2407 0
-1016 -2408 0
-1016 -2409 0
-1016 -2410 0
-1016 -2411 0
-1016 -2412 0
-1016 -2413 0
-1016 -2414 0
-1979 1016 2399 2400 2401 2402 2403 2404 2405 2406 2407 2408 2409 2410 2411 2412 2413 2414 0
-1019 1981 0
-2415 1964 0
-2415 1980 0
-1964 -1980 2415 0
-2416 1967 0
-2416 2006 0
-1967 -2006 2416 0
-2417 1969 0
-2417 2023 0
-1969 -2023 2417 0
-2418 1971 0
-2418 2040 0
-1971 -2040 2418 0
-2419 1973 0
-2419 2057 0
-1973 -2057 2419 0
-2420 1975 0
-2420 2074 0
-1975 -2074 2420 0
-2421 1977 0
-2421 2091 0
-1977 -2091 2421 0
-2422 1979 0
-2422 2108 0
-1979 -2108 2422 0
-2423 1983 0
-2423 2143 0
-1983 -2143 2423 0
-2424 1985 0
-2424 2160 0
-1985 -2160 2424 0
-2425 1987 0
-2425 2177 0
-1987 -2177 2425 0
-2426 1989 0
-2426 2194 0
-1989 -2194 2426 0
-2427 1991 0
-2427 2211 0
-1991 -2211 2427 0
-2428 1993 0
-2428 2228 0
-1993 -2228 2428 0
-2429 1995 0
-2429 2245 0
-1995 -2245 2429 0
-2430 1997 0
-2430 2262 0
-1997 -2262 2430 0
-1019 -2415 0
-1019 -2416 0
-1019 -2417 0
-1019 -2418 0
-1019 -2419 0
-1019 -2420 0
-1019 -2421 0
-1019 -2422 0
-1019 -2423 0
-1019 -2424 0
-1019 -2425 0
-1019 -2426 0
-1019 -2427 0
-1019 -2428 0
-1019 -2429 0
-1019 -2430 0
-1981 1019 2415 2416 2417 2418 2419 2420 2421 2422 2423 2424 2425 2426 2427 2428 2429 2430 0
-1022 1983 0
-2431 1964 0
-2431 1982 0
-1964 -1982 2431 0
-2432 1967 0
-2432 2007 0
-1967 -2007 2432 0
-2433 1969 0
-2433 2024 0
-1969 -2024 2433 0
-2434 1971 0
-2434 2041 0
-1971 -2041 2434 0
-2435 1973 0
-2435 2058 0
-1973 -2058 2435 0
-2436 1975 0
-2436 2075 0
-1975 -2075 2436 0
-2437 1977 0
-2437 2092 0
-1977 -2092 2437 0
-2438 1979 0
-2438 2109 0
-1979 -2109 2438 0
-2439 1981 0
-2439 2126 0
-1981 -2126 2439 0
-2440 1985 0
-2440 2161 0
-1985 -2161 2440 0
-2441 1987 0
-2441 2178 0
-1987 -2178 2441 0
-2442 1989 0
-2442 2195 0
-1989 -2195 2442 0
-2443 1991 0
-2443 2212 0
-1991 -2212 2443 0
-2444 1993 0
-2444 2229 0
-1993 -2229 2444 0
-2445 1995 0
-2445 2246 0
-1995 -2246 2445 0
-2446 1997 0
-2446 2263 0
-1997 -2263 2446 0
-1022 -2431 0
-1022 -2432 0
-1022 -2433 0
-1022 -2434 0
-1022 -2435 0
-1022 -2436 0
-1022 -2437 0
-1022 -2438 0
-1022 -2439 0
-1022 -2440 0
-1022 -2441 0
-1022 -2442 0
-1022 -2443 0
-1022 -2444 0
-1022 -2445 0
-1022 -2446 0
-1983 1022 2431 2432 2433 2434 2435 2436 2437 2438 2439 2440 2441 2442 2443 2444 2445 2446 0
-1025 1985 0
-2447 1964 0
-2447 1984 0
-1964 -1984 2447 0
-2448 1967 0
-2448 2008 0
-1967 -2008 2448 0
-2449 1969 0
-2449 2025 0
-1969 -2025 2449 0
-2450 1971 0
-2450 2042 0
-1971 -2042 2450 0
-2451 1973 0
-2451 2059 0
-1973 -2059 2451 0
-2452 1975 0
-2452 2076 0
-1975 -2076 2452 0
-2453 1977 0
-2453 2093 0
-1977 -2093 2453 0
-2454 1979 0
-2454 2110 0
-1979 -2110 2454 0
-2455 1981 0
-2455 2127 0
-1981 -2127 2455 0
-2456 1983 0
-2456 2144 0
-1983 -2144 2456 0
-2457 1987 0
-2457 2179 0
-1987 -2179 2457 0
-2458 1989 0
-2458 2196 0
-1989 -2196 2458 0
-2459 1991 0
-2459 2213 0
-1991 -2213 2459 0
-2460 1993 0
-2460 2230 0
-1993 -2230 2460 0
-2461 1995 0
-2461 2247 0
-1995 -2247 2461 0
-2462 1997 0
-2462 2264 0
-1997 -2264 2462 0
-1025 -2447 0
-1025 -2448 0
-1025 -2449 0
-1025 -2450 0
-1025 -2451 0
-1025 -2452 0
-1025 -2453 0
-1025 -2454 0
-1025 -2455 0
-1025 -2456 0
-1025 -2457 0
-1025 -2458 0
-1025 -2459 0
-1025 -2460 0
-1025 -2461 0
-1025 -2462 0
-1985 1025 2447 2448 2449 2450 2451 2452 2453 2454 2455 2456 2457 2458 2459 2460 2461 2462 0
-1028 1987 0
-2463 1964 0
-2463 1986 0
-1964 -1986 2463 0
-2464 1967 0
-2464 2009 0
-1967 -2009 2464 0
-2465 1969 0
-2465 2026 0
-1969 -2026 2465 0
-2466 1971 0
-2466 2043 0
-1971 -2043 2466 0
-2467 1973 0
-2467 2060 0
-1973 -2060 2467 0
-2468 1975 0
-2468 2077 0
-1975 -2077 2468 0
-2469 1977 0
-2469 2094 0
-1977 -2094 2469 0
-2470 1979 0
-2470 2111 0
-1979 -2111 2470 0
-2471 1981 0
-2471 2128 0
-1981 -2128 2471 0
-2472 1983 0
-2472 2145 0
-1983 -2145 2472 0
-2473 1985 0
-2473 2162 0
-1985 -2162 2473 0
-2474 1989 0
-2474 2197 0
-1989 -2197 2474 0
-2475 1991 0
-2475 2214 0
-1991 -2214 2475 0
-2476 1993 0
-2476 2231 0
-1993 -2231 2476 0
-2477 1995 0
-2477 2248 0
-1995 -2248 2477 0
-2478 1997 0
-2478 2265 0
-1997 -2265 2478 0
-1028 -2463 0
-1028 -2464 0
-1028 -2465 0
-1028 -2466 0
-1028 -2467 0
-1028 -2468 0
-1028 -2469 0
-1028 -2470 0
-1028 -2471 0
-1028 -2472 0
-1028 -2473 0
-1028 -2474 0
-1028 -2475 0
-1028 -2476 0
-1028 -2477 0
-1028 -2478 0
-1987 1028 2463 2464 2465 2466 2467 2468 2469 2470 2471 2472 2473 2474 2475 2476 2477 2478 0
-1031 1989 0
-2479 1964 0
-2479 1988 0
-1964 -1988 2479 0
-2480 1967 0
-2480 2010 0
-1967 -2010 2480 0
-2481 1969 0
-2481 2027 0
-1969 -2027 2481 0
-2482 1971 0
-2482 2044 0
-1971 -2044 2482 0
-2483 1973 0
-2483 2061 0
-1973 -2061 2483 0
-2484 1975 0
-2484 2078 0
-1975 -2078 2484 0
-2485 1977 0
-2485 2095 0
-1977 -2095 2485 0
-2486 1979 0
-2486 2112 0
-1979 -2112 2486 0
-2487 1981 0
-2487 2129 0
-1981 -2129 2487 0
-2488 1983 0
-2488 2146 0
-1983 -2146 2488 0
-2489 1985 0
-2489 2163 0
-1985 -2163 2489 0
-2490 1987 0
-2490 2180 0
-1987 -2180 2490 0
-2491 1991 0
-2491 2215 0
-1991 -2215 2491 0
-2492 1993 0
-2492 2232 0
-1993 -2232 2492 0
-2493 1995 0
-2493 2249 0
-1995 -2249 2493 0
-2494 1997 0
-2494 2266 0
-1997 -2266 2494 0
-1031 -2479 0
-1031 -2480 0
-1031 -2481 0
-1031 -2482 0
-1031 -2483 0
-1031 -2484 0
-1031 -2485 0
-1031 -2486 0
-1031 -2487 0
-1031 -2488 0
-1031 -2489 0
-1031 -2490 0
-1031 -2491 0
-1031 -2492 0
-1031 -2493 0
-1031 -2494 0
-1989 1031 2479 2480 2481 2482 2483 2484 2485 2486 2487 2488 2489 2490 2491 2492 2493 2494 0
-1034 1991 0
-2495 1964 0
-2495 1990 0
-1964 -1990 2495 0
-2496 1967 0
-2496 2011 0
-1967 -2011 2496 0
-2497 1969 0
-2497 2028 0
-1969 -2028 2497 0
-2498 1971 0
-2498 2045 0
-1971 -2045 2498 0
-2499 1973 0
-2499 2062 0
-1973 -2062 2499 0
-2500 1975 0
-2500 2079 0
-1975 -2079 2500 0
-2501 1977 0
-2501 2096 0
-1977 -2096 2501 0
-2502 1979 0
-2502 2113 0
-1979 -2113 2502 0
-2503 1981 0
-2503 2130 0
-1981 -2130 2503 0
-2504 1983 0
-2504 2147 0
-1983 -2147 2504 0
-2505 1985 0
-2505 2164 0
-1985 -2164 2505 0
-2506 1987 0
-2506 2181 0
-1987 -2181 2506 0
-2507 1989 0
-2507 2198 0
-1989 -2198 2507 0
-2508 1993 0
-2508 2233 0
-1993 -2233 2508 0
-2509 1995 0
-2509 2250 0
-1995 -2250 2509 0
-2510 1997 0
-2510 2267 0
-1997 -2267 2510 0
-1034 -2495 0
-1034 -2496 0
-1034 -2497 0
-1034 -2498 0
-1034 -2499 0
-1034 -2500 0
-1034 -2501 0
-1034 -2502 0
-1034 -2503 0
-1034 -2504 0
-1034 -2505 0
-1034 -2506 0
-1034 -2507 0
-1034 -2508 0
-1034 -2509 0
-1034 -2510 0
-1991 1034 2495 2496 2497 2498 2499 2500 2501 2502 2503 2504 2505 2506 2507 2508 2509 2510 0
-1037 1993 0
-2511 1964 0
-2511 1992 0
-1964 -1992 2511 0
-2512 1967 0
-2512 2012 0
-1967 -2012 2512 0
-2513 1969 0
-2513 2029 0
-1969 -2029 2513 0
-2514 1971 0
-2514 2046 0
-1971 -2046 2514 0
-2515 1973 0
-2515 2063 0
-1973 -2063 2515 0
-2516 1975 0
-2516 2080 0
-1975 -2080 2516 0
-2517 1977 0
-2517 2097 0
-1977 -2097 2517 0
-2518 1979 0
-2518 2114 0
-1979 -2114 2518 0
-2519 1981 0
-2519 2131 0
-1981 -2131 2519 0
-2520 1983 0
-2520 2148 0
-1983 -2148 2520 0
-2521 1985 0
-2521 2165 0
-1985 -2165 2521 0
-2522 1987 0
-2522 2182 0
-1987 -2182 2522 0
-2523 1989 0
-2523 2199 0
-1989 -2199 2523 0
-2524 1991 0
-2524 2216 0
-1991 -2216 2524 0
-2525 1995 0
-2525 2251 0
-1995 -2251 2525 0
-2526 1997 0
-2526 2268 0
-1997 -2268 2526 0
-1037 -2511 0
-1037 -2512 0
-1037 -2513 0
-1037 -2514 0
-1037 -2515 0
-1037 -2516 0
-1037 -2517 0
-1037 -2518 0
-1037 -2519 0
-1037 -2520 0
-1037 -2521 0
-1037 -2522 0
-1037 -2523 0
-1037 -2524 0
-1037 -2525 0
-1037 -2526 0
-1993 1037 2511 2512 2513 2514 2515 2516 2517 2518 2519 2520 2521 2522 2523 2524 2525 2526 0
-1040 1995 0
-2527 1964 0
-2527 1994 0
-1964 -1994 2527 0
-2528 1967 0
-2528 2013 0
-1967 -2013 2528 0
-2529 1969 0
-2529 2030 0
-1969 -2030 2529 0
-2530 1971 0
-2530 2047 0
-1971 -2047 2530 0
-2531 1973 0
-2531 2064 0
-1973 -2064 2531 0
-2532 1975 0
-2532 2081 0
-1975 -2081 2532 0
-2533 1977 0
-2533 2098 0
-1977 -2098 2533 0
-2534 1979 0
-2534 2115 0
-1979 -2115 2534 0
-2535 1981 0
-2535 2132 0
-1981 -2132 2535 0
-2536 1983 0
-2536 2149 0
-1983 -2149 2536 0
-2537 1985 0
-2537 2166 0
-1985 -2166 2537 0
-2538 1987 0
-2538 2183 0
-1987 -2183 2538 0
-2539 1989 0
-2539 2200 0
-1989 -2200 2539 0
-2540 1991 0
-2540 2217 0
-1991 -2217 2540 0
-2541 1993 0
-2541 2234 0
-1993 -2234 2541 0
-2542 1997 0
-2542 2269 0
-1997 -2269 2542 0
-1040 -2527 0
-1040 -2528 0
-1040 -2529 0
-1040 -2530 0
-1040 -2531 0
-1040 -2532 0
-1040 -2533 0
-1040 -2534 0
-1040 -2535 0
-1040 -2536 0
-1040 -2537 0
-1040 -2538 0
-1040 -2539 0
-1040 -2540 0
-1040 -2541 0
-1040 -2542 0
-1995 1040 2527 2528 2529 2530 2531 2532 2533 2534 2535 2536 2537 2538 2539 2540 2541 2542 0
-1043 1997 0
-2543 1964 0
-2543 1996 0
-1964 -1996 2543 0
-2544 1967 0
-2544 2014 0
-1967 -2014 2544 0
-2545 1969 0
-2545 2031 0
-1969 -2031 2545 0
-2546 1971 0
-2546 2048 0
-1971 -2048 2546 0
-2547 1973 0
-2547 2065 0
-1973 -2065 2547 0
-2548 1975 0
-2548 2082 0
-1975 -2082 2548 0
-2549 1977 0
-2549 2099 0
-1977 -2099 2549 0
-2550 1979 0
-2550 2116 0
-1979 -2116 2550 0
-2551 1981 0
-2551 2133 0
-1981 -2133 2551 0
-2552 1983 0
-2552 2150 0
-1983 -2150 2552 0
-2553 1985 0
-2553 2167 0
-1985 -2167 2553 0
-2554 1987 0
-2554 2184 0
-1987 -2184 2554 0
-2555 1989 0
-2555 2201 0
-1989 -2201 2555 0
-2556 1991 0
-2556 2218 0
-1991 -2218 2556 0
-2557 1993 0
-2557 2235 0
-1993 -2235 2557 0
-2558 1995 0
-2558 2252 0
-1995 -2252 2558 0
-1043 -2543 0
-1043 -2544 0
-1043 -2545 0
-1043 -2546 0
-1043 -2547 0
-1043 -2548 0
-1043 -2549 0
-1043 -2550 0
-1043 -2551 0
-1043 -2552 0
-1043 -2553 0
-1043 -2554 0
-1043 -2555 0
-1043 -2556 0
-1043 -2557 0
-1043 -2558 0
-1997 1043 2543 2544 2545 2546 2547 2548 2549 2550 2551 2552 2553 2554 2555 2556 2557 2558 0
-1046 1965 0
-2559 1966 0
-2559 1998 0
-1966 -1998 2559 0
-2560 1968 0
-2560 2015 0
-1968 -2015 2560 0
-2561 1970 0
-2561 2032 0
-1970 -2032 2561 0
-2562 1972 0
-2562 2049 0
-1972 -2049 2562 0
-2563 1974 0
-2563 2066 0
-1974 -2066 2563 0
-2564 1976 0
-2564 2083 0
-1976 -2083 2564 0
-2565 1978 0
-2565 2100 0
-1978 -2100 2565 0
-2566 1980 0
-2566 2117 0
-1980 -2117 2566 0
-2567 1982 0
-2567 2134 0
-1982 -2134 2567 0
-2568 1984 0
-2568 2151 0
-1984 -2151 2568 0
-2569 1986 0
-2569 2168 0
-1986 -2168 2569 0
-2570 1988 0
-2570 2185 0
-1988 -2185 2570 0
-2571 1990 0
-2571 2202 0
-1990 -2202 2571 0
-2572 1992 0
-2572 2219 0
-1992 -2219 2572 0
-2573 1994 0
-2573 2236 0
-1994 -2236 2573 0
-2574 1996 0
-2574 2253 0
-1996 -2253 2574 0
-1046 -2559 0
-1046 -2560 0
-1046 -2561 0
-1046 -2562 0
-1046 -2563 0
-1046 -2564 0
-1046 -2565 0
-1046 -2566 0
-1046 -2567 0
-1046 -2568 0
-1046 -2569 0
-1046 -2570 0
-1046 -2571 0
-1046 -2572 0
-1046 -2573 0
-1046 -2574 0
-1965 1046 2559 2560 2561 2562 2563 2564 2565 2566 2567 2568 2569 2570 2571 2572 2573 2574 0
-1049 0
-1052 1966 0
-2575 1965 0
-2575 1967 0
-1965 -1967 2575 0
-2576 1968 0
-2576 2017 0
-1968 -2017 2576 0
-2577 1970 0
-2577 2034 0
-1970 -2034 2577 0
-2578 1972 0
-2578 2051 0
-1972 -2051 2578 0
-2579 1974 0
-2579 2068 0
-1974 -2068 2579 0
-2580 1976 0
-2580 2085 0
-1976 -2085 2580 0
-2581 1978 0
-2581 2102 0
-1978 -2102 2581 0
-2582 1980 0
-2582 2119 0
-1980 -2119 2582 0
-2583 1982 0
-2583 2136 0
-1982 -2136 2583 0
-2584 1984 0
-2584 2153 0
-1984 -2153 2584 0
-2585 1986 0
-2585 2170 0
-1986 -2170 2585 0
-2586 1988 0
-2586 2187 0
-1988 -2187 2586 0
-2587 1990 0
-2587 2204 0
-1990 -2204 2587 0
-2588 1992 0
-2588 2221 0
-1992 -2221 2588 0
-2589 1994 0
-2589 2238 0
-1994 -2238 2589 0
-2590 1996 0
-2590 2255 0
-1996 -2255 2590 0
-1052 -2575 0
-1052 -2576 0
-1052 -2577 0
-1052 -2578 0
-1052 -2579 0
-1052 -2580 0
-1052 -2581 0
-1052 -2582 0
-1052 -2583 0
-1052 -2584 0
-1052 -2585 0
-1052 -2586 0
-1052 -2587 0
-1052 -2588 0
-1052 -2589 0
-1052 -2590 0
-1966 1052 2575 2576 2577 2578 2579 2580 2581 2582 2583 2584 2585 2586 2587 2588 2589 2590 0
-1055 1968 0
-2591 1965 0
-2591 1969 0
-1965 -1969 2591 0
-2592 1966 0
-2592 2000 0
-1966 -2000 2592 0
-2593 1970 0
-2593 2035 0
-1970 -2035 2593 0
-2594 1972 0
-2594 2052 0
-1972 -2052 2594 0
-2595 1974 0
-2595 2069 0
-1974 -2069 2595 0
-2596 1976 0
-2596 2086 0
-1976 -2086 2596 0
-2597 1978 0
-2597 2103 0
-1978 -2103 2597 0
-2598 1980 0
-2598 2120 0
-1980 -2120 2598 0
-2599 1982 0
-2599 2137 0
-1982 -2137 2599 0
-2600 1984 0
-2600 2154 0
-1984 -2154 2600 0
-2601 1986 0
-2601 2171 0
-1986 -2171 2601 0
-2602 1988 0
-2602 2188 0
-1988 -2188 2602 0
-2603 1990 0
-2603 2205 0
-1990 -2205 2603 0
-2604 1992 0
-2604 2222 0
-1992 -2222 2604 0
-2605 1994 0
-2605 2239 0
-1994 -2239 2605 0
-2606 1996 0
-2606 2256 0
-1996 -2256 2606 0
-1055 -2591 0
-1055 -2592 0
-1055 -2593 0
-1055 -2594 0
-1055 -2595 0
-1055 -2596 0
-1055 -2597 0
-1055 -2598 0
-1055 -2599 0
-1055 -2600 0
-1055 -2601 0
-1055 -2602 0
-1055 -2603 0
-1055 -2604 0
-1055 -2605 0
-1055 -2606 0
-1968 1055 2591 2592 2593 2594 2595 2596 2597 2598 2599 2600 2601 2602 2603 2604 2605 2606 0
-1058 1970 0
-2607 1965 0
-2607 1971 0
-1965 -1971 2607 0
-2608 1966 0
-2608 2001 0
-1966 -2001 2608 0
-2609 1968 0
-2609 2018 0
-1968 -2018 2609 0
-2610 1972 0
-2610 2053 0
-1972 -2053 2610 0
-2611 1974 0
-2611 2070 0
-1974 -2070 2611 0
-2612 1976 0
-2612 2087 0
-1976 -2087 2612 0
-2613 1978 0
-2613 2104 0
-1978 -2104 2613 0
-2614 1980 0
-2614 2121 0
-1980 -2121 2614 0
-2615 1982 0
-2615 2138 0
-1982 -2138 2615 0
-2616 1984 0
-2616 2155 0
-1984 -2155 2616 0
-2617 1986 0
-2617 2172 0
-1986 -2172 2617 0
-2618 1988 0
-2618 2189 0
-1988 -2189 2618 0
-2619 1990 0
-2619 2206 0
-1990 -2206 2619 0
-2620 1992 0
-2620 2223 0
-1992 -2223 2620 0
-2621 1994 0
-2621 2240 0
-1994 -2240 2621 0
-2622 1996 0
-2622 2257 0
-1996 -2257 2622 0
-1058 -2607 0
-1058 -2608 0
-1058 -2609 0
-1058 -2610 0
-1058 -2611 0
-1058 -2612 0
-1058 -2613 0
-1058 -2614 0
-1058 -2615 0
-1058 -2616 0
-1058 -2617 0
-1058 -2618 0
-1058 -2619 0
-1058 -2620 0
-1058 -2621 0
-1058 -2622 0
-1970 1058 2607 2608 2609 2610 2611 2612 2613 2614 2615 2616 2617 2618 2619 2620 2621 2622 0
-1061 1972 0
-2623 1965 0
-2623 1973 0
-1965 -1973 2623 0
-2624 1966 0
-2624 2002 0
-1966 -2002 2624 0
-2625 1968 0
-2625 2019 0
-1968 -2019 2625 0
-2626 1970 0
-2626 2036 0
-1970 -2036 2626 0
-2627 1974 0
-2627 2071 0
-1974 -2071 2627 0
-2628 1976 0
-2628 2088 0
-1976 -2088 2628 0
-2629 1978 0
-2629 2105 0
-1978 -2105 2629 0
-2630 1980 0
-2630 2122 0
-1980 -2122 2630 0
-2631 1982 0
-2631 2139 0
-1982 -2139 2631 0
-2632 1984 0
-2632 2156 0
-1984 -2156 2632 0
-2633 1986 0
-2633 2173 0
-1986 -2173 2633 0
-2634 1988 0
-2634 2190 0
-1988 -2190 2634 0
-2635 1990 0
-2635 2207 0
-1990 -2207 2635 0
-2636 1992 0
-2636 2224 0
-1992 -2224 2636 0
-2637 1994 0
-2637 2241 0
-1994 -2241 2637 0
-2638 1996 0
-2638 2258 0
-1996 -2258 2638 0
-1061 -2623 0
-1061 -2624 0
-1061 -2625 0
-1061 -2626 0
-1061 -2627 0
-1061 -2628 0
-1061 -2629 0
-1061 -2630 0
-1061 -2631 0
-1061 -2632 0
-1061 -2633 0
-1061 -2634 0
-1061 -2635 0
-1061 -2636 0
-1061 -2637 0
-1061 -2638 0
-1972 1061 2623 2624 2625 2626 2627 2628 2629 2630 2631 2632 2633 2634 2635 2636 2637 2638 0
-1064 1974 0
-2639 1965 0
-2639 1975 0
-1965 -1975 2639 0
-2640 1966 0
-2640 2003 0
-1966 -2003 2640 0
-2641 1968 0
-2641 2020 0
-1968 -2020 2641 0
-2642 1970 0
-2642 2037 0
-1970 -2037 2642 0
-2643 1972 0
-2643 2054 0
-1972 -2054 2643 0
-2644 1976 0
-2644 2089 0
-1976 -2089 2644 0
-2645 1978 0
-2645 2106 0
-1978 -2106 2645 0
-2646 1980 0
-2646 2123 0
-1980 -2123 2646 0
-2647 1982 0
-2647 2140 0
-1982 -2140 2647 0
-2648 1984 0
-2648 2157 0
-1984 -2157 2648 0
-2649 1986 0
-2649 2174 0
-1986 -2174 2649 0
-2650 1988 0
-2650 2191 0
-1988 -2191 2650 0
-2651 1990 0
-2651 2208 0
-1990 -2208 2651 0
-2652 1992 0
-2652 2225 0
-1992 -2225 2652 0
-2653 1994 0
-2653 2242 0
-1994 -2242 2653 0
-2654 1996 0
-2654 2259 0
-1996 -2259 2654 0
-1064 -2639 0
-1064 -2640 0
-1064 -2641 0
-1064 -2642 0
-1064 -2643 0
-1064 -2644 0
-1064 -2645 0
-1064 -2646 0
-1064 -2647 0
-1064 -2648 0
-1064 -2649 0
-1064 -2650 0
-1064 -2651 0
-1064 -2652 0
-1064 -2653 0
-1064 -2654 0
-1974 1064 2639 2640 2641 2642 2643 2644 2645 2646 2647 2648 2649 2650 2651 2652 2653 2654 0
-1067 1976 0
-2655 1965 0
-2655 1977 0
-1965 -1977 2655 0
-2656 1966 0
-2656 2004 0
-1966 -2004 2656 0
-2657 1968 0
-2657 2021 0
-1968 -2021 2657 0
-2658 1970 0
-2658 2038 0
-1970 -2038 2658 0
-2659 1972 0
-2659 2055 0
-1972 -2055 2659 0
-2660 1974 0
-2660 2072 0
-1974 -2072 2660 0
-2661 1978 0
-2661 2107 0
-1978 -2107 2661 0
-2662 1980 0
-2662 2124 0
-1980 -2124 2662 0
-2663 1982 0
-2663 2141 0
-1982 -2141 2663 0
-2664 1984 0
-2664 2158 0
-1984 -2158 2664 0
-2665 1986 0
-2665 2175 0
-1986 -2175 2665 0
-2666 1988 0
-2666 2192 0
-1988 -2192 2666 0
-2667 1990 0
-2667 2209 0
-1990 -2209 2667 0
-2668 1992 0
-2668 2226 0
-1992 -2226 2668 0
-2669 1994 0
-2669 2243 0
-1994 -2243 2669 0
-2670 1996 0
-2670 2260 0
-1996 -2260 2670 0
-1067 -2655 0
-1067 -2656 0
-1067 -2657 0
-1067 -2658 0
-1067 -2659 0
-1067 -2660 0
-1067 -2661 0
-1067 -2662 0
-1067 -2663 0
-1067 -2664 0
-1067 -2665 0
-1067 -2666 0
-1067 -2667 0
-1067 -2668 0
-1067 -2669 0
-1067 -2670 0
-1976 1067 2655 2656 2657 2658 2659 2660 2661 2662 2663 2664 2665 2666 2667 2668 2669 2670 0
-1070 1978 0
-2671 1965 0
-2671 1979 0
-1965 -1979 2671 0
-2672 1966 0
-2672 2005 0
-1966 -2005 2672 0
-2673 1968 0
-2673 2022 0
-1968 -2022 2673 0
-2674 1970 0
-2674 2039 0
-1970 -2039 2674 0
-2675 1972 0
-2675 2056 0
-1972 -2056 2675 0
-2676 1974 0
-2676 2073 0
-1974 -2073 2676 0
-2677 1976 0
-2677 2090 0
-1976 -2090 2677 0
-2678 1980 0
-2678 2125 0
-1980 -2125 2678 0
-2679 1982 0
-2679 2142 0
-1982 -2142 2679 0
-2680 1984 0
-2680 2159 0
-1984 -2159 2680 0
-2681 1986 0
-2681 2176 0
-1986 -2176 2681 0
-2682 1988 0
-2682 2193 0
-1988 -2193 2682 0
-2683 1990 0
-2683 2210 0
-1990 -2210 2683 0
-2684 1992 0
-2684 2227 0
-1992 -2227 2684 0
-2685 1994 0
-2685 2244 0
-1994 -2244 2685 0
-2686 1996 0
-2686 2261 0
-1996 -2261 2686 0
-1070 -2671 0
-1070 -2672 0
-1070 -2673 0
-1070 -2674 0
-1070 -2675 0
-1070 -2676 0
-1070 -2677 0
-1070 -2678 0
-1070 -2679 0
-1070 -2680 0
-1070 -2681 0
-1070 -2682 0
-1070 -2683 0
-1070 -2684 0
-1070 -2685 0
-1070 -2686 0
-1978 1070 2671 2672 2673 2674 2675 2676 2677 2678 2679 2680 2681 2682 2683 2684 2685 2686 0
-1073 1980 0
-2687 1965 0
-2687 1981 0
-1965 -1981 2687 0
-2688 1966 0
-2688 2006 0
-1966 -2006 2688 0
-2689 1968 0
-2689 2023 0
-1968 -2023 2689 0
-2690 1970 0
-2690 2040 0
-1970 -2040 2690 0
-2691 1972 0
-2691 2057 0
-1972 -2057 2691 0
-2692 1974 0
-2692 2074 0
-1974 -2074 2692 0
-2693 1976 0
-2693 2091 0
-1976 -2091 2693 0
-2694 1978 0
-2694 2108 0
-1978 -2108 2694 0
-2695 1982 0
-2695 2143 0
-1982 -2143 2695 0
-2696 1984 0
-2696 2160 0
-1984 -2160 2696 0
-2697 1986 0
-2697 2177 0
-1986 -2177 2697 0
-2698 1988 0
-2698 2194 0
-1988 -2194 2698 0
-2699 1990 0
-2699 2211 0
-1990 -2211 2699 0
-2700 1992 0
-2700 2228 0
-1992 -2228 2700 0
-2701 1994 0
-2701 2245 0
-1994 -2245 2701 0
-2702 1996 0
-2702 2262 0
-1996 -2262 2702 0
-1073 -2687 0
-1073 -2688 0
-1073 -2689 0
-1073 -2690 0
-1073 -2691 0
-1073 -2692 0
-1073 -2693 0
-1073 -2694 0
-1073 -2695 0
-1073 -2696 0
-1073 -2697 0
-1073 -2698 0
-1073 -2699 0
-1073 -2700 0
-1073 -2701 0
-1073 -2702 0
-1980 1073 2687 2688 2689 2690 2691 2692 2693 2694 2695 2696 2697 2698 2699 2700 2701 2702 0
-1076 1982 0
-2703 1965 0
-2703 1983 0
-1965 -1983 2703 0
-2704 1966 0
-2704 2007 0
-1966 -2007 2704 0
-2705 1968 0
-2705 2024 0
-1968 -2024 2705 0
-2706 1970 0
-2706 2041 0
-1970 -2041 2706 0
-2707 1972 0
-2707 2058 0
-1972 -2058 2707 0
-2708 1974 0
-2708 2075 0
-1974 -2075 2708 0
-2709 1976 0
-2709 2092 0
-1976 -2092 2709 0
-2710 1978 0
-2710 2109 0
-1978 -2109 2710 0
-2711 1980 0
-2711 2126 0
-1980 -2126 2711 0
-2712 1984 0
-2712 2161 0
-1984 -2161 2712 0
-2713 1986 0
-2713 2178 0
-1986 -2178 2713 0
-2714 1988 0
-2714 2195 0
-1988 -2195 2714 0
-2715 1990 0
-2715 2212 0
-1990 -2212 2715 0
-2716 1992 0
-2716 2229 0
-1992 -2229 2716 0
-2717 1994 0
-2717 2246 0
-1994 -2246 2717 0
-2718 1996 0
-2718 2263 0
-1996 -2263 2718 0
-1076 -2703 0
-1076 -2704 0
-1076 -2705 0
-1076 -2706 0
-1076 -2707 0
-1076 -2708 0
-1076 -2709 0
-1076 -2710 0
-1076 -2711 0
-1076 -2712 0
-1076 -2713 0
-1076 -2714 0
-1076 -2715 0
-1076 -2716 0
-1076 -2717 0
-1076 -2718 0
-1982 1076 2703 2704 2705 2706 2707 2708 2709 2710 2711 2712 2713 2714 2715 2716 2717 2718 0
-1079 1984 0
-2719 1965 0
-2719 1985 0
-1965 -1985 2719 0
-2720 1966 0
-2720 2008 0
-1966 -2008 2720 0
-2721 1968 0
-2721 2025 0
-1968 -2025 2721 0
-2722 1970 0
-2722 2042 0
-1970 -2042 2722 0
-2723 1972 0
-2723 2059 0
-1972 -2059 2723 0
-2724 1974 0
-2724 2076 0
-1974 -2076 2724 0
-2725 1976 0
-2725 2093 0
-1976 -2093 2725 0
-2726 1978 0
-2726 2110 0
-1978 -2110 2726 0
-2727 1980 0
-2727 2127 0
-1980 -2127 2727 0
-2728 1982 0
-2728 2144 0
-1982 -2144 2728 0
-2729 1986 0
-2729 2179 0
-1986 -2179 2729 0
-2730 1988 0
-2730 2196 0
-1988 -2196 2730 0
-2731 1990 0
-2731 2213 0
-1990 -2213 2731 0
-2732 1992 0
-2732 2230 0
-1992 -2230 2732 0
-2733 1994 0
-2733 2247 0
-1994 -2247 2733 0
-2734 1996 0
-2734 2264 0
-1996 -2264 2734 0
-1079 -2719 0
-1079 -2720 0
-1079 -2721 0
-1079 -2722 0
-1079 -2723 0
-1079 -2724 0
-1079 -2725 0
-1079 -2726 0
-1079 -2727 0
-1079 -2728 0
-1079 -2729 0
-1079 -2730 0
-1079 -2731 0
-1079 -2732 0
-1079 -2733 0
-1079 -2734 0
-1984 1079 2719 2720 2721 2722 2723 2724 2725 2726 2727 2728 2729 2730 2731 2732 2733 2734 0
-1082 1986 0
-2735 1965 0
-2735 1987 0
-1965 -1987 2735 0
-2736 1966 0
-2736 2009 0
-1966 -2009 2736 0
-2737 1968 0
-2737 2026 0
-1968 -2026 2737 0
-2738 1970 0
-2738 2043 0
-1970 -2043 2738 0
-2739 1972 0
-2739 2060 0
-1972 -2060 2739 0
-2740 1974 0
-2740 2077 0
-1974 -2077 2740 0
-2741 1976 0
-2741 2094 0
-1976 -2094 2741 0
-2742 1978 0
-2742 2111 0
-1978 -2111 2742 0
-2743 1980 0
-2743 2128 0
-1980 -2128 2743 0
-2744 1982 0
-2744 2145 0
-1982 -2145 2744 0
-2745 1984 0
-2745 2162 0
-1984 -2162 2745 0
-2746 1988 0
-2746 2197 0
-1988 -2197 2746 0
-2747 1990 0
-2747 2214 0
-1990 -2214 2747 0
-2748 1992 0
-2748 2231 0
-1992 -2231 2748 0
-2749 1994 0
-2749 2248 0
-1994 -2248 2749 0
-2750 1996 0
-2750 2265 0
-1996 -2265 2750 0
-1082 -2735 0
-1082 -2736 0
-1082 -2737 0
-1082 -2738 0
-1082 -2739 0
-1082 -2740 0
-1082 -2741 0
-1082 -2742 0
-1082 -2743 0
-1082 -2744 0
-1082 -2745 0
-1082 -2746 0
-1082 -2747 0
-1082 -2748 0
-1082 -2749 0
-1082 -2750 0
-1986 1082 2735 2736 2737 2738 2739 2740 2741 2742 2743 2744 2745 2746 2747 2748 2749 2750 0
-1085 1988 0
-2751 1965 0
-2751 1989 0
-1965 -1989 2751 0
-2752 1966 0
-2752 2010 0
-1966 -2010 2752 0
-2753 1968 0
-2753 2027 0
-1968 -2027 2753 0
-2754 1970 0
-2754 2044 0
-1970 -2044 2754 0
-2755 1972 0
-2755 2061 0
-1972 -2061 2755 0
-2756 1974 0
-2756 2078 0
-1974 -2078 2756 0
-2757 1976 0
-2757 2095 0
-1976 -2095 2757 0
-2758 1978 0
-2758 2112 0
-1978 -2112 2758 0
-2759 1980 0
-2759 2129 0
-1980 -2129 2759 0
-2760 1982 0
-2760 2146 0
-1982 -2146 2760 0
-2761 1984 0
-2761 2163 0
-1984 -2163 2761 0
-2762 1986 0
-2762 2180 0
-1986 -2180 2762 0
-2763 1990 0
-2763 2215 0
-1990 -2215 2763 0
-2764 1992 0
-2764 2232 0
-1992 -2232 2764 0
-2765 1994 0
-2765 2249 0
-1994 -2249 2765 0
-2766 1996 0
-2766 2266 0
-1996 -2266 2766 0
-1085 -2751 0
-1085 -2752 0
-1085 -2753 0
-1085 -2754 0
-1085 -2755 0
-1085 -2756 0
-1085 -2757 0
-1085 -2758 0
-1085 -2759 0
-1085 -2760 0
-1085 -2761 0
-1085 -2762 0
-1085 -2763 0
-1085 -2764 0
-1085 -2765 0
-1085 -2766 0
-1988 1085 2751 2752 2753 2754 2755 2756 2757 2758 2759 2760 2761 2762 2763 2764 2765 2766 0
-1088 1990 0
-2767 1965 0
-2767 1991 0
-1965 -1991 2767 0
-2768 1966 0
-2768 2011 0
-1966 -2011 2768 0
-2769 1968 0
-2769 2028 0
-1968 -2028 2769 0
-2770 1970 0
-2770 2045 0
-1970 -2045 2770 0
-2771 1972 0
-2771 2062 0
-1972 -2062 2771 0
-2772 1974 0
-2772 2079 0
-1974 -2079 2772 0
-2773 1976 0
-2773 2096 0
-1976 -2096 2773 0
-2774 1978 0
-2774 2113 0
-1978 -2113 2774 0
-2775 1980 0
-2775 2130 0
-1980 -2130 2775 0
-2776 1982 0
-2776 2147 0
-1982 -2147 2776 0
-2777 1984 0
-2777 2164 0
-1984 -2164 2777 0
-2778 1986 0
-2778 2181 0
-1986 -2181 2778 0
-2779 1988 0
-2779 2198 0
-1988 -2198 2779 0
-2780 1992 0
-2780 2233 0
-1992 -2233 2780 0
-2781 1994 0
-2781 2250 0
-1994 -2250 2781 0
-2782 1996 0
-2782 2267 0
-1996 -2267 2782 0
-1088 -2767 0
-1088 -2768 0
-1088 -2769 0
-1088 -2770 0
-1088 -2771 0
-1088 -2772 0
-1088 -2773 0
-1088 -2774 0
-1088 -2775 0
-1088 -2776 0
-1088 -2777 0
-1088 -2778 0
-1088 -2779 0
-1088 -2780 0
-1088 -2781 0
-1088 -2782 0
-1990 1088 2767 2768 2769 2770 2771 2772 2773 2774 2775 2776 2777 2778 2779 2780 2781 2782 0
-1091 1992 0
-2783 1965 0
-2783 1993 0
-1965 -1993 2783 0
-2784 1966 0
-2784 2012 0
-1966 -2012 2784 0
-2785 1968 0
-2785 2029 0
-1968 -2029 2785 0
-2786 1970 0
-2786 2046 0
-1970 -2046 2786 0
-2787 1972 0
-2787 2063 0
-1972 -2063 2787 0
-2788 1974 0
-2788 2080 0
-1974 -2080 2788 0
-2789 1976 0
-2789 2097 0
-1976 -2097 2789 0
-2790 1978 0
-2790 2114 0
-1978 -2114 2790 0
-2791 1980 0
-2791 2131 0
-1980 -2131 2791 0
-2792 1982 0
-2792 2148 0
-1982 -2148 2792 0
-2793 1984 0
-2793 2165 0
-1984 -2165 2793 0
-2794 1986 0
-2794 2182 0
-1986 -2182 2794 0
-2795 1988 0
-2795 2199 0
-1988 -2199 2795 0
-2796 1990 0
-2796 2216 0
-1990 -2216 2796 0
-2797 1994 0
-2797 2251 0
-1994 -2251 2797 0
-2798 1996 0
-2798 2268 0
-1996 -2268 2798 0
-1091 -2783 0
-1091 -2784 0
-1091 -2785 0
-1091 -2786 0
-1091 -2787 0
-1091 -2788 0
-1091 -2789 0
-1091 -2790 0
-1091 -2791 0
-1091 -2792 0
-1091 -2793 0
-1091 -2794 0
-1091 -2795 0
-1091 -2796 0
-1091 -2797 0
-1091 -2798 0
-1992 1091 2783 2784 2785 2786 2787 2788 2789 2790 2791 2792 2793 2794 2795 2796 2797 2798 0
-1094 1994 0
-2799 1965 0
-2799 1995 0
-1965 -1995 2799 0
-2800 1966 0
-2800 2013 0
-1966 -2013 2800 0
-2801 1968 0
-2801 2030 0
-1968 -2030 2801 0
-2802 1970 0
-2802 2047 0
-1970 -2047 2802 0
-2803 1972 0
-2803 2064 0
-1972 -2064 2803 0
-2804 1974 0
-2804 2081 0
-1974 -2081 2804 0
-2805 1976 0
-2805 2098 0
-1976 -2098 2805 0
-2806 1978 0
-2806 2115 0
-1978 -2115 2806 0
-2807 1980 0
-2807 2132 0
-1980 -2132 2807 0
-2808 1982 0
-2808 2149 0
-1982 -2149 2808 0
-2809 1984 0
-2809 2166 0
-1984 -2166 2809 0
-2810 1986 0
-2810 2183 0
-1986 -2183 2810 0
-2811 1988 0
-2811 2200 0
-1988 -2200 2811 0
-2812 1990 0
-2812 2217 0
-1990 -2217 2812 0
-2813 1992 0
-2813 2234 0
-1992 -2234 2813 0
-2814 1996 0
-2814 2269 0
-1996 -2269 2814 0
-1094 -2799 0
-1094 -2800 0
-1094 -2801 0
-1094 -2802 0
-1094 -2803 0
-1094 -2804 0
-1094 -2805 0
-1094 -2806 0
-1094 -2807 0
-1094 -2808 0
-1094 -2809 0
-1094 -2810 0
-1094 -2811 0
-1094 -2812 0
-1094 -2813 0
-1094 -2814 0
-1994 1094 2799 2800 2801 2802 2803 2804 2805 2806 2807 2808 2809 2810 2811 2812 2813 2814 0
-1097 1996 0
-2815 1965 0
-2815 1997 0
-1965 -1997 2815 0
-2816 1966 0
-2816 2014 0
-1966 -2014 2816 0
-2817 1968 0
-2817 2031 0
-1968 -2031 2817 0
-2818 1970 0
-2818 2048 0
-1970 -2048 2818 0
-2819 1972 0
-2819 2065 0
-1972 -2065 2819 0
-2820 1974 0
-2820 2082 0
-1974 -2082 2820 0
-2821 1976 0
-2821 2099 0
-1976 -2099 2821 0
-2822 1978 0
-2822 2116 0
-1978 -2116 2822 0
-2823 1980 0
-2823 2133 0
-1980 -2133 2823 0
-2824 1982 0
-2824 2150 0
-1982 -2150 2824 0
-2825 1984 0
-2825 2167 0
-1984 -2167 2825 0
-2826 1986 0
-2826 2184 0
-1986 -2184 2826 0
-2827 1988 0
-2827 2201 0
-1988 -2201 2827 0
-2828 1990 0
-2828 2218 0
-1990 -2218 2828 0
-2829 1992 0
-2829 2235 0
-1992 -2235 2829 0
-2830 1994 0
-2830 2252 0
-1994 -2252 2830 0
-1097 -2815 0
-1097 -2816 0
-1097 -2817 0
-1097 -2818 0
-1097 -2819 0
-1097 -2820 0
-1097 -2821 0
-1097 -2822 0
-1097 -2823 0
-1097 -2824 0
-1097 -2825 0
-1097 -2826 0
-1097 -2827 0
-1097 -2828 0
-1097 -2829 0
-1097 -2830 0
-1996 1097 2815 2816 2817 2818 2819 2820 2821 2822 2823 2824 2825 2826 2827 2828 2829 2830 0
-1100 1998 0
-2831 1999 0
-2831 1965 0
-1999 -1965 2831 0
-2832 2000 0
-2832 2015 0
-2000 -2015 2832 0
-2833 2001 0
-2833 2032 0
-2001 -2032 2833 0
-2834 2002 0
-2834 2049 0
-2002 -2049 2834 0
-2835 2003 0
-2835 2066 0
-2003 -2066 2835 0
-2836 2004 0
-2836 2083 0
-2004 -2083 2836 0
-2837 2005 0
-2837 2100 0
-2005 -2100 2837 0
-2838 2006 0
-2838 2117 0
-2006 -2117 2838 0
-2839 2007 0
-2839 2134 0
-2007 -2134 2839 0
-2840 2008 0
-2840 2151 0
-2008 -2151 2840 0
-2841 2009 0
-2841 2168 0
-2009 -2168 2841 0
-2842 2010 0
-2842 2185 0
-2010 -2185 2842 0
-2843 2011 0
-2843 2202 0
-2011 -2202 2843 0
-2844 2012 0
-2844 2219 0
-2012 -2219 2844 0
-2845 2013 0
-2845 2236 0
-2013 -2236 2845 0
-2846 2014 0
-2846 2253 0
-2014 -2253 2846 0
-1100 -2831 0
-1100 -2832 0
-1100 -2833 0
-1100 -2834 0
-1100 -2835 0
-1100 -2836 0
-1100 -2837 0
-1100 -2838 0
-1100 -2839 0
-1100 -2840 0
-1100 -2841 0
-1100 -2842 0
-1100 -2843 0
-1100 -2844 0
-1100 -2845 0
-1100 -2846 0
-1998 1100 2831 2832 2833 2834 2835 2836 2837 2838 2839 2840 2841 2842 2843 2844 2845 2846 0
-1103 1999 0
-2847 1998 0
-2847 1964 0
-1998 -1964 2847 0
-2848 2000 0
-2848 2016 0
-2000 -2016 2848 0
-2849 2001 0
-2849 2033 0
-2001 -2033 2849 0
-2850 2002 0
-2850 2050 0
-2002 -2050 2850 0
-2851 2003 0
-2851 2067 0
-2003 -2067 2851 0
-2852 2004 0
-2852 2084 0
-2004 -2084 2852 0
-2853 2005 0
-2853 2101 0
-2005 -2101 2853 0
-2854 2006 0
-2854 2118 0
-2006 -2118 2854 0
-2855 2007 0
-2855 2135 0
-2007 -2135 2855 0
-2856 2008 0
-2856 2152 0
-2008 -2152 2856 0
-2857 2009 0
-2857 2169 0
-2009 -2169 2857 0
-2858 2010 0
-2858 2186 0
-2010 -2186 2858 0
-2859 2011 0
-2859 2203 0
-2011 -2203 2859 0
-2860 2012 0
-2860 2220 0
-2012 -2220 2860 0
-2861 2013 0
-2861 2237 0
-2013 -2237 2861 0
-2862 2014 0
-2862 2254 0
-2014 -2254 2862 0
-1103 -2847 0
-1103 -2848 0
-1103 -2849 0
-1103 -2850 0
-1103 -2851 0
-1103 -2852 0
-1103 -2853 0
-1103 -2854 0
-1103 -2855 0
-1103 -2856 0
-1103 -2857 0
-1103 -2858 0
-1103 -2859 0
-1103 -2860 0
-1103 -2861 0
-1103 -2862 0
-1999 1103 2847 2848 2849 2850 2851 2852 2853 2854 2855 2856 2857 2858 2859 2860 2861 2862 0
-1106 0
-1109 2000 0
-2863 1998 0
-2863 1969 0
-1998 -1969 2863 0
-2864 1999 0
-2864 1968 0
-1999 -1968 2864 0
-2865 2001 0
-2865 2035 0
-2001 -2035 2865 0
-2866 2002 0
-2866 2052 0
-2002 -2052 2866 0
-2867 2003 0
-2867 2069 0
-2003 -2069 2867 0
-2868 2004 0
-2868 2086 0
-2004 -2086 2868 0
-2869 2005 0
-2869 2103 0
-2005 -2103 2869 0
-2870 2006 0
-2870 2120 0
-2006 -2120 2870 0
-2871 2007 0
-2871 2137 0
-2007 -2137 2871 0
-2872 2008 0
-2872 2154 0
-2008 -2154 2872 0
-2873 2009 0
-2873 2171 0
-2009 -2171 2873 0
-2874 2010 0
-2874 2188 0
-2010 -2188 2874 0
-2875 2011 0
-2875 2205 0
-2011 -2205 2875 0
-2876 2012 0
-2876 2222 0
-2012 -2222 2876 0
-2877 2013 0
-2877 2239 0
-2013 -2239 2877 0
-2878 2014 0
-2878 2256 0
-2014 -2256 2878 0
-1109 -2863 0
-1109 -2864 0
-1109 -2865 0
-1109 -2866 0
-1109 -2867 0
-1109 -2868 0
-1109 -2869 0
-1109 -2870 0
-1109 -2871 0
-1109 -2872 0
-1109 -2873 0
-1109 -2874 0
-1109 -2875 0
-1109 -2876 0
-1109 -2877 0
-1109 -2878 0
-2000 1109 2863 2864 2865 2866 2867 2868 2869 2870 2871 2872 2873 2874 2875 2876 2877 2878 0
-1112 2001 0
-2879 1998 0
-2879 1971 0
-1998 -1971 2879 0
-2880 1999 0
-2880 1970 0
-1999 -1970 2880 0
-2881 2000 0
-2881 2018 0
-2000 -2018 2881 0
-2882 2002 0
-2882 2053 0
-2002 -2053 2882 0
-2883 2003 0
-2883 2070 0
-2003 -2070 2883 0
-2884 2004 0
-2884 2087 0
-2004 -2087 2884 0
-2885 2005 0
-2885 2104 0
-2005 -2104 2885 0
-2886 2006 0
-2886 2121 0
-2006 -2121 2886 0
-2887 2007 0
-2887 2138 0
-2007 -2138 2887 0
-2888 2008 0
-2888 2155 0
-2008 -2155 2888 0
-2889 2009 0
-2889 2172 0
-2009 -2172 2889 0
-2890 2010 0
-2890 2189 0
-2010 -2189 2890 0
-2891 2011 0
-2891 2206 0
-2011 -2206 2891 0
-2892 2012 0
-2892 2223 0
-2012 -2223 2892 0
-2893 2013 0
-2893 2240 0
-2013 -2240 2893 0
-2894 2014 0
-2894 2257 0
-2014 -2257 2894 0
-1112 -2879 0
-1112 -2880 0
-1112 -2881 0
-1112 -2882 0
-1112 -2883 0
-1112 -2884 0
-1112 -2885 0
-1112 -2886 0
-1112 -2887 0
-1112 -2888 0
-1112 -2889 0
-1112 -2890 0
-1112 -2891 0
-1112 -2892 0
-1112 -2893 0
-1112 -2894 0
-2001 1112 2879 2880 2881 2882 2883 2884 2885 2886 2887 2888 2889 2890 2891 2892 2893 2894 0
-1115 2002 0
-2895 1998 0
-2895 1973 0
-1998 -1973 2895 0
-2896 1999 0
-2896 1972 0
-1999 -1972 2896 0
-2897 2000 0
-2897 2019 0
-2000 -2019 2897 0
-2898 2001 0
-2898 2036 0
-2001 -2036 2898 0
-2899 2003 0
-2899 2071 0
-2003 -2071 2899 0
-2900 2004 0
-2900 2088 0
-2004 -2088 2900 0
-2901 2005 0
-2901 2105 0
-2005 -2105 2901 0
-2902 2006 0
-2902 2122 0
-2006 -2122 2902 0
-2903 2007 0
-2903 2139 0
-2007 -2139 2903 0
-2904 2008 0
-2904 2156 0
-2008 -2156 2904 0
-2905 2009 0
-2905 2173 0
-2009 -2173 2905 0
-2906 2010 0
-2906 2190 0
-2010 -2190 2906 0
-2907 2011 0
-2907 2207 0
-2011 -2207 2907 0
-2908 2012 0
-2908 2224 0
-2012 -2224 2908 0
-2909 2013 0
-2909 2241 0
-2013 -2241 2909 0
-2910 2014 0
-2910 2258 0
-2014 -2258 2910 0
-1115 -2895 0
-1115 -2896 0
-1115 -2897 0
-1115 -2898 0
-1115 -2899 0
-1115 -2900 0
-1115 -2901 0
-1115 -2902 0
-1115 -2903 0
-1115 -2904 0
-1115 -2905 0
-1115 -2906 0
-1115 -2907 0
-1115 -2908 0
-1115 -2909 0
-1115 -2910 0
-2002 1115 2895 2896 2897 2898 2899 2900 2901 2902 2903 2904 2905 2906 2907 2908 2909 2910 0
-1118 2003 0
-2911 1998 0
-2911 1975 0
-1998 -1975 2911 0
-2912 1999 0
-2912 1974 0
-1999 -1974 2912 0
-2913 2000 0
-2913 2020 0
-2000 -2020 2913 0
-2914 2001 0
-2914 2037 0
-2001 -2037 2914 0
-2915 2002 0
-2915 2054 0
-2002 -2054 2915 0
-2916 2004 0
-2916 2089 0
-2004 -2089 2916 0
-2917 2005 0
-2917 2106 0
-2005 -2106 2917 0
-2918 2006 0
-2918 2123 0
-2006 -2123 2918 0
-2919 2007 0
-2919 2140 0
-2007 -2140 2919 0
-2920 2008 0
-2920 2157 0
-2008 -2157 2920 0
-2921 2009 0
-2921 2174 0
-2009 -2174 2921 0
-2922 2010 0
-2922 2191 0
-2010 -2191 2922 0
-2923 2011 0
-2923 2208 0
-2011 -2208 2923 0
-2924 2012 0
-2924 2225 0
-2012 -2225 2924 0
-2925 2013 0
-2925 2242 0
-2013 -2242 2925 0
-2926 2014 0
-2926 2259 0
-2014 -2259 2926 0
-1118 -2911 0
-1118 -2912 0
-1118 -2913 0
-1118 -2914 0
-1118 -2915 0
-1118 -2916 0
-1118 -2917 0
-1118 -2918 0
-1118 -2919 0
-1118 -2920 0
-1118 -2921 0
-1118 -2922 0
-1118 -2923 0
-1118 -2924 0
-1118 -2925 0
-1118 -2926 0
-2003 1118 2911 2912 2913 2914 2915 2916 2917 2918 2919 2920 2921 2922 2923 2924 2925 2926 0
-1121 2004 0
-2927 1998 0
-2927 1977 0
-1998 -1977 2927 0
-2928 1999 0
-2928 1976 0
-1999 -1976 2928 0
-2929 2000 0
-2929 2021 0
-2000 -2021 2929 0
-2930 2001 0
-2930 2038 0
-2001 -2038 2930 0
-2931 2002 0
-2931 2055 0
-2002 -2055 2931 0
-2932 2003 0
-2932 2072 0
-2003 -2072 2932 0
-2933 2005 0
-2933 2107 0
-2005 -2107 2933 0
-2934 2006 0
-2934 2124 0
-2006 -2124 2934 0
-2935 2007 0
-2935 2141 0
-2007 -2141 2935 0
-2936 2008 0
-2936 2158 0
-2008 -2158 2936 0
-2937 2009 0
-2937 2175 0
-2009 -2175 2937 0
-2938 2010 0
-2938 2192 0
-2010 -2192 2938 0
-2939 2011 0
-2939 2209 0
-2011 -2209 2939 0
-2940 2012 0
-2940 2226 0
-2012 -2226 2940 0
-2941 2013 0
-2941 2243 0
-2013 -2243 2941 0
-2942 2014 0
-2942 2260 0
-2014 -2260 2942 0
-1121 -2927 0
-1121 -2928 0
-1121 -2929 0
-1121 -2930 0
-1121 -2931 0
-1121 -2932 0
-1121 -2933 0
-1121 -2934 0
-1121 -2935 0
-1121 -2936 0
-1121 -2937 0
-1121 -2938 0
-1121 -2939 0
-1121 -2940 0
-1121 -2941 0
-1121 -2942 0
-2004 1121 2927 2928 2929 2930 2931 2932 2933 2934 2935 2936 2937 2938 2939 2940 2941 2942 0
-1124 2005 0
-2943 1998 0
-2943 1979 0
-1998 -1979 2943 0
-2944 1999 0
-2944 1978 0
-1999 -1978 2944 0
-2945 2000 0
-2945 2022 0
-2000 -2022 2945 0
-2946 2001 0
-2946 2039 0
-2001 -2039 2946 0
-2947 2002 0
-2947 2056 0
-2002 -2056 2947 0
-2948 2003 0
-2948 2073 0
-2003 -2073 2948 0
-2949 2004 0
-2949 2090 0
-2004 -2090 2949 0
-2950 2006 0
-2950 2125 0
-2006 -2125 2950 0
-2951 2007 0
-2951 2142 0
-2007 -2142 2951 0
-2952 2008 0
-2952 2159 0
-2008 -2159 2952 0
-2953 2009 0
-2953 2176 0
-2009 -2176 2953 0
-2954 2010 0
-2954 2193 0
-2010 -2193 2954 0
-2955 2011 0
-2955 2210 0
-2011 -2210 2955 0
-2956 2012 0
-2956 2227 0
-2012 -2227 2956 0
-2957 2013 0
-2957 2244 0
-2013 -2244 2957 0
-2958 2014 0
-2958 2261 0
-2014 -2261 2958 0
-1124 -2943 0
-1124 -2944 0
-1124 -2945 0
-1124 -2946 0
-1124 -2947 0
-1124 -2948 0
-1124 -2949 0
-1124 -2950 0
-1124 -2951 0
-1124 -2952 0
-1124 -2953 0
-1124 -2954 0
-1124 -2955 0
-1124 -2956 0
-1124 -2957 0
-1124 -2958 0
-2005 1124 2943 2944 2945 2946 2947 2948 2949 2950 2951 2952 2953 2954 2955 2956 2957 2958 0
-1127 2006 0
-2959 1998 0
-2959 1981 0
-1998 -1981 2959 0
-2960 1999 0
-2960 1980 0
-1999 -1980 2960 0
-2961 2000 0
-2961 2023 0
-2000 -2023 2961 0
-2962 2001 0
-2962 2040 0
-2001 -2040 2962 0
-2963 2002 0
-2963 2057 0
-2002 -2057 2963 0
-2964 2003 0
-2964 2074 0
-2003 -2074 2964 0
-2965 2004 0
-2965 2091 0
-2004 -2091 2965 0
-2966 2005 0
-2966 2108 0
-2005 -2108 2966 0
-2967 2007 0
-2967 2143 0
-2007 -2143 2967 0
-2968 2008 0
-2968 2160 0
-2008 -2160 2968 0
-2969 2009 0
-2969 2177 0
-2009 -2177 2969 0
-2970 2010 0
-2970 2194 0
-2010 -2194 2970 0
-2971 2011 0
-2971 2211 0
-2011 -2211 2971 0
-2972 2012 0
-2972 2228 0
-2012 -2228 2972 0
-2973 2013 0
-2973 2245 0
-2013 -2245 2973 0
-2974 2014 0
-2974 2262 0
-2014 -2262 2974 0
-1127 -2959 0
-1127 -2960 0
-1127 -2961 0
-1127 -2962 0
-1127 -2963 0
-1127 -2964 0
-1127 -2965 0
-1127 -2966 0
-1127 -2967 0
-1127 -2968 0
-1127 -2969 0
-1127 -2970 0
-1127 -2971 0
-1127 -2972 0
-1127 -2973 0
-1127 -2974 0
-2006 1127 2959 2960 2961 2962 2963 2964 2965 2966 2967 2968 2969 2970 2971 2972 2973 2974 0
-1130 2007 0
-2975 1998 0
-2975 1983 0
-1998 -1983 2975 0
-2976 1999 0
-2976 1982 0
-1999 -1982 2976 0
-2977 2000 0
-2977 2024 0
-2000 -2024 2977 0
-2978 2001 0
-2978 2041 0
-2001 -2041 2978 0
-2979 2002 0
-2979 2058 0
-2002 -2058 2979 0
-2980 2003 0
-2980 2075 0
-2003 -2075 2980 0
-2981 2004 0
-2981 2092 0
-2004 -2092 2981 0
-2982 2005 0
-2982 2109 0
-2005 -2109 2982 0
-2983 2006 0
-2983 2126 0
-2006 -2126 2983 0
-2984 2008 0
-2984 2161 0
-2008 -2161 2984 0
-2985 2009 0
-2985 2178 0
-2009 -2178 2985 0
-2986 2010 0
-2986 2195 0
-2010 -2195 2986 0
-2987 2011 0
-2987 2212 0
-2011 -2212 2987 0
-2988 2012 0
-2988 2229 0
-2012 -2229 2988 0
-2989 2013 0
-2989 2246 0
-2013 -2246 2989 0
-2990 2014 0
-2990 2263 0
-2014 -2263 2990 0
-1130 -2975 0
-1130 -2976 0
-1130 -2977 0
-1130 -2978 0
-1130 -2979 0
-1130 -2980 0
-1130 -2981 0
-1130 -2982 0
-1130 -2983 0
-1130 -2984 0
-1130 -2985 0
-1130 -2986 0
-1130 -2987 0
-1130 -2988 0
-1130 -2989 0
-1130 -2990 0
-2007 1130 2975 2976 2977 2978 2979 2980 2981 2982 2983 2984 2985 2986 2987 2988 2989 2990 0
-1133 2008 0
-2991 1998 0
-2991 1985 0
-1998 -1985 2991 0
-2992 1999 0
-2992 1984 0
-1999 -1984 2992 0
-2993 2000 0
-2993 2025 0
-2000 -2025 2993 0
-2994 2001 0
-2994 2042 0
-2001 -2042 2994 0
-2995 2002 0
-2995 2059 0
-2002 -2059 2995 0
-2996 2003 0
-2996 2076 0
-2003 -2076 2996 0
-2997 2004 0
-2997 2093 0
-2004 -2093 2997 0
-2998 2005 0
-2998 2110 0
-2005 -2110 2998 0
-2999 2006 0
-2999 2127 0
-2006 -2127 2999 0
-3000 2007 0
-3000 2144 0
-2007 -2144 3000 0
-3001 2009 0
-3001 2179 0
-2009 -2179 3001 0
-3002 2010 0
-3002 2196 0
-2010 -2196 3002 0
-3003 2011 0
-3003 2213 0
-2011 -2213 3003 0
-3004 2012 0
-3004 2230 0
-2012 -2230 3004 0
-3005 2013 0
-3005 2247 0
-2013 -2247 3005 0
-3006 2014 0
-3006 2264 0
-2014 -2264 3006 0
-1133 -2991 0
-1133 -2992 0
-1133 -2993 0
-1133 -2994 0
-1133 -2995 0
-1133 -2996 0
-1133 -2997 0
-1133 -2998 0
-1133 -2999 0
-1133 -3000 0
-1133 -3001 0
-1133 -3002 0
-1133 -3003 0
-1133 -3004 0
-1133 -3005 0
-1133 -3006 0
-2008 1133 2991 2992 2993 2994 2995 2996 2997 2998 2999 3000 3001 3002 3003 3004 3005 3006 0
-1136 2009 0
-3007 1998 0
-3007 1987 0
-1998 -1987 3007 0
-3008 1999 0
-3008 1986 0
-1999 -1986 3008 0
-3009 2000 0
-3009 2026 0
-2000 -2026 3009 0
-3010 2001 0
-3010 2043 0
-2001 -2043 3010 0
-3011 2002 0
-3011 2060 0
-2002 -2060 3011 0
-3012 2003 0
-3012 2077 0
-2003 -2077 3012 0
-3013 2004 0
-3013 2094 0
-2004 -2094 3013 0
-3014 2005 0
-3014 2111 0
-2005 -2111 3014 0
-3015 2006 0
-3015 2128 0
-2006 -2128 3015 0
-3016 2007 0
-3016 2145 0
-2007 -2145 3016 0
-3017 2008 0
-3017 2162 0
-2008 -2162 3017 0
-3018 2010 0
-3018 2197 0
-2010 -2197 3018 0
-3019 2011 0
-3019 2214 0
-2011 -2214 3019 0
-3020 2012 0
-3020 2231 0
-2012 -2231 3020 0
-3021 2013 0
-3021 2248 0
-2013 -2248 3021 0
-3022 2014 0
-3022 2265 0
-2014 -2265 3022 0
-1136 -3007 0
-1136 -3008 0
-1136 -3009 0
-1136 -3010 0
-1136 -3011 0
-1136 -3012 0
-1136 -3013 0
-1136 -3014 0
-1136 -3015 0
-1136 -3016 0
-1136 -3017 0
-1136 -3018 0
-1136 -3019 0
-1136 -3020 0
-1136 -3021 0
-1136 -3022 0
-2009 1136 3007 3008 3009 3010 3011 3012 3013 3014 3015 3016 3017 3018 3019 3020 3021 3022 0
-1139 2010 0
-3023 1998 0
-3023 1989 0
-1998 -1989 3023 0
-3024 1999 0
-3024 1988 0
-1999 -1988 3024 0
-3025 2000 0
-3025 2027 0
-2000 -2027 3025 0
-3026 2001 0
-3026 2044 0
-2001 -2044 3026 0
-3027 2002 0
-3027 2061 0
-2002 -2061 3027 0
-3028 2003 0
-3028 2078 0
-2003 -2078 3028 0
-3029 2004 0
-3029 2095 0
-2004 -2095 3029 0
-3030 2005 0
-3030 2112 0
-2005 -2112 3030 0
-3031 2006 0
-3031 2129 0
-2006 -2129 3031 0
-3032 2007 0
-3032 2146 0
-2007 -2146 3032 0
-3033 2008 0
-3033 2163 0
-2008 -2163 3033 0
-3034 2009 0
-3034 2180 0
-2009 -2180 3034 0
-3035 2011 0
-3035 2215 0
-2011 -2215 3035 0
-3036 2012 0
-3036 2232 0
-2012 -2232 3036 0
-3037 2013 0
-3037 2249 0
-2013 -2249 3037 0
-3038 2014 0
-3038 2266 0
-2014 -2266 3038 0
-1139 -3023 0
-1139 -3024 0
-1139 -3025 0
-1139 -3026 0
-1139 -3027 0
-1139 -3028 0
-1139 -3029 0
-1139 -3030 0
-1139 -3031 0
-1139 -3032 0
-1139 -3033 0
-1139 -3034 0
-1139 -3035 0
-1139 -3036 0
-1139 -3037 0
-1139 -3038 0
-2010 1139 3023 3024 3025 3026 3027 3028 3029 3030 3031 3032 3033 3034 3035 3036 3037 3038 0
-1142 2011 0
-3039 1998 0
-3039 1991 0
-1998 -1991 3039 0
-3040 1999 0
-3040 1990 0
-1999 -1990 3040 0
-3041 2000 0
-3041 2028 0
-2000 -2028 3041 0
-3042 2001 0
-3042 2045 0
-2001 -2045 3042 0
-3043 2002 0
-3043 2062 0
-2002 -2062 3043 0
-3044 2003 0
-3044 2079 0
-2003 -2079 3044 0
-3045 2004 0
-3045 2096 0
-2004 -2096 3045 0
-3046 2005 0
-3046 2113 0
-2005 -2113 3046 0
-3047 2006 0
-3047 2130 0
-2006 -2130 3047 0
-3048 2007 0
-3048 2147 0
-2007 -2147 3048 0
-3049 2008 0
-3049 2164 0
-2008 -2164 3049 0
-3050 2009 0
-3050 2181 0
-2009 -2181 3050 0
-3051 2010 0
-3051 2198 0
-2010 -2198 3051 0
-3052 2012 0
-3052 2233 0
-2012 -2233 3052 0
-3053 2013 0
-3053 2250 0
-2013 -2250 3053 0
-3054 2014 0
-3054 2267 0
-2014 -2267 3054 0
-1142 -3039 0
-1142 -3040 0
-1142 -3041 0
-1142 -3042 0
-1142 -3043 0
-1142 -3044 0
-1142 -3045 0
-1142 -3046 0
-1142 -3047 0
-1142 -3048 0
-1142 -3049 0
-1142 -3050 0
-1142 -3051 0
-1142 -3052 0
-1142 -3053 0
-1142 -3054 0
-2011 1142 3039 3040 3041 3042 3043 3044 3045 3046 3047 3048 3049 3050 3051 3052 3053 3054 0
-1145 2012 0
-3055 1998 0
-3055 1993 0
-1998 -1993 3055 0
-3056 1999 0
-3056 1992 0
-1999 -1992 3056 0
-3057 2000 0
-3057 2029 0
-2000 -2029 3057 0
-3058 2001 0
-3058 2046 0
-2001 -2046 3058 0
-3059 2002 0
-3059 2063 0
-2002 -2063 3059 0
-3060 2003 0
-3060 2080 0
-2003 -2080 3060 0
-3061 2004 0
-3061 2097 0
-2004 -2097 3061 0
-3062 2005 0
-3062 2114 0
-2005 -2114 3062 0
-3063 2006 0
-3063 2131 0
-2006 -2131 3063 0
-3064 2007 0
-3064 2148 0
-2007 -2148 3064 0
-3065 2008 0
-3065 2165 0
-2008 -2165 3065 0
-3066 2009 0
-3066 2182 0
-2009 -2182 3066 0
-3067 2010 0
-3067 2199 0
-2010 -2199 3067 0
-3068 2011 0
-3068 2216 0
-2011 -2216 3068 0
-3069 2013 0
-3069 2251 0
-2013 -2251 3069 0
-3070 2014 0
-3070 2268 0
-2014 -2268 3070 0
-1145 -3055 0
-1145 -3056 0
-1145 -3057 0
-1145 -3058 0
-1145 -3059 0
-1145 -3060 0
-1145 -3061 0
-1145 -3062 0
-1145 -3063 0
-1145 -3064 0
-1145 -3065 0
-1145 -3066 0
-1145 -3067 0
-1145 -3068 0
-1145 -3069 0
-1145 -3070 0
-2012 1145 3055 3056 3057 3058 3059 3060 3061 3062 3063 3064 3065 3066 3067 3068 3069 3070 0
-1148 2013 0
-3071 1998 0
-3071 1995 0
-1998 -1995 3071 0
-3072 1999 0
-3072 1994 0
-1999 -1994 3072 0
-3073 2000 0
-3073 2030 0
-2000 -2030 3073 0
-3074 2001 0
-3074 2047 0
-2001 -2047 3074 0
-3075 2002 0
-3075 2064 0
-2002 -2064 3075 0
-3076 2003 0
-3076 2081 0
-2003 -2081 3076 0
-3077 2004 0
-3077 2098 0
-2004 -2098 3077 0
-3078 2005 0
-3078 2115 0
-2005 -2115 3078 0
-3079 2006 0
-3079 2132 0
-2006 -2132 3079 0
-3080 2007 0
-3080 2149 0
-2007 -2149 3080 0
-3081 2008 0
-3081 2166 0
-2008 -2166 3081 0
-3082 2009 0
-3082 2183 0
-2009 -2183 3082 0
-3083 2010 0
-3083 2200 0
-2010 -2200 3083 0
-3084 2011 0
-3084 2217 0
-2011 -2217 3084 0
-3085 2012 0
-3085 2234 0
-2012 -2234 3085 0
-3086 2014 0
-3086 2269 0
-2014 -2269 3086 0
-1148 -3071 0
-1148 -3072 0
-1148 -3073 0
-1148 -3074 0
-1148 -3075 0
-1148 -3076 0
-1148 -3077 0
-1148 -3078 0
-1148 -3079 0
-1148 -3080 0
-1148 -3081 0
-1148 -3082 0
-1148 -3083 0
-1148 -3084 0
-1148 -3085 0
-1148 -3086 0
-2013 1148 3071 3072 3073 3074 3075 3076 3077 3078 3079 3080 3081 3082 3083 3084 3085 3086 0
-1151 2014 0
-3087 1998 0
-3087 1997 0
-1998 -1997 3087 0
-3088 1999 0
-3088 1996 0
-1999 -1996 3088 0
-3089 2000 0
-3089 2031 0
-2000 -2031 3089 0
-3090 2001 0
-3090 2048 0
-2001 -2048 3090 0
-3091 2002 0
-3091 2065 0
-2002 -2065 3091 0
-3092 2003 0
-3092 2082 0
-2003 -2082 3092 0
-3093 2004 0
-3093 2099 0
-2004 -2099 3093 0
-3094 2005 0
-3094 2116 0
-2005 -2116 3094 0
-3095 2006 0
-3095 2133 0
-2006 -2133 3095 0
-3096 2007 0
-3096 2150 0
-2007 -2150 3096 0
-3097 2008 0
-3097 2167 0
-2008 -2167 3097 0
-3098 2009 0
-3098 2184 0
-2009 -2184 3098 0
-3099 2010 0
-3099 2201 0
-2010 -2201 3099 0
-3100 2011 0
-3100 2218 0
-2011 -2218 3100 0
-3101 2012 0
-3101 2235 0
-2012 -2235 3101 0
-3102 2013 0
-3102 2252 0
-2013 -2252 3102 0
-1151 -3087 0
-1151 -3088 0
-1151 -3089 0
-1151 -3090 0
-1151 -3091 0
-1151 -3092 0
-1151 -3093 0
-1151 -3094 0
-1151 -3095 0
-1151 -3096 0
-1151 -3097 0
-1151 -3098 0
-1151 -3099 0
-1151 -3100 0
-1151 -3101 0
-1151 -3102 0
-2014 1151 3087 3088 3089 3090 3091 3092 3093 3094 3095 3096 3097 3098 3099 3100 3101 3102 0
-1154 2015 0
-3103 2016 0
-3103 1965 0
-2016 -1965 3103 0
-3104 2017 0
-3104 1998 0
-2017 -1998 3104 0
-3105 2018 0
-3105 2032 0
-2018 -2032 3105 0
-3106 2019 0
-3106 2049 0
-2019 -2049 3106 0
-3107 2020 0
-3107 2066 0
-2020 -2066 3107 0
-3108 2021 0
-3108 2083 0
-2021 -2083 3108 0
-3109 2022 0
-3109 2100 0
-2022 -2100 3109 0
-3110 2023 0
-3110 2117 0
-2023 -2117 3110 0
-3111 2024 0
-3111 2134 0
-2024 -2134 3111 0
-3112 2025 0
-3112 2151 0
-2025 -2151 3112 0
-3113 2026 0
-3113 2168 0
-2026 -2168 3113 0
-3114 2027 0
-3114 2185 0
-2027 -2185 3114 0
-3115 2028 0
-3115 2202 0
-2028 -2202 3115 0
-3116 2029 0
-3116 2219 0
-2029 -2219 3116 0
-3117 2030 0
-3117 2236 0
-2030 -2236 3117 0
-3118 2031 0
-3118 2253 0
-2031 -2253 3118 0
-1154 -3103 0
-1154 -3104 0
-1154 -3105 0
-1154 -3106 0
-1154 -3107 0
-1154 -3108 0
-1154 -3109 0
-1154 -3110 0
-1154 -3111 0
-1154 -3112 0
-1154 -3113 0
-1154 -3114 0
-1154 -3115 0
-1154 -3116 0
-1154 -3117 0
-1154 -3118 0
-2015 1154 3103 3104 3105 3106 3107 3108 3109 3110 3111 3112 3113 3114 3115 3116 3117 3118 0
-1157 2016 0
-3119 2015 0
-3119 1964 0
-2015 -1964 3119 0
-3120 2017 0
-3120 1999 0
-2017 -1999 3120 0
-3121 2018 0
-3121 2033 0
-2018 -2033 3121 0
-3122 2019 0
-3122 2050 0
-2019 -2050 3122 0
-3123 2020 0
-3123 2067 0
-2020 -2067 3123 0
-3124 2021 0
-3124 2084 0
-2021 -2084 3124 0
-3125 2022 0
-3125 2101 0
-2022 -2101 3125 0
-3126 2023 0
-3126 2118 0
-2023 -2118 3126 0
-3127 2024 0
-3127 2135 0
-2024 -2135 3127 0
-3128 2025 0
-3128 2152 0
-2025 -2152 3128 0
-3129 2026 0
-3129 2169 0
-2026 -2169 3129 0
-3130 2027 0
-3130 2186 0
-2027 -2186 3130 0
-3131 2028 0
-3131 2203 0
-2028 -2203 3131 0
-3132 2029 0
-3132 2220 0
-2029 -2220 3132 0
-3133 2030 0
-3133 2237 0
-2030 -2237 3133 0
-3134 2031 0
-3134 2254 0
-2031 -2254 3134 0
-1157 -3119 0
-1157 -3120 0
-1157 -3121 0
-1157 -3122 0
-1157 -3123 0
-1157 -3124 0
-1157 -3125 0
-1157 -3126 0
-1157 -3127 0
-1157 -3128 0
-1157 -3129 0
-1157 -3130 0
-1157 -3131 0
-1157 -3132 0
-1157 -3133 0
-1157 -3134 0
-2016 1157 3119 3120 3121 3122 3123 3124 3125 3126 3127 3128 3129 3130 3131 3132 3133 3134 0
-1160 2017 0
-3135 2015 0
-3135 1967 0
-2015 -1967 3135 0
-3136 2016 0
-3136 1966 0
-2016 -1966 3136 0
-3137 2018 0
-3137 2034 0
-2018 -2034 3137 0
-3138 2019 0
-3138 2051 0
-2019 -2051 3138 0
-3139 2020 0
-3139 2068 0
-2020 -2068 3139 0
-3140 2021 0
-3140 2085 0
-2021 -2085 3140 0
-3141 2022 0
-3141 2102 0
-2022 -2102 3141 0
-3142 2023 0
-3142 2119 0
-2023 -2119 3142 0
-3143 2024 0
-3143 2136 0
-2024 -2136 3143 0
-3144 2025 0
-3144 2153 0
-2025 -2153 3144 0
-3145 2026 0
-3145 2170 0
-2026 -2170 3145 0
-3146 2027 0
-3146 2187 0
-2027 -2187 3146 0
-3147 2028 0
-3147 2204 0
-2028 -2204 3147 0
-3148 2029 0
-3148 2221 0
-2029 -2221 3148 0
-3149 2030 0
-3149 2238 0
-2030 -2238 3149 0
-3150 2031 0
-3150 2255 0
-2031 -2255 3150 0
-1160 -3135 0
-1160 -3136 0
-1160 -3137 0
-1160 -3138 0
-1160 -3139 0
-1160 -3140 0
-1160 -3141 0
-1160 -3142 0
-1160 -3143 0
-1160 -3144 0
-1160 -3145 0
-1160 -3146 0
-1160 -3147 0
-1160 -3148 0
-1160 -3149 0
-1160 -3150 0
-2017 1160 3135 3136 3137 3138 3139 3140 3141 3142 3143 3144 3145 3146 3147 3148 3149 3150 0
-1163 0
-1166 2018 0
-3151 2015 0
-3151 1971 0
-2015 -1971 3151 0
-3152 2016 0
-3152 1970 0
-2016 -1970 3152 0
-3153 2017 0
-3153 2001 0
-2017 -2001 3153 0
-3154 2019 0
-3154 2053 0
-2019 -2053 3154 0
-3155 2020 0
-3155 2070 0
-2020 -2070 3155 0
-3156 2021 0
-3156 2087 0
-2021 -2087 3156 0
-3157 2022 0
-3157 2104 0
-2022 -2104 3157 0
-3158 2023 0
-3158 2121 0
-2023 -2121 3158 0
-3159 2024 0
-3159 2138 0
-2024 -2138 3159 0
-3160 2025 0
-3160 2155 0
-2025 -2155 3160 0
-3161 2026 0
-3161 2172 0
-2026 -2172 3161 0
-3162 2027 0
-3162 2189 0
-2027 -2189 3162 0
-3163 2028 0
-3163 2206 0
-2028 -2206 3163 0
-3164 2029 0
-3164 2223 0
-2029 -2223 3164 0
-3165 2030 0
-3165 2240 0
-2030 -2240 3165 0
-3166 2031 0
-3166 2257 0
-2031 -2257 3166 0
-1166 -3151 0
-1166 -3152 0
-1166 -3153 0
-1166 -3154 0
-1166 -3155 0
-1166 -3156 0
-1166 -3157 0
-1166 -3158 0
-1166 -3159 0
-1166 -3160 0
-1166 -3161 0
-1166 -3162 0
-1166 -3163 0
-1166 -3164 0
-1166 -3165 0
-1166 -3166 0
-2018 1166 3151 3152 3153 3154 3155 3156 3157 3158 3159 3160 3161 3162 3163 3164 3165 3166 0
-1169 2019 0
-3167 2015 0
-3167 1973 0
-2015 -1973 3167 0
-3168 2016 0
-3168 1972 0
-2016 -1972 3168 0
-3169 2017 0
-3169 2002 0
-2017 -2002 3169 0
-3170 2018 0
-3170 2036 0
-2018 -2036 3170 0
-3171 2020 0
-3171 2071 0
-2020 -2071 3171 0
-3172 2021 0
-3172 2088 0
-2021 -2088 3172 0
-3173 2022 0
-3173 2105 0
-2022 -2105 3173 0
-3174 2023 0
-3174 2122 0
-2023 -2122 3174 0
-3175 2024 0
-3175 2139 0
-2024 -2139 3175 0
-3176 2025 0
-3176 2156 0
-2025 -2156 3176 0
-3177 2026 0
-3177 2173 0
-2026 -2173 3177 0
-3178 2027 0
-3178 2190 0
-2027 -2190 3178 0
-3179 2028 0
-3179 2207 0
-2028 -2207 3179 0
-3180 2029 0
-3180 2224 0
-2029 -2224 3180 0
-3181 2030 0
-3181 2241 0
-2030 -2241 3181 0
-3182 2031 0
-3182 2258 0
-2031 -2258 3182 0
-1169 -3167 0
-1169 -3168 0
-1169 -3169 0
-1169 -3170 0
-1169 -3171 0
-1169 -3172 0
-1169 -3173 0
-1169 -3174 0
-1169 -3175 0
-1169 -3176 0
-1169 -3177 0
-1169 -3178 0
-1169 -3179 0
-1169 -3180 0
-1169 -3181 0
-1169 -3182 0
-2019 1169 3167 3168 3169 3170 3171 3172 3173 3174 3175 3176 3177 3178 3179 3180 3181 3182 0
-1172 2020 0
-3183 2015 0
-3183 1975 0
-2015 -1975 3183 0
-3184 2016 0
-3184 1974 0
-2016 -1974 3184 0
-3185 2017 0
-3185 2003 0
-2017 -2003 3185 0
-3186 2018 0
-3186 2037 0
-2018 -2037 3186 0
-3187 2019 0
-3187 2054 0
-2019 -2054 3187 0
-3188 2021 0
-3188 2089 0
-2021 -2089 3188 0
-3189 2022 0
-3189 2106 0
-2022 -2106 3189 0
-3190 2023 0
-3190 2123 0
-2023 -2123 3190 0
-3191 2024 0
-3191 2140 0
-2024 -2140 3191 0
-3192 2025 0
-3192 2157 0
-2025 -2157 3192 0
-3193 2026 0
-3193 2174 0
-2026 -2174 3193 0
-3194 2027 0
-3194 2191 0
-2027 -2191 3194 0
-3195 2028 0
-3195 2208 0
-2028 -2208 3195 0
-3196 2029 0
-3196 2225 0
-2029 -2225 3196 0
-3197 2030 0
-3197 2242 0
-2030 -2242 3197 0
-3198 2031 0
-3198 2259 0
-2031 -2259 3198 0
-1172 -3183 0
-1172 -3184 0
-1172 -3185 0
-1172 -3186 0
-1172 -3187 0
-1172 -3188 0
-1172 -3189 0
-1172 -3190 0
-1172 -3191 0
-1172 -3192 0
-1172 -3193 0
-1172 -3194 0
-1172 -3195 0
-1172 -3196 0
-1172 -3197 0
-1172 -3198 0
-2020 1172 3183 3184 3185 3186 3187 3188 3189 3190 3191 3192 3193 3194 3195 3196 3197 3198 0
-1175 2021 0
-3199 2015 0
-3199 1977 0
-2015 -1977 3199 0
-3200 2016 0
-3200 1976 0
-2016 -1976 3200 0
-3201 2017 0
-3201 2004 0
-2017 -2004 3201 0
-3202 2018 0
-3202 2038 0
-2018 -2038 3202 0
-3203 2019 0
-3203 2055 0
-2019 -2055 3203 0
-3204 2020 0
-3204 2072 0
-2020 -2072 3204 0
-3205 2022 0
-3205 2107 0
-2022 -2107 3205 0
-3206 2023 0
-3206 2124 0
-2023 -2124 3206 0
-3207 2024 0
-3207 2141 0
-2024 -2141 3207 0
-3208 2025 0
-3208 2158 0
-2025 -2158 3208 0
-3209 2026 0
-3209 2175 0
-2026 -2175 3209 0
-3210 2027 0
-3210 2192 0
-2027 -2192 3210 0
-3211 2028 0
-3211 2209 0
-2028 -2209 3211 0
-3212 2029 0
-3212 2226 0
-2029 -2226 3212 0
-3213 2030 0
-3213 2243 0
-2030 -2243 3213 0
-3214 2031 0
-3214 2260 0
-2031 -2260 3214 0
-1175 -3199 0
-1175 -3200 0
-1175 -3201 0
-1175 -3202 0
-1175 -3203 0
-1175 -3204 0
-1175 -3205 0
-1175 -3206 0
-1175 -3207 0
-1175 -3208 0
-1175 -3209 0
-1175 -3210 0
-1175 -3211 0
-1175 -3212 0
-1175 -3213 0
-1175 -3214 0
-2021 1175 3199 3200 3201 3202 3203 3204 3205 3206 3207 3208 3209 3210 3211 3212 3213 3214 0
-1178 2022 0
-3215 2015 0
-3215 1979 0
-2015 -1979 3215 0
-3216 2016 0
-3216 1978 0
-2016 -1978 3216 0
-3217 2017 0
-3217 2005 0
-2017 -2005 3217 0
-3218 2018 0
-3218 2039 0
-2018 -2039 3218 0
-3219 2019 0
-3219 2056 0
-2019 -2056 3219 0
-3220 2020 0
-3220 2073 0
-2020 -2073 3220 0
-3221 2021 0
-3221 2090 0
-2021 -2090 3221 0
-3222 2023 0
-3222 2125 0
-2023 -2125 3222 0
-3223 2024 0
-3223 2142 0
-2024 -2142 3223 0
-3224 2025 0
-3224 2159 0
-2025 -2159 3224 0
-3225 2026 0
-3225 2176 0
-2026 -2176 3225 0
-3226 2027 0
-3226 2193 0
-2027 -2193 3226 0
-3227 2028 0
-3227 2210 0
-2028 -2210 3227 0
-3228 2029 0
-3228 2227 0
-2029 -2227 3228 0
-3229 2030 0
-3229 2244 0
-2030 -2244 3229 0
-3230 2031 0
-3230 2261 0
-2031 -2261 3230 0
-1178 -3215 0
-1178 -3216 0
-1178 -3217 0
-1178 -3218 0
-1178 -3219 0
-1178 -3220 0
-1178 -3221 0
-1178 -3222 0
-1178 -3223 0
-1178 -3224 0
-1178 -3225 0
-1178 -3226 0
-1178 -3227 0
-1178 -3228 0
-1178 -3229 0
-1178 -3230 0
-2022 1178 3215 3216 3217 3218 3219 3220 3221 3222 3223 3224 3225 3226 3227 3228 3229 3230 0
-1181 2023 0
-3231 2015 0
-3231 1981 0
-2015 -1981 3231 0
-3232 2016 0
-3232 1980 0
-2016 -1980 3232 0
-3233 2017 0
-3233 2006 0
-2017 -2006 3233 0
-3234 2018 0
-3234 2040 0
-2018 -2040 3234 0
-3235 2019 0
-3235 2057 0
-2019 -2057 3235 0
-3236 2020 0
-3236 2074 0
-2020 -2074 3236 0
-3237 2021 0
-3237 2091 0
-2021 -2091 3237 0
-3238 2022 0
-3238 2108 0
-2022 -2108 3238 0
-3239 2024 0
-3239 2143 0
-2024 -2143 3239 0
-3240 2025 0
-3240 2160 0
-2025 -2160 3240 0
-3241 2026 0
-3241 2177 0
-2026 -2177 3241 0
-3242 2027 0
-3242 2194 0
-2027 -2194 3242 0
-3243 2028 0
-3243 2211 0
-2028 -2211 3243 0
-3244 2029 0
-3244 2228 0
-2029 -2228 3244 0
-3245 2030 0
-3245 2245 0
-2030 -2245 3245 0
-3246 2031 0
-3246 2262 0
-2031 -2262 3246 0
-1181 -3231 0
-1181 -3232 0
-1181 -3233 0
-1181 -3234 0
-1181 -3235 0
-1181 -3236 0
-1181 -3237 0
-1181 -3238 0
-1181 -3239 0
-1181 -3240 0
-1181 -3241 0
-1181 -3242 0
-1181 -3243 0
-1181 -3244 0
-1181 -3245 0
-1181 -3246 0
-2023 1181 3231 3232 3233 3234 3235 3236 3237 3238 3239 3240 3241 3242 3243 3244 3245 3246 0
-1184 2024 0
-3247 2015 0
-3247 1983 0
-2015 -1983 3247 0
-3248 2016 0
-3248 1982 0
-2016 -1982 3248 0
-3249 2017 0
-3249 2007 0
-2017 -2007 3249 0
-3250 2018 0
-3250 2041 0
-2018 -2041 3250 0
-3251 2019 0
-3251 2058 0
-2019 -2058 3251 0
-3252 2020 0
-3252 2075 0
-2020 -2075 3252 0
-3253 2021 0
-3253 2092 0
-2021 -2092 3253 0
-3254 2022 0
-3254 2109 0
-2022 -2109 3254 0
-3255 2023 0
-3255 2126 0
-2023 -2126 3255 0
-3256 2025 0
-3256 2161 0
-2025 -2161 3256 0
-3257 2026 0
-3257 2178 0
-2026 -2178 3257 0
-3258 2027 0
-3258 2195 0
-2027 -2195 3258 0
-3259 2028 0
-3259 2212 0
-2028 -2212 3259 0
-3260 2029 0
-3260 2229 0
-2029 -2229 3260 0
-3261 2030 0
-3261 2246 0
-2030 -2246 3261 0
-3262 2031 0
-3262 2263 0
-2031 -2263 3262 0
-1184 -3247 0
-1184 -3248 0
-1184 -3249 0
-1184 -3250 0
-1184 -3251 0
-1184 -3252 0
-1184 -3253 0
-1184 -3254 0
-1184 -3255 0
-1184 -3256 0
-1184 -3257 0
-1184 -3258 0
-1184 -3259 0
-1184 -3260 0
-1184 -3261 0
-1184 -3262 0
-2024 1184 3247 3248 3249 3250 3251 3252 3253 3254 3255 3256 3257 3258 3259 3260 3261 3262 0
-1187 2025 0
-3263 2015 0
-3263 1985 0
-2015 -1985 3263 0
-3264 2016 0
-3264 1984 0
-2016 -1984 3264 0
-3265 2017 0
-3265 2008 0
-2017 -2008 3265 0
-3266 2018 0
-3266 2042 0
-2018 -2042 3266 0
-3267 2019 0
-3267 2059 0
-2019 -2059 3267 0
-3268 2020 0
-3268 2076 0
-2020 -2076 3268 0
-3269 2021 0
-3269 2093 0
-2021 -2093 3269 0
-3270 2022 0
-3270 2110 0
-2022 -2110 3270 0
-3271 2023 0
-3271 2127 0
-2023 -2127 3271 0
-3272 2024 0
-3272 2144 0
-2024 -2144 3272 0
-3273 2026 0
-3273 2179 0
-2026 -2179 3273 0
-3274 2027 0
-3274 2196 0
-2027 -2196 3274 0
-3275 2028 0
-3275 2213 0
-2028 -2213 3275 0
-3276 2029 0
-3276 2230 0
-2029 -2230 3276 0
-3277 2030 0
-3277 2247 0
-2030 -2247 3277 0
-3278 2031 0
-3278 2264 0
-2031 -2264 3278 0
-1187 -3263 0
-1187 -3264 0
-1187 -3265 0
-1187 -3266 0
-1187 -3267 0
-1187 -3268 0
-1187 -3269 0
-1187 -3270 0
-1187 -3271 0
-1187 -3272 0
-1187 -3273 0
-1187 -3274 0
-1187 -3275 0
-1187 -3276 0
-1187 -3277 0
-1187 -3278 0
-2025 1187 3263 3264 3265 3266 3267 3268 3269 3270 3271 3272 3273 3274 3275 3276 3277 3278 0
-1190 2026 0
-3279 2015 0
-3279 1987 0
-2015 -1987 3279 0
-3280 2016 0
-3280 1986 0
-2016 -1986 3280 0
-3281 2017 0
-3281 2009 0
-2017 -2009 3281 0
-3282 2018 0
-3282 2043 0
-2018 -2043 3282 0
-3283 2019 0
-3283 2060 0
-2019 -2060 3283 0
-3284 2020 0
-3284 2077 0
-2020 -2077 3284 0
-3285 2021 0
-3285 2094 0
-2021 -2094 3285 0
-3286 2022 0
-3286 2111 0
-2022 -2111 3286 0
-3287 2023 0
-3287 2128 0
-2023 -2128 3287 0
-3288 2024 0
-3288 2145 0
-2024 -2145 3288 0
-3289 2025 0
-3289 2162 0
-2025 -2162 3289 0
-3290 2027 0
-3290 2197 0
-2027 -2197 3290 0
-3291 2028 0
-3291 2214 0
-2028 -2214 3291 0
-3292 2029 0
-3292 2231 0
-2029 -2231 3292 0
-3293 2030 0
-3293 2248 0
-2030 -2248 3293 0
-3294 2031 0
-3294 2265 0
-2031 -2265 3294 0
-1190 -3279 0
-1190 -3280 0
-1190 -3281 0
-1190 -3282 0
-1190 -3283 0
-1190 -3284 0
-1190 -3285 0
-1190 -3286 0
-1190 -3287 0
-1190 -3288 0
-1190 -3289 0
-1190 -3290 0
-1190 -3291 0
-1190 -3292 0
-1190 -3293 0
-1190 -3294 0
-2026 1190 3279 3280 3281 3282 3283 3284 3285 3286 3287 3288 3289 3290 3291 3292 3293 3294 0
-1193 2027 0
-3295 2015 0
-3295 1989 0
-2015 -1989 3295 0
-3296 2016 0
-3296 1988 0
-2016 -1988 3296 0
-3297 2017 0
-3297 2010 0
-2017 -2010 3297 0
-3298 2018 0
-3298 2044 0
-2018 -2044 3298 0
-3299 2019 0
-3299 2061 0
-2019 -2061 3299 0
-3300 2020 0
-3300 2078 0
-2020 -2078 3300 0
-3301 2021 0
-3301 2095 0
-2021 -2095 3301 0
-3302 2022 0
-3302 2112 0
-2022 -2112 3302 0
-3303 2023 0
-3303 2129 0
-2023 -2129 3303 0
-3304 2024 0
-3304 2146 0
-2024 -2146 3304 0
-3305 2025 0
-3305 2163 0
-2025 -2163 3305 0
-3306 2026 0
-3306 2180 0
-2026 -2180 3306 0
-3307 2028 0
-3307 2215 0
-2028 -2215 3307 0
-3308 2029 0
-3308 2232 0
-2029 -2232 3308 0
-3309 2030 0
-3309 2249 0
-2030 -2249 3309 0
-3310 2031 0
-3310 2266 0
-2031 -2266 3310 0
-1193 -3295 0
-1193 -3296 0
-1193 -3297 0
-1193 -3298 0
-1193 -3299 0
-1193 -3300 0
-1193 -3301 0
-1193 -3302 0
-1193 -3303 0
-1193 -3304 0
-1193 -3305 0
-1193 -3306 0
-1193 -3307 0
-1193 -3308 0
-1193 -3309 0
-1193 -3310 0
-2027 1193 3295 3296 3297 3298 3299 3300 3301 3302 3303 3304 3305 3306 3307 3308 3309 3310 0
-1196 2028 0
-3311 2015 0
-3311 1991 0
-2015 -1991 3311 0
-3312 2016 0
-3312 1990 0
-2016 -1990 3312 0
-3313 2017 0
-3313 2011 0
-2017 -2011 3313 0
-3314 2018 0
-3314 2045 0
-2018 -2045 3314 0
-3315 2019 0
-3315 2062 0
-2019 -2062 3315 0
-3316 2020 0
-3316 2079 0
-2020 -2079 3316 0
-3317 2021 0
-3317 2096 0
-2021 -2096 3317 0
-3318 2022 0
-3318 2113 0
-2022 -2113 3318 0
-3319 2023 0
-3319 2130 0
-2023 -2130 3319 0
-3320 2024 0
-3320 2147 0
-2024 -2147 3320 0
-3321 2025 0
-3321 2164 0
-2025 -2164 3321 0
-3322 2026 0
-3322 2181 0
-2026 -2181 3322 0
-3323 2027 0
-3323 2198 0
-2027 -2198 3323 0
-3324 2029 0
-3324 2233 0
-2029 -2233 3324 0
-3325 2030 0
-3325 2250 0
-2030 -2250 3325 0
-3326 2031 0
-3326 2267 0
-2031 -2267 3326 0
-1196 -3311 0
-1196 -3312 0
-1196 -3313 0
-1196 -3314 0
-1196 -3315 0
-1196 -3316 0
-1196 -3317 0
-1196 -3318 0
-1196 -3319 0
-1196 -3320 0
-1196 -3321 0
-1196 -3322 0
-1196 -3323 0
-1196 -3324 0
-1196 -3325 0
-1196 -3326 0
-2028 1196 3311 3312 3313 3314 3315 3316 3317 3318 3319 3320 3321 3322 3323 3324 3325 3326 0
-1199 2029 0
-3327 2015 0
-3327 1993 0
-2015 -1993 3327 0
-3328 2016 0
-3328 1992 0
-2016 -1992 3328 0
-3329 2017 0
-3329 2012 0
-2017 -2012 3329 0
-3330 2018 0
-3330 2046 0
-2018 -2046 3330 0
-3331 2019 0
-3331 2063 0
-2019 -2063 3331 0
-3332 2020 0
-3332 2080 0
-2020 -2080 3332 0
-3333 2021 0
-3333 2097 0
-2021 -2097 3333 0
-3334 2022 0
-3334 2114 0
-2022 -2114 3334 0
-3335 2023 0
-3335 2131 0
-2023 -2131 3335 0
-3336 2024 0
-3336 2148 0
-2024 -2148 3336 0
-3337 2025 0
-3337 2165 0
-2025 -2165 3337 0
-3338 2026 0
-3338 2182 0
-2026 -2182 3338 0
-3339 2027 0
-3339 2199 0
-2027 -2199 3339 0
-3340 2028 0
-3340 2216 0
-2028 -2216 3340 0
-3341 2030 0
-3341 2251 0
-2030 -2251 3341 0
-3342 2031 0
-3342 2268 0
-2031 -2268 3342 0
-1199 -3327 0
-1199 -3328 0
-1199 -3329 0
-1199 -3330 0
-1199 -3331 0
-1199 -3332 0
-1199 -3333 0
-1199 -3334 0
-1199 -3335 0
-1199 -3336 0
-1199 -3337 0
-1199 -3338 0
-1199 -3339 0
-1199 -3340 0
-1199 -3341 0
-1199 -3342 0
-2029 1199 3327 3328 3329 3330 3331 3332 3333 3334 3335 3336 3337 3338 3339 3340 3341 3342 0
-1202 2030 0
-3343 2015 0
-3343 1995 0
-2015 -1995 3343 0
-3344 2016 0
-3344 1994 0
-2016 -1994 3344 0
-3345 2017 0
-3345 2013 0
-2017 -2013 3345 0
-3346 2018 0
-3346 2047 0
-2018 -2047 3346 0
-3347 2019 0
-3347 2064 0
-2019 -2064 3347 0
-3348 2020 0
-3348 2081 0
-2020 -2081 3348 0
-3349 2021 0
-3349 2098 0
-2021 -2098 3349 0
-3350 2022 0
-3350 2115 0
-2022 -2115 3350 0
-3351 2023 0
-3351 2132 0
-2023 -2132 3351 0
-3352 2024 0
-3352 2149 0
-2024 -2149 3352 0
-3353 2025 0
-3353 2166 0
-2025 -2166 3353 0
-3354 2026 0
-3354 2183 0
-2026 -2183 3354 0
-3355 2027 0
-3355 2200 0
-2027 -2200 3355 0
-3356 2028 0
-3356 2217 0
-2028 -2217 3356 0
-3357 2029 0
-3357 2234 0
-2029 -2234 3357 0
-3358 2031 0
-3358 2269 0
-2031 -2269 3358 0
-1202 -3343 0
-1202 -3344 0
-1202 -3345 0
-1202 -3346 0
-1202 -3347 0
-1202 -3348 0
-1202 -3349 0
-1202 -3350 0
-1202 -3351 0
-1202 -3352 0
-1202 -3353 0
-1202 -3354 0
-1202 -3355 0
-1202 -3356 0
-1202 -3357 0
-1202 -3358 0
-2030 1202 3343 3344 3345 3346 3347 3348 3349 3350 3351 3352 3353 3354 3355 3356 3357 3358 0
-1205 2031 0
-3359 2015 0
-3359 1997 0
-2015 -1997 3359 0
-3360 2016 0
-3360 1996 0
-2016 -1996 3360 0
-3361 2017 0
-3361 2014 0
-2017 -2014 3361 0
-3362 2018 0
-3362 2048 0
-2018 -2048 3362 0
-3363 2019 0
-3363 2065 0
-2019 -2065 3363 0
-3364 2020 0
-3364 2082 0
-2020 -2082 3364 0
-3365 2021 0
-3365 2099 0
-2021 -2099 3365 0
-3366 2022 0
-3366 2116 0
-2022 -2116 3366 0
-3367 2023 0
-3367 2133 0
-2023 -2133 3367 0
-3368 2024 0
-3368 2150 0
-2024 -2150 3368 0
-3369 2025 0
-3369 2167 0
-2025 -2167 3369 0
-3370 2026 0
-3370 2184 0
-2026 -2184 3370 0
-3371 2027 0
-3371 2201 0
-2027 -2201 3371 0
-3372 2028 0
-3372 2218 0
-2028 -2218 3372 0
-3373 2029 0
-3373 2235 0
-2029 -2235 3373 0
-3374 2030 0
-3374 2252 0
-2030 -2252 3374 0
-1205 -3359 0
-1205 -3360 0
-1205 -3361 0
-1205 -3362 0
-1205 -3363 0
-1205 -3364 0
-1205 -3365 0
-1205 -3366 0
-1205 -3367 0
-1205 -3368 0
-1205 -3369 0
-1205 -3370 0
-1205 -3371 0
-1205 -3372 0
-1205 -3373 0
-1205 -3374 0
-2031 1205 3359 3360 3361 3362 3363 3364 3365 3366 3367 3368 3369 3370 3371 3372 3373 3374 0
-1208 2032 0
-3375 2033 0
-3375 1965 0
-2033 -1965 3375 0
-3376 2034 0
-3376 1998 0
-2034 -1998 3376 0
-3377 2035 0
-3377 2015 0
-2035 -2015 3377 0
-3378 2036 0
-3378 2049 0
-2036 -2049 3378 0
-3379 2037 0
-3379 2066 0
-2037 -2066 3379 0
-3380 2038 0
-3380 2083 0
-2038 -2083 3380 0
-3381 2039 0
-3381 2100 0
-2039 -2100 3381 0
-3382 2040 0
-3382 2117 0
-2040 -2117 3382 0
-3383 2041 0
-3383 2134 0
-2041 -2134 3383 0
-3384 2042 0
-3384 2151 0
-2042 -2151 3384 0
-3385 2043 0
-3385 2168 0
-2043 -2168 3385 0
-3386 2044 0
-3386 2185 0
-2044 -2185 3386 0
-3387 2045 0
-3387 2202 0
-2045 -2202 3387 0
-3388 2046 0
-3388 2219 0
-2046 -2219 3388 0
-3389 2047 0
-3389 2236 0
-2047 -2236 3389 0
-3390 2048 0
-3390 2253 0
-2048 -2253 3390 0
-1208 -3375 0
-1208 -3376 0
-1208 -3377 0
-1208 -3378 0
-1208 -3379 0
-1208 -3380 0
-1208 -3381 0
-1208 -3382 0
-1208 -3383 0
-1208 -3384 0
-1208 -3385 0
-1208 -3386 0
-1208 -3387 0
-1208 -3388 0
-1208 -3389 0
-1208 -3390 0
-2032 1208 3375 3376 3377 3378 3379 3380 3381 3382 3383 3384 3385 3386 3387 3388 3389 3390 0
-1211 2033 0
-3391 2032 0
-3391 1964 0
-2032 -1964 3391 0
-3392 2034 0
-3392 1999 0
-2034 -1999 3392 0
-3393 2035 0
-3393 2016 0
-2035 -2016 3393 0
-3394 2036 0
-3394 2050 0
-2036 -2050 3394 0
-3395 2037 0
-3395 2067 0
-2037 -2067 3395 0
-3396 2038 0
-3396 2084 0
-2038 -2084 3396 0
-3397 2039 0
-3397 2101 0
-2039 -2101 3397 0
-3398 2040 0
-3398 2118 0
-2040 -2118 3398 0
-3399 2041 0
-3399 2135 0
-2041 -2135 3399 0
-3400 2042 0
-3400 2152 0
-2042 -2152 3400 0
-3401 2043 0
-3401 2169 0
-2043 -2169 3401 0
-3402 2044 0
-3402 2186 0
-2044 -2186 3402 0
-3403 2045 0
-3403 2203 0
-2045 -2203 3403 0
-3404 2046 0
-3404 2220 0
-2046 -2220 3404 0
-3405 2047 0
-3405 2237 0
-2047 -2237 3405 0
-3406 2048 0
-3406 2254 0
-2048 -2254 3406 0
-1211 -3391 0
-1211 -3392 0
-1211 -3393 0
-1211 -3394 0
-1211 -3395 0
-1211 -3396 0
-1211 -3397 0
-1211 -3398 0
-1211 -3399 0
-1211 -3400 0
-1211 -3401 0
-1211 -3402 0
-1211 -3403 0
-1211 -3404 0
-1211 -3405 0
-1211 -3406 0
-2033 1211 3391 3392 3393 3394 3395 3396 3397 3398 3399 3400 3401 3402 3403 3404 3405 3406 0
-1214 2034 0
-3407 2032 0
-3407 1967 0
-2032 -1967 3407 0
-3408 2033 0
-3408 1966 0
-2033 -1966 3408 0
-3409 2035 0
-3409 2017 0
-2035 -2017 3409 0
-3410 2036 0
-3410 2051 0
-2036 -2051 3410 0
-3411 2037 0
-3411 2068 0
-2037 -2068 3411 0
-3412 2038 0
-3412 2085 0
-2038 -2085 3412 0
-3413 2039 0
-3413 2102 0
-2039 -2102 3413 0
-3414 2040 0
-3414 2119 0
-2040 -2119 3414 0
-3415 2041 0
-3415 2136 0
-2041 -2136 3415 0
-3416 2042 0
-3416 2153 0
-2042 -2153 3416 0
-3417 2043 0
-3417 2170 0
-2043 -2170 3417 0
-3418 2044 0
-3418 2187 0
-2044 -2187 3418 0
-3419 2045 0
-3419 2204 0
-2045 -2204 3419 0
-3420 2046 0
-3420 2221 0
-2046 -2221 3420 0
-3421 2047 0
-3421 2238 0
-2047 -2238 3421 0
-3422 2048 0
-3422 2255 0
-2048 -2255 3422 0
-1214 -3407 0
-1214 -3408 0
-1214 -3409 0
-1214 -3410 0
-1214 -3411 0
-1214 -3412 0
-1214 -3413 0
-1214 -3414 0
-1214 -3415 0
-1214 -3416 0
-1214 -3417 0
-1214 -3418 0
-1214 -3419 0
-1214 -3420 0
-1214 -3421 0
-1214 -3422 0
-2034 1214 3407 3408 3409 3410 3411 3412 3413 3414 3415 3416 3417 3418 3419 3420 3421 3422 0
-1217 2035 0
-3423 2032 0
-3423 1969 0
-2032 -1969 3423 0
-3424 2033 0
-3424 1968 0
-2033 -1968 3424 0
-3425 2034 0
-3425 2000 0
-2034 -2000 3425 0
-3426 2036 0
-3426 2052 0
-2036 -2052 3426 0
-3427 2037 0
-3427 2069 0
-2037 -2069 3427 0
-3428 2038 0
-3428 2086 0
-2038 -2086 3428 0
-3429 2039 0
-3429 2103 0
-2039 -2103 3429 0
-3430 2040 0
-3430 2120 0
-2040 -2120 3430 0
-3431 2041 0
-3431 2137 0
-2041 -2137 3431 0
-3432 2042 0
-3432 2154 0
-2042 -2154 3432 0
-3433 2043 0
-3433 2171 0
-2043 -2171 3433 0
-3434 2044 0
-3434 2188 0
-2044 -2188 3434 0
-3435 2045 0
-3435 2205 0
-2045 -2205 3435 0
-3436 2046 0
-3436 2222 0
-2046 -2222 3436 0
-3437 2047 0
-3437 2239 0
-2047 -2239 3437 0
-3438 2048 0
-3438 2256 0
-2048 -2256 3438 0
-1217 -3423 0
-1217 -3424 0
-1217 -3425 0
-1217 -3426 0
-1217 -3427 0
-1217 -3428 0
-1217 -3429 0
-1217 -3430 0
-1217 -3431 0
-1217 -3432 0
-1217 -3433 0
-1217 -3434 0
-1217 -3435 0
-1217 -3436 0
-1217 -3437 0
-1217 -3438 0
-2035 1217 3423 3424 3425 3426 3427 3428 3429 3430 3431 3432 3433 3434 3435 3436 3437 3438 0
-1220 0
-1223 2036 0
-3439 2032 0
-3439 1973 0
-2032 -1973 3439 0
-3440 2033 0
-3440 1972 0
-2033 -1972 3440 0
-3441 2034 0
-3441 2002 0
-2034 -2002 3441 0
-3442 2035 0
-3442 2019 0
-2035 -2019 3442 0
-3443 2037 0
-3443 2071 0
-2037 -2071 3443 0
-3444 2038 0
-3444 2088 0
-2038 -2088 3444 0
-3445 2039 0
-3445 2105 0
-2039 -2105 3445 0
-3446 2040 0
-3446 2122 0
-2040 -2122 3446 0
-3447 2041 0
-3447 2139 0
-2041 -2139 3447 0
-3448 2042 0
-3448 2156 0
-2042 -2156 3448 0
-3449 2043 0
-3449 2173 0
-2043 -2173 3449 0
-3450 2044 0
-3450 2190 0
-2044 -2190 3450 0
-3451 2045 0
-3451 2207 0
-2045 -2207 3451 0
-3452 2046 0
-3452 2224 0
-2046 -2224 3452 0
-3453 2047 0
-3453 2241 0
-2047 -2241 3453 0
-3454 2048 0
-3454 2258 0
-2048 -2258 3454 0
-1223 -3439 0
-1223 -3440 0
-1223 -3441 0
-1223 -3442 0
-1223 -3443 0
-1223 -3444 0
-1223 -3445 0
-1223 -3446 0
-1223 -3447 0
-1223 -3448 0
-1223 -3449 0
-1223 -3450 0
-1223 -3451 0
-1223 -3452 0
-1223 -3453 0
-1223 -3454 0
-2036 1223 3439 3440 3441 3442 3443 3444 3445 3446 3447 3448 3449 3450 3451 3452 3453 3454 0
-1226 2037 0
-3455 2032 0
-3455 1975 0
-2032 -1975 3455 0
-3456 2033 0
-3456 1974 0
-2033 -1974 3456 0
-3457 2034 0
-3457 2003 0
-2034 -2003 3457 0
-3458 2035 0
-3458 2020 0
-2035 -2020 3458 0
-3459 2036 0
-3459 2054 0
-2036 -2054 3459 0
-3460 2038 0
-3460 2089 0
-2038 -2089 3460 0
-3461 2039 0
-3461 2106 0
-2039 -2106 3461 0
-3462 2040 0
-3462 2123 0
-2040 -2123 3462 0
-3463 2041 0
-3463 2140 0
-2041 -2140 3463 0
-3464 2042 0
-3464 2157 0
-2042 -2157 3464 0
-3465 2043 0
-3465 2174 0
-2043 -2174 3465 0
-3466 2044 0
-3466 2191 0
-2044 -2191 3466 0
-3467 2045 0
-3467 2208 0
-2045 -2208 3467 0
-3468 2046 0
-3468 2225 0
-2046 -2225 3468 0
-3469 2047 0
-3469 2242 0
-2047 -2242 3469 0
-3470 2048 0
-3470 2259 0
-2048 -2259 3470 0
-1226 -3455 0
-1226 -3456 0
-1226 -3457 0
-1226 -3458 0
-1226 -3459 0
-1226 -3460 0
-1226 -3461 0
-1226 -3462 0
-1226 -3463 0
-1226 -3464 0
-1226 -3465 0
-1226 -3466 0
-1226 -3467 0
-1226 -3468 0
-1226 -3469 0
-1226 -3470 0
-2037 1226 3455 3456 3457 3458 3459 3460 3461 3462 3463 3464 3465 3466 3467 3468 3469 3470 0
-1229 2038 0
-3471 2032 0
-3471 1977 0
-2032 -1977 3471 0
-3472 2033 0
-3472 1976 0
-2033 -1976 3472 0
-3473 2034 0
-3473 2004 0
-2034 -2004 3473 0
-3474 2035 0
-3474 2021 0
-2035 -2021 3474 0
-3475 2036 0
-3475 2055 0
-2036 -2055 3475 0
-3476 2037 0
-3476 2072 0
-2037 -2072 3476 0
-3477 2039 0
-3477 2107 0
-2039 -2107 3477 0
-3478 2040 0
-3478 2124 0
-2040 -2124 3478 0
-3479 2041 0
-3479 2141 0
-2041 -2141 3479 0
-3480 2042 0
-3480 2158 0
-2042 -2158 3480 0
-3481 2043 0
-3481 2175 0
-2043 -2175 3481 0
-3482 2044 0
-3482 2192 0
-2044 -2192 3482 0
-3483 2045 0
-3483 2209 0
-2045 -2209 3483 0
-3484 2046 0
-3484 2226 0
-2046 -2226 3484 0
-3485 2047 0
-3485 2243 0
-2047 -2243 3485 0
-3486 2048 0
-3486 2260 0
-2048 -2260 3486 0
-1229 -3471 0
-1229 -3472 0
-1229 -3473 0
-1229 -3474 0
-1229 -3475 0
-1229 -3476 0
-1229 -3477 0
-1229 -3478 0
-1229 -3479 0
-1229 -3480 0
-1229 -3481 0
-1229 -3482 0
-1229 -3483 0
-1229 -3484 0
-1229 -3485 0
-1229 -3486 0
-2038 1229 3471 3472 3473 3474 3475 3476 3477 3478 3479 3480 3481 3482 3483 3484 3485 3486 0
-1232 2039 0
-3487 2032 0
-3487 1979 0
-2032 -1979 3487 0
-3488 2033 0
-3488 1978 0
-2033 -1978 3488 0
-3489 2034 0
-3489 2005 0
-2034 -2005 3489 0
-3490 2035 0
-3490 2022 0
-2035 -2022 3490 0
-3491 2036 0
-3491 2056 0
-2036 -2056 3491 0
-3492 2037 0
-3492 2073 0
-2037 -2073 3492 0
-3493 2038 0
-3493 2090 0
-2038 -2090 3493 0
-3494 2040 0
-3494 2125 0
-2040 -2125 3494 0
-3495 2041 0
-3495 2142 0
-2041 -2142 3495 0
-3496 2042 0
-3496 2159 0
-2042 -2159 3496 0
-3497 2043 0
-3497 2176 0
-2043 -2176 3497 0
-3498 2044 0
-3498 2193 0
-2044 -2193 3498 0
-3499 2045 0
-3499 2210 0
-2045 -2210 3499 0
-3500 2046 0
-3500 2227 0
-2046 -2227 3500 0
-3501 2047 0
-3501 2244 0
-2047 -2244 3501 0
-3502 2048 0
-3502 2261 0
-2048 -2261 3502 0
-1232 -3487 0
-1232 -3488 0
-1232 -3489 0
-1232 -3490 0
-1232 -3491 0
-1232 -3492 0
-1232 -3493 0
-1232 -3494 0
-1232 -3495 0
-1232 -3496 0
-1232 -3497 0
-1232 -3498 0
-1232 -3499 0
-1232 -3500 0
-1232 -3501 0
-1232 -3502 0
-2039 1232 3487 3488 3489 3490 3491 3492 3493 3494 3495 3496 3497 3498 3499 3500 3501 3502 0
-1235 2040 0
-3503 2032 0
-3503 1981 0
-2032 -1981 3503 0
-3504 2033 0
-3504 1980 0
-2033 -1980 3504 0
-3505 2034 0
-3505 2006 0
-2034 -2006 3505 0
-3506 2035 0
-3506 2023 0
-2035 -2023 3506 0
-3507 2036 0
-3507 2057 0
-2036 -2057 3507 0
-3508 2037 0
-3508 2074 0
-2037 -2074 3508 0
-3509 2038 0
-3509 2091 0
-2038 -2091 3509 0
-3510 2039 0
-3510 2108 0
-2039 -2108 3510 0
-3511 2041 0
-3511 2143 0
-2041 -2143 3511 0
-3512 2042 0
-3512 2160 0
-2042 -2160 3512 0
-3513 2043 0
-3513 2177 0
-2043 -2177 3513 0
-3514 2044 0
-3514 2194 0
-2044 -2194 3514 0
-3515 2045 0
-3515 2211 0
-2045 -2211 3515 0
-3516 2046 0
-3516 2228 0
-2046 -2228 3516 0
-3517 2047 0
-3517 2245 0
-2047 -2245 3517 0
-3518 2048 0
-3518 2262 0
-2048 -2262 3518 0
-1235 -3503 0
-1235 -3504 0
-1235 -3505 0
-1235 -3506 0
-1235 -3507 0
-1235 -3508 0
-1235 -3509 0
-1235 -3510 0
-1235 -3511 0
-1235 -3512 0
-1235 -3513 0
-1235 -3514 0
-1235 -3515 0
-1235 -3516 0
-1235 -3517 0
-1235 -3518 0
-2040 1235 3503 3504 3505 3506 3507 3508 3509 3510 3511 3512 3513 3514 3515 3516 3517 3518 0
-1238 2041 0
-3519 2032 0
-3519 1983 0
-2032 -1983 3519 0
-3520 2033 0
-3520 1982 0
-2033 -1982 3520 0
-3521 2034 0
-3521 2007 0
-2034 -2007 3521 0
-3522 2035 0
-3522 2024 0
-2035 -2024 3522 0
-3523 2036 0
-3523 2058 0
-2036 -2058 3523 0
-3524 2037 0
-3524 2075 0
-2037 -2075 3524 0
-3525 2038 0
-3525 2092 0
-2038 -2092 3525 0
-3526 2039 0
-3526 2109 0
-2039 -2109 3526 0
-3527 2040 0
-3527 2126 0
-2040 -2126 3527 0
-3528 2042 0
-3528 2161 0
-2042 -2161 3528 0
-3529 2043 0
-3529 2178 0
-2043 -2178 3529 0
-3530 2044 0
-3530 2195 0
-2044 -2195 3530 0
-3531 2045 0
-3531 2212 0
-2045 -2212 3531 0
-3532 2046 0
-3532 2229 0
-2046 -2229 3532 0
-3533 2047 0
-3533 2246 0
-2047 -2246 3533 0
-3534 2048 0
-3534 2263 0
-2048 -2263 3534 0
-1238 -3519 0
-1238 -3520 0
-1238 -3521 0
-1238 -3522 0
-1238 -3523 0
-1238 -3524 0
-1238 -3525 0
-1238 -3526 0
-1238 -3527 0
-1238 -3528 0
-1238 -3529 0
-1238 -3530 0
-1238 -3531 0
-1238 -3532 0
-1238 -3533 0
-1238 -3534 0
-2041 1238 3519 3520 3521 3522 3523 3524 3525 3526 3527 3528 3529 3530 3531 3532 3533 3534 0
-1241 2042 0
-3535 2032 0
-3535 1985 0
-2032 -1985 3535 0
-3536 2033 0
-3536 1984 0
-2033 -1984 3536 0
-3537 2034 0
-3537 2008 0
-2034 -2008 3537 0
-3538 2035 0
-3538 2025 0
-2035 -2025 3538 0
-3539 2036 0
-3539 2059 0
-2036 -2059 3539 0
-3540 2037 0
-3540 2076 0
-2037 -2076 3540 0
-3541 2038 0
-3541 2093 0
-2038 -2093 3541 0
-3542 2039 0
-3542 2110 0
-2039 -2110 3542 0
-3543 2040 0
-3543 2127 0
-2040 -2127 3543 0
-3544 2041 0
-3544 2144 0
-2041 -2144 3544 0
-3545 2043 0
-3545 2179 0
-2043 -2179 3545 0
-3546 2044 0
-3546 2196 0
-2044 -2196 3546 0
-3547 2045 0
-3547 2213 0
-2045 -2213 3547 0
-3548 2046 0
-3548 2230 0
-2046 -2230 3548 0
-3549 2047 0
-3549 2247 0
-2047 -2247 3549 0
-3550 2048 0
-3550 2264 0
-2048 -2264 3550 0
-1241 -3535 0
-1241 -3536 0
-1241 -3537 0
-1241 -3538 0
-1241 -3539 0
-1241 -3540 0
-1241 -3541 0
-1241 -3542 0
-1241 -3543 0
-1241 -3544 0
-1241 -3545 0
-1241 -3546 0
-1241 -3547 0
-1241 -3548 0
-1241 -3549 0
-1241 -3550 0
-2042 1241 3535 3536 3537 3538 3539 3540 3541 3542 3543 3544 3545 3546 3547 3548 3549 3550 0
-1244 2043 0
-3551 2032 0
-3551 1987 0
-2032 -1987 3551 0
-3552 2033 0
-3552 1986 0
-2033 -1986 3552 0
-3553 2034 0
-3553 2009 0
-2034 -2009 3553 0
-3554 2035 0
-3554 2026 0
-2035 -2026 3554 0
-3555 2036 0
-3555 2060 0
-2036 -2060 3555 0
-3556 2037 0
-3556 2077 0
-2037 -2077 3556 0
-3557 2038 0
-3557 2094 0
-2038 -2094 3557 0
-3558 2039 0
-3558 2111 0
-2039 -2111 3558 0
-3559 2040 0
-3559 2128 0
-2040 -2128 3559 0
-3560 2041 0
-3560 2145 0
-2041 -2145 3560 0
-3561 2042 0
-3561 2162 0
-2042 -2162 3561 0
-3562 2044 0
-3562 2197 0
-2044 -2197 3562 0
-3563 2045 0
-3563 2214 0
-2045 -2214 3563 0
-3564 2046 0
-3564 2231 0
-2046 -2231 3564 0
-3565 2047 0
-3565 2248 0
-2047 -2248 3565 0
-3566 2048 0
-3566 2265 0
-2048 -2265 3566 0
-1244 -3551 0
-1244 -3552 0
-1244 -3553 0
-1244 -3554 0
-1244 -3555 0
-1244 -3556 0
-1244 -3557 0
-1244 -3558 0
-1244 -3559 0
-1244 -3560 0
-1244 -3561 0
-1244 -3562 0
-1244 -3563 0
-1244 -3564 0
-1244 -3565 0
-1244 -3566 0
-2043 1244 3551 3552 3553 3554 3555 3556 3557 3558 3559 3560 3561 3562 3563 3564 3565 3566 0
-1247 2044 0
-3567 2032 0
-3567 1989 0
-2032 -1989 3567 0
-3568 2033 0
-3568 1988 0
-2033 -1988 3568 0
-3569 2034 0
-3569 2010 0
-2034 -2010 3569 0
-3570 2035 0
-3570 2027 0
-2035 -2027 3570 0
-3571 2036 0
-3571 2061 0
-2036 -2061 3571 0
-3572 2037 0
-3572 2078 0
-2037 -2078 3572 0
-3573 2038 0
-3573 2095 0
-2038 -2095 3573 0
-3574 2039 0
-3574 2112 0
-2039 -2112 3574 0
-3575 2040 0
-3575 2129 0
-2040 -2129 3575 0
-3576 2041 0
-3576 2146 0
-2041 -2146 3576 0
-3577 2042 0
-3577 2163 0
-2042 -2163 3577 0
-3578 2043 0
-3578 2180 0
-2043 -2180 3578 0
-3579 2045 0
-3579 2215 0
-2045 -2215 3579 0
-3580 2046 0
-3580 2232 0
-2046 -2232 3580 0
-3581 2047 0
-3581 2249 0
-2047 -2249 3581 0
-3582 2048 0
-3582 2266 0
-2048 -2266 3582 0
-1247 -3567 0
-1247 -3568 0
-1247 -3569 0
-1247 -3570 0
-1247 -3571 0
-1247 -3572 0
-1247 -3573 0
-1247 -3574 0
-1247 -3575 0
-1247 -3576 0
-1247 -3577 0
-1247 -3578 0
-1247 -3579 0
-1247 -3580 0
-1247 -3581 0
-1247 -3582 0
-2044 1247 3567 3568 3569 3570 3571 3572 3573 3574 3575 3576 3577 3578 3579 3580 3581 3582 0
-1250 2045 0
-3583 2032 0
-3583 1991 0
-2032 -1991 3583 0
-3584 2033 0
-3584 1990 0
-2033 -1990 3584 0
-3585 2034 0
-3585 2011 0
-2034 -2011 3585 0
-3586 2035 0
-3586 2028 0
-2035 -2028 3586 0
-3587 2036 0
-3587 2062 0
-2036 -2062 3587 0
-3588 2037 0
-3588 2079 0
-2037 -2079 3588 0
-3589 2038 0
-3589 2096 0
-2038 -2096 3589 0
-3590 2039 0
-3590 2113 0
-2039 -2113 3590 0
-3591 2040 0
-3591 2130 0
-2040 -2130 3591 0
-3592 2041 0
-3592 2147 0
-2041 -2147 3592 0
-3593 2042 0
-3593 2164 0
-2042 -2164 3593 0
-3594 2043 0
-3594 2181 0
-2043 -2181 3594 0
-3595 2044 0
-3595 2198 0
-2044 -2198 3595 0
-3596 2046 0
-3596 2233 0
-2046 -2233 3596 0
-3597 2047 0
-3597 2250 0
-2047 -2250 3597 0
-3598 2048 0
-3598 2267 0
-2048 -2267 3598 0
-1250 -3583 0
-1250 -3584 0
-1250 -3585 0
-1250 -3586 0
-1250 -3587 0
-1250 -3588 0
-1250 -3589 0
-1250 -3590 0
-1250 -3591 0
-1250 -3592 0
-1250 -3593 0
-1250 -3594 0
-1250 -3595 0
-1250 -3596 0
-1250 -3597 0
-1250 -3598 0
-2045 1250 3583 3584 3585 3586 3587 3588 3589 3590 3591 3592 3593 3594 3595 3596 3597 3598 0
-1253 2046 0
-3599 2032 0
-3599 1993 0
-2032 -1993 3599 0
-3600 2033 0
-3600 1992 0
-2033 -1992 3600 0
-3601 2034 0
-3601 2012 0
-2034 -2012 3601 0
-3602 2035 0
-3602 2029 0
-2035 -2029 3602 0
-3603 2036 0
-3603 2063 0
-2036 -2063 3603 0
-3604 2037 0
-3604 2080 0
-2037 -2080 3604 0
-3605 2038 0
-3605 2097 0
-2038 -2097 3605 0
-3606 2039 0
-3606 2114 0
-2039 -2114 3606 0
-3607 2040 0
-3607 2131 0
-2040 -2131 3607 0
-3608 2041 0
-3608 2148 0
-2041 -2148 3608 0
-3609 2042 0
-3609 2165 0
-2042 -2165 3609 0
-3610 2043 0
-3610 2182 0
-2043 -2182 3610 0
-3611 2044 0
-3611 2199 0
-2044 -2199 3611 0
-3612 2045 0
-3612 2216 0
-2045 -2216 3612 0
-3613 2047 0
-3613 2251 0
-2047 -2251 3613 0
-3614 2048 0
-3614 2268 0
-2048 -2268 3614 0
-1253 -3599 0
-1253 -3600 0
-1253 -3601 0
-1253 -3602 0
-1253 -3603 0
-1253 -3604 0
-1253 -3605 0
-1253 -3606 0
-1253 -3607 0
-1253 -3608 0
-1253 -3609 0
-1253 -3610 0
-1253 -3611 0
-1253 -3612 0
-1253 -3613 0
-1253 -3614 0
-2046 1253 3599 3600 3601 3602 3603 3604 3605 3606 3607 3608 3609 3610 3611 3612 3613 3614 0
-1256 2047 0
-3615 2032 0
-3615 1995 0
-2032 -1995 3615 0
-3616 2033 0
-3616 1994 0
-2033 -1994 3616 0
-3617 2034 0
-3617 2013 0
-2034 -2013 3617 0
-3618 2035 0
-3618 2030 0
-2035 -2030 3618 0
-3619 2036 0
-3619 2064 0
-2036 -2064 3619 0
-3620 2037 0
-3620 2081 0
-2037 -2081 3620 0
-3621 2038 0
-3621 2098 0
-2038 -2098 3621 0
-3622 2039 0
-3622 2115 0
-2039 -2115 3622 0
-3623 2040 0
-3623 2132 0
-2040 -2132 3623 0
-3624 2041 0
-3624 2149 0
-2041 -2149 3624 0
-3625 2042 0
-3625 2166 0
-2042 -2166 3625 0
-3626 2043 0
-3626 2183 0
-2043 -2183 3626 0
-3627 2044 0
-3627 2200 0
-2044 -2200 3627 0
-3628 2045 0
-3628 2217 0
-2045 -2217 3628 0
-3629 2046 0
-3629 2234 0
-2046 -2234 3629 0
-3630 2048 0
-3630 2269 0
-2048 -2269 3630 0
-1256 -3615 0
-1256 -3616 0
-1256 -3617 0
-1256 -3618 0
-1256 -3619 0
-1256 -3620 0
-1256 -3621 0
-1256 -3622 0
-1256 -3623 0
-1256 -3624 0
-1256 -3625 0
-1256 -3626 0
-1256 -3627 0
-1256 -3628 0
-1256 -3629 0
-1256 -3630 0
-2047 1256 3615 3616 3617 3618 3619 3620 3621 3622 3623 3624 3625 3626 3627 3628 3629 3630 0
-1259 2048 0
-3631 2032 0
-3631 1997 0
-2032 -1997 3631 0
-3632 2033 0
-3632 1996 0
-2033 -1996 3632 0
-3633 2034 0
-3633 2014 0
-2034 -2014 3633 0
-3634 2035 0
-3634 2031 0
-2035 -2031 3634 0
-3635 2036 0
-3635 2065 0
-2036 -2065 3635 0
-3636 2037 0
-3636 2082 0
-2037 -2082 3636 0
-3637 2038 0
-3637 2099 0
-2038 -2099 3637 0
-3638 2039 0
-3638 2116 0
-2039 -2116 3638 0
-3639 2040 0
-3639 2133 0
-2040 -2133 3639 0
-3640 2041 0
-3640 2150 0
-2041 -2150 3640 0
-3641 2042 0
-3641 2167 0
-2042 -2167 3641 0
-3642 2043 0
-3642 2184 0
-2043 -2184 3642 0
-3643 2044 0
-3643 2201 0
-2044 -2201 3643 0
-3644 2045 0
-3644 2218 0
-2045 -2218 3644 0
-3645 2046 0
-3645 2235 0
-2046 -2235 3645 0
-3646 2047 0
-3646 2252 0
-2047 -2252 3646 0
-1259 -3631 0
-1259 -3632 0
-1259 -3633 0
-1259 -3634 0
-1259 -3635 0
-1259 -3636 0
-1259 -3637 0
-1259 -3638 0
-1259 -3639 0
-1259 -3640 0
-1259 -3641 0
-1259 -3642 0
-1259 -3643 0
-1259 -3644 0
-1259 -3645 0
-1259 -3646 0
-2048 1259 3631 3632 3633 3634 3635 3636 3637 3638 3639 3640 3641 3642 3643 3644 3645 3646 0
-1262 2049 0
-3647 2050 0
-3647 1965 0
-2050 -1965 3647 0
-3648 2051 0
-3648 1998 0
-2051 -1998 3648 0
-3649 2052 0
-3649 2015 0
-2052 -2015 3649 0
-3650 2053 0
-3650 2032 0
-2053 -2032 3650 0
-3651 2054 0
-3651 2066 0
-2054 -2066 3651 0
-3652 2055 0
-3652 2083 0
-2055 -2083 3652 0
-3653 2056 0
-3653 2100 0
-2056 -2100 3653 0
-3654 2057 0
-3654 2117 0
-2057 -2117 3654 0
-3655 2058 0
-3655 2134 0
-2058 -2134 3655 0
-3656 2059 0
-3656 2151 0
-2059 -2151 3656 0
-3657 2060 0
-3657 2168 0
-2060 -2168 3657 0
-3658 2061 0
-3658 2185 0
-2061 -2185 3658 0
-3659 2062 0
-3659 2202 0
-2062 -2202 3659 0
-3660 2063 0
-3660 2219 0
-2063 -2219 3660 0
-3661 2064 0
-3661 2236 0
-2064 -2236 3661 0
-3662 2065 0
-3662 2253 0
-2065 -2253 3662 0
-1262 -3647 0
-1262 -3648 0
-1262 -3649 0
-1262 -3650 0
-1262 -3651 0
-1262 -3652 0
-1262 -3653 0
-1262 -3654 0
-1262 -3655 0
-1262 -3656 0
-1262 -3657 0
-1262 -3658 0
-1262 -3659 0
-1262 -3660 0
-1262 -3661 0
-1262 -3662 0
-2049 1262 3647 3648 3649 3650 3651 3652 3653 3654 3655 3656 3657 3658 3659 3660 3661 3662 0
-1265 2050 0
-3663 2049 0
-3663 1964 0
-2049 -1964 3663 0
-3664 2051 0
-3664 1999 0
-2051 -1999 3664 0
-3665 2052 0
-3665 2016 0
-2052 -2016 3665 0
-3666 2053 0
-3666 2033 0
-2053 -2033 3666 0
-3667 2054 0
-3667 2067 0
-2054 -2067 3667 0
-3668 2055 0
-3668 2084 0
-2055 -2084 3668 0
-3669 2056 0
-3669 2101 0
-2056 -2101 3669 0
-3670 2057 0
-3670 2118 0
-2057 -2118 3670 0
-3671 2058 0
-3671 2135 0
-2058 -2135 3671 0
-3672 2059 0
-3672 2152 0
-2059 -2152 3672 0
-3673 2060 0
-3673 2169 0
-2060 -2169 3673 0
-3674 2061 0
-3674 2186 0
-2061 -2186 3674 0
-3675 2062 0
-3675 2203 0
-2062 -2203 3675 0
-3676 2063 0
-3676 2220 0
-2063 -2220 3676 0
-3677 2064 0
-3677 2237 0
-2064 -2237 3677 0
-3678 2065 0
-3678 2254 0
-2065 -2254 3678 0
-1265 -3663 0
-1265 -3664 0
-1265 -3665 0
-1265 -3666 0
-1265 -3667 0
-1265 -3668 0
-1265 -3669 0
-1265 -3670 0
-1265 -3671 0
-1265 -3672 0
-1265 -3673 0
-1265 -3674 0
-1265 -3675 0
-1265 -3676 0
-1265 -3677 0
-1265 -3678 0
-2050 1265 3663 3664 3665 3666 3667 3668 3669 3670 3671 3672 3673 3674 3675 3676 3677 3678 0
-1268 2051 0
-3679 2049 0
-3679 1967 0
-2049 -1967 3679 0
-3680 2050 0
-3680 1966 0
-2050 -1966 3680 0
-3681 2052 0
-3681 2017 0
-2052 -2017 3681 0
-3682 2053 0
-3682 2034 0
-2053 -2034 3682 0
-3683 2054 0
-3683 2068 0
-2054 -2068 3683 0
-3684 2055 0
-3684 2085 0
-2055 -2085 3684 0
-3685 2056 0
-3685 2102 0
-2056 -2102 3685 0
-3686 2057 0
-3686 2119 0
-2057 -2119 3686 0
-3687 2058 0
-3687 2136 0
-2058 -2136 3687 0
-3688 2059 0
-3688 2153 0
-2059 -2153 3688 0
-3689 2060 0
-3689 2170 0
-2060 -2170 3689 0
-3690 2061 0
-3690 2187 0
-2061 -2187 3690 0
-3691 2062 0
-3691 2204 0
-2062 -2204 3691 0
-3692 2063 0
-3692 2221 0
-2063 -2221 3692 0
-3693 2064 0
-3693 2238 0
-2064 -2238 3693 0
-3694 2065 0
-3694 2255 0
-2065 -2255 3694 0
-1268 -3679 0
-1268 -3680 0
-1268 -3681 0
-1268 -3682 0
-1268 -3683 0
-1268 -3684 0
-1268 -3685 0
-1268 -3686 0
-1268 -3687 0
-1268 -3688 0
-1268 -3689 0
-1268 -3690 0
-1268 -3691 0
-1268 -3692 0
-1268 -3693 0
-1268 -3694 0
-2051 1268 3679 3680 3681 3682 3683 3684 3685 3686 3687 3688 3689 3690 3691 3692 3693 3694 0
-1271 2052 0
-3695 2049 0
-3695 1969 0
-2049 -1969 3695 0
-3696 2050 0
-3696 1968 0
-2050 -1968 3696 0
-3697 2051 0
-3697 2000 0
-2051 -2000 3697 0
-3698 2053 0
-3698 2035 0
-2053 -2035 3698 0
-3699 2054 0
-3699 2069 0
-2054 -2069 3699 0
-3700 2055 0
-3700 2086 0
-2055 -2086 3700 0
-3701 2056 0
-3701 2103 0
-2056 -2103 3701 0
-3702 2057 0
-3702 2120 0
-2057 -2120 3702 0
-3703 2058 0
-3703 2137 0
-2058 -2137 3703 0
-3704 2059 0
-3704 2154 0
-2059 -2154 3704 0
-3705 2060 0
-3705 2171 0
-2060 -2171 3705 0
-3706 2061 0
-3706 2188 0
-2061 -2188 3706 0
-3707 2062 0
-3707 2205 0
-2062 -2205 3707 0
-3708 2063 0
-3708 2222 0
-2063 -2222 3708 0
-3709 2064 0
-3709 2239 0
-2064 -2239 3709 0
-3710 2065 0
-3710 2256 0
-2065 -2256 3710 0
-1271 -3695 0
-1271 -3696 0
-1271 -3697 0
-1271 -3698 0
-1271 -3699 0
-1271 -3700 0
-1271 -3701 0
-1271 -3702 0
-1271 -3703 0
-1271 -3704 0
-1271 -3705 0
-1271 -3706 0
-1271 -3707 0
-1271 -3708 0
-1271 -3709 0
-1271 -3710 0
-2052 1271 3695 3696 3697 3698 3699 3700 3701 3702 3703 3704 3705 3706 3707 3708 3709 3710 0
-1274 2053 0
-3711 2049 0
-3711 1971 0
-2049 -1971 3711 0
-3712 2050 0
-3712 1970 0
-2050 -1970 3712 0
-3713 2051 0
-3713 2001 0
-2051 -2001 3713 0
-3714 2052 0
-3714 2018 0
-2052 -2018 3714 0
-3715 2054 0
-3715 2070 0
-2054 -2070 3715 0
-3716 2055 0
-3716 2087 0
-2055 -2087 3716 0
-3717 2056 0
-3717 2104 0
-2056 -2104 3717 0
-3718 2057 0
-3718 2121 0
-2057 -2121 3718 0
-3719 2058 0
-3719 2138 0
-2058 -2138 3719 0
-3720 2059 0
-3720 2155 0
-2059 -2155 3720 0
-3721 2060 0
-3721 2172 0
-2060 -2172 3721 0
-3722 2061 0
-3722 2189 0
-2061 -2189 3722 0
-3723 2062 0
-3723 2206 0
-2062 -2206 3723 0
-3724 2063 0
-3724 2223 0
-2063 -2223 3724 0
-3725 2064 0
-3725 2240 0
-2064 -2240 3725 0
-3726 2065 0
-3726 2257 0
-2065 -2257 3726 0
-1274 -3711 0
-1274 -3712 0
-1274 -3713 0
-1274 -3714 0
-1274 -3715 0
-1274 -3716 0
-1274 -3717 0
-1274 -3718 0
-1274 -3719 0
-1274 -3720 0
-1274 -3721 0
-1274 -3722 0
-1274 -3723 0
-1274 -3724 0
-1274 -3725 0
-1274 -3726 0
-2053 1274 3711 3712 3713 3714 3715 3716 3717 3718 3719 3720 3721 3722 3723 3724 3725 3726 0
-1277 0
-1280 2054 0
-3727 2049 0
-3727 1975 0
-2049 -1975 3727 0
-3728 2050 0
-3728 1974 0
-2050 -1974 3728 0
-3729 2051 0
-3729 2003 0
-2051 -2003 3729 0
-3730 2052 0
-3730 2020 0
-2052 -2020 3730 0
-3731 2053 0
-3731 2037 0
-2053 -2037 3731 0
-3732 2055 0
-3732 2089 0
-2055 -2089 3732 0
-3733 2056 0
-3733 2106 0
-2056 -2106 3733 0
-3734 2057 0
-3734 2123 0
-2057 -2123 3734 0
-3735 2058 0
-3735 2140 0
-2058 -2140 3735 0
-3736 2059 0
-3736 2157 0
-2059 -2157 3736 0
-3737 2060 0
-3737 2174 0
-2060 -2174 3737 0
-3738 2061 0
-3738 2191 0
-2061 -2191 3738 0
-3739 2062 0
-3739 2208 0
-2062 -2208 3739 0
-3740 2063 0
-3740 2225 0
-2063 -2225 3740 0
-3741 2064 0
-3741 2242 0
-2064 -2242 3741 0
-3742 2065 0
-3742 2259 0
-2065 -2259 3742 0
-1280 -3727 0
-1280 -3728 0
-1280 -3729 0
-1280 -3730 0
-1280 -3731 0
-1280 -3732 0
-1280 -3733 0
-1280 -3734 0
-1280 -3735 0
-1280 -3736 0
-1280 -3737 0
-1280 -3738 0
-1280 -3739 0
-1280 -3740 0
-1280 -3741 0
-1280 -3742 0
-2054 1280 3727 3728 3729 3730 3731 3732 3733 3734 3735 3736 3737 3738 3739 3740 3741 3742 0
-1283 2055 0
-3743 2049 0
-3743 1977 0
-2049 -1977 3743 0
-3744 2050 0
-3744 1976 0
-2050 -1976 3744 0
-3745 2051 0
-3745 2004 0
-2051 -2004 3745 0
-3746 2052 0
-3746 2021 0
-2052 -2021 3746 0
-3747 2053 0
-3747 2038 0
-2053 -2038 3747 0
-3748 2054 0
-3748 2072 0
-2054 -2072 3748 0
-3749 2056 0
-3749 2107 0
-2056 -2107 3749 0
-3750 2057 0
-3750 2124 0
-2057 -2124 3750 0
-3751 2058 0
-3751 2141 0
-2058 -2141 3751 0
-3752 2059 0
-3752 2158 0
-2059 -2158 3752 0
-3753 2060 0
-3753 2175 0
-2060 -2175 3753 0
-3754 2061 0
-3754 2192 0
-2061 -2192 3754 0
-3755 2062 0
-3755 2209 0
-2062 -2209 3755 0
-3756 2063 0
-3756 2226 0
-2063 -2226 3756 0
-3757 2064 0
-3757 2243 0
-2064 -2243 3757 0
-3758 2065 0
-3758 2260 0
-2065 -2260 3758 0
-1283 -3743 0
-1283 -3744 0
-1283 -3745 0
-1283 -3746 0
-1283 -3747 0
-1283 -3748 0
-1283 -3749 0
-1283 -3750 0
-1283 -3751 0
-1283 -3752 0
-1283 -3753 0
-1283 -3754 0
-1283 -3755 0
-1283 -3756 0
-1283 -3757 0
-1283 -3758 0
-2055 1283 3743 3744 3745 3746 3747 3748 3749 3750 3751 3752 3753 3754 3755 3756 3757 3758 0
-1286 2056 0
-3759 2049 0
-3759 1979 0
-2049 -1979 3759 0
-3760 2050 0
-3760 1978 0
-2050 -1978 3760 0
-3761 2051 0
-3761 2005 0
-2051 -2005 3761 0
-3762 2052 0
-3762 2022 0
-2052 -2022 3762 0
-3763 2053 0
-3763 2039 0
-2053 -2039 3763 0
-3764 2054 0
-3764 2073 0
-2054 -2073 3764 0
-3765 2055 0
-3765 2090 0
-2055 -2090 3765 0
-3766 2057 0
-3766 2125 0
-2057 -2125 3766 0
-3767 2058 0
-3767 2142 0
-2058 -2142 3767 0
-3768 2059 0
-3768 2159 0
-2059 -2159 3768 0
-3769 2060 0
-3769 2176 0
-2060 -2176 3769 0
-3770 2061 0
-3770 2193 0
-2061 -2193 3770 0
-3771 2062 0
-3771 2210 0
-2062 -2210 3771 0
-3772 2063 0
-3772 2227 0
-2063 -2227 3772 0
-3773 2064 0
-3773 2244 0
-2064 -2244 3773 0
-3774 2065 0
-3774 2261 0
-2065 -2261 3774 0
-1286 -3759 0
-1286 -3760 0
-1286 -3761 0
-1286 -3762 0
-1286 -3763 0
-1286 -3764 0
-1286 -3765 0
-1286 -3766 0
-1286 -3767 0
-1286 -3768 0
-1286 -3769 0
-1286 -3770 0
-1286 -3771 0
-1286 -3772 0
-1286 -3773 0
-1286 -3774 0
-2056 1286 3759 3760 3761 3762 3763 3764 3765 3766 3767 3768 3769 3770 3771 3772 3773 3774 0
-1289 2057 0
-3775 2049 0
-3775 1981 0
-2049 -1981 3775 0
-3776 2050 0
-3776 1980 0
-2050 -1980 3776 0
-3777 2051 0
-3777 2006 0
-2051 -2006 3777 0
-3778 2052 0
-3778 2023 0
-2052 -2023 3778 0
-3779 2053 0
-3779 2040 0
-2053 -2040 3779 0
-3780 2054 0
-3780 2074 0
-2054 -2074 3780 0
-3781 2055 0
-3781 2091 0
-2055 -2091 3781 0
-3782 2056 0
-3782 2108 0
-2056 -2108 3782 0
-3783 2058 0
-3783 2143 0
-2058 -2143 3783 0
-3784 2059 0
-3784 2160 0
-2059 -2160 3784 0
-3785 2060 0
-3785 2177 0
-2060 -2177 3785 0
-3786 2061 0
-3786 2194 0
-2061 -2194 3786 0
-3787 2062 0
-3787 2211 0
-2062 -2211 3787 0
-3788 2063 0
-3788 2228 0
-2063 -2228 3788 0
-3789 2064 0
-3789 2245 0
-2064 -2245 3789 0
-3790 2065 0
-3790 2262 0
-2065 -2262 3790 0
-1289 -3775 0
-1289 -3776 0
-1289 -3777 0
-1289 -3778 0
-1289 -3779 0
-1289 -3780 0
-1289 -3781 0
-1289 -3782 0
-1289 -3783 0
-1289 -3784 0
-1289 -3785 0
-1289 -3786 0
-1289 -3787 0
-1289 -3788 0
-1289 -3789 0
-1289 -3790 0
-2057 1289 3775 3776 3777 3778 3779 3780 3781 3782 3783 3784 3785 3786 3787 3788 3789 3790 0
-1292 2058 0
-3791 2049 0
-3791 1983 0
-2049 -1983 3791 0
-3792 2050 0
-3792 1982 0
-2050 -1982 3792 0
-3793 2051 0
-3793 2007 0
-2051 -2007 3793 0
-3794 2052 0
-3794 2024 0
-2052 -2024 3794 0
-3795 2053 0
-3795 2041 0
-2053 -2041 3795 0
-3796 2054 0
-3796 2075 0
-2054 -2075 3796 0
-3797 2055 0
-3797 2092 0
-2055 -2092 3797 0
-3798 2056 0
-3798 2109 0
-2056 -2109 3798 0
-3799 2057 0
-3799 2126 0
-2057 -2126 3799 0
-3800 2059 0
-3800 2161 0
-2059 -2161 3800 0
-3801 2060 0
-3801 2178 0
-2060 -2178 3801 0
-3802 2061 0
-3802 2195 0
-2061 -2195 3802 0
-3803 2062 0
-3803 2212 0
-2062 -2212 3803 0
-3804 2063 0
-3804 2229 0
-2063 -2229 3804 0
-3805 2064 0
-3805 2246 0
-2064 -2246 3805 0
-3806 2065 0
-3806 2263 0
-2065 -2263 3806 0
-1292 -3791 0
-1292 -3792 0
-1292 -3793 0
-1292 -3794 0
-1292 -3795 0
-1292 -3796 0
-1292 -3797 0
-1292 -3798 0
-1292 -3799 0
-1292 -3800 0
-1292 -3801 0
-1292 -3802 0
-1292 -3803 0
-1292 -3804 0
-1292 -3805 0
-1292 -3806 0
-2058 1292 3791 3792 3793 3794 3795 3796 3797 3798 3799 3800 3801 3802 3803 3804 3805 3806 0
-1295 2059 0
-3807 2049 0
-3807 1985 0
-2049 -1985 3807 0
-3808 2050 0
-3808 1984 0
-2050 -1984 3808 0
-3809 2051 0
-3809 2008 0
-2051 -2008 3809 0
-3810 2052 0
-3810 2025 0
-2052 -2025 3810 0
-3811 2053 0
-3811 2042 0
-2053 -2042 3811 0
-3812 2054 0
-3812 2076 0
-2054 -2076 3812 0
-3813 2055 0
-3813 2093 0
-2055 -2093 3813 0
-3814 2056 0
-3814 2110 0
-2056 -2110 3814 0
-3815 2057 0
-3815 2127 0
-2057 -2127 3815 0
-3816 2058 0
-3816 2144 0
-2058 -2144 3816 0
-3817 2060 0
-3817 2179 0
-2060 -2179 3817 0
-3818 2061 0
-3818 2196 0
-2061 -2196 3818 0
-3819 2062 0
-3819 2213 0
-2062 -2213 3819 0
-3820 2063 0
-3820 2230 0
-2063 -2230 3820 0
-3821 2064 0
-3821 2247 0
-2064 -2247 3821 0
-3822 2065 0
-3822 2264 0
-2065 -2264 3822 0
-1295 -3807 0
-1295 -3808 0
-1295 -3809 0
-1295 -3810 0
-1295 -3811 0
-1295 -3812 0
-1295 -3813 0
-1295 -3814 0
-1295 -3815 0
-1295 -3816 0
-1295 -3817 0
-1295 -3818 0
-1295 -3819 0
-1295 -3820 0
-1295 -3821 0
-1295 -3822 0
-2059 1295 3807 3808 3809 3810 3811 3812 3813 3814 3815 3816 3817 3818 3819 3820 3821 3822 0
-1298 2060 0
-3823 2049 0
-3823 1987 0
-2049 -1987 3823 0
-3824 2050 0
-3824 1986 0
-2050 -1986 3824 0
-3825 2051 0
-3825 2009 0
-2051 -2009 3825 0
-3826 2052 0
-3826 2026 0
-2052 -2026 3826 0
-3827 2053 0
-3827 2043 0
-2053 -2043 3827 0
-3828 2054 0
-3828 2077 0
-2054 -2077 3828 0
-3829 2055 0
-3829 2094 0
-2055 -2094 3829 0
-3830 2056 0
-3830 2111 0
-2056 -2111 3830 0
-3831 2057 0
-3831 2128 0
-2057 -2128 3831 0
-3832 2058 0
-3832 2145 0
-2058 -2145 3832 0
-3833 2059 0
-3833 2162 0
-2059 -2162 3833 0
-3834 2061 0
-3834 2197 0
-2061 -2197 3834 0
-3835 2062 0
-3835 2214 0
-2062 -2214 3835 0
-3836 2063 0
-3836 2231 0
-2063 -2231 3836 0
-3837 2064 0
-3837 2248 0
-2064 -2248 3837 0
-3838 2065 0
-3838 2265 0
-2065 -2265 3838 0
-1298 -3823 0
-1298 -3824 0
-1298 -3825 0
-1298 -3826 0
-1298 -3827 0
-1298 -3828 0
-1298 -3829 0
-1298 -3830 0
-1298 -3831 0
-1298 -3832 0
-1298 -3833 0
-1298 -3834 0
-1298 -3835 0
-1298 -3836 0
-1298 -3837 0
-1298 -3838 0
-2060 1298 3823 3824 3825 3826 3827 3828 3829 3830 3831 3832 3833 3834 3835 3836 3837 3838 0
-1301 2061 0
-3839 2049 0
-3839 1989 0
-2049 -1989 3839 0
-3840 2050 0
-3840 1988 0
-2050 -1988 3840 0
-3841 2051 0
-3841 2010 0
-2051 -2010 3841 0
-3842 2052 0
-3842 2027 0
-2052 -2027 3842 0
-3843 2053 0
-3843 2044 0
-2053 -2044 3843 0
-3844 2054 0
-3844 2078 0
-2054 -2078 3844 0
-3845 2055 0
-3845 2095 0
-2055 -2095 3845 0
-3846 2056 0
-3846 2112 0
-2056 -2112 3846 0
-3847 2057 0
-3847 2129 0
-2057 -2129 3847 0
-3848 2058 0
-3848 2146 0
-2058 -2146 3848 0
-3849 2059 0
-3849 2163 0
-2059 -2163 3849 0
-3850 2060 0
-3850 2180 0
-2060 -2180 3850 0
-3851 2062 0
-3851 2215 0
-2062 -2215 3851 0
-3852 2063 0
-3852 2232 0
-2063 -2232 3852 0
-3853 2064 0
-3853 2249 0
-2064 -2249 3853 0
-3854 2065 0
-3854 2266 0
-2065 -2266 3854 0
-1301 -3839 0
-1301 -3840 0
-1301 -3841 0
-1301 -3842 0
-1301 -3843 0
-1301 -3844 0
-1301 -3845 0
-1301 -3846 0
-1301 -3847 0
-1301 -3848 0
-1301 -3849 0
-1301 -3850 0
-1301 -3851 0
-1301 -3852 0
-1301 -3853 0
-1301 -3854 0
-2061 1301 3839 3840 3841 3842 3843 3844 3845 3846 3847 3848 3849 3850 3851 3852 3853 3854 0
-1304 2062 0
-3855 2049 0
-3855 1991 0
-2049 -1991 3855 0
-3856 2050 0
-3856 1990 0
-2050 -1990 3856 0
-3857 2051 0
-3857 2011 0
-2051 -2011 3857 0
-3858 2052 0
-3858 2028 0
-2052 -2028 3858 0
-3859 2053 0
-3859 2045 0
-2053 -2045 3859 0
-3860 2054 0
-3860 2079 0
-2054 -2079 3860 0
-3861 2055 0
-3861 2096 0
-2055 -2096 3861 0
-3862 2056 0
-3862 2113 0
-2056 -2113 3862 0
-3863 2057 0
-3863 2130 0
-2057 -2130 3863 0
-3864 2058 0
-3864 2147 0
-2058 -2147 3864 0
-3865 2059 0
-3865 2164 0
-2059 -2164 3865 0
-3866 2060 0
-3866 2181 0
-2060 -2181 3866 0
-3867 2061 0
-3867 2198 0
-2061 -2198 3867 0
-3868 2063 0
-3868 2233 0
-2063 -2233 3868 0
-3869 2064 0
-3869 2250 0
-2064 -2250 3869 0
-3870 2065 0
-3870 2267 0
-2065 -2267 3870 0
-1304 -3855 0
-1304 -3856 0
-1304 -3857 0
-1304 -3858 0
-1304 -3859 0
-1304 -3860 0
-1304 -3861 0
-1304 -3862 0
-1304 -3863 0
-1304 -3864 0
-1304 -3865 0
-1304 -3866 0
-1304 -3867 0
-1304 -3868 0
-1304 -3869 0
-1304 -3870 0
-2062 1304 3855 3856 3857 3858 3859 3860 3861 3862 3863 3864 3865 3866 3867 3868 3869 3870 0
-1307 2063 0
-3871 2049 0
-3871 1993 0
-2049 -1993 3871 0
-3872 2050 0
-3872 1992 0
-2050 -1992 3872 0
-3873 2051 0
-3873 2012 0
-2051 -2012 3873 0
-3874 2052 0
-3874 2029 0
-2052 -2029 3874 0
-3875 2053 0
-3875 2046 0
-2053 -2046 3875 0
-3876 2054 0
-3876 2080 0
-2054 -2080 3876 0
-3877 2055 0
-3877 2097 0
-2055 -2097 3877 0
-3878 2056 0
-3878 2114 0
-2056 -2114 3878 0
-3879 2057 0
-3879 2131 0
-2057 -2131 3879 0
-3880 2058 0
-3880 2148 0
-2058 -2148 3880 0
-3881 2059 0
-3881 2165 0
-2059 -2165 3881 0
-3882 2060 0
-3882 2182 0
-2060 -2182 3882 0
-3883 2061 0
-3883 2199 0
-2061 -2199 3883 0
-3884 2062 0
-3884 2216 0
-2062 -2216 3884 0
-3885 2064 0
-3885 2251 0
-2064 -2251 3885 0
-3886 2065 0
-3886 2268 0
-2065 -2268 3886 0
-1307 -3871 0
-1307 -3872 0
-1307 -3873 0
-1307 -3874 0
-1307 -3875 0
-1307 -3876 0
-1307 -3877 0
-1307 -3878 0
-1307 -3879 0
-1307 -3880 0
-1307 -3881 0
-1307 -3882 0
-1307 -3883 0
-1307 -3884 0
-1307 -3885 0
-1307 -3886 0
-2063 1307 3871 3872 3873 3874 3875 3876 3877 3878 3879 3880 3881 3882 3883 3884 3885 3886 0
-1310 2064 0
-3887 2049 0
-3887 1995 0
-2049 -1995 3887 0
-3888 2050 0
-3888 1994 0
-2050 -1994 3888 0
-3889 2051 0
-3889 2013 0
-2051 -2013 3889 0
-3890 2052 0
-3890 2030 0
-2052 -2030 3890 0
-3891 2053 0
-3891 2047 0
-2053 -2047 3891 0
-3892 2054 0
-3892 2081 0
-2054 -2081 3892 0
-3893 2055 0
-3893 2098 0
-2055 -2098 3893 0
-3894 2056 0
-3894 2115 0
-2056 -2115 3894 0
-3895 2057 0
-3895 2132 0
-2057 -2132 3895 0
-3896 2058 0
-3896 2149 0
-2058 -2149 3896 0
-3897 2059 0
-3897 2166 0
-2059 -2166 3897 0
-3898 2060 0
-3898 2183 0
-2060 -2183 3898 0
-3899 2061 0
-3899 2200 0
-2061 -2200 3899 0
-3900 2062 0
-3900 2217 0
-2062 -2217 3900 0
-3901 2063 0
-3901 2234 0
-2063 -2234 3901 0
-3902 2065 0
-3902 2269 0
-2065 -2269 3902 0
-1310 -3887 0
-1310 -3888 0
-1310 -3889 0
-1310 -3890 0
-1310 -3891 0
-1310 -3892 0
-1310 -3893 0
-1310 -3894 0
-1310 -3895 0
-1310 -3896 0
-1310 -3897 0
-1310 -3898 0
-1310 -3899 0
-1310 -3900 0
-1310 -3901 0
-1310 -3902 0
-2064 1310 3887 3888 3889 3890 3891 3892 3893 3894 3895 3896 3897 3898 3899 3900 3901 3902 0
-1313 2065 0
-3903 2049 0
-3903 1997 0
-2049 -1997 3903 0
-3904 2050 0
-3904 1996 0
-2050 -1996 3904 0
-3905 2051 0
-3905 2014 0
-2051 -2014 3905 0
-3906 2052 0
-3906 2031 0
-2052 -2031 3906 0
-3907 2053 0
-3907 2048 0
-2053 -2048 3907 0
-3908 2054 0
-3908 2082 0
-2054 -2082 3908 0
-3909 2055 0
-3909 2099 0
-2055 -2099 3909 0
-3910 2056 0
-3910 2116 0
-2056 -2116 3910 0
-3911 2057 0
-3911 2133 0
-2057 -2133 3911 0
-3912 2058 0
-3912 2150 0
-2058 -2150 3912 0
-3913 2059 0
-3913 2167 0
-2059 -2167 3913 0
-3914 2060 0
-3914 2184 0
-2060 -2184 3914 0
-3915 2061 0
-3915 2201 0
-2061 -2201 3915 0
-3916 2062 0
-3916 2218 0
-2062 -2218 3916 0
-3917 2063 0
-3917 2235 0
-2063 -2235 3917 0
-3918 2064 0
-3918 2252 0
-2064 -2252 3918 0
-1313 -3903 0
-1313 -3904 0
-1313 -3905 0
-1313 -3906 0
-1313 -3907 0
-1313 -3908 0
-1313 -3909 0
-1313 -3910 0
-1313 -3911 0
-1313 -3912 0
-1313 -3913 0
-1313 -3914 0
-1313 -3915 0
-1313 -3916 0
-1313 -3917 0
-1313 -3918 0
-2065 1313 3903 3904 3905 3906 3907 3908 3909 3910 3911 3912 3913 3914 3915 3916 3917 3918 0
-1316 2066 0
-3919 2067 0
-3919 1965 0
-2067 -1965 3919 0
-3920 2068 0
-3920 1998 0
-2068 -1998 3920 0
-3921 2069 0
-3921 2015 0
-2069 -2015 3921 0
-3922 2070 0
-3922 2032 0
-2070 -2032 3922 0
-3923 2071 0
-3923 2049 0
-2071 -2049 3923 0
-3924 2072 0
-3924 2083 0
-2072 -2083 3924 0
-3925 2073 0
-3925 2100 0
-2073 -2100 3925 0
-3926 2074 0
-3926 2117 0
-2074 -2117 3926 0
-3927 2075 0
-3927 2134 0
-2075 -2134 3927 0
-3928 2076 0
-3928 2151 0
-2076 -2151 3928 0
-3929 2077 0
-3929 2168 0
-2077 -2168 3929 0
-3930 2078 0
-3930 2185 0
-2078 -2185 3930 0
-3931 2079 0
-3931 2202 0
-2079 -2202 3931 0
-3932 2080 0
-3932 2219 0
-2080 -2219 3932 0
-3933 2081 0
-3933 2236 0
-2081 -2236 3933 0
-3934 2082 0
-3934 2253 0
-2082 -2253 3934 0
-1316 -3919 0
-1316 -3920 0
-1316 -3921 0
-1316 -3922 0
-1316 -3923 0
-1316 -3924 0
-1316 -3925 0
-1316 -3926 0
-1316 -3927 0
-1316 -3928 0
-1316 -3929 0
-1316 -3930 0
-1316 -3931 0
-1316 -3932 0
-1316 -3933 0
-1316 -3934 0
-2066 1316 3919 3920 3921 3922 3923 3924 3925 3926 3927 3928 3929 3930 3931 3932 3933 3934 0
-1319 2067 0
-3935 2066 0
-3935 1964 0
-2066 -1964 3935 0
-3936 2068 0
-3936 1999 0
-2068 -1999 3936 0
-3937 2069 0
-3937 2016 0
-2069 -2016 3937 0
-3938 2070 0
-3938 2033 0
-2070 -2033 3938 0
-3939 2071 0
-3939 2050 0
-2071 -2050 3939 0
-3940 2072 0
-3940 2084 0
-2072 -2084 3940 0
-3941 2073 0
-3941 2101 0
-2073 -2101 3941 0
-3942 2074 0
-3942 2118 0
-2074 -2118 3942 0
-3943 2075 0
-3943 2135 0
-2075 -2135 3943 0
-3944 2076 0
-3944 2152 0
-2076 -2152 3944 0
-3945 2077 0
-3945 2169 0
-2077 -2169 3945 0
-3946 2078 0
-3946 2186 0
-2078 -2186 3946 0
-3947 2079 0
-3947 2203 0
-2079 -2203 3947 0
-3948 2080 0
-3948 2220 0
-2080 -2220 3948 0
-3949 2081 0
-3949 2237 0
-2081 -2237 3949 0
-3950 2082 0
-3950 2254 0
-2082 -2254 3950 0
-1319 -3935 0
-1319 -3936 0
-1319 -3937 0
-1319 -3938 0
-1319 -3939 0
-1319 -3940 0
-1319 -3941 0
-1319 -3942 0
-1319 -3943 0
-1319 -3944 0
-1319 -3945 0
-1319 -3946 0
-1319 -3947 0
-1319 -3948 0
-1319 -3949 0
-1319 -3950 0
-2067 1319 3935 3936 3937 3938 3939 3940 3941 3942 3943 3944 3945 3946 3947 3948 3949 3950 0
-1322 2068 0
-3951 2066 0
-3951 1967 0
-2066 -1967 3951 0
-3952 2067 0
-3952 1966 0
-2067 -1966 3952 0
-3953 2069 0
-3953 2017 0
-2069 -2017 3953 0
-3954 2070 0
-3954 2034 0
-2070 -2034 3954 0
-3955 2071 0
-3955 2051 0
-2071 -2051 3955 0
-3956 2072 0
-3956 2085 0
-2072 -2085 3956 0
-3957 2073 0
-3957 2102 0
-2073 -2102 3957 0
-3958 2074 0
-3958 2119 0
-2074 -2119 3958 0
-3959 2075 0
-3959 2136 0
-2075 -2136 3959 0
-3960 2076 0
-3960 2153 0
-2076 -2153 3960 0
-3961 2077 0
-3961 2170 0
-2077 -2170 3961 0
-3962 2078 0
-3962 2187 0
-2078 -2187 3962 0
-3963 2079 0
-3963 2204 0
-2079 -2204 3963 0
-3964 2080 0
-3964 2221 0
-2080 -2221 3964 0
-3965 2081 0
-3965 2238 0
-2081 -2238 3965 0
-3966 2082 0
-3966 2255 0
-2082 -2255 3966 0
-1322 -3951 0
-1322 -3952 0
-1322 -3953 0
-1322 -3954 0
-1322 -3955 0
-1322 -3956 0
-1322 -3957 0
-1322 -3958 0
-1322 -3959 0
-1322 -3960 0
-1322 -3961 0
-1322 -3962 0
-1322 -3963 0
-1322 -3964 0
-1322 -3965 0
-1322 -3966 0
-2068 1322 3951 3952 3953 3954 3955 3956 3957 3958 3959 3960 3961 3962 3963 3964 3965 3966 0
-1325 2069 0
-3967 2066 0
-3967 1969 0
-2066 -1969 3967 0
-3968 2067 0
-3968 1968 0
-2067 -1968 3968 0
-3969 2068 0
-3969 2000 0
-2068 -2000 3969 0
-3970 2070 0
-3970 2035 0
-2070 -2035 3970 0
-3971 2071 0
-3971 2052 0
-2071 -2052 3971 0
-3972 2072 0
-3972 2086 0
-2072 -2086 3972 0
-3973 2073 0
-3973 2103 0
-2073 -2103 3973 0
-3974 2074 0
-3974 2120 0
-2074 -2120 3974 0
-3975 2075 0
-3975 2137 0
-2075 -2137 3975 0
-3976 2076 0
-3976 2154 0
-2076 -2154 3976 0
-3977 2077 0
-3977 2171 0
-2077 -2171 3977 0
-3978 2078 0
-3978 2188 0
-2078 -2188 3978 0
-3979 2079 0
-3979 2205 0
-2079 -2205 3979 0
-3980 2080 0
-3980 2222 0
-2080 -2222 3980 0
-3981 2081 0
-3981 2239 0
-2081 -2239 3981 0
-3982 2082 0
-3982 2256 0
-2082 -2256 3982 0
-1325 -3967 0
-1325 -3968 0
-1325 -3969 0
-1325 -3970 0
-1325 -3971 0
-1325 -3972 0
-1325 -3973 0
-1325 -3974 0
-1325 -3975 0
-1325 -3976 0
-1325 -3977 0
-1325 -3978 0
-1325 -3979 0
-1325 -3980 0
-1325 -3981 0
-1325 -3982 0
-2069 1325 3967 3968 3969 3970 3971 3972 3973 3974 3975 3976 3977 3978 3979 3980 3981 3982 0
-1328 2070 0
-3983 2066 0
-3983 1971 0
-2066 -1971 3983 0
-3984 2067 0
-3984 1970 0
-2067 -1970 3984 0
-3985 2068 0
-3985 2001 0
-2068 -2001 3985 0
-3986 2069 0
-3986 2018 0
-2069 -2018 3986 0
-3987 2071 0
-3987 2053 0
-2071 -2053 3987 0
-3988 2072 0
-3988 2087 0
-2072 -2087 3988 0
-3989 2073 0
-3989 2104 0
-2073 -2104 3989 0
-3990 2074 0
-3990 2121 0
-2074 -2121 3990 0
-3991 2075 0
-3991 2138 0
-2075 -2138 3991 0
-3992 2076 0
-3992 2155 0
-2076 -2155 3992 0
-3993 2077 0
-3993 2172 0
-2077 -2172 3993 0
-3994 2078 0
-3994 2189 0
-2078 -2189 3994 0
-3995 2079 0
-3995 2206 0
-2079 -2206 3995 0
-3996 2080 0
-3996 2223 0
-2080 -2223 3996 0
-3997 2081 0
-3997 2240 0
-2081 -2240 3997 0
-3998 2082 0
-3998 2257 0
-2082 -2257 3998 0
-1328 -3983 0
-1328 -3984 0
-1328 -3985 0
-1328 -3986 0
-1328 -3987 0
-1328 -3988 0
-1328 -3989 0
-1328 -3990 0
-1328 -3991 0
-1328 -3992 0
-1328 -3993 0
-1328 -3994 0
-1328 -3995 0
-1328 -3996 0
-1328 -3997 0
-1328 -3998 0
-2070 1328 3983 3984 3985 3986 3987 3988 3989 3990 3991 3992 3993 3994 3995 3996 3997 3998 0
-1331 2071 0
-3999 2066 0
-3999 1973 0
-2066 -1973 3999 0
-4000 2067 0
-4000 1972 0
-2067 -1972 4000 0
-4001 2068 0
-4001 2002 0
-2068 -2002 4001 0
-4002 2069 0
-4002 2019 0
-2069 -2019 4002 0
-4003 2070 0
-4003 2036 0
-2070 -2036 4003 0
-4004 2072 0
-4004 2088 0
-2072 -2088 4004 0
-4005 2073 0
-4005 2105 0
-2073 -2105 4005 0
-4006 2074 0
-4006 2122 0
-2074 -2122 4006 0
-4007 2075 0
-4007 2139 0
-2075 -2139 4007 0
-4008 2076 0
-4008 2156 0
-2076 -2156 4008 0
-4009 2077 0
-4009 2173 0
-2077 -2173 4009 0
-4010 2078 0
-4010 2190 0
-2078 -2190 4010 0
-4011 2079 0
-4011 2207 0
-2079 -2207 4011 0
-4012 2080 0
-4012 2224 0
-2080 -2224 4012 0
-4013 2081 0
-4013 2241 0
-2081 -2241 4013 0
-4014 2082 0
-4014 2258 0
-2082 -2258 4014 0
-1331 -3999 0
-1331 -4000 0
-1331 -4001 0
-1331 -4002 0
-1331 -4003 0
-1331 -4004 0
-1331 -4005 0
-1331 -4006 0
-1331 -4007 0
-1331 -4008 0
-1331 -4009 0
-1331 -4010 0
-1331 -4011 0
-1331 -4012 0
-1331 -4013 0
-1331 -4014 0
-2071 1331 3999 4000 4001 4002 4003 4004 4005 4006 4007 4008 4009 4010 4011 4012 4013 4014 0
-1334 0
-1337 2072 0
-4015 2066 0
-4015 1977 0
-2066 -1977 4015 0
-4016 2067 0
-4016 1976 0
-2067 -1976 4016 0
-4017 2068 0
-4017 2004 0
-2068 -2004 4017 0
-4018 2069 0
-4018 2021 0
-2069 -2021 4018 0
-4019 2070 0
-4019 2038 0
-2070 -2038 4019 0
-4020 2071 0
-4020 2055 0
-2071 -2055 4020 0
-4021 2073 0
-4021 2107 0
-2073 -2107 4021 0
-4022 2074 0
-4022 2124 0
-2074 -2124 4022 0
-4023 2075 0
-4023 2141 0
-2075 -2141 4023 0
-4024 2076 0
-4024 2158 0
-2076 -2158 4024 0
-4025 2077 0
-4025 2175 0
-2077 -2175 4025 0
-4026 2078 0
-4026 2192 0
-2078 -2192 4026 0
-4027 2079 0
-4027 2209 0
-2079 -2209 4027 0
-4028 2080 0
-4028 2226 0
-2080 -2226 4028 0
-4029 2081 0
-4029 2243 0
-2081 -2243 4029 0
-4030 2082 0
-4030 2260 0
-2082 -2260 4030 0
-1337 -4015 0
-1337 -4016 0
-1337 -4017 0
-1337 -4018 0
-1337 -4019 0
-1337 -4020 0
-1337 -4021 0
-1337 -4022 0
-1337 -4023 0
-1337 -4024 0
-1337 -4025 0
-1337 -4026 0
-1337 -4027 0
-1337 -4028 0
-1337 -4029 0
-1337 -4030 0
-2072 1337 4015 4016 4017 4018 4019 4020 4021 4022 4023 4024 4025 4026 4027 4028 4029 4030 0
-1340 2073 0
-4031 2066 0
-4031 1979 0
-2066 -1979 4031 0
-4032 2067 0
-4032 1978 0
-2067 -1978 4032 0
-4033 2068 0
-4033 2005 0
-2068 -2005 4033 0
-4034 2069 0
-4034 2022 0
-2069 -2022 4034 0
-4035 2070 0
-4035 2039 0
-2070 -2039 4035 0
-4036 2071 0
-4036 2056 0
-2071 -2056 4036 0
-4037 2072 0
-4037 2090 0
-2072 -2090 4037 0
-4038 2074 0
-4038 2125 0
-2074 -2125 4038 0
-4039 2075 0
-4039 2142 0
-2075 -2142 4039 0
-4040 2076 0
-4040 2159 0
-2076 -2159 4040 0
-4041 2077 0
-4041 2176 0
-2077 -2176 4041 0
-4042 2078 0
-4042 2193 0
-2078 -2193 4042 0
-4043 2079 0
-4043 2210 0
-2079 -2210 4043 0
-4044 2080 0
-4044 2227 0
-2080 -2227 4044 0
-4045 2081 0
-4045 2244 0
-2081 -2244 4045 0
-4046 2082 0
-4046 2261 0
-2082 -2261 4046 0
-1340 -4031 0
-1340 -4032 0
-1340 -4033 0
-1340 -4034 0
-1340 -4035 0
-1340 -4036 0
-1340 -4037 0
-1340 -4038 0
-1340 -4039 0
-1340 -4040 0
-1340 -4041 0
-1340 -4042 0
-1340 -4043 0
-1340 -4044 0
-1340 -4045 0
-1340 -4046 0
-2073 1340 4031 4032 4033 4034 4035 4036 4037 4038 4039 4040 4041 4042 4043 4044 4045 4046 0
-1343 2074 0
-4047 2066 0
-4047 1981 0
-2066 -1981 4047 0
-4048 2067 0
-4048 1980 0
-2067 -1980 4048 0
-4049 2068 0
-4049 2006 0
-2068 -2006 4049 0
-4050 2069 0
-4050 2023 0
-2069 -2023 4050 0
-4051 2070 0
-4051 2040 0
-2070 -2040 4051 0
-4052 2071 0
-4052 2057 0
-2071 -2057 4052 0
-4053 2072 0
-4053 2091 0
-2072 -2091 4053 0
-4054 2073 0
-4054 2108 0
-2073 -2108 4054 0
-4055 2075 0
-4055 2143 0
-2075 -2143 4055 0
-4056 2076 0
-4056 2160 0
-2076 -2160 4056 0
-4057 2077 0
-4057 2177 0
-2077 -2177 4057 0
-4058 2078 0
-4058 2194 0
-2078 -2194 4058 0
-4059 2079 0
-4059 2211 0
-2079 -2211 4059 0
-4060 2080 0
-4060 2228 0
-2080 -2228 4060 0
-4061 2081 0
-4061 2245 0
-2081 -2245 4061 0
-4062 2082 0
-4062 2262 0
-2082 -2262 4062 0
-1343 -4047 0
-1343 -4048 0
-1343 -4049 0
-1343 -4050 0
-1343 -4051 0
-1343 -4052 0
-1343 -4053 0
-1343 -4054 0
-1343 -4055 0
-1343 -4056 0
-1343 -4057 0
-1343 -4058 0
-1343 -4059 0
-1343 -4060 0
-1343 -4061 0
-1343 -4062 0
-2074 1343 4047 4048 4049 4050 4051 4052 4053 4054 4055 4056 4057 4058 4059 4060 4061 4062 0
-1346 2075 0
-4063 2066 0
-4063 1983 0
-2066 -1983 4063 0
-4064 2067 0
-4064 1982 0
-2067 -1982 4064 0
-4065 2068 0
-4065 2007 0
-2068 -2007 4065 0
-4066 2069 0
-4066 2024 0
-2069 -2024 4066 0
-4067 2070 0
-4067 2041 0
-2070 -2041 4067 0
-4068 2071 0
-4068 2058 0
-2071 -2058 4068 0
-4069 2072 0
-4069 2092 0
-2072 -2092 4069 0
-4070 2073 0
-4070 2109 0
-2073 -2109 4070 0
-4071 2074 0
-4071 2126 0
-2074 -2126 4071 0
-4072 2076 0
-4072 2161 0
-2076 -2161 4072 0
-4073 2077 0
-4073 2178 0
-2077 -2178 4073 0
-4074 2078 0
-4074 2195 0
-2078 -2195 4074 0
-4075 2079 0
-4075 2212 0
-2079 -2212 4075 0
-4076 2080 0
-4076 2229 0
-2080 -2229 4076 0
-4077 2081 0
-4077 2246 0
-2081 -2246 4077 0
-4078 2082 0
-4078 2263 0
-2082 -2263 4078 0
-1346 -4063 0
-1346 -4064 0
-1346 -4065 0
-1346 -4066 0
-1346 -4067 0
-1346 -4068 0
-1346 -4069 0
-1346 -4070 0
-1346 -4071 0
-1346 -4072 0
-1346 -4073 0
-1346 -4074 0
-1346 -4075 0
-1346 -4076 0
-1346 -4077 0
-1346 -4078 0
-2075 1346 4063 4064 4065 4066 4067 4068 4069 4070 4071 4072 4073 4074 4075 4076 4077 4078 0
-1349 2076 0
-4079 2066 0
-4079 1985 0
-2066 -1985 4079 0
-4080 2067 0
-4080 1984 0
-2067 -1984 4080 0
-4081 2068 0
-4081 2008 0
-2068 -2008 4081 0
-4082 2069 0
-4082 2025 0
-2069 -2025 4082 0
-4083 2070 0
-4083 2042 0
-2070 -2042 4083 0
-4084 2071 0
-4084 2059 0
-2071 -2059 4084 0
-4085 2072 0
-4085 2093 0
-2072 -2093 4085 0
-4086 2073 0
-4086 2110 0
-2073 -2110 4086 0
-4087 2074 0
-4087 2127 0
-2074 -2127 4087 0
-4088 2075 0
-4088 2144 0
-2075 -2144 4088 0
-4089 2077 0
-4089 2179 0
-2077 -2179 4089 0
-4090 2078 0
-4090 2196 0
-2078 -2196 4090 0
-4091 2079 0
-4091 2213 0
-2079 -2213 4091 0
-4092 2080 0
-4092 2230 0
-2080 -2230 4092 0
-4093 2081 0
-4093 2247 0
-2081 -2247 4093 0
-4094 2082 0
-4094 2264 0
-2082 -2264 4094 0
-1349 -4079 0
-1349 -4080 0
-1349 -4081 0
-1349 -4082 0
-1349 -4083 0
-1349 -4084 0
-1349 -4085 0
-1349 -4086 0
-1349 -4087 0
-1349 -4088 0
-1349 -4089 0
-1349 -4090 0
-1349 -4091 0
-1349 -4092 0
-1349 -4093 0
-1349 -4094 0
-2076 1349 4079 4080 4081 4082 4083 4084 4085 4086 4087 4088 4089 4090 4091 4092 4093 4094 0
-1352 2077 0
-4095 2066 0
-4095 1987 0
-2066 -1987 4095 0
-4096 2067 0
-4096 1986 0
-2067 -1986 4096 0
-4097 2068 0
-4097 2009 0
-2068 -2009 4097 0
-4098 2069 0
-4098 2026 0
-2069 -2026 4098 0
-4099 2070 0
-4099 2043 0
-2070 -2043 4099 0
-4100 2071 0
-4100 2060 0
-2071 -2060 4100 0
-4101 2072 0
-4101 2094 0
-2072 -2094 4101 0
-4102 2073 0
-4102 2111 0
-2073 -2111 4102 0
-4103 2074 0
-4103 2128 0
-2074 -2128 4103 0
-4104 2075 0
-4104 2145 0
-2075 -2145 4104 0
-4105 2076 0
-4105 2162 0
-2076 -2162 4105 0
-4106 2078 0
-4106 2197 0
-2078 -2197 4106 0
-4107 2079 0
-4107 2214 0
-2079 -2214 4107 0
-4108 2080 0
-4108 2231 0
-2080 -2231 4108 0
-4109 2081 0
-4109 2248 0
-2081 -2248 4109 0
-4110 2082 0
-4110 2265 0
-2082 -2265 4110 0
-1352 -4095 0
-1352 -4096 0
-1352 -4097 0
-1352 -4098 0
-1352 -4099 0
-1352 -4100 0
-1352 -4101 0
-1352 -4102 0
-1352 -4103 0
-1352 -4104 0
-1352 -4105 0
-1352 -4106 0
-1352 -4107 0
-1352 -4108 0
-1352 -4109 0
-1352 -4110 0
-2077 1352 4095 4096 4097 4098 4099 4100 4101 4102 4103 4104 4105 4106 4107 4108 4109 4110 0
-1355 2078 0
-4111 2066 0
-4111 1989 0
-2066 -1989 4111 0
-4112 2067 0
-4112 1988 0
-2067 -1988 4112 0
-4113 2068 0
-4113 2010 0
-2068 -2010 4113 0
-4114 2069 0
-4114 2027 0
-2069 -2027 4114 0
-4115 2070 0
-4115 2044 0
-2070 -2044 4115 0
-4116 2071 0
-4116 2061 0
-2071 -2061 4116 0
-4117 2072 0
-4117 2095 0
-2072 -2095 4117 0
-4118 2073 0
-4118 2112 0
-2073 -2112 4118 0
-4119 2074 0
-4119 2129 0
-2074 -2129 4119 0
-4120 2075 0
-4120 2146 0
-2075 -2146 4120 0
-4121 2076 0
-4121 2163 0
-2076 -2163 4121 0
-4122 2077 0
-4122 2180 0
-2077 -2180 4122 0
-4123 2079 0
-4123 2215 0
-2079 -2215 4123 0
-4124 2080 0
-4124 2232 0
-2080 -2232 4124 0
-4125 2081 0
-4125 2249 0
-2081 -2249 4125 0
-4126 2082 0
-4126 2266 0
-2082 -2266 4126 0
-1355 -4111 0
-1355 -4112 0
-1355 -4113 0
-1355 -4114 0
-1355 -4115 0
-1355 -4116 0
-1355 -4117 0
-1355 -4118 0
-1355 -4119 0
-1355 -4120 0
-1355 -4121 0
-1355 -4122 0
-1355 -4123 0
-1355 -4124 0
-1355 -4125 0
-1355 -4126 0
-2078 1355 4111 4112 4113 4114 4115 4116 4117 4118 4119 4120 4121 4122 4123 4124 4125 4126 0
-1358 2079 0
-4127 2066 0
-4127 1991 0
-2066 -1991 4127 0
-4128 2067 0
-4128 1990 0
-2067 -1990 4128 0
-4129 2068 0
-4129 2011 0
-2068 -2011 4129 0
-4130 2069 0
-4130 2028 0
-2069 -2028 4130 0
-4131 2070 0
-4131 2045 0
-2070 -2045 4131 0
-4132 2071 0
-4132 2062 0
-2071 -2062 4132 0
-4133 2072 0
-4133 2096 0
-2072 -2096 4133 0
-4134 2073 0
-4134 2113 0
-2073 -2113 4134 0
-4135 2074 0
-4135 2130 0
-2074 -2130 4135 0
-4136 2075 0
-4136 2147 0
-2075 -2147 4136 0
-4137 2076 0
-4137 2164 0
-2076 -2164 4137 0
-4138 2077 0
-4138 2181 0
-2077 -2181 4138 0
-4139 2078 0
-4139 2198 0
-2078 -2198 4139 0
-4140 2080 0
-4140 2233 0
-2080 -2233 4140 0
-4141 2081 0
-4141 2250 0
-2081 -2250 4141 0
-4142 2082 0
-4142 2267 0
-2082 -2267 4142 0
-1358 -4127 0
-1358 -4128 0
-1358 -4129 0
-1358 -4130 0
-1358 -4131 0
-1358 -4132 0
-1358 -4133 0
-1358 -4134 0
-1358 -4135 0
-1358 -4136 0
-1358 -4137 0
-1358 -4138 0
-1358 -4139 0
-1358 -4140 0
-1358 -4141 0
-1358 -4142 0
-2079 1358 4127 4128 4129 4130 4131 4132 4133 4134 4135 4136 4137 4138 4139 4140 4141 4142 0
-1361 2080 0
-4143 2066 0
-4143 1993 0
-2066 -1993 4143 0
-4144 2067 0
-4144 1992 0
-2067 -1992 4144 0
-4145 2068 0
-4145 2012 0
-2068 -2012 4145 0
-4146 2069 0
-4146 2029 0
-2069 -2029 4146 0
-4147 2070 0
-4147 2046 0
-2070 -2046 4147 0
-4148 2071 0
-4148 2063 0
-2071 -2063 4148 0
-4149 2072 0
-4149 2097 0
-2072 -2097 4149 0
-4150 2073 0
-4150 2114 0
-2073 -2114 4150 0
-4151 2074 0
-4151 2131 0
-2074 -2131 4151 0
-4152 2075 0
-4152 2148 0
-2075 -2148 4152 0
-4153 2076 0
-4153 2165 0
-2076 -2165 4153 0
-4154 2077 0
-4154 2182 0
-2077 -2182 4154 0
-4155 2078 0
-4155 2199 0
-2078 -2199 4155 0
-4156 2079 0
-4156 2216 0
-2079 -2216 4156 0
-4157 2081 0
-4157 2251 0
-2081 -2251 4157 0
-4158 2082 0
-4158 2268 0
-2082 -2268 4158 0
-1361 -4143 0
-1361 -4144 0
-1361 -4145 0
-1361 -4146 0
-1361 -4147 0
-1361 -4148 0
-1361 -4149 0
-1361 -4150 0
-1361 -4151 0
-1361 -4152 0
-1361 -4153 0
-1361 -4154 0
-1361 -4155 0
-1361 -4156 0
-1361 -4157 0
-1361 -4158 0
-2080 1361 4143 4144 4145 4146 4147 4148 4149 4150 4151 4152 4153 4154 4155 4156 4157 4158 0
-1364 2081 0
-4159 2066 0
-4159 1995 0
-2066 -1995 4159 0
-4160 2067 0
-4160 1994 0
-2067 -1994 4160 0
-4161 2068 0
-4161 2013 0
-2068 -2013 4161 0
-4162 2069 0
-4162 2030 0
-2069 -2030 4162 0
-4163 2070 0
-4163 2047 0
-2070 -2047 4163 0
-4164 2071 0
-4164 2064 0
-2071 -2064 4164 0
-4165 2072 0
-4165 2098 0
-2072 -2098 4165 0
-4166 2073 0
-4166 2115 0
-2073 -2115 4166 0
-4167 2074 0
-4167 2132 0
-2074 -2132 4167 0
-4168 2075 0
-4168 2149 0
-2075 -2149 4168 0
-4169 2076 0
-4169 2166 0
-2076 -2166 4169 0
-4170 2077 0
-4170 2183 0
-2077 -2183 4170 0
-4171 2078 0
-4171 2200 0
-2078 -2200 4171 0
-4172 2079 0
-4172 2217 0
-2079 -2217 4172 0
-4173 2080 0
-4173 2234 0
-2080 -2234 4173 0
-4174 2082 0
-4174 2269 0
-2082 -2269 4174 0
-1364 -4159 0
-1364 -4160 0
-1364 -4161 0
-1364 -4162 0
-1364 -4163 0
-1364 -4164 0
-1364 -4165 0
-1364 -4166 0
-1364 -4167 0
-1364 -4168 0
-1364 -4169 0
-1364 -4170 0
-1364 -4171 0
-1364 -4172 0
-1364 -4173 0
-1364 -4174 0
-2081 1364 4159 4160 4161 4162 4163 4164 4165 4166 4167 4168 4169 4170 4171 4172 4173 4174 0
-1367 2082 0
-4175 2066 0
-4175 1997 0
-2066 -1997 4175 0
-4176 2067 0
-4176 1996 0
-2067 -1996 4176 0
-4177 2068 0
-4177 2014 0
-2068 -2014 4177 0
-4178 2069 0
-4178 2031 0
-2069 -2031 4178 0
-4179 2070 0
-4179 2048 0
-2070 -2048 4179 0
-4180 2071 0
-4180 2065 0
-2071 -2065 4180 0
-4181 2072 0
-4181 2099 0
-2072 -2099 4181 0
-4182 2073 0
-4182 2116 0
-2073 -2116 4182 0
-4183 2074 0
-4183 2133 0
-2074 -2133 4183 0
-4184 2075 0
-4184 2150 0
-2075 -2150 4184 0
-4185 2076 0
-4185 2167 0
-2076 -2167 4185 0
-4186 2077 0
-4186 2184 0
-2077 -2184 4186 0
-4187 2078 0
-4187 2201 0
-2078 -2201 4187 0
-4188 2079 0
-4188 2218 0
-2079 -2218 4188 0
-4189 2080 0
-4189 2235 0
-2080 -2235 4189 0
-4190 2081 0
-4190 2252 0
-2081 -2252 4190 0
-1367 -4175 0
-1367 -4176 0
-1367 -4177 0
-1367 -4178 0
-1367 -4179 0
-1367 -4180 0
-1367 -4181 0
-1367 -4182 0
-1367 -4183 0
-1367 -4184 0
-1367 -4185 0
-1367 -4186 0
-1367 -4187 0
-1367 -4188 0
-1367 -4189 0
-1367 -4190 0
-2082 1367 4175 4176 4177 4178 4179 4180 4181 4182 4183 4184 4185 4186 4187 4188 4189 4190 0
-1370 2083 0
-4191 2084 0
-4191 1965 0
-2084 -1965 4191 0
-4192 2085 0
-4192 1998 0
-2085 -1998 4192 0
-4193 2086 0
-4193 2015 0
-2086 -2015 4193 0
-4194 2087 0
-4194 2032 0
-2087 -2032 4194 0
-4195 2088 0
-4195 2049 0
-2088 -2049 4195 0
-4196 2089 0
-4196 2066 0
-2089 -2066 4196 0
-4197 2090 0
-4197 2100 0
-2090 -2100 4197 0
-4198 2091 0
-4198 2117 0
-2091 -2117 4198 0
-4199 2092 0
-4199 2134 0
-2092 -2134 4199 0
-4200 2093 0
-4200 2151 0
-2093 -2151 4200 0
-4201 2094 0
-4201 2168 0
-2094 -2168 4201 0
-4202 2095 0
-4202 2185 0
-2095 -2185 4202 0
-4203 2096 0
-4203 2202 0
-2096 -2202 4203 0
-4204 2097 0
-4204 2219 0
-2097 -2219 4204 0
-4205 2098 0
-4205 2236 0
-2098 -2236 4205 0
-4206 2099 0
-4206 2253 0
-2099 -2253 4206 0
-1370 -4191 0
-1370 -4192 0
-1370 -4193 0
-1370 -4194 0
-1370 -4195 0
-1370 -4196 0
-1370 -4197 0
-1370 -4198 0
-1370 -4199 0
-1370 -4200 0
-1370 -4201 0
-1370 -4202 0
-1370 -4203 0
-1370 -4204 0
-1370 -4205 0
-1370 -4206 0
-2083 1370 4191 4192 4193 4194 4195 4196 4197 4198 4199 4200 4201 4202 4203 4204 4205 4206 0
-1373 2084 0
-4207 2083 0
-4207 1964 0
-2083 -1964 4207 0
-4208 2085 0
-4208 1999 0
-2085 -1999 4208 0
-4209 2086 0
-4209 2016 0
-2086 -2016 4209 0
-4210 2087 0
-4210 2033 0
-2087 -2033 4210 0
-4211 2088 0
-4211 2050 0
-2088 -2050 4211 0
-4212 2089 0
-4212 2067 0
-2089 -2067 4212 0
-4213 2090 0
-4213 2101 0
-2090 -2101 4213 0
-4214 2091 0
-4214 2118 0
-2091 -2118 4214 0
-4215 2092 0
-4215 2135 0
-2092 -2135 4215 0
-4216 2093 0
-4216 2152 0
-2093 -2152 4216 0
-4217 2094 0
-4217 2169 0
-2094 -2169 4217 0
-4218 2095 0
-4218 2186 0
-2095 -2186 4218 0
-4219 2096 0
-4219 2203 0
-2096 -2203 4219 0
-4220 2097 0
-4220 2220 0
-2097 -2220 4220 0
-4221 2098 0
-4221 2237 0
-2098 -2237 4221 0
-4222 2099 0
-4222 2254 0
-2099 -2254 4222 0
-1373 -4207 0
-1373 -4208 0
-1373 -4209 0
-1373 -4210 0
-1373 -4211 0
-1373 -4212 0
-1373 -4213 0
-1373 -4214 0
-1373 -4215 0
-1373 -4216 0
-1373 -4217 0
-1373 -4218 0
-1373 -4219 0
-1373 -4220 0
-1373 -4221 0
-1373 -4222 0
-2084 1373 4207 4208 4209 4210 4211 4212 4213 4214 4215 4216 4217 4218 4219 4220 4221 4222 0
-1376 2085 0
-4223 2083 0
-4223 1967 0
-2083 -1967 4223 0
-4224 2084 0
-4224 1966 0
-2084 -1966 4224 0
-4225 2086 0
-4225 2017 0
-2086 -2017 4225 0
-4226 2087 0
-4226 2034 0
-2087 -2034 4226 0
-4227 2088 0
-4227 2051 0
-2088 -2051 4227 0
-4228 2089 0
-4228 2068 0
-2089 -2068 4228 0
-4229 2090 0
-4229 2102 0
-2090 -2102 4229 0
-4230 2091 0
-4230 2119 0
-2091 -2119 4230 0
-4231 2092 0
-4231 2136 0
-2092 -2136 4231 0
-4232 2093 0
-4232 2153 0
-2093 -2153 4232 0
-4233 2094 0
-4233 2170 0
-2094 -2170 4233 0
-4234 2095 0
-4234 2187 0
-2095 -2187 4234 0
-4235 2096 0
-4235 2204 0
-2096 -2204 4235 0
-4236 2097 0
-4236 2221 0
-2097 -2221 4236 0
-4237 2098 0
-4237 2238 0
-2098 -2238 4237 0
-4238 2099 0
-4238 2255 0
-2099 -2255 4238 0
-1376 -4223 0
-1376 -4224 0
-1376 -4225 0
-1376 -4226 0
-1376 -4227 0
-1376 -4228 0
-1376 -4229 0
-1376 -4230 0
-1376 -4231 0
-1376 -4232 0
-1376 -4233 0
-1376 -4234 0
-1376 -4235 0
-1376 -4236 0
-1376 -4237 0
-1376 -4238 0
-2085 1376 4223 4224 4225 4226 4227 4228 4229 4230 4231 4232 4233 4234 4235 4236 4237 4238 0
-1379 2086 0
-4239 2083 0
-4239 1969 0
-2083 -1969 4239 0
-4240 2084 0
-4240 1968 0
-2084 -1968 4240 0
-4241 2085 0
-4241 2000 0
-2085 -2000 4241 0
-4242 2087 0
-4242 2035 0
-2087 -2035 4242 0
-4243 2088 0
-4243 2052 0
-2088 -2052 4243 0
-4244 2089 0
-4244 2069 0
-2089 -2069 4244 0
-4245 2090 0
-4245 2103 0
-2090 -2103 4245 0
-4246 2091 0
-4246 2120 0
-2091 -2120 4246 0
-4247 2092 0
-4247 2137 0
-2092 -2137 4247 0
-4248 2093 0
-4248 2154 0
-2093 -2154 4248 0
-4249 2094 0
-4249 2171 0
-2094 -2171 4249 0
-4250 2095 0
-4250 2188 0
-2095 -2188 4250 0
-4251 2096 0
-4251 2205 0
-2096 -2205 4251 0
-4252 2097 0
-4252 2222 0
-2097 -2222 4252 0
-4253 2098 0
-4253 2239 0
-2098 -2239 4253 0
-4254 2099 0
-4254 2256 0
-2099 -2256 4254 0
-1379 -4239 0
-1379 -4240 0
-1379 -4241 0
-1379 -4242 0
-1379 -4243 0
-1379 -4244 0
-1379 -4245 0
-1379 -4246 0
-1379 -4247 0
-1379 -4248 0
-1379 -4249 0
-1379 -4250 0
-1379 -4251 0
-1379 -4252 0
-1379 -4253 0
-1379 -4254 0
-2086 1379 4239 4240 4241 4242 4243 4244 4245 4246 4247 4248 4249 4250 4251 4252 4253 4254 0
-1382 2087 0
-4255 2083 0
-4255 1971 0
-2083 -1971 4255 0
-4256 2084 0
-4256 1970 0
-2084 -1970 4256 0
-4257 2085 0
-4257 2001 0
-2085 -2001 4257 0
-4258 2086 0
-4258 2018 0
-2086 -2018 4258 0
-4259 2088 0
-4259 2053 0
-2088 -2053 4259 0
-4260 2089 0
-4260 2070 0
-2089 -2070 4260 0
-4261 2090 0
-4261 2104 0
-2090 -2104 4261 0
-4262 2091 0
-4262 2121 0
-2091 -2121 4262 0
-4263 2092 0
-4263 2138 0
-2092 -2138 4263 0
-4264 2093 0
-4264 2155 0
-2093 -2155 4264 0
-4265 2094 0
-4265 2172 0
-2094 -2172 4265 0
-4266 2095 0
-4266 2189 0
-2095 -2189 4266 0
-4267 2096 0
-4267 2206 0
-2096 -2206 4267 0
-4268 2097 0
-4268 2223 0
-2097 -2223 4268 0
-4269 2098 0
-4269 2240 0
-2098 -2240 4269 0
-4270 2099 0
-4270 2257 0
-2099 -2257 4270 0
-1382 -4255 0
-1382 -4256 0
-1382 -4257 0
-1382 -4258 0
-1382 -4259 0
-1382 -4260 0
-1382 -4261 0
-1382 -4262 0
-1382 -4263 0
-1382 -4264 0
-1382 -4265 0
-1382 -4266 0
-1382 -4267 0
-1382 -4268 0
-1382 -4269 0
-1382 -4270 0
-2087 1382 4255 4256 4257 4258 4259 4260 4261 4262 4263 4264 4265 4266 4267 4268 4269 4270 0
-1385 2088 0
-4271 2083 0
-4271 1973 0
-2083 -1973 4271 0
-4272 2084 0
-4272 1972 0
-2084 -1972 4272 0
-4273 2085 0
-4273 2002 0
-2085 -2002 4273 0
-4274 2086 0
-4274 2019 0
-2086 -2019 4274 0
-4275 2087 0
-4275 2036 0
-2087 -2036 4275 0
-4276 2089 0
-4276 2071 0
-2089 -2071 4276 0
-4277 2090 0
-4277 2105 0
-2090 -2105 4277 0
-4278 2091 0
-4278 2122 0
-2091 -2122 4278 0
-4279 2092 0
-4279 2139 0
-2092 -2139 4279 0
-4280 2093 0
-4280 2156 0
-2093 -2156 4280 0
-4281 2094 0
-4281 2173 0
-2094 -2173 4281 0
-4282 2095 0
-4282 2190 0
-2095 -2190 4282 0
-4283 2096 0
-4283 2207 0
-2096 -2207 4283 0
-4284 2097 0
-4284 2224 0
-2097 -2224 4284 0
-4285 2098 0
-4285 2241 0
-2098 -2241 4285 0
-4286 2099 0
-4286 2258 0
-2099 -2258 4286 0
-1385 -4271 0
-1385 -4272 0
-1385 -4273 0
-1385 -4274 0
-1385 -4275 0
-1385 -4276 0
-1385 -4277 0
-1385 -4278 0
-1385 -4279 0
-1385 -4280 0
-1385 -4281 0
-1385 -4282 0
-1385 -4283 0
-1385 -4284 0
-1385 -4285 0
-1385 -4286 0
-2088 1385 4271 4272 4273 4274 4275 4276 4277 4278 4279 4280 4281 4282 4283 4284 4285 4286 0
-1388 2089 0
-4287 2083 0
-4287 1975 0
-2083 -1975 4287 0
-4288 2084 0
-4288 1974 0
-2084 -1974 4288 0
-4289 2085 0
-4289 2003 0
-2085 -2003 4289 0
-4290 2086 0
-4290 2020 0
-2086 -2020 4290 0
-4291 2087 0
-4291 2037 0
-2087 -2037 4291 0
-4292 2088 0
-4292 2054 0
-2088 -2054 4292 0
-4293 2090 0
-4293 2106 0
-2090 -2106 4293 0
-4294 2091 0
-4294 2123 0
-2091 -2123 4294 0
-4295 2092 0
-4295 2140 0
-2092 -2140 4295 0
-4296 2093 0
-4296 2157 0
-2093 -2157 4296 0
-4297 2094 0
-4297 2174 0
-2094 -2174 4297 0
-4298 2095 0
-4298 2191 0
-2095 -2191 4298 0
-4299 2096 0
-4299 2208 0
-2096 -2208 4299 0
-4300 2097 0
-4300 2225 0
-2097 -2225 4300 0
-4301 2098 0
-4301 2242 0
-2098 -2242 4301 0
-4302 2099 0
-4302 2259 0
-2099 -2259 4302 0
-1388 -4287 0
-1388 -4288 0
-1388 -4289 0
-1388 -4290 0
-1388 -4291 0
-1388 -4292 0
-1388 -4293 0
-1388 -4294 0
-1388 -4295 0
-1388 -4296 0
-1388 -4297 0
-1388 -4298 0
-1388 -4299 0
-1388 -4300 0
-1388 -4301 0
-1388 -4302 0
-2089 1388 4287 4288 4289 4290 4291 4292 4293 4294 4295 4296 4297 4298 4299 4300 4301 4302 0
-1391 0
-1394 2090 0
-4303 2083 0
-4303 1979 0
-2083 -1979 4303 0
-4304 2084 0
-4304 1978 0
-2084 -1978 4304 0
-4305 2085 0
-4305 2005 0
-2085 -2005 4305 0
-4306 2086 0
-4306 2022 0
-2086 -2022 4306 0
-4307 2087 0
-4307 2039 0
-2087 -2039 4307 0
-4308 2088 0
-4308 2056 0
-2088 -2056 4308 0
-4309 2089 0
-4309 2073 0
-2089 -2073 4309 0
-4310 2091 0
-4310 2125 0
-2091 -2125 4310 0
-4311 2092 0
-4311 2142 0
-2092 -2142 4311 0
-4312 2093 0
-4312 2159 0
-2093 -2159 4312 0
-4313 2094 0
-4313 2176 0
-2094 -2176 4313 0
-4314 2095 0
-4314 2193 0
-2095 -2193 4314 0
-4315 2096 0
-4315 2210 0
-2096 -2210 4315 0
-4316 2097 0
-4316 2227 0
-2097 -2227 4316 0
-4317 2098 0
-4317 2244 0
-2098 -2244 4317 0
-4318 2099 0
-4318 2261 0
-2099 -2261 4318 0
-1394 -4303 0
-1394 -4304 0
-1394 -4305 0
-1394 -4306 0
-1394 -4307 0
-1394 -4308 0
-1394 -4309 0
-1394 -4310 0
-1394 -4311 0
-1394 -4312 0
-1394 -4313 0
-1394 -4314 0
-1394 -4315 0
-1394 -4316 0
-1394 -4317 0
-1394 -4318 0
-2090 1394 4303 4304 4305 4306 4307 4308 4309 4310 4311 4312 4313 4314 4315 4316 4317 4318 0
-1397 2091 0
-4319 2083 0
-4319 1981 0
-2083 -1981 4319 0
-4320 2084 0
-4320 1980 0
-2084 -1980 4320 0
-4321 2085 0
-4321 2006 0
-2085 -2006 4321 0
-4322 2086 0
-4322 2023 0
-2086 -2023 4322 0
-4323 2087 0
-4323 2040 0
-2087 -2040 4323 0
-4324 2088 0
-4324 2057 0
-2088 -2057 4324 0
-4325 2089 0
-4325 2074 0
-2089 -2074 4325 0
-4326 2090 0
-4326 2108 0
-2090 -2108 4326 0
-4327 2092 0
-4327 2143 0
-2092 -2143 4327 0
-4328 2093 0
-4328 2160 0
-2093 -2160 4328 0
-4329 2094 0
-4329 2177 0
-2094 -2177 4329 0
-4330 2095 0
-4330 2194 0
-2095 -2194 4330 0
-4331 2096 0
-4331 2211 0
-2096 -2211 4331 0
-4332 2097 0
-4332 2228 0
-2097 -2228 4332 0
-4333 2098 0
-4333 2245 0
-2098 -2245 4333 0
-4334 2099 0
-4334 2262 0
-2099 -2262 4334 0
-1397 -4319 0
-1397 -4320 0
-1397 -4321 0
-1397 -4322 0
-1397 -4323 0
-1397 -4324 0
-1397 -4325 0
-1397 -4326 0
-1397 -4327 0
-1397 -4328 0
-1397 -4329 0
-1397 -4330 0
-1397 -4331 0
-1397 -4332 0
-1397 -4333 0
-1397 -4334 0
-2091 1397 4319 4320 4321 4322 4323 4324 4325 4326 4327 4328 4329 4330 4331 4332 4333 4334 0
-1400 2092 0
-4335 2083 0
-4335 1983 0
-2083 -1983 4335 0
-4336 2084 0
-4336 1982 0
-2084 -1982 4336 0
-4337 2085 0
-4337 2007 0
-2085 -2007 4337 0
-4338 2086 0
-4338 2024 0
-2086 -2024 4338 0
-4339 2087 0
-4339 2041 0
-2087 -2041 4339 0
-4340 2088 0
-4340 2058 0
-2088 -2058 4340 0
-4341 2089 0
-4341 2075 0
-2089 -2075 4341 0
-4342 2090 0
-4342 2109 0
-2090 -2109 4342 0
-4343 2091 0
-4343 2126 0
-2091 -2126 4343 0
-4344 2093 0
-4344 2161 0
-2093 -2161 4344 0
-4345 2094 0
-4345 2178 0
-2094 -2178 4345 0
-4346 2095 0
-4346 2195 0
-2095 -2195 4346 0
-4347 2096 0
-4347 2212 0
-2096 -2212 4347 0
-4348 2097 0
-4348 2229 0
-2097 -2229 4348 0
-4349 2098 0
-4349 2246 0
-2098 -2246 4349 0
-4350 2099 0
-4350 2263 0
-2099 -2263 4350 0
-1400 -4335 0
-1400 -4336 0
-1400 -4337 0
-1400 -4338 0
-1400 -4339 0
-1400 -4340 0
-1400 -4341 0
-1400 -4342 0
-1400 -4343 0
-1400 -4344 0
-1400 -4345 0
-1400 -4346 0
-1400 -4347 0
-1400 -4348 0
-1400 -4349 0
-1400 -4350 0
-2092 1400 4335 4336 4337 4338 4339 4340 4341 4342 4343 4344 4345 4346 4347 4348 4349 4350 0
-1403 2093 0
-4351 2083 0
-4351 1985 0
-2083 -1985 4351 0
-4352 2084 0
-4352 1984 0
-2084 -1984 4352 0
-4353 2085 0
-4353 2008 0
-2085 -2008 4353 0
-4354 2086 0
-4354 2025 0
-2086 -2025 4354 0
-4355 2087 0
-4355 2042 0
-2087 -2042 4355 0
-4356 2088 0
-4356 2059 0
-2088 -2059 4356 0
-4357 2089 0
-4357 2076 0
-2089 -2076 4357 0
-4358 2090 0
-4358 2110 0
-2090 -2110 4358 0
-4359 2091 0
-4359 2127 0
-2091 -2127 4359 0
-4360 2092 0
-4360 2144 0
-2092 -2144 4360 0
-4361 2094 0
-4361 2179 0
-2094 -2179 4361 0
-4362 2095 0
-4362 2196 0
-2095 -2196 4362 0
-4363 2096 0
-4363 2213 0
-2096 -2213 4363 0
-4364 2097 0
-4364 2230 0
-2097 -2230 4364 0
-4365 2098 0
-4365 2247 0
-2098 -2247 4365 0
-4366 2099 0
-4366 2264 0
-2099 -2264 4366 0
-1403 -4351 0
-1403 -4352 0
-1403 -4353 0
-1403 -4354 0
-1403 -4355 0
-1403 -4356 0
-1403 -4357 0
-1403 -4358 0
-1403 -4359 0
-1403 -4360 0
-1403 -4361 0
-1403 -4362 0
-1403 -4363 0
-1403 -4364 0
-1403 -4365 0
-1403 -4366 0
-2093 1403 4351 4352 4353 4354 4355 4356 4357 4358 4359 4360 4361 4362 4363 4364 4365 4366 0
-1406 2094 0
-4367 2083 0
-4367 1987 0
-2083 -1987 4367 0
-4368 2084 0
-4368 1986 0
-2084 -1986 4368 0
-4369 2085 0
-4369 2009 0
-2085 -2009 4369 0
-4370 2086 0
-4370 2026 0
-2086 -2026 4370 0
-4371 2087 0
-4371 2043 0
-2087 -2043 4371 0
-4372 2088 0
-4372 2060 0
-2088 -2060 4372 0
-4373 2089 0
-4373 2077 0
-2089 -2077 4373 0
-4374 2090 0
-4374 2111 0
-2090 -2111 4374 0
-4375 2091 0
-4375 2128 0
-2091 -2128 4375 0
-4376 2092 0
-4376 2145 0
-2092 -2145 4376 0
-4377 2093 0
-4377 2162 0
-2093 -2162 4377 0
-4378 2095 0
-4378 2197 0
-2095 -2197 4378 0
-4379 2096 0
-4379 2214 0
-2096 -2214 4379 0
-4380 2097 0
-4380 2231 0
-2097 -2231 4380 0
-4381 2098 0
-4381 2248 0
-2098 -2248 4381 0
-4382 2099 0
-4382 2265 0
-2099 -2265 4382 0
-1406 -4367 0
-1406 -4368 0
-1406 -4369 0
-1406 -4370 0
-1406 -4371 0
-1406 -4372 0
-1406 -4373 0
-1406 -4374 0
-1406 -4375 0
-1406 -4376 0
-1406 -4377 0
-1406 -4378 0
-1406 -4379 0
-1406 -4380 0
-1406 -4381 0
-1406 -4382 0
-2094 1406 4367 4368 4369 4370 4371 4372 4373 4374 4375 4376 4377 4378 4379 4380 4381 4382 0
-1409 2095 0
-4383 2083 0
-4383 1989 0
-2083 -1989 4383 0
-4384 2084 0
-4384 1988 0
-2084 -1988 4384 0
-4385 2085 0
-4385 2010 0
-2085 -2010 4385 0
-4386 2086 0
-4386 2027 0
-2086 -2027 4386 0
-4387 2087 0
-4387 2044 0
-2087 -2044 4387 0
-4388 2088 0
-4388 2061 0
-2088 -2061 4388 0
-4389 2089 0
-4389 2078 0
-2089 -2078 4389 0
-4390 2090 0
-4390 2112 0
-2090 -2112 4390 0
-4391 2091 0
-4391 2129 0
-2091 -2129 4391 0
-4392 2092 0
-4392 2146 0
-2092 -2146 4392 0
-4393 2093 0
-4393 2163 0
-2093 -2163 4393 0
-4394 2094 0
-4394 2180 0
-2094 -2180 4394 0
-4395 2096 0
-4395 2215 0
-2096 -2215 4395 0
-4396 2097 0
-4396 2232 0
-2097 -2232 4396 0
-4397 2098 0
-4397 2249 0
-2098 -2249 4397 0
-4398 2099 0
-4398 2266 0
-2099 -2266 4398 0
-1409 -4383 0
-1409 -4384 0
-1409 -4385 0
-1409 -4386 0
-1409 -4387 0
-1409 -4388 0
-1409 -4389 0
-1409 -4390 0
-1409 -4391 0
-1409 -4392 0
-1409 -4393 0
-1409 -4394 0
-1409 -4395 0
-1409 -4396 0
-1409 -4397 0
-1409 -4398 0
-2095 1409 4383 4384 4385 4386 4387 4388 4389 4390 4391 4392 4393 4394 4395 4396 4397 4398 0
-1412 2096 0
-4399 2083 0
-4399 1991 0
-2083 -1991 4399 0
-4400 2084 0
-4400 1990 0
-2084 -1990 4400 0
-4401 2085 0
-4401 2011 0
-2085 -2011 4401 0
-4402 2086 0
-4402 2028 0
-2086 -2028 4402 0
-4403 2087 0
-4403 2045 0
-2087 -2045 4403 0
-4404 2088 0
-4404 2062 0
-2088 -2062 4404 0
-4405 2089 0
-4405 2079 0
-2089 -2079 4405 0
-4406 2090 0
-4406 2113 0
-2090 -2113 4406 0
-4407 2091 0
-4407 2130 0
-2091 -2130 4407 0
-4408 2092 0
-4408 2147 0
-2092 -2147 4408 0
-4409 2093 0
-4409 2164 0
-2093 -2164 4409 0
-4410 2094 0
-4410 2181 0
-2094 -2181 4410 0
-4411 2095 0
-4411 2198 0
-2095 -2198 4411 0
-4412 2097 0
-4412 2233 0
-2097 -2233 4412 0
-4413 2098 0
-4413 2250 0
-2098 -2250 4413 0
-4414 2099 0
-4414 2267 0
-2099 -2267 4414 0
-1412 -4399 0
-1412 -4400 0
-1412 -4401 0
-1412 -4402 0
-1412 -4403 0
-1412 -4404 0
-1412 -4405 0
-1412 -4406 0
-1412 -4407 0
-1412 -4408 0
-1412 -4409 0
-1412 -4410 0
-1412 -4411 0
-1412 -4412 0
-1412 -4413 0
-1412 -4414 0
-2096 1412 4399 4400 4401 4402 4403 4404 4405 4406 4407 4408 4409 4410 4411 4412 4413 4414 0
-1415 2097 0
-4415 2083 0
-4415 1993 0
-2083 -1993 4415 0
-4416 2084 0
-4416 1992 0
-2084 -1992 4416 0
-4417 2085 0
-4417 2012 0
-2085 -2012 4417 0
-4418 2086 0
-4418 2029 0
-2086 -2029 4418 0
-4419 2087 0
-4419 2046 0
-2087 -2046 4419 0
-4420 2088 0
-4420 2063 0
-2088 -2063 4420 0
-4421 2089 0
-4421 2080 0
-2089 -2080 4421 0
-4422 2090 0
-4422 2114 0
-2090 -2114 4422 0
-4423 2091 0
-4423 2131 0
-2091 -2131 4423 0
-4424 2092 0
-4424 2148 0
-2092 -2148 4424 0
-4425 2093 0
-4425 2165 0
-2093 -2165 4425 0
-4426 2094 0
-4426 2182 0
-2094 -2182 4426 0
-4427 2095 0
-4427 2199 0
-2095 -2199 4427 0
-4428 2096 0
-4428 2216 0
-2096 -2216 4428 0
-4429 2098 0
-4429 2251 0
-2098 -2251 4429 0
-4430 2099 0
-4430 2268 0
-2099 -2268 4430 0
-1415 -4415 0
-1415 -4416 0
-1415 -4417 0
-1415 -4418 0
-1415 -4419 0
-1415 -4420 0
-1415 -4421 0
-1415 -4422 0
-1415 -4423 0
-1415 -4424 0
-1415 -4425 0
-1415 -4426 0
-1415 -4427 0
-1415 -4428 0
-1415 -4429 0
-1415 -4430 0
-2097 1415 4415 4416 4417 4418 4419 4420 4421 4422 4423 4424 4425 4426 4427 4428 4429 4430 0
-1418 2098 0
-4431 2083 0
-4431 1995 0
-2083 -1995 4431 0
-4432 2084 0
-4432 1994 0
-2084 -1994 4432 0
-4433 2085 0
-4433 2013 0
-2085 -2013 4433 0
-4434 2086 0
-4434 2030 0
-2086 -2030 4434 0
-4435 2087 0
-4435 2047 0
-2087 -2047 4435 0
-4436 2088 0
-4436 2064 0
-2088 -2064 4436 0
-4437 2089 0
-4437 2081 0
-2089 -2081 4437 0
-4438 2090 0
-4438 2115 0
-2090 -2115 4438 0
-4439 2091 0
-4439 2132 0
-2091 -2132 4439 0
-4440 2092 0
-4440 2149 0
-2092 -2149 4440 0
-4441 2093 0
-4441 2166 0
-2093 -2166 4441 0
-4442 2094 0
-4442 2183 0
-2094 -2183 4442 0
-4443 2095 0
-4443 2200 0
-2095 -2200 4443 0
-4444 2096 0
-4444 2217 0
-2096 -2217 4444 0
-4445 2097 0
-4445 2234 0
-2097 -2234 4445 0
-4446 2099 0
-4446 2269 0
-2099 -2269 4446 0
-1418 -4431 0
-1418 -4432 0
-1418 -4433 0
-1418 -4434 0
-1418 -4435 0
-1418 -4436 0
-1418 -4437 0
-1418 -4438 0
-1418 -4439 0
-1418 -4440 0
-1418 -4441 0
-1418 -4442 0
-1418 -4443 0
-1418 -4444 0
-1418 -4445 0
-1418 -4446 0
-2098 1418 4431 4432 4433 4434 4435 4436 4437 4438 4439 4440 4441 4442 4443 4444 4445 4446 0
-1421 2099 0
-4447 2083 0
-4447 1997 0
-2083 -1997 4447 0
-4448 2084 0
-4448 1996 0
-2084 -1996 4448 0
-4449 2085 0
-4449 2014 0
-2085 -2014 4449 0
-4450 2086 0
-4450 2031 0
-2086 -2031 4450 0
-4451 2087 0
-4451 2048 0
-2087 -2048 4451 0
-4452 2088 0
-4452 2065 0
-2088 -2065 4452 0
-4453 2089 0
-4453 2082 0
-2089 -2082 4453 0
-4454 2090 0
-4454 2116 0
-2090 -2116 4454 0
-4455 2091 0
-4455 2133 0
-2091 -2133 4455 0
-4456 2092 0
-4456 2150 0
-2092 -2150 4456 0
-4457 2093 0
-4457 2167 0
-2093 -2167 4457 0
-4458 2094 0
-4458 2184 0
-2094 -2184 4458 0
-4459 2095 0
-4459 2201 0
-2095 -2201 4459 0
-4460 2096 0
-4460 2218 0
-2096 -2218 4460 0
-4461 2097 0
-4461 2235 0
-2097 -2235 4461 0
-4462 2098 0
-4462 2252 0
-2098 -2252 4462 0
-1421 -4447 0
-1421 -4448 0
-1421 -4449 0
-1421 -4450 0
-1421 -4451 0
-1421 -4452 0
-1421 -4453 0
-1421 -4454 0
-1421 -4455 0
-1421 -4456 0
-1421 -4457 0
-1421 -4458 0
-1421 -4459 0
-1421 -4460 0
-1421 -4461 0
-1421 -4462 0
-2099 1421 4447 4448 4449 4450 4451 4452 4453 4454 4455 4456 4457 4458 4459 4460 4461 4462 0
-1424 2100 0
-4463 2101 0
-4463 1965 0
-2101 -1965 4463 0
-4464 2102 0
-4464 1998 0
-2102 -1998 4464 0
-4465 2103 0
-4465 2015 0
-2103 -2015 4465 0
-4466 2104 0
-4466 2032 0
-2104 -2032 4466 0
-4467 2105 0
-4467 2049 0
-2105 -2049 4467 0
-4468 2106 0
-4468 2066 0
-2106 -2066 4468 0
-4469 2107 0
-4469 2083 0
-2107 -2083 4469 0
-4470 2108 0
-4470 2117 0
-2108 -2117 4470 0
-4471 2109 0
-4471 2134 0
-2109 -2134 4471 0
-4472 2110 0
-4472 2151 0
-2110 -2151 4472 0
-4473 2111 0
-4473 2168 0
-2111 -2168 4473 0
-4474 2112 0
-4474 2185 0
-2112 -2185 4474 0
-4475 2113 0
-4475 2202 0
-2113 -2202 4475 0
-4476 2114 0
-4476 2219 0
-2114 -2219 4476 0
-4477 2115 0
-4477 2236 0
-2115 -2236 4477 0
-4478 2116 0
-4478 2253 0
-2116 -2253 4478 0
-1424 -4463 0
-1424 -4464 0
-1424 -4465 0
-1424 -4466 0
-1424 -4467 0
-1424 -4468 0
-1424 -4469 0
-1424 -4470 0
-1424 -4471 0
-1424 -4472 0
-1424 -4473 0
-1424 -4474 0
-1424 -4475 0
-1424 -4476 0
-1424 -4477 0
-1424 -4478 0
-2100 1424 4463 4464 4465 4466 4467 4468 4469 4470 4471 4472 4473 4474 4475 4476 4477 4478 0
-1427 2101 0
-4479 2100 0
-4479 1964 0
-2100 -1964 4479 0
-4480 2102 0
-4480 1999 0
-2102 -1999 4480 0
-4481 2103 0
-4481 2016 0
-2103 -2016 4481 0
-4482 2104 0
-4482 2033 0
-2104 -2033 4482 0
-4483 2105 0
-4483 2050 0
-2105 -2050 4483 0
-4484 2106 0
-4484 2067 0
-2106 -2067 4484 0
-4485 2107 0
-4485 2084 0
-2107 -2084 4485 0
-4486 2108 0
-4486 2118 0
-2108 -2118 4486 0
-4487 2109 0
-4487 2135 0
-2109 -2135 4487 0
-4488 2110 0
-4488 2152 0
-2110 -2152 4488 0
-4489 2111 0
-4489 2169 0
-2111 -2169 4489 0
-4490 2112 0
-4490 2186 0
-2112 -2186 4490 0
-4491 2113 0
-4491 2203 0
-2113 -2203 4491 0
-4492 2114 0
-4492 2220 0
-2114 -2220 4492 0
-4493 2115 0
-4493 2237 0
-2115 -2237 4493 0
-4494 2116 0
-4494 2254 0
-2116 -2254 4494 0
-1427 -4479 0
-1427 -4480 0
-1427 -4481 0
-1427 -4482 0
-1427 -4483 0
-1427 -4484 0
-1427 -4485 0
-1427 -4486 0
-1427 -4487 0
-1427 -4488 0
-1427 -4489 0
-1427 -4490 0
-1427 -4491 0
-1427 -4492 0
-1427 -4493 0
-1427 -4494 0
-2101 1427 4479 4480 4481 4482 4483 4484 4485 4486 4487 4488 4489 4490 4491 4492 4493 4494 0
-1430 2102 0
-4495 2100 0
-4495 1967 0
-2100 -1967 4495 0
-4496 2101 0
-4496 1966 0
-2101 -1966 4496 0
-4497 2103 0
-4497 2017 0
-2103 -2017 4497 0
-4498 2104 0
-4498 2034 0
-2104 -2034 4498 0
-4499 2105 0
-4499 2051 0
-2105 -2051 4499 0
-4500 2106 0
-4500 2068 0
-2106 -2068 4500 0
-4501 2107 0
-4501 2085 0
-2107 -2085 4501 0
-4502 2108 0
-4502 2119 0
-2108 -2119 4502 0
-4503 2109 0
-4503 2136 0
-2109 -2136 4503 0
-4504 2110 0
-4504 2153 0
-2110 -2153 4504 0
-4505 2111 0
-4505 2170 0
-2111 -2170 4505 0
-4506 2112 0
-4506 2187 0
-2112 -2187 4506 0
-4507 2113 0
-4507 2204 0
-2113 -2204 4507 0
-4508 2114 0
-4508 2221 0
-2114 -2221 4508 0
-4509 2115 0
-4509 2238 0
-2115 -2238 4509 0
-4510 2116 0
-4510 2255 0
-2116 -2255 4510 0
-1430 -4495 0
-1430 -4496 0
-1430 -4497 0
-1430 -4498 0
-1430 -4499 0
-1430 -4500 0
-1430 -4501 0
-1430 -4502 0
-1430 -4503 0
-1430 -4504 0
-1430 -4505 0
-1430 -4506 0
-1430 -4507 0
-1430 -4508 0
-1430 -4509 0
-1430 -4510 0
-2102 1430 4495 4496 4497 4498 4499 4500 4501 4502 4503 4504 4505 4506 4507 4508 4509 4510 0
-1433 2103 0
-4511 2100 0
-4511 1969 0
-2100 -1969 4511 0
-4512 2101 0
-4512 1968 0
-2101 -1968 4512 0
-4513 2102 0
-4513 2000 0
-2102 -2000 4513 0
-4514 2104 0
-4514 2035 0
-2104 -2035 4514 0
-4515 2105 0
-4515 2052 0
-2105 -2052 4515 0
-4516 2106 0
-4516 2069 0
-2106 -2069 4516 0
-4517 2107 0
-4517 2086 0
-2107 -2086 4517 0
-4518 2108 0
-4518 2120 0
-2108 -2120 4518 0
-4519 2109 0
-4519 2137 0
-2109 -2137 4519 0
-4520 2110 0
-4520 2154 0
-2110 -2154 4520 0
-4521 2111 0
-4521 2171 0
-2111 -2171 4521 0
-4522 2112 0
-4522 2188 0
-2112 -2188 4522 0
-4523 2113 0
-4523 2205 0
-2113 -2205 4523 0
-4524 2114 0
-4524 2222 0
-2114 -2222 4524 0
-4525 2115 0
-4525 2239 0
-2115 -2239 4525 0
-4526 2116 0
-4526 2256 0
-2116 -2256 4526 0
-1433 -4511 0
-1433 -4512 0
-1433 -4513 0
-1433 -4514 0
-1433 -4515 0
-1433 -4516 0
-1433 -4517 0
-1433 -4518 0
-1433 -4519 0
-1433 -4520 0
-1433 -4521 0
-1433 -4522 0
-1433 -4523 0
-1433 -4524 0
-1433 -4525 0
-1433 -4526 0
-2103 1433 4511 4512 4513 4514 4515 4516 4517 4518 4519 4520 4521 4522 4523 4524 4525 4526 0
-1436 2104 0
-4527 2100 0
-4527 1971 0
-2100 -1971 4527 0
-4528 2101 0
-4528 1970 0
-2101 -1970 4528 0
-4529 2102 0
-4529 2001 0
-2102 -2001 4529 0
-4530 2103 0
-4530 2018 0
-2103 -2018 4530 0
-4531 2105 0
-4531 2053 0
-2105 -2053 4531 0
-4532 2106 0
-4532 2070 0
-2106 -2070 4532 0
-4533 2107 0
-4533 2087 0
-2107 -2087 4533 0
-4534 2108 0
-4534 2121 0
-2108 -2121 4534 0
-4535 2109 0
-4535 2138 0
-2109 -2138 4535 0
-4536 2110 0
-4536 2155 0
-2110 -2155 4536 0
-4537 2111 0
-4537 2172 0
-2111 -2172 4537 0
-4538 2112 0
-4538 2189 0
-2112 -2189 4538 0
-4539 2113 0
-4539 2206 0
-2113 -2206 4539 0
-4540 2114 0
-4540 2223 0
-2114 -2223 4540 0
-4541 2115 0
-4541 2240 0
-2115 -2240 4541 0
-4542 2116 0
-4542 2257 0
-2116 -2257 4542 0
-1436 -4527 0
-1436 -4528 0
-1436 -4529 0
-1436 -4530 0
-1436 -4531 0
-1436 -4532 0
-1436 -4533 0
-1436 -4534 0
-1436 -4535 0
-1436 -4536 0
-1436 -4537 0
-1436 -4538 0
-1436 -4539 0
-1436 -4540 0
-1436 -4541 0
-1436 -4542 0
-2104 1436 4527 4528 4529 4530 4531 4532 4533 4534 4535 4536 4537 4538 4539 4540 4541 4542 0
-1439 2105 0
-4543 2100 0
-4543 1973 0
-2100 -1973 4543 0
-4544 2101 0
-4544 1972 0
-2101 -1972 4544 0
-4545 2102 0
-4545 2002 0
-2102 -2002 4545 0
-4546 2103 0
-4546 2019 0
-2103 -2019 4546 0
-4547 2104 0
-4547 2036 0
-2104 -2036 4547 0
-4548 2106 0
-4548 2071 0
-2106 -2071 4548 0
-4549 2107 0
-4549 2088 0
-2107 -2088 4549 0
-4550 2108 0
-4550 2122 0
-2108 -2122 4550 0
-4551 2109 0
-4551 2139 0
-2109 -2139 4551 0
-4552 2110 0
-4552 2156 0
-2110 -2156 4552 0
-4553 2111 0
-4553 2173 0
-2111 -2173 4553 0
-4554 2112 0
-4554 2190 0
-2112 -2190 4554 0
-4555 2113 0
-4555 2207 0
-2113 -2207 4555 0
-4556 2114 0
-4556 2224 0
-2114 -2224 4556 0
-4557 2115 0
-4557 2241 0
-2115 -2241 4557 0
-4558 2116 0
-4558 2258 0
-2116 -2258 4558 0
-1439 -4543 0
-1439 -4544 0
-1439 -4545 0
-1439 -4546 0
-1439 -4547 0
-1439 -4548 0
-1439 -4549 0
-1439 -4550 0
-1439 -4551 0
-1439 -4552 0
-1439 -4553 0
-1439 -4554 0
-1439 -4555 0
-1439 -4556 0
-1439 -4557 0
-1439 -4558 0
-2105 1439 4543 4544 4545 4546 4547 4548 4549 4550 4551 4552 4553 4554 4555 4556 4557 4558 0
-1442 2106 0
-4559 2100 0
-4559 1975 0
-2100 -1975 4559 0
-4560 2101 0
-4560 1974 0
-2101 -1974 4560 0
-4561 2102 0
-4561 2003 0
-2102 -2003 4561 0
-4562 2103 0
-4562 2020 0
-2103 -2020 4562 0
-4563 2104 0
-4563 2037 0
-2104 -2037 4563 0
-4564 2105 0
-4564 2054 0
-2105 -2054 4564 0
-4565 2107 0
-4565 2089 0
-2107 -2089 4565 0
-4566 2108 0
-4566 2123 0
-2108 -2123 4566 0
-4567 2109 0
-4567 2140 0
-2109 -2140 4567 0
-4568 2110 0
-4568 2157 0
-2110 -2157 4568 0
-4569 2111 0
-4569 2174 0
-2111 -2174 4569 0
-4570 2112 0
-4570 2191 0
-2112 -2191 4570 0
-4571 2113 0
-4571 2208 0
-2113 -2208 4571 0
-4572 2114 0
-4572 2225 0
-2114 -2225 4572 0
-4573 2115 0
-4573 2242 0
-2115 -2242 4573 0
-4574 2116 0
-4574 2259 0
-2116 -2259 4574 0
-1442 -4559 0
-1442 -4560 0
-1442 -4561 0
-1442 -4562 0
-1442 -4563 0
-1442 -4564 0
-1442 -4565 0
-1442 -4566 0
-1442 -4567 0
-1442 -4568 0
-1442 -4569 0
-1442 -4570 0
-1442 -4571 0
-1442 -4572 0
-1442 -4573 0
-1442 -4574 0
-2106 1442 4559 4560 4561 4562 4563 4564 4565 4566 4567 4568 4569 4570 4571 4572 4573 4574 0
-1445 2107 0
-4575 2100 0
-4575 1977 0
-2100 -1977 4575 0
-4576 2101 0
-4576 1976 0
-2101 -1976 4576 0
-4577 2102 0
-4577 2004 0
-2102 -2004 4577 0
-4578 2103 0
-4578 2021 0
-2103 -2021 4578 0
-4579 2104 0
-4579 2038 0
-2104 -2038 4579 0
-4580 2105 0
-4580 2055 0
-2105 -2055 4580 0
-4581 2106 0
-4581 2072 0
-2106 -2072 4581 0
-4582 2108 0
-4582 2124 0
-2108 -2124 4582 0
-4583 2109 0
-4583 2141 0
-2109 -2141 4583 0
-4584 2110 0
-4584 2158 0
-2110 -2158 4584 0
-4585 2111 0
-4585 2175 0
-2111 -2175 4585 0
-4586 2112 0
-4586 2192 0
-2112 -2192 4586 0
-4587 2113 0
-4587 2209 0
-2113 -2209 4587 0
-4588 2114 0
-4588 2226 0
-2114 -2226 4588 0
-4589 2115 0
-4589 2243 0
-2115 -2243 4589 0
-4590 2116 0
-4590 2260 0
-2116 -2260 4590 0
-1445 -4575 0
-1445 -4576 0
-1445 -4577 0
-1445 -4578 0
-1445 -4579 0
-1445 -4580 0
-1445 -4581 0
-1445 -4582 0
-1445 -4583 0
-1445 -4584 0
-1445 -4585 0
-1445 -4586 0
-1445 -4587 0
-1445 -4588 0
-1445 -4589 0
-1445 -4590 0
-2107 1445 4575 4576 4577 4578 4579 4580 4581 4582 4583 4584 4585 4586 4587 4588 4589 4590 0
-1448 0
-1451 2108 0
-4591 2100 0
-4591 1981 0
-2100 -1981 4591 0
-4592 2101 0
-4592 1980 0
-2101 -1980 4592 0
-4593 2102 0
-4593 2006 0
-2102 -2006 4593 0
-4594 2103 0
-4594 2023 0
-2103 -2023 4594 0
-4595 2104 0
-4595 2040 0
-2104 -2040 4595 0
-4596 2105 0
-4596 2057 0
-2105 -2057 4596 0
-4597 2106 0
-4597 2074 0
-2106 -2074 4597 0
-4598 2107 0
-4598 2091 0
-2107 -2091 4598 0
-4599 2109 0
-4599 2143 0
-2109 -2143 4599 0
-4600 2110 0
-4600 2160 0
-2110 -2160 4600 0
-4601 2111 0
-4601 2177 0
-2111 -2177 4601 0
-4602 2112 0
-4602 2194 0
-2112 -2194 4602 0
-4603 2113 0
-4603 2211 0
-2113 -2211 4603 0
-4604 2114 0
-4604 2228 0
-2114 -2228 4604 0
-4605 2115 0
-4605 2245 0
-2115 -2245 4605 0
-4606 2116 0
-4606 2262 0
-2116 -2262 4606 0
-1451 -4591 0
-1451 -4592 0
-1451 -4593 0
-1451 -4594 0
-1451 -4595 0
-1451 -4596 0
-1451 -4597 0
-1451 -4598 0
-1451 -4599 0
-1451 -4600 0
-1451 -4601 0
-1451 -4602 0
-1451 -4603 0
-1451 -4604 0
-1451 -4605 0
-1451 -4606 0
-2108 1451 4591 4592 4593 4594 4595 4596 4597 4598 4599 4600 4601 4602 4603 4604 4605 4606 0
-1454 2109 0
-4607 2100 0
-4607 1983 0
-2100 -1983 4607 0
-4608 2101 0
-4608 1982 0
-2101 -1982 4608 0
-4609 2102 0
-4609 2007 0
-2102 -2007 4609 0
-4610 2103 0
-4610 2024 0
-2103 -2024 4610 0
-4611 2104 0
-4611 2041 0
-2104 -2041 4611 0
-4612 2105 0
-4612 2058 0
-2105 -2058 4612 0
-4613 2106 0
-4613 2075 0
-2106 -2075 4613 0
-4614 2107 0
-4614 2092 0
-2107 -2092 4614 0
-4615 2108 0
-4615 2126 0
-2108 -2126 4615 0
-4616 2110 0
-4616 2161 0
-2110 -2161 4616 0
-4617 2111 0
-4617 2178 0
-2111 -2178 4617 0
-4618 2112 0
-4618 2195 0
-2112 -2195 4618 0
-4619 2113 0
-4619 2212 0
-2113 -2212 4619 0
-4620 2114 0
-4620 2229 0
-2114 -2229 4620 0
-4621 2115 0
-4621 2246 0
-2115 -2246 4621 0
-4622 2116 0
-4622 2263 0
-2116 -2263 4622 0
-1454 -4607 0
-1454 -4608 0
-1454 -4609 0
-1454 -4610 0
-1454 -4611 0
-1454 -4612 0
-1454 -4613 0
-1454 -4614 0
-1454 -4615 0
-1454 -4616 0
-1454 -4617 0
-1454 -4618 0
-1454 -4619 0
-1454 -4620 0
-1454 -4621 0
-1454 -4622 0
-2109 1454 4607 4608 4609 4610 4611 4612 4613 4614 4615 4616 4617 4618 4619 4620 4621 4622 0
-1457 2110 0
-4623 2100 0
-4623 1985 0
-2100 -1985 4623 0
-4624 2101 0
-4624 1984 0
-2101 -1984 4624 0
-4625 2102 0
-4625 2008 0
-2102 -2008 4625 0
-4626 2103 0
-4626 2025 0
-2103 -2025 4626 0
-4627 2104 0
-4627 2042 0
-2104 -2042 4627 0
-4628 2105 0
-4628 2059 0
-2105 -2059 4628 0
-4629 2106 0
-4629 2076 0
-2106 -2076 4629 0
-4630 2107 0
-4630 2093 0
-2107 -2093 4630 0
-4631 2108 0
-4631 2127 0
-2108 -2127 4631 0
-4632 2109 0
-4632 2144 0
-2109 -2144 4632 0
-4633 2111 0
-4633 2179 0
-2111 -2179 4633 0
-4634 2112 0
-4634 2196 0
-2112 -2196 4634 0
-4635 2113 0
-4635 2213 0
-2113 -2213 4635 0
-4636 2114 0
-4636 2230 0
-2114 -2230 4636 0
-4637 2115 0
-4637 2247 0
-2115 -2247 4637 0
-4638 2116 0
-4638 2264 0
-2116 -2264 4638 0
-1457 -4623 0
-1457 -4624 0
-1457 -4625 0
-1457 -4626 0
-1457 -4627 0
-1457 -4628 0
-1457 -4629 0
-1457 -4630 0
-1457 -4631 0
-1457 -4632 0
-1457 -4633 0
-1457 -4634 0
-1457 -4635 0
-1457 -4636 0
-1457 -4637 0
-1457 -4638 0
-2110 1457 4623 4624 4625 4626 4627 4628 4629 4630 4631 4632 4633 4634 4635 4636 4637 4638 0
-1460 2111 0
-4639 2100 0
-4639 1987 0
-2100 -1987 4639 0
-4640 2101 0
-4640 1986 0
-2101 -1986 4640 0
-4641 2102 0
-4641 2009 0
-2102 -2009 4641 0
-4642 2103 0
-4642 2026 0
-2103 -2026 4642 0
-4643 2104 0
-4643 2043 0
-2104 -2043 4643 0
-4644 2105 0
-4644 2060 0
-2105 -2060 4644 0
-4645 2106 0
-4645 2077 0
-2106 -2077 4645 0
-4646 2107 0
-4646 2094 0
-2107 -2094 4646 0
-4647 2108 0
-4647 2128 0
-2108 -2128 4647 0
-4648 2109 0
-4648 2145 0
-2109 -2145 4648 0
-4649 2110 0
-4649 2162 0
-2110 -2162 4649 0
-4650 2112 0
-4650 2197 0
-2112 -2197 4650 0
-4651 2113 0
-4651 2214 0
-2113 -2214 4651 0
-4652 2114 0
-4652 2231 0
-2114 -2231 4652 0
-4653 2115 0
-4653 2248 0
-2115 -2248 4653 0
-4654 2116 0
-4654 2265 0
-2116 -2265 4654 0
-1460 -4639 0
-1460 -4640 0
-1460 -4641 0
-1460 -4642 0
-1460 -4643 0
-1460 -4644 0
-1460 -4645 0
-1460 -4646 0
-1460 -4647 0
-1460 -4648 0
-1460 -4649 0
-1460 -4650 0
-1460 -4651 0
-1460 -4652 0
-1460 -4653 0
-1460 -4654 0
-2111 1460 4639 4640 4641 4642 4643 4644 4645 4646 4647 4648 4649 4650 4651 4652 4653 4654 0
-1463 2112 0
-4655 2100 0
-4655 1989 0
-2100 -1989 4655 0
-4656 2101 0
-4656 1988 0
-2101 -1988 4656 0
-4657 2102 0
-4657 2010 0
-2102 -2010 4657 0
-4658 2103 0
-4658 2027 0
-2103 -2027 4658 0
-4659 2104 0
-4659 2044 0
-2104 -2044 4659 0
-4660 2105 0
-4660 2061 0
-2105 -2061 4660 0
-4661 2106 0
-4661 2078 0
-2106 -2078 4661 0
-4662 2107 0
-4662 2095 0
-2107 -2095 4662 0
-4663 2108 0
-4663 2129 0
-2108 -2129 4663 0
-4664 2109 0
-4664 2146 0
-2109 -2146 4664 0
-4665 2110 0
-4665 2163 0
-2110 -2163 4665 0
-4666 2111 0
-4666 2180 0
-2111 -2180 4666 0
-4667 2113 0
-4667 2215 0
-2113 -2215 4667 0
-4668 2114 0
-4668 2232 0
-2114 -2232 4668 0
-4669 2115 0
-4669 2249 0
-2115 -2249 4669 0
-4670 2116 0
-4670 2266 0
-2116 -2266 4670 0
-1463 -4655 0
-1463 -4656 0
-1463 -4657 0
-1463 -4658 0
-1463 -4659 0
-1463 -4660 0
-1463 -4661 0
-1463 -4662 0
-1463 -4663 0
-1463 -4664 0
-1463 -4665 0
-1463 -4666 0
-1463 -4667 0
-1463 -4668 0
-1463 -4669 0
-1463 -4670 0
-2112 1463 4655 4656 4657 4658 4659 4660 4661 4662 4663 4664 4665 4666 4667 4668 4669 4670 0
-1466 2113 0
-4671 2100 0
-4671 1991 0
-2100 -1991 4671 0
-4672 2101 0
-4672 1990 0
-2101 -1990 4672 0
-4673 2102 0
-4673 2011 0
-2102 -2011 4673 0
-4674 2103 0
-4674 2028 0
-2103 -2028 4674 0
-4675 2104 0
-4675 2045 0
-2104 -2045 4675 0
-4676 2105 0
-4676 2062 0
-2105 -2062 4676 0
-4677 2106 0
-4677 2079 0
-2106 -2079 4677 0
-4678 2107 0
-4678 2096 0
-2107 -2096 4678 0
-4679 2108 0
-4679 2130 0
-2108 -2130 4679 0
-4680 2109 0
-4680 2147 0
-2109 -2147 4680 0
-4681 2110 0
-4681 2164 0
-2110 -2164 4681 0
-4682 2111 0
-4682 2181 0
-2111 -2181 4682 0
-4683 2112 0
-4683 2198 0
-2112 -2198 4683 0
-4684 2114 0
-4684 2233 0
-2114 -2233 4684 0
-4685 2115 0
-4685 2250 0
-2115 -2250 4685 0
-4686 2116 0
-4686 2267 0
-2116 -2267 4686 0
-1466 -4671 0
-1466 -4672 0
-1466 -4673 0
-1466 -4674 0
-1466 -4675 0
-1466 -4676 0
-1466 -4677 0
-1466 -4678 0
-1466 -4679 0
-1466 -4680 0
-1466 -4681 0
-1466 -4682 0
-1466 -4683 0
-1466 -4684 0
-1466 -4685 0
-1466 -4686 0
-2113 1466 4671 4672 4673 4674 4675 4676 4677 4678 4679 4680 4681 4682 4683 4684 4685 4686 0
-1469 2114 0
-4687 2100 0
-4687 1993 0
-2100 -1993 4687 0
-4688 2101 0
-4688 1992 0
-2101 -1992 4688 0
-4689 2102 0
-4689 2012 0
-2102 -2012 4689 0
-4690 2103 0
-4690 2029 0
-2103 -2029 4690 0
-4691 2104 0
-4691 2046 0
-2104 -2046 4691 0
-4692 2105 0
-4692 2063 0
-2105 -2063 4692 0
-4693 2106 0
-4693 2080 0
-2106 -2080 4693 0
-4694 2107 0
-4694 2097 0
-2107 -2097 4694 0
-4695 2108 0
-4695 2131 0
-2108 -2131 4695 0
-4696 2109 0
-4696 2148 0
-2109 -2148 4696 0
-4697 2110 0
-4697 2165 0
-2110 -2165 4697 0
-4698 2111 0
-4698 2182 0
-2111 -2182 4698 0
-4699 2112 0
-4699 2199 0
-2112 -2199 4699 0
-4700 2113 0
-4700 2216 0
-2113 -2216 4700 0
-4701 2115 0
-4701 2251 0
-2115 -2251 4701 0
-4702 2116 0
-4702 2268 0
-2116 -2268 4702 0
-1469 -4687 0
-1469 -4688 0
-1469 -4689 0
-1469 -4690 0
-1469 -4691 0
-1469 -4692 0
-1469 -4693 0
-1469 -4694 0
-1469 -4695 0
-1469 -4696 0
-1469 -4697 0
-1469 -4698 0
-1469 -4699 0
-1469 -4700 0
-1469 -4701 0
-1469 -4702 0
-2114 1469 4687 4688 4689 4690 4691 4692 4693 4694 4695 4696 4697 4698 4699 4700 4701 4702 0
-1472 2115 0
-4703 2100 0
-4703 1995 0
-2100 -1995 4703 0
-4704 2101 0
-4704 1994 0
-2101 -1994 4704 0
-4705 2102 0
-4705 2013 0
-2102 -2013 4705 0
-4706 2103 0
-4706 2030 0
-2103 -2030 4706 0
-4707 2104 0
-4707 2047 0
-2104 -2047 4707 0
-4708 2105 0
-4708 2064 0
-2105 -2064 4708 0
-4709 2106 0
-4709 2081 0
-2106 -2081 4709 0
-4710 2107 0
-4710 2098 0
-2107 -2098 4710 0
-4711 2108 0
-4711 2132 0
-2108 -2132 4711 0
-4712 2109 0
-4712 2149 0
-2109 -2149 4712 0
-4713 2110 0
-4713 2166 0
-2110 -2166 4713 0
-4714 2111 0
-4714 2183 0
-2111 -2183 4714 0
-4715 2112 0
-4715 2200 0
-2112 -2200 4715 0
-4716 2113 0
-4716 2217 0
-2113 -2217 4716 0
-4717 2114 0
-4717 2234 0
-2114 -2234 4717 0
-4718 2116 0
-4718 2269 0
-2116 -2269 4718 0
-1472 -4703 0
-1472 -4704 0
-1472 -4705 0
-1472 -4706 0
-1472 -4707 0
-1472 -4708 0
-1472 -4709 0
-1472 -4710 0
-1472 -4711 0
-1472 -4712 0
-1472 -4713 0
-1472 -4714 0
-1472 -4715 0
-1472 -4716 0
-1472 -4717 0
-1472 -4718 0
-2115 1472 4703 4704 4705 4706 4707 4708 4709 4710 4711 4712 4713 4714 4715 4716 4717 4718 0
-1475 2116 0
-4719 2100 0
-4719 1997 0
-2100 -1997 4719 0
-4720 2101 0
-4720 1996 0
-2101 -1996 4720 0
-4721 2102 0
-4721 2014 0
-2102 -2014 4721 0
-4722 2103 0
-4722 2031 0
-2103 -2031 4722 0
-4723 2104 0
-4723 2048 0
-2104 -2048 4723 0
-4724 2105 0
-4724 2065 0
-2105 -2065 4724 0
-4725 2106 0
-4725 2082 0
-2106 -2082 4725 0
-4726 2107 0
-4726 2099 0
-2107 -2099 4726 0
-4727 2108 0
-4727 2133 0
-2108 -2133 4727 0
-4728 2109 0
-4728 2150 0
-2109 -2150 4728 0
-4729 2110 0
-4729 2167 0
-2110 -2167 4729 0
-4730 2111 0
-4730 2184 0
-2111 -2184 4730 0
-4731 2112 0
-4731 2201 0
-2112 -2201 4731 0
-4732 2113 0
-4732 2218 0
-2113 -2218 4732 0
-4733 2114 0
-4733 2235 0
-2114 -2235 4733 0
-4734 2115 0
-4734 2252 0
-2115 -2252 4734 0
-1475 -4719 0
-1475 -4720 0
-1475 -4721 0
-1475 -4722 0
-1475 -4723 0
-1475 -4724 0
-1475 -4725 0
-1475 -4726 0
-1475 -4727 0
-1475 -4728 0
-1475 -4729 0
-1475 -4730 0
-1475 -4731 0
-1475 -4732 0
-1475 -4733 0
-1475 -4734 0
-2116 1475 4719 4720 4721 4722 4723 4724 4725 4726 4727 4728 4729 4730 4731 4732 4733 4734 0
-1478 2117 0
-4735 2118 0
-4735 1965 0
-2118 -1965 4735 0
-4736 2119 0
-4736 1998 0
-2119 -1998 4736 0
-4737 2120 0
-4737 2015 0
-2120 -2015 4737 0
-4738 2121 0
-4738 2032 0
-2121 -2032 4738 0
-4739 2122 0
-4739 2049 0
-2122 -2049 4739 0
-4740 2123 0
-4740 2066 0
-2123 -2066 4740 0
-4741 2124 0
-4741 2083 0
-2124 -2083 4741 0
-4742 2125 0
-4742 2100 0
-2125 -2100 4742 0
-4743 2126 0
-4743 2134 0
-2126 -2134 4743 0
-4744 2127 0
-4744 2151 0
-2127 -2151 4744 0
-4745 2128 0
-4745 2168 0
-2128 -2168 4745 0
-4746 2129 0
-4746 2185 0
-2129 -2185 4746 0
-4747 2130 0
-4747 2202 0
-2130 -2202 4747 0
-4748 2131 0
-4748 2219 0
-2131 -2219 4748 0
-4749 2132 0
-4749 2236 0
-2132 -2236 4749 0
-4750 2133 0
-4750 2253 0
-2133 -2253 4750 0
-1478 -4735 0
-1478 -4736 0
-1478 -4737 0
-1478 -4738 0
-1478 -4739 0
-1478 -4740 0
-1478 -4741 0
-1478 -4742 0
-1478 -4743 0
-1478 -4744 0
-1478 -4745 0
-1478 -4746 0
-1478 -4747 0
-1478 -4748 0
-1478 -4749 0
-1478 -4750 0
-2117 1478 4735 4736 4737 4738 4739 4740 4741 4742 4743 4744 4745 4746 4747 4748 4749 4750 0
-1481 2118 0
-4751 2117 0
-4751 1964 0
-2117 -1964 4751 0
-4752 2119 0
-4752 1999 0
-2119 -1999 4752 0
-4753 2120 0
-4753 2016 0
-2120 -2016 4753 0
-4754 2121 0
-4754 2033 0
-2121 -2033 4754 0
-4755 2122 0
-4755 2050 0
-2122 -2050 4755 0
-4756 2123 0
-4756 2067 0
-2123 -2067 4756 0
-4757 2124 0
-4757 2084 0
-2124 -2084 4757 0
-4758 2125 0
-4758 2101 0
-2125 -2101 4758 0
-4759 2126 0
-4759 2135 0
-2126 -2135 4759 0
-4760 2127 0
-4760 2152 0
-2127 -2152 4760 0
-4761 2128 0
-4761 2169 0
-2128 -2169 4761 0
-4762 2129 0
-4762 2186 0
-2129 -2186 4762 0
-4763 2130 0
-4763 2203 0
-2130 -2203 4763 0
-4764 2131 0
-4764 2220 0
-2131 -2220 4764 0
-4765 2132 0
-4765 2237 0
-2132 -2237 4765 0
-4766 2133 0
-4766 2254 0
-2133 -2254 4766 0
-1481 -4751 0
-1481 -4752 0
-1481 -4753 0
-1481 -4754 0
-1481 -4755 0
-1481 -4756 0
-1481 -4757 0
-1481 -4758 0
-1481 -4759 0
-1481 -4760 0
-1481 -4761 0
-1481 -4762 0
-1481 -4763 0
-1481 -4764 0
-1481 -4765 0
-1481 -4766 0
-2118 1481 4751 4752 4753 4754 4755 4756 4757 4758 4759 4760 4761 4762 4763 4764 4765 4766 0
-1484 2119 0
-4767 2117 0
-4767 1967 0
-2117 -1967 4767 0
-4768 2118 0
-4768 1966 0
-2118 -1966 4768 0
-4769 2120 0
-4769 2017 0
-2120 -2017 4769 0
-4770 2121 0
-4770 2034 0
-2121 -2034 4770 0
-4771 2122 0
-4771 2051 0
-2122 -2051 4771 0
-4772 2123 0
-4772 2068 0
-2123 -2068 4772 0
-4773 2124 0
-4773 2085 0
-2124 -2085 4773 0
-4774 2125 0
-4774 2102 0
-2125 -2102 4774 0
-4775 2126 0
-4775 2136 0
-2126 -2136 4775 0
-4776 2127 0
-4776 2153 0
-2127 -2153 4776 0
-4777 2128 0
-4777 2170 0
-2128 -2170 4777 0
-4778 2129 0
-4778 2187 0
-2129 -2187 4778 0
-4779 2130 0
-4779 2204 0
-2130 -2204 4779 0
-4780 2131 0
-4780 2221 0
-2131 -2221 4780 0
-4781 2132 0
-4781 2238 0
-2132 -2238 4781 0
-4782 2133 0
-4782 2255 0
-2133 -2255 4782 0
-1484 -4767 0
-1484 -4768 0
-1484 -4769 0
-1484 -4770 0
-1484 -4771 0
-1484 -4772 0
-1484 -4773 0
-1484 -4774 0
-1484 -4775 0
-1484 -4776 0
-1484 -4777 0
-1484 -4778 0
-1484 -4779 0
-1484 -4780 0
-1484 -4781 0
-1484 -4782 0
-2119 1484 4767 4768 4769 4770 4771 4772 4773 4774 4775 4776 4777 4778 4779 4780 4781 4782 0
-1487 2120 0
-4783 2117 0
-4783 1969 0
-2117 -1969 4783 0
-4784 2118 0
-4784 1968 0
-2118 -1968 4784 0
-4785 2119 0
-4785 2000 0
-2119 -2000 4785 0
-4786 2121 0
-4786 2035 0
-2121 -2035 4786 0
-4787 2122 0
-4787 2052 0
-2122 -2052 4787 0
-4788 2123 0
-4788 2069 0
-2123 -2069 4788 0
-4789 2124 0
-4789 2086 0
-2124 -2086 4789 0
-4790 2125 0
-4790 2103 0
-2125 -2103 4790 0
-4791 2126 0
-4791 2137 0
-2126 -2137 4791 0
-4792 2127 0
-4792 2154 0
-2127 -2154 4792 0
-4793 2128 0
-4793 2171 0
-2128 -2171 4793 0
-4794 2129 0
-4794 2188 0
-2129 -2188 4794 0
-4795 2130 0
-4795 2205 0
-2130 -2205 4795 0
-4796 2131 0
-4796 2222 0
-2131 -2222 4796 0
-4797 2132 0
-4797 2239 0
-2132 -2239 4797 0
-4798 2133 0
-4798 2256 0
-2133 -2256 4798 0
-1487 -4783 0
-1487 -4784 0
-1487 -4785 0
-1487 -4786 0
-1487 -4787 0
-1487 -4788 0
-1487 -4789 0
-1487 -4790 0
-1487 -4791 0
-1487 -4792 0
-1487 -4793 0
-1487 -4794 0
-1487 -4795 0
-1487 -4796 0
-1487 -4797 0
-1487 -4798 0
-2120 1487 4783 4784 4785 4786 4787 4788 4789 4790 4791 4792 4793 4794 4795 4796 4797 4798 0
-1490 2121 0
-4799 2117 0
-4799 1971 0
-2117 -1971 4799 0
-4800 2118 0
-4800 1970 0
-2118 -1970 4800 0
-4801 2119 0
-4801 2001 0
-2119 -2001 4801 0
-4802 2120 0
-4802 2018 0
-2120 -2018 4802 0
-4803 2122 0
-4803 2053 0
-2122 -2053 4803 0
-4804 2123 0
-4804 2070 0
-2123 -2070 4804 0
-4805 2124 0
-4805 2087 0
-2124 -2087 4805 0
-4806 2125 0
-4806 2104 0
-2125 -2104 4806 0
-4807 2126 0
-4807 2138 0
-2126 -2138 4807 0
-4808 2127 0
-4808 2155 0
-2127 -2155 4808 0
-4809 2128 0
-4809 2172 0
-2128 -2172 4809 0
-4810 2129 0
-4810 2189 0
-2129 -2189 4810 0
-4811 2130 0
-4811 2206 0
-2130 -2206 4811 0
-4812 2131 0
-4812 2223 0
-2131 -2223 4812 0
-4813 2132 0
-4813 2240 0
-2132 -2240 4813 0
-4814 2133 0
-4814 2257 0
-2133 -2257 4814 0
-1490 -4799 0
-1490 -4800 0
-1490 -4801 0
-1490 -4802 0
-1490 -4803 0
-1490 -4804 0
-1490 -4805 0
-1490 -4806 0
-1490 -4807 0
-1490 -4808 0
-1490 -4809 0
-1490 -4810 0
-1490 -4811 0
-1490 -4812 0
-1490 -4813 0
-1490 -4814 0
-2121 1490 4799 4800 4801 4802 4803 4804 4805 4806 4807 4808 4809 4810 4811 4812 4813 4814 0
-1493 2122 0
-4815 2117 0
-4815 1973 0
-2117 -1973 4815 0
-4816 2118 0
-4816 1972 0
-2118 -1972 4816 0
-4817 2119 0
-4817 2002 0
-2119 -2002 4817 0
-4818 2120 0
-4818 2019 0
-2120 -2019 4818 0
-4819 2121 0
-4819 2036 0
-2121 -2036 4819 0
-4820 2123 0
-4820 2071 0
-2123 -2071 4820 0
-4821 2124 0
-4821 2088 0
-2124 -2088 4821 0
-4822 2125 0
-4822 2105 0
-2125 -2105 4822 0
-4823 2126 0
-4823 2139 0
-2126 -2139 4823 0
-4824 2127 0
-4824 2156 0
-2127 -2156 4824 0
-4825 2128 0
-4825 2173 0
-2128 -2173 4825 0
-4826 2129 0
-4826 2190 0
-2129 -2190 4826 0
-4827 2130 0
-4827 2207 0
-2130 -2207 4827 0
-4828 2131 0
-4828 2224 0
-2131 -2224 4828 0
-4829 2132 0
-4829 2241 0
-2132 -2241 4829 0
-4830 2133 0
-4830 2258 0
-2133 -2258 4830 0
-1493 -4815 0
-1493 -4816 0
-1493 -4817 0
-1493 -4818 0
-1493 -4819 0
-1493 -4820 0
-1493 -4821 0
-1493 -4822 0
-1493 -4823 0
-1493 -4824 0
-1493 -4825 0
-1493 -4826 0
-1493 -4827 0
-1493 -4828 0
-1493 -4829 0
-1493 -4830 0
-2122 1493 4815 4816 4817 4818 4819 4820 4821 4822 4823 4824 4825 4826 4827 4828 4829 4830 0
-1496 2123 0
-4831 2117 0
-4831 1975 0
-2117 -1975 4831 0
-4832 2118 0
-4832 1974 0
-2118 -1974 4832 0
-4833 2119 0
-4833 2003 0
-2119 -2003 4833 0
-4834 2120 0
-4834 2020 0
-2120 -2020 4834 0
-4835 2121 0
-4835 2037 0
-2121 -2037 4835 0
-4836 2122 0
-4836 2054 0
-2122 -2054 4836 0
-4837 2124 0
-4837 2089 0
-2124 -2089 4837 0
-4838 2125 0
-4838 2106 0
-2125 -2106 4838 0
-4839 2126 0
-4839 2140 0
-2126 -2140 4839 0
-4840 2127 0
-4840 2157 0
-2127 -2157 4840 0
-4841 2128 0
-4841 2174 0
-2128 -2174 4841 0
-4842 2129 0
-4842 2191 0
-2129 -2191 4842 0
-4843 2130 0
-4843 2208 0
-2130 -2208 4843 0
-4844 2131 0
-4844 2225 0
-2131 -2225 4844 0
-4845 2132 0
-4845 2242 0
-2132 -2242 4845 0
-4846 2133 0
-4846 2259 0
-2133 -2259 4846 0
-1496 -4831 0
-1496 -4832 0
-1496 -4833 0
-1496 -4834 0
-1496 -4835 0
-1496 -4836 0
-1496 -4837 0
-1496 -4838 0
-1496 -4839 0
-1496 -4840 0
-1496 -4841 0
-1496 -4842 0
-1496 -4843 0
-1496 -4844 0
-1496 -4845 0
-1496 -4846 0
-2123 1496 4831 4832 4833 4834 4835 4836 4837 4838 4839 4840 4841 4842 4843 4844 4845 4846 0
-1499 2124 0
-4847 2117 0
-4847 1977 0
-2117 -1977 4847 0
-4848 2118 0
-4848 1976 0
-2118 -1976 4848 0
-4849 2119 0
-4849 2004 0
-2119 -2004 4849 0
-4850 2120 0
-4850 2021 0
-2120 -2021 4850 0
-4851 2121 0
-4851 2038 0
-2121 -2038 4851 0
-4852 2122 0
-4852 2055 0
-2122 -2055 4852 0
-4853 2123 0
-4853 2072 0
-2123 -2072 4853 0
-4854 2125 0
-4854 2107 0
-2125 -2107 4854 0
-4855 2126 0
-4855 2141 0
-2126 -2141 4855 0
-4856 2127 0
-4856 2158 0
-2127 -2158 4856 0
-4857 2128 0
-4857 2175 0
-2128 -2175 4857 0
-4858 2129 0
-4858 2192 0
-2129 -2192 4858 0
-4859 2130 0
-4859 2209 0
-2130 -2209 4859 0
-4860 2131 0
-4860 2226 0
-2131 -2226 4860 0
-4861 2132 0
-4861 2243 0
-2132 -2243 4861 0
-4862 2133 0
-4862 2260 0
-2133 -2260 4862 0
-1499 -4847 0
-1499 -4848 0
-1499 -4849 0
-1499 -4850 0
-1499 -4851 0
-1499 -4852 0
-1499 -4853 0
-1499 -4854 0
-1499 -4855 0
-1499 -4856 0
-1499 -4857 0
-1499 -4858 0
-1499 -4859 0
-1499 -4860 0
-1499 -4861 0
-1499 -4862 0
-2124 1499 4847 4848 4849 4850 4851 4852 4853 4854 4855 4856 4857 4858 4859 4860 4861 4862 0
-1502 2125 0
-4863 2117 0
-4863 1979 0
-2117 -1979 4863 0
-4864 2118 0
-4864 1978 0
-2118 -1978 4864 0
-4865 2119 0
-4865 2005 0
-2119 -2005 4865 0
-4866 2120 0
-4866 2022 0
-2120 -2022 4866 0
-4867 2121 0
-4867 2039 0
-2121 -2039 4867 0
-4868 2122 0
-4868 2056 0
-2122 -2056 4868 0
-4869 2123 0
-4869 2073 0
-2123 -2073 4869 0
-4870 2124 0
-4870 2090 0
-2124 -2090 4870 0
-4871 2126 0
-4871 2142 0
-2126 -2142 4871 0
-4872 2127 0
-4872 2159 0
-2127 -2159 4872 0
-4873 2128 0
-4873 2176 0
-2128 -2176 4873 0
-4874 2129 0
-4874 2193 0
-2129 -2193 4874 0
-4875 2130 0
-4875 2210 0
-2130 -2210 4875 0
-4876 2131 0
-4876 2227 0
-2131 -2227 4876 0
-4877 2132 0
-4877 2244 0
-2132 -2244 4877 0
-4878 2133 0
-4878 2261 0
-2133 -2261 4878 0
-1502 -4863 0
-1502 -4864 0
-1502 -4865 0
-1502 -4866 0
-1502 -4867 0
-1502 -4868 0
-1502 -4869 0
-1502 -4870 0
-1502 -4871 0
-1502 -4872 0
-1502 -4873 0
-1502 -4874 0
-1502 -4875 0
-1502 -4876 0
-1502 -4877 0
-1502 -4878 0
-2125 1502 4863 4864 4865 4866 4867 4868 4869 4870 4871 4872 4873 4874 4875 4876 4877 4878 0
-1505 0
-1508 2126 0
-4879 2117 0
-4879 1983 0
-2117 -1983 4879 0
-4880 2118 0
-4880 1982 0
-2118 -1982 4880 0
-4881 2119 0
-4881 2007 0
-2119 -2007 4881 0
-4882 2120 0
-4882 2024 0
-2120 -2024 4882 0
-4883 2121 0
-4883 2041 0
-2121 -2041 4883 0
-4884 2122 0
-4884 2058 0
-2122 -2058 4884 0
-4885 2123 0
-4885 2075 0
-2123 -2075 4885 0
-4886 2124 0
-4886 2092 0
-2124 -2092 4886 0
-4887 2125 0
-4887 2109 0
-2125 -2109 4887 0
-4888 2127 0
-4888 2161 0
-2127 -2161 4888 0
-4889 2128 0
-4889 2178 0
-2128 -2178 4889 0
-4890 2129 0
-4890 2195 0
-2129 -2195 4890 0
-4891 2130 0
-4891 2212 0
-2130 -2212 4891 0
-4892 2131 0
-4892 2229 0
-2131 -2229 4892 0
-4893 2132 0
-4893 2246 0
-2132 -2246 4893 0
-4894 2133 0
-4894 2263 0
-2133 -2263 4894 0
-1508 -4879 0
-1508 -4880 0
-1508 -4881 0
-1508 -4882 0
-1508 -4883 0
-1508 -4884 0
-1508 -4885 0
-1508 -4886 0
-1508 -4887 0
-1508 -4888 0
-1508 -4889 0
-1508 -4890 0
-1508 -4891 0
-1508 -4892 0
-1508 -4893 0
-1508 -4894 0
-2126 1508 4879 4880 4881 4882 4883 4884 4885 4886 4887 4888 4889 4890 4891 4892 4893 4894 0
-1511 2127 0
-4895 2117 0
-4895 1985 0
-2117 -1985 4895 0
-4896 2118 0
-4896 1984 0
-2118 -1984 4896 0
-4897 2119 0
-4897 2008 0
-2119 -2008 4897 0
-4898 2120 0
-4898 2025 0
-2120 -2025 4898 0
-4899 2121 0
-4899 2042 0
-2121 -2042 4899 0
-4900 2122 0
-4900 2059 0
-2122 -2059 4900 0
-4901 2123 0
-4901 2076 0
-2123 -2076 4901 0
-4902 2124 0
-4902 2093 0
-2124 -2093 4902 0
-4903 2125 0
-4903 2110 0
-2125 -2110 4903 0
-4904 2126 0
-4904 2144 0
-2126 -2144 4904 0
-4905 2128 0
-4905 2179 0
-2128 -2179 4905 0
-4906 2129 0
-4906 2196 0
-2129 -2196 4906 0
-4907 2130 0
-4907 2213 0
-2130 -2213 4907 0
-4908 2131 0
-4908 2230 0
-2131 -2230 4908 0
-4909 2132 0
-4909 2247 0
-2132 -2247 4909 0
-4910 2133 0
-4910 2264 0
-2133 -2264 4910 0
-1511 -4895 0
-1511 -4896 0
-1511 -4897 0
-1511 -4898 0
-1511 -4899 0
-1511 -4900 0
-1511 -4901 0
-1511 -4902 0
-1511 -4903 0
-1511 -4904 0
-1511 -4905 0
-1511 -4906 0
-1511 -4907 0
-1511 -4908 0
-1511 -4909 0
-1511 -4910 0
-2127 1511 4895 4896 4897 4898 4899 4900 4901 4902 4903 4904 4905 4906 4907 4908 4909 4910 0
-1514 2128 0
-4911 2117 0
-4911 1987 0
-2117 -1987 4911 0
-4912 2118 0
-4912 1986 0
-2118 -1986 4912 0
-4913 2119 0
-4913 2009 0
-2119 -2009 4913 0
-4914 2120 0
-4914 2026 0
-2120 -2026 4914 0
-4915 2121 0
-4915 2043 0
-2121 -2043 4915 0
-4916 2122 0
-4916 2060 0
-2122 -2060 4916 0
-4917 2123 0
-4917 2077 0
-2123 -2077 4917 0
-4918 2124 0
-4918 2094 0
-2124 -2094 4918 0
-4919 2125 0
-4919 2111 0
-2125 -2111 4919 0
-4920 2126 0
-4920 2145 0
-2126 -2145 4920 0
-4921 2127 0
-4921 2162 0
-2127 -2162 4921 0
-4922 2129 0
-4922 2197 0
-2129 -2197 4922 0
-4923 2130 0
-4923 2214 0
-2130 -2214 4923 0
-4924 2131 0
-4924 2231 0
-2131 -2231 4924 0
-4925 2132 0
-4925 2248 0
-2132 -2248 4925 0
-4926 2133 0
-4926 2265 0
-2133 -2265 4926 0
-1514 -4911 0
-1514 -4912 0
-1514 -4913 0
-1514 -4914 0
-1514 -4915 0
-1514 -4916 0
-1514 -4917 0
-1514 -4918 0
-1514 -4919 0
-1514 -4920 0
-1514 -4921 0
-1514 -4922 0
-1514 -4923 0
-1514 -4924 0
-1514 -4925 0
-1514 -4926 0
-2128 1514 4911 4912 4913 4914 4915 4916 4917 4918 4919 4920 4921 4922 4923 4924 4925 4926 0
-1517 2129 0
-4927 2117 0
-4927 1989 0
-2117 -1989 4927 0
-4928 2118 0
-4928 1988 0
-2118 -1988 4928 0
-4929 2119 0
-4929 2010 0
-2119 -2010 4929 0
-4930 2120 0
-4930 2027 0
-2120 -2027 4930 0
-4931 2121 0
-4931 2044 0
-2121 -2044 4931 0
-4932 2122 0
-4932 2061 0
-2122 -2061 4932 0
-4933 2123 0
-4933 2078 0
-2123 -2078 4933 0
-4934 2124 0
-4934 2095 0
-2124 -2095 4934 0
-4935 2125 0
-4935 2112 0
-2125 -2112 4935 0
-4936 2126 0
-4936 2146 0
-2126 -2146 4936 0
-4937 2127 0
-4937 2163 0
-2127 -2163 4937 0
-4938 2128 0
-4938 2180 0
-2128 -2180 4938 0
-4939 2130 0
-4939 2215 0
-2130 -2215 4939 0
-4940 2131 0
-4940 2232 0
-2131 -2232 4940 0
-4941 2132 0
-4941 2249 0
-2132 -2249 4941 0
-4942 2133 0
-4942 2266 0
-2133 -2266 4942 0
-1517 -4927 0
-1517 -4928 0
-1517 -4929 0
-1517 -4930 0
-1517 -4931 0
-1517 -4932 0
-1517 -4933 0
-1517 -4934 0
-1517 -4935 0
-1517 -4936 0
-1517 -4937 0
-1517 -4938 0
-1517 -4939 0
-1517 -4940 0
-1517 -4941 0
-1517 -4942 0
-2129 1517 4927 4928 4929 4930 4931 4932 4933 4934 4935 4936 4937 4938 4939 4940 4941 4942 0
-1520 2130 0
-4943 2117 0
-4943 1991 0
-2117 -1991 4943 0
-4944 2118 0
-4944 1990 0
-2118 -1990 4944 0
-4945 2119 0
-4945 2011 0
-2119 -2011 4945 0
-4946 2120 0
-4946 2028 0
-2120 -2028 4946 0
-4947 2121 0
-4947 2045 0
-2121 -2045 4947 0
-4948 2122 0
-4948 2062 0
-2122 -2062 4948 0
-4949 2123 0
-4949 2079 0
-2123 -2079 4949 0
-4950 2124 0
-4950 2096 0
-2124 -2096 4950 0
-4951 2125 0
-4951 2113 0
-2125 -2113 4951 0
-4952 2126 0
-4952 2147 0
-2126 -2147 4952 0
-4953 2127 0
-4953 2164 0
-2127 -2164 4953 0
-4954 2128 0
-4954 2181 0
-2128 -2181 4954 0
-4955 2129 0
-4955 2198 0
-2129 -2198 4955 0
-4956 2131 0
-4956 2233 0
-2131 -2233 4956 0
-4957 2132 0
-4957 2250 0
-2132 -2250 4957 0
-4958 2133 0
-4958 2267 0
-2133 -2267 4958 0
-1520 -4943 0
-1520 -4944 0
-1520 -4945 0
-1520 -4946 0
-1520 -4947 0
-1520 -4948 0
-1520 -4949 0
-1520 -4950 0
-1520 -4951 0
-1520 -4952 0
-1520 -4953 0
-1520 -4954 0
-1520 -4955 0
-1520 -4956 0
-1520 -4957 0
-1520 -4958 0
-2130 1520 4943 4944 4945 4946 4947 4948 4949 4950 4951 4952 4953 4954 4955 4956 4957 4958 0
-1523 2131 0
-4959 2117 0
-4959 1993 0
-2117 -1993 4959 0
-4960 2118 0
-4960 1992 0
-2118 -1992 4960 0
-4961 2119 0
-4961 2012 0
-2119 -2012 4961 0
-4962 2120 0
-4962 2029 0
-2120 -2029 4962 0
-4963 2121 0
-4963 2046 0
-2121 -2046 4963 0
-4964 2122 0
-4964 2063 0
-2122 -2063 4964 0
-4965 2123 0
-4965 2080 0
-2123 -2080 4965 0
-4966 2124 0
-4966 2097 0
-2124 -2097 4966 0
-4967 2125 0
-4967 2114 0
-2125 -2114 4967 0
-4968 2126 0
-4968 2148 0
-2126 -2148 4968 0
-4969 2127 0
-4969 2165 0
-2127 -2165 4969 0
-4970 2128 0
-4970 2182 0
-2128 -2182 4970 0
-4971 2129 0
-4971 2199 0
-2129 -2199 4971 0
-4972 2130 0
-4972 2216 0
-2130 -2216 4972 0
-4973 2132 0
-4973 2251 0
-2132 -2251 4973 0
-4974 2133 0
-4974 2268 0
-2133 -2268 4974 0
-1523 -4959 0
-1523 -4960 0
-1523 -4961 0
-1523 -4962 0
-1523 -4963 0
-1523 -4964 0
-1523 -4965 0
-1523 -4966 0
-1523 -4967 0
-1523 -4968 0
-1523 -4969 0
-1523 -4970 0
-1523 -4971 0
-1523 -4972 0
-1523 -4973 0
-1523 -4974 0
-2131 1523 4959 4960 4961 4962 4963 4964 4965 4966 4967 4968 4969 4970 4971 4972 4973 4974 0
-1526 2132 0
-4975 2117 0
-4975 1995 0
-2117 -1995 4975 0
-4976 2118 0
-4976 1994 0
-2118 -1994 4976 0
-4977 2119 0
-4977 2013 0
-2119 -2013 4977 0
-4978 2120 0
-4978 2030 0
-2120 -2030 4978 0
-4979 2121 0
-4979 2047 0
-2121 -2047 4979 0
-4980 2122 0
-4980 2064 0
-2122 -2064 4980 0
-4981 2123 0
-4981 2081 0
-2123 -2081 4981 0
-4982 2124 0
-4982 2098 0
-2124 -2098 4982 0
-4983 2125 0
-4983 2115 0
-2125 -2115 4983 0
-4984 2126 0
-4984 2149 0
-2126 -2149 4984 0
-4985 2127 0
-4985 2166 0
-2127 -2166 4985 0
-4986 2128 0
-4986 2183 0
-2128 -2183 4986 0
-4987 2129 0
-4987 2200 0
-2129 -2200 4987 0
-4988 2130 0
-4988 2217 0
-2130 -2217 4988 0
-4989 2131 0
-4989 2234 0
-2131 -2234 4989 0
-4990 2133 0
-4990 2269 0
-2133 -2269 4990 0
-1526 -4975 0
-1526 -4976 0
-1526 -4977 0
-1526 -4978 0
-1526 -4979 0
-1526 -4980 0
-1526 -4981 0
-1526 -4982 0
-1526 -4983 0
-1526 -4984 0
-1526 -4985 0
-1526 -4986 0
-1526 -4987 0
-1526 -4988 0
-1526 -4989 0
-1526 -4990 0
-2132 1526 4975 4976 4977 4978 4979 4980 4981 4982 4983 4984 4985 4986 4987 4988 4989 4990 0
-1529 2133 0
-4991 2117 0
-4991 1997 0
-2117 -1997 4991 0
-4992 2118 0
-4992 1996 0
-2118 -1996 4992 0
-4993 2119 0
-4993 2014 0
-2119 -2014 4993 0
-4994 2120 0
-4994 2031 0
-2120 -2031 4994 0
-4995 2121 0
-4995 2048 0
-2121 -2048 4995 0
-4996 2122 0
-4996 2065 0
-2122 -2065 4996 0
-4997 2123 0
-4997 2082 0
-2123 -2082 4997 0
-4998 2124 0
-4998 2099 0
-2124 -2099 4998 0
-4999 2125 0
-4999 2116 0
-2125 -2116 4999 0
-5000 2126 0
-5000 2150 0
-2126 -2150 5000 0
-5001 2127 0
-5001 2167 0
-2127 -2167 5001 0
-5002 2128 0
-5002 2184 0
-2128 -2184 5002 0
-5003 2129 0
-5003 2201 0
-2129 -2201 5003 0
-5004 2130 0
-5004 2218 0
-2130 -2218 5004 0
-5005 2131 0
-5005 2235 0
-2131 -2235 5005 0
-5006 2132 0
-5006 2252 0
-2132 -2252 5006 0
-1529 -4991 0
-1529 -4992 0
-1529 -4993 0
-1529 -4994 0
-1529 -4995 0
-1529 -4996 0
-1529 -4997 0
-1529 -4998 0
-1529 -4999 0
-1529 -5000 0
-1529 -5001 0
-1529 -5002 0
-1529 -5003 0
-1529 -5004 0
-1529 -5005 0
-1529 -5006 0
-2133 1529 4991 4992 4993 4994 4995 4996 4997 4998 4999 5000 5001 5002 5003 5004 5005 5006 0
-1532 2134 0
-5007 2135 0
-5007 1965 0
-2135 -1965 5007 0
-5008 2136 0
-5008 1998 0
-2136 -1998 5008 0
-5009 2137 0
-5009 2015 0
-2137 -2015 5009 0
-5010 2138 0
-5010 2032 0
-2138 -2032 5010 0
-5011 2139 0
-5011 2049 0
-2139 -2049 5011 0
-5012 2140 0
-5012 2066 0
-2140 -2066 5012 0
-5013 2141 0
-5013 2083 0
-2141 -2083 5013 0
-5014 2142 0
-5014 2100 0
-2142 -2100 5014 0
-5015 2143 0
-5015 2117 0
-2143 -2117 5015 0
-5016 2144 0
-5016 2151 0
-2144 -2151 5016 0
-5017 2145 0
-5017 2168 0
-2145 -2168 5017 0
-5018 2146 0
-5018 2185 0
-2146 -2185 5018 0
-5019 2147 0
-5019 2202 0
-2147 -2202 5019 0
-5020 2148 0
-5020 2219 0
-2148 -2219 5020 0
-5021 2149 0
-5021 2236 0
-2149 -2236 5021 0
-5022 2150 0
-5022 2253 0
-2150 -2253 5022 0
-1532 -5007 0
-1532 -5008 0
-1532 -5009 0
-1532 -5010 0
-1532 -5011 0
-1532 -5012 0
-1532 -5013 0
-1532 -5014 0
-1532 -5015 0
-1532 -5016 0
-1532 -5017 0
-1532 -5018 0
-1532 -5019 0
-1532 -5020 0
-1532 -5021 0
-1532 -5022 0
-2134 1532 5007 5008 5009 5010 5011 5012 5013 5014 5015 5016 5017 5018 5019 5020 5021 5022 0
-1535 2135 0
-5023 2134 0
-5023 1964 0
-2134 -1964 5023 0
-5024 2136 0
-5024 1999 0
-2136 -1999 5024 0
-5025 2137 0
-5025 2016 0
-2137 -2016 5025 0
-5026 2138 0
-5026 2033 0
-2138 -2033 5026 0
-5027 2139 0
-5027 2050 0
-2139 -2050 5027 0
-5028 2140 0
-5028 2067 0
-2140 -2067 5028 0
-5029 2141 0
-5029 2084 0
-2141 -2084 5029 0
-5030 2142 0
-5030 2101 0
-2142 -2101 5030 0
-5031 2143 0
-5031 2118 0
-2143 -2118 5031 0
-5032 2144 0
-5032 2152 0
-2144 -2152 5032 0
-5033 2145 0
-5033 2169 0
-2145 -2169 5033 0
-5034 2146 0
-5034 2186 0
-2146 -2186 5034 0
-5035 2147 0
-5035 2203 0
-2147 -2203 5035 0
-5036 2148 0
-5036 2220 0
-2148 -2220 5036 0
-5037 2149 0
-5037 2237 0
-2149 -2237 5037 0
-5038 2150 0
-5038 2254 0
-2150 -2254 5038 0
-1535 -5023 0
-1535 -5024 0
-1535 -5025 0
-1535 -5026 0
-1535 -5027 0
-1535 -5028 0
-1535 -5029 0
-1535 -5030 0
-1535 -5031 0
-1535 -5032 0
-1535 -5033 0
-1535 -5034 0
-1535 -5035 0
-1535 -5036 0
-1535 -5037 0
-1535 -5038 0
-2135 1535 5023 5024 5025 5026 5027 5028 5029 5030 5031 5032 5033 5034 5035 5036 5037 5038 0
-1538 2136 0
-5039 2134 0
-5039 1967 0
-2134 -1967 5039 0
-5040 2135 0
-5040 1966 0
-2135 -1966 5040 0
-5041 2137 0
-5041 2017 0
-2137 -2017 5041 0
-5042 2138 0
-5042 2034 0
-2138 -2034 5042 0
-5043 2139 0
-5043 2051 0
-2139 -2051 5043 0
-5044 2140 0
-5044 2068 0
-2140 -2068 5044 0
-5045 2141 0
-5045 2085 0
-2141 -2085 5045 0
-5046 2142 0
-5046 2102 0
-2142 -2102 5046 0
-5047 2143 0
-5047 2119 0
-2143 -2119 5047 0
-5048 2144 0
-5048 2153 0
-2144 -2153 5048 0
-5049 2145 0
-5049 2170 0
-2145 -2170 5049 0
-5050 2146 0
-5050 2187 0
-2146 -2187 5050 0
-5051 2147 0
-5051 2204 0
-2147 -2204 5051 0
-5052 2148 0
-5052 2221 0
-2148 -2221 5052 0
-5053 2149 0
-5053 2238 0
-2149 -2238 5053 0
-5054 2150 0
-5054 2255 0
-2150 -2255 5054 0
-1538 -5039 0
-1538 -5040 0
-1538 -5041 0
-1538 -5042 0
-1538 -5043 0
-1538 -5044 0
-1538 -5045 0
-1538 -5046 0
-1538 -5047 0
-1538 -5048 0
-1538 -5049 0
-1538 -5050 0
-1538 -5051 0
-1538 -5052 0
-1538 -5053 0
-1538 -5054 0
-2136 1538 5039 5040 5041 5042 5043 5044 5045 5046 5047 5048 5049 5050 5051 5052 5053 5054 0
-1541 2137 0
-5055 2134 0
-5055 1969 0
-2134 -1969 5055 0
-5056 2135 0
-5056 1968 0
-2135 -1968 5056 0
-5057 2136 0
-5057 2000 0
-2136 -2000 5057 0
-5058 2138 0
-5058 2035 0
-2138 -2035 5058 0
-5059 2139 0
-5059 2052 0
-2139 -2052 5059 0
-5060 2140 0
-5060 2069 0
-2140 -2069 5060 0
-5061 2141 0
-5061 2086 0
-2141 -2086 5061 0
-5062 2142 0
-5062 2103 0
-2142 -2103 5062 0
-5063 2143 0
-5063 2120 0
-2143 -2120 5063 0
-5064 2144 0
-5064 2154 0
-2144 -2154 5064 0
-5065 2145 0
-5065 2171 0
-2145 -2171 5065 0
-5066 2146 0
-5066 2188 0
-2146 -2188 5066 0
-5067 2147 0
-5067 2205 0
-2147 -2205 5067 0
-5068 2148 0
-5068 2222 0
-2148 -2222 5068 0
-5069 2149 0
-5069 2239 0
-2149 -2239 5069 0
-5070 2150 0
-5070 2256 0
-2150 -2256 5070 0
-1541 -5055 0
-1541 -5056 0
-1541 -5057 0
-1541 -5058 0
-1541 -5059 0
-1541 -5060 0
-1541 -5061 0
-1541 -5062 0
-1541 -5063 0
-1541 -5064 0
-1541 -5065 0
-1541 -5066 0
-1541 -5067 0
-1541 -5068 0
-1541 -5069 0
-1541 -5070 0
-2137 1541 5055 5056 5057 5058 5059 5060 5061 5062 5063 5064 5065 5066 5067 5068 5069 5070 0
-1544 2138 0
-5071 2134 0
-5071 1971 0
-2134 -1971 5071 0
-5072 2135 0
-5072 1970 0
-2135 -1970 5072 0
-5073 2136 0
-5073 2001 0
-2136 -2001 5073 0
-5074 2137 0
-5074 2018 0
-2137 -2018 5074 0
-5075 2139 0
-5075 2053 0
-2139 -2053 5075 0
-5076 2140 0
-5076 2070 0
-2140 -2070 5076 0
-5077 2141 0
-5077 2087 0
-2141 -2087 5077 0
-5078 2142 0
-5078 2104 0
-2142 -2104 5078 0
-5079 2143 0
-5079 2121 0
-2143 -2121 5079 0
-5080 2144 0
-5080 2155 0
-2144 -2155 5080 0
-5081 2145 0
-5081 2172 0
-2145 -2172 5081 0
-5082 2146 0
-5082 2189 0
-2146 -2189 5082 0
-5083 2147 0
-5083 2206 0
-2147 -2206 5083 0
-5084 2148 0
-5084 2223 0
-2148 -2223 5084 0
-5085 2149 0
-5085 2240 0
-2149 -2240 5085 0
-5086 2150 0
-5086 2257 0
-2150 -2257 5086 0
-1544 -5071 0
-1544 -5072 0
-1544 -5073 0
-1544 -5074 0
-1544 -5075 0
-1544 -5076 0
-1544 -5077 0
-1544 -5078 0
-1544 -5079 0
-1544 -5080 0
-1544 -5081 0
-1544 -5082 0
-1544 -5083 0
-1544 -5084 0
-1544 -5085 0
-1544 -5086 0
-2138 1544 5071 5072 5073 5074 5075 5076 5077 5078 5079 5080 5081 5082 5083 5084 5085 5086 0
-1547 2139 0
-5087 2134 0
-5087 1973 0
-2134 -1973 5087 0
-5088 2135 0
-5088 1972 0
-2135 -1972 5088 0
-5089 2136 0
-5089 2002 0
-2136 -2002 5089 0
-5090 2137 0
-5090 2019 0
-2137 -2019 5090 0
-5091 2138 0
-5091 2036 0
-2138 -2036 5091 0
-5092 2140 0
-5092 2071 0
-2140 -2071 5092 0
-5093 2141 0
-5093 2088 0
-2141 -2088 5093 0
-5094 2142 0
-5094 2105 0
-2142 -2105 5094 0
-5095 2143 0
-5095 2122 0
-2143 -2122 5095 0
-5096 2144 0
-5096 2156 0
-2144 -2156 5096 0
-5097 2145 0
-5097 2173 0
-2145 -2173 5097 0
-5098 2146 0
-5098 2190 0
-2146 -2190 5098 0
-5099 2147 0
-5099 2207 0
-2147 -2207 5099 0
-5100 2148 0
-5100 2224 0
-2148 -2224 5100 0
-5101 2149 0
-5101 2241 0
-2149 -2241 5101 0
-5102 2150 0
-5102 2258 0
-2150 -2258 5102 0
-1547 -5087 0
-1547 -5088 0
-1547 -5089 0
-1547 -5090 0
-1547 -5091 0
-1547 -5092 0
-1547 -5093 0
-1547 -5094 0
-1547 -5095 0
-1547 -5096 0
-1547 -5097 0
-1547 -5098 0
-1547 -5099 0
-1547 -5100 0
-1547 -5101 0
-1547 -5102 0
-2139 1547 5087 5088 5089 5090 5091 5092 5093 5094 5095 5096 5097 5098 5099 5100 5101 5102 0
-1550 2140 0
-5103 2134 0
-5103 1975 0
-2134 -1975 5103 0
-5104 2135 0
-5104 1974 0
-2135 -1974 5104 0
-5105 2136 0
-5105 2003 0
-2136 -2003 5105 0
-5106 2137 0
-5106 2020 0
-2137 -2020 5106 0
-5107 2138 0
-5107 2037 0
-2138 -2037 5107 0
-5108 2139 0
-5108 2054 0
-2139 -2054 5108 0
-5109 2141 0
-5109 2089 0
-2141 -2089 5109 0
-5110 2142 0
-5110 2106 0
-2142 -2106 5110 0
-5111 2143 0
-5111 2123 0
-2143 -2123 5111 0
-5112 2144 0
-5112 2157 0
-2144 -2157 5112 0
-5113 2145 0
-5113 2174 0
-2145 -2174 5113 0
-5114 2146 0
-5114 2191 0
-2146 -2191 5114 0
-5115 2147 0
-5115 2208 0
-2147 -2208 5115 0
-5116 2148 0
-5116 2225 0
-2148 -2225 5116 0
-5117 2149 0
-5117 2242 0
-2149 -2242 5117 0
-5118 2150 0
-5118 2259 0
-2150 -2259 5118 0
-1550 -5103 0
-1550 -5104 0
-1550 -5105 0
-1550 -5106 0
-1550 -5107 0
-1550 -5108 0
-1550 -5109 0
-1550 -5110 0
-1550 -5111 0
-1550 -5112 0
-1550 -5113 0
-1550 -5114 0
-1550 -5115 0
-1550 -5116 0
-1550 -5117 0
-1550 -5118 0
-2140 1550 5103 5104 5105 5106 5107 5108 5109 5110 5111 5112 5113 5114 5115 5116 5117 5118 0
-1553 2141 0
-5119 2134 0
-5119 1977 0
-2134 -1977 5119 0
-5120 2135 0
-5120 1976 0
-2135 -1976 5120 0
-5121 2136 0
-5121 2004 0
-2136 -2004 5121 0
-5122 2137 0
-5122 2021 0
-2137 -2021 5122 0
-5123 2138 0
-5123 2038 0
-2138 -2038 5123 0
-5124 2139 0
-5124 2055 0
-2139 -2055 5124 0
-5125 2140 0
-5125 2072 0
-2140 -2072 5125 0
-5126 2142 0
-5126 2107 0
-2142 -2107 5126 0
-5127 2143 0
-5127 2124 0
-2143 -2124 5127 0
-5128 2144 0
-5128 2158 0
-2144 -2158 5128 0
-5129 2145 0
-5129 2175 0
-2145 -2175 5129 0
-5130 2146 0
-5130 2192 0
-2146 -2192 5130 0
-5131 2147 0
-5131 2209 0
-2147 -2209 5131 0
-5132 2148 0
-5132 2226 0
-2148 -2226 5132 0
-5133 2149 0
-5133 2243 0
-2149 -2243 5133 0
-5134 2150 0
-5134 2260 0
-2150 -2260 5134 0
-1553 -5119 0
-1553 -5120 0
-1553 -5121 0
-1553 -5122 0
-1553 -5123 0
-1553 -5124 0
-1553 -5125 0
-1553 -5126 0
-1553 -5127 0
-1553 -5128 0
-1553 -5129 0
-1553 -5130 0
-1553 -5131 0
-1553 -5132 0
-1553 -5133 0
-1553 -5134 0
-2141 1553 5119 5120 5121 5122 5123 5124 5125 5126 5127 5128 5129 5130 5131 5132 5133 5134 0
-1556 2142 0
-5135 2134 0
-5135 1979 0
-2134 -1979 5135 0
-5136 2135 0
-5136 1978 0
-2135 -1978 5136 0
-5137 2136 0
-5137 2005 0
-2136 -2005 5137 0
-5138 2137 0
-5138 2022 0
-2137 -2022 5138 0
-5139 2138 0
-5139 2039 0
-2138 -2039 5139 0
-5140 2139 0
-5140 2056 0
-2139 -2056 5140 0
-5141 2140 0
-5141 2073 0
-2140 -2073 5141 0
-5142 2141 0
-5142 2090 0
-2141 -2090 5142 0
-5143 2143 0
-5143 2125 0
-2143 -2125 5143 0
-5144 2144 0
-5144 2159 0
-2144 -2159 5144 0
-5145 2145 0
-5145 2176 0
-2145 -2176 5145 0
-5146 2146 0
-5146 2193 0
-2146 -2193 5146 0
-5147 2147 0
-5147 2210 0
-2147 -2210 5147 0
-5148 2148 0
-5148 2227 0
-2148 -2227 5148 0
-5149 2149 0
-5149 2244 0
-2149 -2244 5149 0
-5150 2150 0
-5150 2261 0
-2150 -2261 5150 0
-1556 -5135 0
-1556 -5136 0
-1556 -5137 0
-1556 -5138 0
-1556 -5139 0
-1556 -5140 0
-1556 -5141 0
-1556 -5142 0
-1556 -5143 0
-1556 -5144 0
-1556 -5145 0
-1556 -5146 0
-1556 -5147 0
-1556 -5148 0
-1556 -5149 0
-1556 -5150 0
-2142 1556 5135 5136 5137 5138 5139 5140 5141 5142 5143 5144 5145 5146 5147 5148 5149 5150 0
-1559 2143 0
-5151 2134 0
-5151 1981 0
-2134 -1981 5151 0
-5152 2135 0
-5152 1980 0
-2135 -1980 5152 0
-5153 2136 0
-5153 2006 0
-2136 -2006 5153 0
-5154 2137 0
-5154 2023 0
-2137 -2023 5154 0
-5155 2138 0
-5155 2040 0
-2138 -2040 5155 0
-5156 2139 0
-5156 2057 0
-2139 -2057 5156 0
-5157 2140 0
-5157 2074 0
-2140 -2074 5157 0
-5158 2141 0
-5158 2091 0
-2141 -2091 5158 0
-5159 2142 0
-5159 2108 0
-2142 -2108 5159 0
-5160 2144 0
-5160 2160 0
-2144 -2160 5160 0
-5161 2145 0
-5161 2177 0
-2145 -2177 5161 0
-5162 2146 0
-5162 2194 0
-2146 -2194 5162 0
-5163 2147 0
-5163 2211 0
-2147 -2211 5163 0
-5164 2148 0
-5164 2228 0
-2148 -2228 5164 0
-5165 2149 0
-5165 2245 0
-2149 -2245 5165 0
-5166 2150 0
-5166 2262 0
-2150 -2262 5166 0
-1559 -5151 0
-1559 -5152 0
-1559 -5153 0
-1559 -5154 0
-1559 -5155 0
-1559 -5156 0
-1559 -5157 0
-1559 -5158 0
-1559 -5159 0
-1559 -5160 0
-1559 -5161 0
-1559 -5162 0
-1559 -5163 0
-1559 -5164 0
-1559 -5165 0
-1559 -5166 0
-2143 1559 5151 5152 5153 5154 5155 5156 5157 5158 5159 5160 5161 5162 5163 5164 5165 5166 0
-1562 0
-1565 2144 0
-5167 2134 0
-5167 1985 0
-2134 -1985 5167 0
-5168 2135 0
-5168 1984 0
-2135 -1984 5168 0
-5169 2136 0
-5169 2008 0
-2136 -2008 5169 0
-5170 2137 0
-5170 2025 0
-2137 -2025 5170 0
-5171 2138 0
-5171 2042 0
-2138 -2042 5171 0
-5172 2139 0
-5172 2059 0
-2139 -2059 5172 0
-5173 2140 0
-5173 2076 0
-2140 -2076 5173 0
-5174 2141 0
-5174 2093 0
-2141 -2093 5174 0
-5175 2142 0
-5175 2110 0
-2142 -2110 5175 0
-5176 2143 0
-5176 2127 0
-2143 -2127 5176 0
-5177 2145 0
-5177 2179 0
-2145 -2179 5177 0
-5178 2146 0
-5178 2196 0
-2146 -2196 5178 0
-5179 2147 0
-5179 2213 0
-2147 -2213 5179 0
-5180 2148 0
-5180 2230 0
-2148 -2230 5180 0
-5181 2149 0
-5181 2247 0
-2149 -2247 5181 0
-5182 2150 0
-5182 2264 0
-2150 -2264 5182 0
-1565 -5167 0
-1565 -5168 0
-1565 -5169 0
-1565 -5170 0
-1565 -5171 0
-1565 -5172 0
-1565 -5173 0
-1565 -5174 0
-1565 -5175 0
-1565 -5176 0
-1565 -5177 0
-1565 -5178 0
-1565 -5179 0
-1565 -5180 0
-1565 -5181 0
-1565 -5182 0
-2144 1565 5167 5168 5169 5170 5171 5172 5173 5174 5175 5176 5177 5178 5179 5180 5181 5182 0
-1568 2145 0
-5183 2134 0
-5183 1987 0
-2134 -1987 5183 0
-5184 2135 0
-5184 1986 0
-2135 -1986 5184 0
-5185 2136 0
-5185 2009 0
-2136 -2009 5185 0
-5186 2137 0
-5186 2026 0
-2137 -2026 5186 0
-5187 2138 0
-5187 2043 0
-2138 -2043 5187 0
-5188 2139 0
-5188 2060 0
-2139 -2060 5188 0
-5189 2140 0
-5189 2077 0
-2140 -2077 5189 0
-5190 2141 0
-5190 2094 0
-2141 -2094 5190 0
-5191 2142 0
-5191 2111 0
-2142 -2111 5191 0
-5192 2143 0
-5192 2128 0
-2143 -2128 5192 0
-5193 2144 0
-5193 2162 0
-2144 -2162 5193 0
-5194 2146 0
-5194 2197 0
-2146 -2197 5194 0
-5195 2147 0
-5195 2214 0
-2147 -2214 5195 0
-5196 2148 0
-5196 2231 0
-2148 -2231 5196 0
-5197 2149 0
-5197 2248 0
-2149 -2248 5197 0
-5198 2150 0
-5198 2265 0
-2150 -2265 5198 0
-1568 -5183 0
-1568 -5184 0
-1568 -5185 0
-1568 -5186 0
-1568 -5187 0
-1568 -5188 0
-1568 -5189 0
-1568 -5190 0
-1568 -5191 0
-1568 -5192 0
-1568 -5193 0
-1568 -5194 0
-1568 -5195 0
-1568 -5196 0
-1568 -5197 0
-1568 -5198 0
-2145 1568 5183 5184 5185 5186 5187 5188 5189 5190 5191 5192 5193 5194 5195 5196 5197 5198 0
-1571 2146 0
-5199 2134 0
-5199 1989 0
-2134 -1989 5199 0
-5200 2135 0
-5200 1988 0
-2135 -1988 5200 0
-5201 2136 0
-5201 2010 0
-2136 -2010 5201 0
-5202 2137 0
-5202 2027 0
-2137 -2027 5202 0
-5203 2138 0
-5203 2044 0
-2138 -2044 5203 0
-5204 2139 0
-5204 2061 0
-2139 -2061 5204 0
-5205 2140 0
-5205 2078 0
-2140 -2078 5205 0
-5206 2141 0
-5206 2095 0
-2141 -2095 5206 0
-5207 2142 0
-5207 2112 0
-2142 -2112 5207 0
-5208 2143 0
-5208 2129 0
-2143 -2129 5208 0
-5209 2144 0
-5209 2163 0
-2144 -2163 5209 0
-5210 2145 0
-5210 2180 0
-2145 -2180 5210 0
-5211 2147 0
-5211 2215 0
-2147 -2215 5211 0
-5212 2148 0
-5212 2232 0
-2148 -2232 5212 0
-5213 2149 0
-5213 2249 0
-2149 -2249 5213 0
-5214 2150 0
-5214 2266 0
-2150 -2266 5214 0
-1571 -5199 0
-1571 -5200 0
-1571 -5201 0
-1571 -5202 0
-1571 -5203 0
-1571 -5204 0
-1571 -5205 0
-1571 -5206 0
-1571 -5207 0
-1571 -5208 0
-1571 -5209 0
-1571 -5210 0
-1571 -5211 0
-1571 -5212 0
-1571 -5213 0
-1571 -5214 0
-2146 1571 5199 5200 5201 5202 5203 5204 5205 5206 5207 5208 5209 5210 5211 5212 5213 5214 0
-1574 2147 0
-5215 2134 0
-5215 1991 0
-2134 -1991 5215 0
-5216 2135 0
-5216 1990 0
-2135 -1990 5216 0
-5217 2136 0
-5217 2011 0
-2136 -2011 5217 0
-5218 2137 0
-5218 2028 0
-2137 -2028 5218 0
-5219 2138 0
-5219 2045 0
-2138 -2045 5219 0
-5220 2139 0
-5220 2062 0
-2139 -2062 5220 0
-5221 2140 0
-5221 2079 0
-2140 -2079 5221 0
-5222 2141 0
-5222 2096 0
-2141 -2096 5222 0
-5223 2142 0
-5223 2113 0
-2142 -2113 5223 0
-5224 2143 0
-5224 2130 0
-2143 -2130 5224 0
-5225 2144 0
-5225 2164 0
-2144 -2164 5225 0
-5226 2145 0
-5226 2181 0
-2145 -2181 5226 0
-5227 2146 0
-5227 2198 0
-2146 -2198 5227 0
-5228 2148 0
-5228 2233 0
-2148 -2233 5228 0
-5229 2149 0
-5229 2250 0
-2149 -2250 5229 0
-5230 2150 0
-5230 2267 0
-2150 -2267 5230 0
-1574 -5215 0
-1574 -5216 0
-1574 -5217 0
-1574 -5218 0
-1574 -5219 0
-1574 -5220 0
-1574 -5221 0
-1574 -5222 0
-1574 -5223 0
-1574 -5224 0
-1574 -5225 0
-1574 -5226 0
-1574 -5227 0
-1574 -5228 0
-1574 -5229 0
-1574 -5230 0
-2147 1574 5215 5216 5217 5218 5219 5220 5221 5222 5223 5224 5225 5226 5227 5228 5229 5230 0
-1577 2148 0
-5231 2134 0
-5231 1993 0
-2134 -1993 5231 0
-5232 2135 0
-5232 1992 0
-2135 -1992 5232 0
-5233 2136 0
-5233 2012 0
-2136 -2012 5233 0
-5234 2137 0
-5234 2029 0
-2137 -2029 5234 0
-5235 2138 0
-5235 2046 0
-2138 -2046 5235 0
-5236 2139 0
-5236 2063 0
-2139 -2063 5236 0
-5237 2140 0
-5237 2080 0
-2140 -2080 5237 0
-5238 2141 0
-5238 2097 0
-2141 -2097 5238 0
-5239 2142 0
-5239 2114 0
-2142 -2114 5239 0
-5240 2143 0
-5240 2131 0
-2143 -2131 5240 0
-5241 2144 0
-5241 2165 0
-2144 -2165 5241 0
-5242 2145 0
-5242 2182 0
-2145 -2182 5242 0
-5243 2146 0
-5243 2199 0
-2146 -2199 5243 0
-5244 2147 0
-5244 2216 0
-2147 -2216 5244 0
-5245 2149 0
-5245 2251 0
-2149 -2251 5245 0
-5246 2150 0
-5246 2268 0
-2150 -2268 5246 0
-1577 -5231 0
-1577 -5232 0
-1577 -5233 0
-1577 -5234 0
-1577 -5235 0
-1577 -5236 0
-1577 -5237 0
-1577 -5238 0
-1577 -5239 0
-1577 -5240 0
-1577 -5241 0
-1577 -5242 0
-1577 -5243 0
-1577 -5244 0
-1577 -5245 0
-1577 -5246 0
-2148 1577 5231 5232 5233 5234 5235 5236 5237 5238 5239 5240 5241 5242 5243 5244 5245 5246 0
-1580 2149 0
-5247 2134 0
-5247 1995 0
-2134 -1995 5247 0
-5248 2135 0
-5248 1994 0
-2135 -1994 5248 0
-5249 2136 0
-5249 2013 0
-2136 -2013 5249 0
-5250 2137 0
-5250 2030 0
-2137 -2030 5250 0
-5251 2138 0
-5251 2047 0
-2138 -2047 5251 0
-5252 2139 0
-5252 2064 0
-2139 -2064 5252 0
-5253 2140 0
-5253 2081 0
-2140 -2081 5253 0
-5254 2141 0
-5254 2098 0
-2141 -2098 5254 0
-5255 2142 0
-5255 2115 0
-2142 -2115 5255 0
-5256 2143 0
-5256 2132 0
-2143 -2132 5256 0
-5257 2144 0
-5257 2166 0
-2144 -2166 5257 0
-5258 2145 0
-5258 2183 0
-2145 -2183 5258 0
-5259 2146 0
-5259 2200 0
-2146 -2200 5259 0
-5260 2147 0
-5260 2217 0
-2147 -2217 5260 0
-5261 2148 0
-5261 2234 0
-2148 -2234 5261 0
-5262 2150 0
-5262 2269 0
-2150 -2269 5262 0
-1580 -5247 0
-1580 -5248 0
-1580 -5249 0
-1580 -5250 0
-1580 -5251 0
-1580 -5252 0
-1580 -5253 0
-1580 -5254 0
-1580 -5255 0
-1580 -5256 0
-1580 -5257 0
-1580 -5258 0
-1580 -5259 0
-1580 -5260 0
-1580 -5261 0
-1580 -5262 0
-2149 1580 5247 5248 5249 5250 5251 5252 5253 5254 5255 5256 5257 5258 5259 5260 5261 5262 0
-1583 2150 0
-5263 2134 0
-5263 1997 0
-2134 -1997 5263 0
-5264 2135 0
-5264 1996 0
-2135 -1996 5264 0
-5265 2136 0
-5265 2014 0
-2136 -2014 5265 0
-5266 2137 0
-5266 2031 0
-2137 -2031 5266 0
-5267 2138 0
-5267 2048 0
-2138 -2048 5267 0
-5268 2139 0
-5268 2065 0
-2139 -2065 5268 0
-5269 2140 0
-5269 2082 0
-2140 -2082 5269 0
-5270 2141 0
-5270 2099 0
-2141 -2099 5270 0
-5271 2142 0
-5271 2116 0
-2142 -2116 5271 0
-5272 2143 0
-5272 2133 0
-2143 -2133 5272 0
-5273 2144 0
-5273 2167 0
-2144 -2167 5273 0
-5274 2145 0
-5274 2184 0
-2145 -2184 5274 0
-5275 2146 0
-5275 2201 0
-2146 -2201 5275 0
-5276 2147 0
-5276 2218 0
-2147 -2218 5276 0
-5277 2148 0
-5277 2235 0
-2148 -2235 5277 0
-5278 2149 0
-5278 2252 0
-2149 -2252 5278 0
-1583 -5263 0
-1583 -5264 0
-1583 -5265 0
-1583 -5266 0
-1583 -5267 0
-1583 -5268 0
-1583 -5269 0
-1583 -5270 0
-1583 -5271 0
-1583 -5272 0
-1583 -5273 0
-1583 -5274 0
-1583 -5275 0
-1583 -5276 0
-1583 -5277 0
-1583 -5278 0
-2150 1583 5263 5264 5265 5266 5267 5268 5269 5270 5271 5272 5273 5274 5275 5276 5277 5278 0
-1586 2151 0
-5279 2152 0
-5279 1965 0
-2152 -1965 5279 0
-5280 2153 0
-5280 1998 0
-2153 -1998 5280 0
-5281 2154 0
-5281 2015 0
-2154 -2015 5281 0
-5282 2155 0
-5282 2032 0
-2155 -2032 5282 0
-5283 2156 0
-5283 2049 0
-2156 -2049 5283 0
-5284 2157 0
-5284 2066 0
-2157 -2066 5284 0
-5285 2158 0
-5285 2083 0
-2158 -2083 5285 0
-5286 2159 0
-5286 2100 0
-2159 -2100 5286 0
-5287 2160 0
-5287 2117 0
-2160 -2117 5287 0
-5288 2161 0
-5288 2134 0
-2161 -2134 5288 0
-5289 2162 0
-5289 2168 0
-2162 -2168 5289 0
-5290 2163 0
-5290 2185 0
-2163 -2185 5290 0
-5291 2164 0
-5291 2202 0
-2164 -2202 5291 0
-5292 2165 0
-5292 2219 0
-2165 -2219 5292 0
-5293 2166 0
-5293 2236 0
-2166 -2236 5293 0
-5294 2167 0
-5294 2253 0
-2167 -2253 5294 0
-1586 -5279 0
-1586 -5280 0
-1586 -5281 0
-1586 -5282 0
-1586 -5283 0
-1586 -5284 0
-1586 -5285 0
-1586 -5286 0
-1586 -5287 0
-1586 -5288 0
-1586 -5289 0
-1586 -5290 0
-1586 -5291 0
-1586 -5292 0
-1586 -5293 0
-1586 -5294 0
-2151 1586 5279 5280 5281 5282 5283 5284 5285 5286 5287 5288 5289 5290 5291 5292 5293 5294 0
-1589 2152 0
-5295 2151 0
-5295 1964 0
-2151 -1964 5295 0
-5296 2153 0
-5296 1999 0
-2153 -1999 5296 0
-5297 2154 0
-5297 2016 0
-2154 -2016 5297 0
-5298 2155 0
-5298 2033 0
-2155 -2033 5298 0
-5299 2156 0
-5299 2050 0
-2156 -2050 5299 0
-5300 2157 0
-5300 2067 0
-2157 -2067 5300 0
-5301 2158 0
-5301 2084 0
-2158 -2084 5301 0
-5302 2159 0
-5302 2101 0
-2159 -2101 5302 0
-5303 2160 0
-5303 2118 0
-2160 -2118 5303 0
-5304 2161 0
-5304 2135 0
-2161 -2135 5304 0
-5305 2162 0
-5305 2169 0
-2162 -2169 5305 0
-5306 2163 0
-5306 2186 0
-2163 -2186 5306 0
-5307 2164 0
-5307 2203 0
-2164 -2203 5307 0
-5308 2165 0
-5308 2220 0
-2165 -2220 5308 0
-5309 2166 0
-5309 2237 0
-2166 -2237 5309 0
-5310 2167 0
-5310 2254 0
-2167 -2254 5310 0
-1589 -5295 0
-1589 -5296 0
-1589 -5297 0
-1589 -5298 0
-1589 -5299 0
-1589 -5300 0
-1589 -5301 0
-1589 -5302 0
-1589 -5303 0
-1589 -5304 0
-1589 -5305 0
-1589 -5306 0
-1589 -5307 0
-1589 -5308 0
-1589 -5309 0
-1589 -5310 0
-2152 1589 5295 5296 5297 5298 5299 5300 5301 5302 5303 5304 5305 5306 5307 5308 5309 5310 0
-1592 2153 0
-5311 2151 0
-5311 1967 0
-2151 -1967 5311 0
-5312 2152 0
-5312 1966 0
-2152 -1966 5312 0
-5313 2154 0
-5313 2017 0
-2154 -2017 5313 0
-5314 2155 0
-5314 2034 0
-2155 -2034 5314 0
-5315 2156 0
-5315 2051 0
-2156 -2051 5315 0
-5316 2157 0
-5316 2068 0
-2157 -2068 5316 0
-5317 2158 0
-5317 2085 0
-2158 -2085 5317 0
-5318 2159 0
-5318 2102 0
-2159 -2102 5318 0
-5319 2160 0
-5319 2119 0
-2160 -2119 5319 0
-5320 2161 0
-5320 2136 0
-2161 -2136 5320 0
-5321 2162 0
-5321 2170 0
-2162 -2170 5321 0
-5322 2163 0
-5322 2187 0
-2163 -2187 5322 0
-5323 2164 0
-5323 2204 0
-2164 -2204 5323 0
-5324 2165 0
-5324 2221 0
-2165 -2221 5324 0
-5325 2166 0
-5325 2238 0
-2166 -2238 5325 0
-5326 2167 0
-5326 2255 0
-2167 -2255 5326 0
-1592 -5311 0
-1592 -5312 0
-1592 -5313 0
-1592 -5314 0
-1592 -5315 0
-1592 -5316 0
-1592 -5317 0
-1592 -5318 0
-1592 -5319 0
-1592 -5320 0
-1592 -5321 0
-1592 -5322 0
-1592 -5323 0
-1592 -5324 0
-1592 -5325 0
-1592 -5326 0
-2153 1592 5311 5312 5313 5314 5315 5316 5317 5318 5319 5320 5321 5322 5323 5324 5325 5326 0
-1595 2154 0
-5327 2151 0
-5327 1969 0
-2151 -1969 5327 0
-5328 2152 0
-5328 1968 0
-2152 -1968 5328 0
-5329 2153 0
-5329 2000 0
-2153 -2000 5329 0
-5330 2155 0
-5330 2035 0
-2155 -2035 5330 0
-5331 2156 0
-5331 2052 0
-2156 -2052 5331 0
-5332 2157 0
-5332 2069 0
-2157 -2069 5332 0
-5333 2158 0
-5333 2086 0
-2158 -2086 5333 0
-5334 2159 0
-5334 2103 0
-2159 -2103 5334 0
-5335 2160 0
-5335 2120 0
-2160 -2120 5335 0
-5336 2161 0
-5336 2137 0
-2161 -2137 5336 0
-5337 2162 0
-5337 2171 0
-2162 -2171 5337 0
-5338 2163 0
-5338 2188 0
-2163 -2188 5338 0
-5339 2164 0
-5339 2205 0
-2164 -2205 5339 0
-5340 2165 0
-5340 2222 0
-2165 -2222 5340 0
-5341 2166 0
-5341 2239 0
-2166 -2239 5341 0
-5342 2167 0
-5342 2256 0
-2167 -2256 5342 0
-1595 -5327 0
-1595 -5328 0
-1595 -5329 0
-1595 -5330 0
-1595 -5331 0
-1595 -5332 0
-1595 -5333 0
-1595 -5334 0
-1595 -5335 0
-1595 -5336 0
-1595 -5337 0
-1595 -5338 0
-1595 -5339 0
-1595 -5340 0
-1595 -5341 0
-1595 -5342 0
-2154 1595 5327 5328 5329 5330 5331 5332 5333 5334 5335 5336 5337 5338 5339 5340 5341 5342 0
-1598 2155 0
-5343 2151 0
-5343 1971 0
-2151 -1971 5343 0
-5344 2152 0
-5344 1970 0
-2152 -1970 5344 0
-5345 2153 0
-5345 2001 0
-2153 -2001 5345 0
-5346 2154 0
-5346 2018 0
-2154 -2018 5346 0
-5347 2156 0
-5347 2053 0
-2156 -2053 5347 0
-5348 2157 0
-5348 2070 0
-2157 -2070 5348 0
-5349 2158 0
-5349 2087 0
-2158 -2087 5349 0
-5350 2159 0
-5350 2104 0
-2159 -2104 5350 0
-5351 2160 0
-5351 2121 0
-2160 -2121 5351 0
-5352 2161 0
-5352 2138 0
-2161 -2138 5352 0
-5353 2162 0
-5353 2172 0
-2162 -2172 5353 0
-5354 2163 0
-5354 2189 0
-2163 -2189 5354 0
-5355 2164 0
-5355 2206 0
-2164 -2206 5355 0
-5356 2165 0
-5356 2223 0
-2165 -2223 5356 0
-5357 2166 0
-5357 2240 0
-2166 -2240 5357 0
-5358 2167 0
-5358 2257 0
-2167 -2257 5358 0
-1598 -5343 0
-1598 -5344 0
-1598 -5345 0
-1598 -5346 0
-1598 -5347 0
-1598 -5348 0
-1598 -5349 0
-1598 -5350 0
-1598 -5351 0
-1598 -5352 0
-1598 -5353 0
-1598 -5354 0
-1598 -5355 0
-1598 -5356 0
-1598 -5357 0
-1598 -5358 0
-2155 1598 5343 5344 5345 5346 5347 5348 5349 5350 5351 5352 5353 5354 5355 5356 5357 5358 0
-1601 2156 0
-5359 2151 0
-5359 1973 0
-2151 -1973 5359 0
-5360 2152 0
-5360 1972 0
-2152 -1972 5360 0
-5361 2153 0
-5361 2002 0
-2153 -2002 5361 0
-5362 2154 0
-5362 2019 0
-2154 -2019 5362 0
-5363 2155 0
-5363 2036 0
-2155 -2036 5363 0
-5364 2157 0
-5364 2071 0
-2157 -2071 5364 0
-5365 2158 0
-5365 2088 0
-2158 -2088 5365 0
-5366 2159 0
-5366 2105 0
-2159 -2105 5366 0
-5367 2160 0
-5367 2122 0
-2160 -2122 5367 0
-5368 2161 0
-5368 2139 0
-2161 -2139 5368 0
-5369 2162 0
-5369 2173 0
-2162 -2173 5369 0
-5370 2163 0
-5370 2190 0
-2163 -2190 5370 0
-5371 2164 0
-5371 2207 0
-2164 -2207 5371 0
-5372 2165 0
-5372 2224 0
-2165 -2224 5372 0
-5373 2166 0
-5373 2241 0
-2166 -2241 5373 0
-5374 2167 0
-5374 2258 0
-2167 -2258 5374 0
-1601 -5359 0
-1601 -5360 0
-1601 -5361 0
-1601 -5362 0
-1601 -5363 0
-1601 -5364 0
-1601 -5365 0
-1601 -5366 0
-1601 -5367 0
-1601 -5368 0
-1601 -5369 0
-1601 -5370 0
-1601 -5371 0
-1601 -5372 0
-1601 -5373 0
-1601 -5374 0
-2156 1601 5359 5360 5361 5362 5363 5364 5365 5366 5367 5368 5369 5370 5371 5372 5373 5374 0
-1604 2157 0
-5375 2151 0
-5375 1975 0
-2151 -1975 5375 0
-5376 2152 0
-5376 1974 0
-2152 -1974 5376 0
-5377 2153 0
-5377 2003 0
-2153 -2003 5377 0
-5378 2154 0
-5378 2020 0
-2154 -2020 5378 0
-5379 2155 0
-5379 2037 0
-2155 -2037 5379 0
-5380 2156 0
-5380 2054 0
-2156 -2054 5380 0
-5381 2158 0
-5381 2089 0
-2158 -2089 5381 0
-5382 2159 0
-5382 2106 0
-2159 -2106 5382 0
-5383 2160 0
-5383 2123 0
-2160 -2123 5383 0
-5384 2161 0
-5384 2140 0
-2161 -2140 5384 0
-5385 2162 0
-5385 2174 0
-2162 -2174 5385 0
-5386 2163 0
-5386 2191 0
-2163 -2191 5386 0
-5387 2164 0
-5387 2208 0
-2164 -2208 5387 0
-5388 2165 0
-5388 2225 0
-2165 -2225 5388 0
-5389 2166 0
-5389 2242 0
-2166 -2242 5389 0
-5390 2167 0
-5390 2259 0
-2167 -2259 5390 0
-1604 -5375 0
-1604 -5376 0
-1604 -5377 0
-1604 -5378 0
-1604 -5379 0
-1604 -5380 0
-1604 -5381 0
-1604 -5382 0
-1604 -5383 0
-1604 -5384 0
-1604 -5385 0
-1604 -5386 0
-1604 -5387 0
-1604 -5388 0
-1604 -5389 0
-1604 -5390 0
-2157 1604 5375 5376 5377 5378 5379 5380 5381 5382 5383 5384 5385 5386 5387 5388 5389 5390 0
-1607 2158 0
-5391 2151 0
-5391 1977 0
-2151 -1977 5391 0
-5392 2152 0
-5392 1976 0
-2152 -1976 5392 0
-5393 2153 0
-5393 2004 0
-2153 -2004 5393 0
-5394 2154 0
-5394 2021 0
-2154 -2021 5394 0
-5395 2155 0
-5395 2038 0
-2155 -2038 5395 0
-5396 2156 0
-5396 2055 0
-2156 -2055 5396 0
-5397 2157 0
-5397 2072 0
-2157 -2072 5397 0
-5398 2159 0
-5398 2107 0
-2159 -2107 5398 0
-5399 2160 0
-5399 2124 0
-2160 -2124 5399 0
-5400 2161 0
-5400 2141 0
-2161 -2141 5400 0
-5401 2162 0
-5401 2175 0
-2162 -2175 5401 0
-5402 2163 0
-5402 2192 0
-2163 -2192 5402 0
-5403 2164 0
-5403 2209 0
-2164 -2209 5403 0
-5404 2165 0
-5404 2226 0
-2165 -2226 5404 0
-5405 2166 0
-5405 2243 0
-2166 -2243 5405 0
-5406 2167 0
-5406 2260 0
-2167 -2260 5406 0
-1607 -5391 0
-1607 -5392 0
-1607 -5393 0
-1607 -5394 0
-1607 -5395 0
-1607 -5396 0
-1607 -5397 0
-1607 -5398 0
-1607 -5399 0
-1607 -5400 0
-1607 -5401 0
-1607 -5402 0
-1607 -5403 0
-1607 -5404 0
-1607 -5405 0
-1607 -5406 0
-2158 1607 5391 5392 5393 5394 5395 5396 5397 5398 5399 5400 5401 5402 5403 5404 5405 5406 0
-1610 2159 0
-5407 2151 0
-5407 1979 0
-2151 -1979 5407 0
-5408 2152 0
-5408 1978 0
-2152 -1978 5408 0
-5409 2153 0
-5409 2005 0
-2153 -2005 5409 0
-5410 2154 0
-5410 2022 0
-2154 -2022 5410 0
-5411 2155 0
-5411 2039 0
-2155 -2039 5411 0
-5412 2156 0
-5412 2056 0
-2156 -2056 5412 0
-5413 2157 0
-5413 2073 0
-2157 -2073 5413 0
-5414 2158 0
-5414 2090 0
-2158 -2090 5414 0
-5415 2160 0
-5415 2125 0
-2160 -2125 5415 0
-5416 2161 0
-5416 2142 0
-2161 -2142 5416 0
-5417 2162 0
-5417 2176 0
-2162 -2176 5417 0
-5418 2163 0
-5418 2193 0
-2163 -2193 5418 0
-5419 2164 0
-5419 2210 0
-2164 -2210 5419 0
-5420 2165 0
-5420 2227 0
-2165 -2227 5420 0
-5421 2166 0
-5421 2244 0
-2166 -2244 5421 0
-5422 2167 0
-5422 2261 0
-2167 -2261 5422 0
-1610 -5407 0
-1610 -5408 0
-1610 -5409 0
-1610 -5410 0
-1610 -5411 0
-1610 -5412 0
-1610 -5413 0
-1610 -5414 0
-1610 -5415 0
-1610 -5416 0
-1610 -5417 0
-1610 -5418 0
-1610 -5419 0
-1610 -5420 0
-1610 -5421 0
-1610 -5422 0
-2159 1610 5407 5408 5409 5410 5411 5412 5413 5414 5415 5416 5417 5418 5419 5420 5421 5422 0
-1613 2160 0
-5423 2151 0
-5423 1981 0
-2151 -1981 5423 0
-5424 2152 0
-5424 1980 0
-2152 -1980 5424 0
-5425 2153 0
-5425 2006 0
-2153 -2006 5425 0
-5426 2154 0
-5426 2023 0
-2154 -2023 5426 0
-5427 2155 0
-5427 2040 0
-2155 -2040 5427 0
-5428 2156 0
-5428 2057 0
-2156 -2057 5428 0
-5429 2157 0
-5429 2074 0
-2157 -2074 5429 0
-5430 2158 0
-5430 2091 0
-2158 -2091 5430 0
-5431 2159 0
-5431 2108 0
-2159 -2108 5431 0
-5432 2161 0
-5432 2143 0
-2161 -2143 5432 0
-5433 2162 0
-5433 2177 0
-2162 -2177 5433 0
-5434 2163 0
-5434 2194 0
-2163 -2194 5434 0
-5435 2164 0
-5435 2211 0
-2164 -2211 5435 0
-5436 2165 0
-5436 2228 0
-2165 -2228 5436 0
-5437 2166 0
-5437 2245 0
-2166 -2245 5437 0
-5438 2167 0
-5438 2262 0
-2167 -2262 5438 0
-1613 -5423 0
-1613 -5424 0
-1613 -5425 0
-1613 -5426 0
-1613 -5427 0
-1613 -5428 0
-1613 -5429 0
-1613 -5430 0
-1613 -5431 0
-1613 -5432 0
-1613 -5433 0
-1613 -5434 0
-1613 -5435 0
-1613 -5436 0
-1613 -5437 0
-1613 -5438 0
-2160 1613 5423 5424 5425 5426 5427 5428 5429 5430 5431 5432 5433 5434 5435 5436 5437 5438 0
-1616 2161 0
-5439 2151 0
-5439 1983 0
-2151 -1983 5439 0
-5440 2152 0
-5440 1982 0
-2152 -1982 5440 0
-5441 2153 0
-5441 2007 0
-2153 -2007 5441 0
-5442 2154 0
-5442 2024 0
-2154 -2024 5442 0
-5443 2155 0
-5443 2041 0
-2155 -2041 5443 0
-5444 2156 0
-5444 2058 0
-2156 -2058 5444 0
-5445 2157 0
-5445 2075 0
-2157 -2075 5445 0
-5446 2158 0
-5446 2092 0
-2158 -2092 5446 0
-5447 2159 0
-5447 2109 0
-2159 -2109 5447 0
-5448 2160 0
-5448 2126 0
-2160 -2126 5448 0
-5449 2162 0
-5449 2178 0
-2162 -2178 5449 0
-5450 2163 0
-5450 2195 0
-2163 -2195 5450 0
-5451 2164 0
-5451 2212 0
-2164 -2212 5451 0
-5452 2165 0
-5452 2229 0
-2165 -2229 5452 0
-5453 2166 0
-5453 2246 0
-2166 -2246 5453 0
-5454 2167 0
-5454 2263 0
-2167 -2263 5454 0
-1616 -5439 0
-1616 -5440 0
-1616 -5441 0
-1616 -5442 0
-1616 -5443 0
-1616 -5444 0
-1616 -5445 0
-1616 -5446 0
-1616 -5447 0
-1616 -5448 0
-1616 -5449 0
-1616 -5450 0
-1616 -5451 0
-1616 -5452 0
-1616 -5453 0
-1616 -5454 0
-2161 1616 5439 5440 5441 5442 5443 5444 5445 5446 5447 5448 5449 5450 5451 5452 5453 5454 0
-1619 0
-1622 2162 0
-5455 2151 0
-5455 1987 0
-2151 -1987 5455 0
-5456 2152 0
-5456 1986 0
-2152 -1986 5456 0
-5457 2153 0
-5457 2009 0
-2153 -2009 5457 0
-5458 2154 0
-5458 2026 0
-2154 -2026 5458 0
-5459 2155 0
-5459 2043 0
-2155 -2043 5459 0
-5460 2156 0
-5460 2060 0
-2156 -2060 5460 0
-5461 2157 0
-5461 2077 0
-2157 -2077 5461 0
-5462 2158 0
-5462 2094 0
-2158 -2094 5462 0
-5463 2159 0
-5463 2111 0
-2159 -2111 5463 0
-5464 2160 0
-5464 2128 0
-2160 -2128 5464 0
-5465 2161 0
-5465 2145 0
-2161 -2145 5465 0
-5466 2163 0
-5466 2197 0
-2163 -2197 5466 0
-5467 2164 0
-5467 2214 0
-2164 -2214 5467 0
-5468 2165 0
-5468 2231 0
-2165 -2231 5468 0
-5469 2166 0
-5469 2248 0
-2166 -2248 5469 0
-5470 2167 0
-5470 2265 0
-2167 -2265 5470 0
-1622 -5455 0
-1622 -5456 0
-1622 -5457 0
-1622 -5458 0
-1622 -5459 0
-1622 -5460 0
-1622 -5461 0
-1622 -5462 0
-1622 -5463 0
-1622 -5464 0
-1622 -5465 0
-1622 -5466 0
-1622 -5467 0
-1622 -5468 0
-1622 -5469 0
-1622 -5470 0
-2162 1622 5455 5456 5457 5458 5459 5460 5461 5462 5463 5464 5465 5466 5467 5468 5469 5470 0
-1625 2163 0
-5471 2151 0
-5471 1989 0
-2151 -1989 5471 0
-5472 2152 0
-5472 1988 0
-2152 -1988 5472 0
-5473 2153 0
-5473 2010 0
-2153 -2010 5473 0
-5474 2154 0
-5474 2027 0
-2154 -2027 5474 0
-5475 2155 0
-5475 2044 0
-2155 -2044 5475 0
-5476 2156 0
-5476 2061 0
-2156 -2061 5476 0
-5477 2157 0
-5477 2078 0
-2157 -2078 5477 0
-5478 2158 0
-5478 2095 0
-2158 -2095 5478 0
-5479 2159 0
-5479 2112 0
-2159 -2112 5479 0
-5480 2160 0
-5480 2129 0
-2160 -2129 5480 0
-5481 2161 0
-5481 2146 0
-2161 -2146 5481 0
-5482 2162 0
-5482 2180 0
-2162 -2180 5482 0
-5483 2164 0
-5483 2215 0
-2164 -2215 5483 0
-5484 2165 0
-5484 2232 0
-2165 -2232 5484 0
-5485 2166 0
-5485 2249 0
-2166 -2249 5485 0
-5486 2167 0
-5486 2266 0
-2167 -2266 5486 0
-1625 -5471 0
-1625 -5472 0
-1625 -5473 0
-1625 -5474 0
-1625 -5475 0
-1625 -5476 0
-1625 -5477 0
-1625 -5478 0
-1625 -5479 0
-1625 -5480 0
-1625 -5481 0
-1625 -5482 0
-1625 -5483 0
-1625 -5484 0
-1625 -5485 0
-1625 -5486 0
-2163 1625 5471 5472 5473 5474 5475 5476 5477 5478 5479 5480 5481 5482 5483 5484 5485 5486 0
-1628 2164 0
-5487 2151 0
-5487 1991 0
-2151 -1991 5487 0
-5488 2152 0
-5488 1990 0
-2152 -1990 5488 0
-5489 2153 0
-5489 2011 0
-2153 -2011 5489 0
-5490 2154 0
-5490 2028 0
-2154 -2028 5490 0
-5491 2155 0
-5491 2045 0
-2155 -2045 5491 0
-5492 2156 0
-5492 2062 0
-2156 -2062 5492 0
-5493 2157 0
-5493 2079 0
-2157 -2079 5493 0
-5494 2158 0
-5494 2096 0
-2158 -2096 5494 0
-5495 2159 0
-5495 2113 0
-2159 -2113 5495 0
-5496 2160 0
-5496 2130 0
-2160 -2130 5496 0
-5497 2161 0
-5497 2147 0
-2161 -2147 5497 0
-5498 2162 0
-5498 2181 0
-2162 -2181 5498 0
-5499 2163 0
-5499 2198 0
-2163 -2198 5499 0
-5500 2165 0
-5500 2233 0
-2165 -2233 5500 0
-5501 2166 0
-5501 2250 0
-2166 -2250 5501 0
-5502 2167 0
-5502 2267 0
-2167 -2267 5502 0
-1628 -5487 0
-1628 -5488 0
-1628 -5489 0
-1628 -5490 0
-1628 -5491 0
-1628 -5492 0
-1628 -5493 0
-1628 -5494 0
-1628 -5495 0
-1628 -5496 0
-1628 -5497 0
-1628 -5498 0
-1628 -5499 0
-1628 -5500 0
-1628 -5501 0
-1628 -5502 0
-2164 1628 5487 5488 5489 5490 5491 5492 5493 5494 5495 5496 5497 5498 5499 5500 5501 5502 0
-1631 2165 0
-5503 2151 0
-5503 1993 0
-2151 -1993 5503 0
-5504 2152 0
-5504 1992 0
-2152 -1992 5504 0
-5505 2153 0
-5505 2012 0
-2153 -2012 5505 0
-5506 2154 0
-5506 2029 0
-2154 -2029 5506 0
-5507 2155 0
-5507 2046 0
-2155 -2046 5507 0
-5508 2156 0
-5508 2063 0
-2156 -2063 5508 0
-5509 2157 0
-5509 2080 0
-2157 -2080 5509 0
-5510 2158 0
-5510 2097 0
-2158 -2097 5510 0
-5511 2159 0
-5511 2114 0
-2159 -2114 5511 0
-5512 2160 0
-5512 2131 0
-2160 -2131 5512 0
-5513 2161 0
-5513 2148 0
-2161 -2148 5513 0
-5514 2162 0
-5514 2182 0
-2162 -2182 5514 0
-5515 2163 0
-5515 2199 0
-2163 -2199 5515 0
-5516 2164 0
-5516 2216 0
-2164 -2216 5516 0
-5517 2166 0
-5517 2251 0
-2166 -2251 5517 0
-5518 2167 0
-5518 2268 0
-2167 -2268 5518 0
-1631 -5503 0
-1631 -5504 0
-1631 -5505 0
-1631 -5506 0
-1631 -5507 0
-1631 -5508 0
-1631 -5509 0
-1631 -5510 0
-1631 -5511 0
-1631 -5512 0
-1631 -5513 0
-1631 -5514 0
-1631 -5515 0
-1631 -5516 0
-1631 -5517 0
-1631 -5518 0
-2165 1631 5503 5504 5505 5506 5507 5508 5509 5510 5511 5512 5513 5514 5515 5516 5517 5518 0
-1634 2166 0
-5519 2151 0
-5519 1995 0
-2151 -1995 5519 0
-5520 2152 0
-5520 1994 0
-2152 -1994 5520 0
-5521 2153 0
-5521 2013 0
-2153 -2013 5521 0
-5522 2154 0
-5522 2030 0
-2154 -2030 5522 0
-5523 2155 0
-5523 2047 0
-2155 -2047 5523 0
-5524 2156 0
-5524 2064 0
-2156 -2064 5524 0
-5525 2157 0
-5525 2081 0
-2157 -2081 5525 0
-5526 2158 0
-5526 2098 0
-2158 -2098 5526 0
-5527 2159 0
-5527 2115 0
-2159 -2115 5527 0
-5528 2160 0
-5528 2132 0
-2160 -2132 5528 0
-5529 2161 0
-5529 2149 0
-2161 -2149 5529 0
-5530 2162 0
-5530 2183 0
-2162 -2183 5530 0
-5531 2163 0
-5531 2200 0
-2163 -2200 5531 0
-5532 2164 0
-5532 2217 0
-2164 -2217 5532 0
-5533 2165 0
-5533 2234 0
-2165 -2234 5533 0
-5534 2167 0
-5534 2269 0
-2167 -2269 5534 0
-1634 -5519 0
-1634 -5520 0
-1634 -5521 0
-1634 -5522 0
-1634 -5523 0
-1634 -5524 0
-1634 -5525 0
-1634 -5526 0
-1634 -5527 0
-1634 -5528 0
-1634 -5529 0
-1634 -5530 0
-1634 -5531 0
-1634 -5532 0
-1634 -5533 0
-1634 -5534 0
-2166 1634 5519 5520 5521 5522 5523 5524 5525 5526 5527 5528 5529 5530 5531 5532 5533 5534 0
-1637 2167 0
-5535 2151 0
-5535 1997 0
-2151 -1997 5535 0
-5536 2152 0
-5536 1996 0
-2152 -1996 5536 0
-5537 2153 0
-5537 2014 0
-2153 -2014 5537 0
-5538 2154 0
-5538 2031 0
-2154 -2031 5538 0
-5539 2155 0
-5539 2048 0
-2155 -2048 5539 0
-5540 2156 0
-5540 2065 0
-2156 -2065 5540 0
-5541 2157 0
-5541 2082 0
-2157 -2082 5541 0
-5542 2158 0
-5542 2099 0
-2158 -2099 5542 0
-5543 2159 0
-5543 2116 0
-2159 -2116 5543 0
-5544 2160 0
-5544 2133 0
-2160 -2133 5544 0
-5545 2161 0
-5545 2150 0
-2161 -2150 5545 0
-5546 2162 0
-5546 2184 0
-2162 -2184 5546 0
-5547 2163 0
-5547 2201 0
-2163 -2201 5547 0
-5548 2164 0
-5548 2218 0
-2164 -2218 5548 0
-5549 2165 0
-5549 2235 0
-2165 -2235 5549 0
-5550 2166 0
-5550 2252 0
-2166 -2252 5550 0
-1637 -5535 0
-1637 -5536 0
-1637 -5537 0
-1637 -5538 0
-1637 -5539 0
-1637 -5540 0
-1637 -5541 0
-1637 -5542 0
-1637 -5543 0
-1637 -5544 0
-1637 -5545 0
-1637 -5546 0
-1637 -5547 0
-1637 -5548 0
-1637 -5549 0
-1637 -5550 0
-2167 1637 5535 5536 5537 5538 5539 5540 5541 5542 5543 5544 5545 5546 5547 5548 5549 5550 0
-1640 2168 0
-5551 2169 0
-5551 1965 0
-2169 -1965 5551 0
-5552 2170 0
-5552 1998 0
-2170 -1998 5552 0
-5553 2171 0
-5553 2015 0
-2171 -2015 5553 0
-5554 2172 0
-5554 2032 0
-2172 -2032 5554 0
-5555 2173 0
-5555 2049 0
-2173 -2049 5555 0
-5556 2174 0
-5556 2066 0
-2174 -2066 5556 0
-5557 2175 0
-5557 2083 0
-2175 -2083 5557 0
-5558 2176 0
-5558 2100 0
-2176 -2100 5558 0
-5559 2177 0
-5559 2117 0
-2177 -2117 5559 0
-5560 2178 0
-5560 2134 0
-2178 -2134 5560 0
-5561 2179 0
-5561 2151 0
-2179 -2151 5561 0
-5562 2180 0
-5562 2185 0
-2180 -2185 5562 0
-5563 2181 0
-5563 2202 0
-2181 -2202 5563 0
-5564 2182 0
-5564 2219 0
-2182 -2219 5564 0
-5565 2183 0
-5565 2236 0
-2183 -2236 5565 0
-5566 2184 0
-5566 2253 0
-2184 -2253 5566 0
-1640 -5551 0
-1640 -5552 0
-1640 -5553 0
-1640 -5554 0
-1640 -5555 0
-1640 -5556 0
-1640 -5557 0
-1640 -5558 0
-1640 -5559 0
-1640 -5560 0
-1640 -5561 0
-1640 -5562 0
-1640 -5563 0
-1640 -5564 0
-1640 -5565 0
-1640 -5566 0
-2168 1640 5551 5552 5553 5554 5555 5556 5557 5558 5559 5560 5561 5562 5563 5564 5565 5566 0
-1643 2169 0
-5567 2168 0
-5567 1964 0
-2168 -1964 5567 0
-5568 2170 0
-5568 1999 0
-2170 -1999 5568 0
-5569 2171 0
-5569 2016 0
-2171 -2016 5569 0
-5570 2172 0
-5570 2033 0
-2172 -2033 5570 0
-5571 2173 0
-5571 2050 0
-2173 -2050 5571 0
-5572 2174 0
-5572 2067 0
-2174 -2067 5572 0
-5573 2175 0
-5573 2084 0
-2175 -2084 5573 0
-5574 2176 0
-5574 2101 0
-2176 -2101 5574 0
-5575 2177 0
-5575 2118 0
-2177 -2118 5575 0
-5576 2178 0
-5576 2135 0
-2178 -2135 5576 0
-5577 2179 0
-5577 2152 0
-2179 -2152 5577 0
-5578 2180 0
-5578 2186 0
-2180 -2186 5578 0
-5579 2181 0
-5579 2203 0
-2181 -2203 5579 0
-5580 2182 0
-5580 2220 0
-2182 -2220 5580 0
-5581 2183 0
-5581 2237 0
-2183 -2237 5581 0
-5582 2184 0
-5582 2254 0
-2184 -2254 5582 0
-1643 -5567 0
-1643 -5568 0
-1643 -5569 0
-1643 -5570 0
-1643 -5571 0
-1643 -5572 0
-1643 -5573 0
-1643 -5574 0
-1643 -5575 0
-1643 -5576 0
-1643 -5577 0
-1643 -5578 0
-1643 -5579 0
-1643 -5580 0
-1643 -5581 0
-1643 -5582 0
-2169 1643 5567 5568 5569 5570 5571 5572 5573 5574 5575 5576 5577 5578 5579 5580 5581 5582 0
-1646 2170 0
-5583 2168 0
-5583 1967 0
-2168 -1967 5583 0
-5584 2169 0
-5584 1966 0
-2169 -1966 5584 0
-5585 2171 0
-5585 2017 0
-2171 -2017 5585 0
-5586 2172 0
-5586 2034 0
-2172 -2034 5586 0
-5587 2173 0
-5587 2051 0
-2173 -2051 5587 0
-5588 2174 0
-5588 2068 0
-2174 -2068 5588 0
-5589 2175 0
-5589 2085 0
-2175 -2085 5589 0
-5590 2176 0
-5590 2102 0
-2176 -2102 5590 0
-5591 2177 0
-5591 2119 0
-2177 -2119 5591 0
-5592 2178 0
-5592 2136 0
-2178 -2136 5592 0
-5593 2179 0
-5593 2153 0
-2179 -2153 5593 0
-5594 2180 0
-5594 2187 0
-2180 -2187 5594 0
-5595 2181 0
-5595 2204 0
-2181 -2204 5595 0
-5596 2182 0
-5596 2221 0
-2182 -2221 5596 0
-5597 2183 0
-5597 2238 0
-2183 -2238 5597 0
-5598 2184 0
-5598 2255 0
-2184 -2255 5598 0
-1646 -5583 0
-1646 -5584 0
-1646 -5585 0
-1646 -5586 0
-1646 -5587 0
-1646 -5588 0
-1646 -5589 0
-1646 -5590 0
-1646 -5591 0
-1646 -5592 0
-1646 -5593 0
-1646 -5594 0
-1646 -5595 0
-1646 -5596 0
-1646 -5597 0
-1646 -5598 0
-2170 1646 5583 5584 5585 5586 5587 5588 5589 5590 5591 5592 5593 5594 5595 5596 5597 5598 0
-1649 2171 0
-5599 2168 0
-5599 1969 0
-2168 -1969 5599 0
-5600 2169 0
-5600 1968 0
-2169 -1968 5600 0
-5601 2170 0
-5601 2000 0
-2170 -2000 5601 0
-5602 2172 0
-5602 2035 0
-2172 -2035 5602 0
-5603 2173 0
-5603 2052 0
-2173 -2052 5603 0
-5604 2174 0
-5604 2069 0
-2174 -2069 5604 0
-5605 2175 0
-5605 2086 0
-2175 -2086 5605 0
-5606 2176 0
-5606 2103 0
-2176 -2103 5606 0
-5607 2177 0
-5607 2120 0
-2177 -2120 5607 0
-5608 2178 0
-5608 2137 0
-2178 -2137 5608 0
-5609 2179 0
-5609 2154 0
-2179 -2154 5609 0
-5610 2180 0
-5610 2188 0
-2180 -2188 5610 0
-5611 2181 0
-5611 2205 0
-2181 -2205 5611 0
-5612 2182 0
-5612 2222 0
-2182 -2222 5612 0
-5613 2183 0
-5613 2239 0
-2183 -2239 5613 0
-5614 2184 0
-5614 2256 0
-2184 -2256 5614 0
-1649 -5599 0
-1649 -5600 0
-1649 -5601 0
-1649 -5602 0
-1649 -5603 0
-1649 -5604 0
-1649 -5605 0
-1649 -5606 0
-1649 -5607 0
-1649 -5608 0
-1649 -5609 0
-1649 -5610 0
-1649 -5611 0
-1649 -5612 0
-1649 -5613 0
-1649 -5614 0
-2171 1649 5599 5600 5601 5602 5603 5604 5605 5606 5607 5608 5609 5610 5611 5612 5613 5614 0
-1652 2172 0
-5615 2168 0
-5615 1971 0
-2168 -1971 5615 0
-5616 2169 0
-5616 1970 0
-2169 -1970 5616 0
-5617 2170 0
-5617 2001 0
-2170 -2001 5617 0
-5618 2171 0
-5618 2018 0
-2171 -2018 5618 0
-5619 2173 0
-5619 2053 0
-2173 -2053 5619 0
-5620 2174 0
-5620 2070 0
-2174 -2070 5620 0
-5621 2175 0
-5621 2087 0
-2175 -2087 5621 0
-5622 2176 0
-5622 2104 0
-2176 -2104 5622 0
-5623 2177 0
-5623 2121 0
-2177 -2121 5623 0
-5624 2178 0
-5624 2138 0
-2178 -2138 5624 0
-5625 2179 0
-5625 2155 0
-2179 -2155 5625 0
-5626 2180 0
-5626 2189 0
-2180 -2189 5626 0
-5627 2181 0
-5627 2206 0
-2181 -2206 5627 0
-5628 2182 0
-5628 2223 0
-2182 -2223 5628 0
-5629 2183 0
-5629 2240 0
-2183 -2240 5629 0
-5630 2184 0
-5630 2257 0
-2184 -2257 5630 0
-1652 -5615 0
-1652 -5616 0
-1652 -5617 0
-1652 -5618 0
-1652 -5619 0
-1652 -5620 0
-1652 -5621 0
-1652 -5622 0
-1652 -5623 0
-1652 -5624 0
-1652 -5625 0
-1652 -5626 0
-1652 -5627 0
-1652 -5628 0
-1652 -5629 0
-1652 -5630 0
-2172 1652 5615 5616 5617 5618 5619 5620 5621 5622 5623 5624 5625 5626 5627 5628 5629 5630 0
-1655 2173 0
-5631 2168 0
-5631 1973 0
-2168 -1973 5631 0
-5632 2169 0
-5632 1972 0
-2169 -1972 5632 0
-5633 2170 0
-5633 2002 0
-2170 -2002 5633 0
-5634 2171 0
-5634 2019 0
-2171 -2019 5634 0
-5635 2172 0
-5635 2036 0
-2172 -2036 5635 0
-5636 2174 0
-5636 2071 0
-2174 -2071 5636 0
-5637 2175 0
-5637 2088 0
-2175 -2088 5637 0
-5638 2176 0
-5638 2105 0
-2176 -2105 5638 0
-5639 2177 0
-5639 2122 0
-2177 -2122 5639 0
-5640 2178 0
-5640 2139 0
-2178 -2139 5640 0
-5641 2179 0
-5641 2156 0
-2179 -2156 5641 0
-5642 2180 0
-5642 2190 0
-2180 -2190 5642 0
-5643 2181 0
-5643 2207 0
-2181 -2207 5643 0
-5644 2182 0
-5644 2224 0
-2182 -2224 5644 0
-5645 2183 0
-5645 2241 0
-2183 -2241 5645 0
-5646 2184 0
-5646 2258 0
-2184 -2258 5646 0
-1655 -5631 0
-1655 -5632 0
-1655 -5633 0
-1655 -5634 0
-1655 -5635 0
-1655 -5636 0
-1655 -5637 0
-1655 -5638 0
-1655 -5639 0
-1655 -5640 0
-1655 -5641 0
-1655 -5642 0
-1655 -5643 0
-1655 -5644 0
-1655 -5645 0
-1655 -5646 0
-2173 1655 5631 5632 5633 5634 5635 5636 5637 5638 5639 5640 5641 5642 5643 5644 5645 5646 0
-1658 2174 0
-5647 2168 0
-5647 1975 0
-2168 -1975 5647 0
-5648 2169 0
-5648 1974 0
-2169 -1974 5648 0
-5649 2170 0
-5649 2003 0
-2170 -2003 5649 0
-5650 2171 0
-5650 2020 0
-2171 -2020 5650 0
-5651 2172 0
-5651 2037 0
-2172 -2037 5651 0
-5652 2173 0
-5652 2054 0
-2173 -2054 5652 0
-5653 2175 0
-5653 2089 0
-2175 -2089 5653 0
-5654 2176 0
-5654 2106 0
-2176 -2106 5654 0
-5655 2177 0
-5655 2123 0
-2177 -2123 5655 0
-5656 2178 0
-5656 2140 0
-2178 -2140 5656 0
-5657 2179 0
-5657 2157 0
-2179 -2157 5657 0
-5658 2180 0
-5658 2191 0
-2180 -2191 5658 0
-5659 2181 0
-5659 2208 0
-2181 -2208 5659 0
-5660 2182 0
-5660 2225 0
-2182 -2225 5660 0
-5661 2183 0
-5661 2242 0
-2183 -2242 5661 0
-5662 2184 0
-5662 2259 0
-2184 -2259 5662 0
-1658 -5647 0
-1658 -5648 0
-1658 -5649 0
-1658 -5650 0
-1658 -5651 0
-1658 -5652 0
-1658 -5653 0
-1658 -5654 0
-1658 -5655 0
-1658 -5656 0
-1658 -5657 0
-1658 -5658 0
-1658 -5659 0
-1658 -5660 0
-1658 -5661 0
-1658 -5662 0
-2174 1658 5647 5648 5649 5650 5651 5652 5653 5654 5655 5656 5657 5658 5659 5660 5661 5662 0
-1661 2175 0
-5663 2168 0
-5663 1977 0
-2168 -1977 5663 0
-5664 2169 0
-5664 1976 0
-2169 -1976 5664 0
-5665 2170 0
-5665 2004 0
-2170 -2004 5665 0
-5666 2171 0
-5666 2021 0
-2171 -2021 5666 0
-5667 2172 0
-5667 2038 0
-2172 -2038 5667 0
-5668 2173 0
-5668 2055 0
-2173 -2055 5668 0
-5669 2174 0
-5669 2072 0
-2174 -2072 5669 0
-5670 2176 0
-5670 2107 0
-2176 -2107 5670 0
-5671 2177 0
-5671 2124 0
-2177 -2124 5671 0
-5672 2178 0
-5672 2141 0
-2178 -2141 5672 0
-5673 2179 0
-5673 2158 0
-2179 -2158 5673 0
-5674 2180 0
-5674 2192 0
-2180 -2192 5674 0
-5675 2181 0
-5675 2209 0
-2181 -2209 5675 0
-5676 2182 0
-5676 2226 0
-2182 -2226 5676 0
-5677 2183 0
-5677 2243 0
-2183 -2243 5677 0
-5678 2184 0
-5678 2260 0
-2184 -2260 5678 0
-1661 -5663 0
-1661 -5664 0
-1661 -5665 0
-1661 -5666 0
-1661 -5667 0
-1661 -5668 0
-1661 -5669 0
-1661 -5670 0
-1661 -5671 0
-1661 -5672 0
-1661 -5673 0
-1661 -5674 0
-1661 -5675 0
-1661 -5676 0
-1661 -5677 0
-1661 -5678 0
-2175 1661 5663 5664 5665 5666 5667 5668 5669 5670 5671 5672 5673 5674 5675 5676 5677 5678 0
-1664 2176 0
-5679 2168 0
-5679 1979 0
-2168 -1979 5679 0
-5680 2169 0
-5680 1978 0
-2169 -1978 5680 0
-5681 2170 0
-5681 2005 0
-2170 -2005 5681 0
-5682 2171 0
-5682 2022 0
-2171 -2022 5682 0
-5683 2172 0
-5683 2039 0
-2172 -2039 5683 0
-5684 2173 0
-5684 2056 0
-2173 -2056 5684 0
-5685 2174 0
-5685 2073 0
-2174 -2073 5685 0
-5686 2175 0
-5686 2090 0
-2175 -2090 5686 0
-5687 2177 0
-5687 2125 0
-2177 -2125 5687 0
-5688 2178 0
-5688 2142 0
-2178 -2142 5688 0
-5689 2179 0
-5689 2159 0
-2179 -2159 5689 0
-5690 2180 0
-5690 2193 0
-2180 -2193 5690 0
-5691 2181 0
-5691 2210 0
-2181 -2210 5691 0
-5692 2182 0
-5692 2227 0
-2182 -2227 5692 0
-5693 2183 0
-5693 2244 0
-2183 -2244 5693 0
-5694 2184 0
-5694 2261 0
-2184 -2261 5694 0
-1664 -5679 0
-1664 -5680 0
-1664 -5681 0
-1664 -5682 0
-1664 -5683 0
-1664 -5684 0
-1664 -5685 0
-1664 -5686 0
-1664 -5687 0
-1664 -5688 0
-1664 -5689 0
-1664 -5690 0
-1664 -5691 0
-1664 -5692 0
-1664 -5693 0
-1664 -5694 0
-2176 1664 5679 5680 5681 5682 5683 5684 5685 5686 5687 5688 5689 5690 5691 5692 5693 5694 0
-1667 2177 0
-5695 2168 0
-5695 1981 0
-2168 -1981 5695 0
-5696 2169 0
-5696 1980 0
-2169 -1980 5696 0
-5697 2170 0
-5697 2006 0
-2170 -2006 5697 0
-5698 2171 0
-5698 2023 0
-2171 -2023 5698 0
-5699 2172 0
-5699 2040 0
-2172 -2040 5699 0
-5700 2173 0
-5700 2057 0
-2173 -2057 5700 0
-5701 2174 0
-5701 2074 0
-2174 -2074 5701 0
-5702 2175 0
-5702 2091 0
-2175 -2091 5702 0
-5703 2176 0
-5703 2108 0
-2176 -2108 5703 0
-5704 2178 0
-5704 2143 0
-2178 -2143 5704 0
-5705 2179 0
-5705 2160 0
-2179 -2160 5705 0
-5706 2180 0
-5706 2194 0
-2180 -2194 5706 0
-5707 2181 0
-5707 2211 0
-2181 -2211 5707 0
-5708 2182 0
-5708 2228 0
-2182 -2228 5708 0
-5709 2183 0
-5709 2245 0
-2183 -2245 5709 0
-5710 2184 0
-5710 2262 0
-2184 -2262 5710 0
-1667 -5695 0
-1667 -5696 0
-1667 -5697 0
-1667 -5698 0
-1667 -5699 0
-1667 -5700 0
-1667 -5701 0
-1667 -5702 0
-1667 -5703 0
-1667 -5704 0
-1667 -5705 0
-1667 -5706 0
-1667 -5707 0
-1667 -5708 0
-1667 -5709 0
-1667 -5710 0
-2177 1667 5695 5696 5697 5698 5699 5700 5701 5702 5703 5704 5705 5706 5707 5708 5709 5710 0
-1670 2178 0
-5711 2168 0
-5711 1983 0
-2168 -1983 5711 0
-5712 2169 0
-5712 1982 0
-2169 -1982 5712 0
-5713 2170 0
-5713 2007 0
-2170 -2007 5713 0
-5714 2171 0
-5714 2024 0
-2171 -2024 5714 0
-5715 2172 0
-5715 2041 0
-2172 -2041 5715 0
-5716 2173 0
-5716 2058 0
-2173 -2058 5716 0
-5717 2174 0
-5717 2075 0
-2174 -2075 5717 0
-5718 2175 0
-5718 2092 0
-2175 -2092 5718 0
-5719 2176 0
-5719 2109 0
-2176 -2109 5719 0
-5720 2177 0
-5720 2126 0
-2177 -2126 5720 0
-5721 2179 0
-5721 2161 0
-2179 -2161 5721 0
-5722 2180 0
-5722 2195 0
-2180 -2195 5722 0
-5723 2181 0
-5723 2212 0
-2181 -2212 5723 0
-5724 2182 0
-5724 2229 0
-2182 -2229 5724 0
-5725 2183 0
-5725 2246 0
-2183 -2246 5725 0
-5726 2184 0
-5726 2263 0
-2184 -2263 5726 0
-1670 -5711 0
-1670 -5712 0
-1670 -5713 0
-1670 -5714 0
-1670 -5715 0
-1670 -5716 0
-1670 -5717 0
-1670 -5718 0
-1670 -5719 0
-1670 -5720 0
-1670 -5721 0
-1670 -5722 0
-1670 -5723 0
-1670 -5724 0
-1670 -5725 0
-1670 -5726 0
-2178 1670 5711 5712 5713 5714 5715 5716 5717 5718 5719 5720 5721 5722 5723 5724 5725 5726 0
-1673 2179 0
-5727 2168 0
-5727 1985 0
-2168 -1985 5727 0
-5728 2169 0
-5728 1984 0
-2169 -1984 5728 0
-5729 2170 0
-5729 2008 0
-2170 -2008 5729 0
-5730 2171 0
-5730 2025 0
-2171 -2025 5730 0
-5731 2172 0
-5731 2042 0
-2172 -2042 5731 0
-5732 2173 0
-5732 2059 0
-2173 -2059 5732 0
-5733 2174 0
-5733 2076 0
-2174 -2076 5733 0
-5734 2175 0
-5734 2093 0
-2175 -2093 5734 0
-5735 2176 0
-5735 2110 0
-2176 -2110 5735 0
-5736 2177 0
-5736 2127 0
-2177 -2127 5736 0
-5737 2178 0
-5737 2144 0
-2178 -2144 5737 0
-5738 2180 0
-5738 2196 0
-2180 -2196 5738 0
-5739 2181 0
-5739 2213 0
-2181 -2213 5739 0
-5740 2182 0
-5740 2230 0
-2182 -2230 5740 0
-5741 2183 0
-5741 2247 0
-2183 -2247 5741 0
-5742 2184 0
-5742 2264 0
-2184 -2264 5742 0
-1673 -5727 0
-1673 -5728 0
-1673 -5729 0
-1673 -5730 0
-1673 -5731 0
-1673 -5732 0
-1673 -5733 0
-1673 -5734 0
-1673 -5735 0
-1673 -5736 0
-1673 -5737 0
-1673 -5738 0
-1673 -5739 0
-1673 -5740 0
-1673 -5741 0
-1673 -5742 0
-2179 1673 5727 5728 5729 5730 5731 5732 5733 5734 5735 5736 5737 5738 5739 5740 5741 5742 0
-1676 0
-1679 2180 0
-5743 2168 0
-5743 1989 0
-2168 -1989 5743 0
-5744 2169 0
-5744 1988 0
-2169 -1988 5744 0
-5745 2170 0
-5745 2010 0
-2170 -2010 5745 0
-5746 2171 0
-5746 2027 0
-2171 -2027 5746 0
-5747 2172 0
-5747 2044 0
-2172 -2044 5747 0
-5748 2173 0
-5748 2061 0
-2173 -2061 5748 0
-5749 2174 0
-5749 2078 0
-2174 -2078 5749 0
-5750 2175 0
-5750 2095 0
-2175 -2095 5750 0
-5751 2176 0
-5751 2112 0
-2176 -2112 5751 0
-5752 2177 0
-5752 2129 0
-2177 -2129 5752 0
-5753 2178 0
-5753 2146 0
-2178 -2146 5753 0
-5754 2179 0
-5754 2163 0
-2179 -2163 5754 0
-5755 2181 0
-5755 2215 0
-2181 -2215 5755 0
-5756 2182 0
-5756 2232 0
-2182 -2232 5756 0
-5757 2183 0
-5757 2249 0
-2183 -2249 5757 0
-5758 2184 0
-5758 2266 0
-2184 -2266 5758 0
-1679 -5743 0
-1679 -5744 0
-1679 -5745 0
-1679 -5746 0
-1679 -5747 0
-1679 -5748 0
-1679 -5749 0
-1679 -5750 0
-1679 -5751 0
-1679 -5752 0
-1679 -5753 0
-1679 -5754 0
-1679 -5755 0
-1679 -5756 0
-1679 -5757 0
-1679 -5758 0
-2180 1679 5743 5744 5745 5746 5747 5748 5749 5750 5751 5752 5753 5754 5755 5756 5757 5758 0
-1682 2181 0
-5759 2168 0
-5759 1991 0
-2168 -1991 5759 0
-5760 2169 0
-5760 1990 0
-2169 -1990 5760 0
-5761 2170 0
-5761 2011 0
-2170 -2011 5761 0
-5762 2171 0
-5762 2028 0
-2171 -2028 5762 0
-5763 2172 0
-5763 2045 0
-2172 -2045 5763 0
-5764 2173 0
-5764 2062 0
-2173 -2062 5764 0
-5765 2174 0
-5765 2079 0
-2174 -2079 5765 0
-5766 2175 0
-5766 2096 0
-2175 -2096 5766 0
-5767 2176 0
-5767 2113 0
-2176 -2113 5767 0
-5768 2177 0
-5768 2130 0
-2177 -2130 5768 0
-5769 2178 0
-5769 2147 0
-2178 -2147 5769 0
-5770 2179 0
-5770 2164 0
-2179 -2164 5770 0
-5771 2180 0
-5771 2198 0
-2180 -2198 5771 0
-5772 2182 0
-5772 2233 0
-2182 -2233 5772 0
-5773 2183 0
-5773 2250 0
-2183 -2250 5773 0
-5774 2184 0
-5774 2267 0
-2184 -2267 5774 0
-1682 -5759 0
-1682 -5760 0
-1682 -5761 0
-1682 -5762 0
-1682 -5763 0
-1682 -5764 0
-1682 -5765 0
-1682 -5766 0
-1682 -5767 0
-1682 -5768 0
-1682 -5769 0
-1682 -5770 0
-1682 -5771 0
-1682 -5772 0
-1682 -5773 0
-1682 -5774 0
-2181 1682 5759 5760 5761 5762 5763 5764 5765 5766 5767 5768 5769 5770 5771 5772 5773 5774 0
-1685 2182 0
-5775 2168 0
-5775 1993 0
-2168 -1993 5775 0
-5776 2169 0
-5776 1992 0
-2169 -1992 5776 0
-5777 2170 0
-5777 2012 0
-2170 -2012 5777 0
-5778 2171 0
-5778 2029 0
-2171 -2029 5778 0
-5779 2172 0
-5779 2046 0
-2172 -2046 5779 0
-5780 2173 0
-5780 2063 0
-2173 -2063 5780 0
-5781 2174 0
-5781 2080 0
-2174 -2080 5781 0
-5782 2175 0
-5782 2097 0
-2175 -2097 5782 0
-5783 2176 0
-5783 2114 0
-2176 -2114 5783 0
-5784 2177 0
-5784 2131 0
-2177 -2131 5784 0
-5785 2178 0
-5785 2148 0
-2178 -2148 5785 0
-5786 2179 0
-5786 2165 0
-2179 -2165 5786 0
-5787 2180 0
-5787 2199 0
-2180 -2199 5787 0
-5788 2181 0
-5788 2216 0
-2181 -2216 5788 0
-5789 2183 0
-5789 2251 0
-2183 -2251 5789 0
-5790 2184 0
-5790 2268 0
-2184 -2268 5790 0
-1685 -5775 0
-1685 -5776 0
-1685 -5777 0
-1685 -5778 0
-1685 -5779 0
-1685 -5780 0
-1685 -5781 0
-1685 -5782 0
-1685 -5783 0
-1685 -5784 0
-1685 -5785 0
-1685 -5786 0
-1685 -5787 0
-1685 -5788 0
-1685 -5789 0
-1685 -5790 0
-2182 1685 5775 5776 5777 5778 5779 5780 5781 5782 5783 5784 5785 5786 5787 5788 5789 5790 0
-1688 2183 0
-5791 2168 0
-5791 1995 0
-2168 -1995 5791 0
-5792 2169 0
-5792 1994 0
-2169 -1994 5792 0
-5793 2170 0
-5793 2013 0
-2170 -2013 5793 0
-5794 2171 0
-5794 2030 0
-2171 -2030 5794 0
-5795 2172 0
-5795 2047 0
-2172 -2047 5795 0
-5796 2173 0
-5796 2064 0
-2173 -2064 5796 0
-5797 2174 0
-5797 2081 0
-2174 -2081 5797 0
-5798 2175 0
-5798 2098 0
-2175 -2098 5798 0
-5799 2176 0
-5799 2115 0
-2176 -2115 5799 0
-5800 2177 0
-5800 2132 0
-2177 -2132 5800 0
-5801 2178 0
-5801 2149 0
-2178 -2149 5801 0
-5802 2179 0
-5802 2166 0
-2179 -2166 5802 0
-5803 2180 0
-5803 2200 0
-2180 -2200 5803 0
-5804 2181 0
-5804 2217 0
-2181 -2217 5804 0
-5805 2182 0
-5805 2234 0
-2182 -2234 5805 0
-5806 2184 0
-5806 2269 0
-2184 -2269 5806 0
-1688 -5791 0
-1688 -5792 0
-1688 -5793 0
-1688 -5794 0
-1688 -5795 0
-1688 -5796 0
-1688 -5797 0
-1688 -5798 0
-1688 -5799 0
-1688 -5800 0
-1688 -5801 0
-1688 -5802 0
-1688 -5803 0
-1688 -5804 0
-1688 -5805 0
-1688 -5806 0
-2183 1688 5791 5792 5793 5794 5795 5796 5797 5798 5799 5800 5801 5802 5803 5804 5805 5806 0
-1691 2184 0
-5807 2168 0
-5807 1997 0
-2168 -1997 5807 0
-5808 2169 0
-5808 1996 0
-2169 -1996 5808 0
-5809 2170 0
-5809 2014 0
-2170 -2014 5809 0
-5810 2171 0
-5810 2031 0
-2171 -2031 5810 0
-5811 2172 0
-5811 2048 0
-2172 -2048 5811 0
-5812 2173 0
-5812 2065 0
-2173 -2065 5812 0
-5813 2174 0
-5813 2082 0
-2174 -2082 5813 0
-5814 2175 0
-5814 2099 0
-2175 -2099 5814 0
-5815 2176 0
-5815 2116 0
-2176 -2116 5815 0
-5816 2177 0
-5816 2133 0
-2177 -2133 5816 0
-5817 2178 0
-5817 2150 0
-2178 -2150 5817 0
-5818 2179 0
-5818 2167 0
-2179 -2167 5818 0
-5819 2180 0
-5819 2201 0
-2180 -2201 5819 0
-5820 2181 0
-5820 2218 0
-2181 -2218 5820 0
-5821 2182 0
-5821 2235 0
-2182 -2235 5821 0
-5822 2183 0
-5822 2252 0
-2183 -2252 5822 0
-1691 -5807 0
-1691 -5808 0
-1691 -5809 0
-1691 -5810 0
-1691 -5811 0
-1691 -5812 0
-1691 -5813 0
-1691 -5814 0
-1691 -5815 0
-1691 -5816 0
-1691 -5817 0
-1691 -5818 0
-1691 -5819 0
-1691 -5820 0
-1691 -5821 0
-1691 -5822 0
-2184 1691 5807 5808 5809 5810 5811 5812 5813 5814 5815 5816 5817 5818 5819 5820 5821 5822 0
-1694 2185 0
-5823 2186 0
-5823 1965 0
-2186 -1965 5823 0
-5824 2187 0
-5824 1998 0
-2187 -1998 5824 0
-5825 2188 0
-5825 2015 0
-2188 -2015 5825 0
-5826 2189 0
-5826 2032 0
-2189 -2032 5826 0
-5827 2190 0
-5827 2049 0
-2190 -2049 5827 0
-5828 2191 0
-5828 2066 0
-2191 -2066 5828 0
-5829 2192 0
-5829 2083 0
-2192 -2083 5829 0
-5830 2193 0
-5830 2100 0
-2193 -2100 5830 0
-5831 2194 0
-5831 2117 0
-2194 -2117 5831 0
-5832 2195 0
-5832 2134 0
-2195 -2134 5832 0
-5833 2196 0
-5833 2151 0
-2196 -2151 5833 0
-5834 2197 0
-5834 2168 0
-2197 -2168 5834 0
-5835 2198 0
-5835 2202 0
-2198 -2202 5835 0
-5836 2199 0
-5836 2219 0
-2199 -2219 5836 0
-5837 2200 0
-5837 2236 0
-2200 -2236 5837 0
-5838 2201 0
-5838 2253 0
-2201 -2253 5838 0
-1694 -5823 0
-1694 -5824 0
-1694 -5825 0
-1694 -5826 0
-1694 -5827 0
-1694 -5828 0
-1694 -5829 0
-1694 -5830 0
-1694 -5831 0
-1694 -5832 0
-1694 -5833 0
-1694 -5834 0
-1694 -5835 0
-1694 -5836 0
-1694 -5837 0
-1694 -5838 0
-2185 1694 5823 5824 5825 5826 5827 5828 5829 5830 5831 5832 5833 5834 5835 5836 5837 5838 0
-1697 2186 0
-5839 2185 0
-5839 1964 0
-2185 -1964 5839 0
-5840 2187 0
-5840 1999 0
-2187 -1999 5840 0
-5841 2188 0
-5841 2016 0
-2188 -2016 5841 0
-5842 2189 0
-5842 2033 0
-2189 -2033 5842 0
-5843 2190 0
-5843 2050 0
-2190 -2050 5843 0
-5844 2191 0
-5844 2067 0
-2191 -2067 5844 0
-5845 2192 0
-5845 2084 0
-2192 -2084 5845 0
-5846 2193 0
-5846 2101 0
-2193 -2101 5846 0
-5847 2194 0
-5847 2118 0
-2194 -2118 5847 0
-5848 2195 0
-5848 2135 0
-2195 -2135 5848 0
-5849 2196 0
-5849 2152 0
-2196 -2152 5849 0
-5850 2197 0
-5850 2169 0
-2197 -2169 5850 0
-5851 2198 0
-5851 2203 0
-2198 -2203 5851 0
-5852 2199 0
-5852 2220 0
-2199 -2220 5852 0
-5853 2200 0
-5853 2237 0
-2200 -2237 5853 0
-5854 2201 0
-5854 2254 0
-2201 -2254 5854 0
-1697 -5839 0
-1697 -5840 0
-1697 -5841 0
-1697 -5842 0
-1697 -5843 0
-1697 -5844 0
-1697 -5845 0
-1697 -5846 0
-1697 -5847 0
-1697 -5848 0
-1697 -5849 0
-1697 -5850 0
-1697 -5851 0
-1697 -5852 0
-1697 -5853 0
-1697 -5854 0
-2186 1697 5839 5840 5841 5842 5843 5844 5845 5846 5847 5848 5849 5850 5851 5852 5853 5854 0
-1700 2187 0
-5855 2185 0
-5855 1967 0
-2185 -1967 5855 0
-5856 2186 0
-5856 1966 0
-2186 -1966 5856 0
-5857 2188 0
-5857 2017 0
-2188 -2017 5857 0
-5858 2189 0
-5858 2034 0
-2189 -2034 5858 0
-5859 2190 0
-5859 2051 0
-2190 -2051 5859 0
-5860 2191 0
-5860 2068 0
-2191 -2068 5860 0
-5861 2192 0
-5861 2085 0
-2192 -2085 5861 0
-5862 2193 0
-5862 2102 0
-2193 -2102 5862 0
-5863 2194 0
-5863 2119 0
-2194 -2119 5863 0
-5864 2195 0
-5864 2136 0
-2195 -2136 5864 0
-5865 2196 0
-5865 2153 0
-2196 -2153 5865 0
-5866 2197 0
-5866 2170 0
-2197 -2170 5866 0
-5867 2198 0
-5867 2204 0
-2198 -2204 5867 0
-5868 2199 0
-5868 2221 0
-2199 -2221 5868 0
-5869 2200 0
-5869 2238 0
-2200 -2238 5869 0
-5870 2201 0
-5870 2255 0
-2201 -2255 5870 0
-1700 -5855 0
-1700 -5856 0
-1700 -5857 0
-1700 -5858 0
-1700 -5859 0
-1700 -5860 0
-1700 -5861 0
-1700 -5862 0
-1700 -5863 0
-1700 -5864 0
-1700 -5865 0
-1700 -5866 0
-1700 -5867 0
-1700 -5868 0
-1700 -5869 0
-1700 -5870 0
-2187 1700 5855 5856 5857 5858 5859 5860 5861 5862 5863 5864 5865 5866 5867 5868 5869 5870 0
-1703 2188 0
-5871 2185 0
-5871 1969 0
-2185 -1969 5871 0
-5872 2186 0
-5872 1968 0
-2186 -1968 5872 0
-5873 2187 0
-5873 2000 0
-2187 -2000 5873 0
-5874 2189 0
-5874 2035 0
-2189 -2035 5874 0
-5875 2190 0
-5875 2052 0
-2190 -2052 5875 0
-5876 2191 0
-5876 2069 0
-2191 -2069 5876 0
-5877 2192 0
-5877 2086 0
-2192 -2086 5877 0
-5878 2193 0
-5878 2103 0
-2193 -2103 5878 0
-5879 2194 0
-5879 2120 0
-2194 -2120 5879 0
-5880 2195 0
-5880 2137 0
-2195 -2137 5880 0
-5881 2196 0
-5881 2154 0
-2196 -2154 5881 0
-5882 2197 0
-5882 2171 0
-2197 -2171 5882 0
-5883 2198 0
-5883 2205 0
-2198 -2205 5883 0
-5884 2199 0
-5884 2222 0
-2199 -2222 5884 0
-5885 2200 0
-5885 2239 0
-2200 -2239 5885 0
-5886 2201 0
-5886 2256 0
-2201 -2256 5886 0
-1703 -5871 0
-1703 -5872 0
-1703 -5873 0
-1703 -5874 0
-1703 -5875 0
-1703 -5876 0
-1703 -5877 0
-1703 -5878 0
-1703 -5879 0
-1703 -5880 0
-1703 -5881 0
-1703 -5882 0
-1703 -5883 0
-1703 -5884 0
-1703 -5885 0
-1703 -5886 0
-2188 1703 5871 5872 5873 5874 5875 5876 5877 5878 5879 5880 5881 5882 5883 5884 5885 5886 0
-1706 2189 0
-5887 2185 0
-5887 1971 0
-2185 -1971 5887 0
-5888 2186 0
-5888 1970 0
-2186 -1970 5888 0
-5889 2187 0
-5889 2001 0
-2187 -2001 5889 0
-5890 2188 0
-5890 2018 0
-2188 -2018 5890 0
-5891 2190 0
-5891 2053 0
-2190 -2053 5891 0
-5892 2191 0
-5892 2070 0
-2191 -2070 5892 0
-5893 2192 0
-5893 2087 0
-2192 -2087 5893 0
-5894 2193 0
-5894 2104 0
-2193 -2104 5894 0
-5895 2194 0
-5895 2121 0
-2194 -2121 5895 0
-5896 2195 0
-5896 2138 0
-2195 -2138 5896 0
-5897 2196 0
-5897 2155 0
-2196 -2155 5897 0
-5898 2197 0
-5898 2172 0
-2197 -2172 5898 0
-5899 2198 0
-5899 2206 0
-2198 -2206 5899 0
-5900 2199 0
-5900 2223 0
-2199 -2223 5900 0
-5901 2200 0
-5901 2240 0
-2200 -2240 5901 0
-5902 2201 0
-5902 2257 0
-2201 -2257 5902 0
-1706 -5887 0
-1706 -5888 0
-1706 -5889 0
-1706 -5890 0
-1706 -5891 0
-1706 -5892 0
-1706 -5893 0
-1706 -5894 0
-1706 -5895 0
-1706 -5896 0
-1706 -5897 0
-1706 -5898 0
-1706 -5899 0
-1706 -5900 0
-1706 -5901 0
-1706 -5902 0
-2189 1706 5887 5888 5889 5890 5891 5892 5893 5894 5895 5896 5897 5898 5899 5900 5901 5902 0
-1709 2190 0
-5903 2185 0
-5903 1973 0
-2185 -1973 5903 0
-5904 2186 0
-5904 1972 0
-2186 -1972 5904 0
-5905 2187 0
-5905 2002 0
-2187 -2002 5905 0
-5906 2188 0
-5906 2019 0
-2188 -2019 5906 0
-5907 2189 0
-5907 2036 0
-2189 -2036 5907 0
-5908 2191 0
-5908 2071 0
-2191 -2071 5908 0
-5909 2192 0
-5909 2088 0
-2192 -2088 5909 0
-5910 2193 0
-5910 2105 0
-2193 -2105 5910 0
-5911 2194 0
-5911 2122 0
-2194 -2122 5911 0
-5912 2195 0
-5912 2139 0
-2195 -2139 5912 0
-5913 2196 0
-5913 2156 0
-2196 -2156 5913 0
-5914 2197 0
-5914 2173 0
-2197 -2173 5914 0
-5915 2198 0
-5915 2207 0
-2198 -2207 5915 0
-5916 2199 0
-5916 2224 0
-2199 -2224 5916 0
-5917 2200 0
-5917 2241 0
-2200 -2241 5917 0
-5918 2201 0
-5918 2258 0
-2201 -2258 5918 0
-1709 -5903 0
-1709 -5904 0
-1709 -5905 0
-1709 -5906 0
-1709 -5907 0
-1709 -5908 0
-1709 -5909 0
-1709 -5910 0
-1709 -5911 0
-1709 -5912 0
-1709 -5913 0
-1709 -5914 0
-1709 -5915 0
-1709 -5916 0
-1709 -5917 0
-1709 -5918 0
-2190 1709 5903 5904 5905 5906 5907 5908 5909 5910 5911 5912 5913 5914 5915 5916 5917 5918 0
-1712 2191 0
-5919 2185 0
-5919 1975 0
-2185 -1975 5919 0
-5920 2186 0
-5920 1974 0
-2186 -1974 5920 0
-5921 2187 0
-5921 2003 0
-2187 -2003 5921 0
-5922 2188 0
-5922 2020 0
-2188 -2020 5922 0
-5923 2189 0
-5923 2037 0
-2189 -2037 5923 0
-5924 2190 0
-5924 2054 0
-2190 -2054 5924 0
-5925 2192 0
-5925 2089 0
-2192 -2089 5925 0
-5926 2193 0
-5926 2106 0
-2193 -2106 5926 0
-5927 2194 0
-5927 2123 0
-2194 -2123 5927 0
-5928 2195 0
-5928 2140 0
-2195 -2140 5928 0
-5929 2196 0
-5929 2157 0
-2196 -2157 5929 0
-5930 2197 0
-5930 2174 0
-2197 -2174 5930 0
-5931 2198 0
-5931 2208 0
-2198 -2208 5931 0
-5932 2199 0
-5932 2225 0
-2199 -2225 5932 0
-5933 2200 0
-5933 2242 0
-2200 -2242 5933 0
-5934 2201 0
-5934 2259 0
-2201 -2259 5934 0
-1712 -5919 0
-1712 -5920 0
-1712 -5921 0
-1712 -5922 0
-1712 -5923 0
-1712 -5924 0
-1712 -5925 0
-1712 -5926 0
-1712 -5927 0
-1712 -5928 0
-1712 -5929 0
-1712 -5930 0
-1712 -5931 0
-1712 -5932 0
-1712 -5933 0
-1712 -5934 0
-2191 1712 5919 5920 5921 5922 5923 5924 5925 5926 5927 5928 5929 5930 5931 5932 5933 5934 0
-1715 2192 0
-5935 2185 0
-5935 1977 0
-2185 -1977 5935 0
-5936 2186 0
-5936 1976 0
-2186 -1976 5936 0
-5937 2187 0
-5937 2004 0
-2187 -2004 5937 0
-5938 2188 0
-5938 2021 0
-2188 -2021 5938 0
-5939 2189 0
-5939 2038 0
-2189 -2038 5939 0
-5940 2190 0
-5940 2055 0
-2190 -2055 5940 0
-5941 2191 0
-5941 2072 0
-2191 -2072 5941 0
-5942 2193 0
-5942 2107 0
-2193 -2107 5942 0
-5943 2194 0
-5943 2124 0
-2194 -2124 5943 0
-5944 2195 0
-5944 2141 0
-2195 -2141 5944 0
-5945 2196 0
-5945 2158 0
-2196 -2158 5945 0
-5946 2197 0
-5946 2175 0
-2197 -2175 5946 0
-5947 2198 0
-5947 2209 0
-2198 -2209 5947 0
-5948 2199 0
-5948 2226 0
-2199 -2226 5948 0
-5949 2200 0
-5949 2243 0
-2200 -2243 5949 0
-5950 2201 0
-5950 2260 0
-2201 -2260 5950 0
-1715 -5935 0
-1715 -5936 0
-1715 -5937 0
-1715 -5938 0
-1715 -5939 0
-1715 -5940 0
-1715 -5941 0
-1715 -5942 0
-1715 -5943 0
-1715 -5944 0
-1715 -5945 0
-1715 -5946 0
-1715 -5947 0
-1715 -5948 0
-1715 -5949 0
-1715 -5950 0
-2192 1715 5935 5936 5937 5938 5939 5940 5941 5942 5943 5944 5945 5946 5947 5948 5949 5950 0
-1718 2193 0
-5951 2185 0
-5951 1979 0
-2185 -1979 5951 0
-5952 2186 0
-5952 1978 0
-2186 -1978 5952 0
-5953 2187 0
-5953 2005 0
-2187 -2005 5953 0
-5954 2188 0
-5954 2022 0
-2188 -2022 5954 0
-5955 2189 0
-5955 2039 0
-2189 -2039 5955 0
-5956 2190 0
-5956 2056 0
-2190 -2056 5956 0
-5957 2191 0
-5957 2073 0
-2191 -2073 5957 0
-5958 2192 0
-5958 2090 0
-2192 -2090 5958 0
-5959 2194 0
-5959 2125 0
-2194 -2125 5959 0
-5960 2195 0
-5960 2142 0
-2195 -2142 5960 0
-5961 2196 0
-5961 2159 0
-2196 -2159 5961 0
-5962 2197 0
-5962 2176 0
-2197 -2176 5962 0
-5963 2198 0
-5963 2210 0
-2198 -2210 5963 0
-5964 2199 0
-5964 2227 0
-2199 -2227 5964 0
-5965 2200 0
-5965 2244 0
-2200 -2244 5965 0
-5966 2201 0
-5966 2261 0
-2201 -2261 5966 0
-1718 -5951 0
-1718 -5952 0
-1718 -5953 0
-1718 -5954 0
-1718 -5955 0
-1718 -5956 0
-1718 -5957 0
-1718 -5958 0
-1718 -5959 0
-1718 -5960 0
-1718 -5961 0
-1718 -5962 0
-1718 -5963 0
-1718 -5964 0
-1718 -5965 0
-1718 -5966 0
-2193 1718 5951 5952 5953 5954 5955 5956 5957 5958 5959 5960 5961 5962 5963 5964 5965 5966 0
-1721 2194 0
-5967 2185 0
-5967 1981 0
-2185 -1981 5967 0
-5968 2186 0
-5968 1980 0
-2186 -1980 5968 0
-5969 2187 0
-5969 2006 0
-2187 -2006 5969 0
-5970 2188 0
-5970 2023 0
-2188 -2023 5970 0
-5971 2189 0
-5971 2040 0
-2189 -2040 5971 0
-5972 2190 0
-5972 2057 0
-2190 -2057 5972 0
-5973 2191 0
-5973 2074 0
-2191 -2074 5973 0
-5974 2192 0
-5974 2091 0
-2192 -2091 5974 0
-5975 2193 0
-5975 2108 0
-2193 -2108 5975 0
-5976 2195 0
-5976 2143 0
-2195 -2143 5976 0
-5977 2196 0
-5977 2160 0
-2196 -2160 5977 0
-5978 2197 0
-5978 2177 0
-2197 -2177 5978 0
-5979 2198 0
-5979 2211 0
-2198 -2211 5979 0
-5980 2199 0
-5980 2228 0
-2199 -2228 5980 0
-5981 2200 0
-5981 2245 0
-2200 -2245 5981 0
-5982 2201 0
-5982 2262 0
-2201 -2262 5982 0
-1721 -5967 0
-1721 -5968 0
-1721 -5969 0
-1721 -5970 0
-1721 -5971 0
-1721 -5972 0
-1721 -5973 0
-1721 -5974 0
-1721 -5975 0
-1721 -5976 0
-1721 -5977 0
-1721 -5978 0
-1721 -5979 0
-1721 -5980 0
-1721 -5981 0
-1721 -5982 0
-2194 1721 5967 5968 5969 5970 5971 5972 5973 5974 5975 5976 5977 5978 5979 5980 5981 5982 0
-1724 2195 0
-5983 2185 0
-5983 1983 0
-2185 -1983 5983 0
-5984 2186 0
-5984 1982 0
-2186 -1982 5984 0
-5985 2187 0
-5985 2007 0
-2187 -2007 5985 0
-5986 2188 0
-5986 2024 0
-2188 -2024 5986 0
-5987 2189 0
-5987 2041 0
-2189 -2041 5987 0
-5988 2190 0
-5988 2058 0
-2190 -2058 5988 0
-5989 2191 0
-5989 2075 0
-2191 -2075 5989 0
-5990 2192 0
-5990 2092 0
-2192 -2092 5990 0
-5991 2193 0
-5991 2109 0
-2193 -2109 5991 0
-5992 2194 0
-5992 2126 0
-2194 -2126 5992 0
-5993 2196 0
-5993 2161 0
-2196 -2161 5993 0
-5994 2197 0
-5994 2178 0
-2197 -2178 5994 0
-5995 2198 0
-5995 2212 0
-2198 -2212 5995 0
-5996 2199 0
-5996 2229 0
-2199 -2229 5996 0
-5997 2200 0
-5997 2246 0
-2200 -2246 5997 0
-5998 2201 0
-5998 2263 0
-2201 -2263 5998 0
-1724 -5983 0
-1724 -5984 0
-1724 -5985 0
-1724 -5986 0
-1724 -5987 0
-1724 -5988 0
-1724 -5989 0
-1724 -5990 0
-1724 -5991 0
-1724 -5992 0
-1724 -5993 0
-1724 -5994 0
-1724 -5995 0
-1724 -5996 0
-1724 -5997 0
-1724 -5998 0
-2195 1724 5983 5984 5985 5986 5987 5988 5989 5990 5991 5992 5993 5994 5995 5996 5997 5998 0
-1727 2196 0
-5999 2185 0
-5999 1985 0
-2185 -1985 5999 0
-6000 2186 0
-6000 1984 0
-2186 -1984 6000 0
-6001 2187 0
-6001 2008 0
-2187 -2008 6001 0
-6002 2188 0
-6002 2025 0
-2188 -2025 6002 0
-6003 2189 0
-6003 2042 0
-2189 -2042 6003 0
-6004 2190 0
-6004 2059 0
-2190 -2059 6004 0
-6005 2191 0
-6005 2076 0
-2191 -2076 6005 0
-6006 2192 0
-6006 2093 0
-2192 -2093 6006 0
-6007 2193 0
-6007 2110 0
-2193 -2110 6007 0
-6008 2194 0
-6008 2127 0
-2194 -2127 6008 0
-6009 2195 0
-6009 2144 0
-2195 -2144 6009 0
-6010 2197 0
-6010 2179 0
-2197 -2179 6010 0
-6011 2198 0
-6011 2213 0
-2198 -2213 6011 0
-6012 2199 0
-6012 2230 0
-2199 -2230 6012 0
-6013 2200 0
-6013 2247 0
-2200 -2247 6013 0
-6014 2201 0
-6014 2264 0
-2201 -2264 6014 0
-1727 -5999 0
-1727 -6000 0
-1727 -6001 0
-1727 -6002 0
-1727 -6003 0
-1727 -6004 0
-1727 -6005 0
-1727 -6006 0
-1727 -6007 0
-1727 -6008 0
-1727 -6009 0
-1727 -6010 0
-1727 -6011 0
-1727 -6012 0
-1727 -6013 0
-1727 -6014 0
-2196 1727 5999 6000 6001 6002 6003 6004 6005 6006 6007 6008 6009 6010 6011 6012 6013 6014 0
-1730 2197 0
-6015 2185 0
-6015 1987 0
-2185 -1987 6015 0
-6016 2186 0
-6016 1986 0
-2186 -1986 6016 0
-6017 2187 0
-6017 2009 0
-2187 -2009 6017 0
-6018 2188 0
-6018 2026 0
-2188 -2026 6018 0
-6019 2189 0
-6019 2043 0
-2189 -2043 6019 0
-6020 2190 0
-6020 2060 0
-2190 -2060 6020 0
-6021 2191 0
-6021 2077 0
-2191 -2077 6021 0
-6022 2192 0
-6022 2094 0
-2192 -2094 6022 0
-6023 2193 0
-6023 2111 0
-2193 -2111 6023 0
-6024 2194 0
-6024 2128 0
-2194 -2128 6024 0
-6025 2195 0
-6025 2145 0
-2195 -2145 6025 0
-6026 2196 0
-6026 2162 0
-2196 -2162 6026 0
-6027 2198 0
-6027 2214 0
-2198 -2214 6027 0
-6028 2199 0
-6028 2231 0
-2199 -2231 6028 0
-6029 2200 0
-6029 2248 0
-2200 -2248 6029 0
-6030 2201 0
-6030 2265 0
-2201 -2265 6030 0
-1730 -6015 0
-1730 -6016 0
-1730 -6017 0
-1730 -6018 0
-1730 -6019 0
-1730 -6020 0
-1730 -6021 0
-1730 -6022 0
-1730 -6023 0
-1730 -6024 0
-1730 -6025 0
-1730 -6026 0
-1730 -6027 0
-1730 -6028 0
-1730 -6029 0
-1730 -6030 0
-2197 1730 6015 6016 6017 6018 6019 6020 6021 6022 6023 6024 6025 6026 6027 6028 6029 6030 0
-1733 0
-1736 2198 0
-6031 2185 0
-6031 1991 0
-2185 -1991 6031 0
-6032 2186 0
-6032 1990 0
-2186 -1990 6032 0
-6033 2187 0
-6033 2011 0
-2187 -2011 6033 0
-6034 2188 0
-6034 2028 0
-2188 -2028 6034 0
-6035 2189 0
-6035 2045 0
-2189 -2045 6035 0
-6036 2190 0
-6036 2062 0
-2190 -2062 6036 0
-6037 2191 0
-6037 2079 0
-2191 -2079 6037 0
-6038 2192 0
-6038 2096 0
-2192 -2096 6038 0
-6039 2193 0
-6039 2113 0
-2193 -2113 6039 0
-6040 2194 0
-6040 2130 0
-2194 -2130 6040 0
-6041 2195 0
-6041 2147 0
-2195 -2147 6041 0
-6042 2196 0
-6042 2164 0
-2196 -2164 6042 0
-6043 2197 0
-6043 2181 0
-2197 -2181 6043 0
-6044 2199 0
-6044 2233 0
-2199 -2233 6044 0
-6045 2200 0
-6045 2250 0
-2200 -2250 6045 0
-6046 2201 0
-6046 2267 0
-2201 -2267 6046 0
-1736 -6031 0
-1736 -6032 0
-1736 -6033 0
-1736 -6034 0
-1736 -6035 0
-1736 -6036 0
-1736 -6037 0
-1736 -6038 0
-1736 -6039 0
-1736 -6040 0
-1736 -6041 0
-1736 -6042 0
-1736 -6043 0
-1736 -6044 0
-1736 -6045 0
-1736 -6046 0
-2198 1736 6031 6032 6033 6034 6035 6036 6037 6038 6039 6040 6041 6042 6043 6044 6045 6046 0
-1739 2199 0
-6047 2185 0
-6047 1993 0
-2185 -1993 6047 0
-6048 2186 0
-6048 1992 0
-2186 -1992 6048 0
-6049 2187 0
-6049 2012 0
-2187 -2012 6049 0
-6050 2188 0
-6050 2029 0
-2188 -2029 6050 0
-6051 2189 0
-6051 2046 0
-2189 -2046 6051 0
-6052 2190 0
-6052 2063 0
-2190 -2063 6052 0
-6053 2191 0
-6053 2080 0
-2191 -2080 6053 0
-6054 2192 0
-6054 2097 0
-2192 -2097 6054 0
-6055 2193 0
-6055 2114 0
-2193 -2114 6055 0
-6056 2194 0
-6056 2131 0
-2194 -2131 6056 0
-6057 2195 0
-6057 2148 0
-2195 -2148 6057 0
-6058 2196 0
-6058 2165 0
-2196 -2165 6058 0
-6059 2197 0
-6059 2182 0
-2197 -2182 6059 0
-6060 2198 0
-6060 2216 0
-2198 -2216 6060 0
-6061 2200 0
-6061 2251 0
-2200 -2251 6061 0
-6062 2201 0
-6062 2268 0
-2201 -2268 6062 0
-1739 -6047 0
-1739 -6048 0
-1739 -6049 0
-1739 -6050 0
-1739 -6051 0
-1739 -6052 0
-1739 -6053 0
-1739 -6054 0
-1739 -6055 0
-1739 -6056 0
-1739 -6057 0
-1739 -6058 0
-1739 -6059 0
-1739 -6060 0
-1739 -6061 0
-1739 -6062 0
-2199 1739 6047 6048 6049 6050 6051 6052 6053 6054 6055 6056 6057 6058 6059 6060 6061 6062 0
-1742 2200 0
-6063 2185 0
-6063 1995 0
-2185 -1995 6063 0
-6064 2186 0
-6064 1994 0
-2186 -1994 6064 0
-6065 2187 0
-6065 2013 0
-2187 -2013 6065 0
-6066 2188 0
-6066 2030 0
-2188 -2030 6066 0
-6067 2189 0
-6067 2047 0
-2189 -2047 6067 0
-6068 2190 0
-6068 2064 0
-2190 -2064 6068 0
-6069 2191 0
-6069 2081 0
-2191 -2081 6069 0
-6070 2192 0
-6070 2098 0
-2192 -2098 6070 0
-6071 2193 0
-6071 2115 0
-2193 -2115 6071 0
-6072 2194 0
-6072 2132 0
-2194 -2132 6072 0
-6073 2195 0
-6073 2149 0
-2195 -2149 6073 0
-6074 2196 0
-6074 2166 0
-2196 -2166 6074 0
-6075 2197 0
-6075 2183 0
-2197 -2183 6075 0
-6076 2198 0
-6076 2217 0
-2198 -2217 6076 0
-6077 2199 0
-6077 2234 0
-2199 -2234 6077 0
-6078 2201 0
-6078 2269 0
-2201 -2269 6078 0
-1742 -6063 0
-1742 -6064 0
-1742 -6065 0
-1742 -6066 0
-1742 -6067 0
-1742 -6068 0
-1742 -6069 0
-1742 -6070 0
-1742 -6071 0
-1742 -6072 0
-1742 -6073 0
-1742 -6074 0
-1742 -6075 0
-1742 -6076 0
-1742 -6077 0
-1742 -6078 0
-2200 1742 6063 6064 6065 6066 6067 6068 6069 6070 6071 6072 6073 6074 6075 6076 6077 6078 0
-1745 2201 0
-6079 2185 0
-6079 1997 0
-2185 -1997 6079 0
-6080 2186 0
-6080 1996 0
-2186 -1996 6080 0
-6081 2187 0
-6081 2014 0
-2187 -2014 6081 0
-6082 2188 0
-6082 2031 0
-2188 -2031 6082 0
-6083 2189 0
-6083 2048 0
-2189 -2048 6083 0
-6084 2190 0
-6084 2065 0
-2190 -2065 6084 0
-6085 2191 0
-6085 2082 0
-2191 -2082 6085 0
-6086 2192 0
-6086 2099 0
-2192 -2099 6086 0
-6087 2193 0
-6087 2116 0
-2193 -2116 6087 0
-6088 2194 0
-6088 2133 0
-2194 -2133 6088 0
-6089 2195 0
-6089 2150 0
-2195 -2150 6089 0
-6090 2196 0
-6090 2167 0
-2196 -2167 6090 0
-6091 2197 0
-6091 2184 0
-2197 -2184 6091 0
-6092 2198 0
-6092 2218 0
-2198 -2218 6092 0
-6093 2199 0
-6093 2235 0
-2199 -2235 6093 0
-6094 2200 0
-6094 2252 0
-2200 -2252 6094 0
-1745 -6079 0
-1745 -6080 0
-1745 -6081 0
-1745 -6082 0
-1745 -6083 0
-1745 -6084 0
-1745 -6085 0
-1745 -6086 0
-1745 -6087 0
-1745 -6088 0
-1745 -6089 0
-1745 -6090 0
-1745 -6091 0
-1745 -6092 0
-1745 -6093 0
-1745 -6094 0
-2201 1745 6079 6080 6081 6082 6083 6084 6085 6086 6087 6088 6089 6090 6091 6092 6093 6094 0
-1748 2202 0
-6095 2203 0
-6095 1965 0
-2203 -1965 6095 0
-6096 2204 0
-6096 1998 0
-2204 -1998 6096 0
-6097 2205 0
-6097 2015 0
-2205 -2015 6097 0
-6098 2206 0
-6098 2032 0
-2206 -2032 6098 0
-6099 2207 0
-6099 2049 0
-2207 -2049 6099 0
-6100 2208 0
-6100 2066 0
-2208 -2066 6100 0
-6101 2209 0
-6101 2083 0
-2209 -2083 6101 0
-6102 2210 0
-6102 2100 0
-2210 -2100 6102 0
-6103 2211 0
-6103 2117 0
-2211 -2117 6103 0
-6104 2212 0
-6104 2134 0
-2212 -2134 6104 0
-6105 2213 0
-6105 2151 0
-2213 -2151 6105 0
-6106 2214 0
-6106 2168 0
-2214 -2168 6106 0
-6107 2215 0
-6107 2185 0
-2215 -2185 6107 0
-6108 2216 0
-6108 2219 0
-2216 -2219 6108 0
-6109 2217 0
-6109 2236 0
-2217 -2236 6109 0
-6110 2218 0
-6110 2253 0
-2218 -2253 6110 0
-1748 -6095 0
-1748 -6096 0
-1748 -6097 0
-1748 -6098 0
-1748 -6099 0
-1748 -6100 0
-1748 -6101 0
-1748 -6102 0
-1748 -6103 0
-1748 -6104 0
-1748 -6105 0
-1748 -6106 0
-1748 -6107 0
-1748 -6108 0
-1748 -6109 0
-1748 -6110 0
-2202 1748 6095 6096 6097 6098 6099 6100 6101 6102 6103 6104 6105 6106 6107 6108 6109 6110 0
-1751 2203 0
-6111 2202 0
-6111 1964 0
-2202 -1964 6111 0
-6112 2204 0
-6112 1999 0
-2204 -1999 6112 0
-6113 2205 0
-6113 2016 0
-2205 -2016 6113 0
-6114 2206 0
-6114 2033 0
-2206 -2033 6114 0
-6115 2207 0
-6115 2050 0
-2207 -2050 6115 0
-6116 2208 0
-6116 2067 0
-2208 -2067 6116 0
-6117 2209 0
-6117 2084 0
-2209 -2084 6117 0
-6118 2210 0
-6118 2101 0
-2210 -2101 6118 0
-6119 2211 0
-6119 2118 0
-2211 -2118 6119 0
-6120 2212 0
-6120 2135 0
-2212 -2135 6120 0
-6121 2213 0
-6121 2152 0
-2213 -2152 6121 0
-6122 2214 0
-6122 2169 0
-2214 -2169 6122 0
-6123 2215 0
-6123 2186 0
-2215 -2186 6123 0
-6124 2216 0
-6124 2220 0
-2216 -2220 6124 0
-6125 2217 0
-6125 2237 0
-2217 -2237 6125 0
-6126 2218 0
-6126 2254 0
-2218 -2254 6126 0
-1751 -6111 0
-1751 -6112 0
-1751 -6113 0
-1751 -6114 0
-1751 -6115 0
-1751 -6116 0
-1751 -6117 0
-1751 -6118 0
-1751 -6119 0
-1751 -6120 0
-1751 -6121 0
-1751 -6122 0
-1751 -6123 0
-1751 -6124 0
-1751 -6125 0
-1751 -6126 0
-2203 1751 6111 6112 6113 6114 6115 6116 6117 6118 6119 6120 6121 6122 6123 6124 6125 6126 0
-1754 2204 0
-6127 2202 0
-6127 1967 0
-2202 -1967 6127 0
-6128 2203 0
-6128 1966 0
-2203 -1966 6128 0
-6129 2205 0
-6129 2017 0
-2205 -2017 6129 0
-6130 2206 0
-6130 2034 0
-2206 -2034 6130 0
-6131 2207 0
-6131 2051 0
-2207 -2051 6131 0
-6132 2208 0
-6132 2068 0
-2208 -2068 6132 0
-6133 2209 0
-6133 2085 0
-2209 -2085 6133 0
-6134 2210 0
-6134 2102 0
-2210 -2102 6134 0
-6135 2211 0
-6135 2119 0
-2211 -2119 6135 0
-6136 2212 0
-6136 2136 0
-2212 -2136 6136 0
-6137 2213 0
-6137 2153 0
-2213 -2153 6137 0
-6138 2214 0
-6138 2170 0
-2214 -2170 6138 0
-6139 2215 0
-6139 2187 0
-2215 -2187 6139 0
-6140 2216 0
-6140 2221 0
-2216 -2221 6140 0
-6141 2217 0
-6141 2238 0
-2217 -2238 6141 0
-6142 2218 0
-6142 2255 0
-2218 -2255 6142 0
-1754 -6127 0
-1754 -6128 0
-1754 -6129 0
-1754 -6130 0
-1754 -6131 0
-1754 -6132 0
-1754 -6133 0
-1754 -6134 0
-1754 -6135 0
-1754 -6136 0
-1754 -6137 0
-1754 -6138 0
-1754 -6139 0
-1754 -6140 0
-1754 -6141 0
-1754 -6142 0
-2204 1754 6127 6128 6129 6130 6131 6132 6133 6134 6135 6136 6137 6138 6139 6140 6141 6142 0
-1757 2205 0
-6143 2202 0
-6143 1969 0
-2202 -1969 6143 0
-6144 2203 0
-6144 1968 0
-2203 -1968 6144 0
-6145 2204 0
-6145 2000 0
-2204 -2000 6145 0
-6146 2206 0
-6146 2035 0
-2206 -2035 6146 0
-6147 2207 0
-6147 2052 0
-2207 -2052 6147 0
-6148 2208 0
-6148 2069 0
-2208 -2069 6148 0
-6149 2209 0
-6149 2086 0
-2209 -2086 6149 0
-6150 2210 0
-6150 2103 0
-2210 -2103 6150 0
-6151 2211 0
-6151 2120 0
-2211 -2120 6151 0
-6152 2212 0
-6152 2137 0
-2212 -2137 6152 0
-6153 2213 0
-6153 2154 0
-2213 -2154 6153 0
-6154 2214 0
-6154 2171 0
-2214 -2171 6154 0
-6155 2215 0
-6155 2188 0
-2215 -2188 6155 0
-6156 2216 0
-6156 2222 0
-2216 -2222 6156 0
-6157 2217 0
-6157 2239 0
-2217 -2239 6157 0
-6158 2218 0
-6158 2256 0
-2218 -2256 6158 0
-1757 -6143 0
-1757 -6144 0
-1757 -6145 0
-1757 -6146 0
-1757 -6147 0
-1757 -6148 0
-1757 -6149 0
-1757 -6150 0
-1757 -6151 0
-1757 -6152 0
-1757 -6153 0
-1757 -6154 0
-1757 -6155 0
-1757 -6156 0
-1757 -6157 0
-1757 -6158 0
-2205 1757 6143 6144 6145 6146 6147 6148 6149 6150 6151 6152 6153 6154 6155 6156 6157 6158 0
-1760 2206 0
-6159 2202 0
-6159 1971 0
-2202 -1971 6159 0
-6160 2203 0
-6160 1970 0
-2203 -1970 6160 0
-6161 2204 0
-6161 2001 0
-2204 -2001 6161 0
-6162 2205 0
-6162 2018 0
-2205 -2018 6162 0
-6163 2207 0
-6163 2053 0
-2207 -2053 6163 0
-6164 2208 0
-6164 2070 0
-2208 -2070 6164 0
-6165 2209 0
-6165 2087 0
-2209 -2087 6165 0
-6166 2210 0
-6166 2104 0
-2210 -2104 6166 0
-6167 2211 0
-6167 2121 0
-2211 -2121 6167 0
-6168 2212 0
-6168 2138 0
-2212 -2138 6168 0
-6169 2213 0
-6169 2155 0
-2213 -2155 6169 0
-6170 2214 0
-6170 2172 0
-2214 -2172 6170 0
-6171 2215 0
-6171 2189 0
-2215 -2189 6171 0
-6172 2216 0
-6172 2223 0
-2216 -2223 6172 0
-6173 2217 0
-6173 2240 0
-2217 -2240 6173 0
-6174 2218 0
-6174 2257 0
-2218 -2257 6174 0
-1760 -6159 0
-1760 -6160 0
-1760 -6161 0
-1760 -6162 0
-1760 -6163 0
-1760 -6164 0
-1760 -6165 0
-1760 -6166 0
-1760 -6167 0
-1760 -6168 0
-1760 -6169 0
-1760 -6170 0
-1760 -6171 0
-1760 -6172 0
-1760 -6173 0
-1760 -6174 0
-2206 1760 6159 6160 6161 6162 6163 6164 6165 6166 6167 6168 6169 6170 6171 6172 6173 6174 0
-1763 2207 0
-6175 2202 0
-6175 1973 0
-2202 -1973 6175 0
-6176 2203 0
-6176 1972 0
-2203 -1972 6176 0
-6177 2204 0
-6177 2002 0
-2204 -2002 6177 0
-6178 2205 0
-6178 2019 0
-2205 -2019 6178 0
-6179 2206 0
-6179 2036 0
-2206 -2036 6179 0
-6180 2208 0
-6180 2071 0
-2208 -2071 6180 0
-6181 2209 0
-6181 2088 0
-2209 -2088 6181 0
-6182 2210 0
-6182 2105 0
-2210 -2105 6182 0
-6183 2211 0
-6183 2122 0
-2211 -2122 6183 0
-6184 2212 0
-6184 2139 0
-2212 -2139 6184 0
-6185 2213 0
-6185 2156 0
-2213 -2156 6185 0
-6186 2214 0
-6186 2173 0
-2214 -2173 6186 0
-6187 2215 0
-6187 2190 0
-2215 -2190 6187 0
-6188 2216 0
-6188 2224 0
-2216 -2224 6188 0
-6189 2217 0
-6189 2241 0
-2217 -2241 6189 0
-6190 2218 0
-6190 2258 0
-2218 -2258 6190 0
-1763 -6175 0
-1763 -6176 0
-1763 -6177 0
-1763 -6178 0
-1763 -6179 0
-1763 -6180 0
-1763 -6181 0
-1763 -6182 0
-1763 -6183 0
-1763 -6184 0
-1763 -6185 0
-1763 -6186 0
-1763 -6187 0
-1763 -6188 0
-1763 -6189 0
-1763 -6190 0
-2207 1763 6175 6176 6177 6178 6179 6180 6181 6182 6183 6184 6185 6186 6187 6188 6189 6190 0
-1766 2208 0
-6191 2202 0
-6191 1975 0
-2202 -1975 6191 0
-6192 2203 0
-6192 1974 0
-2203 -1974 6192 0
-6193 2204 0
-6193 2003 0
-2204 -2003 6193 0
-6194 2205 0
-6194 2020 0
-2205 -2020 6194 0
-6195 2206 0
-6195 2037 0
-2206 -2037 6195 0
-6196 2207 0
-6196 2054 0
-2207 -2054 6196 0
-6197 2209 0
-6197 2089 0
-2209 -2089 6197 0
-6198 2210 0
-6198 2106 0
-2210 -2106 6198 0
-6199 2211 0
-6199 2123 0
-2211 -2123 6199 0
-6200 2212 0
-6200 2140 0
-2212 -2140 6200 0
-6201 2213 0
-6201 2157 0
-2213 -2157 6201 0
-6202 2214 0
-6202 2174 0
-2214 -2174 6202 0
-6203 2215 0
-6203 2191 0
-2215 -2191 6203 0
-6204 2216 0
-6204 2225 0
-2216 -2225 6204 0
-6205 2217 0
-6205 2242 0
-2217 -2242 6205 0
-6206 2218 0
-6206 2259 0
-2218 -2259 6206 0
-1766 -6191 0
-1766 -6192 0
-1766 -6193 0
-1766 -6194 0
-1766 -6195 0
-1766 -6196 0
-1766 -6197 0
-1766 -6198 0
-1766 -6199 0
-1766 -6200 0
-1766 -6201 0
-1766 -6202 0
-1766 -6203 0
-1766 -6204 0
-1766 -6205 0
-1766 -6206 0
-2208 1766 6191 6192 6193 6194 6195 6196 6197 6198 6199 6200 6201 6202 6203 6204 6205 6206 0
-1769 2209 0
-6207 2202 0
-6207 1977 0
-2202 -1977 6207 0
-6208 2203 0
-6208 1976 0
-2203 -1976 6208 0
-6209 2204 0
-6209 2004 0
-2204 -2004 6209 0
-6210 2205 0
-6210 2021 0
-2205 -2021 6210 0
-6211 2206 0
-6211 2038 0
-2206 -2038 6211 0
-6212 2207 0
-6212 2055 0
-2207 -2055 6212 0
-6213 2208 0
-6213 2072 0
-2208 -2072 6213 0
-6214 2210 0
-6214 2107 0
-2210 -2107 6214 0
-6215 2211 0
-6215 2124 0
-2211 -2124 6215 0
-6216 2212 0
-6216 2141 0
-2212 -2141 6216 0
-6217 2213 0
-6217 2158 0
-2213 -2158 6217 0
-6218 2214 0
-6218 2175 0
-2214 -2175 6218 0
-6219 2215 0
-6219 2192 0
-2215 -2192 6219 0
-6220 2216 0
-6220 2226 0
-2216 -2226 6220 0
-6221 2217 0
-6221 2243 0
-2217 -2243 6221 0
-6222 2218 0
-6222 2260 0
-2218 -2260 6222 0
-1769 -6207 0
-1769 -6208 0
-1769 -6209 0
-1769 -6210 0
-1769 -6211 0
-1769 -6212 0
-1769 -6213 0
-1769 -6214 0
-1769 -6215 0
-1769 -6216 0
-1769 -6217 0
-1769 -6218 0
-1769 -6219 0
-1769 -6220 0
-1769 -6221 0
-1769 -6222 0
-2209 1769 6207 6208 6209 6210 6211 6212 6213 6214 6215 6216 6217 6218 6219 6220 6221 6222 0
-1772 2210 0
-6223 2202 0
-6223 1979 0
-2202 -1979 6223 0
-6224 2203 0
-6224 1978 0
-2203 -1978 6224 0
-6225 2204 0
-6225 2005 0
-2204 -2005 6225 0
-6226 2205 0
-6226 2022 0
-2205 -2022 6226 0
-6227 2206 0
-6227 2039 0
-2206 -2039 6227 0
-6228 2207 0
-6228 2056 0
-2207 -2056 6228 0
-6229 2208 0
-6229 2073 0
-2208 -2073 6229 0
-6230 2209 0
-6230 2090 0
-2209 -2090 6230 0
-6231 2211 0
-6231 2125 0
-2211 -2125 6231 0
-6232 2212 0
-6232 2142 0
-2212 -2142 6232 0
-6233 2213 0
-6233 2159 0
-2213 -2159 6233 0
-6234 2214 0
-6234 2176 0
-2214 -2176 6234 0
-6235 2215 0
-6235 2193 0
-2215 -2193 6235 0
-6236 2216 0
-6236 2227 0
-2216 -2227 6236 0
-6237 2217 0
-6237 2244 0
-2217 -2244 6237 0
-6238 2218 0
-6238 2261 0
-2218 -2261 6238 0
-1772 -6223 0
-1772 -6224 0
-1772 -6225 0
-1772 -6226 0
-1772 -6227 0
-1772 -6228 0
-1772 -6229 0
-1772 -6230 0
-1772 -6231 0
-1772 -6232 0
-1772 -6233 0
-1772 -6234 0
-1772 -6235 0
-1772 -6236 0
-1772 -6237 0
-1772 -6238 0
-2210 1772 6223 6224 6225 6226 6227 6228 6229 6230 6231 6232 6233 6234 6235 6236 6237 6238 0
-1775 2211 0
-6239 2202 0
-6239 1981 0
-2202 -1981 6239 0
-6240 2203 0
-6240 1980 0
-2203 -1980 6240 0
-6241 2204 0
-6241 2006 0
-2204 -2006 6241 0
-6242 2205 0
-6242 2023 0
-2205 -2023 6242 0
-6243 2206 0
-6243 2040 0
-2206 -2040 6243 0
-6244 2207 0
-6244 2057 0
-2207 -2057 6244 0
-6245 2208 0
-6245 2074 0
-2208 -2074 6245 0
-6246 2209 0
-6246 2091 0
-2209 -2091 6246 0
-6247 2210 0
-6247 2108 0
-2210 -2108 6247 0
-6248 2212 0
-6248 2143 0
-2212 -2143 6248 0
-6249 2213 0
-6249 2160 0
-2213 -2160 6249 0
-6250 2214 0
-6250 2177 0
-2214 -2177 6250 0
-6251 2215 0
-6251 2194 0
-2215 -2194 6251 0
-6252 2216 0
-6252 2228 0
-2216 -2228 6252 0
-6253 2217 0
-6253 2245 0
-2217 -2245 6253 0
-6254 2218 0
-6254 2262 0
-2218 -2262 6254 0
-1775 -6239 0
-1775 -6240 0
-1775 -6241 0
-1775 -6242 0
-1775 -6243 0
-1775 -6244 0
-1775 -6245 0
-1775 -6246 0
-1775 -6247 0
-1775 -6248 0
-1775 -6249 0
-1775 -6250 0
-1775 -6251 0
-1775 -6252 0
-1775 -6253 0
-1775 -6254 0
-2211 1775 6239 6240 6241 6242 6243 6244 6245 6246 6247 6248 6249 6250 6251 6252 6253 6254 0
-1778 2212 0
-6255 2202 0
-6255 1983 0
-2202 -1983 6255 0
-6256 2203 0
-6256 1982 0
-2203 -1982 6256 0
-6257 2204 0
-6257 2007 0
-2204 -2007 6257 0
-6258 2205 0
-6258 2024 0
-2205 -2024 6258 0
-6259 2206 0
-6259 2041 0
-2206 -2041 6259 0
-6260 2207 0
-6260 2058 0
-2207 -2058 6260 0
-6261 2208 0
-6261 2075 0
-2208 -2075 6261 0
-6262 2209 0
-6262 2092 0
-2209 -2092 6262 0
-6263 2210 0
-6263 2109 0
-2210 -2109 6263 0
-6264 2211 0
-6264 2126 0
-2211 -2126 6264 0
-6265 2213 0
-6265 2161 0
-2213 -2161 6265 0
-6266 2214 0
-6266 2178 0
-2214 -2178 6266 0
-6267 2215 0
-6267 2195 0
-2215 -2195 6267 0
-6268 2216 0
-6268 2229 0
-2216 -2229 6268 0
-6269 2217 0
-6269 2246 0
-2217 -2246 6269 0
-6270 2218 0
-6270 2263 0
-2218 -2263 6270 0
-1778 -6255 0
-1778 -6256 0
-1778 -6257 0
-1778 -6258 0
-1778 -6259 0
-1778 -6260 0
-1778 -6261 0
-1778 -6262 0
-1778 -6263 0
-1778 -6264 0
-1778 -6265 0
-1778 -6266 0
-1778 -6267 0
-1778 -6268 0
-1778 -6269 0
-1778 -6270 0
-2212 1778 6255 6256 6257 6258 6259 6260 6261 6262 6263 6264 6265 6266 6267 6268 6269 6270 0
-1781 2213 0
-6271 2202 0
-6271 1985 0
-2202 -1985 6271 0
-6272 2203 0
-6272 1984 0
-2203 -1984 6272 0
-6273 2204 0
-6273 2008 0
-2204 -2008 6273 0
-6274 2205 0
-6274 2025 0
-2205 -2025 6274 0
-6275 2206 0
-6275 2042 0
-2206 -2042 6275 0
-6276 2207 0
-6276 2059 0
-2207 -2059 6276 0
-6277 2208 0
-6277 2076 0
-2208 -2076 6277 0
-6278 2209 0
-6278 2093 0
-2209 -2093 6278 0
-6279 2210 0
-6279 2110 0
-2210 -2110 6279 0
-6280 2211 0
-6280 2127 0
-2211 -2127 6280 0
-6281 2212 0
-6281 2144 0
-2212 -2144 6281 0
-6282 2214 0
-6282 2179 0
-2214 -2179 6282 0
-6283 2215 0
-6283 2196 0
-2215 -2196 6283 0
-6284 2216 0
-6284 2230 0
-2216 -2230 6284 0
-6285 2217 0
-6285 2247 0
-2217 -2247 6285 0
-6286 2218 0
-6286 2264 0
-2218 -2264 6286 0
-1781 -6271 0
-1781 -6272 0
-1781 -6273 0
-1781 -6274 0
-1781 -6275 0
-1781 -6276 0
-1781 -6277 0
-1781 -6278 0
-1781 -6279 0
-1781 -6280 0
-1781 -6281 0
-1781 -6282 0
-1781 -6283 0
-1781 -6284 0
-1781 -6285 0
-1781 -6286 0
-2213 1781 6271 6272 6273 6274 6275 6276 6277 6278 6279 6280 6281 6282 6283 6284 6285 6286 0
-1784 2214 0
-6287 2202 0
-6287 1987 0
-2202 -1987 6287 0
-6288 2203 0
-6288 1986 0
-2203 -1986 6288 0
-6289 2204 0
-6289 2009 0
-2204 -2009 6289 0
-6290 2205 0
-6290 2026 0
-2205 -2026 6290 0
-6291 2206 0
-6291 2043 0
-2206 -2043 6291 0
-6292 2207 0
-6292 2060 0
-2207 -2060 6292 0
-6293 2208 0
-6293 2077 0
-2208 -2077 6293 0
-6294 2209 0
-6294 2094 0
-2209 -2094 6294 0
-6295 2210 0
-6295 2111 0
-2210 -2111 6295 0
-6296 2211 0
-6296 2128 0
-2211 -2128 6296 0
-6297 2212 0
-6297 2145 0
-2212 -2145 6297 0
-6298 2213 0
-6298 2162 0
-2213 -2162 6298 0
-6299 2215 0
-6299 2197 0
-2215 -2197 6299 0
-6300 2216 0
-6300 2231 0
-2216 -2231 6300 0
-6301 2217 0
-6301 2248 0
-2217 -2248 6301 0
-6302 2218 0
-6302 2265 0
-2218 -2265 6302 0
-1784 -6287 0
-1784 -6288 0
-1784 -6289 0
-1784 -6290 0
-1784 -6291 0
-1784 -6292 0
-1784 -6293 0
-1784 -6294 0
-1784 -6295 0
-1784 -6296 0
-1784 -6297 0
-1784 -6298 0
-1784 -6299 0
-1784 -6300 0
-1784 -6301 0
-1784 -6302 0
-2214 1784 6287 6288 6289 6290 6291 6292 6293 6294 6295 6296 6297 6298 6299 6300 6301 6302 0
-1787 2215 0
-6303 2202 0
-6303 1989 0
-2202 -1989 6303 0
-6304 2203 0
-6304 1988 0
-2203 -1988 6304 0
-6305 2204 0
-6305 2010 0
-2204 -2010 6305 0
-6306 2205 0
-6306 2027 0
-2205 -2027 6306 0
-6307 2206 0
-6307 2044 0
-2206 -2044 6307 0
-6308 2207 0
-6308 2061 0
-2207 -2061 6308 0
-6309 2208 0
-6309 2078 0
-2208 -2078 6309 0
-6310 2209 0
-6310 2095 0
-2209 -2095 6310 0
-6311 2210 0
-6311 2112 0
-2210 -2112 6311 0
-6312 2211 0
-6312 2129 0
-2211 -2129 6312 0
-6313 2212 0
-6313 2146 0
-2212 -2146 6313 0
-6314 2213 0
-6314 2163 0
-2213 -2163 6314 0
-6315 2214 0
-6315 2180 0
-2214 -2180 6315 0
-6316 2216 0
-6316 2232 0
-2216 -2232 6316 0
-6317 2217 0
-6317 2249 0
-2217 -2249 6317 0
-6318 2218 0
-6318 2266 0
-2218 -2266 6318 0
-1787 -6303 0
-1787 -6304 0
-1787 -6305 0
-1787 -6306 0
-1787 -6307 0
-1787 -6308 0
-1787 -6309 0
-1787 -6310 0
-1787 -6311 0
-1787 -6312 0
-1787 -6313 0
-1787 -6314 0
-1787 -6315 0
-1787 -6316 0
-1787 -6317 0
-1787 -6318 0
-2215 1787 6303 6304 6305 6306 6307 6308 6309 6310 6311 6312 6313 6314 6315 6316 6317 6318 0
-1790 0
-1793 2216 0
-6319 2202 0
-6319 1993 0
-2202 -1993 6319 0
-6320 2203 0
-6320 1992 0
-2203 -1992 6320 0
-6321 2204 0
-6321 2012 0
-2204 -2012 6321 0
-6322 2205 0
-6322 2029 0
-2205 -2029 6322 0
-6323 2206 0
-6323 2046 0
-2206 -2046 6323 0
-6324 2207 0
-6324 2063 0
-2207 -2063 6324 0
-6325 2208 0
-6325 2080 0
-2208 -2080 6325 0
-6326 2209 0
-6326 2097 0
-2209 -2097 6326 0
-6327 2210 0
-6327 2114 0
-2210 -2114 6327 0
-6328 2211 0
-6328 2131 0
-2211 -2131 6328 0
-6329 2212 0
-6329 2148 0
-2212 -2148 6329 0
-6330 2213 0
-6330 2165 0
-2213 -2165 6330 0
-6331 2214 0
-6331 2182 0
-2214 -2182 6331 0
-6332 2215 0
-6332 2199 0
-2215 -2199 6332 0
-6333 2217 0
-6333 2251 0
-2217 -2251 6333 0
-6334 2218 0
-6334 2268 0
-2218 -2268 6334 0
-1793 -6319 0
-1793 -6320 0
-1793 -6321 0
-1793 -6322 0
-1793 -6323 0
-1793 -6324 0
-1793 -6325 0
-1793 -6326 0
-1793 -6327 0
-1793 -6328 0
-1793 -6329 0
-1793 -6330 0
-1793 -6331 0
-1793 -6332 0
-1793 -6333 0
-1793 -6334 0
-2216 1793 6319 6320 6321 6322 6323 6324 6325 6326 6327 6328 6329 6330 6331 6332 6333 6334 0
-1796 2217 0
-6335 2202 0
-6335 1995 0
-2202 -1995 6335 0
-6336 2203 0
-6336 1994 0
-2203 -1994 6336 0
-6337 2204 0
-6337 2013 0
-2204 -2013 6337 0
-6338 2205 0
-6338 2030 0
-2205 -2030 6338 0
-6339 2206 0
-6339 2047 0
-2206 -2047 6339 0
-6340 2207 0
-6340 2064 0
-2207 -2064 6340 0
-6341 2208 0
-6341 2081 0
-2208 -2081 6341 0
-6342 2209 0
-6342 2098 0
-2209 -2098 6342 0
-6343 2210 0
-6343 2115 0
-2210 -2115 6343 0
-6344 2211 0
-6344 2132 0
-2211 -2132 6344 0
-6345 2212 0
-6345 2149 0
-2212 -2149 6345 0
-6346 2213 0
-6346 2166 0
-2213 -2166 6346 0
-6347 2214 0
-6347 2183 0
-2214 -2183 6347 0
-6348 2215 0
-6348 2200 0
-2215 -2200 6348 0
-6349 2216 0
-6349 2234 0
-2216 -2234 6349 0
-6350 2218 0
-6350 2269 0
-2218 -2269 6350 0
-1796 -6335 0
-1796 -6336 0
-1796 -6337 0
-1796 -6338 0
-1796 -6339 0
-1796 -6340 0
-1796 -6341 0
-1796 -6342 0
-1796 -6343 0
-1796 -6344 0
-1796 -6345 0
-1796 -6346 0
-1796 -6347 0
-1796 -6348 0
-1796 -6349 0
-1796 -6350 0
-2217 1796 6335 6336 6337 6338 6339 6340 6341 6342 6343 6344 6345 6346 6347 6348 6349 6350 0
-1799 2218 0
-6351 2202 0
-6351 1997 0
-2202 -1997 6351 0
-6352 2203 0
-6352 1996 0
-2203 -1996 6352 0
-6353 2204 0
-6353 2014 0
-2204 -2014 6353 0
-6354 2205 0
-6354 2031 0
-2205 -2031 6354 0
-6355 2206 0
-6355 2048 0
-2206 -2048 6355 0
-6356 2207 0
-6356 2065 0
-2207 -2065 6356 0
-6357 2208 0
-6357 2082 0
-2208 -2082 6357 0
-6358 2209 0
-6358 2099 0
-2209 -2099 6358 0
-6359 2210 0
-6359 2116 0
-2210 -2116 6359 0
-6360 2211 0
-6360 2133 0
-2211 -2133 6360 0
-6361 2212 0
-6361 2150 0
-2212 -2150 6361 0
-6362 2213 0
-6362 2167 0
-2213 -2167 6362 0
-6363 2214 0
-6363 2184 0
-2214 -2184 6363 0
-6364 2215 0
-6364 2201 0
-2215 -2201 6364 0
-6365 2216 0
-6365 2235 0
-2216 -2235 6365 0
-6366 2217 0
-6366 2252 0
-2217 -2252 6366 0
-1799 -6351 0
-1799 -6352 0
-1799 -6353 0
-1799 -6354 0
-1799 -6355 0
-1799 -6356 0
-1799 -6357 0
-1799 -6358 0
-1799 -6359 0
-1799 -6360 0
-1799 -6361 0
-1799 -6362 0
-1799 -6363 0
-1799 -6364 0
-1799 -6365 0
-1799 -6366 0
-2218 1799 6351 6352 6353 6354 6355 6356 6357 6358 6359 6360 6361 6362 6363 6364 6365 6366 0
-1802 2219 0
-6367 2220 0
-6367 1965 0
-2220 -1965 6367 0
-6368 2221 0
-6368 1998 0
-2221 -1998 6368 0
-6369 2222 0
-6369 2015 0
-2222 -2015 6369 0
-6370 2223 0
-6370 2032 0
-2223 -2032 6370 0
-6371 2224 0
-6371 2049 0
-2224 -2049 6371 0
-6372 2225 0
-6372 2066 0
-2225 -2066 6372 0
-6373 2226 0
-6373 2083 0
-2226 -2083 6373 0
-6374 2227 0
-6374 2100 0
-2227 -2100 6374 0
-6375 2228 0
-6375 2117 0
-2228 -2117 6375 0
-6376 2229 0
-6376 2134 0
-2229 -2134 6376 0
-6377 2230 0
-6377 2151 0
-2230 -2151 6377 0
-6378 2231 0
-6378 2168 0
-2231 -2168 6378 0
-6379 2232 0
-6379 2185 0
-2232 -2185 6379 0
-6380 2233 0
-6380 2202 0
-2233 -2202 6380 0
-6381 2234 0
-6381 2236 0
-2234 -2236 6381 0
-6382 2235 0
-6382 2253 0
-2235 -2253 6382 0
-1802 -6367 0
-1802 -6368 0
-1802 -6369 0
-1802 -6370 0
-1802 -6371 0
-1802 -6372 0
-1802 -6373 0
-1802 -6374 0
-1802 -6375 0
-1802 -6376 0
-1802 -6377 0
-1802 -6378 0
-1802 -6379 0
-1802 -6380 0
-1802 -6381 0
-1802 -6382 0
-2219 1802 6367 6368 6369 6370 6371 6372 6373 6374 6375 6376 6377 6378 6379 6380 6381 6382 0
-1805 2220 0
-6383 2219 0
-6383 1964 0
-2219 -1964 6383 0
-6384 2221 0
-6384 1999 0
-2221 -1999 6384 0
-6385 2222 0
-6385 2016 0
-2222 -2016 6385 0
-6386 2223 0
-6386 2033 0
-2223 -2033 6386 0
-6387 2224 0
-6387 2050 0
-2224 -2050 6387 0
-6388 2225 0
-6388 2067 0
-2225 -2067 6388 0
-6389 2226 0
-6389 2084 0
-2226 -2084 6389 0
-6390 2227 0
-6390 2101 0
-2227 -2101 6390 0
-6391 2228 0
-6391 2118 0
-2228 -2118 6391 0
-6392 2229 0
-6392 2135 0
-2229 -2135 6392 0
-6393 2230 0
-6393 2152 0
-2230 -2152 6393 0
-6394 2231 0
-6394 2169 0
-2231 -2169 6394 0
-6395 2232 0
-6395 2186 0
-2232 -2186 6395 0
-6396 2233 0
-6396 2203 0
-2233 -2203 6396 0
-6397 2234 0
-6397 2237 0
-2234 -2237 6397 0
-6398 2235 0
-6398 2254 0
-2235 -2254 6398 0
-1805 -6383 0
-1805 -6384 0
-1805 -6385 0
-1805 -6386 0
-1805 -6387 0
-1805 -6388 0
-1805 -6389 0
-1805 -6390 0
-1805 -6391 0
-1805 -6392 0
-1805 -6393 0
-1805 -6394 0
-1805 -6395 0
-1805 -6396 0
-1805 -6397 0
-1805 -6398 0
-2220 1805 6383 6384 6385 6386 6387 6388 6389 6390 6391 6392 6393 6394 6395 6396 6397 6398 0
-1808 2221 0
-6399 2219 0
-6399 1967 0
-2219 -1967 6399 0
-6400 2220 0
-6400 1966 0
-2220 -1966 6400 0
-6401 2222 0
-6401 2017 0
-2222 -2017 6401 0
-6402 2223 0
-6402 2034 0
-2223 -2034 6402 0
-6403 2224 0
-6403 2051 0
-2224 -2051 6403 0
-6404 2225 0
-6404 2068 0
-2225 -2068 6404 0
-6405 2226 0
-6405 2085 0
-2226 -2085 6405 0
-6406 2227 0
-6406 2102 0
-2227 -2102 6406 0
-6407 2228 0
-6407 2119 0
-2228 -2119 6407 0
-6408 2229 0
-6408 2136 0
-2229 -2136 6408 0
-6409 2230 0
-6409 2153 0
-2230 -2153 6409 0
-6410 2231 0
-6410 2170 0
-2231 -2170 6410 0
-6411 2232 0
-6411 2187 0
-2232 -2187 6411 0
-6412 2233 0
-6412 2204 0
-2233 -2204 6412 0
-6413 2234 0
-6413 2238 0
-2234 -2238 6413 0
-6414 2235 0
-6414 2255 0
-2235 -2255 6414 0
-1808 -6399 0
-1808 -6400 0
-1808 -6401 0
-1808 -6402 0
-1808 -6403 0
-1808 -6404 0
-1808 -6405 0
-1808 -6406 0
-1808 -6407 0
-1808 -6408 0
-1808 -6409 0
-1808 -6410 0
-1808 -6411 0
-1808 -6412 0
-1808 -6413 0
-1808 -6414 0
-2221 1808 6399 6400 6401 6402 6403 6404 6405 6406 6407 6408 6409 6410 6411 6412 6413 6414 0
-1811 2222 0
-6415 2219 0
-6415 1969 0
-2219 -1969 6415 0
-6416 2220 0
-6416 1968 0
-2220 -1968 6416 0
-6417 2221 0
-6417 2000 0
-2221 -2000 6417 0
-6418 2223 0
-6418 2035 0
-2223 -2035 6418 0
-6419 2224 0
-6419 2052 0
-2224 -2052 6419 0
-6420 2225 0
-6420 2069 0
-2225 -2069 6420 0
-6421 2226 0
-6421 2086 0
-2226 -2086 6421 0
-6422 2227 0
-6422 2103 0
-2227 -2103 6422 0
-6423 2228 0
-6423 2120 0
-2228 -2120 6423 0
-6424 2229 0
-6424 2137 0
-2229 -2137 6424 0
-6425 2230 0
-6425 2154 0
-2230 -2154 6425 0
-6426 2231 0
-6426 2171 0
-2231 -2171 6426 0
-6427 2232 0
-6427 2188 0
-2232 -2188 6427 0
-6428 2233 0
-6428 2205 0
-2233 -2205 6428 0
-6429 2234 0
-6429 2239 0
-2234 -2239 6429 0
-6430 2235 0
-6430 2256 0
-2235 -2256 6430 0
-1811 -6415 0
-1811 -6416 0
-1811 -6417 0
-1811 -6418 0
-1811 -6419 0
-1811 -6420 0
-1811 -6421 0
-1811 -6422 0
-1811 -6423 0
-1811 -6424 0
-1811 -6425 0
-1811 -6426 0
-1811 -6427 0
-1811 -6428 0
-1811 -6429 0
-1811 -6430 0
-2222 1811 6415 6416 6417 6418 6419 6420 6421 6422 6423 6424 6425 6426 6427 6428 6429 6430 0
-1814 2223 0
-6431 2219 0
-6431 1971 0
-2219 -1971 6431 0
-6432 2220 0
-6432 1970 0
-2220 -1970 6432 0
-6433 2221 0
-6433 2001 0
-2221 -2001 6433 0
-6434 2222 0
-6434 2018 0
-2222 -2018 6434 0
-6435 2224 0
-6435 2053 0
-2224 -2053 6435 0
-6436 2225 0
-6436 2070 0
-2225 -2070 6436 0
-6437 2226 0
-6437 2087 0
-2226 -2087 6437 0
-6438 2227 0
-6438 2104 0
-2227 -2104 6438 0
-6439 2228 0
-6439 2121 0
-2228 -2121 6439 0
-6440 2229 0
-6440 2138 0
-2229 -2138 6440 0
-6441 2230 0
-6441 2155 0
-2230 -2155 6441 0
-6442 2231 0
-6442 2172 0
-2231 -2172 6442 0
-6443 2232 0
-6443 2189 0
-2232 -2189 6443 0
-6444 2233 0
-6444 2206 0
-2233 -2206 6444 0
-6445 2234 0
-6445 2240 0
-2234 -2240 6445 0
-6446 2235 0
-6446 2257 0
-2235 -2257 6446 0
-1814 -6431 0
-1814 -6432 0
-1814 -6433 0
-1814 -6434 0
-1814 -6435 0
-1814 -6436 0
-1814 -6437 0
-1814 -6438 0
-1814 -6439 0
-1814 -6440 0
-1814 -6441 0
-1814 -6442 0
-1814 -6443 0
-1814 -6444 0
-1814 -6445 0
-1814 -6446 0
-2223 1814 6431 6432 6433 6434 6435 6436 6437 6438 6439 6440 6441 6442 6443 6444 6445 6446 0
-1817 2224 0
-6447 2219 0
-6447 1973 0
-2219 -1973 6447 0
-6448 2220 0
-6448 1972 0
-2220 -1972 6448 0
-6449 2221 0
-6449 2002 0
-2221 -2002 6449 0
-6450 2222 0
-6450 2019 0
-2222 -2019 6450 0
-6451 2223 0
-6451 2036 0
-2223 -2036 6451 0
-6452 2225 0
-6452 2071 0
-2225 -2071 6452 0
-6453 2226 0
-6453 2088 0
-2226 -2088 6453 0
-6454 2227 0
-6454 2105 0
-2227 -2105 6454 0
-6455 2228 0
-6455 2122 0
-2228 -2122 6455 0
-6456 2229 0
-6456 2139 0
-2229 -2139 6456 0
-6457 2230 0
-6457 2156 0
-2230 -2156 6457 0
-6458 2231 0
-6458 2173 0
-2231 -2173 6458 0
-6459 2232 0
-6459 2190 0
-2232 -2190 6459 0
-6460 2233 0
-6460 2207 0
-2233 -2207 6460 0
-6461 2234 0
-6461 2241 0
-2234 -2241 6461 0
-6462 2235 0
-6462 2258 0
-2235 -2258 6462 0
-1817 -6447 0
-1817 -6448 0
-1817 -6449 0
-1817 -6450 0
-1817 -6451 0
-1817 -6452 0
-1817 -6453 0
-1817 -6454 0
-1817 -6455 0
-1817 -6456 0
-1817 -6457 0
-1817 -6458 0
-1817 -6459 0
-1817 -6460 0
-1817 -6461 0
-1817 -6462 0
-2224 1817 6447 6448 6449 6450 6451 6452 6453 6454 6455 6456 6457 6458 6459 6460 6461 6462 0
-1820 2225 0
-6463 2219 0
-6463 1975 0
-2219 -1975 6463 0
-6464 2220 0
-6464 1974 0
-2220 -1974 6464 0
-6465 2221 0
-6465 2003 0
-2221 -2003 6465 0
-6466 2222 0
-6466 2020 0
-2222 -2020 6466 0
-6467 2223 0
-6467 2037 0
-2223 -2037 6467 0
-6468 2224 0
-6468 2054 0
-2224 -2054 6468 0
-6469 2226 0
-6469 2089 0
-2226 -2089 6469 0
-6470 2227 0
-6470 2106 0
-2227 -2106 6470 0
-6471 2228 0
-6471 2123 0
-2228 -2123 6471 0
-6472 2229 0
-6472 2140 0
-2229 -2140 6472 0
-6473 2230 0
-6473 2157 0
-2230 -2157 6473 0
-6474 2231 0
-6474 2174 0
-2231 -2174 6474 0
-6475 2232 0
-6475 2191 0
-2232 -2191 6475 0
-6476 2233 0
-6476 2208 0
-2233 -2208 6476 0
-6477 2234 0
-6477 2242 0
-2234 -2242 6477 0
-6478 2235 0
-6478 2259 0
-2235 -2259 6478 0
-1820 -6463 0
-1820 -6464 0
-1820 -6465 0
-1820 -6466 0
-1820 -6467 0
-1820 -6468 0
-1820 -6469 0
-1820 -6470 0
-1820 -6471 0
-1820 -6472 0
-1820 -6473 0
-1820 -6474 0
-1820 -6475 0
-1820 -6476 0
-1820 -6477 0
-1820 -6478 0
-2225 1820 6463 6464 6465 6466 6467 6468 6469 6470 6471 6472 6473 6474 6475 6476 6477 6478 0
-1823 2226 0
-6479 2219 0
-6479 1977 0
-2219 -1977 6479 0
-6480 2220 0
-6480 1976 0
-2220 -1976 6480 0
-6481 2221 0
-6481 2004 0
-2221 -2004 6481 0
-6482 2222 0
-6482 2021 0
-2222 -2021 6482 0
-6483 2223 0
-6483 2038 0
-2223 -2038 6483 0
-6484 2224 0
-6484 2055 0
-2224 -2055 6484 0
-6485 2225 0
-6485 2072 0
-2225 -2072 6485 0
-6486 2227 0
-6486 2107 0
-2227 -2107 6486 0
-6487 2228 0
-6487 2124 0
-2228 -2124 6487 0
-6488 2229 0
-6488 2141 0
-2229 -2141 6488 0
-6489 2230 0
-6489 2158 0
-2230 -2158 6489 0
-6490 2231 0
-6490 2175 0
-2231 -2175 6490 0
-6491 2232 0
-6491 2192 0
-2232 -2192 6491 0
-6492 2233 0
-6492 2209 0
-2233 -2209 6492 0
-6493 2234 0
-6493 2243 0
-2234 -2243 6493 0
-6494 2235 0
-6494 2260 0
-2235 -2260 6494 0
-1823 -6479 0
-1823 -6480 0
-1823 -6481 0
-1823 -6482 0
-1823 -6483 0
-1823 -6484 0
-1823 -6485 0
-1823 -6486 0
-1823 -6487 0
-1823 -6488 0
-1823 -6489 0
-1823 -6490 0
-1823 -6491 0
-1823 -6492 0
-1823 -6493 0
-1823 -6494 0
-2226 1823 6479 6480 6481 6482 6483 6484 6485 6486 6487 6488 6489 6490 6491 6492 6493 6494 0
-1826 2227 0
-6495 2219 0
-6495 1979 0
-2219 -1979 6495 0
-6496 2220 0
-6496 1978 0
-2220 -1978 6496 0
-6497 2221 0
-6497 2005 0
-2221 -2005 6497 0
-6498 2222 0
-6498 2022 0
-2222 -2022 6498 0
-6499 2223 0
-6499 2039 0
-2223 -2039 6499 0
-6500 2224 0
-6500 2056 0
-2224 -2056 6500 0
-6501 2225 0
-6501 2073 0
-2225 -2073 6501 0
-6502 2226 0
-6502 2090 0
-2226 -2090 6502 0
-6503 2228 0
-6503 2125 0
-2228 -2125 6503 0
-6504 2229 0
-6504 2142 0
-2229 -2142 6504 0
-6505 2230 0
-6505 2159 0
-2230 -2159 6505 0
-6506 2231 0
-6506 2176 0
-2231 -2176 6506 0
-6507 2232 0
-6507 2193 0
-2232 -2193 6507 0
-6508 2233 0
-6508 2210 0
-2233 -2210 6508 0
-6509 2234 0
-6509 2244 0
-2234 -2244 6509 0
-6510 2235 0
-6510 2261 0
-2235 -2261 6510 0
-1826 -6495 0
-1826 -6496 0
-1826 -6497 0
-1826 -6498 0
-1826 -6499 0
-1826 -6500 0
-1826 -6501 0
-1826 -6502 0
-1826 -6503 0
-1826 -6504 0
-1826 -6505 0
-1826 -6506 0
-1826 -6507 0
-1826 -6508 0
-1826 -6509 0
-1826 -6510 0
-2227 1826 6495 6496 6497 6498 6499 6500 6501 6502 6503 6504 6505 6506 6507 6508 6509 6510 0
-1829 2228 0
-6511 2219 0
-6511 1981 0
-2219 -1981 6511 0
-6512 2220 0
-6512 1980 0
-2220 -1980 6512 0
-6513 2221 0
-6513 2006 0
-2221 -2006 6513 0
-6514 2222 0
-6514 2023 0
-2222 -2023 6514 0
-6515 2223 0
-6515 2040 0
-2223 -2040 6515 0
-6516 2224 0
-6516 2057 0
-2224 -2057 6516 0
-6517 2225 0
-6517 2074 0
-2225 -2074 6517 0
-6518 2226 0
-6518 2091 0
-2226 -2091 6518 0
-6519 2227 0
-6519 2108 0
-2227 -2108 6519 0
-6520 2229 0
-6520 2143 0
-2229 -2143 6520 0
-6521 2230 0
-6521 2160 0
-2230 -2160 6521 0
-6522 2231 0
-6522 2177 0
-2231 -2177 6522 0
-6523 2232 0
-6523 2194 0
-2232 -2194 6523 0
-6524 2233 0
-6524 2211 0
-2233 -2211 6524 0
-6525 2234 0
-6525 2245 0
-2234 -2245 6525 0
-6526 2235 0
-6526 2262 0
-2235 -2262 6526 0
-1829 -6511 0
-1829 -6512 0
-1829 -6513 0
-1829 -6514 0
-1829 -6515 0
-1829 -6516 0
-1829 -6517 0
-1829 -6518 0
-1829 -6519 0
-1829 -6520 0
-1829 -6521 0
-1829 -6522 0
-1829 -6523 0
-1829 -6524 0
-1829 -6525 0
-1829 -6526 0
-2228 1829 6511 6512 6513 6514 6515 6516 6517 6518 6519 6520 6521 6522 6523 6524 6525 6526 0
-1832 2229 0
-6527 2219 0
-6527 1983 0
-2219 -1983 6527 0
-6528 2220 0
-6528 1982 0
-2220 -1982 6528 0
-6529 2221 0
-6529 2007 0
-2221 -2007 6529 0
-6530 2222 0
-6530 2024 0
-2222 -2024 6530 0
-6531 2223 0
-6531 2041 0
-2223 -2041 6531 0
-6532 2224 0
-6532 2058 0
-2224 -2058 6532 0
-6533 2225 0
-6533 2075 0
-2225 -2075 6533 0
-6534 2226 0
-6534 2092 0
-2226 -2092 6534 0
-6535 2227 0
-6535 2109 0
-2227 -2109 6535 0
-6536 2228 0
-6536 2126 0
-2228 -2126 6536 0
-6537 2230 0
-6537 2161 0
-2230 -2161 6537 0
-6538 2231 0
-6538 2178 0
-2231 -2178 6538 0
-6539 2232 0
-6539 2195 0
-2232 -2195 6539 0
-6540 2233 0
-6540 2212 0
-2233 -2212 6540 0
-6541 2234 0
-6541 2246 0
-2234 -2246 6541 0
-6542 2235 0
-6542 2263 0
-2235 -2263 6542 0
-1832 -6527 0
-1832 -6528 0
-1832 -6529 0
-1832 -6530 0
-1832 -6531 0
-1832 -6532 0
-1832 -6533 0
-1832 -6534 0
-1832 -6535 0
-1832 -6536 0
-1832 -6537 0
-1832 -6538 0
-1832 -6539 0
-1832 -6540 0
-1832 -6541 0
-1832 -6542 0
-2229 1832 6527 6528 6529 6530 6531 6532 6533 6534 6535 6536 6537 6538 6539 6540 6541 6542 0
-1835 2230 0
-6543 2219 0
-6543 1985 0
-2219 -1985 6543 0
-6544 2220 0
-6544 1984 0
-2220 -1984 6544 0
-6545 2221 0
-6545 2008 0
-2221 -2008 6545 0
-6546 2222 0
-6546 2025 0
-2222 -2025 6546 0
-6547 2223 0
-6547 2042 0
-2223 -2042 6547 0
-6548 2224 0
-6548 2059 0
-2224 -2059 6548 0
-6549 2225 0
-6549 2076 0
-2225 -2076 6549 0
-6550 2226 0
-6550 2093 0
-2226 -2093 6550 0
-6551 2227 0
-6551 2110 0
-2227 -2110 6551 0
-6552 2228 0
-6552 2127 0
-2228 -2127 6552 0
-6553 2229 0
-6553 2144 0
-2229 -2144 6553 0
-6554 2231 0
-6554 2179 0
-2231 -2179 6554 0
-6555 2232 0
-6555 2196 0
-2232 -2196 6555 0
-6556 2233 0
-6556 2213 0
-2233 -2213 6556 0
-6557 2234 0
-6557 2247 0
-2234 -2247 6557 0
-6558 2235 0
-6558 2264 0
-2235 -2264 6558 0
-1835 -6543 0
-1835 -6544 0
-1835 -6545 0
-1835 -6546 0
-1835 -6547 0
-1835 -6548 0
-1835 -6549 0
-1835 -6550 0
-1835 -6551 0
-1835 -6552 0
-1835 -6553 0
-1835 -6554 0
-1835 -6555 0
-1835 -6556 0
-1835 -6557 0
-1835 -6558 0
-2230 1835 6543 6544 6545 6546 6547 6548 6549 6550 6551 6552 6553 6554 6555 6556 6557 6558 0
-1838 2231 0
-6559 2219 0
-6559 1987 0
-2219 -1987 6559 0
-6560 2220 0
-6560 1986 0
-2220 -1986 6560 0
-6561 2221 0
-6561 2009 0
-2221 -2009 6561 0
-6562 2222 0
-6562 2026 0
-2222 -2026 6562 0
-6563 2223 0
-6563 2043 0
-2223 -2043 6563 0
-6564 2224 0
-6564 2060 0
-2224 -2060 6564 0
-6565 2225 0
-6565 2077 0
-2225 -2077 6565 0
-6566 2226 0
-6566 2094 0
-2226 -2094 6566 0
-6567 2227 0
-6567 2111 0
-2227 -2111 6567 0
-6568 2228 0
-6568 2128 0
-2228 -2128 6568 0
-6569 2229 0
-6569 2145 0
-2229 -2145 6569 0
-6570 2230 0
-6570 2162 0
-2230 -2162 6570 0
-6571 2232 0
-6571 2197 0
-2232 -2197 6571 0
-6572 2233 0
-6572 2214 0
-2233 -2214 6572 0
-6573 2234 0
-6573 2248 0
-2234 -2248 6573 0
-6574 2235 0
-6574 2265 0
-2235 -2265 6574 0
-1838 -6559 0
-1838 -6560 0
-1838 -6561 0
-1838 -6562 0
-1838 -6563 0
-1838 -6564 0
-1838 -6565 0
-1838 -6566 0
-1838 -6567 0
-1838 -6568 0
-1838 -6569 0
-1838 -6570 0
-1838 -6571 0
-1838 -6572 0
-1838 -6573 0
-1838 -6574 0
-2231 1838 6559 6560 6561 6562 6563 6564 6565 6566 6567 6568 6569 6570 6571 6572 6573 6574 0
-1841 2232 0
-6575 2219 0
-6575 1989 0
-2219 -1989 6575 0
-6576 2220 0
-6576 1988 0
-2220 -1988 6576 0
-6577 2221 0
-6577 2010 0
-2221 -2010 6577 0
-6578 2222 0
-6578 2027 0
-2222 -2027 6578 0
-6579 2223 0
-6579 2044 0
-2223 -2044 6579 0
-6580 2224 0
-6580 2061 0
-2224 -2061 6580 0
-6581 2225 0
-6581 2078 0
-2225 -2078 6581 0
-6582 2226 0
-6582 2095 0
-2226 -2095 6582 0
-6583 2227 0
-6583 2112 0
-2227 -2112 6583 0
-6584 2228 0
-6584 2129 0
-2228 -2129 6584 0
-6585 2229 0
-6585 2146 0
-2229 -2146 6585 0
-6586 2230 0
-6586 2163 0
-2230 -2163 6586 0
-6587 2231 0
-6587 2180 0
-2231 -2180 6587 0
-6588 2233 0
-6588 2215 0
-2233 -2215 6588 0
-6589 2234 0
-6589 2249 0
-2234 -2249 6589 0
-6590 2235 0
-6590 2266 0
-2235 -2266 6590 0
-1841 -6575 0
-1841 -6576 0
-1841 -6577 0
-1841 -6578 0
-1841 -6579 0
-1841 -6580 0
-1841 -6581 0
-1841 -6582 0
-1841 -6583 0
-1841 -6584 0
-1841 -6585 0
-1841 -6586 0
-1841 -6587 0
-1841 -6588 0
-1841 -6589 0
-1841 -6590 0
-2232 1841 6575 6576 6577 6578 6579 6580 6581 6582 6583 6584 6585 6586 6587 6588 6589 6590 0
-1844 2233 0
-6591 2219 0
-6591 1991 0
-2219 -1991 6591 0
-6592 2220 0
-6592 1990 0
-2220 -1990 6592 0
-6593 2221 0
-6593 2011 0
-2221 -2011 6593 0
-6594 2222 0
-6594 2028 0
-2222 -2028 6594 0
-6595 2223 0
-6595 2045 0
-2223 -2045 6595 0
-6596 2224 0
-6596 2062 0
-2224 -2062 6596 0
-6597 2225 0
-6597 2079 0
-2225 -2079 6597 0
-6598 2226 0
-6598 2096 0
-2226 -2096 6598 0
-6599 2227 0
-6599 2113 0
-2227 -2113 6599 0
-6600 2228 0
-6600 2130 0
-2228 -2130 6600 0
-6601 2229 0
-6601 2147 0
-2229 -2147 6601 0
-6602 2230 0
-6602 2164 0
-2230 -2164 6602 0
-6603 2231 0
-6603 2181 0
-2231 -2181 6603 0
-6604 2232 0
-6604 2198 0
-2232 -2198 6604 0
-6605 2234 0
-6605 2250 0
-2234 -2250 6605 0
-6606 2235 0
-6606 2267 0
-2235 -2267 6606 0
-1844 -6591 0
-1844 -6592 0
-1844 -6593 0
-1844 -6594 0
-1844 -6595 0
-1844 -6596 0
-1844 -6597 0
-1844 -6598 0
-1844 -6599 0
-1844 -6600 0
-1844 -6601 0
-1844 -6602 0
-1844 -6603 0
-1844 -6604 0
-1844 -6605 0
-1844 -6606 0
-2233 1844 6591 6592 6593 6594 6595 6596 6597 6598 6599 6600 6601 6602 6603 6604 6605 6606 0
-1847 0
-1850 2234 0
-6607 2219 0
-6607 1995 0
-2219 -1995 6607 0
-6608 2220 0
-6608 1994 0
-2220 -1994 6608 0
-6609 2221 0
-6609 2013 0
-2221 -2013 6609 0
-6610 2222 0
-6610 2030 0
-2222 -2030 6610 0
-6611 2223 0
-6611 2047 0
-2223 -2047 6611 0
-6612 2224 0
-6612 2064 0
-2224 -2064 6612 0
-6613 2225 0
-6613 2081 0
-2225 -2081 6613 0
-6614 2226 0
-6614 2098 0
-2226 -2098 6614 0
-6615 2227 0
-6615 2115 0
-2227 -2115 6615 0
-6616 2228 0
-6616 2132 0
-2228 -2132 6616 0
-6617 2229 0
-6617 2149 0
-2229 -2149 6617 0
-6618 2230 0
-6618 2166 0
-2230 -2166 6618 0
-6619 2231 0
-6619 2183 0
-2231 -2183 6619 0
-6620 2232 0
-6620 2200 0
-2232 -2200 6620 0
-6621 2233 0
-6621 2217 0
-2233 -2217 6621 0
-6622 2235 0
-6622 2269 0
-2235 -2269 6622 0
-1850 -6607 0
-1850 -6608 0
-1850 -6609 0
-1850 -6610 0
-1850 -6611 0
-1850 -6612 0
-1850 -6613 0
-1850 -6614 0
-1850 -6615 0
-1850 -6616 0
-1850 -6617 0
-1850 -6618 0
-1850 -6619 0
-1850 -6620 0
-1850 -6621 0
-1850 -6622 0
-2234 1850 6607 6608 6609 6610 6611 6612 6613 6614 6615 6616 6617 6618 6619 6620 6621 6622 0
-1853 2235 0
-6623 2219 0
-6623 1997 0
-2219 -1997 6623 0
-6624 2220 0
-6624 1996 0
-2220 -1996 6624 0
-6625 2221 0
-6625 2014 0
-2221 -2014 6625 0
-6626 2222 0
-6626 2031 0
-2222 -2031 6626 0
-6627 2223 0
-6627 2048 0
-2223 -2048 6627 0
-6628 2224 0
-6628 2065 0
-2224 -2065 6628 0
-6629 2225 0
-6629 2082 0
-2225 -2082 6629 0
-6630 2226 0
-6630 2099 0
-2226 -2099 6630 0
-6631 2227 0
-6631 2116 0
-2227 -2116 6631 0
-6632 2228 0
-6632 2133 0
-2228 -2133 6632 0
-6633 2229 0
-6633 2150 0
-2229 -2150 6633 0
-6634 2230 0
-6634 2167 0
-2230 -2167 6634 0
-6635 2231 0
-6635 2184 0
-2231 -2184 6635 0
-6636 2232 0
-6636 2201 0
-2232 -2201 6636 0
-6637 2233 0
-6637 2218 0
-2233 -2218 6637 0
-6638 2234 0
-6638 2252 0
-2234 -2252 6638 0
-1853 -6623 0
-1853 -6624 0
-1853 -6625 0
-1853 -6626 0
-1853 -6627 0
-1853 -6628 0
-1853 -6629 0
-1853 -6630 0
-1853 -6631 0
-1853 -6632 0
-1853 -6633 0
-1853 -6634 0
-1853 -6635 0
-1853 -6636 0
-1853 -6637 0
-1853 -6638 0
-2235 1853 6623 6624 6625 6626 6627 6628 6629 6630 6631 6632 6633 6634 6635 6636 6637 6638 0
-1856 2236 0
-6639 2237 0
-6639 1965 0
-2237 -1965 6639 0
-6640 2238 0
-6640 1998 0
-2238 -1998 6640 0
-6641 2239 0
-6641 2015 0
-2239 -2015 6641 0
-6642 2240 0
-6642 2032 0
-2240 -2032 6642 0
-6643 2241 0
-6643 2049 0
-2241 -2049 6643 0
-6644 2242 0
-6644 2066 0
-2242 -2066 6644 0
-6645 2243 0
-6645 2083 0
-2243 -2083 6645 0
-6646 2244 0
-6646 2100 0
-2244 -2100 6646 0
-6647 2245 0
-6647 2117 0
-2245 -2117 6647 0
-6648 2246 0
-6648 2134 0
-2246 -2134 6648 0
-6649 2247 0
-6649 2151 0
-2247 -2151 6649 0
-6650 2248 0
-6650 2168 0
-2248 -2168 6650 0
-6651 2249 0
-6651 2185 0
-2249 -2185 6651 0
-6652 2250 0
-6652 2202 0
-2250 -2202 6652 0
-6653 2251 0
-6653 2219 0
-2251 -2219 6653 0
-6654 2252 0
-6654 2253 0
-2252 -2253 6654 0
-1856 -6639 0
-1856 -6640 0
-1856 -6641 0
-1856 -6642 0
-1856 -6643 0
-1856 -6644 0
-1856 -6645 0
-1856 -6646 0
-1856 -6647 0
-1856 -6648 0
-1856 -6649 0
-1856 -6650 0
-1856 -6651 0
-1856 -6652 0
-1856 -6653 0
-1856 -6654 0
-2236 1856 6639 6640 6641 6642 6643 6644 6645 6646 6647 6648 6649 6650 6651 6652 6653 6654 0
-1859 2237 0
-6655 2236 0
-6655 1964 0
-2236 -1964 6655 0
-6656 2238 0
-6656 1999 0
-2238 -1999 6656 0
-6657 2239 0
-6657 2016 0
-2239 -2016 6657 0
-6658 2240 0
-6658 2033 0
-2240 -2033 6658 0
-6659 2241 0
-6659 2050 0
-2241 -2050 6659 0
-6660 2242 0
-6660 2067 0
-2242 -2067 6660 0
-6661 2243 0
-6661 2084 0
-2243 -2084 6661 0
-6662 2244 0
-6662 2101 0
-2244 -2101 6662 0
-6663 2245 0
-6663 2118 0
-2245 -2118 6663 0
-6664 2246 0
-6664 2135 0
-2246 -2135 6664 0
-6665 2247 0
-6665 2152 0
-2247 -2152 6665 0
-6666 2248 0
-6666 2169 0
-2248 -2169 6666 0
-6667 2249 0
-6667 2186 0
-2249 -2186 6667 0
-6668 2250 0
-6668 2203 0
-2250 -2203 6668 0
-6669 2251 0
-6669 2220 0
-2251 -2220 6669 0
-6670 2252 0
-6670 2254 0
-2252 -2254 6670 0
-1859 -6655 0
-1859 -6656 0
-1859 -6657 0
-1859 -6658 0
-1859 -6659 0
-1859 -6660 0
-1859 -6661 0
-1859 -6662 0
-1859 -6663 0
-1859 -6664 0
-1859 -6665 0
-1859 -6666 0
-1859 -6667 0
-1859 -6668 0
-1859 -6669 0
-1859 -6670 0
-2237 1859 6655 6656 6657 6658 6659 6660 6661 6662 6663 6664 6665 6666 6667 6668 6669 6670 0
-1862 2238 0
-6671 2236 0
-6671 1967 0
-2236 -1967 6671 0
-6672 2237 0
-6672 1966 0
-2237 -1966 6672 0
-6673 2239 0
-6673 2017 0
-2239 -2017 6673 0
-6674 2240 0
-6674 2034 0
-2240 -2034 6674 0
-6675 2241 0
-6675 2051 0
-2241 -2051 6675 0
-6676 2242 0
-6676 2068 0
-2242 -2068 6676 0
-6677 2243 0
-6677 2085 0
-2243 -2085 6677 0
-6678 2244 0
-6678 2102 0
-2244 -2102 6678 0
-6679 2245 0
-6679 2119 0
-2245 -2119 6679 0
-6680 2246 0
-6680 2136 0
-2246 -2136 6680 0
-6681 2247 0
-6681 2153 0
-2247 -2153 6681 0
-6682 2248 0
-6682 2170 0
-2248 -2170 6682 0
-6683 2249 0
-6683 2187 0
-2249 -2187 6683 0
-6684 2250 0
-6684 2204 0
-2250 -2204 6684 0
-6685 2251 0
-6685 2221 0
-2251 -2221 6685 0
-6686 2252 0
-6686 2255 0
-2252 -2255 6686 0
-1862 -6671 0
-1862 -6672 0
-1862 -6673 0
-1862 -6674 0
-1862 -6675 0
-1862 -6676 0
-1862 -6677 0
-1862 -6678 0
-1862 -6679 0
-1862 -6680 0
-1862 -6681 0
-1862 -6682 0
-1862 -6683 0
-1862 -6684 0
-1862 -6685 0
-1862 -6686 0
-2238 1862 6671 6672 6673 6674 6675 6676 6677 6678 6679 6680 6681 6682 6683 6684 6685 6686 0
-1865 2239 0
-6687 2236 0
-6687 1969 0
-2236 -1969 6687 0
-6688 2237 0
-6688 1968 0
-2237 -1968 6688 0
-6689 2238 0
-6689 2000 0
-2238 -2000 6689 0
-6690 2240 0
-6690 2035 0
-2240 -2035 6690 0
-6691 2241 0
-6691 2052 0
-2241 -2052 6691 0
-6692 2242 0
-6692 2069 0
-2242 -2069 6692 0
-6693 2243 0
-6693 2086 0
-2243 -2086 6693 0
-6694 2244 0
-6694 2103 0
-2244 -2103 6694 0
-6695 2245 0
-6695 2120 0
-2245 -2120 6695 0
-6696 2246 0
-6696 2137 0
-2246 -2137 6696 0
-6697 2247 0
-6697 2154 0
-2247 -2154 6697 0
-6698 2248 0
-6698 2171 0
-2248 -2171 6698 0
-6699 2249 0
-6699 2188 0
-2249 -2188 6699 0
-6700 2250 0
-6700 2205 0
-2250 -2205 6700 0
-6701 2251 0
-6701 2222 0
-2251 -2222 6701 0
-6702 2252 0
-6702 2256 0
-2252 -2256 6702 0
-1865 -6687 0
-1865 -6688 0
-1865 -6689 0
-1865 -6690 0
-1865 -6691 0
-1865 -6692 0
-1865 -6693 0
-1865 -6694 0
-1865 -6695 0
-1865 -6696 0
-1865 -6697 0
-1865 -6698 0
-1865 -6699 0
-1865 -6700 0
-1865 -6701 0
-1865 -6702 0
-2239 1865 6687 6688 6689 6690 6691 6692 6693 6694 6695 6696 6697 6698 6699 6700 6701 6702 0
-1868 2240 0
-6703 2236 0
-6703 1971 0
-2236 -1971 6703 0
-6704 2237 0
-6704 1970 0
-2237 -1970 6704 0
-6705 2238 0
-6705 2001 0
-2238 -2001 6705 0
-6706 2239 0
-6706 2018 0
-2239 -2018 6706 0
-6707 2241 0
-6707 2053 0
-2241 -2053 6707 0
-6708 2242 0
-6708 2070 0
-2242 -2070 6708 0
-6709 2243 0
-6709 2087 0
-2243 -2087 6709 0
-6710 2244 0
-6710 2104 0
-2244 -2104 6710 0
-6711 2245 0
-6711 2121 0
-2245 -2121 6711 0
-6712 2246 0
-6712 2138 0
-2246 -2138 6712 0
-6713 2247 0
-6713 2155 0
-2247 -2155 6713 0
-6714 2248 0
-6714 2172 0
-2248 -2172 6714 0
-6715 2249 0
-6715 2189 0
-2249 -2189 6715 0
-6716 2250 0
-6716 2206 0
-2250 -2206 6716 0
-6717 2251 0
-6717 2223 0
-2251 -2223 6717 0
-6718 2252 0
-6718 2257 0
-2252 -2257 6718 0
-1868 -6703 0
-1868 -6704 0
-1868 -6705 0
-1868 -6706 0
-1868 -6707 0
-1868 -6708 0
-1868 -6709 0
-1868 -6710 0
-1868 -6711 0
-1868 -6712 0
-1868 -6713 0
-1868 -6714 0
-1868 -6715 0
-1868 -6716 0
-1868 -6717 0
-1868 -6718 0
-2240 1868 6703 6704 6705 6706 6707 6708 6709 6710 6711 6712 6713 6714 6715 6716 6717 6718 0
-1871 2241 0
-6719 2236 0
-6719 1973 0
-2236 -1973 6719 0
-6720 2237 0
-6720 1972 0
-2237 -1972 6720 0
-6721 2238 0
-6721 2002 0
-2238 -2002 6721 0
-6722 2239 0
-6722 2019 0
-2239 -2019 6722 0
-6723 2240 0
-6723 2036 0
-2240 -2036 6723 0
-6724 2242 0
-6724 2071 0
-2242 -2071 6724 0
-6725 2243 0
-6725 2088 0
-2243 -2088 6725 0
-6726 2244 0
-6726 2105 0
-2244 -2105 6726 0
-6727 2245 0
-6727 2122 0
-2245 -2122 6727 0
-6728 2246 0
-6728 2139 0
-2246 -2139 6728 0
-6729 2247 0
-6729 2156 0
-2247 -2156 6729 0
-6730 2248 0
-6730 2173 0
-2248 -2173 6730 0
-6731 2249 0
-6731 2190 0
-2249 -2190 6731 0
-6732 2250 0
-6732 2207 0
-2250 -2207 6732 0
-6733 2251 0
-6733 2224 0
-2251 -2224 6733 0
-6734 2252 0
-6734 2258 0
-2252 -2258 6734 0
-1871 -6719 0
-1871 -6720 0
-1871 -6721 0
-1871 -6722 0
-1871 -6723 0
-1871 -6724 0
-1871 -6725 0
-1871 -6726 0
-1871 -6727 0
-1871 -6728 0
-1871 -6729 0
-1871 -6730 0
-1871 -6731 0
-1871 -6732 0
-1871 -6733 0
-1871 -6734 0
-2241 1871 6719 6720 6721 6722 6723 6724 6725 6726 6727 6728 6729 6730 6731 6732 6733 6734 0
-1874 2242 0
-6735 2236 0
-6735 1975 0
-2236 -1975 6735 0
-6736 2237 0
-6736 1974 0
-2237 -1974 6736 0
-6737 2238 0
-6737 2003 0
-2238 -2003 6737 0
-6738 2239 0
-6738 2020 0
-2239 -2020 6738 0
-6739 2240 0
-6739 2037 0
-2240 -2037 6739 0
-6740 2241 0
-6740 2054 0
-2241 -2054 6740 0
-6741 2243 0
-6741 2089 0
-2243 -2089 6741 0
-6742 2244 0
-6742 2106 0
-2244 -2106 6742 0
-6743 2245 0
-6743 2123 0
-2245 -2123 6743 0
-6744 2246 0
-6744 2140 0
-2246 -2140 6744 0
-6745 2247 0
-6745 2157 0
-2247 -2157 6745 0
-6746 2248 0
-6746 2174 0
-2248 -2174 6746 0
-6747 2249 0
-6747 2191 0
-2249 -2191 6747 0
-6748 2250 0
-6748 2208 0
-2250 -2208 6748 0
-6749 2251 0
-6749 2225 0
-2251 -2225 6749 0
-6750 2252 0
-6750 2259 0
-2252 -2259 6750 0
-1874 -6735 0
-1874 -6736 0
-1874 -6737 0
-1874 -6738 0
-1874 -6739 0
-1874 -6740 0
-1874 -6741 0
-1874 -6742 0
-1874 -6743 0
-1874 -6744 0
-1874 -6745 0
-1874 -6746 0
-1874 -6747 0
-1874 -6748 0
-1874 -6749 0
-1874 -6750 0
-2242 1874 6735 6736 6737 6738 6739 6740 6741 6742 6743 6744 6745 6746 6747 6748 6749 6750 0
-1877 2243 0
-6751 2236 0
-6751 1977 0
-2236 -1977 6751 0
-6752 2237 0
-6752 1976 0
-2237 -1976 6752 0
-6753 2238 0
-6753 2004 0
-2238 -2004 6753 0
-6754 2239 0
-6754 2021 0
-2239 -2021 6754 0
-6755 2240 0
-6755 2038 0
-2240 -2038 6755 0
-6756 2241 0
-6756 2055 0
-2241 -2055 6756 0
-6757 2242 0
-6757 2072 0
-2242 -2072 6757 0
-6758 2244 0
-6758 2107 0
-2244 -2107 6758 0
-6759 2245 0
-6759 2124 0
-2245 -2124 6759 0
-6760 2246 0
-6760 2141 0
-2246 -2141 6760 0
-6761 2247 0
-6761 2158 0
-2247 -2158 6761 0
-6762 2248 0
-6762 2175 0
-2248 -2175 6762 0
-6763 2249 0
-6763 2192 0
-2249 -2192 6763 0
-6764 2250 0
-6764 2209 0
-2250 -2209 6764 0
-6765 2251 0
-6765 2226 0
-2251 -2226 6765 0
-6766 2252 0
-6766 2260 0
-2252 -2260 6766 0
-1877 -6751 0
-1877 -6752 0
-1877 -6753 0
-1877 -6754 0
-1877 -6755 0
-1877 -6756 0
-1877 -6757 0
-1877 -6758 0
-1877 -6759 0
-1877 -6760 0
-1877 -6761 0
-1877 -6762 0
-1877 -6763 0
-1877 -6764 0
-1877 -6765 0
-1877 -6766 0
-2243 1877 6751 6752 6753 6754 6755 6756 6757 6758 6759 6760 6761 6762 6763 6764 6765 6766 0
-1880 2244 0
-6767 2236 0
-6767 1979 0
-2236 -1979 6767 0
-6768 2237 0
-6768 1978 0
-2237 -1978 6768 0
-6769 2238 0
-6769 2005 0
-2238 -2005 6769 0
-6770 2239 0
-6770 2022 0
-2239 -2022 6770 0
-6771 2240 0
-6771 2039 0
-2240 -2039 6771 0
-6772 2241 0
-6772 2056 0
-2241 -2056 6772 0
-6773 2242 0
-6773 2073 0
-2242 -2073 6773 0
-6774 2243 0
-6774 2090 0
-2243 -2090 6774 0
-6775 2245 0
-6775 2125 0
-2245 -2125 6775 0
-6776 2246 0
-6776 2142 0
-2246 -2142 6776 0
-6777 2247 0
-6777 2159 0
-2247 -2159 6777 0
-6778 2248 0
-6778 2176 0
-2248 -2176 6778 0
-6779 2249 0
-6779 2193 0
-2249 -2193 6779 0
-6780 2250 0
-6780 2210 0
-2250 -2210 6780 0
-6781 2251 0
-6781 2227 0
-2251 -2227 6781 0
-6782 2252 0
-6782 2261 0
-2252 -2261 6782 0
-1880 -6767 0
-1880 -6768 0
-1880 -6769 0
-1880 -6770 0
-1880 -6771 0
-1880 -6772 0
-1880 -6773 0
-1880 -6774 0
-1880 -6775 0
-1880 -6776 0
-1880 -6777 0
-1880 -6778 0
-1880 -6779 0
-1880 -6780 0
-1880 -6781 0
-1880 -6782 0
-2244 1880 6767 6768 6769 6770 6771 6772 6773 6774 6775 6776 6777 6778 6779 6780 6781 6782 0
-1883 2245 0
-6783 2236 0
-6783 1981 0
-2236 -1981 6783 0
-6784 2237 0
-6784 1980 0
-2237 -1980 6784 0
-6785 2238 0
-6785 2006 0
-2238 -2006 6785 0
-6786 2239 0
-6786 2023 0
-2239 -2023 6786 0
-6787 2240 0
-6787 2040 0
-2240 -2040 6787 0
-6788 2241 0
-6788 2057 0
-2241 -2057 6788 0
-6789 2242 0
-6789 2074 0
-2242 -2074 6789 0
-6790 2243 0
-6790 2091 0
-2243 -2091 6790 0
-6791 2244 0
-6791 2108 0
-2244 -2108 6791 0
-6792 2246 0
-6792 2143 0
-2246 -2143 6792 0
-6793 2247 0
-6793 2160 0
-2247 -2160 6793 0
-6794 2248 0
-6794 2177 0
-2248 -2177 6794 0
-6795 2249 0
-6795 2194 0
-2249 -2194 6795 0
-6796 2250 0
-6796 2211 0
-2250 -2211 6796 0
-6797 2251 0
-6797 2228 0
-2251 -2228 6797 0
-6798 2252 0
-6798 2262 0
-2252 -2262 6798 0
-1883 -6783 0
-1883 -6784 0
-1883 -6785 0
-1883 -6786 0
-1883 -6787 0
-1883 -6788 0
-1883 -6789 0
-1883 -6790 0
-1883 -6791 0
-1883 -6792 0
-1883 -6793 0
-1883 -6794 0
-1883 -6795 0
-1883 -6796 0
-1883 -6797 0
-1883 -6798 0
-2245 1883 6783 6784 6785 6786 6787 6788 6789 6790 6791 6792 6793 6794 6795 6796 6797 6798 0
-1886 2246 0
-6799 2236 0
-6799 1983 0
-2236 -1983 6799 0
-6800 2237 0
-6800 1982 0
-2237 -1982 6800 0
-6801 2238 0
-6801 2007 0
-2238 -2007 6801 0
-6802 2239 0
-6802 2024 0
-2239 -2024 6802 0
-6803 2240 0
-6803 2041 0
-2240 -2041 6803 0
-6804 2241 0
-6804 2058 0
-2241 -2058 6804 0
-6805 2242 0
-6805 2075 0
-2242 -2075 6805 0
-6806 2243 0
-6806 2092 0
-2243 -2092 6806 0
-6807 2244 0
-6807 2109 0
-2244 -2109 6807 0
-6808 2245 0
-6808 2126 0
-2245 -2126 6808 0
-6809 2247 0
-6809 2161 0
-2247 -2161 6809 0
-6810 2248 0
-6810 2178 0
-2248 -2178 6810 0
-6811 2249 0
-6811 2195 0
-2249 -2195 6811 0
-6812 2250 0
-6812 2212 0
-2250 -2212 6812 0
-6813 2251 0
-6813 2229 0
-2251 -2229 6813 0
-6814 2252 0
-6814 2263 0
-2252 -2263 6814 0
-1886 -6799 0
-1886 -6800 0
-1886 -6801 0
-1886 -6802 0
-1886 -6803 0
-1886 -6804 0
-1886 -6805 0
-1886 -6806 0
-1886 -6807 0
-1886 -6808 0
-1886 -6809 0
-1886 -6810 0
-1886 -6811 0
-1886 -6812 0
-1886 -6813 0
-1886 -6814 0
-2246 1886 6799 6800 6801 6802 6803 6804 6805 6806 6807 6808 6809 6810 6811 6812 6813 6814 0
-1889 2247 0
-6815 2236 0
-6815 1985 0
-2236 -1985 6815 0
-6816 2237 0
-6816 1984 0
-2237 -1984 6816 0
-6817 2238 0
-6817 2008 0
-2238 -2008 6817 0
-6818 2239 0
-6818 2025 0
-2239 -2025 6818 0
-6819 2240 0
-6819 2042 0
-2240 -2042 6819 0
-6820 2241 0
-6820 2059 0
-2241 -2059 6820 0
-6821 2242 0
-6821 2076 0
-2242 -2076 6821 0
-6822 2243 0
-6822 2093 0
-2243 -2093 6822 0
-6823 2244 0
-6823 2110 0
-2244 -2110 6823 0
-6824 2245 0
-6824 2127 0
-2245 -2127 6824 0
-6825 2246 0
-6825 2144 0
-2246 -2144 6825 0
-6826 2248 0
-6826 2179 0
-2248 -2179 6826 0
-6827 2249 0
-6827 2196 0
-2249 -2196 6827 0
-6828 2250 0
-6828 2213 0
-2250 -2213 6828 0
-6829 2251 0
-6829 2230 0
-2251 -2230 6829 0
-6830 2252 0
-6830 2264 0
-2252 -2264 6830 0
-1889 -6815 0
-1889 -6816 0
-1889 -6817 0
-1889 -6818 0
-1889 -6819 0
-1889 -6820 0
-1889 -6821 0
-1889 -6822 0
-1889 -6823 0
-1889 -6824 0
-1889 -6825 0
-1889 -6826 0
-1889 -6827 0
-1889 -6828 0
-1889 -6829 0
-1889 -6830 0
-2247 1889 6815 6816 6817 6818 6819 6820 6821 6822 6823 6824 6825 6826 6827 6828 6829 6830 0
-1892 2248 0
-6831 2236 0
-6831 1987 0
-2236 -1987 6831 0
-6832 2237 0
-6832 1986 0
-2237 -1986 6832 0
-6833 2238 0
-6833 2009 0
-2238 -2009 6833 0
-6834 2239 0
-6834 2026 0
-2239 -2026 6834 0
-6835 2240 0
-6835 2043 0
-2240 -2043 6835 0
-6836 2241 0
-6836 2060 0
-2241 -2060 6836 0
-6837 2242 0
-6837 2077 0
-2242 -2077 6837 0
-6838 2243 0
-6838 2094 0
-2243 -2094 6838 0
-6839 2244 0
-6839 2111 0
-2244 -2111 6839 0
-6840 2245 0
-6840 2128 0
-2245 -2128 6840 0
-6841 2246 0
-6841 2145 0
-2246 -2145 6841 0
-6842 2247 0
-6842 2162 0
-2247 -2162 6842 0
-6843 2249 0
-6843 2197 0
-2249 -2197 6843 0
-6844 2250 0
-6844 2214 0
-2250 -2214 6844 0
-6845 2251 0
-6845 2231 0
-2251 -2231 6845 0
-6846 2252 0
-6846 2265 0
-2252 -2265 6846 0
-1892 -6831 0
-1892 -6832 0
-1892 -6833 0
-1892 -6834 0
-1892 -6835 0
-1892 -6836 0
-1892 -6837 0
-1892 -6838 0
-1892 -6839 0
-1892 -6840 0
-1892 -6841 0
-1892 -6842 0
-1892 -6843 0
-1892 -6844 0
-1892 -6845 0
-1892 -6846 0
-2248 1892 6831 6832 6833 6834 6835 6836 6837 6838 6839 6840 6841 6842 6843 6844 6845 6846 0
-1895 2249 0
-6847 2236 0
-6847 1989 0
-2236 -1989 6847 0
-6848 2237 0
-6848 1988 0
-2237 -1988 6848 0
-6849 2238 0
-6849 2010 0
-2238 -2010 6849 0
-6850 2239 0
-6850 2027 0
-2239 -2027 6850 0
-6851 2240 0
-6851 2044 0
-2240 -2044 6851 0
-6852 2241 0
-6852 2061 0
-2241 -2061 6852 0
-6853 2242 0
-6853 2078 0
-2242 -2078 6853 0
-6854 2243 0
-6854 2095 0
-2243 -2095 6854 0
-6855 2244 0
-6855 2112 0
-2244 -2112 6855 0
-6856 2245 0
-6856 2129 0
-2245 -2129 6856 0
-6857 2246 0
-6857 2146 0
-2246 -2146 6857 0
-6858 2247 0
-6858 2163 0
-2247 -2163 6858 0
-6859 2248 0
-6859 2180 0
-2248 -2180 6859 0
-6860 2250 0
-6860 2215 0
-2250 -2215 6860 0
-6861 2251 0
-6861 2232 0
-2251 -2232 6861 0
-6862 2252 0
-6862 2266 0
-2252 -2266 6862 0
-1895 -6847 0
-1895 -6848 0
-1895 -6849 0
-1895 -6850 0
-1895 -6851 0
-1895 -6852 0
-1895 -6853 0
-1895 -6854 0
-1895 -6855 0
-1895 -6856 0
-1895 -6857 0
-1895 -6858 0
-1895 -6859 0
-1895 -6860 0
-1895 -6861 0
-1895 -6862 0
-2249 1895 6847 6848 6849 6850 6851 6852 6853 6854 6855 6856 6857 6858 6859 6860 6861 6862 0
-1898 2250 0
-6863 2236 0
-6863 1991 0
-2236 -1991 6863 0
-6864 2237 0
-6864 1990 0
-2237 -1990 6864 0
-6865 2238 0
-6865 2011 0
-2238 -2011 6865 0
-6866 2239 0
-6866 2028 0
-2239 -2028 6866 0
-6867 2240 0
-6867 2045 0
-2240 -2045 6867 0
-6868 2241 0
-6868 2062 0
-2241 -2062 6868 0
-6869 2242 0
-6869 2079 0
-2242 -2079 6869 0
-6870 2243 0
-6870 2096 0
-2243 -2096 6870 0
-6871 2244 0
-6871 2113 0
-2244 -2113 6871 0
-6872 2245 0
-6872 2130 0
-2245 -2130 6872 0
-6873 2246 0
-6873 2147 0
-2246 -2147 6873 0
-6874 2247 0
-6874 2164 0
-2247 -2164 6874 0
-6875 2248 0
-6875 2181 0
-2248 -2181 6875 0
-6876 2249 0
-6876 2198 0
-2249 -2198 6876 0
-6877 2251 0
-6877 2233 0
-2251 -2233 6877 0
-6878 2252 0
-6878 2267 0
-2252 -2267 6878 0
-1898 -6863 0
-1898 -6864 0
-1898 -6865 0
-1898 -6866 0
-1898 -6867 0
-1898 -6868 0
-1898 -6869 0
-1898 -6870 0
-1898 -6871 0
-1898 -6872 0
-1898 -6873 0
-1898 -6874 0
-1898 -6875 0
-1898 -6876 0
-1898 -6877 0
-1898 -6878 0
-2250 1898 6863 6864 6865 6866 6867 6868 6869 6870 6871 6872 6873 6874 6875 6876 6877 6878 0
-1901 2251 0
-6879 2236 0
-6879 1993 0
-2236 -1993 6879 0
-6880 2237 0
-6880 1992 0
-2237 -1992 6880 0
-6881 2238 0
-6881 2012 0
-2238 -2012 6881 0
-6882 2239 0
-6882 2029 0
-2239 -2029 6882 0
-6883 2240 0
-6883 2046 0
-2240 -2046 6883 0
-6884 2241 0
-6884 2063 0
-2241 -2063 6884 0
-6885 2242 0
-6885 2080 0
-2242 -2080 6885 0
-6886 2243 0
-6886 2097 0
-2243 -2097 6886 0
-6887 2244 0
-6887 2114 0
-2244 -2114 6887 0
-6888 2245 0
-6888 2131 0
-2245 -2131 6888 0
-6889 2246 0
-6889 2148 0
-2246 -2148 6889 0
-6890 2247 0
-6890 2165 0
-2247 -2165 6890 0
-6891 2248 0
-6891 2182 0
-2248 -2182 6891 0
-6892 2249 0
-6892 2199 0
-2249 -2199 6892 0
-6893 2250 0
-6893 2216 0
-2250 -2216 6893 0
-6894 2252 0
-6894 2268 0
-2252 -2268 6894 0
-1901 -6879 0
-1901 -6880 0
-1901 -6881 0
-1901 -6882 0
-1901 -6883 0
-1901 -6884 0
-1901 -6885 0
-1901 -6886 0
-1901 -6887 0
-1901 -6888 0
-1901 -6889 0
-1901 -6890 0
-1901 -6891 0
-1901 -6892 0
-1901 -6893 0
-1901 -6894 0
-2251 1901 6879 6880 6881 6882 6883 6884 6885 6886 6887 6888 6889 6890 6891 6892 6893 6894 0
-1904 0
-1907 2252 0
-6895 2236 0
-6895 1997 0
-2236 -1997 6895 0
-6896 2237 0
-6896 1996 0
-2237 -1996 6896 0
-6897 2238 0
-6897 2014 0
-2238 -2014 6897 0
-6898 2239 0
-6898 2031 0
-2239 -2031 6898 0
-6899 2240 0
-6899 2048 0
-2240 -2048 6899 0
-6900 2241 0
-6900 2065 0
-2241 -2065 6900 0
-6901 2242 0
-6901 2082 0
-2242 -2082 6901 0
-6902 2243 0
-6902 2099 0
-2243 -2099 6902 0
-6903 2244 0
-6903 2116 0
-2244 -2116 6903 0
-6904 2245 0
-6904 2133 0
-2245 -2133 6904 0
-6905 2246 0
-6905 2150 0
-2246 -2150 6905 0
-6906 2247 0
-6906 2167 0
-2247 -2167 6906 0
-6907 2248 0
-6907 2184 0
-2248 -2184 6907 0
-6908 2249 0
-6908 2201 0
-2249 -2201 6908 0
-6909 2250 0
-6909 2218 0
-2250 -2218 6909 0
-6910 2251 0
-6910 2235 0
-2251 -2235 6910 0
-1907 -6895 0
-1907 -6896 0
-1907 -6897 0
-1907 -6898 0
-1907 -6899 0
-1907 -6900 0
-1907 -6901 0
-1907 -6902 0
-1907 -6903 0
-1907 -6904 0
-1907 -6905 0
-1907 -6906 0
-1907 -6907 0
-1907 -6908 0
-1907 -6909 0
-1907 -6910 0
-2252 1907 6895 6896 6897 6898 6899 6900 6901 6902 6903 6904 6905 6906 6907 6908 6909 6910 0
-1910 2253 0
-6911 2254 0
-6911 1965 0
-2254 -1965 6911 0
-6912 2255 0
-6912 1998 0
-2255 -1998 6912 0
-6913 2256 0
-6913 2015 0
-2256 -2015 6913 0
-6914 2257 0
-6914 2032 0
-2257 -2032 6914 0
-6915 2258 0
-6915 2049 0
-2258 -2049 6915 0
-6916 2259 0
-6916 2066 0
-2259 -2066 6916 0
-6917 2260 0
-6917 2083 0
-2260 -2083 6917 0
-6918 2261 0
-6918 2100 0
-2261 -2100 6918 0
-6919 2262 0
-6919 2117 0
-2262 -2117 6919 0
-6920 2263 0
-6920 2134 0
-2263 -2134 6920 0
-6921 2264 0
-6921 2151 0
-2264 -2151 6921 0
-6922 2265 0
-6922 2168 0
-2265 -2168 6922 0
-6923 2266 0
-6923 2185 0
-2266 -2185 6923 0
-6924 2267 0
-6924 2202 0
-2267 -2202 6924 0
-6925 2268 0
-6925 2219 0
-2268 -2219 6925 0
-6926 2269 0
-6926 2236 0
-2269 -2236 6926 0
-1910 -6911 0
-1910 -6912 0
-1910 -6913 0
-1910 -6914 0
-1910 -6915 0
-1910 -6916 0
-1910 -6917 0
-1910 -6918 0
-1910 -6919 0
-1910 -6920 0
-1910 -6921 0
-1910 -6922 0
-1910 -6923 0
-1910 -6924 0
-1910 -6925 0
-1910 -6926 0
-2253 1910 6911 6912 6913 6914 6915 6916 6917 6918 6919 6920 6921 6922 6923 6924 6925 6926 0
-1913 2254 0
-6927 2253 0
-6927 1964 0
-2253 -1964 6927 0
-6928 2255 0
-6928 1999 0
-2255 -1999 6928 0
-6929 2256 0
-6929 2016 0
-2256 -2016 6929 0
-6930 2257 0
-6930 2033 0
-2257 -2033 6930 0
-6931 2258 0
-6931 2050 0
-2258 -2050 6931 0
-6932 2259 0
-6932 2067 0
-2259 -2067 6932 0
-6933 2260 0
-6933 2084 0
-2260 -2084 6933 0
-6934 2261 0
-6934 2101 0
-2261 -2101 6934 0
-6935 2262 0
-6935 2118 0
-2262 -2118 6935 0
-6936 2263 0
-6936 2135 0
-2263 -2135 6936 0
-6937 2264 0
-6937 2152 0
-2264 -2152 6937 0
-6938 2265 0
-6938 2169 0
-2265 -2169 6938 0
-6939 2266 0
-6939 2186 0
-2266 -2186 6939 0
-6940 2267 0
-6940 2203 0
-2267 -2203 6940 0
-6941 2268 0
-6941 2220 0
-2268 -2220 6941 0
-6942 2269 0
-6942 2237 0
-2269 -2237 6942 0
-1913 -6927 0
-1913 -6928 0
-1913 -6929 0
-1913 -6930 0
-1913 -6931 0
-1913 -6932 0
-1913 -6933 0
-1913 -6934 0
-1913 -6935 0
-1913 -6936 0
-1913 -6937 0
-1913 -6938 0
-1913 -6939 0
-1913 -6940 0
-1913 -6941 0
-1913 -6942 0
-2254 1913 6927 6928 6929 6930 6931 6932 6933 6934 6935 6936 6937 6938 6939 6940 6941 6942 0
-1916 2255 0
-6943 2253 0
-6943 1967 0
-2253 -1967 6943 0
-6944 2254 0
-6944 1966 0
-2254 -1966 6944 0
-6945 2256 0
-6945 2017 0
-2256 -2017 6945 0
-6946 2257 0
-6946 2034 0
-2257 -2034 6946 0
-6947 2258 0
-6947 2051 0
-2258 -2051 6947 0
-6948 2259 0
-6948 2068 0
-2259 -2068 6948 0
-6949 2260 0
-6949 2085 0
-2260 -2085 6949 0
-6950 2261 0
-6950 2102 0
-2261 -2102 6950 0
-6951 2262 0
-6951 2119 0
-2262 -2119 6951 0
-6952 2263 0
-6952 2136 0
-2263 -2136 6952 0
-6953 2264 0
-6953 2153 0
-2264 -2153 6953 0
-6954 2265 0
-6954 2170 0
-2265 -2170 6954 0
-6955 2266 0
-6955 2187 0
-2266 -2187 6955 0
-6956 2267 0
-6956 2204 0
-2267 -2204 6956 0
-6957 2268 0
-6957 2221 0
-2268 -2221 6957 0
-6958 2269 0
-6958 2238 0
-2269 -2238 6958 0
-1916 -6943 0
-1916 -6944 0
-1916 -6945 0
-1916 -6946 0
-1916 -6947 0
-1916 -6948 0
-1916 -6949 0
-1916 -6950 0
-1916 -6951 0
-1916 -6952 0
-1916 -6953 0
-1916 -6954 0
-1916 -6955 0
-1916 -6956 0
-1916 -6957 0
-1916 -6958 0
-2255 1916 6943 6944 6945 6946 6947 6948 6949 6950 6951 6952 6953 6954 6955 6956 6957 6958 0
-1919 2256 0
-6959 2253 0
-6959 1969 0
-2253 -1969 6959 0
-6960 2254 0
-6960 1968 0
-2254 -1968 6960 0
-6961 2255 0
-6961 2000 0
-2255 -2000 6961 0
-6962 2257 0
-6962 2035 0
-2257 -2035 6962 0
-6963 2258 0
-6963 2052 0
-2258 -2052 6963 0
-6964 2259 0
-6964 2069 0
-2259 -2069 6964 0
-6965 2260 0
-6965 2086 0
-2260 -2086 6965 0
-6966 2261 0
-6966 2103 0
-2261 -2103 6966 0
-6967 2262 0
-6967 2120 0
-2262 -2120 6967 0
-6968 2263 0
-6968 2137 0
-2263 -2137 6968 0
-6969 2264 0
-6969 2154 0
-2264 -2154 6969 0
-6970 2265 0
-6970 2171 0
-2265 -2171 6970 0
-6971 2266 0
-6971 2188 0
-2266 -2188 6971 0
-6972 2267 0
-6972 2205 0
-2267 -2205 6972 0
-6973 2268 0
-6973 2222 0
-2268 -2222 6973 0
-6974 2269 0
-6974 2239 0
-2269 -2239 6974 0
-1919 -6959 0
-1919 -6960 0
-1919 -6961 0
-1919 -6962 0
-1919 -6963 0
-1919 -6964 0
-1919 -6965 0
-1919 -6966 0
-1919 -6967 0
-1919 -6968 0
-1919 -6969 0
-1919 -6970 0
-1919 -6971 0
-1919 -6972 0
-1919 -6973 0
-1919 -6974 0
-2256 1919 6959 6960 6961 6962 6963 6964 6965 6966 6967 6968 6969 6970 6971 6972 6973 6974 0
-1922 2257 0
-6975 2253 0
-6975 1971 0
-2253 -1971 6975 0
-6976 2254 0
-6976 1970 0
-2254 -1970 6976 0
-6977 2255 0
-6977 2001 0
-2255 -2001 6977 0
-6978 2256 0
-6978 2018 0
-2256 -2018 6978 0
-6979 2258 0
-6979 2053 0
-2258 -2053 6979 0
-6980 2259 0
-6980 2070 0
-2259 -2070 6980 0
-6981 2260 0
-6981 2087 0
-2260 -2087 6981 0
-6982 2261 0
-6982 2104 0
-2261 -2104 6982 0
-6983 2262 0
-6983 2121 0
-2262 -2121 6983 0
-6984 2263 0
-6984 2138 0
-2263 -2138 6984 0
-6985 2264 0
-6985 2155 0
-2264 -2155 6985 0
-6986 2265 0
-6986 2172 0
-2265 -2172 6986 0
-6987 2266 0
-6987 2189 0
-2266 -2189 6987 0
-6988 2267 0
-6988 2206 0
-2267 -2206 6988 0
-6989 2268 0
-6989 2223 0
-2268 -2223 6989 0
-6990 2269 0
-6990 2240 0
-2269 -2240 6990 0
-1922 -6975 0
-1922 -6976 0
-1922 -6977 0
-1922 -6978 0
-1922 -6979 0
-1922 -6980 0
-1922 -6981 0
-1922 -6982 0
-1922 -6983 0
-1922 -6984 0
-1922 -6985 0
-1922 -6986 0
-1922 -6987 0
-1922 -6988 0
-1922 -6989 0
-1922 -6990 0
-2257 1922 6975 6976 6977 6978 6979 6980 6981 6982 6983 6984 6985 6986 6987 6988 6989 6990 0
-1925 2258 0
-6991 2253 0
-6991 1973 0
-2253 -1973 6991 0
-6992 2254 0
-6992 1972 0
-2254 -1972 6992 0
-6993 2255 0
-6993 2002 0
-2255 -2002 6993 0
-6994 2256 0
-6994 2019 0
-2256 -2019 6994 0
-6995 2257 0
-6995 2036 0
-2257 -2036 6995 0
-6996 2259 0
-6996 2071 0
-2259 -2071 6996 0
-6997 2260 0
-6997 2088 0
-2260 -2088 6997 0
-6998 2261 0
-6998 2105 0
-2261 -2105 6998 0
-6999 2262 0
-6999 2122 0
-2262 -2122 6999 0
-7000 2263 0
-7000 2139 0
-2263 -2139 7000 0
-7001 2264 0
-7001 2156 0
-2264 -2156 7001 0
-7002 2265 0
-7002 2173 0
-2265 -2173 7002 0
-7003 2266 0
-7003 2190 0
-2266 -2190 7003 0
-7004 2267 0
-7004 2207 0
-2267 -2207 7004 0
-7005 2268 0
-7005 2224 0
-2268 -2224 7005 0
-7006 2269 0
-7006 2241 0
-2269 -2241 7006 0
-1925 -6991 0
-1925 -6992 0
-1925 -6993 0
-1925 -6994 0
-1925 -6995 0
-1925 -6996 0
-1925 -6997 0
-1925 -6998 0
-1925 -6999 0
-1925 -7000 0
-1925 -7001 0
-1925 -7002 0
-1925 -7003 0
-1925 -7004 0
-1925 -7005 0
-1925 -7006 0
-2258 1925 6991 6992 6993 6994 6995 6996 6997 6998 6999 7000 7001 7002 7003 7004 7005 7006 0
-1928 2259 0
-7007 2253 0
-7007 1975 0
-2253 -1975 7007 0
-7008 2254 0
-7008 1974 0
-2254 -1974 7008 0
-7009 2255 0
-7009 2003 0
-2255 -2003 7009 0
-7010 2256 0
-7010 2020 0
-2256 -2020 7010 0
-7011 2257 0
-7011 2037 0
-2257 -2037 7011 0
-7012 2258 0
-7012 2054 0
-2258 -2054 7012 0
-7013 2260 0
-7013 2089 0
-2260 -2089 7013 0
-7014 2261 0
-7014 2106 0
-2261 -2106 7014 0
-7015 2262 0
-7015 2123 0
-2262 -2123 7015 0
-7016 2263 0
-7016 2140 0
-2263 -2140 7016 0
-7017 2264 0
-7017 2157 0
-2264 -2157 7017 0
-7018 2265 0
-7018 2174 0
-2265 -2174 7018 0
-7019 2266 0
-7019 2191 0
-2266 -2191 7019 0
-7020 2267 0
-7020 2208 0
-2267 -2208 7020 0
-7021 2268 0
-7021 2225 0
-2268 -2225 7021 0
-7022 2269 0
-7022 2242 0
-2269 -2242 7022 0
-1928 -7007 0
-1928 -7008 0
-1928 -7009 0
-1928 -7010 0
-1928 -7011 0
-1928 -7012 0
-1928 -7013 0
-1928 -7014 0
-1928 -7015 0
-1928 -7016 0
-1928 -7017 0
-1928 -7018 0
-1928 -7019 0
-1928 -7020 0
-1928 -7021 0
-1928 -7022 0
-2259 1928 7007 7008 7009 7010 7011 7012 7013 7014 7015 7016 7017 7018 7019 7020 7021 7022 0
-1931 2260 0
-7023 2253 0
-7023 1977 0
-2253 -1977 7023 0
-7024 2254 0
-7024 1976 0
-2254 -1976 7024 0
-7025 2255 0
-7025 2004 0
-2255 -2004 7025 0
-7026 2256 0
-7026 2021 0
-2256 -2021 7026 0
-7027 2257 0
-7027 2038 0
-2257 -2038 7027 0
-7028 2258 0
-7028 2055 0
-2258 -2055 7028 0
-7029 2259 0
-7029 2072 0
-2259 -2072 7029 0
-7030 2261 0
-7030 2107 0
-2261 -2107 7030 0
-7031 2262 0
-7031 2124 0
-2262 -2124 7031 0
-7032 2263 0
-7032 2141 0
-2263 -2141 7032 0
-7033 2264 0
-7033 2158 0
-2264 -2158 7033 0
-7034 2265 0
-7034 2175 0
-2265 -2175 7034 0
-7035 2266 0
-7035 2192 0
-2266 -2192 7035 0
-7036 2267 0
-7036 2209 0
-2267 -2209 7036 0
-7037 2268 0
-7037 2226 0
-2268 -2226 7037 0
-7038 2269 0
-7038 2243 0
-2269 -2243 7038 0
-1931 -7023 0
-1931 -7024 0
-1931 -7025 0
-1931 -7026 0
-1931 -7027 0
-1931 -7028 0
-1931 -7029 0
-1931 -7030 0
-1931 -7031 0
-1931 -7032 0
-1931 -7033 0
-1931 -7034 0
-1931 -7035 0
-1931 -7036 0
-1931 -7037 0
-1931 -7038 0
-2260 1931 7023 7024 7025 7026 7027 7028 7029 7030 7031 7032 7033 7034 7035 7036 7037 7038 0
-1934 2261 0
-7039 2253 0
-7039 1979 0
-2253 -1979 7039 0
-7040 2254 0
-7040 1978 0
-2254 -1978 7040 0
-7041 2255 0
-7041 2005 0
-2255 -2005 7041 0
-7042 2256 0
-7042 2022 0
-2256 -2022 7042 0
-7043 2257 0
-7043 2039 0
-2257 -2039 7043 0
-7044 2258 0
-7044 2056 0
-2258 -2056 7044 0
-7045 2259 0
-7045 2073 0
-2259 -2073 7045 0
-7046 2260 0
-7046 2090 0
-2260 -2090 7046 0
-7047 2262 0
-7047 2125 0
-2262 -2125 7047 0
-7048 2263 0
-7048 2142 0
-2263 -2142 7048 0
-7049 2264 0
-7049 2159 0
-2264 -2159 7049 0
-7050 2265 0
-7050 2176 0
-2265 -2176 7050 0
-7051 2266 0
-7051 2193 0
-2266 -2193 7051 0
-7052 2267 0
-7052 2210 0
-2267 -2210 7052 0
-7053 2268 0
-7053 2227 0
-2268 -2227 7053 0
-7054 2269 0
-7054 2244 0
-2269 -2244 7054 0
-1934 -7039 0
-1934 -7040 0
-1934 -7041 0
-1934 -7042 0
-1934 -7043 0
-1934 -7044 0
-1934 -7045 0
-1934 -7046 0
-1934 -7047 0
-1934 -7048 0
-1934 -7049 0
-1934 -7050 0
-1934 -7051 0
-1934 -7052 0
-1934 -7053 0
-1934 -7054 0
-2261 1934 7039 7040 7041 7042 7043 7044 7045 7046 7047 7048 7049 7050 7051 7052 7053 7054 0
-1937 2262 0
-7055 2253 0
-7055 1981 0
-2253 -1981 7055 0
-7056 2254 0
-7056 1980 0
-2254 -1980 7056 0
-7057 2255 0
-7057 2006 0
-2255 -2006 7057 0
-7058 2256 0
-7058 2023 0
-2256 -2023 7058 0
-7059 2257 0
-7059 2040 0
-2257 -2040 7059 0
-7060 2258 0
-7060 2057 0
-2258 -2057 7060 0
-7061 2259 0
-7061 2074 0
-2259 -2074 7061 0
-7062 2260 0
-7062 2091 0
-2260 -2091 7062 0
-7063 2261 0
-7063 2108 0
-2261 -2108 7063 0
-7064 2263 0
-7064 2143 0
-2263 -2143 7064 0
-7065 2264 0
-7065 2160 0
-2264 -2160 7065 0
-7066 2265 0
-7066 2177 0
-2265 -2177 7066 0
-7067 2266 0
-7067 2194 0
-2266 -2194 7067 0
-7068 2267 0
-7068 2211 0
-2267 -2211 7068 0
-7069 2268 0
-7069 2228 0
-2268 -2228 7069 0
-7070 2269 0
-7070 2245 0
-2269 -2245 7070 0
-1937 -7055 0
-1937 -7056 0
-1937 -7057 0
-1937 -7058 0
-1937 -7059 0
-1937 -7060 0
-1937 -7061 0
-1937 -7062 0
-1937 -7063 0
-1937 -7064 0
-1937 -7065 0
-1937 -7066 0
-1937 -7067 0
-1937 -7068 0
-1937 -7069 0
-1937 -7070 0
-2262 1937 7055 7056 7057 7058 7059 7060 7061 7062 7063 7064 7065 7066 7067 7068 7069 7070 0
-1940 2263 0
-7071 2253 0
-7071 1983 0
-2253 -1983 7071 0
-7072 2254 0
-7072 1982 0
-2254 -1982 7072 0
-7073 2255 0
-7073 2007 0
-2255 -2007 7073 0
-7074 2256 0
-7074 2024 0
-2256 -2024 7074 0
-7075 2257 0
-7075 2041 0
-2257 -2041 7075 0
-7076 2258 0
-7076 2058 0
-2258 -2058 7076 0
-7077 2259 0
-7077 2075 0
-2259 -2075 7077 0
-7078 2260 0
-7078 2092 0
-2260 -2092 7078 0
-7079 2261 0
-7079 2109 0
-2261 -2109 7079 0
-7080 2262 0
-7080 2126 0
-2262 -2126 7080 0
-7081 2264 0
-7081 2161 0
-2264 -2161 7081 0
-7082 2265 0
-7082 2178 0
-2265 -2178 7082 0
-7083 2266 0
-7083 2195 0
-2266 -2195 7083 0
-7084 2267 0
-7084 2212 0
-2267 -2212 7084 0
-7085 2268 0
-7085 2229 0
-2268 -2229 7085 0
-7086 2269 0
-7086 2246 0
-2269 -2246 7086 0
-1940 -7071 0
-1940 -7072 0
-1940 -7073 0
-1940 -7074 0
-1940 -7075 0
-1940 -7076 0
-1940 -7077 0
-1940 -7078 0
-1940 -7079 0
-1940 -7080 0
-1940 -7081 0
-1940 -7082 0
-1940 -7083 0
-1940 -7084 0
-1940 -7085 0
-1940 -7086 0
-2263 1940 7071 7072 7073 7074 7075 7076 7077 7078 7079 7080 7081 7082 7083 7084 7085 7086 0
-1943 2264 0
-7087 2253 0
-7087 1985 0
-2253 -1985 7087 0
-7088 2254 0
-7088 1984 0
-2254 -1984 7088 0
-7089 2255 0
-7089 2008 0
-2255 -2008 7089 0
-7090 2256 0
-7090 2025 0
-2256 -2025 7090 0
-7091 2257 0
-7091 2042 0
-2257 -2042 7091 0
-7092 2258 0
-7092 2059 0
-2258 -2059 7092 0
-7093 2259 0
-7093 2076 0
-2259 -2076 7093 0
-7094 2260 0
-7094 2093 0
-2260 -2093 7094 0
-7095 2261 0
-7095 2110 0
-2261 -2110 7095 0
-7096 2262 0
-7096 2127 0
-2262 -2127 7096 0
-7097 2263 0
-7097 2144 0
-2263 -2144 7097 0
-7098 2265 0
-7098 2179 0
-2265 -2179 7098 0
-7099 2266 0
-7099 2196 0
-2266 -2196 7099 0
-7100 2267 0
-7100 2213 0
-2267 -2213 7100 0
-7101 2268 0
-7101 2230 0
-2268 -2230 7101 0
-7102 2269 0
-7102 2247 0
-2269 -2247 7102 0
-1943 -7087 0
-1943 -7088 0
-1943 -7089 0
-1943 -7090 0
-1943 -7091 0
-1943 -7092 0
-1943 -7093 0
-1943 -7094 0
-1943 -7095 0
-1943 -7096 0
-1943 -7097 0
-1943 -7098 0
-1943 -7099 0
-1943 -7100 0
-1943 -7101 0
-1943 -7102 0
-2264 1943 7087 7088 7089 7090 7091 7092 7093 7094 7095 7096 7097 7098 7099 7100 7101 7102 0
-1946 2265 0
-7103 2253 0
-7103 1987 0
-2253 -1987 7103 0
-7104 2254 0
-7104 1986 0
-2254 -1986 7104 0
-7105 2255 0
-7105 2009 0
-2255 -2009 7105 0
-7106 2256 0
-7106 2026 0
-2256 -2026 7106 0
-7107 2257 0
-7107 2043 0
-2257 -2043 7107 0
-7108 2258 0
-7108 2060 0
-2258 -2060 7108 0
-7109 2259 0
-7109 2077 0
-2259 -2077 7109 0
-7110 2260 0
-7110 2094 0
-2260 -2094 7110 0
-7111 2261 0
-7111 2111 0
-2261 -2111 7111 0
-7112 2262 0
-7112 2128 0
-2262 -2128 7112 0
-7113 2263 0
-7113 2145 0
-2263 -2145 7113 0
-7114 2264 0
-7114 2162 0
-2264 -2162 7114 0
-7115 2266 0
-7115 2197 0
-2266 -2197 7115 0
-7116 2267 0
-7116 2214 0
-2267 -2214 7116 0
-7117 2268 0
-7117 2231 0
-2268 -2231 7117 0
-7118 2269 0
-7118 2248 0
-2269 -2248 7118 0
-1946 -7103 0
-1946 -7104 0
-1946 -7105 0
-1946 -7106 0
-1946 -7107 0
-1946 -7108 0
-1946 -7109 0
-1946 -7110 0
-1946 -7111 0
-1946 -7112 0
-1946 -7113 0
-1946 -7114 0
-1946 -7115 0
-1946 -7116 0
-1946 -7117 0
-1946 -7118 0
-2265 1946 7103 7104 7105 7106 7107 7108 7109 7110 7111 7112 7113 7114 7115 7116 7117 7118 0
-1949 2266 0
-7119 2253 0
-7119 1989 0
-2253 -1989 7119 0
-7120 2254 0
-7120 1988 0
-2254 -1988 7120 0
-7121 2255 0
-7121 2010 0
-2255 -2010 7121 0
-7122 2256 0
-7122 2027 0
-2256 -2027 7122 0
-7123 2257 0
-7123 2044 0
-2257 -2044 7123 0
-7124 2258 0
-7124 2061 0
-2258 -2061 7124 0
-7125 2259 0
-7125 2078 0
-2259 -2078 7125 0
-7126 2260 0
-7126 2095 0
-2260 -2095 7126 0
-7127 2261 0
-7127 2112 0
-2261 -2112 7127 0
-7128 2262 0
-7128 2129 0
-2262 -2129 7128 0
-7129 2263 0
-7129 2146 0
-2263 -2146 7129 0
-7130 2264 0
-7130 2163 0
-2264 -2163 7130 0
-7131 2265 0
-7131 2180 0
-2265 -2180 7131 0
-7132 2267 0
-7132 2215 0
-2267 -2215 7132 0
-7133 2268 0
-7133 2232 0
-2268 -2232 7133 0
-7134 2269 0
-7134 2249 0
-2269 -2249 7134 0
-1949 -7119 0
-1949 -7120 0
-1949 -7121 0
-1949 -7122 0
-1949 -7123 0
-1949 -7124 0
-1949 -7125 0
-1949 -7126 0
-1949 -7127 0
-1949 -7128 0
-1949 -7129 0
-1949 -7130 0
-1949 -7131 0
-1949 -7132 0
-1949 -7133 0
-1949 -7134 0
-2266 1949 7119 7120 7121 7122 7123 7124 7125 7126 7127 7128 7129 7130 7131 7132 7133 7134 0
-1952 2267 0
-7135 2253 0
-7135 1991 0
-2253 -1991 7135 0
-7136 2254 0
-7136 1990 0
-2254 -1990 7136 0
-7137 2255 0
-7137 2011 0
-2255 -2011 7137 0
-7138 2256 0
-7138 2028 0
-2256 -2028 7138 0
-7139 2257 0
-7139 2045 0
-2257 -2045 7139 0
-7140 2258 0
-7140 2062 0
-2258 -2062 7140 0
-7141 2259 0
-7141 2079 0
-2259 -2079 7141 0
-7142 2260 0
-7142 2096 0
-2260 -2096 7142 0
-7143 2261 0
-7143 2113 0
-2261 -2113 7143 0
-7144 2262 0
-7144 2130 0
-2262 -2130 7144 0
-7145 2263 0
-7145 2147 0
-2263 -2147 7145 0
-7146 2264 0
-7146 2164 0
-2264 -2164 7146 0
-7147 2265 0
-7147 2181 0
-2265 -2181 7147 0
-7148 2266 0
-7148 2198 0
-2266 -2198 7148 0
-7149 2268 0
-7149 2233 0
-2268 -2233 7149 0
-7150 2269 0
-7150 2250 0
-2269 -2250 7150 0
-1952 -7135 0
-1952 -7136 0
-1952 -7137 0
-1952 -7138 0
-1952 -7139 0
-1952 -7140 0
-1952 -7141 0
-1952 -7142 0
-1952 -7143 0
-1952 -7144 0
-1952 -7145 0
-1952 -7146 0
-1952 -7147 0
-1952 -7148 0
-1952 -7149 0
-1952 -7150 0
-2267 1952 7135 7136 7137 7138 7139 7140 7141 7142 7143 7144 7145 7146 7147 7148 7149 7150 0
-1955 2268 0
-7151 2253 0
-7151 1993 0
-2253 -1993 7151 0
-7152 2254 0
-7152 1992 0
-2254 -1992 7152 0
-7153 2255 0
-7153 2012 0
-2255 -2012 7153 0
-7154 2256 0
-7154 2029 0
-2256 -2029 7154 0
-7155 2257 0
-7155 2046 0
-2257 -2046 7155 0
-7156 2258 0
-7156 2063 0
-2258 -2063 7156 0
-7157 2259 0
-7157 2080 0
-2259 -2080 7157 0
-7158 2260 0
-7158 2097 0
-2260 -2097 7158 0
-7159 2261 0
-7159 2114 0
-2261 -2114 7159 0
-7160 2262 0
-7160 2131 0
-2262 -2131 7160 0
-7161 2263 0
-7161 2148 0
-2263 -2148 7161 0
-7162 2264 0
-7162 2165 0
-2264 -2165 7162 0
-7163 2265 0
-7163 2182 0
-2265 -2182 7163 0
-7164 2266 0
-7164 2199 0
-2266 -2199 7164 0
-7165 2267 0
-7165 2216 0
-2267 -2216 7165 0
-7166 2269 0
-7166 2251 0
-2269 -2251 7166 0
-1955 -7151 0
-1955 -7152 0
-1955 -7153 0
-1955 -7154 0
-1955 -7155 0
-1955 -7156 0
-1955 -7157 0
-1955 -7158 0
-1955 -7159 0
-1955 -7160 0
-1955 -7161 0
-1955 -7162 0
-1955 -7163 0
-1955 -7164 0
-1955 -7165 0
-1955 -7166 0
-2268 1955 7151 7152 7153 7154 7155 7156 7157 7158 7159 7160 7161 7162 7163 7164 7165 7166 0
-1958 2269 0
-7167 2253 0
-7167 1995 0
-2253 -1995 7167 0
-7168 2254 0
-7168 1994 0
-2254 -1994 7168 0
-7169 2255 0
-7169 2013 0
-2255 -2013 7169 0
-7170 2256 0
-7170 2030 0
-2256 -2030 7170 0
-7171 2257 0
-7171 2047 0
-2257 -2047 7171 0
-7172 2258 0
-7172 2064 0
-2258 -2064 7172 0
-7173 2259 0
-7173 2081 0
-2259 -2081 7173 0
-7174 2260 0
-7174 2098 0
-2260 -2098 7174 0
-7175 2261 0
-7175 2115 0
-2261 -2115 7175 0
-7176 2262 0
-7176 2132 0
-2262 -2132 7176 0
-7177 2263 0
-7177 2149 0
-2263 -2149 7177 0
-7178 2264 0
-7178 2166 0
-2264 -2166 7178 0
-7179 2265 0
-7179 2183 0
-2265 -2183 7179 0
-7180 2266 0
-7180 2200 0
-2266 -2200 7180 0
-7181 2267 0
-7181 2217 0
-2267 -2217 7181 0
-7182 2268 0
-7182 2234 0
-2268 -2234 7182 0
-1958 -7167 0
-1958 -7168 0
-1958 -7169 0
-1958 -7170 0
-1958 -7171 0
-1958 -7172 0
-1958 -7173 0
-1958 -7174 0
-1958 -7175 0
-1958 -7176 0
-1958 -7177 0
-1958 -7178 0
-1958 -7179 0
-1958 -7180 0
-1958 -7181 0
-1958 -7182 0
-2269 1958 7167 7168 7169 7170 7171 7172 7173 7174 7175 7176 7177 7178 7179 7180 7181 7182 0
-1961 0
