p cnf 30 74
1 1 -2 0
1 3 -4 0
3 1 -5 0
3 3 -6 0
2 -1 0
4 -1 0
5 -3 0
6 -3 0
2 -1 0
4 -3 0
5 -1 0
6 -3 0
-1 -1 -7 0
-1 -3 -8 0
-3 -1 -9 0
-3 -3 -10 0
7 1 0
8 1 0
9 3 0
10 3 0
7 1 0
8 3 0
9 1 0
10 3 0
-2 -7 11 0
-4 -8 12 0
-5 -9 13 0
-6 -10 14 0
-11 2 0
-12 4 0
-13 5 0
-14 6 0
-11 7 0
-12 8 0
-13 9 0
-14 10 0
-15 -16 11 -17 0
-18 -19 12 -20 0
-21 -22 13 -23 0
-24 -25 14 -26 0
17 15 0
20 18 0
23 21 0
26 24 0
17 16 0
20 19 0
23 22 0
26 25 0
17 -11 0
20 -12 0
23 -13 0
26 -14 0
17 0
20 0
23 0
26 0
15 0
18 21 0
-18 -21 0
24 0
21 18 0
-21 -18 0
27 0
28 29 0
-28 -29 0
30 0
29 28 0
-29 -28 0
-16 0
-19 28 0
-28 19 0
-22 29 0
-29 22 0
-25 0
