p cnf 72 207
1 1 -2 0
1 3 -4 0
1 5 -6 0
3 1 -7 0
3 3 -8 0
3 5 -9 0
5 1 -10 0
5 3 -11 0
5 5 -12 0
2 -1 0
4 -1 0
6 -1 0
7 -3 0
8 -3 0
9 -3 0
10 -5 0
11 -5 0
12 -5 0
2 -1 0
4 -3 0
6 -5 0
7 -1 0
8 -3 0
9 -5 0
10 -1 0
11 -3 0
12 -5 0
-1 -1 -13 0
-1 -3 -14 0
-1 -5 -15 0
-3 -1 -16 0
-3 -3 -17 0
-3 -5 -18 0
-5 -1 -19 0
-5 -3 -20 0
-5 -5 -21 0
13 1 0
14 1 0
15 1 0
16 3 0
17 3 0
18 3 0
19 5 0
20 5 0
21 5 0
13 1 0
14 3 0
15 5 0
16 1 0
17 3 0
18 5 0
19 1 0
20 3 0
21 5 0
-2 -13 22 0
-4 -14 23 0
-6 -15 24 0
-7 -16 25 0
-8 -17 26 0
-9 -18 27 0
-10 -19 28 0
-11 -20 29 0
-12 -21 30 0
-22 2 0
-23 4 0
-24 6 0
-25 7 0
-26 8 0
-27 9 0
-28 10 0
-29 11 0
-30 12 0
-22 13 0
-23 14 0
-24 15 0
-25 16 0
-26 17 0
-27 18 0
-28 19 0
-29 20 0
-30 21 0
-31 -32 22 -33 0
-34 -35 23 -36 0
-37 -38 24 -39 0
-40 -41 25 -42 0
-43 -44 26 -45 0
-46 -47 27 -48 0
-49 -50 28 -51 0
-52 -53 29 -54 0
-55 -56 30 -57 0
33 31 0
36 34 0
39 37 0
42 40 0
45 43 0
48 46 0
51 49 0
54 52 0
57 55 0
33 32 0
36 35 0
39 38 0
42 41 0
45 44 0
48 47 0
51 50 0
54 53 0
57 56 0
33 -22 0
36 -23 0
39 -24 0
42 -25 0
45 -26 0
48 -27 0
51 -28 0
54 -29 0
57 -30 0
33 0
36 0
39 0
42 0
45 0
48 0
51 0
54 0
57 0
31 0
34 40 0
-34 -40 0
-34 -46 37 0
37 49 0
-37 -49 0
-37 -52 34 0
43 0
40 34 0
-40 -34 0
-40 -37 46 0
46 52 0
-46 -52 0
-46 -49 40 0
55 0
49 37 0
-49 -37 0
-49 -34 52 0
52 46 0
-52 -46 0
-52 -40 49 0
58 0
59 60 0
-59 -60 0
-59 -61 62 0
62 63 0
-62 -63 0
-62 -64 59 0
65 0
60 59 0
-60 -59 0
-60 -62 61 0
61 64 0
-61 -64 0
-61 -63 60 0
66 0
63 62 0
-63 -62 0
-63 -59 64 0
64 61 0
-64 -61 0
-64 -60 63 0
-32 0
-35 59 0
-67 62 0
-67 64 0
-62 -64 67 0
-35 -67 0
-59 35 67 0
-38 62 0
-68 59 0
-68 61 0
-59 -61 68 0
-38 -68 0
-62 38 68 0
-41 60 0
-69 61 0
-69 63 0
-61 -63 69 0
-41 -69 0
-60 41 69 0
-44 0
-47 61 0
-70 60 0
-70 62 0
-60 -62 70 0
-47 -70 0
-61 47 70 0
-50 63 0
-71 64 0
-71 60 0
-64 -60 71 0
-50 -71 0
-63 50 71 0
-53 64 0
-72 63 0
-72 59 0
-63 -59 72 0
-53 -72 0
-64 53 72 0
-56 0
