p cnf 140 452
1 1 -2 0
1 3 -4 0
1 5 -6 0
1 7 -8 0
3 1 -9 0
3 3 -10 0
3 5 -11 0
3 7 -12 0
5 1 -13 0
5 3 -14 0
5 5 -15 0
5 7 -16 0
7 1 -17 0
7 3 -18 0
7 5 -19 0
7 7 -20 0
2 -1 0
4 -1 0
6 -1 0
8 -1 0
9 -3 0
10 -3 0
11 -3 0
12 -3 0
13 -5 0
14 -5 0
15 -5 0
16 -5 0
17 -7 0
18 -7 0
19 -7 0
20 -7 0
2 -1 0
4 -3 0
6 -5 0
8 -7 0
9 -1 0
10 -3 0
11 -5 0
12 -7 0
13 -1 0
14 -3 0
15 -5 0
16 -7 0
17 -1 0
18 -3 0
19 -5 0
20 -7 0
-1 -1 -21 0
-1 -3 -22 0
-1 -5 -23 0
-1 -7 -24 0
-3 -1 -25 0
-3 -3 -26 0
-3 -5 -27 0
-3 -7 -28 0
-5 -1 -29 0
-5 -3 -30 0
-5 -5 -31 0
-5 -7 -32 0
-7 -1 -33 0
-7 -3 -34 0
-7 -5 -35 0
-7 -7 -36 0
21 1 0
22 1 0
23 1 0
24 1 0
25 3 0
26 3 0
27 3 0
28 3 0
29 5 0
30 5 0
31 5 0
32 5 0
33 7 0
34 7 0
35 7 0
36 7 0
21 1 0
22 3 0
23 5 0
24 7 0
25 1 0
26 3 0
27 5 0
28 7 0
29 1 0
30 3 0
31 5 0
32 7 0
33 1 0
34 3 0
35 5 0
36 7 0
-2 -21 37 0
-4 -22 38 0
-6 -23 39 0
-8 -24 40 0
-9 -25 41 0
-10 -26 42 0
-11 -27 43 0
-12 -28 44 0
-13 -29 45 0
-14 -30 46 0
-15 -31 47 0
-16 -32 48 0
-17 -33 49 0
-18 -34 50 0
-19 -35 51 0
-20 -36 52 0
-37 2 0
-38 4 0
-39 6 0
-40 8 0
-41 9 0
-42 10 0
-43 11 0
-44 12 0
-45 13 0
-46 14 0
-47 15 0
-48 16 0
-49 17 0
-50 18 0
-51 19 0
-52 20 0
-37 21 0
-38 22 0
-39 23 0
-40 24 0
-41 25 0
-42 26 0
-43 27 0
-44 28 0
-45 29 0
-46 30 0
-47 31 0
-48 32 0
-49 33 0
-50 34 0
-51 35 0
-52 36 0
-53 -54 37 -55 0
-56 -57 38 -58 0
-59 -60 39 -61 0
-62 -63 40 -64 0
-65 -66 41 -67 0
-68 -69 42 -70 0
-71 -72 43 -73 0
-74 -75 44 -76 0
-77 -78 45 -79 0
-80 -81 46 -82 0
-83 -84 47 -85 0
-86 -87 48 -88 0
-89 -90 49 -91 0
-92 -93 50 -94 0
-95 -96 51 -97 0
-98 -99 52 -100 0
55 53 0
58 56 0
61 59 0
64 62 0
67 65 0
70 68 0
73 71 0
76 74 0
79 77 0
82 80 0
85 83 0
88 86 0
91 89 0
94 92 0
97 95 0
100 98 0
55 54 0
58 57 0
61 60 0
64 63 0
67 66 0
70 69 0
73 72 0
76 75 0
79 78 0
82 81 0
85 84 0
88 87 0
91 90 0
94 93 0
97 96 0
100 99 0
55 -37 0
58 -38 0
61 -39 0
64 -40 0
67 -41 0
70 -42 0
73 -43 0
76 -44 0
79 -45 0
82 -46 0
85 -47 0
88 -48 0
91 -49 0
94 -50 0
97 -51 0
100 -52 0
55 0
58 0
61 0
64 0
67 0
70 0
73 0
76 0
79 0
82 0
85 0
88 0
91 0
94 0
97 0
100 0
53 0
56 65 0
-56 -65 0
-56 -71 59 0
-56 -74 62 0
59 77 0
-59 -77 0
-59 -80 56 0
-59 -86 62 0
62 89 0
-62 -89 0
-62 -92 56 0
-62 -95 59 0
68 0
65 56 0
-65 -56 0
-65 -59 71 0
-65 -62 74 0
71 80 0
-71 -80 0
-71 -77 65 0
-71 -86 74 0
74 92 0
-74 -92 0
-74 -89 65 0
-74 -95 71 0
83 0
77 59 0
-77 -59 0
-77 -56 80 0
-77 -62 86 0
80 71 0
-80 -71 0
-80 -65 77 0
-80 -74 86 0
86 95 0
-86 -95 0
-86 -89 77 0
-86 -92 80 0
98 0
89 62 0
-89 -62 0
-89 -56 92 0
-89 -59 95 0
92 74 0
-92 -74 0
-92 -65 89 0
-92 -71 95 0
95 86 0
-95 -86 0
-95 -77 89 0
-95 -80 92 0
101 0
102 103 0
-102 -103 0
-102 -104 105 0
-102 -106 107 0
105 108 0
-105 -108 0
-105 -109 102 0
-105 -110 107 0
107 111 0
-107 -111 0
-107 -112 102 0
-107 -113 105 0
114 0
103 102 0
-103 -102 0
-103 -105 104 0
-103 -107 106 0
104 109 0
-104 -109 0
-104 -108 103 0
-104 -110 106 0
106 112 0
-106 -112 0
-106 -111 103 0
-106 -113 104 0
115 0
108 105 0
-108 -105 0
-108 -102 109 0
-108 -107 110 0
109 104 0
-109 -104 0
-109 -103 108 0
-109 -106 110 0
110 113 0
-110 -113 0
-110 -111 108 0
-110 -112 109 0
116 0
111 107 0
-111 -107 0
-111 -102 112 0
-111 -105 113 0
112 106 0
-112 -106 0
-112 -103 111 0
-112 -104 113 0
113 110 0
-113 -110 0
-113 -108 111 0
-113 -109 112 0
-54 0
-57 102 0
-117 105 0
-117 109 0
-105 -109 117 0
-118 107 0
-118 112 0
-107 -112 118 0
-57 -117 0
-57 -118 0
-102 57 117 118 0
-60 105 0
-119 102 0
-119 104 0
-102 -104 119 0
-120 107 0
-120 113 0
-107 -113 120 0
-60 -119 0
-60 -120 0
-105 60 119 120 0
-63 107 0
-121 102 0
-121 106 0
-102 -106 121 0
-122 105 0
-122 110 0
-105 -110 122 0
-63 -121 0
-63 -122 0
-107 63 121 122 0
-66 103 0
-123 104 0
-123 108 0
-104 -108 123 0
-124 106 0
-124 111 0
-106 -111 124 0
-66 -123 0
-66 -124 0
-103 66 123 124 0
-69 0
-72 104 0
-125 103 0
-125 105 0
-103 -105 125 0
-126 106 0
-126 113 0
-106 -113 126 0
-72 -125 0
-72 -126 0
-104 72 125 126 0
-75 106 0
-127 103 0
-127 107 0
-103 -107 127 0
-128 104 0
-128 110 0
-104 -110 128 0
-75 -127 0
-75 -128 0
-106 75 127 128 0
-78 108 0
-129 109 0
-129 103 0
-109 -103 129 0
-130 110 0
-130 111 0
-110 -111 130 0
-78 -129 0
-78 -130 0
-108 78 129 130 0
-81 109 0
-131 108 0
-131 102 0
-108 -102 131 0
-132 110 0
-132 112 0
-110 -112 132 0
-81 -131 0
-81 -132 0
-109 81 131 132 0
-84 0
-87 110 0
-133 108 0
-133 107 0
-108 -107 133 0
-134 109 0
-134 106 0
-109 -106 134 0
-87 -133 0
-87 -134 0
-110 87 133 134 0
-90 111 0
-135 112 0
-135 103 0
-112 -103 135 0
-136 113 0
-136 108 0
-113 -108 136 0
-90 -135 0
-90 -136 0
-111 90 135 136 0
-93 112 0
-137 111 0
-137 102 0
-111 -102 137 0
-138 113 0
-138 109 0
-113 -109 138 0
-93 -137 0
-93 -138 0
-112 93 137 138 0
-96 113 0
-139 111 0
-139 105 0
-111 -105 139 0
-140 112 0
-140 104 0
-112 -104 140 0
-96 -139 0
-96 -140 0
-113 96 139 140 0
-99 0
