p cnf 240 845
1 1 -2 0
1 3 -4 0
1 5 -6 0
1 7 -8 0
1 9 -10 0
3 1 -11 0
3 3 -12 0
3 5 -13 0
3 7 -14 0
3 9 -15 0
5 1 -16 0
5 3 -17 0
5 5 -18 0
5 7 -19 0
5 9 -20 0
7 1 -21 0
7 3 -22 0
7 5 -23 0
7 7 -24 0
7 9 -25 0
9 1 -26 0
9 3 -27 0
9 5 -28 0
9 7 -29 0
9 9 -30 0
2 -1 0
4 -1 0
6 -1 0
8 -1 0
10 -1 0
11 -3 0
12 -3 0
13 -3 0
14 -3 0
15 -3 0
16 -5 0
17 -5 0
18 -5 0
19 -5 0
20 -5 0
21 -7 0
22 -7 0
23 -7 0
24 -7 0
25 -7 0
26 -9 0
27 -9 0
28 -9 0
29 -9 0
30 -9 0
2 -1 0
4 -3 0
6 -5 0
8 -7 0
10 -9 0
11 -1 0
12 -3 0
13 -5 0
14 -7 0
15 -9 0
16 -1 0
17 -3 0
18 -5 0
19 -7 0
20 -9 0
21 -1 0
22 -3 0
23 -5 0
24 -7 0
25 -9 0
26 -1 0
27 -3 0
28 -5 0
29 -7 0
30 -9 0
-1 -1 -31 0
-1 -3 -32 0
-1 -5 -33 0
-1 -7 -34 0
-1 -9 -35 0
-3 -1 -36 0
-3 -3 -37 0
-3 -5 -38 0
-3 -7 -39 0
-3 -9 -40 0
-5 -1 -41 0
-5 -3 -42 0
-5 -5 -43 0
-5 -7 -44 0
-5 -9 -45 0
-7 -1 -46 0
-7 -3 -47 0
-7 -5 -48 0
-7 -7 -49 0
-7 -9 -50 0
-9 -1 -51 0
-9 -3 -52 0
-9 -5 -53 0
-9 -7 -54 0
-9 -9 -55 0
31 1 0
32 1 0
33 1 0
34 1 0
35 1 0
36 3 0
37 3 0
38 3 0
39 3 0
40 3 0
41 5 0
42 5 0
43 5 0
44 5 0
45 5 0
46 7 0
47 7 0
48 7 0
49 7 0
50 7 0
51 9 0
52 9 0
53 9 0
54 9 0
55 9 0
31 1 0
32 3 0
33 5 0
34 7 0
35 9 0
36 1 0
37 3 0
38 5 0
39 7 0
40 9 0
41 1 0
42 3 0
43 5 0
44 7 0
45 9 0
46 1 0
47 3 0
48 5 0
49 7 0
50 9 0
51 1 0
52 3 0
53 5 0
54 7 0
55 9 0
-2 -31 56 0
-4 -32 57 0
-6 -33 58 0
-8 -34 59 0
-10 -35 60 0
-11 -36 61 0
-12 -37 62 0
-13 -38 63 0
-14 -39 64 0
-15 -40 65 0
-16 -41 66 0
-17 -42 67 0
-18 -43 68 0
-19 -44 69 0
-20 -45 70 0
-21 -46 71 0
-22 -47 72 0
-23 -48 73 0
-24 -49 74 0
-25 -50 75 0
-26 -51 76 0
-27 -52 77 0
-28 -53 78 0
-29 -54 79 0
-30 -55 80 0
-56 2 0
-57 4 0
-58 6 0
-59 8 0
-60 10 0
-61 11 0
-62 12 0
-63 13 0
-64 14 0
-65 15 0
-66 16 0
-67 17 0
-68 18 0
-69 19 0
-70 20 0
-71 21 0
-72 22 0
-73 23 0
-74 24 0
-75 25 0
-76 26 0
-77 27 0
-78 28 0
-79 29 0
-80 30 0
-56 31 0
-57 32 0
-58 33 0
-59 34 0
-60 35 0
-61 36 0
-62 37 0
-63 38 0
-64 39 0
-65 40 0
-66 41 0
-67 42 0
-68 43 0
-69 44 0
-70 45 0
-71 46 0
-72 47 0
-73 48 0
-74 49 0
-75 50 0
-76 51 0
-77 52 0
-78 53 0
-79 54 0
-80 55 0
-81 -82 56 -83 0
-84 -85 57 -86 0
-87 -88 58 -89 0
-90 -91 59 -92 0
-93 -94 60 -95 0
-96 -97 61 -98 0
-99 -100 62 -101 0
-102 -103 63 -104 0
-105 -106 64 -107 0
-108 -109 65 -110 0
-111 -112 66 -113 0
-114 -115 67 -116 0
-117 -118 68 -119 0
-120 -121 69 -122 0
-123 -124 70 -125 0
-126 -127 71 -128 0
-129 -130 72 -131 0
-132 -133 73 -134 0
-135 -136 74 -137 0
-138 -139 75 -140 0
-141 -142 76 -143 0
-144 -145 77 -146 0
-147 -148 78 -149 0
-150 -151 79 -152 0
-153 -154 80 -155 0
83 81 0
86 84 0
89 87 0
92 90 0
95 93 0
98 96 0
101 99 0
104 102 0
107 105 0
110 108 0
113 111 0
116 114 0
119 117 0
122 120 0
125 123 0
128 126 0
131 129 0
134 132 0
137 135 0
140 138 0
143 141 0
146 144 0
149 147 0
152 150 0
155 153 0
83 82 0
86 85 0
89 88 0
92 91 0
95 94 0
98 97 0
101 100 0
104 103 0
107 106 0
110 109 0
113 112 0
116 115 0
119 118 0
122 121 0
125 124 0
128 127 0
131 130 0
134 133 0
137 136 0
140 139 0
143 142 0
146 145 0
149 148 0
152 151 0
155 154 0
83 -56 0
86 -57 0
89 -58 0
92 -59 0
95 -60 0
98 -61 0
101 -62 0
104 -63 0
107 -64 0
110 -65 0
113 -66 0
116 -67 0
119 -68 0
122 -69 0
125 -70 0
128 -71 0
131 -72 0
134 -73 0
137 -74 0
140 -75 0
143 -76 0
146 -77 0
149 -78 0
152 -79 0
155 -80 0
83 0
86 0
89 0
92 0
95 0
98 0
101 0
104 0
107 0
110 0
113 0
116 0
119 0
122 0
125 0
128 0
131 0
134 0
137 0
140 0
143 0
146 0
149 0
152 0
155 0
81 0
84 96 0
-84 -96 0
-84 -102 87 0
-84 -105 90 0
-84 -108 93 0
87 111 0
-87 -111 0
-87 -114 84 0
-87 -120 90 0
-87 -123 93 0
90 126 0
-90 -126 0
-90 -129 84 0
-90 -132 87 0
-90 -138 93 0
93 141 0
-93 -141 0
-93 -144 84 0
-93 -147 87 0
-93 -150 90 0
99 0
96 84 0
-96 -84 0
-96 -87 102 0
-96 -90 105 0
-96 -93 108 0
102 114 0
-102 -114 0
-102 -111 96 0
-102 -120 105 0
-102 -123 108 0
105 129 0
-105 -129 0
-105 -126 96 0
-105 -132 102 0
-105 -138 108 0
108 144 0
-108 -144 0
-108 -141 96 0
-108 -147 102 0
-108 -150 105 0
117 0
111 87 0
-111 -87 0
-111 -84 114 0
-111 -90 120 0
-111 -93 123 0
114 102 0
-114 -102 0
-114 -96 111 0
-114 -105 120 0
-114 -108 123 0
120 132 0
-120 -132 0
-120 -126 111 0
-120 -129 114 0
-120 -138 123 0
123 147 0
-123 -147 0
-123 -141 111 0
-123 -144 114 0
-123 -150 120 0
135 0
126 90 0
-126 -90 0
-126 -84 129 0
-126 -87 132 0
-126 -93 138 0
129 105 0
-129 -105 0
-129 -96 126 0
-129 -102 132 0
-129 -108 138 0
132 120 0
-132 -120 0
-132 -111 126 0
-132 -114 129 0
-132 -123 138 0
138 150 0
-138 -150 0
-138 -141 126 0
-138 -144 129 0
-138 -147 132 0
153 0
141 93 0
-141 -93 0
-141 -84 144 0
-141 -87 147 0
-141 -90 150 0
144 108 0
-144 -108 0
-144 -96 141 0
-144 -102 147 0
-144 -105 150 0
147 123 0
-147 -123 0
-147 -111 141 0
-147 -114 144 0
-147 -120 150 0
150 138 0
-150 -138 0
-150 -126 141 0
-150 -129 144 0
-150 -132 147 0
156 0
157 158 0
-157 -158 0
-157 -159 160 0
-157 -161 162 0
-157 -163 164 0
160 165 0
-160 -165 0
-160 -166 157 0
-160 -167 162 0
-160 -168 164 0
162 169 0
-162 -169 0
-162 -170 157 0
-162 -171 160 0
-162 -172 164 0
164 173 0
-164 -173 0
-164 -174 157 0
-164 -175 160 0
-164 -176 162 0
177 0
158 157 0
-158 -157 0
-158 -160 159 0
-158 -162 161 0
-158 -164 163 0
159 166 0
-159 -166 0
-159 -165 158 0
-159 -167 161 0
-159 -168 163 0
161 170 0
-161 -170 0
-161 -169 158 0
-161 -171 159 0
-161 -172 163 0
163 174 0
-163 -174 0
-163 -173 158 0
-163 -175 159 0
-163 -176 161 0
178 0
165 160 0
-165 -160 0
-165 -157 166 0
-165 -162 167 0
-165 -164 168 0
166 159 0
-166 -159 0
-166 -158 165 0
-166 -161 167 0
-166 -163 168 0
167 171 0
-167 -171 0
-167 -169 165 0
-167 -170 166 0
-167 -172 168 0
168 175 0
-168 -175 0
-168 -173 165 0
-168 -174 166 0
-168 -176 167 0
179 0
169 162 0
-169 -162 0
-169 -157 170 0
-169 -160 171 0
-169 -164 172 0
170 161 0
-170 -161 0
-170 -158 169 0
-170 -159 171 0
-170 -163 172 0
171 167 0
-171 -167 0
-171 -165 169 0
-171 -166 170 0
-171 -168 172 0
172 176 0
-172 -176 0
-172 -173 169 0
-172 -174 170 0
-172 -175 171 0
180 0
173 164 0
-173 -164 0
-173 -157 174 0
-173 -160 175 0
-173 -162 176 0
174 163 0
-174 -163 0
-174 -158 173 0
-174 -159 175 0
-174 -161 176 0
175 168 0
-175 -168 0
-175 -165 173 0
-175 -166 174 0
-175 -167 176 0
176 172 0
-176 -172 0
-176 -169 173 0
-176 -170 174 0
-176 -171 175 0
-82 0
-85 157 0
-181 160 0
-181 166 0
-160 -166 181 0
-182 162 0
-182 170 0
-162 -170 182 0
-183 164 0
-183 174 0
-164 -174 183 0
-85 -181 0
-85 -182 0
-85 -183 0
-157 85 181 182 183 0
-88 160 0
-184 157 0
-184 159 0
-157 -159 184 0
-185 162 0
-185 171 0
-162 -171 185 0
-186 164 0
-186 175 0
-164 -175 186 0
-88 -184 0
-88 -185 0
-88 -186 0
-160 88 184 185 186 0
-91 162 0
-187 157 0
-187 161 0
-157 -161 187 0
-188 160 0
-188 167 0
-160 -167 188 0
-189 164 0
-189 176 0
-164 -176 189 0
-91 -187 0
-91 -188 0
-91 -189 0
-162 91 187 188 189 0
-94 164 0
-190 157 0
-190 163 0
-157 -163 190 0
-191 160 0
-191 168 0
-160 -168 191 0
-192 162 0
-192 172 0
-162 -172 192 0
-94 -190 0
-94 -191 0
-94 -192 0
-164 94 190 191 192 0
-97 158 0
-193 159 0
-193 165 0
-159 -165 193 0
-194 161 0
-194 169 0
-161 -169 194 0
-195 163 0
-195 173 0
-163 -173 195 0
-97 -193 0
-97 -194 0
-97 -195 0
-158 97 193 194 195 0
-100 0
-103 159 0
-196 158 0
-196 160 0
-158 -160 196 0
-197 161 0
-197 171 0
-161 -171 197 0
-198 163 0
-198 175 0
-163 -175 198 0
-103 -196 0
-103 -197 0
-103 -198 0
-159 103 196 197 198 0
-106 161 0
-199 158 0
-199 162 0
-158 -162 199 0
-200 159 0
-200 167 0
-159 -167 200 0
-201 163 0
-201 176 0
-163 -176 201 0
-106 -199 0
-106 -200 0
-106 -201 0
-161 106 199 200 201 0
-109 163 0
-202 158 0
-202 164 0
-158 -164 202 0
-203 159 0
-203 168 0
-159 -168 203 0
-204 161 0
-204 172 0
-161 -172 204 0
-109 -202 0
-109 -203 0
-109 -204 0
-163 109 202 203 204 0
-112 165 0
-205 166 0
-205 158 0
-166 -158 205 0
-206 167 0
-206 169 0
-167 -169 206 0
-207 168 0
-207 173 0
-168 -173 207 0
-112 -205 0
-112 -206 0
-112 -207 0
-165 112 205 206 207 0
-115 166 0
-208 165 0
-208 157 0
-165 -157 208 0
-209 167 0
-209 170 0
-167 -170 209 0
-210 168 0
-210 174 0
-168 -174 210 0
-115 -208 0
-115 -209 0
-115 -210 0
-166 115 208 209 210 0
-118 0
-121 167 0
-211 165 0
-211 162 0
-165 -162 211 0
-212 166 0
-212 161 0
-166 -161 212 0
-213 168 0
-213 176 0
-168 -176 213 0
-121 -211 0
-121 -212 0
-121 -213 0
-167 121 211 212 213 0
-124 168 0
-214 165 0
-214 164 0
-165 -164 214 0
-215 166 0
-215 163 0
-166 -163 215 0
-216 167 0
-216 172 0
-167 -172 216 0
-124 -214 0
-124 -215 0
-124 -216 0
-168 124 214 215 216 0
-127 169 0
-217 170 0
-217 158 0
-170 -158 217 0
-218 171 0
-218 165 0
-171 -165 218 0
-219 172 0
-219 173 0
-172 -173 219 0
-127 -217 0
-127 -218 0
-127 -219 0
-169 127 217 218 219 0
-130 170 0
-220 169 0
-220 157 0
-169 -157 220 0
-221 171 0
-221 166 0
-171 -166 221 0
-222 172 0
-222 174 0
-172 -174 222 0
-130 -220 0
-130 -221 0
-130 -222 0
-170 130 220 221 222 0
-133 171 0
-223 169 0
-223 160 0
-169 -160 223 0
-224 170 0
-224 159 0
-170 -159 224 0
-225 172 0
-225 175 0
-172 -175 225 0
-133 -223 0
-133 -224 0
-133 -225 0
-171 133 223 224 225 0
-136 0
-139 172 0
-226 169 0
-226 164 0
-169 -164 226 0
-227 170 0
-227 163 0
-170 -163 227 0
-228 171 0
-228 168 0
-171 -168 228 0
-139 -226 0
-139 -227 0
-139 -228 0
-172 139 226 227 228 0
-142 173 0
-229 174 0
-229 158 0
-174 -158 229 0
-230 175 0
-230 165 0
-175 -165 230 0
-231 176 0
-231 169 0
-176 -169 231 0
-142 -229 0
-142 -230 0
-142 -231 0
-173 142 229 230 231 0
-145 174 0
-232 173 0
-232 157 0
-173 -157 232 0
-233 175 0
-233 166 0
-175 -166 233 0
-234 176 0
-234 170 0
-176 -170 234 0
-145 -232 0
-145 -233 0
-145 -234 0
-174 145 232 233 234 0
-148 175 0
-235 173 0
-235 160 0
-173 -160 235 0
-236 174 0
-236 159 0
-174 -159 236 0
-237 176 0
-237 171 0
-176 -171 237 0
-148 -235 0
-148 -236 0
-148 -237 0
-175 148 235 236 237 0
-151 176 0
-238 173 0
-238 162 0
-173 -162 238 0
-239 174 0
-239 161 0
-174 -161 239 0
-240 175 0
-240 167 0
-175 -167 240 0
-151 -238 0
-151 -239 0
-151 -240 0
-176 151 238 239 240 0
-154 0
