p cnf 378 1422
1 1 -2 0
1 3 -4 0
1 5 -6 0
1 7 -8 0
1 9 -10 0
1 11 -12 0
3 1 -13 0
3 3 -14 0
3 5 -15 0
3 7 -16 0
3 9 -17 0
3 11 -18 0
5 1 -19 0
5 3 -20 0
5 5 -21 0
5 7 -22 0
5 9 -23 0
5 11 -24 0
7 1 -25 0
7 3 -26 0
7 5 -27 0
7 7 -28 0
7 9 -29 0
7 11 -30 0
9 1 -31 0
9 3 -32 0
9 5 -33 0
9 7 -34 0
9 9 -35 0
9 11 -36 0
11 1 -37 0
11 3 -38 0
11 5 -39 0
11 7 -40 0
11 9 -41 0
11 11 -42 0
2 -1 0
4 -1 0
6 -1 0
8 -1 0
10 -1 0
12 -1 0
13 -3 0
14 -3 0
15 -3 0
16 -3 0
17 -3 0
18 -3 0
19 -5 0
20 -5 0
21 -5 0
22 -5 0
23 -5 0
24 -5 0
25 -7 0
26 -7 0
27 -7 0
28 -7 0
29 -7 0
30 -7 0
31 -9 0
32 -9 0
33 -9 0
34 -9 0
35 -9 0
36 -9 0
37 -11 0
38 -11 0
39 -11 0
40 -11 0
41 -11 0
42 -11 0
2 -1 0
4 -3 0
6 -5 0
8 -7 0
10 -9 0
12 -11 0
13 -1 0
14 -3 0
15 -5 0
16 -7 0
17 -9 0
18 -11 0
19 -1 0
20 -3 0
21 -5 0
22 -7 0
23 -9 0
24 -11 0
25 -1 0
26 -3 0
27 -5 0
28 -7 0
29 -9 0
30 -11 0
31 -1 0
32 -3 0
33 -5 0
34 -7 0
35 -9 0
36 -11 0
37 -1 0
38 -3 0
39 -5 0
40 -7 0
41 -9 0
42 -11 0
-1 -1 -43 0
-1 -3 -44 0
-1 -5 -45 0
-1 -7 -46 0
-1 -9 -47 0
-1 -11 -48 0
-3 -1 -49 0
-3 -3 -50 0
-3 -5 -51 0
-3 -7 -52 0
-3 -9 -53 0
-3 -11 -54 0
-5 -1 -55 0
-5 -3 -56 0
-5 -5 -57 0
-5 -7 -58 0
-5 -9 -59 0
-5 -11 -60 0
-7 -1 -61 0
-7 -3 -62 0
-7 -5 -63 0
-7 -7 -64 0
-7 -9 -65 0
-7 -11 -66 0
-9 -1 -67 0
-9 -3 -68 0
-9 -5 -69 0
-9 -7 -70 0
-9 -9 -71 0
-9 -11 -72 0
-11 -1 -73 0
-11 -3 -74 0
-11 -5 -75 0
-11 -7 -76 0
-11 -9 -77 0
-11 -11 -78 0
43 1 0
44 1 0
45 1 0
46 1 0
47 1 0
48 1 0
49 3 0
50 3 0
51 3 0
52 3 0
53 3 0
54 3 0
55 5 0
56 5 0
57 5 0
58 5 0
59 5 0
60 5 0
61 7 0
62 7 0
63 7 0
64 7 0
65 7 0
66 7 0
67 9 0
68 9 0
69 9 0
70 9 0
71 9 0
72 9 0
73 11 0
74 11 0
75 11 0
76 11 0
77 11 0
78 11 0
43 1 0
44 3 0
45 5 0
46 7 0
47 9 0
48 11 0
49 1 0
50 3 0
51 5 0
52 7 0
53 9 0
54 11 0
55 1 0
56 3 0
57 5 0
58 7 0
59 9 0
60 11 0
61 1 0
62 3 0
63 5 0
64 7 0
65 9 0
66 11 0
67 1 0
68 3 0
69 5 0
70 7 0
71 9 0
72 11 0
73 1 0
74 3 0
75 5 0
76 7 0
77 9 0
78 11 0
-2 -43 79 0
-4 -44 80 0
-6 -45 81 0
-8 -46 82 0
-10 -47 83 0
-12 -48 84 0
-13 -49 85 0
-14 -50 86 0
-15 -51 87 0
-16 -52 88 0
-17 -53 89 0
-18 -54 90 0
-19 -55 91 0
-20 -56 92 0
-21 -57 93 0
-22 -58 94 0
-23 -59 95 0
-24 -60 96 0
-25 -61 97 0
-26 -62 98 0
-27 -63 99 0
-28 -64 100 0
-29 -65 101 0
-30 -66 102 0
-31 -67 103 0
-32 -68 104 0
-33 -69 105 0
-34 -70 106 0
-35 -71 107 0
-36 -72 108 0
-37 -73 109 0
-38 -74 110 0
-39 -75 111 0
-40 -76 112 0
-41 -77 113 0
-42 -78 114 0
-79 2 0
-80 4 0
-81 6 0
-82 8 0
-83 10 0
-84 12 0
-85 13 0
-86 14 0
-87 15 0
-88 16 0
-89 17 0
-90 18 0
-91 19 0
-92 20 0
-93 21 0
-94 22 0
-95 23 0
-96 24 0
-97 25 0
-98 26 0
-99 27 0
-100 28 0
-101 29 0
-102 30 0
-103 31 0
-104 32 0
-105 33 0
-106 34 0
-107 35 0
-108 36 0
-109 37 0
-110 38 0
-111 39 0
-112 40 0
-113 41 0
-114 42 0
-79 43 0
-80 44 0
-81 45 0
-82 46 0
-83 47 0
-84 48 0
-85 49 0
-86 50 0
-87 51 0
-88 52 0
-89 53 0
-90 54 0
-91 55 0
-92 56 0
-93 57 0
-94 58 0
-95 59 0
-96 60 0
-97 61 0
-98 62 0
-99 63 0
-100 64 0
-101 65 0
-102 66 0
-103 67 0
-104 68 0
-105 69 0
-106 70 0
-107 71 0
-108 72 0
-109 73 0
-110 74 0
-111 75 0
-112 76 0
-113 77 0
-114 78 0
-115 -116 79 -117 0
-118 -119 80 -120 0
-121 -122 81 -123 0
-124 -125 82 -126 0
-127 -128 83 -129 0
-130 -131 84 -132 0
-133 -134 85 -135 0
-136 -137 86 -138 0
-139 -140 87 -141 0
-142 -143 88 -144 0
-145 -146 89 -147 0
-148 -149 90 -150 0
-151 -152 91 -153 0
-154 -155 92 -156 0
-157 -158 93 -159 0
-160 -161 94 -162 0
-163 -164 95 -165 0
-166 -167 96 -168 0
-169 -170 97 -171 0
-172 -173 98 -174 0
-175 -176 99 -177 0
-178 -179 100 -180 0
-181 -182 101 -183 0
-184 -185 102 -186 0
-187 -188 103 -189 0
-190 -191 104 -192 0
-193 -194 105 -195 0
-196 -197 106 -198 0
-199 -200 107 -201 0
-202 -203 108 -204 0
-205 -206 109 -207 0
-208 -209 110 -210 0
-211 -212 111 -213 0
-214 -215 112 -216 0
-217 -218 113 -219 0
-220 -221 114 -222 0
117 115 0
120 118 0
123 121 0
126 124 0
129 127 0
132 130 0
135 133 0
138 136 0
141 139 0
144 142 0
147 145 0
150 148 0
153 151 0
156 154 0
159 157 0
162 160 0
165 163 0
168 166 0
171 169 0
174 172 0
177 175 0
180 178 0
183 181 0
186 184 0
189 187 0
192 190 0
195 193 0
198 196 0
201 199 0
204 202 0
207 205 0
210 208 0
213 211 0
216 214 0
219 217 0
222 220 0
117 116 0
120 119 0
123 122 0
126 125 0
129 128 0
132 131 0
135 134 0
138 137 0
141 140 0
144 143 0
147 146 0
150 149 0
153 152 0
156 155 0
159 158 0
162 161 0
165 164 0
168 167 0
171 170 0
174 173 0
177 176 0
180 179 0
183 182 0
186 185 0
189 188 0
192 191 0
195 194 0
198 197 0
201 200 0
204 203 0
207 206 0
210 209 0
213 212 0
216 215 0
219 218 0
222 221 0
117 -79 0
120 -80 0
123 -81 0
126 -82 0
129 -83 0
132 -84 0
135 -85 0
138 -86 0
141 -87 0
144 -88 0
147 -89 0
150 -90 0
153 -91 0
156 -92 0
159 -93 0
162 -94 0
165 -95 0
168 -96 0
171 -97 0
174 -98 0
177 -99 0
180 -100 0
183 -101 0
186 -102 0
189 -103 0
192 -104 0
195 -105 0
198 -106 0
201 -107 0
204 -108 0
207 -109 0
210 -110 0
213 -111 0
216 -112 0
219 -113 0
222 -114 0
117 0
120 0
123 0
126 0
129 0
132 0
135 0
138 0
141 0
144 0
147 0
150 0
153 0
156 0
159 0
162 0
165 0
168 0
171 0
174 0
177 0
180 0
183 0
186 0
189 0
192 0
195 0
198 0
201 0
204 0
207 0
210 0
213 0
216 0
219 0
222 0
115 0
118 133 0
-118 -133 0
-118 -139 121 0
-118 -142 124 0
-118 -145 127 0
-118 -148 130 0
121 151 0
-121 -151 0
-121 -154 118 0
-121 -160 124 0
-121 -163 127 0
-121 -166 130 0
124 169 0
-124 -169 0
-124 -172 118 0
-124 -175 121 0
-124 -181 127 0
-124 -184 130 0
127 187 0
-127 -187 0
-127 -190 118 0
-127 -193 121 0
-127 -196 124 0
-127 -202 130 0
130 205 0
-130 -205 0
-130 -208 118 0
-130 -211 121 0
-130 -214 124 0
-130 -217 127 0
136 0
133 118 0
-133 -118 0
-133 -121 139 0
-133 -124 142 0
-133 -127 145 0
-133 -130 148 0
139 154 0
-139 -154 0
-139 -151 133 0
-139 -160 142 0
-139 -163 145 0
-139 -166 148 0
142 172 0
-142 -172 0
-142 -169 133 0
-142 -175 139 0
-142 -181 145 0
-142 -184 148 0
145 190 0
-145 -190 0
-145 -187 133 0
-145 -193 139 0
-145 -196 142 0
-145 -202 148 0
148 208 0
-148 -208 0
-148 -205 133 0
-148 -211 139 0
-148 -214 142 0
-148 -217 145 0
157 0
151 121 0
-151 -121 0
-151 -118 154 0
-151 -124 160 0
-151 -127 163 0
-151 -130 166 0
154 139 0
-154 -139 0
-154 -133 151 0
-154 -142 160 0
-154 -145 163 0
-154 -148 166 0
160 175 0
-160 -175 0
-160 -169 151 0
-160 -172 154 0
-160 -181 163 0
-160 -184 166 0
163 193 0
-163 -193 0
-163 -187 151 0
-163 -190 154 0
-163 -196 160 0
-163 -202 166 0
166 211 0
-166 -211 0
-166 -205 151 0
-166 -208 154 0
-166 -214 160 0
-166 -217 163 0
178 0
169 124 0
-169 -124 0
-169 -118 172 0
-169 -121 175 0
-169 -127 181 0
-169 -130 184 0
172 142 0
-172 -142 0
-172 -133 169 0
-172 -139 175 0
-172 -145 181 0
-172 -148 184 0
175 160 0
-175 -160 0
-175 -151 169 0
-175 -154 172 0
-175 -163 181 0
-175 -166 184 0
181 196 0
-181 -196 0
-181 -187 169 0
-181 -190 172 0
-181 -193 175 0
-181 -202 184 0
184 214 0
-184 -214 0
-184 -205 169 0
-184 -208 172 0
-184 -211 175 0
-184 -217 181 0
199 0
187 127 0
-187 -127 0
-187 -118 190 0
-187 -121 193 0
-187 -124 196 0
-187 -130 202 0
190 145 0
-190 -145 0
-190 -133 187 0
-190 -139 193 0
-190 -142 196 0
-190 -148 202 0
193 163 0
-193 -163 0
-193 -151 187 0
-193 -154 190 0
-193 -160 196 0
-193 -166 202 0
196 181 0
-196 -181 0
-196 -169 187 0
-196 -172 190 0
-196 -175 193 0
-196 -184 202 0
202 217 0
-202 -217 0
-202 -205 187 0
-202 -208 190 0
-202 -211 193 0
-202 -214 196 0
220 0
205 130 0
-205 -130 0
-205 -118 208 0
-205 -121 211 0
-205 -124 214 0
-205 -127 217 0
208 148 0
-208 -148 0
-208 -133 205 0
-208 -139 211 0
-208 -142 214 0
-208 -145 217 0
211 166 0
-211 -166 0
-211 -151 205 0
-211 -154 208 0
-211 -160 214 0
-211 -163 217 0
214 184 0
-214 -184 0
-214 -169 205 0
-214 -172 208 0
-214 -175 211 0
-214 -181 217 0
217 202 0
-217 -202 0
-217 -187 205 0
-217 -190 208 0
-217 -193 211 0
-217 -196 214 0
223 0
224 225 0
-224 -225 0
-224 -226 227 0
-224 -228 229 0
-224 -230 231 0
-224 -232 233 0
227 234 0
-227 -234 0
-227 -235 224 0
-227 -236 229 0
-227 -237 231 0
-227 -238 233 0
229 239 0
-229 -239 0
-229 -240 224 0
-229 -241 227 0
-229 -242 231 0
-229 -243 233 0
231 244 0
-231 -244 0
-231 -245 224 0
-231 -246 227 0
-231 -247 229 0
-231 -248 233 0
233 249 0
-233 -249 0
-233 -250 224 0
-233 -251 227 0
-233 -252 229 0
-233 -253 231 0
254 0
225 224 0
-225 -224 0
-225 -227 226 0
-225 -229 228 0
-225 -231 230 0
-225 -233 232 0
226 235 0
-226 -235 0
-226 -234 225 0
-226 -236 228 0
-226 -237 230 0
-226 -238 232 0
228 240 0
-228 -240 0
-228 -239 225 0
-228 -241 226 0
-228 -242 230 0
-228 -243 232 0
230 245 0
-230 -245 0
-230 -244 225 0
-230 -246 226 0
-230 -247 228 0
-230 -248 232 0
232 250 0
-232 -250 0
-232 -249 225 0
-232 -251 226 0
-232 -252 228 0
-232 -253 230 0
255 0
234 227 0
-234 -227 0
-234 -224 235 0
-234 -229 236 0
-234 -231 237 0
-234 -233 238 0
235 226 0
-235 -226 0
-235 -225 234 0
-235 -228 236 0
-235 -230 237 0
-235 -232 238 0
236 241 0
-236 -241 0
-236 -239 234 0
-236 -240 235 0
-236 -242 237 0
-236 -243 238 0
237 246 0
-237 -246 0
-237 -244 234 0
-237 -245 235 0
-237 -247 236 0
-237 -248 238 0
238 251 0
-238 -251 0
-238 -249 234 0
-238 -250 235 0
-238 -252 236 0
-238 -253 237 0
256 0
239 229 0
-239 -229 0
-239 -224 240 0
-239 -227 241 0
-239 -231 242 0
-239 -233 243 0
240 228 0
-240 -228 0
-240 -225 239 0
-240 -226 241 0
-240 -230 242 0
-240 -232 243 0
241 236 0
-241 -236 0
-241 -234 239 0
-241 -235 240 0
-241 -237 242 0
-241 -238 243 0
242 247 0
-242 -247 0
-242 -244 239 0
-242 -245 240 0
-242 -246 241 0
-242 -248 243 0
243 252 0
-243 -252 0
-243 -249 239 0
-243 -250 240 0
-243 -251 241 0
-243 -253 242 0
257 0
244 231 0
-244 -231 0
-244 -224 245 0
-244 -227 246 0
-244 -229 247 0
-244 -233 248 0
245 230 0
-245 -230 0
-245 -225 244 0
-245 -226 246 0
-245 -228 247 0
-245 -232 248 0
246 237 0
-246 -237 0
-246 -234 244 0
-246 -235 245 0
-246 -236 247 0
-246 -238 248 0
247 242 0
-247 -242 0
-247 -239 244 0
-247 -240 245 0
-247 -241 246 0
-247 -243 248 0
248 253 0
-248 -253 0
-248 -249 244 0
-248 -250 245 0
-248 -251 246 0
-248 -252 247 0
258 0
249 233 0
-249 -233 0
-249 -224 250 0
-249 -227 251 0
-249 -229 252 0
-249 -231 253 0
250 232 0
-250 -232 0
-250 -225 249 0
-250 -226 251 0
-250 -228 252 0
-250 -230 253 0
251 238 0
-251 -238 0
-251 -234 249 0
-251 -235 250 0
-251 -236 252 0
-251 -237 253 0
252 243 0
-252 -243 0
-252 -239 249 0
-252 -240 250 0
-252 -241 251 0
-252 -242 253 0
253 248 0
-253 -248 0
-253 -244 249 0
-253 -245 250 0
-253 -246 251 0
-253 -247 252 0
-116 0
-119 224 0
-259 227 0
-259 235 0
-227 -235 259 0
-260 229 0
-260 240 0
-229 -240 260 0
-261 231 0
-261 245 0
-231 -245 261 0
-262 233 0
-262 250 0
-233 -250 262 0
-119 -259 0
-119 -260 0
-119 -261 0
-119 -262 0
-224 119 259 260 261 262 0
-122 227 0
-263 224 0
-263 226 0
-224 -226 263 0
-264 229 0
-264 241 0
-229 -241 264 0
-265 231 0
-265 246 0
-231 -246 265 0
-266 233 0
-266 251 0
-233 -251 266 0
-122 -263 0
-122 -264 0
-122 -265 0
-122 -266 0
-227 122 263 264 265 266 0
-125 229 0
-267 224 0
-267 228 0
-224 -228 267 0
-268 227 0
-268 236 0
-227 -236 268 0
-269 231 0
-269 247 0
-231 -247 269 0
-270 233 0
-270 252 0
-233 -252 270 0
-125 -267 0
-125 -268 0
-125 -269 0
-125 -270 0
-229 125 267 268 269 270 0
-128 231 0
-271 224 0
-271 230 0
-224 -230 271 0
-272 227 0
-272 237 0
-227 -237 272 0
-273 229 0
-273 242 0
-229 -242 273 0
-274 233 0
-274 253 0
-233 -253 274 0
-128 -271 0
-128 -272 0
-128 -273 0
-128 -274 0
-231 128 271 272 273 274 0
-131 233 0
-275 224 0
-275 232 0
-224 -232 275 0
-276 227 0
-276 238 0
-227 -238 276 0
-277 229 0
-277 243 0
-229 -243 277 0
-278 231 0
-278 248 0
-231 -248 278 0
-131 -275 0
-131 -276 0
-131 -277 0
-131 -278 0
-233 131 275 276 277 278 0
-134 225 0
-279 226 0
-279 234 0
-226 -234 279 0
-280 228 0
-280 239 0
-228 -239 280 0
-281 230 0
-281 244 0
-230 -244 281 0
-282 232 0
-282 249 0
-232 -249 282 0
-134 -279 0
-134 -280 0
-134 -281 0
-134 -282 0
-225 134 279 280 281 282 0
-137 0
-140 226 0
-283 225 0
-283 227 0
-225 -227 283 0
-284 228 0
-284 241 0
-228 -241 284 0
-285 230 0
-285 246 0
-230 -246 285 0
-286 232 0
-286 251 0
-232 -251 286 0
-140 -283 0
-140 -284 0
-140 -285 0
-140 -286 0
-226 140 283 284 285 286 0
-143 228 0
-287 225 0
-287 229 0
-225 -229 287 0
-288 226 0
-288 236 0
-226 -236 288 0
-289 230 0
-289 247 0
-230 -247 289 0
-290 232 0
-290 252 0
-232 -252 290 0
-143 -287 0
-143 -288 0
-143 -289 0
-143 -290 0
-228 143 287 288 289 290 0
-146 230 0
-291 225 0
-291 231 0
-225 -231 291 0
-292 226 0
-292 237 0
-226 -237 292 0
-293 228 0
-293 242 0
-228 -242 293 0
-294 232 0
-294 253 0
-232 -253 294 0
-146 -291 0
-146 -292 0
-146 -293 0
-146 -294 0
-230 146 291 292 293 294 0
-149 232 0
-295 225 0
-295 233 0
-225 -233 295 0
-296 226 0
-296 238 0
-226 -238 296 0
-297 228 0
-297 243 0
-228 -243 297 0
-298 230 0
-298 248 0
-230 -248 298 0
-149 -295 0
-149 -296 0
-149 -297 0
-149 -298 0
-232 149 295 296 297 298 0
-152 234 0
-299 235 0
-299 225 0
-235 -225 299 0
-300 236 0
-300 239 0
-236 -239 300 0
-301 237 0
-301 244 0
-237 -244 301 0
-302 238 0
-302 249 0
-238 -249 302 0
-152 -299 0
-152 -300 0
-152 -301 0
-152 -302 0
-234 152 299 300 301 302 0
-155 235 0
-303 234 0
-303 224 0
-234 -224 303 0
-304 236 0
-304 240 0
-236 -240 304 0
-305 237 0
-305 245 0
-237 -245 305 0
-306 238 0
-306 250 0
-238 -250 306 0
-155 -303 0
-155 -304 0
-155 -305 0
-155 -306 0
-235 155 303 304 305 306 0
-158 0
-161 236 0
-307 234 0
-307 229 0
-234 -229 307 0
-308 235 0
-308 228 0
-235 -228 308 0
-309 237 0
-309 247 0
-237 -247 309 0
-310 238 0
-310 252 0
-238 -252 310 0
-161 -307 0
-161 -308 0
-161 -309 0
-161 -310 0
-236 161 307 308 309 310 0
-164 237 0
-311 234 0
-311 231 0
-234 -231 311 0
-312 235 0
-312 230 0
-235 -230 312 0
-313 236 0
-313 242 0
-236 -242 313 0
-314 238 0
-314 253 0
-238 -253 314 0
-164 -311 0
-164 -312 0
-164 -313 0
-164 -314 0
-237 164 311 312 313 314 0
-167 238 0
-315 234 0
-315 233 0
-234 -233 315 0
-316 235 0
-316 232 0
-235 -232 316 0
-317 236 0
-317 243 0
-236 -243 317 0
-318 237 0
-318 248 0
-237 -248 318 0
-167 -315 0
-167 -316 0
-167 -317 0
-167 -318 0
-238 167 315 316 317 318 0
-170 239 0
-319 240 0
-319 225 0
-240 -225 319 0
-320 241 0
-320 234 0
-241 -234 320 0
-321 242 0
-321 244 0
-242 -244 321 0
-322 243 0
-322 249 0
-243 -249 322 0
-170 -319 0
-170 -320 0
-170 -321 0
-170 -322 0
-239 170 319 320 321 322 0
-173 240 0
-323 239 0
-323 224 0
-239 -224 323 0
-324 241 0
-324 235 0
-241 -235 324 0
-325 242 0
-325 245 0
-242 -245 325 0
-326 243 0
-326 250 0
-243 -250 326 0
-173 -323 0
-173 -324 0
-173 -325 0
-173 -326 0
-240 173 323 324 325 326 0
-176 241 0
-327 239 0
-327 227 0
-239 -227 327 0
-328 240 0
-328 226 0
-240 -226 328 0
-329 242 0
-329 246 0
-242 -246 329 0
-330 243 0
-330 251 0
-243 -251 330 0
-176 -327 0
-176 -328 0
-176 -329 0
-176 -330 0
-241 176 327 328 329 330 0
-179 0
-182 242 0
-331 239 0
-331 231 0
-239 -231 331 0
-332 240 0
-332 230 0
-240 -230 332 0
-333 241 0
-333 237 0
-241 -237 333 0
-334 243 0
-334 253 0
-243 -253 334 0
-182 -331 0
-182 -332 0
-182 -333 0
-182 -334 0
-242 182 331 332 333 334 0
-185 243 0
-335 239 0
-335 233 0
-239 -233 335 0
-336 240 0
-336 232 0
-240 -232 336 0
-337 241 0
-337 238 0
-241 -238 337 0
-338 242 0
-338 248 0
-242 -248 338 0
-185 -335 0
-185 -336 0
-185 -337 0
-185 -338 0
-243 185 335 336 337 338 0
-188 244 0
-339 245 0
-339 225 0
-245 -225 339 0
-340 246 0
-340 234 0
-246 -234 340 0
-341 247 0
-341 239 0
-247 -239 341 0
-342 248 0
-342 249 0
-248 -249 342 0
-188 -339 0
-188 -340 0
-188 -341 0
-188 -342 0
-244 188 339 340 341 342 0
-191 245 0
-343 244 0
-343 224 0
-244 -224 343 0
-344 246 0
-344 235 0
-246 -235 344 0
-345 247 0
-345 240 0
-247 -240 345 0
-346 248 0
-346 250 0
-248 -250 346 0
-191 -343 0
-191 -344 0
-191 -345 0
-191 -346 0
-245 191 343 344 345 346 0
-194 246 0
-347 244 0
-347 227 0
-244 -227 347 0
-348 245 0
-348 226 0
-245 -226 348 0
-349 247 0
-349 241 0
-247 -241 349 0
-350 248 0
-350 251 0
-248 -251 350 0
-194 -347 0
-194 -348 0
-194 -349 0
-194 -350 0
-246 194 347 348 349 350 0
-197 247 0
-351 244 0
-351 229 0
-244 -229 351 0
-352 245 0
-352 228 0
-245 -228 352 0
-353 246 0
-353 236 0
-246 -236 353 0
-354 248 0
-354 252 0
-248 -252 354 0
-197 -351 0
-197 -352 0
-197 -353 0
-197 -354 0
-247 197 351 352 353 354 0
-200 0
-203 248 0
-355 244 0
-355 233 0
-244 -233 355 0
-356 245 0
-356 232 0
-245 -232 356 0
-357 246 0
-357 238 0
-246 -238 357 0
-358 247 0
-358 243 0
-247 -243 358 0
-203 -355 0
-203 -356 0
-203 -357 0
-203 -358 0
-248 203 355 356 357 358 0
-206 249 0
-359 250 0
-359 225 0
-250 -225 359 0
-360 251 0
-360 234 0
-251 -234 360 0
-361 252 0
-361 239 0
-252 -239 361 0
-362 253 0
-362 244 0
-253 -244 362 0
-206 -359 0
-206 -360 0
-206 -361 0
-206 -362 0
-249 206 359 360 361 362 0
-209 250 0
-363 249 0
-363 224 0
-249 -224 363 0
-364 251 0
-364 235 0
-251 -235 364 0
-365 252 0
-365 240 0
-252 -240 365 0
-366 253 0
-366 245 0
-253 -245 366 0
-209 -363 0
-209 -364 0
-209 -365 0
-209 -366 0
-250 209 363 364 365 366 0
-212 251 0
-367 249 0
-367 227 0
-249 -227 367 0
-368 250 0
-368 226 0
-250 -226 368 0
-369 252 0
-369 241 0
-252 -241 369 0
-370 253 0
-370 246 0
-253 -246 370 0
-212 -367 0
-212 -368 0
-212 -369 0
-212 -370 0
-251 212 367 368 369 370 0
-215 252 0
-371 249 0
-371 229 0
-249 -229 371 0
-372 250 0
-372 228 0
-250 -228 372 0
-373 251 0
-373 236 0
-251 -236 373 0
-374 253 0
-374 247 0
-253 -247 374 0
-215 -371 0
-215 -372 0
-215 -373 0
-215 -374 0
-252 215 371 372 373 374 0
-218 253 0
-375 249 0
-375 231 0
-249 -231 375 0
-376 250 0
-376 230 0
-250 -230 376 0
-377 251 0
-377 237 0
-251 -237 377 0
-378 252 0
-378 242 0
-252 -242 378 0
-218 -375 0
-218 -376 0
-218 -377 0
-218 -378 0
-253 218 375 376 377 378 0
-221 0
