p cnf 560 2219
1 1 -2 0
1 3 -4 0
1 5 -6 0
1 7 -8 0
1 9 -10 0
1 11 -12 0
1 13 -14 0
3 1 -15 0
3 3 -16 0
3 5 -17 0
3 7 -18 0
3 9 -19 0
3 11 -20 0
3 13 -21 0
5 1 -22 0
5 3 -23 0
5 5 -24 0
5 7 -25 0
5 9 -26 0
5 11 -27 0
5 13 -28 0
7 1 -29 0
7 3 -30 0
7 5 -31 0
7 7 -32 0
7 9 -33 0
7 11 -34 0
7 13 -35 0
9 1 -36 0
9 3 -37 0
9 5 -38 0
9 7 -39 0
9 9 -40 0
9 11 -41 0
9 13 -42 0
11 1 -43 0
11 3 -44 0
11 5 -45 0
11 7 -46 0
11 9 -47 0
11 11 -48 0
11 13 -49 0
13 1 -50 0
13 3 -51 0
13 5 -52 0
13 7 -53 0
13 9 -54 0
13 11 -55 0
13 13 -56 0
2 -1 0
4 -1 0
6 -1 0
8 -1 0
10 -1 0
12 -1 0
14 -1 0
15 -3 0
16 -3 0
17 -3 0
18 -3 0
19 -3 0
20 -3 0
21 -3 0
22 -5 0
23 -5 0
24 -5 0
25 -5 0
26 -5 0
27 -5 0
28 -5 0
29 -7 0
30 -7 0
31 -7 0
32 -7 0
33 -7 0
34 -7 0
35 -7 0
36 -9 0
37 -9 0
38 -9 0
39 -9 0
40 -9 0
41 -9 0
42 -9 0
43 -11 0
44 -11 0
45 -11 0
46 -11 0
47 -11 0
48 -11 0
49 -11 0
50 -13 0
51 -13 0
52 -13 0
53 -13 0
54 -13 0
55 -13 0
56 -13 0
2 -1 0
4 -3 0
6 -5 0
8 -7 0
10 -9 0
12 -11 0
14 -13 0
15 -1 0
16 -3 0
17 -5 0
18 -7 0
19 -9 0
20 -11 0
21 -13 0
22 -1 0
23 -3 0
24 -5 0
25 -7 0
26 -9 0
27 -11 0
28 -13 0
29 -1 0
30 -3 0
31 -5 0
32 -7 0
33 -9 0
34 -11 0
35 -13 0
36 -1 0
37 -3 0
38 -5 0
39 -7 0
40 -9 0
41 -11 0
42 -13 0
43 -1 0
44 -3 0
45 -5 0
46 -7 0
47 -9 0
48 -11 0
49 -13 0
50 -1 0
51 -3 0
52 -5 0
53 -7 0
54 -9 0
55 -11 0
56 -13 0
-1 -1 -57 0
-1 -3 -58 0
-1 -5 -59 0
-1 -7 -60 0
-1 -9 -61 0
-1 -11 -62 0
-1 -13 -63 0
-3 -1 -64 0
-3 -3 -65 0
-3 -5 -66 0
-3 -7 -67 0
-3 -9 -68 0
-3 -11 -69 0
-3 -13 -70 0
-5 -1 -71 0
-5 -3 -72 0
-5 -5 -73 0
-5 -7 -74 0
-5 -9 -75 0
-5 -11 -76 0
-5 -13 -77 0
-7 -1 -78 0
-7 -3 -79 0
-7 -5 -80 0
-7 -7 -81 0
-7 -9 -82 0
-7 -11 -83 0
-7 -13 -84 0
-9 -1 -85 0
-9 -3 -86 0
-9 -5 -87 0
-9 -7 -88 0
-9 -9 -89 0
-9 -11 -90 0
-9 -13 -91 0
-11 -1 -92 0
-11 -3 -93 0
-11 -5 -94 0
-11 -7 -95 0
-11 -9 -96 0
-11 -11 -97 0
-11 -13 -98 0
-13 -1 -99 0
-13 -3 -100 0
-13 -5 -101 0
-13 -7 -102 0
-13 -9 -103 0
-13 -11 -104 0
-13 -13 -105 0
57 1 0
58 1 0
59 1 0
60 1 0
61 1 0
62 1 0
63 1 0
64 3 0
65 3 0
66 3 0
67 3 0
68 3 0
69 3 0
70 3 0
71 5 0
72 5 0
73 5 0
74 5 0
75 5 0
76 5 0
77 5 0
78 7 0
79 7 0
80 7 0
81 7 0
82 7 0
83 7 0
84 7 0
85 9 0
86 9 0
87 9 0
88 9 0
89 9 0
90 9 0
91 9 0
92 11 0
93 11 0
94 11 0
95 11 0
96 11 0
97 11 0
98 11 0
99 13 0
100 13 0
101 13 0
102 13 0
103 13 0
104 13 0
105 13 0
57 1 0
58 3 0
59 5 0
60 7 0
61 9 0
62 11 0
63 13 0
64 1 0
65 3 0
66 5 0
67 7 0
68 9 0
69 11 0
70 13 0
71 1 0
72 3 0
73 5 0
74 7 0
75 9 0
76 11 0
77 13 0
78 1 0
79 3 0
80 5 0
81 7 0
82 9 0
83 11 0
84 13 0
85 1 0
86 3 0
87 5 0
88 7 0
89 9 0
90 11 0
91 13 0
92 1 0
93 3 0
94 5 0
95 7 0
96 9 0
97 11 0
98 13 0
99 1 0
100 3 0
101 5 0
102 7 0
103 9 0
104 11 0
105 13 0
-2 -57 106 0
-4 -58 107 0
-6 -59 108 0
-8 -60 109 0
-10 -61 110 0
-12 -62 111 0
-14 -63 112 0
-15 -64 113 0
-16 -65 114 0
-17 -66 115 0
-18 -67 116 0
-19 -68 117 0
-20 -69 118 0
-21 -70 119 0
-22 -71 120 0
-23 -72 121 0
-24 -73 122 0
-25 -74 123 0
-26 -75 124 0
-27 -76 125 0
-28 -77 126 0
-29 -78 127 0
-30 -79 128 0
-31 -80 129 0
-32 -81 130 0
-33 -82 131 0
-34 -83 132 0
-35 -84 133 0
-36 -85 134 0
-37 -86 135 0
-38 -87 136 0
-39 -88 137 0
-40 -89 138 0
-41 -90 139 0
-42 -91 140 0
-43 -92 141 0
-44 -93 142 0
-45 -94 143 0
-46 -95 144 0
-47 -96 145 0
-48 -97 146 0
-49 -98 147 0
-50 -99 148 0
-51 -100 149 0
-52 -101 150 0
-53 -102 151 0
-54 -103 152 0
-55 -104 153 0
-56 -105 154 0
-106 2 0
-107 4 0
-108 6 0
-109 8 0
-110 10 0
-111 12 0
-112 14 0
-113 15 0
-114 16 0
-115 17 0
-116 18 0
-117 19 0
-118 20 0
-119 21 0
-120 22 0
-121 23 0
-122 24 0
-123 25 0
-124 26 0
-125 27 0
-126 28 0
-127 29 0
-128 30 0
-129 31 0
-130 32 0
-131 33 0
-132 34 0
-133 35 0
-134 36 0
-135 37 0
-136 38 0
-137 39 0
-138 40 0
-139 41 0
-140 42 0
-141 43 0
-142 44 0
-143 45 0
-144 46 0
-145 47 0
-146 48 0
-147 49 0
-148 50 0
-149 51 0
-150 52 0
-151 53 0
-152 54 0
-153 55 0
-154 56 0
-106 57 0
-107 58 0
-108 59 0
-109 60 0
-110 61 0
-111 62 0
-112 63 0
-113 64 0
-114 65 0
-115 66 0
-116 67 0
-117 68 0
-118 69 0
-119 70 0
-120 71 0
-121 72 0
-122 73 0
-123 74 0
-124 75 0
-125 76 0
-126 77 0
-127 78 0
-128 79 0
-129 80 0
-130 81 0
-131 82 0
-132 83 0
-133 84 0
-134 85 0
-135 86 0
-136 87 0
-137 88 0
-138 89 0
-139 90 0
-140 91 0
-141 92 0
-142 93 0
-143 94 0
-144 95 0
-145 96 0
-146 97 0
-147 98 0
-148 99 0
-149 100 0
-150 101 0
-151 102 0
-152 103 0
-153 104 0
-154 105 0
-155 -156 106 -157 0
-158 -159 107 -160 0
-161 -162 108 -163 0
-164 -165 109 -166 0
-167 -168 110 -169 0
-170 -171 111 -172 0
-173 -174 112 -175 0
-176 -177 113 -178 0
-179 -180 114 -181 0
-182 -183 115 -184 0
-185 -186 116 -187 0
-188 -189 117 -190 0
-191 -192 118 -193 0
-194 -195 119 -196 0
-197 -198 120 -199 0
-200 -201 121 -202 0
-203 -204 122 -205 0
-206 -207 123 -208 0
-209 -210 124 -211 0
-212 -213 125 -214 0
-215 -216 126 -217 0
-218 -219 127 -220 0
-221 -222 128 -223 0
-224 -225 129 -226 0
-227 -228 130 -229 0
-230 -231 131 -232 0
-233 -234 132 -235 0
-236 -237 133 -238 0
-239 -240 134 -241 0
-242 -243 135 -244 0
-245 -246 136 -247 0
-248 -249 137 -250 0
-251 -252 138 -253 0
-254 -255 139 -256 0
-257 -258 140 -259 0
-260 -261 141 -262 0
-263 -264 142 -265 0
-266 -267 143 -268 0
-269 -270 144 -271 0
-272 -273 145 -274 0
-275 -276 146 -277 0
-278 -279 147 -280 0
-281 -282 148 -283 0
-284 -285 149 -286 0
-287 -288 150 -289 0
-290 -291 151 -292 0
-293 -294 152 -295 0
-296 -297 153 -298 0
-299 -300 154 -301 0
157 155 0
160 158 0
163 161 0
166 164 0
169 167 0
172 170 0
175 173 0
178 176 0
181 179 0
184 182 0
187 185 0
190 188 0
193 191 0
196 194 0
199 197 0
202 200 0
205 203 0
208 206 0
211 209 0
214 212 0
217 215 0
220 218 0
223 221 0
226 224 0
229 227 0
232 230 0
235 233 0
238 236 0
241 239 0
244 242 0
247 245 0
250 248 0
253 251 0
256 254 0
259 257 0
262 260 0
265 263 0
268 266 0
271 269 0
274 272 0
277 275 0
280 278 0
283 281 0
286 284 0
289 287 0
292 290 0
295 293 0
298 296 0
301 299 0
157 156 0
160 159 0
163 162 0
166 165 0
169 168 0
172 171 0
175 174 0
178 177 0
181 180 0
184 183 0
187 186 0
190 189 0
193 192 0
196 195 0
199 198 0
202 201 0
205 204 0
208 207 0
211 210 0
214 213 0
217 216 0
220 219 0
223 222 0
226 225 0
229 228 0
232 231 0
235 234 0
238 237 0
241 240 0
244 243 0
247 246 0
250 249 0
253 252 0
256 255 0
259 258 0
262 261 0
265 264 0
268 267 0
271 270 0
274 273 0
277 276 0
280 279 0
283 282 0
286 285 0
289 288 0
292 291 0
295 294 0
298 297 0
301 300 0
157 -106 0
160 -107 0
163 -108 0
166 -109 0
169 -110 0
172 -111 0
175 -112 0
178 -113 0
181 -114 0
184 -115 0
187 -116 0
190 -117 0
193 -118 0
196 -119 0
199 -120 0
202 -121 0
205 -122 0
208 -123 0
211 -124 0
214 -125 0
217 -126 0
220 -127 0
223 -128 0
226 -129 0
229 -130 0
232 -131 0
235 -132 0
238 -133 0
241 -134 0
244 -135 0
247 -136 0
250 -137 0
253 -138 0
256 -139 0
259 -140 0
262 -141 0
265 -142 0
268 -143 0
271 -144 0
274 -145 0
277 -146 0
280 -147 0
283 -148 0
286 -149 0
289 -150 0
292 -151 0
295 -152 0
298 -153 0
301 -154 0
157 0
160 0
163 0
166 0
169 0
172 0
175 0
178 0
181 0
184 0
187 0
190 0
193 0
196 0
199 0
202 0
205 0
208 0
211 0
214 0
217 0
220 0
223 0
226 0
229 0
232 0
235 0
238 0
241 0
244 0
247 0
250 0
253 0
256 0
259 0
262 0
265 0
268 0
271 0
274 0
277 0
280 0
283 0
286 0
289 0
292 0
295 0
298 0
301 0
155 0
158 176 0
-158 -176 0
-158 -182 161 0
-158 -185 164 0
-158 -188 167 0
-158 -191 170 0
-158 -194 173 0
161 197 0
-161 -197 0
-161 -200 158 0
-161 -206 164 0
-161 -209 167 0
-161 -212 170 0
-161 -215 173 0
164 218 0
-164 -218 0
-164 -221 158 0
-164 -224 161 0
-164 -230 167 0
-164 -233 170 0
-164 -236 173 0
167 239 0
-167 -239 0
-167 -242 158 0
-167 -245 161 0
-167 -248 164 0
-167 -254 170 0
-167 -257 173 0
170 260 0
-170 -260 0
-170 -263 158 0
-170 -266 161 0
-170 -269 164 0
-170 -272 167 0
-170 -278 173 0
173 281 0
-173 -281 0
-173 -284 158 0
-173 -287 161 0
-173 -290 164 0
-173 -293 167 0
-173 -296 170 0
179 0
176 158 0
-176 -158 0
-176 -161 182 0
-176 -164 185 0
-176 -167 188 0
-176 -170 191 0
-176 -173 194 0
182 200 0
-182 -200 0
-182 -197 176 0
-182 -206 185 0
-182 -209 188 0
-182 -212 191 0
-182 -215 194 0
185 221 0
-185 -221 0
-185 -218 176 0
-185 -224 182 0
-185 -230 188 0
-185 -233 191 0
-185 -236 194 0
188 242 0
-188 -242 0
-188 -239 176 0
-188 -245 182 0
-188 -248 185 0
-188 -254 191 0
-188 -257 194 0
191 263 0
-191 -263 0
-191 -260 176 0
-191 -266 182 0
-191 -269 185 0
-191 -272 188 0
-191 -278 194 0
194 284 0
-194 -284 0
-194 -281 176 0
-194 -287 182 0
-194 -290 185 0
-194 -293 188 0
-194 -296 191 0
203 0
197 161 0
-197 -161 0
-197 -158 200 0
-197 -164 206 0
-197 -167 209 0
-197 -170 212 0
-197 -173 215 0
200 182 0
-200 -182 0
-200 -176 197 0
-200 -185 206 0
-200 -188 209 0
-200 -191 212 0
-200 -194 215 0
206 224 0
-206 -224 0
-206 -218 197 0
-206 -221 200 0
-206 -230 209 0
-206 -233 212 0
-206 -236 215 0
209 245 0
-209 -245 0
-209 -239 197 0
-209 -242 200 0
-209 -248 206 0
-209 -254 212 0
-209 -257 215 0
212 266 0
-212 -266 0
-212 -260 197 0
-212 -263 200 0
-212 -269 206 0
-212 -272 209 0
-212 -278 215 0
215 287 0
-215 -287 0
-215 -281 197 0
-215 -284 200 0
-215 -290 206 0
-215 -293 209 0
-215 -296 212 0
227 0
218 164 0
-218 -164 0
-218 -158 221 0
-218 -161 224 0
-218 -167 230 0
-218 -170 233 0
-218 -173 236 0
221 185 0
-221 -185 0
-221 -176 218 0
-221 -182 224 0
-221 -188 230 0
-221 -191 233 0
-221 -194 236 0
224 206 0
-224 -206 0
-224 -197 218 0
-224 -200 221 0
-224 -209 230 0
-224 -212 233 0
-224 -215 236 0
230 248 0
-230 -248 0
-230 -239 218 0
-230 -242 221 0
-230 -245 224 0
-230 -254 233 0
-230 -257 236 0
233 269 0
-233 -269 0
-233 -260 218 0
-233 -263 221 0
-233 -266 224 0
-233 -272 230 0
-233 -278 236 0
236 290 0
-236 -290 0
-236 -281 218 0
-236 -284 221 0
-236 -287 224 0
-236 -293 230 0
-236 -296 233 0
251 0
239 167 0
-239 -167 0
-239 -158 242 0
-239 -161 245 0
-239 -164 248 0
-239 -170 254 0
-239 -173 257 0
242 188 0
-242 -188 0
-242 -176 239 0
-242 -182 245 0
-242 -185 248 0
-242 -191 254 0
-242 -194 257 0
245 209 0
-245 -209 0
-245 -197 239 0
-245 -200 242 0
-245 -206 248 0
-245 -212 254 0
-245 -215 257 0
248 230 0
-248 -230 0
-248 -218 239 0
-248 -221 242 0
-248 -224 245 0
-248 -233 254 0
-248 -236 257 0
254 272 0
-254 -272 0
-254 -260 239 0
-254 -263 242 0
-254 -266 245 0
-254 -269 248 0
-254 -278 257 0
257 293 0
-257 -293 0
-257 -281 239 0
-257 -284 242 0
-257 -287 245 0
-257 -290 248 0
-257 -296 254 0
275 0
260 170 0
-260 -170 0
-260 -158 263 0
-260 -161 266 0
-260 -164 269 0
-260 -167 272 0
-260 -173 278 0
263 191 0
-263 -191 0
-263 -176 260 0
-263 -182 266 0
-263 -185 269 0
-263 -188 272 0
-263 -194 278 0
266 212 0
-266 -212 0
-266 -197 260 0
-266 -200 263 0
-266 -206 269 0
-266 -209 272 0
-266 -215 278 0
269 233 0
-269 -233 0
-269 -218 260 0
-269 -221 263 0
-269 -224 266 0
-269 -230 272 0
-269 -236 278 0
272 254 0
-272 -254 0
-272 -239 260 0
-272 -242 263 0
-272 -245 266 0
-272 -248 269 0
-272 -257 278 0
278 296 0
-278 -296 0
-278 -281 260 0
-278 -284 263 0
-278 -287 266 0
-278 -290 269 0
-278 -293 272 0
299 0
281 173 0
-281 -173 0
-281 -158 284 0
-281 -161 287 0
-281 -164 290 0
-281 -167 293 0
-281 -170 296 0
284 194 0
-284 -194 0
-284 -176 281 0
-284 -182 287 0
-284 -185 290 0
-284 -188 293 0
-284 -191 296 0
287 215 0
-287 -215 0
-287 -197 281 0
-287 -200 284 0
-287 -206 290 0
-287 -209 293 0
-287 -212 296 0
290 236 0
-290 -236 0
-290 -218 281 0
-290 -221 284 0
-290 -224 287 0
-290 -230 293 0
-290 -233 296 0
293 257 0
-293 -257 0
-293 -239 281 0
-293 -242 284 0
-293 -245 287 0
-293 -248 290 0
-293 -254 296 0
296 278 0
-296 -278 0
-296 -260 281 0
-296 -263 284 0
-296 -266 287 0
-296 -269 290 0
-296 -272 293 0
302 0
303 304 0
-303 -304 0
-303 -305 306 0
-303 -307 308 0
-303 -309 310 0
-303 -311 312 0
-303 -313 314 0
306 315 0
-306 -315 0
-306 -316 303 0
-306 -317 308 0
-306 -318 310 0
-306 -319 312 0
-306 -320 314 0
308 321 0
-308 -321 0
-308 -322 303 0
-308 -323 306 0
-308 -324 310 0
-308 -325 312 0
-308 -326 314 0
310 327 0
-310 -327 0
-310 -328 303 0
-310 -329 306 0
-310 -330 308 0
-310 -331 312 0
-310 -332 314 0
312 333 0
-312 -333 0
-312 -334 303 0
-312 -335 306 0
-312 -336 308 0
-312 -337 310 0
-312 -338 314 0
314 339 0
-314 -339 0
-314 -340 303 0
-314 -341 306 0
-314 -342 308 0
-314 -343 310 0
-314 -344 312 0
345 0
304 303 0
-304 -303 0
-304 -306 305 0
-304 -308 307 0
-304 -310 309 0
-304 -312 311 0
-304 -314 313 0
305 316 0
-305 -316 0
-305 -315 304 0
-305 -317 307 0
-305 -318 309 0
-305 -319 311 0
-305 -320 313 0
307 322 0
-307 -322 0
-307 -321 304 0
-307 -323 305 0
-307 -324 309 0
-307 -325 311 0
-307 -326 313 0
309 328 0
-309 -328 0
-309 -327 304 0
-309 -329 305 0
-309 -330 307 0
-309 -331 311 0
-309 -332 313 0
311 334 0
-311 -334 0
-311 -333 304 0
-311 -335 305 0
-311 -336 307 0
-311 -337 309 0
-311 -338 313 0
313 340 0
-313 -340 0
-313 -339 304 0
-313 -341 305 0
-313 -342 307 0
-313 -343 309 0
-313 -344 311 0
346 0
315 306 0
-315 -306 0
-315 -303 316 0
-315 -308 317 0
-315 -310 318 0
-315 -312 319 0
-315 -314 320 0
316 305 0
-316 -305 0
-316 -304 315 0
-316 -307 317 0
-316 -309 318 0
-316 -311 319 0
-316 -313 320 0
317 323 0
-317 -323 0
-317 -321 315 0
-317 -322 316 0
-317 -324 318 0
-317 -325 319 0
-317 -326 320 0
318 329 0
-318 -329 0
-318 -327 315 0
-318 -328 316 0
-318 -330 317 0
-318 -331 319 0
-318 -332 320 0
319 335 0
-319 -335 0
-319 -333 315 0
-319 -334 316 0
-319 -336 317 0
-319 -337 318 0
-319 -338 320 0
320 341 0
-320 -341 0
-320 -339 315 0
-320 -340 316 0
-320 -342 317 0
-320 -343 318 0
-320 -344 319 0
347 0
321 308 0
-321 -308 0
-321 -303 322 0
-321 -306 323 0
-321 -310 324 0
-321 -312 325 0
-321 -314 326 0
322 307 0
-322 -307 0
-322 -304 321 0
-322 -305 323 0
-322 -309 324 0
-322 -311 325 0
-322 -313 326 0
323 317 0
-323 -317 0
-323 -315 321 0
-323 -316 322 0
-323 -318 324 0
-323 -319 325 0
-323 -320 326 0
324 330 0
-324 -330 0
-324 -327 321 0
-324 -328 322 0
-324 -329 323 0
-324 -331 325 0
-324 -332 326 0
325 336 0
-325 -336 0
-325 -333 321 0
-325 -334 322 0
-325 -335 323 0
-325 -337 324 0
-325 -338 326 0
326 342 0
-326 -342 0
-326 -339 321 0
-326 -340 322 0
-326 -341 323 0
-326 -343 324 0
-326 -344 325 0
348 0
327 310 0
-327 -310 0
-327 -303 328 0
-327 -306 329 0
-327 -308 330 0
-327 -312 331 0
-327 -314 332 0
328 309 0
-328 -309 0
-328 -304 327 0
-328 -305 329 0
-328 -307 330 0
-328 -311 331 0
-328 -313 332 0
329 318 0
-329 -318 0
-329 -315 327 0
-329 -316 328 0
-329 -317 330 0
-329 -319 331 0
-329 -320 332 0
330 324 0
-330 -324 0
-330 -321 327 0
-330 -322 328 0
-330 -323 329 0
-330 -325 331 0
-330 -326 332 0
331 337 0
-331 -337 0
-331 -333 327 0
-331 -334 328 0
-331 -335 329 0
-331 -336 330 0
-331 -338 332 0
332 343 0
-332 -343 0
-332 -339 327 0
-332 -340 328 0
-332 -341 329 0
-332 -342 330 0
-332 -344 331 0
349 0
333 312 0
-333 -312 0
-333 -303 334 0
-333 -306 335 0
-333 -308 336 0
-333 -310 337 0
-333 -314 338 0
334 311 0
-334 -311 0
-334 -304 333 0
-334 -305 335 0
-334 -307 336 0
-334 -309 337 0
-334 -313 338 0
335 319 0
-335 -319 0
-335 -315 333 0
-335 -316 334 0
-335 -317 336 0
-335 -318 337 0
-335 -320 338 0
336 325 0
-336 -325 0
-336 -321 333 0
-336 -322 334 0
-336 -323 335 0
-336 -324 337 0
-336 -326 338 0
337 331 0
-337 -331 0
-337 -327 333 0
-337 -328 334 0
-337 -329 335 0
-337 -330 336 0
-337 -332 338 0
338 344 0
-338 -344 0
-338 -339 333 0
-338 -340 334 0
-338 -341 335 0
-338 -342 336 0
-338 -343 337 0
350 0
339 314 0
-339 -314 0
-339 -303 340 0
-339 -306 341 0
-339 -308 342 0
-339 -310 343 0
-339 -312 344 0
340 313 0
-340 -313 0
-340 -304 339 0
-340 -305 341 0
-340 -307 342 0
-340 -309 343 0
-340 -311 344 0
341 320 0
-341 -320 0
-341 -315 339 0
-341 -316 340 0
-341 -317 342 0
-341 -318 343 0
-341 -319 344 0
342 326 0
-342 -326 0
-342 -321 339 0
-342 -322 340 0
-342 -323 341 0
-342 -324 343 0
-342 -325 344 0
343 332 0
-343 -332 0
-343 -327 339 0
-343 -328 340 0
-343 -329 341 0
-343 -330 342 0
-343 -331 344 0
344 338 0
-344 -338 0
-344 -333 339 0
-344 -334 340 0
-344 -335 341 0
-344 -336 342 0
-344 -337 343 0
-156 0
-159 303 0
-351 306 0
-351 316 0
-306 -316 351 0
-352 308 0
-352 322 0
-308 -322 352 0
-353 310 0
-353 328 0
-310 -328 353 0
-354 312 0
-354 334 0
-312 -334 354 0
-355 314 0
-355 340 0
-314 -340 355 0
-159 -351 0
-159 -352 0
-159 -353 0
-159 -354 0
-159 -355 0
-303 159 351 352 353 354 355 0
-162 306 0
-356 303 0
-356 305 0
-303 -305 356 0
-357 308 0
-357 323 0
-308 -323 357 0
-358 310 0
-358 329 0
-310 -329 358 0
-359 312 0
-359 335 0
-312 -335 359 0
-360 314 0
-360 341 0
-314 -341 360 0
-162 -356 0
-162 -357 0
-162 -358 0
-162 -359 0
-162 -360 0
-306 162 356 357 358 359 360 0
-165 308 0
-361 303 0
-361 307 0
-303 -307 361 0
-362 306 0
-362 317 0
-306 -317 362 0
-363 310 0
-363 330 0
-310 -330 363 0
-364 312 0
-364 336 0
-312 -336 364 0
-365 314 0
-365 342 0
-314 -342 365 0
-165 -361 0
-165 -362 0
-165 -363 0
-165 -364 0
-165 -365 0
-308 165 361 362 363 364 365 0
-168 310 0
-366 303 0
-366 309 0
-303 -309 366 0
-367 306 0
-367 318 0
-306 -318 367 0
-368 308 0
-368 324 0
-308 -324 368 0
-369 312 0
-369 337 0
-312 -337 369 0
-370 314 0
-370 343 0
-314 -343 370 0
-168 -366 0
-168 -367 0
-168 -368 0
-168 -369 0
-168 -370 0
-310 168 366 367 368 369 370 0
-171 312 0
-371 303 0
-371 311 0
-303 -311 371 0
-372 306 0
-372 319 0
-306 -319 372 0
-373 308 0
-373 325 0
-308 -325 373 0
-374 310 0
-374 331 0
-310 -331 374 0
-375 314 0
-375 344 0
-314 -344 375 0
-171 -371 0
-171 -372 0
-171 -373 0
-171 -374 0
-171 -375 0
-312 171 371 372 373 374 375 0
-174 314 0
-376 303 0
-376 313 0
-303 -313 376 0
-377 306 0
-377 320 0
-306 -320 377 0
-378 308 0
-378 326 0
-308 -326 378 0
-379 310 0
-379 332 0
-310 -332 379 0
-380 312 0
-380 338 0
-312 -338 380 0
-174 -376 0
-174 -377 0
-174 -378 0
-174 -379 0
-174 -380 0
-314 174 376 377 378 379 380 0
-177 304 0
-381 305 0
-381 315 0
-305 -315 381 0
-382 307 0
-382 321 0
-307 -321 382 0
-383 309 0
-383 327 0
-309 -327 383 0
-384 311 0
-384 333 0
-311 -333 384 0
-385 313 0
-385 339 0
-313 -339 385 0
-177 -381 0
-177 -382 0
-177 -383 0
-177 -384 0
-177 -385 0
-304 177 381 382 383 384 385 0
-180 0
-183 305 0
-386 304 0
-386 306 0
-304 -306 386 0
-387 307 0
-387 323 0
-307 -323 387 0
-388 309 0
-388 329 0
-309 -329 388 0
-389 311 0
-389 335 0
-311 -335 389 0
-390 313 0
-390 341 0
-313 -341 390 0
-183 -386 0
-183 -387 0
-183 -388 0
-183 -389 0
-183 -390 0
-305 183 386 387 388 389 390 0
-186 307 0
-391 304 0
-391 308 0
-304 -308 391 0
-392 305 0
-392 317 0
-305 -317 392 0
-393 309 0
-393 330 0
-309 -330 393 0
-394 311 0
-394 336 0
-311 -336 394 0
-395 313 0
-395 342 0
-313 -342 395 0
-186 -391 0
-186 -392 0
-186 -393 0
-186 -394 0
-186 -395 0
-307 186 391 392 393 394 395 0
-189 309 0
-396 304 0
-396 310 0
-304 -310 396 0
-397 305 0
-397 318 0
-305 -318 397 0
-398 307 0
-398 324 0
-307 -324 398 0
-399 311 0
-399 337 0
-311 -337 399 0
-400 313 0
-400 343 0
-313 -343 400 0
-189 -396 0
-189 -397 0
-189 -398 0
-189 -399 0
-189 -400 0
-309 189 396 397 398 399 400 0
-192 311 0
-401 304 0
-401 312 0
-304 -312 401 0
-402 305 0
-402 319 0
-305 -319 402 0
-403 307 0
-403 325 0
-307 -325 403 0
-404 309 0
-404 331 0
-309 -331 404 0
-405 313 0
-405 344 0
-313 -344 405 0
-192 -401 0
-192 -402 0
-192 -403 0
-192 -404 0
-192 -405 0
-311 192 401 402 403 404 405 0
-195 313 0
-406 304 0
-406 314 0
-304 -314 406 0
-407 305 0
-407 320 0
-305 -320 407 0
-408 307 0
-408 326 0
-307 -326 408 0
-409 309 0
-409 332 0
-309 -332 409 0
-410 311 0
-410 338 0
-311 -338 410 0
-195 -406 0
-195 -407 0
-195 -408 0
-195 -409 0
-195 -410 0
-313 195 406 407 408 409 410 0
-198 315 0
-411 316 0
-411 304 0
-316 -304 411 0
-412 317 0
-412 321 0
-317 -321 412 0
-413 318 0
-413 327 0
-318 -327 413 0
-414 319 0
-414 333 0
-319 -333 414 0
-415 320 0
-415 339 0
-320 -339 415 0
-198 -411 0
-198 -412 0
-198 -413 0
-198 -414 0
-198 -415 0
-315 198 411 412 413 414 415 0
-201 316 0
-416 315 0
-416 303 0
-315 -303 416 0
-417 317 0
-417 322 0
-317 -322 417 0
-418 318 0
-418 328 0
-318 -328 418 0
-419 319 0
-419 334 0
-319 -334 419 0
-420 320 0
-420 340 0
-320 -340 420 0
-201 -416 0
-201 -417 0
-201 -418 0
-201 -419 0
-201 -420 0
-316 201 416 417 418 419 420 0
-204 0
-207 317 0
-421 315 0
-421 308 0
-315 -308 421 0
-422 316 0
-422 307 0
-316 -307 422 0
-423 318 0
-423 330 0
-318 -330 423 0
-424 319 0
-424 336 0
-319 -336 424 0
-425 320 0
-425 342 0
-320 -342 425 0
-207 -421 0
-207 -422 0
-207 -423 0
-207 -424 0
-207 -425 0
-317 207 421 422 423 424 425 0
-210 318 0
-426 315 0
-426 310 0
-315 -310 426 0
-427 316 0
-427 309 0
-316 -309 427 0
-428 317 0
-428 324 0
-317 -324 428 0
-429 319 0
-429 337 0
-319 -337 429 0
-430 320 0
-430 343 0
-320 -343 430 0
-210 -426 0
-210 -427 0
-210 -428 0
-210 -429 0
-210 -430 0
-318 210 426 427 428 429 430 0
-213 319 0
-431 315 0
-431 312 0
-315 -312 431 0
-432 316 0
-432 311 0
-316 -311 432 0
-433 317 0
-433 325 0
-317 -325 433 0
-434 318 0
-434 331 0
-318 -331 434 0
-435 320 0
-435 344 0
-320 -344 435 0
-213 -431 0
-213 -432 0
-213 -433 0
-213 -434 0
-213 -435 0
-319 213 431 432 433 434 435 0
-216 320 0
-436 315 0
-436 314 0
-315 -314 436 0
-437 316 0
-437 313 0
-316 -313 437 0
-438 317 0
-438 326 0
-317 -326 438 0
-439 318 0
-439 332 0
-318 -332 439 0
-440 319 0
-440 338 0
-319 -338 440 0
-216 -436 0
-216 -437 0
-216 -438 0
-216 -439 0
-216 -440 0
-320 216 436 437 438 439 440 0
-219 321 0
-441 322 0
-441 304 0
-322 -304 441 0
-442 323 0
-442 315 0
-323 -315 442 0
-443 324 0
-443 327 0
-324 -327 443 0
-444 325 0
-444 333 0
-325 -333 444 0
-445 326 0
-445 339 0
-326 -339 445 0
-219 -441 0
-219 -442 0
-219 -443 0
-219 -444 0
-219 -445 0
-321 219 441 442 443 444 445 0
-222 322 0
-446 321 0
-446 303 0
-321 -303 446 0
-447 323 0
-447 316 0
-323 -316 447 0
-448 324 0
-448 328 0
-324 -328 448 0
-449 325 0
-449 334 0
-325 -334 449 0
-450 326 0
-450 340 0
-326 -340 450 0
-222 -446 0
-222 -447 0
-222 -448 0
-222 -449 0
-222 -450 0
-322 222 446 447 448 449 450 0
-225 323 0
-451 321 0
-451 306 0
-321 -306 451 0
-452 322 0
-452 305 0
-322 -305 452 0
-453 324 0
-453 329 0
-324 -329 453 0
-454 325 0
-454 335 0
-325 -335 454 0
-455 326 0
-455 341 0
-326 -341 455 0
-225 -451 0
-225 -452 0
-225 -453 0
-225 -454 0
-225 -455 0
-323 225 451 452 453 454 455 0
-228 0
-231 324 0
-456 321 0
-456 310 0
-321 -310 456 0
-457 322 0
-457 309 0
-322 -309 457 0
-458 323 0
-458 318 0
-323 -318 458 0
-459 325 0
-459 337 0
-325 -337 459 0
-460 326 0
-460 343 0
-326 -343 460 0
-231 -456 0
-231 -457 0
-231 -458 0
-231 -459 0
-231 -460 0
-324 231 456 457 458 459 460 0
-234 325 0
-461 321 0
-461 312 0
-321 -312 461 0
-462 322 0
-462 311 0
-322 -311 462 0
-463 323 0
-463 319 0
-323 -319 463 0
-464 324 0
-464 331 0
-324 -331 464 0
-465 326 0
-465 344 0
-326 -344 465 0
-234 -461 0
-234 -462 0
-234 -463 0
-234 -464 0
-234 -465 0
-325 234 461 462 463 464 465 0
-237 326 0
-466 321 0
-466 314 0
-321 -314 466 0
-467 322 0
-467 313 0
-322 -313 467 0
-468 323 0
-468 320 0
-323 -320 468 0
-469 324 0
-469 332 0
-324 -332 469 0
-470 325 0
-470 338 0
-325 -338 470 0
-237 -466 0
-237 -467 0
-237 -468 0
-237 -469 0
-237 -470 0
-326 237 466 467 468 469 470 0
-240 327 0
-471 328 0
-471 304 0
-328 -304 471 0
-472 329 0
-472 315 0
-329 -315 472 0
-473 330 0
-473 321 0
-330 -321 473 0
-474 331 0
-474 333 0
-331 -333 474 0
-475 332 0
-475 339 0
-332 -339 475 0
-240 -471 0
-240 -472 0
-240 -473 0
-240 -474 0
-240 -475 0
-327 240 471 472 473 474 475 0
-243 328 0
-476 327 0
-476 303 0
-327 -303 476 0
-477 329 0
-477 316 0
-329 -316 477 0
-478 330 0
-478 322 0
-330 -322 478 0
-479 331 0
-479 334 0
-331 -334 479 0
-480 332 0
-480 340 0
-332 -340 480 0
-243 -476 0
-243 -477 0
-243 -478 0
-243 -479 0
-243 -480 0
-328 243 476 477 478 479 480 0
-246 329 0
-481 327 0
-481 306 0
-327 -306 481 0
-482 328 0
-482 305 0
-328 -305 482 0
-483 330 0
-483 323 0
-330 -323 483 0
-484 331 0
-484 335 0
-331 -335 484 0
-485 332 0
-485 341 0
-332 -341 485 0
-246 -481 0
-246 -482 0
-246 -483 0
-246 -484 0
-246 -485 0
-329 246 481 482 483 484 485 0
-249 330 0
-486 327 0
-486 308 0
-327 -308 486 0
-487 328 0
-487 307 0
-328 -307 487 0
-488 329 0
-488 317 0
-329 -317 488 0
-489 331 0
-489 336 0
-331 -336 489 0
-490 332 0
-490 342 0
-332 -342 490 0
-249 -486 0
-249 -487 0
-249 -488 0
-249 -489 0
-249 -490 0
-330 249 486 487 488 489 490 0
-252 0
-255 331 0
-491 327 0
-491 312 0
-327 -312 491 0
-492 328 0
-492 311 0
-328 -311 492 0
-493 329 0
-493 319 0
-329 -319 493 0
-494 330 0
-494 325 0
-330 -325 494 0
-495 332 0
-495 344 0
-332 -344 495 0
-255 -491 0
-255 -492 0
-255 -493 0
-255 -494 0
-255 -495 0
-331 255 491 492 493 494 495 0
-258 332 0
-496 327 0
-496 314 0
-327 -314 496 0
-497 328 0
-497 313 0
-328 -313 497 0
-498 329 0
-498 320 0
-329 -320 498 0
-499 330 0
-499 326 0
-330 -326 499 0
-500 331 0
-500 338 0
-331 -338 500 0
-258 -496 0
-258 -497 0
-258 -498 0
-258 -499 0
-258 -500 0
-332 258 496 497 498 499 500 0
-261 333 0
-501 334 0
-501 304 0
-334 -304 501 0
-502 335 0
-502 315 0
-335 -315 502 0
-503 336 0
-503 321 0
-336 -321 503 0
-504 337 0
-504 327 0
-337 -327 504 0
-505 338 0
-505 339 0
-338 -339 505 0
-261 -501 0
-261 -502 0
-261 -503 0
-261 -504 0
-261 -505 0
-333 261 501 502 503 504 505 0
-264 334 0
-506 333 0
-506 303 0
-333 -303 506 0
-507 335 0
-507 316 0
-335 -316 507 0
-508 336 0
-508 322 0
-336 -322 508 0
-509 337 0
-509 328 0
-337 -328 509 0
-510 338 0
-510 340 0
-338 -340 510 0
-264 -506 0
-264 -507 0
-264 -508 0
-264 -509 0
-264 -510 0
-334 264 506 507 508 509 510 0
-267 335 0
-511 333 0
-511 306 0
-333 -306 511 0
-512 334 0
-512 305 0
-334 -305 512 0
-513 336 0
-513 323 0
-336 -323 513 0
-514 337 0
-514 329 0
-337 -329 514 0
-515 338 0
-515 341 0
-338 -341 515 0
-267 -511 0
-267 -512 0
-267 -513 0
-267 -514 0
-267 -515 0
-335 267 511 512 513 514 515 0
-270 336 0
-516 333 0
-516 308 0
-333 -308 516 0
-517 334 0
-517 307 0
-334 -307 517 0
-518 335 0
-518 317 0
-335 -317 518 0
-519 337 0
-519 330 0
-337 -330 519 0
-520 338 0
-520 342 0
-338 -342 520 0
-270 -516 0
-270 -517 0
-270 -518 0
-270 -519 0
-270 -520 0
-336 270 516 517 518 519 520 0
-273 337 0
-521 333 0
-521 310 0
-333 -310 521 0
-522 334 0
-522 309 0
-334 -309 522 0
-523 335 0
-523 318 0
-335 -318 523 0
-524 336 0
-524 324 0
-336 -324 524 0
-525 338 0
-525 343 0
-338 -343 525 0
-273 -521 0
-273 -522 0
-273 -523 0
-273 -524 0
-273 -525 0
-337 273 521 522 523 524 525 0
-276 0
-279 338 0
-526 333 0
-526 314 0
-333 -314 526 0
-527 334 0
-527 313 0
-334 -313 527 0
-528 335 0
-528 320 0
-335 -320 528 0
-529 336 0
-529 326 0
-336 -326 529 0
-530 337 0
-530 332 0
-337 -332 530 0
-279 -526 0
-279 -527 0
-279 -528 0
-279 -529 0
-279 -530 0
-338 279 526 527 528 529 530 0
-282 339 0
-531 340 0
-531 304 0
-340 -304 531 0
-532 341 0
-532 315 0
-341 -315 532 0
-533 342 0
-533 321 0
-342 -321 533 0
-534 343 0
-534 327 0
-343 -327 534 0
-535 344 0
-535 333 0
-344 -333 535 0
-282 -531 0
-282 -532 0
-282 -533 0
-282 -534 0
-282 -535 0
-339 282 531 532 533 534 535 0
-285 340 0
-536 339 0
-536 303 0
-339 -303 536 0
-537 341 0
-537 316 0
-341 -316 537 0
-538 342 0
-538 322 0
-342 -322 538 0
-539 343 0
-539 328 0
-343 -328 539 0
-540 344 0
-540 334 0
-344 -334 540 0
-285 -536 0
-285 -537 0
-285 -538 0
-285 -539 0
-285 -540 0
-340 285 536 537 538 539 540 0
-288 341 0
-541 339 0
-541 306 0
-339 -306 541 0
-542 340 0
-542 305 0
-340 -305 542 0
-543 342 0
-543 323 0
-342 -323 543 0
-544 343 0
-544 329 0
-343 -329 544 0
-545 344 0
-545 335 0
-344 -335 545 0
-288 -541 0
-288 -542 0
-288 -543 0
-288 -544 0
-288 -545 0
-341 288 541 542 543 544 545 0
-291 342 0
-546 339 0
-546 308 0
-339 -308 546 0
-547 340 0
-547 307 0
-340 -307 547 0
-548 341 0
-548 317 0
-341 -317 548 0
-549 343 0
-549 330 0
-343 -330 549 0
-550 344 0
-550 336 0
-344 -336 550 0
-291 -546 0
-291 -547 0
-291 -548 0
-291 -549 0
-291 -550 0
-342 291 546 547 548 549 550 0
-294 343 0
-551 339 0
-551 310 0
-339 -310 551 0
-552 340 0
-552 309 0
-340 -309 552 0
-553 341 0
-553 318 0
-341 -318 553 0
-554 342 0
-554 324 0
-342 -324 554 0
-555 344 0
-555 337 0
-344 -337 555 0
-294 -551 0
-294 -552 0
-294 -553 0
-294 -554 0
-294 -555 0
-343 294 551 552 553 554 555 0
-297 344 0
-556 339 0
-556 312 0
-339 -312 556 0
-557 340 0
-557 311 0
-340 -311 557 0
-558 341 0
-558 319 0
-341 -319 558 0
-559 342 0
-559 325 0
-342 -325 559 0
-560 343 0
-560 331 0
-343 -331 560 0
-297 -556 0
-297 -557 0
-297 -558 0
-297 -559 0
-297 -560 0
-344 297 556 557 558 559 560 0
-300 0
