p cnf 792 3272
1 1 -2 0
1 3 -4 0
1 5 -6 0
1 7 -8 0
1 9 -10 0
1 11 -12 0
1 13 -14 0
1 15 -16 0
3 1 -17 0
3 3 -18 0
3 5 -19 0
3 7 -20 0
3 9 -21 0
3 11 -22 0
3 13 -23 0
3 15 -24 0
5 1 -25 0
5 3 -26 0
5 5 -27 0
5 7 -28 0
5 9 -29 0
5 11 -30 0
5 13 -31 0
5 15 -32 0
7 1 -33 0
7 3 -34 0
7 5 -35 0
7 7 -36 0
7 9 -37 0
7 11 -38 0
7 13 -39 0
7 15 -40 0
9 1 -41 0
9 3 -42 0
9 5 -43 0
9 7 -44 0
9 9 -45 0
9 11 -46 0
9 13 -47 0
9 15 -48 0
11 1 -49 0
11 3 -50 0
11 5 -51 0
11 7 -52 0
11 9 -53 0
11 11 -54 0
11 13 -55 0
11 15 -56 0
13 1 -57 0
13 3 -58 0
13 5 -59 0
13 7 -60 0
13 9 -61 0
13 11 -62 0
13 13 -63 0
13 15 -64 0
15 1 -65 0
15 3 -66 0
15 5 -67 0
15 7 -68 0
15 9 -69 0
15 11 -70 0
15 13 -71 0
15 15 -72 0
2 -1 0
4 -1 0
6 -1 0
8 -1 0
10 -1 0
12 -1 0
14 -1 0
16 -1 0
17 -3 0
18 -3 0
19 -3 0
20 -3 0
21 -3 0
22 -3 0
23 -3 0
24 -3 0
25 -5 0
26 -5 0
27 -5 0
28 -5 0
29 -5 0
30 -5 0
31 -5 0
32 -5 0
33 -7 0
34 -7 0
35 -7 0
36 -7 0
37 -7 0
38 -7 0
39 -7 0
40 -7 0
41 -9 0
42 -9 0
43 -9 0
44 -9 0
45 -9 0
46 -9 0
47 -9 0
48 -9 0
49 -11 0
50 -11 0
51 -11 0
52 -11 0
53 -11 0
54 -11 0
55 -11 0
56 -11 0
57 -13 0
58 -13 0
59 -13 0
60 -13 0
61 -13 0
62 -13 0
63 -13 0
64 -13 0
65 -15 0
66 -15 0
67 -15 0
68 -15 0
69 -15 0
70 -15 0
71 -15 0
72 -15 0
2 -1 0
4 -3 0
6 -5 0
8 -7 0
10 -9 0
12 -11 0
14 -13 0
16 -15 0
17 -1 0
18 -3 0
19 -5 0
20 -7 0
21 -9 0
22 -11 0
23 -13 0
24 -15 0
25 -1 0
26 -3 0
27 -5 0
28 -7 0
29 -9 0
30 -11 0
31 -13 0
32 -15 0
33 -1 0
34 -3 0
35 -5 0
36 -7 0
37 -9 0
38 -11 0
39 -13 0
40 -15 0
41 -1 0
42 -3 0
43 -5 0
44 -7 0
45 -9 0
46 -11 0
47 -13 0
48 -15 0
49 -1 0
50 -3 0
51 -5 0
52 -7 0
53 -9 0
54 -11 0
55 -13 0
56 -15 0
57 -1 0
58 -3 0
59 -5 0
60 -7 0
61 -9 0
62 -11 0
63 -13 0
64 -15 0
65 -1 0
66 -3 0
67 -5 0
68 -7 0
69 -9 0
70 -11 0
71 -13 0
72 -15 0
-1 -1 -73 0
-1 -3 -74 0
-1 -5 -75 0
-1 -7 -76 0
-1 -9 -77 0
-1 -11 -78 0
-1 -13 -79 0
-1 -15 -80 0
-3 -1 -81 0
-3 -3 -82 0
-3 -5 -83 0
-3 -7 -84 0
-3 -9 -85 0
-3 -11 -86 0
-3 -13 -87 0
-3 -15 -88 0
-5 -1 -89 0
-5 -3 -90 0
-5 -5 -91 0
-5 -7 -92 0
-5 -9 -93 0
-5 -11 -94 0
-5 -13 -95 0
-5 -15 -96 0
-7 -1 -97 0
-7 -3 -98 0
-7 -5 -99 0
-7 -7 -100 0
-7 -9 -101 0
-7 -11 -102 0
-7 -13 -103 0
-7 -15 -104 0
-9 -1 -105 0
-9 -3 -106 0
-9 -5 -107 0
-9 -7 -108 0
-9 -9 -109 0
-9 -11 -110 0
-9 -13 -111 0
-9 -15 -112 0
-11 -1 -113 0
-11 -3 -114 0
-11 -5 -115 0
-11 -7 -116 0
-11 -9 -117 0
-11 -11 -118 0
-11 -13 -119 0
-11 -15 -120 0
-13 -1 -121 0
-13 -3 -122 0
-13 -5 -123 0
-13 -7 -124 0
-13 -9 -125 0
-13 -11 -126 0
-13 -13 -127 0
-13 -15 -128 0
-15 -1 -129 0
-15 -3 -130 0
-15 -5 -131 0
-15 -7 -132 0
-15 -9 -133 0
-15 -11 -134 0
-15 -13 -135 0
-15 -15 -136 0
73 1 0
74 1 0
75 1 0
76 1 0
77 1 0
78 1 0
79 1 0
80 1 0
81 3 0
82 3 0
83 3 0
84 3 0
85 3 0
86 3 0
87 3 0
88 3 0
89 5 0
90 5 0
91 5 0
92 5 0
93 5 0
94 5 0
95 5 0
96 5 0
97 7 0
98 7 0
99 7 0
100 7 0
101 7 0
102 7 0
103 7 0
104 7 0
105 9 0
106 9 0
107 9 0
108 9 0
109 9 0
110 9 0
111 9 0
112 9 0
113 11 0
114 11 0
115 11 0
116 11 0
117 11 0
118 11 0
119 11 0
120 11 0
121 13 0
122 13 0
123 13 0
124 13 0
125 13 0
126 13 0
127 13 0
128 13 0
129 15 0
130 15 0
131 15 0
132 15 0
133 15 0
134 15 0
135 15 0
136 15 0
73 1 0
74 3 0
75 5 0
76 7 0
77 9 0
78 11 0
79 13 0
80 15 0
81 1 0
82 3 0
83 5 0
84 7 0
85 9 0
86 11 0
87 13 0
88 15 0
89 1 0
90 3 0
91 5 0
92 7 0
93 9 0
94 11 0
95 13 0
96 15 0
97 1 0
98 3 0
99 5 0
100 7 0
101 9 0
102 11 0
103 13 0
104 15 0
105 1 0
106 3 0
107 5 0
108 7 0
109 9 0
110 11 0
111 13 0
112 15 0
113 1 0
114 3 0
115 5 0
116 7 0
117 9 0
118 11 0
119 13 0
120 15 0
121 1 0
122 3 0
123 5 0
124 7 0
125 9 0
126 11 0
127 13 0
128 15 0
129 1 0
130 3 0
131 5 0
132 7 0
133 9 0
134 11 0
135 13 0
136 15 0
-2 -73 137 0
-4 -74 138 0
-6 -75 139 0
-8 -76 140 0
-10 -77 141 0
-12 -78 142 0
-14 -79 143 0
-16 -80 144 0
-17 -81 145 0
-18 -82 146 0
-19 -83 147 0
-20 -84 148 0
-21 -85 149 0
-22 -86 150 0
-23 -87 151 0
-24 -88 152 0
-25 -89 153 0
-26 -90 154 0
-27 -91 155 0
-28 -92 156 0
-29 -93 157 0
-30 -94 158 0
-31 -95 159 0
-32 -96 160 0
-33 -97 161 0
-34 -98 162 0
-35 -99 163 0
-36 -100 164 0
-37 -101 165 0
-38 -102 166 0
-39 -103 167 0
-40 -104 168 0
-41 -105 169 0
-42 -106 170 0
-43 -107 171 0
-44 -108 172 0
-45 -109 173 0
-46 -110 174 0
-47 -111 175 0
-48 -112 176 0
-49 -113 177 0
-50 -114 178 0
-51 -115 179 0
-52 -116 180 0
-53 -117 181 0
-54 -118 182 0
-55 -119 183 0
-56 -120 184 0
-57 -121 185 0
-58 -122 186 0
-59 -123 187 0
-60 -124 188 0
-61 -125 189 0
-62 -126 190 0
-63 -127 191 0
-64 -128 192 0
-65 -129 193 0
-66 -130 194 0
-67 -131 195 0
-68 -132 196 0
-69 -133 197 0
-70 -134 198 0
-71 -135 199 0
-72 -136 200 0
-137 2 0
-138 4 0
-139 6 0
-140 8 0
-141 10 0
-142 12 0
-143 14 0
-144 16 0
-145 17 0
-146 18 0
-147 19 0
-148 20 0
-149 21 0
-150 22 0
-151 23 0
-152 24 0
-153 25 0
-154 26 0
-155 27 0
-156 28 0
-157 29 0
-158 30 0
-159 31 0
-160 32 0
-161 33 0
-162 34 0
-163 35 0
-164 36 0
-165 37 0
-166 38 0
-167 39 0
-168 40 0
-169 41 0
-170 42 0
-171 43 0
-172 44 0
-173 45 0
-174 46 0
-175 47 0
-176 48 0
-177 49 0
-178 50 0
-179 51 0
-180 52 0
-181 53 0
-182 54 0
-183 55 0
-184 56 0
-185 57 0
-186 58 0
-187 59 0
-188 60 0
-189 61 0
-190 62 0
-191 63 0
-192 64 0
-193 65 0
-194 66 0
-195 67 0
-196 68 0
-197 69 0
-198 70 0
-199 71 0
-200 72 0
-137 73 0
-138 74 0
-139 75 0
-140 76 0
-141 77 0
-142 78 0
-143 79 0
-144 80 0
-145 81 0
-146 82 0
-147 83 0
-148 84 0
-149 85 0
-150 86 0
-151 87 0
-152 88 0
-153 89 0
-154 90 0
-155 91 0
-156 92 0
-157 93 0
-158 94 0
-159 95 0
-160 96 0
-161 97 0
-162 98 0
-163 99 0
-164 100 0
-165 101 0
-166 102 0
-167 103 0
-168 104 0
-169 105 0
-170 106 0
-171 107 0
-172 108 0
-173 109 0
-174 110 0
-175 111 0
-176 112 0
-177 113 0
-178 114 0
-179 115 0
-180 116 0
-181 117 0
-182 118 0
-183 119 0
-184 120 0
-185 121 0
-186 122 0
-187 123 0
-188 124 0
-189 125 0
-190 126 0
-191 127 0
-192 128 0
-193 129 0
-194 130 0
-195 131 0
-196 132 0
-197 133 0
-198 134 0
-199 135 0
-200 136 0
-201 -202 137 -203 0
-204 -205 138 -206 0
-207 -208 139 -209 0
-210 -211 140 -212 0
-213 -214 141 -215 0
-216 -217 142 -218 0
-219 -220 143 -221 0
-222 -223 144 -224 0
-225 -226 145 -227 0
-228 -229 146 -230 0
-231 -232 147 -233 0
-234 -235 148 -236 0
-237 -238 149 -239 0
-240 -241 150 -242 0
-243 -244 151 -245 0
-246 -247 152 -248 0
-249 -250 153 -251 0
-252 -253 154 -254 0
-255 -256 155 -257 0
-258 -259 156 -260 0
-261 -262 157 -263 0
-264 -265 158 -266 0
-267 -268 159 -269 0
-270 -271 160 -272 0
-273 -274 161 -275 0
-276 -277 162 -278 0
-279 -280 163 -281 0
-282 -283 164 -284 0
-285 -286 165 -287 0
-288 -289 166 -290 0
-291 -292 167 -293 0
-294 -295 168 -296 0
-297 -298 169 -299 0
-300 -301 170 -302 0
-303 -304 171 -305 0
-306 -307 172 -308 0
-309 -310 173 -311 0
-312 -313 174 -314 0
-315 -316 175 -317 0
-318 -319 176 -320 0
-321 -322 177 -323 0
-324 -325 178 -326 0
-327 -328 179 -329 0
-330 -331 180 -332 0
-333 -334 181 -335 0
-336 -337 182 -338 0
-339 -340 183 -341 0
-342 -343 184 -344 0
-345 -346 185 -347 0
-348 -349 186 -350 0
-351 -352 187 -353 0
-354 -355 188 -356 0
-357 -358 189 -359 0
-360 -361 190 -362 0
-363 -364 191 -365 0
-366 -367 192 -368 0
-369 -370 193 -371 0
-372 -373 194 -374 0
-375 -376 195 -377 0
-378 -379 196 -380 0
-381 -382 197 -383 0
-384 -385 198 -386 0
-387 -388 199 -389 0
-390 -391 200 -392 0
203 201 0
206 204 0
209 207 0
212 210 0
215 213 0
218 216 0
221 219 0
224 222 0
227 225 0
230 228 0
233 231 0
236 234 0
239 237 0
242 240 0
245 243 0
248 246 0
251 249 0
254 252 0
257 255 0
260 258 0
263 261 0
266 264 0
269 267 0
272 270 0
275 273 0
278 276 0
281 279 0
284 282 0
287 285 0
290 288 0
293 291 0
296 294 0
299 297 0
302 300 0
305 303 0
308 306 0
311 309 0
314 312 0
317 315 0
320 318 0
323 321 0
326 324 0
329 327 0
332 330 0
335 333 0
338 336 0
341 339 0
344 342 0
347 345 0
350 348 0
353 351 0
356 354 0
359 357 0
362 360 0
365 363 0
368 366 0
371 369 0
374 372 0
377 375 0
380 378 0
383 381 0
386 384 0
389 387 0
392 390 0
203 202 0
206 205 0
209 208 0
212 211 0
215 214 0
218 217 0
221 220 0
224 223 0
227 226 0
230 229 0
233 232 0
236 235 0
239 238 0
242 241 0
245 244 0
248 247 0
251 250 0
254 253 0
257 256 0
260 259 0
263 262 0
266 265 0
269 268 0
272 271 0
275 274 0
278 277 0
281 280 0
284 283 0
287 286 0
290 289 0
293 292 0
296 295 0
299 298 0
302 301 0
305 304 0
308 307 0
311 310 0
314 313 0
317 316 0
320 319 0
323 322 0
326 325 0
329 328 0
332 331 0
335 334 0
338 337 0
341 340 0
344 343 0
347 346 0
350 349 0
353 352 0
356 355 0
359 358 0
362 361 0
365 364 0
368 367 0
371 370 0
374 373 0
377 376 0
380 379 0
383 382 0
386 385 0
389 388 0
392 391 0
203 -137 0
206 -138 0
209 -139 0
212 -140 0
215 -141 0
218 -142 0
221 -143 0
224 -144 0
227 -145 0
230 -146 0
233 -147 0
236 -148 0
239 -149 0
242 -150 0
245 -151 0
248 -152 0
251 -153 0
254 -154 0
257 -155 0
260 -156 0
263 -157 0
266 -158 0
269 -159 0
272 -160 0
275 -161 0
278 -162 0
281 -163 0
284 -164 0
287 -165 0
290 -166 0
293 -167 0
296 -168 0
299 -169 0
302 -170 0
305 -171 0
308 -172 0
311 -173 0
314 -174 0
317 -175 0
320 -176 0
323 -177 0
326 -178 0
329 -179 0
332 -180 0
335 -181 0
338 -182 0
341 -183 0
344 -184 0
347 -185 0
350 -186 0
353 -187 0
356 -188 0
359 -189 0
362 -190 0
365 -191 0
368 -192 0
371 -193 0
374 -194 0
377 -195 0
380 -196 0
383 -197 0
386 -198 0
389 -199 0
392 -200 0
203 0
206 0
209 0
212 0
215 0
218 0
221 0
224 0
227 0
230 0
233 0
236 0
239 0
242 0
245 0
248 0
251 0
254 0
257 0
260 0
263 0
266 0
269 0
272 0
275 0
278 0
281 0
284 0
287 0
290 0
293 0
296 0
299 0
302 0
305 0
308 0
311 0
314 0
317 0
320 0
323 0
326 0
329 0
332 0
335 0
338 0
341 0
344 0
347 0
350 0
353 0
356 0
359 0
362 0
365 0
368 0
371 0
374 0
377 0
380 0
383 0
386 0
389 0
392 0
201 0
204 225 0
-204 -225 0
-204 -231 207 0
-204 -234 210 0
-204 -237 213 0
-204 -240 216 0
-204 -243 219 0
-204 -246 222 0
207 249 0
-207 -249 0
-207 -252 204 0
-207 -258 210 0
-207 -261 213 0
-207 -264 216 0
-207 -267 219 0
-207 -270 222 0
210 273 0
-210 -273 0
-210 -276 204 0
-210 -279 207 0
-210 -285 213 0
-210 -288 216 0
-210 -291 219 0
-210 -294 222 0
213 297 0
-213 -297 0
-213 -300 204 0
-213 -303 207 0
-213 -306 210 0
-213 -312 216 0
-213 -315 219 0
-213 -318 222 0
216 321 0
-216 -321 0
-216 -324 204 0
-216 -327 207 0
-216 -330 210 0
-216 -333 213 0
-216 -339 219 0
-216 -342 222 0
219 345 0
-219 -345 0
-219 -348 204 0
-219 -351 207 0
-219 -354 210 0
-219 -357 213 0
-219 -360 216 0
-219 -366 222 0
222 369 0
-222 -369 0
-222 -372 204 0
-222 -375 207 0
-222 -378 210 0
-222 -381 213 0
-222 -384 216 0
-222 -387 219 0
228 0
225 204 0
-225 -204 0
-225 -207 231 0
-225 -210 234 0
-225 -213 237 0
-225 -216 240 0
-225 -219 243 0
-225 -222 246 0
231 252 0
-231 -252 0
-231 -249 225 0
-231 -258 234 0
-231 -261 237 0
-231 -264 240 0
-231 -267 243 0
-231 -270 246 0
234 276 0
-234 -276 0
-234 -273 225 0
-234 -279 231 0
-234 -285 237 0
-234 -288 240 0
-234 -291 243 0
-234 -294 246 0
237 300 0
-237 -300 0
-237 -297 225 0
-237 -303 231 0
-237 -306 234 0
-237 -312 240 0
-237 -315 243 0
-237 -318 246 0
240 324 0
-240 -324 0
-240 -321 225 0
-240 -327 231 0
-240 -330 234 0
-240 -333 237 0
-240 -339 243 0
-240 -342 246 0
243 348 0
-243 -348 0
-243 -345 225 0
-243 -351 231 0
-243 -354 234 0
-243 -357 237 0
-243 -360 240 0
-243 -366 246 0
246 372 0
-246 -372 0
-246 -369 225 0
-246 -375 231 0
-246 -378 234 0
-246 -381 237 0
-246 -384 240 0
-246 -387 243 0
255 0
249 207 0
-249 -207 0
-249 -204 252 0
-249 -210 258 0
-249 -213 261 0
-249 -216 264 0
-249 -219 267 0
-249 -222 270 0
252 231 0
-252 -231 0
-252 -225 249 0
-252 -234 258 0
-252 -237 261 0
-252 -240 264 0
-252 -243 267 0
-252 -246 270 0
258 279 0
-258 -279 0
-258 -273 249 0
-258 -276 252 0
-258 -285 261 0
-258 -288 264 0
-258 -291 267 0
-258 -294 270 0
261 303 0
-261 -303 0
-261 -297 249 0
-261 -300 252 0
-261 -306 258 0
-261 -312 264 0
-261 -315 267 0
-261 -318 270 0
264 327 0
-264 -327 0
-264 -321 249 0
-264 -324 252 0
-264 -330 258 0
-264 -333 261 0
-264 -339 267 0
-264 -342 270 0
267 351 0
-267 -351 0
-267 -345 249 0
-267 -348 252 0
-267 -354 258 0
-267 -357 261 0
-267 -360 264 0
-267 -366 270 0
270 375 0
-270 -375 0
-270 -369 249 0
-270 -372 252 0
-270 -378 258 0
-270 -381 261 0
-270 -384 264 0
-270 -387 267 0
282 0
273 210 0
-273 -210 0
-273 -204 276 0
-273 -207 279 0
-273 -213 285 0
-273 -216 288 0
-273 -219 291 0
-273 -222 294 0
276 234 0
-276 -234 0
-276 -225 273 0
-276 -231 279 0
-276 -237 285 0
-276 -240 288 0
-276 -243 291 0
-276 -246 294 0
279 258 0
-279 -258 0
-279 -249 273 0
-279 -252 276 0
-279 -261 285 0
-279 -264 288 0
-279 -267 291 0
-279 -270 294 0
285 306 0
-285 -306 0
-285 -297 273 0
-285 -300 276 0
-285 -303 279 0
-285 -312 288 0
-285 -315 291 0
-285 -318 294 0
288 330 0
-288 -330 0
-288 -321 273 0
-288 -324 276 0
-288 -327 279 0
-288 -333 285 0
-288 -339 291 0
-288 -342 294 0
291 354 0
-291 -354 0
-291 -345 273 0
-291 -348 276 0
-291 -351 279 0
-291 -357 285 0
-291 -360 288 0
-291 -366 294 0
294 378 0
-294 -378 0
-294 -369 273 0
-294 -372 276 0
-294 -375 279 0
-294 -381 285 0
-294 -384 288 0
-294 -387 291 0
309 0
297 213 0
-297 -213 0
-297 -204 300 0
-297 -207 303 0
-297 -210 306 0
-297 -216 312 0
-297 -219 315 0
-297 -222 318 0
300 237 0
-300 -237 0
-300 -225 297 0
-300 -231 303 0
-300 -234 306 0
-300 -240 312 0
-300 -243 315 0
-300 -246 318 0
303 261 0
-303 -261 0
-303 -249 297 0
-303 -252 300 0
-303 -258 306 0
-303 -264 312 0
-303 -267 315 0
-303 -270 318 0
306 285 0
-306 -285 0
-306 -273 297 0
-306 -276 300 0
-306 -279 303 0
-306 -288 312 0
-306 -291 315 0
-306 -294 318 0
312 333 0
-312 -333 0
-312 -321 297 0
-312 -324 300 0
-312 -327 303 0
-312 -330 306 0
-312 -339 315 0
-312 -342 318 0
315 357 0
-315 -357 0
-315 -345 297 0
-315 -348 300 0
-315 -351 303 0
-315 -354 306 0
-315 -360 312 0
-315 -366 318 0
318 381 0
-318 -381 0
-318 -369 297 0
-318 -372 300 0
-318 -375 303 0
-318 -378 306 0
-318 -384 312 0
-318 -387 315 0
336 0
321 216 0
-321 -216 0
-321 -204 324 0
-321 -207 327 0
-321 -210 330 0
-321 -213 333 0
-321 -219 339 0
-321 -222 342 0
324 240 0
-324 -240 0
-324 -225 321 0
-324 -231 327 0
-324 -234 330 0
-324 -237 333 0
-324 -243 339 0
-324 -246 342 0
327 264 0
-327 -264 0
-327 -249 321 0
-327 -252 324 0
-327 -258 330 0
-327 -261 333 0
-327 -267 339 0
-327 -270 342 0
330 288 0
-330 -288 0
-330 -273 321 0
-330 -276 324 0
-330 -279 327 0
-330 -285 333 0
-330 -291 339 0
-330 -294 342 0
333 312 0
-333 -312 0
-333 -297 321 0
-333 -300 324 0
-333 -303 327 0
-333 -306 330 0
-333 -315 339 0
-333 -318 342 0
339 360 0
-339 -360 0
-339 -345 321 0
-339 -348 324 0
-339 -351 327 0
-339 -354 330 0
-339 -357 333 0
-339 -366 342 0
342 384 0
-342 -384 0
-342 -369 321 0
-342 -372 324 0
-342 -375 327 0
-342 -378 330 0
-342 -381 333 0
-342 -387 339 0
363 0
345 219 0
-345 -219 0
-345 -204 348 0
-345 -207 351 0
-345 -210 354 0
-345 -213 357 0
-345 -216 360 0
-345 -222 366 0
348 243 0
-348 -243 0
-348 -225 345 0
-348 -231 351 0
-348 -234 354 0
-348 -237 357 0
-348 -240 360 0
-348 -246 366 0
351 267 0
-351 -267 0
-351 -249 345 0
-351 -252 348 0
-351 -258 354 0
-351 -261 357 0
-351 -264 360 0
-351 -270 366 0
354 291 0
-354 -291 0
-354 -273 345 0
-354 -276 348 0
-354 -279 351 0
-354 -285 357 0
-354 -288 360 0
-354 -294 366 0
357 315 0
-357 -315 0
-357 -297 345 0
-357 -300 348 0
-357 -303 351 0
-357 -306 354 0
-357 -312 360 0
-357 -318 366 0
360 339 0
-360 -339 0
-360 -321 345 0
-360 -324 348 0
-360 -327 351 0
-360 -330 354 0
-360 -333 357 0
-360 -342 366 0
366 387 0
-366 -387 0
-366 -369 345 0
-366 -372 348 0
-366 -375 351 0
-366 -378 354 0
-366 -381 357 0
-366 -384 360 0
390 0
369 222 0
-369 -222 0
-369 -204 372 0
-369 -207 375 0
-369 -210 378 0
-369 -213 381 0
-369 -216 384 0
-369 -219 387 0
372 246 0
-372 -246 0
-372 -225 369 0
-372 -231 375 0
-372 -234 378 0
-372 -237 381 0
-372 -240 384 0
-372 -243 387 0
375 270 0
-375 -270 0
-375 -249 369 0
-375 -252 372 0
-375 -258 378 0
-375 -261 381 0
-375 -264 384 0
-375 -267 387 0
378 294 0
-378 -294 0
-378 -273 369 0
-378 -276 372 0
-378 -279 375 0
-378 -285 381 0
-378 -288 384 0
-378 -291 387 0
381 318 0
-381 -318 0
-381 -297 369 0
-381 -300 372 0
-381 -303 375 0
-381 -306 378 0
-381 -312 384 0
-381 -315 387 0
384 342 0
-384 -342 0
-384 -321 369 0
-384 -324 372 0
-384 -327 375 0
-384 -330 378 0
-384 -333 381 0
-384 -339 387 0
387 366 0
-387 -366 0
-387 -345 369 0
-387 -348 372 0
-387 -351 375 0
-387 -354 378 0
-387 -357 381 0
-387 -360 384 0
393 0
394 395 0
-394 -395 0
-394 -396 397 0
-394 -398 399 0
-394 -400 401 0
-394 -402 403 0
-394 -404 405 0
-394 -406 407 0
397 408 0
-397 -408 0
-397 -409 394 0
-397 -410 399 0
-397 -411 401 0
-397 -412 403 0
-397 -413 405 0
-397 -414 407 0
399 415 0
-399 -415 0
-399 -416 394 0
-399 -417 397 0
-399 -418 401 0
-399 -419 403 0
-399 -420 405 0
-399 -421 407 0
401 422 0
-401 -422 0
-401 -423 394 0
-401 -424 397 0
-401 -425 399 0
-401 -426 403 0
-401 -427 405 0
-401 -428 407 0
403 429 0
-403 -429 0
-403 -430 394 0
-403 -431 397 0
-403 -432 399 0
-403 -433 401 0
-403 -434 405 0
-403 -435 407 0
405 436 0
-405 -436 0
-405 -437 394 0
-405 -438 397 0
-405 -439 399 0
-405 -440 401 0
-405 -441 403 0
-405 -442 407 0
407 443 0
-407 -443 0
-407 -444 394 0
-407 -445 397 0
-407 -446 399 0
-407 -447 401 0
-407 -448 403 0
-407 -449 405 0
450 0
395 394 0
-395 -394 0
-395 -397 396 0
-395 -399 398 0
-395 -401 400 0
-395 -403 402 0
-395 -405 404 0
-395 -407 406 0
396 409 0
-396 -409 0
-396 -408 395 0
-396 -410 398 0
-396 -411 400 0
-396 -412 402 0
-396 -413 404 0
-396 -414 406 0
398 416 0
-398 -416 0
-398 -415 395 0
-398 -417 396 0
-398 -418 400 0
-398 -419 402 0
-398 -420 404 0
-398 -421 406 0
400 423 0
-400 -423 0
-400 -422 395 0
-400 -424 396 0
-400 -425 398 0
-400 -426 402 0
-400 -427 404 0
-400 -428 406 0
402 430 0
-402 -430 0
-402 -429 395 0
-402 -431 396 0
-402 -432 398 0
-402 -433 400 0
-402 -434 404 0
-402 -435 406 0
404 437 0
-404 -437 0
-404 -436 395 0
-404 -438 396 0
-404 -439 398 0
-404 -440 400 0
-404 -441 402 0
-404 -442 406 0
406 444 0
-406 -444 0
-406 -443 395 0
-406 -445 396 0
-406 -446 398 0
-406 -447 400 0
-406 -448 402 0
-406 -449 404 0
451 0
408 397 0
-408 -397 0
-408 -394 409 0
-408 -399 410 0
-408 -401 411 0
-408 -403 412 0
-408 -405 413 0
-408 -407 414 0
409 396 0
-409 -396 0
-409 -395 408 0
-409 -398 410 0
-409 -400 411 0
-409 -402 412 0
-409 -404 413 0
-409 -406 414 0
410 417 0
-410 -417 0
-410 -415 408 0
-410 -416 409 0
-410 -418 411 0
-410 -419 412 0
-410 -420 413 0
-410 -421 414 0
411 424 0
-411 -424 0
-411 -422 408 0
-411 -423 409 0
-411 -425 410 0
-411 -426 412 0
-411 -427 413 0
-411 -428 414 0
412 431 0
-412 -431 0
-412 -429 408 0
-412 -430 409 0
-412 -432 410 0
-412 -433 411 0
-412 -434 413 0
-412 -435 414 0
413 438 0
-413 -438 0
-413 -436 408 0
-413 -437 409 0
-413 -439 410 0
-413 -440 411 0
-413 -441 412 0
-413 -442 414 0
414 445 0
-414 -445 0
-414 -443 408 0
-414 -444 409 0
-414 -446 410 0
-414 -447 411 0
-414 -448 412 0
-414 -449 413 0
452 0
415 399 0
-415 -399 0
-415 -394 416 0
-415 -397 417 0
-415 -401 418 0
-415 -403 419 0
-415 -405 420 0
-415 -407 421 0
416 398 0
-416 -398 0
-416 -395 415 0
-416 -396 417 0
-416 -400 418 0
-416 -402 419 0
-416 -404 420 0
-416 -406 421 0
417 410 0
-417 -410 0
-417 -408 415 0
-417 -409 416 0
-417 -411 418 0
-417 -412 419 0
-417 -413 420 0
-417 -414 421 0
418 425 0
-418 -425 0
-418 -422 415 0
-418 -423 416 0
-418 -424 417 0
-418 -426 419 0
-418 -427 420 0
-418 -428 421 0
419 432 0
-419 -432 0
-419 -429 415 0
-419 -430 416 0
-419 -431 417 0
-419 -433 418 0
-419 -434 420 0
-419 -435 421 0
420 439 0
-420 -439 0
-420 -436 415 0
-420 -437 416 0
-420 -438 417 0
-420 -440 418 0
-420 -441 419 0
-420 -442 421 0
421 446 0
-421 -446 0
-421 -443 415 0
-421 -444 416 0
-421 -445 417 0
-421 -447 418 0
-421 -448 419 0
-421 -449 420 0
453 0
422 401 0
-422 -401 0
-422 -394 423 0
-422 -397 424 0
-422 -399 425 0
-422 -403 426 0
-422 -405 427 0
-422 -407 428 0
423 400 0
-423 -400 0
-423 -395 422 0
-423 -396 424 0
-423 -398 425 0
-423 -402 426 0
-423 -404 427 0
-423 -406 428 0
424 411 0
-424 -411 0
-424 -408 422 0
-424 -409 423 0
-424 -410 425 0
-424 -412 426 0
-424 -413 427 0
-424 -414 428 0
425 418 0
-425 -418 0
-425 -415 422 0
-425 -416 423 0
-425 -417 424 0
-425 -419 426 0
-425 -420 427 0
-425 -421 428 0
426 433 0
-426 -433 0
-426 -429 422 0
-426 -430 423 0
-426 -431 424 0
-426 -432 425 0
-426 -434 427 0
-426 -435 428 0
427 440 0
-427 -440 0
-427 -436 422 0
-427 -437 423 0
-427 -438 424 0
-427 -439 425 0
-427 -441 426 0
-427 -442 428 0
428 447 0
-428 -447 0
-428 -443 422 0
-428 -444 423 0
-428 -445 424 0
-428 -446 425 0
-428 -448 426 0
-428 -449 427 0
454 0
429 403 0
-429 -403 0
-429 -394 430 0
-429 -397 431 0
-429 -399 432 0
-429 -401 433 0
-429 -405 434 0
-429 -407 435 0
430 402 0
-430 -402 0
-430 -395 429 0
-430 -396 431 0
-430 -398 432 0
-430 -400 433 0
-430 -404 434 0
-430 -406 435 0
431 412 0
-431 -412 0
-431 -408 429 0
-431 -409 430 0
-431 -410 432 0
-431 -411 433 0
-431 -413 434 0
-431 -414 435 0
432 419 0
-432 -419 0
-432 -415 429 0
-432 -416 430 0
-432 -417 431 0
-432 -418 433 0
-432 -420 434 0
-432 -421 435 0
433 426 0
-433 -426 0
-433 -422 429 0
-433 -423 430 0
-433 -424 431 0
-433 -425 432 0
-433 -427 434 0
-433 -428 435 0
434 441 0
-434 -441 0
-434 -436 429 0
-434 -437 430 0
-434 -438 431 0
-434 -439 432 0
-434 -440 433 0
-434 -442 435 0
435 448 0
-435 -448 0
-435 -443 429 0
-435 -444 430 0
-435 -445 431 0
-435 -446 432 0
-435 -447 433 0
-435 -449 434 0
455 0
436 405 0
-436 -405 0
-436 -394 437 0
-436 -397 438 0
-436 -399 439 0
-436 -401 440 0
-436 -403 441 0
-436 -407 442 0
437 404 0
-437 -404 0
-437 -395 436 0
-437 -396 438 0
-437 -398 439 0
-437 -400 440 0
-437 -402 441 0
-437 -406 442 0
438 413 0
-438 -413 0
-438 -408 436 0
-438 -409 437 0
-438 -410 439 0
-438 -411 440 0
-438 -412 441 0
-438 -414 442 0
439 420 0
-439 -420 0
-439 -415 436 0
-439 -416 437 0
-439 -417 438 0
-439 -418 440 0
-439 -419 441 0
-439 -421 442 0
440 427 0
-440 -427 0
-440 -422 436 0
-440 -423 437 0
-440 -424 438 0
-440 -425 439 0
-440 -426 441 0
-440 -428 442 0
441 434 0
-441 -434 0
-441 -429 436 0
-441 -430 437 0
-441 -431 438 0
-441 -432 439 0
-441 -433 440 0
-441 -435 442 0
442 449 0
-442 -449 0
-442 -443 436 0
-442 -444 437 0
-442 -445 438 0
-442 -446 439 0
-442 -447 440 0
-442 -448 441 0
456 0
443 407 0
-443 -407 0
-443 -394 444 0
-443 -397 445 0
-443 -399 446 0
-443 -401 447 0
-443 -403 448 0
-443 -405 449 0
444 406 0
-444 -406 0
-444 -395 443 0
-444 -396 445 0
-444 -398 446 0
-444 -400 447 0
-444 -402 448 0
-444 -404 449 0
445 414 0
-445 -414 0
-445 -408 443 0
-445 -409 444 0
-445 -410 446 0
-445 -411 447 0
-445 -412 448 0
-445 -413 449 0
446 421 0
-446 -421 0
-446 -415 443 0
-446 -416 444 0
-446 -417 445 0
-446 -418 447 0
-446 -419 448 0
-446 -420 449 0
447 428 0
-447 -428 0
-447 -422 443 0
-447 -423 444 0
-447 -424 445 0
-447 -425 446 0
-447 -426 448 0
-447 -427 449 0
448 435 0
-448 -435 0
-448 -429 443 0
-448 -430 444 0
-448 -431 445 0
-448 -432 446 0
-448 -433 447 0
-448 -434 449 0
449 442 0
-449 -442 0
-449 -436 443 0
-449 -437 444 0
-449 -438 445 0
-449 -439 446 0
-449 -440 447 0
-449 -441 448 0
-202 0
-205 394 0
-457 397 0
-457 409 0
-397 -409 457 0
-458 399 0
-458 416 0
-399 -416 458 0
-459 401 0
-459 423 0
-401 -423 459 0
-460 403 0
-460 430 0
-403 -430 460 0
-461 405 0
-461 437 0
-405 -437 461 0
-462 407 0
-462 444 0
-407 -444 462 0
-205 -457 0
-205 -458 0
-205 -459 0
-205 -460 0
-205 -461 0
-205 -462 0
-394 205 457 458 459 460 461 462 0
-208 397 0
-463 394 0
-463 396 0
-394 -396 463 0
-464 399 0
-464 417 0
-399 -417 464 0
-465 401 0
-465 424 0
-401 -424 465 0
-466 403 0
-466 431 0
-403 -431 466 0
-467 405 0
-467 438 0
-405 -438 467 0
-468 407 0
-468 445 0
-407 -445 468 0
-208 -463 0
-208 -464 0
-208 -465 0
-208 -466 0
-208 -467 0
-208 -468 0
-397 208 463 464 465 466 467 468 0
-211 399 0
-469 394 0
-469 398 0
-394 -398 469 0
-470 397 0
-470 410 0
-397 -410 470 0
-471 401 0
-471 425 0
-401 -425 471 0
-472 403 0
-472 432 0
-403 -432 472 0
-473 405 0
-473 439 0
-405 -439 473 0
-474 407 0
-474 446 0
-407 -446 474 0
-211 -469 0
-211 -470 0
-211 -471 0
-211 -472 0
-211 -473 0
-211 -474 0
-399 211 469 470 471 472 473 474 0
-214 401 0
-475 394 0
-475 400 0
-394 -400 475 0
-476 397 0
-476 411 0
-397 -411 476 0
-477 399 0
-477 418 0
-399 -418 477 0
-478 403 0
-478 433 0
-403 -433 478 0
-479 405 0
-479 440 0
-405 -440 479 0
-480 407 0
-480 447 0
-407 -447 480 0
-214 -475 0
-214 -476 0
-214 -477 0
-214 -478 0
-214 -479 0
-214 -480 0
-401 214 475 476 477 478 479 480 0
-217 403 0
-481 394 0
-481 402 0
-394 -402 481 0
-482 397 0
-482 412 0
-397 -412 482 0
-483 399 0
-483 419 0
-399 -419 483 0
-484 401 0
-484 426 0
-401 -426 484 0
-485 405 0
-485 441 0
-405 -441 485 0
-486 407 0
-486 448 0
-407 -448 486 0
-217 -481 0
-217 -482 0
-217 -483 0
-217 -484 0
-217 -485 0
-217 -486 0
-403 217 481 482 483 484 485 486 0
-220 405 0
-487 394 0
-487 404 0
-394 -404 487 0
-488 397 0
-488 413 0
-397 -413 488 0
-489 399 0
-489 420 0
-399 -420 489 0
-490 401 0
-490 427 0
-401 -427 490 0
-491 403 0
-491 434 0
-403 -434 491 0
-492 407 0
-492 449 0
-407 -449 492 0
-220 -487 0
-220 -488 0
-220 -489 0
-220 -490 0
-220 -491 0
-220 -492 0
-405 220 487 488 489 490 491 492 0
-223 407 0
-493 394 0
-493 406 0
-394 -406 493 0
-494 397 0
-494 414 0
-397 -414 494 0
-495 399 0
-495 421 0
-399 -421 495 0
-496 401 0
-496 428 0
-401 -428 496 0
-497 403 0
-497 435 0
-403 -435 497 0
-498 405 0
-498 442 0
-405 -442 498 0
-223 -493 0
-223 -494 0
-223 -495 0
-223 -496 0
-223 -497 0
-223 -498 0
-407 223 493 494 495 496 497 498 0
-226 395 0
-499 396 0
-499 408 0
-396 -408 499 0
-500 398 0
-500 415 0
-398 -415 500 0
-501 400 0
-501 422 0
-400 -422 501 0
-502 402 0
-502 429 0
-402 -429 502 0
-503 404 0
-503 436 0
-404 -436 503 0
-504 406 0
-504 443 0
-406 -443 504 0
-226 -499 0
-226 -500 0
-226 -501 0
-226 -502 0
-226 -503 0
-226 -504 0
-395 226 499 500 501 502 503 504 0
-229 0
-232 396 0
-505 395 0
-505 397 0
-395 -397 505 0
-506 398 0
-506 417 0
-398 -417 506 0
-507 400 0
-507 424 0
-400 -424 507 0
-508 402 0
-508 431 0
-402 -431 508 0
-509 404 0
-509 438 0
-404 -438 509 0
-510 406 0
-510 445 0
-406 -445 510 0
-232 -505 0
-232 -506 0
-232 -507 0
-232 -508 0
-232 -509 0
-232 -510 0
-396 232 505 506 507 508 509 510 0
-235 398 0
-511 395 0
-511 399 0
-395 -399 511 0
-512 396 0
-512 410 0
-396 -410 512 0
-513 400 0
-513 425 0
-400 -425 513 0
-514 402 0
-514 432 0
-402 -432 514 0
-515 404 0
-515 439 0
-404 -439 515 0
-516 406 0
-516 446 0
-406 -446 516 0
-235 -511 0
-235 -512 0
-235 -513 0
-235 -514 0
-235 -515 0
-235 -516 0
-398 235 511 512 513 514 515 516 0
-238 400 0
-517 395 0
-517 401 0
-395 -401 517 0
-518 396 0
-518 411 0
-396 -411 518 0
-519 398 0
-519 418 0
-398 -418 519 0
-520 402 0
-520 433 0
-402 -433 520 0
-521 404 0
-521 440 0
-404 -440 521 0
-522 406 0
-522 447 0
-406 -447 522 0
-238 -517 0
-238 -518 0
-238 -519 0
-238 -520 0
-238 -521 0
-238 -522 0
-400 238 517 518 519 520 521 522 0
-241 402 0
-523 395 0
-523 403 0
-395 -403 523 0
-524 396 0
-524 412 0
-396 -412 524 0
-525 398 0
-525 419 0
-398 -419 525 0
-526 400 0
-526 426 0
-400 -426 526 0
-527 404 0
-527 441 0
-404 -441 527 0
-528 406 0
-528 448 0
-406 -448 528 0
-241 -523 0
-241 -524 0
-241 -525 0
-241 -526 0
-241 -527 0
-241 -528 0
-402 241 523 524 525 526 527 528 0
-244 404 0
-529 395 0
-529 405 0
-395 -405 529 0
-530 396 0
-530 413 0
-396 -413 530 0
-531 398 0
-531 420 0
-398 -420 531 0
-532 400 0
-532 427 0
-400 -427 532 0
-533 402 0
-533 434 0
-402 -434 533 0
-534 406 0
-534 449 0
-406 -449 534 0
-244 -529 0
-244 -530 0
-244 -531 0
-244 -532 0
-244 -533 0
-244 -534 0
-404 244 529 530 531 532 533 534 0
-247 406 0
-535 395 0
-535 407 0
-395 -407 535 0
-536 396 0
-536 414 0
-396 -414 536 0
-537 398 0
-537 421 0
-398 -421 537 0
-538 400 0
-538 428 0
-400 -428 538 0
-539 402 0
-539 435 0
-402 -435 539 0
-540 404 0
-540 442 0
-404 -442 540 0
-247 -535 0
-247 -536 0
-247 -537 0
-247 -538 0
-247 -539 0
-247 -540 0
-406 247 535 536 537 538 539 540 0
-250 408 0
-541 409 0
-541 395 0
-409 -395 541 0
-542 410 0
-542 415 0
-410 -415 542 0
-543 411 0
-543 422 0
-411 -422 543 0
-544 412 0
-544 429 0
-412 -429 544 0
-545 413 0
-545 436 0
-413 -436 545 0
-546 414 0
-546 443 0
-414 -443 546 0
-250 -541 0
-250 -542 0
-250 -543 0
-250 -544 0
-250 -545 0
-250 -546 0
-408 250 541 542 543 544 545 546 0
-253 409 0
-547 408 0
-547 394 0
-408 -394 547 0
-548 410 0
-548 416 0
-410 -416 548 0
-549 411 0
-549 423 0
-411 -423 549 0
-550 412 0
-550 430 0
-412 -430 550 0
-551 413 0
-551 437 0
-413 -437 551 0
-552 414 0
-552 444 0
-414 -444 552 0
-253 -547 0
-253 -548 0
-253 -549 0
-253 -550 0
-253 -551 0
-253 -552 0
-409 253 547 548 549 550 551 552 0
-256 0
-259 410 0
-553 408 0
-553 399 0
-408 -399 553 0
-554 409 0
-554 398 0
-409 -398 554 0
-555 411 0
-555 425 0
-411 -425 555 0
-556 412 0
-556 432 0
-412 -432 556 0
-557 413 0
-557 439 0
-413 -439 557 0
-558 414 0
-558 446 0
-414 -446 558 0
-259 -553 0
-259 -554 0
-259 -555 0
-259 -556 0
-259 -557 0
-259 -558 0
-410 259 553 554 555 556 557 558 0
-262 411 0
-559 408 0
-559 401 0
-408 -401 559 0
-560 409 0
-560 400 0
-409 -400 560 0
-561 410 0
-561 418 0
-410 -418 561 0
-562 412 0
-562 433 0
-412 -433 562 0
-563 413 0
-563 440 0
-413 -440 563 0
-564 414 0
-564 447 0
-414 -447 564 0
-262 -559 0
-262 -560 0
-262 -561 0
-262 -562 0
-262 -563 0
-262 -564 0
-411 262 559 560 561 562 563 564 0
-265 412 0
-565 408 0
-565 403 0
-408 -403 565 0
-566 409 0
-566 402 0
-409 -402 566 0
-567 410 0
-567 419 0
-410 -419 567 0
-568 411 0
-568 426 0
-411 -426 568 0
-569 413 0
-569 441 0
-413 -441 569 0
-570 414 0
-570 448 0
-414 -448 570 0
-265 -565 0
-265 -566 0
-265 -567 0
-265 -568 0
-265 -569 0
-265 -570 0
-412 265 565 566 567 568 569 570 0
-268 413 0
-571 408 0
-571 405 0
-408 -405 571 0
-572 409 0
-572 404 0
-409 -404 572 0
-573 410 0
-573 420 0
-410 -420 573 0
-574 411 0
-574 427 0
-411 -427 574 0
-575 412 0
-575 434 0
-412 -434 575 0
-576 414 0
-576 449 0
-414 -449 576 0
-268 -571 0
-268 -572 0
-268 -573 0
-268 -574 0
-268 -575 0
-268 -576 0
-413 268 571 572 573 574 575 576 0
-271 414 0
-577 408 0
-577 407 0
-408 -407 577 0
-578 409 0
-578 406 0
-409 -406 578 0
-579 410 0
-579 421 0
-410 -421 579 0
-580 411 0
-580 428 0
-411 -428 580 0
-581 412 0
-581 435 0
-412 -435 581 0
-582 413 0
-582 442 0
-413 -442 582 0
-271 -577 0
-271 -578 0
-271 -579 0
-271 -580 0
-271 -581 0
-271 -582 0
-414 271 577 578 579 580 581 582 0
-274 415 0
-583 416 0
-583 395 0
-416 -395 583 0
-584 417 0
-584 408 0
-417 -408 584 0
-585 418 0
-585 422 0
-418 -422 585 0
-586 419 0
-586 429 0
-419 -429 586 0
-587 420 0
-587 436 0
-420 -436 587 0
-588 421 0
-588 443 0
-421 -443 588 0
-274 -583 0
-274 -584 0
-274 -585 0
-274 -586 0
-274 -587 0
-274 -588 0
-415 274 583 584 585 586 587 588 0
-277 416 0
-589 415 0
-589 394 0
-415 -394 589 0
-590 417 0
-590 409 0
-417 -409 590 0
-591 418 0
-591 423 0
-418 -423 591 0
-592 419 0
-592 430 0
-419 -430 592 0
-593 420 0
-593 437 0
-420 -437 593 0
-594 421 0
-594 444 0
-421 -444 594 0
-277 -589 0
-277 -590 0
-277 -591 0
-277 -592 0
-277 -593 0
-277 -594 0
-416 277 589 590 591 592 593 594 0
-280 417 0
-595 415 0
-595 397 0
-415 -397 595 0
-596 416 0
-596 396 0
-416 -396 596 0
-597 418 0
-597 424 0
-418 -424 597 0
-598 419 0
-598 431 0
-419 -431 598 0
-599 420 0
-599 438 0
-420 -438 599 0
-600 421 0
-600 445 0
-421 -445 600 0
-280 -595 0
-280 -596 0
-280 -597 0
-280 -598 0
-280 -599 0
-280 -600 0
-417 280 595 596 597 598 599 600 0
-283 0
-286 418 0
-601 415 0
-601 401 0
-415 -401 601 0
-602 416 0
-602 400 0
-416 -400 602 0
-603 417 0
-603 411 0
-417 -411 603 0
-604 419 0
-604 433 0
-419 -433 604 0
-605 420 0
-605 440 0
-420 -440 605 0
-606 421 0
-606 447 0
-421 -447 606 0
-286 -601 0
-286 -602 0
-286 -603 0
-286 -604 0
-286 -605 0
-286 -606 0
-418 286 601 602 603 604 605 606 0
-289 419 0
-607 415 0
-607 403 0
-415 -403 607 0
-608 416 0
-608 402 0
-416 -402 608 0
-609 417 0
-609 412 0
-417 -412 609 0
-610 418 0
-610 426 0
-418 -426 610 0
-611 420 0
-611 441 0
-420 -441 611 0
-612 421 0
-612 448 0
-421 -448 612 0
-289 -607 0
-289 -608 0
-289 -609 0
-289 -610 0
-289 -611 0
-289 -612 0
-419 289 607 608 609 610 611 612 0
-292 420 0
-613 415 0
-613 405 0
-415 -405 613 0
-614 416 0
-614 404 0
-416 -404 614 0
-615 417 0
-615 413 0
-417 -413 615 0
-616 418 0
-616 427 0
-418 -427 616 0
-617 419 0
-617 434 0
-419 -434 617 0
-618 421 0
-618 449 0
-421 -449 618 0
-292 -613 0
-292 -614 0
-292 -615 0
-292 -616 0
-292 -617 0
-292 -618 0
-420 292 613 614 615 616 617 618 0
-295 421 0
-619 415 0
-619 407 0
-415 -407 619 0
-620 416 0
-620 406 0
-416 -406 620 0
-621 417 0
-621 414 0
-417 -414 621 0
-622 418 0
-622 428 0
-418 -428 622 0
-623 419 0
-623 435 0
-419 -435 623 0
-624 420 0
-624 442 0
-420 -442 624 0
-295 -619 0
-295 -620 0
-295 -621 0
-295 -622 0
-295 -623 0
-295 -624 0
-421 295 619 620 621 622 623 624 0
-298 422 0
-625 423 0
-625 395 0
-423 -395 625 0
-626 424 0
-626 408 0
-424 -408 626 0
-627 425 0
-627 415 0
-425 -415 627 0
-628 426 0
-628 429 0
-426 -429 628 0
-629 427 0
-629 436 0
-427 -436 629 0
-630 428 0
-630 443 0
-428 -443 630 0
-298 -625 0
-298 -626 0
-298 -627 0
-298 -628 0
-298 -629 0
-298 -630 0
-422 298 625 626 627 628 629 630 0
-301 423 0
-631 422 0
-631 394 0
-422 -394 631 0
-632 424 0
-632 409 0
-424 -409 632 0
-633 425 0
-633 416 0
-425 -416 633 0
-634 426 0
-634 430 0
-426 -430 634 0
-635 427 0
-635 437 0
-427 -437 635 0
-636 428 0
-636 444 0
-428 -444 636 0
-301 -631 0
-301 -632 0
-301 -633 0
-301 -634 0
-301 -635 0
-301 -636 0
-423 301 631 632 633 634 635 636 0
-304 424 0
-637 422 0
-637 397 0
-422 -397 637 0
-638 423 0
-638 396 0
-423 -396 638 0
-639 425 0
-639 417 0
-425 -417 639 0
-640 426 0
-640 431 0
-426 -431 640 0
-641 427 0
-641 438 0
-427 -438 641 0
-642 428 0
-642 445 0
-428 -445 642 0
-304 -637 0
-304 -638 0
-304 -639 0
-304 -640 0
-304 -641 0
-304 -642 0
-424 304 637 638 639 640 641 642 0
-307 425 0
-643 422 0
-643 399 0
-422 -399 643 0
-644 423 0
-644 398 0
-423 -398 644 0
-645 424 0
-645 410 0
-424 -410 645 0
-646 426 0
-646 432 0
-426 -432 646 0
-647 427 0
-647 439 0
-427 -439 647 0
-648 428 0
-648 446 0
-428 -446 648 0
-307 -643 0
-307 -644 0
-307 -645 0
-307 -646 0
-307 -647 0
-307 -648 0
-425 307 643 644 645 646 647 648 0
-310 0
-313 426 0
-649 422 0
-649 403 0
-422 -403 649 0
-650 423 0
-650 402 0
-423 -402 650 0
-651 424 0
-651 412 0
-424 -412 651 0
-652 425 0
-652 419 0
-425 -419 652 0
-653 427 0
-653 441 0
-427 -441 653 0
-654 428 0
-654 448 0
-428 -448 654 0
-313 -649 0
-313 -650 0
-313 -651 0
-313 -652 0
-313 -653 0
-313 -654 0
-426 313 649 650 651 652 653 654 0
-316 427 0
-655 422 0
-655 405 0
-422 -405 655 0
-656 423 0
-656 404 0
-423 -404 656 0
-657 424 0
-657 413 0
-424 -413 657 0
-658 425 0
-658 420 0
-425 -420 658 0
-659 426 0
-659 434 0
-426 -434 659 0
-660 428 0
-660 449 0
-428 -449 660 0
-316 -655 0
-316 -656 0
-316 -657 0
-316 -658 0
-316 -659 0
-316 -660 0
-427 316 655 656 657 658 659 660 0
-319 428 0
-661 422 0
-661 407 0
-422 -407 661 0
-662 423 0
-662 406 0
-423 -406 662 0
-663 424 0
-663 414 0
-424 -414 663 0
-664 425 0
-664 421 0
-425 -421 664 0
-665 426 0
-665 435 0
-426 -435 665 0
-666 427 0
-666 442 0
-427 -442 666 0
-319 -661 0
-319 -662 0
-319 -663 0
-319 -664 0
-319 -665 0
-319 -666 0
-428 319 661 662 663 664 665 666 0
-322 429 0
-667 430 0
-667 395 0
-430 -395 667 0
-668 431 0
-668 408 0
-431 -408 668 0
-669 432 0
-669 415 0
-432 -415 669 0
-670 433 0
-670 422 0
-433 -422 670 0
-671 434 0
-671 436 0
-434 -436 671 0
-672 435 0
-672 443 0
-435 -443 672 0
-322 -667 0
-322 -668 0
-322 -669 0
-322 -670 0
-322 -671 0
-322 -672 0
-429 322 667 668 669 670 671 672 0
-325 430 0
-673 429 0
-673 394 0
-429 -394 673 0
-674 431 0
-674 409 0
-431 -409 674 0
-675 432 0
-675 416 0
-432 -416 675 0
-676 433 0
-676 423 0
-433 -423 676 0
-677 434 0
-677 437 0
-434 -437 677 0
-678 435 0
-678 444 0
-435 -444 678 0
-325 -673 0
-325 -674 0
-325 -675 0
-325 -676 0
-325 -677 0
-325 -678 0
-430 325 673 674 675 676 677 678 0
-328 431 0
-679 429 0
-679 397 0
-429 -397 679 0
-680 430 0
-680 396 0
-430 -396 680 0
-681 432 0
-681 417 0
-432 -417 681 0
-682 433 0
-682 424 0
-433 -424 682 0
-683 434 0
-683 438 0
-434 -438 683 0
-684 435 0
-684 445 0
-435 -445 684 0
-328 -679 0
-328 -680 0
-328 -681 0
-328 -682 0
-328 -683 0
-328 -684 0
-431 328 679 680 681 682 683 684 0
-331 432 0
-685 429 0
-685 399 0
-429 -399 685 0
-686 430 0
-686 398 0
-430 -398 686 0
-687 431 0
-687 410 0
-431 -410 687 0
-688 433 0
-688 425 0
-433 -425 688 0
-689 434 0
-689 439 0
-434 -439 689 0
-690 435 0
-690 446 0
-435 -446 690 0
-331 -685 0
-331 -686 0
-331 -687 0
-331 -688 0
-331 -689 0
-331 -690 0
-432 331 685 686 687 688 689 690 0
-334 433 0
-691 429 0
-691 401 0
-429 -401 691 0
-692 430 0
-692 400 0
-430 -400 692 0
-693 431 0
-693 411 0
-431 -411 693 0
-694 432 0
-694 418 0
-432 -418 694 0
-695 434 0
-695 440 0
-434 -440 695 0
-696 435 0
-696 447 0
-435 -447 696 0
-334 -691 0
-334 -692 0
-334 -693 0
-334 -694 0
-334 -695 0
-334 -696 0
-433 334 691 692 693 694 695 696 0
-337 0
-340 434 0
-697 429 0
-697 405 0
-429 -405 697 0
-698 430 0
-698 404 0
-430 -404 698 0
-699 431 0
-699 413 0
-431 -413 699 0
-700 432 0
-700 420 0
-432 -420 700 0
-701 433 0
-701 427 0
-433 -427 701 0
-702 435 0
-702 449 0
-435 -449 702 0
-340 -697 0
-340 -698 0
-340 -699 0
-340 -700 0
-340 -701 0
-340 -702 0
-434 340 697 698 699 700 701 702 0
-343 435 0
-703 429 0
-703 407 0
-429 -407 703 0
-704 430 0
-704 406 0
-430 -406 704 0
-705 431 0
-705 414 0
-431 -414 705 0
-706 432 0
-706 421 0
-432 -421 706 0
-707 433 0
-707 428 0
-433 -428 707 0
-708 434 0
-708 442 0
-434 -442 708 0
-343 -703 0
-343 -704 0
-343 -705 0
-343 -706 0
-343 -707 0
-343 -708 0
-435 343 703 704 705 706 707 708 0
-346 436 0
-709 437 0
-709 395 0
-437 -395 709 0
-710 438 0
-710 408 0
-438 -408 710 0
-711 439 0
-711 415 0
-439 -415 711 0
-712 440 0
-712 422 0
-440 -422 712 0
-713 441 0
-713 429 0
-441 -429 713 0
-714 442 0
-714 443 0
-442 -443 714 0
-346 -709 0
-346 -710 0
-346 -711 0
-346 -712 0
-346 -713 0
-346 -714 0
-436 346 709 710 711 712 713 714 0
-349 437 0
-715 436 0
-715 394 0
-436 -394 715 0
-716 438 0
-716 409 0
-438 -409 716 0
-717 439 0
-717 416 0
-439 -416 717 0
-718 440 0
-718 423 0
-440 -423 718 0
-719 441 0
-719 430 0
-441 -430 719 0
-720 442 0
-720 444 0
-442 -444 720 0
-349 -715 0
-349 -716 0
-349 -717 0
-349 -718 0
-349 -719 0
-349 -720 0
-437 349 715 716 717 718 719 720 0
-352 438 0
-721 436 0
-721 397 0
-436 -397 721 0
-722 437 0
-722 396 0
-437 -396 722 0
-723 439 0
-723 417 0
-439 -417 723 0
-724 440 0
-724 424 0
-440 -424 724 0
-725 441 0
-725 431 0
-441 -431 725 0
-726 442 0
-726 445 0
-442 -445 726 0
-352 -721 0
-352 -722 0
-352 -723 0
-352 -724 0
-352 -725 0
-352 -726 0
-438 352 721 722 723 724 725 726 0
-355 439 0
-727 436 0
-727 399 0
-436 -399 727 0
-728 437 0
-728 398 0
-437 -398 728 0
-729 438 0
-729 410 0
-438 -410 729 0
-730 440 0
-730 425 0
-440 -425 730 0
-731 441 0
-731 432 0
-441 -432 731 0
-732 442 0
-732 446 0
-442 -446 732 0
-355 -727 0
-355 -728 0
-355 -729 0
-355 -730 0
-355 -731 0
-355 -732 0
-439 355 727 728 729 730 731 732 0
-358 440 0
-733 436 0
-733 401 0
-436 -401 733 0
-734 437 0
-734 400 0
-437 -400 734 0
-735 438 0
-735 411 0
-438 -411 735 0
-736 439 0
-736 418 0
-439 -418 736 0
-737 441 0
-737 433 0
-441 -433 737 0
-738 442 0
-738 447 0
-442 -447 738 0
-358 -733 0
-358 -734 0
-358 -735 0
-358 -736 0
-358 -737 0
-358 -738 0
-440 358 733 734 735 736 737 738 0
-361 441 0
-739 436 0
-739 403 0
-436 -403 739 0
-740 437 0
-740 402 0
-437 -402 740 0
-741 438 0
-741 412 0
-438 -412 741 0
-742 439 0
-742 419 0
-439 -419 742 0
-743 440 0
-743 426 0
-440 -426 743 0
-744 442 0
-744 448 0
-442 -448 744 0
-361 -739 0
-361 -740 0
-361 -741 0
-361 -742 0
-361 -743 0
-361 -744 0
-441 361 739 740 741 742 743 744 0
-364 0
-367 442 0
-745 436 0
-745 407 0
-436 -407 745 0
-746 437 0
-746 406 0
-437 -406 746 0
-747 438 0
-747 414 0
-438 -414 747 0
-748 439 0
-748 421 0
-439 -421 748 0
-749 440 0
-749 428 0
-440 -428 749 0
-750 441 0
-750 435 0
-441 -435 750 0
-367 -745 0
-367 -746 0
-367 -747 0
-367 -748 0
-367 -749 0
-367 -750 0
-442 367 745 746 747 748 749 750 0
-370 443 0
-751 444 0
-751 395 0
-444 -395 751 0
-752 445 0
-752 408 0
-445 -408 752 0
-753 446 0
-753 415 0
-446 -415 753 0
-754 447 0
-754 422 0
-447 -422 754 0
-755 448 0
-755 429 0
-448 -429 755 0
-756 449 0
-756 436 0
-449 -436 756 0
-370 -751 0
-370 -752 0
-370 -753 0
-370 -754 0
-370 -755 0
-370 -756 0
-443 370 751 752 753 754 755 756 0
-373 444 0
-757 443 0
-757 394 0
-443 -394 757 0
-758 445 0
-758 409 0
-445 -409 758 0
-759 446 0
-759 416 0
-446 -416 759 0
-760 447 0
-760 423 0
-447 -423 760 0
-761 448 0
-761 430 0
-448 -430 761 0
-762 449 0
-762 437 0
-449 -437 762 0
-373 -757 0
-373 -758 0
-373 -759 0
-373 -760 0
-373 -761 0
-373 -762 0
-444 373 757 758 759 760 761 762 0
-376 445 0
-763 443 0
-763 397 0
-443 -397 763 0
-764 444 0
-764 396 0
-444 -396 764 0
-765 446 0
-765 417 0
-446 -417 765 0
-766 447 0
-766 424 0
-447 -424 766 0
-767 448 0
-767 431 0
-448 -431 767 0
-768 449 0
-768 438 0
-449 -438 768 0
-376 -763 0
-376 -764 0
-376 -765 0
-376 -766 0
-376 -767 0
-376 -768 0
-445 376 763 764 765 766 767 768 0
-379 446 0
-769 443 0
-769 399 0
-443 -399 769 0
-770 444 0
-770 398 0
-444 -398 770 0
-771 445 0
-771 410 0
-445 -410 771 0
-772 447 0
-772 425 0
-447 -425 772 0
-773 448 0
-773 432 0
-448 -432 773 0
-774 449 0
-774 439 0
-449 -439 774 0
-379 -769 0
-379 -770 0
-379 -771 0
-379 -772 0
-379 -773 0
-379 -774 0
-446 379 769 770 771 772 773 774 0
-382 447 0
-775 443 0
-775 401 0
-443 -401 775 0
-776 444 0
-776 400 0
-444 -400 776 0
-777 445 0
-777 411 0
-445 -411 777 0
-778 446 0
-778 418 0
-446 -418 778 0
-779 448 0
-779 433 0
-448 -433 779 0
-780 449 0
-780 440 0
-449 -440 780 0
-382 -775 0
-382 -776 0
-382 -777 0
-382 -778 0
-382 -779 0
-382 -780 0
-447 382 775 776 777 778 779 780 0
-385 448 0
-781 443 0
-781 403 0
-443 -403 781 0
-782 444 0
-782 402 0
-444 -402 782 0
-783 445 0
-783 412 0
-445 -412 783 0
-784 446 0
-784 419 0
-446 -419 784 0
-785 447 0
-785 426 0
-447 -426 785 0
-786 449 0
-786 441 0
-449 -441 786 0
-385 -781 0
-385 -782 0
-385 -783 0
-385 -784 0
-385 -785 0
-385 -786 0
-448 385 781 782 783 784 785 786 0
-388 449 0
-787 443 0
-787 405 0
-443 -405 787 0
-788 444 0
-788 404 0
-444 -404 788 0
-789 445 0
-789 413 0
-445 -413 789 0
-790 446 0
-790 420 0
-446 -420 790 0
-791 447 0
-791 427 0
-447 -427 791 0
-792 448 0
-792 434 0
-448 -434 792 0
-388 -787 0
-388 -788 0
-388 -789 0
-388 -790 0
-388 -791 0
-388 -792 0
-449 388 787 788 789 790 791 792 0
-391 0
