p cnf 1080 4617
1 1 -2 0
1 3 -4 0
1 5 -6 0
1 7 -8 0
1 9 -10 0
1 11 -12 0
1 13 -14 0
1 15 -16 0
1 17 -18 0
3 1 -19 0
3 3 -20 0
3 5 -21 0
3 7 -22 0
3 9 -23 0
3 11 -24 0
3 13 -25 0
3 15 -26 0
3 17 -27 0
5 1 -28 0
5 3 -29 0
5 5 -30 0
5 7 -31 0
5 9 -32 0
5 11 -33 0
5 13 -34 0
5 15 -35 0
5 17 -36 0
7 1 -37 0
7 3 -38 0
7 5 -39 0
7 7 -40 0
7 9 -41 0
7 11 -42 0
7 13 -43 0
7 15 -44 0
7 17 -45 0
9 1 -46 0
9 3 -47 0
9 5 -48 0
9 7 -49 0
9 9 -50 0
9 11 -51 0
9 13 -52 0
9 15 -53 0
9 17 -54 0
11 1 -55 0
11 3 -56 0
11 5 -57 0
11 7 -58 0
11 9 -59 0
11 11 -60 0
11 13 -61 0
11 15 -62 0
11 17 -63 0
13 1 -64 0
13 3 -65 0
13 5 -66 0
13 7 -67 0
13 9 -68 0
13 11 -69 0
13 13 -70 0
13 15 -71 0
13 17 -72 0
15 1 -73 0
15 3 -74 0
15 5 -75 0
15 7 -76 0
15 9 -77 0
15 11 -78 0
15 13 -79 0
15 15 -80 0
15 17 -81 0
17 1 -82 0
17 3 -83 0
17 5 -84 0
17 7 -85 0
17 9 -86 0
17 11 -87 0
17 13 -88 0
17 15 -89 0
17 17 -90 0
2 -1 0
4 -1 0
6 -1 0
8 -1 0
10 -1 0
12 -1 0
14 -1 0
16 -1 0
18 -1 0
19 -3 0
20 -3 0
21 -3 0
22 -3 0
23 -3 0
24 -3 0
25 -3 0
26 -3 0
27 -3 0
28 -5 0
29 -5 0
30 -5 0
31 -5 0
32 -5 0
33 -5 0
34 -5 0
35 -5 0
36 -5 0
37 -7 0
38 -7 0
39 -7 0
40 -7 0
41 -7 0
42 -7 0
43 -7 0
44 -7 0
45 -7 0
46 -9 0
47 -9 0
48 -9 0
49 -9 0
50 -9 0
51 -9 0
52 -9 0
53 -9 0
54 -9 0
55 -11 0
56 -11 0
57 -11 0
58 -11 0
59 -11 0
60 -11 0
61 -11 0
62 -11 0
63 -11 0
64 -13 0
65 -13 0
66 -13 0
67 -13 0
68 -13 0
69 -13 0
70 -13 0
71 -13 0
72 -13 0
73 -15 0
74 -15 0
75 -15 0
76 -15 0
77 -15 0
78 -15 0
79 -15 0
80 -15 0
81 -15 0
82 -17 0
83 -17 0
84 -17 0
85 -17 0
86 -17 0
87 -17 0
88 -17 0
89 -17 0
90 -17 0
2 -1 0
4 -3 0
6 -5 0
8 -7 0
10 -9 0
12 -11 0
14 -13 0
16 -15 0
18 -17 0
19 -1 0
20 -3 0
21 -5 0
22 -7 0
23 -9 0
24 -11 0
25 -13 0
26 -15 0
27 -17 0
28 -1 0
29 -3 0
30 -5 0
31 -7 0
32 -9 0
33 -11 0
34 -13 0
35 -15 0
36 -17 0
37 -1 0
38 -3 0
39 -5 0
40 -7 0
41 -9 0
42 -11 0
43 -13 0
44 -15 0
45 -17 0
46 -1 0
47 -3 0
48 -5 0
49 -7 0
50 -9 0
51 -11 0
52 -13 0
53 -15 0
54 -17 0
55 -1 0
56 -3 0
57 -5 0
58 -7 0
59 -9 0
60 -11 0
61 -13 0
62 -15 0
63 -17 0
64 -1 0
65 -3 0
66 -5 0
67 -7 0
68 -9 0
69 -11 0
70 -13 0
71 -15 0
72 -17 0
73 -1 0
74 -3 0
75 -5 0
76 -7 0
77 -9 0
78 -11 0
79 -13 0
80 -15 0
81 -17 0
82 -1 0
83 -3 0
84 -5 0
85 -7 0
86 -9 0
87 -11 0
88 -13 0
89 -15 0
90 -17 0
-1 -1 -91 0
-1 -3 -92 0
-1 -5 -93 0
-1 -7 -94 0
-1 -9 -95 0
-1 -11 -96 0
-1 -13 -97 0
-1 -15 -98 0
-1 -17 -99 0
-3 -1 -100 0
-3 -3 -101 0
-3 -5 -102 0
-3 -7 -103 0
-3 -9 -104 0
-3 -11 -105 0
-3 -13 -106 0
-3 -15 -107 0
-3 -17 -108 0
-5 -1 -109 0
-5 -3 -110 0
-5 -5 -111 0
-5 -7 -112 0
-5 -9 -113 0
-5 -11 -114 0
-5 -13 -115 0
-5 -15 -116 0
-5 -17 -117 0
-7 -1 -118 0
-7 -3 -119 0
-7 -5 -120 0
-7 -7 -121 0
-7 -9 -122 0
-7 -11 -123 0
-7 -13 -124 0
-7 -15 -125 0
-7 -17 -126 0
-9 -1 -127 0
-9 -3 -128 0
-9 -5 -129 0
-9 -7 -130 0
-9 -9 -131 0
-9 -11 -132 0
-9 -13 -133 0
-9 -15 -134 0
-9 -17 -135 0
-11 -1 -136 0
-11 -3 -137 0
-11 -5 -138 0
-11 -7 -139 0
-11 -9 -140 0
-11 -11 -141 0
-11 -13 -142 0
-11 -15 -143 0
-11 -17 -144 0
-13 -1 -145 0
-13 -3 -146 0
-13 -5 -147 0
-13 -7 -148 0
-13 -9 -149 0
-13 -11 -150 0
-13 -13 -151 0
-13 -15 -152 0
-13 -17 -153 0
-15 -1 -154 0
-15 -3 -155 0
-15 -5 -156 0
-15 -7 -157 0
-15 -9 -158 0
-15 -11 -159 0
-15 -13 -160 0
-15 -15 -161 0
-15 -17 -162 0
-17 -1 -163 0
-17 -3 -164 0
-17 -5 -165 0
-17 -7 -166 0
-17 -9 -167 0
-17 -11 -168 0
-17 -13 -169 0
-17 -15 -170 0
-17 -17 -171 0
91 1 0
92 1 0
93 1 0
94 1 0
95 1 0
96 1 0
97 1 0
98 1 0
99 1 0
100 3 0
101 3 0
102 3 0
103 3 0
104 3 0
105 3 0
106 3 0
107 3 0
108 3 0
109 5 0
110 5 0
111 5 0
112 5 0
113 5 0
114 5 0
115 5 0
116 5 0
117 5 0
118 7 0
119 7 0
120 7 0
121 7 0
122 7 0
123 7 0
124 7 0
125 7 0
126 7 0
127 9 0
128 9 0
129 9 0
130 9 0
131 9 0
132 9 0
133 9 0
134 9 0
135 9 0
136 11 0
137 11 0
138 11 0
139 11 0
140 11 0
141 11 0
142 11 0
143 11 0
144 11 0
145 13 0
146 13 0
147 13 0
148 13 0
149 13 0
150 13 0
151 13 0
152 13 0
153 13 0
154 15 0
155 15 0
156 15 0
157 15 0
158 15 0
159 15 0
160 15 0
161 15 0
162 15 0
163 17 0
164 17 0
165 17 0
166 17 0
167 17 0
168 17 0
169 17 0
170 17 0
171 17 0
91 1 0
92 3 0
93 5 0
94 7 0
95 9 0
96 11 0
97 13 0
98 15 0
99 17 0
100 1 0
101 3 0
102 5 0
103 7 0
104 9 0
105 11 0
106 13 0
107 15 0
108 17 0
109 1 0
110 3 0
111 5 0
112 7 0
113 9 0
114 11 0
115 13 0
116 15 0
117 17 0
118 1 0
119 3 0
120 5 0
121 7 0
122 9 0
123 11 0
124 13 0
125 15 0
126 17 0
127 1 0
128 3 0
129 5 0
130 7 0
131 9 0
132 11 0
133 13 0
134 15 0
135 17 0
136 1 0
137 3 0
138 5 0
139 7 0
140 9 0
141 11 0
142 13 0
143 15 0
144 17 0
145 1 0
146 3 0
147 5 0
148 7 0
149 9 0
150 11 0
151 13 0
152 15 0
153 17 0
154 1 0
155 3 0
156 5 0
157 7 0
158 9 0
159 11 0
160 13 0
161 15 0
162 17 0
163 1 0
164 3 0
165 5 0
166 7 0
167 9 0
168 11 0
169 13 0
170 15 0
171 17 0
-2 -91 172 0
-4 -92 173 0
-6 -93 174 0
-8 -94 175 0
-10 -95 176 0
-12 -96 177 0
-14 -97 178 0
-16 -98 179 0
-18 -99 180 0
-19 -100 181 0
-20 -101 182 0
-21 -102 183 0
-22 -103 184 0
-23 -104 185 0
-24 -105 186 0
-25 -106 187 0
-26 -107 188 0
-27 -108 189 0
-28 -109 190 0
-29 -110 191 0
-30 -111 192 0
-31 -112 193 0
-32 -113 194 0
-33 -114 195 0
-34 -115 196 0
-35 -116 197 0
-36 -117 198 0
-37 -118 199 0
-38 -119 200 0
-39 -120 201 0
-40 -121 202 0
-41 -122 203 0
-42 -123 204 0
-43 -124 205 0
-44 -125 206 0
-45 -126 207 0
-46 -127 208 0
-47 -128 209 0
-48 -129 210 0
-49 -130 211 0
-50 -131 212 0
-51 -132 213 0
-52 -133 214 0
-53 -134 215 0
-54 -135 216 0
-55 -136 217 0
-56 -137 218 0
-57 -138 219 0
-58 -139 220 0
-59 -140 221 0
-60 -141 222 0
-61 -142 223 0
-62 -143 224 0
-63 -144 225 0
-64 -145 226 0
-65 -146 227 0
-66 -147 228 0
-67 -148 229 0
-68 -149 230 0
-69 -150 231 0
-70 -151 232 0
-71 -152 233 0
-72 -153 234 0
-73 -154 235 0
-74 -155 236 0
-75 -156 237 0
-76 -157 238 0
-77 -158 239 0
-78 -159 240 0
-79 -160 241 0
-80 -161 242 0
-81 -162 243 0
-82 -163 244 0
-83 -164 245 0
-84 -165 246 0
-85 -166 247 0
-86 -167 248 0
-87 -168 249 0
-88 -169 250 0
-89 -170 251 0
-90 -171 252 0
-172 2 0
-173 4 0
-174 6 0
-175 8 0
-176 10 0
-177 12 0
-178 14 0
-179 16 0
-180 18 0
-181 19 0
-182 20 0
-183 21 0
-184 22 0
-185 23 0
-186 24 0
-187 25 0
-188 26 0
-189 27 0
-190 28 0
-191 29 0
-192 30 0
-193 31 0
-194 32 0
-195 33 0
-196 34 0
-197 35 0
-198 36 0
-199 37 0
-200 38 0
-201 39 0
-202 40 0
-203 41 0
-204 42 0
-205 43 0
-206 44 0
-207 45 0
-208 46 0
-209 47 0
-210 48 0
-211 49 0
-212 50 0
-213 51 0
-214 52 0
-215 53 0
-216 54 0
-217 55 0
-218 56 0
-219 57 0
-220 58 0
-221 59 0
-222 60 0
-223 61 0
-224 62 0
-225 63 0
-226 64 0
-227 65 0
-228 66 0
-229 67 0
-230 68 0
-231 69 0
-232 70 0
-233 71 0
-234 72 0
-235 73 0
-236 74 0
-237 75 0
-238 76 0
-239 77 0
-240 78 0
-241 79 0
-242 80 0
-243 81 0
-244 82 0
-245 83 0
-246 84 0
-247 85 0
-248 86 0
-249 87 0
-250 88 0
-251 89 0
-252 90 0
-172 91 0
-173 92 0
-174 93 0
-175 94 0
-176 95 0
-177 96 0
-178 97 0
-179 98 0
-180 99 0
-181 100 0
-182 101 0
-183 102 0
-184 103 0
-185 104 0
-186 105 0
-187 106 0
-188 107 0
-189 108 0
-190 109 0
-191 110 0
-192 111 0
-193 112 0
-194 113 0
-195 114 0
-196 115 0
-197 116 0
-198 117 0
-199 118 0
-200 119 0
-201 120 0
-202 121 0
-203 122 0
-204 123 0
-205 124 0
-206 125 0
-207 126 0
-208 127 0
-209 128 0
-210 129 0
-211 130 0
-212 131 0
-213 132 0
-214 133 0
-215 134 0
-216 135 0
-217 136 0
-218 137 0
-219 138 0
-220 139 0
-221 140 0
-222 141 0
-223 142 0
-224 143 0
-225 144 0
-226 145 0
-227 146 0
-228 147 0
-229 148 0
-230 149 0
-231 150 0
-232 151 0
-233 152 0
-234 153 0
-235 154 0
-236 155 0
-237 156 0
-238 157 0
-239 158 0
-240 159 0
-241 160 0
-242 161 0
-243 162 0
-244 163 0
-245 164 0
-246 165 0
-247 166 0
-248 167 0
-249 168 0
-250 169 0
-251 170 0
-252 171 0
-253 -254 172 -255 0
-256 -257 173 -258 0
-259 -260 174 -261 0
-262 -263 175 -264 0
-265 -266 176 -267 0
-268 -269 177 -270 0
-271 -272 178 -273 0
-274 -275 179 -276 0
-277 -278 180 -279 0
-280 -281 181 -282 0
-283 -284 182 -285 0
-286 -287 183 -288 0
-289 -290 184 -291 0
-292 -293 185 -294 0
-295 -296 186 -297 0
-298 -299 187 -300 0
-301 -302 188 -303 0
-304 -305 189 -306 0
-307 -308 190 -309 0
-310 -311 191 -312 0
-313 -314 192 -315 0
-316 -317 193 -318 0
-319 -320 194 -321 0
-322 -323 195 -324 0
-325 -326 196 -327 0
-328 -329 197 -330 0
-331 -332 198 -333 0
-334 -335 199 -336 0
-337 -338 200 -339 0
-340 -341 201 -342 0
-343 -344 202 -345 0
-346 -347 203 -348 0
-349 -350 204 -351 0
-352 -353 205 -354 0
-355 -356 206 -357 0
-358 -359 207 -360 0
-361 -362 208 -363 0
-364 -365 209 -366 0
-367 -368 210 -369 0
-370 -371 211 -372 0
-373 -374 212 -375 0
-376 -377 213 -378 0
-379 -380 214 -381 0
-382 -383 215 -384 0
-385 -386 216 -387 0
-388 -389 217 -390 0
-391 -392 218 -393 0
-394 -395 219 -396 0
-397 -398 220 -399 0
-400 -401 221 -402 0
-403 -404 222 -405 0
-406 -407 223 -408 0
-409 -410 224 -411 0
-412 -413 225 -414 0
-415 -416 226 -417 0
-418 -419 227 -420 0
-421 -422 228 -423 0
-424 -425 229 -426 0
-427 -428 230 -429 0
-430 -431 231 -432 0
-433 -434 232 -435 0
-436 -437 233 -438 0
-439 -440 234 -441 0
-442 -443 235 -444 0
-445 -446 236 -447 0
-448 -449 237 -450 0
-451 -452 238 -453 0
-454 -455 239 -456 0
-457 -458 240 -459 0
-460 -461 241 -462 0
-463 -464 242 -465 0
-466 -467 243 -468 0
-469 -470 244 -471 0
-472 -473 245 -474 0
-475 -476 246 -477 0
-478 -479 247 -480 0
-481 -482 248 -483 0
-484 -485 249 -486 0
-487 -488 250 -489 0
-490 -491 251 -492 0
-493 -494 252 -495 0
255 253 0
258 256 0
261 259 0
264 262 0
267 265 0
270 268 0
273 271 0
276 274 0
279 277 0
282 280 0
285 283 0
288 286 0
291 289 0
294 292 0
297 295 0
300 298 0
303 301 0
306 304 0
309 307 0
312 310 0
315 313 0
318 316 0
321 319 0
324 322 0
327 325 0
330 328 0
333 331 0
336 334 0
339 337 0
342 340 0
345 343 0
348 346 0
351 349 0
354 352 0
357 355 0
360 358 0
363 361 0
366 364 0
369 367 0
372 370 0
375 373 0
378 376 0
381 379 0
384 382 0
387 385 0
390 388 0
393 391 0
396 394 0
399 397 0
402 400 0
405 403 0
408 406 0
411 409 0
414 412 0
417 415 0
420 418 0
423 421 0
426 424 0
429 427 0
432 430 0
435 433 0
438 436 0
441 439 0
444 442 0
447 445 0
450 448 0
453 451 0
456 454 0
459 457 0
462 460 0
465 463 0
468 466 0
471 469 0
474 472 0
477 475 0
480 478 0
483 481 0
486 484 0
489 487 0
492 490 0
495 493 0
255 254 0
258 257 0
261 260 0
264 263 0
267 266 0
270 269 0
273 272 0
276 275 0
279 278 0
282 281 0
285 284 0
288 287 0
291 290 0
294 293 0
297 296 0
300 299 0
303 302 0
306 305 0
309 308 0
312 311 0
315 314 0
318 317 0
321 320 0
324 323 0
327 326 0
330 329 0
333 332 0
336 335 0
339 338 0
342 341 0
345 344 0
348 347 0
351 350 0
354 353 0
357 356 0
360 359 0
363 362 0
366 365 0
369 368 0
372 371 0
375 374 0
378 377 0
381 380 0
384 383 0
387 386 0
390 389 0
393 392 0
396 395 0
399 398 0
402 401 0
405 404 0
408 407 0
411 410 0
414 413 0
417 416 0
420 419 0
423 422 0
426 425 0
429 428 0
432 431 0
435 434 0
438 437 0
441 440 0
444 443 0
447 446 0
450 449 0
453 452 0
456 455 0
459 458 0
462 461 0
465 464 0
468 467 0
471 470 0
474 473 0
477 476 0
480 479 0
483 482 0
486 485 0
489 488 0
492 491 0
495 494 0
255 -172 0
258 -173 0
261 -174 0
264 -175 0
267 -176 0
270 -177 0
273 -178 0
276 -179 0
279 -180 0
282 -181 0
285 -182 0
288 -183 0
291 -184 0
294 -185 0
297 -186 0
300 -187 0
303 -188 0
306 -189 0
309 -190 0
312 -191 0
315 -192 0
318 -193 0
321 -194 0
324 -195 0
327 -196 0
330 -197 0
333 -198 0
336 -199 0
339 -200 0
342 -201 0
345 -202 0
348 -203 0
351 -204 0
354 -205 0
357 -206 0
360 -207 0
363 -208 0
366 -209 0
369 -210 0
372 -211 0
375 -212 0
378 -213 0
381 -214 0
384 -215 0
387 -216 0
390 -217 0
393 -218 0
396 -219 0
399 -220 0
402 -221 0
405 -222 0
408 -223 0
411 -224 0
414 -225 0
417 -226 0
420 -227 0
423 -228 0
426 -229 0
429 -230 0
432 -231 0
435 -232 0
438 -233 0
441 -234 0
444 -235 0
447 -236 0
450 -237 0
453 -238 0
456 -239 0
459 -240 0
462 -241 0
465 -242 0
468 -243 0
471 -244 0
474 -245 0
477 -246 0
480 -247 0
483 -248 0
486 -249 0
489 -250 0
492 -251 0
495 -252 0
255 0
258 0
261 0
264 0
267 0
270 0
273 0
276 0
279 0
282 0
285 0
288 0
291 0
294 0
297 0
300 0
303 0
306 0
309 0
312 0
315 0
318 0
321 0
324 0
327 0
330 0
333 0
336 0
339 0
342 0
345 0
348 0
351 0
354 0
357 0
360 0
363 0
366 0
369 0
372 0
375 0
378 0
381 0
384 0
387 0
390 0
393 0
396 0
399 0
402 0
405 0
408 0
411 0
414 0
417 0
420 0
423 0
426 0
429 0
432 0
435 0
438 0
441 0
444 0
447 0
450 0
453 0
456 0
459 0
462 0
465 0
468 0
471 0
474 0
477 0
480 0
483 0
486 0
489 0
492 0
495 0
253 0
256 280 0
-256 -280 0
-256 -286 259 0
-256 -289 262 0
-256 -292 265 0
-256 -295 268 0
-256 -298 271 0
-256 -301 274 0
-256 -304 277 0
259 307 0
-259 -307 0
-259 -310 256 0
-259 -316 262 0
-259 -319 265 0
-259 -322 268 0
-259 -325 271 0
-259 -328 274 0
-259 -331 277 0
262 334 0
-262 -334 0
-262 -337 256 0
-262 -340 259 0
-262 -346 265 0
-262 -349 268 0
-262 -352 271 0
-262 -355 274 0
-262 -358 277 0
265 361 0
-265 -361 0
-265 -364 256 0
-265 -367 259 0
-265 -370 262 0
-265 -376 268 0
-265 -379 271 0
-265 -382 274 0
-265 -385 277 0
268 388 0
-268 -388 0
-268 -391 256 0
-268 -394 259 0
-268 -397 262 0
-268 -400 265 0
-268 -406 271 0
-268 -409 274 0
-268 -412 277 0
271 415 0
-271 -415 0
-271 -418 256 0
-271 -421 259 0
-271 -424 262 0
-271 -427 265 0
-271 -430 268 0
-271 -436 274 0
-271 -439 277 0
274 442 0
-274 -442 0
-274 -445 256 0
-274 -448 259 0
-274 -451 262 0
-274 -454 265 0
-274 -457 268 0
-274 -460 271 0
-274 -466 277 0
277 469 0
-277 -469 0
-277 -472 256 0
-277 -475 259 0
-277 -478 262 0
-277 -481 265 0
-277 -484 268 0
-277 -487 271 0
-277 -490 274 0
283 0
280 256 0
-280 -256 0
-280 -259 286 0
-280 -262 289 0
-280 -265 292 0
-280 -268 295 0
-280 -271 298 0
-280 -274 301 0
-280 -277 304 0
286 310 0
-286 -310 0
-286 -307 280 0
-286 -316 289 0
-286 -319 292 0
-286 -322 295 0
-286 -325 298 0
-286 -328 301 0
-286 -331 304 0
289 337 0
-289 -337 0
-289 -334 280 0
-289 -340 286 0
-289 -346 292 0
-289 -349 295 0
-289 -352 298 0
-289 -355 301 0
-289 -358 304 0
292 364 0
-292 -364 0
-292 -361 280 0
-292 -367 286 0
-292 -370 289 0
-292 -376 295 0
-292 -379 298 0
-292 -382 301 0
-292 -385 304 0
295 391 0
-295 -391 0
-295 -388 280 0
-295 -394 286 0
-295 -397 289 0
-295 -400 292 0
-295 -406 298 0
-295 -409 301 0
-295 -412 304 0
298 418 0
-298 -418 0
-298 -415 280 0
-298 -421 286 0
-298 -424 289 0
-298 -427 292 0
-298 -430 295 0
-298 -436 301 0
-298 -439 304 0
301 445 0
-301 -445 0
-301 -442 280 0
-301 -448 286 0
-301 -451 289 0
-301 -454 292 0
-301 -457 295 0
-301 -460 298 0
-301 -466 304 0
304 472 0
-304 -472 0
-304 -469 280 0
-304 -475 286 0
-304 -478 289 0
-304 -481 292 0
-304 -484 295 0
-304 -487 298 0
-304 -490 301 0
313 0
307 259 0
-307 -259 0
-307 -256 310 0
-307 -262 316 0
-307 -265 319 0
-307 -268 322 0
-307 -271 325 0
-307 -274 328 0
-307 -277 331 0
310 286 0
-310 -286 0
-310 -280 307 0
-310 -289 316 0
-310 -292 319 0
-310 -295 322 0
-310 -298 325 0
-310 -301 328 0
-310 -304 331 0
316 340 0
-316 -340 0
-316 -334 307 0
-316 -337 310 0
-316 -346 319 0
-316 -349 322 0
-316 -352 325 0
-316 -355 328 0
-316 -358 331 0
319 367 0
-319 -367 0
-319 -361 307 0
-319 -364 310 0
-319 -370 316 0
-319 -376 322 0
-319 -379 325 0
-319 -382 328 0
-319 -385 331 0
322 394 0
-322 -394 0
-322 -388 307 0
-322 -391 310 0
-322 -397 316 0
-322 -400 319 0
-322 -406 325 0
-322 -409 328 0
-322 -412 331 0
325 421 0
-325 -421 0
-325 -415 307 0
-325 -418 310 0
-325 -424 316 0
-325 -427 319 0
-325 -430 322 0
-325 -436 328 0
-325 -439 331 0
328 448 0
-328 -448 0
-328 -442 307 0
-328 -445 310 0
-328 -451 316 0
-328 -454 319 0
-328 -457 322 0
-328 -460 325 0
-328 -466 331 0
331 475 0
-331 -475 0
-331 -469 307 0
-331 -472 310 0
-331 -478 316 0
-331 -481 319 0
-331 -484 322 0
-331 -487 325 0
-331 -490 328 0
343 0
334 262 0
-334 -262 0
-334 -256 337 0
-334 -259 340 0
-334 -265 346 0
-334 -268 349 0
-334 -271 352 0
-334 -274 355 0
-334 -277 358 0
337 289 0
-337 -289 0
-337 -280 334 0
-337 -286 340 0
-337 -292 346 0
-337 -295 349 0
-337 -298 352 0
-337 -301 355 0
-337 -304 358 0
340 316 0
-340 -316 0
-340 -307 334 0
-340 -310 337 0
-340 -319 346 0
-340 -322 349 0
-340 -325 352 0
-340 -328 355 0
-340 -331 358 0
346 370 0
-346 -370 0
-346 -361 334 0
-346 -364 337 0
-346 -367 340 0
-346 -376 349 0
-346 -379 352 0
-346 -382 355 0
-346 -385 358 0
349 397 0
-349 -397 0
-349 -388 334 0
-349 -391 337 0
-349 -394 340 0
-349 -400 346 0
-349 -406 352 0
-349 -409 355 0
-349 -412 358 0
352 424 0
-352 -424 0
-352 -415 334 0
-352 -418 337 0
-352 -421 340 0
-352 -427 346 0
-352 -430 349 0
-352 -436 355 0
-352 -439 358 0
355 451 0
-355 -451 0
-355 -442 334 0
-355 -445 337 0
-355 -448 340 0
-355 -454 346 0
-355 -457 349 0
-355 -460 352 0
-355 -466 358 0
358 478 0
-358 -478 0
-358 -469 334 0
-358 -472 337 0
-358 -475 340 0
-358 -481 346 0
-358 -484 349 0
-358 -487 352 0
-358 -490 355 0
373 0
361 265 0
-361 -265 0
-361 -256 364 0
-361 -259 367 0
-361 -262 370 0
-361 -268 376 0
-361 -271 379 0
-361 -274 382 0
-361 -277 385 0
364 292 0
-364 -292 0
-364 -280 361 0
-364 -286 367 0
-364 -289 370 0
-364 -295 376 0
-364 -298 379 0
-364 -301 382 0
-364 -304 385 0
367 319 0
-367 -319 0
-367 -307 361 0
-367 -310 364 0
-367 -316 370 0
-367 -322 376 0
-367 -325 379 0
-367 -328 382 0
-367 -331 385 0
370 346 0
-370 -346 0
-370 -334 361 0
-370 -337 364 0
-370 -340 367 0
-370 -349 376 0
-370 -352 379 0
-370 -355 382 0
-370 -358 385 0
376 400 0
-376 -400 0
-376 -388 361 0
-376 -391 364 0
-376 -394 367 0
-376 -397 370 0
-376 -406 379 0
-376 -409 382 0
-376 -412 385 0
379 427 0
-379 -427 0
-379 -415 361 0
-379 -418 364 0
-379 -421 367 0
-379 -424 370 0
-379 -430 376 0
-379 -436 382 0
-379 -439 385 0
382 454 0
-382 -454 0
-382 -442 361 0
-382 -445 364 0
-382 -448 367 0
-382 -451 370 0
-382 -457 376 0
-382 -460 379 0
-382 -466 385 0
385 481 0
-385 -481 0
-385 -469 361 0
-385 -472 364 0
-385 -475 367 0
-385 -478 370 0
-385 -484 376 0
-385 -487 379 0
-385 -490 382 0
403 0
388 268 0
-388 -268 0
-388 -256 391 0
-388 -259 394 0
-388 -262 397 0
-388 -265 400 0
-388 -271 406 0
-388 -274 409 0
-388 -277 412 0
391 295 0
-391 -295 0
-391 -280 388 0
-391 -286 394 0
-391 -289 397 0
-391 -292 400 0
-391 -298 406 0
-391 -301 409 0
-391 -304 412 0
394 322 0
-394 -322 0
-394 -307 388 0
-394 -310 391 0
-394 -316 397 0
-394 -319 400 0
-394 -325 406 0
-394 -328 409 0
-394 -331 412 0
397 349 0
-397 -349 0
-397 -334 388 0
-397 -337 391 0
-397 -340 394 0
-397 -346 400 0
-397 -352 406 0
-397 -355 409 0
-397 -358 412 0
400 376 0
-400 -376 0
-400 -361 388 0
-400 -364 391 0
-400 -367 394 0
-400 -370 397 0
-400 -379 406 0
-400 -382 409 0
-400 -385 412 0
406 430 0
-406 -430 0
-406 -415 388 0
-406 -418 391 0
-406 -421 394 0
-406 -424 397 0
-406 -427 400 0
-406 -436 409 0
-406 -439 412 0
409 457 0
-409 -457 0
-409 -442 388 0
-409 -445 391 0
-409 -448 394 0
-409 -451 397 0
-409 -454 400 0
-409 -460 406 0
-409 -466 412 0
412 484 0
-412 -484 0
-412 -469 388 0
-412 -472 391 0
-412 -475 394 0
-412 -478 397 0
-412 -481 400 0
-412 -487 406 0
-412 -490 409 0
433 0
415 271 0
-415 -271 0
-415 -256 418 0
-415 -259 421 0
-415 -262 424 0
-415 -265 427 0
-415 -268 430 0
-415 -274 436 0
-415 -277 439 0
418 298 0
-418 -298 0
-418 -280 415 0
-418 -286 421 0
-418 -289 424 0
-418 -292 427 0
-418 -295 430 0
-418 -301 436 0
-418 -304 439 0
421 325 0
-421 -325 0
-421 -307 415 0
-421 -310 418 0
-421 -316 424 0
-421 -319 427 0
-421 -322 430 0
-421 -328 436 0
-421 -331 439 0
424 352 0
-424 -352 0
-424 -334 415 0
-424 -337 418 0
-424 -340 421 0
-424 -346 427 0
-424 -349 430 0
-424 -355 436 0
-424 -358 439 0
427 379 0
-427 -379 0
-427 -361 415 0
-427 -364 418 0
-427 -367 421 0
-427 -370 424 0
-427 -376 430 0
-427 -382 436 0
-427 -385 439 0
430 406 0
-430 -406 0
-430 -388 415 0
-430 -391 418 0
-430 -394 421 0
-430 -397 424 0
-430 -400 427 0
-430 -409 436 0
-430 -412 439 0
436 460 0
-436 -460 0
-436 -442 415 0
-436 -445 418 0
-436 -448 421 0
-436 -451 424 0
-436 -454 427 0
-436 -457 430 0
-436 -466 439 0
439 487 0
-439 -487 0
-439 -469 415 0
-439 -472 418 0
-439 -475 421 0
-439 -478 424 0
-439 -481 427 0
-439 -484 430 0
-439 -490 436 0
463 0
442 274 0
-442 -274 0
-442 -256 445 0
-442 -259 448 0
-442 -262 451 0
-442 -265 454 0
-442 -268 457 0
-442 -271 460 0
-442 -277 466 0
445 301 0
-445 -301 0
-445 -280 442 0
-445 -286 448 0
-445 -289 451 0
-445 -292 454 0
-445 -295 457 0
-445 -298 460 0
-445 -304 466 0
448 328 0
-448 -328 0
-448 -307 442 0
-448 -310 445 0
-448 -316 451 0
-448 -319 454 0
-448 -322 457 0
-448 -325 460 0
-448 -331 466 0
451 355 0
-451 -355 0
-451 -334 442 0
-451 -337 445 0
-451 -340 448 0
-451 -346 454 0
-451 -349 457 0
-451 -352 460 0
-451 -358 466 0
454 382 0
-454 -382 0
-454 -361 442 0
-454 -364 445 0
-454 -367 448 0
-454 -370 451 0
-454 -376 457 0
-454 -379 460 0
-454 -385 466 0
457 409 0
-457 -409 0
-457 -388 442 0
-457 -391 445 0
-457 -394 448 0
-457 -397 451 0
-457 -400 454 0
-457 -406 460 0
-457 -412 466 0
460 436 0
-460 -436 0
-460 -415 442 0
-460 -418 445 0
-460 -421 448 0
-460 -424 451 0
-460 -427 454 0
-460 -430 457 0
-460 -439 466 0
466 490 0
-466 -490 0
-466 -469 442 0
-466 -472 445 0
-466 -475 448 0
-466 -478 451 0
-466 -481 454 0
-466 -484 457 0
-466 -487 460 0
493 0
469 277 0
-469 -277 0
-469 -256 472 0
-469 -259 475 0
-469 -262 478 0
-469 -265 481 0
-469 -268 484 0
-469 -271 487 0
-469 -274 490 0
472 304 0
-472 -304 0
-472 -280 469 0
-472 -286 475 0
-472 -289 478 0
-472 -292 481 0
-472 -295 484 0
-472 -298 487 0
-472 -301 490 0
475 331 0
-475 -331 0
-475 -307 469 0
-475 -310 472 0
-475 -316 478 0
-475 -319 481 0
-475 -322 484 0
-475 -325 487 0
-475 -328 490 0
478 358 0
-478 -358 0
-478 -334 469 0
-478 -337 472 0
-478 -340 475 0
-478 -346 481 0
-478 -349 484 0
-478 -352 487 0
-478 -355 490 0
481 385 0
-481 -385 0
-481 -361 469 0
-481 -364 472 0
-481 -367 475 0
-481 -370 478 0
-481 -376 484 0
-481 -379 487 0
-481 -382 490 0
484 412 0
-484 -412 0
-484 -388 469 0
-484 -391 472 0
-484 -394 475 0
-484 -397 478 0
-484 -400 481 0
-484 -406 487 0
-484 -409 490 0
487 439 0
-487 -439 0
-487 -415 469 0
-487 -418 472 0
-487 -421 475 0
-487 -424 478 0
-487 -427 481 0
-487 -430 484 0
-487 -436 490 0
490 466 0
-490 -466 0
-490 -442 469 0
-490 -445 472 0
-490 -448 475 0
-490 -451 478 0
-490 -454 481 0
-490 -457 484 0
-490 -460 487 0
496 0
497 498 0
-497 -498 0
-497 -499 500 0
-497 -501 502 0
-497 -503 504 0
-497 -505 506 0
-497 -507 508 0
-497 -509 510 0
-497 -511 512 0
500 513 0
-500 -513 0
-500 -514 497 0
-500 -515 502 0
-500 -516 504 0
-500 -517 506 0
-500 -518 508 0
-500 -519 510 0
-500 -520 512 0
502 521 0
-502 -521 0
-502 -522 497 0
-502 -523 500 0
-502 -524 504 0
-502 -525 506 0
-502 -526 508 0
-502 -527 510 0
-502 -528 512 0
504 529 0
-504 -529 0
-504 -530 497 0
-504 -531 500 0
-504 -532 502 0
-504 -533 506 0
-504 -534 508 0
-504 -535 510 0
-504 -536 512 0
506 537 0
-506 -537 0
-506 -538 497 0
-506 -539 500 0
-506 -540 502 0
-506 -541 504 0
-506 -542 508 0
-506 -543 510 0
-506 -544 512 0
508 545 0
-508 -545 0
-508 -546 497 0
-508 -547 500 0
-508 -548 502 0
-508 -549 504 0
-508 -550 506 0
-508 -551 510 0
-508 -552 512 0
510 553 0
-510 -553 0
-510 -554 497 0
-510 -555 500 0
-510 -556 502 0
-510 -557 504 0
-510 -558 506 0
-510 -559 508 0
-510 -560 512 0
512 561 0
-512 -561 0
-512 -562 497 0
-512 -563 500 0
-512 -564 502 0
-512 -565 504 0
-512 -566 506 0
-512 -567 508 0
-512 -568 510 0
569 0
498 497 0
-498 -497 0
-498 -500 499 0
-498 -502 501 0
-498 -504 503 0
-498 -506 505 0
-498 -508 507 0
-498 -510 509 0
-498 -512 511 0
499 514 0
-499 -514 0
-499 -513 498 0
-499 -515 501 0
-499 -516 503 0
-499 -517 505 0
-499 -518 507 0
-499 -519 509 0
-499 -520 511 0
501 522 0
-501 -522 0
-501 -521 498 0
-501 -523 499 0
-501 -524 503 0
-501 -525 505 0
-501 -526 507 0
-501 -527 509 0
-501 -528 511 0
503 530 0
-503 -530 0
-503 -529 498 0
-503 -531 499 0
-503 -532 501 0
-503 -533 505 0
-503 -534 507 0
-503 -535 509 0
-503 -536 511 0
505 538 0
-505 -538 0
-505 -537 498 0
-505 -539 499 0
-505 -540 501 0
-505 -541 503 0
-505 -542 507 0
-505 -543 509 0
-505 -544 511 0
507 546 0
-507 -546 0
-507 -545 498 0
-507 -547 499 0
-507 -548 501 0
-507 -549 503 0
-507 -550 505 0
-507 -551 509 0
-507 -552 511 0
509 554 0
-509 -554 0
-509 -553 498 0
-509 -555 499 0
-509 -556 501 0
-509 -557 503 0
-509 -558 505 0
-509 -559 507 0
-509 -560 511 0
511 562 0
-511 -562 0
-511 -561 498 0
-511 -563 499 0
-511 -564 501 0
-511 -565 503 0
-511 -566 505 0
-511 -567 507 0
-511 -568 509 0
570 0
513 500 0
-513 -500 0
-513 -497 514 0
-513 -502 515 0
-513 -504 516 0
-513 -506 517 0
-513 -508 518 0
-513 -510 519 0
-513 -512 520 0
514 499 0
-514 -499 0
-514 -498 513 0
-514 -501 515 0
-514 -503 516 0
-514 -505 517 0
-514 -507 518 0
-514 -509 519 0
-514 -511 520 0
515 523 0
-515 -523 0
-515 -521 513 0
-515 -522 514 0
-515 -524 516 0
-515 -525 517 0
-515 -526 518 0
-515 -527 519 0
-515 -528 520 0
516 531 0
-516 -531 0
-516 -529 513 0
-516 -530 514 0
-516 -532 515 0
-516 -533 517 0
-516 -534 518 0
-516 -535 519 0
-516 -536 520 0
517 539 0
-517 -539 0
-517 -537 513 0
-517 -538 514 0
-517 -540 515 0
-517 -541 516 0
-517 -542 518 0
-517 -543 519 0
-517 -544 520 0
518 547 0
-518 -547 0
-518 -545 513 0
-518 -546 514 0
-518 -548 515 0
-518 -549 516 0
-518 -550 517 0
-518 -551 519 0
-518 -552 520 0
519 555 0
-519 -555 0
-519 -553 513 0
-519 -554 514 0
-519 -556 515 0
-519 -557 516 0
-519 -558 517 0
-519 -559 518 0
-519 -560 520 0
520 563 0
-520 -563 0
-520 -561 513 0
-520 -562 514 0
-520 -564 515 0
-520 -565 516 0
-520 -566 517 0
-520 -567 518 0
-520 -568 519 0
571 0
521 502 0
-521 -502 0
-521 -497 522 0
-521 -500 523 0
-521 -504 524 0
-521 -506 525 0
-521 -508 526 0
-521 -510 527 0
-521 -512 528 0
522 501 0
-522 -501 0
-522 -498 521 0
-522 -499 523 0
-522 -503 524 0
-522 -505 525 0
-522 -507 526 0
-522 -509 527 0
-522 -511 528 0
523 515 0
-523 -515 0
-523 -513 521 0
-523 -514 522 0
-523 -516 524 0
-523 -517 525 0
-523 -518 526 0
-523 -519 527 0
-523 -520 528 0
524 532 0
-524 -532 0
-524 -529 521 0
-524 -530 522 0
-524 -531 523 0
-524 -533 525 0
-524 -534 526 0
-524 -535 527 0
-524 -536 528 0
525 540 0
-525 -540 0
-525 -537 521 0
-525 -538 522 0
-525 -539 523 0
-525 -541 524 0
-525 -542 526 0
-525 -543 527 0
-525 -544 528 0
526 548 0
-526 -548 0
-526 -545 521 0
-526 -546 522 0
-526 -547 523 0
-526 -549 524 0
-526 -550 525 0
-526 -551 527 0
-526 -552 528 0
527 556 0
-527 -556 0
-527 -553 521 0
-527 -554 522 0
-527 -555 523 0
-527 -557 524 0
-527 -558 525 0
-527 -559 526 0
-527 -560 528 0
528 564 0
-528 -564 0
-528 -561 521 0
-528 -562 522 0
-528 -563 523 0
-528 -565 524 0
-528 -566 525 0
-528 -567 526 0
-528 -568 527 0
572 0
529 504 0
-529 -504 0
-529 -497 530 0
-529 -500 531 0
-529 -502 532 0
-529 -506 533 0
-529 -508 534 0
-529 -510 535 0
-529 -512 536 0
530 503 0
-530 -503 0
-530 -498 529 0
-530 -499 531 0
-530 -501 532 0
-530 -505 533 0
-530 -507 534 0
-530 -509 535 0
-530 -511 536 0
531 516 0
-531 -516 0
-531 -513 529 0
-531 -514 530 0
-531 -515 532 0
-531 -517 533 0
-531 -518 534 0
-531 -519 535 0
-531 -520 536 0
532 524 0
-532 -524 0
-532 -521 529 0
-532 -522 530 0
-532 -523 531 0
-532 -525 533 0
-532 -526 534 0
-532 -527 535 0
-532 -528 536 0
533 541 0
-533 -541 0
-533 -537 529 0
-533 -538 530 0
-533 -539 531 0
-533 -540 532 0
-533 -542 534 0
-533 -543 535 0
-533 -544 536 0
534 549 0
-534 -549 0
-534 -545 529 0
-534 -546 530 0
-534 -547 531 0
-534 -548 532 0
-534 -550 533 0
-534 -551 535 0
-534 -552 536 0
535 557 0
-535 -557 0
-535 -553 529 0
-535 -554 530 0
-535 -555 531 0
-535 -556 532 0
-535 -558 533 0
-535 -559 534 0
-535 -560 536 0
536 565 0
-536 -565 0
-536 -561 529 0
-536 -562 530 0
-536 -563 531 0
-536 -564 532 0
-536 -566 533 0
-536 -567 534 0
-536 -568 535 0
573 0
537 506 0
-537 -506 0
-537 -497 538 0
-537 -500 539 0
-537 -502 540 0
-537 -504 541 0
-537 -508 542 0
-537 -510 543 0
-537 -512 544 0
538 505 0
-538 -505 0
-538 -498 537 0
-538 -499 539 0
-538 -501 540 0
-538 -503 541 0
-538 -507 542 0
-538 -509 543 0
-538 -511 544 0
539 517 0
-539 -517 0
-539 -513 537 0
-539 -514 538 0
-539 -515 540 0
-539 -516 541 0
-539 -518 542 0
-539 -519 543 0
-539 -520 544 0
540 525 0
-540 -525 0
-540 -521 537 0
-540 -522 538 0
-540 -523 539 0
-540 -524 541 0
-540 -526 542 0
-540 -527 543 0
-540 -528 544 0
541 533 0
-541 -533 0
-541 -529 537 0
-541 -530 538 0
-541 -531 539 0
-541 -532 540 0
-541 -534 542 0
-541 -535 543 0
-541 -536 544 0
542 550 0
-542 -550 0
-542 -545 537 0
-542 -546 538 0
-542 -547 539 0
-542 -548 540 0
-542 -549 541 0
-542 -551 543 0
-542 -552 544 0
543 558 0
-543 -558 0
-543 -553 537 0
-543 -554 538 0
-543 -555 539 0
-543 -556 540 0
-543 -557 541 0
-543 -559 542 0
-543 -560 544 0
544 566 0
-544 -566 0
-544 -561 537 0
-544 -562 538 0
-544 -563 539 0
-544 -564 540 0
-544 -565 541 0
-544 -567 542 0
-544 -568 543 0
574 0
545 508 0
-545 -508 0
-545 -497 546 0
-545 -500 547 0
-545 -502 548 0
-545 -504 549 0
-545 -506 550 0
-545 -510 551 0
-545 -512 552 0
546 507 0
-546 -507 0
-546 -498 545 0
-546 -499 547 0
-546 -501 548 0
-546 -503 549 0
-546 -505 550 0
-546 -509 551 0
-546 -511 552 0
547 518 0
-547 -518 0
-547 -513 545 0
-547 -514 546 0
-547 -515 548 0
-547 -516 549 0
-547 -517 550 0
-547 -519 551 0
-547 -520 552 0
548 526 0
-548 -526 0
-548 -521 545 0
-548 -522 546 0
-548 -523 547 0
-548 -524 549 0
-548 -525 550 0
-548 -527 551 0
-548 -528 552 0
549 534 0
-549 -534 0
-549 -529 545 0
-549 -530 546 0
-549 -531 547 0
-549 -532 548 0
-549 -533 550 0
-549 -535 551 0
-549 -536 552 0
550 542 0
-550 -542 0
-550 -537 545 0
-550 -538 546 0
-550 -539 547 0
-550 -540 548 0
-550 -541 549 0
-550 -543 551 0
-550 -544 552 0
551 559 0
-551 -559 0
-551 -553 545 0
-551 -554 546 0
-551 -555 547 0
-551 -556 548 0
-551 -557 549 0
-551 -558 550 0
-551 -560 552 0
552 567 0
-552 -567 0
-552 -561 545 0
-552 -562 546 0
-552 -563 547 0
-552 -564 548 0
-552 -565 549 0
-552 -566 550 0
-552 -568 551 0
575 0
553 510 0
-553 -510 0
-553 -497 554 0
-553 -500 555 0
-553 -502 556 0
-553 -504 557 0
-553 -506 558 0
-553 -508 559 0
-553 -512 560 0
554 509 0
-554 -509 0
-554 -498 553 0
-554 -499 555 0
-554 -501 556 0
-554 -503 557 0
-554 -505 558 0
-554 -507 559 0
-554 -511 560 0
555 519 0
-555 -519 0
-555 -513 553 0
-555 -514 554 0
-555 -515 556 0
-555 -516 557 0
-555 -517 558 0
-555 -518 559 0
-555 -520 560 0
556 527 0
-556 -527 0
-556 -521 553 0
-556 -522 554 0
-556 -523 555 0
-556 -524 557 0
-556 -525 558 0
-556 -526 559 0
-556 -528 560 0
557 535 0
-557 -535 0
-557 -529 553 0
-557 -530 554 0
-557 -531 555 0
-557 -532 556 0
-557 -533 558 0
-557 -534 559 0
-557 -536 560 0
558 543 0
-558 -543 0
-558 -537 553 0
-558 -538 554 0
-558 -539 555 0
-558 -540 556 0
-558 -541 557 0
-558 -542 559 0
-558 -544 560 0
559 551 0
-559 -551 0
-559 -545 553 0
-559 -546 554 0
-559 -547 555 0
-559 -548 556 0
-559 -549 557 0
-559 -550 558 0
-559 -552 560 0
560 568 0
-560 -568 0
-560 -561 553 0
-560 -562 554 0
-560 -563 555 0
-560 -564 556 0
-560 -565 557 0
-560 -566 558 0
-560 -567 559 0
576 0
561 512 0
-561 -512 0
-561 -497 562 0
-561 -500 563 0
-561 -502 564 0
-561 -504 565 0
-561 -506 566 0
-561 -508 567 0
-561 -510 568 0
562 511 0
-562 -511 0
-562 -498 561 0
-562 -499 563 0
-562 -501 564 0
-562 -503 565 0
-562 -505 566 0
-562 -507 567 0
-562 -509 568 0
563 520 0
-563 -520 0
-563 -513 561 0
-563 -514 562 0
-563 -515 564 0
-563 -516 565 0
-563 -517 566 0
-563 -518 567 0
-563 -519 568 0
564 528 0
-564 -528 0
-564 -521 561 0
-564 -522 562 0
-564 -523 563 0
-564 -524 565 0
-564 -525 566 0
-564 -526 567 0
-564 -527 568 0
565 536 0
-565 -536 0
-565 -529 561 0
-565 -530 562 0
-565 -531 563 0
-565 -532 564 0
-565 -533 566 0
-565 -534 567 0
-565 -535 568 0
566 544 0
-566 -544 0
-566 -537 561 0
-566 -538 562 0
-566 -539 563 0
-566 -540 564 0
-566 -541 565 0
-566 -542 567 0
-566 -543 568 0
567 552 0
-567 -552 0
-567 -545 561 0
-567 -546 562 0
-567 -547 563 0
-567 -548 564 0
-567 -549 565 0
-567 -550 566 0
-567 -551 568 0
568 560 0
-568 -560 0
-568 -553 561 0
-568 -554 562 0
-568 -555 563 0
-568 -556 564 0
-568 -557 565 0
-568 -558 566 0
-568 -559 567 0
-254 0
-257 497 0
-577 500 0
-577 514 0
-500 -514 577 0
-578 502 0
-578 522 0
-502 -522 578 0
-579 504 0
-579 530 0
-504 -530 579 0
-580 506 0
-580 538 0
-506 -538 580 0
-581 508 0
-581 546 0
-508 -546 581 0
-582 510 0
-582 554 0
-510 -554 582 0
-583 512 0
-583 562 0
-512 -562 583 0
-257 -577 0
-257 -578 0
-257 -579 0
-257 -580 0
-257 -581 0
-257 -582 0
-257 -583 0
-497 257 577 578 579 580 581 582 583 0
-260 500 0
-584 497 0
-584 499 0
-497 -499 584 0
-585 502 0
-585 523 0
-502 -523 585 0
-586 504 0
-586 531 0
-504 -531 586 0
-587 506 0
-587 539 0
-506 -539 587 0
-588 508 0
-588 547 0
-508 -547 588 0
-589 510 0
-589 555 0
-510 -555 589 0
-590 512 0
-590 563 0
-512 -563 590 0
-260 -584 0
-260 -585 0
-260 -586 0
-260 -587 0
-260 -588 0
-260 -589 0
-260 -590 0
-500 260 584 585 586 587 588 589 590 0
-263 502 0
-591 497 0
-591 501 0
-497 -501 591 0
-592 500 0
-592 515 0
-500 -515 592 0
-593 504 0
-593 532 0
-504 -532 593 0
-594 506 0
-594 540 0
-506 -540 594 0
-595 508 0
-595 548 0
-508 -548 595 0
-596 510 0
-596 556 0
-510 -556 596 0
-597 512 0
-597 564 0
-512 -564 597 0
-263 -591 0
-263 -592 0
-263 -593 0
-263 -594 0
-263 -595 0
-263 -596 0
-263 -597 0
-502 263 591 592 593 594 595 596 597 0
-266 504 0
-598 497 0
-598 503 0
-497 -503 598 0
-599 500 0
-599 516 0
-500 -516 599 0
-600 502 0
-600 524 0
-502 -524 600 0
-601 506 0
-601 541 0
-506 -541 601 0
-602 508 0
-602 549 0
-508 -549 602 0
-603 510 0
-603 557 0
-510 -557 603 0
-604 512 0
-604 565 0
-512 -565 604 0
-266 -598 0
-266 -599 0
-266 -600 0
-266 -601 0
-266 -602 0
-266 -603 0
-266 -604 0
-504 266 598 599 600 601 602 603 604 0
-269 506 0
-605 497 0
-605 505 0
-497 -505 605 0
-606 500 0
-606 517 0
-500 -517 606 0
-607 502 0
-607 525 0
-502 -525 607 0
-608 504 0
-608 533 0
-504 -533 608 0
-609 508 0
-609 550 0
-508 -550 609 0
-610 510 0
-610 558 0
-510 -558 610 0
-611 512 0
-611 566 0
-512 -566 611 0
-269 -605 0
-269 -606 0
-269 -607 0
-269 -608 0
-269 -609 0
-269 -610 0
-269 -611 0
-506 269 605 606 607 608 609 610 611 0
-272 508 0
-612 497 0
-612 507 0
-497 -507 612 0
-613 500 0
-613 518 0
-500 -518 613 0
-614 502 0
-614 526 0
-502 -526 614 0
-615 504 0
-615 534 0
-504 -534 615 0
-616 506 0
-616 542 0
-506 -542 616 0
-617 510 0
-617 559 0
-510 -559 617 0
-618 512 0
-618 567 0
-512 -567 618 0
-272 -612 0
-272 -613 0
-272 -614 0
-272 -615 0
-272 -616 0
-272 -617 0
-272 -618 0
-508 272 612 613 614 615 616 617 618 0
-275 510 0
-619 497 0
-619 509 0
-497 -509 619 0
-620 500 0
-620 519 0
-500 -519 620 0
-621 502 0
-621 527 0
-502 -527 621 0
-622 504 0
-622 535 0
-504 -535 622 0
-623 506 0
-623 543 0
-506 -543 623 0
-624 508 0
-624 551 0
-508 -551 624 0
-625 512 0
-625 568 0
-512 -568 625 0
-275 -619 0
-275 -620 0
-275 -621 0
-275 -622 0
-275 -623 0
-275 -624 0
-275 -625 0
-510 275 619 620 621 622 623 624 625 0
-278 512 0
-626 497 0
-626 511 0
-497 -511 626 0
-627 500 0
-627 520 0
-500 -520 627 0
-628 502 0
-628 528 0
-502 -528 628 0
-629 504 0
-629 536 0
-504 -536 629 0
-630 506 0
-630 544 0
-506 -544 630 0
-631 508 0
-631 552 0
-508 -552 631 0
-632 510 0
-632 560 0
-510 -560 632 0
-278 -626 0
-278 -627 0
-278 -628 0
-278 -629 0
-278 -630 0
-278 -631 0
-278 -632 0
-512 278 626 627 628 629 630 631 632 0
-281 498 0
-633 499 0
-633 513 0
-499 -513 633 0
-634 501 0
-634 521 0
-501 -521 634 0
-635 503 0
-635 529 0
-503 -529 635 0
-636 505 0
-636 537 0
-505 -537 636 0
-637 507 0
-637 545 0
-507 -545 637 0
-638 509 0
-638 553 0
-509 -553 638 0
-639 511 0
-639 561 0
-511 -561 639 0
-281 -633 0
-281 -634 0
-281 -635 0
-281 -636 0
-281 -637 0
-281 -638 0
-281 -639 0
-498 281 633 634 635 636 637 638 639 0
-284 0
-287 499 0
-640 498 0
-640 500 0
-498 -500 640 0
-641 501 0
-641 523 0
-501 -523 641 0
-642 503 0
-642 531 0
-503 -531 642 0
-643 505 0
-643 539 0
-505 -539 643 0
-644 507 0
-644 547 0
-507 -547 644 0
-645 509 0
-645 555 0
-509 -555 645 0
-646 511 0
-646 563 0
-511 -563 646 0
-287 -640 0
-287 -641 0
-287 -642 0
-287 -643 0
-287 -644 0
-287 -645 0
-287 -646 0
-499 287 640 641 642 643 644 645 646 0
-290 501 0
-647 498 0
-647 502 0
-498 -502 647 0
-648 499 0
-648 515 0
-499 -515 648 0
-649 503 0
-649 532 0
-503 -532 649 0
-650 505 0
-650 540 0
-505 -540 650 0
-651 507 0
-651 548 0
-507 -548 651 0
-652 509 0
-652 556 0
-509 -556 652 0
-653 511 0
-653 564 0
-511 -564 653 0
-290 -647 0
-290 -648 0
-290 -649 0
-290 -650 0
-290 -651 0
-290 -652 0
-290 -653 0
-501 290 647 648 649 650 651 652 653 0
-293 503 0
-654 498 0
-654 504 0
-498 -504 654 0
-655 499 0
-655 516 0
-499 -516 655 0
-656 501 0
-656 524 0
-501 -524 656 0
-657 505 0
-657 541 0
-505 -541 657 0
-658 507 0
-658 549 0
-507 -549 658 0
-659 509 0
-659 557 0
-509 -557 659 0
-660 511 0
-660 565 0
-511 -565 660 0
-293 -654 0
-293 -655 0
-293 -656 0
-293 -657 0
-293 -658 0
-293 -659 0
-293 -660 0
-503 293 654 655 656 657 658 659 660 0
-296 505 0
-661 498 0
-661 506 0
-498 -506 661 0
-662 499 0
-662 517 0
-499 -517 662 0
-663 501 0
-663 525 0
-501 -525 663 0
-664 503 0
-664 533 0
-503 -533 664 0
-665 507 0
-665 550 0
-507 -550 665 0
-666 509 0
-666 558 0
-509 -558 666 0
-667 511 0
-667 566 0
-511 -566 667 0
-296 -661 0
-296 -662 0
-296 -663 0
-296 -664 0
-296 -665 0
-296 -666 0
-296 -667 0
-505 296 661 662 663 664 665 666 667 0
-299 507 0
-668 498 0
-668 508 0
-498 -508 668 0
-669 499 0
-669 518 0
-499 -518 669 0
-670 501 0
-670 526 0
-501 -526 670 0
-671 503 0
-671 534 0
-503 -534 671 0
-672 505 0
-672 542 0
-505 -542 672 0
-673 509 0
-673 559 0
-509 -559 673 0
-674 511 0
-674 567 0
-511 -567 674 0
-299 -668 0
-299 -669 0
-299 -670 0
-299 -671 0
-299 -672 0
-299 -673 0
-299 -674 0
-507 299 668 669 670 671 672 673 674 0
-302 509 0
-675 498 0
-675 510 0
-498 -510 675 0
-676 499 0
-676 519 0
-499 -519 676 0
-677 501 0
-677 527 0
-501 -527 677 0
-678 503 0
-678 535 0
-503 -535 678 0
-679 505 0
-679 543 0
-505 -543 679 0
-680 507 0
-680 551 0
-507 -551 680 0
-681 511 0
-681 568 0
-511 -568 681 0
-302 -675 0
-302 -676 0
-302 -677 0
-302 -678 0
-302 -679 0
-302 -680 0
-302 -681 0
-509 302 675 676 677 678 679 680 681 0
-305 511 0
-682 498 0
-682 512 0
-498 -512 682 0
-683 499 0
-683 520 0
-499 -520 683 0
-684 501 0
-684 528 0
-501 -528 684 0
-685 503 0
-685 536 0
-503 -536 685 0
-686 505 0
-686 544 0
-505 -544 686 0
-687 507 0
-687 552 0
-507 -552 687 0
-688 509 0
-688 560 0
-509 -560 688 0
-305 -682 0
-305 -683 0
-305 -684 0
-305 -685 0
-305 -686 0
-305 -687 0
-305 -688 0
-511 305 682 683 684 685 686 687 688 0
-308 513 0
-689 514 0
-689 498 0
-514 -498 689 0
-690 515 0
-690 521 0
-515 -521 690 0
-691 516 0
-691 529 0
-516 -529 691 0
-692 517 0
-692 537 0
-517 -537 692 0
-693 518 0
-693 545 0
-518 -545 693 0
-694 519 0
-694 553 0
-519 -553 694 0
-695 520 0
-695 561 0
-520 -561 695 0
-308 -689 0
-308 -690 0
-308 -691 0
-308 -692 0
-308 -693 0
-308 -694 0
-308 -695 0
-513 308 689 690 691 692 693 694 695 0
-311 514 0
-696 513 0
-696 497 0
-513 -497 696 0
-697 515 0
-697 522 0
-515 -522 697 0
-698 516 0
-698 530 0
-516 -530 698 0
-699 517 0
-699 538 0
-517 -538 699 0
-700 518 0
-700 546 0
-518 -546 700 0
-701 519 0
-701 554 0
-519 -554 701 0
-702 520 0
-702 562 0
-520 -562 702 0
-311 -696 0
-311 -697 0
-311 -698 0
-311 -699 0
-311 -700 0
-311 -701 0
-311 -702 0
-514 311 696 697 698 699 700 701 702 0
-314 0
-317 515 0
-703 513 0
-703 502 0
-513 -502 703 0
-704 514 0
-704 501 0
-514 -501 704 0
-705 516 0
-705 532 0
-516 -532 705 0
-706 517 0
-706 540 0
-517 -540 706 0
-707 518 0
-707 548 0
-518 -548 707 0
-708 519 0
-708 556 0
-519 -556 708 0
-709 520 0
-709 564 0
-520 -564 709 0
-317 -703 0
-317 -704 0
-317 -705 0
-317 -706 0
-317 -707 0
-317 -708 0
-317 -709 0
-515 317 703 704 705 706 707 708 709 0
-320 516 0
-710 513 0
-710 504 0
-513 -504 710 0
-711 514 0
-711 503 0
-514 -503 711 0
-712 515 0
-712 524 0
-515 -524 712 0
-713 517 0
-713 541 0
-517 -541 713 0
-714 518 0
-714 549 0
-518 -549 714 0
-715 519 0
-715 557 0
-519 -557 715 0
-716 520 0
-716 565 0
-520 -565 716 0
-320 -710 0
-320 -711 0
-320 -712 0
-320 -713 0
-320 -714 0
-320 -715 0
-320 -716 0
-516 320 710 711 712 713 714 715 716 0
-323 517 0
-717 513 0
-717 506 0
-513 -506 717 0
-718 514 0
-718 505 0
-514 -505 718 0
-719 515 0
-719 525 0
-515 -525 719 0
-720 516 0
-720 533 0
-516 -533 720 0
-721 518 0
-721 550 0
-518 -550 721 0
-722 519 0
-722 558 0
-519 -558 722 0
-723 520 0
-723 566 0
-520 -566 723 0
-323 -717 0
-323 -718 0
-323 -719 0
-323 -720 0
-323 -721 0
-323 -722 0
-323 -723 0
-517 323 717 718 719 720 721 722 723 0
-326 518 0
-724 513 0
-724 508 0
-513 -508 724 0
-725 514 0
-725 507 0
-514 -507 725 0
-726 515 0
-726 526 0
-515 -526 726 0
-727 516 0
-727 534 0
-516 -534 727 0
-728 517 0
-728 542 0
-517 -542 728 0
-729 519 0
-729 559 0
-519 -559 729 0
-730 520 0
-730 567 0
-520 -567 730 0
-326 -724 0
-326 -725 0
-326 -726 0
-326 -727 0
-326 -728 0
-326 -729 0
-326 -730 0
-518 326 724 725 726 727 728 729 730 0
-329 519 0
-731 513 0
-731 510 0
-513 -510 731 0
-732 514 0
-732 509 0
-514 -509 732 0
-733 515 0
-733 527 0
-515 -527 733 0
-734 516 0
-734 535 0
-516 -535 734 0
-735 517 0
-735 543 0
-517 -543 735 0
-736 518 0
-736 551 0
-518 -551 736 0
-737 520 0
-737 568 0
-520 -568 737 0
-329 -731 0
-329 -732 0
-329 -733 0
-329 -734 0
-329 -735 0
-329 -736 0
-329 -737 0
-519 329 731 732 733 734 735 736 737 0
-332 520 0
-738 513 0
-738 512 0
-513 -512 738 0
-739 514 0
-739 511 0
-514 -511 739 0
-740 515 0
-740 528 0
-515 -528 740 0
-741 516 0
-741 536 0
-516 -536 741 0
-742 517 0
-742 544 0
-517 -544 742 0
-743 518 0
-743 552 0
-518 -552 743 0
-744 519 0
-744 560 0
-519 -560 744 0
-332 -738 0
-332 -739 0
-332 -740 0
-332 -741 0
-332 -742 0
-332 -743 0
-332 -744 0
-520 332 738 739 740 741 742 743 744 0
-335 521 0
-745 522 0
-745 498 0
-522 -498 745 0
-746 523 0
-746 513 0
-523 -513 746 0
-747 524 0
-747 529 0
-524 -529 747 0
-748 525 0
-748 537 0
-525 -537 748 0
-749 526 0
-749 545 0
-526 -545 749 0
-750 527 0
-750 553 0
-527 -553 750 0
-751 528 0
-751 561 0
-528 -561 751 0
-335 -745 0
-335 -746 0
-335 -747 0
-335 -748 0
-335 -749 0
-335 -750 0
-335 -751 0
-521 335 745 746 747 748 749 750 751 0
-338 522 0
-752 521 0
-752 497 0
-521 -497 752 0
-753 523 0
-753 514 0
-523 -514 753 0
-754 524 0
-754 530 0
-524 -530 754 0
-755 525 0
-755 538 0
-525 -538 755 0
-756 526 0
-756 546 0
-526 -546 756 0
-757 527 0
-757 554 0
-527 -554 757 0
-758 528 0
-758 562 0
-528 -562 758 0
-338 -752 0
-338 -753 0
-338 -754 0
-338 -755 0
-338 -756 0
-338 -757 0
-338 -758 0
-522 338 752 753 754 755 756 757 758 0
-341 523 0
-759 521 0
-759 500 0
-521 -500 759 0
-760 522 0
-760 499 0
-522 -499 760 0
-761 524 0
-761 531 0
-524 -531 761 0
-762 525 0
-762 539 0
-525 -539 762 0
-763 526 0
-763 547 0
-526 -547 763 0
-764 527 0
-764 555 0
-527 -555 764 0
-765 528 0
-765 563 0
-528 -563 765 0
-341 -759 0
-341 -760 0
-341 -761 0
-341 -762 0
-341 -763 0
-341 -764 0
-341 -765 0
-523 341 759 760 761 762 763 764 765 0
-344 0
-347 524 0
-766 521 0
-766 504 0
-521 -504 766 0
-767 522 0
-767 503 0
-522 -503 767 0
-768 523 0
-768 516 0
-523 -516 768 0
-769 525 0
-769 541 0
-525 -541 769 0
-770 526 0
-770 549 0
-526 -549 770 0
-771 527 0
-771 557 0
-527 -557 771 0
-772 528 0
-772 565 0
-528 -565 772 0
-347 -766 0
-347 -767 0
-347 -768 0
-347 -769 0
-347 -770 0
-347 -771 0
-347 -772 0
-524 347 766 767 768 769 770 771 772 0
-350 525 0
-773 521 0
-773 506 0
-521 -506 773 0
-774 522 0
-774 505 0
-522 -505 774 0
-775 523 0
-775 517 0
-523 -517 775 0
-776 524 0
-776 533 0
-524 -533 776 0
-777 526 0
-777 550 0
-526 -550 777 0
-778 527 0
-778 558 0
-527 -558 778 0
-779 528 0
-779 566 0
-528 -566 779 0
-350 -773 0
-350 -774 0
-350 -775 0
-350 -776 0
-350 -777 0
-350 -778 0
-350 -779 0
-525 350 773 774 775 776 777 778 779 0
-353 526 0
-780 521 0
-780 508 0
-521 -508 780 0
-781 522 0
-781 507 0
-522 -507 781 0
-782 523 0
-782 518 0
-523 -518 782 0
-783 524 0
-783 534 0
-524 -534 783 0
-784 525 0
-784 542 0
-525 -542 784 0
-785 527 0
-785 559 0
-527 -559 785 0
-786 528 0
-786 567 0
-528 -567 786 0
-353 -780 0
-353 -781 0
-353 -782 0
-353 -783 0
-353 -784 0
-353 -785 0
-353 -786 0
-526 353 780 781 782 783 784 785 786 0
-356 527 0
-787 521 0
-787 510 0
-521 -510 787 0
-788 522 0
-788 509 0
-522 -509 788 0
-789 523 0
-789 519 0
-523 -519 789 0
-790 524 0
-790 535 0
-524 -535 790 0
-791 525 0
-791 543 0
-525 -543 791 0
-792 526 0
-792 551 0
-526 -551 792 0
-793 528 0
-793 568 0
-528 -568 793 0
-356 -787 0
-356 -788 0
-356 -789 0
-356 -790 0
-356 -791 0
-356 -792 0
-356 -793 0
-527 356 787 788 789 790 791 792 793 0
-359 528 0
-794 521 0
-794 512 0
-521 -512 794 0
-795 522 0
-795 511 0
-522 -511 795 0
-796 523 0
-796 520 0
-523 -520 796 0
-797 524 0
-797 536 0
-524 -536 797 0
-798 525 0
-798 544 0
-525 -544 798 0
-799 526 0
-799 552 0
-526 -552 799 0
-800 527 0
-800 560 0
-527 -560 800 0
-359 -794 0
-359 -795 0
-359 -796 0
-359 -797 0
-359 -798 0
-359 -799 0
-359 -800 0
-528 359 794 795 796 797 798 799 800 0
-362 529 0
-801 530 0
-801 498 0
-530 -498 801 0
-802 531 0
-802 513 0
-531 -513 802 0
-803 532 0
-803 521 0
-532 -521 803 0
-804 533 0
-804 537 0
-533 -537 804 0
-805 534 0
-805 545 0
-534 -545 805 0
-806 535 0
-806 553 0
-535 -553 806 0
-807 536 0
-807 561 0
-536 -561 807 0
-362 -801 0
-362 -802 0
-362 -803 0
-362 -804 0
-362 -805 0
-362 -806 0
-362 -807 0
-529 362 801 802 803 804 805 806 807 0
-365 530 0
-808 529 0
-808 497 0
-529 -497 808 0
-809 531 0
-809 514 0
-531 -514 809 0
-810 532 0
-810 522 0
-532 -522 810 0
-811 533 0
-811 538 0
-533 -538 811 0
-812 534 0
-812 546 0
-534 -546 812 0
-813 535 0
-813 554 0
-535 -554 813 0
-814 536 0
-814 562 0
-536 -562 814 0
-365 -808 0
-365 -809 0
-365 -810 0
-365 -811 0
-365 -812 0
-365 -813 0
-365 -814 0
-530 365 808 809 810 811 812 813 814 0
-368 531 0
-815 529 0
-815 500 0
-529 -500 815 0
-816 530 0
-816 499 0
-530 -499 816 0
-817 532 0
-817 523 0
-532 -523 817 0
-818 533 0
-818 539 0
-533 -539 818 0
-819 534 0
-819 547 0
-534 -547 819 0
-820 535 0
-820 555 0
-535 -555 820 0
-821 536 0
-821 563 0
-536 -563 821 0
-368 -815 0
-368 -816 0
-368 -817 0
-368 -818 0
-368 -819 0
-368 -820 0
-368 -821 0
-531 368 815 816 817 818 819 820 821 0
-371 532 0
-822 529 0
-822 502 0
-529 -502 822 0
-823 530 0
-823 501 0
-530 -501 823 0
-824 531 0
-824 515 0
-531 -515 824 0
-825 533 0
-825 540 0
-533 -540 825 0
-826 534 0
-826 548 0
-534 -548 826 0
-827 535 0
-827 556 0
-535 -556 827 0
-828 536 0
-828 564 0
-536 -564 828 0
-371 -822 0
-371 -823 0
-371 -824 0
-371 -825 0
-371 -826 0
-371 -827 0
-371 -828 0
-532 371 822 823 824 825 826 827 828 0
-374 0
-377 533 0
-829 529 0
-829 506 0
-529 -506 829 0
-830 530 0
-830 505 0
-530 -505 830 0
-831 531 0
-831 517 0
-531 -517 831 0
-832 532 0
-832 525 0
-532 -525 832 0
-833 534 0
-833 550 0
-534 -550 833 0
-834 535 0
-834 558 0
-535 -558 834 0
-835 536 0
-835 566 0
-536 -566 835 0
-377 -829 0
-377 -830 0
-377 -831 0
-377 -832 0
-377 -833 0
-377 -834 0
-377 -835 0
-533 377 829 830 831 832 833 834 835 0
-380 534 0
-836 529 0
-836 508 0
-529 -508 836 0
-837 530 0
-837 507 0
-530 -507 837 0
-838 531 0
-838 518 0
-531 -518 838 0
-839 532 0
-839 526 0
-532 -526 839 0
-840 533 0
-840 542 0
-533 -542 840 0
-841 535 0
-841 559 0
-535 -559 841 0
-842 536 0
-842 567 0
-536 -567 842 0
-380 -836 0
-380 -837 0
-380 -838 0
-380 -839 0
-380 -840 0
-380 -841 0
-380 -842 0
-534 380 836 837 838 839 840 841 842 0
-383 535 0
-843 529 0
-843 510 0
-529 -510 843 0
-844 530 0
-844 509 0
-530 -509 844 0
-845 531 0
-845 519 0
-531 -519 845 0
-846 532 0
-846 527 0
-532 -527 846 0
-847 533 0
-847 543 0
-533 -543 847 0
-848 534 0
-848 551 0
-534 -551 848 0
-849 536 0
-849 568 0
-536 -568 849 0
-383 -843 0
-383 -844 0
-383 -845 0
-383 -846 0
-383 -847 0
-383 -848 0
-383 -849 0
-535 383 843 844 845 846 847 848 849 0
-386 536 0
-850 529 0
-850 512 0
-529 -512 850 0
-851 530 0
-851 511 0
-530 -511 851 0
-852 531 0
-852 520 0
-531 -520 852 0
-853 532 0
-853 528 0
-532 -528 853 0
-854 533 0
-854 544 0
-533 -544 854 0
-855 534 0
-855 552 0
-534 -552 855 0
-856 535 0
-856 560 0
-535 -560 856 0
-386 -850 0
-386 -851 0
-386 -852 0
-386 -853 0
-386 -854 0
-386 -855 0
-386 -856 0
-536 386 850 851 852 853 854 855 856 0
-389 537 0
-857 538 0
-857 498 0
-538 -498 857 0
-858 539 0
-858 513 0
-539 -513 858 0
-859 540 0
-859 521 0
-540 -521 859 0
-860 541 0
-860 529 0
-541 -529 860 0
-861 542 0
-861 545 0
-542 -545 861 0
-862 543 0
-862 553 0
-543 -553 862 0
-863 544 0
-863 561 0
-544 -561 863 0
-389 -857 0
-389 -858 0
-389 -859 0
-389 -860 0
-389 -861 0
-389 -862 0
-389 -863 0
-537 389 857 858 859 860 861 862 863 0
-392 538 0
-864 537 0
-864 497 0
-537 -497 864 0
-865 539 0
-865 514 0
-539 -514 865 0
-866 540 0
-866 522 0
-540 -522 866 0
-867 541 0
-867 530 0
-541 -530 867 0
-868 542 0
-868 546 0
-542 -546 868 0
-869 543 0
-869 554 0
-543 -554 869 0
-870 544 0
-870 562 0
-544 -562 870 0
-392 -864 0
-392 -865 0
-392 -866 0
-392 -867 0
-392 -868 0
-392 -869 0
-392 -870 0
-538 392 864 865 866 867 868 869 870 0
-395 539 0
-871 537 0
-871 500 0
-537 -500 871 0
-872 538 0
-872 499 0
-538 -499 872 0
-873 540 0
-873 523 0
-540 -523 873 0
-874 541 0
-874 531 0
-541 -531 874 0
-875 542 0
-875 547 0
-542 -547 875 0
-876 543 0
-876 555 0
-543 -555 876 0
-877 544 0
-877 563 0
-544 -563 877 0
-395 -871 0
-395 -872 0
-395 -873 0
-395 -874 0
-395 -875 0
-395 -876 0
-395 -877 0
-539 395 871 872 873 874 875 876 877 0
-398 540 0
-878 537 0
-878 502 0
-537 -502 878 0
-879 538 0
-879 501 0
-538 -501 879 0
-880 539 0
-880 515 0
-539 -515 880 0
-881 541 0
-881 532 0
-541 -532 881 0
-882 542 0
-882 548 0
-542 -548 882 0
-883 543 0
-883 556 0
-543 -556 883 0
-884 544 0
-884 564 0
-544 -564 884 0
-398 -878 0
-398 -879 0
-398 -880 0
-398 -881 0
-398 -882 0
-398 -883 0
-398 -884 0
-540 398 878 879 880 881 882 883 884 0
-401 541 0
-885 537 0
-885 504 0
-537 -504 885 0
-886 538 0
-886 503 0
-538 -503 886 0
-887 539 0
-887 516 0
-539 -516 887 0
-888 540 0
-888 524 0
-540 -524 888 0
-889 542 0
-889 549 0
-542 -549 889 0
-890 543 0
-890 557 0
-543 -557 890 0
-891 544 0
-891 565 0
-544 -565 891 0
-401 -885 0
-401 -886 0
-401 -887 0
-401 -888 0
-401 -889 0
-401 -890 0
-401 -891 0
-541 401 885 886 887 888 889 890 891 0
-404 0
-407 542 0
-892 537 0
-892 508 0
-537 -508 892 0
-893 538 0
-893 507 0
-538 -507 893 0
-894 539 0
-894 518 0
-539 -518 894 0
-895 540 0
-895 526 0
-540 -526 895 0
-896 541 0
-896 534 0
-541 -534 896 0
-897 543 0
-897 559 0
-543 -559 897 0
-898 544 0
-898 567 0
-544 -567 898 0
-407 -892 0
-407 -893 0
-407 -894 0
-407 -895 0
-407 -896 0
-407 -897 0
-407 -898 0
-542 407 892 893 894 895 896 897 898 0
-410 543 0
-899 537 0
-899 510 0
-537 -510 899 0
-900 538 0
-900 509 0
-538 -509 900 0
-901 539 0
-901 519 0
-539 -519 901 0
-902 540 0
-902 527 0
-540 -527 902 0
-903 541 0
-903 535 0
-541 -535 903 0
-904 542 0
-904 551 0
-542 -551 904 0
-905 544 0
-905 568 0
-544 -568 905 0
-410 -899 0
-410 -900 0
-410 -901 0
-410 -902 0
-410 -903 0
-410 -904 0
-410 -905 0
-543 410 899 900 901 902 903 904 905 0
-413 544 0
-906 537 0
-906 512 0
-537 -512 906 0
-907 538 0
-907 511 0
-538 -511 907 0
-908 539 0
-908 520 0
-539 -520 908 0
-909 540 0
-909 528 0
-540 -528 909 0
-910 541 0
-910 536 0
-541 -536 910 0
-911 542 0
-911 552 0
-542 -552 911 0
-912 543 0
-912 560 0
-543 -560 912 0
-413 -906 0
-413 -907 0
-413 -908 0
-413 -909 0
-413 -910 0
-413 -911 0
-413 -912 0
-544 413 906 907 908 909 910 911 912 0
-416 545 0
-913 546 0
-913 498 0
-546 -498 913 0
-914 547 0
-914 513 0
-547 -513 914 0
-915 548 0
-915 521 0
-548 -521 915 0
-916 549 0
-916 529 0
-549 -529 916 0
-917 550 0
-917 537 0
-550 -537 917 0
-918 551 0
-918 553 0
-551 -553 918 0
-919 552 0
-919 561 0
-552 -561 919 0
-416 -913 0
-416 -914 0
-416 -915 0
-416 -916 0
-416 -917 0
-416 -918 0
-416 -919 0
-545 416 913 914 915 916 917 918 919 0
-419 546 0
-920 545 0
-920 497 0
-545 -497 920 0
-921 547 0
-921 514 0
-547 -514 921 0
-922 548 0
-922 522 0
-548 -522 922 0
-923 549 0
-923 530 0
-549 -530 923 0
-924 550 0
-924 538 0
-550 -538 924 0
-925 551 0
-925 554 0
-551 -554 925 0
-926 552 0
-926 562 0
-552 -562 926 0
-419 -920 0
-419 -921 0
-419 -922 0
-419 -923 0
-419 -924 0
-419 -925 0
-419 -926 0
-546 419 920 921 922 923 924 925 926 0
-422 547 0
-927 545 0
-927 500 0
-545 -500 927 0
-928 546 0
-928 499 0
-546 -499 928 0
-929 548 0
-929 523 0
-548 -523 929 0
-930 549 0
-930 531 0
-549 -531 930 0
-931 550 0
-931 539 0
-550 -539 931 0
-932 551 0
-932 555 0
-551 -555 932 0
-933 552 0
-933 563 0
-552 -563 933 0
-422 -927 0
-422 -928 0
-422 -929 0
-422 -930 0
-422 -931 0
-422 -932 0
-422 -933 0
-547 422 927 928 929 930 931 932 933 0
-425 548 0
-934 545 0
-934 502 0
-545 -502 934 0
-935 546 0
-935 501 0
-546 -501 935 0
-936 547 0
-936 515 0
-547 -515 936 0
-937 549 0
-937 532 0
-549 -532 937 0
-938 550 0
-938 540 0
-550 -540 938 0
-939 551 0
-939 556 0
-551 -556 939 0
-940 552 0
-940 564 0
-552 -564 940 0
-425 -934 0
-425 -935 0
-425 -936 0
-425 -937 0
-425 -938 0
-425 -939 0
-425 -940 0
-548 425 934 935 936 937 938 939 940 0
-428 549 0
-941 545 0
-941 504 0
-545 -504 941 0
-942 546 0
-942 503 0
-546 -503 942 0
-943 547 0
-943 516 0
-547 -516 943 0
-944 548 0
-944 524 0
-548 -524 944 0
-945 550 0
-945 541 0
-550 -541 945 0
-946 551 0
-946 557 0
-551 -557 946 0
-947 552 0
-947 565 0
-552 -565 947 0
-428 -941 0
-428 -942 0
-428 -943 0
-428 -944 0
-428 -945 0
-428 -946 0
-428 -947 0
-549 428 941 942 943 944 945 946 947 0
-431 550 0
-948 545 0
-948 506 0
-545 -506 948 0
-949 546 0
-949 505 0
-546 -505 949 0
-950 547 0
-950 517 0
-547 -517 950 0
-951 548 0
-951 525 0
-548 -525 951 0
-952 549 0
-952 533 0
-549 -533 952 0
-953 551 0
-953 558 0
-551 -558 953 0
-954 552 0
-954 566 0
-552 -566 954 0
-431 -948 0
-431 -949 0
-431 -950 0
-431 -951 0
-431 -952 0
-431 -953 0
-431 -954 0
-550 431 948 949 950 951 952 953 954 0
-434 0
-437 551 0
-955 545 0
-955 510 0
-545 -510 955 0
-956 546 0
-956 509 0
-546 -509 956 0
-957 547 0
-957 519 0
-547 -519 957 0
-958 548 0
-958 527 0
-548 -527 958 0
-959 549 0
-959 535 0
-549 -535 959 0
-960 550 0
-960 543 0
-550 -543 960 0
-961 552 0
-961 568 0
-552 -568 961 0
-437 -955 0
-437 -956 0
-437 -957 0
-437 -958 0
-437 -959 0
-437 -960 0
-437 -961 0
-551 437 955 956 957 958 959 960 961 0
-440 552 0
-962 545 0
-962 512 0
-545 -512 962 0
-963 546 0
-963 511 0
-546 -511 963 0
-964 547 0
-964 520 0
-547 -520 964 0
-965 548 0
-965 528 0
-548 -528 965 0
-966 549 0
-966 536 0
-549 -536 966 0
-967 550 0
-967 544 0
-550 -544 967 0
-968 551 0
-968 560 0
-551 -560 968 0
-440 -962 0
-440 -963 0
-440 -964 0
-440 -965 0
-440 -966 0
-440 -967 0
-440 -968 0
-552 440 962 963 964 965 966 967 968 0
-443 553 0
-969 554 0
-969 498 0
-554 -498 969 0
-970 555 0
-970 513 0
-555 -513 970 0
-971 556 0
-971 521 0
-556 -521 971 0
-972 557 0
-972 529 0
-557 -529 972 0
-973 558 0
-973 537 0
-558 -537 973 0
-974 559 0
-974 545 0
-559 -545 974 0
-975 560 0
-975 561 0
-560 -561 975 0
-443 -969 0
-443 -970 0
-443 -971 0
-443 -972 0
-443 -973 0
-443 -974 0
-443 -975 0
-553 443 969 970 971 972 973 974 975 0
-446 554 0
-976 553 0
-976 497 0
-553 -497 976 0
-977 555 0
-977 514 0
-555 -514 977 0
-978 556 0
-978 522 0
-556 -522 978 0
-979 557 0
-979 530 0
-557 -530 979 0
-980 558 0
-980 538 0
-558 -538 980 0
-981 559 0
-981 546 0
-559 -546 981 0
-982 560 0
-982 562 0
-560 -562 982 0
-446 -976 0
-446 -977 0
-446 -978 0
-446 -979 0
-446 -980 0
-446 -981 0
-446 -982 0
-554 446 976 977 978 979 980 981 982 0
-449 555 0
-983 553 0
-983 500 0
-553 -500 983 0
-984 554 0
-984 499 0
-554 -499 984 0
-985 556 0
-985 523 0
-556 -523 985 0
-986 557 0
-986 531 0
-557 -531 986 0
-987 558 0
-987 539 0
-558 -539 987 0
-988 559 0
-988 547 0
-559 -547 988 0
-989 560 0
-989 563 0
-560 -563 989 0
-449 -983 0
-449 -984 0
-449 -985 0
-449 -986 0
-449 -987 0
-449 -988 0
-449 -989 0
-555 449 983 984 985 986 987 988 989 0
-452 556 0
-990 553 0
-990 502 0
-553 -502 990 0
-991 554 0
-991 501 0
-554 -501 991 0
-992 555 0
-992 515 0
-555 -515 992 0
-993 557 0
-993 532 0
-557 -532 993 0
-994 558 0
-994 540 0
-558 -540 994 0
-995 559 0
-995 548 0
-559 -548 995 0
-996 560 0
-996 564 0
-560 -564 996 0
-452 -990 0
-452 -991 0
-452 -992 0
-452 -993 0
-452 -994 0
-452 -995 0
-452 -996 0
-556 452 990 991 992 993 994 995 996 0
-455 557 0
-997 553 0
-997 504 0
-553 -504 997 0
-998 554 0
-998 503 0
-554 -503 998 0
-999 555 0
-999 516 0
-555 -516 999 0
-1000 556 0
-1000 524 0
-556 -524 1000 0
-1001 558 0
-1001 541 0
-558 -541 1001 0
-1002 559 0
-1002 549 0
-559 -549 1002 0
-1003 560 0
-1003 565 0
-560 -565 1003 0
-455 -997 0
-455 -998 0
-455 -999 0
-455 -1000 0
-455 -1001 0
-455 -1002 0
-455 -1003 0
-557 455 997 998 999 1000 1001 1002 1003 0
-458 558 0
-1004 553 0
-1004 506 0
-553 -506 1004 0
-1005 554 0
-1005 505 0
-554 -505 1005 0
-1006 555 0
-1006 517 0
-555 -517 1006 0
-1007 556 0
-1007 525 0
-556 -525 1007 0
-1008 557 0
-1008 533 0
-557 -533 1008 0
-1009 559 0
-1009 550 0
-559 -550 1009 0
-1010 560 0
-1010 566 0
-560 -566 1010 0
-458 -1004 0
-458 -1005 0
-458 -1006 0
-458 -1007 0
-458 -1008 0
-458 -1009 0
-458 -1010 0
-558 458 1004 1005 1006 1007 1008 1009 1010 0
-461 559 0
-1011 553 0
-1011 508 0
-553 -508 1011 0
-1012 554 0
-1012 507 0
-554 -507 1012 0
-1013 555 0
-1013 518 0
-555 -518 1013 0
-1014 556 0
-1014 526 0
-556 -526 1014 0
-1015 557 0
-1015 534 0
-557 -534 1015 0
-1016 558 0
-1016 542 0
-558 -542 1016 0
-1017 560 0
-1017 567 0
-560 -567 1017 0
-461 -1011 0
-461 -1012 0
-461 -1013 0
-461 -1014 0
-461 -1015 0
-461 -1016 0
-461 -1017 0
-559 461 1011 1012 1013 1014 1015 1016 1017 0
-464 0
-467 560 0
-1018 553 0
-1018 512 0
-553 -512 1018 0
-1019 554 0
-1019 511 0
-554 -511 1019 0
-1020 555 0
-1020 520 0
-555 -520 1020 0
-1021 556 0
-1021 528 0
-556 -528 1021 0
-1022 557 0
-1022 536 0
-557 -536 1022 0
-1023 558 0
-1023 544 0
-558 -544 1023 0
-1024 559 0
-1024 552 0
-559 -552 1024 0
-467 -1018 0
-467 -1019 0
-467 -1020 0
-467 -1021 0
-467 -1022 0
-467 -1023 0
-467 -1024 0
-560 467 1018 1019 1020 1021 1022 1023 1024 0
-470 561 0
-1025 562 0
-1025 498 0
-562 -498 1025 0
-1026 563 0
-1026 513 0
-563 -513 1026 0
-1027 564 0
-1027 521 0
-564 -521 1027 0
-1028 565 0
-1028 529 0
-565 -529 1028 0
-1029 566 0
-1029 537 0
-566 -537 1029 0
-1030 567 0
-1030 545 0
-567 -545 1030 0
-1031 568 0
-1031 553 0
-568 -553 1031 0
-470 -1025 0
-470 -1026 0
-470 -1027 0
-470 -1028 0
-470 -1029 0
-470 -1030 0
-470 -1031 0
-561 470 1025 1026 1027 1028 1029 1030 1031 0
-473 562 0
-1032 561 0
-1032 497 0
-561 -497 1032 0
-1033 563 0
-1033 514 0
-563 -514 1033 0
-1034 564 0
-1034 522 0
-564 -522 1034 0
-1035 565 0
-1035 530 0
-565 -530 1035 0
-1036 566 0
-1036 538 0
-566 -538 1036 0
-1037 567 0
-1037 546 0
-567 -546 1037 0
-1038 568 0
-1038 554 0
-568 -554 1038 0
-473 -1032 0
-473 -1033 0
-473 -1034 0
-473 -1035 0
-473 -1036 0
-473 -1037 0
-473 -1038 0
-562 473 1032 1033 1034 1035 1036 1037 1038 0
-476 563 0
-1039 561 0
-1039 500 0
-561 -500 1039 0
-1040 562 0
-1040 499 0
-562 -499 1040 0
-1041 564 0
-1041 523 0
-564 -523 1041 0
-1042 565 0
-1042 531 0
-565 -531 1042 0
-1043 566 0
-1043 539 0
-566 -539 1043 0
-1044 567 0
-1044 547 0
-567 -547 1044 0
-1045 568 0
-1045 555 0
-568 -555 1045 0
-476 -1039 0
-476 -1040 0
-476 -1041 0
-476 -1042 0
-476 -1043 0
-476 -1044 0
-476 -1045 0
-563 476 1039 1040 1041 1042 1043 1044 1045 0
-479 564 0
-1046 561 0
-1046 502 0
-561 -502 1046 0
-1047 562 0
-1047 501 0
-562 -501 1047 0
-1048 563 0
-1048 515 0
-563 -515 1048 0
-1049 565 0
-1049 532 0
-565 -532 1049 0
-1050 566 0
-1050 540 0
-566 -540 1050 0
-1051 567 0
-1051 548 0
-567 -548 1051 0
-1052 568 0
-1052 556 0
-568 -556 1052 0
-479 -1046 0
-479 -1047 0
-479 -1048 0
-479 -1049 0
-479 -1050 0
-479 -1051 0
-479 -1052 0
-564 479 1046 1047 1048 1049 1050 1051 1052 0
-482 565 0
-1053 561 0
-1053 504 0
-561 -504 1053 0
-1054 562 0
-1054 503 0
-562 -503 1054 0
-1055 563 0
-1055 516 0
-563 -516 1055 0
-1056 564 0
-1056 524 0
-564 -524 1056 0
-1057 566 0
-1057 541 0
-566 -541 1057 0
-1058 567 0
-1058 549 0
-567 -549 1058 0
-1059 568 0
-1059 557 0
-568 -557 1059 0
-482 -1053 0
-482 -1054 0
-482 -1055 0
-482 -1056 0
-482 -1057 0
-482 -1058 0
-482 -1059 0
-565 482 1053 1054 1055 1056 1057 1058 1059 0
-485 566 0
-1060 561 0
-1060 506 0
-561 -506 1060 0
-1061 562 0
-1061 505 0
-562 -505 1061 0
-1062 563 0
-1062 517 0
-563 -517 1062 0
-1063 564 0
-1063 525 0
-564 -525 1063 0
-1064 565 0
-1064 533 0
-565 -533 1064 0
-1065 567 0
-1065 550 0
-567 -550 1065 0
-1066 568 0
-1066 558 0
-568 -558 1066 0
-485 -1060 0
-485 -1061 0
-485 -1062 0
-485 -1063 0
-485 -1064 0
-485 -1065 0
-485 -1066 0
-566 485 1060 1061 1062 1063 1064 1065 1066 0
-488 567 0
-1067 561 0
-1067 508 0
-561 -508 1067 0
-1068 562 0
-1068 507 0
-562 -507 1068 0
-1069 563 0
-1069 518 0
-563 -518 1069 0
-1070 564 0
-1070 526 0
-564 -526 1070 0
-1071 565 0
-1071 534 0
-565 -534 1071 0
-1072 566 0
-1072 542 0
-566 -542 1072 0
-1073 568 0
-1073 559 0
-568 -559 1073 0
-488 -1067 0
-488 -1068 0
-488 -1069 0
-488 -1070 0
-488 -1071 0
-488 -1072 0
-488 -1073 0
-567 488 1067 1068 1069 1070 1071 1072 1073 0
-491 568 0
-1074 561 0
-1074 510 0
-561 -510 1074 0
-1075 562 0
-1075 509 0
-562 -509 1075 0
-1076 563 0
-1076 519 0
-563 -519 1076 0
-1077 564 0
-1077 527 0
-564 -527 1077 0
-1078 565 0
-1078 535 0
-565 -535 1078 0
-1079 566 0
-1079 543 0
-566 -543 1079 0
-1080 567 0
-1080 551 0
-567 -551 1080 0
-491 -1074 0
-491 -1075 0
-491 -1076 0
-491 -1077 0
-491 -1078 0
-491 -1079 0
-491 -1080 0
-568 491 1074 1075 1076 1077 1078 1079 1080 0
-494 0
