p cnf 110 1010
1 -2 -1 0
3 -4 -1 0
5 -6 -1 0
7 -8 -1 0
9 -10 -1 0
11 -12 -1 0
13 -14 -1 0
15 -16 -1 0
17 -18 -1 0
19 -20 -1 0
1 -21 -3 0
3 -22 -3 0
5 -23 -3 0
7 -24 -3 0
9 -25 -3 0
11 -26 -3 0
13 -27 -3 0
15 -28 -3 0
17 -29 -3 0
19 -30 -3 0
1 -31 -5 0
3 -32 -5 0
5 -33 -5 0
7 -34 -5 0
9 -35 -5 0
11 -36 -5 0
13 -37 -5 0
15 -38 -5 0
17 -39 -5 0
19 -40 -5 0
1 -41 -7 0
3 -42 -7 0
5 -43 -7 0
7 -44 -7 0
9 -45 -7 0
11 -46 -7 0
13 -47 -7 0
15 -48 -7 0
17 -49 -7 0
19 -50 -7 0
1 -51 -9 0
3 -52 -9 0
5 -53 -9 0
7 -54 -9 0
9 -55 -9 0
11 -56 -9 0
13 -57 -9 0
15 -58 -9 0
17 -59 -9 0
19 -60 -9 0
1 -61 -11 0
3 -62 -11 0
5 -63 -11 0
7 -64 -11 0
9 -65 -11 0
11 -66 -11 0
13 -67 -11 0
15 -68 -11 0
17 -69 -11 0
19 -70 -11 0
1 -71 -13 0
3 -72 -13 0
5 -73 -13 0
7 -74 -13 0
9 -75 -13 0
11 -76 -13 0
13 -77 -13 0
15 -78 -13 0
17 -79 -13 0
19 -80 -13 0
1 -81 -15 0
3 -82 -15 0
5 -83 -15 0
7 -84 -15 0
9 -85 -15 0
11 -86 -15 0
13 -87 -15 0
15 -88 -15 0
17 -89 -15 0
19 -90 -15 0
1 -91 -17 0
3 -92 -17 0
5 -93 -17 0
7 -94 -17 0
9 -95 -17 0
11 -96 -17 0
13 -97 -17 0
15 -98 -17 0
17 -99 -17 0
19 -100 -17 0
1 -101 -19 0
3 -102 -19 0
5 -103 -19 0
7 -104 -19 0
9 -105 -19 0
11 -106 -19 0
13 -107 -19 0
15 -108 -19 0
17 -109 -19 0
19 -110 -19 0
2 0
4 21 0
-4 -21 0
-4 -23 6 0
-4 -24 8 0
-4 -25 10 0
-4 -26 12 0
-4 -27 14 0
-4 -28 16 0
-4 -29 18 0
-4 -30 20 0
6 31 0
-6 -31 0
-6 -32 4 0
-6 -34 8 0
-6 -35 10 0
-6 -36 12 0
-6 -37 14 0
-6 -38 16 0
-6 -39 18 0
-6 -40 20 0
8 41 0
-8 -41 0
-8 -42 4 0
-8 -43 6 0
-8 -45 10 0
-8 -46 12 0
-8 -47 14 0
-8 -48 16 0
-8 -49 18 0
-8 -50 20 0
10 51 0
-10 -51 0
-10 -52 4 0
-10 -53 6 0
-10 -54 8 0
-10 -56 12 0
-10 -57 14 0
-10 -58 16 0
-10 -59 18 0
-10 -60 20 0
12 61 0
-12 -61 0
-12 -62 4 0
-12 -63 6 0
-12 -64 8 0
-12 -65 10 0
-12 -67 14 0
-12 -68 16 0
-12 -69 18 0
-12 -70 20 0
14 71 0
-14 -71 0
-14 -72 4 0
-14 -73 6 0
-14 -74 8 0
-14 -75 10 0
-14 -76 12 0
-14 -78 16 0
-14 -79 18 0
-14 -80 20 0
16 81 0
-16 -81 0
-16 -82 4 0
-16 -83 6 0
-16 -84 8 0
-16 -85 10 0
-16 -86 12 0
-16 -87 14 0
-16 -89 18 0
-16 -90 20 0
18 91 0
-18 -91 0
-18 -92 4 0
-18 -93 6 0
-18 -94 8 0
-18 -95 10 0
-18 -96 12 0
-18 -97 14 0
-18 -98 16 0
-18 -100 20 0
20 101 0
-20 -101 0
-20 -102 4 0
-20 -103 6 0
-20 -104 8 0
-20 -105 10 0
-20 -106 12 0
-20 -107 14 0
-20 -108 16 0
-20 -109 18 0
22 0
21 4 0
-21 -4 0
-21 -6 23 0
-21 -8 24 0
-21 -10 25 0
-21 -12 26 0
-21 -14 27 0
-21 -16 28 0
-21 -18 29 0
-21 -20 30 0
23 32 0
-23 -32 0
-23 -31 21 0
-23 -34 24 0
-23 -35 25 0
-23 -36 26 0
-23 -37 27 0
-23 -38 28 0
-23 -39 29 0
-23 -40 30 0
24 42 0
-24 -42 0
-24 -41 21 0
-24 -43 23 0
-24 -45 25 0
-24 -46 26 0
-24 -47 27 0
-24 -48 28 0
-24 -49 29 0
-24 -50 30 0
25 52 0
-25 -52 0
-25 -51 21 0
-25 -53 23 0
-25 -54 24 0
-25 -56 26 0
-25 -57 27 0
-25 -58 28 0
-25 -59 29 0
-25 -60 30 0
26 62 0
-26 -62 0
-26 -61 21 0
-26 -63 23 0
-26 -64 24 0
-26 -65 25 0
-26 -67 27 0
-26 -68 28 0
-26 -69 29 0
-26 -70 30 0
27 72 0
-27 -72 0
-27 -71 21 0
-27 -73 23 0
-27 -74 24 0
-27 -75 25 0
-27 -76 26 0
-27 -78 28 0
-27 -79 29 0
-27 -80 30 0
28 82 0
-28 -82 0
-28 -81 21 0
-28 -83 23 0
-28 -84 24 0
-28 -85 25 0
-28 -86 26 0
-28 -87 27 0
-28 -89 29 0
-28 -90 30 0
29 92 0
-29 -92 0
-29 -91 21 0
-29 -93 23 0
-29 -94 24 0
-29 -95 25 0
-29 -96 26 0
-29 -97 27 0
-29 -98 28 0
-29 -100 30 0
30 102 0
-30 -102 0
-30 -101 21 0
-30 -103 23 0
-30 -104 24 0
-30 -105 25 0
-30 -106 26 0
-30 -107 27 0
-30 -108 28 0
-30 -109 29 0
33 0
31 6 0
-31 -6 0
-31 -4 32 0
-31 -8 34 0
-31 -10 35 0
-31 -12 36 0
-31 -14 37 0
-31 -16 38 0
-31 -18 39 0
-31 -20 40 0
32 23 0
-32 -23 0
-32 -21 31 0
-32 -24 34 0
-32 -25 35 0
-32 -26 36 0
-32 -27 37 0
-32 -28 38 0
-32 -29 39 0
-32 -30 40 0
34 43 0
-34 -43 0
-34 -41 31 0
-34 -42 32 0
-34 -45 35 0
-34 -46 36 0
-34 -47 37 0
-34 -48 38 0
-34 -49 39 0
-34 -50 40 0
35 53 0
-35 -53 0
-35 -51 31 0
-35 -52 32 0
-35 -54 34 0
-35 -56 36 0
-35 -57 37 0
-35 -58 38 0
-35 -59 39 0
-35 -60 40 0
36 63 0
-36 -63 0
-36 -61 31 0
-36 -62 32 0
-36 -64 34 0
-36 -65 35 0
-36 -67 37 0
-36 -68 38 0
-36 -69 39 0
-36 -70 40 0
37 73 0
-37 -73 0
-37 -71 31 0
-37 -72 32 0
-37 -74 34 0
-37 -75 35 0
-37 -76 36 0
-37 -78 38 0
-37 -79 39 0
-37 -80 40 0
38 83 0
-38 -83 0
-38 -81 31 0
-38 -82 32 0
-38 -84 34 0
-38 -85 35 0
-38 -86 36 0
-38 -87 37 0
-38 -89 39 0
-38 -90 40 0
39 93 0
-39 -93 0
-39 -91 31 0
-39 -92 32 0
-39 -94 34 0
-39 -95 35 0
-39 -96 36 0
-39 -97 37 0
-39 -98 38 0
-39 -100 40 0
40 103 0
-40 -103 0
-40 -101 31 0
-40 -102 32 0
-40 -104 34 0
-40 -105 35 0
-40 -106 36 0
-40 -107 37 0
-40 -108 38 0
-40 -109 39 0
44 0
41 8 0
-41 -8 0
-41 -4 42 0
-41 -6 43 0
-41 -10 45 0
-41 -12 46 0
-41 -14 47 0
-41 -16 48 0
-41 -18 49 0
-41 -20 50 0
42 24 0
-42 -24 0
-42 -21 41 0
-42 -23 43 0
-42 -25 45 0
-42 -26 46 0
-42 -27 47 0
-42 -28 48 0
-42 -29 49 0
-42 -30 50 0
43 34 0
-43 -34 0
-43 -31 41 0
-43 -32 42 0
-43 -35 45 0
-43 -36 46 0
-43 -37 47 0
-43 -38 48 0
-43 -39 49 0
-43 -40 50 0
45 54 0
-45 -54 0
-45 -51 41 0
-45 -52 42 0
-45 -53 43 0
-45 -56 46 0
-45 -57 47 0
-45 -58 48 0
-45 -59 49 0
-45 -60 50 0
46 64 0
-46 -64 0
-46 -61 41 0
-46 -62 42 0
-46 -63 43 0
-46 -65 45 0
-46 -67 47 0
-46 -68 48 0
-46 -69 49 0
-46 -70 50 0
47 74 0
-47 -74 0
-47 -71 41 0
-47 -72 42 0
-47 -73 43 0
-47 -75 45 0
-47 -76 46 0
-47 -78 48 0
-47 -79 49 0
-47 -80 50 0
48 84 0
-48 -84 0
-48 -81 41 0
-48 -82 42 0
-48 -83 43 0
-48 -85 45 0
-48 -86 46 0
-48 -87 47 0
-48 -89 49 0
-48 -90 50 0
49 94 0
-49 -94 0
-49 -91 41 0
-49 -92 42 0
-49 -93 43 0
-49 -95 45 0
-49 -96 46 0
-49 -97 47 0
-49 -98 48 0
-49 -100 50 0
50 104 0
-50 -104 0
-50 -101 41 0
-50 -102 42 0
-50 -103 43 0
-50 -105 45 0
-50 -106 46 0
-50 -107 47 0
-50 -108 48 0
-50 -109 49 0
55 0
51 10 0
-51 -10 0
-51 -4 52 0
-51 -6 53 0
-51 -8 54 0
-51 -12 56 0
-51 -14 57 0
-51 -16 58 0
-51 -18 59 0
-51 -20 60 0
52 25 0
-52 -25 0
-52 -21 51 0
-52 -23 53 0
-52 -24 54 0
-52 -26 56 0
-52 -27 57 0
-52 -28 58 0
-52 -29 59 0
-52 -30 60 0
53 35 0
-53 -35 0
-53 -31 51 0
-53 -32 52 0
-53 -34 54 0
-53 -36 56 0
-53 -37 57 0
-53 -38 58 0
-53 -39 59 0
-53 -40 60 0
54 45 0
-54 -45 0
-54 -41 51 0
-54 -42 52 0
-54 -43 53 0
-54 -46 56 0
-54 -47 57 0
-54 -48 58 0
-54 -49 59 0
-54 -50 60 0
56 65 0
-56 -65 0
-56 -61 51 0
-56 -62 52 0
-56 -63 53 0
-56 -64 54 0
-56 -67 57 0
-56 -68 58 0
-56 -69 59 0
-56 -70 60 0
57 75 0
-57 -75 0
-57 -71 51 0
-57 -72 52 0
-57 -73 53 0
-57 -74 54 0
-57 -76 56 0
-57 -78 58 0
-57 -79 59 0
-57 -80 60 0
58 85 0
-58 -85 0
-58 -81 51 0
-58 -82 52 0
-58 -83 53 0
-58 -84 54 0
-58 -86 56 0
-58 -87 57 0
-58 -89 59 0
-58 -90 60 0
59 95 0
-59 -95 0
-59 -91 51 0
-59 -92 52 0
-59 -93 53 0
-59 -94 54 0
-59 -96 56 0
-59 -97 57 0
-59 -98 58 0
-59 -100 60 0
60 105 0
-60 -105 0
-60 -101 51 0
-60 -102 52 0
-60 -103 53 0
-60 -104 54 0
-60 -106 56 0
-60 -107 57 0
-60 -108 58 0
-60 -109 59 0
66 0
61 12 0
-61 -12 0
-61 -4 62 0
-61 -6 63 0
-61 -8 64 0
-61 -10 65 0
-61 -14 67 0
-61 -16 68 0
-61 -18 69 0
-61 -20 70 0
62 26 0
-62 -26 0
-62 -21 61 0
-62 -23 63 0
-62 -24 64 0
-62 -25 65 0
-62 -27 67 0
-62 -28 68 0
-62 -29 69 0
-62 -30 70 0
63 36 0
-63 -36 0
-63 -31 61 0
-63 -32 62 0
-63 -34 64 0
-63 -35 65 0
-63 -37 67 0
-63 -38 68 0
-63 -39 69 0
-63 -40 70 0
64 46 0
-64 -46 0
-64 -41 61 0
-64 -42 62 0
-64 -43 63 0
-64 -45 65 0
-64 -47 67 0
-64 -48 68 0
-64 -49 69 0
-64 -50 70 0
65 56 0
-65 -56 0
-65 -51 61 0
-65 -52 62 0
-65 -53 63 0
-65 -54 64 0
-65 -57 67 0
-65 -58 68 0
-65 -59 69 0
-65 -60 70 0
67 76 0
-67 -76 0
-67 -71 61 0
-67 -72 62 0
-67 -73 63 0
-67 -74 64 0
-67 -75 65 0
-67 -78 68 0
-67 -79 69 0
-67 -80 70 0
68 86 0
-68 -86 0
-68 -81 61 0
-68 -82 62 0
-68 -83 63 0
-68 -84 64 0
-68 -85 65 0
-68 -87 67 0
-68 -89 69 0
-68 -90 70 0
69 96 0
-69 -96 0
-69 -91 61 0
-69 -92 62 0
-69 -93 63 0
-69 -94 64 0
-69 -95 65 0
-69 -97 67 0
-69 -98 68 0
-69 -100 70 0
70 106 0
-70 -106 0
-70 -101 61 0
-70 -102 62 0
-70 -103 63 0
-70 -104 64 0
-70 -105 65 0
-70 -107 67 0
-70 -108 68 0
-70 -109 69 0
77 0
71 14 0
-71 -14 0
-71 -4 72 0
-71 -6 73 0
-71 -8 74 0
-71 -10 75 0
-71 -12 76 0
-71 -16 78 0
-71 -18 79 0
-71 -20 80 0
72 27 0
-72 -27 0
-72 -21 71 0
-72 -23 73 0
-72 -24 74 0
-72 -25 75 0
-72 -26 76 0
-72 -28 78 0
-72 -29 79 0
-72 -30 80 0
73 37 0
-73 -37 0
-73 -31 71 0
-73 -32 72 0
-73 -34 74 0
-73 -35 75 0
-73 -36 76 0
-73 -38 78 0
-73 -39 79 0
-73 -40 80 0
74 47 0
-74 -47 0
-74 -41 71 0
-74 -42 72 0
-74 -43 73 0
-74 -45 75 0
-74 -46 76 0
-74 -48 78 0
-74 -49 79 0
-74 -50 80 0
75 57 0
-75 -57 0
-75 -51 71 0
-75 -52 72 0
-75 -53 73 0
-75 -54 74 0
-75 -56 76 0
-75 -58 78 0
-75 -59 79 0
-75 -60 80 0
76 67 0
-76 -67 0
-76 -61 71 0
-76 -62 72 0
-76 -63 73 0
-76 -64 74 0
-76 -65 75 0
-76 -68 78 0
-76 -69 79 0
-76 -70 80 0
78 87 0
-78 -87 0
-78 -81 71 0
-78 -82 72 0
-78 -83 73 0
-78 -84 74 0
-78 -85 75 0
-78 -86 76 0
-78 -89 79 0
-78 -90 80 0
79 97 0
-79 -97 0
-79 -91 71 0
-79 -92 72 0
-79 -93 73 0
-79 -94 74 0
-79 -95 75 0
-79 -96 76 0
-79 -98 78 0
-79 -100 80 0
80 107 0
-80 -107 0
-80 -101 71 0
-80 -102 72 0
-80 -103 73 0
-80 -104 74 0
-80 -105 75 0
-80 -106 76 0
-80 -108 78 0
-80 -109 79 0
88 0
81 16 0
-81 -16 0
-81 -4 82 0
-81 -6 83 0
-81 -8 84 0
-81 -10 85 0
-81 -12 86 0
-81 -14 87 0
-81 -18 89 0
-81 -20 90 0
82 28 0
-82 -28 0
-82 -21 81 0
-82 -23 83 0
-82 -24 84 0
-82 -25 85 0
-82 -26 86 0
-82 -27 87 0
-82 -29 89 0
-82 -30 90 0
83 38 0
-83 -38 0
-83 -31 81 0
-83 -32 82 0
-83 -34 84 0
-83 -35 85 0
-83 -36 86 0
-83 -37 87 0
-83 -39 89 0
-83 -40 90 0
84 48 0
-84 -48 0
-84 -41 81 0
-84 -42 82 0
-84 -43 83 0
-84 -45 85 0
-84 -46 86 0
-84 -47 87 0
-84 -49 89 0
-84 -50 90 0
85 58 0
-85 -58 0
-85 -51 81 0
-85 -52 82 0
-85 -53 83 0
-85 -54 84 0
-85 -56 86 0
-85 -57 87 0
-85 -59 89 0
-85 -60 90 0
86 68 0
-86 -68 0
-86 -61 81 0
-86 -62 82 0
-86 -63 83 0
-86 -64 84 0
-86 -65 85 0
-86 -67 87 0
-86 -69 89 0
-86 -70 90 0
87 78 0
-87 -78 0
-87 -71 81 0
-87 -72 82 0
-87 -73 83 0
-87 -74 84 0
-87 -75 85 0
-87 -76 86 0
-87 -79 89 0
-87 -80 90 0
89 98 0
-89 -98 0
-89 -91 81 0
-89 -92 82 0
-89 -93 83 0
-89 -94 84 0
-89 -95 85 0
-89 -96 86 0
-89 -97 87 0
-89 -100 90 0
90 108 0
-90 -108 0
-90 -101 81 0
-90 -102 82 0
-90 -103 83 0
-90 -104 84 0
-90 -105 85 0
-90 -106 86 0
-90 -107 87 0
-90 -109 89 0
99 0
91 18 0
-91 -18 0
-91 -4 92 0
-91 -6 93 0
-91 -8 94 0
-91 -10 95 0
-91 -12 96 0
-91 -14 97 0
-91 -16 98 0
-91 -20 100 0
92 29 0
-92 -29 0
-92 -21 91 0
-92 -23 93 0
-92 -24 94 0
-92 -25 95 0
-92 -26 96 0
-92 -27 97 0
-92 -28 98 0
-92 -30 100 0
93 39 0
-93 -39 0
-93 -31 91 0
-93 -32 92 0
-93 -34 94 0
-93 -35 95 0
-93 -36 96 0
-93 -37 97 0
-93 -38 98 0
-93 -40 100 0
94 49 0
-94 -49 0
-94 -41 91 0
-94 -42 92 0
-94 -43 93 0
-94 -45 95 0
-94 -46 96 0
-94 -47 97 0
-94 -48 98 0
-94 -50 100 0
95 59 0
-95 -59 0
-95 -51 91 0
-95 -52 92 0
-95 -53 93 0
-95 -54 94 0
-95 -56 96 0
-95 -57 97 0
-95 -58 98 0
-95 -60 100 0
96 69 0
-96 -69 0
-96 -61 91 0
-96 -62 92 0
-96 -63 93 0
-96 -64 94 0
-96 -65 95 0
-96 -67 97 0
-96 -68 98 0
-96 -70 100 0
97 79 0
-97 -79 0
-97 -71 91 0
-97 -72 92 0
-97 -73 93 0
-97 -74 94 0
-97 -75 95 0
-97 -76 96 0
-97 -78 98 0
-97 -80 100 0
98 89 0
-98 -89 0
-98 -81 91 0
-98 -82 92 0
-98 -83 93 0
-98 -84 94 0
-98 -85 95 0
-98 -86 96 0
-98 -87 97 0
-98 -90 100 0
100 109 0
-100 -109 0
-100 -101 91 0
-100 -102 92 0
-100 -103 93 0
-100 -104 94 0
-100 -105 95 0
-100 -106 96 0
-100 -107 97 0
-100 -108 98 0
110 0
101 20 0
-101 -20 0
-101 -4 102 0
-101 -6 103 0
-101 -8 104 0
-101 -10 105 0
-101 -12 106 0
-101 -14 107 0
-101 -16 108 0
-101 -18 109 0
102 30 0
-102 -30 0
-102 -21 101 0
-102 -23 103 0
-102 -24 104 0
-102 -25 105 0
-102 -26 106 0
-102 -27 107 0
-102 -28 108 0
-102 -29 109 0
103 40 0
-103 -40 0
-103 -31 101 0
-103 -32 102 0
-103 -34 104 0
-103 -35 105 0
-103 -36 106 0
-103 -37 107 0
-103 -38 108 0
-103 -39 109 0
104 50 0
-104 -50 0
-104 -41 101 0
-104 -42 102 0
-104 -43 103 0
-104 -45 105 0
-104 -46 106 0
-104 -47 107 0
-104 -48 108 0
-104 -49 109 0
105 60 0
-105 -60 0
-105 -51 101 0
-105 -52 102 0
-105 -53 103 0
-105 -54 104 0
-105 -56 106 0
-105 -57 107 0
-105 -58 108 0
-105 -59 109 0
106 70 0
-106 -70 0
-106 -61 101 0
-106 -62 102 0
-106 -63 103 0
-106 -64 104 0
-106 -65 105 0
-106 -67 107 0
-106 -68 108 0
-106 -69 109 0
107 80 0
-107 -80 0
-107 -71 101 0
-107 -72 102 0
-107 -73 103 0
-107 -74 104 0
-107 -75 105 0
-107 -76 106 0
-107 -78 108 0
-107 -79 109 0
108 90 0
-108 -90 0
-108 -81 101 0
-108 -82 102 0
-108 -83 103 0
-108 -84 104 0
-108 -85 105 0
-108 -86 106 0
-108 -87 107 0
-108 -89 109 0
109 100 0
-109 -100 0
-109 -91 101 0
-109 -92 102 0
-109 -93 103 0
-109 -94 104 0
-109 -95 105 0
-109 -96 106 0
-109 -97 107 0
-109 -98 108 0
