c T(domain4) LEQ(domain4,domain4) LEQ(domain4,domain2) T(domain2) LEQ(domain2,domain4) LEQ(domain7,domain4) LEQ(domain4,domain7) T(domain7) LEQ(domain9,domain4) T(domain9) LEQ(domain4,domain9) T(domain6) LEQ(domain4,domain6) LEQ(domain6,domain4) LEQ(domain4,domain8) LEQ(domain8,domain4) T(domain8) T(domain0) LEQ(domain4,domain0) LEQ(domain0,domain4) LEQ(domain3,domain4) LEQ(domain4,domain3) T(domain3) LEQ(domain4,domain1) T(domain1) LEQ(domain1,domain4) T(domain5) LEQ(domain5,domain4) LEQ(domain4,domain5) LEQ(domain2,domain2) LEQ(domain7,domain2) LEQ(domain2,domain7) LEQ(domain9,domain2) LEQ(domain2,domain9) LEQ(domain6,domain2) LEQ(domain2,domain6) LEQ(domain2,domain8) LEQ(domain8,domain2) LEQ(domain0,domain2) LEQ(domain2,domain0) LEQ(domain2,domain3) LEQ(domain3,domain2) LEQ(domain1,domain2) LEQ(domain2,domain1) LEQ(domain5,domain2) LEQ(domain2,domain5) LEQ(domain7,domain7) LEQ(domain7,domain9) LEQ(domain9,domain7) LEQ(domain7,domain6) LEQ(domain6,domain7) LEQ(domain7,domain8) LEQ(domain8,domain7) LEQ(domain7,domain0) LEQ(domain0,domain7) LEQ(domain7,domain3) LEQ(domain3,domain7) LEQ(domain1,domain7) LEQ(domain7,domain1) LEQ(domain5,domain7) LEQ(domain7,domain5) LEQ(domain9,domain9) LEQ(domain9,domain6) LEQ(domain6,domain9) LEQ(domain8,domain9) LEQ(domain9,domain8) LEQ(domain0,domain9) LEQ(domain9,domain0) LEQ(domain3,domain9) LEQ(domain9,domain3) LEQ(domain9,domain1) LEQ(domain1,domain9) LEQ(domain9,domain5) LEQ(domain5,domain9) LEQ(domain6,domain6) LEQ(domain6,domain8) LEQ(domain8,domain6) LEQ(domain6,domain0) LEQ(domain0,domain6) LEQ(domain6,domain3) LEQ(domain3,domain6) LEQ(domain1,domain6) LEQ(domain6,domain1) LEQ(domain5,domain6) LEQ(domain6,domain5) LEQ(domain8,domain8) LEQ(domain0,domain8) LEQ(domain8,domain0) LEQ(domain8,domain3) LEQ(domain3,domain8) LEQ(domain1,domain8) LEQ(domain8,domain1) LEQ(domain8,domain5) LEQ(domain5,domain8) LEQ(domain0,domain0) LEQ(domain0,domain3) LEQ(domain3,domain0) LEQ(domain1,domain0) LEQ(domain0,domain1) LEQ(domain5,domain0) LEQ(domain0,domain5) LEQ(domain3,domain3) LEQ(domain1,domain3) LEQ(domain3,domain1) LEQ(domain5,domain3) LEQ(domain3,domain5) LEQ(domain1,domain1) LEQ(domain5,domain1) LEQ(domain1,domain5) LEQ(domain5,domain5)
c 1 2 3 4 5 6 7 8 9 10 11 12 13 14 15 16 17 18 19 20 21 22 23 24 25 26 27 28 29 30 31 32 33 34 35 36 37 38 39 40 41 42 43 44 45 46 47 48 49 50 51 52 53 54 55 56 57 58 59 60 61 62 63 64 65 66 67 68 69 70 71 72 73 74 75 76 77 78 79 80 81 82 83 84 85 86 87 88 89 90 91 92 93 94 95 96 97 98 99 100 101 102 103 104 105 106 107 108 109 110
p cnf 110 920
18 -95 -18 0
18 -98 -25 0
18 -40 -4 0
18 -97 -23 0
18 -19 -1 0
18 -100 -27 0
18 -78 -12 0
18 -54 -8 0
18 -88 -17 0
18 -68 -10 0
25 -99 -18 0
25 -107 -25 0
25 -44 -4 0
25 -104 -23 0
25 -24 -1 0
25 -108 -27 0
25 -83 -12 0
25 -59 -8 0
25 -92 -17 0
25 -71 -10 0
4 -39 -18 0
4 -43 -25 0
4 -30 -4 0
4 -42 -23 0
4 -3 -1 0
4 -45 -27 0
4 -35 -12 0
4 -31 -8 0
4 -38 -17 0
4 -33 -10 0
23 -96 -18 0
23 -103 -25 0
23 -41 -4 0
23 -102 -23 0
23 -22 -1 0
23 -105 -27 0
23 -80 -12 0
23 -56 -8 0
23 -89 -17 0
23 -70 -10 0
1 -20 -18 0
1 -26 -25 0
1 -5 -4 0
1 -21 -23 0
1 -2 -1 0
1 -28 -27 0
1 -14 -12 0
1 -6 -8 0
1 -16 -17 0
1 -9 -10 0
27 -101 -18 0
27 -109 -25 0
27 -46 -4 0
27 -106 -23 0
27 -29 -1 0
27 -110 -27 0
27 -85 -12 0
27 -61 -8 0
27 -93 -17 0
27 -73 -10 0
12 -79 -18 0
12 -82 -25 0
12 -36 -4 0
12 -81 -23 0
12 -13 -1 0
12 -84 -27 0
12 -75 -12 0
12 -50 -8 0
12 -77 -17 0
12 -63 -10 0
8 -55 -18 0
8 -58 -25 0
8 -32 -4 0
8 -57 -23 0
8 -7 -1 0
8 -60 -27 0
8 -51 -12 0
8 -47 -8 0
8 -53 -17 0
8 -49 -10 0
17 -87 -18 0
17 -91 -25 0
17 -37 -4 0
17 -90 -23 0
17 -15 -1 0
17 -94 -27 0
17 -76 -12 0
17 -52 -8 0
17 -86 -17 0
17 -66 -10 0
10 -67 -18 0
10 -72 -25 0
10 -34 -4 0
10 -69 -23 0
10 -11 -1 0
10 -74 -27 0
10 -64 -12 0
10 -48 -8 0
10 -65 -17 0
10 -62 -10 0
95 0
99 98 0
-99 -98 0
-99 -43 39 0
-99 -103 96 0
-99 -26 20 0
-99 -109 101 0
-99 -82 79 0
-99 -58 55 0
-99 -91 87 0
-99 -72 67 0
39 40 0
-39 -40 0
-39 -44 99 0
-39 -41 96 0
-39 -5 20 0
-39 -46 101 0
-39 -36 79 0
-39 -32 55 0
-39 -37 87 0
-39 -34 67 0
96 97 0
-96 -97 0
-96 -104 99 0
-96 -42 39 0
-96 -21 20 0
-96 -106 101 0
-96 -81 79 0
-96 -57 55 0
-96 -90 87 0
-96 -69 67 0
20 19 0
-20 -19 0
-20 -24 99 0
-20 -3 39 0
-20 -22 96 0
-20 -29 101 0
-20 -13 79 0
-20 -7 55 0
-20 -15 87 0
-20 -11 67 0
101 100 0
-101 -100 0
-101 -108 99 0
-101 -45 39 0
-101 -105 96 0
-101 -28 20 0
-101 -84 79 0
-101 -60 55 0
-101 -94 87 0
-101 -74 67 0
79 78 0
-79 -78 0
-79 -83 99 0
-79 -35 39 0
-79 -80 96 0
-79 -14 20 0
-79 -85 101 0
-79 -51 55 0
-79 -76 87 0
-79 -64 67 0
55 54 0
-55 -54 0
-55 -59 99 0
-55 -31 39 0
-55 -56 96 0
-55 -6 20 0
-55 -61 101 0
-55 -50 79 0
-55 -52 87 0
-55 -48 67 0
87 88 0
-87 -88 0
-87 -92 99 0
-87 -38 39 0
-87 -89 96 0
-87 -16 20 0
-87 -93 101 0
-87 -77 79 0
-87 -53 55 0
-87 -65 67 0
67 68 0
-67 -68 0
-67 -71 99 0
-67 -33 39 0
-67 -70 96 0
-67 -9 20 0
-67 -73 101 0
-67 -63 79 0
-67 -49 55 0
-67 -66 87 0
107 0
-98 -39 43 0
-98 -96 103 0
-98 -20 26 0
-98 -101 109 0
-98 -79 82 0
-98 -55 58 0
-98 -87 91 0
-98 -67 72 0
43 44 0
-43 -44 0
-43 -40 98 0
-43 -41 103 0
-43 -5 26 0
-43 -46 109 0
-43 -36 82 0
-43 -32 58 0
-43 -37 91 0
-43 -34 72 0
103 104 0
-103 -104 0
-103 -97 98 0
-103 -42 43 0
-103 -21 26 0
-103 -106 109 0
-103 -81 82 0
-103 -57 58 0
-103 -90 91 0
-103 -69 72 0
26 24 0
-26 -24 0
-26 -19 98 0
-26 -3 43 0
-26 -22 103 0
-26 -29 109 0
-26 -13 82 0
-26 -7 58 0
-26 -15 91 0
-26 -11 72 0
109 108 0
-109 -108 0
-109 -100 98 0
-109 -45 43 0
-109 -105 103 0
-109 -28 26 0
-109 -84 82 0
-109 -60 58 0
-109 -94 91 0
-109 -74 72 0
82 83 0
-82 -83 0
-82 -78 98 0
-82 -35 43 0
-82 -80 103 0
-82 -14 26 0
-82 -85 109 0
-82 -51 58 0
-82 -76 91 0
-82 -64 72 0
58 59 0
-58 -59 0
-58 -54 98 0
-58 -31 43 0
-58 -56 103 0
-58 -6 26 0
-58 -61 109 0
-58 -50 82 0
-58 -52 91 0
-58 -48 72 0
91 92 0
-91 -92 0
-91 -88 98 0
-91 -38 43 0
-91 -89 103 0
-91 -16 26 0
-91 -93 109 0
-91 -77 82 0
-91 -53 58 0
-91 -65 72 0
72 71 0
-72 -71 0
-72 -68 98 0
-72 -33 43 0
-72 -70 103 0
-72 -9 26 0
-72 -73 109 0
-72 -63 82 0
-72 -49 58 0
-72 -66 91 0
30 0
-40 -99 44 0
-40 -96 41 0
-40 -20 5 0
-40 -101 46 0
-40 -79 36 0
-40 -55 32 0
-40 -87 37 0
-40 -67 34 0
-44 -98 40 0
-44 -103 41 0
-44 -26 5 0
-44 -109 46 0
-44 -82 36 0
-44 -58 32 0
-44 -91 37 0
-44 -72 34 0
41 42 0
-41 -42 0
-41 -97 40 0
-41 -104 44 0
-41 -21 5 0
-41 -106 46 0
-41 -81 36 0
-41 -57 32 0
-41 -90 37 0
-41 -69 34 0
5 3 0
-5 -3 0
-5 -19 40 0
-5 -24 44 0
-5 -22 41 0
-5 -29 46 0
-5 -13 36 0
-5 -7 32 0
-5 -15 37 0
-5 -11 34 0
46 45 0
-46 -45 0
-46 -100 40 0
-46 -108 44 0
-46 -105 41 0
-46 -28 5 0
-46 -84 36 0
-46 -60 32 0
-46 -94 37 0
-46 -74 34 0
36 35 0
-36 -35 0
-36 -78 40 0
-36 -83 44 0
-36 -80 41 0
-36 -14 5 0
-36 -85 46 0
-36 -51 32 0
-36 -76 37 0
-36 -64 34 0
32 31 0
-32 -31 0
-32 -54 40 0
-32 -59 44 0
-32 -56 41 0
-32 -6 5 0
-32 -61 46 0
-32 -50 36 0
-32 -52 37 0
-32 -48 34 0
37 38 0
-37 -38 0
-37 -88 40 0
-37 -92 44 0
-37 -89 41 0
-37 -16 5 0
-37 -93 46 0
-37 -77 36 0
-37 -53 32 0
-37 -65 34 0
34 33 0
-34 -33 0
-34 -68 40 0
-34 -71 44 0
-34 -70 41 0
-34 -9 5 0
-34 -73 46 0
-34 -63 36 0
-34 -49 32 0
-34 -66 37 0
102 0
-97 -99 104 0
-97 -39 42 0
-97 -20 21 0
-97 -101 106 0
-97 -79 81 0
-97 -55 57 0
-97 -87 90 0
-97 -67 69 0
-104 -98 97 0
-104 -43 42 0
-104 -26 21 0
-104 -109 106 0
-104 -82 81 0
-104 -58 57 0
-104 -91 90 0
-104 -72 69 0
-42 -40 97 0
-42 -44 104 0
-42 -5 21 0
-42 -46 106 0
-42 -36 81 0
-42 -32 57 0
-42 -37 90 0
-42 -34 69 0
21 22 0
-21 -22 0
-21 -19 97 0
-21 -24 104 0
-21 -3 42 0
-21 -29 106 0
-21 -13 81 0
-21 -7 57 0
-21 -15 90 0
-21 -11 69 0
106 105 0
-106 -105 0
-106 -100 97 0
-106 -108 104 0
-106 -45 42 0
-106 -28 21 0
-106 -84 81 0
-106 -60 57 0
-106 -94 90 0
-106 -74 69 0
81 80 0
-81 -80 0
-81 -78 97 0
-81 -83 104 0
-81 -35 42 0
-81 -14 21 0
-81 -85 106 0
-81 -51 57 0
-81 -76 90 0
-81 -64 69 0
57 56 0
-57 -56 0
-57 -54 97 0
-57 -59 104 0
-57 -31 42 0
-57 -6 21 0
-57 -61 106 0
-57 -50 81 0
-57 -52 90 0
-57 -48 69 0
90 89 0
-90 -89 0
-90 -88 97 0
-90 -92 104 0
-90 -38 42 0
-90 -16 21 0
-90 -93 106 0
-90 -77 81 0
-90 -53 57 0
-90 -65 69 0
69 70 0
-69 -70 0
-69 -68 97 0
-69 -71 104 0
-69 -33 42 0
-69 -9 21 0
-69 -73 106 0
-69 -63 81 0
-69 -49 57 0
-69 -66 90 0
2 0
-19 -99 24 0
-19 -39 3 0
-19 -96 22 0
-19 -101 29 0
-19 -79 13 0
-19 -55 7 0
-19 -87 15 0
-19 -67 11 0
-24 -98 19 0
-24 -43 3 0
-24 -103 22 0
-24 -109 29 0
-24 -82 13 0
-24 -58 7 0
-24 -91 15 0
-24 -72 11 0
-3 -40 19 0
-3 -44 24 0
-3 -41 22 0
-3 -46 29 0
-3 -36 13 0
-3 -32 7 0
-3 -37 15 0
-3 -34 11 0
-22 -97 19 0
-22 -104 24 0
-22 -42 3 0
-22 -106 29 0
-22 -81 13 0
-22 -57 7 0
-22 -90 15 0
-22 -69 11 0
29 28 0
-29 -28 0
-29 -100 19 0
-29 -108 24 0
-29 -45 3 0
-29 -105 22 0
-29 -84 13 0
-29 -60 7 0
-29 -94 15 0
-29 -74 11 0
13 14 0
-13 -14 0
-13 -78 19 0
-13 -83 24 0
-13 -35 3 0
-13 -80 22 0
-13 -85 29 0
-13 -51 7 0
-13 -76 15 0
-13 -64 11 0
7 6 0
-7 -6 0
-7 -54 19 0
-7 -59 24 0
-7 -31 3 0
-7 -56 22 0
-7 -61 29 0
-7 -50 13 0
-7 -52 15 0
-7 -48 11 0
15 16 0
-15 -16 0
-15 -88 19 0
-15 -92 24 0
-15 -38 3 0
-15 -89 22 0
-15 -93 29 0
-15 -77 13 0
-15 -53 7 0
-15 -65 11 0
11 9 0
-11 -9 0
-11 -68 19 0
-11 -71 24 0
-11 -33 3 0
-11 -70 22 0
-11 -73 29 0
-11 -63 13 0
-11 -49 7 0
-11 -66 15 0
110 0
-100 -99 108 0
-100 -39 45 0
-100 -96 105 0
-100 -20 28 0
-100 -79 84 0
-100 -55 60 0
-100 -87 94 0
-100 -67 74 0
-108 -98 100 0
-108 -43 45 0
-108 -103 105 0
-108 -26 28 0
-108 -82 84 0
-108 -58 60 0
-108 -91 94 0
-108 -72 74 0
-45 -40 100 0
-45 -44 108 0
-45 -41 105 0
-45 -5 28 0
-45 -36 84 0
-45 -32 60 0
-45 -37 94 0
-45 -34 74 0
-105 -97 100 0
-105 -104 108 0
-105 -42 45 0
-105 -21 28 0
-105 -81 84 0
-105 -57 60 0
-105 -90 94 0
-105 -69 74 0
-28 -19 100 0
-28 -24 108 0
-28 -3 45 0
-28 -22 105 0
-28 -13 84 0
-28 -7 60 0
-28 -15 94 0
-28 -11 74 0
84 85 0
-84 -85 0
-84 -78 100 0
-84 -83 108 0
-84 -35 45 0
-84 -80 105 0
-84 -14 28 0
-84 -51 60 0
-84 -76 94 0
-84 -64 74 0
60 61 0
-60 -61 0
-60 -54 100 0
-60 -59 108 0
-60 -31 45 0
-60 -56 105 0
-60 -6 28 0
-60 -50 84 0
-60 -52 94 0
-60 -48 74 0
94 93 0
-94 -93 0
-94 -88 100 0
-94 -92 108 0
-94 -38 45 0
-94 -89 105 0
-94 -16 28 0
-94 -77 84 0
-94 -53 60 0
-94 -65 74 0
74 73 0
-74 -73 0
-74 -68 100 0
-74 -71 108 0
-74 -33 45 0
-74 -70 105 0
-74 -9 28 0
-74 -63 84 0
-74 -49 60 0
-74 -66 94 0
75 0
-78 -99 83 0
-78 -39 35 0
-78 -96 80 0
-78 -20 14 0
-78 -101 85 0
-78 -55 51 0
-78 -87 76 0
-78 -67 64 0
-83 -98 78 0
-83 -43 35 0
-83 -103 80 0
-83 -26 14 0
-83 -109 85 0
-83 -58 51 0
-83 -91 76 0
-83 -72 64 0
-35 -40 78 0
-35 -44 83 0
-35 -41 80 0
-35 -5 14 0
-35 -46 85 0
-35 -32 51 0
-35 -37 76 0
-35 -34 64 0
-80 -97 78 0
-80 -104 83 0
-80 -42 35 0
-80 -21 14 0
-80 -106 85 0
-80 -57 51 0
-80 -90 76 0
-80 -69 64 0
-14 -19 78 0
-14 -24 83 0
-14 -3 35 0
-14 -22 80 0
-14 -29 85 0
-14 -7 51 0
-14 -15 76 0
-14 -11 64 0
-85 -100 78 0
-85 -108 83 0
-85 -45 35 0
-85 -105 80 0
-85 -28 14 0
-85 -60 51 0
-85 -94 76 0
-85 -74 64 0
51 50 0
-51 -50 0
-51 -54 78 0
-51 -59 83 0
-51 -31 35 0
-51 -56 80 0
-51 -6 14 0
-51 -61 85 0
-51 -52 76 0
-51 -48 64 0
76 77 0
-76 -77 0
-76 -88 78 0
-76 -92 83 0
-76 -38 35 0
-76 -89 80 0
-76 -16 14 0
-76 -93 85 0
-76 -53 51 0
-76 -65 64 0
64 63 0
-64 -63 0
-64 -68 78 0
-64 -71 83 0
-64 -33 35 0
-64 -70 80 0
-64 -9 14 0
-64 -73 85 0
-64 -49 51 0
-64 -66 76 0
47 0
-54 -99 59 0
-54 -39 31 0
-54 -96 56 0
-54 -20 6 0
-54 -101 61 0
-54 -79 50 0
-54 -87 52 0
-54 -67 48 0
-59 -98 54 0
-59 -43 31 0
-59 -103 56 0
-59 -26 6 0
-59 -109 61 0
-59 -82 50 0
-59 -91 52 0
-59 -72 48 0
-31 -40 54 0
-31 -44 59 0
-31 -41 56 0
-31 -5 6 0
-31 -46 61 0
-31 -36 50 0
-31 -37 52 0
-31 -34 48 0
-56 -97 54 0
-56 -104 59 0
-56 -42 31 0
-56 -21 6 0
-56 -106 61 0
-56 -81 50 0
-56 -90 52 0
-56 -69 48 0
-6 -19 54 0
-6 -24 59 0
-6 -3 31 0
-6 -22 56 0
-6 -29 61 0
-6 -13 50 0
-6 -15 52 0
-6 -11 48 0
-61 -100 54 0
-61 -108 59 0
-61 -45 31 0
-61 -105 56 0
-61 -28 6 0
-61 -84 50 0
-61 -94 52 0
-61 -74 48 0
-50 -78 54 0
-50 -83 59 0
-50 -35 31 0
-50 -80 56 0
-50 -14 6 0
-50 -85 61 0
-50 -76 52 0
-50 -64 48 0
52 53 0
-52 -53 0
-52 -88 54 0
-52 -92 59 0
-52 -38 31 0
-52 -89 56 0
-52 -16 6 0
-52 -93 61 0
-52 -77 50 0
-52 -65 48 0
48 49 0
-48 -49 0
-48 -68 54 0
-48 -71 59 0
-48 -33 31 0
-48 -70 56 0
-48 -9 6 0
-48 -73 61 0
-48 -63 50 0
-48 -66 52 0
86 0
-88 -99 92 0
-88 -39 38 0
-88 -96 89 0
-88 -20 16 0
-88 -101 93 0
-88 -79 77 0
-88 -55 53 0
-88 -67 65 0
-92 -98 88 0
-92 -43 38 0
-92 -103 89 0
-92 -26 16 0
-92 -109 93 0
-92 -82 77 0
-92 -58 53 0
-92 -72 65 0
-38 -40 88 0
-38 -44 92 0
-38 -41 89 0
-38 -5 16 0
-38 -46 93 0
-38 -36 77 0
-38 -32 53 0
-38 -34 65 0
-89 -97 88 0
-89 -104 92 0
-89 -42 38 0
-89 -21 16 0
-89 -106 93 0
-89 -81 77 0
-89 -57 53 0
-89 -69 65 0
-16 -19 88 0
-16 -24 92 0
-16 -3 38 0
-16 -22 89 0
-16 -29 93 0
-16 -13 77 0
-16 -7 53 0
-16 -11 65 0
-93 -100 88 0
-93 -108 92 0
-93 -45 38 0
-93 -105 89 0
-93 -28 16 0
-93 -84 77 0
-93 -60 53 0
-93 -74 65 0
-77 -78 88 0
-77 -83 92 0
-77 -35 38 0
-77 -80 89 0
-77 -14 16 0
-77 -85 93 0
-77 -51 53 0
-77 -64 65 0
-53 -54 88 0
-53 -59 92 0
-53 -31 38 0
-53 -56 89 0
-53 -6 16 0
-53 -61 93 0
-53 -50 77 0
-53 -48 65 0
65 66 0
-65 -66 0
-65 -68 88 0
-65 -71 92 0
-65 -33 38 0
-65 -70 89 0
-65 -9 16 0
-65 -73 93 0
-65 -63 77 0
-65 -49 53 0
62 0
-68 -99 71 0
-68 -39 33 0
-68 -96 70 0
-68 -20 9 0
-68 -101 73 0
-68 -79 63 0
-68 -55 49 0
-68 -87 66 0
-71 -98 68 0
-71 -43 33 0
-71 -103 70 0
-71 -26 9 0
-71 -109 73 0
-71 -82 63 0
-71 -58 49 0
-71 -91 66 0
-33 -40 68 0
-33 -44 71 0
-33 -41 70 0
-33 -5 9 0
-33 -46 73 0
-33 -36 63 0
-33 -32 49 0
-33 -37 66 0
-70 -97 68 0
-70 -104 71 0
-70 -42 33 0
-70 -21 9 0
-70 -106 73 0
-70 -81 63 0
-70 -57 49 0
-70 -90 66 0
-9 -19 68 0
-9 -24 71 0
-9 -3 33 0
-9 -22 70 0
-9 -29 73 0
-9 -13 63 0
-9 -7 49 0
-9 -15 66 0
-73 -100 68 0
-73 -108 71 0
-73 -45 33 0
-73 -105 70 0
-73 -28 9 0
-73 -84 63 0
-73 -60 49 0
-73 -94 66 0
-63 -78 68 0
-63 -83 71 0
-63 -35 33 0
-63 -80 70 0
-63 -14 9 0
-63 -85 73 0
-63 -51 49 0
-63 -76 66 0
-49 -54 68 0
-49 -59 71 0
-49 -31 33 0
-49 -56 70 0
-49 -6 9 0
-49 -61 73 0
-49 -50 63 0
-49 -52 66 0
-66 -88 68 0
-66 -92 71 0
-66 -38 33 0
-66 -89 70 0
-66 -16 9 0
-66 -93 73 0
-66 -77 63 0
-66 -53 49 0
