c T(domain2) LEQ(domain2,domain2) LEQ(domain2,domain4) T(domain4) LEQ(domain4,domain2) T(domain7) LEQ(domain7,domain2) LEQ(domain2,domain7) LEQ(domain8,domain2) LEQ(domain2,domain8) T(domain8) T(domain5) LEQ(domain2,domain5) LEQ(domain5,domain2) LEQ(domain0,domain2) T(domain0) LEQ(domain2,domain0) LEQ(domain9,domain2) LEQ(domain2,domain9) T(domain9) LEQ(domain6,domain2) T(domain6) LEQ(domain2,domain6) LEQ(domain2,domain10) LEQ(domain10,domain2) T(domain10) LEQ(domain3,domain2) LEQ(domain2,domain3) T(domain3) LEQ(domain2,domain1) LEQ(domain1,domain2) T(domain1) LEQ(domain4,domain4) LEQ(domain4,domain7) LEQ(domain7,domain4) LEQ(domain4,domain8) LEQ(domain8,domain4) LEQ(domain4,domain5) LEQ(domain5,domain4) LEQ(domain0,domain4) LEQ(domain4,domain0) LEQ(domain9,domain4) LEQ(domain4,domain9) LEQ(domain4,domain6) LEQ(domain6,domain4) LEQ(domain10,domain4) LEQ(domain4,domain10) LEQ(domain3,domain4) LEQ(domain4,domain3) LEQ(domain1,domain4) LEQ(domain4,domain1) LEQ(domain7,domain7) LEQ(domain7,domain8) LEQ(domain8,domain7) LEQ(domain5,domain7) LEQ(domain7,domain5) LEQ(domain7,domain0) LEQ(domain0,domain7) LEQ(domain7,domain9) LEQ(domain9,domain7) LEQ(domain7,domain6) LEQ(domain6,domain7) LEQ(domain10,domain7) LEQ(domain7,domain10) LEQ(domain3,domain7) LEQ(domain7,domain3) LEQ(domain7,domain1) LEQ(domain1,domain7) LEQ(domain8,domain8) LEQ(domain5,domain8) LEQ(domain8,domain5) LEQ(domain0,domain8) LEQ(domain8,domain0) LEQ(domain8,domain9) LEQ(domain9,domain8) LEQ(domain8,domain6) LEQ(domain6,domain8) LEQ(domain10,domain8) LEQ(domain8,domain10) LEQ(domain8,domain3) LEQ(domain3,domain8) LEQ(domain8,domain1) LEQ(domain1,domain8) LEQ(domain5,domain5) LEQ(domain0,domain5) LEQ(domain5,domain0) LEQ(domain9,domain5) LEQ(domain5,domain9) LEQ(domain5,domain6) LEQ(domain6,domain5) LEQ(domain10,domain5) LEQ(domain5,domain10) LEQ(domain3,domain5) LEQ(domain5,domain3) LEQ(domain1,domain5) LEQ(domain5,domain1) LEQ(domain0,domain0) LEQ(domain9,domain0) LEQ(domain0,domain9) LEQ(domain0,domain6) LEQ(domain6,domain0) LEQ(domain0,domain10) LEQ(domain10,domain0) LEQ(domain3,domain0) LEQ(domain0,domain3) LEQ(domain1,domain0) LEQ(domain0,domain1) LEQ(domain9,domain9) LEQ(domain9,domain6) LEQ(domain6,domain9) LEQ(domain9,domain10) LEQ(domain10,domain9) LEQ(domain3,domain9) LEQ(domain9,domain3) LEQ(domain1,domain9) LEQ(domain9,domain1) LEQ(domain6,domain6) LEQ(domain10,domain6) LEQ(domain6,domain10) LEQ(domain3,domain6) LEQ(domain6,domain3) LEQ(domain1,domain6) LEQ(domain6,domain1) LEQ(domain10,domain10) LEQ(domain10,domain3) LEQ(domain3,domain10) LEQ(domain10,domain1) LEQ(domain1,domain10) LEQ(domain3,domain3) LEQ(domain3,domain1) LEQ(domain1,domain3) LEQ(domain1,domain1)
c 1 2 3 4 5 6 7 8 9 10 11 12 13 14 15 16 17 18 19 20 21 22 23 24 25 26 27 28 29 30 31 32 33 34 35 36 37 38 39 40 41 42 43 44 45 46 47 48 49 50 51 52 53 54 55 56 57 58 59 60 61 62 63 64 65 66 67 68 69 70 71 72 73 74 75 76 77 78 79 80 81 82 83 84 85 86 87 88 89 90 91 92 93 94 95 96 97 98 99 100 101 102 103 104 105 106 107 108 109 110 111 112 113 114 115 116 117 118 119 120 121 122 123 124 125 126 127 128 129 130 131 132
p cnf 132 1232
16 -97 -16 0
16 -106 -32 0
16 -103 -26 0
16 -17 -1 0
16 -104 -29 0
16 -41 -4 0
16 -86 -12 0
16 -101 -22 0
16 -57 -6 0
16 -73 -11 0
16 -98 -20 0
32 -107 -16 0
32 -132 -32 0
32 -127 -26 0
32 -30 -1 0
32 -130 -29 0
32 -51 -4 0
32 -96 -12 0
32 -123 -22 0
32 -67 -6 0
32 -82 -11 0
32 -116 -20 0
26 -102 -16 0
26 -128 -32 0
26 -124 -26 0
26 -24 -1 0
26 -126 -29 0
26 -47 -4 0
26 -92 -12 0
26 -119 -22 0
26 -64 -6 0
26 -79 -11 0
26 -111 -20 0
1 -15 -16 0
1 -31 -32 0
1 -25 -26 0
1 -2 -1 0
1 -27 -29 0
1 -5 -4 0
1 -14 -12 0
1 -21 -22 0
1 -7 -6 0
1 -9 -11 0
1 -18 -20 0
29 -105 -16 0
29 -131 -32 0
29 -125 -26 0
29 -28 -1 0
29 -129 -29 0
29 -49 -4 0
29 -94 -12 0
29 -121 -22 0
29 -66 -6 0
29 -80 -11 0
29 -114 -20 0
4 -40 -16 0
4 -50 -32 0
4 -46 -26 0
4 -3 -1 0
4 -48 -29 0
4 -33 -4 0
4 -39 -12 0
4 -45 -22 0
4 -35 -6 0
4 -37 -11 0
4 -42 -20 0
12 -85 -16 0
12 -95 -32 0
12 -91 -26 0
12 -13 -1 0
12 -93 -29 0
12 -38 -4 0
12 -84 -12 0
12 -90 -22 0
12 -56 -6 0
12 -71 -11 0
12 -87 -20 0
22 -100 -16 0
22 -122 -32 0
22 -118 -26 0
22 -23 -1 0
22 -120 -29 0
22 -44 -4 0
22 -89 -12 0
22 -117 -22 0
22 -61 -6 0
22 -76 -11 0
22 -109 -20 0
6 -58 -16 0
6 -68 -32 0
6 -63 -26 0
6 -8 -1 0
6 -65 -29 0
6 -34 -4 0
6 -55 -12 0
6 -62 -22 0
6 -52 -6 0
6 -54 -11 0
6 -60 -20 0
11 -72 -16 0
11 -83 -32 0
11 -78 -26 0
11 -10 -1 0
11 -81 -29 0
11 -36 -4 0
11 -70 -12 0
11 -77 -22 0
11 -53 -6 0
11 -69 -11 0
11 -75 -20 0
20 -99 -16 0
20 -115 -32 0
20 -112 -26 0
20 -19 -1 0
20 -113 -29 0
20 -43 -4 0
20 -88 -12 0
20 -110 -22 0
20 -59 -6 0
20 -74 -11 0
20 -108 -20 0
97 0
107 106 0
-107 -106 0
-107 -128 102 0
-107 -31 15 0
-107 -131 105 0
-107 -50 40 0
-107 -95 85 0
-107 -122 100 0
-107 -68 58 0
-107 -83 72 0
-107 -115 99 0
102 103 0
-102 -103 0
-102 -127 107 0
-102 -25 15 0
-102 -125 105 0
-102 -46 40 0
-102 -91 85 0
-102 -118 100 0
-102 -63 58 0
-102 -78 72 0
-102 -112 99 0
15 17 0
-15 -17 0
-15 -30 107 0
-15 -24 102 0
-15 -28 105 0
-15 -3 40 0
-15 -13 85 0
-15 -23 100 0
-15 -8 58 0
-15 -10 72 0
-15 -19 99 0
105 104 0
-105 -104 0
-105 -130 107 0
-105 -126 102 0
-105 -27 15 0
-105 -48 40 0
-105 -93 85 0
-105 -120 100 0
-105 -65 58 0
-105 -81 72 0
-105 -113 99 0
40 41 0
-40 -41 0
-40 -51 107 0
-40 -47 102 0
-40 -5 15 0
-40 -49 105 0
-40 -38 85 0
-40 -44 100 0
-40 -34 58 0
-40 -36 72 0
-40 -43 99 0
85 86 0
-85 -86 0
-85 -96 107 0
-85 -92 102 0
-85 -14 15 0
-85 -94 105 0
-85 -39 40 0
-85 -89 100 0
-85 -55 58 0
-85 -70 72 0
-85 -88 99 0
100 101 0
-100 -101 0
-100 -123 107 0
-100 -119 102 0
-100 -21 15 0
-100 -121 105 0
-100 -45 40 0
-100 -90 85 0
-100 -62 58 0
-100 -77 72 0
-100 -110 99 0
58 57 0
-58 -57 0
-58 -67 107 0
-58 -64 102 0
-58 -7 15 0
-58 -66 105 0
-58 -35 40 0
-58 -56 85 0
-58 -61 100 0
-58 -53 72 0
-58 -59 99 0
72 73 0
-72 -73 0
-72 -82 107 0
-72 -79 102 0
-72 -9 15 0
-72 -80 105 0
-72 -37 40 0
-72 -71 85 0
-72 -76 100 0
-72 -54 58 0
-72 -74 99 0
99 98 0
-99 -98 0
-99 -116 107 0
-99 -111 102 0
-99 -18 15 0
-99 -114 105 0
-99 -42 40 0
-99 -87 85 0
-99 -109 100 0
-99 -60 58 0
-99 -75 72 0
132 0
-106 -102 128 0
-106 -15 31 0
-106 -105 131 0
-106 -40 50 0
-106 -85 95 0
-106 -100 122 0
-106 -58 68 0
-106 -72 83 0
-106 -99 115 0
128 127 0
-128 -127 0
-128 -103 106 0
-128 -25 31 0
-128 -125 131 0
-128 -46 50 0
-128 -91 95 0
-128 -118 122 0
-128 -63 68 0
-128 -78 83 0
-128 -112 115 0
31 30 0
-31 -30 0
-31 -17 106 0
-31 -24 128 0
-31 -28 131 0
-31 -3 50 0
-31 -13 95 0
-31 -23 122 0
-31 -8 68 0
-31 -10 83 0
-31 -19 115 0
131 130 0
-131 -130 0
-131 -104 106 0
-131 -126 128 0
-131 -27 31 0
-131 -48 50 0
-131 -93 95 0
-131 -120 122 0
-131 -65 68 0
-131 -81 83 0
-131 -113 115 0
50 51 0
-50 -51 0
-50 -41 106 0
-50 -47 128 0
-50 -5 31 0
-50 -49 131 0
-50 -38 95 0
-50 -44 122 0
-50 -34 68 0
-50 -36 83 0
-50 -43 115 0
95 96 0
-95 -96 0
-95 -86 106 0
-95 -92 128 0
-95 -14 31 0
-95 -94 131 0
-95 -39 50 0
-95 -89 122 0
-95 -55 68 0
-95 -70 83 0
-95 -88 115 0
122 123 0
-122 -123 0
-122 -101 106 0
-122 -119 128 0
-122 -21 31 0
-122 -121 131 0
-122 -45 50 0
-122 -90 95 0
-122 -62 68 0
-122 -77 83 0
-122 -110 115 0
68 67 0
-68 -67 0
-68 -57 106 0
-68 -64 128 0
-68 -7 31 0
-68 -66 131 0
-68 -35 50 0
-68 -56 95 0
-68 -61 122 0
-68 -53 83 0
-68 -59 115 0
83 82 0
-83 -82 0
-83 -73 106 0
-83 -79 128 0
-83 -9 31 0
-83 -80 131 0
-83 -37 50 0
-83 -71 95 0
-83 -76 122 0
-83 -54 68 0
-83 -74 115 0
115 116 0
-115 -116 0
-115 -98 106 0
-115 -111 128 0
-115 -18 31 0
-115 -114 131 0
-115 -42 50 0
-115 -87 95 0
-115 -109 122 0
-115 -60 68 0
-115 -75 83 0
124 0
-103 -107 127 0
-103 -15 25 0
-103 -105 125 0
-103 -40 46 0
-103 -85 91 0
-103 -100 118 0
-103 -58 63 0
-103 -72 78 0
-103 -99 112 0
-127 -106 103 0
-127 -31 25 0
-127 -131 125 0
-127 -50 46 0
-127 -95 91 0
-127 -122 118 0
-127 -68 63 0
-127 -83 78 0
-127 -115 112 0
25 24 0
-25 -24 0
-25 -17 103 0
-25 -30 127 0
-25 -28 125 0
-25 -3 46 0
-25 -13 91 0
-25 -23 118 0
-25 -8 63 0
-25 -10 78 0
-25 -19 112 0
125 126 0
-125 -126 0
-125 -104 103 0
-125 -130 127 0
-125 -27 25 0
-125 -48 46 0
-125 -93 91 0
-125 -120 118 0
-125 -65 63 0
-125 -81 78 0
-125 -113 112 0
46 47 0
-46 -47 0
-46 -41 103 0
-46 -51 127 0
-46 -5 25 0
-46 -49 125 0
-46 -38 91 0
-46 -44 118 0
-46 -34 63 0
-46 -36 78 0
-46 -43 112 0
91 92 0
-91 -92 0
-91 -86 103 0
-91 -96 127 0
-91 -14 25 0
-91 -94 125 0
-91 -39 46 0
-91 -89 118 0
-91 -55 63 0
-91 -70 78 0
-91 -88 112 0
118 119 0
-118 -119 0
-118 -101 103 0
-118 -123 127 0
-118 -21 25 0
-118 -121 125 0
-118 -45 46 0
-118 -90 91 0
-118 -62 63 0
-118 -77 78 0
-118 -110 112 0
63 64 0
-63 -64 0
-63 -57 103 0
-63 -67 127 0
-63 -7 25 0
-63 -66 125 0
-63 -35 46 0
-63 -56 91 0
-63 -61 118 0
-63 -53 78 0
-63 -59 112 0
78 79 0
-78 -79 0
-78 -73 103 0
-78 -82 127 0
-78 -9 25 0
-78 -80 125 0
-78 -37 46 0
-78 -71 91 0
-78 -76 118 0
-78 -54 63 0
-78 -74 112 0
112 111 0
-112 -111 0
-112 -98 103 0
-112 -116 127 0
-112 -18 25 0
-112 -114 125 0
-112 -42 46 0
-112 -87 91 0
-112 -109 118 0
-112 -60 63 0
-112 -75 78 0
2 0
-17 -107 30 0
-17 -102 24 0
-17 -105 28 0
-17 -40 3 0
-17 -85 13 0
-17 -100 23 0
-17 -58 8 0
-17 -72 10 0
-17 -99 19 0
-30 -106 17 0
-30 -128 24 0
-30 -131 28 0
-30 -50 3 0
-30 -95 13 0
-30 -122 23 0
-30 -68 8 0
-30 -83 10 0
-30 -115 19 0
-24 -103 17 0
-24 -127 30 0
-24 -125 28 0
-24 -46 3 0
-24 -91 13 0
-24 -118 23 0
-24 -63 8 0
-24 -78 10 0
-24 -112 19 0
28 27 0
-28 -27 0
-28 -104 17 0
-28 -130 30 0
-28 -126 24 0
-28 -48 3 0
-28 -93 13 0
-28 -120 23 0
-28 -65 8 0
-28 -81 10 0
-28 -113 19 0
3 5 0
-3 -5 0
-3 -41 17 0
-3 -51 30 0
-3 -47 24 0
-3 -49 28 0
-3 -38 13 0
-3 -44 23 0
-3 -34 8 0
-3 -36 10 0
-3 -43 19 0
13 14 0
-13 -14 0
-13 -86 17 0
-13 -96 30 0
-13 -92 24 0
-13 -94 28 0
-13 -39 3 0
-13 -89 23 0
-13 -55 8 0
-13 -70 10 0
-13 -88 19 0
23 21 0
-23 -21 0
-23 -101 17 0
-23 -123 30 0
-23 -119 24 0
-23 -121 28 0
-23 -45 3 0
-23 -90 13 0
-23 -62 8 0
-23 -77 10 0
-23 -110 19 0
8 7 0
-8 -7 0
-8 -57 17 0
-8 -67 30 0
-8 -64 24 0
-8 -66 28 0
-8 -35 3 0
-8 -56 13 0
-8 -61 23 0
-8 -53 10 0
-8 -59 19 0
10 9 0
-10 -9 0
-10 -73 17 0
-10 -82 30 0
-10 -79 24 0
-10 -80 28 0
-10 -37 3 0
-10 -71 13 0
-10 -76 23 0
-10 -54 8 0
-10 -74 19 0
19 18 0
-19 -18 0
-19 -98 17 0
-19 -116 30 0
-19 -111 24 0
-19 -114 28 0
-19 -42 3 0
-19 -87 13 0
-19 -109 23 0
-19 -60 8 0
-19 -75 10 0
129 0
-104 -107 130 0
-104 -102 126 0
-104 -15 27 0
-104 -40 48 0
-104 -85 93 0
-104 -100 120 0
-104 -58 65 0
-104 -72 81 0
-104 -99 113 0
-130 -106 104 0
-130 -128 126 0
-130 -31 27 0
-130 -50 48 0
-130 -95 93 0
-130 -122 120 0
-130 -68 65 0
-130 -83 81 0
-130 -115 113 0
-126 -103 104 0
-126 -127 130 0
-126 -25 27 0
-126 -46 48 0
-126 -91 93 0
-126 -118 120 0
-126 -63 65 0
-126 -78 81 0
-126 -112 113 0
-27 -17 104 0
-27 -30 130 0
-27 -24 126 0
-27 -3 48 0
-27 -13 93 0
-27 -23 120 0
-27 -8 65 0
-27 -10 81 0
-27 -19 113 0
48 49 0
-48 -49 0
-48 -41 104 0
-48 -51 130 0
-48 -47 126 0
-48 -5 27 0
-48 -38 93 0
-48 -44 120 0
-48 -34 65 0
-48 -36 81 0
-48 -43 113 0
93 94 0
-93 -94 0
-93 -86 104 0
-93 -96 130 0
-93 -92 126 0
-93 -14 27 0
-93 -39 48 0
-93 -89 120 0
-93 -55 65 0
-93 -70 81 0
-93 -88 113 0
120 121 0
-120 -121 0
-120 -101 104 0
-120 -123 130 0
-120 -119 126 0
-120 -21 27 0
-120 -45 48 0
-120 -90 93 0
-120 -62 65 0
-120 -77 81 0
-120 -110 113 0
65 66 0
-65 -66 0
-65 -57 104 0
-65 -67 130 0
-65 -64 126 0
-65 -7 27 0
-65 -35 48 0
-65 -56 93 0
-65 -61 120 0
-65 -53 81 0
-65 -59 113 0
81 80 0
-81 -80 0
-81 -73 104 0
-81 -82 130 0
-81 -79 126 0
-81 -9 27 0
-81 -37 48 0
-81 -71 93 0
-81 -76 120 0
-81 -54 65 0
-81 -74 113 0
113 114 0
-113 -114 0
-113 -98 104 0
-113 -116 130 0
-113 -111 126 0
-113 -18 27 0
-113 -42 48 0
-113 -87 93 0
-113 -109 120 0
-113 -60 65 0
-113 -75 81 0
33 0
-41 -107 51 0
-41 -102 47 0
-41 -15 5 0
-41 -105 49 0
-41 -85 38 0
-41 -100 44 0
-41 -58 34 0
-41 -72 36 0
-41 -99 43 0
-51 -106 41 0
-51 -128 47 0
-51 -31 5 0
-51 -131 49 0
-51 -95 38 0
-51 -122 44 0
-51 -68 34 0
-51 -83 36 0
-51 -115 43 0
-47 -103 41 0
-47 -127 51 0
-47 -25 5 0
-47 -125 49 0
-47 -91 38 0
-47 -118 44 0
-47 -63 34 0
-47 -78 36 0
-47 -112 43 0
-5 -17 41 0
-5 -30 51 0
-5 -24 47 0
-5 -28 49 0
-5 -13 38 0
-5 -23 44 0
-5 -8 34 0
-5 -10 36 0
-5 -19 43 0
-49 -104 41 0
-49 -130 51 0
-49 -126 47 0
-49 -27 5 0
-49 -93 38 0
-49 -120 44 0
-49 -65 34 0
-49 -81 36 0
-49 -113 43 0
38 39 0
-38 -39 0
-38 -86 41 0
-38 -96 51 0
-38 -92 47 0
-38 -14 5 0
-38 -94 49 0
-38 -89 44 0
-38 -55 34 0
-38 -70 36 0
-38 -88 43 0
44 45 0
-44 -45 0
-44 -101 41 0
-44 -123 51 0
-44 -119 47 0
-44 -21 5 0
-44 -121 49 0
-44 -90 38 0
-44 -62 34 0
-44 -77 36 0
-44 -110 43 0
34 35 0
-34 -35 0
-34 -57 41 0
-34 -67 51 0
-34 -64 47 0
-34 -7 5 0
-34 -66 49 0
-34 -56 38 0
-34 -61 44 0
-34 -53 36 0
-34 -59 43 0
36 37 0
-36 -37 0
-36 -73 41 0
-36 -82 51 0
-36 -79 47 0
-36 -9 5 0
-36 -80 49 0
-36 -71 38 0
-36 -76 44 0
-36 -54 34 0
-36 -74 43 0
43 42 0
-43 -42 0
-43 -98 41 0
-43 -116 51 0
-43 -111 47 0
-43 -18 5 0
-43 -114 49 0
-43 -87 38 0
-43 -109 44 0
-43 -60 34 0
-43 -75 36 0
84 0
-86 -107 96 0
-86 -102 92 0
-86 -15 14 0
-86 -105 94 0
-86 -40 39 0
-86 -100 89 0
-86 -58 55 0
-86 -72 70 0
-86 -99 88 0
-96 -106 86 0
-96 -128 92 0
-96 -31 14 0
-96 -131 94 0
-96 -50 39 0
-96 -122 89 0
-96 -68 55 0
-96 -83 70 0
-96 -115 88 0
-92 -103 86 0
-92 -127 96 0
-92 -25 14 0
-92 -125 94 0
-92 -46 39 0
-92 -118 89 0
-92 -63 55 0
-92 -78 70 0
-92 -112 88 0
-14 -17 86 0
-14 -30 96 0
-14 -24 92 0
-14 -28 94 0
-14 -3 39 0
-14 -23 89 0
-14 -8 55 0
-14 -10 70 0
-14 -19 88 0
-94 -104 86 0
-94 -130 96 0
-94 -126 92 0
-94 -27 14 0
-94 -48 39 0
-94 -120 89 0
-94 -65 55 0
-94 -81 70 0
-94 -113 88 0
-39 -41 86 0
-39 -51 96 0
-39 -47 92 0
-39 -5 14 0
-39 -49 94 0
-39 -44 89 0
-39 -34 55 0
-39 -36 70 0
-39 -43 88 0
89 90 0
-89 -90 0
-89 -101 86 0
-89 -123 96 0
-89 -119 92 0
-89 -21 14 0
-89 -121 94 0
-89 -45 39 0
-89 -62 55 0
-89 -77 70 0
-89 -110 88 0
55 56 0
-55 -56 0
-55 -57 86 0
-55 -67 96 0
-55 -64 92 0
-55 -7 14 0
-55 -66 94 0
-55 -35 39 0
-55 -61 89 0
-55 -53 70 0
-55 -59 88 0
70 71 0
-70 -71 0
-70 -73 86 0
-70 -82 96 0
-70 -79 92 0
-70 -9 14 0
-70 -80 94 0
-70 -37 39 0
-70 -76 89 0
-70 -54 55 0
-70 -74 88 0
88 87 0
-88 -87 0
-88 -98 86 0
-88 -116 96 0
-88 -111 92 0
-88 -18 14 0
-88 -114 94 0
-88 -42 39 0
-88 -109 89 0
-88 -60 55 0
-88 -75 70 0
117 0
-101 -107 123 0
-101 -102 119 0
-101 -15 21 0
-101 -105 121 0
-101 -40 45 0
-101 -85 90 0
-101 -58 62 0
-101 -72 77 0
-101 -99 110 0
-123 -106 101 0
-123 -128 119 0
-123 -31 21 0
-123 -131 121 0
-123 -50 45 0
-123 -95 90 0
-123 -68 62 0
-123 -83 77 0
-123 -115 110 0
-119 -103 101 0
-119 -127 123 0
-119 -25 21 0
-119 -125 121 0
-119 -46 45 0
-119 -91 90 0
-119 -63 62 0
-119 -78 77 0
-119 -112 110 0
-21 -17 101 0
-21 -30 123 0
-21 -24 119 0
-21 -28 121 0
-21 -3 45 0
-21 -13 90 0
-21 -8 62 0
-21 -10 77 0
-21 -19 110 0
-121 -104 101 0
-121 -130 123 0
-121 -126 119 0
-121 -27 21 0
-121 -48 45 0
-121 -93 90 0
-121 -65 62 0
-121 -81 77 0
-121 -113 110 0
-45 -41 101 0
-45 -51 123 0
-45 -47 119 0
-45 -5 21 0
-45 -49 121 0
-45 -38 90 0
-45 -34 62 0
-45 -36 77 0
-45 -43 110 0
-90 -86 101 0
-90 -96 123 0
-90 -92 119 0
-90 -14 21 0
-90 -94 121 0
-90 -39 45 0
-90 -55 62 0
-90 -70 77 0
-90 -88 110 0
62 61 0
-62 -61 0
-62 -57 101 0
-62 -67 123 0
-62 -64 119 0
-62 -7 21 0
-62 -66 121 0
-62 -35 45 0
-62 -56 90 0
-62 -53 77 0
-62 -59 110 0
77 76 0
-77 -76 0
-77 -73 101 0
-77 -82 123 0
-77 -79 119 0
-77 -9 21 0
-77 -80 121 0
-77 -37 45 0
-77 -71 90 0
-77 -54 62 0
-77 -74 110 0
110 109 0
-110 -109 0
-110 -98 101 0
-110 -116 123 0
-110 -111 119 0
-110 -18 21 0
-110 -114 121 0
-110 -42 45 0
-110 -87 90 0
-110 -60 62 0
-110 -75 77 0
52 0
-57 -107 67 0
-57 -102 64 0
-57 -15 7 0
-57 -105 66 0
-57 -40 35 0
-57 -85 56 0
-57 -100 61 0
-57 -72 53 0
-57 -99 59 0
-67 -106 57 0
-67 -128 64 0
-67 -31 7 0
-67 -131 66 0
-67 -50 35 0
-67 -95 56 0
-67 -122 61 0
-67 -83 53 0
-67 -115 59 0
-64 -103 57 0
-64 -127 67 0
-64 -25 7 0
-64 -125 66 0
-64 -46 35 0
-64 -91 56 0
-64 -118 61 0
-64 -78 53 0
-64 -112 59 0
-7 -17 57 0
-7 -30 67 0
-7 -24 64 0
-7 -28 66 0
-7 -3 35 0
-7 -13 56 0
-7 -23 61 0
-7 -10 53 0
-7 -19 59 0
-66 -104 57 0
-66 -130 67 0
-66 -126 64 0
-66 -27 7 0
-66 -48 35 0
-66 -93 56 0
-66 -120 61 0
-66 -81 53 0
-66 -113 59 0
-35 -41 57 0
-35 -51 67 0
-35 -47 64 0
-35 -5 7 0
-35 -49 66 0
-35 -38 56 0
-35 -44 61 0
-35 -36 53 0
-35 -43 59 0
-56 -86 57 0
-56 -96 67 0
-56 -92 64 0
-56 -14 7 0
-56 -94 66 0
-56 -39 35 0
-56 -89 61 0
-56 -70 53 0
-56 -88 59 0
-61 -101 57 0
-61 -123 67 0
-61 -119 64 0
-61 -21 7 0
-61 -121 66 0
-61 -45 35 0
-61 -90 56 0
-61 -77 53 0
-61 -110 59 0
53 54 0
-53 -54 0
-53 -73 57 0
-53 -82 67 0
-53 -79 64 0
-53 -9 7 0
-53 -80 66 0
-53 -37 35 0
-53 -71 56 0
-53 -76 61 0
-53 -74 59 0
59 60 0
-59 -60 0
-59 -98 57 0
-59 -116 67 0
-59 -111 64 0
-59 -18 7 0
-59 -114 66 0
-59 -42 35 0
-59 -87 56 0
-59 -109 61 0
-59 -75 53 0
69 0
-73 -107 82 0
-73 -102 79 0
-73 -15 9 0
-73 -105 80 0
-73 -40 37 0
-73 -85 71 0
-73 -100 76 0
-73 -58 54 0
-73 -99 74 0
-82 -106 73 0
-82 -128 79 0
-82 -31 9 0
-82 -131 80 0
-82 -50 37 0
-82 -95 71 0
-82 -122 76 0
-82 -68 54 0
-82 -115 74 0
-79 -103 73 0
-79 -127 82 0
-79 -25 9 0
-79 -125 80 0
-79 -46 37 0
-79 -91 71 0
-79 -118 76 0
-79 -63 54 0
-79 -112 74 0
-9 -17 73 0
-9 -30 82 0
-9 -24 79 0
-9 -28 80 0
-9 -3 37 0
-9 -13 71 0
-9 -23 76 0
-9 -8 54 0
-9 -19 74 0
-80 -104 73 0
-80 -130 82 0
-80 -126 79 0
-80 -27 9 0
-80 -48 37 0
-80 -93 71 0
-80 -120 76 0
-80 -65 54 0
-80 -113 74 0
-37 -41 73 0
-37 -51 82 0
-37 -47 79 0
-37 -5 9 0
-37 -49 80 0
-37 -38 71 0
-37 -44 76 0
-37 -34 54 0
-37 -43 74 0
-71 -86 73 0
-71 -96 82 0
-71 -92 79 0
-71 -14 9 0
-71 -94 80 0
-71 -39 37 0
-71 -89 76 0
-71 -55 54 0
-71 -88 74 0
-76 -101 73 0
-76 -123 82 0
-76 -119 79 0
-76 -21 9 0
-76 -121 80 0
-76 -45 37 0
-76 -90 71 0
-76 -62 54 0
-76 -110 74 0
-54 -57 73 0
-54 -67 82 0
-54 -64 79 0
-54 -7 9 0
-54 -66 80 0
-54 -35 37 0
-54 -56 71 0
-54 -61 76 0
-54 -59 74 0
74 75 0
-74 -75 0
-74 -98 73 0
-74 -116 82 0
-74 -111 79 0
-74 -18 9 0
-74 -114 80 0
-74 -42 37 0
-74 -87 71 0
-74 -109 76 0
-74 -60 54 0
108 0
-98 -107 116 0
-98 -102 111 0
-98 -15 18 0
-98 -105 114 0
-98 -40 42 0
-98 -85 87 0
-98 -100 109 0
-98 -58 60 0
-98 -72 75 0
-116 -106 98 0
-116 -128 111 0
-116 -31 18 0
-116 -131 114 0
-116 -50 42 0
-116 -95 87 0
-116 -122 109 0
-116 -68 60 0
-116 -83 75 0
-111 -103 98 0
-111 -127 116 0
-111 -25 18 0
-111 -125 114 0
-111 -46 42 0
-111 -91 87 0
-111 -118 109 0
-111 -63 60 0
-111 -78 75 0
-18 -17 98 0
-18 -30 116 0
-18 -24 111 0
-18 -28 114 0
-18 -3 42 0
-18 -13 87 0
-18 -23 109 0
-18 -8 60 0
-18 -10 75 0
-114 -104 98 0
-114 -130 116 0
-114 -126 111 0
-114 -27 18 0
-114 -48 42 0
-114 -93 87 0
-114 -120 109 0
-114 -65 60 0
-114 -81 75 0
-42 -41 98 0
-42 -51 116 0
-42 -47 111 0
-42 -5 18 0
-42 -49 114 0
-42 -38 87 0
-42 -44 109 0
-42 -34 60 0
-42 -36 75 0
-87 -86 98 0
-87 -96 116 0
-87 -92 111 0
-87 -14 18 0
-87 -94 114 0
-87 -39 42 0
-87 -89 109 0
-87 -55 60 0
-87 -70 75 0
-109 -101 98 0
-109 -123 116 0
-109 -119 111 0
-109 -21 18 0
-109 -121 114 0
-109 -45 42 0
-109 -90 87 0
-109 -62 60 0
-109 -77 75 0
-60 -57 98 0
-60 -67 116 0
-60 -64 111 0
-60 -7 18 0
-60 -66 114 0
-60 -35 42 0
-60 -56 87 0
-60 -61 109 0
-60 -53 75 0
-75 -73 98 0
-75 -82 116 0
-75 -79 111 0
-75 -9 18 0
-75 -80 114 0
-75 -37 42 0
-75 -71 87 0
-75 -76 109 0
-75 -54 60 0
