p cnf 132 1342
1 -2 -1 0
3 -4 -1 0
5 -6 -1 0
7 -8 -1 0
9 -10 -1 0
11 -12 -1 0
13 -14 -1 0
15 -16 -1 0
17 -18 -1 0
19 -20 -1 0
21 -22 -1 0
1 -23 -3 0
3 -24 -3 0
5 -25 -3 0
7 -26 -3 0
9 -27 -3 0
11 -28 -3 0
13 -29 -3 0
15 -30 -3 0
17 -31 -3 0
19 -32 -3 0
21 -33 -3 0
1 -34 -5 0
3 -35 -5 0
5 -36 -5 0
7 -37 -5 0
9 -38 -5 0
11 -39 -5 0
13 -40 -5 0
15 -41 -5 0
17 -42 -5 0
19 -43 -5 0
21 -44 -5 0
1 -45 -7 0
3 -46 -7 0
5 -47 -7 0
7 -48 -7 0
9 -49 -7 0
11 -50 -7 0
13 -51 -7 0
15 -52 -7 0
17 -53 -7 0
19 -54 -7 0
21 -55 -7 0
1 -56 -9 0
3 -57 -9 0
5 -58 -9 0
7 -59 -9 0
9 -60 -9 0
11 -61 -9 0
13 -62 -9 0
15 -63 -9 0
17 -64 -9 0
19 -65 -9 0
21 -66 -9 0
1 -67 -11 0
3 -68 -11 0
5 -69 -11 0
7 -70 -11 0
9 -71 -11 0
11 -72 -11 0
13 -73 -11 0
15 -74 -11 0
17 -75 -11 0
19 -76 -11 0
21 -77 -11 0
1 -78 -13 0
3 -79 -13 0
5 -80 -13 0
7 -81 -13 0
9 -82 -13 0
11 -83 -13 0
13 -84 -13 0
15 -85 -13 0
17 -86 -13 0
19 -87 -13 0
21 -88 -13 0
1 -89 -15 0
3 -90 -15 0
5 -91 -15 0
7 -92 -15 0
9 -93 -15 0
11 -94 -15 0
13 -95 -15 0
15 -96 -15 0
17 -97 -15 0
19 -98 -15 0
21 -99 -15 0
1 -100 -17 0
3 -101 -17 0
5 -102 -17 0
7 -103 -17 0
9 -104 -17 0
11 -105 -17 0
13 -106 -17 0
15 -107 -17 0
17 -108 -17 0
19 -109 -17 0
21 -110 -17 0
1 -111 -19 0
3 -112 -19 0
5 -113 -19 0
7 -114 -19 0
9 -115 -19 0
11 -116 -19 0
13 -117 -19 0
15 -118 -19 0
17 -119 -19 0
19 -120 -19 0
21 -121 -19 0
1 -122 -21 0
3 -123 -21 0
5 -124 -21 0
7 -125 -21 0
9 -126 -21 0
11 -127 -21 0
13 -128 -21 0
15 -129 -21 0
17 -130 -21 0
19 -131 -21 0
21 -132 -21 0
2 0
4 23 0
-4 -23 0
-4 -25 6 0
-4 -26 8 0
-4 -27 10 0
-4 -28 12 0
-4 -29 14 0
-4 -30 16 0
-4 -31 18 0
-4 -32 20 0
-4 -33 22 0
6 34 0
-6 -34 0
-6 -35 4 0
-6 -37 8 0
-6 -38 10 0
-6 -39 12 0
-6 -40 14 0
-6 -41 16 0
-6 -42 18 0
-6 -43 20 0
-6 -44 22 0
8 45 0
-8 -45 0
-8 -46 4 0
-8 -47 6 0
-8 -49 10 0
-8 -50 12 0
-8 -51 14 0
-8 -52 16 0
-8 -53 18 0
-8 -54 20 0
-8 -55 22 0
10 56 0
-10 -56 0
-10 -57 4 0
-10 -58 6 0
-10 -59 8 0
-10 -61 12 0
-10 -62 14 0
-10 -63 16 0
-10 -64 18 0
-10 -65 20 0
-10 -66 22 0
12 67 0
-12 -67 0
-12 -68 4 0
-12 -69 6 0
-12 -70 8 0
-12 -71 10 0
-12 -73 14 0
-12 -74 16 0
-12 -75 18 0
-12 -76 20 0
-12 -77 22 0
14 78 0
-14 -78 0
-14 -79 4 0
-14 -80 6 0
-14 -81 8 0
-14 -82 10 0
-14 -83 12 0
-14 -85 16 0
-14 -86 18 0
-14 -87 20 0
-14 -88 22 0
16 89 0
-16 -89 0
-16 -90 4 0
-16 -91 6 0
-16 -92 8 0
-16 -93 10 0
-16 -94 12 0
-16 -95 14 0
-16 -97 18 0
-16 -98 20 0
-16 -99 22 0
18 100 0
-18 -100 0
-18 -101 4 0
-18 -102 6 0
-18 -103 8 0
-18 -104 10 0
-18 -105 12 0
-18 -106 14 0
-18 -107 16 0
-18 -109 20 0
-18 -110 22 0
20 111 0
-20 -111 0
-20 -112 4 0
-20 -113 6 0
-20 -114 8 0
-20 -115 10 0
-20 -116 12 0
-20 -117 14 0
-20 -118 16 0
-20 -119 18 0
-20 -121 22 0
22 122 0
-22 -122 0
-22 -123 4 0
-22 -124 6 0
-22 -125 8 0
-22 -126 10 0
-22 -127 12 0
-22 -128 14 0
-22 -129 16 0
-22 -130 18 0
-22 -131 20 0
24 0
23 4 0
-23 -4 0
-23 -6 25 0
-23 -8 26 0
-23 -10 27 0
-23 -12 28 0
-23 -14 29 0
-23 -16 30 0
-23 -18 31 0
-23 -20 32 0
-23 -22 33 0
25 35 0
-25 -35 0
-25 -34 23 0
-25 -37 26 0
-25 -38 27 0
-25 -39 28 0
-25 -40 29 0
-25 -41 30 0
-25 -42 31 0
-25 -43 32 0
-25 -44 33 0
26 46 0
-26 -46 0
-26 -45 23 0
-26 -47 25 0
-26 -49 27 0
-26 -50 28 0
-26 -51 29 0
-26 -52 30 0
-26 -53 31 0
-26 -54 32 0
-26 -55 33 0
27 57 0
-27 -57 0
-27 -56 23 0
-27 -58 25 0
-27 -59 26 0
-27 -61 28 0
-27 -62 29 0
-27 -63 30 0
-27 -64 31 0
-27 -65 32 0
-27 -66 33 0
28 68 0
-28 -68 0
-28 -67 23 0
-28 -69 25 0
-28 -70 26 0
-28 -71 27 0
-28 -73 29 0
-28 -74 30 0
-28 -75 31 0
-28 -76 32 0
-28 -77 33 0
29 79 0
-29 -79 0
-29 -78 23 0
-29 -80 25 0
-29 -81 26 0
-29 -82 27 0
-29 -83 28 0
-29 -85 30 0
-29 -86 31 0
-29 -87 32 0
-29 -88 33 0
30 90 0
-30 -90 0
-30 -89 23 0
-30 -91 25 0
-30 -92 26 0
-30 -93 27 0
-30 -94 28 0
-30 -95 29 0
-30 -97 31 0
-30 -98 32 0
-30 -99 33 0
31 101 0
-31 -101 0
-31 -100 23 0
-31 -102 25 0
-31 -103 26 0
-31 -104 27 0
-31 -105 28 0
-31 -106 29 0
-31 -107 30 0
-31 -109 32 0
-31 -110 33 0
32 112 0
-32 -112 0
-32 -111 23 0
-32 -113 25 0
-32 -114 26 0
-32 -115 27 0
-32 -116 28 0
-32 -117 29 0
-32 -118 30 0
-32 -119 31 0
-32 -121 33 0
33 123 0
-33 -123 0
-33 -122 23 0
-33 -124 25 0
-33 -125 26 0
-33 -126 27 0
-33 -127 28 0
-33 -128 29 0
-33 -129 30 0
-33 -130 31 0
-33 -131 32 0
36 0
34 6 0
-34 -6 0
-34 -4 35 0
-34 -8 37 0
-34 -10 38 0
-34 -12 39 0
-34 -14 40 0
-34 -16 41 0
-34 -18 42 0
-34 -20 43 0
-34 -22 44 0
35 25 0
-35 -25 0
-35 -23 34 0
-35 -26 37 0
-35 -27 38 0
-35 -28 39 0
-35 -29 40 0
-35 -30 41 0
-35 -31 42 0
-35 -32 43 0
-35 -33 44 0
37 47 0
-37 -47 0
-37 -45 34 0
-37 -46 35 0
-37 -49 38 0
-37 -50 39 0
-37 -51 40 0
-37 -52 41 0
-37 -53 42 0
-37 -54 43 0
-37 -55 44 0
38 58 0
-38 -58 0
-38 -56 34 0
-38 -57 35 0
-38 -59 37 0
-38 -61 39 0
-38 -62 40 0
-38 -63 41 0
-38 -64 42 0
-38 -65 43 0
-38 -66 44 0
39 69 0
-39 -69 0
-39 -67 34 0
-39 -68 35 0
-39 -70 37 0
-39 -71 38 0
-39 -73 40 0
-39 -74 41 0
-39 -75 42 0
-39 -76 43 0
-39 -77 44 0
40 80 0
-40 -80 0
-40 -78 34 0
-40 -79 35 0
-40 -81 37 0
-40 -82 38 0
-40 -83 39 0
-40 -85 41 0
-40 -86 42 0
-40 -87 43 0
-40 -88 44 0
41 91 0
-41 -91 0
-41 -89 34 0
-41 -90 35 0
-41 -92 37 0
-41 -93 38 0
-41 -94 39 0
-41 -95 40 0
-41 -97 42 0
-41 -98 43 0
-41 -99 44 0
42 102 0
-42 -102 0
-42 -100 34 0
-42 -101 35 0
-42 -103 37 0
-42 -104 38 0
-42 -105 39 0
-42 -106 40 0
-42 -107 41 0
-42 -109 43 0
-42 -110 44 0
43 113 0
-43 -113 0
-43 -111 34 0
-43 -112 35 0
-43 -114 37 0
-43 -115 38 0
-43 -116 39 0
-43 -117 40 0
-43 -118 41 0
-43 -119 42 0
-43 -121 44 0
44 124 0
-44 -124 0
-44 -122 34 0
-44 -123 35 0
-44 -125 37 0
-44 -126 38 0
-44 -127 39 0
-44 -128 40 0
-44 -129 41 0
-44 -130 42 0
-44 -131 43 0
48 0
45 8 0
-45 -8 0
-45 -4 46 0
-45 -6 47 0
-45 -10 49 0
-45 -12 50 0
-45 -14 51 0
-45 -16 52 0
-45 -18 53 0
-45 -20 54 0
-45 -22 55 0
46 26 0
-46 -26 0
-46 -23 45 0
-46 -25 47 0
-46 -27 49 0
-46 -28 50 0
-46 -29 51 0
-46 -30 52 0
-46 -31 53 0
-46 -32 54 0
-46 -33 55 0
47 37 0
-47 -37 0
-47 -34 45 0
-47 -35 46 0
-47 -38 49 0
-47 -39 50 0
-47 -40 51 0
-47 -41 52 0
-47 -42 53 0
-47 -43 54 0
-47 -44 55 0
49 59 0
-49 -59 0
-49 -56 45 0
-49 -57 46 0
-49 -58 47 0
-49 -61 50 0
-49 -62 51 0
-49 -63 52 0
-49 -64 53 0
-49 -65 54 0
-49 -66 55 0
50 70 0
-50 -70 0
-50 -67 45 0
-50 -68 46 0
-50 -69 47 0
-50 -71 49 0
-50 -73 51 0
-50 -74 52 0
-50 -75 53 0
-50 -76 54 0
-50 -77 55 0
51 81 0
-51 -81 0
-51 -78 45 0
-51 -79 46 0
-51 -80 47 0
-51 -82 49 0
-51 -83 50 0
-51 -85 52 0
-51 -86 53 0
-51 -87 54 0
-51 -88 55 0
52 92 0
-52 -92 0
-52 -89 45 0
-52 -90 46 0
-52 -91 47 0
-52 -93 49 0
-52 -94 50 0
-52 -95 51 0
-52 -97 53 0
-52 -98 54 0
-52 -99 55 0
53 103 0
-53 -103 0
-53 -100 45 0
-53 -101 46 0
-53 -102 47 0
-53 -104 49 0
-53 -105 50 0
-53 -106 51 0
-53 -107 52 0
-53 -109 54 0
-53 -110 55 0
54 114 0
-54 -114 0
-54 -111 45 0
-54 -112 46 0
-54 -113 47 0
-54 -115 49 0
-54 -116 50 0
-54 -117 51 0
-54 -118 52 0
-54 -119 53 0
-54 -121 55 0
55 125 0
-55 -125 0
-55 -122 45 0
-55 -123 46 0
-55 -124 47 0
-55 -126 49 0
-55 -127 50 0
-55 -128 51 0
-55 -129 52 0
-55 -130 53 0
-55 -131 54 0
60 0
56 10 0
-56 -10 0
-56 -4 57 0
-56 -6 58 0
-56 -8 59 0
-56 -12 61 0
-56 -14 62 0
-56 -16 63 0
-56 -18 64 0
-56 -20 65 0
-56 -22 66 0
57 27 0
-57 -27 0
-57 -23 56 0
-57 -25 58 0
-57 -26 59 0
-57 -28 61 0
-57 -29 62 0
-57 -30 63 0
-57 -31 64 0
-57 -32 65 0
-57 -33 66 0
58 38 0
-58 -38 0
-58 -34 56 0
-58 -35 57 0
-58 -37 59 0
-58 -39 61 0
-58 -40 62 0
-58 -41 63 0
-58 -42 64 0
-58 -43 65 0
-58 -44 66 0
59 49 0
-59 -49 0
-59 -45 56 0
-59 -46 57 0
-59 -47 58 0
-59 -50 61 0
-59 -51 62 0
-59 -52 63 0
-59 -53 64 0
-59 -54 65 0
-59 -55 66 0
61 71 0
-61 -71 0
-61 -67 56 0
-61 -68 57 0
-61 -69 58 0
-61 -70 59 0
-61 -73 62 0
-61 -74 63 0
-61 -75 64 0
-61 -76 65 0
-61 -77 66 0
62 82 0
-62 -82 0
-62 -78 56 0
-62 -79 57 0
-62 -80 58 0
-62 -81 59 0
-62 -83 61 0
-62 -85 63 0
-62 -86 64 0
-62 -87 65 0
-62 -88 66 0
63 93 0
-63 -93 0
-63 -89 56 0
-63 -90 57 0
-63 -91 58 0
-63 -92 59 0
-63 -94 61 0
-63 -95 62 0
-63 -97 64 0
-63 -98 65 0
-63 -99 66 0
64 104 0
-64 -104 0
-64 -100 56 0
-64 -101 57 0
-64 -102 58 0
-64 -103 59 0
-64 -105 61 0
-64 -106 62 0
-64 -107 63 0
-64 -109 65 0
-64 -110 66 0
65 115 0
-65 -115 0
-65 -111 56 0
-65 -112 57 0
-65 -113 58 0
-65 -114 59 0
-65 -116 61 0
-65 -117 62 0
-65 -118 63 0
-65 -119 64 0
-65 -121 66 0
66 126 0
-66 -126 0
-66 -122 56 0
-66 -123 57 0
-66 -124 58 0
-66 -125 59 0
-66 -127 61 0
-66 -128 62 0
-66 -129 63 0
-66 -130 64 0
-66 -131 65 0
72 0
67 12 0
-67 -12 0
-67 -4 68 0
-67 -6 69 0
-67 -8 70 0
-67 -10 71 0
-67 -14 73 0
-67 -16 74 0
-67 -18 75 0
-67 -20 76 0
-67 -22 77 0
68 28 0
-68 -28 0
-68 -23 67 0
-68 -25 69 0
-68 -26 70 0
-68 -27 71 0
-68 -29 73 0
-68 -30 74 0
-68 -31 75 0
-68 -32 76 0
-68 -33 77 0
69 39 0
-69 -39 0
-69 -34 67 0
-69 -35 68 0
-69 -37 70 0
-69 -38 71 0
-69 -40 73 0
-69 -41 74 0
-69 -42 75 0
-69 -43 76 0
-69 -44 77 0
70 50 0
-70 -50 0
-70 -45 67 0
-70 -46 68 0
-70 -47 69 0
-70 -49 71 0
-70 -51 73 0
-70 -52 74 0
-70 -53 75 0
-70 -54 76 0
-70 -55 77 0
71 61 0
-71 -61 0
-71 -56 67 0
-71 -57 68 0
-71 -58 69 0
-71 -59 70 0
-71 -62 73 0
-71 -63 74 0
-71 -64 75 0
-71 -65 76 0
-71 -66 77 0
73 83 0
-73 -83 0
-73 -78 67 0
-73 -79 68 0
-73 -80 69 0
-73 -81 70 0
-73 -82 71 0
-73 -85 74 0
-73 -86 75 0
-73 -87 76 0
-73 -88 77 0
74 94 0
-74 -94 0
-74 -89 67 0
-74 -90 68 0
-74 -91 69 0
-74 -92 70 0
-74 -93 71 0
-74 -95 73 0
-74 -97 75 0
-74 -98 76 0
-74 -99 77 0
75 105 0
-75 -105 0
-75 -100 67 0
-75 -101 68 0
-75 -102 69 0
-75 -103 70 0
-75 -104 71 0
-75 -106 73 0
-75 -107 74 0
-75 -109 76 0
-75 -110 77 0
76 116 0
-76 -116 0
-76 -111 67 0
-76 -112 68 0
-76 -113 69 0
-76 -114 70 0
-76 -115 71 0
-76 -117 73 0
-76 -118 74 0
-76 -119 75 0
-76 -121 77 0
77 127 0
-77 -127 0
-77 -122 67 0
-77 -123 68 0
-77 -124 69 0
-77 -125 70 0
-77 -126 71 0
-77 -128 73 0
-77 -129 74 0
-77 -130 75 0
-77 -131 76 0
84 0
78 14 0
-78 -14 0
-78 -4 79 0
-78 -6 80 0
-78 -8 81 0
-78 -10 82 0
-78 -12 83 0
-78 -16 85 0
-78 -18 86 0
-78 -20 87 0
-78 -22 88 0
79 29 0
-79 -29 0
-79 -23 78 0
-79 -25 80 0
-79 -26 81 0
-79 -27 82 0
-79 -28 83 0
-79 -30 85 0
-79 -31 86 0
-79 -32 87 0
-79 -33 88 0
80 40 0
-80 -40 0
-80 -34 78 0
-80 -35 79 0
-80 -37 81 0
-80 -38 82 0
-80 -39 83 0
-80 -41 85 0
-80 -42 86 0
-80 -43 87 0
-80 -44 88 0
81 51 0
-81 -51 0
-81 -45 78 0
-81 -46 79 0
-81 -47 80 0
-81 -49 82 0
-81 -50 83 0
-81 -52 85 0
-81 -53 86 0
-81 -54 87 0
-81 -55 88 0
82 62 0
-82 -62 0
-82 -56 78 0
-82 -57 79 0
-82 -58 80 0
-82 -59 81 0
-82 -61 83 0
-82 -63 85 0
-82 -64 86 0
-82 -65 87 0
-82 -66 88 0
83 73 0
-83 -73 0
-83 -67 78 0
-83 -68 79 0
-83 -69 80 0
-83 -70 81 0
-83 -71 82 0
-83 -74 85 0
-83 -75 86 0
-83 -76 87 0
-83 -77 88 0
85 95 0
-85 -95 0
-85 -89 78 0
-85 -90 79 0
-85 -91 80 0
-85 -92 81 0
-85 -93 82 0
-85 -94 83 0
-85 -97 86 0
-85 -98 87 0
-85 -99 88 0
86 106 0
-86 -106 0
-86 -100 78 0
-86 -101 79 0
-86 -102 80 0
-86 -103 81 0
-86 -104 82 0
-86 -105 83 0
-86 -107 85 0
-86 -109 87 0
-86 -110 88 0
87 117 0
-87 -117 0
-87 -111 78 0
-87 -112 79 0
-87 -113 80 0
-87 -114 81 0
-87 -115 82 0
-87 -116 83 0
-87 -118 85 0
-87 -119 86 0
-87 -121 88 0
88 128 0
-88 -128 0
-88 -122 78 0
-88 -123 79 0
-88 -124 80 0
-88 -125 81 0
-88 -126 82 0
-88 -127 83 0
-88 -129 85 0
-88 -130 86 0
-88 -131 87 0
96 0
89 16 0
-89 -16 0
-89 -4 90 0
-89 -6 91 0
-89 -8 92 0
-89 -10 93 0
-89 -12 94 0
-89 -14 95 0
-89 -18 97 0
-89 -20 98 0
-89 -22 99 0
90 30 0
-90 -30 0
-90 -23 89 0
-90 -25 91 0
-90 -26 92 0
-90 -27 93 0
-90 -28 94 0
-90 -29 95 0
-90 -31 97 0
-90 -32 98 0
-90 -33 99 0
91 41 0
-91 -41 0
-91 -34 89 0
-91 -35 90 0
-91 -37 92 0
-91 -38 93 0
-91 -39 94 0
-91 -40 95 0
-91 -42 97 0
-91 -43 98 0
-91 -44 99 0
92 52 0
-92 -52 0
-92 -45 89 0
-92 -46 90 0
-92 -47 91 0
-92 -49 93 0
-92 -50 94 0
-92 -51 95 0
-92 -53 97 0
-92 -54 98 0
-92 -55 99 0
93 63 0
-93 -63 0
-93 -56 89 0
-93 -57 90 0
-93 -58 91 0
-93 -59 92 0
-93 -61 94 0
-93 -62 95 0
-93 -64 97 0
-93 -65 98 0
-93 -66 99 0
94 74 0
-94 -74 0
-94 -67 89 0
-94 -68 90 0
-94 -69 91 0
-94 -70 92 0
-94 -71 93 0
-94 -73 95 0
-94 -75 97 0
-94 -76 98 0
-94 -77 99 0
95 85 0
-95 -85 0
-95 -78 89 0
-95 -79 90 0
-95 -80 91 0
-95 -81 92 0
-95 -82 93 0
-95 -83 94 0
-95 -86 97 0
-95 -87 98 0
-95 -88 99 0
97 107 0
-97 -107 0
-97 -100 89 0
-97 -101 90 0
-97 -102 91 0
-97 -103 92 0
-97 -104 93 0
-97 -105 94 0
-97 -106 95 0
-97 -109 98 0
-97 -110 99 0
98 118 0
-98 -118 0
-98 -111 89 0
-98 -112 90 0
-98 -113 91 0
-98 -114 92 0
-98 -115 93 0
-98 -116 94 0
-98 -117 95 0
-98 -119 97 0
-98 -121 99 0
99 129 0
-99 -129 0
-99 -122 89 0
-99 -123 90 0
-99 -124 91 0
-99 -125 92 0
-99 -126 93 0
-99 -127 94 0
-99 -128 95 0
-99 -130 97 0
-99 -131 98 0
108 0
100 18 0
-100 -18 0
-100 -4 101 0
-100 -6 102 0
-100 -8 103 0
-100 -10 104 0
-100 -12 105 0
-100 -14 106 0
-100 -16 107 0
-100 -20 109 0
-100 -22 110 0
101 31 0
-101 -31 0
-101 -23 100 0
-101 -25 102 0
-101 -26 103 0
-101 -27 104 0
-101 -28 105 0
-101 -29 106 0
-101 -30 107 0
-101 -32 109 0
-101 -33 110 0
102 42 0
-102 -42 0
-102 -34 100 0
-102 -35 101 0
-102 -37 103 0
-102 -38 104 0
-102 -39 105 0
-102 -40 106 0
-102 -41 107 0
-102 -43 109 0
-102 -44 110 0
103 53 0
-103 -53 0
-103 -45 100 0
-103 -46 101 0
-103 -47 102 0
-103 -49 104 0
-103 -50 105 0
-103 -51 106 0
-103 -52 107 0
-103 -54 109 0
-103 -55 110 0
104 64 0
-104 -64 0
-104 -56 100 0
-104 -57 101 0
-104 -58 102 0
-104 -59 103 0
-104 -61 105 0
-104 -62 106 0
-104 -63 107 0
-104 -65 109 0
-104 -66 110 0
105 75 0
-105 -75 0
-105 -67 100 0
-105 -68 101 0
-105 -69 102 0
-105 -70 103 0
-105 -71 104 0
-105 -73 106 0
-105 -74 107 0
-105 -76 109 0
-105 -77 110 0
106 86 0
-106 -86 0
-106 -78 100 0
-106 -79 101 0
-106 -80 102 0
-106 -81 103 0
-106 -82 104 0
-106 -83 105 0
-106 -85 107 0
-106 -87 109 0
-106 -88 110 0
107 97 0
-107 -97 0
-107 -89 100 0
-107 -90 101 0
-107 -91 102 0
-107 -92 103 0
-107 -93 104 0
-107 -94 105 0
-107 -95 106 0
-107 -98 109 0
-107 -99 110 0
109 119 0
-109 -119 0
-109 -111 100 0
-109 -112 101 0
-109 -113 102 0
-109 -114 103 0
-109 -115 104 0
-109 -116 105 0
-109 -117 106 0
-109 -118 107 0
-109 -121 110 0
110 130 0
-110 -130 0
-110 -122 100 0
-110 -123 101 0
-110 -124 102 0
-110 -125 103 0
-110 -126 104 0
-110 -127 105 0
-110 -128 106 0
-110 -129 107 0
-110 -131 109 0
120 0
111 20 0
-111 -20 0
-111 -4 112 0
-111 -6 113 0
-111 -8 114 0
-111 -10 115 0
-111 -12 116 0
-111 -14 117 0
-111 -16 118 0
-111 -18 119 0
-111 -22 121 0
112 32 0
-112 -32 0
-112 -23 111 0
-112 -25 113 0
-112 -26 114 0
-112 -27 115 0
-112 -28 116 0
-112 -29 117 0
-112 -30 118 0
-112 -31 119 0
-112 -33 121 0
113 43 0
-113 -43 0
-113 -34 111 0
-113 -35 112 0
-113 -37 114 0
-113 -38 115 0
-113 -39 116 0
-113 -40 117 0
-113 -41 118 0
-113 -42 119 0
-113 -44 121 0
114 54 0
-114 -54 0
-114 -45 111 0
-114 -46 112 0
-114 -47 113 0
-114 -49 115 0
-114 -50 116 0
-114 -51 117 0
-114 -52 118 0
-114 -53 119 0
-114 -55 121 0
115 65 0
-115 -65 0
-115 -56 111 0
-115 -57 112 0
-115 -58 113 0
-115 -59 114 0
-115 -61 116 0
-115 -62 117 0
-115 -63 118 0
-115 -64 119 0
-115 -66 121 0
116 76 0
-116 -76 0
-116 -67 111 0
-116 -68 112 0
-116 -69 113 0
-116 -70 114 0
-116 -71 115 0
-116 -73 117 0
-116 -74 118 0
-116 -75 119 0
-116 -77 121 0
117 87 0
-117 -87 0
-117 -78 111 0
-117 -79 112 0
-117 -80 113 0
-117 -81 114 0
-117 -82 115 0
-117 -83 116 0
-117 -85 118 0
-117 -86 119 0
-117 -88 121 0
118 98 0
-118 -98 0
-118 -89 111 0
-118 -90 112 0
-118 -91 113 0
-118 -92 114 0
-118 -93 115 0
-118 -94 116 0
-118 -95 117 0
-118 -97 119 0
-118 -99 121 0
119 109 0
-119 -109 0
-119 -100 111 0
-119 -101 112 0
-119 -102 113 0
-119 -103 114 0
-119 -104 115 0
-119 -105 116 0
-119 -106 117 0
-119 -107 118 0
-119 -110 121 0
121 131 0
-121 -131 0
-121 -122 111 0
-121 -123 112 0
-121 -124 113 0
-121 -125 114 0
-121 -126 115 0
-121 -127 116 0
-121 -128 117 0
-121 -129 118 0
-121 -130 119 0
132 0
122 22 0
-122 -22 0
-122 -4 123 0
-122 -6 124 0
-122 -8 125 0
-122 -10 126 0
-122 -12 127 0
-122 -14 128 0
-122 -16 129 0
-122 -18 130 0
-122 -20 131 0
123 33 0
-123 -33 0
-123 -23 122 0
-123 -25 124 0
-123 -26 125 0
-123 -27 126 0
-123 -28 127 0
-123 -29 128 0
-123 -30 129 0
-123 -31 130 0
-123 -32 131 0
124 44 0
-124 -44 0
-124 -34 122 0
-124 -35 123 0
-124 -37 125 0
-124 -38 126 0
-124 -39 127 0
-124 -40 128 0
-124 -41 129 0
-124 -42 130 0
-124 -43 131 0
125 55 0
-125 -55 0
-125 -45 122 0
-125 -46 123 0
-125 -47 124 0
-125 -49 126 0
-125 -50 127 0
-125 -51 128 0
-125 -52 129 0
-125 -53 130 0
-125 -54 131 0
126 66 0
-126 -66 0
-126 -56 122 0
-126 -57 123 0
-126 -58 124 0
-126 -59 125 0
-126 -61 127 0
-126 -62 128 0
-126 -63 129 0
-126 -64 130 0
-126 -65 131 0
127 77 0
-127 -77 0
-127 -67 122 0
-127 -68 123 0
-127 -69 124 0
-127 -70 125 0
-127 -71 126 0
-127 -73 128 0
-127 -74 129 0
-127 -75 130 0
-127 -76 131 0
128 88 0
-128 -88 0
-128 -78 122 0
-128 -79 123 0
-128 -80 124 0
-128 -81 125 0
-128 -82 126 0
-128 -83 127 0
-128 -85 129 0
-128 -86 130 0
-128 -87 131 0
129 99 0
-129 -99 0
-129 -89 122 0
-129 -90 123 0
-129 -91 124 0
-129 -92 125 0
-129 -93 126 0
-129 -94 127 0
-129 -95 128 0
-129 -97 130 0
-129 -98 131 0
130 110 0
-130 -110 0
-130 -100 122 0
-130 -101 123 0
-130 -102 124 0
-130 -103 125 0
-130 -104 126 0
-130 -105 127 0
-130 -106 128 0
-130 -107 129 0
-130 -109 131 0
131 121 0
-131 -121 0
-131 -111 122 0
-131 -112 123 0
-131 -113 124 0
-131 -114 125 0
-131 -115 126 0
-131 -116 127 0
-131 -117 128 0
-131 -118 129 0
-131 -119 130 0
