p cnf 156 1740
1 -2 -1 0
3 -4 -1 0
5 -6 -1 0
7 -8 -1 0
9 -10 -1 0
11 -12 -1 0
13 -14 -1 0
15 -16 -1 0
17 -18 -1 0
19 -20 -1 0
21 -22 -1 0
23 -24 -1 0
1 -25 -3 0
3 -26 -3 0
5 -27 -3 0
7 -28 -3 0
9 -29 -3 0
11 -30 -3 0
13 -31 -3 0
15 -32 -3 0
17 -33 -3 0
19 -34 -3 0
21 -35 -3 0
23 -36 -3 0
1 -37 -5 0
3 -38 -5 0
5 -39 -5 0
7 -40 -5 0
9 -41 -5 0
11 -42 -5 0
13 -43 -5 0
15 -44 -5 0
17 -45 -5 0
19 -46 -5 0
21 -47 -5 0
23 -48 -5 0
1 -49 -7 0
3 -50 -7 0
5 -51 -7 0
7 -52 -7 0
9 -53 -7 0
11 -54 -7 0
13 -55 -7 0
15 -56 -7 0
17 -57 -7 0
19 -58 -7 0
21 -59 -7 0
23 -60 -7 0
1 -61 -9 0
3 -62 -9 0
5 -63 -9 0
7 -64 -9 0
9 -65 -9 0
11 -66 -9 0
13 -67 -9 0
15 -68 -9 0
17 -69 -9 0
19 -70 -9 0
21 -71 -9 0
23 -72 -9 0
1 -73 -11 0
3 -74 -11 0
5 -75 -11 0
7 -76 -11 0
9 -77 -11 0
11 -78 -11 0
13 -79 -11 0
15 -80 -11 0
17 -81 -11 0
19 -82 -11 0
21 -83 -11 0
23 -84 -11 0
1 -85 -13 0
3 -86 -13 0
5 -87 -13 0
7 -88 -13 0
9 -89 -13 0
11 -90 -13 0
13 -91 -13 0
15 -92 -13 0
17 -93 -13 0
19 -94 -13 0
21 -95 -13 0
23 -96 -13 0
1 -97 -15 0
3 -98 -15 0
5 -99 -15 0
7 -100 -15 0
9 -101 -15 0
11 -102 -15 0
13 -103 -15 0
15 -104 -15 0
17 -105 -15 0
19 -106 -15 0
21 -107 -15 0
23 -108 -15 0
1 -109 -17 0
3 -110 -17 0
5 -111 -17 0
7 -112 -17 0
9 -113 -17 0
11 -114 -17 0
13 -115 -17 0
15 -116 -17 0
17 -117 -17 0
19 -118 -17 0
21 -119 -17 0
23 -120 -17 0
1 -121 -19 0
3 -122 -19 0
5 -123 -19 0
7 -124 -19 0
9 -125 -19 0
11 -126 -19 0
13 -127 -19 0
15 -128 -19 0
17 -129 -19 0
19 -130 -19 0
21 -131 -19 0
23 -132 -19 0
1 -133 -21 0
3 -134 -21 0
5 -135 -21 0
7 -136 -21 0
9 -137 -21 0
11 -138 -21 0
13 -139 -21 0
15 -140 -21 0
17 -141 -21 0
19 -142 -21 0
21 -143 -21 0
23 -144 -21 0
1 -145 -23 0
3 -146 -23 0
5 -147 -23 0
7 -148 -23 0
9 -149 -23 0
11 -150 -23 0
13 -151 -23 0
15 -152 -23 0
17 -153 -23 0
19 -154 -23 0
21 -155 -23 0
23 -156 -23 0
2 0
4 25 0
-4 -25 0
-4 -27 6 0
-4 -28 8 0
-4 -29 10 0
-4 -30 12 0
-4 -31 14 0
-4 -32 16 0
-4 -33 18 0
-4 -34 20 0
-4 -35 22 0
-4 -36 24 0
6 37 0
-6 -37 0
-6 -38 4 0
-6 -40 8 0
-6 -41 10 0
-6 -42 12 0
-6 -43 14 0
-6 -44 16 0
-6 -45 18 0
-6 -46 20 0
-6 -47 22 0
-6 -48 24 0
8 49 0
-8 -49 0
-8 -50 4 0
-8 -51 6 0
-8 -53 10 0
-8 -54 12 0
-8 -55 14 0
-8 -56 16 0
-8 -57 18 0
-8 -58 20 0
-8 -59 22 0
-8 -60 24 0
10 61 0
-10 -61 0
-10 -62 4 0
-10 -63 6 0
-10 -64 8 0
-10 -66 12 0
-10 -67 14 0
-10 -68 16 0
-10 -69 18 0
-10 -70 20 0
-10 -71 22 0
-10 -72 24 0
12 73 0
-12 -73 0
-12 -74 4 0
-12 -75 6 0
-12 -76 8 0
-12 -77 10 0
-12 -79 14 0
-12 -80 16 0
-12 -81 18 0
-12 -82 20 0
-12 -83 22 0
-12 -84 24 0
14 85 0
-14 -85 0
-14 -86 4 0
-14 -87 6 0
-14 -88 8 0
-14 -89 10 0
-14 -90 12 0
-14 -92 16 0
-14 -93 18 0
-14 -94 20 0
-14 -95 22 0
-14 -96 24 0
16 97 0
-16 -97 0
-16 -98 4 0
-16 -99 6 0
-16 -100 8 0
-16 -101 10 0
-16 -102 12 0
-16 -103 14 0
-16 -105 18 0
-16 -106 20 0
-16 -107 22 0
-16 -108 24 0
18 109 0
-18 -109 0
-18 -110 4 0
-18 -111 6 0
-18 -112 8 0
-18 -113 10 0
-18 -114 12 0
-18 -115 14 0
-18 -116 16 0
-18 -118 20 0
-18 -119 22 0
-18 -120 24 0
20 121 0
-20 -121 0
-20 -122 4 0
-20 -123 6 0
-20 -124 8 0
-20 -125 10 0
-20 -126 12 0
-20 -127 14 0
-20 -128 16 0
-20 -129 18 0
-20 -131 22 0
-20 -132 24 0
22 133 0
-22 -133 0
-22 -134 4 0
-22 -135 6 0
-22 -136 8 0
-22 -137 10 0
-22 -138 12 0
-22 -139 14 0
-22 -140 16 0
-22 -141 18 0
-22 -142 20 0
-22 -144 24 0
24 145 0
-24 -145 0
-24 -146 4 0
-24 -147 6 0
-24 -148 8 0
-24 -149 10 0
-24 -150 12 0
-24 -151 14 0
-24 -152 16 0
-24 -153 18 0
-24 -154 20 0
-24 -155 22 0
26 0
25 4 0
-25 -4 0
-25 -6 27 0
-25 -8 28 0
-25 -10 29 0
-25 -12 30 0
-25 -14 31 0
-25 -16 32 0
-25 -18 33 0
-25 -20 34 0
-25 -22 35 0
-25 -24 36 0
27 38 0
-27 -38 0
-27 -37 25 0
-27 -40 28 0
-27 -41 29 0
-27 -42 30 0
-27 -43 31 0
-27 -44 32 0
-27 -45 33 0
-27 -46 34 0
-27 -47 35 0
-27 -48 36 0
28 50 0
-28 -50 0
-28 -49 25 0
-28 -51 27 0
-28 -53 29 0
-28 -54 30 0
-28 -55 31 0
-28 -56 32 0
-28 -57 33 0
-28 -58 34 0
-28 -59 35 0
-28 -60 36 0
29 62 0
-29 -62 0
-29 -61 25 0
-29 -63 27 0
-29 -64 28 0
-29 -66 30 0
-29 -67 31 0
-29 -68 32 0
-29 -69 33 0
-29 -70 34 0
-29 -71 35 0
-29 -72 36 0
30 74 0
-30 -74 0
-30 -73 25 0
-30 -75 27 0
-30 -76 28 0
-30 -77 29 0
-30 -79 31 0
-30 -80 32 0
-30 -81 33 0
-30 -82 34 0
-30 -83 35 0
-30 -84 36 0
31 86 0
-31 -86 0
-31 -85 25 0
-31 -87 27 0
-31 -88 28 0
-31 -89 29 0
-31 -90 30 0
-31 -92 32 0
-31 -93 33 0
-31 -94 34 0
-31 -95 35 0
-31 -96 36 0
32 98 0
-32 -98 0
-32 -97 25 0
-32 -99 27 0
-32 -100 28 0
-32 -101 29 0
-32 -102 30 0
-32 -103 31 0
-32 -105 33 0
-32 -106 34 0
-32 -107 35 0
-32 -108 36 0
33 110 0
-33 -110 0
-33 -109 25 0
-33 -111 27 0
-33 -112 28 0
-33 -113 29 0
-33 -114 30 0
-33 -115 31 0
-33 -116 32 0
-33 -118 34 0
-33 -119 35 0
-33 -120 36 0
34 122 0
-34 -122 0
-34 -121 25 0
-34 -123 27 0
-34 -124 28 0
-34 -125 29 0
-34 -126 30 0
-34 -127 31 0
-34 -128 32 0
-34 -129 33 0
-34 -131 35 0
-34 -132 36 0
35 134 0
-35 -134 0
-35 -133 25 0
-35 -135 27 0
-35 -136 28 0
-35 -137 29 0
-35 -138 30 0
-35 -139 31 0
-35 -140 32 0
-35 -141 33 0
-35 -142 34 0
-35 -144 36 0
36 146 0
-36 -146 0
-36 -145 25 0
-36 -147 27 0
-36 -148 28 0
-36 -149 29 0
-36 -150 30 0
-36 -151 31 0
-36 -152 32 0
-36 -153 33 0
-36 -154 34 0
-36 -155 35 0
39 0
37 6 0
-37 -6 0
-37 -4 38 0
-37 -8 40 0
-37 -10 41 0
-37 -12 42 0
-37 -14 43 0
-37 -16 44 0
-37 -18 45 0
-37 -20 46 0
-37 -22 47 0
-37 -24 48 0
38 27 0
-38 -27 0
-38 -25 37 0
-38 -28 40 0
-38 -29 41 0
-38 -30 42 0
-38 -31 43 0
-38 -32 44 0
-38 -33 45 0
-38 -34 46 0
-38 -35 47 0
-38 -36 48 0
40 51 0
-40 -51 0
-40 -49 37 0
-40 -50 38 0
-40 -53 41 0
-40 -54 42 0
-40 -55 43 0
-40 -56 44 0
-40 -57 45 0
-40 -58 46 0
-40 -59 47 0
-40 -60 48 0
41 63 0
-41 -63 0
-41 -61 37 0
-41 -62 38 0
-41 -64 40 0
-41 -66 42 0
-41 -67 43 0
-41 -68 44 0
-41 -69 45 0
-41 -70 46 0
-41 -71 47 0
-41 -72 48 0
42 75 0
-42 -75 0
-42 -73 37 0
-42 -74 38 0
-42 -76 40 0
-42 -77 41 0
-42 -79 43 0
-42 -80 44 0
-42 -81 45 0
-42 -82 46 0
-42 -83 47 0
-42 -84 48 0
43 87 0
-43 -87 0
-43 -85 37 0
-43 -86 38 0
-43 -88 40 0
-43 -89 41 0
-43 -90 42 0
-43 -92 44 0
-43 -93 45 0
-43 -94 46 0
-43 -95 47 0
-43 -96 48 0
44 99 0
-44 -99 0
-44 -97 37 0
-44 -98 38 0
-44 -100 40 0
-44 -101 41 0
-44 -102 42 0
-44 -103 43 0
-44 -105 45 0
-44 -106 46 0
-44 -107 47 0
-44 -108 48 0
45 111 0
-45 -111 0
-45 -109 37 0
-45 -110 38 0
-45 -112 40 0
-45 -113 41 0
-45 -114 42 0
-45 -115 43 0
-45 -116 44 0
-45 -118 46 0
-45 -119 47 0
-45 -120 48 0
46 123 0
-46 -123 0
-46 -121 37 0
-46 -122 38 0
-46 -124 40 0
-46 -125 41 0
-46 -126 42 0
-46 -127 43 0
-46 -128 44 0
-46 -129 45 0
-46 -131 47 0
-46 -132 48 0
47 135 0
-47 -135 0
-47 -133 37 0
-47 -134 38 0
-47 -136 40 0
-47 -137 41 0
-47 -138 42 0
-47 -139 43 0
-47 -140 44 0
-47 -141 45 0
-47 -142 46 0
-47 -144 48 0
48 147 0
-48 -147 0
-48 -145 37 0
-48 -146 38 0
-48 -148 40 0
-48 -149 41 0
-48 -150 42 0
-48 -151 43 0
-48 -152 44 0
-48 -153 45 0
-48 -154 46 0
-48 -155 47 0
52 0
49 8 0
-49 -8 0
-49 -4 50 0
-49 -6 51 0
-49 -10 53 0
-49 -12 54 0
-49 -14 55 0
-49 -16 56 0
-49 -18 57 0
-49 -20 58 0
-49 -22 59 0
-49 -24 60 0
50 28 0
-50 -28 0
-50 -25 49 0
-50 -27 51 0
-50 -29 53 0
-50 -30 54 0
-50 -31 55 0
-50 -32 56 0
-50 -33 57 0
-50 -34 58 0
-50 -35 59 0
-50 -36 60 0
51 40 0
-51 -40 0
-51 -37 49 0
-51 -38 50 0
-51 -41 53 0
-51 -42 54 0
-51 -43 55 0
-51 -44 56 0
-51 -45 57 0
-51 -46 58 0
-51 -47 59 0
-51 -48 60 0
53 64 0
-53 -64 0
-53 -61 49 0
-53 -62 50 0
-53 -63 51 0
-53 -66 54 0
-53 -67 55 0
-53 -68 56 0
-53 -69 57 0
-53 -70 58 0
-53 -71 59 0
-53 -72 60 0
54 76 0
-54 -76 0
-54 -73 49 0
-54 -74 50 0
-54 -75 51 0
-54 -77 53 0
-54 -79 55 0
-54 -80 56 0
-54 -81 57 0
-54 -82 58 0
-54 -83 59 0
-54 -84 60 0
55 88 0
-55 -88 0
-55 -85 49 0
-55 -86 50 0
-55 -87 51 0
-55 -89 53 0
-55 -90 54 0
-55 -92 56 0
-55 -93 57 0
-55 -94 58 0
-55 -95 59 0
-55 -96 60 0
56 100 0
-56 -100 0
-56 -97 49 0
-56 -98 50 0
-56 -99 51 0
-56 -101 53 0
-56 -102 54 0
-56 -103 55 0
-56 -105 57 0
-56 -106 58 0
-56 -107 59 0
-56 -108 60 0
57 112 0
-57 -112 0
-57 -109 49 0
-57 -110 50 0
-57 -111 51 0
-57 -113 53 0
-57 -114 54 0
-57 -115 55 0
-57 -116 56 0
-57 -118 58 0
-57 -119 59 0
-57 -120 60 0
58 124 0
-58 -124 0
-58 -121 49 0
-58 -122 50 0
-58 -123 51 0
-58 -125 53 0
-58 -126 54 0
-58 -127 55 0
-58 -128 56 0
-58 -129 57 0
-58 -131 59 0
-58 -132 60 0
59 136 0
-59 -136 0
-59 -133 49 0
-59 -134 50 0
-59 -135 51 0
-59 -137 53 0
-59 -138 54 0
-59 -139 55 0
-59 -140 56 0
-59 -141 57 0
-59 -142 58 0
-59 -144 60 0
60 148 0
-60 -148 0
-60 -145 49 0
-60 -146 50 0
-60 -147 51 0
-60 -149 53 0
-60 -150 54 0
-60 -151 55 0
-60 -152 56 0
-60 -153 57 0
-60 -154 58 0
-60 -155 59 0
65 0
61 10 0
-61 -10 0
-61 -4 62 0
-61 -6 63 0
-61 -8 64 0
-61 -12 66 0
-61 -14 67 0
-61 -16 68 0
-61 -18 69 0
-61 -20 70 0
-61 -22 71 0
-61 -24 72 0
62 29 0
-62 -29 0
-62 -25 61 0
-62 -27 63 0
-62 -28 64 0
-62 -30 66 0
-62 -31 67 0
-62 -32 68 0
-62 -33 69 0
-62 -34 70 0
-62 -35 71 0
-62 -36 72 0
63 41 0
-63 -41 0
-63 -37 61 0
-63 -38 62 0
-63 -40 64 0
-63 -42 66 0
-63 -43 67 0
-63 -44 68 0
-63 -45 69 0
-63 -46 70 0
-63 -47 71 0
-63 -48 72 0
64 53 0
-64 -53 0
-64 -49 61 0
-64 -50 62 0
-64 -51 63 0
-64 -54 66 0
-64 -55 67 0
-64 -56 68 0
-64 -57 69 0
-64 -58 70 0
-64 -59 71 0
-64 -60 72 0
66 77 0
-66 -77 0
-66 -73 61 0
-66 -74 62 0
-66 -75 63 0
-66 -76 64 0
-66 -79 67 0
-66 -80 68 0
-66 -81 69 0
-66 -82 70 0
-66 -83 71 0
-66 -84 72 0
67 89 0
-67 -89 0
-67 -85 61 0
-67 -86 62 0
-67 -87 63 0
-67 -88 64 0
-67 -90 66 0
-67 -92 68 0
-67 -93 69 0
-67 -94 70 0
-67 -95 71 0
-67 -96 72 0
68 101 0
-68 -101 0
-68 -97 61 0
-68 -98 62 0
-68 -99 63 0
-68 -100 64 0
-68 -102 66 0
-68 -103 67 0
-68 -105 69 0
-68 -106 70 0
-68 -107 71 0
-68 -108 72 0
69 113 0
-69 -113 0
-69 -109 61 0
-69 -110 62 0
-69 -111 63 0
-69 -112 64 0
-69 -114 66 0
-69 -115 67 0
-69 -116 68 0
-69 -118 70 0
-69 -119 71 0
-69 -120 72 0
70 125 0
-70 -125 0
-70 -121 61 0
-70 -122 62 0
-70 -123 63 0
-70 -124 64 0
-70 -126 66 0
-70 -127 67 0
-70 -128 68 0
-70 -129 69 0
-70 -131 71 0
-70 -132 72 0
71 137 0
-71 -137 0
-71 -133 61 0
-71 -134 62 0
-71 -135 63 0
-71 -136 64 0
-71 -138 66 0
-71 -139 67 0
-71 -140 68 0
-71 -141 69 0
-71 -142 70 0
-71 -144 72 0
72 149 0
-72 -149 0
-72 -145 61 0
-72 -146 62 0
-72 -147 63 0
-72 -148 64 0
-72 -150 66 0
-72 -151 67 0
-72 -152 68 0
-72 -153 69 0
-72 -154 70 0
-72 -155 71 0
78 0
73 12 0
-73 -12 0
-73 -4 74 0
-73 -6 75 0
-73 -8 76 0
-73 -10 77 0
-73 -14 79 0
-73 -16 80 0
-73 -18 81 0
-73 -20 82 0
-73 -22 83 0
-73 -24 84 0
74 30 0
-74 -30 0
-74 -25 73 0
-74 -27 75 0
-74 -28 76 0
-74 -29 77 0
-74 -31 79 0
-74 -32 80 0
-74 -33 81 0
-74 -34 82 0
-74 -35 83 0
-74 -36 84 0
75 42 0
-75 -42 0
-75 -37 73 0
-75 -38 74 0
-75 -40 76 0
-75 -41 77 0
-75 -43 79 0
-75 -44 80 0
-75 -45 81 0
-75 -46 82 0
-75 -47 83 0
-75 -48 84 0
76 54 0
-76 -54 0
-76 -49 73 0
-76 -50 74 0
-76 -51 75 0
-76 -53 77 0
-76 -55 79 0
-76 -56 80 0
-76 -57 81 0
-76 -58 82 0
-76 -59 83 0
-76 -60 84 0
77 66 0
-77 -66 0
-77 -61 73 0
-77 -62 74 0
-77 -63 75 0
-77 -64 76 0
-77 -67 79 0
-77 -68 80 0
-77 -69 81 0
-77 -70 82 0
-77 -71 83 0
-77 -72 84 0
79 90 0
-79 -90 0
-79 -85 73 0
-79 -86 74 0
-79 -87 75 0
-79 -88 76 0
-79 -89 77 0
-79 -92 80 0
-79 -93 81 0
-79 -94 82 0
-79 -95 83 0
-79 -96 84 0
80 102 0
-80 -102 0
-80 -97 73 0
-80 -98 74 0
-80 -99 75 0
-80 -100 76 0
-80 -101 77 0
-80 -103 79 0
-80 -105 81 0
-80 -106 82 0
-80 -107 83 0
-80 -108 84 0
81 114 0
-81 -114 0
-81 -109 73 0
-81 -110 74 0
-81 -111 75 0
-81 -112 76 0
-81 -113 77 0
-81 -115 79 0
-81 -116 80 0
-81 -118 82 0
-81 -119 83 0
-81 -120 84 0
82 126 0
-82 -126 0
-82 -121 73 0
-82 -122 74 0
-82 -123 75 0
-82 -124 76 0
-82 -125 77 0
-82 -127 79 0
-82 -128 80 0
-82 -129 81 0
-82 -131 83 0
-82 -132 84 0
83 138 0
-83 -138 0
-83 -133 73 0
-83 -134 74 0
-83 -135 75 0
-83 -136 76 0
-83 -137 77 0
-83 -139 79 0
-83 -140 80 0
-83 -141 81 0
-83 -142 82 0
-83 -144 84 0
84 150 0
-84 -150 0
-84 -145 73 0
-84 -146 74 0
-84 -147 75 0
-84 -148 76 0
-84 -149 77 0
-84 -151 79 0
-84 -152 80 0
-84 -153 81 0
-84 -154 82 0
-84 -155 83 0
91 0
85 14 0
-85 -14 0
-85 -4 86 0
-85 -6 87 0
-85 -8 88 0
-85 -10 89 0
-85 -12 90 0
-85 -16 92 0
-85 -18 93 0
-85 -20 94 0
-85 -22 95 0
-85 -24 96 0
86 31 0
-86 -31 0
-86 -25 85 0
-86 -27 87 0
-86 -28 88 0
-86 -29 89 0
-86 -30 90 0
-86 -32 92 0
-86 -33 93 0
-86 -34 94 0
-86 -35 95 0
-86 -36 96 0
87 43 0
-87 -43 0
-87 -37 85 0
-87 -38 86 0
-87 -40 88 0
-87 -41 89 0
-87 -42 90 0
-87 -44 92 0
-87 -45 93 0
-87 -46 94 0
-87 -47 95 0
-87 -48 96 0
88 55 0
-88 -55 0
-88 -49 85 0
-88 -50 86 0
-88 -51 87 0
-88 -53 89 0
-88 -54 90 0
-88 -56 92 0
-88 -57 93 0
-88 -58 94 0
-88 -59 95 0
-88 -60 96 0
89 67 0
-89 -67 0
-89 -61 85 0
-89 -62 86 0
-89 -63 87 0
-89 -64 88 0
-89 -66 90 0
-89 -68 92 0
-89 -69 93 0
-89 -70 94 0
-89 -71 95 0
-89 -72 96 0
90 79 0
-90 -79 0
-90 -73 85 0
-90 -74 86 0
-90 -75 87 0
-90 -76 88 0
-90 -77 89 0
-90 -80 92 0
-90 -81 93 0
-90 -82 94 0
-90 -83 95 0
-90 -84 96 0
92 103 0
-92 -103 0
-92 -97 85 0
-92 -98 86 0
-92 -99 87 0
-92 -100 88 0
-92 -101 89 0
-92 -102 90 0
-92 -105 93 0
-92 -106 94 0
-92 -107 95 0
-92 -108 96 0
93 115 0
-93 -115 0
-93 -109 85 0
-93 -110 86 0
-93 -111 87 0
-93 -112 88 0
-93 -113 89 0
-93 -114 90 0
-93 -116 92 0
-93 -118 94 0
-93 -119 95 0
-93 -120 96 0
94 127 0
-94 -127 0
-94 -121 85 0
-94 -122 86 0
-94 -123 87 0
-94 -124 88 0
-94 -125 89 0
-94 -126 90 0
-94 -128 92 0
-94 -129 93 0
-94 -131 95 0
-94 -132 96 0
95 139 0
-95 -139 0
-95 -133 85 0
-95 -134 86 0
-95 -135 87 0
-95 -136 88 0
-95 -137 89 0
-95 -138 90 0
-95 -140 92 0
-95 -141 93 0
-95 -142 94 0
-95 -144 96 0
96 151 0
-96 -151 0
-96 -145 85 0
-96 -146 86 0
-96 -147 87 0
-96 -148 88 0
-96 -149 89 0
-96 -150 90 0
-96 -152 92 0
-96 -153 93 0
-96 -154 94 0
-96 -155 95 0
104 0
97 16 0
-97 -16 0
-97 -4 98 0
-97 -6 99 0
-97 -8 100 0
-97 -10 101 0
-97 -12 102 0
-97 -14 103 0
-97 -18 105 0
-97 -20 106 0
-97 -22 107 0
-97 -24 108 0
98 32 0
-98 -32 0
-98 -25 97 0
-98 -27 99 0
-98 -28 100 0
-98 -29 101 0
-98 -30 102 0
-98 -31 103 0
-98 -33 105 0
-98 -34 106 0
-98 -35 107 0
-98 -36 108 0
99 44 0
-99 -44 0
-99 -37 97 0
-99 -38 98 0
-99 -40 100 0
-99 -41 101 0
-99 -42 102 0
-99 -43 103 0
-99 -45 105 0
-99 -46 106 0
-99 -47 107 0
-99 -48 108 0
100 56 0
-100 -56 0
-100 -49 97 0
-100 -50 98 0
-100 -51 99 0
-100 -53 101 0
-100 -54 102 0
-100 -55 103 0
-100 -57 105 0
-100 -58 106 0
-100 -59 107 0
-100 -60 108 0
101 68 0
-101 -68 0
-101 -61 97 0
-101 -62 98 0
-101 -63 99 0
-101 -64 100 0
-101 -66 102 0
-101 -67 103 0
-101 -69 105 0
-101 -70 106 0
-101 -71 107 0
-101 -72 108 0
102 80 0
-102 -80 0
-102 -73 97 0
-102 -74 98 0
-102 -75 99 0
-102 -76 100 0
-102 -77 101 0
-102 -79 103 0
-102 -81 105 0
-102 -82 106 0
-102 -83 107 0
-102 -84 108 0
103 92 0
-103 -92 0
-103 -85 97 0
-103 -86 98 0
-103 -87 99 0
-103 -88 100 0
-103 -89 101 0
-103 -90 102 0
-103 -93 105 0
-103 -94 106 0
-103 -95 107 0
-103 -96 108 0
105 116 0
-105 -116 0
-105 -109 97 0
-105 -110 98 0
-105 -111 99 0
-105 -112 100 0
-105 -113 101 0
-105 -114 102 0
-105 -115 103 0
-105 -118 106 0
-105 -119 107 0
-105 -120 108 0
106 128 0
-106 -128 0
-106 -121 97 0
-106 -122 98 0
-106 -123 99 0
-106 -124 100 0
-106 -125 101 0
-106 -126 102 0
-106 -127 103 0
-106 -129 105 0
-106 -131 107 0
-106 -132 108 0
107 140 0
-107 -140 0
-107 -133 97 0
-107 -134 98 0
-107 -135 99 0
-107 -136 100 0
-107 -137 101 0
-107 -138 102 0
-107 -139 103 0
-107 -141 105 0
-107 -142 106 0
-107 -144 108 0
108 152 0
-108 -152 0
-108 -145 97 0
-108 -146 98 0
-108 -147 99 0
-108 -148 100 0
-108 -149 101 0
-108 -150 102 0
-108 -151 103 0
-108 -153 105 0
-108 -154 106 0
-108 -155 107 0
117 0
109 18 0
-109 -18 0
-109 -4 110 0
-109 -6 111 0
-109 -8 112 0
-109 -10 113 0
-109 -12 114 0
-109 -14 115 0
-109 -16 116 0
-109 -20 118 0
-109 -22 119 0
-109 -24 120 0
110 33 0
-110 -33 0
-110 -25 109 0
-110 -27 111 0
-110 -28 112 0
-110 -29 113 0
-110 -30 114 0
-110 -31 115 0
-110 -32 116 0
-110 -34 118 0
-110 -35 119 0
-110 -36 120 0
111 45 0
-111 -45 0
-111 -37 109 0
-111 -38 110 0
-111 -40 112 0
-111 -41 113 0
-111 -42 114 0
-111 -43 115 0
-111 -44 116 0
-111 -46 118 0
-111 -47 119 0
-111 -48 120 0
112 57 0
-112 -57 0
-112 -49 109 0
-112 -50 110 0
-112 -51 111 0
-112 -53 113 0
-112 -54 114 0
-112 -55 115 0
-112 -56 116 0
-112 -58 118 0
-112 -59 119 0
-112 -60 120 0
113 69 0
-113 -69 0
-113 -61 109 0
-113 -62 110 0
-113 -63 111 0
-113 -64 112 0
-113 -66 114 0
-113 -67 115 0
-113 -68 116 0
-113 -70 118 0
-113 -71 119 0
-113 -72 120 0
114 81 0
-114 -81 0
-114 -73 109 0
-114 -74 110 0
-114 -75 111 0
-114 -76 112 0
-114 -77 113 0
-114 -79 115 0
-114 -80 116 0
-114 -82 118 0
-114 -83 119 0
-114 -84 120 0
115 93 0
-115 -93 0
-115 -85 109 0
-115 -86 110 0
-115 -87 111 0
-115 -88 112 0
-115 -89 113 0
-115 -90 114 0
-115 -92 116 0
-115 -94 118 0
-115 -95 119 0
-115 -96 120 0
116 105 0
-116 -105 0
-116 -97 109 0
-116 -98 110 0
-116 -99 111 0
-116 -100 112 0
-116 -101 113 0
-116 -102 114 0
-116 -103 115 0
-116 -106 118 0
-116 -107 119 0
-116 -108 120 0
118 129 0
-118 -129 0
-118 -121 109 0
-118 -122 110 0
-118 -123 111 0
-118 -124 112 0
-118 -125 113 0
-118 -126 114 0
-118 -127 115 0
-118 -128 116 0
-118 -131 119 0
-118 -132 120 0
119 141 0
-119 -141 0
-119 -133 109 0
-119 -134 110 0
-119 -135 111 0
-119 -136 112 0
-119 -137 113 0
-119 -138 114 0
-119 -139 115 0
-119 -140 116 0
-119 -142 118 0
-119 -144 120 0
120 153 0
-120 -153 0
-120 -145 109 0
-120 -146 110 0
-120 -147 111 0
-120 -148 112 0
-120 -149 113 0
-120 -150 114 0
-120 -151 115 0
-120 -152 116 0
-120 -154 118 0
-120 -155 119 0
130 0
121 20 0
-121 -20 0
-121 -4 122 0
-121 -6 123 0
-121 -8 124 0
-121 -10 125 0
-121 -12 126 0
-121 -14 127 0
-121 -16 128 0
-121 -18 129 0
-121 -22 131 0
-121 -24 132 0
122 34 0
-122 -34 0
-122 -25 121 0
-122 -27 123 0
-122 -28 124 0
-122 -29 125 0
-122 -30 126 0
-122 -31 127 0
-122 -32 128 0
-122 -33 129 0
-122 -35 131 0
-122 -36 132 0
123 46 0
-123 -46 0
-123 -37 121 0
-123 -38 122 0
-123 -40 124 0
-123 -41 125 0
-123 -42 126 0
-123 -43 127 0
-123 -44 128 0
-123 -45 129 0
-123 -47 131 0
-123 -48 132 0
124 58 0
-124 -58 0
-124 -49 121 0
-124 -50 122 0
-124 -51 123 0
-124 -53 125 0
-124 -54 126 0
-124 -55 127 0
-124 -56 128 0
-124 -57 129 0
-124 -59 131 0
-124 -60 132 0
125 70 0
-125 -70 0
-125 -61 121 0
-125 -62 122 0
-125 -63 123 0
-125 -64 124 0
-125 -66 126 0
-125 -67 127 0
-125 -68 128 0
-125 -69 129 0
-125 -71 131 0
-125 -72 132 0
126 82 0
-126 -82 0
-126 -73 121 0
-126 -74 122 0
-126 -75 123 0
-126 -76 124 0
-126 -77 125 0
-126 -79 127 0
-126 -80 128 0
-126 -81 129 0
-126 -83 131 0
-126 -84 132 0
127 94 0
-127 -94 0
-127 -85 121 0
-127 -86 122 0
-127 -87 123 0
-127 -88 124 0
-127 -89 125 0
-127 -90 126 0
-127 -92 128 0
-127 -93 129 0
-127 -95 131 0
-127 -96 132 0
128 106 0
-128 -106 0
-128 -97 121 0
-128 -98 122 0
-128 -99 123 0
-128 -100 124 0
-128 -101 125 0
-128 -102 126 0
-128 -103 127 0
-128 -105 129 0
-128 -107 131 0
-128 -108 132 0
129 118 0
-129 -118 0
-129 -109 121 0
-129 -110 122 0
-129 -111 123 0
-129 -112 124 0
-129 -113 125 0
-129 -114 126 0
-129 -115 127 0
-129 -116 128 0
-129 -119 131 0
-129 -120 132 0
131 142 0
-131 -142 0
-131 -133 121 0
-131 -134 122 0
-131 -135 123 0
-131 -136 124 0
-131 -137 125 0
-131 -138 126 0
-131 -139 127 0
-131 -140 128 0
-131 -141 129 0
-131 -144 132 0
132 154 0
-132 -154 0
-132 -145 121 0
-132 -146 122 0
-132 -147 123 0
-132 -148 124 0
-132 -149 125 0
-132 -150 126 0
-132 -151 127 0
-132 -152 128 0
-132 -153 129 0
-132 -155 131 0
143 0
133 22 0
-133 -22 0
-133 -4 134 0
-133 -6 135 0
-133 -8 136 0
-133 -10 137 0
-133 -12 138 0
-133 -14 139 0
-133 -16 140 0
-133 -18 141 0
-133 -20 142 0
-133 -24 144 0
134 35 0
-134 -35 0
-134 -25 133 0
-134 -27 135 0
-134 -28 136 0
-134 -29 137 0
-134 -30 138 0
-134 -31 139 0
-134 -32 140 0
-134 -33 141 0
-134 -34 142 0
-134 -36 144 0
135 47 0
-135 -47 0
-135 -37 133 0
-135 -38 134 0
-135 -40 136 0
-135 -41 137 0
-135 -42 138 0
-135 -43 139 0
-135 -44 140 0
-135 -45 141 0
-135 -46 142 0
-135 -48 144 0
136 59 0
-136 -59 0
-136 -49 133 0
-136 -50 134 0
-136 -51 135 0
-136 -53 137 0
-136 -54 138 0
-136 -55 139 0
-136 -56 140 0
-136 -57 141 0
-136 -58 142 0
-136 -60 144 0
137 71 0
-137 -71 0
-137 -61 133 0
-137 -62 134 0
-137 -63 135 0
-137 -64 136 0
-137 -66 138 0
-137 -67 139 0
-137 -68 140 0
-137 -69 141 0
-137 -70 142 0
-137 -72 144 0
138 83 0
-138 -83 0
-138 -73 133 0
-138 -74 134 0
-138 -75 135 0
-138 -76 136 0
-138 -77 137 0
-138 -79 139 0
-138 -80 140 0
-138 -81 141 0
-138 -82 142 0
-138 -84 144 0
139 95 0
-139 -95 0
-139 -85 133 0
-139 -86 134 0
-139 -87 135 0
-139 -88 136 0
-139 -89 137 0
-139 -90 138 0
-139 -92 140 0
-139 -93 141 0
-139 -94 142 0
-139 -96 144 0
140 107 0
-140 -107 0
-140 -97 133 0
-140 -98 134 0
-140 -99 135 0
-140 -100 136 0
-140 -101 137 0
-140 -102 138 0
-140 -103 139 0
-140 -105 141 0
-140 -106 142 0
-140 -108 144 0
141 119 0
-141 -119 0
-141 -109 133 0
-141 -110 134 0
-141 -111 135 0
-141 -112 136 0
-141 -113 137 0
-141 -114 138 0
-141 -115 139 0
-141 -116 140 0
-141 -118 142 0
-141 -120 144 0
142 131 0
-142 -131 0
-142 -121 133 0
-142 -122 134 0
-142 -123 135 0
-142 -124 136 0
-142 -125 137 0
-142 -126 138 0
-142 -127 139 0
-142 -128 140 0
-142 -129 141 0
-142 -132 144 0
144 155 0
-144 -155 0
-144 -145 133 0
-144 -146 134 0
-144 -147 135 0
-144 -148 136 0
-144 -149 137 0
-144 -150 138 0
-144 -151 139 0
-144 -152 140 0
-144 -153 141 0
-144 -154 142 0
156 0
145 24 0
-145 -24 0
-145 -4 146 0
-145 -6 147 0
-145 -8 148 0
-145 -10 149 0
-145 -12 150 0
-145 -14 151 0
-145 -16 152 0
-145 -18 153 0
-145 -20 154 0
-145 -22 155 0
146 36 0
-146 -36 0
-146 -25 145 0
-146 -27 147 0
-146 -28 148 0
-146 -29 149 0
-146 -30 150 0
-146 -31 151 0
-146 -32 152 0
-146 -33 153 0
-146 -34 154 0
-146 -35 155 0
147 48 0
-147 -48 0
-147 -37 145 0
-147 -38 146 0
-147 -40 148 0
-147 -41 149 0
-147 -42 150 0
-147 -43 151 0
-147 -44 152 0
-147 -45 153 0
-147 -46 154 0
-147 -47 155 0
148 60 0
-148 -60 0
-148 -49 145 0
-148 -50 146 0
-148 -51 147 0
-148 -53 149 0
-148 -54 150 0
-148 -55 151 0
-148 -56 152 0
-148 -57 153 0
-148 -58 154 0
-148 -59 155 0
149 72 0
-149 -72 0
-149 -61 145 0
-149 -62 146 0
-149 -63 147 0
-149 -64 148 0
-149 -66 150 0
-149 -67 151 0
-149 -68 152 0
-149 -69 153 0
-149 -70 154 0
-149 -71 155 0
150 84 0
-150 -84 0
-150 -73 145 0
-150 -74 146 0
-150 -75 147 0
-150 -76 148 0
-150 -77 149 0
-150 -79 151 0
-150 -80 152 0
-150 -81 153 0
-150 -82 154 0
-150 -83 155 0
151 96 0
-151 -96 0
-151 -85 145 0
-151 -86 146 0
-151 -87 147 0
-151 -88 148 0
-151 -89 149 0
-151 -90 150 0
-151 -92 152 0
-151 -93 153 0
-151 -94 154 0
-151 -95 155 0
152 108 0
-152 -108 0
-152 -97 145 0
-152 -98 146 0
-152 -99 147 0
-152 -100 148 0
-152 -101 149 0
-152 -102 150 0
-152 -103 151 0
-152 -105 153 0
-152 -106 154 0
-152 -107 155 0
153 120 0
-153 -120 0
-153 -109 145 0
-153 -110 146 0
-153 -111 147 0
-153 -112 148 0
-153 -113 149 0
-153 -114 150 0
-153 -115 151 0
-153 -116 152 0
-153 -118 154 0
-153 -119 155 0
154 132 0
-154 -132 0
-154 -121 145 0
-154 -122 146 0
-154 -123 147 0
-154 -124 148 0
-154 -125 149 0
-154 -126 150 0
-154 -127 151 0
-154 -128 152 0
-154 -129 153 0
-154 -131 155 0
155 144 0
-155 -144 0
-155 -133 145 0
-155 -134 146 0
-155 -135 147 0
-155 -136 148 0
-155 -137 149 0
-155 -138 150 0
-155 -139 151 0
-155 -140 152 0
-155 -141 153 0
-155 -142 154 0
