c LEQ(domain1,domain1) T(domain1) LEQ(domain11,domain1) LEQ(domain1,domain11) T(domain11) LEQ(domain1,domain2) LEQ(domain2,domain1) T(domain2) T(domain4) LEQ(domain4,domain1) LEQ(domain1,domain4) LEQ(domain1,domain8) LEQ(domain8,domain1) T(domain8) LEQ(domain1,domain6) LEQ(domain6,domain1) T(domain6) LEQ(domain5,domain1) T(domain5) LEQ(domain1,domain5) LEQ(domain0,domain1) T(domain0) LEQ(domain1,domain0) T(domain10) LEQ(domain10,domain1) LEQ(domain1,domain10) LEQ(domain3,domain1) T(domain3) LEQ(domain1,domain3) LEQ(domain9,domain1) T(domain9) LEQ(domain1,domain9) LEQ(domain1,domain7) T(domain7) LEQ(domain7,domain1) LEQ(domain11,domain11) LEQ(domain11,domain2) LEQ(domain2,domain11) LEQ(domain11,domain4) LEQ(domain4,domain11) LEQ(domain11,domain8) LEQ(domain8,domain11) LEQ(domain6,domain11) LEQ(domain11,domain6) LEQ(domain5,domain11) LEQ(domain11,domain5) LEQ(domain0,domain11) LEQ(domain11,domain0) LEQ(domain10,domain11) LEQ(domain11,domain10) LEQ(domain3,domain11) LEQ(domain11,domain3) LEQ(domain11,domain9) LEQ(domain9,domain11) LEQ(domain11,domain7) LEQ(domain7,domain11) LEQ(domain2,domain2) LEQ(domain2,domain4) LEQ(domain4,domain2) LEQ(domain2,domain8) LEQ(domain8,domain2) LEQ(domain2,domain6) LEQ(domain6,domain2) LEQ(domain5,domain2) LEQ(domain2,domain5) LEQ(domain2,domain0) LEQ(domain0,domain2) LEQ(domain10,domain2) LEQ(domain2,domain10) LEQ(domain2,domain3) LEQ(domain3,domain2) LEQ(domain9,domain2) LEQ(domain2,domain9) LEQ(domain2,domain7) LEQ(domain7,domain2) LEQ(domain4,domain4) LEQ(domain8,domain4) LEQ(domain4,domain8) LEQ(domain4,domain6) LEQ(domain6,domain4) LEQ(domain4,domain5) LEQ(domain5,domain4) LEQ(domain4,domain0) LEQ(domain0,domain4) LEQ(domain10,domain4) LEQ(domain4,domain10) LEQ(domain3,domain4) LEQ(domain4,domain3) LEQ(domain4,domain9) LEQ(domain9,domain4) LEQ(domain7,domain4) LEQ(domain4,domain7) LEQ(domain8,domain8) LEQ(domain6,domain8) LEQ(domain8,domain6) LEQ(domain5,domain8) LEQ(domain8,domain5) LEQ(domain8,domain0) LEQ(domain0,domain8) LEQ(domain10,domain8) LEQ(domain8,domain10) LEQ(domain3,domain8) LEQ(domain8,domain3) LEQ(domain9,domain8) LEQ(domain8,domain9) LEQ(domain8,domain7) LEQ(domain7,domain8) LEQ(domain6,domain6) LEQ(domain5,domain6) LEQ(domain6,domain5) LEQ(domain6,domain0) LEQ(domain0,domain6) LEQ(domain10,domain6) LEQ(domain6,domain10) LEQ(domain3,domain6) LEQ(domain6,domain3) LEQ(domain9,domain6) LEQ(domain6,domain9) LEQ(domain6,domain7) LEQ(domain7,domain6) LEQ(domain5,domain5) LEQ(domain5,domain0) LEQ(domain0,domain5) LEQ(domain5,domain10) LEQ(domain10,domain5) LEQ(domain5,domain3) LEQ(domain3,domain5) LEQ(domain9,domain5) LEQ(domain5,domain9) LEQ(domain7,domain5) LEQ(domain5,domain7) LEQ(domain0,domain0) LEQ(domain0,domain10) LEQ(domain10,domain0) LEQ(domain3,domain0) LEQ(domain0,domain3) LEQ(domain9,domain0) LEQ(domain0,domain9) LEQ(domain7,domain0) LEQ(domain0,domain7) LEQ(domain10,domain10) LEQ(domain3,domain10) LEQ(domain10,domain3) LEQ(domain10,domain9) LEQ(domain9,domain10) LEQ(domain7,domain10) LEQ(domain10,domain7) LEQ(domain3,domain3) LEQ(domain3,domain9) LEQ(domain9,domain3) LEQ(domain7,domain3) LEQ(domain3,domain7) LEQ(domain9,domain9) LEQ(domain9,domain7) LEQ(domain7,domain9) LEQ(domain7,domain7)
c 1 2 3 4 5 6 7 8 9 10 11 12 13 14 15 16 17 18 19 20 21 22 23 24 25 26 27 28 29 30 31 32 33 34 35 36 37 38 39 40 41 42 43 44 45 46 47 48 49 50 51 52 53 54 55 56 57 58 59 60 61 62 63 64 65 66 67 68 69 70 71 72 73 74 75 76 77 78 79 80 81 82 83 84 85 86 87 88 89 90 91 92 93 94 95 96 97 98 99 100 101 102 103 104 105 106 107 108 109 110 111 112 113 114 115 116 117 118 119 120 121 122 123 124 125 126 127 128 129 130 131 132 133 134 135 136 137 138 139 140 141 142 143 144 145 146 147 148 149 150 151 152 153 154 155 156
p cnf 156 1608
22 -132 -22 0
22 -23 -2 0
22 -134 -24 0
22 -48 -5 0
22 -66 -8 0
22 -135 -28 0
22 -83 -9 0
22 -122 -19 0
22 -111 -17 0
22 -139 -34 0
22 -98 -14 0
22 -137 -31 0
2 -21 -22 0
2 -1 -2 0
2 -25 -24 0
2 -3 -5 0
2 -7 -8 0
2 -27 -28 0
2 -10 -9 0
2 -18 -19 0
2 -16 -17 0
2 -35 -34 0
2 -13 -14 0
2 -30 -31 0
24 -133 -22 0
24 -26 -2 0
24 -141 -24 0
24 -50 -5 0
24 -69 -8 0
24 -142 -28 0
24 -86 -9 0
24 -124 -19 0
24 -114 -17 0
24 -146 -34 0
24 -101 -14 0
24 -145 -31 0
5 -47 -22 0
5 -4 -2 0
5 -49 -24 0
5 -36 -5 0
5 -38 -8 0
5 -51 -28 0
5 -40 -9 0
5 -45 -19 0
5 -43 -17 0
5 -56 -34 0
5 -42 -14 0
5 -54 -31 0
8 -67 -22 0
8 -6 -2 0
8 -68 -24 0
8 -37 -5 0
8 -57 -8 0
8 -71 -28 0
8 -59 -9 0
8 -64 -19 0
8 -63 -17 0
8 -75 -34 0
8 -61 -14 0
8 -72 -31 0
28 -136 -22 0
28 -29 -2 0
28 -143 -24 0
28 -52 -5 0
28 -70 -8 0
28 -148 -28 0
28 -88 -9 0
28 -126 -19 0
28 -116 -17 0
28 -151 -34 0
28 -103 -14 0
28 -150 -31 0
9 -84 -22 0
9 -11 -2 0
9 -85 -24 0
9 -39 -5 0
9 -58 -8 0
9 -87 -28 0
9 -76 -9 0
9 -82 -19 0
9 -80 -17 0
9 -91 -34 0
9 -77 -14 0
9 -90 -31 0
19 -123 -22 0
19 -20 -2 0
19 -125 -24 0
19 -46 -5 0
19 -65 -8 0
19 -127 -28 0
19 -81 -9 0
19 -121 -19 0
19 -110 -17 0
19 -130 -34 0
19 -97 -14 0
19 -128 -31 0
17 -112 -22 0
17 -15 -2 0
17 -113 -24 0
17 -44 -5 0
17 -62 -8 0
17 -115 -28 0
17 -79 -9 0
17 -109 -19 0
17 -108 -17 0
17 -120 -34 0
17 -95 -14 0
17 -117 -31 0
34 -140 -22 0
34 -33 -2 0
34 -147 -24 0
34 -55 -5 0
34 -74 -8 0
34 -152 -28 0
34 -92 -9 0
34 -131 -19 0
34 -119 -17 0
34 -156 -34 0
34 -106 -14 0
34 -154 -31 0
14 -99 -22 0
14 -12 -2 0
14 -100 -24 0
14 -41 -5 0
14 -60 -8 0
14 -102 -28 0
14 -78 -9 0
14 -96 -19 0
14 -94 -17 0
14 -107 -34 0
14 -93 -14 0
14 -104 -31 0
31 -138 -22 0
31 -32 -2 0
31 -144 -24 0
31 -53 -5 0
31 -73 -8 0
31 -149 -28 0
31 -89 -9 0
31 -129 -19 0
31 -118 -17 0
31 -155 -34 0
31 -105 -14 0
31 -153 -31 0
132 0
21 23 0
-21 -23 0
-21 -26 133 0
-21 -4 47 0
-21 -6 67 0
-21 -29 136 0
-21 -11 84 0
-21 -20 123 0
-21 -15 112 0
-21 -33 140 0
-21 -12 99 0
-21 -32 138 0
133 134 0
-133 -134 0
-133 -25 21 0
-133 -49 47 0
-133 -68 67 0
-133 -143 136 0
-133 -85 84 0
-133 -125 123 0
-133 -113 112 0
-133 -147 140 0
-133 -100 99 0
-133 -144 138 0
47 48 0
-47 -48 0
-47 -3 21 0
-47 -50 133 0
-47 -37 67 0
-47 -52 136 0
-47 -39 84 0
-47 -46 123 0
-47 -44 112 0
-47 -55 140 0
-47 -41 99 0
-47 -53 138 0
67 66 0
-67 -66 0
-67 -7 21 0
-67 -69 133 0
-67 -38 47 0
-67 -70 136 0
-67 -58 84 0
-67 -65 123 0
-67 -62 112 0
-67 -74 140 0
-67 -60 99 0
-67 -73 138 0
136 135 0
-136 -135 0
-136 -27 21 0
-136 -142 133 0
-136 -51 47 0
-136 -71 67 0
-136 -87 84 0
-136 -127 123 0
-136 -115 112 0
-136 -152 140 0
-136 -102 99 0
-136 -149 138 0
84 83 0
-84 -83 0
-84 -10 21 0
-84 -86 133 0
-84 -40 47 0
-84 -59 67 0
-84 -88 136 0
-84 -81 123 0
-84 -79 112 0
-84 -92 140 0
-84 -78 99 0
-84 -89 138 0
123 122 0
-123 -122 0
-123 -18 21 0
-123 -124 133 0
-123 -45 47 0
-123 -64 67 0
-123 -126 136 0
-123 -82 84 0
-123 -109 112 0
-123 -131 140 0
-123 -96 99 0
-123 -129 138 0
112 111 0
-112 -111 0
-112 -16 21 0
-112 -114 133 0
-112 -43 47 0
-112 -63 67 0
-112 -116 136 0
-112 -80 84 0
-112 -110 123 0
-112 -119 140 0
-112 -94 99 0
-112 -118 138 0
140 139 0
-140 -139 0
-140 -35 21 0
-140 -146 133 0
-140 -56 47 0
-140 -75 67 0
-140 -151 136 0
-140 -91 84 0
-140 -130 123 0
-140 -120 112 0
-140 -107 99 0
-140 -155 138 0
99 98 0
-99 -98 0
-99 -13 21 0
-99 -101 133 0
-99 -42 47 0
-99 -61 67 0
-99 -103 136 0
-99 -77 84 0
-99 -97 123 0
-99 -95 112 0
-99 -106 140 0
-99 -105 138 0
138 137 0
-138 -137 0
-138 -30 21 0
-138 -145 133 0
-138 -54 47 0
-138 -72 67 0
-138 -150 136 0
-138 -90 84 0
-138 -128 123 0
-138 -117 112 0
-138 -154 140 0
-138 -104 99 0
1 0
-23 -133 26 0
-23 -47 4 0
-23 -67 6 0
-23 -136 29 0
-23 -84 11 0
-23 -123 20 0
-23 -112 15 0
-23 -140 33 0
-23 -99 12 0
-23 -138 32 0
26 25 0
-26 -25 0
-26 -134 23 0
-26 -49 4 0
-26 -68 6 0
-26 -143 29 0
-26 -85 11 0
-26 -125 20 0
-26 -113 15 0
-26 -147 33 0
-26 -100 12 0
-26 -144 32 0
4 3 0
-4 -3 0
-4 -48 23 0
-4 -50 26 0
-4 -37 6 0
-4 -52 29 0
-4 -39 11 0
-4 -46 20 0
-4 -44 15 0
-4 -55 33 0
-4 -41 12 0
-4 -53 32 0
6 7 0
-6 -7 0
-6 -66 23 0
-6 -69 26 0
-6 -38 4 0
-6 -70 29 0
-6 -58 11 0
-6 -65 20 0
-6 -62 15 0
-6 -74 33 0
-6 -60 12 0
-6 -73 32 0
29 27 0
-29 -27 0
-29 -135 23 0
-29 -142 26 0
-29 -51 4 0
-29 -71 6 0
-29 -87 11 0
-29 -127 20 0
-29 -115 15 0
-29 -152 33 0
-29 -102 12 0
-29 -149 32 0
11 10 0
-11 -10 0
-11 -83 23 0
-11 -86 26 0
-11 -40 4 0
-11 -59 6 0
-11 -88 29 0
-11 -81 20 0
-11 -79 15 0
-11 -92 33 0
-11 -78 12 0
-11 -89 32 0
20 18 0
-20 -18 0
-20 -122 23 0
-20 -124 26 0
-20 -45 4 0
-20 -64 6 0
-20 -126 29 0
-20 -82 11 0
-20 -109 15 0
-20 -131 33 0
-20 -96 12 0
-20 -129 32 0
15 16 0
-15 -16 0
-15 -111 23 0
-15 -114 26 0
-15 -43 4 0
-15 -63 6 0
-15 -116 29 0
-15 -80 11 0
-15 -110 20 0
-15 -119 33 0
-15 -94 12 0
-15 -118 32 0
33 35 0
-33 -35 0
-33 -139 23 0
-33 -146 26 0
-33 -56 4 0
-33 -75 6 0
-33 -151 29 0
-33 -91 11 0
-33 -130 20 0
-33 -120 15 0
-33 -107 12 0
-33 -155 32 0
12 13 0
-12 -13 0
-12 -98 23 0
-12 -101 26 0
-12 -42 4 0
-12 -61 6 0
-12 -103 29 0
-12 -77 11 0
-12 -97 20 0
-12 -95 15 0
-12 -106 33 0
-12 -105 32 0
32 30 0
-32 -30 0
-32 -137 23 0
-32 -145 26 0
-32 -54 4 0
-32 -72 6 0
-32 -150 29 0
-32 -90 11 0
-32 -128 20 0
-32 -117 15 0
-32 -154 33 0
-32 -104 12 0
141 0
-134 -21 25 0
-134 -47 49 0
-134 -67 68 0
-134 -136 143 0
-134 -84 85 0
-134 -123 125 0
-134 -112 113 0
-134 -140 147 0
-134 -99 100 0
-134 -138 144 0
-25 -23 134 0
-25 -4 49 0
-25 -6 68 0
-25 -29 143 0
-25 -11 85 0
-25 -20 125 0
-25 -15 113 0
-25 -33 147 0
-25 -12 100 0
-25 -32 144 0
49 50 0
-49 -50 0
-49 -48 134 0
-49 -3 25 0
-49 -37 68 0
-49 -52 143 0
-49 -39 85 0
-49 -46 125 0
-49 -44 113 0
-49 -55 147 0
-49 -41 100 0
-49 -53 144 0
68 69 0
-68 -69 0
-68 -66 134 0
-68 -7 25 0
-68 -38 49 0
-68 -70 143 0
-68 -58 85 0
-68 -65 125 0
-68 -62 113 0
-68 -74 147 0
-68 -60 100 0
-68 -73 144 0
143 142 0
-143 -142 0
-143 -135 134 0
-143 -27 25 0
-143 -51 49 0
-143 -71 68 0
-143 -87 85 0
-143 -127 125 0
-143 -115 113 0
-143 -152 147 0
-143 -102 100 0
-143 -149 144 0
85 86 0
-85 -86 0
-85 -83 134 0
-85 -10 25 0
-85 -40 49 0
-85 -59 68 0
-85 -88 143 0
-85 -81 125 0
-85 -79 113 0
-85 -92 147 0
-85 -78 100 0
-85 -89 144 0
125 124 0
-125 -124 0
-125 -122 134 0
-125 -18 25 0
-125 -45 49 0
-125 -64 68 0
-125 -126 143 0
-125 -82 85 0
-125 -109 113 0
-125 -131 147 0
-125 -96 100 0
-125 -129 144 0
113 114 0
-113 -114 0
-113 -111 134 0
-113 -16 25 0
-113 -43 49 0
-113 -63 68 0
-113 -116 143 0
-113 -80 85 0
-113 -110 125 0
-113 -119 147 0
-113 -94 100 0
-113 -118 144 0
147 146 0
-147 -146 0
-147 -139 134 0
-147 -35 25 0
-147 -56 49 0
-147 -75 68 0
-147 -151 143 0
-147 -91 85 0
-147 -130 125 0
-147 -120 113 0
-147 -107 100 0
-147 -155 144 0
100 101 0
-100 -101 0
-100 -98 134 0
-100 -13 25 0
-100 -42 49 0
-100 -61 68 0
-100 -103 143 0
-100 -77 85 0
-100 -97 125 0
-100 -95 113 0
-100 -106 147 0
-100 -105 144 0
144 145 0
-144 -145 0
-144 -137 134 0
-144 -30 25 0
-144 -54 49 0
-144 -72 68 0
-144 -150 143 0
-144 -90 85 0
-144 -128 125 0
-144 -117 113 0
-144 -154 147 0
-144 -104 100 0
36 0
-48 -21 3 0
-48 -133 50 0
-48 -67 37 0
-48 -136 52 0
-48 -84 39 0
-48 -123 46 0
-48 -112 44 0
-48 -140 55 0
-48 -99 41 0
-48 -138 53 0
-3 -23 48 0
-3 -26 50 0
-3 -6 37 0
-3 -29 52 0
-3 -11 39 0
-3 -20 46 0
-3 -15 44 0
-3 -33 55 0
-3 -12 41 0
-3 -32 53 0
-50 -134 48 0
-50 -25 3 0
-50 -68 37 0
-50 -143 52 0
-50 -85 39 0
-50 -125 46 0
-50 -113 44 0
-50 -147 55 0
-50 -100 41 0
-50 -144 53 0
37 38 0
-37 -38 0
-37 -66 48 0
-37 -7 3 0
-37 -69 50 0
-37 -70 52 0
-37 -58 39 0
-37 -65 46 0
-37 -62 44 0
-37 -74 55 0
-37 -60 41 0
-37 -73 53 0
52 51 0
-52 -51 0
-52 -135 48 0
-52 -27 3 0
-52 -142 50 0
-52 -71 37 0
-52 -87 39 0
-52 -127 46 0
-52 -115 44 0
-52 -152 55 0
-52 -102 41 0
-52 -149 53 0
39 40 0
-39 -40 0
-39 -83 48 0
-39 -10 3 0
-39 -86 50 0
-39 -59 37 0
-39 -88 52 0
-39 -81 46 0
-39 -79 44 0
-39 -92 55 0
-39 -78 41 0
-39 -89 53 0
46 45 0
-46 -45 0
-46 -122 48 0
-46 -18 3 0
-46 -124 50 0
-46 -64 37 0
-46 -126 52 0
-46 -82 39 0
-46 -109 44 0
-46 -131 55 0
-46 -96 41 0
-46 -129 53 0
44 43 0
-44 -43 0
-44 -111 48 0
-44 -16 3 0
-44 -114 50 0
-44 -63 37 0
-44 -116 52 0
-44 -80 39 0
-44 -110 46 0
-44 -119 55 0
-44 -94 41 0
-44 -118 53 0
55 56 0
-55 -56 0
-55 -139 48 0
-55 -35 3 0
-55 -146 50 0
-55 -75 37 0
-55 -151 52 0
-55 -91 39 0
-55 -130 46 0
-55 -120 44 0
-55 -107 41 0
-55 -155 53 0
41 42 0
-41 -42 0
-41 -98 48 0
-41 -13 3 0
-41 -101 50 0
-41 -61 37 0
-41 -103 52 0
-41 -77 39 0
-41 -97 46 0
-41 -95 44 0
-41 -106 55 0
-41 -105 53 0
53 54 0
-53 -54 0
-53 -137 48 0
-53 -30 3 0
-53 -145 50 0
-53 -72 37 0
-53 -150 52 0
-53 -90 39 0
-53 -128 46 0
-53 -117 44 0
-53 -154 55 0
-53 -104 41 0
57 0
-66 -21 7 0
-66 -133 69 0
-66 -47 38 0
-66 -136 70 0
-66 -84 58 0
-66 -123 65 0
-66 -112 62 0
-66 -140 74 0
-66 -99 60 0
-66 -138 73 0
-7 -23 66 0
-7 -26 69 0
-7 -4 38 0
-7 -29 70 0
-7 -11 58 0
-7 -20 65 0
-7 -15 62 0
-7 -33 74 0
-7 -12 60 0
-7 -32 73 0
-69 -134 66 0
-69 -25 7 0
-69 -49 38 0
-69 -143 70 0
-69 -85 58 0
-69 -125 65 0
-69 -113 62 0
-69 -147 74 0
-69 -100 60 0
-69 -144 73 0
-38 -48 66 0
-38 -3 7 0
-38 -50 69 0
-38 -52 70 0
-38 -39 58 0
-38 -46 65 0
-38 -44 62 0
-38 -55 74 0
-38 -41 60 0
-38 -53 73 0
70 71 0
-70 -71 0
-70 -135 66 0
-70 -27 7 0
-70 -142 69 0
-70 -51 38 0
-70 -87 58 0
-70 -127 65 0
-70 -115 62 0
-70 -152 74 0
-70 -102 60 0
-70 -149 73 0
58 59 0
-58 -59 0
-58 -83 66 0
-58 -10 7 0
-58 -86 69 0
-58 -40 38 0
-58 -88 70 0
-58 -81 65 0
-58 -79 62 0
-58 -92 74 0
-58 -78 60 0
-58 -89 73 0
65 64 0
-65 -64 0
-65 -122 66 0
-65 -18 7 0
-65 -124 69 0
-65 -45 38 0
-65 -126 70 0
-65 -82 58 0
-65 -109 62 0
-65 -131 74 0
-65 -96 60 0
-65 -129 73 0
62 63 0
-62 -63 0
-62 -111 66 0
-62 -16 7 0
-62 -114 69 0
-62 -43 38 0
-62 -116 70 0
-62 -80 58 0
-62 -110 65 0
-62 -119 74 0
-62 -94 60 0
-62 -118 73 0
74 75 0
-74 -75 0
-74 -139 66 0
-74 -35 7 0
-74 -146 69 0
-74 -56 38 0
-74 -151 70 0
-74 -91 58 0
-74 -130 65 0
-74 -120 62 0
-74 -107 60 0
-74 -155 73 0
60 61 0
-60 -61 0
-60 -98 66 0
-60 -13 7 0
-60 -101 69 0
-60 -42 38 0
-60 -103 70 0
-60 -77 58 0
-60 -97 65 0
-60 -95 62 0
-60 -106 74 0
-60 -105 73 0
73 72 0
-73 -72 0
-73 -137 66 0
-73 -30 7 0
-73 -145 69 0
-73 -54 38 0
-73 -150 70 0
-73 -90 58 0
-73 -128 65 0
-73 -117 62 0
-73 -154 74 0
-73 -104 60 0
148 0
-135 -21 27 0
-135 -133 142 0
-135 -47 51 0
-135 -67 71 0
-135 -84 87 0
-135 -123 127 0
-135 -112 115 0
-135 -140 152 0
-135 -99 102 0
-135 -138 149 0
-27 -23 135 0
-27 -26 142 0
-27 -4 51 0
-27 -6 71 0
-27 -11 87 0
-27 -20 127 0
-27 -15 115 0
-27 -33 152 0
-27 -12 102 0
-27 -32 149 0
-142 -134 135 0
-142 -25 27 0
-142 -49 51 0
-142 -68 71 0
-142 -85 87 0
-142 -125 127 0
-142 -113 115 0
-142 -147 152 0
-142 -100 102 0
-142 -144 149 0
-51 -48 135 0
-51 -3 27 0
-51 -50 142 0
-51 -37 71 0
-51 -39 87 0
-51 -46 127 0
-51 -44 115 0
-51 -55 152 0
-51 -41 102 0
-51 -53 149 0
-71 -66 135 0
-71 -7 27 0
-71 -69 142 0
-71 -38 51 0
-71 -58 87 0
-71 -65 127 0
-71 -62 115 0
-71 -74 152 0
-71 -60 102 0
-71 -73 149 0
87 88 0
-87 -88 0
-87 -83 135 0
-87 -10 27 0
-87 -86 142 0
-87 -40 51 0
-87 -59 71 0
-87 -81 127 0
-87 -79 115 0
-87 -92 152 0
-87 -78 102 0
-87 -89 149 0
127 126 0
-127 -126 0
-127 -122 135 0
-127 -18 27 0
-127 -124 142 0
-127 -45 51 0
-127 -64 71 0
-127 -82 87 0
-127 -109 115 0
-127 -131 152 0
-127 -96 102 0
-127 -129 149 0
115 116 0
-115 -116 0
-115 -111 135 0
-115 -16 27 0
-115 -114 142 0
-115 -43 51 0
-115 -63 71 0
-115 -80 87 0
-115 -110 127 0
-115 -119 152 0
-115 -94 102 0
-115 -118 149 0
152 151 0
-152 -151 0
-152 -139 135 0
-152 -35 27 0
-152 -146 142 0
-152 -56 51 0
-152 -75 71 0
-152 -91 87 0
-152 -130 127 0
-152 -120 115 0
-152 -107 102 0
-152 -155 149 0
102 103 0
-102 -103 0
-102 -98 135 0
-102 -13 27 0
-102 -101 142 0
-102 -42 51 0
-102 -61 71 0
-102 -77 87 0
-102 -97 127 0
-102 -95 115 0
-102 -106 152 0
-102 -105 149 0
149 150 0
-149 -150 0
-149 -137 135 0
-149 -30 27 0
-149 -145 142 0
-149 -54 51 0
-149 -72 71 0
-149 -90 87 0
-149 -128 127 0
-149 -117 115 0
-149 -154 152 0
-149 -104 102 0
76 0
-83 -21 10 0
-83 -133 86 0
-83 -47 40 0
-83 -67 59 0
-83 -136 88 0
-83 -123 81 0
-83 -112 79 0
-83 -140 92 0
-83 -99 78 0
-83 -138 89 0
-10 -23 83 0
-10 -26 86 0
-10 -4 40 0
-10 -6 59 0
-10 -29 88 0
-10 -20 81 0
-10 -15 79 0
-10 -33 92 0
-10 -12 78 0
-10 -32 89 0
-86 -134 83 0
-86 -25 10 0
-86 -49 40 0
-86 -68 59 0
-86 -143 88 0
-86 -125 81 0
-86 -113 79 0
-86 -147 92 0
-86 -100 78 0
-86 -144 89 0
-40 -48 83 0
-40 -3 10 0
-40 -50 86 0
-40 -37 59 0
-40 -52 88 0
-40 -46 81 0
-40 -44 79 0
-40 -55 92 0
-40 -41 78 0
-40 -53 89 0
-59 -66 83 0
-59 -7 10 0
-59 -69 86 0
-59 -38 40 0
-59 -70 88 0
-59 -65 81 0
-59 -62 79 0
-59 -74 92 0
-59 -60 78 0
-59 -73 89 0
-88 -135 83 0
-88 -27 10 0
-88 -142 86 0
-88 -51 40 0
-88 -71 59 0
-88 -127 81 0
-88 -115 79 0
-88 -152 92 0
-88 -102 78 0
-88 -149 89 0
81 82 0
-81 -82 0
-81 -122 83 0
-81 -18 10 0
-81 -124 86 0
-81 -45 40 0
-81 -64 59 0
-81 -126 88 0
-81 -109 79 0
-81 -131 92 0
-81 -96 78 0
-81 -129 89 0
79 80 0
-79 -80 0
-79 -111 83 0
-79 -16 10 0
-79 -114 86 0
-79 -43 40 0
-79 -63 59 0
-79 -116 88 0
-79 -110 81 0
-79 -119 92 0
-79 -94 78 0
-79 -118 89 0
92 91 0
-92 -91 0
-92 -139 83 0
-92 -35 10 0
-92 -146 86 0
-92 -56 40 0
-92 -75 59 0
-92 -151 88 0
-92 -130 81 0
-92 -120 79 0
-92 -107 78 0
-92 -155 89 0
78 77 0
-78 -77 0
-78 -98 83 0
-78 -13 10 0
-78 -101 86 0
-78 -42 40 0
-78 -61 59 0
-78 -103 88 0
-78 -97 81 0
-78 -95 79 0
-78 -106 92 0
-78 -105 89 0
89 90 0
-89 -90 0
-89 -137 83 0
-89 -30 10 0
-89 -145 86 0
-89 -54 40 0
-89 -72 59 0
-89 -150 88 0
-89 -128 81 0
-89 -117 79 0
-89 -154 92 0
-89 -104 78 0
121 0
-122 -21 18 0
-122 -133 124 0
-122 -47 45 0
-122 -67 64 0
-122 -136 126 0
-122 -84 82 0
-122 -112 109 0
-122 -140 131 0
-122 -99 96 0
-122 -138 129 0
-18 -23 122 0
-18 -26 124 0
-18 -4 45 0
-18 -6 64 0
-18 -29 126 0
-18 -11 82 0
-18 -15 109 0
-18 -33 131 0
-18 -12 96 0
-18 -32 129 0
-124 -134 122 0
-124 -25 18 0
-124 -49 45 0
-124 -68 64 0
-124 -143 126 0
-124 -85 82 0
-124 -113 109 0
-124 -147 131 0
-124 -100 96 0
-124 -144 129 0
-45 -48 122 0
-45 -3 18 0
-45 -50 124 0
-45 -37 64 0
-45 -52 126 0
-45 -39 82 0
-45 -44 109 0
-45 -55 131 0
-45 -41 96 0
-45 -53 129 0
-64 -66 122 0
-64 -7 18 0
-64 -69 124 0
-64 -38 45 0
-64 -70 126 0
-64 -58 82 0
-64 -62 109 0
-64 -74 131 0
-64 -60 96 0
-64 -73 129 0
-126 -135 122 0
-126 -27 18 0
-126 -142 124 0
-126 -51 45 0
-126 -71 64 0
-126 -87 82 0
-126 -115 109 0
-126 -152 131 0
-126 -102 96 0
-126 -149 129 0
-82 -83 122 0
-82 -10 18 0
-82 -86 124 0
-82 -40 45 0
-82 -59 64 0
-82 -88 126 0
-82 -79 109 0
-82 -92 131 0
-82 -78 96 0
-82 -89 129 0
109 110 0
-109 -110 0
-109 -111 122 0
-109 -16 18 0
-109 -114 124 0
-109 -43 45 0
-109 -63 64 0
-109 -116 126 0
-109 -80 82 0
-109 -119 131 0
-109 -94 96 0
-109 -118 129 0
131 130 0
-131 -130 0
-131 -139 122 0
-131 -35 18 0
-131 -146 124 0
-131 -56 45 0
-131 -75 64 0
-131 -151 126 0
-131 -91 82 0
-131 -120 109 0
-131 -107 96 0
-131 -155 129 0
96 97 0
-96 -97 0
-96 -98 122 0
-96 -13 18 0
-96 -101 124 0
-96 -42 45 0
-96 -61 64 0
-96 -103 126 0
-96 -77 82 0
-96 -95 109 0
-96 -106 131 0
-96 -105 129 0
129 128 0
-129 -128 0
-129 -137 122 0
-129 -30 18 0
-129 -145 124 0
-129 -54 45 0
-129 -72 64 0
-129 -150 126 0
-129 -90 82 0
-129 -117 109 0
-129 -154 131 0
-129 -104 96 0
108 0
-111 -21 16 0
-111 -133 114 0
-111 -47 43 0
-111 -67 63 0
-111 -136 116 0
-111 -84 80 0
-111 -123 110 0
-111 -140 119 0
-111 -99 94 0
-111 -138 118 0
-16 -23 111 0
-16 -26 114 0
-16 -4 43 0
-16 -6 63 0
-16 -29 116 0
-16 -11 80 0
-16 -20 110 0
-16 -33 119 0
-16 -12 94 0
-16 -32 118 0
-114 -134 111 0
-114 -25 16 0
-114 -49 43 0
-114 -68 63 0
-114 -143 116 0
-114 -85 80 0
-114 -125 110 0
-114 -147 119 0
-114 -100 94 0
-114 -144 118 0
-43 -48 111 0
-43 -3 16 0
-43 -50 114 0
-43 -37 63 0
-43 -52 116 0
-43 -39 80 0
-43 -46 110 0
-43 -55 119 0
-43 -41 94 0
-43 -53 118 0
-63 -66 111 0
-63 -7 16 0
-63 -69 114 0
-63 -38 43 0
-63 -70 116 0
-63 -58 80 0
-63 -65 110 0
-63 -74 119 0
-63 -60 94 0
-63 -73 118 0
-116 -135 111 0
-116 -27 16 0
-116 -142 114 0
-116 -51 43 0
-116 -71 63 0
-116 -87 80 0
-116 -127 110 0
-116 -152 119 0
-116 -102 94 0
-116 -149 118 0
-80 -83 111 0
-80 -10 16 0
-80 -86 114 0
-80 -40 43 0
-80 -59 63 0
-80 -88 116 0
-80 -81 110 0
-80 -92 119 0
-80 -78 94 0
-80 -89 118 0
-110 -122 111 0
-110 -18 16 0
-110 -124 114 0
-110 -45 43 0
-110 -64 63 0
-110 -126 116 0
-110 -82 80 0
-110 -131 119 0
-110 -96 94 0
-110 -129 118 0
119 120 0
-119 -120 0
-119 -139 111 0
-119 -35 16 0
-119 -146 114 0
-119 -56 43 0
-119 -75 63 0
-119 -151 116 0
-119 -91 80 0
-119 -130 110 0
-119 -107 94 0
-119 -155 118 0
94 95 0
-94 -95 0
-94 -98 111 0
-94 -13 16 0
-94 -101 114 0
-94 -42 43 0
-94 -61 63 0
-94 -103 116 0
-94 -77 80 0
-94 -97 110 0
-94 -106 119 0
-94 -105 118 0
118 117 0
-118 -117 0
-118 -137 111 0
-118 -30 16 0
-118 -145 114 0
-118 -54 43 0
-118 -72 63 0
-118 -150 116 0
-118 -90 80 0
-118 -128 110 0
-118 -154 119 0
-118 -104 94 0
156 0
-139 -21 35 0
-139 -133 146 0
-139 -47 56 0
-139 -67 75 0
-139 -136 151 0
-139 -84 91 0
-139 -123 130 0
-139 -112 120 0
-139 -99 107 0
-139 -138 155 0
-35 -23 139 0
-35 -26 146 0
-35 -4 56 0
-35 -6 75 0
-35 -29 151 0
-35 -11 91 0
-35 -20 130 0
-35 -15 120 0
-35 -12 107 0
-35 -32 155 0
-146 -134 139 0
-146 -25 35 0
-146 -49 56 0
-146 -68 75 0
-146 -143 151 0
-146 -85 91 0
-146 -125 130 0
-146 -113 120 0
-146 -100 107 0
-146 -144 155 0
-56 -48 139 0
-56 -3 35 0
-56 -50 146 0
-56 -37 75 0
-56 -52 151 0
-56 -39 91 0
-56 -46 130 0
-56 -44 120 0
-56 -41 107 0
-56 -53 155 0
-75 -66 139 0
-75 -7 35 0
-75 -69 146 0
-75 -38 56 0
-75 -70 151 0
-75 -58 91 0
-75 -65 130 0
-75 -62 120 0
-75 -60 107 0
-75 -73 155 0
-151 -135 139 0
-151 -27 35 0
-151 -142 146 0
-151 -51 56 0
-151 -71 75 0
-151 -87 91 0
-151 -127 130 0
-151 -115 120 0
-151 -102 107 0
-151 -149 155 0
-91 -83 139 0
-91 -10 35 0
-91 -86 146 0
-91 -40 56 0
-91 -59 75 0
-91 -88 151 0
-91 -81 130 0
-91 -79 120 0
-91 -78 107 0
-91 -89 155 0
-130 -122 139 0
-130 -18 35 0
-130 -124 146 0
-130 -45 56 0
-130 -64 75 0
-130 -126 151 0
-130 -82 91 0
-130 -109 120 0
-130 -96 107 0
-130 -129 155 0
-120 -111 139 0
-120 -16 35 0
-120 -114 146 0
-120 -43 56 0
-120 -63 75 0
-120 -116 151 0
-120 -80 91 0
-120 -110 130 0
-120 -94 107 0
-120 -118 155 0
107 106 0
-107 -106 0
-107 -98 139 0
-107 -13 35 0
-107 -101 146 0
-107 -42 56 0
-107 -61 75 0
-107 -103 151 0
-107 -77 91 0
-107 -97 130 0
-107 -95 120 0
-107 -105 155 0
155 154 0
-155 -154 0
-155 -137 139 0
-155 -30 35 0
-155 -145 146 0
-155 -54 56 0
-155 -72 75 0
-155 -150 151 0
-155 -90 91 0
-155 -128 130 0
-155 -117 120 0
-155 -104 107 0
93 0
-98 -21 13 0
-98 -133 101 0
-98 -47 42 0
-98 -67 61 0
-98 -136 103 0
-98 -84 77 0
-98 -123 97 0
-98 -112 95 0
-98 -140 106 0
-98 -138 105 0
-13 -23 98 0
-13 -26 101 0
-13 -4 42 0
-13 -6 61 0
-13 -29 103 0
-13 -11 77 0
-13 -20 97 0
-13 -15 95 0
-13 -33 106 0
-13 -32 105 0
-101 -134 98 0
-101 -25 13 0
-101 -49 42 0
-101 -68 61 0
-101 -143 103 0
-101 -85 77 0
-101 -125 97 0
-101 -113 95 0
-101 -147 106 0
-101 -144 105 0
-42 -48 98 0
-42 -3 13 0
-42 -50 101 0
-42 -37 61 0
-42 -52 103 0
-42 -39 77 0
-42 -46 97 0
-42 -44 95 0
-42 -55 106 0
-42 -53 105 0
-61 -66 98 0
-61 -7 13 0
-61 -69 101 0
-61 -38 42 0
-61 -70 103 0
-61 -58 77 0
-61 -65 97 0
-61 -62 95 0
-61 -74 106 0
-61 -73 105 0
-103 -135 98 0
-103 -27 13 0
-103 -142 101 0
-103 -51 42 0
-103 -71 61 0
-103 -87 77 0
-103 -127 97 0
-103 -115 95 0
-103 -152 106 0
-103 -149 105 0
-77 -83 98 0
-77 -10 13 0
-77 -86 101 0
-77 -40 42 0
-77 -59 61 0
-77 -88 103 0
-77 -81 97 0
-77 -79 95 0
-77 -92 106 0
-77 -89 105 0
-97 -122 98 0
-97 -18 13 0
-97 -124 101 0
-97 -45 42 0
-97 -64 61 0
-97 -126 103 0
-97 -82 77 0
-97 -109 95 0
-97 -131 106 0
-97 -129 105 0
-95 -111 98 0
-95 -16 13 0
-95 -114 101 0
-95 -43 42 0
-95 -63 61 0
-95 -116 103 0
-95 -80 77 0
-95 -110 97 0
-95 -119 106 0
-95 -118 105 0
-106 -139 98 0
-106 -35 13 0
-106 -146 101 0
-106 -56 42 0
-106 -75 61 0
-106 -151 103 0
-106 -91 77 0
-106 -130 97 0
-106 -120 95 0
-106 -155 105 0
105 104 0
-105 -104 0
-105 -137 98 0
-105 -30 13 0
-105 -145 101 0
-105 -54 42 0
-105 -72 61 0
-105 -150 103 0
-105 -90 77 0
-105 -128 97 0
-105 -117 95 0
-105 -154 106 0
153 0
-137 -21 30 0
-137 -133 145 0
-137 -47 54 0
-137 -67 72 0
-137 -136 150 0
-137 -84 90 0
-137 -123 128 0
-137 -112 117 0
-137 -140 154 0
-137 -99 104 0
-30 -23 137 0
-30 -26 145 0
-30 -4 54 0
-30 -6 72 0
-30 -29 150 0
-30 -11 90 0
-30 -20 128 0
-30 -15 117 0
-30 -33 154 0
-30 -12 104 0
-145 -134 137 0
-145 -25 30 0
-145 -49 54 0
-145 -68 72 0
-145 -143 150 0
-145 -85 90 0
-145 -125 128 0
-145 -113 117 0
-145 -147 154 0
-145 -100 104 0
-54 -48 137 0
-54 -3 30 0
-54 -50 145 0
-54 -37 72 0
-54 -52 150 0
-54 -39 90 0
-54 -46 128 0
-54 -44 117 0
-54 -55 154 0
-54 -41 104 0
-72 -66 137 0
-72 -7 30 0
-72 -69 145 0
-72 -38 54 0
-72 -70 150 0
-72 -58 90 0
-72 -65 128 0
-72 -62 117 0
-72 -74 154 0
-72 -60 104 0
-150 -135 137 0
-150 -27 30 0
-150 -142 145 0
-150 -51 54 0
-150 -71 72 0
-150 -87 90 0
-150 -127 128 0
-150 -115 117 0
-150 -152 154 0
-150 -102 104 0
-90 -83 137 0
-90 -10 30 0
-90 -86 145 0
-90 -40 54 0
-90 -59 72 0
-90 -88 150 0
-90 -81 128 0
-90 -79 117 0
-90 -92 154 0
-90 -78 104 0
-128 -122 137 0
-128 -18 30 0
-128 -124 145 0
-128 -45 54 0
-128 -64 72 0
-128 -126 150 0
-128 -82 90 0
-128 -109 117 0
-128 -131 154 0
-128 -96 104 0
-117 -111 137 0
-117 -16 30 0
-117 -114 145 0
-117 -43 54 0
-117 -63 72 0
-117 -116 150 0
-117 -80 90 0
-117 -110 128 0
-117 -119 154 0
-117 -94 104 0
-154 -139 137 0
-154 -35 30 0
-154 -146 145 0
-154 -56 54 0
-154 -75 72 0
-154 -151 150 0
-154 -91 90 0
-154 -130 128 0
-154 -120 117 0
-154 -107 104 0
-104 -98 137 0
-104 -13 30 0
-104 -101 145 0
-104 -42 54 0
-104 -61 72 0
-104 -103 150 0
-104 -77 90 0
-104 -97 128 0
-104 -95 117 0
-104 -106 154 0
