c LEQ(domain8,domain8) T(domain8) LEQ(domain3,domain8) LEQ(domain8,domain3) T(domain3) LEQ(domain8,domain10) LEQ(domain10,domain8) T(domain10) LEQ(domain4,domain8) LEQ(domain8,domain4) T(domain4) T(domain11) LEQ(domain8,domain11) LEQ(domain11,domain8) LEQ(domain8,domain12) LEQ(domain12,domain8) T(domain12) LEQ(domain7,domain8) T(domain7) LEQ(domain8,domain7) LEQ(domain9,domain8) T(domain9) LEQ(domain8,domain9) LEQ(domain0,domain8) T(domain0) LEQ(domain8,domain0) LEQ(domain6,domain8) T(domain6) LEQ(domain8,domain6) T(domain2) LEQ(domain2,domain8) LEQ(domain8,domain2) T(domain5) LEQ(domain5,domain8) LEQ(domain8,domain5) LEQ(domain1,domain8) T(domain1) LEQ(domain8,domain1) LEQ(domain3,domain3) LEQ(domain3,domain10) LEQ(domain10,domain3) LEQ(domain3,domain4) LEQ(domain4,domain3) LEQ(domain3,domain11) LEQ(domain11,domain3) LEQ(domain3,domain12) LEQ(domain12,domain3) LEQ(domain7,domain3) LEQ(domain3,domain7) LEQ(domain3,domain9) LEQ(domain9,domain3) LEQ(domain0,domain3) LEQ(domain3,domain0) LEQ(domain6,domain3) LEQ(domain3,domain6) LEQ(domain3,domain2) LEQ(domain2,domain3) LEQ(domain5,domain3) LEQ(domain3,domain5) LEQ(domain3,domain1) LEQ(domain1,domain3) LEQ(domain10,domain10) LEQ(domain4,domain10) LEQ(domain10,domain4) LEQ(domain10,domain11) LEQ(domain11,domain10) LEQ(domain12,domain10) LEQ(domain10,domain12) LEQ(domain10,domain7) LEQ(domain7,domain10) LEQ(domain9,domain10) LEQ(domain10,domain9) LEQ(domain10,domain0) LEQ(domain0,domain10) LEQ(domain6,domain10) LEQ(domain10,domain6) LEQ(domain2,domain10) LEQ(domain10,domain2) LEQ(domain5,domain10) LEQ(domain10,domain5) LEQ(domain10,domain1) LEQ(domain1,domain10) LEQ(domain4,domain4) LEQ(domain11,domain4) LEQ(domain4,domain11) LEQ(domain12,domain4) LEQ(domain4,domain12) LEQ(domain4,domain7) LEQ(domain7,domain4) LEQ(domain4,domain9) LEQ(domain9,domain4) LEQ(domain0,domain4) LEQ(domain4,domain0) LEQ(domain4,domain6) LEQ(domain6,domain4) LEQ(domain2,domain4) LEQ(domain4,domain2) LEQ(domain4,domain5) LEQ(domain5,domain4) LEQ(domain4,domain1) LEQ(domain1,domain4) LEQ(domain11,domain11) LEQ(domain11,domain12) LEQ(domain12,domain11) LEQ(domain11,domain7) LEQ(domain7,domain11) LEQ(domain11,domain9) LEQ(domain9,domain11) LEQ(domain0,domain11) LEQ(domain11,domain0) LEQ(domain11,domain6) LEQ(domain6,domain11) LEQ(domain2,domain11) LEQ(domain11,domain2) LEQ(domain11,domain5) LEQ(domain5,domain11) LEQ(domain11,domain1) LEQ(domain1,domain11) LEQ(domain12,domain12) LEQ(domain7,domain12) LEQ(domain12,domain7) LEQ(domain12,domain9) LEQ(domain9,domain12) LEQ(domain0,domain12) LEQ(domain12,domain0) LEQ(domain6,domain12) LEQ(domain12,domain6) LEQ(domain2,domain12) LEQ(domain12,domain2) LEQ(domain12,domain5) LEQ(domain5,domain12) LEQ(domain12,domain1) LEQ(domain1,domain12) LEQ(domain7,domain7) LEQ(domain9,domain7) LEQ(domain7,domain9) LEQ(domain7,domain0) LEQ(domain0,domain7) LEQ(domain6,domain7) LEQ(domain7,domain6) LEQ(domain7,domain2) LEQ(domain2,domain7) LEQ(domain5,domain7) LEQ(domain7,domain5) LEQ(domain7,domain1) LEQ(domain1,domain7) LEQ(domain9,domain9) LEQ(domain9,domain0) LEQ(domain0,domain9) LEQ(domain6,domain9) LEQ(domain9,domain6) LEQ(domain2,domain9) LEQ(domain9,domain2) LEQ(domain9,domain5) LEQ(domain5,domain9) LEQ(domain1,domain9) LEQ(domain9,domain1) LEQ(domain0,domain0) LEQ(domain6,domain0) LEQ(domain0,domain6) LEQ(domain0,domain2) LEQ(domain2,domain0) LEQ(domain5,domain0) LEQ(domain0,domain5) LEQ(domain0,domain1) LEQ(domain1,domain0) LEQ(domain6,domain6) LEQ(domain6,domain2) LEQ(domain2,domain6) LEQ(domain6,domain5) LEQ(domain5,domain6) LEQ(domain6,domain1) LEQ(domain1,domain6) LEQ(domain2,domain2) LEQ(domain2,domain5) LEQ(domain5,domain2) LEQ(domain1,domain2) LEQ(domain2,domain1) LEQ(domain5,domain5) LEQ(domain1,domain5) LEQ(domain5,domain1) LEQ(domain1,domain1)
c 1 2 3 4 5 6 7 8 9 10 11 12 13 14 15 16 17 18 19 20 21 22 23 24 25 26 27 28 29 30 31 32 33 34 35 36 37 38 39 40 41 42 43 44 45 46 47 48 49 50 51 52 53 54 55 56 57 58 59 60 61 62 63 64 65 66 67 68 69 70 71 72 73 74 75 76 77 78 79 80 81 82 83 84 85 86 87 88 89 90 91 92 93 94 95 96 97 98 99 100 101 102 103 104 105 106 107 108 109 110 111 112 113 114 115 116 117 118 119 120 121 122 123 124 125 126 127 128 129 130 131 132 133 134 135 136 137 138 139 140 141 142 143 144 145 146 147 148 149 150 151 152 153 154 155 156 157 158 159 160 161 162 163 164 165 166 167 168 169 170 171 172 173 174 175 176 177 178 179 180 181 182
p cnf 182 2054
25 -158 -25 0
25 -166 -37 0
25 -73 -8 0
25 -110 -12 0
25 -125 -17 0
25 -162 -30 0
25 -53 -5 0
25 -93 -11 0
25 -163 -33 0
25 -159 -28 0
25 -137 -19 0
25 -26 -2 0
25 -148 -22 0
37 -165 -25 0
37 -182 -37 0
37 -81 -8 0
37 -117 -12 0
37 -132 -17 0
37 -178 -30 0
37 -60 -5 0
37 -100 -11 0
37 -181 -33 0
37 -172 -28 0
37 -145 -19 0
37 -38 -2 0
37 -157 -22 0
8 -74 -25 0
8 -82 -37 0
8 -62 -8 0
8 -66 -12 0
8 -67 -17 0
8 -77 -30 0
8 -40 -5 0
8 -63 -11 0
8 -79 -33 0
8 -75 -28 0
8 -70 -19 0
8 -6 -2 0
8 -71 -22 0
12 -109 -25 0
12 -118 -37 0
12 -65 -8 0
12 -102 -12 0
12 -104 -17 0
12 -113 -30 0
12 -44 -5 0
12 -85 -11 0
12 -116 -33 0
12 -112 -28 0
12 -106 -19 0
12 -13 -2 0
12 -108 -22 0
17 -124 -25 0
17 -133 -37 0
17 -68 -8 0
17 -103 -12 0
17 -119 -17 0
17 -128 -30 0
17 -46 -5 0
17 -87 -11 0
17 -131 -33 0
17 -126 -28 0
17 -120 -19 0
17 -15 -2 0
17 -123 -22 0
30 -161 -25 0
30 -177 -37 0
30 -78 -8 0
30 -114 -12 0
30 -129 -17 0
30 -174 -30 0
30 -56 -5 0
30 -97 -11 0
30 -176 -33 0
30 -168 -28 0
30 -141 -19 0
30 -32 -2 0
30 -153 -22 0
5 -52 -25 0
5 -61 -37 0
5 -41 -8 0
5 -45 -12 0
5 -47 -17 0
5 -57 -30 0
5 -39 -5 0
5 -43 -11 0
5 -58 -33 0
5 -54 -28 0
5 -48 -19 0
5 -4 -2 0
5 -51 -22 0
11 -92 -25 0
11 -101 -37 0
11 -64 -8 0
11 -84 -12 0
11 -86 -17 0
11 -96 -30 0
11 -42 -5 0
11 -83 -11 0
11 -99 -33 0
11 -95 -28 0
11 -89 -19 0
11 -10 -2 0
11 -91 -22 0
33 -164 -25 0
33 -180 -37 0
33 -80 -8 0
33 -115 -12 0
33 -130 -17 0
33 -175 -30 0
33 -59 -5 0
33 -98 -11 0
33 -179 -33 0
33 -170 -28 0
33 -144 -19 0
33 -35 -2 0
33 -154 -22 0
28 -160 -25 0
28 -173 -37 0
28 -76 -8 0
28 -111 -12 0
28 -127 -17 0
28 -169 -30 0
28 -55 -5 0
28 -94 -11 0
28 -171 -33 0
28 -167 -28 0
28 -140 -19 0
28 -29 -2 0
28 -151 -22 0
19 -138 -25 0
19 -146 -37 0
19 -69 -8 0
19 -105 -12 0
19 -121 -17 0
19 -142 -30 0
19 -49 -5 0
19 -88 -11 0
19 -143 -33 0
19 -139 -28 0
19 -134 -19 0
19 -20 -2 0
19 -135 -22 0
2 -24 -25 0
2 -36 -37 0
2 -7 -8 0
2 -14 -12 0
2 -16 -17 0
2 -31 -30 0
2 -3 -5 0
2 -9 -11 0
2 -34 -33 0
2 -27 -28 0
2 -18 -19 0
2 -1 -2 0
2 -21 -22 0
22 -149 -25 0
22 -156 -37 0
22 -72 -8 0
22 -107 -12 0
22 -122 -17 0
22 -152 -30 0
22 -50 -5 0
22 -90 -11 0
22 -155 -33 0
22 -150 -28 0
22 -136 -19 0
22 -23 -2 0
22 -147 -22 0
158 0
165 166 0
-165 -166 0
-165 -82 74 0
-165 -118 109 0
-165 -133 124 0
-165 -177 161 0
-165 -61 52 0
-165 -101 92 0
-165 -180 164 0
-165 -173 160 0
-165 -146 138 0
-165 -36 24 0
-165 -156 149 0
74 73 0
-74 -73 0
-74 -81 165 0
-74 -65 109 0
-74 -68 124 0
-74 -78 161 0
-74 -41 52 0
-74 -64 92 0
-74 -80 164 0
-74 -76 160 0
-74 -69 138 0
-74 -7 24 0
-74 -72 149 0
109 110 0
-109 -110 0
-109 -117 165 0
-109 -66 74 0
-109 -103 124 0
-109 -114 161 0
-109 -45 52 0
-109 -84 92 0
-109 -115 164 0
-109 -111 160 0
-109 -105 138 0
-109 -14 24 0
-109 -107 149 0
124 125 0
-124 -125 0
-124 -132 165 0
-124 -67 74 0
-124 -104 109 0
-124 -129 161 0
-124 -47 52 0
-124 -86 92 0
-124 -130 164 0
-124 -127 160 0
-124 -121 138 0
-124 -16 24 0
-124 -122 149 0
161 162 0
-161 -162 0
-161 -178 165 0
-161 -77 74 0
-161 -113 109 0
-161 -128 124 0
-161 -57 52 0
-161 -96 92 0
-161 -175 164 0
-161 -169 160 0
-161 -142 138 0
-161 -31 24 0
-161 -152 149 0
52 53 0
-52 -53 0
-52 -60 165 0
-52 -40 74 0
-52 -44 109 0
-52 -46 124 0
-52 -56 161 0
-52 -42 92 0
-52 -59 164 0
-52 -55 160 0
-52 -49 138 0
-52 -3 24 0
-52 -50 149 0
92 93 0
-92 -93 0
-92 -100 165 0
-92 -63 74 0
-92 -85 109 0
-92 -87 124 0
-92 -97 161 0
-92 -43 52 0
-92 -98 164 0
-92 -94 160 0
-92 -88 138 0
-92 -9 24 0
-92 -90 149 0
164 163 0
-164 -163 0
-164 -181 165 0
-164 -79 74 0
-164 -116 109 0
-164 -131 124 0
-164 -176 161 0
-164 -58 52 0
-164 -99 92 0
-164 -171 160 0
-164 -143 138 0
-164 -34 24 0
-164 -155 149 0
160 159 0
-160 -159 0
-160 -172 165 0
-160 -75 74 0
-160 -112 109 0
-160 -126 124 0
-160 -168 161 0
-160 -54 52 0
-160 -95 92 0
-160 -170 164 0
-160 -139 138 0
-160 -27 24 0
-160 -150 149 0
138 137 0
-138 -137 0
-138 -145 165 0
-138 -70 74 0
-138 -106 109 0
-138 -120 124 0
-138 -141 161 0
-138 -48 52 0
-138 -89 92 0
-138 -144 164 0
-138 -140 160 0
-138 -18 24 0
-138 -136 149 0
24 26 0
-24 -26 0
-24 -38 165 0
-24 -6 74 0
-24 -13 109 0
-24 -15 124 0
-24 -32 161 0
-24 -4 52 0
-24 -10 92 0
-24 -35 164 0
-24 -29 160 0
-24 -20 138 0
-24 -23 149 0
149 148 0
-149 -148 0
-149 -157 165 0
-149 -71 74 0
-149 -108 109 0
-149 -123 124 0
-149 -153 161 0
-149 -51 52 0
-149 -91 92 0
-149 -154 164 0
-149 -151 160 0
-149 -135 138 0
-149 -21 24 0
182 0
-166 -74 82 0
-166 -109 118 0
-166 -124 133 0
-166 -161 177 0
-166 -52 61 0
-166 -92 101 0
-166 -164 180 0
-166 -160 173 0
-166 -138 146 0
-166 -24 36 0
-166 -149 156 0
82 81 0
-82 -81 0
-82 -73 166 0
-82 -65 118 0
-82 -68 133 0
-82 -78 177 0
-82 -41 61 0
-82 -64 101 0
-82 -80 180 0
-82 -76 173 0
-82 -69 146 0
-82 -7 36 0
-82 -72 156 0
118 117 0
-118 -117 0
-118 -110 166 0
-118 -66 82 0
-118 -103 133 0
-118 -114 177 0
-118 -45 61 0
-118 -84 101 0
-118 -115 180 0
-118 -111 173 0
-118 -105 146 0
-118 -14 36 0
-118 -107 156 0
133 132 0
-133 -132 0
-133 -125 166 0
-133 -67 82 0
-133 -104 118 0
-133 -129 177 0
-133 -47 61 0
-133 -86 101 0
-133 -130 180 0
-133 -127 173 0
-133 -121 146 0
-133 -16 36 0
-133 -122 156 0
177 178 0
-177 -178 0
-177 -162 166 0
-177 -77 82 0
-177 -113 118 0
-177 -128 133 0
-177 -57 61 0
-177 -96 101 0
-177 -175 180 0
-177 -169 173 0
-177 -142 146 0
-177 -31 36 0
-177 -152 156 0
61 60 0
-61 -60 0
-61 -53 166 0
-61 -40 82 0
-61 -44 118 0
-61 -46 133 0
-61 -56 177 0
-61 -42 101 0
-61 -59 180 0
-61 -55 173 0
-61 -49 146 0
-61 -3 36 0
-61 -50 156 0
101 100 0
-101 -100 0
-101 -93 166 0
-101 -63 82 0
-101 -85 118 0
-101 -87 133 0
-101 -97 177 0
-101 -43 61 0
-101 -98 180 0
-101 -94 173 0
-101 -88 146 0
-101 -9 36 0
-101 -90 156 0
180 181 0
-180 -181 0
-180 -163 166 0
-180 -79 82 0
-180 -116 118 0
-180 -131 133 0
-180 -176 177 0
-180 -58 61 0
-180 -99 101 0
-180 -171 173 0
-180 -143 146 0
-180 -34 36 0
-180 -155 156 0
173 172 0
-173 -172 0
-173 -159 166 0
-173 -75 82 0
-173 -112 118 0
-173 -126 133 0
-173 -168 177 0
-173 -54 61 0
-173 -95 101 0
-173 -170 180 0
-173 -139 146 0
-173 -27 36 0
-173 -150 156 0
146 145 0
-146 -145 0
-146 -137 166 0
-146 -70 82 0
-146 -106 118 0
-146 -120 133 0
-146 -141 177 0
-146 -48 61 0
-146 -89 101 0
-146 -144 180 0
-146 -140 173 0
-146 -18 36 0
-146 -136 156 0
36 38 0
-36 -38 0
-36 -26 166 0
-36 -6 82 0
-36 -13 118 0
-36 -15 133 0
-36 -32 177 0
-36 -4 61 0
-36 -10 101 0
-36 -35 180 0
-36 -29 173 0
-36 -20 146 0
-36 -23 156 0
156 157 0
-156 -157 0
-156 -148 166 0
-156 -71 82 0
-156 -108 118 0
-156 -123 133 0
-156 -153 177 0
-156 -51 61 0
-156 -91 101 0
-156 -154 180 0
-156 -151 173 0
-156 -135 146 0
-156 -21 36 0
62 0
-73 -165 81 0
-73 -109 65 0
-73 -124 68 0
-73 -161 78 0
-73 -52 41 0
-73 -92 64 0
-73 -164 80 0
-73 -160 76 0
-73 -138 69 0
-73 -24 7 0
-73 -149 72 0
-81 -166 73 0
-81 -118 65 0
-81 -133 68 0
-81 -177 78 0
-81 -61 41 0
-81 -101 64 0
-81 -180 80 0
-81 -173 76 0
-81 -146 69 0
-81 -36 7 0
-81 -156 72 0
65 66 0
-65 -66 0
-65 -110 73 0
-65 -117 81 0
-65 -103 68 0
-65 -114 78 0
-65 -45 41 0
-65 -84 64 0
-65 -115 80 0
-65 -111 76 0
-65 -105 69 0
-65 -14 7 0
-65 -107 72 0
68 67 0
-68 -67 0
-68 -125 73 0
-68 -132 81 0
-68 -104 65 0
-68 -129 78 0
-68 -47 41 0
-68 -86 64 0
-68 -130 80 0
-68 -127 76 0
-68 -121 69 0
-68 -16 7 0
-68 -122 72 0
78 77 0
-78 -77 0
-78 -162 73 0
-78 -178 81 0
-78 -113 65 0
-78 -128 68 0
-78 -57 41 0
-78 -96 64 0
-78 -175 80 0
-78 -169 76 0
-78 -142 69 0
-78 -31 7 0
-78 -152 72 0
41 40 0
-41 -40 0
-41 -53 73 0
-41 -60 81 0
-41 -44 65 0
-41 -46 68 0
-41 -56 78 0
-41 -42 64 0
-41 -59 80 0
-41 -55 76 0
-41 -49 69 0
-41 -3 7 0
-41 -50 72 0
64 63 0
-64 -63 0
-64 -93 73 0
-64 -100 81 0
-64 -85 65 0
-64 -87 68 0
-64 -97 78 0
-64 -43 41 0
-64 -98 80 0
-64 -94 76 0
-64 -88 69 0
-64 -9 7 0
-64 -90 72 0
80 79 0
-80 -79 0
-80 -163 73 0
-80 -181 81 0
-80 -116 65 0
-80 -131 68 0
-80 -176 78 0
-80 -58 41 0
-80 -99 64 0
-80 -171 76 0
-80 -143 69 0
-80 -34 7 0
-80 -155 72 0
76 75 0
-76 -75 0
-76 -159 73 0
-76 -172 81 0
-76 -112 65 0
-76 -126 68 0
-76 -168 78 0
-76 -54 41 0
-76 -95 64 0
-76 -170 80 0
-76 -139 69 0
-76 -27 7 0
-76 -150 72 0
69 70 0
-69 -70 0
-69 -137 73 0
-69 -145 81 0
-69 -106 65 0
-69 -120 68 0
-69 -141 78 0
-69 -48 41 0
-69 -89 64 0
-69 -144 80 0
-69 -140 76 0
-69 -18 7 0
-69 -136 72 0
7 6 0
-7 -6 0
-7 -26 73 0
-7 -38 81 0
-7 -13 65 0
-7 -15 68 0
-7 -32 78 0
-7 -4 41 0
-7 -10 64 0
-7 -35 80 0
-7 -29 76 0
-7 -20 69 0
-7 -23 72 0
72 71 0
-72 -71 0
-72 -148 73 0
-72 -157 81 0
-72 -108 65 0
-72 -123 68 0
-72 -153 78 0
-72 -51 41 0
-72 -91 64 0
-72 -154 80 0
-72 -151 76 0
-72 -135 69 0
-72 -21 7 0
102 0
-110 -165 117 0
-110 -74 66 0
-110 -124 103 0
-110 -161 114 0
-110 -52 45 0
-110 -92 84 0
-110 -164 115 0
-110 -160 111 0
-110 -138 105 0
-110 -24 14 0
-110 -149 107 0
-117 -166 110 0
-117 -82 66 0
-117 -133 103 0
-117 -177 114 0
-117 -61 45 0
-117 -101 84 0
-117 -180 115 0
-117 -173 111 0
-117 -146 105 0
-117 -36 14 0
-117 -156 107 0
-66 -73 110 0
-66 -81 117 0
-66 -68 103 0
-66 -78 114 0
-66 -41 45 0
-66 -64 84 0
-66 -80 115 0
-66 -76 111 0
-66 -69 105 0
-66 -7 14 0
-66 -72 107 0
103 104 0
-103 -104 0
-103 -125 110 0
-103 -132 117 0
-103 -67 66 0
-103 -129 114 0
-103 -47 45 0
-103 -86 84 0
-103 -130 115 0
-103 -127 111 0
-103 -121 105 0
-103 -16 14 0
-103 -122 107 0
114 113 0
-114 -113 0
-114 -162 110 0
-114 -178 117 0
-114 -77 66 0
-114 -128 103 0
-114 -57 45 0
-114 -96 84 0
-114 -175 115 0
-114 -169 111 0
-114 -142 105 0
-114 -31 14 0
-114 -152 107 0
45 44 0
-45 -44 0
-45 -53 110 0
-45 -60 117 0
-45 -40 66 0
-45 -46 103 0
-45 -56 114 0
-45 -42 84 0
-45 -59 115 0
-45 -55 111 0
-45 -49 105 0
-45 -3 14 0
-45 -50 107 0
84 85 0
-84 -85 0
-84 -93 110 0
-84 -100 117 0
-84 -63 66 0
-84 -87 103 0
-84 -97 114 0
-84 -43 45 0
-84 -98 115 0
-84 -94 111 0
-84 -88 105 0
-84 -9 14 0
-84 -90 107 0
115 116 0
-115 -116 0
-115 -163 110 0
-115 -181 117 0
-115 -79 66 0
-115 -131 103 0
-115 -176 114 0
-115 -58 45 0
-115 -99 84 0
-115 -171 111 0
-115 -143 105 0
-115 -34 14 0
-115 -155 107 0
111 112 0
-111 -112 0
-111 -159 110 0
-111 -172 117 0
-111 -75 66 0
-111 -126 103 0
-111 -168 114 0
-111 -54 45 0
-111 -95 84 0
-111 -170 115 0
-111 -139 105 0
-111 -27 14 0
-111 -150 107 0
105 106 0
-105 -106 0
-105 -137 110 0
-105 -145 117 0
-105 -70 66 0
-105 -120 103 0
-105 -141 114 0
-105 -48 45 0
-105 -89 84 0
-105 -144 115 0
-105 -140 111 0
-105 -18 14 0
-105 -136 107 0
14 13 0
-14 -13 0
-14 -26 110 0
-14 -38 117 0
-14 -6 66 0
-14 -15 103 0
-14 -32 114 0
-14 -4 45 0
-14 -10 84 0
-14 -35 115 0
-14 -29 111 0
-14 -20 105 0
-14 -23 107 0
107 108 0
-107 -108 0
-107 -148 110 0
-107 -157 117 0
-107 -71 66 0
-107 -123 103 0
-107 -153 114 0
-107 -51 45 0
-107 -91 84 0
-107 -154 115 0
-107 -151 111 0
-107 -135 105 0
-107 -21 14 0
119 0
-125 -165 132 0
-125 -74 67 0
-125 -109 104 0
-125 -161 129 0
-125 -52 47 0
-125 -92 86 0
-125 -164 130 0
-125 -160 127 0
-125 -138 121 0
-125 -24 16 0
-125 -149 122 0
-132 -166 125 0
-132 -82 67 0
-132 -118 104 0
-132 -177 129 0
-132 -61 47 0
-132 -101 86 0
-132 -180 130 0
-132 -173 127 0
-132 -146 121 0
-132 -36 16 0
-132 -156 122 0
-67 -73 125 0
-67 -81 132 0
-67 -65 104 0
-67 -78 129 0
-67 -41 47 0
-67 -64 86 0
-67 -80 130 0
-67 -76 127 0
-67 -69 121 0
-67 -7 16 0
-67 -72 122 0
-104 -110 125 0
-104 -117 132 0
-104 -66 67 0
-104 -114 129 0
-104 -45 47 0
-104 -84 86 0
-104 -115 130 0
-104 -111 127 0
-104 -105 121 0
-104 -14 16 0
-104 -107 122 0
129 128 0
-129 -128 0
-129 -162 125 0
-129 -178 132 0
-129 -77 67 0
-129 -113 104 0
-129 -57 47 0
-129 -96 86 0
-129 -175 130 0
-129 -169 127 0
-129 -142 121 0
-129 -31 16 0
-129 -152 122 0
47 46 0
-47 -46 0
-47 -53 125 0
-47 -60 132 0
-47 -40 67 0
-47 -44 104 0
-47 -56 129 0
-47 -42 86 0
-47 -59 130 0
-47 -55 127 0
-47 -49 121 0
-47 -3 16 0
-47 -50 122 0
86 87 0
-86 -87 0
-86 -93 125 0
-86 -100 132 0
-86 -63 67 0
-86 -85 104 0
-86 -97 129 0
-86 -43 47 0
-86 -98 130 0
-86 -94 127 0
-86 -88 121 0
-86 -9 16 0
-86 -90 122 0
130 131 0
-130 -131 0
-130 -163 125 0
-130 -181 132 0
-130 -79 67 0
-130 -116 104 0
-130 -176 129 0
-130 -58 47 0
-130 -99 86 0
-130 -171 127 0
-130 -143 121 0
-130 -34 16 0
-130 -155 122 0
127 126 0
-127 -126 0
-127 -159 125 0
-127 -172 132 0
-127 -75 67 0
-127 -112 104 0
-127 -168 129 0
-127 -54 47 0
-127 -95 86 0
-127 -170 130 0
-127 -139 121 0
-127 -27 16 0
-127 -150 122 0
121 120 0
-121 -120 0
-121 -137 125 0
-121 -145 132 0
-121 -70 67 0
-121 -106 104 0
-121 -141 129 0
-121 -48 47 0
-121 -89 86 0
-121 -144 130 0
-121 -140 127 0
-121 -18 16 0
-121 -136 122 0
16 15 0
-16 -15 0
-16 -26 125 0
-16 -38 132 0
-16 -6 67 0
-16 -13 104 0
-16 -32 129 0
-16 -4 47 0
-16 -10 86 0
-16 -35 130 0
-16 -29 127 0
-16 -20 121 0
-16 -23 122 0
122 123 0
-122 -123 0
-122 -148 125 0
-122 -157 132 0
-122 -71 67 0
-122 -108 104 0
-122 -153 129 0
-122 -51 47 0
-122 -91 86 0
-122 -154 130 0
-122 -151 127 0
-122 -135 121 0
-122 -21 16 0
174 0
-162 -165 178 0
-162 -74 77 0
-162 -109 113 0
-162 -124 128 0
-162 -52 57 0
-162 -92 96 0
-162 -164 175 0
-162 -160 169 0
-162 -138 142 0
-162 -24 31 0
-162 -149 152 0
-178 -166 162 0
-178 -82 77 0
-178 -118 113 0
-178 -133 128 0
-178 -61 57 0
-178 -101 96 0
-178 -180 175 0
-178 -173 169 0
-178 -146 142 0
-178 -36 31 0
-178 -156 152 0
-77 -73 162 0
-77 -81 178 0
-77 -65 113 0
-77 -68 128 0
-77 -41 57 0
-77 -64 96 0
-77 -80 175 0
-77 -76 169 0
-77 -69 142 0
-77 -7 31 0
-77 -72 152 0
-113 -110 162 0
-113 -117 178 0
-113 -66 77 0
-113 -103 128 0
-113 -45 57 0
-113 -84 96 0
-113 -115 175 0
-113 -111 169 0
-113 -105 142 0
-113 -14 31 0
-113 -107 152 0
-128 -125 162 0
-128 -132 178 0
-128 -67 77 0
-128 -104 113 0
-128 -47 57 0
-128 -86 96 0
-128 -130 175 0
-128 -127 169 0
-128 -121 142 0
-128 -16 31 0
-128 -122 152 0
57 56 0
-57 -56 0
-57 -53 162 0
-57 -60 178 0
-57 -40 77 0
-57 -44 113 0
-57 -46 128 0
-57 -42 96 0
-57 -59 175 0
-57 -55 169 0
-57 -49 142 0
-57 -3 31 0
-57 -50 152 0
96 97 0
-96 -97 0
-96 -93 162 0
-96 -100 178 0
-96 -63 77 0
-96 -85 113 0
-96 -87 128 0
-96 -43 57 0
-96 -98 175 0
-96 -94 169 0
-96 -88 142 0
-96 -9 31 0
-96 -90 152 0
175 176 0
-175 -176 0
-175 -163 162 0
-175 -181 178 0
-175 -79 77 0
-175 -116 113 0
-175 -131 128 0
-175 -58 57 0
-175 -99 96 0
-175 -171 169 0
-175 -143 142 0
-175 -34 31 0
-175 -155 152 0
169 168 0
-169 -168 0
-169 -159 162 0
-169 -172 178 0
-169 -75 77 0
-169 -112 113 0
-169 -126 128 0
-169 -54 57 0
-169 -95 96 0
-169 -170 175 0
-169 -139 142 0
-169 -27 31 0
-169 -150 152 0
142 141 0
-142 -141 0
-142 -137 162 0
-142 -145 178 0
-142 -70 77 0
-142 -106 113 0
-142 -120 128 0
-142 -48 57 0
-142 -89 96 0
-142 -144 175 0
-142 -140 169 0
-142 -18 31 0
-142 -136 152 0
31 32 0
-31 -32 0
-31 -26 162 0
-31 -38 178 0
-31 -6 77 0
-31 -13 113 0
-31 -15 128 0
-31 -4 57 0
-31 -10 96 0
-31 -35 175 0
-31 -29 169 0
-31 -20 142 0
-31 -23 152 0
152 153 0
-152 -153 0
-152 -148 162 0
-152 -157 178 0
-152 -71 77 0
-152 -108 113 0
-152 -123 128 0
-152 -51 57 0
-152 -91 96 0
-152 -154 175 0
-152 -151 169 0
-152 -135 142 0
-152 -21 31 0
39 0
-53 -165 60 0
-53 -74 40 0
-53 -109 44 0
-53 -124 46 0
-53 -161 56 0
-53 -92 42 0
-53 -164 59 0
-53 -160 55 0
-53 -138 49 0
-53 -24 3 0
-53 -149 50 0
-60 -166 53 0
-60 -82 40 0
-60 -118 44 0
-60 -133 46 0
-60 -177 56 0
-60 -101 42 0
-60 -180 59 0
-60 -173 55 0
-60 -146 49 0
-60 -36 3 0
-60 -156 50 0
-40 -73 53 0
-40 -81 60 0
-40 -65 44 0
-40 -68 46 0
-40 -78 56 0
-40 -64 42 0
-40 -80 59 0
-40 -76 55 0
-40 -69 49 0
-40 -7 3 0
-40 -72 50 0
-44 -110 53 0
-44 -117 60 0
-44 -66 40 0
-44 -103 46 0
-44 -114 56 0
-44 -84 42 0
-44 -115 59 0
-44 -111 55 0
-44 -105 49 0
-44 -14 3 0
-44 -107 50 0
-46 -125 53 0
-46 -132 60 0
-46 -67 40 0
-46 -104 44 0
-46 -129 56 0
-46 -86 42 0
-46 -130 59 0
-46 -127 55 0
-46 -121 49 0
-46 -16 3 0
-46 -122 50 0
-56 -162 53 0
-56 -178 60 0
-56 -77 40 0
-56 -113 44 0
-56 -128 46 0
-56 -96 42 0
-56 -175 59 0
-56 -169 55 0
-56 -142 49 0
-56 -31 3 0
-56 -152 50 0
42 43 0
-42 -43 0
-42 -93 53 0
-42 -100 60 0
-42 -63 40 0
-42 -85 44 0
-42 -87 46 0
-42 -97 56 0
-42 -98 59 0
-42 -94 55 0
-42 -88 49 0
-42 -9 3 0
-42 -90 50 0
59 58 0
-59 -58 0
-59 -163 53 0
-59 -181 60 0
-59 -79 40 0
-59 -116 44 0
-59 -131 46 0
-59 -176 56 0
-59 -99 42 0
-59 -171 55 0
-59 -143 49 0
-59 -34 3 0
-59 -155 50 0
55 54 0
-55 -54 0
-55 -159 53 0
-55 -172 60 0
-55 -75 40 0
-55 -112 44 0
-55 -126 46 0
-55 -168 56 0
-55 -95 42 0
-55 -170 59 0
-55 -139 49 0
-55 -27 3 0
-55 -150 50 0
49 48 0
-49 -48 0
-49 -137 53 0
-49 -145 60 0
-49 -70 40 0
-49 -106 44 0
-49 -120 46 0
-49 -141 56 0
-49 -89 42 0
-49 -144 59 0
-49 -140 55 0
-49 -18 3 0
-49 -136 50 0
3 4 0
-3 -4 0
-3 -26 53 0
-3 -38 60 0
-3 -6 40 0
-3 -13 44 0
-3 -15 46 0
-3 -32 56 0
-3 -10 42 0
-3 -35 59 0
-3 -29 55 0
-3 -20 49 0
-3 -23 50 0
50 51 0
-50 -51 0
-50 -148 53 0
-50 -157 60 0
-50 -71 40 0
-50 -108 44 0
-50 -123 46 0
-50 -153 56 0
-50 -91 42 0
-50 -154 59 0
-50 -151 55 0
-50 -135 49 0
-50 -21 3 0
83 0
-93 -165 100 0
-93 -74 63 0
-93 -109 85 0
-93 -124 87 0
-93 -161 97 0
-93 -52 43 0
-93 -164 98 0
-93 -160 94 0
-93 -138 88 0
-93 -24 9 0
-93 -149 90 0
-100 -166 93 0
-100 -82 63 0
-100 -118 85 0
-100 -133 87 0
-100 -177 97 0
-100 -61 43 0
-100 -180 98 0
-100 -173 94 0
-100 -146 88 0
-100 -36 9 0
-100 -156 90 0
-63 -73 93 0
-63 -81 100 0
-63 -65 85 0
-63 -68 87 0
-63 -78 97 0
-63 -41 43 0
-63 -80 98 0
-63 -76 94 0
-63 -69 88 0
-63 -7 9 0
-63 -72 90 0
-85 -110 93 0
-85 -117 100 0
-85 -66 63 0
-85 -103 87 0
-85 -114 97 0
-85 -45 43 0
-85 -115 98 0
-85 -111 94 0
-85 -105 88 0
-85 -14 9 0
-85 -107 90 0
-87 -125 93 0
-87 -132 100 0
-87 -67 63 0
-87 -104 85 0
-87 -129 97 0
-87 -47 43 0
-87 -130 98 0
-87 -127 94 0
-87 -121 88 0
-87 -16 9 0
-87 -122 90 0
-97 -162 93 0
-97 -178 100 0
-97 -77 63 0
-97 -113 85 0
-97 -128 87 0
-97 -57 43 0
-97 -175 98 0
-97 -169 94 0
-97 -142 88 0
-97 -31 9 0
-97 -152 90 0
-43 -53 93 0
-43 -60 100 0
-43 -40 63 0
-43 -44 85 0
-43 -46 87 0
-43 -56 97 0
-43 -59 98 0
-43 -55 94 0
-43 -49 88 0
-43 -3 9 0
-43 -50 90 0
98 99 0
-98 -99 0
-98 -163 93 0
-98 -181 100 0
-98 -79 63 0
-98 -116 85 0
-98 -131 87 0
-98 -176 97 0
-98 -58 43 0
-98 -171 94 0
-98 -143 88 0
-98 -34 9 0
-98 -155 90 0
94 95 0
-94 -95 0
-94 -159 93 0
-94 -172 100 0
-94 -75 63 0
-94 -112 85 0
-94 -126 87 0
-94 -168 97 0
-94 -54 43 0
-94 -170 98 0
-94 -139 88 0
-94 -27 9 0
-94 -150 90 0
88 89 0
-88 -89 0
-88 -137 93 0
-88 -145 100 0
-88 -70 63 0
-88 -106 85 0
-88 -120 87 0
-88 -141 97 0
-88 -48 43 0
-88 -144 98 0
-88 -140 94 0
-88 -18 9 0
-88 -136 90 0
9 10 0
-9 -10 0
-9 -26 93 0
-9 -38 100 0
-9 -6 63 0
-9 -13 85 0
-9 -15 87 0
-9 -32 97 0
-9 -4 43 0
-9 -35 98 0
-9 -29 94 0
-9 -20 88 0
-9 -23 90 0
90 91 0
-90 -91 0
-90 -148 93 0
-90 -157 100 0
-90 -71 63 0
-90 -108 85 0
-90 -123 87 0
-90 -153 97 0
-90 -51 43 0
-90 -154 98 0
-90 -151 94 0
-90 -135 88 0
-90 -21 9 0
179 0
-163 -165 181 0
-163 -74 79 0
-163 -109 116 0
-163 -124 131 0
-163 -161 176 0
-163 -52 58 0
-163 -92 99 0
-163 -160 171 0
-163 -138 143 0
-163 -24 34 0
-163 -149 155 0
-181 -166 163 0
-181 -82 79 0
-181 -118 116 0
-181 -133 131 0
-181 -177 176 0
-181 -61 58 0
-181 -101 99 0
-181 -173 171 0
-181 -146 143 0
-181 -36 34 0
-181 -156 155 0
-79 -73 163 0
-79 -81 181 0
-79 -65 116 0
-79 -68 131 0
-79 -78 176 0
-79 -41 58 0
-79 -64 99 0
-79 -76 171 0
-79 -69 143 0
-79 -7 34 0
-79 -72 155 0
-116 -110 163 0
-116 -117 181 0
-116 -66 79 0
-116 -103 131 0
-116 -114 176 0
-116 -45 58 0
-116 -84 99 0
-116 -111 171 0
-116 -105 143 0
-116 -14 34 0
-116 -107 155 0
-131 -125 163 0
-131 -132 181 0
-131 -67 79 0
-131 -104 116 0
-131 -129 176 0
-131 -47 58 0
-131 -86 99 0
-131 -127 171 0
-131 -121 143 0
-131 -16 34 0
-131 -122 155 0
-176 -162 163 0
-176 -178 181 0
-176 -77 79 0
-176 -113 116 0
-176 -128 131 0
-176 -57 58 0
-176 -96 99 0
-176 -169 171 0
-176 -142 143 0
-176 -31 34 0
-176 -152 155 0
-58 -53 163 0
-58 -60 181 0
-58 -40 79 0
-58 -44 116 0
-58 -46 131 0
-58 -56 176 0
-58 -42 99 0
-58 -55 171 0
-58 -49 143 0
-58 -3 34 0
-58 -50 155 0
-99 -93 163 0
-99 -100 181 0
-99 -63 79 0
-99 -85 116 0
-99 -87 131 0
-99 -97 176 0
-99 -43 58 0
-99 -94 171 0
-99 -88 143 0
-99 -9 34 0
-99 -90 155 0
171 170 0
-171 -170 0
-171 -159 163 0
-171 -172 181 0
-171 -75 79 0
-171 -112 116 0
-171 -126 131 0
-171 -168 176 0
-171 -54 58 0
-171 -95 99 0
-171 -139 143 0
-171 -27 34 0
-171 -150 155 0
143 144 0
-143 -144 0
-143 -137 163 0
-143 -145 181 0
-143 -70 79 0
-143 -106 116 0
-143 -120 131 0
-143 -141 176 0
-143 -48 58 0
-143 -89 99 0
-143 -140 171 0
-143 -18 34 0
-143 -136 155 0
34 35 0
-34 -35 0
-34 -26 163 0
-34 -38 181 0
-34 -6 79 0
-34 -13 116 0
-34 -15 131 0
-34 -32 176 0
-34 -4 58 0
-34 -10 99 0
-34 -29 171 0
-34 -20 143 0
-34 -23 155 0
155 154 0
-155 -154 0
-155 -148 163 0
-155 -157 181 0
-155 -71 79 0
-155 -108 116 0
-155 -123 131 0
-155 -153 176 0
-155 -51 58 0
-155 -91 99 0
-155 -151 171 0
-155 -135 143 0
-155 -21 34 0
167 0
-159 -165 172 0
-159 -74 75 0
-159 -109 112 0
-159 -124 126 0
-159 -161 168 0
-159 -52 54 0
-159 -92 95 0
-159 -164 170 0
-159 -138 139 0
-159 -24 27 0
-159 -149 150 0
-172 -166 159 0
-172 -82 75 0
-172 -118 112 0
-172 -133 126 0
-172 -177 168 0
-172 -61 54 0
-172 -101 95 0
-172 -180 170 0
-172 -146 139 0
-172 -36 27 0
-172 -156 150 0
-75 -73 159 0
-75 -81 172 0
-75 -65 112 0
-75 -68 126 0
-75 -78 168 0
-75 -41 54 0
-75 -64 95 0
-75 -80 170 0
-75 -69 139 0
-75 -7 27 0
-75 -72 150 0
-112 -110 159 0
-112 -117 172 0
-112 -66 75 0
-112 -103 126 0
-112 -114 168 0
-112 -45 54 0
-112 -84 95 0
-112 -115 170 0
-112 -105 139 0
-112 -14 27 0
-112 -107 150 0
-126 -125 159 0
-126 -132 172 0
-126 -67 75 0
-126 -104 112 0
-126 -129 168 0
-126 -47 54 0
-126 -86 95 0
-126 -130 170 0
-126 -121 139 0
-126 -16 27 0
-126 -122 150 0
-168 -162 159 0
-168 -178 172 0
-168 -77 75 0
-168 -113 112 0
-168 -128 126 0
-168 -57 54 0
-168 -96 95 0
-168 -175 170 0
-168 -142 139 0
-168 -31 27 0
-168 -152 150 0
-54 -53 159 0
-54 -60 172 0
-54 -40 75 0
-54 -44 112 0
-54 -46 126 0
-54 -56 168 0
-54 -42 95 0
-54 -59 170 0
-54 -49 139 0
-54 -3 27 0
-54 -50 150 0
-95 -93 159 0
-95 -100 172 0
-95 -63 75 0
-95 -85 112 0
-95 -87 126 0
-95 -97 168 0
-95 -43 54 0
-95 -98 170 0
-95 -88 139 0
-95 -9 27 0
-95 -90 150 0
-170 -163 159 0
-170 -181 172 0
-170 -79 75 0
-170 -116 112 0
-170 -131 126 0
-170 -176 168 0
-170 -58 54 0
-170 -99 95 0
-170 -143 139 0
-170 -34 27 0
-170 -155 150 0
139 140 0
-139 -140 0
-139 -137 159 0
-139 -145 172 0
-139 -70 75 0
-139 -106 112 0
-139 -120 126 0
-139 -141 168 0
-139 -48 54 0
-139 -89 95 0
-139 -144 170 0
-139 -18 27 0
-139 -136 150 0
27 29 0
-27 -29 0
-27 -26 159 0
-27 -38 172 0
-27 -6 75 0
-27 -13 112 0
-27 -15 126 0
-27 -32 168 0
-27 -4 54 0
-27 -10 95 0
-27 -35 170 0
-27 -20 139 0
-27 -23 150 0
150 151 0
-150 -151 0
-150 -148 159 0
-150 -157 172 0
-150 -71 75 0
-150 -108 112 0
-150 -123 126 0
-150 -153 168 0
-150 -51 54 0
-150 -91 95 0
-150 -154 170 0
-150 -135 139 0
-150 -21 27 0
134 0
-137 -165 145 0
-137 -74 70 0
-137 -109 106 0
-137 -124 120 0
-137 -161 141 0
-137 -52 48 0
-137 -92 89 0
-137 -164 144 0
-137 -160 140 0
-137 -24 18 0
-137 -149 136 0
-145 -166 137 0
-145 -82 70 0
-145 -118 106 0
-145 -133 120 0
-145 -177 141 0
-145 -61 48 0
-145 -101 89 0
-145 -180 144 0
-145 -173 140 0
-145 -36 18 0
-145 -156 136 0
-70 -73 137 0
-70 -81 145 0
-70 -65 106 0
-70 -68 120 0
-70 -78 141 0
-70 -41 48 0
-70 -64 89 0
-70 -80 144 0
-70 -76 140 0
-70 -7 18 0
-70 -72 136 0
-106 -110 137 0
-106 -117 145 0
-106 -66 70 0
-106 -103 120 0
-106 -114 141 0
-106 -45 48 0
-106 -84 89 0
-106 -115 144 0
-106 -111 140 0
-106 -14 18 0
-106 -107 136 0
-120 -125 137 0
-120 -132 145 0
-120 -67 70 0
-120 -104 106 0
-120 -129 141 0
-120 -47 48 0
-120 -86 89 0
-120 -130 144 0
-120 -127 140 0
-120 -16 18 0
-120 -122 136 0
-141 -162 137 0
-141 -178 145 0
-141 -77 70 0
-141 -113 106 0
-141 -128 120 0
-141 -57 48 0
-141 -96 89 0
-141 -175 144 0
-141 -169 140 0
-141 -31 18 0
-141 -152 136 0
-48 -53 137 0
-48 -60 145 0
-48 -40 70 0
-48 -44 106 0
-48 -46 120 0
-48 -56 141 0
-48 -42 89 0
-48 -59 144 0
-48 -55 140 0
-48 -3 18 0
-48 -50 136 0
-89 -93 137 0
-89 -100 145 0
-89 -63 70 0
-89 -85 106 0
-89 -87 120 0
-89 -97 141 0
-89 -43 48 0
-89 -98 144 0
-89 -94 140 0
-89 -9 18 0
-89 -90 136 0
-144 -163 137 0
-144 -181 145 0
-144 -79 70 0
-144 -116 106 0
-144 -131 120 0
-144 -176 141 0
-144 -58 48 0
-144 -99 89 0
-144 -171 140 0
-144 -34 18 0
-144 -155 136 0
-140 -159 137 0
-140 -172 145 0
-140 -75 70 0
-140 -112 106 0
-140 -126 120 0
-140 -168 141 0
-140 -54 48 0
-140 -95 89 0
-140 -170 144 0
-140 -27 18 0
-140 -150 136 0
18 20 0
-18 -20 0
-18 -26 137 0
-18 -38 145 0
-18 -6 70 0
-18 -13 106 0
-18 -15 120 0
-18 -32 141 0
-18 -4 48 0
-18 -10 89 0
-18 -35 144 0
-18 -29 140 0
-18 -23 136 0
136 135 0
-136 -135 0
-136 -148 137 0
-136 -157 145 0
-136 -71 70 0
-136 -108 106 0
-136 -123 120 0
-136 -153 141 0
-136 -51 48 0
-136 -91 89 0
-136 -154 144 0
-136 -151 140 0
-136 -21 18 0
1 0
-26 -165 38 0
-26 -74 6 0
-26 -109 13 0
-26 -124 15 0
-26 -161 32 0
-26 -52 4 0
-26 -92 10 0
-26 -164 35 0
-26 -160 29 0
-26 -138 20 0
-26 -149 23 0
-38 -166 26 0
-38 -82 6 0
-38 -118 13 0
-38 -133 15 0
-38 -177 32 0
-38 -61 4 0
-38 -101 10 0
-38 -180 35 0
-38 -173 29 0
-38 -146 20 0
-38 -156 23 0
-6 -73 26 0
-6 -81 38 0
-6 -65 13 0
-6 -68 15 0
-6 -78 32 0
-6 -41 4 0
-6 -64 10 0
-6 -80 35 0
-6 -76 29 0
-6 -69 20 0
-6 -72 23 0
-13 -110 26 0
-13 -117 38 0
-13 -66 6 0
-13 -103 15 0
-13 -114 32 0
-13 -45 4 0
-13 -84 10 0
-13 -115 35 0
-13 -111 29 0
-13 -105 20 0
-13 -107 23 0
-15 -125 26 0
-15 -132 38 0
-15 -67 6 0
-15 -104 13 0
-15 -129 32 0
-15 -47 4 0
-15 -86 10 0
-15 -130 35 0
-15 -127 29 0
-15 -121 20 0
-15 -122 23 0
-32 -162 26 0
-32 -178 38 0
-32 -77 6 0
-32 -113 13 0
-32 -128 15 0
-32 -57 4 0
-32 -96 10 0
-32 -175 35 0
-32 -169 29 0
-32 -142 20 0
-32 -152 23 0
-4 -53 26 0
-4 -60 38 0
-4 -40 6 0
-4 -44 13 0
-4 -46 15 0
-4 -56 32 0
-4 -42 10 0
-4 -59 35 0
-4 -55 29 0
-4 -49 20 0
-4 -50 23 0
-10 -93 26 0
-10 -100 38 0
-10 -63 6 0
-10 -85 13 0
-10 -87 15 0
-10 -97 32 0
-10 -43 4 0
-10 -98 35 0
-10 -94 29 0
-10 -88 20 0
-10 -90 23 0
-35 -163 26 0
-35 -181 38 0
-35 -79 6 0
-35 -116 13 0
-35 -131 15 0
-35 -176 32 0
-35 -58 4 0
-35 -99 10 0
-35 -171 29 0
-35 -143 20 0
-35 -155 23 0
-29 -159 26 0
-29 -172 38 0
-29 -75 6 0
-29 -112 13 0
-29 -126 15 0
-29 -168 32 0
-29 -54 4 0
-29 -95 10 0
-29 -170 35 0
-29 -139 20 0
-29 -150 23 0
-20 -137 26 0
-20 -145 38 0
-20 -70 6 0
-20 -106 13 0
-20 -120 15 0
-20 -141 32 0
-20 -48 4 0
-20 -89 10 0
-20 -144 35 0
-20 -140 29 0
-20 -136 23 0
23 21 0
-23 -21 0
-23 -148 26 0
-23 -157 38 0
-23 -71 6 0
-23 -108 13 0
-23 -123 15 0
-23 -153 32 0
-23 -51 4 0
-23 -91 10 0
-23 -154 35 0
-23 -151 29 0
-23 -135 20 0
147 0
-148 -165 157 0
-148 -74 71 0
-148 -109 108 0
-148 -124 123 0
-148 -161 153 0
-148 -52 51 0
-148 -92 91 0
-148 -164 154 0
-148 -160 151 0
-148 -138 135 0
-148 -24 21 0
-157 -166 148 0
-157 -82 71 0
-157 -118 108 0
-157 -133 123 0
-157 -177 153 0
-157 -61 51 0
-157 -101 91 0
-157 -180 154 0
-157 -173 151 0
-157 -146 135 0
-157 -36 21 0
-71 -73 148 0
-71 -81 157 0
-71 -65 108 0
-71 -68 123 0
-71 -78 153 0
-71 -41 51 0
-71 -64 91 0
-71 -80 154 0
-71 -76 151 0
-71 -69 135 0
-71 -7 21 0
-108 -110 148 0
-108 -117 157 0
-108 -66 71 0
-108 -103 123 0
-108 -114 153 0
-108 -45 51 0
-108 -84 91 0
-108 -115 154 0
-108 -111 151 0
-108 -105 135 0
-108 -14 21 0
-123 -125 148 0
-123 -132 157 0
-123 -67 71 0
-123 -104 108 0
-123 -129 153 0
-123 -47 51 0
-123 -86 91 0
-123 -130 154 0
-123 -127 151 0
-123 -121 135 0
-123 -16 21 0
-153 -162 148 0
-153 -178 157 0
-153 -77 71 0
-153 -113 108 0
-153 -128 123 0
-153 -57 51 0
-153 -96 91 0
-153 -175 154 0
-153 -169 151 0
-153 -142 135 0
-153 -31 21 0
-51 -53 148 0
-51 -60 157 0
-51 -40 71 0
-51 -44 108 0
-51 -46 123 0
-51 -56 153 0
-51 -42 91 0
-51 -59 154 0
-51 -55 151 0
-51 -49 135 0
-51 -3 21 0
-91 -93 148 0
-91 -100 157 0
-91 -63 71 0
-91 -85 108 0
-91 -87 123 0
-91 -97 153 0
-91 -43 51 0
-91 -98 154 0
-91 -94 151 0
-91 -88 135 0
-91 -9 21 0
-154 -163 148 0
-154 -181 157 0
-154 -79 71 0
-154 -116 108 0
-154 -131 123 0
-154 -176 153 0
-154 -58 51 0
-154 -99 91 0
-154 -171 151 0
-154 -143 135 0
-154 -34 21 0
-151 -159 148 0
-151 -172 157 0
-151 -75 71 0
-151 -112 108 0
-151 -126 123 0
-151 -168 153 0
-151 -54 51 0
-151 -95 91 0
-151 -170 154 0
-151 -139 135 0
-151 -27 21 0
-135 -137 148 0
-135 -145 157 0
-135 -70 71 0
-135 -106 108 0
-135 -120 123 0
-135 -141 153 0
-135 -48 51 0
-135 -89 91 0
-135 -144 154 0
-135 -140 151 0
-135 -18 21 0
-21 -26 148 0
-21 -38 157 0
-21 -6 71 0
-21 -13 108 0
-21 -15 123 0
-21 -32 153 0
-21 -4 51 0
-21 -10 91 0
-21 -35 154 0
-21 -29 151 0
-21 -20 135 0
