p cnf 182 2210
1 -2 -1 0
3 -4 -1 0
5 -6 -1 0
7 -8 -1 0
9 -10 -1 0
11 -12 -1 0
13 -14 -1 0
15 -16 -1 0
17 -18 -1 0
19 -20 -1 0
21 -22 -1 0
23 -24 -1 0
25 -26 -1 0
1 -27 -3 0
3 -28 -3 0
5 -29 -3 0
7 -30 -3 0
9 -31 -3 0
11 -32 -3 0
13 -33 -3 0
15 -34 -3 0
17 -35 -3 0
19 -36 -3 0
21 -37 -3 0
23 -38 -3 0
25 -39 -3 0
1 -40 -5 0
3 -41 -5 0
5 -42 -5 0
7 -43 -5 0
9 -44 -5 0
11 -45 -5 0
13 -46 -5 0
15 -47 -5 0
17 -48 -5 0
19 -49 -5 0
21 -50 -5 0
23 -51 -5 0
25 -52 -5 0
1 -53 -7 0
3 -54 -7 0
5 -55 -7 0
7 -56 -7 0
9 -57 -7 0
11 -58 -7 0
13 -59 -7 0
15 -60 -7 0
17 -61 -7 0
19 -62 -7 0
21 -63 -7 0
23 -64 -7 0
25 -65 -7 0
1 -66 -9 0
3 -67 -9 0
5 -68 -9 0
7 -69 -9 0
9 -70 -9 0
11 -71 -9 0
13 -72 -9 0
15 -73 -9 0
17 -74 -9 0
19 -75 -9 0
21 -76 -9 0
23 -77 -9 0
25 -78 -9 0
1 -79 -11 0
3 -80 -11 0
5 -81 -11 0
7 -82 -11 0
9 -83 -11 0
11 -84 -11 0
13 -85 -11 0
15 -86 -11 0
17 -87 -11 0
19 -88 -11 0
21 -89 -11 0
23 -90 -11 0
25 -91 -11 0
1 -92 -13 0
3 -93 -13 0
5 -94 -13 0
7 -95 -13 0
9 -96 -13 0
11 -97 -13 0
13 -98 -13 0
15 -99 -13 0
17 -100 -13 0
19 -101 -13 0
21 -102 -13 0
23 -103 -13 0
25 -104 -13 0
1 -105 -15 0
3 -106 -15 0
5 -107 -15 0
7 -108 -15 0
9 -109 -15 0
11 -110 -15 0
13 -111 -15 0
15 -112 -15 0
17 -113 -15 0
19 -114 -15 0
21 -115 -15 0
23 -116 -15 0
25 -117 -15 0
1 -118 -17 0
3 -119 -17 0
5 -120 -17 0
7 -121 -17 0
9 -122 -17 0
11 -123 -17 0
13 -124 -17 0
15 -125 -17 0
17 -126 -17 0
19 -127 -17 0
21 -128 -17 0
23 -129 -17 0
25 -130 -17 0
1 -131 -19 0
3 -132 -19 0
5 -133 -19 0
7 -134 -19 0
9 -135 -19 0
11 -136 -19 0
13 -137 -19 0
15 -138 -19 0
17 -139 -19 0
19 -140 -19 0
21 -141 -19 0
23 -142 -19 0
25 -143 -19 0
1 -144 -21 0
3 -145 -21 0
5 -146 -21 0
7 -147 -21 0
9 -148 -21 0
11 -149 -21 0
13 -150 -21 0
15 -151 -21 0
17 -152 -21 0
19 -153 -21 0
21 -154 -21 0
23 -155 -21 0
25 -156 -21 0
1 -157 -23 0
3 -158 -23 0
5 -159 -23 0
7 -160 -23 0
9 -161 -23 0
11 -162 -23 0
13 -163 -23 0
15 -164 -23 0
17 -165 -23 0
19 -166 -23 0
21 -167 -23 0
23 -168 -23 0
25 -169 -23 0
1 -170 -25 0
3 -171 -25 0
5 -172 -25 0
7 -173 -25 0
9 -174 -25 0
11 -175 -25 0
13 -176 -25 0
15 -177 -25 0
17 -178 -25 0
19 -179 -25 0
21 -180 -25 0
23 -181 -25 0
25 -182 -25 0
2 0
4 27 0
-4 -27 0
-4 -29 6 0
-4 -30 8 0
-4 -31 10 0
-4 -32 12 0
-4 -33 14 0
-4 -34 16 0
-4 -35 18 0
-4 -36 20 0
-4 -37 22 0
-4 -38 24 0
-4 -39 26 0
6 40 0
-6 -40 0
-6 -41 4 0
-6 -43 8 0
-6 -44 10 0
-6 -45 12 0
-6 -46 14 0
-6 -47 16 0
-6 -48 18 0
-6 -49 20 0
-6 -50 22 0
-6 -51 24 0
-6 -52 26 0
8 53 0
-8 -53 0
-8 -54 4 0
-8 -55 6 0
-8 -57 10 0
-8 -58 12 0
-8 -59 14 0
-8 -60 16 0
-8 -61 18 0
-8 -62 20 0
-8 -63 22 0
-8 -64 24 0
-8 -65 26 0
10 66 0
-10 -66 0
-10 -67 4 0
-10 -68 6 0
-10 -69 8 0
-10 -71 12 0
-10 -72 14 0
-10 -73 16 0
-10 -74 18 0
-10 -75 20 0
-10 -76 22 0
-10 -77 24 0
-10 -78 26 0
12 79 0
-12 -79 0
-12 -80 4 0
-12 -81 6 0
-12 -82 8 0
-12 -83 10 0
-12 -85 14 0
-12 -86 16 0
-12 -87 18 0
-12 -88 20 0
-12 -89 22 0
-12 -90 24 0
-12 -91 26 0
14 92 0
-14 -92 0
-14 -93 4 0
-14 -94 6 0
-14 -95 8 0
-14 -96 10 0
-14 -97 12 0
-14 -99 16 0
-14 -100 18 0
-14 -101 20 0
-14 -102 22 0
-14 -103 24 0
-14 -104 26 0
16 105 0
-16 -105 0
-16 -106 4 0
-16 -107 6 0
-16 -108 8 0
-16 -109 10 0
-16 -110 12 0
-16 -111 14 0
-16 -113 18 0
-16 -114 20 0
-16 -115 22 0
-16 -116 24 0
-16 -117 26 0
18 118 0
-18 -118 0
-18 -119 4 0
-18 -120 6 0
-18 -121 8 0
-18 -122 10 0
-18 -123 12 0
-18 -124 14 0
-18 -125 16 0
-18 -127 20 0
-18 -128 22 0
-18 -129 24 0
-18 -130 26 0
20 131 0
-20 -131 0
-20 -132 4 0
-20 -133 6 0
-20 -134 8 0
-20 -135 10 0
-20 -136 12 0
-20 -137 14 0
-20 -138 16 0
-20 -139 18 0
-20 -141 22 0
-20 -142 24 0
-20 -143 26 0
22 144 0
-22 -144 0
-22 -145 4 0
-22 -146 6 0
-22 -147 8 0
-22 -148 10 0
-22 -149 12 0
-22 -150 14 0
-22 -151 16 0
-22 -152 18 0
-22 -153 20 0
-22 -155 24 0
-22 -156 26 0
24 157 0
-24 -157 0
-24 -158 4 0
-24 -159 6 0
-24 -160 8 0
-24 -161 10 0
-24 -162 12 0
-24 -163 14 0
-24 -164 16 0
-24 -165 18 0
-24 -166 20 0
-24 -167 22 0
-24 -169 26 0
26 170 0
-26 -170 0
-26 -171 4 0
-26 -172 6 0
-26 -173 8 0
-26 -174 10 0
-26 -175 12 0
-26 -176 14 0
-26 -177 16 0
-26 -178 18 0
-26 -179 20 0
-26 -180 22 0
-26 -181 24 0
28 0
27 4 0
-27 -4 0
-27 -6 29 0
-27 -8 30 0
-27 -10 31 0
-27 -12 32 0
-27 -14 33 0
-27 -16 34 0
-27 -18 35 0
-27 -20 36 0
-27 -22 37 0
-27 -24 38 0
-27 -26 39 0
29 41 0
-29 -41 0
-29 -40 27 0
-29 -43 30 0
-29 -44 31 0
-29 -45 32 0
-29 -46 33 0
-29 -47 34 0
-29 -48 35 0
-29 -49 36 0
-29 -50 37 0
-29 -51 38 0
-29 -52 39 0
30 54 0
-30 -54 0
-30 -53 27 0
-30 -55 29 0
-30 -57 31 0
-30 -58 32 0
-30 -59 33 0
-30 -60 34 0
-30 -61 35 0
-30 -62 36 0
-30 -63 37 0
-30 -64 38 0
-30 -65 39 0
31 67 0
-31 -67 0
-31 -66 27 0
-31 -68 29 0
-31 -69 30 0
-31 -71 32 0
-31 -72 33 0
-31 -73 34 0
-31 -74 35 0
-31 -75 36 0
-31 -76 37 0
-31 -77 38 0
-31 -78 39 0
32 80 0
-32 -80 0
-32 -79 27 0
-32 -81 29 0
-32 -82 30 0
-32 -83 31 0
-32 -85 33 0
-32 -86 34 0
-32 -87 35 0
-32 -88 36 0
-32 -89 37 0
-32 -90 38 0
-32 -91 39 0
33 93 0
-33 -93 0
-33 -92 27 0
-33 -94 29 0
-33 -95 30 0
-33 -96 31 0
-33 -97 32 0
-33 -99 34 0
-33 -100 35 0
-33 -101 36 0
-33 -102 37 0
-33 -103 38 0
-33 -104 39 0
34 106 0
-34 -106 0
-34 -105 27 0
-34 -107 29 0
-34 -108 30 0
-34 -109 31 0
-34 -110 32 0
-34 -111 33 0
-34 -113 35 0
-34 -114 36 0
-34 -115 37 0
-34 -116 38 0
-34 -117 39 0
35 119 0
-35 -119 0
-35 -118 27 0
-35 -120 29 0
-35 -121 30 0
-35 -122 31 0
-35 -123 32 0
-35 -124 33 0
-35 -125 34 0
-35 -127 36 0
-35 -128 37 0
-35 -129 38 0
-35 -130 39 0
36 132 0
-36 -132 0
-36 -131 27 0
-36 -133 29 0
-36 -134 30 0
-36 -135 31 0
-36 -136 32 0
-36 -137 33 0
-36 -138 34 0
-36 -139 35 0
-36 -141 37 0
-36 -142 38 0
-36 -143 39 0
37 145 0
-37 -145 0
-37 -144 27 0
-37 -146 29 0
-37 -147 30 0
-37 -148 31 0
-37 -149 32 0
-37 -150 33 0
-37 -151 34 0
-37 -152 35 0
-37 -153 36 0
-37 -155 38 0
-37 -156 39 0
38 158 0
-38 -158 0
-38 -157 27 0
-38 -159 29 0
-38 -160 30 0
-38 -161 31 0
-38 -162 32 0
-38 -163 33 0
-38 -164 34 0
-38 -165 35 0
-38 -166 36 0
-38 -167 37 0
-38 -169 39 0
39 171 0
-39 -171 0
-39 -170 27 0
-39 -172 29 0
-39 -173 30 0
-39 -174 31 0
-39 -175 32 0
-39 -176 33 0
-39 -177 34 0
-39 -178 35 0
-39 -179 36 0
-39 -180 37 0
-39 -181 38 0
42 0
40 6 0
-40 -6 0
-40 -4 41 0
-40 -8 43 0
-40 -10 44 0
-40 -12 45 0
-40 -14 46 0
-40 -16 47 0
-40 -18 48 0
-40 -20 49 0
-40 -22 50 0
-40 -24 51 0
-40 -26 52 0
41 29 0
-41 -29 0
-41 -27 40 0
-41 -30 43 0
-41 -31 44 0
-41 -32 45 0
-41 -33 46 0
-41 -34 47 0
-41 -35 48 0
-41 -36 49 0
-41 -37 50 0
-41 -38 51 0
-41 -39 52 0
43 55 0
-43 -55 0
-43 -53 40 0
-43 -54 41 0
-43 -57 44 0
-43 -58 45 0
-43 -59 46 0
-43 -60 47 0
-43 -61 48 0
-43 -62 49 0
-43 -63 50 0
-43 -64 51 0
-43 -65 52 0
44 68 0
-44 -68 0
-44 -66 40 0
-44 -67 41 0
-44 -69 43 0
-44 -71 45 0
-44 -72 46 0
-44 -73 47 0
-44 -74 48 0
-44 -75 49 0
-44 -76 50 0
-44 -77 51 0
-44 -78 52 0
45 81 0
-45 -81 0
-45 -79 40 0
-45 -80 41 0
-45 -82 43 0
-45 -83 44 0
-45 -85 46 0
-45 -86 47 0
-45 -87 48 0
-45 -88 49 0
-45 -89 50 0
-45 -90 51 0
-45 -91 52 0
46 94 0
-46 -94 0
-46 -92 40 0
-46 -93 41 0
-46 -95 43 0
-46 -96 44 0
-46 -97 45 0
-46 -99 47 0
-46 -100 48 0
-46 -101 49 0
-46 -102 50 0
-46 -103 51 0
-46 -104 52 0
47 107 0
-47 -107 0
-47 -105 40 0
-47 -106 41 0
-47 -108 43 0
-47 -109 44 0
-47 -110 45 0
-47 -111 46 0
-47 -113 48 0
-47 -114 49 0
-47 -115 50 0
-47 -116 51 0
-47 -117 52 0
48 120 0
-48 -120 0
-48 -118 40 0
-48 -119 41 0
-48 -121 43 0
-48 -122 44 0
-48 -123 45 0
-48 -124 46 0
-48 -125 47 0
-48 -127 49 0
-48 -128 50 0
-48 -129 51 0
-48 -130 52 0
49 133 0
-49 -133 0
-49 -131 40 0
-49 -132 41 0
-49 -134 43 0
-49 -135 44 0
-49 -136 45 0
-49 -137 46 0
-49 -138 47 0
-49 -139 48 0
-49 -141 50 0
-49 -142 51 0
-49 -143 52 0
50 146 0
-50 -146 0
-50 -144 40 0
-50 -145 41 0
-50 -147 43 0
-50 -148 44 0
-50 -149 45 0
-50 -150 46 0
-50 -151 47 0
-50 -152 48 0
-50 -153 49 0
-50 -155 51 0
-50 -156 52 0
51 159 0
-51 -159 0
-51 -157 40 0
-51 -158 41 0
-51 -160 43 0
-51 -161 44 0
-51 -162 45 0
-51 -163 46 0
-51 -164 47 0
-51 -165 48 0
-51 -166 49 0
-51 -167 50 0
-51 -169 52 0
52 172 0
-52 -172 0
-52 -170 40 0
-52 -171 41 0
-52 -173 43 0
-52 -174 44 0
-52 -175 45 0
-52 -176 46 0
-52 -177 47 0
-52 -178 48 0
-52 -179 49 0
-52 -180 50 0
-52 -181 51 0
56 0
53 8 0
-53 -8 0
-53 -4 54 0
-53 -6 55 0
-53 -10 57 0
-53 -12 58 0
-53 -14 59 0
-53 -16 60 0
-53 -18 61 0
-53 -20 62 0
-53 -22 63 0
-53 -24 64 0
-53 -26 65 0
54 30 0
-54 -30 0
-54 -27 53 0
-54 -29 55 0
-54 -31 57 0
-54 -32 58 0
-54 -33 59 0
-54 -34 60 0
-54 -35 61 0
-54 -36 62 0
-54 -37 63 0
-54 -38 64 0
-54 -39 65 0
55 43 0
-55 -43 0
-55 -40 53 0
-55 -41 54 0
-55 -44 57 0
-55 -45 58 0
-55 -46 59 0
-55 -47 60 0
-55 -48 61 0
-55 -49 62 0
-55 -50 63 0
-55 -51 64 0
-55 -52 65 0
57 69 0
-57 -69 0
-57 -66 53 0
-57 -67 54 0
-57 -68 55 0
-57 -71 58 0
-57 -72 59 0
-57 -73 60 0
-57 -74 61 0
-57 -75 62 0
-57 -76 63 0
-57 -77 64 0
-57 -78 65 0
58 82 0
-58 -82 0
-58 -79 53 0
-58 -80 54 0
-58 -81 55 0
-58 -83 57 0
-58 -85 59 0
-58 -86 60 0
-58 -87 61 0
-58 -88 62 0
-58 -89 63 0
-58 -90 64 0
-58 -91 65 0
59 95 0
-59 -95 0
-59 -92 53 0
-59 -93 54 0
-59 -94 55 0
-59 -96 57 0
-59 -97 58 0
-59 -99 60 0
-59 -100 61 0
-59 -101 62 0
-59 -102 63 0
-59 -103 64 0
-59 -104 65 0
60 108 0
-60 -108 0
-60 -105 53 0
-60 -106 54 0
-60 -107 55 0
-60 -109 57 0
-60 -110 58 0
-60 -111 59 0
-60 -113 61 0
-60 -114 62 0
-60 -115 63 0
-60 -116 64 0
-60 -117 65 0
61 121 0
-61 -121 0
-61 -118 53 0
-61 -119 54 0
-61 -120 55 0
-61 -122 57 0
-61 -123 58 0
-61 -124 59 0
-61 -125 60 0
-61 -127 62 0
-61 -128 63 0
-61 -129 64 0
-61 -130 65 0
62 134 0
-62 -134 0
-62 -131 53 0
-62 -132 54 0
-62 -133 55 0
-62 -135 57 0
-62 -136 58 0
-62 -137 59 0
-62 -138 60 0
-62 -139 61 0
-62 -141 63 0
-62 -142 64 0
-62 -143 65 0
63 147 0
-63 -147 0
-63 -144 53 0
-63 -145 54 0
-63 -146 55 0
-63 -148 57 0
-63 -149 58 0
-63 -150 59 0
-63 -151 60 0
-63 -152 61 0
-63 -153 62 0
-63 -155 64 0
-63 -156 65 0
64 160 0
-64 -160 0
-64 -157 53 0
-64 -158 54 0
-64 -159 55 0
-64 -161 57 0
-64 -162 58 0
-64 -163 59 0
-64 -164 60 0
-64 -165 61 0
-64 -166 62 0
-64 -167 63 0
-64 -169 65 0
65 173 0
-65 -173 0
-65 -170 53 0
-65 -171 54 0
-65 -172 55 0
-65 -174 57 0
-65 -175 58 0
-65 -176 59 0
-65 -177 60 0
-65 -178 61 0
-65 -179 62 0
-65 -180 63 0
-65 -181 64 0
70 0
66 10 0
-66 -10 0
-66 -4 67 0
-66 -6 68 0
-66 -8 69 0
-66 -12 71 0
-66 -14 72 0
-66 -16 73 0
-66 -18 74 0
-66 -20 75 0
-66 -22 76 0
-66 -24 77 0
-66 -26 78 0
67 31 0
-67 -31 0
-67 -27 66 0
-67 -29 68 0
-67 -30 69 0
-67 -32 71 0
-67 -33 72 0
-67 -34 73 0
-67 -35 74 0
-67 -36 75 0
-67 -37 76 0
-67 -38 77 0
-67 -39 78 0
68 44 0
-68 -44 0
-68 -40 66 0
-68 -41 67 0
-68 -43 69 0
-68 -45 71 0
-68 -46 72 0
-68 -47 73 0
-68 -48 74 0
-68 -49 75 0
-68 -50 76 0
-68 -51 77 0
-68 -52 78 0
69 57 0
-69 -57 0
-69 -53 66 0
-69 -54 67 0
-69 -55 68 0
-69 -58 71 0
-69 -59 72 0
-69 -60 73 0
-69 -61 74 0
-69 -62 75 0
-69 -63 76 0
-69 -64 77 0
-69 -65 78 0
71 83 0
-71 -83 0
-71 -79 66 0
-71 -80 67 0
-71 -81 68 0
-71 -82 69 0
-71 -85 72 0
-71 -86 73 0
-71 -87 74 0
-71 -88 75 0
-71 -89 76 0
-71 -90 77 0
-71 -91 78 0
72 96 0
-72 -96 0
-72 -92 66 0
-72 -93 67 0
-72 -94 68 0
-72 -95 69 0
-72 -97 71 0
-72 -99 73 0
-72 -100 74 0
-72 -101 75 0
-72 -102 76 0
-72 -103 77 0
-72 -104 78 0
73 109 0
-73 -109 0
-73 -105 66 0
-73 -106 67 0
-73 -107 68 0
-73 -108 69 0
-73 -110 71 0
-73 -111 72 0
-73 -113 74 0
-73 -114 75 0
-73 -115 76 0
-73 -116 77 0
-73 -117 78 0
74 122 0
-74 -122 0
-74 -118 66 0
-74 -119 67 0
-74 -120 68 0
-74 -121 69 0
-74 -123 71 0
-74 -124 72 0
-74 -125 73 0
-74 -127 75 0
-74 -128 76 0
-74 -129 77 0
-74 -130 78 0
75 135 0
-75 -135 0
-75 -131 66 0
-75 -132 67 0
-75 -133 68 0
-75 -134 69 0
-75 -136 71 0
-75 -137 72 0
-75 -138 73 0
-75 -139 74 0
-75 -141 76 0
-75 -142 77 0
-75 -143 78 0
76 148 0
-76 -148 0
-76 -144 66 0
-76 -145 67 0
-76 -146 68 0
-76 -147 69 0
-76 -149 71 0
-76 -150 72 0
-76 -151 73 0
-76 -152 74 0
-76 -153 75 0
-76 -155 77 0
-76 -156 78 0
77 161 0
-77 -161 0
-77 -157 66 0
-77 -158 67 0
-77 -159 68 0
-77 -160 69 0
-77 -162 71 0
-77 -163 72 0
-77 -164 73 0
-77 -165 74 0
-77 -166 75 0
-77 -167 76 0
-77 -169 78 0
78 174 0
-78 -174 0
-78 -170 66 0
-78 -171 67 0
-78 -172 68 0
-78 -173 69 0
-78 -175 71 0
-78 -176 72 0
-78 -177 73 0
-78 -178 74 0
-78 -179 75 0
-78 -180 76 0
-78 -181 77 0
84 0
79 12 0
-79 -12 0
-79 -4 80 0
-79 -6 81 0
-79 -8 82 0
-79 -10 83 0
-79 -14 85 0
-79 -16 86 0
-79 -18 87 0
-79 -20 88 0
-79 -22 89 0
-79 -24 90 0
-79 -26 91 0
80 32 0
-80 -32 0
-80 -27 79 0
-80 -29 81 0
-80 -30 82 0
-80 -31 83 0
-80 -33 85 0
-80 -34 86 0
-80 -35 87 0
-80 -36 88 0
-80 -37 89 0
-80 -38 90 0
-80 -39 91 0
81 45 0
-81 -45 0
-81 -40 79 0
-81 -41 80 0
-81 -43 82 0
-81 -44 83 0
-81 -46 85 0
-81 -47 86 0
-81 -48 87 0
-81 -49 88 0
-81 -50 89 0
-81 -51 90 0
-81 -52 91 0
82 58 0
-82 -58 0
-82 -53 79 0
-82 -54 80 0
-82 -55 81 0
-82 -57 83 0
-82 -59 85 0
-82 -60 86 0
-82 -61 87 0
-82 -62 88 0
-82 -63 89 0
-82 -64 90 0
-82 -65 91 0
83 71 0
-83 -71 0
-83 -66 79 0
-83 -67 80 0
-83 -68 81 0
-83 -69 82 0
-83 -72 85 0
-83 -73 86 0
-83 -74 87 0
-83 -75 88 0
-83 -76 89 0
-83 -77 90 0
-83 -78 91 0
85 97 0
-85 -97 0
-85 -92 79 0
-85 -93 80 0
-85 -94 81 0
-85 -95 82 0
-85 -96 83 0
-85 -99 86 0
-85 -100 87 0
-85 -101 88 0
-85 -102 89 0
-85 -103 90 0
-85 -104 91 0
86 110 0
-86 -110 0
-86 -105 79 0
-86 -106 80 0
-86 -107 81 0
-86 -108 82 0
-86 -109 83 0
-86 -111 85 0
-86 -113 87 0
-86 -114 88 0
-86 -115 89 0
-86 -116 90 0
-86 -117 91 0
87 123 0
-87 -123 0
-87 -118 79 0
-87 -119 80 0
-87 -120 81 0
-87 -121 82 0
-87 -122 83 0
-87 -124 85 0
-87 -125 86 0
-87 -127 88 0
-87 -128 89 0
-87 -129 90 0
-87 -130 91 0
88 136 0
-88 -136 0
-88 -131 79 0
-88 -132 80 0
-88 -133 81 0
-88 -134 82 0
-88 -135 83 0
-88 -137 85 0
-88 -138 86 0
-88 -139 87 0
-88 -141 89 0
-88 -142 90 0
-88 -143 91 0
89 149 0
-89 -149 0
-89 -144 79 0
-89 -145 80 0
-89 -146 81 0
-89 -147 82 0
-89 -148 83 0
-89 -150 85 0
-89 -151 86 0
-89 -152 87 0
-89 -153 88 0
-89 -155 90 0
-89 -156 91 0
90 162 0
-90 -162 0
-90 -157 79 0
-90 -158 80 0
-90 -159 81 0
-90 -160 82 0
-90 -161 83 0
-90 -163 85 0
-90 -164 86 0
-90 -165 87 0
-90 -166 88 0
-90 -167 89 0
-90 -169 91 0
91 175 0
-91 -175 0
-91 -170 79 0
-91 -171 80 0
-91 -172 81 0
-91 -173 82 0
-91 -174 83 0
-91 -176 85 0
-91 -177 86 0
-91 -178 87 0
-91 -179 88 0
-91 -180 89 0
-91 -181 90 0
98 0
92 14 0
-92 -14 0
-92 -4 93 0
-92 -6 94 0
-92 -8 95 0
-92 -10 96 0
-92 -12 97 0
-92 -16 99 0
-92 -18 100 0
-92 -20 101 0
-92 -22 102 0
-92 -24 103 0
-92 -26 104 0
93 33 0
-93 -33 0
-93 -27 92 0
-93 -29 94 0
-93 -30 95 0
-93 -31 96 0
-93 -32 97 0
-93 -34 99 0
-93 -35 100 0
-93 -36 101 0
-93 -37 102 0
-93 -38 103 0
-93 -39 104 0
94 46 0
-94 -46 0
-94 -40 92 0
-94 -41 93 0
-94 -43 95 0
-94 -44 96 0
-94 -45 97 0
-94 -47 99 0
-94 -48 100 0
-94 -49 101 0
-94 -50 102 0
-94 -51 103 0
-94 -52 104 0
95 59 0
-95 -59 0
-95 -53 92 0
-95 -54 93 0
-95 -55 94 0
-95 -57 96 0
-95 -58 97 0
-95 -60 99 0
-95 -61 100 0
-95 -62 101 0
-95 -63 102 0
-95 -64 103 0
-95 -65 104 0
96 72 0
-96 -72 0
-96 -66 92 0
-96 -67 93 0
-96 -68 94 0
-96 -69 95 0
-96 -71 97 0
-96 -73 99 0
-96 -74 100 0
-96 -75 101 0
-96 -76 102 0
-96 -77 103 0
-96 -78 104 0
97 85 0
-97 -85 0
-97 -79 92 0
-97 -80 93 0
-97 -81 94 0
-97 -82 95 0
-97 -83 96 0
-97 -86 99 0
-97 -87 100 0
-97 -88 101 0
-97 -89 102 0
-97 -90 103 0
-97 -91 104 0
99 111 0
-99 -111 0
-99 -105 92 0
-99 -106 93 0
-99 -107 94 0
-99 -108 95 0
-99 -109 96 0
-99 -110 97 0
-99 -113 100 0
-99 -114 101 0
-99 -115 102 0
-99 -116 103 0
-99 -117 104 0
100 124 0
-100 -124 0
-100 -118 92 0
-100 -119 93 0
-100 -120 94 0
-100 -121 95 0
-100 -122 96 0
-100 -123 97 0
-100 -125 99 0
-100 -127 101 0
-100 -128 102 0
-100 -129 103 0
-100 -130 104 0
101 137 0
-101 -137 0
-101 -131 92 0
-101 -132 93 0
-101 -133 94 0
-101 -134 95 0
-101 -135 96 0
-101 -136 97 0
-101 -138 99 0
-101 -139 100 0
-101 -141 102 0
-101 -142 103 0
-101 -143 104 0
102 150 0
-102 -150 0
-102 -144 92 0
-102 -145 93 0
-102 -146 94 0
-102 -147 95 0
-102 -148 96 0
-102 -149 97 0
-102 -151 99 0
-102 -152 100 0
-102 -153 101 0
-102 -155 103 0
-102 -156 104 0
103 163 0
-103 -163 0
-103 -157 92 0
-103 -158 93 0
-103 -159 94 0
-103 -160 95 0
-103 -161 96 0
-103 -162 97 0
-103 -164 99 0
-103 -165 100 0
-103 -166 101 0
-103 -167 102 0
-103 -169 104 0
104 176 0
-104 -176 0
-104 -170 92 0
-104 -171 93 0
-104 -172 94 0
-104 -173 95 0
-104 -174 96 0
-104 -175 97 0
-104 -177 99 0
-104 -178 100 0
-104 -179 101 0
-104 -180 102 0
-104 -181 103 0
112 0
105 16 0
-105 -16 0
-105 -4 106 0
-105 -6 107 0
-105 -8 108 0
-105 -10 109 0
-105 -12 110 0
-105 -14 111 0
-105 -18 113 0
-105 -20 114 0
-105 -22 115 0
-105 -24 116 0
-105 -26 117 0
106 34 0
-106 -34 0
-106 -27 105 0
-106 -29 107 0
-106 -30 108 0
-106 -31 109 0
-106 -32 110 0
-106 -33 111 0
-106 -35 113 0
-106 -36 114 0
-106 -37 115 0
-106 -38 116 0
-106 -39 117 0
107 47 0
-107 -47 0
-107 -40 105 0
-107 -41 106 0
-107 -43 108 0
-107 -44 109 0
-107 -45 110 0
-107 -46 111 0
-107 -48 113 0
-107 -49 114 0
-107 -50 115 0
-107 -51 116 0
-107 -52 117 0
108 60 0
-108 -60 0
-108 -53 105 0
-108 -54 106 0
-108 -55 107 0
-108 -57 109 0
-108 -58 110 0
-108 -59 111 0
-108 -61 113 0
-108 -62 114 0
-108 -63 115 0
-108 -64 116 0
-108 -65 117 0
109 73 0
-109 -73 0
-109 -66 105 0
-109 -67 106 0
-109 -68 107 0
-109 -69 108 0
-109 -71 110 0
-109 -72 111 0
-109 -74 113 0
-109 -75 114 0
-109 -76 115 0
-109 -77 116 0
-109 -78 117 0
110 86 0
-110 -86 0
-110 -79 105 0
-110 -80 106 0
-110 -81 107 0
-110 -82 108 0
-110 -83 109 0
-110 -85 111 0
-110 -87 113 0
-110 -88 114 0
-110 -89 115 0
-110 -90 116 0
-110 -91 117 0
111 99 0
-111 -99 0
-111 -92 105 0
-111 -93 106 0
-111 -94 107 0
-111 -95 108 0
-111 -96 109 0
-111 -97 110 0
-111 -100 113 0
-111 -101 114 0
-111 -102 115 0
-111 -103 116 0
-111 -104 117 0
113 125 0
-113 -125 0
-113 -118 105 0
-113 -119 106 0
-113 -120 107 0
-113 -121 108 0
-113 -122 109 0
-113 -123 110 0
-113 -124 111 0
-113 -127 114 0
-113 -128 115 0
-113 -129 116 0
-113 -130 117 0
114 138 0
-114 -138 0
-114 -131 105 0
-114 -132 106 0
-114 -133 107 0
-114 -134 108 0
-114 -135 109 0
-114 -136 110 0
-114 -137 111 0
-114 -139 113 0
-114 -141 115 0
-114 -142 116 0
-114 -143 117 0
115 151 0
-115 -151 0
-115 -144 105 0
-115 -145 106 0
-115 -146 107 0
-115 -147 108 0
-115 -148 109 0
-115 -149 110 0
-115 -150 111 0
-115 -152 113 0
-115 -153 114 0
-115 -155 116 0
-115 -156 117 0
116 164 0
-116 -164 0
-116 -157 105 0
-116 -158 106 0
-116 -159 107 0
-116 -160 108 0
-116 -161 109 0
-116 -162 110 0
-116 -163 111 0
-116 -165 113 0
-116 -166 114 0
-116 -167 115 0
-116 -169 117 0
117 177 0
-117 -177 0
-117 -170 105 0
-117 -171 106 0
-117 -172 107 0
-117 -173 108 0
-117 -174 109 0
-117 -175 110 0
-117 -176 111 0
-117 -178 113 0
-117 -179 114 0
-117 -180 115 0
-117 -181 116 0
126 0
118 18 0
-118 -18 0
-118 -4 119 0
-118 -6 120 0
-118 -8 121 0
-118 -10 122 0
-118 -12 123 0
-118 -14 124 0
-118 -16 125 0
-118 -20 127 0
-118 -22 128 0
-118 -24 129 0
-118 -26 130 0
119 35 0
-119 -35 0
-119 -27 118 0
-119 -29 120 0
-119 -30 121 0
-119 -31 122 0
-119 -32 123 0
-119 -33 124 0
-119 -34 125 0
-119 -36 127 0
-119 -37 128 0
-119 -38 129 0
-119 -39 130 0
120 48 0
-120 -48 0
-120 -40 118 0
-120 -41 119 0
-120 -43 121 0
-120 -44 122 0
-120 -45 123 0
-120 -46 124 0
-120 -47 125 0
-120 -49 127 0
-120 -50 128 0
-120 -51 129 0
-120 -52 130 0
121 61 0
-121 -61 0
-121 -53 118 0
-121 -54 119 0
-121 -55 120 0
-121 -57 122 0
-121 -58 123 0
-121 -59 124 0
-121 -60 125 0
-121 -62 127 0
-121 -63 128 0
-121 -64 129 0
-121 -65 130 0
122 74 0
-122 -74 0
-122 -66 118 0
-122 -67 119 0
-122 -68 120 0
-122 -69 121 0
-122 -71 123 0
-122 -72 124 0
-122 -73 125 0
-122 -75 127 0
-122 -76 128 0
-122 -77 129 0
-122 -78 130 0
123 87 0
-123 -87 0
-123 -79 118 0
-123 -80 119 0
-123 -81 120 0
-123 -82 121 0
-123 -83 122 0
-123 -85 124 0
-123 -86 125 0
-123 -88 127 0
-123 -89 128 0
-123 -90 129 0
-123 -91 130 0
124 100 0
-124 -100 0
-124 -92 118 0
-124 -93 119 0
-124 -94 120 0
-124 -95 121 0
-124 -96 122 0
-124 -97 123 0
-124 -99 125 0
-124 -101 127 0
-124 -102 128 0
-124 -103 129 0
-124 -104 130 0
125 113 0
-125 -113 0
-125 -105 118 0
-125 -106 119 0
-125 -107 120 0
-125 -108 121 0
-125 -109 122 0
-125 -110 123 0
-125 -111 124 0
-125 -114 127 0
-125 -115 128 0
-125 -116 129 0
-125 -117 130 0
127 139 0
-127 -139 0
-127 -131 118 0
-127 -132 119 0
-127 -133 120 0
-127 -134 121 0
-127 -135 122 0
-127 -136 123 0
-127 -137 124 0
-127 -138 125 0
-127 -141 128 0
-127 -142 129 0
-127 -143 130 0
128 152 0
-128 -152 0
-128 -144 118 0
-128 -145 119 0
-128 -146 120 0
-128 -147 121 0
-128 -148 122 0
-128 -149 123 0
-128 -150 124 0
-128 -151 125 0
-128 -153 127 0
-128 -155 129 0
-128 -156 130 0
129 165 0
-129 -165 0
-129 -157 118 0
-129 -158 119 0
-129 -159 120 0
-129 -160 121 0
-129 -161 122 0
-129 -162 123 0
-129 -163 124 0
-129 -164 125 0
-129 -166 127 0
-129 -167 128 0
-129 -169 130 0
130 178 0
-130 -178 0
-130 -170 118 0
-130 -171 119 0
-130 -172 120 0
-130 -173 121 0
-130 -174 122 0
-130 -175 123 0
-130 -176 124 0
-130 -177 125 0
-130 -179 127 0
-130 -180 128 0
-130 -181 129 0
140 0
131 20 0
-131 -20 0
-131 -4 132 0
-131 -6 133 0
-131 -8 134 0
-131 -10 135 0
-131 -12 136 0
-131 -14 137 0
-131 -16 138 0
-131 -18 139 0
-131 -22 141 0
-131 -24 142 0
-131 -26 143 0
132 36 0
-132 -36 0
-132 -27 131 0
-132 -29 133 0
-132 -30 134 0
-132 -31 135 0
-132 -32 136 0
-132 -33 137 0
-132 -34 138 0
-132 -35 139 0
-132 -37 141 0
-132 -38 142 0
-132 -39 143 0
133 49 0
-133 -49 0
-133 -40 131 0
-133 -41 132 0
-133 -43 134 0
-133 -44 135 0
-133 -45 136 0
-133 -46 137 0
-133 -47 138 0
-133 -48 139 0
-133 -50 141 0
-133 -51 142 0
-133 -52 143 0
134 62 0
-134 -62 0
-134 -53 131 0
-134 -54 132 0
-134 -55 133 0
-134 -57 135 0
-134 -58 136 0
-134 -59 137 0
-134 -60 138 0
-134 -61 139 0
-134 -63 141 0
-134 -64 142 0
-134 -65 143 0
135 75 0
-135 -75 0
-135 -66 131 0
-135 -67 132 0
-135 -68 133 0
-135 -69 134 0
-135 -71 136 0
-135 -72 137 0
-135 -73 138 0
-135 -74 139 0
-135 -76 141 0
-135 -77 142 0
-135 -78 143 0
136 88 0
-136 -88 0
-136 -79 131 0
-136 -80 132 0
-136 -81 133 0
-136 -82 134 0
-136 -83 135 0
-136 -85 137 0
-136 -86 138 0
-136 -87 139 0
-136 -89 141 0
-136 -90 142 0
-136 -91 143 0
137 101 0
-137 -101 0
-137 -92 131 0
-137 -93 132 0
-137 -94 133 0
-137 -95 134 0
-137 -96 135 0
-137 -97 136 0
-137 -99 138 0
-137 -100 139 0
-137 -102 141 0
-137 -103 142 0
-137 -104 143 0
138 114 0
-138 -114 0
-138 -105 131 0
-138 -106 132 0
-138 -107 133 0
-138 -108 134 0
-138 -109 135 0
-138 -110 136 0
-138 -111 137 0
-138 -113 139 0
-138 -115 141 0
-138 -116 142 0
-138 -117 143 0
139 127 0
-139 -127 0
-139 -118 131 0
-139 -119 132 0
-139 -120 133 0
-139 -121 134 0
-139 -122 135 0
-139 -123 136 0
-139 -124 137 0
-139 -125 138 0
-139 -128 141 0
-139 -129 142 0
-139 -130 143 0
141 153 0
-141 -153 0
-141 -144 131 0
-141 -145 132 0
-141 -146 133 0
-141 -147 134 0
-141 -148 135 0
-141 -149 136 0
-141 -150 137 0
-141 -151 138 0
-141 -152 139 0
-141 -155 142 0
-141 -156 143 0
142 166 0
-142 -166 0
-142 -157 131 0
-142 -158 132 0
-142 -159 133 0
-142 -160 134 0
-142 -161 135 0
-142 -162 136 0
-142 -163 137 0
-142 -164 138 0
-142 -165 139 0
-142 -167 141 0
-142 -169 143 0
143 179 0
-143 -179 0
-143 -170 131 0
-143 -171 132 0
-143 -172 133 0
-143 -173 134 0
-143 -174 135 0
-143 -175 136 0
-143 -176 137 0
-143 -177 138 0
-143 -178 139 0
-143 -180 141 0
-143 -181 142 0
154 0
144 22 0
-144 -22 0
-144 -4 145 0
-144 -6 146 0
-144 -8 147 0
-144 -10 148 0
-144 -12 149 0
-144 -14 150 0
-144 -16 151 0
-144 -18 152 0
-144 -20 153 0
-144 -24 155 0
-144 -26 156 0
145 37 0
-145 -37 0
-145 -27 144 0
-145 -29 146 0
-145 -30 147 0
-145 -31 148 0
-145 -32 149 0
-145 -33 150 0
-145 -34 151 0
-145 -35 152 0
-145 -36 153 0
-145 -38 155 0
-145 -39 156 0
146 50 0
-146 -50 0
-146 -40 144 0
-146 -41 145 0
-146 -43 147 0
-146 -44 148 0
-146 -45 149 0
-146 -46 150 0
-146 -47 151 0
-146 -48 152 0
-146 -49 153 0
-146 -51 155 0
-146 -52 156 0
147 63 0
-147 -63 0
-147 -53 144 0
-147 -54 145 0
-147 -55 146 0
-147 -57 148 0
-147 -58 149 0
-147 -59 150 0
-147 -60 151 0
-147 -61 152 0
-147 -62 153 0
-147 -64 155 0
-147 -65 156 0
148 76 0
-148 -76 0
-148 -66 144 0
-148 -67 145 0
-148 -68 146 0
-148 -69 147 0
-148 -71 149 0
-148 -72 150 0
-148 -73 151 0
-148 -74 152 0
-148 -75 153 0
-148 -77 155 0
-148 -78 156 0
149 89 0
-149 -89 0
-149 -79 144 0
-149 -80 145 0
-149 -81 146 0
-149 -82 147 0
-149 -83 148 0
-149 -85 150 0
-149 -86 151 0
-149 -87 152 0
-149 -88 153 0
-149 -90 155 0
-149 -91 156 0
150 102 0
-150 -102 0
-150 -92 144 0
-150 -93 145 0
-150 -94 146 0
-150 -95 147 0
-150 -96 148 0
-150 -97 149 0
-150 -99 151 0
-150 -100 152 0
-150 -101 153 0
-150 -103 155 0
-150 -104 156 0
151 115 0
-151 -115 0
-151 -105 144 0
-151 -106 145 0
-151 -107 146 0
-151 -108 147 0
-151 -109 148 0
-151 -110 149 0
-151 -111 150 0
-151 -113 152 0
-151 -114 153 0
-151 -116 155 0
-151 -117 156 0
152 128 0
-152 -128 0
-152 -118 144 0
-152 -119 145 0
-152 -120 146 0
-152 -121 147 0
-152 -122 148 0
-152 -123 149 0
-152 -124 150 0
-152 -125 151 0
-152 -127 153 0
-152 -129 155 0
-152 -130 156 0
153 141 0
-153 -141 0
-153 -131 144 0
-153 -132 145 0
-153 -133 146 0
-153 -134 147 0
-153 -135 148 0
-153 -136 149 0
-153 -137 150 0
-153 -138 151 0
-153 -139 152 0
-153 -142 155 0
-153 -143 156 0
155 167 0
-155 -167 0
-155 -157 144 0
-155 -158 145 0
-155 -159 146 0
-155 -160 147 0
-155 -161 148 0
-155 -162 149 0
-155 -163 150 0
-155 -164 151 0
-155 -165 152 0
-155 -166 153 0
-155 -169 156 0
156 180 0
-156 -180 0
-156 -170 144 0
-156 -171 145 0
-156 -172 146 0
-156 -173 147 0
-156 -174 148 0
-156 -175 149 0
-156 -176 150 0
-156 -177 151 0
-156 -178 152 0
-156 -179 153 0
-156 -181 155 0
168 0
157 24 0
-157 -24 0
-157 -4 158 0
-157 -6 159 0
-157 -8 160 0
-157 -10 161 0
-157 -12 162 0
-157 -14 163 0
-157 -16 164 0
-157 -18 165 0
-157 -20 166 0
-157 -22 167 0
-157 -26 169 0
158 38 0
-158 -38 0
-158 -27 157 0
-158 -29 159 0
-158 -30 160 0
-158 -31 161 0
-158 -32 162 0
-158 -33 163 0
-158 -34 164 0
-158 -35 165 0
-158 -36 166 0
-158 -37 167 0
-158 -39 169 0
159 51 0
-159 -51 0
-159 -40 157 0
-159 -41 158 0
-159 -43 160 0
-159 -44 161 0
-159 -45 162 0
-159 -46 163 0
-159 -47 164 0
-159 -48 165 0
-159 -49 166 0
-159 -50 167 0
-159 -52 169 0
160 64 0
-160 -64 0
-160 -53 157 0
-160 -54 158 0
-160 -55 159 0
-160 -57 161 0
-160 -58 162 0
-160 -59 163 0
-160 -60 164 0
-160 -61 165 0
-160 -62 166 0
-160 -63 167 0
-160 -65 169 0
161 77 0
-161 -77 0
-161 -66 157 0
-161 -67 158 0
-161 -68 159 0
-161 -69 160 0
-161 -71 162 0
-161 -72 163 0
-161 -73 164 0
-161 -74 165 0
-161 -75 166 0
-161 -76 167 0
-161 -78 169 0
162 90 0
-162 -90 0
-162 -79 157 0
-162 -80 158 0
-162 -81 159 0
-162 -82 160 0
-162 -83 161 0
-162 -85 163 0
-162 -86 164 0
-162 -87 165 0
-162 -88 166 0
-162 -89 167 0
-162 -91 169 0
163 103 0
-163 -103 0
-163 -92 157 0
-163 -93 158 0
-163 -94 159 0
-163 -95 160 0
-163 -96 161 0
-163 -97 162 0
-163 -99 164 0
-163 -100 165 0
-163 -101 166 0
-163 -102 167 0
-163 -104 169 0
164 116 0
-164 -116 0
-164 -105 157 0
-164 -106 158 0
-164 -107 159 0
-164 -108 160 0
-164 -109 161 0
-164 -110 162 0
-164 -111 163 0
-164 -113 165 0
-164 -114 166 0
-164 -115 167 0
-164 -117 169 0
165 129 0
-165 -129 0
-165 -118 157 0
-165 -119 158 0
-165 -120 159 0
-165 -121 160 0
-165 -122 161 0
-165 -123 162 0
-165 -124 163 0
-165 -125 164 0
-165 -127 166 0
-165 -128 167 0
-165 -130 169 0
166 142 0
-166 -142 0
-166 -131 157 0
-166 -132 158 0
-166 -133 159 0
-166 -134 160 0
-166 -135 161 0
-166 -136 162 0
-166 -137 163 0
-166 -138 164 0
-166 -139 165 0
-166 -141 167 0
-166 -143 169 0
167 155 0
-167 -155 0
-167 -144 157 0
-167 -145 158 0
-167 -146 159 0
-167 -147 160 0
-167 -148 161 0
-167 -149 162 0
-167 -150 163 0
-167 -151 164 0
-167 -152 165 0
-167 -153 166 0
-167 -156 169 0
169 181 0
-169 -181 0
-169 -170 157 0
-169 -171 158 0
-169 -172 159 0
-169 -173 160 0
-169 -174 161 0
-169 -175 162 0
-169 -176 163 0
-169 -177 164 0
-169 -178 165 0
-169 -179 166 0
-169 -180 167 0
182 0
170 26 0
-170 -26 0
-170 -4 171 0
-170 -6 172 0
-170 -8 173 0
-170 -10 174 0
-170 -12 175 0
-170 -14 176 0
-170 -16 177 0
-170 -18 178 0
-170 -20 179 0
-170 -22 180 0
-170 -24 181 0
171 39 0
-171 -39 0
-171 -27 170 0
-171 -29 172 0
-171 -30 173 0
-171 -31 174 0
-171 -32 175 0
-171 -33 176 0
-171 -34 177 0
-171 -35 178 0
-171 -36 179 0
-171 -37 180 0
-171 -38 181 0
172 52 0
-172 -52 0
-172 -40 170 0
-172 -41 171 0
-172 -43 173 0
-172 -44 174 0
-172 -45 175 0
-172 -46 176 0
-172 -47 177 0
-172 -48 178 0
-172 -49 179 0
-172 -50 180 0
-172 -51 181 0
173 65 0
-173 -65 0
-173 -53 170 0
-173 -54 171 0
-173 -55 172 0
-173 -57 174 0
-173 -58 175 0
-173 -59 176 0
-173 -60 177 0
-173 -61 178 0
-173 -62 179 0
-173 -63 180 0
-173 -64 181 0
174 78 0
-174 -78 0
-174 -66 170 0
-174 -67 171 0
-174 -68 172 0
-174 -69 173 0
-174 -71 175 0
-174 -72 176 0
-174 -73 177 0
-174 -74 178 0
-174 -75 179 0
-174 -76 180 0
-174 -77 181 0
175 91 0
-175 -91 0
-175 -79 170 0
-175 -80 171 0
-175 -81 172 0
-175 -82 173 0
-175 -83 174 0
-175 -85 176 0
-175 -86 177 0
-175 -87 178 0
-175 -88 179 0
-175 -89 180 0
-175 -90 181 0
176 104 0
-176 -104 0
-176 -92 170 0
-176 -93 171 0
-176 -94 172 0
-176 -95 173 0
-176 -96 174 0
-176 -97 175 0
-176 -99 177 0
-176 -100 178 0
-176 -101 179 0
-176 -102 180 0
-176 -103 181 0
177 117 0
-177 -117 0
-177 -105 170 0
-177 -106 171 0
-177 -107 172 0
-177 -108 173 0
-177 -109 174 0
-177 -110 175 0
-177 -111 176 0
-177 -113 178 0
-177 -114 179 0
-177 -115 180 0
-177 -116 181 0
178 130 0
-178 -130 0
-178 -118 170 0
-178 -119 171 0
-178 -120 172 0
-178 -121 173 0
-178 -122 174 0
-178 -123 175 0
-178 -124 176 0
-178 -125 177 0
-178 -127 179 0
-178 -128 180 0
-178 -129 181 0
179 143 0
-179 -143 0
-179 -131 170 0
-179 -132 171 0
-179 -133 172 0
-179 -134 173 0
-179 -135 174 0
-179 -136 175 0
-179 -137 176 0
-179 -138 177 0
-179 -139 178 0
-179 -141 180 0
-179 -142 181 0
180 156 0
-180 -156 0
-180 -144 170 0
-180 -145 171 0
-180 -146 172 0
-180 -147 173 0
-180 -148 174 0
-180 -149 175 0
-180 -150 176 0
-180 -151 177 0
-180 -152 178 0
-180 -153 179 0
-180 -155 181 0
181 169 0
-181 -169 0
-181 -157 170 0
-181 -158 171 0
-181 -159 172 0
-181 -160 173 0
-181 -161 174 0
-181 -162 175 0
-181 -163 176 0
-181 -164 177 0
-181 -165 178 0
-181 -166 179 0
-181 -167 180 0
