p cnf 210 2758
1 -2 -1 0
3 -4 -1 0
5 -6 -1 0
7 -8 -1 0
9 -10 -1 0
11 -12 -1 0
13 -14 -1 0
15 -16 -1 0
17 -18 -1 0
19 -20 -1 0
21 -22 -1 0
23 -24 -1 0
25 -26 -1 0
27 -28 -1 0
1 -29 -3 0
3 -30 -3 0
5 -31 -3 0
7 -32 -3 0
9 -33 -3 0
11 -34 -3 0
13 -35 -3 0
15 -36 -3 0
17 -37 -3 0
19 -38 -3 0
21 -39 -3 0
23 -40 -3 0
25 -41 -3 0
27 -42 -3 0
1 -43 -5 0
3 -44 -5 0
5 -45 -5 0
7 -46 -5 0
9 -47 -5 0
11 -48 -5 0
13 -49 -5 0
15 -50 -5 0
17 -51 -5 0
19 -52 -5 0
21 -53 -5 0
23 -54 -5 0
25 -55 -5 0
27 -56 -5 0
1 -57 -7 0
3 -58 -7 0
5 -59 -7 0
7 -60 -7 0
9 -61 -7 0
11 -62 -7 0
13 -63 -7 0
15 -64 -7 0
17 -65 -7 0
19 -66 -7 0
21 -67 -7 0
23 -68 -7 0
25 -69 -7 0
27 -70 -7 0
1 -71 -9 0
3 -72 -9 0
5 -73 -9 0
7 -74 -9 0
9 -75 -9 0
11 -76 -9 0
13 -77 -9 0
15 -78 -9 0
17 -79 -9 0
19 -80 -9 0
21 -81 -9 0
23 -82 -9 0
25 -83 -9 0
27 -84 -9 0
1 -85 -11 0
3 -86 -11 0
5 -87 -11 0
7 -88 -11 0
9 -89 -11 0
11 -90 -11 0
13 -91 -11 0
15 -92 -11 0
17 -93 -11 0
19 -94 -11 0
21 -95 -11 0
23 -96 -11 0
25 -97 -11 0
27 -98 -11 0
1 -99 -13 0
3 -100 -13 0
5 -101 -13 0
7 -102 -13 0
9 -103 -13 0
11 -104 -13 0
13 -105 -13 0
15 -106 -13 0
17 -107 -13 0
19 -108 -13 0
21 -109 -13 0
23 -110 -13 0
25 -111 -13 0
27 -112 -13 0
1 -113 -15 0
3 -114 -15 0
5 -115 -15 0
7 -116 -15 0
9 -117 -15 0
11 -118 -15 0
13 -119 -15 0
15 -120 -15 0
17 -121 -15 0
19 -122 -15 0
21 -123 -15 0
23 -124 -15 0
25 -125 -15 0
27 -126 -15 0
1 -127 -17 0
3 -128 -17 0
5 -129 -17 0
7 -130 -17 0
9 -131 -17 0
11 -132 -17 0
13 -133 -17 0
15 -134 -17 0
17 -135 -17 0
19 -136 -17 0
21 -137 -17 0
23 -138 -17 0
25 -139 -17 0
27 -140 -17 0
1 -141 -19 0
3 -142 -19 0
5 -143 -19 0
7 -144 -19 0
9 -145 -19 0
11 -146 -19 0
13 -147 -19 0
15 -148 -19 0
17 -149 -19 0
19 -150 -19 0
21 -151 -19 0
23 -152 -19 0
25 -153 -19 0
27 -154 -19 0
1 -155 -21 0
3 -156 -21 0
5 -157 -21 0
7 -158 -21 0
9 -159 -21 0
11 -160 -21 0
13 -161 -21 0
15 -162 -21 0
17 -163 -21 0
19 -164 -21 0
21 -165 -21 0
23 -166 -21 0
25 -167 -21 0
27 -168 -21 0
1 -169 -23 0
3 -170 -23 0
5 -171 -23 0
7 -172 -23 0
9 -173 -23 0
11 -174 -23 0
13 -175 -23 0
15 -176 -23 0
17 -177 -23 0
19 -178 -23 0
21 -179 -23 0
23 -180 -23 0
25 -181 -23 0
27 -182 -23 0
1 -183 -25 0
3 -184 -25 0
5 -185 -25 0
7 -186 -25 0
9 -187 -25 0
11 -188 -25 0
13 -189 -25 0
15 -190 -25 0
17 -191 -25 0
19 -192 -25 0
21 -193 -25 0
23 -194 -25 0
25 -195 -25 0
27 -196 -25 0
1 -197 -27 0
3 -198 -27 0
5 -199 -27 0
7 -200 -27 0
9 -201 -27 0
11 -202 -27 0
13 -203 -27 0
15 -204 -27 0
17 -205 -27 0
19 -206 -27 0
21 -207 -27 0
23 -208 -27 0
25 -209 -27 0
27 -210 -27 0
2 0
4 29 0
-4 -29 0
-4 -31 6 0
-4 -32 8 0
-4 -33 10 0
-4 -34 12 0
-4 -35 14 0
-4 -36 16 0
-4 -37 18 0
-4 -38 20 0
-4 -39 22 0
-4 -40 24 0
-4 -41 26 0
-4 -42 28 0
6 43 0
-6 -43 0
-6 -44 4 0
-6 -46 8 0
-6 -47 10 0
-6 -48 12 0
-6 -49 14 0
-6 -50 16 0
-6 -51 18 0
-6 -52 20 0
-6 -53 22 0
-6 -54 24 0
-6 -55 26 0
-6 -56 28 0
8 57 0
-8 -57 0
-8 -58 4 0
-8 -59 6 0
-8 -61 10 0
-8 -62 12 0
-8 -63 14 0
-8 -64 16 0
-8 -65 18 0
-8 -66 20 0
-8 -67 22 0
-8 -68 24 0
-8 -69 26 0
-8 -70 28 0
10 71 0
-10 -71 0
-10 -72 4 0
-10 -73 6 0
-10 -74 8 0
-10 -76 12 0
-10 -77 14 0
-10 -78 16 0
-10 -79 18 0
-10 -80 20 0
-10 -81 22 0
-10 -82 24 0
-10 -83 26 0
-10 -84 28 0
12 85 0
-12 -85 0
-12 -86 4 0
-12 -87 6 0
-12 -88 8 0
-12 -89 10 0
-12 -91 14 0
-12 -92 16 0
-12 -93 18 0
-12 -94 20 0
-12 -95 22 0
-12 -96 24 0
-12 -97 26 0
-12 -98 28 0
14 99 0
-14 -99 0
-14 -100 4 0
-14 -101 6 0
-14 -102 8 0
-14 -103 10 0
-14 -104 12 0
-14 -106 16 0
-14 -107 18 0
-14 -108 20 0
-14 -109 22 0
-14 -110 24 0
-14 -111 26 0
-14 -112 28 0
16 113 0
-16 -113 0
-16 -114 4 0
-16 -115 6 0
-16 -116 8 0
-16 -117 10 0
-16 -118 12 0
-16 -119 14 0
-16 -121 18 0
-16 -122 20 0
-16 -123 22 0
-16 -124 24 0
-16 -125 26 0
-16 -126 28 0
18 127 0
-18 -127 0
-18 -128 4 0
-18 -129 6 0
-18 -130 8 0
-18 -131 10 0
-18 -132 12 0
-18 -133 14 0
-18 -134 16 0
-18 -136 20 0
-18 -137 22 0
-18 -138 24 0
-18 -139 26 0
-18 -140 28 0
20 141 0
-20 -141 0
-20 -142 4 0
-20 -143 6 0
-20 -144 8 0
-20 -145 10 0
-20 -146 12 0
-20 -147 14 0
-20 -148 16 0
-20 -149 18 0
-20 -151 22 0
-20 -152 24 0
-20 -153 26 0
-20 -154 28 0
22 155 0
-22 -155 0
-22 -156 4 0
-22 -157 6 0
-22 -158 8 0
-22 -159 10 0
-22 -160 12 0
-22 -161 14 0
-22 -162 16 0
-22 -163 18 0
-22 -164 20 0
-22 -166 24 0
-22 -167 26 0
-22 -168 28 0
24 169 0
-24 -169 0
-24 -170 4 0
-24 -171 6 0
-24 -172 8 0
-24 -173 10 0
-24 -174 12 0
-24 -175 14 0
-24 -176 16 0
-24 -177 18 0
-24 -178 20 0
-24 -179 22 0
-24 -181 26 0
-24 -182 28 0
26 183 0
-26 -183 0
-26 -184 4 0
-26 -185 6 0
-26 -186 8 0
-26 -187 10 0
-26 -188 12 0
-26 -189 14 0
-26 -190 16 0
-26 -191 18 0
-26 -192 20 0
-26 -193 22 0
-26 -194 24 0
-26 -196 28 0
28 197 0
-28 -197 0
-28 -198 4 0
-28 -199 6 0
-28 -200 8 0
-28 -201 10 0
-28 -202 12 0
-28 -203 14 0
-28 -204 16 0
-28 -205 18 0
-28 -206 20 0
-28 -207 22 0
-28 -208 24 0
-28 -209 26 0
30 0
29 4 0
-29 -4 0
-29 -6 31 0
-29 -8 32 0
-29 -10 33 0
-29 -12 34 0
-29 -14 35 0
-29 -16 36 0
-29 -18 37 0
-29 -20 38 0
-29 -22 39 0
-29 -24 40 0
-29 -26 41 0
-29 -28 42 0
31 44 0
-31 -44 0
-31 -43 29 0
-31 -46 32 0
-31 -47 33 0
-31 -48 34 0
-31 -49 35 0
-31 -50 36 0
-31 -51 37 0
-31 -52 38 0
-31 -53 39 0
-31 -54 40 0
-31 -55 41 0
-31 -56 42 0
32 58 0
-32 -58 0
-32 -57 29 0
-32 -59 31 0
-32 -61 33 0
-32 -62 34 0
-32 -63 35 0
-32 -64 36 0
-32 -65 37 0
-32 -66 38 0
-32 -67 39 0
-32 -68 40 0
-32 -69 41 0
-32 -70 42 0
33 72 0
-33 -72 0
-33 -71 29 0
-33 -73 31 0
-33 -74 32 0
-33 -76 34 0
-33 -77 35 0
-33 -78 36 0
-33 -79 37 0
-33 -80 38 0
-33 -81 39 0
-33 -82 40 0
-33 -83 41 0
-33 -84 42 0
34 86 0
-34 -86 0
-34 -85 29 0
-34 -87 31 0
-34 -88 32 0
-34 -89 33 0
-34 -91 35 0
-34 -92 36 0
-34 -93 37 0
-34 -94 38 0
-34 -95 39 0
-34 -96 40 0
-34 -97 41 0
-34 -98 42 0
35 100 0
-35 -100 0
-35 -99 29 0
-35 -101 31 0
-35 -102 32 0
-35 -103 33 0
-35 -104 34 0
-35 -106 36 0
-35 -107 37 0
-35 -108 38 0
-35 -109 39 0
-35 -110 40 0
-35 -111 41 0
-35 -112 42 0
36 114 0
-36 -114 0
-36 -113 29 0
-36 -115 31 0
-36 -116 32 0
-36 -117 33 0
-36 -118 34 0
-36 -119 35 0
-36 -121 37 0
-36 -122 38 0
-36 -123 39 0
-36 -124 40 0
-36 -125 41 0
-36 -126 42 0
37 128 0
-37 -128 0
-37 -127 29 0
-37 -129 31 0
-37 -130 32 0
-37 -131 33 0
-37 -132 34 0
-37 -133 35 0
-37 -134 36 0
-37 -136 38 0
-37 -137 39 0
-37 -138 40 0
-37 -139 41 0
-37 -140 42 0
38 142 0
-38 -142 0
-38 -141 29 0
-38 -143 31 0
-38 -144 32 0
-38 -145 33 0
-38 -146 34 0
-38 -147 35 0
-38 -148 36 0
-38 -149 37 0
-38 -151 39 0
-38 -152 40 0
-38 -153 41 0
-38 -154 42 0
39 156 0
-39 -156 0
-39 -155 29 0
-39 -157 31 0
-39 -158 32 0
-39 -159 33 0
-39 -160 34 0
-39 -161 35 0
-39 -162 36 0
-39 -163 37 0
-39 -164 38 0
-39 -166 40 0
-39 -167 41 0
-39 -168 42 0
40 170 0
-40 -170 0
-40 -169 29 0
-40 -171 31 0
-40 -172 32 0
-40 -173 33 0
-40 -174 34 0
-40 -175 35 0
-40 -176 36 0
-40 -177 37 0
-40 -178 38 0
-40 -179 39 0
-40 -181 41 0
-40 -182 42 0
41 184 0
-41 -184 0
-41 -183 29 0
-41 -185 31 0
-41 -186 32 0
-41 -187 33 0
-41 -188 34 0
-41 -189 35 0
-41 -190 36 0
-41 -191 37 0
-41 -192 38 0
-41 -193 39 0
-41 -194 40 0
-41 -196 42 0
42 198 0
-42 -198 0
-42 -197 29 0
-42 -199 31 0
-42 -200 32 0
-42 -201 33 0
-42 -202 34 0
-42 -203 35 0
-42 -204 36 0
-42 -205 37 0
-42 -206 38 0
-42 -207 39 0
-42 -208 40 0
-42 -209 41 0
45 0
43 6 0
-43 -6 0
-43 -4 44 0
-43 -8 46 0
-43 -10 47 0
-43 -12 48 0
-43 -14 49 0
-43 -16 50 0
-43 -18 51 0
-43 -20 52 0
-43 -22 53 0
-43 -24 54 0
-43 -26 55 0
-43 -28 56 0
44 31 0
-44 -31 0
-44 -29 43 0
-44 -32 46 0
-44 -33 47 0
-44 -34 48 0
-44 -35 49 0
-44 -36 50 0
-44 -37 51 0
-44 -38 52 0
-44 -39 53 0
-44 -40 54 0
-44 -41 55 0
-44 -42 56 0
46 59 0
-46 -59 0
-46 -57 43 0
-46 -58 44 0
-46 -61 47 0
-46 -62 48 0
-46 -63 49 0
-46 -64 50 0
-46 -65 51 0
-46 -66 52 0
-46 -67 53 0
-46 -68 54 0
-46 -69 55 0
-46 -70 56 0
47 73 0
-47 -73 0
-47 -71 43 0
-47 -72 44 0
-47 -74 46 0
-47 -76 48 0
-47 -77 49 0
-47 -78 50 0
-47 -79 51 0
-47 -80 52 0
-47 -81 53 0
-47 -82 54 0
-47 -83 55 0
-47 -84 56 0
48 87 0
-48 -87 0
-48 -85 43 0
-48 -86 44 0
-48 -88 46 0
-48 -89 47 0
-48 -91 49 0
-48 -92 50 0
-48 -93 51 0
-48 -94 52 0
-48 -95 53 0
-48 -96 54 0
-48 -97 55 0
-48 -98 56 0
49 101 0
-49 -101 0
-49 -99 43 0
-49 -100 44 0
-49 -102 46 0
-49 -103 47 0
-49 -104 48 0
-49 -106 50 0
-49 -107 51 0
-49 -108 52 0
-49 -109 53 0
-49 -110 54 0
-49 -111 55 0
-49 -112 56 0
50 115 0
-50 -115 0
-50 -113 43 0
-50 -114 44 0
-50 -116 46 0
-50 -117 47 0
-50 -118 48 0
-50 -119 49 0
-50 -121 51 0
-50 -122 52 0
-50 -123 53 0
-50 -124 54 0
-50 -125 55 0
-50 -126 56 0
51 129 0
-51 -129 0
-51 -127 43 0
-51 -128 44 0
-51 -130 46 0
-51 -131 47 0
-51 -132 48 0
-51 -133 49 0
-51 -134 50 0
-51 -136 52 0
-51 -137 53 0
-51 -138 54 0
-51 -139 55 0
-51 -140 56 0
52 143 0
-52 -143 0
-52 -141 43 0
-52 -142 44 0
-52 -144 46 0
-52 -145 47 0
-52 -146 48 0
-52 -147 49 0
-52 -148 50 0
-52 -149 51 0
-52 -151 53 0
-52 -152 54 0
-52 -153 55 0
-52 -154 56 0
53 157 0
-53 -157 0
-53 -155 43 0
-53 -156 44 0
-53 -158 46 0
-53 -159 47 0
-53 -160 48 0
-53 -161 49 0
-53 -162 50 0
-53 -163 51 0
-53 -164 52 0
-53 -166 54 0
-53 -167 55 0
-53 -168 56 0
54 171 0
-54 -171 0
-54 -169 43 0
-54 -170 44 0
-54 -172 46 0
-54 -173 47 0
-54 -174 48 0
-54 -175 49 0
-54 -176 50 0
-54 -177 51 0
-54 -178 52 0
-54 -179 53 0
-54 -181 55 0
-54 -182 56 0
55 185 0
-55 -185 0
-55 -183 43 0
-55 -184 44 0
-55 -186 46 0
-55 -187 47 0
-55 -188 48 0
-55 -189 49 0
-55 -190 50 0
-55 -191 51 0
-55 -192 52 0
-55 -193 53 0
-55 -194 54 0
-55 -196 56 0
56 199 0
-56 -199 0
-56 -197 43 0
-56 -198 44 0
-56 -200 46 0
-56 -201 47 0
-56 -202 48 0
-56 -203 49 0
-56 -204 50 0
-56 -205 51 0
-56 -206 52 0
-56 -207 53 0
-56 -208 54 0
-56 -209 55 0
60 0
57 8 0
-57 -8 0
-57 -4 58 0
-57 -6 59 0
-57 -10 61 0
-57 -12 62 0
-57 -14 63 0
-57 -16 64 0
-57 -18 65 0
-57 -20 66 0
-57 -22 67 0
-57 -24 68 0
-57 -26 69 0
-57 -28 70 0
58 32 0
-58 -32 0
-58 -29 57 0
-58 -31 59 0
-58 -33 61 0
-58 -34 62 0
-58 -35 63 0
-58 -36 64 0
-58 -37 65 0
-58 -38 66 0
-58 -39 67 0
-58 -40 68 0
-58 -41 69 0
-58 -42 70 0
59 46 0
-59 -46 0
-59 -43 57 0
-59 -44 58 0
-59 -47 61 0
-59 -48 62 0
-59 -49 63 0
-59 -50 64 0
-59 -51 65 0
-59 -52 66 0
-59 -53 67 0
-59 -54 68 0
-59 -55 69 0
-59 -56 70 0
61 74 0
-61 -74 0
-61 -71 57 0
-61 -72 58 0
-61 -73 59 0
-61 -76 62 0
-61 -77 63 0
-61 -78 64 0
-61 -79 65 0
-61 -80 66 0
-61 -81 67 0
-61 -82 68 0
-61 -83 69 0
-61 -84 70 0
62 88 0
-62 -88 0
-62 -85 57 0
-62 -86 58 0
-62 -87 59 0
-62 -89 61 0
-62 -91 63 0
-62 -92 64 0
-62 -93 65 0
-62 -94 66 0
-62 -95 67 0
-62 -96 68 0
-62 -97 69 0
-62 -98 70 0
63 102 0
-63 -102 0
-63 -99 57 0
-63 -100 58 0
-63 -101 59 0
-63 -103 61 0
-63 -104 62 0
-63 -106 64 0
-63 -107 65 0
-63 -108 66 0
-63 -109 67 0
-63 -110 68 0
-63 -111 69 0
-63 -112 70 0
64 116 0
-64 -116 0
-64 -113 57 0
-64 -114 58 0
-64 -115 59 0
-64 -117 61 0
-64 -118 62 0
-64 -119 63 0
-64 -121 65 0
-64 -122 66 0
-64 -123 67 0
-64 -124 68 0
-64 -125 69 0
-64 -126 70 0
65 130 0
-65 -130 0
-65 -127 57 0
-65 -128 58 0
-65 -129 59 0
-65 -131 61 0
-65 -132 62 0
-65 -133 63 0
-65 -134 64 0
-65 -136 66 0
-65 -137 67 0
-65 -138 68 0
-65 -139 69 0
-65 -140 70 0
66 144 0
-66 -144 0
-66 -141 57 0
-66 -142 58 0
-66 -143 59 0
-66 -145 61 0
-66 -146 62 0
-66 -147 63 0
-66 -148 64 0
-66 -149 65 0
-66 -151 67 0
-66 -152 68 0
-66 -153 69 0
-66 -154 70 0
67 158 0
-67 -158 0
-67 -155 57 0
-67 -156 58 0
-67 -157 59 0
-67 -159 61 0
-67 -160 62 0
-67 -161 63 0
-67 -162 64 0
-67 -163 65 0
-67 -164 66 0
-67 -166 68 0
-67 -167 69 0
-67 -168 70 0
68 172 0
-68 -172 0
-68 -169 57 0
-68 -170 58 0
-68 -171 59 0
-68 -173 61 0
-68 -174 62 0
-68 -175 63 0
-68 -176 64 0
-68 -177 65 0
-68 -178 66 0
-68 -179 67 0
-68 -181 69 0
-68 -182 70 0
69 186 0
-69 -186 0
-69 -183 57 0
-69 -184 58 0
-69 -185 59 0
-69 -187 61 0
-69 -188 62 0
-69 -189 63 0
-69 -190 64 0
-69 -191 65 0
-69 -192 66 0
-69 -193 67 0
-69 -194 68 0
-69 -196 70 0
70 200 0
-70 -200 0
-70 -197 57 0
-70 -198 58 0
-70 -199 59 0
-70 -201 61 0
-70 -202 62 0
-70 -203 63 0
-70 -204 64 0
-70 -205 65 0
-70 -206 66 0
-70 -207 67 0
-70 -208 68 0
-70 -209 69 0
75 0
71 10 0
-71 -10 0
-71 -4 72 0
-71 -6 73 0
-71 -8 74 0
-71 -12 76 0
-71 -14 77 0
-71 -16 78 0
-71 -18 79 0
-71 -20 80 0
-71 -22 81 0
-71 -24 82 0
-71 -26 83 0
-71 -28 84 0
72 33 0
-72 -33 0
-72 -29 71 0
-72 -31 73 0
-72 -32 74 0
-72 -34 76 0
-72 -35 77 0
-72 -36 78 0
-72 -37 79 0
-72 -38 80 0
-72 -39 81 0
-72 -40 82 0
-72 -41 83 0
-72 -42 84 0
73 47 0
-73 -47 0
-73 -43 71 0
-73 -44 72 0
-73 -46 74 0
-73 -48 76 0
-73 -49 77 0
-73 -50 78 0
-73 -51 79 0
-73 -52 80 0
-73 -53 81 0
-73 -54 82 0
-73 -55 83 0
-73 -56 84 0
74 61 0
-74 -61 0
-74 -57 71 0
-74 -58 72 0
-74 -59 73 0
-74 -62 76 0
-74 -63 77 0
-74 -64 78 0
-74 -65 79 0
-74 -66 80 0
-74 -67 81 0
-74 -68 82 0
-74 -69 83 0
-74 -70 84 0
76 89 0
-76 -89 0
-76 -85 71 0
-76 -86 72 0
-76 -87 73 0
-76 -88 74 0
-76 -91 77 0
-76 -92 78 0
-76 -93 79 0
-76 -94 80 0
-76 -95 81 0
-76 -96 82 0
-76 -97 83 0
-76 -98 84 0
77 103 0
-77 -103 0
-77 -99 71 0
-77 -100 72 0
-77 -101 73 0
-77 -102 74 0
-77 -104 76 0
-77 -106 78 0
-77 -107 79 0
-77 -108 80 0
-77 -109 81 0
-77 -110 82 0
-77 -111 83 0
-77 -112 84 0
78 117 0
-78 -117 0
-78 -113 71 0
-78 -114 72 0
-78 -115 73 0
-78 -116 74 0
-78 -118 76 0
-78 -119 77 0
-78 -121 79 0
-78 -122 80 0
-78 -123 81 0
-78 -124 82 0
-78 -125 83 0
-78 -126 84 0
79 131 0
-79 -131 0
-79 -127 71 0
-79 -128 72 0
-79 -129 73 0
-79 -130 74 0
-79 -132 76 0
-79 -133 77 0
-79 -134 78 0
-79 -136 80 0
-79 -137 81 0
-79 -138 82 0
-79 -139 83 0
-79 -140 84 0
80 145 0
-80 -145 0
-80 -141 71 0
-80 -142 72 0
-80 -143 73 0
-80 -144 74 0
-80 -146 76 0
-80 -147 77 0
-80 -148 78 0
-80 -149 79 0
-80 -151 81 0
-80 -152 82 0
-80 -153 83 0
-80 -154 84 0
81 159 0
-81 -159 0
-81 -155 71 0
-81 -156 72 0
-81 -157 73 0
-81 -158 74 0
-81 -160 76 0
-81 -161 77 0
-81 -162 78 0
-81 -163 79 0
-81 -164 80 0
-81 -166 82 0
-81 -167 83 0
-81 -168 84 0
82 173 0
-82 -173 0
-82 -169 71 0
-82 -170 72 0
-82 -171 73 0
-82 -172 74 0
-82 -174 76 0
-82 -175 77 0
-82 -176 78 0
-82 -177 79 0
-82 -178 80 0
-82 -179 81 0
-82 -181 83 0
-82 -182 84 0
83 187 0
-83 -187 0
-83 -183 71 0
-83 -184 72 0
-83 -185 73 0
-83 -186 74 0
-83 -188 76 0
-83 -189 77 0
-83 -190 78 0
-83 -191 79 0
-83 -192 80 0
-83 -193 81 0
-83 -194 82 0
-83 -196 84 0
84 201 0
-84 -201 0
-84 -197 71 0
-84 -198 72 0
-84 -199 73 0
-84 -200 74 0
-84 -202 76 0
-84 -203 77 0
-84 -204 78 0
-84 -205 79 0
-84 -206 80 0
-84 -207 81 0
-84 -208 82 0
-84 -209 83 0
90 0
85 12 0
-85 -12 0
-85 -4 86 0
-85 -6 87 0
-85 -8 88 0
-85 -10 89 0
-85 -14 91 0
-85 -16 92 0
-85 -18 93 0
-85 -20 94 0
-85 -22 95 0
-85 -24 96 0
-85 -26 97 0
-85 -28 98 0
86 34 0
-86 -34 0
-86 -29 85 0
-86 -31 87 0
-86 -32 88 0
-86 -33 89 0
-86 -35 91 0
-86 -36 92 0
-86 -37 93 0
-86 -38 94 0
-86 -39 95 0
-86 -40 96 0
-86 -41 97 0
-86 -42 98 0
87 48 0
-87 -48 0
-87 -43 85 0
-87 -44 86 0
-87 -46 88 0
-87 -47 89 0
-87 -49 91 0
-87 -50 92 0
-87 -51 93 0
-87 -52 94 0
-87 -53 95 0
-87 -54 96 0
-87 -55 97 0
-87 -56 98 0
88 62 0
-88 -62 0
-88 -57 85 0
-88 -58 86 0
-88 -59 87 0
-88 -61 89 0
-88 -63 91 0
-88 -64 92 0
-88 -65 93 0
-88 -66 94 0
-88 -67 95 0
-88 -68 96 0
-88 -69 97 0
-88 -70 98 0
89 76 0
-89 -76 0
-89 -71 85 0
-89 -72 86 0
-89 -73 87 0
-89 -74 88 0
-89 -77 91 0
-89 -78 92 0
-89 -79 93 0
-89 -80 94 0
-89 -81 95 0
-89 -82 96 0
-89 -83 97 0
-89 -84 98 0
91 104 0
-91 -104 0
-91 -99 85 0
-91 -100 86 0
-91 -101 87 0
-91 -102 88 0
-91 -103 89 0
-91 -106 92 0
-91 -107 93 0
-91 -108 94 0
-91 -109 95 0
-91 -110 96 0
-91 -111 97 0
-91 -112 98 0
92 118 0
-92 -118 0
-92 -113 85 0
-92 -114 86 0
-92 -115 87 0
-92 -116 88 0
-92 -117 89 0
-92 -119 91 0
-92 -121 93 0
-92 -122 94 0
-92 -123 95 0
-92 -124 96 0
-92 -125 97 0
-92 -126 98 0
93 132 0
-93 -132 0
-93 -127 85 0
-93 -128 86 0
-93 -129 87 0
-93 -130 88 0
-93 -131 89 0
-93 -133 91 0
-93 -134 92 0
-93 -136 94 0
-93 -137 95 0
-93 -138 96 0
-93 -139 97 0
-93 -140 98 0
94 146 0
-94 -146 0
-94 -141 85 0
-94 -142 86 0
-94 -143 87 0
-94 -144 88 0
-94 -145 89 0
-94 -147 91 0
-94 -148 92 0
-94 -149 93 0
-94 -151 95 0
-94 -152 96 0
-94 -153 97 0
-94 -154 98 0
95 160 0
-95 -160 0
-95 -155 85 0
-95 -156 86 0
-95 -157 87 0
-95 -158 88 0
-95 -159 89 0
-95 -161 91 0
-95 -162 92 0
-95 -163 93 0
-95 -164 94 0
-95 -166 96 0
-95 -167 97 0
-95 -168 98 0
96 174 0
-96 -174 0
-96 -169 85 0
-96 -170 86 0
-96 -171 87 0
-96 -172 88 0
-96 -173 89 0
-96 -175 91 0
-96 -176 92 0
-96 -177 93 0
-96 -178 94 0
-96 -179 95 0
-96 -181 97 0
-96 -182 98 0
97 188 0
-97 -188 0
-97 -183 85 0
-97 -184 86 0
-97 -185 87 0
-97 -186 88 0
-97 -187 89 0
-97 -189 91 0
-97 -190 92 0
-97 -191 93 0
-97 -192 94 0
-97 -193 95 0
-97 -194 96 0
-97 -196 98 0
98 202 0
-98 -202 0
-98 -197 85 0
-98 -198 86 0
-98 -199 87 0
-98 -200 88 0
-98 -201 89 0
-98 -203 91 0
-98 -204 92 0
-98 -205 93 0
-98 -206 94 0
-98 -207 95 0
-98 -208 96 0
-98 -209 97 0
105 0
99 14 0
-99 -14 0
-99 -4 100 0
-99 -6 101 0
-99 -8 102 0
-99 -10 103 0
-99 -12 104 0
-99 -16 106 0
-99 -18 107 0
-99 -20 108 0
-99 -22 109 0
-99 -24 110 0
-99 -26 111 0
-99 -28 112 0
100 35 0
-100 -35 0
-100 -29 99 0
-100 -31 101 0
-100 -32 102 0
-100 -33 103 0
-100 -34 104 0
-100 -36 106 0
-100 -37 107 0
-100 -38 108 0
-100 -39 109 0
-100 -40 110 0
-100 -41 111 0
-100 -42 112 0
101 49 0
-101 -49 0
-101 -43 99 0
-101 -44 100 0
-101 -46 102 0
-101 -47 103 0
-101 -48 104 0
-101 -50 106 0
-101 -51 107 0
-101 -52 108 0
-101 -53 109 0
-101 -54 110 0
-101 -55 111 0
-101 -56 112 0
102 63 0
-102 -63 0
-102 -57 99 0
-102 -58 100 0
-102 -59 101 0
-102 -61 103 0
-102 -62 104 0
-102 -64 106 0
-102 -65 107 0
-102 -66 108 0
-102 -67 109 0
-102 -68 110 0
-102 -69 111 0
-102 -70 112 0
103 77 0
-103 -77 0
-103 -71 99 0
-103 -72 100 0
-103 -73 101 0
-103 -74 102 0
-103 -76 104 0
-103 -78 106 0
-103 -79 107 0
-103 -80 108 0
-103 -81 109 0
-103 -82 110 0
-103 -83 111 0
-103 -84 112 0
104 91 0
-104 -91 0
-104 -85 99 0
-104 -86 100 0
-104 -87 101 0
-104 -88 102 0
-104 -89 103 0
-104 -92 106 0
-104 -93 107 0
-104 -94 108 0
-104 -95 109 0
-104 -96 110 0
-104 -97 111 0
-104 -98 112 0
106 119 0
-106 -119 0
-106 -113 99 0
-106 -114 100 0
-106 -115 101 0
-106 -116 102 0
-106 -117 103 0
-106 -118 104 0
-106 -121 107 0
-106 -122 108 0
-106 -123 109 0
-106 -124 110 0
-106 -125 111 0
-106 -126 112 0
107 133 0
-107 -133 0
-107 -127 99 0
-107 -128 100 0
-107 -129 101 0
-107 -130 102 0
-107 -131 103 0
-107 -132 104 0
-107 -134 106 0
-107 -136 108 0
-107 -137 109 0
-107 -138 110 0
-107 -139 111 0
-107 -140 112 0
108 147 0
-108 -147 0
-108 -141 99 0
-108 -142 100 0
-108 -143 101 0
-108 -144 102 0
-108 -145 103 0
-108 -146 104 0
-108 -148 106 0
-108 -149 107 0
-108 -151 109 0
-108 -152 110 0
-108 -153 111 0
-108 -154 112 0
109 161 0
-109 -161 0
-109 -155 99 0
-109 -156 100 0
-109 -157 101 0
-109 -158 102 0
-109 -159 103 0
-109 -160 104 0
-109 -162 106 0
-109 -163 107 0
-109 -164 108 0
-109 -166 110 0
-109 -167 111 0
-109 -168 112 0
110 175 0
-110 -175 0
-110 -169 99 0
-110 -170 100 0
-110 -171 101 0
-110 -172 102 0
-110 -173 103 0
-110 -174 104 0
-110 -176 106 0
-110 -177 107 0
-110 -178 108 0
-110 -179 109 0
-110 -181 111 0
-110 -182 112 0
111 189 0
-111 -189 0
-111 -183 99 0
-111 -184 100 0
-111 -185 101 0
-111 -186 102 0
-111 -187 103 0
-111 -188 104 0
-111 -190 106 0
-111 -191 107 0
-111 -192 108 0
-111 -193 109 0
-111 -194 110 0
-111 -196 112 0
112 203 0
-112 -203 0
-112 -197 99 0
-112 -198 100 0
-112 -199 101 0
-112 -200 102 0
-112 -201 103 0
-112 -202 104 0
-112 -204 106 0
-112 -205 107 0
-112 -206 108 0
-112 -207 109 0
-112 -208 110 0
-112 -209 111 0
120 0
113 16 0
-113 -16 0
-113 -4 114 0
-113 -6 115 0
-113 -8 116 0
-113 -10 117 0
-113 -12 118 0
-113 -14 119 0
-113 -18 121 0
-113 -20 122 0
-113 -22 123 0
-113 -24 124 0
-113 -26 125 0
-113 -28 126 0
114 36 0
-114 -36 0
-114 -29 113 0
-114 -31 115 0
-114 -32 116 0
-114 -33 117 0
-114 -34 118 0
-114 -35 119 0
-114 -37 121 0
-114 -38 122 0
-114 -39 123 0
-114 -40 124 0
-114 -41 125 0
-114 -42 126 0
115 50 0
-115 -50 0
-115 -43 113 0
-115 -44 114 0
-115 -46 116 0
-115 -47 117 0
-115 -48 118 0
-115 -49 119 0
-115 -51 121 0
-115 -52 122 0
-115 -53 123 0
-115 -54 124 0
-115 -55 125 0
-115 -56 126 0
116 64 0
-116 -64 0
-116 -57 113 0
-116 -58 114 0
-116 -59 115 0
-116 -61 117 0
-116 -62 118 0
-116 -63 119 0
-116 -65 121 0
-116 -66 122 0
-116 -67 123 0
-116 -68 124 0
-116 -69 125 0
-116 -70 126 0
117 78 0
-117 -78 0
-117 -71 113 0
-117 -72 114 0
-117 -73 115 0
-117 -74 116 0
-117 -76 118 0
-117 -77 119 0
-117 -79 121 0
-117 -80 122 0
-117 -81 123 0
-117 -82 124 0
-117 -83 125 0
-117 -84 126 0
118 92 0
-118 -92 0
-118 -85 113 0
-118 -86 114 0
-118 -87 115 0
-118 -88 116 0
-118 -89 117 0
-118 -91 119 0
-118 -93 121 0
-118 -94 122 0
-118 -95 123 0
-118 -96 124 0
-118 -97 125 0
-118 -98 126 0
119 106 0
-119 -106 0
-119 -99 113 0
-119 -100 114 0
-119 -101 115 0
-119 -102 116 0
-119 -103 117 0
-119 -104 118 0
-119 -107 121 0
-119 -108 122 0
-119 -109 123 0
-119 -110 124 0
-119 -111 125 0
-119 -112 126 0
121 134 0
-121 -134 0
-121 -127 113 0
-121 -128 114 0
-121 -129 115 0
-121 -130 116 0
-121 -131 117 0
-121 -132 118 0
-121 -133 119 0
-121 -136 122 0
-121 -137 123 0
-121 -138 124 0
-121 -139 125 0
-121 -140 126 0
122 148 0
-122 -148 0
-122 -141 113 0
-122 -142 114 0
-122 -143 115 0
-122 -144 116 0
-122 -145 117 0
-122 -146 118 0
-122 -147 119 0
-122 -149 121 0
-122 -151 123 0
-122 -152 124 0
-122 -153 125 0
-122 -154 126 0
123 162 0
-123 -162 0
-123 -155 113 0
-123 -156 114 0
-123 -157 115 0
-123 -158 116 0
-123 -159 117 0
-123 -160 118 0
-123 -161 119 0
-123 -163 121 0
-123 -164 122 0
-123 -166 124 0
-123 -167 125 0
-123 -168 126 0
124 176 0
-124 -176 0
-124 -169 113 0
-124 -170 114 0
-124 -171 115 0
-124 -172 116 0
-124 -173 117 0
-124 -174 118 0
-124 -175 119 0
-124 -177 121 0
-124 -178 122 0
-124 -179 123 0
-124 -181 125 0
-124 -182 126 0
125 190 0
-125 -190 0
-125 -183 113 0
-125 -184 114 0
-125 -185 115 0
-125 -186 116 0
-125 -187 117 0
-125 -188 118 0
-125 -189 119 0
-125 -191 121 0
-125 -192 122 0
-125 -193 123 0
-125 -194 124 0
-125 -196 126 0
126 204 0
-126 -204 0
-126 -197 113 0
-126 -198 114 0
-126 -199 115 0
-126 -200 116 0
-126 -201 117 0
-126 -202 118 0
-126 -203 119 0
-126 -205 121 0
-126 -206 122 0
-126 -207 123 0
-126 -208 124 0
-126 -209 125 0
135 0
127 18 0
-127 -18 0
-127 -4 128 0
-127 -6 129 0
-127 -8 130 0
-127 -10 131 0
-127 -12 132 0
-127 -14 133 0
-127 -16 134 0
-127 -20 136 0
-127 -22 137 0
-127 -24 138 0
-127 -26 139 0
-127 -28 140 0
128 37 0
-128 -37 0
-128 -29 127 0
-128 -31 129 0
-128 -32 130 0
-128 -33 131 0
-128 -34 132 0
-128 -35 133 0
-128 -36 134 0
-128 -38 136 0
-128 -39 137 0
-128 -40 138 0
-128 -41 139 0
-128 -42 140 0
129 51 0
-129 -51 0
-129 -43 127 0
-129 -44 128 0
-129 -46 130 0
-129 -47 131 0
-129 -48 132 0
-129 -49 133 0
-129 -50 134 0
-129 -52 136 0
-129 -53 137 0
-129 -54 138 0
-129 -55 139 0
-129 -56 140 0
130 65 0
-130 -65 0
-130 -57 127 0
-130 -58 128 0
-130 -59 129 0
-130 -61 131 0
-130 -62 132 0
-130 -63 133 0
-130 -64 134 0
-130 -66 136 0
-130 -67 137 0
-130 -68 138 0
-130 -69 139 0
-130 -70 140 0
131 79 0
-131 -79 0
-131 -71 127 0
-131 -72 128 0
-131 -73 129 0
-131 -74 130 0
-131 -76 132 0
-131 -77 133 0
-131 -78 134 0
-131 -80 136 0
-131 -81 137 0
-131 -82 138 0
-131 -83 139 0
-131 -84 140 0
132 93 0
-132 -93 0
-132 -85 127 0
-132 -86 128 0
-132 -87 129 0
-132 -88 130 0
-132 -89 131 0
-132 -91 133 0
-132 -92 134 0
-132 -94 136 0
-132 -95 137 0
-132 -96 138 0
-132 -97 139 0
-132 -98 140 0
133 107 0
-133 -107 0
-133 -99 127 0
-133 -100 128 0
-133 -101 129 0
-133 -102 130 0
-133 -103 131 0
-133 -104 132 0
-133 -106 134 0
-133 -108 136 0
-133 -109 137 0
-133 -110 138 0
-133 -111 139 0
-133 -112 140 0
134 121 0
-134 -121 0
-134 -113 127 0
-134 -114 128 0
-134 -115 129 0
-134 -116 130 0
-134 -117 131 0
-134 -118 132 0
-134 -119 133 0
-134 -122 136 0
-134 -123 137 0
-134 -124 138 0
-134 -125 139 0
-134 -126 140 0
136 149 0
-136 -149 0
-136 -141 127 0
-136 -142 128 0
-136 -143 129 0
-136 -144 130 0
-136 -145 131 0
-136 -146 132 0
-136 -147 133 0
-136 -148 134 0
-136 -151 137 0
-136 -152 138 0
-136 -153 139 0
-136 -154 140 0
137 163 0
-137 -163 0
-137 -155 127 0
-137 -156 128 0
-137 -157 129 0
-137 -158 130 0
-137 -159 131 0
-137 -160 132 0
-137 -161 133 0
-137 -162 134 0
-137 -164 136 0
-137 -166 138 0
-137 -167 139 0
-137 -168 140 0
138 177 0
-138 -177 0
-138 -169 127 0
-138 -170 128 0
-138 -171 129 0
-138 -172 130 0
-138 -173 131 0
-138 -174 132 0
-138 -175 133 0
-138 -176 134 0
-138 -178 136 0
-138 -179 137 0
-138 -181 139 0
-138 -182 140 0
139 191 0
-139 -191 0
-139 -183 127 0
-139 -184 128 0
-139 -185 129 0
-139 -186 130 0
-139 -187 131 0
-139 -188 132 0
-139 -189 133 0
-139 -190 134 0
-139 -192 136 0
-139 -193 137 0
-139 -194 138 0
-139 -196 140 0
140 205 0
-140 -205 0
-140 -197 127 0
-140 -198 128 0
-140 -199 129 0
-140 -200 130 0
-140 -201 131 0
-140 -202 132 0
-140 -203 133 0
-140 -204 134 0
-140 -206 136 0
-140 -207 137 0
-140 -208 138 0
-140 -209 139 0
150 0
141 20 0
-141 -20 0
-141 -4 142 0
-141 -6 143 0
-141 -8 144 0
-141 -10 145 0
-141 -12 146 0
-141 -14 147 0
-141 -16 148 0
-141 -18 149 0
-141 -22 151 0
-141 -24 152 0
-141 -26 153 0
-141 -28 154 0
142 38 0
-142 -38 0
-142 -29 141 0
-142 -31 143 0
-142 -32 144 0
-142 -33 145 0
-142 -34 146 0
-142 -35 147 0
-142 -36 148 0
-142 -37 149 0
-142 -39 151 0
-142 -40 152 0
-142 -41 153 0
-142 -42 154 0
143 52 0
-143 -52 0
-143 -43 141 0
-143 -44 142 0
-143 -46 144 0
-143 -47 145 0
-143 -48 146 0
-143 -49 147 0
-143 -50 148 0
-143 -51 149 0
-143 -53 151 0
-143 -54 152 0
-143 -55 153 0
-143 -56 154 0
144 66 0
-144 -66 0
-144 -57 141 0
-144 -58 142 0
-144 -59 143 0
-144 -61 145 0
-144 -62 146 0
-144 -63 147 0
-144 -64 148 0
-144 -65 149 0
-144 -67 151 0
-144 -68 152 0
-144 -69 153 0
-144 -70 154 0
145 80 0
-145 -80 0
-145 -71 141 0
-145 -72 142 0
-145 -73 143 0
-145 -74 144 0
-145 -76 146 0
-145 -77 147 0
-145 -78 148 0
-145 -79 149 0
-145 -81 151 0
-145 -82 152 0
-145 -83 153 0
-145 -84 154 0
146 94 0
-146 -94 0
-146 -85 141 0
-146 -86 142 0
-146 -87 143 0
-146 -88 144 0
-146 -89 145 0
-146 -91 147 0
-146 -92 148 0
-146 -93 149 0
-146 -95 151 0
-146 -96 152 0
-146 -97 153 0
-146 -98 154 0
147 108 0
-147 -108 0
-147 -99 141 0
-147 -100 142 0
-147 -101 143 0
-147 -102 144 0
-147 -103 145 0
-147 -104 146 0
-147 -106 148 0
-147 -107 149 0
-147 -109 151 0
-147 -110 152 0
-147 -111 153 0
-147 -112 154 0
148 122 0
-148 -122 0
-148 -113 141 0
-148 -114 142 0
-148 -115 143 0
-148 -116 144 0
-148 -117 145 0
-148 -118 146 0
-148 -119 147 0
-148 -121 149 0
-148 -123 151 0
-148 -124 152 0
-148 -125 153 0
-148 -126 154 0
149 136 0
-149 -136 0
-149 -127 141 0
-149 -128 142 0
-149 -129 143 0
-149 -130 144 0
-149 -131 145 0
-149 -132 146 0
-149 -133 147 0
-149 -134 148 0
-149 -137 151 0
-149 -138 152 0
-149 -139 153 0
-149 -140 154 0
151 164 0
-151 -164 0
-151 -155 141 0
-151 -156 142 0
-151 -157 143 0
-151 -158 144 0
-151 -159 145 0
-151 -160 146 0
-151 -161 147 0
-151 -162 148 0
-151 -163 149 0
-151 -166 152 0
-151 -167 153 0
-151 -168 154 0
152 178 0
-152 -178 0
-152 -169 141 0
-152 -170 142 0
-152 -171 143 0
-152 -172 144 0
-152 -173 145 0
-152 -174 146 0
-152 -175 147 0
-152 -176 148 0
-152 -177 149 0
-152 -179 151 0
-152 -181 153 0
-152 -182 154 0
153 192 0
-153 -192 0
-153 -183 141 0
-153 -184 142 0
-153 -185 143 0
-153 -186 144 0
-153 -187 145 0
-153 -188 146 0
-153 -189 147 0
-153 -190 148 0
-153 -191 149 0
-153 -193 151 0
-153 -194 152 0
-153 -196 154 0
154 206 0
-154 -206 0
-154 -197 141 0
-154 -198 142 0
-154 -199 143 0
-154 -200 144 0
-154 -201 145 0
-154 -202 146 0
-154 -203 147 0
-154 -204 148 0
-154 -205 149 0
-154 -207 151 0
-154 -208 152 0
-154 -209 153 0
165 0
155 22 0
-155 -22 0
-155 -4 156 0
-155 -6 157 0
-155 -8 158 0
-155 -10 159 0
-155 -12 160 0
-155 -14 161 0
-155 -16 162 0
-155 -18 163 0
-155 -20 164 0
-155 -24 166 0
-155 -26 167 0
-155 -28 168 0
156 39 0
-156 -39 0
-156 -29 155 0
-156 -31 157 0
-156 -32 158 0
-156 -33 159 0
-156 -34 160 0
-156 -35 161 0
-156 -36 162 0
-156 -37 163 0
-156 -38 164 0
-156 -40 166 0
-156 -41 167 0
-156 -42 168 0
157 53 0
-157 -53 0
-157 -43 155 0
-157 -44 156 0
-157 -46 158 0
-157 -47 159 0
-157 -48 160 0
-157 -49 161 0
-157 -50 162 0
-157 -51 163 0
-157 -52 164 0
-157 -54 166 0
-157 -55 167 0
-157 -56 168 0
158 67 0
-158 -67 0
-158 -57 155 0
-158 -58 156 0
-158 -59 157 0
-158 -61 159 0
-158 -62 160 0
-158 -63 161 0
-158 -64 162 0
-158 -65 163 0
-158 -66 164 0
-158 -68 166 0
-158 -69 167 0
-158 -70 168 0
159 81 0
-159 -81 0
-159 -71 155 0
-159 -72 156 0
-159 -73 157 0
-159 -74 158 0
-159 -76 160 0
-159 -77 161 0
-159 -78 162 0
-159 -79 163 0
-159 -80 164 0
-159 -82 166 0
-159 -83 167 0
-159 -84 168 0
160 95 0
-160 -95 0
-160 -85 155 0
-160 -86 156 0
-160 -87 157 0
-160 -88 158 0
-160 -89 159 0
-160 -91 161 0
-160 -92 162 0
-160 -93 163 0
-160 -94 164 0
-160 -96 166 0
-160 -97 167 0
-160 -98 168 0
161 109 0
-161 -109 0
-161 -99 155 0
-161 -100 156 0
-161 -101 157 0
-161 -102 158 0
-161 -103 159 0
-161 -104 160 0
-161 -106 162 0
-161 -107 163 0
-161 -108 164 0
-161 -110 166 0
-161 -111 167 0
-161 -112 168 0
162 123 0
-162 -123 0
-162 -113 155 0
-162 -114 156 0
-162 -115 157 0
-162 -116 158 0
-162 -117 159 0
-162 -118 160 0
-162 -119 161 0
-162 -121 163 0
-162 -122 164 0
-162 -124 166 0
-162 -125 167 0
-162 -126 168 0
163 137 0
-163 -137 0
-163 -127 155 0
-163 -128 156 0
-163 -129 157 0
-163 -130 158 0
-163 -131 159 0
-163 -132 160 0
-163 -133 161 0
-163 -134 162 0
-163 -136 164 0
-163 -138 166 0
-163 -139 167 0
-163 -140 168 0
164 151 0
-164 -151 0
-164 -141 155 0
-164 -142 156 0
-164 -143 157 0
-164 -144 158 0
-164 -145 159 0
-164 -146 160 0
-164 -147 161 0
-164 -148 162 0
-164 -149 163 0
-164 -152 166 0
-164 -153 167 0
-164 -154 168 0
166 179 0
-166 -179 0
-166 -169 155 0
-166 -170 156 0
-166 -171 157 0
-166 -172 158 0
-166 -173 159 0
-166 -174 160 0
-166 -175 161 0
-166 -176 162 0
-166 -177 163 0
-166 -178 164 0
-166 -181 167 0
-166 -182 168 0
167 193 0
-167 -193 0
-167 -183 155 0
-167 -184 156 0
-167 -185 157 0
-167 -186 158 0
-167 -187 159 0
-167 -188 160 0
-167 -189 161 0
-167 -190 162 0
-167 -191 163 0
-167 -192 164 0
-167 -194 166 0
-167 -196 168 0
168 207 0
-168 -207 0
-168 -197 155 0
-168 -198 156 0
-168 -199 157 0
-168 -200 158 0
-168 -201 159 0
-168 -202 160 0
-168 -203 161 0
-168 -204 162 0
-168 -205 163 0
-168 -206 164 0
-168 -208 166 0
-168 -209 167 0
180 0
169 24 0
-169 -24 0
-169 -4 170 0
-169 -6 171 0
-169 -8 172 0
-169 -10 173 0
-169 -12 174 0
-169 -14 175 0
-169 -16 176 0
-169 -18 177 0
-169 -20 178 0
-169 -22 179 0
-169 -26 181 0
-169 -28 182 0
170 40 0
-170 -40 0
-170 -29 169 0
-170 -31 171 0
-170 -32 172 0
-170 -33 173 0
-170 -34 174 0
-170 -35 175 0
-170 -36 176 0
-170 -37 177 0
-170 -38 178 0
-170 -39 179 0
-170 -41 181 0
-170 -42 182 0
171 54 0
-171 -54 0
-171 -43 169 0
-171 -44 170 0
-171 -46 172 0
-171 -47 173 0
-171 -48 174 0
-171 -49 175 0
-171 -50 176 0
-171 -51 177 0
-171 -52 178 0
-171 -53 179 0
-171 -55 181 0
-171 -56 182 0
172 68 0
-172 -68 0
-172 -57 169 0
-172 -58 170 0
-172 -59 171 0
-172 -61 173 0
-172 -62 174 0
-172 -63 175 0
-172 -64 176 0
-172 -65 177 0
-172 -66 178 0
-172 -67 179 0
-172 -69 181 0
-172 -70 182 0
173 82 0
-173 -82 0
-173 -71 169 0
-173 -72 170 0
-173 -73 171 0
-173 -74 172 0
-173 -76 174 0
-173 -77 175 0
-173 -78 176 0
-173 -79 177 0
-173 -80 178 0
-173 -81 179 0
-173 -83 181 0
-173 -84 182 0
174 96 0
-174 -96 0
-174 -85 169 0
-174 -86 170 0
-174 -87 171 0
-174 -88 172 0
-174 -89 173 0
-174 -91 175 0
-174 -92 176 0
-174 -93 177 0
-174 -94 178 0
-174 -95 179 0
-174 -97 181 0
-174 -98 182 0
175 110 0
-175 -110 0
-175 -99 169 0
-175 -100 170 0
-175 -101 171 0
-175 -102 172 0
-175 -103 173 0
-175 -104 174 0
-175 -106 176 0
-175 -107 177 0
-175 -108 178 0
-175 -109 179 0
-175 -111 181 0
-175 -112 182 0
176 124 0
-176 -124 0
-176 -113 169 0
-176 -114 170 0
-176 -115 171 0
-176 -116 172 0
-176 -117 173 0
-176 -118 174 0
-176 -119 175 0
-176 -121 177 0
-176 -122 178 0
-176 -123 179 0
-176 -125 181 0
-176 -126 182 0
177 138 0
-177 -138 0
-177 -127 169 0
-177 -128 170 0
-177 -129 171 0
-177 -130 172 0
-177 -131 173 0
-177 -132 174 0
-177 -133 175 0
-177 -134 176 0
-177 -136 178 0
-177 -137 179 0
-177 -139 181 0
-177 -140 182 0
178 152 0
-178 -152 0
-178 -141 169 0
-178 -142 170 0
-178 -143 171 0
-178 -144 172 0
-178 -145 173 0
-178 -146 174 0
-178 -147 175 0
-178 -148 176 0
-178 -149 177 0
-178 -151 179 0
-178 -153 181 0
-178 -154 182 0
179 166 0
-179 -166 0
-179 -155 169 0
-179 -156 170 0
-179 -157 171 0
-179 -158 172 0
-179 -159 173 0
-179 -160 174 0
-179 -161 175 0
-179 -162 176 0
-179 -163 177 0
-179 -164 178 0
-179 -167 181 0
-179 -168 182 0
181 194 0
-181 -194 0
-181 -183 169 0
-181 -184 170 0
-181 -185 171 0
-181 -186 172 0
-181 -187 173 0
-181 -188 174 0
-181 -189 175 0
-181 -190 176 0
-181 -191 177 0
-181 -192 178 0
-181 -193 179 0
-181 -196 182 0
182 208 0
-182 -208 0
-182 -197 169 0
-182 -198 170 0
-182 -199 171 0
-182 -200 172 0
-182 -201 173 0
-182 -202 174 0
-182 -203 175 0
-182 -204 176 0
-182 -205 177 0
-182 -206 178 0
-182 -207 179 0
-182 -209 181 0
195 0
183 26 0
-183 -26 0
-183 -4 184 0
-183 -6 185 0
-183 -8 186 0
-183 -10 187 0
-183 -12 188 0
-183 -14 189 0
-183 -16 190 0
-183 -18 191 0
-183 -20 192 0
-183 -22 193 0
-183 -24 194 0
-183 -28 196 0
184 41 0
-184 -41 0
-184 -29 183 0
-184 -31 185 0
-184 -32 186 0
-184 -33 187 0
-184 -34 188 0
-184 -35 189 0
-184 -36 190 0
-184 -37 191 0
-184 -38 192 0
-184 -39 193 0
-184 -40 194 0
-184 -42 196 0
185 55 0
-185 -55 0
-185 -43 183 0
-185 -44 184 0
-185 -46 186 0
-185 -47 187 0
-185 -48 188 0
-185 -49 189 0
-185 -50 190 0
-185 -51 191 0
-185 -52 192 0
-185 -53 193 0
-185 -54 194 0
-185 -56 196 0
186 69 0
-186 -69 0
-186 -57 183 0
-186 -58 184 0
-186 -59 185 0
-186 -61 187 0
-186 -62 188 0
-186 -63 189 0
-186 -64 190 0
-186 -65 191 0
-186 -66 192 0
-186 -67 193 0
-186 -68 194 0
-186 -70 196 0
187 83 0
-187 -83 0
-187 -71 183 0
-187 -72 184 0
-187 -73 185 0
-187 -74 186 0
-187 -76 188 0
-187 -77 189 0
-187 -78 190 0
-187 -79 191 0
-187 -80 192 0
-187 -81 193 0
-187 -82 194 0
-187 -84 196 0
188 97 0
-188 -97 0
-188 -85 183 0
-188 -86 184 0
-188 -87 185 0
-188 -88 186 0
-188 -89 187 0
-188 -91 189 0
-188 -92 190 0
-188 -93 191 0
-188 -94 192 0
-188 -95 193 0
-188 -96 194 0
-188 -98 196 0
189 111 0
-189 -111 0
-189 -99 183 0
-189 -100 184 0
-189 -101 185 0
-189 -102 186 0
-189 -103 187 0
-189 -104 188 0
-189 -106 190 0
-189 -107 191 0
-189 -108 192 0
-189 -109 193 0
-189 -110 194 0
-189 -112 196 0
190 125 0
-190 -125 0
-190 -113 183 0
-190 -114 184 0
-190 -115 185 0
-190 -116 186 0
-190 -117 187 0
-190 -118 188 0
-190 -119 189 0
-190 -121 191 0
-190 -122 192 0
-190 -123 193 0
-190 -124 194 0
-190 -126 196 0
191 139 0
-191 -139 0
-191 -127 183 0
-191 -128 184 0
-191 -129 185 0
-191 -130 186 0
-191 -131 187 0
-191 -132 188 0
-191 -133 189 0
-191 -134 190 0
-191 -136 192 0
-191 -137 193 0
-191 -138 194 0
-191 -140 196 0
192 153 0
-192 -153 0
-192 -141 183 0
-192 -142 184 0
-192 -143 185 0
-192 -144 186 0
-192 -145 187 0
-192 -146 188 0
-192 -147 189 0
-192 -148 190 0
-192 -149 191 0
-192 -151 193 0
-192 -152 194 0
-192 -154 196 0
193 167 0
-193 -167 0
-193 -155 183 0
-193 -156 184 0
-193 -157 185 0
-193 -158 186 0
-193 -159 187 0
-193 -160 188 0
-193 -161 189 0
-193 -162 190 0
-193 -163 191 0
-193 -164 192 0
-193 -166 194 0
-193 -168 196 0
194 181 0
-194 -181 0
-194 -169 183 0
-194 -170 184 0
-194 -171 185 0
-194 -172 186 0
-194 -173 187 0
-194 -174 188 0
-194 -175 189 0
-194 -176 190 0
-194 -177 191 0
-194 -178 192 0
-194 -179 193 0
-194 -182 196 0
196 209 0
-196 -209 0
-196 -197 183 0
-196 -198 184 0
-196 -199 185 0
-196 -200 186 0
-196 -201 187 0
-196 -202 188 0
-196 -203 189 0
-196 -204 190 0
-196 -205 191 0
-196 -206 192 0
-196 -207 193 0
-196 -208 194 0
210 0
197 28 0
-197 -28 0
-197 -4 198 0
-197 -6 199 0
-197 -8 200 0
-197 -10 201 0
-197 -12 202 0
-197 -14 203 0
-197 -16 204 0
-197 -18 205 0
-197 -20 206 0
-197 -22 207 0
-197 -24 208 0
-197 -26 209 0
198 42 0
-198 -42 0
-198 -29 197 0
-198 -31 199 0
-198 -32 200 0
-198 -33 201 0
-198 -34 202 0
-198 -35 203 0
-198 -36 204 0
-198 -37 205 0
-198 -38 206 0
-198 -39 207 0
-198 -40 208 0
-198 -41 209 0
199 56 0
-199 -56 0
-199 -43 197 0
-199 -44 198 0
-199 -46 200 0
-199 -47 201 0
-199 -48 202 0
-199 -49 203 0
-199 -50 204 0
-199 -51 205 0
-199 -52 206 0
-199 -53 207 0
-199 -54 208 0
-199 -55 209 0
200 70 0
-200 -70 0
-200 -57 197 0
-200 -58 198 0
-200 -59 199 0
-200 -61 201 0
-200 -62 202 0
-200 -63 203 0
-200 -64 204 0
-200 -65 205 0
-200 -66 206 0
-200 -67 207 0
-200 -68 208 0
-200 -69 209 0
201 84 0
-201 -84 0
-201 -71 197 0
-201 -72 198 0
-201 -73 199 0
-201 -74 200 0
-201 -76 202 0
-201 -77 203 0
-201 -78 204 0
-201 -79 205 0
-201 -80 206 0
-201 -81 207 0
-201 -82 208 0
-201 -83 209 0
202 98 0
-202 -98 0
-202 -85 197 0
-202 -86 198 0
-202 -87 199 0
-202 -88 200 0
-202 -89 201 0
-202 -91 203 0
-202 -92 204 0
-202 -93 205 0
-202 -94 206 0
-202 -95 207 0
-202 -96 208 0
-202 -97 209 0
203 112 0
-203 -112 0
-203 -99 197 0
-203 -100 198 0
-203 -101 199 0
-203 -102 200 0
-203 -103 201 0
-203 -104 202 0
-203 -106 204 0
-203 -107 205 0
-203 -108 206 0
-203 -109 207 0
-203 -110 208 0
-203 -111 209 0
204 126 0
-204 -126 0
-204 -113 197 0
-204 -114 198 0
-204 -115 199 0
-204 -116 200 0
-204 -117 201 0
-204 -118 202 0
-204 -119 203 0
-204 -121 205 0
-204 -122 206 0
-204 -123 207 0
-204 -124 208 0
-204 -125 209 0
205 140 0
-205 -140 0
-205 -127 197 0
-205 -128 198 0
-205 -129 199 0
-205 -130 200 0
-205 -131 201 0
-205 -132 202 0
-205 -133 203 0
-205 -134 204 0
-205 -136 206 0
-205 -137 207 0
-205 -138 208 0
-205 -139 209 0
206 154 0
-206 -154 0
-206 -141 197 0
-206 -142 198 0
-206 -143 199 0
-206 -144 200 0
-206 -145 201 0
-206 -146 202 0
-206 -147 203 0
-206 -148 204 0
-206 -149 205 0
-206 -151 207 0
-206 -152 208 0
-206 -153 209 0
207 168 0
-207 -168 0
-207 -155 197 0
-207 -156 198 0
-207 -157 199 0
-207 -158 200 0
-207 -159 201 0
-207 -160 202 0
-207 -161 203 0
-207 -162 204 0
-207 -163 205 0
-207 -164 206 0
-207 -166 208 0
-207 -167 209 0
208 182 0
-208 -182 0
-208 -169 197 0
-208 -170 198 0
-208 -171 199 0
-208 -172 200 0
-208 -173 201 0
-208 -174 202 0
-208 -175 203 0
-208 -176 204 0
-208 -177 205 0
-208 -178 206 0
-208 -179 207 0
-208 -181 209 0
209 196 0
-209 -196 0
-209 -183 197 0
-209 -184 198 0
-209 -185 199 0
-209 -186 200 0
-209 -187 201 0
-209 -188 202 0
-209 -189 203 0
-209 -190 204 0
-209 -191 205 0
-209 -192 206 0
-209 -193 207 0
-209 -194 208 0
