p cnf 240 3390
1 -2 -1 0
3 -4 -1 0
5 -6 -1 0
7 -8 -1 0
9 -10 -1 0
11 -12 -1 0
13 -14 -1 0
15 -16 -1 0
17 -18 -1 0
19 -20 -1 0
21 -22 -1 0
23 -24 -1 0
25 -26 -1 0
27 -28 -1 0
29 -30 -1 0
1 -31 -3 0
3 -32 -3 0
5 -33 -3 0
7 -34 -3 0
9 -35 -3 0
11 -36 -3 0
13 -37 -3 0
15 -38 -3 0
17 -39 -3 0
19 -40 -3 0
21 -41 -3 0
23 -42 -3 0
25 -43 -3 0
27 -44 -3 0
29 -45 -3 0
1 -46 -5 0
3 -47 -5 0
5 -48 -5 0
7 -49 -5 0
9 -50 -5 0
11 -51 -5 0
13 -52 -5 0
15 -53 -5 0
17 -54 -5 0
19 -55 -5 0
21 -56 -5 0
23 -57 -5 0
25 -58 -5 0
27 -59 -5 0
29 -60 -5 0
1 -61 -7 0
3 -62 -7 0
5 -63 -7 0
7 -64 -7 0
9 -65 -7 0
11 -66 -7 0
13 -67 -7 0
15 -68 -7 0
17 -69 -7 0
19 -70 -7 0
21 -71 -7 0
23 -72 -7 0
25 -73 -7 0
27 -74 -7 0
29 -75 -7 0
1 -76 -9 0
3 -77 -9 0
5 -78 -9 0
7 -79 -9 0
9 -80 -9 0
11 -81 -9 0
13 -82 -9 0
15 -83 -9 0
17 -84 -9 0
19 -85 -9 0
21 -86 -9 0
23 -87 -9 0
25 -88 -9 0
27 -89 -9 0
29 -90 -9 0
1 -91 -11 0
3 -92 -11 0
5 -93 -11 0
7 -94 -11 0
9 -95 -11 0
11 -96 -11 0
13 -97 -11 0
15 -98 -11 0
17 -99 -11 0
19 -100 -11 0
21 -101 -11 0
23 -102 -11 0
25 -103 -11 0
27 -104 -11 0
29 -105 -11 0
1 -106 -13 0
3 -107 -13 0
5 -108 -13 0
7 -109 -13 0
9 -110 -13 0
11 -111 -13 0
13 -112 -13 0
15 -113 -13 0
17 -114 -13 0
19 -115 -13 0
21 -116 -13 0
23 -117 -13 0
25 -118 -13 0
27 -119 -13 0
29 -120 -13 0
1 -121 -15 0
3 -122 -15 0
5 -123 -15 0
7 -124 -15 0
9 -125 -15 0
11 -126 -15 0
13 -127 -15 0
15 -128 -15 0
17 -129 -15 0
19 -130 -15 0
21 -131 -15 0
23 -132 -15 0
25 -133 -15 0
27 -134 -15 0
29 -135 -15 0
1 -136 -17 0
3 -137 -17 0
5 -138 -17 0
7 -139 -17 0
9 -140 -17 0
11 -141 -17 0
13 -142 -17 0
15 -143 -17 0
17 -144 -17 0
19 -145 -17 0
21 -146 -17 0
23 -147 -17 0
25 -148 -17 0
27 -149 -17 0
29 -150 -17 0
1 -151 -19 0
3 -152 -19 0
5 -153 -19 0
7 -154 -19 0
9 -155 -19 0
11 -156 -19 0
13 -157 -19 0
15 -158 -19 0
17 -159 -19 0
19 -160 -19 0
21 -161 -19 0
23 -162 -19 0
25 -163 -19 0
27 -164 -19 0
29 -165 -19 0
1 -166 -21 0
3 -167 -21 0
5 -168 -21 0
7 -169 -21 0
9 -170 -21 0
11 -171 -21 0
13 -172 -21 0
15 -173 -21 0
17 -174 -21 0
19 -175 -21 0
21 -176 -21 0
23 -177 -21 0
25 -178 -21 0
27 -179 -21 0
29 -180 -21 0
1 -181 -23 0
3 -182 -23 0
5 -183 -23 0
7 -184 -23 0
9 -185 -23 0
11 -186 -23 0
13 -187 -23 0
15 -188 -23 0
17 -189 -23 0
19 -190 -23 0
21 -191 -23 0
23 -192 -23 0
25 -193 -23 0
27 -194 -23 0
29 -195 -23 0
1 -196 -25 0
3 -197 -25 0
5 -198 -25 0
7 -199 -25 0
9 -200 -25 0
11 -201 -25 0
13 -202 -25 0
15 -203 -25 0
17 -204 -25 0
19 -205 -25 0
21 -206 -25 0
23 -207 -25 0
25 -208 -25 0
27 -209 -25 0
29 -210 -25 0
1 -211 -27 0
3 -212 -27 0
5 -213 -27 0
7 -214 -27 0
9 -215 -27 0
11 -216 -27 0
13 -217 -27 0
15 -218 -27 0
17 -219 -27 0
19 -220 -27 0
21 -221 -27 0
23 -222 -27 0
25 -223 -27 0
27 -224 -27 0
29 -225 -27 0
1 -226 -29 0
3 -227 -29 0
5 -228 -29 0
7 -229 -29 0
9 -230 -29 0
11 -231 -29 0
13 -232 -29 0
15 -233 -29 0
17 -234 -29 0
19 -235 -29 0
21 -236 -29 0
23 -237 -29 0
25 -238 -29 0
27 -239 -29 0
29 -240 -29 0
2 0
4 31 0
-4 -31 0
-4 -33 6 0
-4 -34 8 0
-4 -35 10 0
-4 -36 12 0
-4 -37 14 0
-4 -38 16 0
-4 -39 18 0
-4 -40 20 0
-4 -41 22 0
-4 -42 24 0
-4 -43 26 0
-4 -44 28 0
-4 -45 30 0
6 46 0
-6 -46 0
-6 -47 4 0
-6 -49 8 0
-6 -50 10 0
-6 -51 12 0
-6 -52 14 0
-6 -53 16 0
-6 -54 18 0
-6 -55 20 0
-6 -56 22 0
-6 -57 24 0
-6 -58 26 0
-6 -59 28 0
-6 -60 30 0
8 61 0
-8 -61 0
-8 -62 4 0
-8 -63 6 0
-8 -65 10 0
-8 -66 12 0
-8 -67 14 0
-8 -68 16 0
-8 -69 18 0
-8 -70 20 0
-8 -71 22 0
-8 -72 24 0
-8 -73 26 0
-8 -74 28 0
-8 -75 30 0
10 76 0
-10 -76 0
-10 -77 4 0
-10 -78 6 0
-10 -79 8 0
-10 -81 12 0
-10 -82 14 0
-10 -83 16 0
-10 -84 18 0
-10 -85 20 0
-10 -86 22 0
-10 -87 24 0
-10 -88 26 0
-10 -89 28 0
-10 -90 30 0
12 91 0
-12 -91 0
-12 -92 4 0
-12 -93 6 0
-12 -94 8 0
-12 -95 10 0
-12 -97 14 0
-12 -98 16 0
-12 -99 18 0
-12 -100 20 0
-12 -101 22 0
-12 -102 24 0
-12 -103 26 0
-12 -104 28 0
-12 -105 30 0
14 106 0
-14 -106 0
-14 -107 4 0
-14 -108 6 0
-14 -109 8 0
-14 -110 10 0
-14 -111 12 0
-14 -113 16 0
-14 -114 18 0
-14 -115 20 0
-14 -116 22 0
-14 -117 24 0
-14 -118 26 0
-14 -119 28 0
-14 -120 30 0
16 121 0
-16 -121 0
-16 -122 4 0
-16 -123 6 0
-16 -124 8 0
-16 -125 10 0
-16 -126 12 0
-16 -127 14 0
-16 -129 18 0
-16 -130 20 0
-16 -131 22 0
-16 -132 24 0
-16 -133 26 0
-16 -134 28 0
-16 -135 30 0
18 136 0
-18 -136 0
-18 -137 4 0
-18 -138 6 0
-18 -139 8 0
-18 -140 10 0
-18 -141 12 0
-18 -142 14 0
-18 -143 16 0
-18 -145 20 0
-18 -146 22 0
-18 -147 24 0
-18 -148 26 0
-18 -149 28 0
-18 -150 30 0
20 151 0
-20 -151 0
-20 -152 4 0
-20 -153 6 0
-20 -154 8 0
-20 -155 10 0
-20 -156 12 0
-20 -157 14 0
-20 -158 16 0
-20 -159 18 0
-20 -161 22 0
-20 -162 24 0
-20 -163 26 0
-20 -164 28 0
-20 -165 30 0
22 166 0
-22 -166 0
-22 -167 4 0
-22 -168 6 0
-22 -169 8 0
-22 -170 10 0
-22 -171 12 0
-22 -172 14 0
-22 -173 16 0
-22 -174 18 0
-22 -175 20 0
-22 -177 24 0
-22 -178 26 0
-22 -179 28 0
-22 -180 30 0
24 181 0
-24 -181 0
-24 -182 4 0
-24 -183 6 0
-24 -184 8 0
-24 -185 10 0
-24 -186 12 0
-24 -187 14 0
-24 -188 16 0
-24 -189 18 0
-24 -190 20 0
-24 -191 22 0
-24 -193 26 0
-24 -194 28 0
-24 -195 30 0
26 196 0
-26 -196 0
-26 -197 4 0
-26 -198 6 0
-26 -199 8 0
-26 -200 10 0
-26 -201 12 0
-26 -202 14 0
-26 -203 16 0
-26 -204 18 0
-26 -205 20 0
-26 -206 22 0
-26 -207 24 0
-26 -209 28 0
-26 -210 30 0
28 211 0
-28 -211 0
-28 -212 4 0
-28 -213 6 0
-28 -214 8 0
-28 -215 10 0
-28 -216 12 0
-28 -217 14 0
-28 -218 16 0
-28 -219 18 0
-28 -220 20 0
-28 -221 22 0
-28 -222 24 0
-28 -223 26 0
-28 -225 30 0
30 226 0
-30 -226 0
-30 -227 4 0
-30 -228 6 0
-30 -229 8 0
-30 -230 10 0
-30 -231 12 0
-30 -232 14 0
-30 -233 16 0
-30 -234 18 0
-30 -235 20 0
-30 -236 22 0
-30 -237 24 0
-30 -238 26 0
-30 -239 28 0
32 0
31 4 0
-31 -4 0
-31 -6 33 0
-31 -8 34 0
-31 -10 35 0
-31 -12 36 0
-31 -14 37 0
-31 -16 38 0
-31 -18 39 0
-31 -20 40 0
-31 -22 41 0
-31 -24 42 0
-31 -26 43 0
-31 -28 44 0
-31 -30 45 0
33 47 0
-33 -47 0
-33 -46 31 0
-33 -49 34 0
-33 -50 35 0
-33 -51 36 0
-33 -52 37 0
-33 -53 38 0
-33 -54 39 0
-33 -55 40 0
-33 -56 41 0
-33 -57 42 0
-33 -58 43 0
-33 -59 44 0
-33 -60 45 0
34 62 0
-34 -62 0
-34 -61 31 0
-34 -63 33 0
-34 -65 35 0
-34 -66 36 0
-34 -67 37 0
-34 -68 38 0
-34 -69 39 0
-34 -70 40 0
-34 -71 41 0
-34 -72 42 0
-34 -73 43 0
-34 -74 44 0
-34 -75 45 0
35 77 0
-35 -77 0
-35 -76 31 0
-35 -78 33 0
-35 -79 34 0
-35 -81 36 0
-35 -82 37 0
-35 -83 38 0
-35 -84 39 0
-35 -85 40 0
-35 -86 41 0
-35 -87 42 0
-35 -88 43 0
-35 -89 44 0
-35 -90 45 0
36 92 0
-36 -92 0
-36 -91 31 0
-36 -93 33 0
-36 -94 34 0
-36 -95 35 0
-36 -97 37 0
-36 -98 38 0
-36 -99 39 0
-36 -100 40 0
-36 -101 41 0
-36 -102 42 0
-36 -103 43 0
-36 -104 44 0
-36 -105 45 0
37 107 0
-37 -107 0
-37 -106 31 0
-37 -108 33 0
-37 -109 34 0
-37 -110 35 0
-37 -111 36 0
-37 -113 38 0
-37 -114 39 0
-37 -115 40 0
-37 -116 41 0
-37 -117 42 0
-37 -118 43 0
-37 -119 44 0
-37 -120 45 0
38 122 0
-38 -122 0
-38 -121 31 0
-38 -123 33 0
-38 -124 34 0
-38 -125 35 0
-38 -126 36 0
-38 -127 37 0
-38 -129 39 0
-38 -130 40 0
-38 -131 41 0
-38 -132 42 0
-38 -133 43 0
-38 -134 44 0
-38 -135 45 0
39 137 0
-39 -137 0
-39 -136 31 0
-39 -138 33 0
-39 -139 34 0
-39 -140 35 0
-39 -141 36 0
-39 -142 37 0
-39 -143 38 0
-39 -145 40 0
-39 -146 41 0
-39 -147 42 0
-39 -148 43 0
-39 -149 44 0
-39 -150 45 0
40 152 0
-40 -152 0
-40 -151 31 0
-40 -153 33 0
-40 -154 34 0
-40 -155 35 0
-40 -156 36 0
-40 -157 37 0
-40 -158 38 0
-40 -159 39 0
-40 -161 41 0
-40 -162 42 0
-40 -163 43 0
-40 -164 44 0
-40 -165 45 0
41 167 0
-41 -167 0
-41 -166 31 0
-41 -168 33 0
-41 -169 34 0
-41 -170 35 0
-41 -171 36 0
-41 -172 37 0
-41 -173 38 0
-41 -174 39 0
-41 -175 40 0
-41 -177 42 0
-41 -178 43 0
-41 -179 44 0
-41 -180 45 0
42 182 0
-42 -182 0
-42 -181 31 0
-42 -183 33 0
-42 -184 34 0
-42 -185 35 0
-42 -186 36 0
-42 -187 37 0
-42 -188 38 0
-42 -189 39 0
-42 -190 40 0
-42 -191 41 0
-42 -193 43 0
-42 -194 44 0
-42 -195 45 0
43 197 0
-43 -197 0
-43 -196 31 0
-43 -198 33 0
-43 -199 34 0
-43 -200 35 0
-43 -201 36 0
-43 -202 37 0
-43 -203 38 0
-43 -204 39 0
-43 -205 40 0
-43 -206 41 0
-43 -207 42 0
-43 -209 44 0
-43 -210 45 0
44 212 0
-44 -212 0
-44 -211 31 0
-44 -213 33 0
-44 -214 34 0
-44 -215 35 0
-44 -216 36 0
-44 -217 37 0
-44 -218 38 0
-44 -219 39 0
-44 -220 40 0
-44 -221 41 0
-44 -222 42 0
-44 -223 43 0
-44 -225 45 0
45 227 0
-45 -227 0
-45 -226 31 0
-45 -228 33 0
-45 -229 34 0
-45 -230 35 0
-45 -231 36 0
-45 -232 37 0
-45 -233 38 0
-45 -234 39 0
-45 -235 40 0
-45 -236 41 0
-45 -237 42 0
-45 -238 43 0
-45 -239 44 0
48 0
46 6 0
-46 -6 0
-46 -4 47 0
-46 -8 49 0
-46 -10 50 0
-46 -12 51 0
-46 -14 52 0
-46 -16 53 0
-46 -18 54 0
-46 -20 55 0
-46 -22 56 0
-46 -24 57 0
-46 -26 58 0
-46 -28 59 0
-46 -30 60 0
47 33 0
-47 -33 0
-47 -31 46 0
-47 -34 49 0
-47 -35 50 0
-47 -36 51 0
-47 -37 52 0
-47 -38 53 0
-47 -39 54 0
-47 -40 55 0
-47 -41 56 0
-47 -42 57 0
-47 -43 58 0
-47 -44 59 0
-47 -45 60 0
49 63 0
-49 -63 0
-49 -61 46 0
-49 -62 47 0
-49 -65 50 0
-49 -66 51 0
-49 -67 52 0
-49 -68 53 0
-49 -69 54 0
-49 -70 55 0
-49 -71 56 0
-49 -72 57 0
-49 -73 58 0
-49 -74 59 0
-49 -75 60 0
50 78 0
-50 -78 0
-50 -76 46 0
-50 -77 47 0
-50 -79 49 0
-50 -81 51 0
-50 -82 52 0
-50 -83 53 0
-50 -84 54 0
-50 -85 55 0
-50 -86 56 0
-50 -87 57 0
-50 -88 58 0
-50 -89 59 0
-50 -90 60 0
51 93 0
-51 -93 0
-51 -91 46 0
-51 -92 47 0
-51 -94 49 0
-51 -95 50 0
-51 -97 52 0
-51 -98 53 0
-51 -99 54 0
-51 -100 55 0
-51 -101 56 0
-51 -102 57 0
-51 -103 58 0
-51 -104 59 0
-51 -105 60 0
52 108 0
-52 -108 0
-52 -106 46 0
-52 -107 47 0
-52 -109 49 0
-52 -110 50 0
-52 -111 51 0
-52 -113 53 0
-52 -114 54 0
-52 -115 55 0
-52 -116 56 0
-52 -117 57 0
-52 -118 58 0
-52 -119 59 0
-52 -120 60 0
53 123 0
-53 -123 0
-53 -121 46 0
-53 -122 47 0
-53 -124 49 0
-53 -125 50 0
-53 -126 51 0
-53 -127 52 0
-53 -129 54 0
-53 -130 55 0
-53 -131 56 0
-53 -132 57 0
-53 -133 58 0
-53 -134 59 0
-53 -135 60 0
54 138 0
-54 -138 0
-54 -136 46 0
-54 -137 47 0
-54 -139 49 0
-54 -140 50 0
-54 -141 51 0
-54 -142 52 0
-54 -143 53 0
-54 -145 55 0
-54 -146 56 0
-54 -147 57 0
-54 -148 58 0
-54 -149 59 0
-54 -150 60 0
55 153 0
-55 -153 0
-55 -151 46 0
-55 -152 47 0
-55 -154 49 0
-55 -155 50 0
-55 -156 51 0
-55 -157 52 0
-55 -158 53 0
-55 -159 54 0
-55 -161 56 0
-55 -162 57 0
-55 -163 58 0
-55 -164 59 0
-55 -165 60 0
56 168 0
-56 -168 0
-56 -166 46 0
-56 -167 47 0
-56 -169 49 0
-56 -170 50 0
-56 -171 51 0
-56 -172 52 0
-56 -173 53 0
-56 -174 54 0
-56 -175 55 0
-56 -177 57 0
-56 -178 58 0
-56 -179 59 0
-56 -180 60 0
57 183 0
-57 -183 0
-57 -181 46 0
-57 -182 47 0
-57 -184 49 0
-57 -185 50 0
-57 -186 51 0
-57 -187 52 0
-57 -188 53 0
-57 -189 54 0
-57 -190 55 0
-57 -191 56 0
-57 -193 58 0
-57 -194 59 0
-57 -195 60 0
58 198 0
-58 -198 0
-58 -196 46 0
-58 -197 47 0
-58 -199 49 0
-58 -200 50 0
-58 -201 51 0
-58 -202 52 0
-58 -203 53 0
-58 -204 54 0
-58 -205 55 0
-58 -206 56 0
-58 -207 57 0
-58 -209 59 0
-58 -210 60 0
59 213 0
-59 -213 0
-59 -211 46 0
-59 -212 47 0
-59 -214 49 0
-59 -215 50 0
-59 -216 51 0
-59 -217 52 0
-59 -218 53 0
-59 -219 54 0
-59 -220 55 0
-59 -221 56 0
-59 -222 57 0
-59 -223 58 0
-59 -225 60 0
60 228 0
-60 -228 0
-60 -226 46 0
-60 -227 47 0
-60 -229 49 0
-60 -230 50 0
-60 -231 51 0
-60 -232 52 0
-60 -233 53 0
-60 -234 54 0
-60 -235 55 0
-60 -236 56 0
-60 -237 57 0
-60 -238 58 0
-60 -239 59 0
64 0
61 8 0
-61 -8 0
-61 -4 62 0
-61 -6 63 0
-61 -10 65 0
-61 -12 66 0
-61 -14 67 0
-61 -16 68 0
-61 -18 69 0
-61 -20 70 0
-61 -22 71 0
-61 -24 72 0
-61 -26 73 0
-61 -28 74 0
-61 -30 75 0
62 34 0
-62 -34 0
-62 -31 61 0
-62 -33 63 0
-62 -35 65 0
-62 -36 66 0
-62 -37 67 0
-62 -38 68 0
-62 -39 69 0
-62 -40 70 0
-62 -41 71 0
-62 -42 72 0
-62 -43 73 0
-62 -44 74 0
-62 -45 75 0
63 49 0
-63 -49 0
-63 -46 61 0
-63 -47 62 0
-63 -50 65 0
-63 -51 66 0
-63 -52 67 0
-63 -53 68 0
-63 -54 69 0
-63 -55 70 0
-63 -56 71 0
-63 -57 72 0
-63 -58 73 0
-63 -59 74 0
-63 -60 75 0
65 79 0
-65 -79 0
-65 -76 61 0
-65 -77 62 0
-65 -78 63 0
-65 -81 66 0
-65 -82 67 0
-65 -83 68 0
-65 -84 69 0
-65 -85 70 0
-65 -86 71 0
-65 -87 72 0
-65 -88 73 0
-65 -89 74 0
-65 -90 75 0
66 94 0
-66 -94 0
-66 -91 61 0
-66 -92 62 0
-66 -93 63 0
-66 -95 65 0
-66 -97 67 0
-66 -98 68 0
-66 -99 69 0
-66 -100 70 0
-66 -101 71 0
-66 -102 72 0
-66 -103 73 0
-66 -104 74 0
-66 -105 75 0
67 109 0
-67 -109 0
-67 -106 61 0
-67 -107 62 0
-67 -108 63 0
-67 -110 65 0
-67 -111 66 0
-67 -113 68 0
-67 -114 69 0
-67 -115 70 0
-67 -116 71 0
-67 -117 72 0
-67 -118 73 0
-67 -119 74 0
-67 -120 75 0
68 124 0
-68 -124 0
-68 -121 61 0
-68 -122 62 0
-68 -123 63 0
-68 -125 65 0
-68 -126 66 0
-68 -127 67 0
-68 -129 69 0
-68 -130 70 0
-68 -131 71 0
-68 -132 72 0
-68 -133 73 0
-68 -134 74 0
-68 -135 75 0
69 139 0
-69 -139 0
-69 -136 61 0
-69 -137 62 0
-69 -138 63 0
-69 -140 65 0
-69 -141 66 0
-69 -142 67 0
-69 -143 68 0
-69 -145 70 0
-69 -146 71 0
-69 -147 72 0
-69 -148 73 0
-69 -149 74 0
-69 -150 75 0
70 154 0
-70 -154 0
-70 -151 61 0
-70 -152 62 0
-70 -153 63 0
-70 -155 65 0
-70 -156 66 0
-70 -157 67 0
-70 -158 68 0
-70 -159 69 0
-70 -161 71 0
-70 -162 72 0
-70 -163 73 0
-70 -164 74 0
-70 -165 75 0
71 169 0
-71 -169 0
-71 -166 61 0
-71 -167 62 0
-71 -168 63 0
-71 -170 65 0
-71 -171 66 0
-71 -172 67 0
-71 -173 68 0
-71 -174 69 0
-71 -175 70 0
-71 -177 72 0
-71 -178 73 0
-71 -179 74 0
-71 -180 75 0
72 184 0
-72 -184 0
-72 -181 61 0
-72 -182 62 0
-72 -183 63 0
-72 -185 65 0
-72 -186 66 0
-72 -187 67 0
-72 -188 68 0
-72 -189 69 0
-72 -190 70 0
-72 -191 71 0
-72 -193 73 0
-72 -194 74 0
-72 -195 75 0
73 199 0
-73 -199 0
-73 -196 61 0
-73 -197 62 0
-73 -198 63 0
-73 -200 65 0
-73 -201 66 0
-73 -202 67 0
-73 -203 68 0
-73 -204 69 0
-73 -205 70 0
-73 -206 71 0
-73 -207 72 0
-73 -209 74 0
-73 -210 75 0
74 214 0
-74 -214 0
-74 -211 61 0
-74 -212 62 0
-74 -213 63 0
-74 -215 65 0
-74 -216 66 0
-74 -217 67 0
-74 -218 68 0
-74 -219 69 0
-74 -220 70 0
-74 -221 71 0
-74 -222 72 0
-74 -223 73 0
-74 -225 75 0
75 229 0
-75 -229 0
-75 -226 61 0
-75 -227 62 0
-75 -228 63 0
-75 -230 65 0
-75 -231 66 0
-75 -232 67 0
-75 -233 68 0
-75 -234 69 0
-75 -235 70 0
-75 -236 71 0
-75 -237 72 0
-75 -238 73 0
-75 -239 74 0
80 0
76 10 0
-76 -10 0
-76 -4 77 0
-76 -6 78 0
-76 -8 79 0
-76 -12 81 0
-76 -14 82 0
-76 -16 83 0
-76 -18 84 0
-76 -20 85 0
-76 -22 86 0
-76 -24 87 0
-76 -26 88 0
-76 -28 89 0
-76 -30 90 0
77 35 0
-77 -35 0
-77 -31 76 0
-77 -33 78 0
-77 -34 79 0
-77 -36 81 0
-77 -37 82 0
-77 -38 83 0
-77 -39 84 0
-77 -40 85 0
-77 -41 86 0
-77 -42 87 0
-77 -43 88 0
-77 -44 89 0
-77 -45 90 0
78 50 0
-78 -50 0
-78 -46 76 0
-78 -47 77 0
-78 -49 79 0
-78 -51 81 0
-78 -52 82 0
-78 -53 83 0
-78 -54 84 0
-78 -55 85 0
-78 -56 86 0
-78 -57 87 0
-78 -58 88 0
-78 -59 89 0
-78 -60 90 0
79 65 0
-79 -65 0
-79 -61 76 0
-79 -62 77 0
-79 -63 78 0
-79 -66 81 0
-79 -67 82 0
-79 -68 83 0
-79 -69 84 0
-79 -70 85 0
-79 -71 86 0
-79 -72 87 0
-79 -73 88 0
-79 -74 89 0
-79 -75 90 0
81 95 0
-81 -95 0
-81 -91 76 0
-81 -92 77 0
-81 -93 78 0
-81 -94 79 0
-81 -97 82 0
-81 -98 83 0
-81 -99 84 0
-81 -100 85 0
-81 -101 86 0
-81 -102 87 0
-81 -103 88 0
-81 -104 89 0
-81 -105 90 0
82 110 0
-82 -110 0
-82 -106 76 0
-82 -107 77 0
-82 -108 78 0
-82 -109 79 0
-82 -111 81 0
-82 -113 83 0
-82 -114 84 0
-82 -115 85 0
-82 -116 86 0
-82 -117 87 0
-82 -118 88 0
-82 -119 89 0
-82 -120 90 0
83 125 0
-83 -125 0
-83 -121 76 0
-83 -122 77 0
-83 -123 78 0
-83 -124 79 0
-83 -126 81 0
-83 -127 82 0
-83 -129 84 0
-83 -130 85 0
-83 -131 86 0
-83 -132 87 0
-83 -133 88 0
-83 -134 89 0
-83 -135 90 0
84 140 0
-84 -140 0
-84 -136 76 0
-84 -137 77 0
-84 -138 78 0
-84 -139 79 0
-84 -141 81 0
-84 -142 82 0
-84 -143 83 0
-84 -145 85 0
-84 -146 86 0
-84 -147 87 0
-84 -148 88 0
-84 -149 89 0
-84 -150 90 0
85 155 0
-85 -155 0
-85 -151 76 0
-85 -152 77 0
-85 -153 78 0
-85 -154 79 0
-85 -156 81 0
-85 -157 82 0
-85 -158 83 0
-85 -159 84 0
-85 -161 86 0
-85 -162 87 0
-85 -163 88 0
-85 -164 89 0
-85 -165 90 0
86 170 0
-86 -170 0
-86 -166 76 0
-86 -167 77 0
-86 -168 78 0
-86 -169 79 0
-86 -171 81 0
-86 -172 82 0
-86 -173 83 0
-86 -174 84 0
-86 -175 85 0
-86 -177 87 0
-86 -178 88 0
-86 -179 89 0
-86 -180 90 0
87 185 0
-87 -185 0
-87 -181 76 0
-87 -182 77 0
-87 -183 78 0
-87 -184 79 0
-87 -186 81 0
-87 -187 82 0
-87 -188 83 0
-87 -189 84 0
-87 -190 85 0
-87 -191 86 0
-87 -193 88 0
-87 -194 89 0
-87 -195 90 0
88 200 0
-88 -200 0
-88 -196 76 0
-88 -197 77 0
-88 -198 78 0
-88 -199 79 0
-88 -201 81 0
-88 -202 82 0
-88 -203 83 0
-88 -204 84 0
-88 -205 85 0
-88 -206 86 0
-88 -207 87 0
-88 -209 89 0
-88 -210 90 0
89 215 0
-89 -215 0
-89 -211 76 0
-89 -212 77 0
-89 -213 78 0
-89 -214 79 0
-89 -216 81 0
-89 -217 82 0
-89 -218 83 0
-89 -219 84 0
-89 -220 85 0
-89 -221 86 0
-89 -222 87 0
-89 -223 88 0
-89 -225 90 0
90 230 0
-90 -230 0
-90 -226 76 0
-90 -227 77 0
-90 -228 78 0
-90 -229 79 0
-90 -231 81 0
-90 -232 82 0
-90 -233 83 0
-90 -234 84 0
-90 -235 85 0
-90 -236 86 0
-90 -237 87 0
-90 -238 88 0
-90 -239 89 0
96 0
91 12 0
-91 -12 0
-91 -4 92 0
-91 -6 93 0
-91 -8 94 0
-91 -10 95 0
-91 -14 97 0
-91 -16 98 0
-91 -18 99 0
-91 -20 100 0
-91 -22 101 0
-91 -24 102 0
-91 -26 103 0
-91 -28 104 0
-91 -30 105 0
92 36 0
-92 -36 0
-92 -31 91 0
-92 -33 93 0
-92 -34 94 0
-92 -35 95 0
-92 -37 97 0
-92 -38 98 0
-92 -39 99 0
-92 -40 100 0
-92 -41 101 0
-92 -42 102 0
-92 -43 103 0
-92 -44 104 0
-92 -45 105 0
93 51 0
-93 -51 0
-93 -46 91 0
-93 -47 92 0
-93 -49 94 0
-93 -50 95 0
-93 -52 97 0
-93 -53 98 0
-93 -54 99 0
-93 -55 100 0
-93 -56 101 0
-93 -57 102 0
-93 -58 103 0
-93 -59 104 0
-93 -60 105 0
94 66 0
-94 -66 0
-94 -61 91 0
-94 -62 92 0
-94 -63 93 0
-94 -65 95 0
-94 -67 97 0
-94 -68 98 0
-94 -69 99 0
-94 -70 100 0
-94 -71 101 0
-94 -72 102 0
-94 -73 103 0
-94 -74 104 0
-94 -75 105 0
95 81 0
-95 -81 0
-95 -76 91 0
-95 -77 92 0
-95 -78 93 0
-95 -79 94 0
-95 -82 97 0
-95 -83 98 0
-95 -84 99 0
-95 -85 100 0
-95 -86 101 0
-95 -87 102 0
-95 -88 103 0
-95 -89 104 0
-95 -90 105 0
97 111 0
-97 -111 0
-97 -106 91 0
-97 -107 92 0
-97 -108 93 0
-97 -109 94 0
-97 -110 95 0
-97 -113 98 0
-97 -114 99 0
-97 -115 100 0
-97 -116 101 0
-97 -117 102 0
-97 -118 103 0
-97 -119 104 0
-97 -120 105 0
98 126 0
-98 -126 0
-98 -121 91 0
-98 -122 92 0
-98 -123 93 0
-98 -124 94 0
-98 -125 95 0
-98 -127 97 0
-98 -129 99 0
-98 -130 100 0
-98 -131 101 0
-98 -132 102 0
-98 -133 103 0
-98 -134 104 0
-98 -135 105 0
99 141 0
-99 -141 0
-99 -136 91 0
-99 -137 92 0
-99 -138 93 0
-99 -139 94 0
-99 -140 95 0
-99 -142 97 0
-99 -143 98 0
-99 -145 100 0
-99 -146 101 0
-99 -147 102 0
-99 -148 103 0
-99 -149 104 0
-99 -150 105 0
100 156 0
-100 -156 0
-100 -151 91 0
-100 -152 92 0
-100 -153 93 0
-100 -154 94 0
-100 -155 95 0
-100 -157 97 0
-100 -158 98 0
-100 -159 99 0
-100 -161 101 0
-100 -162 102 0
-100 -163 103 0
-100 -164 104 0
-100 -165 105 0
101 171 0
-101 -171 0
-101 -166 91 0
-101 -167 92 0
-101 -168 93 0
-101 -169 94 0
-101 -170 95 0
-101 -172 97 0
-101 -173 98 0
-101 -174 99 0
-101 -175 100 0
-101 -177 102 0
-101 -178 103 0
-101 -179 104 0
-101 -180 105 0
102 186 0
-102 -186 0
-102 -181 91 0
-102 -182 92 0
-102 -183 93 0
-102 -184 94 0
-102 -185 95 0
-102 -187 97 0
-102 -188 98 0
-102 -189 99 0
-102 -190 100 0
-102 -191 101 0
-102 -193 103 0
-102 -194 104 0
-102 -195 105 0
103 201 0
-103 -201 0
-103 -196 91 0
-103 -197 92 0
-103 -198 93 0
-103 -199 94 0
-103 -200 95 0
-103 -202 97 0
-103 -203 98 0
-103 -204 99 0
-103 -205 100 0
-103 -206 101 0
-103 -207 102 0
-103 -209 104 0
-103 -210 105 0
104 216 0
-104 -216 0
-104 -211 91 0
-104 -212 92 0
-104 -213 93 0
-104 -214 94 0
-104 -215 95 0
-104 -217 97 0
-104 -218 98 0
-104 -219 99 0
-104 -220 100 0
-104 -221 101 0
-104 -222 102 0
-104 -223 103 0
-104 -225 105 0
105 231 0
-105 -231 0
-105 -226 91 0
-105 -227 92 0
-105 -228 93 0
-105 -229 94 0
-105 -230 95 0
-105 -232 97 0
-105 -233 98 0
-105 -234 99 0
-105 -235 100 0
-105 -236 101 0
-105 -237 102 0
-105 -238 103 0
-105 -239 104 0
112 0
106 14 0
-106 -14 0
-106 -4 107 0
-106 -6 108 0
-106 -8 109 0
-106 -10 110 0
-106 -12 111 0
-106 -16 113 0
-106 -18 114 0
-106 -20 115 0
-106 -22 116 0
-106 -24 117 0
-106 -26 118 0
-106 -28 119 0
-106 -30 120 0
107 37 0
-107 -37 0
-107 -31 106 0
-107 -33 108 0
-107 -34 109 0
-107 -35 110 0
-107 -36 111 0
-107 -38 113 0
-107 -39 114 0
-107 -40 115 0
-107 -41 116 0
-107 -42 117 0
-107 -43 118 0
-107 -44 119 0
-107 -45 120 0
108 52 0
-108 -52 0
-108 -46 106 0
-108 -47 107 0
-108 -49 109 0
-108 -50 110 0
-108 -51 111 0
-108 -53 113 0
-108 -54 114 0
-108 -55 115 0
-108 -56 116 0
-108 -57 117 0
-108 -58 118 0
-108 -59 119 0
-108 -60 120 0
109 67 0
-109 -67 0
-109 -61 106 0
-109 -62 107 0
-109 -63 108 0
-109 -65 110 0
-109 -66 111 0
-109 -68 113 0
-109 -69 114 0
-109 -70 115 0
-109 -71 116 0
-109 -72 117 0
-109 -73 118 0
-109 -74 119 0
-109 -75 120 0
110 82 0
-110 -82 0
-110 -76 106 0
-110 -77 107 0
-110 -78 108 0
-110 -79 109 0
-110 -81 111 0
-110 -83 113 0
-110 -84 114 0
-110 -85 115 0
-110 -86 116 0
-110 -87 117 0
-110 -88 118 0
-110 -89 119 0
-110 -90 120 0
111 97 0
-111 -97 0
-111 -91 106 0
-111 -92 107 0
-111 -93 108 0
-111 -94 109 0
-111 -95 110 0
-111 -98 113 0
-111 -99 114 0
-111 -100 115 0
-111 -101 116 0
-111 -102 117 0
-111 -103 118 0
-111 -104 119 0
-111 -105 120 0
113 127 0
-113 -127 0
-113 -121 106 0
-113 -122 107 0
-113 -123 108 0
-113 -124 109 0
-113 -125 110 0
-113 -126 111 0
-113 -129 114 0
-113 -130 115 0
-113 -131 116 0
-113 -132 117 0
-113 -133 118 0
-113 -134 119 0
-113 -135 120 0
114 142 0
-114 -142 0
-114 -136 106 0
-114 -137 107 0
-114 -138 108 0
-114 -139 109 0
-114 -140 110 0
-114 -141 111 0
-114 -143 113 0
-114 -145 115 0
-114 -146 116 0
-114 -147 117 0
-114 -148 118 0
-114 -149 119 0
-114 -150 120 0
115 157 0
-115 -157 0
-115 -151 106 0
-115 -152 107 0
-115 -153 108 0
-115 -154 109 0
-115 -155 110 0
-115 -156 111 0
-115 -158 113 0
-115 -159 114 0
-115 -161 116 0
-115 -162 117 0
-115 -163 118 0
-115 -164 119 0
-115 -165 120 0
116 172 0
-116 -172 0
-116 -166 106 0
-116 -167 107 0
-116 -168 108 0
-116 -169 109 0
-116 -170 110 0
-116 -171 111 0
-116 -173 113 0
-116 -174 114 0
-116 -175 115 0
-116 -177 117 0
-116 -178 118 0
-116 -179 119 0
-116 -180 120 0
117 187 0
-117 -187 0
-117 -181 106 0
-117 -182 107 0
-117 -183 108 0
-117 -184 109 0
-117 -185 110 0
-117 -186 111 0
-117 -188 113 0
-117 -189 114 0
-117 -190 115 0
-117 -191 116 0
-117 -193 118 0
-117 -194 119 0
-117 -195 120 0
118 202 0
-118 -202 0
-118 -196 106 0
-118 -197 107 0
-118 -198 108 0
-118 -199 109 0
-118 -200 110 0
-118 -201 111 0
-118 -203 113 0
-118 -204 114 0
-118 -205 115 0
-118 -206 116 0
-118 -207 117 0
-118 -209 119 0
-118 -210 120 0
119 217 0
-119 -217 0
-119 -211 106 0
-119 -212 107 0
-119 -213 108 0
-119 -214 109 0
-119 -215 110 0
-119 -216 111 0
-119 -218 113 0
-119 -219 114 0
-119 -220 115 0
-119 -221 116 0
-119 -222 117 0
-119 -223 118 0
-119 -225 120 0
120 232 0
-120 -232 0
-120 -226 106 0
-120 -227 107 0
-120 -228 108 0
-120 -229 109 0
-120 -230 110 0
-120 -231 111 0
-120 -233 113 0
-120 -234 114 0
-120 -235 115 0
-120 -236 116 0
-120 -237 117 0
-120 -238 118 0
-120 -239 119 0
128 0
121 16 0
-121 -16 0
-121 -4 122 0
-121 -6 123 0
-121 -8 124 0
-121 -10 125 0
-121 -12 126 0
-121 -14 127 0
-121 -18 129 0
-121 -20 130 0
-121 -22 131 0
-121 -24 132 0
-121 -26 133 0
-121 -28 134 0
-121 -30 135 0
122 38 0
-122 -38 0
-122 -31 121 0
-122 -33 123 0
-122 -34 124 0
-122 -35 125 0
-122 -36 126 0
-122 -37 127 0
-122 -39 129 0
-122 -40 130 0
-122 -41 131 0
-122 -42 132 0
-122 -43 133 0
-122 -44 134 0
-122 -45 135 0
123 53 0
-123 -53 0
-123 -46 121 0
-123 -47 122 0
-123 -49 124 0
-123 -50 125 0
-123 -51 126 0
-123 -52 127 0
-123 -54 129 0
-123 -55 130 0
-123 -56 131 0
-123 -57 132 0
-123 -58 133 0
-123 -59 134 0
-123 -60 135 0
124 68 0
-124 -68 0
-124 -61 121 0
-124 -62 122 0
-124 -63 123 0
-124 -65 125 0
-124 -66 126 0
-124 -67 127 0
-124 -69 129 0
-124 -70 130 0
-124 -71 131 0
-124 -72 132 0
-124 -73 133 0
-124 -74 134 0
-124 -75 135 0
125 83 0
-125 -83 0
-125 -76 121 0
-125 -77 122 0
-125 -78 123 0
-125 -79 124 0
-125 -81 126 0
-125 -82 127 0
-125 -84 129 0
-125 -85 130 0
-125 -86 131 0
-125 -87 132 0
-125 -88 133 0
-125 -89 134 0
-125 -90 135 0
126 98 0
-126 -98 0
-126 -91 121 0
-126 -92 122 0
-126 -93 123 0
-126 -94 124 0
-126 -95 125 0
-126 -97 127 0
-126 -99 129 0
-126 -100 130 0
-126 -101 131 0
-126 -102 132 0
-126 -103 133 0
-126 -104 134 0
-126 -105 135 0
127 113 0
-127 -113 0
-127 -106 121 0
-127 -107 122 0
-127 -108 123 0
-127 -109 124 0
-127 -110 125 0
-127 -111 126 0
-127 -114 129 0
-127 -115 130 0
-127 -116 131 0
-127 -117 132 0
-127 -118 133 0
-127 -119 134 0
-127 -120 135 0
129 143 0
-129 -143 0
-129 -136 121 0
-129 -137 122 0
-129 -138 123 0
-129 -139 124 0
-129 -140 125 0
-129 -141 126 0
-129 -142 127 0
-129 -145 130 0
-129 -146 131 0
-129 -147 132 0
-129 -148 133 0
-129 -149 134 0
-129 -150 135 0
130 158 0
-130 -158 0
-130 -151 121 0
-130 -152 122 0
-130 -153 123 0
-130 -154 124 0
-130 -155 125 0
-130 -156 126 0
-130 -157 127 0
-130 -159 129 0
-130 -161 131 0
-130 -162 132 0
-130 -163 133 0
-130 -164 134 0
-130 -165 135 0
131 173 0
-131 -173 0
-131 -166 121 0
-131 -167 122 0
-131 -168 123 0
-131 -169 124 0
-131 -170 125 0
-131 -171 126 0
-131 -172 127 0
-131 -174 129 0
-131 -175 130 0
-131 -177 132 0
-131 -178 133 0
-131 -179 134 0
-131 -180 135 0
132 188 0
-132 -188 0
-132 -181 121 0
-132 -182 122 0
-132 -183 123 0
-132 -184 124 0
-132 -185 125 0
-132 -186 126 0
-132 -187 127 0
-132 -189 129 0
-132 -190 130 0
-132 -191 131 0
-132 -193 133 0
-132 -194 134 0
-132 -195 135 0
133 203 0
-133 -203 0
-133 -196 121 0
-133 -197 122 0
-133 -198 123 0
-133 -199 124 0
-133 -200 125 0
-133 -201 126 0
-133 -202 127 0
-133 -204 129 0
-133 -205 130 0
-133 -206 131 0
-133 -207 132 0
-133 -209 134 0
-133 -210 135 0
134 218 0
-134 -218 0
-134 -211 121 0
-134 -212 122 0
-134 -213 123 0
-134 -214 124 0
-134 -215 125 0
-134 -216 126 0
-134 -217 127 0
-134 -219 129 0
-134 -220 130 0
-134 -221 131 0
-134 -222 132 0
-134 -223 133 0
-134 -225 135 0
135 233 0
-135 -233 0
-135 -226 121 0
-135 -227 122 0
-135 -228 123 0
-135 -229 124 0
-135 -230 125 0
-135 -231 126 0
-135 -232 127 0
-135 -234 129 0
-135 -235 130 0
-135 -236 131 0
-135 -237 132 0
-135 -238 133 0
-135 -239 134 0
144 0
136 18 0
-136 -18 0
-136 -4 137 0
-136 -6 138 0
-136 -8 139 0
-136 -10 140 0
-136 -12 141 0
-136 -14 142 0
-136 -16 143 0
-136 -20 145 0
-136 -22 146 0
-136 -24 147 0
-136 -26 148 0
-136 -28 149 0
-136 -30 150 0
137 39 0
-137 -39 0
-137 -31 136 0
-137 -33 138 0
-137 -34 139 0
-137 -35 140 0
-137 -36 141 0
-137 -37 142 0
-137 -38 143 0
-137 -40 145 0
-137 -41 146 0
-137 -42 147 0
-137 -43 148 0
-137 -44 149 0
-137 -45 150 0
138 54 0
-138 -54 0
-138 -46 136 0
-138 -47 137 0
-138 -49 139 0
-138 -50 140 0
-138 -51 141 0
-138 -52 142 0
-138 -53 143 0
-138 -55 145 0
-138 -56 146 0
-138 -57 147 0
-138 -58 148 0
-138 -59 149 0
-138 -60 150 0
139 69 0
-139 -69 0
-139 -61 136 0
-139 -62 137 0
-139 -63 138 0
-139 -65 140 0
-139 -66 141 0
-139 -67 142 0
-139 -68 143 0
-139 -70 145 0
-139 -71 146 0
-139 -72 147 0
-139 -73 148 0
-139 -74 149 0
-139 -75 150 0
140 84 0
-140 -84 0
-140 -76 136 0
-140 -77 137 0
-140 -78 138 0
-140 -79 139 0
-140 -81 141 0
-140 -82 142 0
-140 -83 143 0
-140 -85 145 0
-140 -86 146 0
-140 -87 147 0
-140 -88 148 0
-140 -89 149 0
-140 -90 150 0
141 99 0
-141 -99 0
-141 -91 136 0
-141 -92 137 0
-141 -93 138 0
-141 -94 139 0
-141 -95 140 0
-141 -97 142 0
-141 -98 143 0
-141 -100 145 0
-141 -101 146 0
-141 -102 147 0
-141 -103 148 0
-141 -104 149 0
-141 -105 150 0
142 114 0
-142 -114 0
-142 -106 136 0
-142 -107 137 0
-142 -108 138 0
-142 -109 139 0
-142 -110 140 0
-142 -111 141 0
-142 -113 143 0
-142 -115 145 0
-142 -116 146 0
-142 -117 147 0
-142 -118 148 0
-142 -119 149 0
-142 -120 150 0
143 129 0
-143 -129 0
-143 -121 136 0
-143 -122 137 0
-143 -123 138 0
-143 -124 139 0
-143 -125 140 0
-143 -126 141 0
-143 -127 142 0
-143 -130 145 0
-143 -131 146 0
-143 -132 147 0
-143 -133 148 0
-143 -134 149 0
-143 -135 150 0
145 159 0
-145 -159 0
-145 -151 136 0
-145 -152 137 0
-145 -153 138 0
-145 -154 139 0
-145 -155 140 0
-145 -156 141 0
-145 -157 142 0
-145 -158 143 0
-145 -161 146 0
-145 -162 147 0
-145 -163 148 0
-145 -164 149 0
-145 -165 150 0
146 174 0
-146 -174 0
-146 -166 136 0
-146 -167 137 0
-146 -168 138 0
-146 -169 139 0
-146 -170 140 0
-146 -171 141 0
-146 -172 142 0
-146 -173 143 0
-146 -175 145 0
-146 -177 147 0
-146 -178 148 0
-146 -179 149 0
-146 -180 150 0
147 189 0
-147 -189 0
-147 -181 136 0
-147 -182 137 0
-147 -183 138 0
-147 -184 139 0
-147 -185 140 0
-147 -186 141 0
-147 -187 142 0
-147 -188 143 0
-147 -190 145 0
-147 -191 146 0
-147 -193 148 0
-147 -194 149 0
-147 -195 150 0
148 204 0
-148 -204 0
-148 -196 136 0
-148 -197 137 0
-148 -198 138 0
-148 -199 139 0
-148 -200 140 0
-148 -201 141 0
-148 -202 142 0
-148 -203 143 0
-148 -205 145 0
-148 -206 146 0
-148 -207 147 0
-148 -209 149 0
-148 -210 150 0
149 219 0
-149 -219 0
-149 -211 136 0
-149 -212 137 0
-149 -213 138 0
-149 -214 139 0
-149 -215 140 0
-149 -216 141 0
-149 -217 142 0
-149 -218 143 0
-149 -220 145 0
-149 -221 146 0
-149 -222 147 0
-149 -223 148 0
-149 -225 150 0
150 234 0
-150 -234 0
-150 -226 136 0
-150 -227 137 0
-150 -228 138 0
-150 -229 139 0
-150 -230 140 0
-150 -231 141 0
-150 -232 142 0
-150 -233 143 0
-150 -235 145 0
-150 -236 146 0
-150 -237 147 0
-150 -238 148 0
-150 -239 149 0
160 0
151 20 0
-151 -20 0
-151 -4 152 0
-151 -6 153 0
-151 -8 154 0
-151 -10 155 0
-151 -12 156 0
-151 -14 157 0
-151 -16 158 0
-151 -18 159 0
-151 -22 161 0
-151 -24 162 0
-151 -26 163 0
-151 -28 164 0
-151 -30 165 0
152 40 0
-152 -40 0
-152 -31 151 0
-152 -33 153 0
-152 -34 154 0
-152 -35 155 0
-152 -36 156 0
-152 -37 157 0
-152 -38 158 0
-152 -39 159 0
-152 -41 161 0
-152 -42 162 0
-152 -43 163 0
-152 -44 164 0
-152 -45 165 0
153 55 0
-153 -55 0
-153 -46 151 0
-153 -47 152 0
-153 -49 154 0
-153 -50 155 0
-153 -51 156 0
-153 -52 157 0
-153 -53 158 0
-153 -54 159 0
-153 -56 161 0
-153 -57 162 0
-153 -58 163 0
-153 -59 164 0
-153 -60 165 0
154 70 0
-154 -70 0
-154 -61 151 0
-154 -62 152 0
-154 -63 153 0
-154 -65 155 0
-154 -66 156 0
-154 -67 157 0
-154 -68 158 0
-154 -69 159 0
-154 -71 161 0
-154 -72 162 0
-154 -73 163 0
-154 -74 164 0
-154 -75 165 0
155 85 0
-155 -85 0
-155 -76 151 0
-155 -77 152 0
-155 -78 153 0
-155 -79 154 0
-155 -81 156 0
-155 -82 157 0
-155 -83 158 0
-155 -84 159 0
-155 -86 161 0
-155 -87 162 0
-155 -88 163 0
-155 -89 164 0
-155 -90 165 0
156 100 0
-156 -100 0
-156 -91 151 0
-156 -92 152 0
-156 -93 153 0
-156 -94 154 0
-156 -95 155 0
-156 -97 157 0
-156 -98 158 0
-156 -99 159 0
-156 -101 161 0
-156 -102 162 0
-156 -103 163 0
-156 -104 164 0
-156 -105 165 0
157 115 0
-157 -115 0
-157 -106 151 0
-157 -107 152 0
-157 -108 153 0
-157 -109 154 0
-157 -110 155 0
-157 -111 156 0
-157 -113 158 0
-157 -114 159 0
-157 -116 161 0
-157 -117 162 0
-157 -118 163 0
-157 -119 164 0
-157 -120 165 0
158 130 0
-158 -130 0
-158 -121 151 0
-158 -122 152 0
-158 -123 153 0
-158 -124 154 0
-158 -125 155 0
-158 -126 156 0
-158 -127 157 0
-158 -129 159 0
-158 -131 161 0
-158 -132 162 0
-158 -133 163 0
-158 -134 164 0
-158 -135 165 0
159 145 0
-159 -145 0
-159 -136 151 0
-159 -137 152 0
-159 -138 153 0
-159 -139 154 0
-159 -140 155 0
-159 -141 156 0
-159 -142 157 0
-159 -143 158 0
-159 -146 161 0
-159 -147 162 0
-159 -148 163 0
-159 -149 164 0
-159 -150 165 0
161 175 0
-161 -175 0
-161 -166 151 0
-161 -167 152 0
-161 -168 153 0
-161 -169 154 0
-161 -170 155 0
-161 -171 156 0
-161 -172 157 0
-161 -173 158 0
-161 -174 159 0
-161 -177 162 0
-161 -178 163 0
-161 -179 164 0
-161 -180 165 0
162 190 0
-162 -190 0
-162 -181 151 0
-162 -182 152 0
-162 -183 153 0
-162 -184 154 0
-162 -185 155 0
-162 -186 156 0
-162 -187 157 0
-162 -188 158 0
-162 -189 159 0
-162 -191 161 0
-162 -193 163 0
-162 -194 164 0
-162 -195 165 0
163 205 0
-163 -205 0
-163 -196 151 0
-163 -197 152 0
-163 -198 153 0
-163 -199 154 0
-163 -200 155 0
-163 -201 156 0
-163 -202 157 0
-163 -203 158 0
-163 -204 159 0
-163 -206 161 0
-163 -207 162 0
-163 -209 164 0
-163 -210 165 0
164 220 0
-164 -220 0
-164 -211 151 0
-164 -212 152 0
-164 -213 153 0
-164 -214 154 0
-164 -215 155 0
-164 -216 156 0
-164 -217 157 0
-164 -218 158 0
-164 -219 159 0
-164 -221 161 0
-164 -222 162 0
-164 -223 163 0
-164 -225 165 0
165 235 0
-165 -235 0
-165 -226 151 0
-165 -227 152 0
-165 -228 153 0
-165 -229 154 0
-165 -230 155 0
-165 -231 156 0
-165 -232 157 0
-165 -233 158 0
-165 -234 159 0
-165 -236 161 0
-165 -237 162 0
-165 -238 163 0
-165 -239 164 0
176 0
166 22 0
-166 -22 0
-166 -4 167 0
-166 -6 168 0
-166 -8 169 0
-166 -10 170 0
-166 -12 171 0
-166 -14 172 0
-166 -16 173 0
-166 -18 174 0
-166 -20 175 0
-166 -24 177 0
-166 -26 178 0
-166 -28 179 0
-166 -30 180 0
167 41 0
-167 -41 0
-167 -31 166 0
-167 -33 168 0
-167 -34 169 0
-167 -35 170 0
-167 -36 171 0
-167 -37 172 0
-167 -38 173 0
-167 -39 174 0
-167 -40 175 0
-167 -42 177 0
-167 -43 178 0
-167 -44 179 0
-167 -45 180 0
168 56 0
-168 -56 0
-168 -46 166 0
-168 -47 167 0
-168 -49 169 0
-168 -50 170 0
-168 -51 171 0
-168 -52 172 0
-168 -53 173 0
-168 -54 174 0
-168 -55 175 0
-168 -57 177 0
-168 -58 178 0
-168 -59 179 0
-168 -60 180 0
169 71 0
-169 -71 0
-169 -61 166 0
-169 -62 167 0
-169 -63 168 0
-169 -65 170 0
-169 -66 171 0
-169 -67 172 0
-169 -68 173 0
-169 -69 174 0
-169 -70 175 0
-169 -72 177 0
-169 -73 178 0
-169 -74 179 0
-169 -75 180 0
170 86 0
-170 -86 0
-170 -76 166 0
-170 -77 167 0
-170 -78 168 0
-170 -79 169 0
-170 -81 171 0
-170 -82 172 0
-170 -83 173 0
-170 -84 174 0
-170 -85 175 0
-170 -87 177 0
-170 -88 178 0
-170 -89 179 0
-170 -90 180 0
171 101 0
-171 -101 0
-171 -91 166 0
-171 -92 167 0
-171 -93 168 0
-171 -94 169 0
-171 -95 170 0
-171 -97 172 0
-171 -98 173 0
-171 -99 174 0
-171 -100 175 0
-171 -102 177 0
-171 -103 178 0
-171 -104 179 0
-171 -105 180 0
172 116 0
-172 -116 0
-172 -106 166 0
-172 -107 167 0
-172 -108 168 0
-172 -109 169 0
-172 -110 170 0
-172 -111 171 0
-172 -113 173 0
-172 -114 174 0
-172 -115 175 0
-172 -117 177 0
-172 -118 178 0
-172 -119 179 0
-172 -120 180 0
173 131 0
-173 -131 0
-173 -121 166 0
-173 -122 167 0
-173 -123 168 0
-173 -124 169 0
-173 -125 170 0
-173 -126 171 0
-173 -127 172 0
-173 -129 174 0
-173 -130 175 0
-173 -132 177 0
-173 -133 178 0
-173 -134 179 0
-173 -135 180 0
174 146 0
-174 -146 0
-174 -136 166 0
-174 -137 167 0
-174 -138 168 0
-174 -139 169 0
-174 -140 170 0
-174 -141 171 0
-174 -142 172 0
-174 -143 173 0
-174 -145 175 0
-174 -147 177 0
-174 -148 178 0
-174 -149 179 0
-174 -150 180 0
175 161 0
-175 -161 0
-175 -151 166 0
-175 -152 167 0
-175 -153 168 0
-175 -154 169 0
-175 -155 170 0
-175 -156 171 0
-175 -157 172 0
-175 -158 173 0
-175 -159 174 0
-175 -162 177 0
-175 -163 178 0
-175 -164 179 0
-175 -165 180 0
177 191 0
-177 -191 0
-177 -181 166 0
-177 -182 167 0
-177 -183 168 0
-177 -184 169 0
-177 -185 170 0
-177 -186 171 0
-177 -187 172 0
-177 -188 173 0
-177 -189 174 0
-177 -190 175 0
-177 -193 178 0
-177 -194 179 0
-177 -195 180 0
178 206 0
-178 -206 0
-178 -196 166 0
-178 -197 167 0
-178 -198 168 0
-178 -199 169 0
-178 -200 170 0
-178 -201 171 0
-178 -202 172 0
-178 -203 173 0
-178 -204 174 0
-178 -205 175 0
-178 -207 177 0
-178 -209 179 0
-178 -210 180 0
179 221 0
-179 -221 0
-179 -211 166 0
-179 -212 167 0
-179 -213 168 0
-179 -214 169 0
-179 -215 170 0
-179 -216 171 0
-179 -217 172 0
-179 -218 173 0
-179 -219 174 0
-179 -220 175 0
-179 -222 177 0
-179 -223 178 0
-179 -225 180 0
180 236 0
-180 -236 0
-180 -226 166 0
-180 -227 167 0
-180 -228 168 0
-180 -229 169 0
-180 -230 170 0
-180 -231 171 0
-180 -232 172 0
-180 -233 173 0
-180 -234 174 0
-180 -235 175 0
-180 -237 177 0
-180 -238 178 0
-180 -239 179 0
192 0
181 24 0
-181 -24 0
-181 -4 182 0
-181 -6 183 0
-181 -8 184 0
-181 -10 185 0
-181 -12 186 0
-181 -14 187 0
-181 -16 188 0
-181 -18 189 0
-181 -20 190 0
-181 -22 191 0
-181 -26 193 0
-181 -28 194 0
-181 -30 195 0
182 42 0
-182 -42 0
-182 -31 181 0
-182 -33 183 0
-182 -34 184 0
-182 -35 185 0
-182 -36 186 0
-182 -37 187 0
-182 -38 188 0
-182 -39 189 0
-182 -40 190 0
-182 -41 191 0
-182 -43 193 0
-182 -44 194 0
-182 -45 195 0
183 57 0
-183 -57 0
-183 -46 181 0
-183 -47 182 0
-183 -49 184 0
-183 -50 185 0
-183 -51 186 0
-183 -52 187 0
-183 -53 188 0
-183 -54 189 0
-183 -55 190 0
-183 -56 191 0
-183 -58 193 0
-183 -59 194 0
-183 -60 195 0
184 72 0
-184 -72 0
-184 -61 181 0
-184 -62 182 0
-184 -63 183 0
-184 -65 185 0
-184 -66 186 0
-184 -67 187 0
-184 -68 188 0
-184 -69 189 0
-184 -70 190 0
-184 -71 191 0
-184 -73 193 0
-184 -74 194 0
-184 -75 195 0
185 87 0
-185 -87 0
-185 -76 181 0
-185 -77 182 0
-185 -78 183 0
-185 -79 184 0
-185 -81 186 0
-185 -82 187 0
-185 -83 188 0
-185 -84 189 0
-185 -85 190 0
-185 -86 191 0
-185 -88 193 0
-185 -89 194 0
-185 -90 195 0
186 102 0
-186 -102 0
-186 -91 181 0
-186 -92 182 0
-186 -93 183 0
-186 -94 184 0
-186 -95 185 0
-186 -97 187 0
-186 -98 188 0
-186 -99 189 0
-186 -100 190 0
-186 -101 191 0
-186 -103 193 0
-186 -104 194 0
-186 -105 195 0
187 117 0
-187 -117 0
-187 -106 181 0
-187 -107 182 0
-187 -108 183 0
-187 -109 184 0
-187 -110 185 0
-187 -111 186 0
-187 -113 188 0
-187 -114 189 0
-187 -115 190 0
-187 -116 191 0
-187 -118 193 0
-187 -119 194 0
-187 -120 195 0
188 132 0
-188 -132 0
-188 -121 181 0
-188 -122 182 0
-188 -123 183 0
-188 -124 184 0
-188 -125 185 0
-188 -126 186 0
-188 -127 187 0
-188 -129 189 0
-188 -130 190 0
-188 -131 191 0
-188 -133 193 0
-188 -134 194 0
-188 -135 195 0
189 147 0
-189 -147 0
-189 -136 181 0
-189 -137 182 0
-189 -138 183 0
-189 -139 184 0
-189 -140 185 0
-189 -141 186 0
-189 -142 187 0
-189 -143 188 0
-189 -145 190 0
-189 -146 191 0
-189 -148 193 0
-189 -149 194 0
-189 -150 195 0
190 162 0
-190 -162 0
-190 -151 181 0
-190 -152 182 0
-190 -153 183 0
-190 -154 184 0
-190 -155 185 0
-190 -156 186 0
-190 -157 187 0
-190 -158 188 0
-190 -159 189 0
-190 -161 191 0
-190 -163 193 0
-190 -164 194 0
-190 -165 195 0
191 177 0
-191 -177 0
-191 -166 181 0
-191 -167 182 0
-191 -168 183 0
-191 -169 184 0
-191 -170 185 0
-191 -171 186 0
-191 -172 187 0
-191 -173 188 0
-191 -174 189 0
-191 -175 190 0
-191 -178 193 0
-191 -179 194 0
-191 -180 195 0
193 207 0
-193 -207 0
-193 -196 181 0
-193 -197 182 0
-193 -198 183 0
-193 -199 184 0
-193 -200 185 0
-193 -201 186 0
-193 -202 187 0
-193 -203 188 0
-193 -204 189 0
-193 -205 190 0
-193 -206 191 0
-193 -209 194 0
-193 -210 195 0
194 222 0
-194 -222 0
-194 -211 181 0
-194 -212 182 0
-194 -213 183 0
-194 -214 184 0
-194 -215 185 0
-194 -216 186 0
-194 -217 187 0
-194 -218 188 0
-194 -219 189 0
-194 -220 190 0
-194 -221 191 0
-194 -223 193 0
-194 -225 195 0
195 237 0
-195 -237 0
-195 -226 181 0
-195 -227 182 0
-195 -228 183 0
-195 -229 184 0
-195 -230 185 0
-195 -231 186 0
-195 -232 187 0
-195 -233 188 0
-195 -234 189 0
-195 -235 190 0
-195 -236 191 0
-195 -238 193 0
-195 -239 194 0
208 0
196 26 0
-196 -26 0
-196 -4 197 0
-196 -6 198 0
-196 -8 199 0
-196 -10 200 0
-196 -12 201 0
-196 -14 202 0
-196 -16 203 0
-196 -18 204 0
-196 -20 205 0
-196 -22 206 0
-196 -24 207 0
-196 -28 209 0
-196 -30 210 0
197 43 0
-197 -43 0
-197 -31 196 0
-197 -33 198 0
-197 -34 199 0
-197 -35 200 0
-197 -36 201 0
-197 -37 202 0
-197 -38 203 0
-197 -39 204 0
-197 -40 205 0
-197 -41 206 0
-197 -42 207 0
-197 -44 209 0
-197 -45 210 0
198 58 0
-198 -58 0
-198 -46 196 0
-198 -47 197 0
-198 -49 199 0
-198 -50 200 0
-198 -51 201 0
-198 -52 202 0
-198 -53 203 0
-198 -54 204 0
-198 -55 205 0
-198 -56 206 0
-198 -57 207 0
-198 -59 209 0
-198 -60 210 0
199 73 0
-199 -73 0
-199 -61 196 0
-199 -62 197 0
-199 -63 198 0
-199 -65 200 0
-199 -66 201 0
-199 -67 202 0
-199 -68 203 0
-199 -69 204 0
-199 -70 205 0
-199 -71 206 0
-199 -72 207 0
-199 -74 209 0
-199 -75 210 0
200 88 0
-200 -88 0
-200 -76 196 0
-200 -77 197 0
-200 -78 198 0
-200 -79 199 0
-200 -81 201 0
-200 -82 202 0
-200 -83 203 0
-200 -84 204 0
-200 -85 205 0
-200 -86 206 0
-200 -87 207 0
-200 -89 209 0
-200 -90 210 0
201 103 0
-201 -103 0
-201 -91 196 0
-201 -92 197 0
-201 -93 198 0
-201 -94 199 0
-201 -95 200 0
-201 -97 202 0
-201 -98 203 0
-201 -99 204 0
-201 -100 205 0
-201 -101 206 0
-201 -102 207 0
-201 -104 209 0
-201 -105 210 0
202 118 0
-202 -118 0
-202 -106 196 0
-202 -107 197 0
-202 -108 198 0
-202 -109 199 0
-202 -110 200 0
-202 -111 201 0
-202 -113 203 0
-202 -114 204 0
-202 -115 205 0
-202 -116 206 0
-202 -117 207 0
-202 -119 209 0
-202 -120 210 0
203 133 0
-203 -133 0
-203 -121 196 0
-203 -122 197 0
-203 -123 198 0
-203 -124 199 0
-203 -125 200 0
-203 -126 201 0
-203 -127 202 0
-203 -129 204 0
-203 -130 205 0
-203 -131 206 0
-203 -132 207 0
-203 -134 209 0
-203 -135 210 0
204 148 0
-204 -148 0
-204 -136 196 0
-204 -137 197 0
-204 -138 198 0
-204 -139 199 0
-204 -140 200 0
-204 -141 201 0
-204 -142 202 0
-204 -143 203 0
-204 -145 205 0
-204 -146 206 0
-204 -147 207 0
-204 -149 209 0
-204 -150 210 0
205 163 0
-205 -163 0
-205 -151 196 0
-205 -152 197 0
-205 -153 198 0
-205 -154 199 0
-205 -155 200 0
-205 -156 201 0
-205 -157 202 0
-205 -158 203 0
-205 -159 204 0
-205 -161 206 0
-205 -162 207 0
-205 -164 209 0
-205 -165 210 0
206 178 0
-206 -178 0
-206 -166 196 0
-206 -167 197 0
-206 -168 198 0
-206 -169 199 0
-206 -170 200 0
-206 -171 201 0
-206 -172 202 0
-206 -173 203 0
-206 -174 204 0
-206 -175 205 0
-206 -177 207 0
-206 -179 209 0
-206 -180 210 0
207 193 0
-207 -193 0
-207 -181 196 0
-207 -182 197 0
-207 -183 198 0
-207 -184 199 0
-207 -185 200 0
-207 -186 201 0
-207 -187 202 0
-207 -188 203 0
-207 -189 204 0
-207 -190 205 0
-207 -191 206 0
-207 -194 209 0
-207 -195 210 0
209 223 0
-209 -223 0
-209 -211 196 0
-209 -212 197 0
-209 -213 198 0
-209 -214 199 0
-209 -215 200 0
-209 -216 201 0
-209 -217 202 0
-209 -218 203 0
-209 -219 204 0
-209 -220 205 0
-209 -221 206 0
-209 -222 207 0
-209 -225 210 0
210 238 0
-210 -238 0
-210 -226 196 0
-210 -227 197 0
-210 -228 198 0
-210 -229 199 0
-210 -230 200 0
-210 -231 201 0
-210 -232 202 0
-210 -233 203 0
-210 -234 204 0
-210 -235 205 0
-210 -236 206 0
-210 -237 207 0
-210 -239 209 0
224 0
211 28 0
-211 -28 0
-211 -4 212 0
-211 -6 213 0
-211 -8 214 0
-211 -10 215 0
-211 -12 216 0
-211 -14 217 0
-211 -16 218 0
-211 -18 219 0
-211 -20 220 0
-211 -22 221 0
-211 -24 222 0
-211 -26 223 0
-211 -30 225 0
212 44 0
-212 -44 0
-212 -31 211 0
-212 -33 213 0
-212 -34 214 0
-212 -35 215 0
-212 -36 216 0
-212 -37 217 0
-212 -38 218 0
-212 -39 219 0
-212 -40 220 0
-212 -41 221 0
-212 -42 222 0
-212 -43 223 0
-212 -45 225 0
213 59 0
-213 -59 0
-213 -46 211 0
-213 -47 212 0
-213 -49 214 0
-213 -50 215 0
-213 -51 216 0
-213 -52 217 0
-213 -53 218 0
-213 -54 219 0
-213 -55 220 0
-213 -56 221 0
-213 -57 222 0
-213 -58 223 0
-213 -60 225 0
214 74 0
-214 -74 0
-214 -61 211 0
-214 -62 212 0
-214 -63 213 0
-214 -65 215 0
-214 -66 216 0
-214 -67 217 0
-214 -68 218 0
-214 -69 219 0
-214 -70 220 0
-214 -71 221 0
-214 -72 222 0
-214 -73 223 0
-214 -75 225 0
215 89 0
-215 -89 0
-215 -76 211 0
-215 -77 212 0
-215 -78 213 0
-215 -79 214 0
-215 -81 216 0
-215 -82 217 0
-215 -83 218 0
-215 -84 219 0
-215 -85 220 0
-215 -86 221 0
-215 -87 222 0
-215 -88 223 0
-215 -90 225 0
216 104 0
-216 -104 0
-216 -91 211 0
-216 -92 212 0
-216 -93 213 0
-216 -94 214 0
-216 -95 215 0
-216 -97 217 0
-216 -98 218 0
-216 -99 219 0
-216 -100 220 0
-216 -101 221 0
-216 -102 222 0
-216 -103 223 0
-216 -105 225 0
217 119 0
-217 -119 0
-217 -106 211 0
-217 -107 212 0
-217 -108 213 0
-217 -109 214 0
-217 -110 215 0
-217 -111 216 0
-217 -113 218 0
-217 -114 219 0
-217 -115 220 0
-217 -116 221 0
-217 -117 222 0
-217 -118 223 0
-217 -120 225 0
218 134 0
-218 -134 0
-218 -121 211 0
-218 -122 212 0
-218 -123 213 0
-218 -124 214 0
-218 -125 215 0
-218 -126 216 0
-218 -127 217 0
-218 -129 219 0
-218 -130 220 0
-218 -131 221 0
-218 -132 222 0
-218 -133 223 0
-218 -135 225 0
219 149 0
-219 -149 0
-219 -136 211 0
-219 -137 212 0
-219 -138 213 0
-219 -139 214 0
-219 -140 215 0
-219 -141 216 0
-219 -142 217 0
-219 -143 218 0
-219 -145 220 0
-219 -146 221 0
-219 -147 222 0
-219 -148 223 0
-219 -150 225 0
220 164 0
-220 -164 0
-220 -151 211 0
-220 -152 212 0
-220 -153 213 0
-220 -154 214 0
-220 -155 215 0
-220 -156 216 0
-220 -157 217 0
-220 -158 218 0
-220 -159 219 0
-220 -161 221 0
-220 -162 222 0
-220 -163 223 0
-220 -165 225 0
221 179 0
-221 -179 0
-221 -166 211 0
-221 -167 212 0
-221 -168 213 0
-221 -169 214 0
-221 -170 215 0
-221 -171 216 0
-221 -172 217 0
-221 -173 218 0
-221 -174 219 0
-221 -175 220 0
-221 -177 222 0
-221 -178 223 0
-221 -180 225 0
222 194 0
-222 -194 0
-222 -181 211 0
-222 -182 212 0
-222 -183 213 0
-222 -184 214 0
-222 -185 215 0
-222 -186 216 0
-222 -187 217 0
-222 -188 218 0
-222 -189 219 0
-222 -190 220 0
-222 -191 221 0
-222 -193 223 0
-222 -195 225 0
223 209 0
-223 -209 0
-223 -196 211 0
-223 -197 212 0
-223 -198 213 0
-223 -199 214 0
-223 -200 215 0
-223 -201 216 0
-223 -202 217 0
-223 -203 218 0
-223 -204 219 0
-223 -205 220 0
-223 -206 221 0
-223 -207 222 0
-223 -210 225 0
225 239 0
-225 -239 0
-225 -226 211 0
-225 -227 212 0
-225 -228 213 0
-225 -229 214 0
-225 -230 215 0
-225 -231 216 0
-225 -232 217 0
-225 -233 218 0
-225 -234 219 0
-225 -235 220 0
-225 -236 221 0
-225 -237 222 0
-225 -238 223 0
240 0
226 30 0
-226 -30 0
-226 -4 227 0
-226 -6 228 0
-226 -8 229 0
-226 -10 230 0
-226 -12 231 0
-226 -14 232 0
-226 -16 233 0
-226 -18 234 0
-226 -20 235 0
-226 -22 236 0
-226 -24 237 0
-226 -26 238 0
-226 -28 239 0
227 45 0
-227 -45 0
-227 -31 226 0
-227 -33 228 0
-227 -34 229 0
-227 -35 230 0
-227 -36 231 0
-227 -37 232 0
-227 -38 233 0
-227 -39 234 0
-227 -40 235 0
-227 -41 236 0
-227 -42 237 0
-227 -43 238 0
-227 -44 239 0
228 60 0
-228 -60 0
-228 -46 226 0
-228 -47 227 0
-228 -49 229 0
-228 -50 230 0
-228 -51 231 0
-228 -52 232 0
-228 -53 233 0
-228 -54 234 0
-228 -55 235 0
-228 -56 236 0
-228 -57 237 0
-228 -58 238 0
-228 -59 239 0
229 75 0
-229 -75 0
-229 -61 226 0
-229 -62 227 0
-229 -63 228 0
-229 -65 230 0
-229 -66 231 0
-229 -67 232 0
-229 -68 233 0
-229 -69 234 0
-229 -70 235 0
-229 -71 236 0
-229 -72 237 0
-229 -73 238 0
-229 -74 239 0
230 90 0
-230 -90 0
-230 -76 226 0
-230 -77 227 0
-230 -78 228 0
-230 -79 229 0
-230 -81 231 0
-230 -82 232 0
-230 -83 233 0
-230 -84 234 0
-230 -85 235 0
-230 -86 236 0
-230 -87 237 0
-230 -88 238 0
-230 -89 239 0
231 105 0
-231 -105 0
-231 -91 226 0
-231 -92 227 0
-231 -93 228 0
-231 -94 229 0
-231 -95 230 0
-231 -97 232 0
-231 -98 233 0
-231 -99 234 0
-231 -100 235 0
-231 -101 236 0
-231 -102 237 0
-231 -103 238 0
-231 -104 239 0
232 120 0
-232 -120 0
-232 -106 226 0
-232 -107 227 0
-232 -108 228 0
-232 -109 229 0
-232 -110 230 0
-232 -111 231 0
-232 -113 233 0
-232 -114 234 0
-232 -115 235 0
-232 -116 236 0
-232 -117 237 0
-232 -118 238 0
-232 -119 239 0
233 135 0
-233 -135 0
-233 -121 226 0
-233 -122 227 0
-233 -123 228 0
-233 -124 229 0
-233 -125 230 0
-233 -126 231 0
-233 -127 232 0
-233 -129 234 0
-233 -130 235 0
-233 -131 236 0
-233 -132 237 0
-233 -133 238 0
-233 -134 239 0
234 150 0
-234 -150 0
-234 -136 226 0
-234 -137 227 0
-234 -138 228 0
-234 -139 229 0
-234 -140 230 0
-234 -141 231 0
-234 -142 232 0
-234 -143 233 0
-234 -145 235 0
-234 -146 236 0
-234 -147 237 0
-234 -148 238 0
-234 -149 239 0
235 165 0
-235 -165 0
-235 -151 226 0
-235 -152 227 0
-235 -153 228 0
-235 -154 229 0
-235 -155 230 0
-235 -156 231 0
-235 -157 232 0
-235 -158 233 0
-235 -159 234 0
-235 -161 236 0
-235 -162 237 0
-235 -163 238 0
-235 -164 239 0
236 180 0
-236 -180 0
-236 -166 226 0
-236 -167 227 0
-236 -168 228 0
-236 -169 229 0
-236 -170 230 0
-236 -171 231 0
-236 -172 232 0
-236 -173 233 0
-236 -174 234 0
-236 -175 235 0
-236 -177 237 0
-236 -178 238 0
-236 -179 239 0
237 195 0
-237 -195 0
-237 -181 226 0
-237 -182 227 0
-237 -183 228 0
-237 -184 229 0
-237 -185 230 0
-237 -186 231 0
-237 -187 232 0
-237 -188 233 0
-237 -189 234 0
-237 -190 235 0
-237 -191 236 0
-237 -193 238 0
-237 -194 239 0
238 210 0
-238 -210 0
-238 -196 226 0
-238 -197 227 0
-238 -198 228 0
-238 -199 229 0
-238 -200 230 0
-238 -201 231 0
-238 -202 232 0
-238 -203 233 0
-238 -204 234 0
-238 -205 235 0
-238 -206 236 0
-238 -207 237 0
-238 -209 239 0
239 225 0
-239 -225 0
-239 -211 226 0
-239 -212 227 0
-239 -213 228 0
-239 -214 229 0
-239 -215 230 0
-239 -216 231 0
-239 -217 232 0
-239 -218 233 0
-239 -219 234 0
-239 -220 235 0
-239 -221 236 0
-239 -222 237 0
-239 -223 238 0
