p cnf 20 68
1 -2 -1 0
3 -4 -1 0
5 -6 -1 0
7 -8 -1 0
1 -9 -3 0
3 -10 -3 0
5 -11 -3 0
7 -12 -3 0
1 -13 -5 0
3 -14 -5 0
5 -15 -5 0
7 -16 -5 0
1 -17 -7 0
3 -18 -7 0
5 -19 -7 0
7 -20 -7 0
2 0
4 9 0
-4 -9 0
-4 -11 6 0
-4 -12 8 0
6 13 0
-6 -13 0
-6 -14 4 0
-6 -16 8 0
8 17 0
-8 -17 0
-8 -18 4 0
-8 -19 6 0
10 0
9 4 0
-9 -4 0
-9 -6 11 0
-9 -8 12 0
11 14 0
-11 -14 0
-11 -13 9 0
-11 -16 12 0
12 18 0
-12 -18 0
-12 -17 9 0
-12 -19 11 0
15 0
13 6 0
-13 -6 0
-13 -4 14 0
-13 -8 16 0
14 11 0
-14 -11 0
-14 -9 13 0
-14 -12 16 0
16 19 0
-16 -19 0
-16 -17 13 0
-16 -18 14 0
20 0
17 8 0
-17 -8 0
-17 -4 18 0
-17 -6 19 0
18 12 0
-18 -12 0
-18 -9 17 0
-18 -11 19 0
19 16 0
-19 -16 0
-19 -13 17 0
-19 -14 18 0
