c LEQ(domain1,domain1) T(domain1) LEQ(domain1,domain2) T(domain2) LEQ(domain2,domain1) LEQ(domain3,domain1) LEQ(domain1,domain3) T(domain3) LEQ(domain1,domain0) LEQ(domain0,domain1) T(domain0) LEQ(domain2,domain2) LEQ(domain2,domain3) LEQ(domain3,domain2) LEQ(domain0,domain2) LEQ(domain2,domain0) LEQ(domain3,domain3) LEQ(domain0,domain3) LEQ(domain3,domain0) LEQ(domain0,domain0)
c 1 2 3 4 5 6 7 8 9 10 11 12 13 14 15 16 17 18 19 20
p cnf 20 56
11 -20 -11 0
11 -9 -2 0
11 -16 -4 0
11 -19 -8 0
2 -10 -11 0
2 -1 -2 0
2 -5 -4 0
2 -6 -8 0
4 -15 -11 0
4 -3 -2 0
4 -12 -4 0
4 -14 -8 0
8 -18 -11 0
8 -7 -2 0
8 -13 -4 0
8 -17 -8 0
20 0
10 9 0
-10 -9 0
-10 -3 15 0
-10 -7 18 0
15 16 0
-15 -16 0
-15 -5 10 0
-15 -13 18 0
18 19 0
-18 -19 0
-18 -6 10 0
-18 -14 15 0
1 0
-9 -15 3 0
-9 -18 7 0
3 5 0
-3 -5 0
-3 -16 9 0
-3 -13 7 0
7 6 0
-7 -6 0
-7 -19 9 0
-7 -14 3 0
12 0
-16 -10 5 0
-16 -18 13 0
-5 -9 16 0
-5 -7 13 0
13 14 0
-13 -14 0
-13 -19 16 0
-13 -6 5 0
17 0
-19 -10 6 0
-19 -15 14 0
-6 -9 19 0
-6 -3 14 0
-14 -16 19 0
-14 -5 6 0
