p cnf 30 130
1 -2 -1 0
3 -4 -1 0
5 -6 -1 0
7 -8 -1 0
9 -10 -1 0
1 -11 -3 0
3 -12 -3 0
5 -13 -3 0
7 -14 -3 0
9 -15 -3 0
1 -16 -5 0
3 -17 -5 0
5 -18 -5 0
7 -19 -5 0
9 -20 -5 0
1 -21 -7 0
3 -22 -7 0
5 -23 -7 0
7 -24 -7 0
9 -25 -7 0
1 -26 -9 0
3 -27 -9 0
5 -28 -9 0
7 -29 -9 0
9 -30 -9 0
2 0
4 11 0
-4 -11 0
-4 -13 6 0
-4 -14 8 0
-4 -15 10 0
6 16 0
-6 -16 0
-6 -17 4 0
-6 -19 8 0
-6 -20 10 0
8 21 0
-8 -21 0
-8 -22 4 0
-8 -23 6 0
-8 -25 10 0
10 26 0
-10 -26 0
-10 -27 4 0
-10 -28 6 0
-10 -29 8 0
12 0
11 4 0
-11 -4 0
-11 -6 13 0
-11 -8 14 0
-11 -10 15 0
13 17 0
-13 -17 0
-13 -16 11 0
-13 -19 14 0
-13 -20 15 0
14 22 0
-14 -22 0
-14 -21 11 0
-14 -23 13 0
-14 -25 15 0
15 27 0
-15 -27 0
-15 -26 11 0
-15 -28 13 0
-15 -29 14 0
18 0
16 6 0
-16 -6 0
-16 -4 17 0
-16 -8 19 0
-16 -10 20 0
17 13 0
-17 -13 0
-17 -11 16 0
-17 -14 19 0
-17 -15 20 0
19 23 0
-19 -23 0
-19 -21 16 0
-19 -22 17 0
-19 -25 20 0
20 28 0
-20 -28 0
-20 -26 16 0
-20 -27 17 0
-20 -29 19 0
24 0
21 8 0
-21 -8 0
-21 -4 22 0
-21 -6 23 0
-21 -10 25 0
22 14 0
-22 -14 0
-22 -11 21 0
-22 -13 23 0
-22 -15 25 0
23 19 0
-23 -19 0
-23 -16 21 0
-23 -17 22 0
-23 -20 25 0
25 29 0
-25 -29 0
-25 -26 21 0
-25 -27 22 0
-25 -28 23 0
30 0
26 10 0
-26 -10 0
-26 -4 27 0
-26 -6 28 0
-26 -8 29 0
27 15 0
-27 -15 0
-27 -11 26 0
-27 -13 28 0
-27 -14 29 0
28 20 0
-28 -20 0
-28 -16 26 0
-28 -17 27 0
-28 -19 29 0
29 25 0
-29 -25 0
-29 -21 26 0
-29 -22 27 0
-29 -23 28 0
