p cnf 2550 5000
51 0
52 0
53 0
54 0
55 0
56 0
57 0
58 0
59 0
60 0
61 0
62 0
63 0
64 0
65 0
66 0
67 0
68 0
69 0
70 0
71 0
72 0
73 0
74 0
75 0
76 0
77 0
78 0
79 0
80 0
81 0
82 0
83 0
84 0
85 0
86 0
87 0
88 0
89 0
90 0
91 0
92 0
93 0
94 0
95 0
96 0
97 0
98 0
99 0
100 0
-101 0
102 0
103 0
104 0
105 0
106 0
107 0
108 0
109 0
110 0
111 0
112 0
113 0
114 0
115 0
116 0
117 0
118 0
119 0
120 0
121 0
122 0
123 0
124 0
125 0
126 0
127 0
128 0
129 0
130 0
131 0
132 0
133 0
134 0
135 0
136 0
137 0
138 0
139 0
140 0
141 0
142 0
143 0
144 0
145 0
146 0
147 0
148 0
149 0
150 0
-151 0
-152 0
153 0
154 0
155 0
156 0
157 0
158 0
159 0
160 0
161 0
162 0
163 0
164 0
165 0
166 0
167 0
168 0
169 0
170 0
171 0
172 0
173 0
174 0
175 0
176 0
177 0
178 0
179 0
180 0
181 0
182 0
183 0
184 0
185 0
186 0
187 0
188 0
189 0
190 0
191 0
192 0
193 0
194 0
195 0
196 0
197 0
198 0
199 0
200 0
-201 0
-202 0
-203 0
204 0
205 0
206 0
207 0
208 0
209 0
210 0
211 0
212 0
213 0
214 0
215 0
216 0
217 0
218 0
219 0
220 0
221 0
222 0
223 0
224 0
225 0
226 0
227 0
228 0
229 0
230 0
231 0
232 0
233 0
234 0
235 0
236 0
237 0
238 0
239 0
240 0
241 0
242 0
243 0
244 0
245 0
246 0
247 0
248 0
249 0
250 0
-251 0
-252 0
-253 0
-254 0
255 0
256 0
257 0
258 0
259 0
260 0
261 0
262 0
263 0
264 0
265 0
266 0
267 0
268 0
269 0
270 0
271 0
272 0
273 0
274 0
275 0
276 0
277 0
278 0
279 0
280 0
281 0
282 0
283 0
284 0
285 0
286 0
287 0
288 0
289 0
290 0
291 0
292 0
293 0
294 0
295 0
296 0
297 0
298 0
299 0
300 0
-301 0
-302 0
-303 0
-304 0
-305 0
306 0
307 0
308 0
309 0
310 0
311 0
312 0
313 0
314 0
315 0
316 0
317 0
318 0
319 0
320 0
321 0
322 0
323 0
324 0
325 0
326 0
327 0
328 0
329 0
330 0
331 0
332 0
333 0
334 0
335 0
336 0
337 0
338 0
339 0
340 0
341 0
342 0
343 0
344 0
345 0
346 0
347 0
348 0
349 0
350 0
-351 0
-352 0
-353 0
-354 0
-355 0
-356 0
357 0
358 0
359 0
360 0
361 0
362 0
363 0
364 0
365 0
366 0
367 0
368 0
369 0
370 0
371 0
372 0
373 0
374 0
375 0
376 0
377 0
378 0
379 0
380 0
381 0
382 0
383 0
384 0
385 0
386 0
387 0
388 0
389 0
390 0
391 0
392 0
393 0
394 0
395 0
396 0
397 0
398 0
399 0
400 0
-401 0
-402 0
-403 0
-404 0
-405 0
-406 0
-407 0
408 0
409 0
410 0
411 0
412 0
413 0
414 0
415 0
416 0
417 0
418 0
419 0
420 0
421 0
422 0
423 0
424 0
425 0
426 0
427 0
428 0
429 0
430 0
431 0
432 0
433 0
434 0
435 0
436 0
437 0
438 0
439 0
440 0
441 0
442 0
443 0
444 0
445 0
446 0
447 0
448 0
449 0
450 0
-451 0
-452 0
-453 0
-454 0
-455 0
-456 0
-457 0
-458 0
459 0
460 0
461 0
462 0
463 0
464 0
465 0
466 0
467 0
468 0
469 0
470 0
471 0
472 0
473 0
474 0
475 0
476 0
477 0
478 0
479 0
480 0
481 0
482 0
483 0
484 0
485 0
486 0
487 0
488 0
489 0
490 0
491 0
492 0
493 0
494 0
495 0
496 0
497 0
498 0
499 0
500 0
-501 0
-502 0
-503 0
-504 0
-505 0
-506 0
-507 0
-508 0
-509 0
510 0
511 0
512 0
513 0
514 0
515 0
516 0
517 0
518 0
519 0
520 0
521 0
522 0
523 0
524 0
525 0
526 0
527 0
528 0
529 0
530 0
531 0
532 0
533 0
534 0
535 0
536 0
537 0
538 0
539 0
540 0
541 0
542 0
543 0
544 0
545 0
546 0
547 0
548 0
549 0
550 0
-551 0
-552 0
-553 0
-554 0
-555 0
-556 0
-557 0
-558 0
-559 0
-560 0
561 0
562 0
563 0
564 0
565 0
566 0
567 0
568 0
569 0
570 0
571 0
572 0
573 0
574 0
575 0
576 0
577 0
578 0
579 0
580 0
581 0
582 0
583 0
584 0
585 0
586 0
587 0
588 0
589 0
590 0
591 0
592 0
593 0
594 0
595 0
596 0
597 0
598 0
599 0
600 0
-601 0
-602 0
-603 0
-604 0
-605 0
-606 0
-607 0
-608 0
-609 0
-610 0
-611 0
612 0
613 0
614 0
615 0
616 0
617 0
618 0
619 0
620 0
621 0
622 0
623 0
624 0
625 0
626 0
627 0
628 0
629 0
630 0
631 0
632 0
633 0
634 0
635 0
636 0
637 0
638 0
639 0
640 0
641 0
642 0
643 0
644 0
645 0
646 0
647 0
648 0
649 0
650 0
-651 0
-652 0
-653 0
-654 0
-655 0
-656 0
-657 0
-658 0
-659 0
-660 0
-661 0
-662 0
663 0
664 0
665 0
666 0
667 0
668 0
669 0
670 0
671 0
672 0
673 0
674 0
675 0
676 0
677 0
678 0
679 0
680 0
681 0
682 0
683 0
684 0
685 0
686 0
687 0
688 0
689 0
690 0
691 0
692 0
693 0
694 0
695 0
696 0
697 0
698 0
699 0
700 0
-701 0
-702 0
-703 0
-704 0
-705 0
-706 0
-707 0
-708 0
-709 0
-710 0
-711 0
-712 0
-713 0
714 0
715 0
716 0
717 0
718 0
719 0
720 0
721 0
722 0
723 0
724 0
725 0
726 0
727 0
728 0
729 0
730 0
731 0
732 0
733 0
734 0
735 0
736 0
737 0
738 0
739 0
740 0
741 0
742 0
743 0
744 0
745 0
746 0
747 0
748 0
749 0
750 0
-751 0
-752 0
-753 0
-754 0
-755 0
-756 0
-757 0
-758 0
-759 0
-760 0
-761 0
-762 0
-763 0
-764 0
765 0
766 0
767 0
768 0
769 0
770 0
771 0
772 0
773 0
774 0
775 0
776 0
777 0
778 0
779 0
780 0
781 0
782 0
783 0
784 0
785 0
786 0
787 0
788 0
789 0
790 0
791 0
792 0
793 0
794 0
795 0
796 0
797 0
798 0
799 0
800 0
-801 0
-802 0
-803 0
-804 0
-805 0
-806 0
-807 0
-808 0
-809 0
-810 0
-811 0
-812 0
-813 0
-814 0
-815 0
816 0
817 0
818 0
819 0
820 0
821 0
822 0
823 0
824 0
825 0
826 0
827 0
828 0
829 0
830 0
831 0
832 0
833 0
834 0
835 0
836 0
837 0
838 0
839 0
840 0
841 0
842 0
843 0
844 0
845 0
846 0
847 0
848 0
849 0
850 0
-851 0
-852 0
-853 0
-854 0
-855 0
-856 0
-857 0
-858 0
-859 0
-860 0
-861 0
-862 0
-863 0
-864 0
-865 0
-866 0
867 0
868 0
869 0
870 0
871 0
872 0
873 0
874 0
875 0
876 0
877 0
878 0
879 0
880 0
881 0
882 0
883 0
884 0
885 0
886 0
887 0
888 0
889 0
890 0
891 0
892 0
893 0
894 0
895 0
896 0
897 0
898 0
899 0
900 0
-901 0
-902 0
-903 0
-904 0
-905 0
-906 0
-907 0
-908 0
-909 0
-910 0
-911 0
-912 0
-913 0
-914 0
-915 0
-916 0
-917 0
918 0
919 0
920 0
921 0
922 0
923 0
924 0
925 0
926 0
927 0
928 0
929 0
930 0
931 0
932 0
933 0
934 0
935 0
936 0
937 0
938 0
939 0
940 0
941 0
942 0
943 0
944 0
945 0
946 0
947 0
948 0
949 0
950 0
-951 0
-952 0
-953 0
-954 0
-955 0
-956 0
-957 0
-958 0
-959 0
-960 0
-961 0
-962 0
-963 0
-964 0
-965 0
-966 0
-967 0
-968 0
969 0
970 0
971 0
972 0
973 0
974 0
975 0
976 0
977 0
978 0
979 0
980 0
981 0
982 0
983 0
984 0
985 0
986 0
987 0
988 0
989 0
990 0
991 0
992 0
993 0
994 0
995 0
996 0
997 0
998 0
999 0
1000 0
-1001 0
-1002 0
-1003 0
-1004 0
-1005 0
-1006 0
-1007 0
-1008 0
-1009 0
-1010 0
-1011 0
-1012 0
-1013 0
-1014 0
-1015 0
-1016 0
-1017 0
-1018 0
-1019 0
1020 0
1021 0
1022 0
1023 0
1024 0
1025 0
1026 0
1027 0
1028 0
1029 0
1030 0
1031 0
1032 0
1033 0
1034 0
1035 0
1036 0
1037 0
1038 0
1039 0
1040 0
1041 0
1042 0
1043 0
1044 0
1045 0
1046 0
1047 0
1048 0
1049 0
1050 0
-1051 0
-1052 0
-1053 0
-1054 0
-1055 0
-1056 0
-1057 0
-1058 0
-1059 0
-1060 0
-1061 0
-1062 0
-1063 0
-1064 0
-1065 0
-1066 0
-1067 0
-1068 0
-1069 0
-1070 0
1071 0
1072 0
1073 0
1074 0
1075 0
1076 0
1077 0
1078 0
1079 0
1080 0
1081 0
1082 0
1083 0
1084 0
1085 0
1086 0
1087 0
1088 0
1089 0
1090 0
1091 0
1092 0
1093 0
1094 0
1095 0
1096 0
1097 0
1098 0
1099 0
1100 0
-1101 0
-1102 0
-1103 0
-1104 0
-1105 0
-1106 0
-1107 0
-1108 0
-1109 0
-1110 0
-1111 0
-1112 0
-1113 0
-1114 0
-1115 0
-1116 0
-1117 0
-1118 0
-1119 0
-1120 0
-1121 0
1122 0
1123 0
1124 0
1125 0
1126 0
1127 0
1128 0
1129 0
1130 0
1131 0
1132 0
1133 0
1134 0
1135 0
1136 0
1137 0
1138 0
1139 0
1140 0
1141 0
1142 0
1143 0
1144 0
1145 0
1146 0
1147 0
1148 0
1149 0
1150 0
-1151 0
-1152 0
-1153 0
-1154 0
-1155 0
-1156 0
-1157 0
-1158 0
-1159 0
-1160 0
-1161 0
-1162 0
-1163 0
-1164 0
-1165 0
-1166 0
-1167 0
-1168 0
-1169 0
-1170 0
-1171 0
-1172 0
1173 0
1174 0
1175 0
1176 0
1177 0
1178 0
1179 0
1180 0
1181 0
1182 0
1183 0
1184 0
1185 0
1186 0
1187 0
1188 0
1189 0
1190 0
1191 0
1192 0
1193 0
1194 0
1195 0
1196 0
1197 0
1198 0
1199 0
1200 0
-1201 0
-1202 0
-1203 0
-1204 0
-1205 0
-1206 0
-1207 0
-1208 0
-1209 0
-1210 0
-1211 0
-1212 0
-1213 0
-1214 0
-1215 0
-1216 0
-1217 0
-1218 0
-1219 0
-1220 0
-1221 0
-1222 0
-1223 0
1224 0
1225 0
1226 0
1227 0
1228 0
1229 0
1230 0
1231 0
1232 0
1233 0
1234 0
1235 0
1236 0
1237 0
1238 0
1239 0
1240 0
1241 0
1242 0
1243 0
1244 0
1245 0
1246 0
1247 0
1248 0
1249 0
1250 0
-1251 0
-1252 0
-1253 0
-1254 0
-1255 0
-1256 0
-1257 0
-1258 0
-1259 0
-1260 0
-1261 0
-1262 0
-1263 0
-1264 0
-1265 0
-1266 0
-1267 0
-1268 0
-1269 0
-1270 0
-1271 0
-1272 0
-1273 0
-1274 0
1275 0
1276 0
1277 0
1278 0
1279 0
1280 0
1281 0
1282 0
1283 0
1284 0
1285 0
1286 0
1287 0
1288 0
1289 0
1290 0
1291 0
1292 0
1293 0
1294 0
1295 0
1296 0
1297 0
1298 0
1299 0
1300 0
-1301 0
-1302 0
-1303 0
-1304 0
-1305 0
-1306 0
-1307 0
-1308 0
-1309 0
-1310 0
-1311 0
-1312 0
-1313 0
-1314 0
-1315 0
-1316 0
-1317 0
-1318 0
-1319 0
-1320 0
-1321 0
-1322 0
-1323 0
-1324 0
-1325 0
1326 0
1327 0
1328 0
1329 0
1330 0
1331 0
1332 0
1333 0
1334 0
1335 0
1336 0
1337 0
1338 0
1339 0
1340 0
1341 0
1342 0
1343 0
1344 0
1345 0
1346 0
1347 0
1348 0
1349 0
1350 0
-1351 0
-1352 0
-1353 0
-1354 0
-1355 0
-1356 0
-1357 0
-1358 0
-1359 0
-1360 0
-1361 0
-1362 0
-1363 0
-1364 0
-1365 0
-1366 0
-1367 0
-1368 0
-1369 0
-1370 0
-1371 0
-1372 0
-1373 0
-1374 0
-1375 0
-1376 0
1377 0
1378 0
1379 0
1380 0
1381 0
1382 0
1383 0
1384 0
1385 0
1386 0
1387 0
1388 0
1389 0
1390 0
1391 0
1392 0
1393 0
1394 0
1395 0
1396 0
1397 0
1398 0
1399 0
1400 0
-1401 0
-1402 0
-1403 0
-1404 0
-1405 0
-1406 0
-1407 0
-1408 0
-1409 0
-1410 0
-1411 0
-1412 0
-1413 0
-1414 0
-1415 0
-1416 0
-1417 0
-1418 0
-1419 0
-1420 0
-1421 0
-1422 0
-1423 0
-1424 0
-1425 0
-1426 0
-1427 0
1428 0
1429 0
1430 0
1431 0
1432 0
1433 0
1434 0
1435 0
1436 0
1437 0
1438 0
1439 0
1440 0
1441 0
1442 0
1443 0
1444 0
1445 0
1446 0
1447 0
1448 0
1449 0
1450 0
-1451 0
-1452 0
-1453 0
-1454 0
-1455 0
-1456 0
-1457 0
-1458 0
-1459 0
-1460 0
-1461 0
-1462 0
-1463 0
-1464 0
-1465 0
-1466 0
-1467 0
-1468 0
-1469 0
-1470 0
-1471 0
-1472 0
-1473 0
-1474 0
-1475 0
-1476 0
-1477 0
-1478 0
1479 0
1480 0
1481 0
1482 0
1483 0
1484 0
1485 0
1486 0
1487 0
1488 0
1489 0
1490 0
1491 0
1492 0
1493 0
1494 0
1495 0
1496 0
1497 0
1498 0
1499 0
1500 0
-1501 0
-1502 0
-1503 0
-1504 0
-1505 0
-1506 0
-1507 0
-1508 0
-1509 0
-1510 0
-1511 0
-1512 0
-1513 0
-1514 0
-1515 0
-1516 0
-1517 0
-1518 0
-1519 0
-1520 0
-1521 0
-1522 0
-1523 0
-1524 0
-1525 0
-1526 0
-1527 0
-1528 0
-1529 0
1530 0
1531 0
1532 0
1533 0
1534 0
1535 0
1536 0
1537 0
1538 0
1539 0
1540 0
1541 0
1542 0
1543 0
1544 0
1545 0
1546 0
1547 0
1548 0
1549 0
1550 0
-1551 0
-1552 0
-1553 0
-1554 0
-1555 0
-1556 0
-1557 0
-1558 0
-1559 0
-1560 0
-1561 0
-1562 0
-1563 0
-1564 0
-1565 0
-1566 0
-1567 0
-1568 0
-1569 0
-1570 0
-1571 0
-1572 0
-1573 0
-1574 0
-1575 0
-1576 0
-1577 0
-1578 0
-1579 0
-1580 0
1581 0
1582 0
1583 0
1584 0
1585 0
1586 0
1587 0
1588 0
1589 0
1590 0
1591 0
1592 0
1593 0
1594 0
1595 0
1596 0
1597 0
1598 0
1599 0
1600 0
-1601 0
-1602 0
-1603 0
-1604 0
-1605 0
-1606 0
-1607 0
-1608 0
-1609 0
-1610 0
-1611 0
-1612 0
-1613 0
-1614 0
-1615 0
-1616 0
-1617 0
-1618 0
-1619 0
-1620 0
-1621 0
-1622 0
-1623 0
-1624 0
-1625 0
-1626 0
-1627 0
-1628 0
-1629 0
-1630 0
-1631 0
1632 0
1633 0
1634 0
1635 0
1636 0
1637 0
1638 0
1639 0
1640 0
1641 0
1642 0
1643 0
1644 0
1645 0
1646 0
1647 0
1648 0
1649 0
1650 0
-1651 0
-1652 0
-1653 0
-1654 0
-1655 0
-1656 0
-1657 0
-1658 0
-1659 0
-1660 0
-1661 0
-1662 0
-1663 0
-1664 0
-1665 0
-1666 0
-1667 0
-1668 0
-1669 0
-1670 0
-1671 0
-1672 0
-1673 0
-1674 0
-1675 0
-1676 0
-1677 0
-1678 0
-1679 0
-1680 0
-1681 0
-1682 0
1683 0
1684 0
1685 0
1686 0
1687 0
1688 0
1689 0
1690 0
1691 0
1692 0
1693 0
1694 0
1695 0
1696 0
1697 0
1698 0
1699 0
1700 0
-1701 0
-1702 0
-1703 0
-1704 0
-1705 0
-1706 0
-1707 0
-1708 0
-1709 0
-1710 0
-1711 0
-1712 0
-1713 0
-1714 0
-1715 0
-1716 0
-1717 0
-1718 0
-1719 0
-1720 0
-1721 0
-1722 0
-1723 0
-1724 0
-1725 0
-1726 0
-1727 0
-1728 0
-1729 0
-1730 0
-1731 0
-1732 0
-1733 0
1734 0
1735 0
1736 0
1737 0
1738 0
1739 0
1740 0
1741 0
1742 0
1743 0
1744 0
1745 0
1746 0
1747 0
1748 0
1749 0
1750 0
-1751 0
-1752 0
-1753 0
-1754 0
-1755 0
-1756 0
-1757 0
-1758 0
-1759 0
-1760 0
-1761 0
-1762 0
-1763 0
-1764 0
-1765 0
-1766 0
-1767 0
-1768 0
-1769 0
-1770 0
-1771 0
-1772 0
-1773 0
-1774 0
-1775 0
-1776 0
-1777 0
-1778 0
-1779 0
-1780 0
-1781 0
-1782 0
-1783 0
-1784 0
1785 0
1786 0
1787 0
1788 0
1789 0
1790 0
1791 0
1792 0
1793 0
1794 0
1795 0
1796 0
1797 0
1798 0
1799 0
1800 0
-1801 0
-1802 0
-1803 0
-1804 0
-1805 0
-1806 0
-1807 0
-1808 0
-1809 0
-1810 0
-1811 0
-1812 0
-1813 0
-1814 0
-1815 0
-1816 0
-1817 0
-1818 0
-1819 0
-1820 0
-1821 0
-1822 0
-1823 0
-1824 0
-1825 0
-1826 0
-1827 0
-1828 0
-1829 0
-1830 0
-1831 0
-1832 0
-1833 0
-1834 0
-1835 0
1836 0
1837 0
1838 0
1839 0
1840 0
1841 0
1842 0
1843 0
1844 0
1845 0
1846 0
1847 0
1848 0
1849 0
1850 0
-1851 0
-1852 0
-1853 0
-1854 0
-1855 0
-1856 0
-1857 0
-1858 0
-1859 0
-1860 0
-1861 0
-1862 0
-1863 0
-1864 0
-1865 0
-1866 0
-1867 0
-1868 0
-1869 0
-1870 0
-1871 0
-1872 0
-1873 0
-1874 0
-1875 0
-1876 0
-1877 0
-1878 0
-1879 0
-1880 0
-1881 0
-1882 0
-1883 0
-1884 0
-1885 0
-1886 0
1887 0
1888 0
1889 0
1890 0
1891 0
1892 0
1893 0
1894 0
1895 0
1896 0
1897 0
1898 0
1899 0
1900 0
-1901 0
-1902 0
-1903 0
-1904 0
-1905 0
-1906 0
-1907 0
-1908 0
-1909 0
-1910 0
-1911 0
-1912 0
-1913 0
-1914 0
-1915 0
-1916 0
-1917 0
-1918 0
-1919 0
-1920 0
-1921 0
-1922 0
-1923 0
-1924 0
-1925 0
-1926 0
-1927 0
-1928 0
-1929 0
-1930 0
-1931 0
-1932 0
-1933 0
-1934 0
-1935 0
-1936 0
-1937 0
1938 0
1939 0
1940 0
1941 0
1942 0
1943 0
1944 0
1945 0
1946 0
1947 0
1948 0
1949 0
1950 0
-1951 0
-1952 0
-1953 0
-1954 0
-1955 0
-1956 0
-1957 0
-1958 0
-1959 0
-1960 0
-1961 0
-1962 0
-1963 0
-1964 0
-1965 0
-1966 0
-1967 0
-1968 0
-1969 0
-1970 0
-1971 0
-1972 0
-1973 0
-1974 0
-1975 0
-1976 0
-1977 0
-1978 0
-1979 0
-1980 0
-1981 0
-1982 0
-1983 0
-1984 0
-1985 0
-1986 0
-1987 0
-1988 0
1989 0
1990 0
1991 0
1992 0
1993 0
1994 0
1995 0
1996 0
1997 0
1998 0
1999 0
2000 0
-2001 0
-2002 0
-2003 0
-2004 0
-2005 0
-2006 0
-2007 0
-2008 0
-2009 0
-2010 0
-2011 0
-2012 0
-2013 0
-2014 0
-2015 0
-2016 0
-2017 0
-2018 0
-2019 0
-2020 0
-2021 0
-2022 0
-2023 0
-2024 0
-2025 0
-2026 0
-2027 0
-2028 0
-2029 0
-2030 0
-2031 0
-2032 0
-2033 0
-2034 0
-2035 0
-2036 0
-2037 0
-2038 0
-2039 0
2040 0
2041 0
2042 0
2043 0
2044 0
2045 0
2046 0
2047 0
2048 0
2049 0
2050 0
-2051 0
-2052 0
-2053 0
-2054 0
-2055 0
-2056 0
-2057 0
-2058 0
-2059 0
-2060 0
-2061 0
-2062 0
-2063 0
-2064 0
-2065 0
-2066 0
-2067 0
-2068 0
-2069 0
-2070 0
-2071 0
-2072 0
-2073 0
-2074 0
-2075 0
-2076 0
-2077 0
-2078 0
-2079 0
-2080 0
-2081 0
-2082 0
-2083 0
-2084 0
-2085 0
-2086 0
-2087 0
-2088 0
-2089 0
-2090 0
2091 0
2092 0
2093 0
2094 0
2095 0
2096 0
2097 0
2098 0
2099 0
2100 0
-2101 0
-2102 0
-2103 0
-2104 0
-2105 0
-2106 0
-2107 0
-2108 0
-2109 0
-2110 0
-2111 0
-2112 0
-2113 0
-2114 0
-2115 0
-2116 0
-2117 0
-2118 0
-2119 0
-2120 0
-2121 0
-2122 0
-2123 0
-2124 0
-2125 0
-2126 0
-2127 0
-2128 0
-2129 0
-2130 0
-2131 0
-2132 0
-2133 0
-2134 0
-2135 0
-2136 0
-2137 0
-2138 0
-2139 0
-2140 0
-2141 0
2142 0
2143 0
2144 0
2145 0
2146 0
2147 0
2148 0
2149 0
2150 0
-2151 0
-2152 0
-2153 0
-2154 0
-2155 0
-2156 0
-2157 0
-2158 0
-2159 0
-2160 0
-2161 0
-2162 0
-2163 0
-2164 0
-2165 0
-2166 0
-2167 0
-2168 0
-2169 0
-2170 0
-2171 0
-2172 0
-2173 0
-2174 0
-2175 0
-2176 0
-2177 0
-2178 0
-2179 0
-2180 0
-2181 0
-2182 0
-2183 0
-2184 0
-2185 0
-2186 0
-2187 0
-2188 0
-2189 0
-2190 0
-2191 0
-2192 0
2193 0
2194 0
2195 0
2196 0
2197 0
2198 0
2199 0
2200 0
-2201 0
-2202 0
-2203 0
-2204 0
-2205 0
-2206 0
-2207 0
-2208 0
-2209 0
-2210 0
-2211 0
-2212 0
-2213 0
-2214 0
-2215 0
-2216 0
-2217 0
-2218 0
-2219 0
-2220 0
-2221 0
-2222 0
-2223 0
-2224 0
-2225 0
-2226 0
-2227 0
-2228 0
-2229 0
-2230 0
-2231 0
-2232 0
-2233 0
-2234 0
-2235 0
-2236 0
-2237 0
-2238 0
-2239 0
-2240 0
-2241 0
-2242 0
-2243 0
2244 0
2245 0
2246 0
2247 0
2248 0
2249 0
2250 0
-2251 0
-2252 0
-2253 0
-2254 0
-2255 0
-2256 0
-2257 0
-2258 0
-2259 0
-2260 0
-2261 0
-2262 0
-2263 0
-2264 0
-2265 0
-2266 0
-2267 0
-2268 0
-2269 0
-2270 0
-2271 0
-2272 0
-2273 0
-2274 0
-2275 0
-2276 0
-2277 0
-2278 0
-2279 0
-2280 0
-2281 0
-2282 0
-2283 0
-2284 0
-2285 0
-2286 0
-2287 0
-2288 0
-2289 0
-2290 0
-2291 0
-2292 0
-2293 0
-2294 0
2295 0
2296 0
2297 0
2298 0
2299 0
2300 0
-2301 0
-2302 0
-2303 0
-2304 0
-2305 0
-2306 0
-2307 0
-2308 0
-2309 0
-2310 0
-2311 0
-2312 0
-2313 0
-2314 0
-2315 0
-2316 0
-2317 0
-2318 0
-2319 0
-2320 0
-2321 0
-2322 0
-2323 0
-2324 0
-2325 0
-2326 0
-2327 0
-2328 0
-2329 0
-2330 0
-2331 0
-2332 0
-2333 0
-2334 0
-2335 0
-2336 0
-2337 0
-2338 0
-2339 0
-2340 0
-2341 0
-2342 0
-2343 0
-2344 0
-2345 0
2346 0
2347 0
2348 0
2349 0
2350 0
-2351 0
-2352 0
-2353 0
-2354 0
-2355 0
-2356 0
-2357 0
-2358 0
-2359 0
-2360 0
-2361 0
-2362 0
-2363 0
-2364 0
-2365 0
-2366 0
-2367 0
-2368 0
-2369 0
-2370 0
-2371 0
-2372 0
-2373 0
-2374 0
-2375 0
-2376 0
-2377 0
-2378 0
-2379 0
-2380 0
-2381 0
-2382 0
-2383 0
-2384 0
-2385 0
-2386 0
-2387 0
-2388 0
-2389 0
-2390 0
-2391 0
-2392 0
-2393 0
-2394 0
-2395 0
-2396 0
2397 0
2398 0
2399 0
2400 0
-2401 0
-2402 0
-2403 0
-2404 0
-2405 0
-2406 0
-2407 0
-2408 0
-2409 0
-2410 0
-2411 0
-2412 0
-2413 0
-2414 0
-2415 0
-2416 0
-2417 0
-2418 0
-2419 0
-2420 0
-2421 0
-2422 0
-2423 0
-2424 0
-2425 0
-2426 0
-2427 0
-2428 0
-2429 0
-2430 0
-2431 0
-2432 0
-2433 0
-2434 0
-2435 0
-2436 0
-2437 0
-2438 0
-2439 0
-2440 0
-2441 0
-2442 0
-2443 0
-2444 0
-2445 0
-2446 0
-2447 0
2448 0
2449 0
2450 0
-2451 0
-2452 0
-2453 0
-2454 0
-2455 0
-2456 0
-2457 0
-2458 0
-2459 0
-2460 0
-2461 0
-2462 0
-2463 0
-2464 0
-2465 0
-2466 0
-2467 0
-2468 0
-2469 0
-2470 0
-2471 0
-2472 0
-2473 0
-2474 0
-2475 0
-2476 0
-2477 0
-2478 0
-2479 0
-2480 0
-2481 0
-2482 0
-2483 0
-2484 0
-2485 0
-2486 0
-2487 0
-2488 0
-2489 0
-2490 0
-2491 0
-2492 0
-2493 0
-2494 0
-2495 0
-2496 0
-2497 0
-2498 0
2499 0
2500 0
-2501 0
-2502 0
-2503 0
-2504 0
-2505 0
-2506 0
-2507 0
-2508 0
-2509 0
-2510 0
-2511 0
-2512 0
-2513 0
-2514 0
-2515 0
-2516 0
-2517 0
-2518 0
-2519 0
-2520 0
-2521 0
-2522 0
-2523 0
-2524 0
-2525 0
-2526 0
-2527 0
-2528 0
-2529 0
-2530 0
-2531 0
-2532 0
-2533 0
-2534 0
-2535 0
-2536 0
-2537 0
-2538 0
-2539 0
-2540 0
-2541 0
-2542 0
-2543 0
-2544 0
-2545 0
-2546 0
-2547 0
-2548 0
-2549 0
2550 0
-1 1 -51 0
-1 2 -52 0
-1 3 -53 0
-1 4 -54 0
-1 5 -55 0
-1 6 -56 0
-1 7 -57 0
-1 8 -58 0
-1 9 -59 0
-1 10 -60 0
-1 11 -61 0
-1 12 -62 0
-1 13 -63 0
-1 14 -64 0
-1 15 -65 0
-1 16 -66 0
-1 17 -67 0
-1 18 -68 0
-1 19 -69 0
-1 20 -70 0
-1 21 -71 0
-1 22 -72 0
-1 23 -73 0
-1 24 -74 0
-1 25 -75 0
-1 26 -76 0
-1 27 -77 0
-1 28 -78 0
-1 29 -79 0
-1 30 -80 0
-1 31 -81 0
-1 32 -82 0
-1 33 -83 0
-1 34 -84 0
-1 35 -85 0
-1 36 -86 0
-1 37 -87 0
-1 38 -88 0
-1 39 -89 0
-1 40 -90 0
-1 41 -91 0
-1 42 -92 0
-1 43 -93 0
-1 44 -94 0
-1 45 -95 0
-1 46 -96 0
-1 47 -97 0
-1 48 -98 0
-1 49 -99 0
-1 50 -100 0
-2 1 -101 0
-2 2 -102 0
-2 3 -103 0
-2 4 -104 0
-2 5 -105 0
-2 6 -106 0
-2 7 -107 0
-2 8 -108 0
-2 9 -109 0
-2 10 -110 0
-2 11 -111 0
-2 12 -112 0
-2 13 -113 0
-2 14 -114 0
-2 15 -115 0
-2 16 -116 0
-2 17 -117 0
-2 18 -118 0
-2 19 -119 0
-2 20 -120 0
-2 21 -121 0
-2 22 -122 0
-2 23 -123 0
-2 24 -124 0
-2 25 -125 0
-2 26 -126 0
-2 27 -127 0
-2 28 -128 0
-2 29 -129 0
-2 30 -130 0
-2 31 -131 0
-2 32 -132 0
-2 33 -133 0
-2 34 -134 0
-2 35 -135 0
-2 36 -136 0
-2 37 -137 0
-2 38 -138 0
-2 39 -139 0
-2 40 -140 0
-2 41 -141 0
-2 42 -142 0
-2 43 -143 0
-2 44 -144 0
-2 45 -145 0
-2 46 -146 0
-2 47 -147 0
-2 48 -148 0
-2 49 -149 0
-2 50 -150 0
-3 1 -151 0
-3 2 -152 0
-3 3 -153 0
-3 4 -154 0
-3 5 -155 0
-3 6 -156 0
-3 7 -157 0
-3 8 -158 0
-3 9 -159 0
-3 10 -160 0
-3 11 -161 0
-3 12 -162 0
-3 13 -163 0
-3 14 -164 0
-3 15 -165 0
-3 16 -166 0
-3 17 -167 0
-3 18 -168 0
-3 19 -169 0
-3 20 -170 0
-3 21 -171 0
-3 22 -172 0
-3 23 -173 0
-3 24 -174 0
-3 25 -175 0
-3 26 -176 0
-3 27 -177 0
-3 28 -178 0
-3 29 -179 0
-3 30 -180 0
-3 31 -181 0
-3 32 -182 0
-3 33 -183 0
-3 34 -184 0
-3 35 -185 0
-3 36 -186 0
-3 37 -187 0
-3 38 -188 0
-3 39 -189 0
-3 40 -190 0
-3 41 -191 0
-3 42 -192 0
-3 43 -193 0
-3 44 -194 0
-3 45 -195 0
-3 46 -196 0
-3 47 -197 0
-3 48 -198 0
-3 49 -199 0
-3 50 -200 0
-4 1 -201 0
-4 2 -202 0
-4 3 -203 0
-4 4 -204 0
-4 5 -205 0
-4 6 -206 0
-4 7 -207 0
-4 8 -208 0
-4 9 -209 0
-4 10 -210 0
-4 11 -211 0
-4 12 -212 0
-4 13 -213 0
-4 14 -214 0
-4 15 -215 0
-4 16 -216 0
-4 17 -217 0
-4 18 -218 0
-4 19 -219 0
-4 20 -220 0
-4 21 -221 0
-4 22 -222 0
-4 23 -223 0
-4 24 -224 0
-4 25 -225 0
-4 26 -226 0
-4 27 -227 0
-4 28 -228 0
-4 29 -229 0
-4 30 -230 0
-4 31 -231 0
-4 32 -232 0
-4 33 -233 0
-4 34 -234 0
-4 35 -235 0
-4 36 -236 0
-4 37 -237 0
-4 38 -238 0
-4 39 -239 0
-4 40 -240 0
-4 41 -241 0
-4 42 -242 0
-4 43 -243 0
-4 44 -244 0
-4 45 -245 0
-4 46 -246 0
-4 47 -247 0
-4 48 -248 0
-4 49 -249 0
-4 50 -250 0
-5 1 -251 0
-5 2 -252 0
-5 3 -253 0
-5 4 -254 0
-5 5 -255 0
-5 6 -256 0
-5 7 -257 0
-5 8 -258 0
-5 9 -259 0
-5 10 -260 0
-5 11 -261 0
-5 12 -262 0
-5 13 -263 0
-5 14 -264 0
-5 15 -265 0
-5 16 -266 0
-5 17 -267 0
-5 18 -268 0
-5 19 -269 0
-5 20 -270 0
-5 21 -271 0
-5 22 -272 0
-5 23 -273 0
-5 24 -274 0
-5 25 -275 0
-5 26 -276 0
-5 27 -277 0
-5 28 -278 0
-5 29 -279 0
-5 30 -280 0
-5 31 -281 0
-5 32 -282 0
-5 33 -283 0
-5 34 -284 0
-5 35 -285 0
-5 36 -286 0
-5 37 -287 0
-5 38 -288 0
-5 39 -289 0
-5 40 -290 0
-5 41 -291 0
-5 42 -292 0
-5 43 -293 0
-5 44 -294 0
-5 45 -295 0
-5 46 -296 0
-5 47 -297 0
-5 48 -298 0
-5 49 -299 0
-5 50 -300 0
-6 1 -301 0
-6 2 -302 0
-6 3 -303 0
-6 4 -304 0
-6 5 -305 0
-6 6 -306 0
-6 7 -307 0
-6 8 -308 0
-6 9 -309 0
-6 10 -310 0
-6 11 -311 0
-6 12 -312 0
-6 13 -313 0
-6 14 -314 0
-6 15 -315 0
-6 16 -316 0
-6 17 -317 0
-6 18 -318 0
-6 19 -319 0
-6 20 -320 0
-6 21 -321 0
-6 22 -322 0
-6 23 -323 0
-6 24 -324 0
-6 25 -325 0
-6 26 -326 0
-6 27 -327 0
-6 28 -328 0
-6 29 -329 0
-6 30 -330 0
-6 31 -331 0
-6 32 -332 0
-6 33 -333 0
-6 34 -334 0
-6 35 -335 0
-6 36 -336 0
-6 37 -337 0
-6 38 -338 0
-6 39 -339 0
-6 40 -340 0
-6 41 -341 0
-6 42 -342 0
-6 43 -343 0
-6 44 -344 0
-6 45 -345 0
-6 46 -346 0
-6 47 -347 0
-6 48 -348 0
-6 49 -349 0
-6 50 -350 0
-7 1 -351 0
-7 2 -352 0
-7 3 -353 0
-7 4 -354 0
-7 5 -355 0
-7 6 -356 0
-7 7 -357 0
-7 8 -358 0
-7 9 -359 0
-7 10 -360 0
-7 11 -361 0
-7 12 -362 0
-7 13 -363 0
-7 14 -364 0
-7 15 -365 0
-7 16 -366 0
-7 17 -367 0
-7 18 -368 0
-7 19 -369 0
-7 20 -370 0
-7 21 -371 0
-7 22 -372 0
-7 23 -373 0
-7 24 -374 0
-7 25 -375 0
-7 26 -376 0
-7 27 -377 0
-7 28 -378 0
-7 29 -379 0
-7 30 -380 0
-7 31 -381 0
-7 32 -382 0
-7 33 -383 0
-7 34 -384 0
-7 35 -385 0
-7 36 -386 0
-7 37 -387 0
-7 38 -388 0
-7 39 -389 0
-7 40 -390 0
-7 41 -391 0
-7 42 -392 0
-7 43 -393 0
-7 44 -394 0
-7 45 -395 0
-7 46 -396 0
-7 47 -397 0
-7 48 -398 0
-7 49 -399 0
-7 50 -400 0
-8 1 -401 0
-8 2 -402 0
-8 3 -403 0
-8 4 -404 0
-8 5 -405 0
-8 6 -406 0
-8 7 -407 0
-8 8 -408 0
-8 9 -409 0
-8 10 -410 0
-8 11 -411 0
-8 12 -412 0
-8 13 -413 0
-8 14 -414 0
-8 15 -415 0
-8 16 -416 0
-8 17 -417 0
-8 18 -418 0
-8 19 -419 0
-8 20 -420 0
-8 21 -421 0
-8 22 -422 0
-8 23 -423 0
-8 24 -424 0
-8 25 -425 0
-8 26 -426 0
-8 27 -427 0
-8 28 -428 0
-8 29 -429 0
-8 30 -430 0
-8 31 -431 0
-8 32 -432 0
-8 33 -433 0
-8 34 -434 0
-8 35 -435 0
-8 36 -436 0
-8 37 -437 0
-8 38 -438 0
-8 39 -439 0
-8 40 -440 0
-8 41 -441 0
-8 42 -442 0
-8 43 -443 0
-8 44 -444 0
-8 45 -445 0
-8 46 -446 0
-8 47 -447 0
-8 48 -448 0
-8 49 -449 0
-8 50 -450 0
-9 1 -451 0
-9 2 -452 0
-9 3 -453 0
-9 4 -454 0
-9 5 -455 0
-9 6 -456 0
-9 7 -457 0
-9 8 -458 0
-9 9 -459 0
-9 10 -460 0
-9 11 -461 0
-9 12 -462 0
-9 13 -463 0
-9 14 -464 0
-9 15 -465 0
-9 16 -466 0
-9 17 -467 0
-9 18 -468 0
-9 19 -469 0
-9 20 -470 0
-9 21 -471 0
-9 22 -472 0
-9 23 -473 0
-9 24 -474 0
-9 25 -475 0
-9 26 -476 0
-9 27 -477 0
-9 28 -478 0
-9 29 -479 0
-9 30 -480 0
-9 31 -481 0
-9 32 -482 0
-9 33 -483 0
-9 34 -484 0
-9 35 -485 0
-9 36 -486 0
-9 37 -487 0
-9 38 -488 0
-9 39 -489 0
-9 40 -490 0
-9 41 -491 0
-9 42 -492 0
-9 43 -493 0
-9 44 -494 0
-9 45 -495 0
-9 46 -496 0
-9 47 -497 0
-9 48 -498 0
-9 49 -499 0
-9 50 -500 0
-10 1 -501 0
-10 2 -502 0
-10 3 -503 0
-10 4 -504 0
-10 5 -505 0
-10 6 -506 0
-10 7 -507 0
-10 8 -508 0
-10 9 -509 0
-10 10 -510 0
-10 11 -511 0
-10 12 -512 0
-10 13 -513 0
-10 14 -514 0
-10 15 -515 0
-10 16 -516 0
-10 17 -517 0
-10 18 -518 0
-10 19 -519 0
-10 20 -520 0
-10 21 -521 0
-10 22 -522 0
-10 23 -523 0
-10 24 -524 0
-10 25 -525 0
-10 26 -526 0
-10 27 -527 0
-10 28 -528 0
-10 29 -529 0
-10 30 -530 0
-10 31 -531 0
-10 32 -532 0
-10 33 -533 0
-10 34 -534 0
-10 35 -535 0
-10 36 -536 0
-10 37 -537 0
-10 38 -538 0
-10 39 -539 0
-10 40 -540 0
-10 41 -541 0
-10 42 -542 0
-10 43 -543 0
-10 44 -544 0
-10 45 -545 0
-10 46 -546 0
-10 47 -547 0
-10 48 -548 0
-10 49 -549 0
-10 50 -550 0
-11 1 -551 0
-11 2 -552 0
-11 3 -553 0
-11 4 -554 0
-11 5 -555 0
-11 6 -556 0
-11 7 -557 0
-11 8 -558 0
-11 9 -559 0
-11 10 -560 0
-11 11 -561 0
-11 12 -562 0
-11 13 -563 0
-11 14 -564 0
-11 15 -565 0
-11 16 -566 0
-11 17 -567 0
-11 18 -568 0
-11 19 -569 0
-11 20 -570 0
-11 21 -571 0
-11 22 -572 0
-11 23 -573 0
-11 24 -574 0
-11 25 -575 0
-11 26 -576 0
-11 27 -577 0
-11 28 -578 0
-11 29 -579 0
-11 30 -580 0
-11 31 -581 0
-11 32 -582 0
-11 33 -583 0
-11 34 -584 0
-11 35 -585 0
-11 36 -586 0
-11 37 -587 0
-11 38 -588 0
-11 39 -589 0
-11 40 -590 0
-11 41 -591 0
-11 42 -592 0
-11 43 -593 0
-11 44 -594 0
-11 45 -595 0
-11 46 -596 0
-11 47 -597 0
-11 48 -598 0
-11 49 -599 0
-11 50 -600 0
-12 1 -601 0
-12 2 -602 0
-12 3 -603 0
-12 4 -604 0
-12 5 -605 0
-12 6 -606 0
-12 7 -607 0
-12 8 -608 0
-12 9 -609 0
-12 10 -610 0
-12 11 -611 0
-12 12 -612 0
-12 13 -613 0
-12 14 -614 0
-12 15 -615 0
-12 16 -616 0
-12 17 -617 0
-12 18 -618 0
-12 19 -619 0
-12 20 -620 0
-12 21 -621 0
-12 22 -622 0
-12 23 -623 0
-12 24 -624 0
-12 25 -625 0
-12 26 -626 0
-12 27 -627 0
-12 28 -628 0
-12 29 -629 0
-12 30 -630 0
-12 31 -631 0
-12 32 -632 0
-12 33 -633 0
-12 34 -634 0
-12 35 -635 0
-12 36 -636 0
-12 37 -637 0
-12 38 -638 0
-12 39 -639 0
-12 40 -640 0
-12 41 -641 0
-12 42 -642 0
-12 43 -643 0
-12 44 -644 0
-12 45 -645 0
-12 46 -646 0
-12 47 -647 0
-12 48 -648 0
-12 49 -649 0
-12 50 -650 0
-13 1 -651 0
-13 2 -652 0
-13 3 -653 0
-13 4 -654 0
-13 5 -655 0
-13 6 -656 0
-13 7 -657 0
-13 8 -658 0
-13 9 -659 0
-13 10 -660 0
-13 11 -661 0
-13 12 -662 0
-13 13 -663 0
-13 14 -664 0
-13 15 -665 0
-13 16 -666 0
-13 17 -667 0
-13 18 -668 0
-13 19 -669 0
-13 20 -670 0
-13 21 -671 0
-13 22 -672 0
-13 23 -673 0
-13 24 -674 0
-13 25 -675 0
-13 26 -676 0
-13 27 -677 0
-13 28 -678 0
-13 29 -679 0
-13 30 -680 0
-13 31 -681 0
-13 32 -682 0
-13 33 -683 0
-13 34 -684 0
-13 35 -685 0
-13 36 -686 0
-13 37 -687 0
-13 38 -688 0
-13 39 -689 0
-13 40 -690 0
-13 41 -691 0
-13 42 -692 0
-13 43 -693 0
-13 44 -694 0
-13 45 -695 0
-13 46 -696 0
-13 47 -697 0
-13 48 -698 0
-13 49 -699 0
-13 50 -700 0
-14 1 -701 0
-14 2 -702 0
-14 3 -703 0
-14 4 -704 0
-14 5 -705 0
-14 6 -706 0
-14 7 -707 0
-14 8 -708 0
-14 9 -709 0
-14 10 -710 0
-14 11 -711 0
-14 12 -712 0
-14 13 -713 0
-14 14 -714 0
-14 15 -715 0
-14 16 -716 0
-14 17 -717 0
-14 18 -718 0
-14 19 -719 0
-14 20 -720 0
-14 21 -721 0
-14 22 -722 0
-14 23 -723 0
-14 24 -724 0
-14 25 -725 0
-14 26 -726 0
-14 27 -727 0
-14 28 -728 0
-14 29 -729 0
-14 30 -730 0
-14 31 -731 0
-14 32 -732 0
-14 33 -733 0
-14 34 -734 0
-14 35 -735 0
-14 36 -736 0
-14 37 -737 0
-14 38 -738 0
-14 39 -739 0
-14 40 -740 0
-14 41 -741 0
-14 42 -742 0
-14 43 -743 0
-14 44 -744 0
-14 45 -745 0
-14 46 -746 0
-14 47 -747 0
-14 48 -748 0
-14 49 -749 0
-14 50 -750 0
-15 1 -751 0
-15 2 -752 0
-15 3 -753 0
-15 4 -754 0
-15 5 -755 0
-15 6 -756 0
-15 7 -757 0
-15 8 -758 0
-15 9 -759 0
-15 10 -760 0
-15 11 -761 0
-15 12 -762 0
-15 13 -763 0
-15 14 -764 0
-15 15 -765 0
-15 16 -766 0
-15 17 -767 0
-15 18 -768 0
-15 19 -769 0
-15 20 -770 0
-15 21 -771 0
-15 22 -772 0
-15 23 -773 0
-15 24 -774 0
-15 25 -775 0
-15 26 -776 0
-15 27 -777 0
-15 28 -778 0
-15 29 -779 0
-15 30 -780 0
-15 31 -781 0
-15 32 -782 0
-15 33 -783 0
-15 34 -784 0
-15 35 -785 0
-15 36 -786 0
-15 37 -787 0
-15 38 -788 0
-15 39 -789 0
-15 40 -790 0
-15 41 -791 0
-15 42 -792 0
-15 43 -793 0
-15 44 -794 0
-15 45 -795 0
-15 46 -796 0
-15 47 -797 0
-15 48 -798 0
-15 49 -799 0
-15 50 -800 0
-16 1 -801 0
-16 2 -802 0
-16 3 -803 0
-16 4 -804 0
-16 5 -805 0
-16 6 -806 0
-16 7 -807 0
-16 8 -808 0
-16 9 -809 0
-16 10 -810 0
-16 11 -811 0
-16 12 -812 0
-16 13 -813 0
-16 14 -814 0
-16 15 -815 0
-16 16 -816 0
-16 17 -817 0
-16 18 -818 0
-16 19 -819 0
-16 20 -820 0
-16 21 -821 0
-16 22 -822 0
-16 23 -823 0
-16 24 -824 0
-16 25 -825 0
-16 26 -826 0
-16 27 -827 0
-16 28 -828 0
-16 29 -829 0
-16 30 -830 0
-16 31 -831 0
-16 32 -832 0
-16 33 -833 0
-16 34 -834 0
-16 35 -835 0
-16 36 -836 0
-16 37 -837 0
-16 38 -838 0
-16 39 -839 0
-16 40 -840 0
-16 41 -841 0
-16 42 -842 0
-16 43 -843 0
-16 44 -844 0
-16 45 -845 0
-16 46 -846 0
-16 47 -847 0
-16 48 -848 0
-16 49 -849 0
-16 50 -850 0
-17 1 -851 0
-17 2 -852 0
-17 3 -853 0
-17 4 -854 0
-17 5 -855 0
-17 6 -856 0
-17 7 -857 0
-17 8 -858 0
-17 9 -859 0
-17 10 -860 0
-17 11 -861 0
-17 12 -862 0
-17 13 -863 0
-17 14 -864 0
-17 15 -865 0
-17 16 -866 0
-17 17 -867 0
-17 18 -868 0
-17 19 -869 0
-17 20 -870 0
-17 21 -871 0
-17 22 -872 0
-17 23 -873 0
-17 24 -874 0
-17 25 -875 0
-17 26 -876 0
-17 27 -877 0
-17 28 -878 0
-17 29 -879 0
-17 30 -880 0
-17 31 -881 0
-17 32 -882 0
-17 33 -883 0
-17 34 -884 0
-17 35 -885 0
-17 36 -886 0
-17 37 -887 0
-17 38 -888 0
-17 39 -889 0
-17 40 -890 0
-17 41 -891 0
-17 42 -892 0
-17 43 -893 0
-17 44 -894 0
-17 45 -895 0
-17 46 -896 0
-17 47 -897 0
-17 48 -898 0
-17 49 -899 0
-17 50 -900 0
-18 1 -901 0
-18 2 -902 0
-18 3 -903 0
-18 4 -904 0
-18 5 -905 0
-18 6 -906 0
-18 7 -907 0
-18 8 -908 0
-18 9 -909 0
-18 10 -910 0
-18 11 -911 0
-18 12 -912 0
-18 13 -913 0
-18 14 -914 0
-18 15 -915 0
-18 16 -916 0
-18 17 -917 0
-18 18 -918 0
-18 19 -919 0
-18 20 -920 0
-18 21 -921 0
-18 22 -922 0
-18 23 -923 0
-18 24 -924 0
-18 25 -925 0
-18 26 -926 0
-18 27 -927 0
-18 28 -928 0
-18 29 -929 0
-18 30 -930 0
-18 31 -931 0
-18 32 -932 0
-18 33 -933 0
-18 34 -934 0
-18 35 -935 0
-18 36 -936 0
-18 37 -937 0
-18 38 -938 0
-18 39 -939 0
-18 40 -940 0
-18 41 -941 0
-18 42 -942 0
-18 43 -943 0
-18 44 -944 0
-18 45 -945 0
-18 46 -946 0
-18 47 -947 0
-18 48 -948 0
-18 49 -949 0
-18 50 -950 0
-19 1 -951 0
-19 2 -952 0
-19 3 -953 0
-19 4 -954 0
-19 5 -955 0
-19 6 -956 0
-19 7 -957 0
-19 8 -958 0
-19 9 -959 0
-19 10 -960 0
-19 11 -961 0
-19 12 -962 0
-19 13 -963 0
-19 14 -964 0
-19 15 -965 0
-19 16 -966 0
-19 17 -967 0
-19 18 -968 0
-19 19 -969 0
-19 20 -970 0
-19 21 -971 0
-19 22 -972 0
-19 23 -973 0
-19 24 -974 0
-19 25 -975 0
-19 26 -976 0
-19 27 -977 0
-19 28 -978 0
-19 29 -979 0
-19 30 -980 0
-19 31 -981 0
-19 32 -982 0
-19 33 -983 0
-19 34 -984 0
-19 35 -985 0
-19 36 -986 0
-19 37 -987 0
-19 38 -988 0
-19 39 -989 0
-19 40 -990 0
-19 41 -991 0
-19 42 -992 0
-19 43 -993 0
-19 44 -994 0
-19 45 -995 0
-19 46 -996 0
-19 47 -997 0
-19 48 -998 0
-19 49 -999 0
-19 50 -1000 0
-20 1 -1001 0
-20 2 -1002 0
-20 3 -1003 0
-20 4 -1004 0
-20 5 -1005 0
-20 6 -1006 0
-20 7 -1007 0
-20 8 -1008 0
-20 9 -1009 0
-20 10 -1010 0
-20 11 -1011 0
-20 12 -1012 0
-20 13 -1013 0
-20 14 -1014 0
-20 15 -1015 0
-20 16 -1016 0
-20 17 -1017 0
-20 18 -1018 0
-20 19 -1019 0
-20 20 -1020 0
-20 21 -1021 0
-20 22 -1022 0
-20 23 -1023 0
-20 24 -1024 0
-20 25 -1025 0
-20 26 -1026 0
-20 27 -1027 0
-20 28 -1028 0
-20 29 -1029 0
-20 30 -1030 0
-20 31 -1031 0
-20 32 -1032 0
-20 33 -1033 0
-20 34 -1034 0
-20 35 -1035 0
-20 36 -1036 0
-20 37 -1037 0
-20 38 -1038 0
-20 39 -1039 0
-20 40 -1040 0
-20 41 -1041 0
-20 42 -1042 0
-20 43 -1043 0
-20 44 -1044 0
-20 45 -1045 0
-20 46 -1046 0
-20 47 -1047 0
-20 48 -1048 0
-20 49 -1049 0
-20 50 -1050 0
-21 1 -1051 0
-21 2 -1052 0
-21 3 -1053 0
-21 4 -1054 0
-21 5 -1055 0
-21 6 -1056 0
-21 7 -1057 0
-21 8 -1058 0
-21 9 -1059 0
-21 10 -1060 0
-21 11 -1061 0
-21 12 -1062 0
-21 13 -1063 0
-21 14 -1064 0
-21 15 -1065 0
-21 16 -1066 0
-21 17 -1067 0
-21 18 -1068 0
-21 19 -1069 0
-21 20 -1070 0
-21 21 -1071 0
-21 22 -1072 0
-21 23 -1073 0
-21 24 -1074 0
-21 25 -1075 0
-21 26 -1076 0
-21 27 -1077 0
-21 28 -1078 0
-21 29 -1079 0
-21 30 -1080 0
-21 31 -1081 0
-21 32 -1082 0
-21 33 -1083 0
-21 34 -1084 0
-21 35 -1085 0
-21 36 -1086 0
-21 37 -1087 0
-21 38 -1088 0
-21 39 -1089 0
-21 40 -1090 0
-21 41 -1091 0
-21 42 -1092 0
-21 43 -1093 0
-21 44 -1094 0
-21 45 -1095 0
-21 46 -1096 0
-21 47 -1097 0
-21 48 -1098 0
-21 49 -1099 0
-21 50 -1100 0
-22 1 -1101 0
-22 2 -1102 0
-22 3 -1103 0
-22 4 -1104 0
-22 5 -1105 0
-22 6 -1106 0
-22 7 -1107 0
-22 8 -1108 0
-22 9 -1109 0
-22 10 -1110 0
-22 11 -1111 0
-22 12 -1112 0
-22 13 -1113 0
-22 14 -1114 0
-22 15 -1115 0
-22 16 -1116 0
-22 17 -1117 0
-22 18 -1118 0
-22 19 -1119 0
-22 20 -1120 0
-22 21 -1121 0
-22 22 -1122 0
-22 23 -1123 0
-22 24 -1124 0
-22 25 -1125 0
-22 26 -1126 0
-22 27 -1127 0
-22 28 -1128 0
-22 29 -1129 0
-22 30 -1130 0
-22 31 -1131 0
-22 32 -1132 0
-22 33 -1133 0
-22 34 -1134 0
-22 35 -1135 0
-22 36 -1136 0
-22 37 -1137 0
-22 38 -1138 0
-22 39 -1139 0
-22 40 -1140 0
-22 41 -1141 0
-22 42 -1142 0
-22 43 -1143 0
-22 44 -1144 0
-22 45 -1145 0
-22 46 -1146 0
-22 47 -1147 0
-22 48 -1148 0
-22 49 -1149 0
-22 50 -1150 0
-23 1 -1151 0
-23 2 -1152 0
-23 3 -1153 0
-23 4 -1154 0
-23 5 -1155 0
-23 6 -1156 0
-23 7 -1157 0
-23 8 -1158 0
-23 9 -1159 0
-23 10 -1160 0
-23 11 -1161 0
-23 12 -1162 0
-23 13 -1163 0
-23 14 -1164 0
-23 15 -1165 0
-23 16 -1166 0
-23 17 -1167 0
-23 18 -1168 0
-23 19 -1169 0
-23 20 -1170 0
-23 21 -1171 0
-23 22 -1172 0
-23 23 -1173 0
-23 24 -1174 0
-23 25 -1175 0
-23 26 -1176 0
-23 27 -1177 0
-23 28 -1178 0
-23 29 -1179 0
-23 30 -1180 0
-23 31 -1181 0
-23 32 -1182 0
-23 33 -1183 0
-23 34 -1184 0
-23 35 -1185 0
-23 36 -1186 0
-23 37 -1187 0
-23 38 -1188 0
-23 39 -1189 0
-23 40 -1190 0
-23 41 -1191 0
-23 42 -1192 0
-23 43 -1193 0
-23 44 -1194 0
-23 45 -1195 0
-23 46 -1196 0
-23 47 -1197 0
-23 48 -1198 0
-23 49 -1199 0
-23 50 -1200 0
-24 1 -1201 0
-24 2 -1202 0
-24 3 -1203 0
-24 4 -1204 0
-24 5 -1205 0
-24 6 -1206 0
-24 7 -1207 0
-24 8 -1208 0
-24 9 -1209 0
-24 10 -1210 0
-24 11 -1211 0
-24 12 -1212 0
-24 13 -1213 0
-24 14 -1214 0
-24 15 -1215 0
-24 16 -1216 0
-24 17 -1217 0
-24 18 -1218 0
-24 19 -1219 0
-24 20 -1220 0
-24 21 -1221 0
-24 22 -1222 0
-24 23 -1223 0
-24 24 -1224 0
-24 25 -1225 0
-24 26 -1226 0
-24 27 -1227 0
-24 28 -1228 0
-24 29 -1229 0
-24 30 -1230 0
-24 31 -1231 0
-24 32 -1232 0
-24 33 -1233 0
-24 34 -1234 0
-24 35 -1235 0
-24 36 -1236 0
-24 37 -1237 0
-24 38 -1238 0
-24 39 -1239 0
-24 40 -1240 0
-24 41 -1241 0
-24 42 -1242 0
-24 43 -1243 0
-24 44 -1244 0
-24 45 -1245 0
-24 46 -1246 0
-24 47 -1247 0
-24 48 -1248 0
-24 49 -1249 0
-24 50 -1250 0
-25 1 -1251 0
-25 2 -1252 0
-25 3 -1253 0
-25 4 -1254 0
-25 5 -1255 0
-25 6 -1256 0
-25 7 -1257 0
-25 8 -1258 0
-25 9 -1259 0
-25 10 -1260 0
-25 11 -1261 0
-25 12 -1262 0
-25 13 -1263 0
-25 14 -1264 0
-25 15 -1265 0
-25 16 -1266 0
-25 17 -1267 0
-25 18 -1268 0
-25 19 -1269 0
-25 20 -1270 0
-25 21 -1271 0
-25 22 -1272 0
-25 23 -1273 0
-25 24 -1274 0
-25 25 -1275 0
-25 26 -1276 0
-25 27 -1277 0
-25 28 -1278 0
-25 29 -1279 0
-25 30 -1280 0
-25 31 -1281 0
-25 32 -1282 0
-25 33 -1283 0
-25 34 -1284 0
-25 35 -1285 0
-25 36 -1286 0
-25 37 -1287 0
-25 38 -1288 0
-25 39 -1289 0
-25 40 -1290 0
-25 41 -1291 0
-25 42 -1292 0
-25 43 -1293 0
-25 44 -1294 0
-25 45 -1295 0
-25 46 -1296 0
-25 47 -1297 0
-25 48 -1298 0
-25 49 -1299 0
-25 50 -1300 0
-26 1 -1301 0
-26 2 -1302 0
-26 3 -1303 0
-26 4 -1304 0
-26 5 -1305 0
-26 6 -1306 0
-26 7 -1307 0
-26 8 -1308 0
-26 9 -1309 0
-26 10 -1310 0
-26 11 -1311 0
-26 12 -1312 0
-26 13 -1313 0
-26 14 -1314 0
-26 15 -1315 0
-26 16 -1316 0
-26 17 -1317 0
-26 18 -1318 0
-26 19 -1319 0
-26 20 -1320 0
-26 21 -1321 0
-26 22 -1322 0
-26 23 -1323 0
-26 24 -1324 0
-26 25 -1325 0
-26 26 -1326 0
-26 27 -1327 0
-26 28 -1328 0
-26 29 -1329 0
-26 30 -1330 0
-26 31 -1331 0
-26 32 -1332 0
-26 33 -1333 0
-26 34 -1334 0
-26 35 -1335 0
-26 36 -1336 0
-26 37 -1337 0
-26 38 -1338 0
-26 39 -1339 0
-26 40 -1340 0
-26 41 -1341 0
-26 42 -1342 0
-26 43 -1343 0
-26 44 -1344 0
-26 45 -1345 0
-26 46 -1346 0
-26 47 -1347 0
-26 48 -1348 0
-26 49 -1349 0
-26 50 -1350 0
-27 1 -1351 0
-27 2 -1352 0
-27 3 -1353 0
-27 4 -1354 0
-27 5 -1355 0
-27 6 -1356 0
-27 7 -1357 0
-27 8 -1358 0
-27 9 -1359 0
-27 10 -1360 0
-27 11 -1361 0
-27 12 -1362 0
-27 13 -1363 0
-27 14 -1364 0
-27 15 -1365 0
-27 16 -1366 0
-27 17 -1367 0
-27 18 -1368 0
-27 19 -1369 0
-27 20 -1370 0
-27 21 -1371 0
-27 22 -1372 0
-27 23 -1373 0
-27 24 -1374 0
-27 25 -1375 0
-27 26 -1376 0
-27 27 -1377 0
-27 28 -1378 0
-27 29 -1379 0
-27 30 -1380 0
-27 31 -1381 0
-27 32 -1382 0
-27 33 -1383 0
-27 34 -1384 0
-27 35 -1385 0
-27 36 -1386 0
-27 37 -1387 0
-27 38 -1388 0
-27 39 -1389 0
-27 40 -1390 0
-27 41 -1391 0
-27 42 -1392 0
-27 43 -1393 0
-27 44 -1394 0
-27 45 -1395 0
-27 46 -1396 0
-27 47 -1397 0
-27 48 -1398 0
-27 49 -1399 0
-27 50 -1400 0
-28 1 -1401 0
-28 2 -1402 0
-28 3 -1403 0
-28 4 -1404 0
-28 5 -1405 0
-28 6 -1406 0
-28 7 -1407 0
-28 8 -1408 0
-28 9 -1409 0
-28 10 -1410 0
-28 11 -1411 0
-28 12 -1412 0
-28 13 -1413 0
-28 14 -1414 0
-28 15 -1415 0
-28 16 -1416 0
-28 17 -1417 0
-28 18 -1418 0
-28 19 -1419 0
-28 20 -1420 0
-28 21 -1421 0
-28 22 -1422 0
-28 23 -1423 0
-28 24 -1424 0
-28 25 -1425 0
-28 26 -1426 0
-28 27 -1427 0
-28 28 -1428 0
-28 29 -1429 0
-28 30 -1430 0
-28 31 -1431 0
-28 32 -1432 0
-28 33 -1433 0
-28 34 -1434 0
-28 35 -1435 0
-28 36 -1436 0
-28 37 -1437 0
-28 38 -1438 0
-28 39 -1439 0
-28 40 -1440 0
-28 41 -1441 0
-28 42 -1442 0
-28 43 -1443 0
-28 44 -1444 0
-28 45 -1445 0
-28 46 -1446 0
-28 47 -1447 0
-28 48 -1448 0
-28 49 -1449 0
-28 50 -1450 0
-29 1 -1451 0
-29 2 -1452 0
-29 3 -1453 0
-29 4 -1454 0
-29 5 -1455 0
-29 6 -1456 0
-29 7 -1457 0
-29 8 -1458 0
-29 9 -1459 0
-29 10 -1460 0
-29 11 -1461 0
-29 12 -1462 0
-29 13 -1463 0
-29 14 -1464 0
-29 15 -1465 0
-29 16 -1466 0
-29 17 -1467 0
-29 18 -1468 0
-29 19 -1469 0
-29 20 -1470 0
-29 21 -1471 0
-29 22 -1472 0
-29 23 -1473 0
-29 24 -1474 0
-29 25 -1475 0
-29 26 -1476 0
-29 27 -1477 0
-29 28 -1478 0
-29 29 -1479 0
-29 30 -1480 0
-29 31 -1481 0
-29 32 -1482 0
-29 33 -1483 0
-29 34 -1484 0
-29 35 -1485 0
-29 36 -1486 0
-29 37 -1487 0
-29 38 -1488 0
-29 39 -1489 0
-29 40 -1490 0
-29 41 -1491 0
-29 42 -1492 0
-29 43 -1493 0
-29 44 -1494 0
-29 45 -1495 0
-29 46 -1496 0
-29 47 -1497 0
-29 48 -1498 0
-29 49 -1499 0
-29 50 -1500 0
-30 1 -1501 0
-30 2 -1502 0
-30 3 -1503 0
-30 4 -1504 0
-30 5 -1505 0
-30 6 -1506 0
-30 7 -1507 0
-30 8 -1508 0
-30 9 -1509 0
-30 10 -1510 0
-30 11 -1511 0
-30 12 -1512 0
-30 13 -1513 0
-30 14 -1514 0
-30 15 -1515 0
-30 16 -1516 0
-30 17 -1517 0
-30 18 -1518 0
-30 19 -1519 0
-30 20 -1520 0
-30 21 -1521 0
-30 22 -1522 0
-30 23 -1523 0
-30 24 -1524 0
-30 25 -1525 0
-30 26 -1526 0
-30 27 -1527 0
-30 28 -1528 0
-30 29 -1529 0
-30 30 -1530 0
-30 31 -1531 0
-30 32 -1532 0
-30 33 -1533 0
-30 34 -1534 0
-30 35 -1535 0
-30 36 -1536 0
-30 37 -1537 0
-30 38 -1538 0
-30 39 -1539 0
-30 40 -1540 0
-30 41 -1541 0
-30 42 -1542 0
-30 43 -1543 0
-30 44 -1544 0
-30 45 -1545 0
-30 46 -1546 0
-30 47 -1547 0
-30 48 -1548 0
-30 49 -1549 0
-30 50 -1550 0
-31 1 -1551 0
-31 2 -1552 0
-31 3 -1553 0
-31 4 -1554 0
-31 5 -1555 0
-31 6 -1556 0
-31 7 -1557 0
-31 8 -1558 0
-31 9 -1559 0
-31 10 -1560 0
-31 11 -1561 0
-31 12 -1562 0
-31 13 -1563 0
-31 14 -1564 0
-31 15 -1565 0
-31 16 -1566 0
-31 17 -1567 0
-31 18 -1568 0
-31 19 -1569 0
-31 20 -1570 0
-31 21 -1571 0
-31 22 -1572 0
-31 23 -1573 0
-31 24 -1574 0
-31 25 -1575 0
-31 26 -1576 0
-31 27 -1577 0
-31 28 -1578 0
-31 29 -1579 0
-31 30 -1580 0
-31 31 -1581 0
-31 32 -1582 0
-31 33 -1583 0
-31 34 -1584 0
-31 35 -1585 0
-31 36 -1586 0
-31 37 -1587 0
-31 38 -1588 0
-31 39 -1589 0
-31 40 -1590 0
-31 41 -1591 0
-31 42 -1592 0
-31 43 -1593 0
-31 44 -1594 0
-31 45 -1595 0
-31 46 -1596 0
-31 47 -1597 0
-31 48 -1598 0
-31 49 -1599 0
-31 50 -1600 0
-32 1 -1601 0
-32 2 -1602 0
-32 3 -1603 0
-32 4 -1604 0
-32 5 -1605 0
-32 6 -1606 0
-32 7 -1607 0
-32 8 -1608 0
-32 9 -1609 0
-32 10 -1610 0
-32 11 -1611 0
-32 12 -1612 0
-32 13 -1613 0
-32 14 -1614 0
-32 15 -1615 0
-32 16 -1616 0
-32 17 -1617 0
-32 18 -1618 0
-32 19 -1619 0
-32 20 -1620 0
-32 21 -1621 0
-32 22 -1622 0
-32 23 -1623 0
-32 24 -1624 0
-32 25 -1625 0
-32 26 -1626 0
-32 27 -1627 0
-32 28 -1628 0
-32 29 -1629 0
-32 30 -1630 0
-32 31 -1631 0
-32 32 -1632 0
-32 33 -1633 0
-32 34 -1634 0
-32 35 -1635 0
-32 36 -1636 0
-32 37 -1637 0
-32 38 -1638 0
-32 39 -1639 0
-32 40 -1640 0
-32 41 -1641 0
-32 42 -1642 0
-32 43 -1643 0
-32 44 -1644 0
-32 45 -1645 0
-32 46 -1646 0
-32 47 -1647 0
-32 48 -1648 0
-32 49 -1649 0
-32 50 -1650 0
-33 1 -1651 0
-33 2 -1652 0
-33 3 -1653 0
-33 4 -1654 0
-33 5 -1655 0
-33 6 -1656 0
-33 7 -1657 0
-33 8 -1658 0
-33 9 -1659 0
-33 10 -1660 0
-33 11 -1661 0
-33 12 -1662 0
-33 13 -1663 0
-33 14 -1664 0
-33 15 -1665 0
-33 16 -1666 0
-33 17 -1667 0
-33 18 -1668 0
-33 19 -1669 0
-33 20 -1670 0
-33 21 -1671 0
-33 22 -1672 0
-33 23 -1673 0
-33 24 -1674 0
-33 25 -1675 0
-33 26 -1676 0
-33 27 -1677 0
-33 28 -1678 0
-33 29 -1679 0
-33 30 -1680 0
-33 31 -1681 0
-33 32 -1682 0
-33 33 -1683 0
-33 34 -1684 0
-33 35 -1685 0
-33 36 -1686 0
-33 37 -1687 0
-33 38 -1688 0
-33 39 -1689 0
-33 40 -1690 0
-33 41 -1691 0
-33 42 -1692 0
-33 43 -1693 0
-33 44 -1694 0
-33 45 -1695 0
-33 46 -1696 0
-33 47 -1697 0
-33 48 -1698 0
-33 49 -1699 0
-33 50 -1700 0
-34 1 -1701 0
-34 2 -1702 0
-34 3 -1703 0
-34 4 -1704 0
-34 5 -1705 0
-34 6 -1706 0
-34 7 -1707 0
-34 8 -1708 0
-34 9 -1709 0
-34 10 -1710 0
-34 11 -1711 0
-34 12 -1712 0
-34 13 -1713 0
-34 14 -1714 0
-34 15 -1715 0
-34 16 -1716 0
-34 17 -1717 0
-34 18 -1718 0
-34 19 -1719 0
-34 20 -1720 0
-34 21 -1721 0
-34 22 -1722 0
-34 23 -1723 0
-34 24 -1724 0
-34 25 -1725 0
-34 26 -1726 0
-34 27 -1727 0
-34 28 -1728 0
-34 29 -1729 0
-34 30 -1730 0
-34 31 -1731 0
-34 32 -1732 0
-34 33 -1733 0
-34 34 -1734 0
-34 35 -1735 0
-34 36 -1736 0
-34 37 -1737 0
-34 38 -1738 0
-34 39 -1739 0
-34 40 -1740 0
-34 41 -1741 0
-34 42 -1742 0
-34 43 -1743 0
-34 44 -1744 0
-34 45 -1745 0
-34 46 -1746 0
-34 47 -1747 0
-34 48 -1748 0
-34 49 -1749 0
-34 50 -1750 0
-35 1 -1751 0
-35 2 -1752 0
-35 3 -1753 0
-35 4 -1754 0
-35 5 -1755 0
-35 6 -1756 0
-35 7 -1757 0
-35 8 -1758 0
-35 9 -1759 0
-35 10 -1760 0
-35 11 -1761 0
-35 12 -1762 0
-35 13 -1763 0
-35 14 -1764 0
-35 15 -1765 0
-35 16 -1766 0
-35 17 -1767 0
-35 18 -1768 0
-35 19 -1769 0
-35 20 -1770 0
-35 21 -1771 0
-35 22 -1772 0
-35 23 -1773 0
-35 24 -1774 0
-35 25 -1775 0
-35 26 -1776 0
-35 27 -1777 0
-35 28 -1778 0
-35 29 -1779 0
-35 30 -1780 0
-35 31 -1781 0
-35 32 -1782 0
-35 33 -1783 0
-35 34 -1784 0
-35 35 -1785 0
-35 36 -1786 0
-35 37 -1787 0
-35 38 -1788 0
-35 39 -1789 0
-35 40 -1790 0
-35 41 -1791 0
-35 42 -1792 0
-35 43 -1793 0
-35 44 -1794 0
-35 45 -1795 0
-35 46 -1796 0
-35 47 -1797 0
-35 48 -1798 0
-35 49 -1799 0
-35 50 -1800 0
-36 1 -1801 0
-36 2 -1802 0
-36 3 -1803 0
-36 4 -1804 0
-36 5 -1805 0
-36 6 -1806 0
-36 7 -1807 0
-36 8 -1808 0
-36 9 -1809 0
-36 10 -1810 0
-36 11 -1811 0
-36 12 -1812 0
-36 13 -1813 0
-36 14 -1814 0
-36 15 -1815 0
-36 16 -1816 0
-36 17 -1817 0
-36 18 -1818 0
-36 19 -1819 0
-36 20 -1820 0
-36 21 -1821 0
-36 22 -1822 0
-36 23 -1823 0
-36 24 -1824 0
-36 25 -1825 0
-36 26 -1826 0
-36 27 -1827 0
-36 28 -1828 0
-36 29 -1829 0
-36 30 -1830 0
-36 31 -1831 0
-36 32 -1832 0
-36 33 -1833 0
-36 34 -1834 0
-36 35 -1835 0
-36 36 -1836 0
-36 37 -1837 0
-36 38 -1838 0
-36 39 -1839 0
-36 40 -1840 0
-36 41 -1841 0
-36 42 -1842 0
-36 43 -1843 0
-36 44 -1844 0
-36 45 -1845 0
-36 46 -1846 0
-36 47 -1847 0
-36 48 -1848 0
-36 49 -1849 0
-36 50 -1850 0
-37 1 -1851 0
-37 2 -1852 0
-37 3 -1853 0
-37 4 -1854 0
-37 5 -1855 0
-37 6 -1856 0
-37 7 -1857 0
-37 8 -1858 0
-37 9 -1859 0
-37 10 -1860 0
-37 11 -1861 0
-37 12 -1862 0
-37 13 -1863 0
-37 14 -1864 0
-37 15 -1865 0
-37 16 -1866 0
-37 17 -1867 0
-37 18 -1868 0
-37 19 -1869 0
-37 20 -1870 0
-37 21 -1871 0
-37 22 -1872 0
-37 23 -1873 0
-37 24 -1874 0
-37 25 -1875 0
-37 26 -1876 0
-37 27 -1877 0
-37 28 -1878 0
-37 29 -1879 0
-37 30 -1880 0
-37 31 -1881 0
-37 32 -1882 0
-37 33 -1883 0
-37 34 -1884 0
-37 35 -1885 0
-37 36 -1886 0
-37 37 -1887 0
-37 38 -1888 0
-37 39 -1889 0
-37 40 -1890 0
-37 41 -1891 0
-37 42 -1892 0
-37 43 -1893 0
-37 44 -1894 0
-37 45 -1895 0
-37 46 -1896 0
-37 47 -1897 0
-37 48 -1898 0
-37 49 -1899 0
-37 50 -1900 0
-38 1 -1901 0
-38 2 -1902 0
-38 3 -1903 0
-38 4 -1904 0
-38 5 -1905 0
-38 6 -1906 0
-38 7 -1907 0
-38 8 -1908 0
-38 9 -1909 0
-38 10 -1910 0
-38 11 -1911 0
-38 12 -1912 0
-38 13 -1913 0
-38 14 -1914 0
-38 15 -1915 0
-38 16 -1916 0
-38 17 -1917 0
-38 18 -1918 0
-38 19 -1919 0
-38 20 -1920 0
-38 21 -1921 0
-38 22 -1922 0
-38 23 -1923 0
-38 24 -1924 0
-38 25 -1925 0
-38 26 -1926 0
-38 27 -1927 0
-38 28 -1928 0
-38 29 -1929 0
-38 30 -1930 0
-38 31 -1931 0
-38 32 -1932 0
-38 33 -1933 0
-38 34 -1934 0
-38 35 -1935 0
-38 36 -1936 0
-38 37 -1937 0
-38 38 -1938 0
-38 39 -1939 0
-38 40 -1940 0
-38 41 -1941 0
-38 42 -1942 0
-38 43 -1943 0
-38 44 -1944 0
-38 45 -1945 0
-38 46 -1946 0
-38 47 -1947 0
-38 48 -1948 0
-38 49 -1949 0
-38 50 -1950 0
-39 1 -1951 0
-39 2 -1952 0
-39 3 -1953 0
-39 4 -1954 0
-39 5 -1955 0
-39 6 -1956 0
-39 7 -1957 0
-39 8 -1958 0
-39 9 -1959 0
-39 10 -1960 0
-39 11 -1961 0
-39 12 -1962 0
-39 13 -1963 0
-39 14 -1964 0
-39 15 -1965 0
-39 16 -1966 0
-39 17 -1967 0
-39 18 -1968 0
-39 19 -1969 0
-39 20 -1970 0
-39 21 -1971 0
-39 22 -1972 0
-39 23 -1973 0
-39 24 -1974 0
-39 25 -1975 0
-39 26 -1976 0
-39 27 -1977 0
-39 28 -1978 0
-39 29 -1979 0
-39 30 -1980 0
-39 31 -1981 0
-39 32 -1982 0
-39 33 -1983 0
-39 34 -1984 0
-39 35 -1985 0
-39 36 -1986 0
-39 37 -1987 0
-39 38 -1988 0
-39 39 -1989 0
-39 40 -1990 0
-39 41 -1991 0
-39 42 -1992 0
-39 43 -1993 0
-39 44 -1994 0
-39 45 -1995 0
-39 46 -1996 0
-39 47 -1997 0
-39 48 -1998 0
-39 49 -1999 0
-39 50 -2000 0
-40 1 -2001 0
-40 2 -2002 0
-40 3 -2003 0
-40 4 -2004 0
-40 5 -2005 0
-40 6 -2006 0
-40 7 -2007 0
-40 8 -2008 0
-40 9 -2009 0
-40 10 -2010 0
-40 11 -2011 0
-40 12 -2012 0
-40 13 -2013 0
-40 14 -2014 0
-40 15 -2015 0
-40 16 -2016 0
-40 17 -2017 0
-40 18 -2018 0
-40 19 -2019 0
-40 20 -2020 0
-40 21 -2021 0
-40 22 -2022 0
-40 23 -2023 0
-40 24 -2024 0
-40 25 -2025 0
-40 26 -2026 0
-40 27 -2027 0
-40 28 -2028 0
-40 29 -2029 0
-40 30 -2030 0
-40 31 -2031 0
-40 32 -2032 0
-40 33 -2033 0
-40 34 -2034 0
-40 35 -2035 0
-40 36 -2036 0
-40 37 -2037 0
-40 38 -2038 0
-40 39 -2039 0
-40 40 -2040 0
-40 41 -2041 0
-40 42 -2042 0
-40 43 -2043 0
-40 44 -2044 0
-40 45 -2045 0
-40 46 -2046 0
-40 47 -2047 0
-40 48 -2048 0
-40 49 -2049 0
-40 50 -2050 0
-41 1 -2051 0
-41 2 -2052 0
-41 3 -2053 0
-41 4 -2054 0
-41 5 -2055 0
-41 6 -2056 0
-41 7 -2057 0
-41 8 -2058 0
-41 9 -2059 0
-41 10 -2060 0
-41 11 -2061 0
-41 12 -2062 0
-41 13 -2063 0
-41 14 -2064 0
-41 15 -2065 0
-41 16 -2066 0
-41 17 -2067 0
-41 18 -2068 0
-41 19 -2069 0
-41 20 -2070 0
-41 21 -2071 0
-41 22 -2072 0
-41 23 -2073 0
-41 24 -2074 0
-41 25 -2075 0
-41 26 -2076 0
-41 27 -2077 0
-41 28 -2078 0
-41 29 -2079 0
-41 30 -2080 0
-41 31 -2081 0
-41 32 -2082 0
-41 33 -2083 0
-41 34 -2084 0
-41 35 -2085 0
-41 36 -2086 0
-41 37 -2087 0
-41 38 -2088 0
-41 39 -2089 0
-41 40 -2090 0
-41 41 -2091 0
-41 42 -2092 0
-41 43 -2093 0
-41 44 -2094 0
-41 45 -2095 0
-41 46 -2096 0
-41 47 -2097 0
-41 48 -2098 0
-41 49 -2099 0
-41 50 -2100 0
-42 1 -2101 0
-42 2 -2102 0
-42 3 -2103 0
-42 4 -2104 0
-42 5 -2105 0
-42 6 -2106 0
-42 7 -2107 0
-42 8 -2108 0
-42 9 -2109 0
-42 10 -2110 0
-42 11 -2111 0
-42 12 -2112 0
-42 13 -2113 0
-42 14 -2114 0
-42 15 -2115 0
-42 16 -2116 0
-42 17 -2117 0
-42 18 -2118 0
-42 19 -2119 0
-42 20 -2120 0
-42 21 -2121 0
-42 22 -2122 0
-42 23 -2123 0
-42 24 -2124 0
-42 25 -2125 0
-42 26 -2126 0
-42 27 -2127 0
-42 28 -2128 0
-42 29 -2129 0
-42 30 -2130 0
-42 31 -2131 0
-42 32 -2132 0
-42 33 -2133 0
-42 34 -2134 0
-42 35 -2135 0
-42 36 -2136 0
-42 37 -2137 0
-42 38 -2138 0
-42 39 -2139 0
-42 40 -2140 0
-42 41 -2141 0
-42 42 -2142 0
-42 43 -2143 0
-42 44 -2144 0
-42 45 -2145 0
-42 46 -2146 0
-42 47 -2147 0
-42 48 -2148 0
-42 49 -2149 0
-42 50 -2150 0
-43 1 -2151 0
-43 2 -2152 0
-43 3 -2153 0
-43 4 -2154 0
-43 5 -2155 0
-43 6 -2156 0
-43 7 -2157 0
-43 8 -2158 0
-43 9 -2159 0
-43 10 -2160 0
-43 11 -2161 0
-43 12 -2162 0
-43 13 -2163 0
-43 14 -2164 0
-43 15 -2165 0
-43 16 -2166 0
-43 17 -2167 0
-43 18 -2168 0
-43 19 -2169 0
-43 20 -2170 0
-43 21 -2171 0
-43 22 -2172 0
-43 23 -2173 0
-43 24 -2174 0
-43 25 -2175 0
-43 26 -2176 0
-43 27 -2177 0
-43 28 -2178 0
-43 29 -2179 0
-43 30 -2180 0
-43 31 -2181 0
-43 32 -2182 0
-43 33 -2183 0
-43 34 -2184 0
-43 35 -2185 0
-43 36 -2186 0
-43 37 -2187 0
-43 38 -2188 0
-43 39 -2189 0
-43 40 -2190 0
-43 41 -2191 0
-43 42 -2192 0
-43 43 -2193 0
-43 44 -2194 0
-43 45 -2195 0
-43 46 -2196 0
-43 47 -2197 0
-43 48 -2198 0
-43 49 -2199 0
-43 50 -2200 0
-44 1 -2201 0
-44 2 -2202 0
-44 3 -2203 0
-44 4 -2204 0
-44 5 -2205 0
-44 6 -2206 0
-44 7 -2207 0
-44 8 -2208 0
-44 9 -2209 0
-44 10 -2210 0
-44 11 -2211 0
-44 12 -2212 0
-44 13 -2213 0
-44 14 -2214 0
-44 15 -2215 0
-44 16 -2216 0
-44 17 -2217 0
-44 18 -2218 0
-44 19 -2219 0
-44 20 -2220 0
-44 21 -2221 0
-44 22 -2222 0
-44 23 -2223 0
-44 24 -2224 0
-44 25 -2225 0
-44 26 -2226 0
-44 27 -2227 0
-44 28 -2228 0
-44 29 -2229 0
-44 30 -2230 0
-44 31 -2231 0
-44 32 -2232 0
-44 33 -2233 0
-44 34 -2234 0
-44 35 -2235 0
-44 36 -2236 0
-44 37 -2237 0
-44 38 -2238 0
-44 39 -2239 0
-44 40 -2240 0
-44 41 -2241 0
-44 42 -2242 0
-44 43 -2243 0
-44 44 -2244 0
-44 45 -2245 0
-44 46 -2246 0
-44 47 -2247 0
-44 48 -2248 0
-44 49 -2249 0
-44 50 -2250 0
-45 1 -2251 0
-45 2 -2252 0
-45 3 -2253 0
-45 4 -2254 0
-45 5 -2255 0
-45 6 -2256 0
-45 7 -2257 0
-45 8 -2258 0
-45 9 -2259 0
-45 10 -2260 0
-45 11 -2261 0
-45 12 -2262 0
-45 13 -2263 0
-45 14 -2264 0
-45 15 -2265 0
-45 16 -2266 0
-45 17 -2267 0
-45 18 -2268 0
-45 19 -2269 0
-45 20 -2270 0
-45 21 -2271 0
-45 22 -2272 0
-45 23 -2273 0
-45 24 -2274 0
-45 25 -2275 0
-45 26 -2276 0
-45 27 -2277 0
-45 28 -2278 0
-45 29 -2279 0
-45 30 -2280 0
-45 31 -2281 0
-45 32 -2282 0
-45 33 -2283 0
-45 34 -2284 0
-45 35 -2285 0
-45 36 -2286 0
-45 37 -2287 0
-45 38 -2288 0
-45 39 -2289 0
-45 40 -2290 0
-45 41 -2291 0
-45 42 -2292 0
-45 43 -2293 0
-45 44 -2294 0
-45 45 -2295 0
-45 46 -2296 0
-45 47 -2297 0
-45 48 -2298 0
-45 49 -2299 0
-45 50 -2300 0
-46 1 -2301 0
-46 2 -2302 0
-46 3 -2303 0
-46 4 -2304 0
-46 5 -2305 0
-46 6 -2306 0
-46 7 -2307 0
-46 8 -2308 0
-46 9 -2309 0
-46 10 -2310 0
-46 11 -2311 0
-46 12 -2312 0
-46 13 -2313 0
-46 14 -2314 0
-46 15 -2315 0
-46 16 -2316 0
-46 17 -2317 0
-46 18 -2318 0
-46 19 -2319 0
-46 20 -2320 0
-46 21 -2321 0
-46 22 -2322 0
-46 23 -2323 0
-46 24 -2324 0
-46 25 -2325 0
-46 26 -2326 0
-46 27 -2327 0
-46 28 -2328 0
-46 29 -2329 0
-46 30 -2330 0
-46 31 -2331 0
-46 32 -2332 0
-46 33 -2333 0
-46 34 -2334 0
-46 35 -2335 0
-46 36 -2336 0
-46 37 -2337 0
-46 38 -2338 0
-46 39 -2339 0
-46 40 -2340 0
-46 41 -2341 0
-46 42 -2342 0
-46 43 -2343 0
-46 44 -2344 0
-46 45 -2345 0
-46 46 -2346 0
-46 47 -2347 0
-46 48 -2348 0
-46 49 -2349 0
-46 50 -2350 0
-47 1 -2351 0
-47 2 -2352 0
-47 3 -2353 0
-47 4 -2354 0
-47 5 -2355 0
-47 6 -2356 0
-47 7 -2357 0
-47 8 -2358 0
-47 9 -2359 0
-47 10 -2360 0
-47 11 -2361 0
-47 12 -2362 0
-47 13 -2363 0
-47 14 -2364 0
-47 15 -2365 0
-47 16 -2366 0
-47 17 -2367 0
-47 18 -2368 0
-47 19 -2369 0
-47 20 -2370 0
-47 21 -2371 0
-47 22 -2372 0
-47 23 -2373 0
-47 24 -2374 0
-47 25 -2375 0
-47 26 -2376 0
-47 27 -2377 0
-47 28 -2378 0
-47 29 -2379 0
-47 30 -2380 0
-47 31 -2381 0
-47 32 -2382 0
-47 33 -2383 0
-47 34 -2384 0
-47 35 -2385 0
-47 36 -2386 0
-47 37 -2387 0
-47 38 -2388 0
-47 39 -2389 0
-47 40 -2390 0
-47 41 -2391 0
-47 42 -2392 0
-47 43 -2393 0
-47 44 -2394 0
-47 45 -2395 0
-47 46 -2396 0
-47 47 -2397 0
-47 48 -2398 0
-47 49 -2399 0
-47 50 -2400 0
-48 1 -2401 0
-48 2 -2402 0
-48 3 -2403 0
-48 4 -2404 0
-48 5 -2405 0
-48 6 -2406 0
-48 7 -2407 0
-48 8 -2408 0
-48 9 -2409 0
-48 10 -2410 0
-48 11 -2411 0
-48 12 -2412 0
-48 13 -2413 0
-48 14 -2414 0
-48 15 -2415 0
-48 16 -2416 0
-48 17 -2417 0
-48 18 -2418 0
-48 19 -2419 0
-48 20 -2420 0
-48 21 -2421 0
-48 22 -2422 0
-48 23 -2423 0
-48 24 -2424 0
-48 25 -2425 0
-48 26 -2426 0
-48 27 -2427 0
-48 28 -2428 0
-48 29 -2429 0
-48 30 -2430 0
-48 31 -2431 0
-48 32 -2432 0
-48 33 -2433 0
-48 34 -2434 0
-48 35 -2435 0
-48 36 -2436 0
-48 37 -2437 0
-48 38 -2438 0
-48 39 -2439 0
-48 40 -2440 0
-48 41 -2441 0
-48 42 -2442 0
-48 43 -2443 0
-48 44 -2444 0
-48 45 -2445 0
-48 46 -2446 0
-48 47 -2447 0
-48 48 -2448 0
-48 49 -2449 0
-48 50 -2450 0
-49 1 -2451 0
-49 2 -2452 0
-49 3 -2453 0
-49 4 -2454 0
-49 5 -2455 0
-49 6 -2456 0
-49 7 -2457 0
-49 8 -2458 0
-49 9 -2459 0
-49 10 -2460 0
-49 11 -2461 0
-49 12 -2462 0
-49 13 -2463 0
-49 14 -2464 0
-49 15 -2465 0
-49 16 -2466 0
-49 17 -2467 0
-49 18 -2468 0
-49 19 -2469 0
-49 20 -2470 0
-49 21 -2471 0
-49 22 -2472 0
-49 23 -2473 0
-49 24 -2474 0
-49 25 -2475 0
-49 26 -2476 0
-49 27 -2477 0
-49 28 -2478 0
-49 29 -2479 0
-49 30 -2480 0
-49 31 -2481 0
-49 32 -2482 0
-49 33 -2483 0
-49 34 -2484 0
-49 35 -2485 0
-49 36 -2486 0
-49 37 -2487 0
-49 38 -2488 0
-49 39 -2489 0
-49 40 -2490 0
-49 41 -2491 0
-49 42 -2492 0
-49 43 -2493 0
-49 44 -2494 0
-49 45 -2495 0
-49 46 -2496 0
-49 47 -2497 0
-49 48 -2498 0
-49 49 -2499 0
-49 50 -2500 0
-50 1 -2501 0
-50 2 -2502 0
-50 3 -2503 0
-50 4 -2504 0
-50 5 -2505 0
-50 6 -2506 0
-50 7 -2507 0
-50 8 -2508 0
-50 9 -2509 0
-50 10 -2510 0
-50 11 -2511 0
-50 12 -2512 0
-50 13 -2513 0
-50 14 -2514 0
-50 15 -2515 0
-50 16 -2516 0
-50 17 -2517 0
-50 18 -2518 0
-50 19 -2519 0
-50 20 -2520 0
-50 21 -2521 0
-50 22 -2522 0
-50 23 -2523 0
-50 24 -2524 0
-50 25 -2525 0
-50 26 -2526 0
-50 27 -2527 0
-50 28 -2528 0
-50 29 -2529 0
-50 30 -2530 0
-50 31 -2531 0
-50 32 -2532 0
-50 33 -2533 0
-50 34 -2534 0
-50 35 -2535 0
-50 36 -2536 0
-50 37 -2537 0
-50 38 -2538 0
-50 39 -2539 0
-50 40 -2540 0
-50 41 -2541 0
-50 42 -2542 0
-50 43 -2543 0
-50 44 -2544 0
-50 45 -2545 0
-50 46 -2546 0
-50 47 -2547 0
-50 48 -2548 0
-50 49 -2549 0
-50 50 -2550 0
