c LEQ(domain1,domain1) T(domain1) T(domain3) LEQ(domain3,domain1) LEQ(domain1,domain3) LEQ(domain1,domain0) T(domain0) LEQ(domain0,domain1) LEQ(domain1,domain2) T(domain2) LEQ(domain2,domain1) LEQ(domain4,domain1) T(domain4) LEQ(domain1,domain4) LEQ(domain3,domain3) LEQ(domain0,domain3) LEQ(domain3,domain0) LEQ(domain3,domain2) LEQ(domain2,domain3) LEQ(domain3,domain4) LEQ(domain4,domain3) LEQ(domain0,domain0) LEQ(domain2,domain0) LEQ(domain0,domain2) LEQ(domain4,domain0) LEQ(domain0,domain4) LEQ(domain2,domain2) LEQ(domain2,domain4) LEQ(domain4,domain2) LEQ(domain4,domain4)
c 1 2 3 4 5 6 7 8 9 10 11 12 13 14 15 16 17 18 19 20 21 22 23 24 25 26 27 28 29 30
p cnf 30 110
7 -22 -7 0
7 -6 -2 0
7 -23 -10 0
7 -17 -3 0
7 -25 -13 0
2 -8 -7 0
2 -1 -2 0
2 -11 -10 0
2 -4 -3 0
2 -12 -13 0
10 -24 -7 0
10 -9 -2 0
10 -27 -10 0
10 -18 -3 0
10 -29 -13 0
3 -16 -7 0
3 -5 -2 0
3 -19 -10 0
3 -15 -3 0
3 -21 -13 0
13 -26 -7 0
13 -14 -2 0
13 -28 -10 0
13 -20 -3 0
13 -30 -13 0
22 0
8 6 0
-8 -6 0
-8 -9 24 0
-8 -5 16 0
-8 -14 26 0
24 23 0
-24 -23 0
-24 -11 8 0
-24 -19 16 0
-24 -28 26 0
16 17 0
-16 -17 0
-16 -4 8 0
-16 -18 24 0
-16 -20 26 0
26 25 0
-26 -25 0
-26 -12 8 0
-26 -29 24 0
-26 -21 16 0
1 0
-6 -24 9 0
-6 -16 5 0
-6 -26 14 0
9 11 0
-9 -11 0
-9 -23 6 0
-9 -19 5 0
-9 -28 14 0
5 4 0
-5 -4 0
-5 -17 6 0
-5 -18 9 0
-5 -20 14 0
14 12 0
-14 -12 0
-14 -25 6 0
-14 -29 9 0
-14 -21 5 0
27 0
-23 -8 11 0
-23 -16 19 0
-23 -26 28 0
-11 -6 23 0
-11 -5 19 0
-11 -14 28 0
19 18 0
-19 -18 0
-19 -17 23 0
-19 -4 11 0
-19 -20 28 0
28 29 0
-28 -29 0
-28 -25 23 0
-28 -12 11 0
-28 -21 19 0
15 0
-17 -8 4 0
-17 -24 18 0
-17 -26 20 0
-4 -6 17 0
-4 -9 18 0
-4 -14 20 0
-18 -23 17 0
-18 -11 4 0
-18 -28 20 0
20 21 0
-20 -21 0
-20 -25 17 0
-20 -12 4 0
-20 -29 18 0
30 0
-25 -8 12 0
-25 -24 29 0
-25 -16 21 0
-12 -6 25 0
-12 -9 29 0
-12 -5 21 0
-29 -23 25 0
-29 -11 12 0
-29 -19 21 0
-21 -17 25 0
-21 -4 12 0
-21 -18 29 0
