p cnf 42 222
1 -2 -1 0
3 -4 -1 0
5 -6 -1 0
7 -8 -1 0
9 -10 -1 0
11 -12 -1 0
1 -13 -3 0
3 -14 -3 0
5 -15 -3 0
7 -16 -3 0
9 -17 -3 0
11 -18 -3 0
1 -19 -5 0
3 -20 -5 0
5 -21 -5 0
7 -22 -5 0
9 -23 -5 0
11 -24 -5 0
1 -25 -7 0
3 -26 -7 0
5 -27 -7 0
7 -28 -7 0
9 -29 -7 0
11 -30 -7 0
1 -31 -9 0
3 -32 -9 0
5 -33 -9 0
7 -34 -9 0
9 -35 -9 0
11 -36 -9 0
1 -37 -11 0
3 -38 -11 0
5 -39 -11 0
7 -40 -11 0
9 -41 -11 0
11 -42 -11 0
2 0
4 13 0
-4 -13 0
-4 -15 6 0
-4 -16 8 0
-4 -17 10 0
-4 -18 12 0
6 19 0
-6 -19 0
-6 -20 4 0
-6 -22 8 0
-6 -23 10 0
-6 -24 12 0
8 25 0
-8 -25 0
-8 -26 4 0
-8 -27 6 0
-8 -29 10 0
-8 -30 12 0
10 31 0
-10 -31 0
-10 -32 4 0
-10 -33 6 0
-10 -34 8 0
-10 -36 12 0
12 37 0
-12 -37 0
-12 -38 4 0
-12 -39 6 0
-12 -40 8 0
-12 -41 10 0
14 0
13 4 0
-13 -4 0
-13 -6 15 0
-13 -8 16 0
-13 -10 17 0
-13 -12 18 0
15 20 0
-15 -20 0
-15 -19 13 0
-15 -22 16 0
-15 -23 17 0
-15 -24 18 0
16 26 0
-16 -26 0
-16 -25 13 0
-16 -27 15 0
-16 -29 17 0
-16 -30 18 0
17 32 0
-17 -32 0
-17 -31 13 0
-17 -33 15 0
-17 -34 16 0
-17 -36 18 0
18 38 0
-18 -38 0
-18 -37 13 0
-18 -39 15 0
-18 -40 16 0
-18 -41 17 0
21 0
19 6 0
-19 -6 0
-19 -4 20 0
-19 -8 22 0
-19 -10 23 0
-19 -12 24 0
20 15 0
-20 -15 0
-20 -13 19 0
-20 -16 22 0
-20 -17 23 0
-20 -18 24 0
22 27 0
-22 -27 0
-22 -25 19 0
-22 -26 20 0
-22 -29 23 0
-22 -30 24 0
23 33 0
-23 -33 0
-23 -31 19 0
-23 -32 20 0
-23 -34 22 0
-23 -36 24 0
24 39 0
-24 -39 0
-24 -37 19 0
-24 -38 20 0
-24 -40 22 0
-24 -41 23 0
28 0
25 8 0
-25 -8 0
-25 -4 26 0
-25 -6 27 0
-25 -10 29 0
-25 -12 30 0
26 16 0
-26 -16 0
-26 -13 25 0
-26 -15 27 0
-26 -17 29 0
-26 -18 30 0
27 22 0
-27 -22 0
-27 -19 25 0
-27 -20 26 0
-27 -23 29 0
-27 -24 30 0
29 34 0
-29 -34 0
-29 -31 25 0
-29 -32 26 0
-29 -33 27 0
-29 -36 30 0
30 40 0
-30 -40 0
-30 -37 25 0
-30 -38 26 0
-30 -39 27 0
-30 -41 29 0
35 0
31 10 0
-31 -10 0
-31 -4 32 0
-31 -6 33 0
-31 -8 34 0
-31 -12 36 0
32 17 0
-32 -17 0
-32 -13 31 0
-32 -15 33 0
-32 -16 34 0
-32 -18 36 0
33 23 0
-33 -23 0
-33 -19 31 0
-33 -20 32 0
-33 -22 34 0
-33 -24 36 0
34 29 0
-34 -29 0
-34 -25 31 0
-34 -26 32 0
-34 -27 33 0
-34 -30 36 0
36 41 0
-36 -41 0
-36 -37 31 0
-36 -38 32 0
-36 -39 33 0
-36 -40 34 0
42 0
37 12 0
-37 -12 0
-37 -4 38 0
-37 -6 39 0
-37 -8 40 0
-37 -10 41 0
38 18 0
-38 -18 0
-38 -13 37 0
-38 -15 39 0
-38 -16 40 0
-38 -17 41 0
39 24 0
-39 -24 0
-39 -19 37 0
-39 -20 38 0
-39 -22 40 0
-39 -23 41 0
40 30 0
-40 -30 0
-40 -25 37 0
-40 -26 38 0
-40 -27 39 0
-40 -29 41 0
41 36 0
-41 -36 0
-41 -31 37 0
-41 -32 38 0
-41 -33 39 0
-41 -34 40 0
