c T(domain4) LEQ(domain4,domain4) LEQ(domain2,domain4) LEQ(domain4,domain2) T(domain2) LEQ(domain0,domain4) LEQ(domain4,domain0) T(domain0) LEQ(domain3,domain4) LEQ(domain4,domain3) T(domain3) LEQ(domain4,domain1) LEQ(domain1,domain4) T(domain1) T(domain5) LEQ(domain4,domain5) LEQ(domain5,domain4) LEQ(domain2,domain2) LEQ(domain2,domain0) LEQ(domain0,domain2) LEQ(domain2,domain3) LEQ(domain3,domain2) LEQ(domain2,domain1) LEQ(domain1,domain2) LEQ(domain2,domain5) LEQ(domain5,domain2) LEQ(domain0,domain0) LEQ(domain0,domain3) LEQ(domain3,domain0) LEQ(domain0,domain1) LEQ(domain1,domain0) LEQ(domain5,domain0) LEQ(domain0,domain5) LEQ(domain3,domain3) LEQ(domain1,domain3) LEQ(domain3,domain1) LEQ(domain3,domain5) LEQ(domain5,domain3) LEQ(domain1,domain1) LEQ(domain5,domain1) LEQ(domain1,domain5) LEQ(domain5,domain5)
c 1 2 3 4 5 6 7 8 9 10 11 12 13 14 15 16 17 18 19 20 21 22 23 24 25 26 27 28 29 30 31 32 33 34 35 36 37 38 39 40 41 42
p cnf 42 192
8 -27 -8 0
8 -31 -14 0
8 -19 -5 0
8 -29 -11 0
8 -7 -1 0
8 -32 -15 0
14 -30 -8 0
14 -39 -14 0
14 -23 -5 0
14 -36 -11 0
14 -12 -1 0
14 -40 -15 0
5 -20 -8 0
5 -24 -14 0
5 -18 -5 0
5 -22 -11 0
5 -4 -1 0
5 -26 -15 0
11 -28 -8 0
11 -35 -14 0
11 -21 -5 0
11 -34 -11 0
11 -10 -1 0
11 -38 -15 0
1 -6 -8 0
1 -13 -14 0
1 -3 -5 0
1 -9 -11 0
1 -2 -1 0
1 -17 -15 0
15 -33 -8 0
15 -41 -14 0
15 -25 -5 0
15 -37 -11 0
15 -16 -1 0
15 -42 -15 0
27 0
30 31 0
-30 -31 0
-30 -24 20 0
-30 -35 28 0
-30 -13 6 0
-30 -41 33 0
20 19 0
-20 -19 0
-20 -23 30 0
-20 -21 28 0
-20 -3 6 0
-20 -25 33 0
28 29 0
-28 -29 0
-28 -36 30 0
-28 -22 20 0
-28 -9 6 0
-28 -37 33 0
6 7 0
-6 -7 0
-6 -12 30 0
-6 -4 20 0
-6 -10 28 0
-6 -16 33 0
33 32 0
-33 -32 0
-33 -40 30 0
-33 -26 20 0
-33 -38 28 0
-33 -17 6 0
39 0
-31 -20 24 0
-31 -28 35 0
-31 -6 13 0
-31 -33 41 0
24 23 0
-24 -23 0
-24 -19 31 0
-24 -21 35 0
-24 -3 13 0
-24 -25 41 0
35 36 0
-35 -36 0
-35 -29 31 0
-35 -22 24 0
-35 -9 13 0
-35 -37 41 0
13 12 0
-13 -12 0
-13 -7 31 0
-13 -4 24 0
-13 -10 35 0
-13 -16 41 0
41 40 0
-41 -40 0
-41 -32 31 0
-41 -26 24 0
-41 -38 35 0
-41 -17 13 0
18 0
-19 -30 23 0
-19 -28 21 0
-19 -6 3 0
-19 -33 25 0
-23 -31 19 0
-23 -35 21 0
-23 -13 3 0
-23 -41 25 0
21 22 0
-21 -22 0
-21 -29 19 0
-21 -36 23 0
-21 -9 3 0
-21 -37 25 0
3 4 0
-3 -4 0
-3 -7 19 0
-3 -12 23 0
-3 -10 21 0
-3 -16 25 0
25 26 0
-25 -26 0
-25 -32 19 0
-25 -40 23 0
-25 -38 21 0
-25 -17 3 0
34 0
-29 -30 36 0
-29 -20 22 0
-29 -6 9 0
-29 -33 37 0
-36 -31 29 0
-36 -24 22 0
-36 -13 9 0
-36 -41 37 0
-22 -19 29 0
-22 -23 36 0
-22 -3 9 0
-22 -25 37 0
9 10 0
-9 -10 0
-9 -7 29 0
-9 -12 36 0
-9 -4 22 0
-9 -16 37 0
37 38 0
-37 -38 0
-37 -32 29 0
-37 -40 36 0
-37 -26 22 0
-37 -17 9 0
2 0
-7 -30 12 0
-7 -20 4 0
-7 -28 10 0
-7 -33 16 0
-12 -31 7 0
-12 -24 4 0
-12 -35 10 0
-12 -41 16 0
-4 -19 7 0
-4 -23 12 0
-4 -21 10 0
-4 -25 16 0
-10 -29 7 0
-10 -36 12 0
-10 -22 4 0
-10 -37 16 0
16 17 0
-16 -17 0
-16 -32 7 0
-16 -40 12 0
-16 -26 4 0
-16 -38 10 0
42 0
-32 -30 40 0
-32 -20 26 0
-32 -28 38 0
-32 -6 17 0
-40 -31 32 0
-40 -24 26 0
-40 -35 38 0
-40 -13 17 0
-26 -19 32 0
-26 -23 40 0
-26 -21 38 0
-26 -3 17 0
-38 -29 32 0
-38 -36 40 0
-38 -22 26 0
-38 -9 17 0
-17 -7 32 0
-17 -12 40 0
-17 -4 26 0
-17 -10 38 0
