p cnf 56 350
1 -2 -1 0
3 -4 -1 0
5 -6 -1 0
7 -8 -1 0
9 -10 -1 0
11 -12 -1 0
13 -14 -1 0
1 -15 -3 0
3 -16 -3 0
5 -17 -3 0
7 -18 -3 0
9 -19 -3 0
11 -20 -3 0
13 -21 -3 0
1 -22 -5 0
3 -23 -5 0
5 -24 -5 0
7 -25 -5 0
9 -26 -5 0
11 -27 -5 0
13 -28 -5 0
1 -29 -7 0
3 -30 -7 0
5 -31 -7 0
7 -32 -7 0
9 -33 -7 0
11 -34 -7 0
13 -35 -7 0
1 -36 -9 0
3 -37 -9 0
5 -38 -9 0
7 -39 -9 0
9 -40 -9 0
11 -41 -9 0
13 -42 -9 0
1 -43 -11 0
3 -44 -11 0
5 -45 -11 0
7 -46 -11 0
9 -47 -11 0
11 -48 -11 0
13 -49 -11 0
1 -50 -13 0
3 -51 -13 0
5 -52 -13 0
7 -53 -13 0
9 -54 -13 0
11 -55 -13 0
13 -56 -13 0
2 0
4 15 0
-4 -15 0
-4 -17 6 0
-4 -18 8 0
-4 -19 10 0
-4 -20 12 0
-4 -21 14 0
6 22 0
-6 -22 0
-6 -23 4 0
-6 -25 8 0
-6 -26 10 0
-6 -27 12 0
-6 -28 14 0
8 29 0
-8 -29 0
-8 -30 4 0
-8 -31 6 0
-8 -33 10 0
-8 -34 12 0
-8 -35 14 0
10 36 0
-10 -36 0
-10 -37 4 0
-10 -38 6 0
-10 -39 8 0
-10 -41 12 0
-10 -42 14 0
12 43 0
-12 -43 0
-12 -44 4 0
-12 -45 6 0
-12 -46 8 0
-12 -47 10 0
-12 -49 14 0
14 50 0
-14 -50 0
-14 -51 4 0
-14 -52 6 0
-14 -53 8 0
-14 -54 10 0
-14 -55 12 0
16 0
15 4 0
-15 -4 0
-15 -6 17 0
-15 -8 18 0
-15 -10 19 0
-15 -12 20 0
-15 -14 21 0
17 23 0
-17 -23 0
-17 -22 15 0
-17 -25 18 0
-17 -26 19 0
-17 -27 20 0
-17 -28 21 0
18 30 0
-18 -30 0
-18 -29 15 0
-18 -31 17 0
-18 -33 19 0
-18 -34 20 0
-18 -35 21 0
19 37 0
-19 -37 0
-19 -36 15 0
-19 -38 17 0
-19 -39 18 0
-19 -41 20 0
-19 -42 21 0
20 44 0
-20 -44 0
-20 -43 15 0
-20 -45 17 0
-20 -46 18 0
-20 -47 19 0
-20 -49 21 0
21 51 0
-21 -51 0
-21 -50 15 0
-21 -52 17 0
-21 -53 18 0
-21 -54 19 0
-21 -55 20 0
24 0
22 6 0
-22 -6 0
-22 -4 23 0
-22 -8 25 0
-22 -10 26 0
-22 -12 27 0
-22 -14 28 0
23 17 0
-23 -17 0
-23 -15 22 0
-23 -18 25 0
-23 -19 26 0
-23 -20 27 0
-23 -21 28 0
25 31 0
-25 -31 0
-25 -29 22 0
-25 -30 23 0
-25 -33 26 0
-25 -34 27 0
-25 -35 28 0
26 38 0
-26 -38 0
-26 -36 22 0
-26 -37 23 0
-26 -39 25 0
-26 -41 27 0
-26 -42 28 0
27 45 0
-27 -45 0
-27 -43 22 0
-27 -44 23 0
-27 -46 25 0
-27 -47 26 0
-27 -49 28 0
28 52 0
-28 -52 0
-28 -50 22 0
-28 -51 23 0
-28 -53 25 0
-28 -54 26 0
-28 -55 27 0
32 0
29 8 0
-29 -8 0
-29 -4 30 0
-29 -6 31 0
-29 -10 33 0
-29 -12 34 0
-29 -14 35 0
30 18 0
-30 -18 0
-30 -15 29 0
-30 -17 31 0
-30 -19 33 0
-30 -20 34 0
-30 -21 35 0
31 25 0
-31 -25 0
-31 -22 29 0
-31 -23 30 0
-31 -26 33 0
-31 -27 34 0
-31 -28 35 0
33 39 0
-33 -39 0
-33 -36 29 0
-33 -37 30 0
-33 -38 31 0
-33 -41 34 0
-33 -42 35 0
34 46 0
-34 -46 0
-34 -43 29 0
-34 -44 30 0
-34 -45 31 0
-34 -47 33 0
-34 -49 35 0
35 53 0
-35 -53 0
-35 -50 29 0
-35 -51 30 0
-35 -52 31 0
-35 -54 33 0
-35 -55 34 0
40 0
36 10 0
-36 -10 0
-36 -4 37 0
-36 -6 38 0
-36 -8 39 0
-36 -12 41 0
-36 -14 42 0
37 19 0
-37 -19 0
-37 -15 36 0
-37 -17 38 0
-37 -18 39 0
-37 -20 41 0
-37 -21 42 0
38 26 0
-38 -26 0
-38 -22 36 0
-38 -23 37 0
-38 -25 39 0
-38 -27 41 0
-38 -28 42 0
39 33 0
-39 -33 0
-39 -29 36 0
-39 -30 37 0
-39 -31 38 0
-39 -34 41 0
-39 -35 42 0
41 47 0
-41 -47 0
-41 -43 36 0
-41 -44 37 0
-41 -45 38 0
-41 -46 39 0
-41 -49 42 0
42 54 0
-42 -54 0
-42 -50 36 0
-42 -51 37 0
-42 -52 38 0
-42 -53 39 0
-42 -55 41 0
48 0
43 12 0
-43 -12 0
-43 -4 44 0
-43 -6 45 0
-43 -8 46 0
-43 -10 47 0
-43 -14 49 0
44 20 0
-44 -20 0
-44 -15 43 0
-44 -17 45 0
-44 -18 46 0
-44 -19 47 0
-44 -21 49 0
45 27 0
-45 -27 0
-45 -22 43 0
-45 -23 44 0
-45 -25 46 0
-45 -26 47 0
-45 -28 49 0
46 34 0
-46 -34 0
-46 -29 43 0
-46 -30 44 0
-46 -31 45 0
-46 -33 47 0
-46 -35 49 0
47 41 0
-47 -41 0
-47 -36 43 0
-47 -37 44 0
-47 -38 45 0
-47 -39 46 0
-47 -42 49 0
49 55 0
-49 -55 0
-49 -50 43 0
-49 -51 44 0
-49 -52 45 0
-49 -53 46 0
-49 -54 47 0
56 0
50 14 0
-50 -14 0
-50 -4 51 0
-50 -6 52 0
-50 -8 53 0
-50 -10 54 0
-50 -12 55 0
51 21 0
-51 -21 0
-51 -15 50 0
-51 -17 52 0
-51 -18 53 0
-51 -19 54 0
-51 -20 55 0
52 28 0
-52 -28 0
-52 -22 50 0
-52 -23 51 0
-52 -25 53 0
-52 -26 54 0
-52 -27 55 0
53 35 0
-53 -35 0
-53 -29 50 0
-53 -30 51 0
-53 -31 52 0
-53 -33 54 0
-53 -34 55 0
54 42 0
-54 -42 0
-54 -36 50 0
-54 -37 51 0
-54 -38 52 0
-54 -39 53 0
-54 -41 55 0
55 49 0
-55 -49 0
-55 -43 50 0
-55 -44 51 0
-55 -45 52 0
-55 -46 53 0
-55 -47 54 0
