c LEQ(domain3,domain3) T(domain3) LEQ(domain2,domain3) LEQ(domain3,domain2) T(domain2) LEQ(domain3,domain4) T(domain4) LEQ(domain4,domain3) LEQ(domain5,domain3) LEQ(domain3,domain5) T(domain5) LEQ(domain3,domain0) LEQ(domain0,domain3) T(domain0) LEQ(domain3,domain1) LEQ(domain1,domain3) T(domain1) LEQ(domain3,domain6) T(domain6) LEQ(domain6,domain3) LEQ(domain2,domain2) LEQ(domain2,domain4) LEQ(domain4,domain2) LEQ(domain5,domain2) LEQ(domain2,domain5) LEQ(domain2,domain0) LEQ(domain0,domain2) LEQ(domain1,domain2) LEQ(domain2,domain1) LEQ(domain6,domain2) LEQ(domain2,domain6) LEQ(domain4,domain4) LEQ(domain5,domain4) LEQ(domain4,domain5) LEQ(domain4,domain0) LEQ(domain0,domain4) LEQ(domain4,domain1) LEQ(domain1,domain4) LEQ(domain6,domain4) LEQ(domain4,domain6) LEQ(domain5,domain5) LEQ(domain5,domain0) LEQ(domain0,domain5) LEQ(domain5,domain1) LEQ(domain1,domain5) LEQ(domain5,domain6) LEQ(domain6,domain5) LEQ(domain0,domain0) LEQ(domain0,domain1) LEQ(domain1,domain0) LEQ(domain6,domain0) LEQ(domain0,domain6) LEQ(domain1,domain1) LEQ(domain1,domain6) LEQ(domain6,domain1) LEQ(domain6,domain6)
c 1 2 3 4 5 6 7 8 9 10 11 12 13 14 15 16 17 18 19 20 21 22 23 24 25 26 27 28 29 30 31 32 33 34 35 36 37 38 39 40 41 42 43 44 45 46 47 48 49 50 51 52 53 54 55 56
p cnf 56 308
14 -48 -14 0
14 -50 -17 0
14 -26 -5 0
14 -12 -2 0
14 -35 -7 0
14 -42 -11 0
14 -51 -19 0
17 -49 -14 0
17 -53 -17 0
17 -29 -5 0
17 -15 -2 0
17 -37 -7 0
17 -44 -11 0
17 -55 -19 0
5 -27 -14 0
5 -28 -17 0
5 -21 -5 0
5 -4 -2 0
5 -23 -7 0
5 -24 -11 0
5 -30 -19 0
2 -13 -14 0
2 -16 -17 0
2 -3 -5 0
2 -1 -2 0
2 -8 -7 0
2 -9 -11 0
2 -20 -19 0
7 -36 -14 0
7 -38 -17 0
7 -22 -5 0
7 -6 -2 0
7 -32 -7 0
7 -33 -11 0
7 -39 -19 0
11 -43 -14 0
11 -45 -17 0
11 -25 -5 0
11 -10 -2 0
11 -34 -7 0
11 -41 -11 0
11 -47 -19 0
19 -52 -14 0
19 -54 -17 0
19 -31 -5 0
19 -18 -2 0
19 -40 -7 0
19 -46 -11 0
19 -56 -19 0
48 0
49 50 0
-49 -50 0
-49 -28 27 0
-49 -16 13 0
-49 -38 36 0
-49 -45 43 0
-49 -54 52 0
27 26 0
-27 -26 0
-27 -29 49 0
-27 -3 13 0
-27 -22 36 0
-27 -25 43 0
-27 -31 52 0
13 12 0
-13 -12 0
-13 -15 49 0
-13 -4 27 0
-13 -6 36 0
-13 -10 43 0
-13 -18 52 0
36 35 0
-36 -35 0
-36 -37 49 0
-36 -23 27 0
-36 -8 13 0
-36 -34 43 0
-36 -40 52 0
43 42 0
-43 -42 0
-43 -44 49 0
-43 -24 27 0
-43 -9 13 0
-43 -33 36 0
-43 -46 52 0
52 51 0
-52 -51 0
-52 -55 49 0
-52 -30 27 0
-52 -20 13 0
-52 -39 36 0
-52 -47 43 0
53 0
-50 -27 28 0
-50 -13 16 0
-50 -36 38 0
-50 -43 45 0
-50 -52 54 0
28 29 0
-28 -29 0
-28 -26 50 0
-28 -3 16 0
-28 -22 38 0
-28 -25 45 0
-28 -31 54 0
16 15 0
-16 -15 0
-16 -12 50 0
-16 -4 28 0
-16 -6 38 0
-16 -10 45 0
-16 -18 54 0
38 37 0
-38 -37 0
-38 -35 50 0
-38 -23 28 0
-38 -8 16 0
-38 -34 45 0
-38 -40 54 0
45 44 0
-45 -44 0
-45 -42 50 0
-45 -24 28 0
-45 -9 16 0
-45 -33 38 0
-45 -46 54 0
54 55 0
-54 -55 0
-54 -51 50 0
-54 -30 28 0
-54 -20 16 0
-54 -39 38 0
-54 -47 45 0
21 0
-26 -49 29 0
-26 -13 3 0
-26 -36 22 0
-26 -43 25 0
-26 -52 31 0
-29 -50 26 0
-29 -16 3 0
-29 -38 22 0
-29 -45 25 0
-29 -54 31 0
3 4 0
-3 -4 0
-3 -12 26 0
-3 -15 29 0
-3 -6 22 0
-3 -10 25 0
-3 -18 31 0
22 23 0
-22 -23 0
-22 -35 26 0
-22 -37 29 0
-22 -8 3 0
-22 -34 25 0
-22 -40 31 0
25 24 0
-25 -24 0
-25 -42 26 0
-25 -44 29 0
-25 -9 3 0
-25 -33 22 0
-25 -46 31 0
31 30 0
-31 -30 0
-31 -51 26 0
-31 -55 29 0
-31 -20 3 0
-31 -39 22 0
-31 -47 25 0
1 0
-12 -49 15 0
-12 -27 4 0
-12 -36 6 0
-12 -43 10 0
-12 -52 18 0
-15 -50 12 0
-15 -28 4 0
-15 -38 6 0
-15 -45 10 0
-15 -54 18 0
-4 -26 12 0
-4 -29 15 0
-4 -22 6 0
-4 -25 10 0
-4 -31 18 0
6 8 0
-6 -8 0
-6 -35 12 0
-6 -37 15 0
-6 -23 4 0
-6 -34 10 0
-6 -40 18 0
10 9 0
-10 -9 0
-10 -42 12 0
-10 -44 15 0
-10 -24 4 0
-10 -33 6 0
-10 -46 18 0
18 20 0
-18 -20 0
-18 -51 12 0
-18 -55 15 0
-18 -30 4 0
-18 -39 6 0
-18 -47 10 0
32 0
-35 -49 37 0
-35 -27 23 0
-35 -13 8 0
-35 -43 34 0
-35 -52 40 0
-37 -50 35 0
-37 -28 23 0
-37 -16 8 0
-37 -45 34 0
-37 -54 40 0
-23 -26 35 0
-23 -29 37 0
-23 -3 8 0
-23 -25 34 0
-23 -31 40 0
-8 -12 35 0
-8 -15 37 0
-8 -4 23 0
-8 -10 34 0
-8 -18 40 0
34 33 0
-34 -33 0
-34 -42 35 0
-34 -44 37 0
-34 -24 23 0
-34 -9 8 0
-34 -46 40 0
40 39 0
-40 -39 0
-40 -51 35 0
-40 -55 37 0
-40 -30 23 0
-40 -20 8 0
-40 -47 34 0
41 0
-42 -49 44 0
-42 -27 24 0
-42 -13 9 0
-42 -36 33 0
-42 -52 46 0
-44 -50 42 0
-44 -28 24 0
-44 -16 9 0
-44 -38 33 0
-44 -54 46 0
-24 -26 42 0
-24 -29 44 0
-24 -3 9 0
-24 -22 33 0
-24 -31 46 0
-9 -12 42 0
-9 -15 44 0
-9 -4 24 0
-9 -6 33 0
-9 -18 46 0
-33 -35 42 0
-33 -37 44 0
-33 -23 24 0
-33 -8 9 0
-33 -40 46 0
46 47 0
-46 -47 0
-46 -51 42 0
-46 -55 44 0
-46 -30 24 0
-46 -20 9 0
-46 -39 33 0
56 0
-51 -49 55 0
-51 -27 30 0
-51 -13 20 0
-51 -36 39 0
-51 -43 47 0
-55 -50 51 0
-55 -28 30 0
-55 -16 20 0
-55 -38 39 0
-55 -45 47 0
-30 -26 51 0
-30 -29 55 0
-30 -3 20 0
-30 -22 39 0
-30 -25 47 0
-20 -12 51 0
-20 -15 55 0
-20 -4 30 0
-20 -6 39 0
-20 -10 47 0
-39 -35 51 0
-39 -37 55 0
-39 -23 30 0
-39 -8 20 0
-39 -34 47 0
-47 -42 51 0
-47 -44 55 0
-47 -24 30 0
-47 -9 20 0
-47 -33 39 0
