p cnf 72 520
1 -2 -1 0
3 -4 -1 0
5 -6 -1 0
7 -8 -1 0
9 -10 -1 0
11 -12 -1 0
13 -14 -1 0
15 -16 -1 0
1 -17 -3 0
3 -18 -3 0
5 -19 -3 0
7 -20 -3 0
9 -21 -3 0
11 -22 -3 0
13 -23 -3 0
15 -24 -3 0
1 -25 -5 0
3 -26 -5 0
5 -27 -5 0
7 -28 -5 0
9 -29 -5 0
11 -30 -5 0
13 -31 -5 0
15 -32 -5 0
1 -33 -7 0
3 -34 -7 0
5 -35 -7 0
7 -36 -7 0
9 -37 -7 0
11 -38 -7 0
13 -39 -7 0
15 -40 -7 0
1 -41 -9 0
3 -42 -9 0
5 -43 -9 0
7 -44 -9 0
9 -45 -9 0
11 -46 -9 0
13 -47 -9 0
15 -48 -9 0
1 -49 -11 0
3 -50 -11 0
5 -51 -11 0
7 -52 -11 0
9 -53 -11 0
11 -54 -11 0
13 -55 -11 0
15 -56 -11 0
1 -57 -13 0
3 -58 -13 0
5 -59 -13 0
7 -60 -13 0
9 -61 -13 0
11 -62 -13 0
13 -63 -13 0
15 -64 -13 0
1 -65 -15 0
3 -66 -15 0
5 -67 -15 0
7 -68 -15 0
9 -69 -15 0
11 -70 -15 0
13 -71 -15 0
15 -72 -15 0
2 0
4 17 0
-4 -17 0
-4 -19 6 0
-4 -20 8 0
-4 -21 10 0
-4 -22 12 0
-4 -23 14 0
-4 -24 16 0
6 25 0
-6 -25 0
-6 -26 4 0
-6 -28 8 0
-6 -29 10 0
-6 -30 12 0
-6 -31 14 0
-6 -32 16 0
8 33 0
-8 -33 0
-8 -34 4 0
-8 -35 6 0
-8 -37 10 0
-8 -38 12 0
-8 -39 14 0
-8 -40 16 0
10 41 0
-10 -41 0
-10 -42 4 0
-10 -43 6 0
-10 -44 8 0
-10 -46 12 0
-10 -47 14 0
-10 -48 16 0
12 49 0
-12 -49 0
-12 -50 4 0
-12 -51 6 0
-12 -52 8 0
-12 -53 10 0
-12 -55 14 0
-12 -56 16 0
14 57 0
-14 -57 0
-14 -58 4 0
-14 -59 6 0
-14 -60 8 0
-14 -61 10 0
-14 -62 12 0
-14 -64 16 0
16 65 0
-16 -65 0
-16 -66 4 0
-16 -67 6 0
-16 -68 8 0
-16 -69 10 0
-16 -70 12 0
-16 -71 14 0
18 0
17 4 0
-17 -4 0
-17 -6 19 0
-17 -8 20 0
-17 -10 21 0
-17 -12 22 0
-17 -14 23 0
-17 -16 24 0
19 26 0
-19 -26 0
-19 -25 17 0
-19 -28 20 0
-19 -29 21 0
-19 -30 22 0
-19 -31 23 0
-19 -32 24 0
20 34 0
-20 -34 0
-20 -33 17 0
-20 -35 19 0
-20 -37 21 0
-20 -38 22 0
-20 -39 23 0
-20 -40 24 0
21 42 0
-21 -42 0
-21 -41 17 0
-21 -43 19 0
-21 -44 20 0
-21 -46 22 0
-21 -47 23 0
-21 -48 24 0
22 50 0
-22 -50 0
-22 -49 17 0
-22 -51 19 0
-22 -52 20 0
-22 -53 21 0
-22 -55 23 0
-22 -56 24 0
23 58 0
-23 -58 0
-23 -57 17 0
-23 -59 19 0
-23 -60 20 0
-23 -61 21 0
-23 -62 22 0
-23 -64 24 0
24 66 0
-24 -66 0
-24 -65 17 0
-24 -67 19 0
-24 -68 20 0
-24 -69 21 0
-24 -70 22 0
-24 -71 23 0
27 0
25 6 0
-25 -6 0
-25 -4 26 0
-25 -8 28 0
-25 -10 29 0
-25 -12 30 0
-25 -14 31 0
-25 -16 32 0
26 19 0
-26 -19 0
-26 -17 25 0
-26 -20 28 0
-26 -21 29 0
-26 -22 30 0
-26 -23 31 0
-26 -24 32 0
28 35 0
-28 -35 0
-28 -33 25 0
-28 -34 26 0
-28 -37 29 0
-28 -38 30 0
-28 -39 31 0
-28 -40 32 0
29 43 0
-29 -43 0
-29 -41 25 0
-29 -42 26 0
-29 -44 28 0
-29 -46 30 0
-29 -47 31 0
-29 -48 32 0
30 51 0
-30 -51 0
-30 -49 25 0
-30 -50 26 0
-30 -52 28 0
-30 -53 29 0
-30 -55 31 0
-30 -56 32 0
31 59 0
-31 -59 0
-31 -57 25 0
-31 -58 26 0
-31 -60 28 0
-31 -61 29 0
-31 -62 30 0
-31 -64 32 0
32 67 0
-32 -67 0
-32 -65 25 0
-32 -66 26 0
-32 -68 28 0
-32 -69 29 0
-32 -70 30 0
-32 -71 31 0
36 0
33 8 0
-33 -8 0
-33 -4 34 0
-33 -6 35 0
-33 -10 37 0
-33 -12 38 0
-33 -14 39 0
-33 -16 40 0
34 20 0
-34 -20 0
-34 -17 33 0
-34 -19 35 0
-34 -21 37 0
-34 -22 38 0
-34 -23 39 0
-34 -24 40 0
35 28 0
-35 -28 0
-35 -25 33 0
-35 -26 34 0
-35 -29 37 0
-35 -30 38 0
-35 -31 39 0
-35 -32 40 0
37 44 0
-37 -44 0
-37 -41 33 0
-37 -42 34 0
-37 -43 35 0
-37 -46 38 0
-37 -47 39 0
-37 -48 40 0
38 52 0
-38 -52 0
-38 -49 33 0
-38 -50 34 0
-38 -51 35 0
-38 -53 37 0
-38 -55 39 0
-38 -56 40 0
39 60 0
-39 -60 0
-39 -57 33 0
-39 -58 34 0
-39 -59 35 0
-39 -61 37 0
-39 -62 38 0
-39 -64 40 0
40 68 0
-40 -68 0
-40 -65 33 0
-40 -66 34 0
-40 -67 35 0
-40 -69 37 0
-40 -70 38 0
-40 -71 39 0
45 0
41 10 0
-41 -10 0
-41 -4 42 0
-41 -6 43 0
-41 -8 44 0
-41 -12 46 0
-41 -14 47 0
-41 -16 48 0
42 21 0
-42 -21 0
-42 -17 41 0
-42 -19 43 0
-42 -20 44 0
-42 -22 46 0
-42 -23 47 0
-42 -24 48 0
43 29 0
-43 -29 0
-43 -25 41 0
-43 -26 42 0
-43 -28 44 0
-43 -30 46 0
-43 -31 47 0
-43 -32 48 0
44 37 0
-44 -37 0
-44 -33 41 0
-44 -34 42 0
-44 -35 43 0
-44 -38 46 0
-44 -39 47 0
-44 -40 48 0
46 53 0
-46 -53 0
-46 -49 41 0
-46 -50 42 0
-46 -51 43 0
-46 -52 44 0
-46 -55 47 0
-46 -56 48 0
47 61 0
-47 -61 0
-47 -57 41 0
-47 -58 42 0
-47 -59 43 0
-47 -60 44 0
-47 -62 46 0
-47 -64 48 0
48 69 0
-48 -69 0
-48 -65 41 0
-48 -66 42 0
-48 -67 43 0
-48 -68 44 0
-48 -70 46 0
-48 -71 47 0
54 0
49 12 0
-49 -12 0
-49 -4 50 0
-49 -6 51 0
-49 -8 52 0
-49 -10 53 0
-49 -14 55 0
-49 -16 56 0
50 22 0
-50 -22 0
-50 -17 49 0
-50 -19 51 0
-50 -20 52 0
-50 -21 53 0
-50 -23 55 0
-50 -24 56 0
51 30 0
-51 -30 0
-51 -25 49 0
-51 -26 50 0
-51 -28 52 0
-51 -29 53 0
-51 -31 55 0
-51 -32 56 0
52 38 0
-52 -38 0
-52 -33 49 0
-52 -34 50 0
-52 -35 51 0
-52 -37 53 0
-52 -39 55 0
-52 -40 56 0
53 46 0
-53 -46 0
-53 -41 49 0
-53 -42 50 0
-53 -43 51 0
-53 -44 52 0
-53 -47 55 0
-53 -48 56 0
55 62 0
-55 -62 0
-55 -57 49 0
-55 -58 50 0
-55 -59 51 0
-55 -60 52 0
-55 -61 53 0
-55 -64 56 0
56 70 0
-56 -70 0
-56 -65 49 0
-56 -66 50 0
-56 -67 51 0
-56 -68 52 0
-56 -69 53 0
-56 -71 55 0
63 0
57 14 0
-57 -14 0
-57 -4 58 0
-57 -6 59 0
-57 -8 60 0
-57 -10 61 0
-57 -12 62 0
-57 -16 64 0
58 23 0
-58 -23 0
-58 -17 57 0
-58 -19 59 0
-58 -20 60 0
-58 -21 61 0
-58 -22 62 0
-58 -24 64 0
59 31 0
-59 -31 0
-59 -25 57 0
-59 -26 58 0
-59 -28 60 0
-59 -29 61 0
-59 -30 62 0
-59 -32 64 0
60 39 0
-60 -39 0
-60 -33 57 0
-60 -34 58 0
-60 -35 59 0
-60 -37 61 0
-60 -38 62 0
-60 -40 64 0
61 47 0
-61 -47 0
-61 -41 57 0
-61 -42 58 0
-61 -43 59 0
-61 -44 60 0
-61 -46 62 0
-61 -48 64 0
62 55 0
-62 -55 0
-62 -49 57 0
-62 -50 58 0
-62 -51 59 0
-62 -52 60 0
-62 -53 61 0
-62 -56 64 0
64 71 0
-64 -71 0
-64 -65 57 0
-64 -66 58 0
-64 -67 59 0
-64 -68 60 0
-64 -69 61 0
-64 -70 62 0
72 0
65 16 0
-65 -16 0
-65 -4 66 0
-65 -6 67 0
-65 -8 68 0
-65 -10 69 0
-65 -12 70 0
-65 -14 71 0
66 24 0
-66 -24 0
-66 -17 65 0
-66 -19 67 0
-66 -20 68 0
-66 -21 69 0
-66 -22 70 0
-66 -23 71 0
67 32 0
-67 -32 0
-67 -25 65 0
-67 -26 66 0
-67 -28 68 0
-67 -29 69 0
-67 -30 70 0
-67 -31 71 0
68 40 0
-68 -40 0
-68 -33 65 0
-68 -34 66 0
-68 -35 67 0
-68 -37 69 0
-68 -38 70 0
-68 -39 71 0
69 48 0
-69 -48 0
-69 -41 65 0
-69 -42 66 0
-69 -43 67 0
-69 -44 68 0
-69 -46 70 0
-69 -47 71 0
70 56 0
-70 -56 0
-70 -49 65 0
-70 -50 66 0
-70 -51 67 0
-70 -52 68 0
-70 -53 69 0
-70 -55 71 0
71 64 0
-71 -64 0
-71 -57 65 0
-71 -58 66 0
-71 -59 67 0
-71 -60 68 0
-71 -61 69 0
-71 -62 70 0
