c T(domain5) LEQ(domain5,domain5) LEQ(domain1,domain5) LEQ(domain5,domain1) T(domain1) T(domain0) LEQ(domain0,domain5) LEQ(domain5,domain0) LEQ(domain3,domain5) T(domain3) LEQ(domain5,domain3) LEQ(domain7,domain5) T(domain7) LEQ(domain5,domain7) LEQ(domain2,domain5) T(domain2) LEQ(domain5,domain2) T(domain6) LEQ(domain6,domain5) LEQ(domain5,domain6) T(domain4) LEQ(domain5,domain4) LEQ(domain4,domain5) LEQ(domain1,domain1) LEQ(domain0,domain1) LEQ(domain1,domain0) LEQ(domain1,domain3) LEQ(domain3,domain1) LEQ(domain7,domain1) LEQ(domain1,domain7) LEQ(domain1,domain2) LEQ(domain2,domain1) LEQ(domain6,domain1) LEQ(domain1,domain6) LEQ(domain4,domain1) LEQ(domain1,domain4) LEQ(domain0,domain0) LEQ(domain3,domain0) LEQ(domain0,domain3) LEQ(domain7,domain0) LEQ(domain0,domain7) LEQ(domain2,domain0) LEQ(domain0,domain2) LEQ(domain6,domain0) LEQ(domain0,domain6) LEQ(domain0,domain4) LEQ(domain4,domain0) LEQ(domain3,domain3) LEQ(domain7,domain3) LEQ(domain3,domain7) LEQ(domain3,domain2) LEQ(domain2,domain3) LEQ(domain3,domain6) LEQ(domain6,domain3) LEQ(domain3,domain4) LEQ(domain4,domain3) LEQ(domain7,domain7) LEQ(domain7,domain2) LEQ(domain2,domain7) LEQ(domain7,domain6) LEQ(domain6,domain7) LEQ(domain4,domain7) LEQ(domain7,domain4) LEQ(domain2,domain2) LEQ(domain2,domain6) LEQ(domain6,domain2) LEQ(domain4,domain2) LEQ(domain2,domain4) LEQ(domain6,domain6) LEQ(domain4,domain6) LEQ(domain6,domain4) LEQ(domain4,domain4)
c 1 2 3 4 5 6 7 8 9 10 11 12 13 14 15 16 17 18 19 20 21 22 23 24 25 26 27 28 29 30 31 32 33 34 35 36 37 38 39 40 41 42 43 44 45 46 47 48 49 50 51 52 53 54 55 56 57 58 59 60 61 62 63 64 65 66 67 68 69 70 71 72
p cnf 72 464
6 -37 -6 0
6 -26 -5 0
6 -42 -16 0
6 -38 -10 0
6 -47 -21 0
6 -8 -1 0
6 -44 -18 0
6 -40 -13 0
5 -25 -6 0
5 -24 -5 0
5 -32 -16 0
5 -28 -10 0
5 -35 -21 0
5 -4 -1 0
5 -33 -18 0
5 -29 -13 0
16 -43 -6 0
16 -31 -5 0
16 -64 -16 0
16 -51 -10 0
16 -67 -21 0
16 -17 -1 0
16 -66 -18 0
16 -58 -13 0
10 -39 -6 0
10 -27 -5 0
10 -52 -16 0
10 -48 -10 0
10 -56 -21 0
10 -11 -1 0
10 -54 -18 0
10 -49 -13 0
21 -46 -6 0
21 -36 -5 0
21 -68 -16 0
21 -55 -10 0
21 -72 -21 0
21 -22 -1 0
21 -71 -18 0
21 -63 -13 0
1 -7 -6 0
1 -3 -5 0
1 -15 -16 0
1 -9 -10 0
1 -23 -21 0
1 -2 -1 0
1 -19 -18 0
1 -12 -13 0
18 -45 -6 0
18 -34 -5 0
18 -65 -16 0
18 -53 -10 0
18 -70 -21 0
18 -20 -1 0
18 -69 -18 0
18 -60 -13 0
13 -41 -6 0
13 -30 -5 0
13 -59 -16 0
13 -50 -10 0
13 -62 -21 0
13 -14 -1 0
13 -61 -18 0
13 -57 -13 0
37 0
25 26 0
-25 -26 0
-25 -31 43 0
-25 -27 39 0
-25 -36 46 0
-25 -3 7 0
-25 -34 45 0
-25 -30 41 0
43 42 0
-43 -42 0
-43 -32 25 0
-43 -52 39 0
-43 -68 46 0
-43 -15 7 0
-43 -65 45 0
-43 -59 41 0
39 38 0
-39 -38 0
-39 -28 25 0
-39 -51 43 0
-39 -55 46 0
-39 -9 7 0
-39 -53 45 0
-39 -50 41 0
46 47 0
-46 -47 0
-46 -35 25 0
-46 -67 43 0
-46 -56 39 0
-46 -23 7 0
-46 -70 45 0
-46 -62 41 0
7 8 0
-7 -8 0
-7 -4 25 0
-7 -17 43 0
-7 -11 39 0
-7 -22 46 0
-7 -20 45 0
-7 -14 41 0
45 44 0
-45 -44 0
-45 -33 25 0
-45 -66 43 0
-45 -54 39 0
-45 -71 46 0
-45 -19 7 0
-45 -61 41 0
41 40 0
-41 -40 0
-41 -29 25 0
-41 -58 43 0
-41 -49 39 0
-41 -63 46 0
-41 -12 7 0
-41 -60 45 0
24 0
-26 -43 31 0
-26 -39 27 0
-26 -46 36 0
-26 -7 3 0
-26 -45 34 0
-26 -41 30 0
31 32 0
-31 -32 0
-31 -42 26 0
-31 -52 27 0
-31 -68 36 0
-31 -15 3 0
-31 -65 34 0
-31 -59 30 0
27 28 0
-27 -28 0
-27 -38 26 0
-27 -51 31 0
-27 -55 36 0
-27 -9 3 0
-27 -53 34 0
-27 -50 30 0
36 35 0
-36 -35 0
-36 -47 26 0
-36 -67 31 0
-36 -56 27 0
-36 -23 3 0
-36 -70 34 0
-36 -62 30 0
3 4 0
-3 -4 0
-3 -8 26 0
-3 -17 31 0
-3 -11 27 0
-3 -22 36 0
-3 -20 34 0
-3 -14 30 0
34 33 0
-34 -33 0
-34 -44 26 0
-34 -66 31 0
-34 -54 27 0
-34 -71 36 0
-34 -19 3 0
-34 -61 30 0
30 29 0
-30 -29 0
-30 -40 26 0
-30 -58 31 0
-30 -49 27 0
-30 -63 36 0
-30 -12 3 0
-30 -60 34 0
64 0
-42 -25 32 0
-42 -39 52 0
-42 -46 68 0
-42 -7 15 0
-42 -45 65 0
-42 -41 59 0
-32 -26 42 0
-32 -27 52 0
-32 -36 68 0
-32 -3 15 0
-32 -34 65 0
-32 -30 59 0
52 51 0
-52 -51 0
-52 -38 42 0
-52 -28 32 0
-52 -55 68 0
-52 -9 15 0
-52 -53 65 0
-52 -50 59 0
68 67 0
-68 -67 0
-68 -47 42 0
-68 -35 32 0
-68 -56 52 0
-68 -23 15 0
-68 -70 65 0
-68 -62 59 0
15 17 0
-15 -17 0
-15 -8 42 0
-15 -4 32 0
-15 -11 52 0
-15 -22 68 0
-15 -20 65 0
-15 -14 59 0
65 66 0
-65 -66 0
-65 -44 42 0
-65 -33 32 0
-65 -54 52 0
-65 -71 68 0
-65 -19 15 0
-65 -61 59 0
59 58 0
-59 -58 0
-59 -40 42 0
-59 -29 32 0
-59 -49 52 0
-59 -63 68 0
-59 -12 15 0
-59 -60 65 0
48 0
-38 -25 28 0
-38 -43 51 0
-38 -46 55 0
-38 -7 9 0
-38 -45 53 0
-38 -41 50 0
-28 -26 38 0
-28 -31 51 0
-28 -36 55 0
-28 -3 9 0
-28 -34 53 0
-28 -30 50 0
-51 -42 38 0
-51 -32 28 0
-51 -68 55 0
-51 -15 9 0
-51 -65 53 0
-51 -59 50 0
55 56 0
-55 -56 0
-55 -47 38 0
-55 -35 28 0
-55 -67 51 0
-55 -23 9 0
-55 -70 53 0
-55 -62 50 0
9 11 0
-9 -11 0
-9 -8 38 0
-9 -4 28 0
-9 -17 51 0
-9 -22 55 0
-9 -20 53 0
-9 -14 50 0
53 54 0
-53 -54 0
-53 -44 38 0
-53 -33 28 0
-53 -66 51 0
-53 -71 55 0
-53 -19 9 0
-53 -61 50 0
50 49 0
-50 -49 0
-50 -40 38 0
-50 -29 28 0
-50 -58 51 0
-50 -63 55 0
-50 -12 9 0
-50 -60 53 0
72 0
-47 -25 35 0
-47 -43 67 0
-47 -39 56 0
-47 -7 23 0
-47 -45 70 0
-47 -41 62 0
-35 -26 47 0
-35 -31 67 0
-35 -27 56 0
-35 -3 23 0
-35 -34 70 0
-35 -30 62 0
-67 -42 47 0
-67 -32 35 0
-67 -52 56 0
-67 -15 23 0
-67 -65 70 0
-67 -59 62 0
-56 -38 47 0
-56 -28 35 0
-56 -51 67 0
-56 -9 23 0
-56 -53 70 0
-56 -50 62 0
23 22 0
-23 -22 0
-23 -8 47 0
-23 -4 35 0
-23 -17 67 0
-23 -11 56 0
-23 -20 70 0
-23 -14 62 0
70 71 0
-70 -71 0
-70 -44 47 0
-70 -33 35 0
-70 -66 67 0
-70 -54 56 0
-70 -19 23 0
-70 -61 62 0
62 63 0
-62 -63 0
-62 -40 47 0
-62 -29 35 0
-62 -58 67 0
-62 -49 56 0
-62 -12 23 0
-62 -60 70 0
2 0
-8 -25 4 0
-8 -43 17 0
-8 -39 11 0
-8 -46 22 0
-8 -45 20 0
-8 -41 14 0
-4 -26 8 0
-4 -31 17 0
-4 -27 11 0
-4 -36 22 0
-4 -34 20 0
-4 -30 14 0
-17 -42 8 0
-17 -32 4 0
-17 -52 11 0
-17 -68 22 0
-17 -65 20 0
-17 -59 14 0
-11 -38 8 0
-11 -28 4 0
-11 -51 17 0
-11 -55 22 0
-11 -53 20 0
-11 -50 14 0
-22 -47 8 0
-22 -35 4 0
-22 -67 17 0
-22 -56 11 0
-22 -70 20 0
-22 -62 14 0
20 19 0
-20 -19 0
-20 -44 8 0
-20 -33 4 0
-20 -66 17 0
-20 -54 11 0
-20 -71 22 0
-20 -61 14 0
14 12 0
-14 -12 0
-14 -40 8 0
-14 -29 4 0
-14 -58 17 0
-14 -49 11 0
-14 -63 22 0
-14 -60 20 0
69 0
-44 -25 33 0
-44 -43 66 0
-44 -39 54 0
-44 -46 71 0
-44 -7 19 0
-44 -41 61 0
-33 -26 44 0
-33 -31 66 0
-33 -27 54 0
-33 -36 71 0
-33 -3 19 0
-33 -30 61 0
-66 -42 44 0
-66 -32 33 0
-66 -52 54 0
-66 -68 71 0
-66 -15 19 0
-66 -59 61 0
-54 -38 44 0
-54 -28 33 0
-54 -51 66 0
-54 -55 71 0
-54 -9 19 0
-54 -50 61 0
-71 -47 44 0
-71 -35 33 0
-71 -67 66 0
-71 -56 54 0
-71 -23 19 0
-71 -62 61 0
-19 -8 44 0
-19 -4 33 0
-19 -17 66 0
-19 -11 54 0
-19 -22 71 0
-19 -14 61 0
61 60 0
-61 -60 0
-61 -40 44 0
-61 -29 33 0
-61 -58 66 0
-61 -49 54 0
-61 -63 71 0
-61 -12 19 0
57 0
-40 -25 29 0
-40 -43 58 0
-40 -39 49 0
-40 -46 63 0
-40 -7 12 0
-40 -45 60 0
-29 -26 40 0
-29 -31 58 0
-29 -27 49 0
-29 -36 63 0
-29 -3 12 0
-29 -34 60 0
-58 -42 40 0
-58 -32 29 0
-58 -52 49 0
-58 -68 63 0
-58 -15 12 0
-58 -65 60 0
-49 -38 40 0
-49 -28 29 0
-49 -51 58 0
-49 -55 63 0
-49 -9 12 0
-49 -53 60 0
-63 -47 40 0
-63 -35 29 0
-63 -67 58 0
-63 -56 49 0
-63 -23 12 0
-63 -70 60 0
-12 -8 40 0
-12 -4 29 0
-12 -17 58 0
-12 -11 49 0
-12 -22 63 0
-12 -20 60 0
-60 -44 40 0
-60 -33 29 0
-60 -66 58 0
-60 -54 49 0
-60 -71 63 0
-60 -19 12 0
