p cnf 90 738
1 -2 -1 0
3 -4 -1 0
5 -6 -1 0
7 -8 -1 0
9 -10 -1 0
11 -12 -1 0
13 -14 -1 0
15 -16 -1 0
17 -18 -1 0
1 -19 -3 0
3 -20 -3 0
5 -21 -3 0
7 -22 -3 0
9 -23 -3 0
11 -24 -3 0
13 -25 -3 0
15 -26 -3 0
17 -27 -3 0
1 -28 -5 0
3 -29 -5 0
5 -30 -5 0
7 -31 -5 0
9 -32 -5 0
11 -33 -5 0
13 -34 -5 0
15 -35 -5 0
17 -36 -5 0
1 -37 -7 0
3 -38 -7 0
5 -39 -7 0
7 -40 -7 0
9 -41 -7 0
11 -42 -7 0
13 -43 -7 0
15 -44 -7 0
17 -45 -7 0
1 -46 -9 0
3 -47 -9 0
5 -48 -9 0
7 -49 -9 0
9 -50 -9 0
11 -51 -9 0
13 -52 -9 0
15 -53 -9 0
17 -54 -9 0
1 -55 -11 0
3 -56 -11 0
5 -57 -11 0
7 -58 -11 0
9 -59 -11 0
11 -60 -11 0
13 -61 -11 0
15 -62 -11 0
17 -63 -11 0
1 -64 -13 0
3 -65 -13 0
5 -66 -13 0
7 -67 -13 0
9 -68 -13 0
11 -69 -13 0
13 -70 -13 0
15 -71 -13 0
17 -72 -13 0
1 -73 -15 0
3 -74 -15 0
5 -75 -15 0
7 -76 -15 0
9 -77 -15 0
11 -78 -15 0
13 -79 -15 0
15 -80 -15 0
17 -81 -15 0
1 -82 -17 0
3 -83 -17 0
5 -84 -17 0
7 -85 -17 0
9 -86 -17 0
11 -87 -17 0
13 -88 -17 0
15 -89 -17 0
17 -90 -17 0
2 0
4 19 0
-4 -19 0
-4 -21 6 0
-4 -22 8 0
-4 -23 10 0
-4 -24 12 0
-4 -25 14 0
-4 -26 16 0
-4 -27 18 0
6 28 0
-6 -28 0
-6 -29 4 0
-6 -31 8 0
-6 -32 10 0
-6 -33 12 0
-6 -34 14 0
-6 -35 16 0
-6 -36 18 0
8 37 0
-8 -37 0
-8 -38 4 0
-8 -39 6 0
-8 -41 10 0
-8 -42 12 0
-8 -43 14 0
-8 -44 16 0
-8 -45 18 0
10 46 0
-10 -46 0
-10 -47 4 0
-10 -48 6 0
-10 -49 8 0
-10 -51 12 0
-10 -52 14 0
-10 -53 16 0
-10 -54 18 0
12 55 0
-12 -55 0
-12 -56 4 0
-12 -57 6 0
-12 -58 8 0
-12 -59 10 0
-12 -61 14 0
-12 -62 16 0
-12 -63 18 0
14 64 0
-14 -64 0
-14 -65 4 0
-14 -66 6 0
-14 -67 8 0
-14 -68 10 0
-14 -69 12 0
-14 -71 16 0
-14 -72 18 0
16 73 0
-16 -73 0
-16 -74 4 0
-16 -75 6 0
-16 -76 8 0
-16 -77 10 0
-16 -78 12 0
-16 -79 14 0
-16 -81 18 0
18 82 0
-18 -82 0
-18 -83 4 0
-18 -84 6 0
-18 -85 8 0
-18 -86 10 0
-18 -87 12 0
-18 -88 14 0
-18 -89 16 0
20 0
19 4 0
-19 -4 0
-19 -6 21 0
-19 -8 22 0
-19 -10 23 0
-19 -12 24 0
-19 -14 25 0
-19 -16 26 0
-19 -18 27 0
21 29 0
-21 -29 0
-21 -28 19 0
-21 -31 22 0
-21 -32 23 0
-21 -33 24 0
-21 -34 25 0
-21 -35 26 0
-21 -36 27 0
22 38 0
-22 -38 0
-22 -37 19 0
-22 -39 21 0
-22 -41 23 0
-22 -42 24 0
-22 -43 25 0
-22 -44 26 0
-22 -45 27 0
23 47 0
-23 -47 0
-23 -46 19 0
-23 -48 21 0
-23 -49 22 0
-23 -51 24 0
-23 -52 25 0
-23 -53 26 0
-23 -54 27 0
24 56 0
-24 -56 0
-24 -55 19 0
-24 -57 21 0
-24 -58 22 0
-24 -59 23 0
-24 -61 25 0
-24 -62 26 0
-24 -63 27 0
25 65 0
-25 -65 0
-25 -64 19 0
-25 -66 21 0
-25 -67 22 0
-25 -68 23 0
-25 -69 24 0
-25 -71 26 0
-25 -72 27 0
26 74 0
-26 -74 0
-26 -73 19 0
-26 -75 21 0
-26 -76 22 0
-26 -77 23 0
-26 -78 24 0
-26 -79 25 0
-26 -81 27 0
27 83 0
-27 -83 0
-27 -82 19 0
-27 -84 21 0
-27 -85 22 0
-27 -86 23 0
-27 -87 24 0
-27 -88 25 0
-27 -89 26 0
30 0
28 6 0
-28 -6 0
-28 -4 29 0
-28 -8 31 0
-28 -10 32 0
-28 -12 33 0
-28 -14 34 0
-28 -16 35 0
-28 -18 36 0
29 21 0
-29 -21 0
-29 -19 28 0
-29 -22 31 0
-29 -23 32 0
-29 -24 33 0
-29 -25 34 0
-29 -26 35 0
-29 -27 36 0
31 39 0
-31 -39 0
-31 -37 28 0
-31 -38 29 0
-31 -41 32 0
-31 -42 33 0
-31 -43 34 0
-31 -44 35 0
-31 -45 36 0
32 48 0
-32 -48 0
-32 -46 28 0
-32 -47 29 0
-32 -49 31 0
-32 -51 33 0
-32 -52 34 0
-32 -53 35 0
-32 -54 36 0
33 57 0
-33 -57 0
-33 -55 28 0
-33 -56 29 0
-33 -58 31 0
-33 -59 32 0
-33 -61 34 0
-33 -62 35 0
-33 -63 36 0
34 66 0
-34 -66 0
-34 -64 28 0
-34 -65 29 0
-34 -67 31 0
-34 -68 32 0
-34 -69 33 0
-34 -71 35 0
-34 -72 36 0
35 75 0
-35 -75 0
-35 -73 28 0
-35 -74 29 0
-35 -76 31 0
-35 -77 32 0
-35 -78 33 0
-35 -79 34 0
-35 -81 36 0
36 84 0
-36 -84 0
-36 -82 28 0
-36 -83 29 0
-36 -85 31 0
-36 -86 32 0
-36 -87 33 0
-36 -88 34 0
-36 -89 35 0
40 0
37 8 0
-37 -8 0
-37 -4 38 0
-37 -6 39 0
-37 -10 41 0
-37 -12 42 0
-37 -14 43 0
-37 -16 44 0
-37 -18 45 0
38 22 0
-38 -22 0
-38 -19 37 0
-38 -21 39 0
-38 -23 41 0
-38 -24 42 0
-38 -25 43 0
-38 -26 44 0
-38 -27 45 0
39 31 0
-39 -31 0
-39 -28 37 0
-39 -29 38 0
-39 -32 41 0
-39 -33 42 0
-39 -34 43 0
-39 -35 44 0
-39 -36 45 0
41 49 0
-41 -49 0
-41 -46 37 0
-41 -47 38 0
-41 -48 39 0
-41 -51 42 0
-41 -52 43 0
-41 -53 44 0
-41 -54 45 0
42 58 0
-42 -58 0
-42 -55 37 0
-42 -56 38 0
-42 -57 39 0
-42 -59 41 0
-42 -61 43 0
-42 -62 44 0
-42 -63 45 0
43 67 0
-43 -67 0
-43 -64 37 0
-43 -65 38 0
-43 -66 39 0
-43 -68 41 0
-43 -69 42 0
-43 -71 44 0
-43 -72 45 0
44 76 0
-44 -76 0
-44 -73 37 0
-44 -74 38 0
-44 -75 39 0
-44 -77 41 0
-44 -78 42 0
-44 -79 43 0
-44 -81 45 0
45 85 0
-45 -85 0
-45 -82 37 0
-45 -83 38 0
-45 -84 39 0
-45 -86 41 0
-45 -87 42 0
-45 -88 43 0
-45 -89 44 0
50 0
46 10 0
-46 -10 0
-46 -4 47 0
-46 -6 48 0
-46 -8 49 0
-46 -12 51 0
-46 -14 52 0
-46 -16 53 0
-46 -18 54 0
47 23 0
-47 -23 0
-47 -19 46 0
-47 -21 48 0
-47 -22 49 0
-47 -24 51 0
-47 -25 52 0
-47 -26 53 0
-47 -27 54 0
48 32 0
-48 -32 0
-48 -28 46 0
-48 -29 47 0
-48 -31 49 0
-48 -33 51 0
-48 -34 52 0
-48 -35 53 0
-48 -36 54 0
49 41 0
-49 -41 0
-49 -37 46 0
-49 -38 47 0
-49 -39 48 0
-49 -42 51 0
-49 -43 52 0
-49 -44 53 0
-49 -45 54 0
51 59 0
-51 -59 0
-51 -55 46 0
-51 -56 47 0
-51 -57 48 0
-51 -58 49 0
-51 -61 52 0
-51 -62 53 0
-51 -63 54 0
52 68 0
-52 -68 0
-52 -64 46 0
-52 -65 47 0
-52 -66 48 0
-52 -67 49 0
-52 -69 51 0
-52 -71 53 0
-52 -72 54 0
53 77 0
-53 -77 0
-53 -73 46 0
-53 -74 47 0
-53 -75 48 0
-53 -76 49 0
-53 -78 51 0
-53 -79 52 0
-53 -81 54 0
54 86 0
-54 -86 0
-54 -82 46 0
-54 -83 47 0
-54 -84 48 0
-54 -85 49 0
-54 -87 51 0
-54 -88 52 0
-54 -89 53 0
60 0
55 12 0
-55 -12 0
-55 -4 56 0
-55 -6 57 0
-55 -8 58 0
-55 -10 59 0
-55 -14 61 0
-55 -16 62 0
-55 -18 63 0
56 24 0
-56 -24 0
-56 -19 55 0
-56 -21 57 0
-56 -22 58 0
-56 -23 59 0
-56 -25 61 0
-56 -26 62 0
-56 -27 63 0
57 33 0
-57 -33 0
-57 -28 55 0
-57 -29 56 0
-57 -31 58 0
-57 -32 59 0
-57 -34 61 0
-57 -35 62 0
-57 -36 63 0
58 42 0
-58 -42 0
-58 -37 55 0
-58 -38 56 0
-58 -39 57 0
-58 -41 59 0
-58 -43 61 0
-58 -44 62 0
-58 -45 63 0
59 51 0
-59 -51 0
-59 -46 55 0
-59 -47 56 0
-59 -48 57 0
-59 -49 58 0
-59 -52 61 0
-59 -53 62 0
-59 -54 63 0
61 69 0
-61 -69 0
-61 -64 55 0
-61 -65 56 0
-61 -66 57 0
-61 -67 58 0
-61 -68 59 0
-61 -71 62 0
-61 -72 63 0
62 78 0
-62 -78 0
-62 -73 55 0
-62 -74 56 0
-62 -75 57 0
-62 -76 58 0
-62 -77 59 0
-62 -79 61 0
-62 -81 63 0
63 87 0
-63 -87 0
-63 -82 55 0
-63 -83 56 0
-63 -84 57 0
-63 -85 58 0
-63 -86 59 0
-63 -88 61 0
-63 -89 62 0
70 0
64 14 0
-64 -14 0
-64 -4 65 0
-64 -6 66 0
-64 -8 67 0
-64 -10 68 0
-64 -12 69 0
-64 -16 71 0
-64 -18 72 0
65 25 0
-65 -25 0
-65 -19 64 0
-65 -21 66 0
-65 -22 67 0
-65 -23 68 0
-65 -24 69 0
-65 -26 71 0
-65 -27 72 0
66 34 0
-66 -34 0
-66 -28 64 0
-66 -29 65 0
-66 -31 67 0
-66 -32 68 0
-66 -33 69 0
-66 -35 71 0
-66 -36 72 0
67 43 0
-67 -43 0
-67 -37 64 0
-67 -38 65 0
-67 -39 66 0
-67 -41 68 0
-67 -42 69 0
-67 -44 71 0
-67 -45 72 0
68 52 0
-68 -52 0
-68 -46 64 0
-68 -47 65 0
-68 -48 66 0
-68 -49 67 0
-68 -51 69 0
-68 -53 71 0
-68 -54 72 0
69 61 0
-69 -61 0
-69 -55 64 0
-69 -56 65 0
-69 -57 66 0
-69 -58 67 0
-69 -59 68 0
-69 -62 71 0
-69 -63 72 0
71 79 0
-71 -79 0
-71 -73 64 0
-71 -74 65 0
-71 -75 66 0
-71 -76 67 0
-71 -77 68 0
-71 -78 69 0
-71 -81 72 0
72 88 0
-72 -88 0
-72 -82 64 0
-72 -83 65 0
-72 -84 66 0
-72 -85 67 0
-72 -86 68 0
-72 -87 69 0
-72 -89 71 0
80 0
73 16 0
-73 -16 0
-73 -4 74 0
-73 -6 75 0
-73 -8 76 0
-73 -10 77 0
-73 -12 78 0
-73 -14 79 0
-73 -18 81 0
74 26 0
-74 -26 0
-74 -19 73 0
-74 -21 75 0
-74 -22 76 0
-74 -23 77 0
-74 -24 78 0
-74 -25 79 0
-74 -27 81 0
75 35 0
-75 -35 0
-75 -28 73 0
-75 -29 74 0
-75 -31 76 0
-75 -32 77 0
-75 -33 78 0
-75 -34 79 0
-75 -36 81 0
76 44 0
-76 -44 0
-76 -37 73 0
-76 -38 74 0
-76 -39 75 0
-76 -41 77 0
-76 -42 78 0
-76 -43 79 0
-76 -45 81 0
77 53 0
-77 -53 0
-77 -46 73 0
-77 -47 74 0
-77 -48 75 0
-77 -49 76 0
-77 -51 78 0
-77 -52 79 0
-77 -54 81 0
78 62 0
-78 -62 0
-78 -55 73 0
-78 -56 74 0
-78 -57 75 0
-78 -58 76 0
-78 -59 77 0
-78 -61 79 0
-78 -63 81 0
79 71 0
-79 -71 0
-79 -64 73 0
-79 -65 74 0
-79 -66 75 0
-79 -67 76 0
-79 -68 77 0
-79 -69 78 0
-79 -72 81 0
81 89 0
-81 -89 0
-81 -82 73 0
-81 -83 74 0
-81 -84 75 0
-81 -85 76 0
-81 -86 77 0
-81 -87 78 0
-81 -88 79 0
90 0
82 18 0
-82 -18 0
-82 -4 83 0
-82 -6 84 0
-82 -8 85 0
-82 -10 86 0
-82 -12 87 0
-82 -14 88 0
-82 -16 89 0
83 27 0
-83 -27 0
-83 -19 82 0
-83 -21 84 0
-83 -22 85 0
-83 -23 86 0
-83 -24 87 0
-83 -25 88 0
-83 -26 89 0
84 36 0
-84 -36 0
-84 -28 82 0
-84 -29 83 0
-84 -31 85 0
-84 -32 86 0
-84 -33 87 0
-84 -34 88 0
-84 -35 89 0
85 45 0
-85 -45 0
-85 -37 82 0
-85 -38 83 0
-85 -39 84 0
-85 -41 86 0
-85 -42 87 0
-85 -43 88 0
-85 -44 89 0
86 54 0
-86 -54 0
-86 -46 82 0
-86 -47 83 0
-86 -48 84 0
-86 -49 85 0
-86 -51 87 0
-86 -52 88 0
-86 -53 89 0
87 63 0
-87 -63 0
-87 -55 82 0
-87 -56 83 0
-87 -57 84 0
-87 -58 85 0
-87 -59 86 0
-87 -61 88 0
-87 -62 89 0
88 72 0
-88 -72 0
-88 -64 82 0
-88 -65 83 0
-88 -66 84 0
-88 -67 85 0
-88 -68 86 0
-88 -69 87 0
-88 -71 89 0
89 81 0
-89 -81 0
-89 -73 82 0
-89 -74 83 0
-89 -75 84 0
-89 -76 85 0
-89 -77 86 0
-89 -78 87 0
-89 -79 88 0
