c LEQ(domain8,domain8) T(domain8) LEQ(domain8,domain4) T(domain4) LEQ(domain4,domain8) LEQ(domain1,domain8) LEQ(domain8,domain1) T(domain1) LEQ(domain8,domain6) T(domain6) LEQ(domain6,domain8) LEQ(domain8,domain0) T(domain0) LEQ(domain0,domain8) T(domain3) LEQ(domain8,domain3) LEQ(domain3,domain8) LEQ(domain8,domain5) LEQ(domain5,domain8) T(domain5) LEQ(domain2,domain8) LEQ(domain8,domain2) T(domain2) LEQ(domain8,domain7) T(domain7) LEQ(domain7,domain8) LEQ(domain4,domain4) LEQ(domain4,domain1) LEQ(domain1,domain4) LEQ(domain4,domain6) LEQ(domain6,domain4) LEQ(domain4,domain0) LEQ(domain0,domain4) LEQ(domain4,domain3) LEQ(domain3,domain4) LEQ(domain5,domain4) LEQ(domain4,domain5) LEQ(domain2,domain4) LEQ(domain4,domain2) LEQ(domain7,domain4) LEQ(domain4,domain7) LEQ(domain1,domain1) LEQ(domain6,domain1) LEQ(domain1,domain6) LEQ(domain0,domain1) LEQ(domain1,domain0) LEQ(domain3,domain1) LEQ(domain1,domain3) LEQ(domain5,domain1) LEQ(domain1,domain5) LEQ(domain1,domain2) LEQ(domain2,domain1) LEQ(domain7,domain1) LEQ(domain1,domain7) LEQ(domain6,domain6) LEQ(domain0,domain6) LEQ(domain6,domain0) LEQ(domain6,domain3) LEQ(domain3,domain6) LEQ(domain6,domain5) LEQ(domain5,domain6) LEQ(domain2,domain6) LEQ(domain6,domain2) LEQ(domain6,domain7) LEQ(domain7,domain6) LEQ(domain0,domain0) LEQ(domain0,domain3) LEQ(domain3,domain0) LEQ(domain0,domain5) LEQ(domain5,domain0) LEQ(domain0,domain2) LEQ(domain2,domain0) LEQ(domain7,domain0) LEQ(domain0,domain7) LEQ(domain3,domain3) LEQ(domain3,domain5) LEQ(domain5,domain3) LEQ(domain2,domain3) LEQ(domain3,domain2) LEQ(domain3,domain7) LEQ(domain7,domain3) LEQ(domain5,domain5) LEQ(domain5,domain2) LEQ(domain2,domain5) LEQ(domain5,domain7) LEQ(domain7,domain5) LEQ(domain2,domain2) LEQ(domain2,domain7) LEQ(domain7,domain2) LEQ(domain7,domain7)
c 1 2 3 4 5 6 7 8 9 10 11 12 13 14 15 16 17 18 19 20 21 22 23 24 25 26 27 28 29 30 31 32 33 34 35 36 37 38 39 40 41 42 43 44 45 46 47 48 49 50 51 52 53 54 55 56 57 58 59 60 61 62 63 64 65 66 67 68 69 70 71 72 73 74 75 76 77 78 79 80 81 82 83 84 85 86 87 88 89 90
p cnf 90 666
13 -66 -13 0
13 -46 -8 0
13 -72 -23 0
13 -68 -15 0
13 -32 -4 0
13 -70 -20 0
13 -57 -10 0
13 -73 -25 0
13 -12 -2 0
8 -45 -13 0
8 -42 -8 0
8 -52 -23 0
8 -47 -15 0
8 -28 -4 0
8 -49 -20 0
8 -43 -10 0
8 -53 -25 0
8 -7 -2 0
23 -71 -13 0
23 -51 -8 0
23 -87 -23 0
23 -79 -15 0
23 -39 -4 0
23 -83 -20 0
23 -63 -10 0
23 -89 -25 0
23 -22 -2 0
15 -67 -13 0
15 -48 -8 0
15 -78 -23 0
15 -75 -15 0
15 -34 -4 0
15 -77 -20 0
15 -58 -10 0
15 -81 -25 0
15 -16 -2 0
4 -33 -13 0
4 -29 -8 0
4 -38 -23 0
4 -35 -15 0
4 -27 -4 0
4 -36 -20 0
4 -31 -10 0
4 -40 -25 0
4 -3 -2 0
20 -69 -13 0
20 -50 -8 0
20 -84 -23 0
20 -76 -15 0
20 -37 -4 0
20 -82 -20 0
20 -60 -10 0
20 -86 -25 0
20 -18 -2 0
10 -56 -13 0
10 -44 -8 0
10 -62 -23 0
10 -59 -15 0
10 -30 -4 0
10 -61 -20 0
10 -55 -10 0
10 -65 -25 0
10 -9 -2 0
25 -74 -13 0
25 -54 -8 0
25 -88 -23 0
25 -80 -15 0
25 -41 -4 0
25 -85 -20 0
25 -64 -10 0
25 -90 -25 0
25 -24 -2 0
2 -14 -13 0
2 -6 -8 0
2 -21 -23 0
2 -17 -15 0
2 -5 -4 0
2 -19 -20 0
2 -11 -10 0
2 -26 -25 0
2 -1 -2 0
66 0
45 46 0
-45 -46 0
-45 -51 71 0
-45 -48 67 0
-45 -29 33 0
-45 -50 69 0
-45 -44 56 0
-45 -54 74 0
-45 -6 14 0
71 72 0
-71 -72 0
-71 -52 45 0
-71 -78 67 0
-71 -38 33 0
-71 -84 69 0
-71 -62 56 0
-71 -88 74 0
-71 -21 14 0
67 68 0
-67 -68 0
-67 -47 45 0
-67 -79 71 0
-67 -35 33 0
-67 -76 69 0
-67 -59 56 0
-67 -80 74 0
-67 -17 14 0
33 32 0
-33 -32 0
-33 -28 45 0
-33 -39 71 0
-33 -34 67 0
-33 -37 69 0
-33 -30 56 0
-33 -41 74 0
-33 -5 14 0
69 70 0
-69 -70 0
-69 -49 45 0
-69 -83 71 0
-69 -77 67 0
-69 -36 33 0
-69 -61 56 0
-69 -85 74 0
-69 -19 14 0
56 57 0
-56 -57 0
-56 -43 45 0
-56 -63 71 0
-56 -58 67 0
-56 -31 33 0
-56 -60 69 0
-56 -64 74 0
-56 -11 14 0
74 73 0
-74 -73 0
-74 -53 45 0
-74 -89 71 0
-74 -81 67 0
-74 -40 33 0
-74 -86 69 0
-74 -65 56 0
-74 -26 14 0
14 12 0
-14 -12 0
-14 -7 45 0
-14 -22 71 0
-14 -16 67 0
-14 -3 33 0
-14 -18 69 0
-14 -9 56 0
-14 -24 74 0
42 0
-46 -71 51 0
-46 -67 48 0
-46 -33 29 0
-46 -69 50 0
-46 -56 44 0
-46 -74 54 0
-46 -14 6 0
51 52 0
-51 -52 0
-51 -72 46 0
-51 -78 48 0
-51 -38 29 0
-51 -84 50 0
-51 -62 44 0
-51 -88 54 0
-51 -21 6 0
48 47 0
-48 -47 0
-48 -68 46 0
-48 -79 51 0
-48 -35 29 0
-48 -76 50 0
-48 -59 44 0
-48 -80 54 0
-48 -17 6 0
29 28 0
-29 -28 0
-29 -32 46 0
-29 -39 51 0
-29 -34 48 0
-29 -37 50 0
-29 -30 44 0
-29 -41 54 0
-29 -5 6 0
50 49 0
-50 -49 0
-50 -70 46 0
-50 -83 51 0
-50 -77 48 0
-50 -36 29 0
-50 -61 44 0
-50 -85 54 0
-50 -19 6 0
44 43 0
-44 -43 0
-44 -57 46 0
-44 -63 51 0
-44 -58 48 0
-44 -31 29 0
-44 -60 50 0
-44 -64 54 0
-44 -11 6 0
54 53 0
-54 -53 0
-54 -73 46 0
-54 -89 51 0
-54 -81 48 0
-54 -40 29 0
-54 -86 50 0
-54 -65 44 0
-54 -26 6 0
6 7 0
-6 -7 0
-6 -12 46 0
-6 -22 51 0
-6 -16 48 0
-6 -3 29 0
-6 -18 50 0
-6 -9 44 0
-6 -24 54 0
87 0
-72 -45 52 0
-72 -67 78 0
-72 -33 38 0
-72 -69 84 0
-72 -56 62 0
-72 -74 88 0
-72 -14 21 0
-52 -46 72 0
-52 -48 78 0
-52 -29 38 0
-52 -50 84 0
-52 -44 62 0
-52 -54 88 0
-52 -6 21 0
78 79 0
-78 -79 0
-78 -68 72 0
-78 -47 52 0
-78 -35 38 0
-78 -76 84 0
-78 -59 62 0
-78 -80 88 0
-78 -17 21 0
38 39 0
-38 -39 0
-38 -32 72 0
-38 -28 52 0
-38 -34 78 0
-38 -37 84 0
-38 -30 62 0
-38 -41 88 0
-38 -5 21 0
84 83 0
-84 -83 0
-84 -70 72 0
-84 -49 52 0
-84 -77 78 0
-84 -36 38 0
-84 -61 62 0
-84 -85 88 0
-84 -19 21 0
62 63 0
-62 -63 0
-62 -57 72 0
-62 -43 52 0
-62 -58 78 0
-62 -31 38 0
-62 -60 84 0
-62 -64 88 0
-62 -11 21 0
88 89 0
-88 -89 0
-88 -73 72 0
-88 -53 52 0
-88 -81 78 0
-88 -40 38 0
-88 -86 84 0
-88 -65 62 0
-88 -26 21 0
21 22 0
-21 -22 0
-21 -12 72 0
-21 -7 52 0
-21 -16 78 0
-21 -3 38 0
-21 -18 84 0
-21 -9 62 0
-21 -24 88 0
75 0
-68 -45 47 0
-68 -71 79 0
-68 -33 35 0
-68 -69 76 0
-68 -56 59 0
-68 -74 80 0
-68 -14 17 0
-47 -46 68 0
-47 -51 79 0
-47 -29 35 0
-47 -50 76 0
-47 -44 59 0
-47 -54 80 0
-47 -6 17 0
-79 -72 68 0
-79 -52 47 0
-79 -38 35 0
-79 -84 76 0
-79 -62 59 0
-79 -88 80 0
-79 -21 17 0
35 34 0
-35 -34 0
-35 -32 68 0
-35 -28 47 0
-35 -39 79 0
-35 -37 76 0
-35 -30 59 0
-35 -41 80 0
-35 -5 17 0
76 77 0
-76 -77 0
-76 -70 68 0
-76 -49 47 0
-76 -83 79 0
-76 -36 35 0
-76 -61 59 0
-76 -85 80 0
-76 -19 17 0
59 58 0
-59 -58 0
-59 -57 68 0
-59 -43 47 0
-59 -63 79 0
-59 -31 35 0
-59 -60 76 0
-59 -64 80 0
-59 -11 17 0
80 81 0
-80 -81 0
-80 -73 68 0
-80 -53 47 0
-80 -89 79 0
-80 -40 35 0
-80 -86 76 0
-80 -65 59 0
-80 -26 17 0
17 16 0
-17 -16 0
-17 -12 68 0
-17 -7 47 0
-17 -22 79 0
-17 -3 35 0
-17 -18 76 0
-17 -9 59 0
-17 -24 80 0
27 0
-32 -45 28 0
-32 -71 39 0
-32 -67 34 0
-32 -69 37 0
-32 -56 30 0
-32 -74 41 0
-32 -14 5 0
-28 -46 32 0
-28 -51 39 0
-28 -48 34 0
-28 -50 37 0
-28 -44 30 0
-28 -54 41 0
-28 -6 5 0
-39 -72 32 0
-39 -52 28 0
-39 -78 34 0
-39 -84 37 0
-39 -62 30 0
-39 -88 41 0
-39 -21 5 0
-34 -68 32 0
-34 -47 28 0
-34 -79 39 0
-34 -76 37 0
-34 -59 30 0
-34 -80 41 0
-34 -17 5 0
37 36 0
-37 -36 0
-37 -70 32 0
-37 -49 28 0
-37 -83 39 0
-37 -77 34 0
-37 -61 30 0
-37 -85 41 0
-37 -19 5 0
30 31 0
-30 -31 0
-30 -57 32 0
-30 -43 28 0
-30 -63 39 0
-30 -58 34 0
-30 -60 37 0
-30 -64 41 0
-30 -11 5 0
41 40 0
-41 -40 0
-41 -73 32 0
-41 -53 28 0
-41 -89 39 0
-41 -81 34 0
-41 -86 37 0
-41 -65 30 0
-41 -26 5 0
5 3 0
-5 -3 0
-5 -12 32 0
-5 -7 28 0
-5 -22 39 0
-5 -16 34 0
-5 -18 37 0
-5 -9 30 0
-5 -24 41 0
82 0
-70 -45 49 0
-70 -71 83 0
-70 -67 77 0
-70 -33 36 0
-70 -56 61 0
-70 -74 85 0
-70 -14 19 0
-49 -46 70 0
-49 -51 83 0
-49 -48 77 0
-49 -29 36 0
-49 -44 61 0
-49 -54 85 0
-49 -6 19 0
-83 -72 70 0
-83 -52 49 0
-83 -78 77 0
-83 -38 36 0
-83 -62 61 0
-83 -88 85 0
-83 -21 19 0
-77 -68 70 0
-77 -47 49 0
-77 -79 83 0
-77 -35 36 0
-77 -59 61 0
-77 -80 85 0
-77 -17 19 0
-36 -32 70 0
-36 -28 49 0
-36 -39 83 0
-36 -34 77 0
-36 -30 61 0
-36 -41 85 0
-36 -5 19 0
61 60 0
-61 -60 0
-61 -57 70 0
-61 -43 49 0
-61 -63 83 0
-61 -58 77 0
-61 -31 36 0
-61 -64 85 0
-61 -11 19 0
85 86 0
-85 -86 0
-85 -73 70 0
-85 -53 49 0
-85 -89 83 0
-85 -81 77 0
-85 -40 36 0
-85 -65 61 0
-85 -26 19 0
19 18 0
-19 -18 0
-19 -12 70 0
-19 -7 49 0
-19 -22 83 0
-19 -16 77 0
-19 -3 36 0
-19 -9 61 0
-19 -24 85 0
55 0
-57 -45 43 0
-57 -71 63 0
-57 -67 58 0
-57 -33 31 0
-57 -69 60 0
-57 -74 64 0
-57 -14 11 0
-43 -46 57 0
-43 -51 63 0
-43 -48 58 0
-43 -29 31 0
-43 -50 60 0
-43 -54 64 0
-43 -6 11 0
-63 -72 57 0
-63 -52 43 0
-63 -78 58 0
-63 -38 31 0
-63 -84 60 0
-63 -88 64 0
-63 -21 11 0
-58 -68 57 0
-58 -47 43 0
-58 -79 63 0
-58 -35 31 0
-58 -76 60 0
-58 -80 64 0
-58 -17 11 0
-31 -32 57 0
-31 -28 43 0
-31 -39 63 0
-31 -34 58 0
-31 -37 60 0
-31 -41 64 0
-31 -5 11 0
-60 -70 57 0
-60 -49 43 0
-60 -83 63 0
-60 -77 58 0
-60 -36 31 0
-60 -85 64 0
-60 -19 11 0
64 65 0
-64 -65 0
-64 -73 57 0
-64 -53 43 0
-64 -89 63 0
-64 -81 58 0
-64 -40 31 0
-64 -86 60 0
-64 -26 11 0
11 9 0
-11 -9 0
-11 -12 57 0
-11 -7 43 0
-11 -22 63 0
-11 -16 58 0
-11 -3 31 0
-11 -18 60 0
-11 -24 64 0
90 0
-73 -45 53 0
-73 -71 89 0
-73 -67 81 0
-73 -33 40 0
-73 -69 86 0
-73 -56 65 0
-73 -14 26 0
-53 -46 73 0
-53 -51 89 0
-53 -48 81 0
-53 -29 40 0
-53 -50 86 0
-53 -44 65 0
-53 -6 26 0
-89 -72 73 0
-89 -52 53 0
-89 -78 81 0
-89 -38 40 0
-89 -84 86 0
-89 -62 65 0
-89 -21 26 0
-81 -68 73 0
-81 -47 53 0
-81 -79 89 0
-81 -35 40 0
-81 -76 86 0
-81 -59 65 0
-81 -17 26 0
-40 -32 73 0
-40 -28 53 0
-40 -39 89 0
-40 -34 81 0
-40 -37 86 0
-40 -30 65 0
-40 -5 26 0
-86 -70 73 0
-86 -49 53 0
-86 -83 89 0
-86 -77 81 0
-86 -36 40 0
-86 -61 65 0
-86 -19 26 0
-65 -57 73 0
-65 -43 53 0
-65 -63 89 0
-65 -58 81 0
-65 -31 40 0
-65 -60 86 0
-65 -11 26 0
26 24 0
-26 -24 0
-26 -12 73 0
-26 -7 53 0
-26 -22 89 0
-26 -16 81 0
-26 -3 40 0
-26 -18 86 0
-26 -9 65 0
1 0
-12 -45 7 0
-12 -71 22 0
-12 -67 16 0
-12 -33 3 0
-12 -69 18 0
-12 -56 9 0
-12 -74 24 0
-7 -46 12 0
-7 -51 22 0
-7 -48 16 0
-7 -29 3 0
-7 -50 18 0
-7 -44 9 0
-7 -54 24 0
-22 -72 12 0
-22 -52 7 0
-22 -78 16 0
-22 -38 3 0
-22 -84 18 0
-22 -62 9 0
-22 -88 24 0
-16 -68 12 0
-16 -47 7 0
-16 -79 22 0
-16 -35 3 0
-16 -76 18 0
-16 -59 9 0
-16 -80 24 0
-3 -32 12 0
-3 -28 7 0
-3 -39 22 0
-3 -34 16 0
-3 -37 18 0
-3 -30 9 0
-3 -41 24 0
-18 -70 12 0
-18 -49 7 0
-18 -83 22 0
-18 -77 16 0
-18 -36 3 0
-18 -61 9 0
-18 -85 24 0
-9 -57 12 0
-9 -43 7 0
-9 -63 22 0
-9 -58 16 0
-9 -31 3 0
-9 -60 18 0
-9 -64 24 0
-24 -73 12 0
-24 -53 7 0
-24 -89 22 0
-24 -81 16 0
-24 -40 3 0
-24 -86 18 0
-24 -65 9 0
