c CIRCULAR_PRED(c_key0,c_key0) p_set_keys(c_key0) LEQ(c_key0,c_key0) p_entity_car_key(c_key0) p_arrangement_PRED(c_key0,c_key0) p_arrangement_NEXT_TO(c_key0,c_key0) p_entity_house_key(c_key0) p_arrangement_PRED(c_key0,c_key2) p_entity_car_key(c_key2) CIRCULAR_PRED(c_key2,c_key0) p_arrangement_NEXT_TO(c_key2,c_key0) LEQ(c_key0,c_key2) p_entity_house_key(c_key2) p_arrangement_NEXT_TO(c_key0,c_key2) p_set_keys(c_key2) CIRCULAR_PRED(c_key0,c_key2) p_arrangement_PRED(c_key2,c_key0) LEQ(c_key2,c_key0) CIRCULAR_PRED(c_key1,c_key0) LEQ(c_key0,c_key1) p_arrangement_PRED(c_key0,c_key1) p_entity_house_key(c_key1) p_arrangement_NEXT_TO(c_key0,c_key1) CIRCULAR_PRED(c_key0,c_key1) p_entity_car_key(c_key1) p_arrangement_PRED(c_key1,c_key0) LEQ(c_key1,c_key0) p_set_keys(c_key1) p_arrangement_NEXT_TO(c_key1,c_key0) p_arrangement_NEXT_TO(c_house_key,c_key0) p_entity_house_key(c_house_key) LEQ(c_house_key,c_key0) p_arrangement_PRED(c_key0,c_house_key) LEQ(c_key0,c_house_key) p_entity_car_key(c_house_key) p_set_keys(c_house_key) p_arrangement_NEXT_TO(c_key0,c_house_key) CIRCULAR_PRED(c_key0,c_house_key) p_arrangement_PRED(c_house_key,c_key0) CIRCULAR_PRED(c_house_key,c_key0) p_arrangement_NEXT_TO(c_key0,c_car_key) LEQ(c_car_key,c_key0) p_entity_car_key(c_car_key) p_arrangement_NEXT_TO(c_car_key,c_key0) p_entity_house_key(c_car_key) CIRCULAR_PRED(c_key0,c_car_key) p_arrangement_PRED(c_car_key,c_key0) CIRCULAR_PRED(c_car_key,c_key0) LEQ(c_key0,c_car_key) p_arrangement_PRED(c_key0,c_car_key) p_set_keys(c_car_key) p_arrangement_NEXT_TO(c_key2,c_key2) CIRCULAR_PRED(c_key2,c_key2) LEQ(c_key2,c_key2) p_arrangement_PRED(c_key2,c_key2) p_arrangement_NEXT_TO(c_key2,c_key1) CIRCULAR_PRED(c_key2,c_key1) CIRCULAR_PRED(c_key1,c_key2) p_arrangement_PRED(c_key2,c_key1) p_arrangement_PRED(c_key1,c_key2) p_arrangement_NEXT_TO(c_key1,c_key2) LEQ(c_key2,c_key1) LEQ(c_key1,c_key2) p_arrangement_PRED(c_house_key,c_key2) p_arrangement_NEXT_TO(c_house_key,c_key2) CIRCULAR_PRED(c_house_key,c_key2) LEQ(c_house_key,c_key2) p_arrangement_PRED(c_key2,c_house_key) p_arrangement_NEXT_TO(c_key2,c_house_key) CIRCULAR_PRED(c_key2,c_house_key) LEQ(c_key2,c_house_key) p_arrangement_PRED(c_car_key,c_key2) CIRCULAR_PRED(c_car_key,c_key2) LEQ(c_car_key,c_key2) LEQ(c_key2,c_car_key) p_arrangement_PRED(c_key2,c_car_key) p_arrangement_NEXT_TO(c_key2,c_car_key) p_arrangement_NEXT_TO(c_car_key,c_key2) CIRCULAR_PRED(c_key2,c_car_key) p_arrangement_NEXT_TO(c_key1,c_key1) p_arrangement_PRED(c_key1,c_key1) CIRCULAR_PRED(c_key1,c_key1) LEQ(c_key1,c_key1) p_arrangement_PRED(c_house_key,c_key1) LEQ(c_house_key,c_key1) p_arrangement_NEXT_TO(c_house_key,c_key1) p_arrangement_PRED(c_key1,c_house_key) CIRCULAR_PRED(c_house_key,c_key1) p_arrangement_NEXT_TO(c_key1,c_house_key) CIRCULAR_PRED(c_key1,c_house_key) LEQ(c_key1,c_house_key) p_arrangement_PRED(c_key1,c_car_key) p_arrangement_PRED(c_car_key,c_key1) LEQ(c_car_key,c_key1) LEQ(c_key1,c_car_key) p_arrangement_NEXT_TO(c_car_key,c_key1) CIRCULAR_PRED(c_car_key,c_key1) p_arrangement_NEXT_TO(c_key1,c_car_key) CIRCULAR_PRED(c_key1,c_car_key) p_arrangement_NEXT_TO(c_house_key,c_house_key) CIRCULAR_PRED(c_house_key,c_house_key) p_arrangement_PRED(c_house_key,c_house_key) LEQ(c_house_key,c_house_key) p_arrangement_NEXT_TO(c_car_key,c_house_key) LEQ(c_car_key,c_house_key) p_arrangement_NEXT_TO(c_house_key,c_car_key) CIRCULAR_PRED(c_house_key,c_car_key) CIRCULAR_PRED(c_car_key,c_house_key) LEQ(c_house_key,c_car_key) p_arrangement_PRED(c_car_key,c_house_key) p_arrangement_PRED(c_house_key,c_car_key) LEQ(c_car_key,c_car_key) p_arrangement_PRED(c_car_key,c_car_key) p_arrangement_NEXT_TO(c_car_key,c_car_key) CIRCULAR_PRED(c_car_key,c_car_key)
c 1 2 3 4 5 6 7 8 9 10 11 12 13 14 15 16 17 18 19 20 21 22 23 24 25 26 27 28 29 30 31 32 33 34 35 36 37 38 39 40 41 42 43 44 45 46 47 48 49 50 51 52 53 54 55 56 57 58 59 60 61 62 63 64 65 66 67 68 69 70 71 72 73 74 75 76 77 78 79 80 81 82 83 84 85 86 87 88 89 90 91 92 93 94 95 96 97 98 99 100 101 102 103 104 105 106 107 108 109 110 111 112 113 114 115
p cnf 115 1450
115 -113 0
108 -110 0
48 -47 0
97 -93 0
73 -72 0
107 -111 0
101 -102 0
40 -39 0
88 -84 0
66 -64 0
46 -50 0
38 -33 0
1 -5 0
24 -21 0
16 -8 0
99 -92 0
90 -87 0
19 -26 0
82 -81 0
58 -60 0
79 -76 0
70 -68 0
10 -17 0
57 -59 0
53 -55 0
114 -113 0
104 -110 0
104 -111 0
44 -47 0
44 -50 0
96 -93 0
96 -92 0
78 -72 0
78 -76 0
106 -110 0
106 -111 0
100 -102 0
30 -39 0
30 -33 0
86 -84 0
86 -87 0
65 -64 0
65 -68 0
41 -47 0
41 -50 0
37 -39 0
37 -33 0
6 -5 0
23 -21 0
23 -26 0
14 -8 0
14 -17 0
98 -93 0
98 -92 0
89 -84 0
89 -87 0
29 -21 0
29 -26 0
80 -81 0
61 -60 0
61 -59 0
77 -72 0
77 -76 0
69 -64 0
69 -68 0
11 -8 0
11 -17 0
56 -60 0
56 -59 0
52 -55 0
113 -114 0
102 -100 0
5 -6 0
81 -80 0
55 -52 0
51 -113 0
51 -110 0
51 -47 0
51 -93 0
51 -72 0
51 -111 0
51 -50 0
51 -92 0
51 -76 0
36 -110 0
36 -111 0
36 -102 0
36 -39 0
36 -84 0
36 -64 0
36 -33 0
36 -87 0
36 -68 0
2 -47 0
2 -39 0
2 -50 0
2 -33 0
2 -5 0
2 -21 0
2 -8 0
2 -26 0
2 -17 0
28 -93 0
28 -84 0
28 -21 0
28 -92 0
28 -87 0
28 -26 0
28 -81 0
28 -60 0
28 -59 0
15 -72 0
15 -64 0
15 -8 0
15 -60 0
15 -76 0
15 -68 0
15 -17 0
15 -59 0
15 -55 0
112 51 -51 0
105 36 -51 0
42 2 -51 0
94 28 -51 0
74 15 -51 0
109 51 -36 0
103 36 -36 0
32 2 -36 0
85 28 -36 0
67 15 -36 0
49 51 -2 0
34 36 -2 0
3 2 -2 0
20 28 -2 0
12 15 -2 0
95 51 -28 0
91 36 -28 0
27 2 -28 0
83 28 -28 0
63 15 -28 0
75 51 -15 0
71 36 -15 0
18 2 -15 0
62 28 -15 0
54 15 -15 0
110 111 -104 0
110 111 -106 0
47 50 -44 0
47 50 -41 0
93 92 -96 0
93 92 -98 0
72 76 -78 0
72 76 -77 0
39 33 -30 0
39 33 -37 0
84 87 -86 0
84 87 -89 0
64 68 -65 0
64 68 -69 0
21 26 -23 0
21 26 -29 0
8 17 -14 0
8 17 -11 0
60 59 -61 0
60 59 -56 0
114 -43 -45 0
104 -35 -45 0
44 -4 -45 0
96 -25 -45 0
78 -9 -45 0
106 -43 -31 0
100 -35 -31 0
30 -4 -31 0
86 -25 -31 0
65 -9 -31 0
41 -43 -7 0
37 -35 -7 0
6 -4 -7 0
23 -25 -7 0
14 -9 -7 0
98 -43 -22 0
89 -35 -22 0
29 -4 -22 0
80 -25 -22 0
61 -9 -22 0
77 -43 -13 0
69 -35 -13 0
11 -4 -13 0
56 -25 -13 0
52 -9 -13 0
113 -115 -51 0
102 -101 -36 0
5 -1 -2 0
81 -82 -28 0
55 -53 -15 0
110 -108 -51 -36 0
47 -48 -51 -2 0
93 -97 -51 -28 0
72 -73 -51 -15 0
111 -107 -51 -36 0
39 -40 -36 -2 0
84 -88 -36 -28 0
64 -66 -36 -15 0
50 -46 -51 -2 0
33 -38 -36 -2 0
21 -24 -2 -28 0
8 -16 -2 -15 0
92 -99 -51 -28 0
87 -90 -36 -28 0
26 -19 -2 -28 0
60 -58 -28 -15 0
76 -79 -51 -15 0
68 -70 -36 -15 0
17 -10 -2 -15 0
59 -57 -28 -15 0
-4 0
43 0
15 0
-25 0
-9 0
2 0
-13 0
36 0
31 0
-22 0
-35 0
-45 0
-7 0
28 0
51 0
112 0
105 109 0
-105 -109 0
-105 -32 42 0
-105 -85 94 0
-105 -67 74 0
42 49 0
-42 -49 0
-42 -34 105 0
-42 -20 94 0
-42 -12 74 0
94 95 0
-94 -95 0
-94 -91 105 0
-94 -27 42 0
-94 -63 74 0
74 75 0
-74 -75 0
-74 -71 105 0
-74 -18 42 0
-74 -62 94 0
103 0
-109 -42 32 0
-109 -94 85 0
-109 -74 67 0
32 34 0
-32 -34 0
-32 -49 109 0
-32 -20 85 0
-32 -12 67 0
85 91 0
-85 -91 0
-85 -95 109 0
-85 -27 32 0
-85 -63 67 0
67 71 0
-67 -71 0
-67 -75 109 0
-67 -18 32 0
-67 -62 85 0
3 0
-49 -105 34 0
-49 -94 20 0
-49 -74 12 0
-34 -109 49 0
-34 -85 20 0
-34 -67 12 0
20 27 0
-20 -27 0
-20 -95 49 0
-20 -91 34 0
-20 -63 12 0
12 18 0
-12 -18 0
-12 -75 49 0
-12 -71 34 0
-12 -62 20 0
83 0
-95 -105 91 0
-95 -42 27 0
-95 -74 63 0
-91 -109 95 0
-91 -32 27 0
-91 -67 63 0
-27 -49 95 0
-27 -34 91 0
-27 -12 63 0
63 62 0
-63 -62 0
-63 -75 95 0
-63 -71 91 0
-63 -18 27 0
54 0
-75 -105 71 0
-75 -42 18 0
-75 -94 62 0
-71 -109 75 0
-71 -32 18 0
-71 -85 62 0
-18 -49 75 0
-18 -34 71 0
-18 -20 62 0
-62 -95 75 0
-62 -91 71 0
-62 -27 18 0
-115 0
115 107 46 99 79 0
115 108 48 97 73 0
-109 -107 42 -32 0
-109 -107 -42 32 0
-105 -108 42 -32 0
-105 -108 -42 32 0
-109 -107 94 -85 0
-109 -107 -94 85 0
-105 -108 94 -85 0
-105 -108 -94 85 0
-109 -107 74 -67 0
-109 -107 -74 67 0
-105 -108 74 -67 0
-105 -108 -74 67 0
-109 -46 105 -34 0
-109 -46 -105 34 0
-105 -48 105 -34 0
-105 -48 -105 34 0
-109 -46 94 -20 0
-109 -46 -94 20 0
-105 -48 94 -20 0
-105 -48 -94 20 0
-109 -46 74 -12 0
-109 -46 -74 12 0
-105 -48 74 -12 0
-105 -48 -74 12 0
-109 -99 105 -91 0
-109 -99 -105 91 0
-105 -97 105 -91 0
-105 -97 -105 91 0
-109 -99 42 -27 0
-109 -99 -42 27 0
-105 -97 42 -27 0
-105 -97 -42 27 0
-109 -99 74 -63 0
-109 -99 -74 63 0
-105 -97 74 -63 0
-105 -97 -74 63 0
-109 -79 105 -71 0
-109 -79 -105 71 0
-105 -73 105 -71 0
-105 -73 -105 71 0
-109 -79 42 -18 0
-109 -79 -42 18 0
-105 -73 42 -18 0
-105 -73 -42 18 0
-109 -79 94 -62 0
-109 -79 -94 62 0
-105 -73 94 -62 0
-105 -73 -94 62 0
-49 -107 42 -32 0
-49 -107 -42 32 0
-42 -108 42 -32 0
-42 -108 -42 32 0
-49 -107 94 -85 0
-49 -107 -94 85 0
-42 -108 94 -85 0
-42 -108 -94 85 0
-49 -107 74 -67 0
-49 -107 -74 67 0
-42 -108 74 -67 0
-42 -108 -74 67 0
-49 -46 105 -34 0
-49 -46 -105 34 0
-42 -48 105 -34 0
-42 -48 -105 34 0
-49 -46 94 -20 0
-49 -46 -94 20 0
-42 -48 94 -20 0
-42 -48 -94 20 0
-49 -46 74 -12 0
-49 -46 -74 12 0
-42 -48 74 -12 0
-42 -48 -74 12 0
-49 -99 105 -91 0
-49 -99 -105 91 0
-42 -97 105 -91 0
-42 -97 -105 91 0
-49 -99 42 -27 0
-49 -99 -42 27 0
-42 -97 42 -27 0
-42 -97 -42 27 0
-49 -99 74 -63 0
-49 -99 -74 63 0
-42 -97 74 -63 0
-42 -97 -74 63 0
-49 -79 105 -71 0
-49 -79 -105 71 0
-42 -73 105 -71 0
-42 -73 -105 71 0
-49 -79 42 -18 0
-49 -79 -42 18 0
-42 -73 42 -18 0
-42 -73 -42 18 0
-49 -79 94 -62 0
-49 -79 -94 62 0
-42 -73 94 -62 0
-42 -73 -94 62 0
-95 -107 42 -32 0
-95 -107 -42 32 0
-94 -108 42 -32 0
-94 -108 -42 32 0
-95 -107 94 -85 0
-95 -107 -94 85 0
-94 -108 94 -85 0
-94 -108 -94 85 0
-95 -107 74 -67 0
-95 -107 -74 67 0
-94 -108 74 -67 0
-94 -108 -74 67 0
-95 -46 105 -34 0
-95 -46 -105 34 0
-94 -48 105 -34 0
-94 -48 -105 34 0
-95 -46 94 -20 0
-95 -46 -94 20 0
-94 -48 94 -20 0
-94 -48 -94 20 0
-95 -46 74 -12 0
-95 -46 -74 12 0
-94 -48 74 -12 0
-94 -48 -74 12 0
-95 -99 105 -91 0
-95 -99 -105 91 0
-94 -97 105 -91 0
-94 -97 -105 91 0
-95 -99 42 -27 0
-95 -99 -42 27 0
-94 -97 42 -27 0
-94 -97 -42 27 0
-95 -99 74 -63 0
-95 -99 -74 63 0
-94 -97 74 -63 0
-94 -97 -74 63 0
-95 -79 105 -71 0
-95 -79 -105 71 0
-94 -73 105 -71 0
-94 -73 -105 71 0
-95 -79 42 -18 0
-95 -79 -42 18 0
-94 -73 42 -18 0
-94 -73 -42 18 0
-95 -79 94 -62 0
-95 -79 -94 62 0
-94 -73 94 -62 0
-94 -73 -94 62 0
-75 -107 42 -32 0
-75 -107 -42 32 0
-74 -108 42 -32 0
-74 -108 -42 32 0
-75 -107 94 -85 0
-75 -107 -94 85 0
-74 -108 94 -85 0
-74 -108 -94 85 0
-75 -107 74 -67 0
-75 -107 -74 67 0
-74 -108 74 -67 0
-74 -108 -74 67 0
-75 -46 105 -34 0
-75 -46 -105 34 0
-74 -48 105 -34 0
-74 -48 -105 34 0
-75 -46 94 -20 0
-75 -46 -94 20 0
-74 -48 94 -20 0
-74 -48 -94 20 0
-75 -46 74 -12 0
-75 -46 -74 12 0
-74 -48 74 -12 0
-74 -48 -74 12 0
-75 -99 105 -91 0
-75 -99 -105 91 0
-74 -97 105 -91 0
-74 -97 -105 91 0
-75 -99 42 -27 0
-75 -99 -42 27 0
-74 -97 42 -27 0
-74 -97 -42 27 0
-75 -99 74 -63 0
-75 -99 -74 63 0
-74 -97 74 -63 0
-74 -97 -74 63 0
-75 -79 105 -71 0
-75 -79 -105 71 0
-74 -73 105 -71 0
-74 -73 -105 71 0
-75 -79 42 -18 0
-75 -79 -42 18 0
-74 -73 42 -18 0
-74 -73 -42 18 0
-75 -79 94 -62 0
-75 -79 -94 62 0
-74 -73 94 -62 0
-74 -73 -94 62 0
-105 -42 -94 -74 -107 105 0
-109 -49 -95 -75 -108 109 0
-49 -107 109 0
-42 -108 105 0
-95 -107 109 0
-94 -108 105 0
-75 -107 109 0
-74 -108 105 0
-105 -42 -94 -74 -46 42 0
-109 -49 -95 -75 -48 49 0
-109 -46 49 0
-105 -48 42 0
-95 -46 49 0
-94 -48 42 0
-75 -46 49 0
-74 -48 42 0
-105 -42 -94 -74 -99 94 0
-109 -49 -95 -75 -97 95 0
-109 -99 95 0
-105 -97 94 0
-49 -99 95 0
-42 -97 94 0
-75 -99 95 0
-74 -97 94 0
-105 -42 -94 -74 -79 74 0
-109 -49 -95 -75 -73 75 0
-109 -79 75 0
-105 -73 74 0
-49 -79 75 0
-42 -73 74 0
-95 -79 75 0
-94 -73 74 0
-101 0
108 101 38 90 70 0
107 101 40 88 66 0
-105 -108 32 -42 0
-105 -108 -32 42 0
-109 -107 32 -42 0
-109 -107 -32 42 0
-105 -108 85 -94 0
-105 -108 -85 94 0
-109 -107 85 -94 0
-109 -107 -85 94 0
-105 -108 67 -74 0
-105 -108 -67 74 0
-109 -107 67 -74 0
-109 -107 -67 74 0
-105 -38 109 -49 0
-105 -38 -109 49 0
-109 -40 109 -49 0
-109 -40 -109 49 0
-105 -38 85 -20 0
-105 -38 -85 20 0
-109 -40 85 -20 0
-109 -40 -85 20 0
-105 -38 67 -12 0
-105 -38 -67 12 0
-109 -40 67 -12 0
-109 -40 -67 12 0
-105 -90 109 -95 0
-105 -90 -109 95 0
-109 -88 109 -95 0
-109 -88 -109 95 0
-105 -90 32 -27 0
-105 -90 -32 27 0
-109 -88 32 -27 0
-109 -88 -32 27 0
-105 -90 67 -63 0
-105 -90 -67 63 0
-109 -88 67 -63 0
-109 -88 -67 63 0
-105 -70 109 -75 0
-105 -70 -109 75 0
-109 -66 109 -75 0
-109 -66 -109 75 0
-105 -70 32 -18 0
-105 -70 -32 18 0
-109 -66 32 -18 0
-109 -66 -32 18 0
-105 -70 85 -62 0
-105 -70 -85 62 0
-109 -66 85 -62 0
-109 -66 -85 62 0
-34 -108 32 -42 0
-34 -108 -32 42 0
-32 -107 32 -42 0
-32 -107 -32 42 0
-34 -108 85 -94 0
-34 -108 -85 94 0
-32 -107 85 -94 0
-32 -107 -85 94 0
-34 -108 67 -74 0
-34 -108 -67 74 0
-32 -107 67 -74 0
-32 -107 -67 74 0
-34 -38 109 -49 0
-34 -38 -109 49 0
-32 -40 109 -49 0
-32 -40 -109 49 0
-34 -38 85 -20 0
-34 -38 -85 20 0
-32 -40 85 -20 0
-32 -40 -85 20 0
-34 -38 67 -12 0
-34 -38 -67 12 0
-32 -40 67 -12 0
-32 -40 -67 12 0
-34 -90 109 -95 0
-34 -90 -109 95 0
-32 -88 109 -95 0
-32 -88 -109 95 0
-34 -90 32 -27 0
-34 -90 -32 27 0
-32 -88 32 -27 0
-32 -88 -32 27 0
-34 -90 67 -63 0
-34 -90 -67 63 0
-32 -88 67 -63 0
-32 -88 -67 63 0
-34 -70 109 -75 0
-34 -70 -109 75 0
-32 -66 109 -75 0
-32 -66 -109 75 0
-34 -70 32 -18 0
-34 -70 -32 18 0
-32 -66 32 -18 0
-32 -66 -32 18 0
-34 -70 85 -62 0
-34 -70 -85 62 0
-32 -66 85 -62 0
-32 -66 -85 62 0
-91 -108 32 -42 0
-91 -108 -32 42 0
-85 -107 32 -42 0
-85 -107 -32 42 0
-91 -108 85 -94 0
-91 -108 -85 94 0
-85 -107 85 -94 0
-85 -107 -85 94 0
-91 -108 67 -74 0
-91 -108 -67 74 0
-85 -107 67 -74 0
-85 -107 -67 74 0
-91 -38 109 -49 0
-91 -38 -109 49 0
-85 -40 109 -49 0
-85 -40 -109 49 0
-91 -38 85 -20 0
-91 -38 -85 20 0
-85 -40 85 -20 0
-85 -40 -85 20 0
-91 -38 67 -12 0
-91 -38 -67 12 0
-85 -40 67 -12 0
-85 -40 -67 12 0
-91 -90 109 -95 0
-91 -90 -109 95 0
-85 -88 109 -95 0
-85 -88 -109 95 0
-91 -90 32 -27 0
-91 -90 -32 27 0
-85 -88 32 -27 0
-85 -88 -32 27 0
-91 -90 67 -63 0
-91 -90 -67 63 0
-85 -88 67 -63 0
-85 -88 -67 63 0
-91 -70 109 -75 0
-91 -70 -109 75 0
-85 -66 109 -75 0
-85 -66 -109 75 0
-91 -70 32 -18 0
-91 -70 -32 18 0
-85 -66 32 -18 0
-85 -66 -32 18 0
-91 -70 85 -62 0
-91 -70 -85 62 0
-85 -66 85 -62 0
-85 -66 -85 62 0
-71 -108 32 -42 0
-71 -108 -32 42 0
-67 -107 32 -42 0
-67 -107 -32 42 0
-71 -108 85 -94 0
-71 -108 -85 94 0
-67 -107 85 -94 0
-67 -107 -85 94 0
-71 -108 67 -74 0
-71 -108 -67 74 0
-67 -107 67 -74 0
-67 -107 -67 74 0
-71 -38 109 -49 0
-71 -38 -109 49 0
-67 -40 109 -49 0
-67 -40 -109 49 0
-71 -38 85 -20 0
-71 -38 -85 20 0
-67 -40 85 -20 0
-67 -40 -85 20 0
-71 -38 67 -12 0
-71 -38 -67 12 0
-67 -40 67 -12 0
-67 -40 -67 12 0
-71 -90 109 -95 0
-71 -90 -109 95 0
-67 -88 109 -95 0
-67 -88 -109 95 0
-71 -90 32 -27 0
-71 -90 -32 27 0
-67 -88 32 -27 0
-67 -88 -32 27 0
-71 -90 67 -63 0
-71 -90 -67 63 0
-67 -88 67 -63 0
-67 -88 -67 63 0
-71 -70 109 -75 0
-71 -70 -109 75 0
-67 -66 109 -75 0
-67 -66 -109 75 0
-71 -70 32 -18 0
-71 -70 -32 18 0
-67 -66 32 -18 0
-67 -66 -32 18 0
-71 -70 85 -62 0
-71 -70 -85 62 0
-67 -66 85 -62 0
-67 -66 -85 62 0
-109 -32 -85 -67 -108 109 0
-105 -34 -91 -71 -107 105 0
-34 -108 105 0
-32 -107 109 0
-91 -108 105 0
-85 -107 109 0
-71 -108 105 0
-67 -107 109 0
-109 -32 -85 -67 -38 32 0
-105 -34 -91 -71 -40 34 0
-105 -38 34 0
-109 -40 32 0
-91 -38 34 0
-85 -40 32 0
-71 -38 34 0
-67 -40 32 0
-109 -32 -85 -67 -90 85 0
-105 -34 -91 -71 -88 91 0
-105 -90 91 0
-109 -88 85 0
-34 -90 91 0
-32 -88 85 0
-71 -90 91 0
-67 -88 85 0
-109 -32 -85 -67 -70 67 0
-105 -34 -91 -71 -66 71 0
-105 -70 71 0
-109 -66 67 0
-34 -70 71 0
-32 -66 67 0
-91 -70 71 0
-85 -66 67 0
-1 0
48 40 1 19 10 0
46 38 1 24 16 0
-42 -48 34 -105 0
-42 -48 -34 105 0
-49 -46 34 -105 0
-49 -46 -34 105 0
-42 -48 20 -94 0
-42 -48 -20 94 0
-49 -46 20 -94 0
-49 -46 -20 94 0
-42 -48 12 -74 0
-42 -48 -12 74 0
-49 -46 12 -74 0
-49 -46 -12 74 0
-42 -40 49 -109 0
-42 -40 -49 109 0
-49 -38 49 -109 0
-49 -38 -49 109 0
-42 -40 20 -85 0
-42 -40 -20 85 0
-49 -38 20 -85 0
-49 -38 -20 85 0
-42 -40 12 -67 0
-42 -40 -12 67 0
-49 -38 12 -67 0
-49 -38 -12 67 0
-42 -19 49 -95 0
-42 -19 -49 95 0
-49 -24 49 -95 0
-49 -24 -49 95 0
-42 -19 34 -91 0
-42 -19 -34 91 0
-49 -24 34 -91 0
-49 -24 -34 91 0
-42 -19 12 -63 0
-42 -19 -12 63 0
-49 -24 12 -63 0
-49 -24 -12 63 0
-42 -10 49 -75 0
-42 -10 -49 75 0
-49 -16 49 -75 0
-49 -16 -49 75 0
-42 -10 34 -71 0
-42 -10 -34 71 0
-49 -16 34 -71 0
-49 -16 -34 71 0
-42 -10 20 -62 0
-42 -10 -20 62 0
-49 -16 20 -62 0
-49 -16 -20 62 0
-32 -48 34 -105 0
-32 -48 -34 105 0
-34 -46 34 -105 0
-34 -46 -34 105 0
-32 -48 20 -94 0
-32 -48 -20 94 0
-34 -46 20 -94 0
-34 -46 -20 94 0
-32 -48 12 -74 0
-32 -48 -12 74 0
-34 -46 12 -74 0
-34 -46 -12 74 0
-32 -40 49 -109 0
-32 -40 -49 109 0
-34 -38 49 -109 0
-34 -38 -49 109 0
-32 -40 20 -85 0
-32 -40 -20 85 0
-34 -38 20 -85 0
-34 -38 -20 85 0
-32 -40 12 -67 0
-32 -40 -12 67 0
-34 -38 12 -67 0
-34 -38 -12 67 0
-32 -19 49 -95 0
-32 -19 -49 95 0
-34 -24 49 -95 0
-34 -24 -49 95 0
-32 -19 34 -91 0
-32 -19 -34 91 0
-34 -24 34 -91 0
-34 -24 -34 91 0
-32 -19 12 -63 0
-32 -19 -12 63 0
-34 -24 12 -63 0
-34 -24 -12 63 0
-32 -10 49 -75 0
-32 -10 -49 75 0
-34 -16 49 -75 0
-34 -16 -49 75 0
-32 -10 34 -71 0
-32 -10 -34 71 0
-34 -16 34 -71 0
-34 -16 -34 71 0
-32 -10 20 -62 0
-32 -10 -20 62 0
-34 -16 20 -62 0
-34 -16 -20 62 0
-27 -48 34 -105 0
-27 -48 -34 105 0
-20 -46 34 -105 0
-20 -46 -34 105 0
-27 -48 20 -94 0
-27 -48 -20 94 0
-20 -46 20 -94 0
-20 -46 -20 94 0
-27 -48 12 -74 0
-27 -48 -12 74 0
-20 -46 12 -74 0
-20 -46 -12 74 0
-27 -40 49 -109 0
-27 -40 -49 109 0
-20 -38 49 -109 0
-20 -38 -49 109 0
-27 -40 20 -85 0
-27 -40 -20 85 0
-20 -38 20 -85 0
-20 -38 -20 85 0
-27 -40 12 -67 0
-27 -40 -12 67 0
-20 -38 12 -67 0
-20 -38 -12 67 0
-27 -19 49 -95 0
-27 -19 -49 95 0
-20 -24 49 -95 0
-20 -24 -49 95 0
-27 -19 34 -91 0
-27 -19 -34 91 0
-20 -24 34 -91 0
-20 -24 -34 91 0
-27 -19 12 -63 0
-27 -19 -12 63 0
-20 -24 12 -63 0
-20 -24 -12 63 0
-27 -10 49 -75 0
-27 -10 -49 75 0
-20 -16 49 -75 0
-20 -16 -49 75 0
-27 -10 34 -71 0
-27 -10 -34 71 0
-20 -16 34 -71 0
-20 -16 -34 71 0
-27 -10 20 -62 0
-27 -10 -20 62 0
-20 -16 20 -62 0
-20 -16 -20 62 0
-18 -48 34 -105 0
-18 -48 -34 105 0
-12 -46 34 -105 0
-12 -46 -34 105 0
-18 -48 20 -94 0
-18 -48 -20 94 0
-12 -46 20 -94 0
-12 -46 -20 94 0
-18 -48 12 -74 0
-18 -48 -12 74 0
-12 -46 12 -74 0
-12 -46 -12 74 0
-18 -40 49 -109 0
-18 -40 -49 109 0
-12 -38 49 -109 0
-12 -38 -49 109 0
-18 -40 20 -85 0
-18 -40 -20 85 0
-12 -38 20 -85 0
-12 -38 -20 85 0
-18 -40 12 -67 0
-18 -40 -12 67 0
-12 -38 12 -67 0
-12 -38 -12 67 0
-18 -19 49 -95 0
-18 -19 -49 95 0
-12 -24 49 -95 0
-12 -24 -49 95 0
-18 -19 34 -91 0
-18 -19 -34 91 0
-12 -24 34 -91 0
-12 -24 -34 91 0
-18 -19 12 -63 0
-18 -19 -12 63 0
-12 -24 12 -63 0
-12 -24 -12 63 0
-18 -10 49 -75 0
-18 -10 -49 75 0
-12 -16 49 -75 0
-12 -16 -49 75 0
-18 -10 34 -71 0
-18 -10 -34 71 0
-12 -16 34 -71 0
-12 -16 -34 71 0
-18 -10 20 -62 0
-18 -10 -20 62 0
-12 -16 20 -62 0
-12 -16 -20 62 0
-49 -34 -20 -12 -48 49 0
-42 -32 -27 -18 -46 42 0
-32 -48 42 0
-34 -46 49 0
-27 -48 42 0
-20 -46 49 0
-18 -48 42 0
-12 -46 49 0
-49 -34 -20 -12 -40 34 0
-42 -32 -27 -18 -38 32 0
-42 -40 32 0
-49 -38 34 0
-27 -40 32 0
-20 -38 34 0
-18 -40 32 0
-12 -38 34 0
-49 -34 -20 -12 -19 20 0
-42 -32 -27 -18 -24 27 0
-42 -19 27 0
-49 -24 20 0
-32 -19 27 0
-34 -24 20 0
-18 -19 27 0
-12 -24 20 0
-49 -34 -20 -12 -10 12 0
-42 -32 -27 -18 -16 18 0
-42 -10 18 0
-49 -16 12 0
-32 -10 18 0
-34 -16 12 0
-27 -10 18 0
-20 -16 12 0
-82 0
97 88 24 82 57 0
99 90 19 82 58 0
-94 -97 91 -105 0
-94 -97 -91 105 0
-95 -99 91 -105 0
-95 -99 -91 105 0
-94 -97 27 -42 0
-94 -97 -27 42 0
-95 -99 27 -42 0
-95 -99 -27 42 0
-94 -97 63 -74 0
-94 -97 -63 74 0
-95 -99 63 -74 0
-95 -99 -63 74 0
-94 -88 95 -109 0
-94 -88 -95 109 0
-95 -90 95 -109 0
-95 -90 -95 109 0
-94 -88 27 -32 0
-94 -88 -27 32 0
-95 -90 27 -32 0
-95 -90 -27 32 0
-94 -88 63 -67 0
-94 -88 -63 67 0
-95 -90 63 -67 0
-95 -90 -63 67 0
-94 -24 95 -49 0
-94 -24 -95 49 0
-95 -19 95 -49 0
-95 -19 -95 49 0
-94 -24 91 -34 0
-94 -24 -91 34 0
-95 -19 91 -34 0
-95 -19 -91 34 0
-94 -24 63 -12 0
-94 -24 -63 12 0
-95 -19 63 -12 0
-95 -19 -63 12 0
-94 -57 95 -75 0
-94 -57 -95 75 0
-95 -58 95 -75 0
-95 -58 -95 75 0
-94 -57 91 -71 0
-94 -57 -91 71 0
-95 -58 91 -71 0
-95 -58 -91 71 0
-94 -57 27 -18 0
-94 -57 -27 18 0
-95 -58 27 -18 0
-95 -58 -27 18 0
-85 -97 91 -105 0
-85 -97 -91 105 0
-91 -99 91 -105 0
-91 -99 -91 105 0
-85 -97 27 -42 0
-85 -97 -27 42 0
-91 -99 27 -42 0
-91 -99 -27 42 0
-85 -97 63 -74 0
-85 -97 -63 74 0
-91 -99 63 -74 0
-91 -99 -63 74 0
-85 -88 95 -109 0
-85 -88 -95 109 0
-91 -90 95 -109 0
-91 -90 -95 109 0
-85 -88 27 -32 0
-85 -88 -27 32 0
-91 -90 27 -32 0
-91 -90 -27 32 0
-85 -88 63 -67 0
-85 -88 -63 67 0
-91 -90 63 -67 0
-91 -90 -63 67 0
-85 -24 95 -49 0
-85 -24 -95 49 0
-91 -19 95 -49 0
-91 -19 -95 49 0
-85 -24 91 -34 0
-85 -24 -91 34 0
-91 -19 91 -34 0
-91 -19 -91 34 0
-85 -24 63 -12 0
-85 -24 -63 12 0
-91 -19 63 -12 0
-91 -19 -63 12 0
-85 -57 95 -75 0
-85 -57 -95 75 0
-91 -58 95 -75 0
-91 -58 -95 75 0
-85 -57 91 -71 0
-85 -57 -91 71 0
-91 -58 91 -71 0
-91 -58 -91 71 0
-85 -57 27 -18 0
-85 -57 -27 18 0
-91 -58 27 -18 0
-91 -58 -27 18 0
-20 -97 91 -105 0
-20 -97 -91 105 0
-27 -99 91 -105 0
-27 -99 -91 105 0
-20 -97 27 -42 0
-20 -97 -27 42 0
-27 -99 27 -42 0
-27 -99 -27 42 0
-20 -97 63 -74 0
-20 -97 -63 74 0
-27 -99 63 -74 0
-27 -99 -63 74 0
-20 -88 95 -109 0
-20 -88 -95 109 0
-27 -90 95 -109 0
-27 -90 -95 109 0
-20 -88 27 -32 0
-20 -88 -27 32 0
-27 -90 27 -32 0
-27 -90 -27 32 0
-20 -88 63 -67 0
-20 -88 -63 67 0
-27 -90 63 -67 0
-27 -90 -63 67 0
-20 -24 95 -49 0
-20 -24 -95 49 0
-27 -19 95 -49 0
-27 -19 -95 49 0
-20 -24 91 -34 0
-20 -24 -91 34 0
-27 -19 91 -34 0
-27 -19 -91 34 0
-20 -24 63 -12 0
-20 -24 -63 12 0
-27 -19 63 -12 0
-27 -19 -63 12 0
-20 -57 95 -75 0
-20 -57 -95 75 0
-27 -58 95 -75 0
-27 -58 -95 75 0
-20 -57 91 -71 0
-20 -57 -91 71 0
-27 -58 91 -71 0
-27 -58 -91 71 0
-20 -57 27 -18 0
-20 -57 -27 18 0
-27 -58 27 -18 0
-27 -58 -27 18 0
-62 -97 91 -105 0
-62 -97 -91 105 0
-63 -99 91 -105 0
-63 -99 -91 105 0
-62 -97 27 -42 0
-62 -97 -27 42 0
-63 -99 27 -42 0
-63 -99 -27 42 0
-62 -97 63 -74 0
-62 -97 -63 74 0
-63 -99 63 -74 0
-63 -99 -63 74 0
-62 -88 95 -109 0
-62 -88 -95 109 0
-63 -90 95 -109 0
-63 -90 -95 109 0
-62 -88 27 -32 0
-62 -88 -27 32 0
-63 -90 27 -32 0
-63 -90 -27 32 0
-62 -88 63 -67 0
-62 -88 -63 67 0
-63 -90 63 -67 0
-63 -90 -63 67 0
-62 -24 95 -49 0
-62 -24 -95 49 0
-63 -19 95 -49 0
-63 -19 -95 49 0
-62 -24 91 -34 0
-62 -24 -91 34 0
-63 -19 91 -34 0
-63 -19 -91 34 0
-62 -24 63 -12 0
-62 -24 -63 12 0
-63 -19 63 -12 0
-63 -19 -63 12 0
-62 -57 95 -75 0
-62 -57 -95 75 0
-63 -58 95 -75 0
-63 -58 -95 75 0
-62 -57 91 -71 0
-62 -57 -91 71 0
-63 -58 91 -71 0
-63 -58 -91 71 0
-62 -57 27 -18 0
-62 -57 -27 18 0
-63 -58 27 -18 0
-63 -58 -27 18 0
-95 -91 -27 -63 -97 95 0
-94 -85 -20 -62 -99 94 0
-85 -97 94 0
-91 -99 95 0
-20 -97 94 0
-27 -99 95 0
-62 -97 94 0
-63 -99 95 0
-95 -91 -27 -63 -88 91 0
-94 -85 -20 -62 -90 85 0
-94 -88 85 0
-95 -90 91 0
-20 -88 85 0
-27 -90 91 0
-62 -88 85 0
-63 -90 91 0
-95 -91 -27 -63 -24 27 0
-94 -85 -20 -62 -19 20 0
-94 -24 20 0
-95 -19 27 0
-85 -24 20 0
-91 -19 27 0
-62 -24 20 0
-63 -19 27 0
-95 -91 -27 -63 -57 63 0
-94 -85 -20 -62 -58 62 0
-94 -57 62 0
-95 -58 63 0
-85 -57 62 0
-91 -58 63 0
-20 -57 62 0
-27 -58 63 0
-53 0
73 66 16 58 53 0
79 70 10 57 53 0
-74 -73 71 -105 0
-74 -73 -71 105 0
-75 -79 71 -105 0
-75 -79 -71 105 0
-74 -73 18 -42 0
-74 -73 -18 42 0
-75 -79 18 -42 0
-75 -79 -18 42 0
-74 -73 62 -94 0
-74 -73 -62 94 0
-75 -79 62 -94 0
-75 -79 -62 94 0
-74 -66 75 -109 0
-74 -66 -75 109 0
-75 -70 75 -109 0
-75 -70 -75 109 0
-74 -66 18 -32 0
-74 -66 -18 32 0
-75 -70 18 -32 0
-75 -70 -18 32 0
-74 -66 62 -85 0
-74 -66 -62 85 0
-75 -70 62 -85 0
-75 -70 -62 85 0
-74 -16 75 -49 0
-74 -16 -75 49 0
-75 -10 75 -49 0
-75 -10 -75 49 0
-74 -16 71 -34 0
-74 -16 -71 34 0
-75 -10 71 -34 0
-75 -10 -71 34 0
-74 -16 62 -20 0
-74 -16 -62 20 0
-75 -10 62 -20 0
-75 -10 -62 20 0
-74 -58 75 -95 0
-74 -58 -75 95 0
-75 -57 75 -95 0
-75 -57 -75 95 0
-74 -58 71 -91 0
-74 -58 -71 91 0
-75 -57 71 -91 0
-75 -57 -71 91 0
-74 -58 18 -27 0
-74 -58 -18 27 0
-75 -57 18 -27 0
-75 -57 -18 27 0
-67 -73 71 -105 0
-67 -73 -71 105 0
-71 -79 71 -105 0
-71 -79 -71 105 0
-67 -73 18 -42 0
-67 -73 -18 42 0
-71 -79 18 -42 0
-71 -79 -18 42 0
-67 -73 62 -94 0
-67 -73 -62 94 0
-71 -79 62 -94 0
-71 -79 -62 94 0
-67 -66 75 -109 0
-67 -66 -75 109 0
-71 -70 75 -109 0
-71 -70 -75 109 0
-67 -66 18 -32 0
-67 -66 -18 32 0
-71 -70 18 -32 0
-71 -70 -18 32 0
-67 -66 62 -85 0
-67 -66 -62 85 0
-71 -70 62 -85 0
-71 -70 -62 85 0
-67 -16 75 -49 0
-67 -16 -75 49 0
-71 -10 75 -49 0
-71 -10 -75 49 0
-67 -16 71 -34 0
-67 -16 -71 34 0
-71 -10 71 -34 0
-71 -10 -71 34 0
-67 -16 62 -20 0
-67 -16 -62 20 0
-71 -10 62 -20 0
-71 -10 -62 20 0
-67 -58 75 -95 0
-67 -58 -75 95 0
-71 -57 75 -95 0
-71 -57 -75 95 0
-67 -58 71 -91 0
-67 -58 -71 91 0
-71 -57 71 -91 0
-71 -57 -71 91 0
-67 -58 18 -27 0
-67 -58 -18 27 0
-71 -57 18 -27 0
-71 -57 -18 27 0
-12 -73 71 -105 0
-12 -73 -71 105 0
-18 -79 71 -105 0
-18 -79 -71 105 0
-12 -73 18 -42 0
-12 -73 -18 42 0
-18 -79 18 -42 0
-18 -79 -18 42 0
-12 -73 62 -94 0
-12 -73 -62 94 0
-18 -79 62 -94 0
-18 -79 -62 94 0
-12 -66 75 -109 0
-12 -66 -75 109 0
-18 -70 75 -109 0
-18 -70 -75 109 0
-12 -66 18 -32 0
-12 -66 -18 32 0
-18 -70 18 -32 0
-18 -70 -18 32 0
-12 -66 62 -85 0
-12 -66 -62 85 0
-18 -70 62 -85 0
-18 -70 -62 85 0
-12 -16 75 -49 0
-12 -16 -75 49 0
-18 -10 75 -49 0
-18 -10 -75 49 0
-12 -16 71 -34 0
-12 -16 -71 34 0
-18 -10 71 -34 0
-18 -10 -71 34 0
-12 -16 62 -20 0
-12 -16 -62 20 0
-18 -10 62 -20 0
-18 -10 -62 20 0
-12 -58 75 -95 0
-12 -58 -75 95 0
-18 -57 75 -95 0
-18 -57 -75 95 0
-12 -58 71 -91 0
-12 -58 -71 91 0
-18 -57 71 -91 0
-18 -57 -71 91 0
-12 -58 18 -27 0
-12 -58 -18 27 0
-18 -57 18 -27 0
-18 -57 -18 27 0
-63 -73 71 -105 0
-63 -73 -71 105 0
-62 -79 71 -105 0
-62 -79 -71 105 0
-63 -73 18 -42 0
-63 -73 -18 42 0
-62 -79 18 -42 0
-62 -79 -18 42 0
-63 -73 62 -94 0
-63 -73 -62 94 0
-62 -79 62 -94 0
-62 -79 -62 94 0
-63 -66 75 -109 0
-63 -66 -75 109 0
-62 -70 75 -109 0
-62 -70 -75 109 0
-63 -66 18 -32 0
-63 -66 -18 32 0
-62 -70 18 -32 0
-62 -70 -18 32 0
-63 -66 62 -85 0
-63 -66 -62 85 0
-62 -70 62 -85 0
-62 -70 -62 85 0
-63 -16 75 -49 0
-63 -16 -75 49 0
-62 -10 75 -49 0
-62 -10 -75 49 0
-63 -16 71 -34 0
-63 -16 -71 34 0
-62 -10 71 -34 0
-62 -10 -71 34 0
-63 -16 62 -20 0
-63 -16 -62 20 0
-62 -10 62 -20 0
-62 -10 -62 20 0
-63 -58 75 -95 0
-63 -58 -75 95 0
-62 -57 75 -95 0
-62 -57 -75 95 0
-63 -58 71 -91 0
-63 -58 -71 91 0
-62 -57 71 -91 0
-62 -57 -71 91 0
-63 -58 18 -27 0
-63 -58 -18 27 0
-62 -57 18 -27 0
-62 -57 -18 27 0
-75 -71 -18 -62 -73 75 0
-74 -67 -12 -63 -79 74 0
-67 -73 74 0
-71 -79 75 0
-12 -73 74 0
-18 -79 75 0
-63 -73 74 0
-62 -79 75 0
-75 -71 -18 -62 -66 71 0
-74 -67 -12 -63 -70 67 0
-74 -66 67 0
-75 -70 71 0
-12 -66 67 0
-18 -70 71 0
-63 -66 67 0
-62 -70 71 0
-75 -71 -18 -62 -16 18 0
-74 -67 -12 -63 -10 12 0
-74 -16 12 0
-75 -10 18 0
-67 -16 12 0
-71 -10 18 0
-63 -16 12 0
-62 -10 18 0
-75 -71 -18 -62 -58 62 0
-74 -67 -12 -63 -57 63 0
-74 -58 63 0
-75 -57 62 0
-67 -58 63 0
-71 -57 62 0
-12 -58 63 0
-18 -57 62 0
