c p_row_PRED(c_b0,c_b0) LEQ(c_b0,c_b0) p_set_aux_96(c_b0) p_row_NEXT_TO(c_b0,c_b0) p_set_red(c_b0) PRED1(c_b0,c_b0) p_set_green(c_b0) PRED1(c_r0,c_b0) p_row_NEXT_TO(c_b0,c_r0) p_row_NEXT_TO(c_r0,c_b0) LEQ(c_b0,c_r0) p_row_PRED(c_b0,c_r0) p_set_aux_96(c_r0) LEQ(c_r0,c_b0) p_set_green(c_r0) p_row_PRED(c_r0,c_b0) p_set_red(c_r0) PRED1(c_b0,c_r0) LEQ(c_b0,c_g0) p_set_aux_96(c_g0) PRED1(c_g0,c_b0) p_set_red(c_g0) p_set_green(c_g0) p_row_PRED(c_g0,c_b0) p_row_NEXT_TO(c_g0,c_b0) p_row_PRED(c_b0,c_g0) p_row_NEXT_TO(c_b0,c_g0) LEQ(c_g0,c_b0) PRED1(c_b0,c_g0) PRED1(c_r1,c_b0) p_set_aux_96(c_r1) p_row_PRED(c_b0,c_r1) LEQ(c_b0,c_r1) p_row_NEXT_TO(c_r1,c_b0) p_set_red(c_r1) p_row_PRED(c_r1,c_b0) p_set_green(c_r1) LEQ(c_r1,c_b0) p_row_NEXT_TO(c_b0,c_r1) PRED1(c_b0,c_r1) p_row_NEXT_TO(c_b0,c_r2) p_set_red(c_r2) PRED1(c_b0,c_r2) p_row_NEXT_TO(c_r2,c_b0) p_row_PRED(c_b0,c_r2) LEQ(c_b0,c_r2) PRED1(c_r2,c_b0) p_set_aux_96(c_r2) p_set_green(c_r2) p_row_PRED(c_r2,c_b0) LEQ(c_r2,c_b0) p_set_aux_96(c_g1) p_row_PRED(c_b0,c_g1) p_row_NEXT_TO(c_b0,c_g1) LEQ(c_g1,c_b0) p_row_PRED(c_g1,c_b0) PRED1(c_b0,c_g1) LEQ(c_b0,c_g1) PRED1(c_g1,c_b0) p_row_NEXT_TO(c_g1,c_b0) p_set_red(c_g1) p_set_green(c_g1) LEQ(c_r0,c_r0) p_row_PRED(c_r0,c_r0) p_row_NEXT_TO(c_r0,c_r0) PRED1(c_r0,c_r0) p_row_PRED(c_r0,c_g0) p_row_NEXT_TO(c_g0,c_r0) PRED1(c_r0,c_g0) LEQ(c_r0,c_g0) PRED1(c_g0,c_r0) p_row_NEXT_TO(c_r0,c_g0) p_row_PRED(c_g0,c_r0) LEQ(c_g0,c_r0) p_row_PRED(c_r0,c_r1) LEQ(c_r0,c_r1) p_row_NEXT_TO(c_r1,c_r0) PRED1(c_r1,c_r0) p_row_PRED(c_r1,c_r0) PRED1(c_r0,c_r1) LEQ(c_r1,c_r0) p_row_NEXT_TO(c_r0,c_r1) LEQ(c_r2,c_r0) p_row_PRED(c_r0,c_r2) p_row_NEXT_TO(c_r0,c_r2) LEQ(c_r0,c_r2) PRED1(c_r2,c_r0) PRED1(c_r0,c_r2) p_row_NEXT_TO(c_r2,c_r0) p_row_PRED(c_r2,c_r0) p_row_NEXT_TO(c_r0,c_g1) p_row_NEXT_TO(c_g1,c_r0) p_row_PRED(c_r0,c_g1) LEQ(c_g1,c_r0) LEQ(c_r0,c_g1) PRED1(c_g1,c_r0) PRED1(c_r0,c_g1) p_row_PRED(c_g1,c_r0) p_row_NEXT_TO(c_g0,c_g0) PRED1(c_g0,c_g0) p_row_PRED(c_g0,c_g0) LEQ(c_g0,c_g0) p_row_NEXT_TO(c_g0,c_r1) LEQ(c_g0,c_r1) p_row_PRED(c_r1,c_g0) p_row_NEXT_TO(c_r1,c_g0) PRED1(c_g0,c_r1) p_row_PRED(c_g0,c_r1) PRED1(c_r1,c_g0) LEQ(c_r1,c_g0) p_row_PRED(c_r2,c_g0) LEQ(c_r2,c_g0) p_row_NEXT_TO(c_r2,c_g0) p_row_PRED(c_g0,c_r2) PRED1(c_r2,c_g0) LEQ(c_g0,c_r2) p_row_NEXT_TO(c_g0,c_r2) PRED1(c_g0,c_r2) LEQ(c_g1,c_g0) PRED1(c_g0,c_g1) p_row_PRED(c_g1,c_g0) p_row_NEXT_TO(c_g1,c_g0) p_row_PRED(c_g0,c_g1) LEQ(c_g0,c_g1) PRED1(c_g1,c_g0) p_row_NEXT_TO(c_g0,c_g1) p_row_NEXT_TO(c_r1,c_r1) PRED1(c_r1,c_r1) p_row_PRED(c_r1,c_r1) LEQ(c_r1,c_r1) LEQ(c_r1,c_r2) p_row_PRED(c_r2,c_r1) p_row_NEXT_TO(c_r2,c_r1) p_row_NEXT_TO(c_r1,c_r2) LEQ(c_r2,c_r1) PRED1(c_r2,c_r1) PRED1(c_r1,c_r2) p_row_PRED(c_r1,c_r2) p_row_PRED(c_r1,c_g1) p_row_NEXT_TO(c_r1,c_g1) p_row_NEXT_TO(c_g1,c_r1) PRED1(c_g1,c_r1) LEQ(c_r1,c_g1) p_row_PRED(c_g1,c_r1) LEQ(c_g1,c_r1) PRED1(c_r1,c_g1) p_row_NEXT_TO(c_r2,c_r2) p_row_PRED(c_r2,c_r2) LEQ(c_r2,c_r2) PRED1(c_r2,c_r2) PRED1(c_r2,c_g1) p_row_NEXT_TO(c_r2,c_g1) PRED1(c_g1,c_r2) p_row_PRED(c_g1,c_r2) p_row_NEXT_TO(c_g1,c_r2) p_row_PRED(c_r2,c_g1) LEQ(c_r2,c_g1) LEQ(c_g1,c_r2) PRED1(c_g1,c_g1) p_row_NEXT_TO(c_g1,c_g1) p_row_PRED(c_g1,c_g1) LEQ(c_g1,c_g1)
c 1 2 3 4 5 6 7 8 9 10 11 12 13 14 15 16 17 18 19 20 21 22 23 24 25 26 27 28 29 30 31 32 33 34 35 36 37 38 39 40 41 42 43 44 45 46 47 48 49 50 51 52 53 54 55 56 57 58 59 60 61 62 63 64 65 66 67 68 69 70 71 72 73 74 75 76 77 78 79 80 81 82 83 84 85 86 87 88 89 90 91 92 93 94 95 96 97 98 99 100 101 102 103 104 105 106 107 108 109 110 111 112 113 114 115 116 117 118 119 120 121 122 123 124 125 126 127 128 129 130 131 132 133 134 135 136 137 138 139 140 141 142 143 144 145 146 147 148 149 150 151 152 153 154 155 156 157 158 159 160 161 162
p cnf 162 828
6 -1 0
29 -26 0
57 -53 0
18 -12 0
40 -32 0
43 -45 0
21 -24 0
100 -101 0
120 -123 0
71 -73 0
107 -108 0
118 -114 0
59 -56 0
125 -121 0
159 -161 0
96 -98 0
142 -144 0
153 -154 0
8 -16 0
69 -67 0
97 -93 0
66 -64 0
80 -75 0
88 -84 0
30 -36 0
109 -105 0
146 -139 0
78 -79 0
128 -129 0
137 -138 0
47 -50 0
115 -111 0
151 -156 0
87 -90 0
136 -132 0
150 -148 0
4 -1 0
27 -26 0
27 -24 0
54 -53 0
54 -56 0
9 -12 0
9 -16 0
39 -32 0
39 -36 0
41 -45 0
41 -50 0
25 -26 0
25 -24 0
99 -101 0
126 -123 0
126 -121 0
68 -73 0
68 -67 0
103 -108 0
103 -105 0
117 -114 0
117 -111 0
60 -53 0
60 -56 0
122 -123 0
122 -121 0
160 -161 0
92 -98 0
92 -93 0
141 -144 0
141 -139 0
155 -154 0
155 -156 0
10 -12 0
10 -16 0
72 -73 0
72 -67 0
91 -98 0
91 -93 0
65 -64 0
82 -75 0
82 -79 0
85 -84 0
85 -90 0
34 -32 0
34 -36 0
106 -108 0
106 -105 0
140 -144 0
140 -139 0
77 -75 0
77 -79 0
127 -129 0
134 -138 0
134 -132 0
44 -45 0
44 -50 0
113 -114 0
113 -111 0
152 -154 0
152 -156 0
89 -84 0
89 -90 0
133 -138 0
133 -132 0
147 -148 0
1 -4 0
101 -99 0
161 -160 0
64 -65 0
129 -127 0
148 -147 0
3 -1 0
3 -26 0
3 -53 0
3 -12 0
3 -32 0
3 -45 0
3 -24 0
3 -56 0
3 -16 0
3 -36 0
3 -50 0
20 -26 0
20 -24 0
20 -101 0
20 -123 0
20 -73 0
20 -108 0
20 -114 0
20 -121 0
20 -67 0
20 -105 0
20 -111 0
52 -53 0
52 -123 0
52 -56 0
52 -121 0
52 -161 0
52 -98 0
52 -144 0
52 -154 0
52 -93 0
52 -139 0
52 -156 0
13 -12 0
13 -73 0
13 -98 0
13 -16 0
13 -67 0
13 -93 0
13 -64 0
13 -75 0
13 -84 0
13 -79 0
13 -90 0
31 -32 0
31 -108 0
31 -144 0
31 -75 0
31 -36 0
31 -105 0
31 -139 0
31 -79 0
31 -129 0
31 -138 0
31 -132 0
48 -45 0
48 -114 0
48 -154 0
48 -84 0
48 -138 0
48 -50 0
48 -111 0
48 -156 0
48 -90 0
48 -132 0
48 -148 0
2 3 -3 0
19 20 -3 0
58 52 -3 0
11 13 -3 0
33 31 -3 0
46 48 -3 0
28 3 -20 0
102 20 -20 0
124 52 -20 0
74 13 -20 0
104 31 -20 0
116 48 -20 0
55 3 -52 0
119 20 -52 0
162 52 -52 0
94 13 -52 0
145 31 -52 0
158 48 -52 0
14 3 -13 0
70 20 -13 0
95 52 -13 0
63 13 -13 0
76 31 -13 0
86 48 -13 0
38 3 -31 0
110 20 -31 0
143 52 -31 0
81 13 -31 0
130 31 -31 0
131 48 -31 0
51 3 -48 0
112 20 -48 0
157 52 -48 0
83 13 -48 0
135 31 -48 0
149 48 -48 0
26 24 -27 0
26 24 -25 0
53 56 -54 0
53 56 -60 0
12 16 -9 0
12 16 -10 0
32 36 -39 0
32 36 -34 0
45 50 -41 0
45 50 -44 0
123 121 -126 0
123 121 -122 0
73 67 -68 0
73 67 -72 0
108 105 -103 0
108 105 -106 0
114 111 -117 0
114 111 -113 0
98 93 -92 0
98 93 -91 0
144 139 -141 0
144 139 -140 0
154 156 -155 0
154 156 -152 0
75 79 -82 0
75 79 -77 0
84 90 -85 0
84 90 -89 0
138 132 -134 0
138 132 -133 0
1 -6 -3 0
101 -100 -20 0
161 -159 -52 0
64 -66 -13 0
129 -128 -31 0
148 -150 -48 0
-4 -7 -5 0
-27 -7 -22 0
-54 -7 -61 0
-9 -7 -17 0
-39 -7 -35 0
-41 -7 -42 0
-25 -23 -5 0
-99 -23 -22 0
-126 -23 -61 0
-68 -23 -17 0
-103 -23 -35 0
-117 -23 -42 0
-60 -62 -5 0
-122 -62 -22 0
-160 -62 -61 0
-92 -62 -17 0
-141 -62 -35 0
-155 -62 -42 0
-10 -15 -5 0
-72 -15 -22 0
-91 -15 -61 0
-65 -15 -17 0
-82 -15 -35 0
-85 -15 -42 0
-34 -37 -5 0
-106 -37 -22 0
-140 -37 -61 0
-77 -37 -17 0
-127 -37 -35 0
-134 -37 -42 0
-44 -49 -5 0
-113 -49 -22 0
-152 -49 -61 0
-89 -49 -17 0
-133 -49 -35 0
-147 -49 -42 0
26 -29 -3 -20 0
53 -57 -3 -52 0
12 -18 -3 -13 0
32 -40 -3 -31 0
45 -43 -3 -48 0
24 -21 -3 -20 0
123 -120 -20 -52 0
73 -71 -20 -13 0
108 -107 -20 -31 0
114 -118 -20 -48 0
56 -59 -3 -52 0
121 -125 -20 -52 0
98 -96 -52 -13 0
144 -142 -52 -31 0
154 -153 -52 -48 0
16 -8 -3 -13 0
67 -69 -20 -13 0
93 -97 -52 -13 0
75 -80 -13 -31 0
84 -88 -13 -48 0
36 -30 -3 -31 0
105 -109 -20 -31 0
139 -146 -52 -31 0
79 -78 -13 -31 0
138 -137 -31 -48 0
50 -47 -3 -48 0
111 -115 -20 -48 0
156 -151 -52 -48 0
90 -87 -13 -48 0
132 -136 -31 -48 0
-37 0
62 0
-61 0
31 0
52 0
42 0
-15 0
20 0
-5 0
35 0
23 0
3 0
13 0
-22 0
48 0
-49 0
17 0
-7 0
2 0
19 28 0
-19 -28 0
-19 -124 58 0
-19 -74 11 0
-19 -104 33 0
-19 -116 46 0
58 55 0
-58 -55 0
-58 -119 19 0
-58 -94 11 0
-58 -145 33 0
-58 -158 46 0
11 14 0
-11 -14 0
-11 -70 19 0
-11 -95 58 0
-11 -76 33 0
-11 -86 46 0
33 38 0
-33 -38 0
-33 -110 19 0
-33 -143 58 0
-33 -81 11 0
-33 -131 46 0
46 51 0
-46 -51 0
-46 -112 19 0
-46 -157 58 0
-46 -83 11 0
-46 -135 33 0
102 0
-28 -58 124 0
-28 -11 74 0
-28 -33 104 0
-28 -46 116 0
124 119 0
-124 -119 0
-124 -55 28 0
-124 -94 74 0
-124 -145 104 0
-124 -158 116 0
74 70 0
-74 -70 0
-74 -14 28 0
-74 -95 124 0
-74 -76 104 0
-74 -86 116 0
104 110 0
-104 -110 0
-104 -38 28 0
-104 -143 124 0
-104 -81 74 0
-104 -131 116 0
116 112 0
-116 -112 0
-116 -51 28 0
-116 -157 124 0
-116 -83 74 0
-116 -135 104 0
162 0
-55 -19 119 0
-55 -11 94 0
-55 -33 145 0
-55 -46 158 0
-119 -28 55 0
-119 -74 94 0
-119 -104 145 0
-119 -116 158 0
94 95 0
-94 -95 0
-94 -14 55 0
-94 -70 119 0
-94 -76 145 0
-94 -86 158 0
145 143 0
-145 -143 0
-145 -38 55 0
-145 -110 119 0
-145 -81 94 0
-145 -131 158 0
158 157 0
-158 -157 0
-158 -51 55 0
-158 -112 119 0
-158 -83 94 0
-158 -135 145 0
63 0
-14 -19 70 0
-14 -58 95 0
-14 -33 76 0
-14 -46 86 0
-70 -28 14 0
-70 -124 95 0
-70 -104 76 0
-70 -116 86 0
-95 -55 14 0
-95 -119 70 0
-95 -145 76 0
-95 -158 86 0
76 81 0
-76 -81 0
-76 -38 14 0
-76 -110 70 0
-76 -143 95 0
-76 -131 86 0
86 83 0
-86 -83 0
-86 -51 14 0
-86 -112 70 0
-86 -157 95 0
-86 -135 76 0
130 0
-38 -19 110 0
-38 -58 143 0
-38 -11 81 0
-38 -46 131 0
-110 -28 38 0
-110 -124 143 0
-110 -74 81 0
-110 -116 131 0
-143 -55 38 0
-143 -119 110 0
-143 -94 81 0
-143 -158 131 0
-81 -14 38 0
-81 -70 110 0
-81 -95 143 0
-81 -86 131 0
131 135 0
-131 -135 0
-131 -51 38 0
-131 -112 110 0
-131 -157 143 0
-131 -83 81 0
149 0
-51 -19 112 0
-51 -58 157 0
-51 -11 83 0
-51 -33 135 0
-112 -28 51 0
-112 -124 157 0
-112 -74 83 0
-112 -104 135 0
-157 -55 51 0
-157 -119 112 0
-157 -94 83 0
-157 -145 135 0
-83 -14 51 0
-83 -70 112 0
-83 -95 157 0
-83 -76 135 0
-135 -38 51 0
-135 -110 112 0
-135 -143 157 0
-135 -81 83 0
-6 0
-6 2 0
-29 19 0
-57 58 0
-18 11 0
-40 33 0
-43 46 0
6 21 59 8 30 47 -28 0
6 21 59 8 30 47 -55 0
6 21 59 8 30 47 -14 0
6 21 59 8 30 47 -38 0
6 21 59 8 30 47 -51 0
6 29 57 18 40 43 -19 0
6 29 57 18 40 43 -58 0
6 29 57 18 40 43 -11 0
6 29 57 18 40 43 -33 0
6 29 57 18 40 43 -46 0
-29 58 -124 0
-29 -58 124 0
-29 11 -74 0
-29 -11 74 0
-29 33 -104 0
-29 -33 104 0
-29 46 -116 0
-29 -46 116 0
-57 19 -119 0
-57 -19 119 0
-57 11 -94 0
-57 -11 94 0
-57 33 -145 0
-57 -33 145 0
-57 46 -158 0
-57 -46 158 0
-18 19 -70 0
-18 -19 70 0
-18 58 -95 0
-18 -58 95 0
-18 33 -76 0
-18 -33 76 0
-18 46 -86 0
-18 -46 86 0
-40 19 -110 0
-40 -19 110 0
-40 58 -143 0
-40 -58 143 0
-40 11 -81 0
-40 -11 81 0
-40 46 -131 0
-40 -46 131 0
-43 19 -112 0
-43 -19 112 0
-43 58 -157 0
-43 -58 157 0
-43 11 -83 0
-43 -11 83 0
-43 33 -135 0
-43 -33 135 0
-100 0
-21 28 0
-100 102 0
-120 124 0
-71 74 0
-107 104 0
-118 116 0
29 100 125 69 109 115 -19 0
29 100 125 69 109 115 -119 0
29 100 125 69 109 115 -70 0
29 100 125 69 109 115 -110 0
29 100 125 69 109 115 -112 0
21 100 120 71 107 118 -28 0
21 100 120 71 107 118 -124 0
21 100 120 71 107 118 -74 0
21 100 120 71 107 118 -104 0
21 100 120 71 107 118 -116 0
-21 124 -58 0
-21 -124 58 0
-21 74 -11 0
-21 -74 11 0
-21 104 -33 0
-21 -104 33 0
-21 116 -46 0
-21 -116 46 0
-120 28 -55 0
-120 -28 55 0
-120 74 -94 0
-120 -74 94 0
-120 104 -145 0
-120 -104 145 0
-120 116 -158 0
-120 -116 158 0
-71 28 -14 0
-71 -28 14 0
-71 124 -95 0
-71 -124 95 0
-71 104 -76 0
-71 -104 76 0
-71 116 -86 0
-71 -116 86 0
-107 28 -38 0
-107 -28 38 0
-107 124 -143 0
-107 -124 143 0
-107 74 -81 0
-107 -74 81 0
-107 116 -131 0
-107 -116 131 0
-118 28 -51 0
-118 -28 51 0
-118 124 -157 0
-118 -124 157 0
-118 74 -83 0
-118 -74 83 0
-118 104 -135 0
-118 -104 135 0
-159 0
-59 55 0
-125 119 0
-159 162 0
-96 94 0
-142 145 0
-153 158 0
57 120 159 97 146 151 -58 0
57 120 159 97 146 151 -124 0
57 120 159 97 146 151 -95 0
57 120 159 97 146 151 -143 0
57 120 159 97 146 151 -157 0
59 125 159 96 142 153 -55 0
59 125 159 96 142 153 -119 0
59 125 159 96 142 153 -94 0
59 125 159 96 142 153 -145 0
59 125 159 96 142 153 -158 0
-59 119 -19 0
-59 -119 19 0
-59 94 -11 0
-59 -94 11 0
-59 145 -33 0
-59 -145 33 0
-59 158 -46 0
-59 -158 46 0
-125 55 -28 0
-125 -55 28 0
-125 94 -74 0
-125 -94 74 0
-125 145 -104 0
-125 -145 104 0
-125 158 -116 0
-125 -158 116 0
-96 55 -14 0
-96 -55 14 0
-96 119 -70 0
-96 -119 70 0
-96 145 -76 0
-96 -145 76 0
-96 158 -86 0
-96 -158 86 0
-142 55 -38 0
-142 -55 38 0
-142 119 -110 0
-142 -119 110 0
-142 94 -81 0
-142 -94 81 0
-142 158 -131 0
-142 -158 131 0
-153 55 -51 0
-153 -55 51 0
-153 119 -112 0
-153 -119 112 0
-153 94 -83 0
-153 -94 83 0
-153 145 -135 0
-153 -145 135 0
-66 0
-8 14 0
-69 70 0
-97 95 0
-66 63 0
-80 76 0
-88 86 0
18 71 96 66 78 87 -11 0
18 71 96 66 78 87 -74 0
18 71 96 66 78 87 -94 0
18 71 96 66 78 87 -81 0
18 71 96 66 78 87 -83 0
8 69 97 66 80 88 -14 0
8 69 97 66 80 88 -70 0
8 69 97 66 80 88 -95 0
8 69 97 66 80 88 -76 0
8 69 97 66 80 88 -86 0
-8 70 -19 0
-8 -70 19 0
-8 95 -58 0
-8 -95 58 0
-8 76 -33 0
-8 -76 33 0
-8 86 -46 0
-8 -86 46 0
-69 14 -28 0
-69 -14 28 0
-69 95 -124 0
-69 -95 124 0
-69 76 -104 0
-69 -76 104 0
-69 86 -116 0
-69 -86 116 0
-97 14 -55 0
-97 -14 55 0
-97 70 -119 0
-97 -70 119 0
-97 76 -145 0
-97 -76 145 0
-97 86 -158 0
-97 -86 158 0
-80 14 -38 0
-80 -14 38 0
-80 70 -110 0
-80 -70 110 0
-80 95 -143 0
-80 -95 143 0
-80 86 -131 0
-80 -86 131 0
-88 14 -51 0
-88 -14 51 0
-88 70 -112 0
-88 -70 112 0
-88 95 -157 0
-88 -95 157 0
-88 76 -135 0
-88 -76 135 0
-128 0
-30 38 0
-109 110 0
-146 143 0
-78 81 0
-128 130 0
-137 131 0
40 107 142 80 128 136 -33 0
40 107 142 80 128 136 -104 0
40 107 142 80 128 136 -145 0
40 107 142 80 128 136 -76 0
40 107 142 80 128 136 -135 0
30 109 146 78 128 137 -38 0
30 109 146 78 128 137 -110 0
30 109 146 78 128 137 -143 0
30 109 146 78 128 137 -81 0
30 109 146 78 128 137 -131 0
-30 110 -19 0
-30 -110 19 0
-30 143 -58 0
-30 -143 58 0
-30 81 -11 0
-30 -81 11 0
-30 131 -46 0
-30 -131 46 0
-109 38 -28 0
-109 -38 28 0
-109 143 -124 0
-109 -143 124 0
-109 81 -74 0
-109 -81 74 0
-109 131 -116 0
-109 -131 116 0
-146 38 -55 0
-146 -38 55 0
-146 110 -119 0
-146 -110 119 0
-146 81 -94 0
-146 -81 94 0
-146 131 -158 0
-146 -131 158 0
-78 38 -14 0
-78 -38 14 0
-78 110 -70 0
-78 -110 70 0
-78 143 -95 0
-78 -143 95 0
-78 131 -86 0
-78 -131 86 0
-137 38 -51 0
-137 -38 51 0
-137 110 -112 0
-137 -110 112 0
-137 143 -157 0
-137 -143 157 0
-137 81 -83 0
-137 -81 83 0
-150 0
-47 51 0
-115 112 0
-151 157 0
-87 83 0
-136 135 0
-150 149 0
43 118 153 88 137 150 -46 0
43 118 153 88 137 150 -116 0
43 118 153 88 137 150 -158 0
43 118 153 88 137 150 -86 0
43 118 153 88 137 150 -131 0
47 115 151 87 136 150 -51 0
47 115 151 87 136 150 -112 0
47 115 151 87 136 150 -157 0
47 115 151 87 136 150 -83 0
47 115 151 87 136 150 -135 0
-47 112 -19 0
-47 -112 19 0
-47 157 -58 0
-47 -157 58 0
-47 83 -11 0
-47 -83 11 0
-47 135 -33 0
-47 -135 33 0
-115 51 -28 0
-115 -51 28 0
-115 157 -124 0
-115 -157 124 0
-115 83 -74 0
-115 -83 74 0
-115 135 -104 0
-115 -135 104 0
-151 51 -55 0
-151 -51 55 0
-151 112 -119 0
-151 -112 119 0
-151 83 -94 0
-151 -83 94 0
-151 135 -145 0
-151 -135 145 0
-87 51 -14 0
-87 -51 14 0
-87 112 -70 0
-87 -112 70 0
-87 157 -95 0
-87 -157 95 0
-87 135 -76 0
-87 -135 76 0
-136 51 -38 0
-136 -51 38 0
-136 112 -110 0
-136 -112 110 0
-136 157 -143 0
-136 -157 143 0
-136 83 -81 0
-136 -83 81 0
