c LEQ(c_other0,c_other0) p_entity_Jones(c_other0) p_schedule_LEQ(c_other0,c_other0) p_entity_Smith(c_other0) p_set_lecturers(c_other0) p_schedule_LEQ(c_other2,c_other0) p_entity_Smith(c_other2) p_schedule_LEQ(c_other0,c_other2) p_set_lecturers(c_other2) LEQ(c_other2,c_other0) p_entity_Jones(c_other2) LEQ(c_other0,c_other2) p_set_lecturers(c_other1) LEQ(c_other1,c_other0) p_entity_Jones(c_other1) LEQ(c_other0,c_other1) p_entity_Smith(c_other1) p_schedule_LEQ(c_other1,c_other0) p_schedule_LEQ(c_other0,c_other1) p_set_lecturers(c_Smith) p_schedule_LEQ(c_Smith,c_other0) LEQ(c_other0,c_Smith) p_entity_Smith(c_Smith) p_entity_Jones(c_Smith) p_schedule_LEQ(c_other0,c_Smith) LEQ(c_Smith,c_other0) p_entity_Smith(c_Jones) p_set_lecturers(c_Jones) p_schedule_LEQ(c_other0,c_Jones) LEQ(c_other0,c_Jones) p_entity_Jones(c_Jones) LEQ(c_Jones,c_other0) p_schedule_LEQ(c_Jones,c_other0) p_entity_Smith(c_other3) p_schedule_LEQ(c_other0,c_other3) p_set_lecturers(c_other3) p_schedule_LEQ(c_other3,c_other0) LEQ(c_other0,c_other3) LEQ(c_other3,c_other0) p_entity_Jones(c_other3) p_schedule_LEQ(c_other2,c_other2) LEQ(c_other2,c_other2) p_schedule_LEQ(c_other2,c_other1) p_schedule_LEQ(c_other1,c_other2) LEQ(c_other2,c_other1) LEQ(c_other1,c_other2) LEQ(c_other2,c_Smith) p_schedule_LEQ(c_Smith,c_other2) p_schedule_LEQ(c_other2,c_Smith) LEQ(c_Smith,c_other2) LEQ(c_Jones,c_other2) LEQ(c_other2,c_Jones) p_schedule_LEQ(c_other2,c_Jones) p_schedule_LEQ(c_Jones,c_other2) p_schedule_LEQ(c_other2,c_other3) LEQ(c_other3,c_other2) LEQ(c_other2,c_other3) p_schedule_LEQ(c_other3,c_other2) LEQ(c_other1,c_other1) p_schedule_LEQ(c_other1,c_other1) LEQ(c_Smith,c_other1) p_schedule_LEQ(c_other1,c_Smith) LEQ(c_other1,c_Smith) p_schedule_LEQ(c_Smith,c_other1) LEQ(c_other1,c_Jones) p_schedule_LEQ(c_Jones,c_other1) p_schedule_LEQ(c_other1,c_Jones) LEQ(c_Jones,c_other1) LEQ(c_other3,c_other1) LEQ(c_other1,c_other3) p_schedule_LEQ(c_other3,c_other1) p_schedule_LEQ(c_other1,c_other3) LEQ(c_Smith,c_Smith) p_schedule_LEQ(c_Smith,c_Smith) p_schedule_LEQ(c_Jones,c_Smith) p_schedule_LEQ(c_Smith,c_Jones) LEQ(c_Smith,c_Jones) LEQ(c_Jones,c_Smith) LEQ(c_Smith,c_other3) LEQ(c_other3,c_Smith) p_schedule_LEQ(c_Smith,c_other3) p_schedule_LEQ(c_other3,c_Smith) p_schedule_LEQ(c_Jones,c_Jones) LEQ(c_Jones,c_Jones) LEQ(c_Jones,c_other3) p_schedule_LEQ(c_other3,c_Jones) p_schedule_LEQ(c_Jones,c_other3) LEQ(c_other3,c_Jones) p_schedule_LEQ(c_other3,c_other3) LEQ(c_other3,c_other3)
c 1 2 3 4 5 6 7 8 9 10 11 12 13 14 15 16 17 18 19 20 21 22 23 24 25 26 27 28 29 30 31 32 33 34 35 36 37 38 39 40 41 42 43 44 45 46 47 48 49 50 51 52 53 54 55 56 57 58 59 60 61 62 63 64 65 66 67 68 69 70 71 72 73 74 75 76 77 78 79 80 81 82 83 84 85 86 87 88 89 90
p cnf 90 384
84 -83 0
78 -75 0
32 -33 0
68 -66 0
51 -54 0
85 -87 0
77 -76 0
73 -74 0
26 -21 0
61 -64 0
50 -48 0
79 -81 0
30 -29 0
22 -25 0
1 -3 0
16 -19 0
12 -8 0
38 -35 0
65 -67 0
63 -62 0
14 -18 0
59 -60 0
46 -44 0
70 -72 0
52 -53 0
47 -49 0
10 -6 0
45 -43 0
42 -41 0
57 -55 0
88 -86 0
80 -82 0
39 -37 0
69 -71 0
56 -58 0
90 -89 0
28 -83 0
28 -75 0
28 -33 0
28 -66 0
28 -54 0
28 -87 0
28 -76 0
28 -29 0
28 -67 0
28 -53 0
28 -86 0
20 -75 0
20 -76 0
20 -74 0
20 -21 0
20 -64 0
20 -48 0
20 -81 0
20 -25 0
20 -62 0
20 -49 0
20 -82 0
5 -33 0
5 -21 0
5 -29 0
5 -25 0
5 -3 0
5 -19 0
5 -8 0
5 -35 0
5 -18 0
5 -6 0
5 -37 0
13 -66 0
13 -64 0
13 -19 0
13 -67 0
13 -62 0
13 -18 0
13 -60 0
13 -44 0
13 -72 0
13 -43 0
13 -71 0
9 -54 0
9 -48 0
9 -8 0
9 -44 0
9 -53 0
9 -49 0
9 -6 0
9 -43 0
9 -41 0
9 -55 0
9 -58 0
36 -87 0
36 -81 0
36 -35 0
36 -72 0
36 -55 0
36 -86 0
36 -82 0
36 -37 0
36 -71 0
36 -58 0
36 -89 0
84 28 -28 0
78 20 -28 0
32 5 -28 0
68 13 -28 0
51 9 -28 0
85 36 -28 0
77 28 -20 0
73 20 -20 0
26 5 -20 0
61 13 -20 0
50 9 -20 0
79 36 -20 0
30 28 -5 0
22 20 -5 0
1 5 -5 0
16 13 -5 0
12 9 -5 0
38 36 -5 0
65 28 -13 0
63 20 -13 0
14 5 -13 0
59 13 -13 0
46 9 -13 0
70 36 -13 0
52 28 -9 0
47 20 -9 0
10 5 -9 0
45 13 -9 0
42 9 -9 0
57 36 -9 0
88 28 -36 0
80 20 -36 0
39 5 -36 0
69 13 -36 0
56 9 -36 0
90 36 -36 0
83 -84 -28 0
83 -31 -27 0
75 -31 -23 0
33 -31 -4 0
66 -31 -17 0
54 -31 -7 0
87 -31 -34 0
76 -24 -27 0
74 -73 -20 0
74 -24 -23 0
21 -24 -4 0
64 -24 -17 0
48 -24 -7 0
81 -24 -34 0
29 -2 -27 0
25 -2 -23 0
3 -1 -5 0
3 -2 -4 0
19 -2 -17 0
8 -2 -7 0
35 -2 -34 0
67 -15 -27 0
62 -15 -23 0
18 -15 -4 0
60 -59 -13 0
60 -15 -17 0
44 -15 -7 0
72 -15 -34 0
53 -11 -27 0
49 -11 -23 0
6 -11 -4 0
43 -11 -17 0
41 -42 -9 0
41 -11 -7 0
55 -11 -34 0
86 -40 -27 0
82 -40 -23 0
37 -40 -4 0
71 -40 -17 0
58 -40 -7 0
89 -90 -36 0
89 -40 -34 0
75 -78 -28 -20 0
33 -32 -28 -5 0
66 -68 -28 -13 0
54 -51 -28 -9 0
87 -85 -28 -36 0
76 -77 -28 -20 0
21 -26 -20 -5 0
64 -61 -20 -13 0
48 -50 -20 -9 0
81 -79 -20 -36 0
29 -30 -28 -5 0
25 -22 -20 -5 0
19 -16 -5 -13 0
8 -12 -5 -9 0
35 -38 -5 -36 0
67 -65 -28 -13 0
62 -63 -20 -13 0
18 -14 -5 -13 0
44 -46 -13 -9 0
72 -70 -13 -36 0
53 -52 -28 -9 0
49 -47 -20 -9 0
6 -10 -5 -9 0
43 -45 -13 -9 0
55 -57 -9 -36 0
86 -88 -28 -36 0
82 -80 -20 -36 0
37 -39 -5 -36 0
71 -69 -13 -36 0
58 -56 -9 -36 0
20 0
-17 0
13 0
-4 0
28 0
-24 0
-27 0
-7 0
-11 0
36 0
31 0
9 0
-34 0
23 0
-40 0
-15 0
5 0
-2 0
84 0
78 77 0
-78 -77 0
-78 -26 32 0
-78 -61 68 0
-78 -50 51 0
-78 -79 85 0
32 30 0
-32 -30 0
-32 -22 78 0
-32 -16 68 0
-32 -12 51 0
-32 -38 85 0
68 65 0
-68 -65 0
-68 -63 78 0
-68 -14 32 0
-68 -46 51 0
-68 -70 85 0
51 52 0
-51 -52 0
-51 -47 78 0
-51 -10 32 0
-51 -45 68 0
-51 -57 85 0
85 88 0
-85 -88 0
-85 -80 78 0
-85 -39 32 0
-85 -69 68 0
-85 -56 51 0
73 0
-77 -32 26 0
-77 -68 61 0
-77 -51 50 0
-77 -85 79 0
26 22 0
-26 -22 0
-26 -30 77 0
-26 -16 61 0
-26 -12 50 0
-26 -38 79 0
61 63 0
-61 -63 0
-61 -65 77 0
-61 -14 26 0
-61 -46 50 0
-61 -70 79 0
50 47 0
-50 -47 0
-50 -52 77 0
-50 -10 26 0
-50 -45 61 0
-50 -57 79 0
79 80 0
-79 -80 0
-79 -88 77 0
-79 -39 26 0
-79 -69 61 0
-79 -56 50 0
1 0
-30 -78 22 0
-30 -68 16 0
-30 -51 12 0
-30 -85 38 0
-22 -77 30 0
-22 -61 16 0
-22 -50 12 0
-22 -79 38 0
16 14 0
-16 -14 0
-16 -65 30 0
-16 -63 22 0
-16 -46 12 0
-16 -70 38 0
12 10 0
-12 -10 0
-12 -52 30 0
-12 -47 22 0
-12 -45 16 0
-12 -57 38 0
38 39 0
-38 -39 0
-38 -88 30 0
-38 -80 22 0
-38 -69 16 0
-38 -56 12 0
59 0
-65 -78 63 0
-65 -32 14 0
-65 -51 46 0
-65 -85 70 0
-63 -77 65 0
-63 -26 14 0
-63 -50 46 0
-63 -79 70 0
-14 -30 65 0
-14 -22 63 0
-14 -12 46 0
-14 -38 70 0
46 45 0
-46 -45 0
-46 -52 65 0
-46 -47 63 0
-46 -10 14 0
-46 -57 70 0
70 69 0
-70 -69 0
-70 -88 65 0
-70 -80 63 0
-70 -39 14 0
-70 -56 46 0
42 0
-52 -78 47 0
-52 -32 10 0
-52 -68 45 0
-52 -85 57 0
-47 -77 52 0
-47 -26 10 0
-47 -61 45 0
-47 -79 57 0
-10 -30 52 0
-10 -22 47 0
-10 -16 45 0
-10 -38 57 0
-45 -65 52 0
-45 -63 47 0
-45 -14 10 0
-45 -70 57 0
57 56 0
-57 -56 0
-57 -88 52 0
-57 -80 47 0
-57 -39 10 0
-57 -69 45 0
90 0
-88 -78 80 0
-88 -32 39 0
-88 -68 69 0
-88 -51 56 0
-80 -77 88 0
-80 -26 39 0
-80 -61 69 0
-80 -50 56 0
-39 -30 88 0
-39 -22 80 0
-39 -16 69 0
-39 -12 56 0
-69 -65 88 0
-69 -63 80 0
-69 -14 39 0
-69 -46 56 0
-56 -52 88 0
-56 -47 80 0
-56 -10 39 0
-56 -45 69 0
