p cnf 320 988
1 2 3 4 0
5 6 7 8 0
9 10 11 12 0
13 14 15 16 0
-1 -1 -17 0
-5 -2 -18 0
-9 -3 -19 0
-13 -4 -20 0
-2 -5 -21 0
-6 -6 -22 0
-10 -7 -23 0
-14 -8 -24 0
-3 -9 -25 0
-7 -10 -26 0
-11 -11 -27 0
-15 -12 -28 0
-4 -13 -29 0
-8 -14 -30 0
-12 -15 -31 0
-16 -16 -32 0
17 1 0
18 5 0
19 9 0
20 13 0
21 2 0
22 6 0
23 10 0
24 14 0
25 3 0
26 7 0
27 11 0
28 15 0
29 4 0
30 8 0
31 12 0
32 16 0
17 1 0
18 2 0
19 3 0
20 4 0
21 5 0
22 6 0
23 7 0
24 8 0
25 9 0
26 10 0
27 11 0
28 12 0
29 13 0
30 14 0
31 15 0
32 16 0
33 34 -1 -35 0
36 37 -5 -38 0
39 40 -9 -41 0
42 43 -13 -44 0
45 46 -2 -47 0
48 49 -6 -50 0
51 52 -10 -53 0
54 55 -14 -56 0
57 58 -3 -59 0
60 61 -7 -62 0
63 64 -11 -65 0
66 67 -15 -68 0
69 70 -4 -71 0
72 73 -8 -74 0
75 76 -12 -77 0
78 79 -16 -80 0
35 -33 0
38 -36 0
41 -39 0
44 -42 0
47 -45 0
50 -48 0
53 -51 0
56 -54 0
59 -57 0
62 -60 0
65 -63 0
68 -66 0
71 -69 0
74 -72 0
77 -75 0
80 -78 0
35 -34 0
38 -37 0
41 -40 0
44 -43 0
47 -46 0
50 -49 0
53 -52 0
56 -55 0
59 -58 0
62 -61 0
65 -64 0
68 -67 0
71 -70 0
74 -73 0
77 -76 0
80 -79 0
35 1 0
38 5 0
41 9 0
44 13 0
47 2 0
50 6 0
53 10 0
56 14 0
59 3 0
62 7 0
65 11 0
68 15 0
71 4 0
74 8 0
77 12 0
80 16 0
1 1 -81 -82 0
5 2 -83 -84 0
9 3 -85 -86 0
13 4 -87 -88 0
2 5 -89 -90 0
6 6 -91 -92 0
10 7 -93 -94 0
14 8 -95 -96 0
3 9 -97 -98 0
7 10 -99 -100 0
11 11 -101 -102 0
15 12 -103 -104 0
4 13 -105 -106 0
8 14 -107 -108 0
12 15 -109 -110 0
16 16 -111 -112 0
82 -1 0
84 -5 0
86 -9 0
88 -13 0
90 -2 0
92 -6 0
94 -10 0
96 -14 0
98 -3 0
100 -7 0
102 -11 0
104 -15 0
106 -4 0
108 -8 0
110 -12 0
112 -16 0
82 -1 0
84 -2 0
86 -3 0
88 -4 0
90 -5 0
92 -6 0
94 -7 0
96 -8 0
98 -9 0
100 -10 0
102 -11 0
104 -12 0
106 -13 0
108 -14 0
110 -15 0
112 -16 0
82 81 0
84 83 0
86 85 0
88 87 0
90 89 0
92 91 0
94 93 0
96 95 0
98 97 0
100 99 0
102 101 0
104 103 0
106 105 0
108 107 0
110 109 0
112 111 0
-34 -1 113 0
-37 -5 114 0
-40 -9 115 0
-43 -13 116 0
-46 -2 117 0
-49 -6 118 0
-52 -10 119 0
-55 -14 120 0
-58 -3 121 0
-61 -7 122 0
-64 -11 123 0
-67 -15 124 0
-70 -4 125 0
-73 -8 126 0
-76 -12 127 0
-79 -16 128 0
-113 34 0
-114 37 0
-115 40 0
-116 43 0
-117 46 0
-118 49 0
-119 52 0
-120 55 0
-121 58 0
-122 61 0
-123 64 0
-124 67 0
-125 70 0
-126 73 0
-127 76 0
-128 79 0
-113 1 0
-114 5 0
-115 9 0
-116 13 0
-117 2 0
-118 6 0
-119 10 0
-120 14 0
-121 3 0
-122 7 0
-123 11 0
-124 15 0
-125 4 0
-126 8 0
-127 12 0
-128 16 0
-129 113 -130 0
-131 114 -132 0
-133 115 -134 0
-135 116 -136 0
-137 117 -138 0
-139 118 -140 0
-141 119 -142 0
-143 120 -144 0
-145 121 -146 0
-147 122 -148 0
-149 123 -150 0
-151 124 -152 0
-153 125 -154 0
-155 126 -156 0
-157 127 -158 0
-159 128 -160 0
130 129 0
132 131 0
134 133 0
136 135 0
138 137 0
140 139 0
142 141 0
144 143 0
146 145 0
148 147 0
150 149 0
152 151 0
154 153 0
156 155 0
158 157 0
160 159 0
130 -113 0
132 -114 0
134 -115 0
136 -116 0
138 -117 0
140 -118 0
142 -119 0
144 -120 0
146 -121 0
148 -122 0
150 -123 0
152 -124 0
154 -125 0
156 -126 0
158 -127 0
160 -128 0
129 -34 -1 -161 0
131 -37 -5 -162 0
133 -40 -9 -163 0
135 -43 -13 -164 0
137 -46 -2 -165 0
139 -49 -6 -166 0
141 -52 -10 -167 0
143 -55 -14 -168 0
145 -58 -3 -169 0
147 -61 -7 -170 0
149 -64 -11 -171 0
151 -67 -15 -172 0
153 -70 -4 -173 0
155 -73 -8 -174 0
157 -76 -12 -175 0
159 -79 -16 -176 0
161 -129 0
162 -131 0
163 -133 0
164 -135 0
165 -137 0
166 -139 0
167 -141 0
168 -143 0
169 -145 0
170 -147 0
171 -149 0
172 -151 0
173 -153 0
174 -155 0
175 -157 0
176 -159 0
161 34 0
162 37 0
163 40 0
164 43 0
165 46 0
166 49 0
167 52 0
168 55 0
169 58 0
170 61 0
171 64 0
172 67 0
173 70 0
174 73 0
175 76 0
176 79 0
161 1 0
162 5 0
163 9 0
164 13 0
165 2 0
166 6 0
167 10 0
168 14 0
169 3 0
170 7 0
171 11 0
172 15 0
173 4 0
174 8 0
175 12 0
176 16 0
1 1 177 0
5 2 178 0
9 3 179 0
13 4 180 0
2 5 181 0
6 6 182 0
10 7 183 0
14 8 184 0
3 9 185 0
7 10 186 0
11 11 187 0
15 12 188 0
4 13 189 0
8 14 190 0
12 15 191 0
16 16 192 0
-177 -1 0
-178 -5 0
-179 -9 0
-180 -13 0
-181 -2 0
-182 -6 0
-183 -10 0
-184 -14 0
-185 -3 0
-186 -7 0
-187 -11 0
-188 -15 0
-189 -4 0
-190 -8 0
-191 -12 0
-192 -16 0
-177 -1 0
-178 -2 0
-179 -3 0
-180 -4 0
-181 -5 0
-182 -6 0
-183 -7 0
-184 -8 0
-185 -9 0
-186 -10 0
-187 -11 0
-188 -12 0
-189 -13 0
-190 -14 0
-191 -15 0
-192 -16 0
81 177 -193 0
83 178 -194 0
85 179 -195 0
87 180 -196 0
89 181 -197 0
91 182 -198 0
93 183 -199 0
95 184 -200 0
97 185 -201 0
99 186 -202 0
101 187 -203 0
103 188 -204 0
105 189 -205 0
107 190 -206 0
109 191 -207 0
111 192 -208 0
193 -81 0
194 -83 0
195 -85 0
196 -87 0
197 -89 0
198 -91 0
199 -93 0
200 -95 0
201 -97 0
202 -99 0
203 -101 0
204 -103 0
205 -105 0
206 -107 0
207 -109 0
208 -111 0
193 -177 0
194 -178 0
195 -179 0
196 -180 0
197 -181 0
198 -182 0
199 -183 0
200 -184 0
201 -185 0
202 -186 0
203 -187 0
204 -188 0
205 -189 0
206 -190 0
207 -191 0
208 -192 0
-1 34 209 0
-5 37 210 0
-9 40 211 0
-13 43 212 0
-2 46 213 0
-6 49 214 0
-10 52 215 0
-14 55 216 0
-3 58 217 0
-7 61 218 0
-11 64 219 0
-15 67 220 0
-4 70 221 0
-8 73 222 0
-12 76 223 0
-16 79 224 0
-209 1 0
-210 5 0
-211 9 0
-212 13 0
-213 2 0
-214 6 0
-215 10 0
-216 14 0
-217 3 0
-218 7 0
-219 11 0
-220 15 0
-221 4 0
-222 8 0
-223 12 0
-224 16 0
-209 -34 0
-210 -37 0
-211 -40 0
-212 -43 0
-213 -46 0
-214 -49 0
-215 -52 0
-216 -55 0
-217 -58 0
-218 -61 0
-219 -64 0
-220 -67 0
-221 -70 0
-222 -73 0
-223 -76 0
-224 -79 0
-33 209 -225 0
-36 210 -226 0
-39 211 -227 0
-42 212 -228 0
-45 213 -229 0
-48 214 -230 0
-51 215 -231 0
-54 216 -232 0
-57 217 -233 0
-60 218 -234 0
-63 219 -235 0
-66 220 -236 0
-69 221 -237 0
-72 222 -238 0
-75 223 -239 0
-78 224 -240 0
225 33 0
226 36 0
227 39 0
228 42 0
229 45 0
230 48 0
231 51 0
232 54 0
233 57 0
234 60 0
235 63 0
236 66 0
237 69 0
238 72 0
239 75 0
240 78 0
225 -209 0
226 -210 0
227 -211 0
228 -212 0
229 -213 0
230 -214 0
231 -215 0
232 -216 0
233 -217 0
234 -218 0
235 -219 0
236 -220 0
237 -221 0
238 -222 0
239 -223 0
240 -224 0
1 -17 -35 -82 -130 -161 -193 -225 241 0
6 -18 -38 -84 -132 -162 -194 -226 242 0
11 -19 -41 -86 -134 -163 -195 -227 243 0
16 -20 -44 -88 -136 -164 -196 -228 244 0
1 -21 -47 -90 -138 -165 -197 -229 245 0
6 -22 -50 -92 -140 -166 -198 -230 246 0
11 -23 -53 -94 -142 -167 -199 -231 247 0
16 -24 -56 -96 -144 -168 -200 -232 248 0
1 -25 -59 -98 -146 -169 -201 -233 249 0
6 -26 -62 -100 -148 -170 -202 -234 250 0
11 -27 -65 -102 -150 -171 -203 -235 251 0
16 -28 -68 -104 -152 -172 -204 -236 252 0
1 -29 -71 -106 -154 -173 -205 -237 253 0
6 -30 -74 -108 -156 -174 -206 -238 254 0
11 -31 -77 -110 -158 -175 -207 -239 255 0
16 -32 -80 -112 -160 -176 -208 -240 256 0
-241 -1 0
-242 -6 0
-243 -11 0
-244 -16 0
-245 -1 0
-246 -6 0
-247 -11 0
-248 -16 0
-249 -1 0
-250 -6 0
-251 -11 0
-252 -16 0
-253 -1 0
-254 -6 0
-255 -11 0
-256 -16 0
-241 17 0
-242 18 0
-243 19 0
-244 20 0
-245 21 0
-246 22 0
-247 23 0
-248 24 0
-249 25 0
-250 26 0
-251 27 0
-252 28 0
-253 29 0
-254 30 0
-255 31 0
-256 32 0
-241 35 0
-242 38 0
-243 41 0
-244 44 0
-245 47 0
-246 50 0
-247 53 0
-248 56 0
-249 59 0
-250 62 0
-251 65 0
-252 68 0
-253 71 0
-254 74 0
-255 77 0
-256 80 0
-241 82 0
-242 84 0
-243 86 0
-244 88 0
-245 90 0
-246 92 0
-247 94 0
-248 96 0
-249 98 0
-250 100 0
-251 102 0
-252 104 0
-253 106 0
-254 108 0
-255 110 0
-256 112 0
-241 130 0
-242 132 0
-243 134 0
-244 136 0
-245 138 0
-246 140 0
-247 142 0
-248 144 0
-249 146 0
-250 148 0
-251 150 0
-252 152 0
-253 154 0
-254 156 0
-255 158 0
-256 160 0
-241 161 0
-242 162 0
-243 163 0
-244 164 0
-245 165 0
-246 166 0
-247 167 0
-248 168 0
-249 169 0
-250 170 0
-251 171 0
-252 172 0
-253 173 0
-254 174 0
-255 175 0
-256 176 0
-241 193 0
-242 194 0
-243 195 0
-244 196 0
-245 197 0
-246 198 0
-247 199 0
-248 200 0
-249 201 0
-250 202 0
-251 203 0
-252 204 0
-253 205 0
-254 206 0
-255 207 0
-256 208 0
-241 225 0
-242 226 0
-243 227 0
-244 228 0
-245 229 0
-246 230 0
-247 231 0
-248 232 0
-249 233 0
-250 234 0
-251 235 0
-252 236 0
-253 237 0
-254 238 0
-255 239 0
-256 240 0
241 0
242 0
243 0
244 0
245 0
246 0
247 0
248 0
249 0
250 0
251 0
252 0
253 0
254 0
255 0
256 0
1 0
2 0
3 0
4 0
5 0
6 0
7 0
8 0
9 0
10 0
11 0
12 0
13 0
14 0
15 0
16 0
257 0
258 259 0
-258 -259 0
-258 -260 261 0
-258 -262 263 0
261 264 0
-261 -264 0
-261 -265 258 0
-261 -266 263 0
263 267 0
-263 -267 0
-263 -268 258 0
-263 -269 261 0
270 0
259 258 0
-259 -258 0
-259 -261 260 0
-259 -263 262 0
260 265 0
-260 -265 0
-260 -264 259 0
-260 -266 262 0
262 268 0
-262 -268 0
-262 -267 259 0
-262 -269 260 0
271 0
264 261 0
-264 -261 0
-264 -258 265 0
-264 -263 266 0
265 260 0
-265 -260 0
-265 -259 264 0
-265 -262 266 0
266 269 0
-266 -269 0
-266 -267 264 0
-266 -268 265 0
272 0
267 263 0
-267 -263 0
-267 -258 268 0
-267 -261 269 0
268 262 0
-268 -262 0
-268 -259 267 0
-268 -260 269 0
269 266 0
-269 -266 0
-269 -264 267 0
-269 -265 268 0
-273 0
-274 258 0
-275 261 0
-275 265 0
-261 -265 275 0
-276 263 0
-276 268 0
-263 -268 276 0
-274 -275 0
-274 -276 0
-258 274 275 276 0
-277 261 0
-278 258 0
-278 260 0
-258 -260 278 0
-279 263 0
-279 269 0
-263 -269 279 0
-277 -278 0
-277 -279 0
-261 277 278 279 0
-280 263 0
-281 258 0
-281 262 0
-258 -262 281 0
-282 261 0
-282 266 0
-261 -266 282 0
-280 -281 0
-280 -282 0
-263 280 281 282 0
-283 259 0
-284 260 0
-284 264 0
-260 -264 284 0
-285 262 0
-285 267 0
-262 -267 285 0
-283 -284 0
-283 -285 0
-259 283 284 285 0
-286 0
-287 260 0
-288 259 0
-288 261 0
-259 -261 288 0
-289 262 0
-289 269 0
-262 -269 289 0
-287 -288 0
-287 -289 0
-260 287 288 289 0
-290 262 0
-291 259 0
-291 263 0
-259 -263 291 0
-292 260 0
-292 266 0
-260 -266 292 0
-290 -291 0
-290 -292 0
-262 290 291 292 0
-293 264 0
-294 265 0
-294 259 0
-265 -259 294 0
-295 266 0
-295 267 0
-266 -267 295 0
-293 -294 0
-293 -295 0
-264 293 294 295 0
-296 265 0
-297 264 0
-297 258 0
-264 -258 297 0
-298 266 0
-298 268 0
-266 -268 298 0
-296 -297 0
-296 -298 0
-265 296 297 298 0
-299 0
-300 266 0
-301 264 0
-301 263 0
-264 -263 301 0
-302 265 0
-302 262 0
-265 -262 302 0
-300 -301 0
-300 -302 0
-266 300 301 302 0
-303 267 0
-304 268 0
-304 259 0
-268 -259 304 0
-305 269 0
-305 264 0
-269 -264 305 0
-303 -304 0
-303 -305 0
-267 303 304 305 0
-306 268 0
-307 267 0
-307 258 0
-267 -258 307 0
-308 269 0
-308 265 0
-269 -265 308 0
-306 -307 0
-306 -308 0
-268 306 307 308 0
-309 269 0
-310 267 0
-310 261 0
-267 -261 310 0
-311 268 0
-311 260 0
-268 -260 311 0
-309 -310 0
-309 -311 0
-269 309 310 311 0
-312 0
-313 257 0
-313 258 0
-313 261 0
-313 263 0
-257 -258 -261 -263 313 0
-314 257 0
-314 259 0
-314 264 0
-314 267 0
-257 -259 -264 -267 314 0
-315 259 0
-315 270 0
-315 260 0
-315 262 0
-259 -270 -260 -262 315 0
-316 258 0
-316 270 0
-316 265 0
-316 268 0
-258 -270 -265 -268 316 0
-317 264 0
-317 265 0
-317 271 0
-317 266 0
-264 -265 -271 -266 317 0
-318 261 0
-318 260 0
-318 271 0
-318 269 0
-261 -260 -271 -269 318 0
-319 267 0
-319 268 0
-319 269 0
-319 272 0
-267 -268 -269 -272 319 0
-320 263 0
-320 262 0
-320 266 0
-320 272 0
-263 -262 -266 -272 320 0
-273 34 0
-314 -313 34 0
-34 273 314 0
-34 273 313 0
-274 46 0
-314 -315 46 0
-46 274 314 0
-46 274 315 0
-277 58 0
-314 -317 58 0
-58 277 314 0
-58 277 317 0
-280 70 0
-314 -319 70 0
-70 280 314 0
-70 280 319 0
-283 37 0
-316 -313 37 0
-37 283 316 0
-37 283 313 0
-286 49 0
-316 -315 49 0
-49 286 316 0
-49 286 315 0
-287 61 0
-316 -317 61 0
-61 287 316 0
-61 287 317 0
-290 73 0
-316 -319 73 0
-73 290 316 0
-73 290 319 0
-293 40 0
-318 -313 40 0
-40 293 318 0
-40 293 313 0
-296 52 0
-318 -315 52 0
-52 296 318 0
-52 296 315 0
-299 64 0
-318 -317 64 0
-64 299 318 0
-64 299 317 0
-300 76 0
-318 -319 76 0
-76 300 318 0
-76 300 319 0
-303 43 0
-320 -313 43 0
-43 303 320 0
-43 303 313 0
-306 55 0
-320 -315 55 0
-55 306 320 0
-55 306 315 0
-309 67 0
-320 -317 67 0
-67 309 320 0
-67 309 317 0
-312 79 0
-320 -319 79 0
-79 312 320 0
-79 312 319 0
