p cnf 416 1164
c ind 1 2 3 4 5 6 7 8 9 10 11 12 13 14 15 16 17 18 19 20 21 22 23 24 25 26 27 28 29 30 31 32 33 34 35 36 37 38 39 40 41 42 43 44 45 46 47 48 49 50 0
c ind 51 52 53 54 55 56 57 58 59 60 61 62 63 64 65 66 67 68 69 70 71 72 73 74 75 76 77 78 79 80 81 82 83 84 85 86 87 88 89 90 91 92 93 94 95 96 97 98 99 100 0
c ind 101 102 103 104 105 106 107 108 109 110 111 112 113 114 115 116 117 118 119 120 121 122 123 124 125 126 127 128 129 130 131 132 133 134 135 136 137 138 139 140 141 142 143 144 145 146 147 148 149 150 0
c ind 151 152 153 154 155 156 157 158 159 160 161 162 163 164 165 166 167 168 169 170 171 172 173 174 175 176 177 178 179 180 181 182 183 184 185 186 187 188 189 190 191 192 193 194 195 196 197 198 199 200 0
c ind 201 202 203 204 205 206 207 208 209 210 211 212 213 214 215 216 217 218 219 220 221 222 223 224 225 226 227 228 229 230 231 232 233 234 235 236 237 238 239 240 241 242 243 244 245 246 247 248 249 250 0
c ind 251 252 253 254 255 256 353 354 355 356 357 358 359 360 361 362 363 364 365 366 367 368 369 370 371 372 373 374 375 376 377 378 379 380 381 382 383 384 385 386 387 388 389 390 391 392 393 394 395 396 0
c ind 397 398 399 400 401 402 403 404 405 406 407 408 409 410 411 412 413 414 415 416 0
1 2 3 4 0
5 6 7 8 0
9 10 11 12 0
13 14 15 16 0
-1 -1 -17 0
-5 -2 -18 0
-9 -3 -19 0
-13 -4 -20 0
-2 -5 -21 0
-6 -6 -22 0
-10 -7 -23 0
-14 -8 -24 0
-3 -9 -25 0
-7 -10 -26 0
-11 -11 -27 0
-15 -12 -28 0
-4 -13 -29 0
-8 -14 -30 0
-12 -15 -31 0
-16 -16 -32 0
17 1 0
18 5 0
19 9 0
20 13 0
21 2 0
22 6 0
23 10 0
24 14 0
25 3 0
26 7 0
27 11 0
28 15 0
29 4 0
30 8 0
31 12 0
32 16 0
17 1 0
18 2 0
19 3 0
20 4 0
21 5 0
22 6 0
23 7 0
24 8 0
25 9 0
26 10 0
27 11 0
28 12 0
29 13 0
30 14 0
31 15 0
32 16 0
33 34 -1 -35 0
36 37 -5 -38 0
39 40 -9 -41 0
42 43 -13 -44 0
45 46 -2 -47 0
48 49 -6 -50 0
51 52 -10 -53 0
54 55 -14 -56 0
57 58 -3 -59 0
60 61 -7 -62 0
63 64 -11 -65 0
66 67 -15 -68 0
69 70 -4 -71 0
72 73 -8 -74 0
75 76 -12 -77 0
78 79 -16 -80 0
35 -33 0
38 -36 0
41 -39 0
44 -42 0
47 -45 0
50 -48 0
53 -51 0
56 -54 0
59 -57 0
62 -60 0
65 -63 0
68 -66 0
71 -69 0
74 -72 0
77 -75 0
80 -78 0
35 -34 0
38 -37 0
41 -40 0
44 -43 0
47 -46 0
50 -49 0
53 -52 0
56 -55 0
59 -58 0
62 -61 0
65 -64 0
68 -67 0
71 -70 0
74 -73 0
77 -76 0
80 -79 0
35 1 0
38 5 0
41 9 0
44 13 0
47 2 0
50 6 0
53 10 0
56 14 0
59 3 0
62 7 0
65 11 0
68 15 0
71 4 0
74 8 0
77 12 0
80 16 0
1 1 -81 -82 0
5 2 -83 -84 0
9 3 -85 -86 0
13 4 -87 -88 0
2 5 -89 -90 0
6 6 -91 -92 0
10 7 -93 -94 0
14 8 -95 -96 0
3 9 -97 -98 0
7 10 -99 -100 0
11 11 -101 -102 0
15 12 -103 -104 0
4 13 -105 -106 0
8 14 -107 -108 0
12 15 -109 -110 0
16 16 -111 -112 0
82 -1 0
84 -5 0
86 -9 0
88 -13 0
90 -2 0
92 -6 0
94 -10 0
96 -14 0
98 -3 0
100 -7 0
102 -11 0
104 -15 0
106 -4 0
108 -8 0
110 -12 0
112 -16 0
82 -1 0
84 -2 0
86 -3 0
88 -4 0
90 -5 0
92 -6 0
94 -7 0
96 -8 0
98 -9 0
100 -10 0
102 -11 0
104 -12 0
106 -13 0
108 -14 0
110 -15 0
112 -16 0
82 81 0
84 83 0
86 85 0
88 87 0
90 89 0
92 91 0
94 93 0
96 95 0
98 97 0
100 99 0
102 101 0
104 103 0
106 105 0
108 107 0
110 109 0
112 111 0
-34 -1 113 0
-37 -5 114 0
-40 -9 115 0
-43 -13 116 0
-46 -2 117 0
-49 -6 118 0
-52 -10 119 0
-55 -14 120 0
-58 -3 121 0
-61 -7 122 0
-64 -11 123 0
-67 -15 124 0
-70 -4 125 0
-73 -8 126 0
-76 -12 127 0
-79 -16 128 0
-113 34 0
-114 37 0
-115 40 0
-116 43 0
-117 46 0
-118 49 0
-119 52 0
-120 55 0
-121 58 0
-122 61 0
-123 64 0
-124 67 0
-125 70 0
-126 73 0
-127 76 0
-128 79 0
-113 1 0
-114 5 0
-115 9 0
-116 13 0
-117 2 0
-118 6 0
-119 10 0
-120 14 0
-121 3 0
-122 7 0
-123 11 0
-124 15 0
-125 4 0
-126 8 0
-127 12 0
-128 16 0
-129 113 -130 0
-131 114 -132 0
-133 115 -134 0
-135 116 -136 0
-137 117 -138 0
-139 118 -140 0
-141 119 -142 0
-143 120 -144 0
-145 121 -146 0
-147 122 -148 0
-149 123 -150 0
-151 124 -152 0
-153 125 -154 0
-155 126 -156 0
-157 127 -158 0
-159 128 -160 0
130 129 0
132 131 0
134 133 0
136 135 0
138 137 0
140 139 0
142 141 0
144 143 0
146 145 0
148 147 0
150 149 0
152 151 0
154 153 0
156 155 0
158 157 0
160 159 0
130 -113 0
132 -114 0
134 -115 0
136 -116 0
138 -117 0
140 -118 0
142 -119 0
144 -120 0
146 -121 0
148 -122 0
150 -123 0
152 -124 0
154 -125 0
156 -126 0
158 -127 0
160 -128 0
129 -34 -1 -161 0
131 -37 -5 -162 0
133 -40 -9 -163 0
135 -43 -13 -164 0
137 -46 -2 -165 0
139 -49 -6 -166 0
141 -52 -10 -167 0
143 -55 -14 -168 0
145 -58 -3 -169 0
147 -61 -7 -170 0
149 -64 -11 -171 0
151 -67 -15 -172 0
153 -70 -4 -173 0
155 -73 -8 -174 0
157 -76 -12 -175 0
159 -79 -16 -176 0
161 -129 0
162 -131 0
163 -133 0
164 -135 0
165 -137 0
166 -139 0
167 -141 0
168 -143 0
169 -145 0
170 -147 0
171 -149 0
172 -151 0
173 -153 0
174 -155 0
175 -157 0
176 -159 0
161 34 0
162 37 0
163 40 0
164 43 0
165 46 0
166 49 0
167 52 0
168 55 0
169 58 0
170 61 0
171 64 0
172 67 0
173 70 0
174 73 0
175 76 0
176 79 0
161 1 0
162 5 0
163 9 0
164 13 0
165 2 0
166 6 0
167 10 0
168 14 0
169 3 0
170 7 0
171 11 0
172 15 0
173 4 0
174 8 0
175 12 0
176 16 0
1 1 177 0
5 2 178 0
9 3 179 0
13 4 180 0
2 5 181 0
6 6 182 0
10 7 183 0
14 8 184 0
3 9 185 0
7 10 186 0
11 11 187 0
15 12 188 0
4 13 189 0
8 14 190 0
12 15 191 0
16 16 192 0
-177 -1 0
-178 -5 0
-179 -9 0
-180 -13 0
-181 -2 0
-182 -6 0
-183 -10 0
-184 -14 0
-185 -3 0
-186 -7 0
-187 -11 0
-188 -15 0
-189 -4 0
-190 -8 0
-191 -12 0
-192 -16 0
-177 -1 0
-178 -2 0
-179 -3 0
-180 -4 0
-181 -5 0
-182 -6 0
-183 -7 0
-184 -8 0
-185 -9 0
-186 -10 0
-187 -11 0
-188 -12 0
-189 -13 0
-190 -14 0
-191 -15 0
-192 -16 0
81 177 -193 0
83 178 -194 0
85 179 -195 0
87 180 -196 0
89 181 -197 0
91 182 -198 0
93 183 -199 0
95 184 -200 0
97 185 -201 0
99 186 -202 0
101 187 -203 0
103 188 -204 0
105 189 -205 0
107 190 -206 0
109 191 -207 0
111 192 -208 0
193 -81 0
194 -83 0
195 -85 0
196 -87 0
197 -89 0
198 -91 0
199 -93 0
200 -95 0
201 -97 0
202 -99 0
203 -101 0
204 -103 0
205 -105 0
206 -107 0
207 -109 0
208 -111 0
193 -177 0
194 -178 0
195 -179 0
196 -180 0
197 -181 0
198 -182 0
199 -183 0
200 -184 0
201 -185 0
202 -186 0
203 -187 0
204 -188 0
205 -189 0
206 -190 0
207 -191 0
208 -192 0
-1 34 209 0
-5 37 210 0
-9 40 211 0
-13 43 212 0
-2 46 213 0
-6 49 214 0
-10 52 215 0
-14 55 216 0
-3 58 217 0
-7 61 218 0
-11 64 219 0
-15 67 220 0
-4 70 221 0
-8 73 222 0
-12 76 223 0
-16 79 224 0
-209 1 0
-210 5 0
-211 9 0
-212 13 0
-213 2 0
-214 6 0
-215 10 0
-216 14 0
-217 3 0
-218 7 0
-219 11 0
-220 15 0
-221 4 0
-222 8 0
-223 12 0
-224 16 0
-209 -34 0
-210 -37 0
-211 -40 0
-212 -43 0
-213 -46 0
-214 -49 0
-215 -52 0
-216 -55 0
-217 -58 0
-218 -61 0
-219 -64 0
-220 -67 0
-221 -70 0
-222 -73 0
-223 -76 0
-224 -79 0
-33 209 -225 0
-36 210 -226 0
-39 211 -227 0
-42 212 -228 0
-45 213 -229 0
-48 214 -230 0
-51 215 -231 0
-54 216 -232 0
-57 217 -233 0
-60 218 -234 0
-63 219 -235 0
-66 220 -236 0
-69 221 -237 0
-72 222 -238 0
-75 223 -239 0
-78 224 -240 0
225 33 0
226 36 0
227 39 0
228 42 0
229 45 0
230 48 0
231 51 0
232 54 0
233 57 0
234 60 0
235 63 0
236 66 0
237 69 0
238 72 0
239 75 0
240 78 0
225 -209 0
226 -210 0
227 -211 0
228 -212 0
229 -213 0
230 -214 0
231 -215 0
232 -216 0
233 -217 0
234 -218 0
235 -219 0
236 -220 0
237 -221 0
238 -222 0
239 -223 0
240 -224 0
1 -17 -35 -82 -130 -161 -193 -225 241 0
6 -18 -38 -84 -132 -162 -194 -226 242 0
11 -19 -41 -86 -134 -163 -195 -227 243 0
16 -20 -44 -88 -136 -164 -196 -228 244 0
1 -21 -47 -90 -138 -165 -197 -229 245 0
6 -22 -50 -92 -140 -166 -198 -230 246 0
11 -23 -53 -94 -142 -167 -199 -231 247 0
16 -24 -56 -96 -144 -168 -200 -232 248 0
1 -25 -59 -98 -146 -169 -201 -233 249 0
6 -26 -62 -100 -148 -170 -202 -234 250 0
11 -27 -65 -102 -150 -171 -203 -235 251 0
16 -28 -68 -104 -152 -172 -204 -236 252 0
1 -29 -71 -106 -154 -173 -205 -237 253 0
6 -30 -74 -108 -156 -174 -206 -238 254 0
11 -31 -77 -110 -158 -175 -207 -239 255 0
16 -32 -80 -112 -160 -176 -208 -240 256 0
-241 -1 0
-242 -6 0
-243 -11 0
-244 -16 0
-245 -1 0
-246 -6 0
-247 -11 0
-248 -16 0
-249 -1 0
-250 -6 0
-251 -11 0
-252 -16 0
-253 -1 0
-254 -6 0
-255 -11 0
-256 -16 0
-241 17 0
-242 18 0
-243 19 0
-244 20 0
-245 21 0
-246 22 0
-247 23 0
-248 24 0
-249 25 0
-250 26 0
-251 27 0
-252 28 0
-253 29 0
-254 30 0
-255 31 0
-256 32 0
-241 35 0
-242 38 0
-243 41 0
-244 44 0
-245 47 0
-246 50 0
-247 53 0
-248 56 0
-249 59 0
-250 62 0
-251 65 0
-252 68 0
-253 71 0
-254 74 0
-255 77 0
-256 80 0
-241 82 0
-242 84 0
-243 86 0
-244 88 0
-245 90 0
-246 92 0
-247 94 0
-248 96 0
-249 98 0
-250 100 0
-251 102 0
-252 104 0
-253 106 0
-254 108 0
-255 110 0
-256 112 0
-241 130 0
-242 132 0
-243 134 0
-244 136 0
-245 138 0
-246 140 0
-247 142 0
-248 144 0
-249 146 0
-250 148 0
-251 150 0
-252 152 0
-253 154 0
-254 156 0
-255 158 0
-256 160 0
-241 161 0
-242 162 0
-243 163 0
-244 164 0
-245 165 0
-246 166 0
-247 167 0
-248 168 0
-249 169 0
-250 170 0
-251 171 0
-252 172 0
-253 173 0
-254 174 0
-255 175 0
-256 176 0
-241 193 0
-242 194 0
-243 195 0
-244 196 0
-245 197 0
-246 198 0
-247 199 0
-248 200 0
-249 201 0
-250 202 0
-251 203 0
-252 204 0
-253 205 0
-254 206 0
-255 207 0
-256 208 0
-241 225 0
-242 226 0
-243 227 0
-244 228 0
-245 229 0
-246 230 0
-247 231 0
-248 232 0
-249 233 0
-250 234 0
-251 235 0
-252 236 0
-253 237 0
-254 238 0
-255 239 0
-256 240 0
241 0
242 0
243 0
244 0
245 0
246 0
247 0
248 0
249 0
250 0
251 0
252 0
253 0
254 0
255 0
256 0
1 257 0
-257 258 0
2 -257 259 0
-259 260 0
3 -259 261 0
-261 262 0
4 -261 263 0
-263 264 0
5 -263 265 0
-265 266 0
6 -265 267 0
-267 268 0
7 -267 269 0
-269 270 0
8 -269 271 0
-271 272 0
9 -271 273 0
-273 274 0
10 -273 275 0
-275 276 0
11 -275 277 0
-277 278 0
12 -277 279 0
-279 280 0
13 -279 0
2 258 0
-258 281 0
3 -258 260 0
-260 282 0
4 -260 262 0
-262 283 0
5 -262 264 0
-264 284 0
6 -264 266 0
-266 285 0
7 -266 268 0
-268 286 0
8 -268 270 0
-270 287 0
9 -270 272 0
-272 288 0
10 -272 274 0
-274 289 0
11 -274 276 0
-276 290 0
12 -276 278 0
-278 291 0
13 -278 280 0
-280 292 0
14 -280 0
3 281 0
-281 293 0
4 -281 282 0
-282 294 0
5 -282 283 0
-283 295 0
6 -283 284 0
-284 296 0
7 -284 285 0
-285 297 0
8 -285 286 0
-286 298 0
9 -286 287 0
-287 299 0
10 -287 288 0
-288 300 0
11 -288 289 0
-289 301 0
12 -289 290 0
-290 302 0
13 -290 291 0
-291 303 0
14 -291 292 0
-292 304 0
15 -292 0
4 293 0
5 -293 294 0
6 -294 295 0
7 -295 296 0
8 -296 297 0
9 -297 298 0
10 -298 299 0
11 -299 300 0
12 -300 301 0
13 -301 302 0
14 -302 303 0
15 -303 304 0
16 -304 0
-1 305 0
-305 306 0
-2 -305 307 0
-307 308 0
-3 -307 309 0
-309 310 0
-4 -309 311 0
-311 312 0
-5 -311 0
-2 306 0
-306 313 0
-3 -306 308 0
-308 314 0
-4 -308 310 0
-310 315 0
-5 -310 312 0
-312 316 0
-6 -312 0
-3 313 0
-313 317 0
-4 -313 314 0
-314 318 0
-5 -314 315 0
-315 319 0
-6 -315 316 0
-316 320 0
-7 -316 0
-4 317 0
-317 321 0
-5 -317 318 0
-318 322 0
-6 -318 319 0
-319 323 0
-7 -319 320 0
-320 324 0
-8 -320 0
-5 321 0
-321 325 0
-6 -321 322 0
-322 326 0
-7 -322 323 0
-323 327 0
-8 -323 324 0
-324 328 0
-9 -324 0
-6 325 0
-325 329 0
-7 -325 326 0
-326 330 0
-8 -326 327 0
-327 331 0
-9 -327 328 0
-328 332 0
-10 -328 0
-7 329 0
-329 333 0
-8 -329 330 0
-330 334 0
-9 -330 331 0
-331 335 0
-10 -331 332 0
-332 336 0
-11 -332 0
-8 333 0
-333 337 0
-9 -333 334 0
-334 338 0
-10 -334 335 0
-335 339 0
-11 -335 336 0
-336 340 0
-12 -336 0
-9 337 0
-337 341 0
-10 -337 338 0
-338 342 0
-11 -338 339 0
-339 343 0
-12 -339 340 0
-340 344 0
-13 -340 0
-10 341 0
-341 345 0
-11 -341 342 0
-342 346 0
-12 -342 343 0
-343 347 0
-13 -343 344 0
-344 348 0
-14 -344 0
-11 345 0
-345 349 0
-12 -345 346 0
-346 350 0
-13 -346 347 0
-347 351 0
-14 -347 348 0
-348 352 0
-15 -348 0
-12 349 0
-13 -349 350 0
-14 -350 351 0
-15 -351 352 0
-16 -352 0
353 0
354 355 0
-354 -355 0
-354 -356 357 0
-354 -358 359 0
357 360 0
-357 -360 0
-357 -361 354 0
-357 -362 359 0
359 363 0
-359 -363 0
-359 -364 354 0
-359 -365 357 0
366 0
355 354 0
-355 -354 0
-355 -357 356 0
-355 -359 358 0
356 361 0
-356 -361 0
-356 -360 355 0
-356 -362 358 0
358 364 0
-358 -364 0
-358 -363 355 0
-358 -365 356 0
367 0
360 357 0
-360 -357 0
-360 -354 361 0
-360 -359 362 0
361 356 0
-361 -356 0
-361 -355 360 0
-361 -358 362 0
362 365 0
-362 -365 0
-362 -363 360 0
-362 -364 361 0
368 0
363 359 0
-363 -359 0
-363 -354 364 0
-363 -357 365 0
364 358 0
-364 -358 0
-364 -355 363 0
-364 -356 365 0
365 362 0
-365 -362 0
-365 -360 363 0
-365 -361 364 0
-369 0
-370 354 0
-371 357 0
-371 361 0
-357 -361 371 0
-372 359 0
-372 364 0
-359 -364 372 0
-370 -371 0
-370 -372 0
-354 370 371 372 0
-373 357 0
-374 354 0
-374 356 0
-354 -356 374 0
-375 359 0
-375 365 0
-359 -365 375 0
-373 -374 0
-373 -375 0
-357 373 374 375 0
-376 359 0
-377 354 0
-377 358 0
-354 -358 377 0
-378 357 0
-378 362 0
-357 -362 378 0
-376 -377 0
-376 -378 0
-359 376 377 378 0
-379 355 0
-380 356 0
-380 360 0
-356 -360 380 0
-381 358 0
-381 363 0
-358 -363 381 0
-379 -380 0
-379 -381 0
-355 379 380 381 0
-382 0
-383 356 0
-384 355 0
-384 357 0
-355 -357 384 0
-385 358 0
-385 365 0
-358 -365 385 0
-383 -384 0
-383 -385 0
-356 383 384 385 0
-386 358 0
-387 355 0
-387 359 0
-355 -359 387 0
-388 356 0
-388 362 0
-356 -362 388 0
-386 -387 0
-386 -388 0
-358 386 387 388 0
-389 360 0
-390 361 0
-390 355 0
-361 -355 390 0
-391 362 0
-391 363 0
-362 -363 391 0
-389 -390 0
-389 -391 0
-360 389 390 391 0
-392 361 0
-393 360 0
-393 354 0
-360 -354 393 0
-394 362 0
-394 364 0
-362 -364 394 0
-392 -393 0
-392 -394 0
-361 392 393 394 0
-395 0
-396 362 0
-397 360 0
-397 359 0
-360 -359 397 0
-398 361 0
-398 358 0
-361 -358 398 0
-396 -397 0
-396 -398 0
-362 396 397 398 0
-399 363 0
-400 364 0
-400 355 0
-364 -355 400 0
-401 365 0
-401 360 0
-365 -360 401 0
-399 -400 0
-399 -401 0
-363 399 400 401 0
-402 364 0
-403 363 0
-403 354 0
-363 -354 403 0
-404 365 0
-404 361 0
-365 -361 404 0
-402 -403 0
-402 -404 0
-364 402 403 404 0
-405 365 0
-406 363 0
-406 357 0
-363 -357 406 0
-407 364 0
-407 356 0
-364 -356 407 0
-405 -406 0
-405 -407 0
-365 405 406 407 0
-408 0
-409 353 0
-409 354 0
-409 357 0
-409 359 0
-353 -354 -357 -359 409 0
-410 353 0
-410 355 0
-410 360 0
-410 363 0
-353 -355 -360 -363 410 0
-411 355 0
-411 366 0
-411 356 0
-411 358 0
-355 -366 -356 -358 411 0
-412 354 0
-412 366 0
-412 361 0
-412 364 0
-354 -366 -361 -364 412 0
-413 360 0
-413 361 0
-413 367 0
-413 362 0
-360 -361 -367 -362 413 0
-414 357 0
-414 356 0
-414 367 0
-414 365 0
-357 -356 -367 -365 414 0
-415 363 0
-415 364 0
-415 365 0
-415 368 0
-363 -364 -365 -368 415 0
-416 359 0
-416 358 0
-416 362 0
-416 368 0
-359 -358 -362 -368 416 0
-369 34 0
-410 -409 34 0
-34 369 410 0
-34 369 409 0
-370 46 0
-410 -411 46 0
-46 370 410 0
-46 370 411 0
-373 58 0
-410 -413 58 0
-58 373 410 0
-58 373 413 0
-376 70 0
-410 -415 70 0
-70 376 410 0
-70 376 415 0
-379 37 0
-412 -409 37 0
-37 379 412 0
-37 379 409 0
-382 49 0
-412 -411 49 0
-49 382 412 0
-49 382 411 0
-383 61 0
-412 -413 61 0
-61 383 412 0
-61 383 413 0
-386 73 0
-412 -415 73 0
-73 386 412 0
-73 386 415 0
-389 40 0
-414 -409 40 0
-40 389 414 0
-40 389 409 0
-392 52 0
-414 -411 52 0
-52 392 414 0
-52 392 411 0
-395 64 0
-414 -413 64 0
-64 395 414 0
-64 395 413 0
-396 76 0
-414 -415 76 0
-76 396 414 0
-76 396 415 0
-399 43 0
-416 -409 43 0
-43 399 416 0
-43 399 409 0
-402 55 0
-416 -411 55 0
-55 402 416 0
-55 402 411 0
-405 67 0
-416 -413 67 0
-67 405 416 0
-67 405 413 0
-408 79 0
-416 -415 79 0
-79 408 416 0
-79 408 415 0
