p cnf 376 1084
c ind 1 2 3 4 5 6 7 8 9 10 11 12 13 14 15 16 17 18 19 20 21 22 23 24 25 26 27 28 29 30 31 32 33 34 35 36 37 38 39 40 41 42 43 44 45 46 47 48 49 50 0
c ind 51 52 53 54 55 56 57 58 59 60 61 62 63 64 65 66 67 68 69 70 71 72 73 74 75 76 77 78 79 80 81 82 83 84 85 86 87 88 89 90 91 92 93 94 95 96 97 98 99 100 0
c ind 101 102 103 104 105 106 107 108 109 110 111 112 113 114 115 116 117 118 119 120 121 122 123 124 125 126 127 128 129 130 131 132 133 134 135 136 137 138 139 140 141 142 143 144 145 146 147 148 149 150 0
c ind 151 152 153 154 155 156 157 158 159 160 161 162 163 164 165 166 167 168 169 170 171 172 173 174 175 176 177 178 179 180 181 182 183 184 185 186 187 188 189 190 191 192 193 194 195 196 197 198 199 200 0
c ind 201 202 203 204 205 206 207 208 209 210 211 212 213 214 215 216 217 218 219 220 221 222 223 224 225 226 227 228 229 230 231 232 233 234 235 236 237 238 239 240 241 242 243 244 245 246 247 248 249 250 0
c ind 251 252 253 254 255 256 313 314 315 316 317 318 319 320 321 322 323 324 325 326 327 328 329 330 331 332 333 334 335 336 337 338 339 340 341 342 343 344 345 346 347 348 349 350 351 352 353 354 355 356 0
c ind 357 358 359 360 361 362 363 364 365 366 367 368 369 370 371 372 373 374 375 376 0
1 2 3 4 0
5 6 7 8 0
9 10 11 12 0
13 14 15 16 0
-1 -1 -17 0
-5 -2 -18 0
-9 -3 -19 0
-13 -4 -20 0
-2 -5 -21 0
-6 -6 -22 0
-10 -7 -23 0
-14 -8 -24 0
-3 -9 -25 0
-7 -10 -26 0
-11 -11 -27 0
-15 -12 -28 0
-4 -13 -29 0
-8 -14 -30 0
-12 -15 -31 0
-16 -16 -32 0
17 1 0
18 5 0
19 9 0
20 13 0
21 2 0
22 6 0
23 10 0
24 14 0
25 3 0
26 7 0
27 11 0
28 15 0
29 4 0
30 8 0
31 12 0
32 16 0
17 1 0
18 2 0
19 3 0
20 4 0
21 5 0
22 6 0
23 7 0
24 8 0
25 9 0
26 10 0
27 11 0
28 12 0
29 13 0
30 14 0
31 15 0
32 16 0
33 34 -1 -35 0
36 37 -5 -38 0
39 40 -9 -41 0
42 43 -13 -44 0
45 46 -2 -47 0
48 49 -6 -50 0
51 52 -10 -53 0
54 55 -14 -56 0
57 58 -3 -59 0
60 61 -7 -62 0
63 64 -11 -65 0
66 67 -15 -68 0
69 70 -4 -71 0
72 73 -8 -74 0
75 76 -12 -77 0
78 79 -16 -80 0
35 -33 0
38 -36 0
41 -39 0
44 -42 0
47 -45 0
50 -48 0
53 -51 0
56 -54 0
59 -57 0
62 -60 0
65 -63 0
68 -66 0
71 -69 0
74 -72 0
77 -75 0
80 -78 0
35 -34 0
38 -37 0
41 -40 0
44 -43 0
47 -46 0
50 -49 0
53 -52 0
56 -55 0
59 -58 0
62 -61 0
65 -64 0
68 -67 0
71 -70 0
74 -73 0
77 -76 0
80 -79 0
35 1 0
38 5 0
41 9 0
44 13 0
47 2 0
50 6 0
53 10 0
56 14 0
59 3 0
62 7 0
65 11 0
68 15 0
71 4 0
74 8 0
77 12 0
80 16 0
1 1 -81 -82 0
5 2 -83 -84 0
9 3 -85 -86 0
13 4 -87 -88 0
2 5 -89 -90 0
6 6 -91 -92 0
10 7 -93 -94 0
14 8 -95 -96 0
3 9 -97 -98 0
7 10 -99 -100 0
11 11 -101 -102 0
15 12 -103 -104 0
4 13 -105 -106 0
8 14 -107 -108 0
12 15 -109 -110 0
16 16 -111 -112 0
82 -1 0
84 -5 0
86 -9 0
88 -13 0
90 -2 0
92 -6 0
94 -10 0
96 -14 0
98 -3 0
100 -7 0
102 -11 0
104 -15 0
106 -4 0
108 -8 0
110 -12 0
112 -16 0
82 -1 0
84 -2 0
86 -3 0
88 -4 0
90 -5 0
92 -6 0
94 -7 0
96 -8 0
98 -9 0
100 -10 0
102 -11 0
104 -12 0
106 -13 0
108 -14 0
110 -15 0
112 -16 0
82 81 0
84 83 0
86 85 0
88 87 0
90 89 0
92 91 0
94 93 0
96 95 0
98 97 0
100 99 0
102 101 0
104 103 0
106 105 0
108 107 0
110 109 0
112 111 0
-34 -1 113 0
-37 -5 114 0
-40 -9 115 0
-43 -13 116 0
-46 -2 117 0
-49 -6 118 0
-52 -10 119 0
-55 -14 120 0
-58 -3 121 0
-61 -7 122 0
-64 -11 123 0
-67 -15 124 0
-70 -4 125 0
-73 -8 126 0
-76 -12 127 0
-79 -16 128 0
-113 34 0
-114 37 0
-115 40 0
-116 43 0
-117 46 0
-118 49 0
-119 52 0
-120 55 0
-121 58 0
-122 61 0
-123 64 0
-124 67 0
-125 70 0
-126 73 0
-127 76 0
-128 79 0
-113 1 0
-114 5 0
-115 9 0
-116 13 0
-117 2 0
-118 6 0
-119 10 0
-120 14 0
-121 3 0
-122 7 0
-123 11 0
-124 15 0
-125 4 0
-126 8 0
-127 12 0
-128 16 0
-129 113 -130 0
-131 114 -132 0
-133 115 -134 0
-135 116 -136 0
-137 117 -138 0
-139 118 -140 0
-141 119 -142 0
-143 120 -144 0
-145 121 -146 0
-147 122 -148 0
-149 123 -150 0
-151 124 -152 0
-153 125 -154 0
-155 126 -156 0
-157 127 -158 0
-159 128 -160 0
130 129 0
132 131 0
134 133 0
136 135 0
138 137 0
140 139 0
142 141 0
144 143 0
146 145 0
148 147 0
150 149 0
152 151 0
154 153 0
156 155 0
158 157 0
160 159 0
130 -113 0
132 -114 0
134 -115 0
136 -116 0
138 -117 0
140 -118 0
142 -119 0
144 -120 0
146 -121 0
148 -122 0
150 -123 0
152 -124 0
154 -125 0
156 -126 0
158 -127 0
160 -128 0
129 -34 -1 -161 0
131 -37 -5 -162 0
133 -40 -9 -163 0
135 -43 -13 -164 0
137 -46 -2 -165 0
139 -49 -6 -166 0
141 -52 -10 -167 0
143 -55 -14 -168 0
145 -58 -3 -169 0
147 -61 -7 -170 0
149 -64 -11 -171 0
151 -67 -15 -172 0
153 -70 -4 -173 0
155 -73 -8 -174 0
157 -76 -12 -175 0
159 -79 -16 -176 0
161 -129 0
162 -131 0
163 -133 0
164 -135 0
165 -137 0
166 -139 0
167 -141 0
168 -143 0
169 -145 0
170 -147 0
171 -149 0
172 -151 0
173 -153 0
174 -155 0
175 -157 0
176 -159 0
161 34 0
162 37 0
163 40 0
164 43 0
165 46 0
166 49 0
167 52 0
168 55 0
169 58 0
170 61 0
171 64 0
172 67 0
173 70 0
174 73 0
175 76 0
176 79 0
161 1 0
162 5 0
163 9 0
164 13 0
165 2 0
166 6 0
167 10 0
168 14 0
169 3 0
170 7 0
171 11 0
172 15 0
173 4 0
174 8 0
175 12 0
176 16 0
1 1 177 0
5 2 178 0
9 3 179 0
13 4 180 0
2 5 181 0
6 6 182 0
10 7 183 0
14 8 184 0
3 9 185 0
7 10 186 0
11 11 187 0
15 12 188 0
4 13 189 0
8 14 190 0
12 15 191 0
16 16 192 0
-177 -1 0
-178 -5 0
-179 -9 0
-180 -13 0
-181 -2 0
-182 -6 0
-183 -10 0
-184 -14 0
-185 -3 0
-186 -7 0
-187 -11 0
-188 -15 0
-189 -4 0
-190 -8 0
-191 -12 0
-192 -16 0
-177 -1 0
-178 -2 0
-179 -3 0
-180 -4 0
-181 -5 0
-182 -6 0
-183 -7 0
-184 -8 0
-185 -9 0
-186 -10 0
-187 -11 0
-188 -12 0
-189 -13 0
-190 -14 0
-191 -15 0
-192 -16 0
81 177 -193 0
83 178 -194 0
85 179 -195 0
87 180 -196 0
89 181 -197 0
91 182 -198 0
93 183 -199 0
95 184 -200 0
97 185 -201 0
99 186 -202 0
101 187 -203 0
103 188 -204 0
105 189 -205 0
107 190 -206 0
109 191 -207 0
111 192 -208 0
193 -81 0
194 -83 0
195 -85 0
196 -87 0
197 -89 0
198 -91 0
199 -93 0
200 -95 0
201 -97 0
202 -99 0
203 -101 0
204 -103 0
205 -105 0
206 -107 0
207 -109 0
208 -111 0
193 -177 0
194 -178 0
195 -179 0
196 -180 0
197 -181 0
198 -182 0
199 -183 0
200 -184 0
201 -185 0
202 -186 0
203 -187 0
204 -188 0
205 -189 0
206 -190 0
207 -191 0
208 -192 0
-1 34 209 0
-5 37 210 0
-9 40 211 0
-13 43 212 0
-2 46 213 0
-6 49 214 0
-10 52 215 0
-14 55 216 0
-3 58 217 0
-7 61 218 0
-11 64 219 0
-15 67 220 0
-4 70 221 0
-8 73 222 0
-12 76 223 0
-16 79 224 0
-209 1 0
-210 5 0
-211 9 0
-212 13 0
-213 2 0
-214 6 0
-215 10 0
-216 14 0
-217 3 0
-218 7 0
-219 11 0
-220 15 0
-221 4 0
-222 8 0
-223 12 0
-224 16 0
-209 -34 0
-210 -37 0
-211 -40 0
-212 -43 0
-213 -46 0
-214 -49 0
-215 -52 0
-216 -55 0
-217 -58 0
-218 -61 0
-219 -64 0
-220 -67 0
-221 -70 0
-222 -73 0
-223 -76 0
-224 -79 0
-33 209 -225 0
-36 210 -226 0
-39 211 -227 0
-42 212 -228 0
-45 213 -229 0
-48 214 -230 0
-51 215 -231 0
-54 216 -232 0
-57 217 -233 0
-60 218 -234 0
-63 219 -235 0
-66 220 -236 0
-69 221 -237 0
-72 222 -238 0
-75 223 -239 0
-78 224 -240 0
225 33 0
226 36 0
227 39 0
228 42 0
229 45 0
230 48 0
231 51 0
232 54 0
233 57 0
234 60 0
235 63 0
236 66 0
237 69 0
238 72 0
239 75 0
240 78 0
225 -209 0
226 -210 0
227 -211 0
228 -212 0
229 -213 0
230 -214 0
231 -215 0
232 -216 0
233 -217 0
234 -218 0
235 -219 0
236 -220 0
237 -221 0
238 -222 0
239 -223 0
240 -224 0
1 -17 -35 -82 -130 -161 -193 -225 241 0
6 -18 -38 -84 -132 -162 -194 -226 242 0
11 -19 -41 -86 -134 -163 -195 -227 243 0
16 -20 -44 -88 -136 -164 -196 -228 244 0
1 -21 -47 -90 -138 -165 -197 -229 245 0
6 -22 -50 -92 -140 -166 -198 -230 246 0
11 -23 -53 -94 -142 -167 -199 -231 247 0
16 -24 -56 -96 -144 -168 -200 -232 248 0
1 -25 -59 -98 -146 -169 -201 -233 249 0
6 -26 -62 -100 -148 -170 -202 -234 250 0
11 -27 -65 -102 -150 -171 -203 -235 251 0
16 -28 -68 -104 -152 -172 -204 -236 252 0
1 -29 -71 -106 -154 -173 -205 -237 253 0
6 -30 -74 -108 -156 -174 -206 -238 254 0
11 -31 -77 -110 -158 -175 -207 -239 255 0
16 -32 -80 -112 -160 -176 -208 -240 256 0
-241 -1 0
-242 -6 0
-243 -11 0
-244 -16 0
-245 -1 0
-246 -6 0
-247 -11 0
-248 -16 0
-249 -1 0
-250 -6 0
-251 -11 0
-252 -16 0
-253 -1 0
-254 -6 0
-255 -11 0
-256 -16 0
-241 17 0
-242 18 0
-243 19 0
-244 20 0
-245 21 0
-246 22 0
-247 23 0
-248 24 0
-249 25 0
-250 26 0
-251 27 0
-252 28 0
-253 29 0
-254 30 0
-255 31 0
-256 32 0
-241 35 0
-242 38 0
-243 41 0
-244 44 0
-245 47 0
-246 50 0
-247 53 0
-248 56 0
-249 59 0
-250 62 0
-251 65 0
-252 68 0
-253 71 0
-254 74 0
-255 77 0
-256 80 0
-241 82 0
-242 84 0
-243 86 0
-244 88 0
-245 90 0
-246 92 0
-247 94 0
-248 96 0
-249 98 0
-250 100 0
-251 102 0
-252 104 0
-253 106 0
-254 108 0
-255 110 0
-256 112 0
-241 130 0
-242 132 0
-243 134 0
-244 136 0
-245 138 0
-246 140 0
-247 142 0
-248 144 0
-249 146 0
-250 148 0
-251 150 0
-252 152 0
-253 154 0
-254 156 0
-255 158 0
-256 160 0
-241 161 0
-242 162 0
-243 163 0
-244 164 0
-245 165 0
-246 166 0
-247 167 0
-248 168 0
-249 169 0
-250 170 0
-251 171 0
-252 172 0
-253 173 0
-254 174 0
-255 175 0
-256 176 0
-241 193 0
-242 194 0
-243 195 0
-244 196 0
-245 197 0
-246 198 0
-247 199 0
-248 200 0
-249 201 0
-250 202 0
-251 203 0
-252 204 0
-253 205 0
-254 206 0
-255 207 0
-256 208 0
-241 225 0
-242 226 0
-243 227 0
-244 228 0
-245 229 0
-246 230 0
-247 231 0
-248 232 0
-249 233 0
-250 234 0
-251 235 0
-252 236 0
-253 237 0
-254 238 0
-255 239 0
-256 240 0
241 0
242 0
243 0
244 0
245 0
246 0
247 0
248 0
249 0
250 0
251 0
252 0
253 0
254 0
255 0
256 0
1 257 0
-257 258 0
2 -257 259 0
-259 260 0
3 -259 0
2 258 0
-258 261 0
3 -258 260 0
-260 262 0
4 -260 0
3 261 0
-261 263 0
4 -261 262 0
-262 264 0
5 -262 0
4 263 0
-263 265 0
5 -263 264 0
-264 266 0
6 -264 0
5 265 0
-265 267 0
6 -265 266 0
-266 268 0
7 -266 0
6 267 0
-267 269 0
7 -267 268 0
-268 270 0
8 -268 0
7 269 0
-269 271 0
8 -269 270 0
-270 272 0
9 -270 0
8 271 0
-271 273 0
9 -271 272 0
-272 274 0
10 -272 0
9 273 0
-273 275 0
10 -273 274 0
-274 276 0
11 -274 0
10 275 0
-275 277 0
11 -275 276 0
-276 278 0
12 -276 0
11 277 0
-277 279 0
12 -277 278 0
-278 280 0
13 -278 0
12 279 0
-279 281 0
13 -279 280 0
-280 282 0
14 -280 0
13 281 0
-281 283 0
14 -281 282 0
-282 284 0
15 -282 0
14 283 0
15 -283 284 0
16 -284 0
-1 285 0
-285 286 0
-2 -285 287 0
-287 288 0
-3 -287 289 0
-289 290 0
-4 -289 291 0
-291 292 0
-5 -291 293 0
-293 294 0
-6 -293 295 0
-295 296 0
-7 -295 297 0
-297 298 0
-8 -297 299 0
-299 300 0
-9 -299 301 0
-301 302 0
-10 -301 303 0
-303 304 0
-11 -303 305 0
-305 306 0
-12 -305 307 0
-307 308 0
-13 -307 309 0
-309 310 0
-14 -309 311 0
-311 312 0
-15 -311 0
-2 286 0
-3 -286 288 0
-4 -288 290 0
-5 -290 292 0
-6 -292 294 0
-7 -294 296 0
-8 -296 298 0
-9 -298 300 0
-10 -300 302 0
-11 -302 304 0
-12 -304 306 0
-13 -306 308 0
-14 -308 310 0
-15 -310 312 0
-16 -312 0
313 0
314 315 0
-314 -315 0
-314 -316 317 0
-314 -318 319 0
317 320 0
-317 -320 0
-317 -321 314 0
-317 -322 319 0
319 323 0
-319 -323 0
-319 -324 314 0
-319 -325 317 0
326 0
315 314 0
-315 -314 0
-315 -317 316 0
-315 -319 318 0
316 321 0
-316 -321 0
-316 -320 315 0
-316 -322 318 0
318 324 0
-318 -324 0
-318 -323 315 0
-318 -325 316 0
327 0
320 317 0
-320 -317 0
-320 -314 321 0
-320 -319 322 0
321 316 0
-321 -316 0
-321 -315 320 0
-321 -318 322 0
322 325 0
-322 -325 0
-322 -323 320 0
-322 -324 321 0
328 0
323 319 0
-323 -319 0
-323 -314 324 0
-323 -317 325 0
324 318 0
-324 -318 0
-324 -315 323 0
-324 -316 325 0
325 322 0
-325 -322 0
-325 -320 323 0
-325 -321 324 0
-329 0
-330 314 0
-331 317 0
-331 321 0
-317 -321 331 0
-332 319 0
-332 324 0
-319 -324 332 0
-330 -331 0
-330 -332 0
-314 330 331 332 0
-333 317 0
-334 314 0
-334 316 0
-314 -316 334 0
-335 319 0
-335 325 0
-319 -325 335 0
-333 -334 0
-333 -335 0
-317 333 334 335 0
-336 319 0
-337 314 0
-337 318 0
-314 -318 337 0
-338 317 0
-338 322 0
-317 -322 338 0
-336 -337 0
-336 -338 0
-319 336 337 338 0
-339 315 0
-340 316 0
-340 320 0
-316 -320 340 0
-341 318 0
-341 323 0
-318 -323 341 0
-339 -340 0
-339 -341 0
-315 339 340 341 0
-342 0
-343 316 0
-344 315 0
-344 317 0
-315 -317 344 0
-345 318 0
-345 325 0
-318 -325 345 0
-343 -344 0
-343 -345 0
-316 343 344 345 0
-346 318 0
-347 315 0
-347 319 0
-315 -319 347 0
-348 316 0
-348 322 0
-316 -322 348 0
-346 -347 0
-346 -348 0
-318 346 347 348 0
-349 320 0
-350 321 0
-350 315 0
-321 -315 350 0
-351 322 0
-351 323 0
-322 -323 351 0
-349 -350 0
-349 -351 0
-320 349 350 351 0
-352 321 0
-353 320 0
-353 314 0
-320 -314 353 0
-354 322 0
-354 324 0
-322 -324 354 0
-352 -353 0
-352 -354 0
-321 352 353 354 0
-355 0
-356 322 0
-357 320 0
-357 319 0
-320 -319 357 0
-358 321 0
-358 318 0
-321 -318 358 0
-356 -357 0
-356 -358 0
-322 356 357 358 0
-359 323 0
-360 324 0
-360 315 0
-324 -315 360 0
-361 325 0
-361 320 0
-325 -320 361 0
-359 -360 0
-359 -361 0
-323 359 360 361 0
-362 324 0
-363 323 0
-363 314 0
-323 -314 363 0
-364 325 0
-364 321 0
-325 -321 364 0
-362 -363 0
-362 -364 0
-324 362 363 364 0
-365 325 0
-366 323 0
-366 317 0
-323 -317 366 0
-367 324 0
-367 316 0
-324 -316 367 0
-365 -366 0
-365 -367 0
-325 365 366 367 0
-368 0
-369 313 0
-369 314 0
-369 317 0
-369 319 0
-313 -314 -317 -319 369 0
-370 313 0
-370 315 0
-370 320 0
-370 323 0
-313 -315 -320 -323 370 0
-371 315 0
-371 326 0
-371 316 0
-371 318 0
-315 -326 -316 -318 371 0
-372 314 0
-372 326 0
-372 321 0
-372 324 0
-314 -326 -321 -324 372 0
-373 320 0
-373 321 0
-373 327 0
-373 322 0
-320 -321 -327 -322 373 0
-374 317 0
-374 316 0
-374 327 0
-374 325 0
-317 -316 -327 -325 374 0
-375 323 0
-375 324 0
-375 325 0
-375 328 0
-323 -324 -325 -328 375 0
-376 319 0
-376 318 0
-376 322 0
-376 328 0
-319 -318 -322 -328 376 0
-329 34 0
-370 -369 34 0
-34 329 370 0
-34 329 369 0
-330 46 0
-370 -371 46 0
-46 330 370 0
-46 330 371 0
-333 58 0
-370 -373 58 0
-58 333 370 0
-58 333 373 0
-336 70 0
-370 -375 70 0
-70 336 370 0
-70 336 375 0
-339 37 0
-372 -369 37 0
-37 339 372 0
-37 339 369 0
-342 49 0
-372 -371 49 0
-49 342 372 0
-49 342 371 0
-343 61 0
-372 -373 61 0
-61 343 372 0
-61 343 373 0
-346 73 0
-372 -375 73 0
-73 346 372 0
-73 346 375 0
-349 40 0
-374 -369 40 0
-40 349 374 0
-40 349 369 0
-352 52 0
-374 -371 52 0
-52 352 374 0
-52 352 371 0
-355 64 0
-374 -373 64 0
-64 355 374 0
-64 355 373 0
-356 76 0
-374 -375 76 0
-76 356 374 0
-76 356 375 0
-359 43 0
-376 -369 43 0
-43 359 376 0
-43 359 369 0
-362 55 0
-376 -371 55 0
-55 362 376 0
-55 362 371 0
-365 67 0
-376 -373 67 0
-67 365 376 0
-67 365 373 0
-368 79 0
-376 -375 79 0
-79 368 376 0
-79 368 375 0
