p cnf 772 2134
c ind 1 2 3 4 5 6 7 8 9 10 11 12 13 14 15 16 17 18 19 20 21 22 23 24 25 26 27 28 29 30 31 32 33 34 35 36 37 38 39 40 41 42 43 44 45 46 47 48 49 50 0
c ind 51 52 53 54 55 56 57 58 59 60 61 62 63 64 65 66 67 68 69 70 71 72 73 74 75 76 77 78 79 80 81 82 83 84 85 86 87 88 89 90 91 92 93 94 95 96 97 98 99 100 0
c ind 101 102 103 104 105 106 107 108 109 110 111 112 113 114 115 116 117 118 119 120 121 122 123 124 125 126 127 128 129 130 131 132 133 134 135 136 137 138 139 140 141 142 143 144 145 146 147 148 149 150 0
c ind 151 152 153 154 155 156 157 158 159 160 161 162 163 164 165 166 167 168 169 170 171 172 173 174 175 176 177 178 179 180 181 182 183 184 185 186 187 188 189 190 191 192 193 194 195 196 197 198 199 200 0
c ind 201 202 203 204 205 206 207 208 209 210 211 212 213 214 215 216 217 218 219 220 221 222 223 224 225 226 227 228 229 230 231 232 233 234 235 236 237 238 239 240 241 242 243 244 245 246 247 248 249 250 0
c ind 251 252 253 254 255 256 257 258 259 260 261 262 263 264 265 266 267 268 269 270 271 272 273 274 275 276 277 278 279 280 281 282 283 284 285 286 287 288 289 290 291 292 293 294 295 296 297 298 299 300 0
c ind 301 302 303 304 305 306 307 308 309 310 311 312 313 314 315 316 317 318 319 320 321 322 323 324 325 326 327 328 329 330 331 332 333 334 335 336 337 338 339 340 341 342 343 344 345 346 347 348 349 350 0
c ind 351 352 353 354 355 356 357 358 359 360 361 362 363 364 365 366 367 368 369 370 371 372 373 374 375 376 377 378 379 380 381 382 383 384 385 386 387 388 389 390 391 392 393 394 395 396 397 398 399 400 0
c ind 653 654 655 656 657 658 659 660 661 662 663 664 665 666 667 668 669 670 671 672 673 674 675 676 677 678 679 680 681 682 683 684 685 686 687 688 689 690 691 692 693 694 695 696 697 698 699 700 701 702 0
c ind 703 704 705 706 707 708 709 710 711 712 713 714 715 716 717 718 719 720 721 722 723 724 725 726 727 728 729 730 731 732 733 734 735 736 737 738 739 740 741 742 743 744 745 746 747 748 749 750 751 752 0
c ind 753 754 755 756 757 758 759 760 761 762 763 764 765 766 767 768 769 770 771 772 0
1 2 3 4 5 0
6 7 8 9 10 0
11 12 13 14 15 0
16 17 18 19 20 0
21 22 23 24 25 0
-1 -1 -26 0
-6 -2 -27 0
-11 -3 -28 0
-16 -4 -29 0
-21 -5 -30 0
-2 -6 -31 0
-7 -7 -32 0
-12 -8 -33 0
-17 -9 -34 0
-22 -10 -35 0
-3 -11 -36 0
-8 -12 -37 0
-13 -13 -38 0
-18 -14 -39 0
-23 -15 -40 0
-4 -16 -41 0
-9 -17 -42 0
-14 -18 -43 0
-19 -19 -44 0
-24 -20 -45 0
-5 -21 -46 0
-10 -22 -47 0
-15 -23 -48 0
-20 -24 -49 0
-25 -25 -50 0
26 1 0
27 6 0
28 11 0
29 16 0
30 21 0
31 2 0
32 7 0
33 12 0
34 17 0
35 22 0
36 3 0
37 8 0
38 13 0
39 18 0
40 23 0
41 4 0
42 9 0
43 14 0
44 19 0
45 24 0
46 5 0
47 10 0
48 15 0
49 20 0
50 25 0
26 1 0
27 2 0
28 3 0
29 4 0
30 5 0
31 6 0
32 7 0
33 8 0
34 9 0
35 10 0
36 11 0
37 12 0
38 13 0
39 14 0
40 15 0
41 16 0
42 17 0
43 18 0
44 19 0
45 20 0
46 21 0
47 22 0
48 23 0
49 24 0
50 25 0
51 52 -1 -53 0
54 55 -6 -56 0
57 58 -11 -59 0
60 61 -16 -62 0
63 64 -21 -65 0
66 67 -2 -68 0
69 70 -7 -71 0
72 73 -12 -74 0
75 76 -17 -77 0
78 79 -22 -80 0
81 82 -3 -83 0
84 85 -8 -86 0
87 88 -13 -89 0
90 91 -18 -92 0
93 94 -23 -95 0
96 97 -4 -98 0
99 100 -9 -101 0
102 103 -14 -104 0
105 106 -19 -107 0
108 109 -24 -110 0
111 112 -5 -113 0
114 115 -10 -116 0
117 118 -15 -119 0
120 121 -20 -122 0
123 124 -25 -125 0
53 -51 0
56 -54 0
59 -57 0
62 -60 0
65 -63 0
68 -66 0
71 -69 0
74 -72 0
77 -75 0
80 -78 0
83 -81 0
86 -84 0
89 -87 0
92 -90 0
95 -93 0
98 -96 0
101 -99 0
104 -102 0
107 -105 0
110 -108 0
113 -111 0
116 -114 0
119 -117 0
122 -120 0
125 -123 0
53 -52 0
56 -55 0
59 -58 0
62 -61 0
65 -64 0
68 -67 0
71 -70 0
74 -73 0
77 -76 0
80 -79 0
83 -82 0
86 -85 0
89 -88 0
92 -91 0
95 -94 0
98 -97 0
101 -100 0
104 -103 0
107 -106 0
110 -109 0
113 -112 0
116 -115 0
119 -118 0
122 -121 0
125 -124 0
53 1 0
56 6 0
59 11 0
62 16 0
65 21 0
68 2 0
71 7 0
74 12 0
77 17 0
80 22 0
83 3 0
86 8 0
89 13 0
92 18 0
95 23 0
98 4 0
101 9 0
104 14 0
107 19 0
110 24 0
113 5 0
116 10 0
119 15 0
122 20 0
125 25 0
1 1 -126 -127 0
6 2 -128 -129 0
11 3 -130 -131 0
16 4 -132 -133 0
21 5 -134 -135 0
2 6 -136 -137 0
7 7 -138 -139 0
12 8 -140 -141 0
17 9 -142 -143 0
22 10 -144 -145 0
3 11 -146 -147 0
8 12 -148 -149 0
13 13 -150 -151 0
18 14 -152 -153 0
23 15 -154 -155 0
4 16 -156 -157 0
9 17 -158 -159 0
14 18 -160 -161 0
19 19 -162 -163 0
24 20 -164 -165 0
5 21 -166 -167 0
10 22 -168 -169 0
15 23 -170 -171 0
20 24 -172 -173 0
25 25 -174 -175 0
127 -1 0
129 -6 0
131 -11 0
133 -16 0
135 -21 0
137 -2 0
139 -7 0
141 -12 0
143 -17 0
145 -22 0
147 -3 0
149 -8 0
151 -13 0
153 -18 0
155 -23 0
157 -4 0
159 -9 0
161 -14 0
163 -19 0
165 -24 0
167 -5 0
169 -10 0
171 -15 0
173 -20 0
175 -25 0
127 -1 0
129 -2 0
131 -3 0
133 -4 0
135 -5 0
137 -6 0
139 -7 0
141 -8 0
143 -9 0
145 -10 0
147 -11 0
149 -12 0
151 -13 0
153 -14 0
155 -15 0
157 -16 0
159 -17 0
161 -18 0
163 -19 0
165 -20 0
167 -21 0
169 -22 0
171 -23 0
173 -24 0
175 -25 0
127 126 0
129 128 0
131 130 0
133 132 0
135 134 0
137 136 0
139 138 0
141 140 0
143 142 0
145 144 0
147 146 0
149 148 0
151 150 0
153 152 0
155 154 0
157 156 0
159 158 0
161 160 0
163 162 0
165 164 0
167 166 0
169 168 0
171 170 0
173 172 0
175 174 0
-52 -1 176 0
-55 -6 177 0
-58 -11 178 0
-61 -16 179 0
-64 -21 180 0
-67 -2 181 0
-70 -7 182 0
-73 -12 183 0
-76 -17 184 0
-79 -22 185 0
-82 -3 186 0
-85 -8 187 0
-88 -13 188 0
-91 -18 189 0
-94 -23 190 0
-97 -4 191 0
-100 -9 192 0
-103 -14 193 0
-106 -19 194 0
-109 -24 195 0
-112 -5 196 0
-115 -10 197 0
-118 -15 198 0
-121 -20 199 0
-124 -25 200 0
-176 52 0
-177 55 0
-178 58 0
-179 61 0
-180 64 0
-181 67 0
-182 70 0
-183 73 0
-184 76 0
-185 79 0
-186 82 0
-187 85 0
-188 88 0
-189 91 0
-190 94 0
-191 97 0
-192 100 0
-193 103 0
-194 106 0
-195 109 0
-196 112 0
-197 115 0
-198 118 0
-199 121 0
-200 124 0
-176 1 0
-177 6 0
-178 11 0
-179 16 0
-180 21 0
-181 2 0
-182 7 0
-183 12 0
-184 17 0
-185 22 0
-186 3 0
-187 8 0
-188 13 0
-189 18 0
-190 23 0
-191 4 0
-192 9 0
-193 14 0
-194 19 0
-195 24 0
-196 5 0
-197 10 0
-198 15 0
-199 20 0
-200 25 0
-201 176 -202 0
-203 177 -204 0
-205 178 -206 0
-207 179 -208 0
-209 180 -210 0
-211 181 -212 0
-213 182 -214 0
-215 183 -216 0
-217 184 -218 0
-219 185 -220 0
-221 186 -222 0
-223 187 -224 0
-225 188 -226 0
-227 189 -228 0
-229 190 -230 0
-231 191 -232 0
-233 192 -234 0
-235 193 -236 0
-237 194 -238 0
-239 195 -240 0
-241 196 -242 0
-243 197 -244 0
-245 198 -246 0
-247 199 -248 0
-249 200 -250 0
202 201 0
204 203 0
206 205 0
208 207 0
210 209 0
212 211 0
214 213 0
216 215 0
218 217 0
220 219 0
222 221 0
224 223 0
226 225 0
228 227 0
230 229 0
232 231 0
234 233 0
236 235 0
238 237 0
240 239 0
242 241 0
244 243 0
246 245 0
248 247 0
250 249 0
202 -176 0
204 -177 0
206 -178 0
208 -179 0
210 -180 0
212 -181 0
214 -182 0
216 -183 0
218 -184 0
220 -185 0
222 -186 0
224 -187 0
226 -188 0
228 -189 0
230 -190 0
232 -191 0
234 -192 0
236 -193 0
238 -194 0
240 -195 0
242 -196 0
244 -197 0
246 -198 0
248 -199 0
250 -200 0
201 -52 -1 -251 0
203 -55 -6 -252 0
205 -58 -11 -253 0
207 -61 -16 -254 0
209 -64 -21 -255 0
211 -67 -2 -256 0
213 -70 -7 -257 0
215 -73 -12 -258 0
217 -76 -17 -259 0
219 -79 -22 -260 0
221 -82 -3 -261 0
223 -85 -8 -262 0
225 -88 -13 -263 0
227 -91 -18 -264 0
229 -94 -23 -265 0
231 -97 -4 -266 0
233 -100 -9 -267 0
235 -103 -14 -268 0
237 -106 -19 -269 0
239 -109 -24 -270 0
241 -112 -5 -271 0
243 -115 -10 -272 0
245 -118 -15 -273 0
247 -121 -20 -274 0
249 -124 -25 -275 0
251 -201 0
252 -203 0
253 -205 0
254 -207 0
255 -209 0
256 -211 0
257 -213 0
258 -215 0
259 -217 0
260 -219 0
261 -221 0
262 -223 0
263 -225 0
264 -227 0
265 -229 0
266 -231 0
267 -233 0
268 -235 0
269 -237 0
270 -239 0
271 -241 0
272 -243 0
273 -245 0
274 -247 0
275 -249 0
251 52 0
252 55 0
253 58 0
254 61 0
255 64 0
256 67 0
257 70 0
258 73 0
259 76 0
260 79 0
261 82 0
262 85 0
263 88 0
264 91 0
265 94 0
266 97 0
267 100 0
268 103 0
269 106 0
270 109 0
271 112 0
272 115 0
273 118 0
274 121 0
275 124 0
251 1 0
252 6 0
253 11 0
254 16 0
255 21 0
256 2 0
257 7 0
258 12 0
259 17 0
260 22 0
261 3 0
262 8 0
263 13 0
264 18 0
265 23 0
266 4 0
267 9 0
268 14 0
269 19 0
270 24 0
271 5 0
272 10 0
273 15 0
274 20 0
275 25 0
1 1 276 0
6 2 277 0
11 3 278 0
16 4 279 0
21 5 280 0
2 6 281 0
7 7 282 0
12 8 283 0
17 9 284 0
22 10 285 0
3 11 286 0
8 12 287 0
13 13 288 0
18 14 289 0
23 15 290 0
4 16 291 0
9 17 292 0
14 18 293 0
19 19 294 0
24 20 295 0
5 21 296 0
10 22 297 0
15 23 298 0
20 24 299 0
25 25 300 0
-276 -1 0
-277 -6 0
-278 -11 0
-279 -16 0
-280 -21 0
-281 -2 0
-282 -7 0
-283 -12 0
-284 -17 0
-285 -22 0
-286 -3 0
-287 -8 0
-288 -13 0
-289 -18 0
-290 -23 0
-291 -4 0
-292 -9 0
-293 -14 0
-294 -19 0
-295 -24 0
-296 -5 0
-297 -10 0
-298 -15 0
-299 -20 0
-300 -25 0
-276 -1 0
-277 -2 0
-278 -3 0
-279 -4 0
-280 -5 0
-281 -6 0
-282 -7 0
-283 -8 0
-284 -9 0
-285 -10 0
-286 -11 0
-287 -12 0
-288 -13 0
-289 -14 0
-290 -15 0
-291 -16 0
-292 -17 0
-293 -18 0
-294 -19 0
-295 -20 0
-296 -21 0
-297 -22 0
-298 -23 0
-299 -24 0
-300 -25 0
126 276 -301 0
128 277 -302 0
130 278 -303 0
132 279 -304 0
134 280 -305 0
136 281 -306 0
138 282 -307 0
140 283 -308 0
142 284 -309 0
144 285 -310 0
146 286 -311 0
148 287 -312 0
150 288 -313 0
152 289 -314 0
154 290 -315 0
156 291 -316 0
158 292 -317 0
160 293 -318 0
162 294 -319 0
164 295 -320 0
166 296 -321 0
168 297 -322 0
170 298 -323 0
172 299 -324 0
174 300 -325 0
301 -126 0
302 -128 0
303 -130 0
304 -132 0
305 -134 0
306 -136 0
307 -138 0
308 -140 0
309 -142 0
310 -144 0
311 -146 0
312 -148 0
313 -150 0
314 -152 0
315 -154 0
316 -156 0
317 -158 0
318 -160 0
319 -162 0
320 -164 0
321 -166 0
322 -168 0
323 -170 0
324 -172 0
325 -174 0
301 -276 0
302 -277 0
303 -278 0
304 -279 0
305 -280 0
306 -281 0
307 -282 0
308 -283 0
309 -284 0
310 -285 0
311 -286 0
312 -287 0
313 -288 0
314 -289 0
315 -290 0
316 -291 0
317 -292 0
318 -293 0
319 -294 0
320 -295 0
321 -296 0
322 -297 0
323 -298 0
324 -299 0
325 -300 0
-1 52 326 0
-6 55 327 0
-11 58 328 0
-16 61 329 0
-21 64 330 0
-2 67 331 0
-7 70 332 0
-12 73 333 0
-17 76 334 0
-22 79 335 0
-3 82 336 0
-8 85 337 0
-13 88 338 0
-18 91 339 0
-23 94 340 0
-4 97 341 0
-9 100 342 0
-14 103 343 0
-19 106 344 0
-24 109 345 0
-5 112 346 0
-10 115 347 0
-15 118 348 0
-20 121 349 0
-25 124 350 0
-326 1 0
-327 6 0
-328 11 0
-329 16 0
-330 21 0
-331 2 0
-332 7 0
-333 12 0
-334 17 0
-335 22 0
-336 3 0
-337 8 0
-338 13 0
-339 18 0
-340 23 0
-341 4 0
-342 9 0
-343 14 0
-344 19 0
-345 24 0
-346 5 0
-347 10 0
-348 15 0
-349 20 0
-350 25 0
-326 -52 0
-327 -55 0
-328 -58 0
-329 -61 0
-330 -64 0
-331 -67 0
-332 -70 0
-333 -73 0
-334 -76 0
-335 -79 0
-336 -82 0
-337 -85 0
-338 -88 0
-339 -91 0
-340 -94 0
-341 -97 0
-342 -100 0
-343 -103 0
-344 -106 0
-345 -109 0
-346 -112 0
-347 -115 0
-348 -118 0
-349 -121 0
-350 -124 0
-51 326 -351 0
-54 327 -352 0
-57 328 -353 0
-60 329 -354 0
-63 330 -355 0
-66 331 -356 0
-69 332 -357 0
-72 333 -358 0
-75 334 -359 0
-78 335 -360 0
-81 336 -361 0
-84 337 -362 0
-87 338 -363 0
-90 339 -364 0
-93 340 -365 0
-96 341 -366 0
-99 342 -367 0
-102 343 -368 0
-105 344 -369 0
-108 345 -370 0
-111 346 -371 0
-114 347 -372 0
-117 348 -373 0
-120 349 -374 0
-123 350 -375 0
351 51 0
352 54 0
353 57 0
354 60 0
355 63 0
356 66 0
357 69 0
358 72 0
359 75 0
360 78 0
361 81 0
362 84 0
363 87 0
364 90 0
365 93 0
366 96 0
367 99 0
368 102 0
369 105 0
370 108 0
371 111 0
372 114 0
373 117 0
374 120 0
375 123 0
351 -326 0
352 -327 0
353 -328 0
354 -329 0
355 -330 0
356 -331 0
357 -332 0
358 -333 0
359 -334 0
360 -335 0
361 -336 0
362 -337 0
363 -338 0
364 -339 0
365 -340 0
366 -341 0
367 -342 0
368 -343 0
369 -344 0
370 -345 0
371 -346 0
372 -347 0
373 -348 0
374 -349 0
375 -350 0
1 -26 -53 -127 -202 -251 -301 -351 376 0
7 -27 -56 -129 -204 -252 -302 -352 377 0
13 -28 -59 -131 -206 -253 -303 -353 378 0
19 -29 -62 -133 -208 -254 -304 -354 379 0
25 -30 -65 -135 -210 -255 -305 -355 380 0
1 -31 -68 -137 -212 -256 -306 -356 381 0
7 -32 -71 -139 -214 -257 -307 -357 382 0
13 -33 -74 -141 -216 -258 -308 -358 383 0
19 -34 -77 -143 -218 -259 -309 -359 384 0
25 -35 -80 -145 -220 -260 -310 -360 385 0
1 -36 -83 -147 -222 -261 -311 -361 386 0
7 -37 -86 -149 -224 -262 -312 -362 387 0
13 -38 -89 -151 -226 -263 -313 -363 388 0
19 -39 -92 -153 -228 -264 -314 -364 389 0
25 -40 -95 -155 -230 -265 -315 -365 390 0
1 -41 -98 -157 -232 -266 -316 -366 391 0
7 -42 -101 -159 -234 -267 -317 -367 392 0
13 -43 -104 -161 -236 -268 -318 -368 393 0
19 -44 -107 -163 -238 -269 -319 -369 394 0
25 -45 -110 -165 -240 -270 -320 -370 395 0
1 -46 -113 -167 -242 -271 -321 -371 396 0
7 -47 -116 -169 -244 -272 -322 -372 397 0
13 -48 -119 -171 -246 -273 -323 -373 398 0
19 -49 -122 -173 -248 -274 -324 -374 399 0
25 -50 -125 -175 -250 -275 -325 -375 400 0
-376 -1 0
-377 -7 0
-378 -13 0
-379 -19 0
-380 -25 0
-381 -1 0
-382 -7 0
-383 -13 0
-384 -19 0
-385 -25 0
-386 -1 0
-387 -7 0
-388 -13 0
-389 -19 0
-390 -25 0
-391 -1 0
-392 -7 0
-393 -13 0
-394 -19 0
-395 -25 0
-396 -1 0
-397 -7 0
-398 -13 0
-399 -19 0
-400 -25 0
-376 26 0
-377 27 0
-378 28 0
-379 29 0
-380 30 0
-381 31 0
-382 32 0
-383 33 0
-384 34 0
-385 35 0
-386 36 0
-387 37 0
-388 38 0
-389 39 0
-390 40 0
-391 41 0
-392 42 0
-393 43 0
-394 44 0
-395 45 0
-396 46 0
-397 47 0
-398 48 0
-399 49 0
-400 50 0
-376 53 0
-377 56 0
-378 59 0
-379 62 0
-380 65 0
-381 68 0
-382 71 0
-383 74 0
-384 77 0
-385 80 0
-386 83 0
-387 86 0
-388 89 0
-389 92 0
-390 95 0
-391 98 0
-392 101 0
-393 104 0
-394 107 0
-395 110 0
-396 113 0
-397 116 0
-398 119 0
-399 122 0
-400 125 0
-376 127 0
-377 129 0
-378 131 0
-379 133 0
-380 135 0
-381 137 0
-382 139 0
-383 141 0
-384 143 0
-385 145 0
-386 147 0
-387 149 0
-388 151 0
-389 153 0
-390 155 0
-391 157 0
-392 159 0
-393 161 0
-394 163 0
-395 165 0
-396 167 0
-397 169 0
-398 171 0
-399 173 0
-400 175 0
-376 202 0
-377 204 0
-378 206 0
-379 208 0
-380 210 0
-381 212 0
-382 214 0
-383 216 0
-384 218 0
-385 220 0
-386 222 0
-387 224 0
-388 226 0
-389 228 0
-390 230 0
-391 232 0
-392 234 0
-393 236 0
-394 238 0
-395 240 0
-396 242 0
-397 244 0
-398 246 0
-399 248 0
-400 250 0
-376 251 0
-377 252 0
-378 253 0
-379 254 0
-380 255 0
-381 256 0
-382 257 0
-383 258 0
-384 259 0
-385 260 0
-386 261 0
-387 262 0
-388 263 0
-389 264 0
-390 265 0
-391 266 0
-392 267 0
-393 268 0
-394 269 0
-395 270 0
-396 271 0
-397 272 0
-398 273 0
-399 274 0
-400 275 0
-376 301 0
-377 302 0
-378 303 0
-379 304 0
-380 305 0
-381 306 0
-382 307 0
-383 308 0
-384 309 0
-385 310 0
-386 311 0
-387 312 0
-388 313 0
-389 314 0
-390 315 0
-391 316 0
-392 317 0
-393 318 0
-394 319 0
-395 320 0
-396 321 0
-397 322 0
-398 323 0
-399 324 0
-400 325 0
-376 351 0
-377 352 0
-378 353 0
-379 354 0
-380 355 0
-381 356 0
-382 357 0
-383 358 0
-384 359 0
-385 360 0
-386 361 0
-387 362 0
-388 363 0
-389 364 0
-390 365 0
-391 366 0
-392 367 0
-393 368 0
-394 369 0
-395 370 0
-396 371 0
-397 372 0
-398 373 0
-399 374 0
-400 375 0
376 0
377 0
378 0
379 0
380 0
381 0
382 0
383 0
384 0
385 0
386 0
387 0
388 0
389 0
390 0
391 0
392 0
393 0
394 0
395 0
396 0
397 0
398 0
399 0
400 0
1 401 0
-401 402 0
2 -401 403 0
-403 404 0
3 -403 405 0
-405 406 0
4 -405 407 0
-407 408 0
5 -407 409 0
-409 410 0
6 -409 411 0
-411 412 0
7 -411 413 0
-413 414 0
8 -413 0
2 402 0
-402 415 0
3 -402 404 0
-404 416 0
4 -404 406 0
-406 417 0
5 -406 408 0
-408 418 0
6 -408 410 0
-410 419 0
7 -410 412 0
-412 420 0
8 -412 414 0
-414 421 0
9 -414 0
3 415 0
-415 422 0
4 -415 416 0
-416 423 0
5 -416 417 0
-417 424 0
6 -417 418 0
-418 425 0
7 -418 419 0
-419 426 0
8 -419 420 0
-420 427 0
9 -420 421 0
-421 428 0
10 -421 0
4 422 0
-422 429 0
5 -422 423 0
-423 430 0
6 -423 424 0
-424 431 0
7 -424 425 0
-425 432 0
8 -425 426 0
-426 433 0
9 -426 427 0
-427 434 0
10 -427 428 0
-428 435 0
11 -428 0
5 429 0
-429 436 0
6 -429 430 0
-430 437 0
7 -430 431 0
-431 438 0
8 -431 432 0
-432 439 0
9 -432 433 0
-433 440 0
10 -433 434 0
-434 441 0
11 -434 435 0
-435 442 0
12 -435 0
6 436 0
-436 443 0
7 -436 437 0
-437 444 0
8 -437 438 0
-438 445 0
9 -438 439 0
-439 446 0
10 -439 440 0
-440 447 0
11 -440 441 0
-441 448 0
12 -441 442 0
-442 449 0
13 -442 0
7 443 0
-443 450 0
8 -443 444 0
-444 451 0
9 -444 445 0
-445 452 0
10 -445 446 0
-446 453 0
11 -446 447 0
-447 454 0
12 -447 448 0
-448 455 0
13 -448 449 0
-449 456 0
14 -449 0
8 450 0
-450 457 0
9 -450 451 0
-451 458 0
10 -451 452 0
-452 459 0
11 -452 453 0
-453 460 0
12 -453 454 0
-454 461 0
13 -454 455 0
-455 462 0
14 -455 456 0
-456 463 0
15 -456 0
9 457 0
-457 464 0
10 -457 458 0
-458 465 0
11 -458 459 0
-459 466 0
12 -459 460 0
-460 467 0
13 -460 461 0
-461 468 0
14 -461 462 0
-462 469 0
15 -462 463 0
-463 470 0
16 -463 0
10 464 0
-464 471 0
11 -464 465 0
-465 472 0
12 -465 466 0
-466 473 0
13 -466 467 0
-467 474 0
14 -467 468 0
-468 475 0
15 -468 469 0
-469 476 0
16 -469 470 0
-470 477 0
17 -470 0
11 471 0
-471 478 0
12 -471 472 0
-472 479 0
13 -472 473 0
-473 480 0
14 -473 474 0
-474 481 0
15 -474 475 0
-475 482 0
16 -475 476 0
-476 483 0
17 -476 477 0
-477 484 0
18 -477 0
12 478 0
-478 485 0
13 -478 479 0
-479 486 0
14 -479 480 0
-480 487 0
15 -480 481 0
-481 488 0
16 -481 482 0
-482 489 0
17 -482 483 0
-483 490 0
18 -483 484 0
-484 491 0
19 -484 0
13 485 0
-485 492 0
14 -485 486 0
-486 493 0
15 -486 487 0
-487 494 0
16 -487 488 0
-488 495 0
17 -488 489 0
-489 496 0
18 -489 490 0
-490 497 0
19 -490 491 0
-491 498 0
20 -491 0
14 492 0
-492 499 0
15 -492 493 0
-493 500 0
16 -493 494 0
-494 501 0
17 -494 495 0
-495 502 0
18 -495 496 0
-496 503 0
19 -496 497 0
-497 504 0
20 -497 498 0
-498 505 0
21 -498 0
15 499 0
-499 506 0
16 -499 500 0
-500 507 0
17 -500 501 0
-501 508 0
18 -501 502 0
-502 509 0
19 -502 503 0
-503 510 0
20 -503 504 0
-504 511 0
21 -504 505 0
-505 512 0
22 -505 0
16 506 0
-506 513 0
17 -506 507 0
-507 514 0
18 -507 508 0
-508 515 0
19 -508 509 0
-509 516 0
20 -509 510 0
-510 517 0
21 -510 511 0
-511 518 0
22 -511 512 0
-512 519 0
23 -512 0
17 513 0
-513 520 0
18 -513 514 0
-514 521 0
19 -514 515 0
-515 522 0
20 -515 516 0
-516 523 0
21 -516 517 0
-517 524 0
22 -517 518 0
-518 525 0
23 -518 519 0
-519 526 0
24 -519 0
18 520 0
19 -520 521 0
20 -521 522 0
21 -522 523 0
22 -523 524 0
23 -524 525 0
24 -525 526 0
25 -526 0
-1 527 0
-527 528 0
-2 -527 529 0
-529 530 0
-3 -529 531 0
-531 532 0
-4 -531 533 0
-533 534 0
-5 -533 535 0
-535 536 0
-6 -535 537 0
-537 538 0
-7 -537 539 0
-539 540 0
-8 -539 541 0
-541 542 0
-9 -541 543 0
-543 544 0
-10 -543 545 0
-545 546 0
-11 -545 547 0
-547 548 0
-12 -547 549 0
-549 550 0
-13 -549 551 0
-551 552 0
-14 -551 553 0
-553 554 0
-15 -553 555 0
-555 556 0
-16 -555 557 0
-557 558 0
-17 -557 559 0
-559 560 0
-18 -559 561 0
-561 562 0
-19 -561 0
-2 528 0
-528 563 0
-3 -528 530 0
-530 564 0
-4 -530 532 0
-532 565 0
-5 -532 534 0
-534 566 0
-6 -534 536 0
-536 567 0
-7 -536 538 0
-538 568 0
-8 -538 540 0
-540 569 0
-9 -540 542 0
-542 570 0
-10 -542 544 0
-544 571 0
-11 -544 546 0
-546 572 0
-12 -546 548 0
-548 573 0
-13 -548 550 0
-550 574 0
-14 -550 552 0
-552 575 0
-15 -552 554 0
-554 576 0
-16 -554 556 0
-556 577 0
-17 -556 558 0
-558 578 0
-18 -558 560 0
-560 579 0
-19 -560 562 0
-562 580 0
-20 -562 0
-3 563 0
-563 581 0
-4 -563 564 0
-564 582 0
-5 -564 565 0
-565 583 0
-6 -565 566 0
-566 584 0
-7 -566 567 0
-567 585 0
-8 -567 568 0
-568 586 0
-9 -568 569 0
-569 587 0
-10 -569 570 0
-570 588 0
-11 -570 571 0
-571 589 0
-12 -571 572 0
-572 590 0
-13 -572 573 0
-573 591 0
-14 -573 574 0
-574 592 0
-15 -574 575 0
-575 593 0
-16 -575 576 0
-576 594 0
-17 -576 577 0
-577 595 0
-18 -577 578 0
-578 596 0
-19 -578 579 0
-579 597 0
-20 -579 580 0
-580 598 0
-21 -580 0
-4 581 0
-581 599 0
-5 -581 582 0
-582 600 0
-6 -582 583 0
-583 601 0
-7 -583 584 0
-584 602 0
-8 -584 585 0
-585 603 0
-9 -585 586 0
-586 604 0
-10 -586 587 0
-587 605 0
-11 -587 588 0
-588 606 0
-12 -588 589 0
-589 607 0
-13 -589 590 0
-590 608 0
-14 -590 591 0
-591 609 0
-15 -591 592 0
-592 610 0
-16 -592 593 0
-593 611 0
-17 -593 594 0
-594 612 0
-18 -594 595 0
-595 613 0
-19 -595 596 0
-596 614 0
-20 -596 597 0
-597 615 0
-21 -597 598 0
-598 616 0
-22 -598 0
-5 599 0
-599 617 0
-6 -599 600 0
-600 618 0
-7 -600 601 0
-601 619 0
-8 -601 602 0
-602 620 0
-9 -602 603 0
-603 621 0
-10 -603 604 0
-604 622 0
-11 -604 605 0
-605 623 0
-12 -605 606 0
-606 624 0
-13 -606 607 0
-607 625 0
-14 -607 608 0
-608 626 0
-15 -608 609 0
-609 627 0
-16 -609 610 0
-610 628 0
-17 -610 611 0
-611 629 0
-18 -611 612 0
-612 630 0
-19 -612 613 0
-613 631 0
-20 -613 614 0
-614 632 0
-21 -614 615 0
-615 633 0
-22 -615 616 0
-616 634 0
-23 -616 0
-6 617 0
-617 635 0
-7 -617 618 0
-618 636 0
-8 -618 619 0
-619 637 0
-9 -619 620 0
-620 638 0
-10 -620 621 0
-621 639 0
-11 -621 622 0
-622 640 0
-12 -622 623 0
-623 641 0
-13 -623 624 0
-624 642 0
-14 -624 625 0
-625 643 0
-15 -625 626 0
-626 644 0
-16 -626 627 0
-627 645 0
-17 -627 628 0
-628 646 0
-18 -628 629 0
-629 647 0
-19 -629 630 0
-630 648 0
-20 -630 631 0
-631 649 0
-21 -631 632 0
-632 650 0
-22 -632 633 0
-633 651 0
-23 -633 634 0
-634 652 0
-24 -634 0
-7 635 0
-8 -635 636 0
-9 -636 637 0
-10 -637 638 0
-11 -638 639 0
-12 -639 640 0
-13 -640 641 0
-14 -641 642 0
-15 -642 643 0
-16 -643 644 0
-17 -644 645 0
-18 -645 646 0
-19 -646 647 0
-20 -647 648 0
-21 -648 649 0
-22 -649 650 0
-23 -650 651 0
-24 -651 652 0
-25 -652 0
653 0
654 655 0
-654 -655 0
-654 -656 657 0
-654 -658 659 0
-654 -660 661 0
657 662 0
-657 -662 0
-657 -663 654 0
-657 -664 659 0
-657 -665 661 0
659 666 0
-659 -666 0
-659 -667 654 0
-659 -668 657 0
-659 -669 661 0
661 670 0
-661 -670 0
-661 -671 654 0
-661 -672 657 0
-661 -673 659 0
674 0
655 654 0
-655 -654 0
-655 -657 656 0
-655 -659 658 0
-655 -661 660 0
656 663 0
-656 -663 0
-656 -662 655 0
-656 -664 658 0
-656 -665 660 0
658 667 0
-658 -667 0
-658 -666 655 0
-658 -668 656 0
-658 -669 660 0
660 671 0
-660 -671 0
-660 -670 655 0
-660 -672 656 0
-660 -673 658 0
675 0
662 657 0
-662 -657 0
-662 -654 663 0
-662 -659 664 0
-662 -661 665 0
663 656 0
-663 -656 0
-663 -655 662 0
-663 -658 664 0
-663 -660 665 0
664 668 0
-664 -668 0
-664 -666 662 0
-664 -667 663 0
-664 -669 665 0
665 672 0
-665 -672 0
-665 -670 662 0
-665 -671 663 0
-665 -673 664 0
676 0
666 659 0
-666 -659 0
-666 -654 667 0
-666 -657 668 0
-666 -661 669 0
667 658 0
-667 -658 0
-667 -655 666 0
-667 -656 668 0
-667 -660 669 0
668 664 0
-668 -664 0
-668 -662 666 0
-668 -663 667 0
-668 -665 669 0
669 673 0
-669 -673 0
-669 -670 666 0
-669 -671 667 0
-669 -672 668 0
677 0
670 661 0
-670 -661 0
-670 -654 671 0
-670 -657 672 0
-670 -659 673 0
671 660 0
-671 -660 0
-671 -655 670 0
-671 -656 672 0
-671 -658 673 0
672 665 0
-672 -665 0
-672 -662 670 0
-672 -663 671 0
-672 -664 673 0
673 669 0
-673 -669 0
-673 -666 670 0
-673 -667 671 0
-673 -668 672 0
-678 0
-679 654 0
-680 657 0
-680 663 0
-657 -663 680 0
-681 659 0
-681 667 0
-659 -667 681 0
-682 661 0
-682 671 0
-661 -671 682 0
-679 -680 0
-679 -681 0
-679 -682 0
-654 679 680 681 682 0
-683 657 0
-684 654 0
-684 656 0
-654 -656 684 0
-685 659 0
-685 668 0
-659 -668 685 0
-686 661 0
-686 672 0
-661 -672 686 0
-683 -684 0
-683 -685 0
-683 -686 0
-657 683 684 685 686 0
-687 659 0
-688 654 0
-688 658 0
-654 -658 688 0
-689 657 0
-689 664 0
-657 -664 689 0
-690 661 0
-690 673 0
-661 -673 690 0
-687 -688 0
-687 -689 0
-687 -690 0
-659 687 688 689 690 0
-691 661 0
-692 654 0
-692 660 0
-654 -660 692 0
-693 657 0
-693 665 0
-657 -665 693 0
-694 659 0
-694 669 0
-659 -669 694 0
-691 -692 0
-691 -693 0
-691 -694 0
-661 691 692 693 694 0
-695 655 0
-696 656 0
-696 662 0
-656 -662 696 0
-697 658 0
-697 666 0
-658 -666 697 0
-698 660 0
-698 670 0
-660 -670 698 0
-695 -696 0
-695 -697 0
-695 -698 0
-655 695 696 697 698 0
-699 0
-700 656 0
-701 655 0
-701 657 0
-655 -657 701 0
-702 658 0
-702 668 0
-658 -668 702 0
-703 660 0
-703 672 0
-660 -672 703 0
-700 -701 0
-700 -702 0
-700 -703 0
-656 700 701 702 703 0
-704 658 0
-705 655 0
-705 659 0
-655 -659 705 0
-706 656 0
-706 664 0
-656 -664 706 0
-707 660 0
-707 673 0
-660 -673 707 0
-704 -705 0
-704 -706 0
-704 -707 0
-658 704 705 706 707 0
-708 660 0
-709 655 0
-709 661 0
-655 -661 709 0
-710 656 0
-710 665 0
-656 -665 710 0
-711 658 0
-711 669 0
-658 -669 711 0
-708 -709 0
-708 -710 0
-708 -711 0
-660 708 709 710 711 0
-712 662 0
-713 663 0
-713 655 0
-663 -655 713 0
-714 664 0
-714 666 0
-664 -666 714 0
-715 665 0
-715 670 0
-665 -670 715 0
-712 -713 0
-712 -714 0
-712 -715 0
-662 712 713 714 715 0
-716 663 0
-717 662 0
-717 654 0
-662 -654 717 0
-718 664 0
-718 667 0
-664 -667 718 0
-719 665 0
-719 671 0
-665 -671 719 0
-716 -717 0
-716 -718 0
-716 -719 0
-663 716 717 718 719 0
-720 0
-721 664 0
-722 662 0
-722 659 0
-662 -659 722 0
-723 663 0
-723 658 0
-663 -658 723 0
-724 665 0
-724 673 0
-665 -673 724 0
-721 -722 0
-721 -723 0
-721 -724 0
-664 721 722 723 724 0
-725 665 0
-726 662 0
-726 661 0
-662 -661 726 0
-727 663 0
-727 660 0
-663 -660 727 0
-728 664 0
-728 669 0
-664 -669 728 0
-725 -726 0
-725 -727 0
-725 -728 0
-665 725 726 727 728 0
-729 666 0
-730 667 0
-730 655 0
-667 -655 730 0
-731 668 0
-731 662 0
-668 -662 731 0
-732 669 0
-732 670 0
-669 -670 732 0
-729 -730 0
-729 -731 0
-729 -732 0
-666 729 730 731 732 0
-733 667 0
-734 666 0
-734 654 0
-666 -654 734 0
-735 668 0
-735 663 0
-668 -663 735 0
-736 669 0
-736 671 0
-669 -671 736 0
-733 -734 0
-733 -735 0
-733 -736 0
-667 733 734 735 736 0
-737 668 0
-738 666 0
-738 657 0
-666 -657 738 0
-739 667 0
-739 656 0
-667 -656 739 0
-740 669 0
-740 672 0
-669 -672 740 0
-737 -738 0
-737 -739 0
-737 -740 0
-668 737 738 739 740 0
-741 0
-742 669 0
-743 666 0
-743 661 0
-666 -661 743 0
-744 667 0
-744 660 0
-667 -660 744 0
-745 668 0
-745 665 0
-668 -665 745 0
-742 -743 0
-742 -744 0
-742 -745 0
-669 742 743 744 745 0
-746 670 0
-747 671 0
-747 655 0
-671 -655 747 0
-748 672 0
-748 662 0
-672 -662 748 0
-749 673 0
-749 666 0
-673 -666 749 0
-746 -747 0
-746 -748 0
-746 -749 0
-670 746 747 748 749 0
-750 671 0
-751 670 0
-751 654 0
-670 -654 751 0
-752 672 0
-752 663 0
-672 -663 752 0
-753 673 0
-753 667 0
-673 -667 753 0
-750 -751 0
-750 -752 0
-750 -753 0
-671 750 751 752 753 0
-754 672 0
-755 670 0
-755 657 0
-670 -657 755 0
-756 671 0
-756 656 0
-671 -656 756 0
-757 673 0
-757 668 0
-673 -668 757 0
-754 -755 0
-754 -756 0
-754 -757 0
-672 754 755 756 757 0
-758 673 0
-759 670 0
-759 659 0
-670 -659 759 0
-760 671 0
-760 658 0
-671 -658 760 0
-761 672 0
-761 664 0
-672 -664 761 0
-758 -759 0
-758 -760 0
-758 -761 0
-673 758 759 760 761 0
-762 0
-763 653 0
-763 654 0
-763 657 0
-763 659 0
-763 661 0
-653 -654 -657 -659 -661 763 0
-764 653 0
-764 655 0
-764 662 0
-764 666 0
-764 670 0
-653 -655 -662 -666 -670 764 0
-765 655 0
-765 674 0
-765 656 0
-765 658 0
-765 660 0
-655 -674 -656 -658 -660 765 0
-766 654 0
-766 674 0
-766 663 0
-766 667 0
-766 671 0
-654 -674 -663 -667 -671 766 0
-767 662 0
-767 663 0
-767 675 0
-767 664 0
-767 665 0
-662 -663 -675 -664 -665 767 0
-768 657 0
-768 656 0
-768 675 0
-768 668 0
-768 672 0
-657 -656 -675 -668 -672 768 0
-769 666 0
-769 667 0
-769 668 0
-769 676 0
-769 669 0
-666 -667 -668 -676 -669 769 0
-770 659 0
-770 658 0
-770 664 0
-770 676 0
-770 673 0
-659 -658 -664 -676 -673 770 0
-771 670 0
-771 671 0
-771 672 0
-771 673 0
-771 677 0
-670 -671 -672 -673 -677 771 0
-772 661 0
-772 660 0
-772 665 0
-772 669 0
-772 677 0
-661 -660 -665 -669 -677 772 0
-678 52 0
-764 -763 52 0
-52 678 764 0
-52 678 763 0
-679 67 0
-764 -765 67 0
-67 679 764 0
-67 679 765 0
-683 82 0
-764 -767 82 0
-82 683 764 0
-82 683 767 0
-687 97 0
-764 -769 97 0
-97 687 764 0
-97 687 769 0
-691 112 0
-764 -771 112 0
-112 691 764 0
-112 691 771 0
-695 55 0
-766 -763 55 0
-55 695 766 0
-55 695 763 0
-699 70 0
-766 -765 70 0
-70 699 766 0
-70 699 765 0
-700 85 0
-766 -767 85 0
-85 700 766 0
-85 700 767 0
-704 100 0
-766 -769 100 0
-100 704 766 0
-100 704 769 0
-708 115 0
-766 -771 115 0
-115 708 766 0
-115 708 771 0
-712 58 0
-768 -763 58 0
-58 712 768 0
-58 712 763 0
-716 73 0
-768 -765 73 0
-73 716 768 0
-73 716 765 0
-720 88 0
-768 -767 88 0
-88 720 768 0
-88 720 767 0
-721 103 0
-768 -769 103 0
-103 721 768 0
-103 721 769 0
-725 118 0
-768 -771 118 0
-118 725 768 0
-118 725 771 0
-729 61 0
-770 -763 61 0
-61 729 770 0
-61 729 763 0
-733 76 0
-770 -765 76 0
-76 733 770 0
-76 733 765 0
-737 91 0
-770 -767 91 0
-91 737 770 0
-91 737 767 0
-741 106 0
-770 -769 106 0
-106 741 770 0
-106 741 769 0
-742 121 0
-770 -771 121 0
-121 742 770 0
-121 742 771 0
-746 64 0
-772 -763 64 0
-64 746 772 0
-64 746 763 0
-750 79 0
-772 -765 79 0
-79 750 772 0
-79 750 765 0
-754 94 0
-772 -767 94 0
-94 754 772 0
-94 754 767 0
-758 109 0
-772 -769 109 0
-109 758 772 0
-109 758 769 0
-762 124 0
-772 -771 124 0
-124 762 772 0
-124 762 771 0
