p cnf 720 2030
c ind 1 2 3 4 5 6 7 8 9 10 11 12 13 14 15 16 17 18 19 20 21 22 23 24 25 26 27 28 29 30 31 32 33 34 35 36 37 38 39 40 41 42 43 44 45 46 47 48 49 50 0
c ind 51 52 53 54 55 56 57 58 59 60 61 62 63 64 65 66 67 68 69 70 71 72 73 74 75 76 77 78 79 80 81 82 83 84 85 86 87 88 89 90 91 92 93 94 95 96 97 98 99 100 0
c ind 101 102 103 104 105 106 107 108 109 110 111 112 113 114 115 116 117 118 119 120 121 122 123 124 125 126 127 128 129 130 131 132 133 134 135 136 137 138 139 140 141 142 143 144 145 146 147 148 149 150 0
c ind 151 152 153 154 155 156 157 158 159 160 161 162 163 164 165 166 167 168 169 170 171 172 173 174 175 176 177 178 179 180 181 182 183 184 185 186 187 188 189 190 191 192 193 194 195 196 197 198 199 200 0
c ind 201 202 203 204 205 206 207 208 209 210 211 212 213 214 215 216 217 218 219 220 221 222 223 224 225 226 227 228 229 230 231 232 233 234 235 236 237 238 239 240 241 242 243 244 245 246 247 248 249 250 0
c ind 251 252 253 254 255 256 257 258 259 260 261 262 263 264 265 266 267 268 269 270 271 272 273 274 275 276 277 278 279 280 281 282 283 284 285 286 287 288 289 290 291 292 293 294 295 296 297 298 299 300 0
c ind 301 302 303 304 305 306 307 308 309 310 311 312 313 314 315 316 317 318 319 320 321 322 323 324 325 326 327 328 329 330 331 332 333 334 335 336 337 338 339 340 341 342 343 344 345 346 347 348 349 350 0
c ind 351 352 353 354 355 356 357 358 359 360 361 362 363 364 365 366 367 368 369 370 371 372 373 374 375 376 377 378 379 380 381 382 383 384 385 386 387 388 389 390 391 392 393 394 395 396 397 398 399 400 0
c ind 601 602 603 604 605 606 607 608 609 610 611 612 613 614 615 616 617 618 619 620 621 622 623 624 625 626 627 628 629 630 631 632 633 634 635 636 637 638 639 640 641 642 643 644 645 646 647 648 649 650 0
c ind 651 652 653 654 655 656 657 658 659 660 661 662 663 664 665 666 667 668 669 670 671 672 673 674 675 676 677 678 679 680 681 682 683 684 685 686 687 688 689 690 691 692 693 694 695 696 697 698 699 700 0
c ind 701 702 703 704 705 706 707 708 709 710 711 712 713 714 715 716 717 718 719 720 0
1 2 3 4 5 0
6 7 8 9 10 0
11 12 13 14 15 0
16 17 18 19 20 0
21 22 23 24 25 0
-1 -1 -26 0
-6 -2 -27 0
-11 -3 -28 0
-16 -4 -29 0
-21 -5 -30 0
-2 -6 -31 0
-7 -7 -32 0
-12 -8 -33 0
-17 -9 -34 0
-22 -10 -35 0
-3 -11 -36 0
-8 -12 -37 0
-13 -13 -38 0
-18 -14 -39 0
-23 -15 -40 0
-4 -16 -41 0
-9 -17 -42 0
-14 -18 -43 0
-19 -19 -44 0
-24 -20 -45 0
-5 -21 -46 0
-10 -22 -47 0
-15 -23 -48 0
-20 -24 -49 0
-25 -25 -50 0
26 1 0
27 6 0
28 11 0
29 16 0
30 21 0
31 2 0
32 7 0
33 12 0
34 17 0
35 22 0
36 3 0
37 8 0
38 13 0
39 18 0
40 23 0
41 4 0
42 9 0
43 14 0
44 19 0
45 24 0
46 5 0
47 10 0
48 15 0
49 20 0
50 25 0
26 1 0
27 2 0
28 3 0
29 4 0
30 5 0
31 6 0
32 7 0
33 8 0
34 9 0
35 10 0
36 11 0
37 12 0
38 13 0
39 14 0
40 15 0
41 16 0
42 17 0
43 18 0
44 19 0
45 20 0
46 21 0
47 22 0
48 23 0
49 24 0
50 25 0
51 52 -1 -53 0
54 55 -6 -56 0
57 58 -11 -59 0
60 61 -16 -62 0
63 64 -21 -65 0
66 67 -2 -68 0
69 70 -7 -71 0
72 73 -12 -74 0
75 76 -17 -77 0
78 79 -22 -80 0
81 82 -3 -83 0
84 85 -8 -86 0
87 88 -13 -89 0
90 91 -18 -92 0
93 94 -23 -95 0
96 97 -4 -98 0
99 100 -9 -101 0
102 103 -14 -104 0
105 106 -19 -107 0
108 109 -24 -110 0
111 112 -5 -113 0
114 115 -10 -116 0
117 118 -15 -119 0
120 121 -20 -122 0
123 124 -25 -125 0
53 -51 0
56 -54 0
59 -57 0
62 -60 0
65 -63 0
68 -66 0
71 -69 0
74 -72 0
77 -75 0
80 -78 0
83 -81 0
86 -84 0
89 -87 0
92 -90 0
95 -93 0
98 -96 0
101 -99 0
104 -102 0
107 -105 0
110 -108 0
113 -111 0
116 -114 0
119 -117 0
122 -120 0
125 -123 0
53 -52 0
56 -55 0
59 -58 0
62 -61 0
65 -64 0
68 -67 0
71 -70 0
74 -73 0
77 -76 0
80 -79 0
83 -82 0
86 -85 0
89 -88 0
92 -91 0
95 -94 0
98 -97 0
101 -100 0
104 -103 0
107 -106 0
110 -109 0
113 -112 0
116 -115 0
119 -118 0
122 -121 0
125 -124 0
53 1 0
56 6 0
59 11 0
62 16 0
65 21 0
68 2 0
71 7 0
74 12 0
77 17 0
80 22 0
83 3 0
86 8 0
89 13 0
92 18 0
95 23 0
98 4 0
101 9 0
104 14 0
107 19 0
110 24 0
113 5 0
116 10 0
119 15 0
122 20 0
125 25 0
1 1 -126 -127 0
6 2 -128 -129 0
11 3 -130 -131 0
16 4 -132 -133 0
21 5 -134 -135 0
2 6 -136 -137 0
7 7 -138 -139 0
12 8 -140 -141 0
17 9 -142 -143 0
22 10 -144 -145 0
3 11 -146 -147 0
8 12 -148 -149 0
13 13 -150 -151 0
18 14 -152 -153 0
23 15 -154 -155 0
4 16 -156 -157 0
9 17 -158 -159 0
14 18 -160 -161 0
19 19 -162 -163 0
24 20 -164 -165 0
5 21 -166 -167 0
10 22 -168 -169 0
15 23 -170 -171 0
20 24 -172 -173 0
25 25 -174 -175 0
127 -1 0
129 -6 0
131 -11 0
133 -16 0
135 -21 0
137 -2 0
139 -7 0
141 -12 0
143 -17 0
145 -22 0
147 -3 0
149 -8 0
151 -13 0
153 -18 0
155 -23 0
157 -4 0
159 -9 0
161 -14 0
163 -19 0
165 -24 0
167 -5 0
169 -10 0
171 -15 0
173 -20 0
175 -25 0
127 -1 0
129 -2 0
131 -3 0
133 -4 0
135 -5 0
137 -6 0
139 -7 0
141 -8 0
143 -9 0
145 -10 0
147 -11 0
149 -12 0
151 -13 0
153 -14 0
155 -15 0
157 -16 0
159 -17 0
161 -18 0
163 -19 0
165 -20 0
167 -21 0
169 -22 0
171 -23 0
173 -24 0
175 -25 0
127 126 0
129 128 0
131 130 0
133 132 0
135 134 0
137 136 0
139 138 0
141 140 0
143 142 0
145 144 0
147 146 0
149 148 0
151 150 0
153 152 0
155 154 0
157 156 0
159 158 0
161 160 0
163 162 0
165 164 0
167 166 0
169 168 0
171 170 0
173 172 0
175 174 0
-52 -1 176 0
-55 -6 177 0
-58 -11 178 0
-61 -16 179 0
-64 -21 180 0
-67 -2 181 0
-70 -7 182 0
-73 -12 183 0
-76 -17 184 0
-79 -22 185 0
-82 -3 186 0
-85 -8 187 0
-88 -13 188 0
-91 -18 189 0
-94 -23 190 0
-97 -4 191 0
-100 -9 192 0
-103 -14 193 0
-106 -19 194 0
-109 -24 195 0
-112 -5 196 0
-115 -10 197 0
-118 -15 198 0
-121 -20 199 0
-124 -25 200 0
-176 52 0
-177 55 0
-178 58 0
-179 61 0
-180 64 0
-181 67 0
-182 70 0
-183 73 0
-184 76 0
-185 79 0
-186 82 0
-187 85 0
-188 88 0
-189 91 0
-190 94 0
-191 97 0
-192 100 0
-193 103 0
-194 106 0
-195 109 0
-196 112 0
-197 115 0
-198 118 0
-199 121 0
-200 124 0
-176 1 0
-177 6 0
-178 11 0
-179 16 0
-180 21 0
-181 2 0
-182 7 0
-183 12 0
-184 17 0
-185 22 0
-186 3 0
-187 8 0
-188 13 0
-189 18 0
-190 23 0
-191 4 0
-192 9 0
-193 14 0
-194 19 0
-195 24 0
-196 5 0
-197 10 0
-198 15 0
-199 20 0
-200 25 0
-201 176 -202 0
-203 177 -204 0
-205 178 -206 0
-207 179 -208 0
-209 180 -210 0
-211 181 -212 0
-213 182 -214 0
-215 183 -216 0
-217 184 -218 0
-219 185 -220 0
-221 186 -222 0
-223 187 -224 0
-225 188 -226 0
-227 189 -228 0
-229 190 -230 0
-231 191 -232 0
-233 192 -234 0
-235 193 -236 0
-237 194 -238 0
-239 195 -240 0
-241 196 -242 0
-243 197 -244 0
-245 198 -246 0
-247 199 -248 0
-249 200 -250 0
202 201 0
204 203 0
206 205 0
208 207 0
210 209 0
212 211 0
214 213 0
216 215 0
218 217 0
220 219 0
222 221 0
224 223 0
226 225 0
228 227 0
230 229 0
232 231 0
234 233 0
236 235 0
238 237 0
240 239 0
242 241 0
244 243 0
246 245 0
248 247 0
250 249 0
202 -176 0
204 -177 0
206 -178 0
208 -179 0
210 -180 0
212 -181 0
214 -182 0
216 -183 0
218 -184 0
220 -185 0
222 -186 0
224 -187 0
226 -188 0
228 -189 0
230 -190 0
232 -191 0
234 -192 0
236 -193 0
238 -194 0
240 -195 0
242 -196 0
244 -197 0
246 -198 0
248 -199 0
250 -200 0
201 -52 -1 -251 0
203 -55 -6 -252 0
205 -58 -11 -253 0
207 -61 -16 -254 0
209 -64 -21 -255 0
211 -67 -2 -256 0
213 -70 -7 -257 0
215 -73 -12 -258 0
217 -76 -17 -259 0
219 -79 -22 -260 0
221 -82 -3 -261 0
223 -85 -8 -262 0
225 -88 -13 -263 0
227 -91 -18 -264 0
229 -94 -23 -265 0
231 -97 -4 -266 0
233 -100 -9 -267 0
235 -103 -14 -268 0
237 -106 -19 -269 0
239 -109 -24 -270 0
241 -112 -5 -271 0
243 -115 -10 -272 0
245 -118 -15 -273 0
247 -121 -20 -274 0
249 -124 -25 -275 0
251 -201 0
252 -203 0
253 -205 0
254 -207 0
255 -209 0
256 -211 0
257 -213 0
258 -215 0
259 -217 0
260 -219 0
261 -221 0
262 -223 0
263 -225 0
264 -227 0
265 -229 0
266 -231 0
267 -233 0
268 -235 0
269 -237 0
270 -239 0
271 -241 0
272 -243 0
273 -245 0
274 -247 0
275 -249 0
251 52 0
252 55 0
253 58 0
254 61 0
255 64 0
256 67 0
257 70 0
258 73 0
259 76 0
260 79 0
261 82 0
262 85 0
263 88 0
264 91 0
265 94 0
266 97 0
267 100 0
268 103 0
269 106 0
270 109 0
271 112 0
272 115 0
273 118 0
274 121 0
275 124 0
251 1 0
252 6 0
253 11 0
254 16 0
255 21 0
256 2 0
257 7 0
258 12 0
259 17 0
260 22 0
261 3 0
262 8 0
263 13 0
264 18 0
265 23 0
266 4 0
267 9 0
268 14 0
269 19 0
270 24 0
271 5 0
272 10 0
273 15 0
274 20 0
275 25 0
1 1 276 0
6 2 277 0
11 3 278 0
16 4 279 0
21 5 280 0
2 6 281 0
7 7 282 0
12 8 283 0
17 9 284 0
22 10 285 0
3 11 286 0
8 12 287 0
13 13 288 0
18 14 289 0
23 15 290 0
4 16 291 0
9 17 292 0
14 18 293 0
19 19 294 0
24 20 295 0
5 21 296 0
10 22 297 0
15 23 298 0
20 24 299 0
25 25 300 0
-276 -1 0
-277 -6 0
-278 -11 0
-279 -16 0
-280 -21 0
-281 -2 0
-282 -7 0
-283 -12 0
-284 -17 0
-285 -22 0
-286 -3 0
-287 -8 0
-288 -13 0
-289 -18 0
-290 -23 0
-291 -4 0
-292 -9 0
-293 -14 0
-294 -19 0
-295 -24 0
-296 -5 0
-297 -10 0
-298 -15 0
-299 -20 0
-300 -25 0
-276 -1 0
-277 -2 0
-278 -3 0
-279 -4 0
-280 -5 0
-281 -6 0
-282 -7 0
-283 -8 0
-284 -9 0
-285 -10 0
-286 -11 0
-287 -12 0
-288 -13 0
-289 -14 0
-290 -15 0
-291 -16 0
-292 -17 0
-293 -18 0
-294 -19 0
-295 -20 0
-296 -21 0
-297 -22 0
-298 -23 0
-299 -24 0
-300 -25 0
126 276 -301 0
128 277 -302 0
130 278 -303 0
132 279 -304 0
134 280 -305 0
136 281 -306 0
138 282 -307 0
140 283 -308 0
142 284 -309 0
144 285 -310 0
146 286 -311 0
148 287 -312 0
150 288 -313 0
152 289 -314 0
154 290 -315 0
156 291 -316 0
158 292 -317 0
160 293 -318 0
162 294 -319 0
164 295 -320 0
166 296 -321 0
168 297 -322 0
170 298 -323 0
172 299 -324 0
174 300 -325 0
301 -126 0
302 -128 0
303 -130 0
304 -132 0
305 -134 0
306 -136 0
307 -138 0
308 -140 0
309 -142 0
310 -144 0
311 -146 0
312 -148 0
313 -150 0
314 -152 0
315 -154 0
316 -156 0
317 -158 0
318 -160 0
319 -162 0
320 -164 0
321 -166 0
322 -168 0
323 -170 0
324 -172 0
325 -174 0
301 -276 0
302 -277 0
303 -278 0
304 -279 0
305 -280 0
306 -281 0
307 -282 0
308 -283 0
309 -284 0
310 -285 0
311 -286 0
312 -287 0
313 -288 0
314 -289 0
315 -290 0
316 -291 0
317 -292 0
318 -293 0
319 -294 0
320 -295 0
321 -296 0
322 -297 0
323 -298 0
324 -299 0
325 -300 0
-1 52 326 0
-6 55 327 0
-11 58 328 0
-16 61 329 0
-21 64 330 0
-2 67 331 0
-7 70 332 0
-12 73 333 0
-17 76 334 0
-22 79 335 0
-3 82 336 0
-8 85 337 0
-13 88 338 0
-18 91 339 0
-23 94 340 0
-4 97 341 0
-9 100 342 0
-14 103 343 0
-19 106 344 0
-24 109 345 0
-5 112 346 0
-10 115 347 0
-15 118 348 0
-20 121 349 0
-25 124 350 0
-326 1 0
-327 6 0
-328 11 0
-329 16 0
-330 21 0
-331 2 0
-332 7 0
-333 12 0
-334 17 0
-335 22 0
-336 3 0
-337 8 0
-338 13 0
-339 18 0
-340 23 0
-341 4 0
-342 9 0
-343 14 0
-344 19 0
-345 24 0
-346 5 0
-347 10 0
-348 15 0
-349 20 0
-350 25 0
-326 -52 0
-327 -55 0
-328 -58 0
-329 -61 0
-330 -64 0
-331 -67 0
-332 -70 0
-333 -73 0
-334 -76 0
-335 -79 0
-336 -82 0
-337 -85 0
-338 -88 0
-339 -91 0
-340 -94 0
-341 -97 0
-342 -100 0
-343 -103 0
-344 -106 0
-345 -109 0
-346 -112 0
-347 -115 0
-348 -118 0
-349 -121 0
-350 -124 0
-51 326 -351 0
-54 327 -352 0
-57 328 -353 0
-60 329 -354 0
-63 330 -355 0
-66 331 -356 0
-69 332 -357 0
-72 333 -358 0
-75 334 -359 0
-78 335 -360 0
-81 336 -361 0
-84 337 -362 0
-87 338 -363 0
-90 339 -364 0
-93 340 -365 0
-96 341 -366 0
-99 342 -367 0
-102 343 -368 0
-105 344 -369 0
-108 345 -370 0
-111 346 -371 0
-114 347 -372 0
-117 348 -373 0
-120 349 -374 0
-123 350 -375 0
351 51 0
352 54 0
353 57 0
354 60 0
355 63 0
356 66 0
357 69 0
358 72 0
359 75 0
360 78 0
361 81 0
362 84 0
363 87 0
364 90 0
365 93 0
366 96 0
367 99 0
368 102 0
369 105 0
370 108 0
371 111 0
372 114 0
373 117 0
374 120 0
375 123 0
351 -326 0
352 -327 0
353 -328 0
354 -329 0
355 -330 0
356 -331 0
357 -332 0
358 -333 0
359 -334 0
360 -335 0
361 -336 0
362 -337 0
363 -338 0
364 -339 0
365 -340 0
366 -341 0
367 -342 0
368 -343 0
369 -344 0
370 -345 0
371 -346 0
372 -347 0
373 -348 0
374 -349 0
375 -350 0
1 -26 -53 -127 -202 -251 -301 -351 376 0
7 -27 -56 -129 -204 -252 -302 -352 377 0
13 -28 -59 -131 -206 -253 -303 -353 378 0
19 -29 -62 -133 -208 -254 -304 -354 379 0
25 -30 -65 -135 -210 -255 -305 -355 380 0
1 -31 -68 -137 -212 -256 -306 -356 381 0
7 -32 -71 -139 -214 -257 -307 -357 382 0
13 -33 -74 -141 -216 -258 -308 -358 383 0
19 -34 -77 -143 -218 -259 -309 -359 384 0
25 -35 -80 -145 -220 -260 -310 -360 385 0
1 -36 -83 -147 -222 -261 -311 -361 386 0
7 -37 -86 -149 -224 -262 -312 -362 387 0
13 -38 -89 -151 -226 -263 -313 -363 388 0
19 -39 -92 -153 -228 -264 -314 -364 389 0
25 -40 -95 -155 -230 -265 -315 -365 390 0
1 -41 -98 -157 -232 -266 -316 -366 391 0
7 -42 -101 -159 -234 -267 -317 -367 392 0
13 -43 -104 -161 -236 -268 -318 -368 393 0
19 -44 -107 -163 -238 -269 -319 -369 394 0
25 -45 -110 -165 -240 -270 -320 -370 395 0
1 -46 -113 -167 -242 -271 -321 -371 396 0
7 -47 -116 -169 -244 -272 -322 -372 397 0
13 -48 -119 -171 -246 -273 -323 -373 398 0
19 -49 -122 -173 -248 -274 -324 -374 399 0
25 -50 -125 -175 -250 -275 -325 -375 400 0
-376 -1 0
-377 -7 0
-378 -13 0
-379 -19 0
-380 -25 0
-381 -1 0
-382 -7 0
-383 -13 0
-384 -19 0
-385 -25 0
-386 -1 0
-387 -7 0
-388 -13 0
-389 -19 0
-390 -25 0
-391 -1 0
-392 -7 0
-393 -13 0
-394 -19 0
-395 -25 0
-396 -1 0
-397 -7 0
-398 -13 0
-399 -19 0
-400 -25 0
-376 26 0
-377 27 0
-378 28 0
-379 29 0
-380 30 0
-381 31 0
-382 32 0
-383 33 0
-384 34 0
-385 35 0
-386 36 0
-387 37 0
-388 38 0
-389 39 0
-390 40 0
-391 41 0
-392 42 0
-393 43 0
-394 44 0
-395 45 0
-396 46 0
-397 47 0
-398 48 0
-399 49 0
-400 50 0
-376 53 0
-377 56 0
-378 59 0
-379 62 0
-380 65 0
-381 68 0
-382 71 0
-383 74 0
-384 77 0
-385 80 0
-386 83 0
-387 86 0
-388 89 0
-389 92 0
-390 95 0
-391 98 0
-392 101 0
-393 104 0
-394 107 0
-395 110 0
-396 113 0
-397 116 0
-398 119 0
-399 122 0
-400 125 0
-376 127 0
-377 129 0
-378 131 0
-379 133 0
-380 135 0
-381 137 0
-382 139 0
-383 141 0
-384 143 0
-385 145 0
-386 147 0
-387 149 0
-388 151 0
-389 153 0
-390 155 0
-391 157 0
-392 159 0
-393 161 0
-394 163 0
-395 165 0
-396 167 0
-397 169 0
-398 171 0
-399 173 0
-400 175 0
-376 202 0
-377 204 0
-378 206 0
-379 208 0
-380 210 0
-381 212 0
-382 214 0
-383 216 0
-384 218 0
-385 220 0
-386 222 0
-387 224 0
-388 226 0
-389 228 0
-390 230 0
-391 232 0
-392 234 0
-393 236 0
-394 238 0
-395 240 0
-396 242 0
-397 244 0
-398 246 0
-399 248 0
-400 250 0
-376 251 0
-377 252 0
-378 253 0
-379 254 0
-380 255 0
-381 256 0
-382 257 0
-383 258 0
-384 259 0
-385 260 0
-386 261 0
-387 262 0
-388 263 0
-389 264 0
-390 265 0
-391 266 0
-392 267 0
-393 268 0
-394 269 0
-395 270 0
-396 271 0
-397 272 0
-398 273 0
-399 274 0
-400 275 0
-376 301 0
-377 302 0
-378 303 0
-379 304 0
-380 305 0
-381 306 0
-382 307 0
-383 308 0
-384 309 0
-385 310 0
-386 311 0
-387 312 0
-388 313 0
-389 314 0
-390 315 0
-391 316 0
-392 317 0
-393 318 0
-394 319 0
-395 320 0
-396 321 0
-397 322 0
-398 323 0
-399 324 0
-400 325 0
-376 351 0
-377 352 0
-378 353 0
-379 354 0
-380 355 0
-381 356 0
-382 357 0
-383 358 0
-384 359 0
-385 360 0
-386 361 0
-387 362 0
-388 363 0
-389 364 0
-390 365 0
-391 366 0
-392 367 0
-393 368 0
-394 369 0
-395 370 0
-396 371 0
-397 372 0
-398 373 0
-399 374 0
-400 375 0
376 0
377 0
378 0
379 0
380 0
381 0
382 0
383 0
384 0
385 0
386 0
387 0
388 0
389 0
390 0
391 0
392 0
393 0
394 0
395 0
396 0
397 0
398 0
399 0
400 0
1 401 0
-401 402 0
2 -401 403 0
-403 404 0
3 -403 405 0
-405 406 0
4 -405 407 0
-407 408 0
5 -407 409 0
-409 410 0
6 -409 0
2 402 0
-402 411 0
3 -402 404 0
-404 412 0
4 -404 406 0
-406 413 0
5 -406 408 0
-408 414 0
6 -408 410 0
-410 415 0
7 -410 0
3 411 0
-411 416 0
4 -411 412 0
-412 417 0
5 -412 413 0
-413 418 0
6 -413 414 0
-414 419 0
7 -414 415 0
-415 420 0
8 -415 0
4 416 0
-416 421 0
5 -416 417 0
-417 422 0
6 -417 418 0
-418 423 0
7 -418 419 0
-419 424 0
8 -419 420 0
-420 425 0
9 -420 0
5 421 0
-421 426 0
6 -421 422 0
-422 427 0
7 -422 423 0
-423 428 0
8 -423 424 0
-424 429 0
9 -424 425 0
-425 430 0
10 -425 0
6 426 0
-426 431 0
7 -426 427 0
-427 432 0
8 -427 428 0
-428 433 0
9 -428 429 0
-429 434 0
10 -429 430 0
-430 435 0
11 -430 0
7 431 0
-431 436 0
8 -431 432 0
-432 437 0
9 -432 433 0
-433 438 0
10 -433 434 0
-434 439 0
11 -434 435 0
-435 440 0
12 -435 0
8 436 0
-436 441 0
9 -436 437 0
-437 442 0
10 -437 438 0
-438 443 0
11 -438 439 0
-439 444 0
12 -439 440 0
-440 445 0
13 -440 0
9 441 0
-441 446 0
10 -441 442 0
-442 447 0
11 -442 443 0
-443 448 0
12 -443 444 0
-444 449 0
13 -444 445 0
-445 450 0
14 -445 0
10 446 0
-446 451 0
11 -446 447 0
-447 452 0
12 -447 448 0
-448 453 0
13 -448 449 0
-449 454 0
14 -449 450 0
-450 455 0
15 -450 0
11 451 0
-451 456 0
12 -451 452 0
-452 457 0
13 -452 453 0
-453 458 0
14 -453 454 0
-454 459 0
15 -454 455 0
-455 460 0
16 -455 0
12 456 0
-456 461 0
13 -456 457 0
-457 462 0
14 -457 458 0
-458 463 0
15 -458 459 0
-459 464 0
16 -459 460 0
-460 465 0
17 -460 0
13 461 0
-461 466 0
14 -461 462 0
-462 467 0
15 -462 463 0
-463 468 0
16 -463 464 0
-464 469 0
17 -464 465 0
-465 470 0
18 -465 0
14 466 0
-466 471 0
15 -466 467 0
-467 472 0
16 -467 468 0
-468 473 0
17 -468 469 0
-469 474 0
18 -469 470 0
-470 475 0
19 -470 0
15 471 0
-471 476 0
16 -471 472 0
-472 477 0
17 -472 473 0
-473 478 0
18 -473 474 0
-474 479 0
19 -474 475 0
-475 480 0
20 -475 0
16 476 0
-476 481 0
17 -476 477 0
-477 482 0
18 -477 478 0
-478 483 0
19 -478 479 0
-479 484 0
20 -479 480 0
-480 485 0
21 -480 0
17 481 0
-481 486 0
18 -481 482 0
-482 487 0
19 -482 483 0
-483 488 0
20 -483 484 0
-484 489 0
21 -484 485 0
-485 490 0
22 -485 0
18 486 0
-486 491 0
19 -486 487 0
-487 492 0
20 -487 488 0
-488 493 0
21 -488 489 0
-489 494 0
22 -489 490 0
-490 495 0
23 -490 0
19 491 0
-491 496 0
20 -491 492 0
-492 497 0
21 -492 493 0
-493 498 0
22 -493 494 0
-494 499 0
23 -494 495 0
-495 500 0
24 -495 0
20 496 0
21 -496 497 0
22 -497 498 0
23 -498 499 0
24 -499 500 0
25 -500 0
-1 501 0
-501 502 0
-2 -501 503 0
-503 504 0
-3 -503 505 0
-505 506 0
-4 -505 507 0
-507 508 0
-5 -507 509 0
-509 510 0
-6 -509 511 0
-511 512 0
-7 -511 513 0
-513 514 0
-8 -513 515 0
-515 516 0
-9 -515 517 0
-517 518 0
-10 -517 519 0
-519 520 0
-11 -519 521 0
-521 522 0
-12 -521 523 0
-523 524 0
-13 -523 525 0
-525 526 0
-14 -525 527 0
-527 528 0
-15 -527 529 0
-529 530 0
-16 -529 531 0
-531 532 0
-17 -531 533 0
-533 534 0
-18 -533 535 0
-535 536 0
-19 -535 537 0
-537 538 0
-20 -537 539 0
-539 540 0
-21 -539 0
-2 502 0
-502 541 0
-3 -502 504 0
-504 542 0
-4 -504 506 0
-506 543 0
-5 -506 508 0
-508 544 0
-6 -508 510 0
-510 545 0
-7 -510 512 0
-512 546 0
-8 -512 514 0
-514 547 0
-9 -514 516 0
-516 548 0
-10 -516 518 0
-518 549 0
-11 -518 520 0
-520 550 0
-12 -520 522 0
-522 551 0
-13 -522 524 0
-524 552 0
-14 -524 526 0
-526 553 0
-15 -526 528 0
-528 554 0
-16 -528 530 0
-530 555 0
-17 -530 532 0
-532 556 0
-18 -532 534 0
-534 557 0
-19 -534 536 0
-536 558 0
-20 -536 538 0
-538 559 0
-21 -538 540 0
-540 560 0
-22 -540 0
-3 541 0
-541 561 0
-4 -541 542 0
-542 562 0
-5 -542 543 0
-543 563 0
-6 -543 544 0
-544 564 0
-7 -544 545 0
-545 565 0
-8 -545 546 0
-546 566 0
-9 -546 547 0
-547 567 0
-10 -547 548 0
-548 568 0
-11 -548 549 0
-549 569 0
-12 -549 550 0
-550 570 0
-13 -550 551 0
-551 571 0
-14 -551 552 0
-552 572 0
-15 -552 553 0
-553 573 0
-16 -553 554 0
-554 574 0
-17 -554 555 0
-555 575 0
-18 -555 556 0
-556 576 0
-19 -556 557 0
-557 577 0
-20 -557 558 0
-558 578 0
-21 -558 559 0
-559 579 0
-22 -559 560 0
-560 580 0
-23 -560 0
-4 561 0
-561 581 0
-5 -561 562 0
-562 582 0
-6 -562 563 0
-563 583 0
-7 -563 564 0
-564 584 0
-8 -564 565 0
-565 585 0
-9 -565 566 0
-566 586 0
-10 -566 567 0
-567 587 0
-11 -567 568 0
-568 588 0
-12 -568 569 0
-569 589 0
-13 -569 570 0
-570 590 0
-14 -570 571 0
-571 591 0
-15 -571 572 0
-572 592 0
-16 -572 573 0
-573 593 0
-17 -573 574 0
-574 594 0
-18 -574 575 0
-575 595 0
-19 -575 576 0
-576 596 0
-20 -576 577 0
-577 597 0
-21 -577 578 0
-578 598 0
-22 -578 579 0
-579 599 0
-23 -579 580 0
-580 600 0
-24 -580 0
-5 581 0
-6 -581 582 0
-7 -582 583 0
-8 -583 584 0
-9 -584 585 0
-10 -585 586 0
-11 -586 587 0
-12 -587 588 0
-13 -588 589 0
-14 -589 590 0
-15 -590 591 0
-16 -591 592 0
-17 -592 593 0
-18 -593 594 0
-19 -594 595 0
-20 -595 596 0
-21 -596 597 0
-22 -597 598 0
-23 -598 599 0
-24 -599 600 0
-25 -600 0
601 0
602 603 0
-602 -603 0
-602 -604 605 0
-602 -606 607 0
-602 -608 609 0
605 610 0
-605 -610 0
-605 -611 602 0
-605 -612 607 0
-605 -613 609 0
607 614 0
-607 -614 0
-607 -615 602 0
-607 -616 605 0
-607 -617 609 0
609 618 0
-609 -618 0
-609 -619 602 0
-609 -620 605 0
-609 -621 607 0
622 0
603 602 0
-603 -602 0
-603 -605 604 0
-603 -607 606 0
-603 -609 608 0
604 611 0
-604 -611 0
-604 -610 603 0
-604 -612 606 0
-604 -613 608 0
606 615 0
-606 -615 0
-606 -614 603 0
-606 -616 604 0
-606 -617 608 0
608 619 0
-608 -619 0
-608 -618 603 0
-608 -620 604 0
-608 -621 606 0
623 0
610 605 0
-610 -605 0
-610 -602 611 0
-610 -607 612 0
-610 -609 613 0
611 604 0
-611 -604 0
-611 -603 610 0
-611 -606 612 0
-611 -608 613 0
612 616 0
-612 -616 0
-612 -614 610 0
-612 -615 611 0
-612 -617 613 0
613 620 0
-613 -620 0
-613 -618 610 0
-613 -619 611 0
-613 -621 612 0
624 0
614 607 0
-614 -607 0
-614 -602 615 0
-614 -605 616 0
-614 -609 617 0
615 606 0
-615 -606 0
-615 -603 614 0
-615 -604 616 0
-615 -608 617 0
616 612 0
-616 -612 0
-616 -610 614 0
-616 -611 615 0
-616 -613 617 0
617 621 0
-617 -621 0
-617 -618 614 0
-617 -619 615 0
-617 -620 616 0
625 0
618 609 0
-618 -609 0
-618 -602 619 0
-618 -605 620 0
-618 -607 621 0
619 608 0
-619 -608 0
-619 -603 618 0
-619 -604 620 0
-619 -606 621 0
620 613 0
-620 -613 0
-620 -610 618 0
-620 -611 619 0
-620 -612 621 0
621 617 0
-621 -617 0
-621 -614 618 0
-621 -615 619 0
-621 -616 620 0
-626 0
-627 602 0
-628 605 0
-628 611 0
-605 -611 628 0
-629 607 0
-629 615 0
-607 -615 629 0
-630 609 0
-630 619 0
-609 -619 630 0
-627 -628 0
-627 -629 0
-627 -630 0
-602 627 628 629 630 0
-631 605 0
-632 602 0
-632 604 0
-602 -604 632 0
-633 607 0
-633 616 0
-607 -616 633 0
-634 609 0
-634 620 0
-609 -620 634 0
-631 -632 0
-631 -633 0
-631 -634 0
-605 631 632 633 634 0
-635 607 0
-636 602 0
-636 606 0
-602 -606 636 0
-637 605 0
-637 612 0
-605 -612 637 0
-638 609 0
-638 621 0
-609 -621 638 0
-635 -636 0
-635 -637 0
-635 -638 0
-607 635 636 637 638 0
-639 609 0
-640 602 0
-640 608 0
-602 -608 640 0
-641 605 0
-641 613 0
-605 -613 641 0
-642 607 0
-642 617 0
-607 -617 642 0
-639 -640 0
-639 -641 0
-639 -642 0
-609 639 640 641 642 0
-643 603 0
-644 604 0
-644 610 0
-604 -610 644 0
-645 606 0
-645 614 0
-606 -614 645 0
-646 608 0
-646 618 0
-608 -618 646 0
-643 -644 0
-643 -645 0
-643 -646 0
-603 643 644 645 646 0
-647 0
-648 604 0
-649 603 0
-649 605 0
-603 -605 649 0
-650 606 0
-650 616 0
-606 -616 650 0
-651 608 0
-651 620 0
-608 -620 651 0
-648 -649 0
-648 -650 0
-648 -651 0
-604 648 649 650 651 0
-652 606 0
-653 603 0
-653 607 0
-603 -607 653 0
-654 604 0
-654 612 0
-604 -612 654 0
-655 608 0
-655 621 0
-608 -621 655 0
-652 -653 0
-652 -654 0
-652 -655 0
-606 652 653 654 655 0
-656 608 0
-657 603 0
-657 609 0
-603 -609 657 0
-658 604 0
-658 613 0
-604 -613 658 0
-659 606 0
-659 617 0
-606 -617 659 0
-656 -657 0
-656 -658 0
-656 -659 0
-608 656 657 658 659 0
-660 610 0
-661 611 0
-661 603 0
-611 -603 661 0
-662 612 0
-662 614 0
-612 -614 662 0
-663 613 0
-663 618 0
-613 -618 663 0
-660 -661 0
-660 -662 0
-660 -663 0
-610 660 661 662 663 0
-664 611 0
-665 610 0
-665 602 0
-610 -602 665 0
-666 612 0
-666 615 0
-612 -615 666 0
-667 613 0
-667 619 0
-613 -619 667 0
-664 -665 0
-664 -666 0
-664 -667 0
-611 664 665 666 667 0
-668 0
-669 612 0
-670 610 0
-670 607 0
-610 -607 670 0
-671 611 0
-671 606 0
-611 -606 671 0
-672 613 0
-672 621 0
-613 -621 672 0
-669 -670 0
-669 -671 0
-669 -672 0
-612 669 670 671 672 0
-673 613 0
-674 610 0
-674 609 0
-610 -609 674 0
-675 611 0
-675 608 0
-611 -608 675 0
-676 612 0
-676 617 0
-612 -617 676 0
-673 -674 0
-673 -675 0
-673 -676 0
-613 673 674 675 676 0
-677 614 0
-678 615 0
-678 603 0
-615 -603 678 0
-679 616 0
-679 610 0
-616 -610 679 0
-680 617 0
-680 618 0
-617 -618 680 0
-677 -678 0
-677 -679 0
-677 -680 0
-614 677 678 679 680 0
-681 615 0
-682 614 0
-682 602 0
-614 -602 682 0
-683 616 0
-683 611 0
-616 -611 683 0
-684 617 0
-684 619 0
-617 -619 684 0
-681 -682 0
-681 -683 0
-681 -684 0
-615 681 682 683 684 0
-685 616 0
-686 614 0
-686 605 0
-614 -605 686 0
-687 615 0
-687 604 0
-615 -604 687 0
-688 617 0
-688 620 0
-617 -620 688 0
-685 -686 0
-685 -687 0
-685 -688 0
-616 685 686 687 688 0
-689 0
-690 617 0
-691 614 0
-691 609 0
-614 -609 691 0
-692 615 0
-692 608 0
-615 -608 692 0
-693 616 0
-693 613 0
-616 -613 693 0
-690 -691 0
-690 -692 0
-690 -693 0
-617 690 691 692 693 0
-694 618 0
-695 619 0
-695 603 0
-619 -603 695 0
-696 620 0
-696 610 0
-620 -610 696 0
-697 621 0
-697 614 0
-621 -614 697 0
-694 -695 0
-694 -696 0
-694 -697 0
-618 694 695 696 697 0
-698 619 0
-699 618 0
-699 602 0
-618 -602 699 0
-700 620 0
-700 611 0
-620 -611 700 0
-701 621 0
-701 615 0
-621 -615 701 0
-698 -699 0
-698 -700 0
-698 -701 0
-619 698 699 700 701 0
-702 620 0
-703 618 0
-703 605 0
-618 -605 703 0
-704 619 0
-704 604 0
-619 -604 704 0
-705 621 0
-705 616 0
-621 -616 705 0
-702 -703 0
-702 -704 0
-702 -705 0
-620 702 703 704 705 0
-706 621 0
-707 618 0
-707 607 0
-618 -607 707 0
-708 619 0
-708 606 0
-619 -606 708 0
-709 620 0
-709 612 0
-620 -612 709 0
-706 -707 0
-706 -708 0
-706 -709 0
-621 706 707 708 709 0
-710 0
-711 601 0
-711 602 0
-711 605 0
-711 607 0
-711 609 0
-601 -602 -605 -607 -609 711 0
-712 601 0
-712 603 0
-712 610 0
-712 614 0
-712 618 0
-601 -603 -610 -614 -618 712 0
-713 603 0
-713 622 0
-713 604 0
-713 606 0
-713 608 0
-603 -622 -604 -606 -608 713 0
-714 602 0
-714 622 0
-714 611 0
-714 615 0
-714 619 0
-602 -622 -611 -615 -619 714 0
-715 610 0
-715 611 0
-715 623 0
-715 612 0
-715 613 0
-610 -611 -623 -612 -613 715 0
-716 605 0
-716 604 0
-716 623 0
-716 616 0
-716 620 0
-605 -604 -623 -616 -620 716 0
-717 614 0
-717 615 0
-717 616 0
-717 624 0
-717 617 0
-614 -615 -616 -624 -617 717 0
-718 607 0
-718 606 0
-718 612 0
-718 624 0
-718 621 0
-607 -606 -612 -624 -621 718 0
-719 618 0
-719 619 0
-719 620 0
-719 621 0
-719 625 0
-618 -619 -620 -621 -625 719 0
-720 609 0
-720 608 0
-720 613 0
-720 617 0
-720 625 0
-609 -608 -613 -617 -625 720 0
-626 52 0
-712 -711 52 0
-52 626 712 0
-52 626 711 0
-627 67 0
-712 -713 67 0
-67 627 712 0
-67 627 713 0
-631 82 0
-712 -715 82 0
-82 631 712 0
-82 631 715 0
-635 97 0
-712 -717 97 0
-97 635 712 0
-97 635 717 0
-639 112 0
-712 -719 112 0
-112 639 712 0
-112 639 719 0
-643 55 0
-714 -711 55 0
-55 643 714 0
-55 643 711 0
-647 70 0
-714 -713 70 0
-70 647 714 0
-70 647 713 0
-648 85 0
-714 -715 85 0
-85 648 714 0
-85 648 715 0
-652 100 0
-714 -717 100 0
-100 652 714 0
-100 652 717 0
-656 115 0
-714 -719 115 0
-115 656 714 0
-115 656 719 0
-660 58 0
-716 -711 58 0
-58 660 716 0
-58 660 711 0
-664 73 0
-716 -713 73 0
-73 664 716 0
-73 664 713 0
-668 88 0
-716 -715 88 0
-88 668 716 0
-88 668 715 0
-669 103 0
-716 -717 103 0
-103 669 716 0
-103 669 717 0
-673 118 0
-716 -719 118 0
-118 673 716 0
-118 673 719 0
-677 61 0
-718 -711 61 0
-61 677 718 0
-61 677 711 0
-681 76 0
-718 -713 76 0
-76 681 718 0
-76 681 713 0
-685 91 0
-718 -715 91 0
-91 685 718 0
-91 685 715 0
-689 106 0
-718 -717 106 0
-106 689 718 0
-106 689 717 0
-690 121 0
-718 -719 121 0
-121 690 718 0
-121 690 719 0
-694 64 0
-720 -711 64 0
-64 694 720 0
-64 694 711 0
-698 79 0
-720 -713 79 0
-79 698 720 0
-79 698 713 0
-702 94 0
-720 -715 94 0
-94 702 720 0
-94 702 715 0
-706 109 0
-720 -717 109 0
-109 706 720 0
-109 706 717 0
-710 124 0
-720 -719 124 0
-124 710 720 0
-124 710 719 0
