p cnf 1356 3666
c ind 1 2 3 4 5 6 7 8 9 10 11 12 13 14 15 16 17 18 19 20 21 22 23 24 25 26 27 28 29 30 31 32 33 34 35 36 37 38 39 40 41 42 43 44 45 46 47 48 49 50 0
c ind 51 52 53 54 55 56 57 58 59 60 61 62 63 64 65 66 67 68 69 70 71 72 73 74 75 76 77 78 79 80 81 82 83 84 85 86 87 88 89 90 91 92 93 94 95 96 97 98 99 100 0
c ind 101 102 103 104 105 106 107 108 109 110 111 112 113 114 115 116 117 118 119 120 121 122 123 124 125 126 127 128 129 130 131 132 133 134 135 136 137 138 139 140 141 142 143 144 145 146 147 148 149 150 0
c ind 151 152 153 154 155 156 157 158 159 160 161 162 163 164 165 166 167 168 169 170 171 172 173 174 175 176 177 178 179 180 181 182 183 184 185 186 187 188 189 190 191 192 193 194 195 196 197 198 199 200 0
c ind 201 202 203 204 205 206 207 208 209 210 211 212 213 214 215 216 217 218 219 220 221 222 223 224 225 226 227 228 229 230 231 232 233 234 235 236 237 238 239 240 241 242 243 244 245 246 247 248 249 250 0
c ind 251 252 253 254 255 256 257 258 259 260 261 262 263 264 265 266 267 268 269 270 271 272 273 274 275 276 277 278 279 280 281 282 283 284 285 286 287 288 289 290 291 292 293 294 295 296 297 298 299 300 0
c ind 301 302 303 304 305 306 307 308 309 310 311 312 313 314 315 316 317 318 319 320 321 322 323 324 325 326 327 328 329 330 331 332 333 334 335 336 337 338 339 340 341 342 343 344 345 346 347 348 349 350 0
c ind 351 352 353 354 355 356 357 358 359 360 361 362 363 364 365 366 367 368 369 370 371 372 373 374 375 376 377 378 379 380 381 382 383 384 385 386 387 388 389 390 391 392 393 394 395 396 397 398 399 400 0
c ind 401 402 403 404 405 406 407 408 409 410 411 412 413 414 415 416 417 418 419 420 421 422 423 424 425 426 427 428 429 430 431 432 433 434 435 436 437 438 439 440 441 442 443 444 445 446 447 448 449 450 0
c ind 451 452 453 454 455 456 457 458 459 460 461 462 463 464 465 466 467 468 469 470 471 472 473 474 475 476 477 478 479 480 481 482 483 484 485 486 487 488 489 490 491 492 493 494 495 496 497 498 499 500 0
c ind 501 502 503 504 505 506 507 508 509 510 511 512 513 514 515 516 517 518 519 520 521 522 523 524 525 526 527 528 529 530 531 532 533 534 535 536 537 538 539 540 541 542 543 544 545 546 547 548 549 550 0
c ind 551 552 553 554 555 556 557 558 559 560 561 562 563 564 565 566 567 568 569 570 571 572 573 574 575 576 1153 1154 1155 1156 1157 1158 1159 1160 1161 1162 1163 1164 1165 1166 1167 1168 1169 1170 1171 1172 1173 1174 1175 1176 0
c ind 1177 1178 1179 1180 1181 1182 1183 1184 1185 1186 1187 1188 1189 1190 1191 1192 1193 1194 1195 1196 1197 1198 1199 1200 1201 1202 1203 1204 1205 1206 1207 1208 1209 1210 1211 1212 1213 1214 1215 1216 1217 1218 1219 1220 1221 1222 1223 1224 1225 1226 0
c ind 1227 1228 1229 1230 1231 1232 1233 1234 1235 1236 1237 1238 1239 1240 1241 1242 1243 1244 1245 1246 1247 1248 1249 1250 1251 1252 1253 1254 1255 1256 1257 1258 1259 1260 1261 1262 1263 1264 1265 1266 1267 1268 1269 1270 1271 1272 1273 1274 1275 1276 0
c ind 1277 1278 1279 1280 1281 1282 1283 1284 1285 1286 1287 1288 1289 1290 1291 1292 1293 1294 1295 1296 1297 1298 1299 1300 1301 1302 1303 1304 1305 1306 1307 1308 1309 1310 1311 1312 1313 1314 1315 1316 1317 1318 1319 1320 1321 1322 1323 1324 1325 1326 0
c ind 1327 1328 1329 1330 1331 1332 1333 1334 1335 1336 1337 1338 1339 1340 1341 1342 1343 1344 1345 1346 1347 1348 1349 1350 1351 1352 1353 1354 1355 1356 0
1 2 3 4 5 6 0
7 8 9 10 11 12 0
13 14 15 16 17 18 0
19 20 21 22 23 24 0
25 26 27 28 29 30 0
31 32 33 34 35 36 0
-1 -1 -37 0
-7 -2 -38 0
-13 -3 -39 0
-19 -4 -40 0
-25 -5 -41 0
-31 -6 -42 0
-2 -7 -43 0
-8 -8 -44 0
-14 -9 -45 0
-20 -10 -46 0
-26 -11 -47 0
-32 -12 -48 0
-3 -13 -49 0
-9 -14 -50 0
-15 -15 -51 0
-21 -16 -52 0
-27 -17 -53 0
-33 -18 -54 0
-4 -19 -55 0
-10 -20 -56 0
-16 -21 -57 0
-22 -22 -58 0
-28 -23 -59 0
-34 -24 -60 0
-5 -25 -61 0
-11 -26 -62 0
-17 -27 -63 0
-23 -28 -64 0
-29 -29 -65 0
-35 -30 -66 0
-6 -31 -67 0
-12 -32 -68 0
-18 -33 -69 0
-24 -34 -70 0
-30 -35 -71 0
-36 -36 -72 0
37 1 0
38 7 0
39 13 0
40 19 0
41 25 0
42 31 0
43 2 0
44 8 0
45 14 0
46 20 0
47 26 0
48 32 0
49 3 0
50 9 0
51 15 0
52 21 0
53 27 0
54 33 0
55 4 0
56 10 0
57 16 0
58 22 0
59 28 0
60 34 0
61 5 0
62 11 0
63 17 0
64 23 0
65 29 0
66 35 0
67 6 0
68 12 0
69 18 0
70 24 0
71 30 0
72 36 0
37 1 0
38 2 0
39 3 0
40 4 0
41 5 0
42 6 0
43 7 0
44 8 0
45 9 0
46 10 0
47 11 0
48 12 0
49 13 0
50 14 0
51 15 0
52 16 0
53 17 0
54 18 0
55 19 0
56 20 0
57 21 0
58 22 0
59 23 0
60 24 0
61 25 0
62 26 0
63 27 0
64 28 0
65 29 0
66 30 0
67 31 0
68 32 0
69 33 0
70 34 0
71 35 0
72 36 0
73 74 -1 -75 0
76 77 -7 -78 0
79 80 -13 -81 0
82 83 -19 -84 0
85 86 -25 -87 0
88 89 -31 -90 0
91 92 -2 -93 0
94 95 -8 -96 0
97 98 -14 -99 0
100 101 -20 -102 0
103 104 -26 -105 0
106 107 -32 -108 0
109 110 -3 -111 0
112 113 -9 -114 0
115 116 -15 -117 0
118 119 -21 -120 0
121 122 -27 -123 0
124 125 -33 -126 0
127 128 -4 -129 0
130 131 -10 -132 0
133 134 -16 -135 0
136 137 -22 -138 0
139 140 -28 -141 0
142 143 -34 -144 0
145 146 -5 -147 0
148 149 -11 -150 0
151 152 -17 -153 0
154 155 -23 -156 0
157 158 -29 -159 0
160 161 -35 -162 0
163 164 -6 -165 0
166 167 -12 -168 0
169 170 -18 -171 0
172 173 -24 -174 0
175 176 -30 -177 0
178 179 -36 -180 0
75 -73 0
78 -76 0
81 -79 0
84 -82 0
87 -85 0
90 -88 0
93 -91 0
96 -94 0
99 -97 0
102 -100 0
105 -103 0
108 -106 0
111 -109 0
114 -112 0
117 -115 0
120 -118 0
123 -121 0
126 -124 0
129 -127 0
132 -130 0
135 -133 0
138 -136 0
141 -139 0
144 -142 0
147 -145 0
150 -148 0
153 -151 0
156 -154 0
159 -157 0
162 -160 0
165 -163 0
168 -166 0
171 -169 0
174 -172 0
177 -175 0
180 -178 0
75 -74 0
78 -77 0
81 -80 0
84 -83 0
87 -86 0
90 -89 0
93 -92 0
96 -95 0
99 -98 0
102 -101 0
105 -104 0
108 -107 0
111 -110 0
114 -113 0
117 -116 0
120 -119 0
123 -122 0
126 -125 0
129 -128 0
132 -131 0
135 -134 0
138 -137 0
141 -140 0
144 -143 0
147 -146 0
150 -149 0
153 -152 0
156 -155 0
159 -158 0
162 -161 0
165 -164 0
168 -167 0
171 -170 0
174 -173 0
177 -176 0
180 -179 0
75 1 0
78 7 0
81 13 0
84 19 0
87 25 0
90 31 0
93 2 0
96 8 0
99 14 0
102 20 0
105 26 0
108 32 0
111 3 0
114 9 0
117 15 0
120 21 0
123 27 0
126 33 0
129 4 0
132 10 0
135 16 0
138 22 0
141 28 0
144 34 0
147 5 0
150 11 0
153 17 0
156 23 0
159 29 0
162 35 0
165 6 0
168 12 0
171 18 0
174 24 0
177 30 0
180 36 0
1 1 -181 -182 0
7 2 -183 -184 0
13 3 -185 -186 0
19 4 -187 -188 0
25 5 -189 -190 0
31 6 -191 -192 0
2 7 -193 -194 0
8 8 -195 -196 0
14 9 -197 -198 0
20 10 -199 -200 0
26 11 -201 -202 0
32 12 -203 -204 0
3 13 -205 -206 0
9 14 -207 -208 0
15 15 -209 -210 0
21 16 -211 -212 0
27 17 -213 -214 0
33 18 -215 -216 0
4 19 -217 -218 0
10 20 -219 -220 0
16 21 -221 -222 0
22 22 -223 -224 0
28 23 -225 -226 0
34 24 -227 -228 0
5 25 -229 -230 0
11 26 -231 -232 0
17 27 -233 -234 0
23 28 -235 -236 0
29 29 -237 -238 0
35 30 -239 -240 0
6 31 -241 -242 0
12 32 -243 -244 0
18 33 -245 -246 0
24 34 -247 -248 0
30 35 -249 -250 0
36 36 -251 -252 0
182 -1 0
184 -7 0
186 -13 0
188 -19 0
190 -25 0
192 -31 0
194 -2 0
196 -8 0
198 -14 0
200 -20 0
202 -26 0
204 -32 0
206 -3 0
208 -9 0
210 -15 0
212 -21 0
214 -27 0
216 -33 0
218 -4 0
220 -10 0
222 -16 0
224 -22 0
226 -28 0
228 -34 0
230 -5 0
232 -11 0
234 -17 0
236 -23 0
238 -29 0
240 -35 0
242 -6 0
244 -12 0
246 -18 0
248 -24 0
250 -30 0
252 -36 0
182 -1 0
184 -2 0
186 -3 0
188 -4 0
190 -5 0
192 -6 0
194 -7 0
196 -8 0
198 -9 0
200 -10 0
202 -11 0
204 -12 0
206 -13 0
208 -14 0
210 -15 0
212 -16 0
214 -17 0
216 -18 0
218 -19 0
220 -20 0
222 -21 0
224 -22 0
226 -23 0
228 -24 0
230 -25 0
232 -26 0
234 -27 0
236 -28 0
238 -29 0
240 -30 0
242 -31 0
244 -32 0
246 -33 0
248 -34 0
250 -35 0
252 -36 0
182 181 0
184 183 0
186 185 0
188 187 0
190 189 0
192 191 0
194 193 0
196 195 0
198 197 0
200 199 0
202 201 0
204 203 0
206 205 0
208 207 0
210 209 0
212 211 0
214 213 0
216 215 0
218 217 0
220 219 0
222 221 0
224 223 0
226 225 0
228 227 0
230 229 0
232 231 0
234 233 0
236 235 0
238 237 0
240 239 0
242 241 0
244 243 0
246 245 0
248 247 0
250 249 0
252 251 0
-74 -1 253 0
-77 -7 254 0
-80 -13 255 0
-83 -19 256 0
-86 -25 257 0
-89 -31 258 0
-92 -2 259 0
-95 -8 260 0
-98 -14 261 0
-101 -20 262 0
-104 -26 263 0
-107 -32 264 0
-110 -3 265 0
-113 -9 266 0
-116 -15 267 0
-119 -21 268 0
-122 -27 269 0
-125 -33 270 0
-128 -4 271 0
-131 -10 272 0
-134 -16 273 0
-137 -22 274 0
-140 -28 275 0
-143 -34 276 0
-146 -5 277 0
-149 -11 278 0
-152 -17 279 0
-155 -23 280 0
-158 -29 281 0
-161 -35 282 0
-164 -6 283 0
-167 -12 284 0
-170 -18 285 0
-173 -24 286 0
-176 -30 287 0
-179 -36 288 0
-253 74 0
-254 77 0
-255 80 0
-256 83 0
-257 86 0
-258 89 0
-259 92 0
-260 95 0
-261 98 0
-262 101 0
-263 104 0
-264 107 0
-265 110 0
-266 113 0
-267 116 0
-268 119 0
-269 122 0
-270 125 0
-271 128 0
-272 131 0
-273 134 0
-274 137 0
-275 140 0
-276 143 0
-277 146 0
-278 149 0
-279 152 0
-280 155 0
-281 158 0
-282 161 0
-283 164 0
-284 167 0
-285 170 0
-286 173 0
-287 176 0
-288 179 0
-253 1 0
-254 7 0
-255 13 0
-256 19 0
-257 25 0
-258 31 0
-259 2 0
-260 8 0
-261 14 0
-262 20 0
-263 26 0
-264 32 0
-265 3 0
-266 9 0
-267 15 0
-268 21 0
-269 27 0
-270 33 0
-271 4 0
-272 10 0
-273 16 0
-274 22 0
-275 28 0
-276 34 0
-277 5 0
-278 11 0
-279 17 0
-280 23 0
-281 29 0
-282 35 0
-283 6 0
-284 12 0
-285 18 0
-286 24 0
-287 30 0
-288 36 0
-289 253 -290 0
-291 254 -292 0
-293 255 -294 0
-295 256 -296 0
-297 257 -298 0
-299 258 -300 0
-301 259 -302 0
-303 260 -304 0
-305 261 -306 0
-307 262 -308 0
-309 263 -310 0
-311 264 -312 0
-313 265 -314 0
-315 266 -316 0
-317 267 -318 0
-319 268 -320 0
-321 269 -322 0
-323 270 -324 0
-325 271 -326 0
-327 272 -328 0
-329 273 -330 0
-331 274 -332 0
-333 275 -334 0
-335 276 -336 0
-337 277 -338 0
-339 278 -340 0
-341 279 -342 0
-343 280 -344 0
-345 281 -346 0
-347 282 -348 0
-349 283 -350 0
-351 284 -352 0
-353 285 -354 0
-355 286 -356 0
-357 287 -358 0
-359 288 -360 0
290 289 0
292 291 0
294 293 0
296 295 0
298 297 0
300 299 0
302 301 0
304 303 0
306 305 0
308 307 0
310 309 0
312 311 0
314 313 0
316 315 0
318 317 0
320 319 0
322 321 0
324 323 0
326 325 0
328 327 0
330 329 0
332 331 0
334 333 0
336 335 0
338 337 0
340 339 0
342 341 0
344 343 0
346 345 0
348 347 0
350 349 0
352 351 0
354 353 0
356 355 0
358 357 0
360 359 0
290 -253 0
292 -254 0
294 -255 0
296 -256 0
298 -257 0
300 -258 0
302 -259 0
304 -260 0
306 -261 0
308 -262 0
310 -263 0
312 -264 0
314 -265 0
316 -266 0
318 -267 0
320 -268 0
322 -269 0
324 -270 0
326 -271 0
328 -272 0
330 -273 0
332 -274 0
334 -275 0
336 -276 0
338 -277 0
340 -278 0
342 -279 0
344 -280 0
346 -281 0
348 -282 0
350 -283 0
352 -284 0
354 -285 0
356 -286 0
358 -287 0
360 -288 0
289 -74 -1 -361 0
291 -77 -7 -362 0
293 -80 -13 -363 0
295 -83 -19 -364 0
297 -86 -25 -365 0
299 -89 -31 -366 0
301 -92 -2 -367 0
303 -95 -8 -368 0
305 -98 -14 -369 0
307 -101 -20 -370 0
309 -104 -26 -371 0
311 -107 -32 -372 0
313 -110 -3 -373 0
315 -113 -9 -374 0
317 -116 -15 -375 0
319 -119 -21 -376 0
321 -122 -27 -377 0
323 -125 -33 -378 0
325 -128 -4 -379 0
327 -131 -10 -380 0
329 -134 -16 -381 0
331 -137 -22 -382 0
333 -140 -28 -383 0
335 -143 -34 -384 0
337 -146 -5 -385 0
339 -149 -11 -386 0
341 -152 -17 -387 0
343 -155 -23 -388 0
345 -158 -29 -389 0
347 -161 -35 -390 0
349 -164 -6 -391 0
351 -167 -12 -392 0
353 -170 -18 -393 0
355 -173 -24 -394 0
357 -176 -30 -395 0
359 -179 -36 -396 0
361 -289 0
362 -291 0
363 -293 0
364 -295 0
365 -297 0
366 -299 0
367 -301 0
368 -303 0
369 -305 0
370 -307 0
371 -309 0
372 -311 0
373 -313 0
374 -315 0
375 -317 0
376 -319 0
377 -321 0
378 -323 0
379 -325 0
380 -327 0
381 -329 0
382 -331 0
383 -333 0
384 -335 0
385 -337 0
386 -339 0
387 -341 0
388 -343 0
389 -345 0
390 -347 0
391 -349 0
392 -351 0
393 -353 0
394 -355 0
395 -357 0
396 -359 0
361 74 0
362 77 0
363 80 0
364 83 0
365 86 0
366 89 0
367 92 0
368 95 0
369 98 0
370 101 0
371 104 0
372 107 0
373 110 0
374 113 0
375 116 0
376 119 0
377 122 0
378 125 0
379 128 0
380 131 0
381 134 0
382 137 0
383 140 0
384 143 0
385 146 0
386 149 0
387 152 0
388 155 0
389 158 0
390 161 0
391 164 0
392 167 0
393 170 0
394 173 0
395 176 0
396 179 0
361 1 0
362 7 0
363 13 0
364 19 0
365 25 0
366 31 0
367 2 0
368 8 0
369 14 0
370 20 0
371 26 0
372 32 0
373 3 0
374 9 0
375 15 0
376 21 0
377 27 0
378 33 0
379 4 0
380 10 0
381 16 0
382 22 0
383 28 0
384 34 0
385 5 0
386 11 0
387 17 0
388 23 0
389 29 0
390 35 0
391 6 0
392 12 0
393 18 0
394 24 0
395 30 0
396 36 0
1 1 397 0
7 2 398 0
13 3 399 0
19 4 400 0
25 5 401 0
31 6 402 0
2 7 403 0
8 8 404 0
14 9 405 0
20 10 406 0
26 11 407 0
32 12 408 0
3 13 409 0
9 14 410 0
15 15 411 0
21 16 412 0
27 17 413 0
33 18 414 0
4 19 415 0
10 20 416 0
16 21 417 0
22 22 418 0
28 23 419 0
34 24 420 0
5 25 421 0
11 26 422 0
17 27 423 0
23 28 424 0
29 29 425 0
35 30 426 0
6 31 427 0
12 32 428 0
18 33 429 0
24 34 430 0
30 35 431 0
36 36 432 0
-397 -1 0
-398 -7 0
-399 -13 0
-400 -19 0
-401 -25 0
-402 -31 0
-403 -2 0
-404 -8 0
-405 -14 0
-406 -20 0
-407 -26 0
-408 -32 0
-409 -3 0
-410 -9 0
-411 -15 0
-412 -21 0
-413 -27 0
-414 -33 0
-415 -4 0
-416 -10 0
-417 -16 0
-418 -22 0
-419 -28 0
-420 -34 0
-421 -5 0
-422 -11 0
-423 -17 0
-424 -23 0
-425 -29 0
-426 -35 0
-427 -6 0
-428 -12 0
-429 -18 0
-430 -24 0
-431 -30 0
-432 -36 0
-397 -1 0
-398 -2 0
-399 -3 0
-400 -4 0
-401 -5 0
-402 -6 0
-403 -7 0
-404 -8 0
-405 -9 0
-406 -10 0
-407 -11 0
-408 -12 0
-409 -13 0
-410 -14 0
-411 -15 0
-412 -16 0
-413 -17 0
-414 -18 0
-415 -19 0
-416 -20 0
-417 -21 0
-418 -22 0
-419 -23 0
-420 -24 0
-421 -25 0
-422 -26 0
-423 -27 0
-424 -28 0
-425 -29 0
-426 -30 0
-427 -31 0
-428 -32 0
-429 -33 0
-430 -34 0
-431 -35 0
-432 -36 0
181 397 -433 0
183 398 -434 0
185 399 -435 0
187 400 -436 0
189 401 -437 0
191 402 -438 0
193 403 -439 0
195 404 -440 0
197 405 -441 0
199 406 -442 0
201 407 -443 0
203 408 -444 0
205 409 -445 0
207 410 -446 0
209 411 -447 0
211 412 -448 0
213 413 -449 0
215 414 -450 0
217 415 -451 0
219 416 -452 0
221 417 -453 0
223 418 -454 0
225 419 -455 0
227 420 -456 0
229 421 -457 0
231 422 -458 0
233 423 -459 0
235 424 -460 0
237 425 -461 0
239 426 -462 0
241 427 -463 0
243 428 -464 0
245 429 -465 0
247 430 -466 0
249 431 -467 0
251 432 -468 0
433 -181 0
434 -183 0
435 -185 0
436 -187 0
437 -189 0
438 -191 0
439 -193 0
440 -195 0
441 -197 0
442 -199 0
443 -201 0
444 -203 0
445 -205 0
446 -207 0
447 -209 0
448 -211 0
449 -213 0
450 -215 0
451 -217 0
452 -219 0
453 -221 0
454 -223 0
455 -225 0
456 -227 0
457 -229 0
458 -231 0
459 -233 0
460 -235 0
461 -237 0
462 -239 0
463 -241 0
464 -243 0
465 -245 0
466 -247 0
467 -249 0
468 -251 0
433 -397 0
434 -398 0
435 -399 0
436 -400 0
437 -401 0
438 -402 0
439 -403 0
440 -404 0
441 -405 0
442 -406 0
443 -407 0
444 -408 0
445 -409 0
446 -410 0
447 -411 0
448 -412 0
449 -413 0
450 -414 0
451 -415 0
452 -416 0
453 -417 0
454 -418 0
455 -419 0
456 -420 0
457 -421 0
458 -422 0
459 -423 0
460 -424 0
461 -425 0
462 -426 0
463 -427 0
464 -428 0
465 -429 0
466 -430 0
467 -431 0
468 -432 0
-1 74 469 0
-7 77 470 0
-13 80 471 0
-19 83 472 0
-25 86 473 0
-31 89 474 0
-2 92 475 0
-8 95 476 0
-14 98 477 0
-20 101 478 0
-26 104 479 0
-32 107 480 0
-3 110 481 0
-9 113 482 0
-15 116 483 0
-21 119 484 0
-27 122 485 0
-33 125 486 0
-4 128 487 0
-10 131 488 0
-16 134 489 0
-22 137 490 0
-28 140 491 0
-34 143 492 0
-5 146 493 0
-11 149 494 0
-17 152 495 0
-23 155 496 0
-29 158 497 0
-35 161 498 0
-6 164 499 0
-12 167 500 0
-18 170 501 0
-24 173 502 0
-30 176 503 0
-36 179 504 0
-469 1 0
-470 7 0
-471 13 0
-472 19 0
-473 25 0
-474 31 0
-475 2 0
-476 8 0
-477 14 0
-478 20 0
-479 26 0
-480 32 0
-481 3 0
-482 9 0
-483 15 0
-484 21 0
-485 27 0
-486 33 0
-487 4 0
-488 10 0
-489 16 0
-490 22 0
-491 28 0
-492 34 0
-493 5 0
-494 11 0
-495 17 0
-496 23 0
-497 29 0
-498 35 0
-499 6 0
-500 12 0
-501 18 0
-502 24 0
-503 30 0
-504 36 0
-469 -74 0
-470 -77 0
-471 -80 0
-472 -83 0
-473 -86 0
-474 -89 0
-475 -92 0
-476 -95 0
-477 -98 0
-478 -101 0
-479 -104 0
-480 -107 0
-481 -110 0
-482 -113 0
-483 -116 0
-484 -119 0
-485 -122 0
-486 -125 0
-487 -128 0
-488 -131 0
-489 -134 0
-490 -137 0
-491 -140 0
-492 -143 0
-493 -146 0
-494 -149 0
-495 -152 0
-496 -155 0
-497 -158 0
-498 -161 0
-499 -164 0
-500 -167 0
-501 -170 0
-502 -173 0
-503 -176 0
-504 -179 0
-73 469 -505 0
-76 470 -506 0
-79 471 -507 0
-82 472 -508 0
-85 473 -509 0
-88 474 -510 0
-91 475 -511 0
-94 476 -512 0
-97 477 -513 0
-100 478 -514 0
-103 479 -515 0
-106 480 -516 0
-109 481 -517 0
-112 482 -518 0
-115 483 -519 0
-118 484 -520 0
-121 485 -521 0
-124 486 -522 0
-127 487 -523 0
-130 488 -524 0
-133 489 -525 0
-136 490 -526 0
-139 491 -527 0
-142 492 -528 0
-145 493 -529 0
-148 494 -530 0
-151 495 -531 0
-154 496 -532 0
-157 497 -533 0
-160 498 -534 0
-163 499 -535 0
-166 500 -536 0
-169 501 -537 0
-172 502 -538 0
-175 503 -539 0
-178 504 -540 0
505 73 0
506 76 0
507 79 0
508 82 0
509 85 0
510 88 0
511 91 0
512 94 0
513 97 0
514 100 0
515 103 0
516 106 0
517 109 0
518 112 0
519 115 0
520 118 0
521 121 0
522 124 0
523 127 0
524 130 0
525 133 0
526 136 0
527 139 0
528 142 0
529 145 0
530 148 0
531 151 0
532 154 0
533 157 0
534 160 0
535 163 0
536 166 0
537 169 0
538 172 0
539 175 0
540 178 0
505 -469 0
506 -470 0
507 -471 0
508 -472 0
509 -473 0
510 -474 0
511 -475 0
512 -476 0
513 -477 0
514 -478 0
515 -479 0
516 -480 0
517 -481 0
518 -482 0
519 -483 0
520 -484 0
521 -485 0
522 -486 0
523 -487 0
524 -488 0
525 -489 0
526 -490 0
527 -491 0
528 -492 0
529 -493 0
530 -494 0
531 -495 0
532 -496 0
533 -497 0
534 -498 0
535 -499 0
536 -500 0
537 -501 0
538 -502 0
539 -503 0
540 -504 0
1 -37 -75 -182 -290 -361 -433 -505 541 0
8 -38 -78 -184 -292 -362 -434 -506 542 0
15 -39 -81 -186 -294 -363 -435 -507 543 0
22 -40 -84 -188 -296 -364 -436 -508 544 0
29 -41 -87 -190 -298 -365 -437 -509 545 0
36 -42 -90 -192 -300 -366 -438 -510 546 0
1 -43 -93 -194 -302 -367 -439 -511 547 0
8 -44 -96 -196 -304 -368 -440 -512 548 0
15 -45 -99 -198 -306 -369 -441 -513 549 0
22 -46 -102 -200 -308 -370 -442 -514 550 0
29 -47 -105 -202 -310 -371 -443 -515 551 0
36 -48 -108 -204 -312 -372 -444 -516 552 0
1 -49 -111 -206 -314 -373 -445 -517 553 0
8 -50 -114 -208 -316 -374 -446 -518 554 0
15 -51 -117 -210 -318 -375 -447 -519 555 0
22 -52 -120 -212 -320 -376 -448 -520 556 0
29 -53 -123 -214 -322 -377 -449 -521 557 0
36 -54 -126 -216 -324 -378 -450 -522 558 0
1 -55 -129 -218 -326 -379 -451 -523 559 0
8 -56 -132 -220 -328 -380 -452 -524 560 0
15 -57 -135 -222 -330 -381 -453 -525 561 0
22 -58 -138 -224 -332 -382 -454 -526 562 0
29 -59 -141 -226 -334 -383 -455 -527 563 0
36 -60 -144 -228 -336 -384 -456 -528 564 0
1 -61 -147 -230 -338 -385 -457 -529 565 0
8 -62 -150 -232 -340 -386 -458 -530 566 0
15 -63 -153 -234 -342 -387 -459 -531 567 0
22 -64 -156 -236 -344 -388 -460 -532 568 0
29 -65 -159 -238 -346 -389 -461 -533 569 0
36 -66 -162 -240 -348 -390 -462 -534 570 0
1 -67 -165 -242 -350 -391 -463 -535 571 0
8 -68 -168 -244 -352 -392 -464 -536 572 0
15 -69 -171 -246 -354 -393 -465 -537 573 0
22 -70 -174 -248 -356 -394 -466 -538 574 0
29 -71 -177 -250 -358 -395 -467 -539 575 0
36 -72 -180 -252 -360 -396 -468 -540 576 0
-541 -1 0
-542 -8 0
-543 -15 0
-544 -22 0
-545 -29 0
-546 -36 0
-547 -1 0
-548 -8 0
-549 -15 0
-550 -22 0
-551 -29 0
-552 -36 0
-553 -1 0
-554 -8 0
-555 -15 0
-556 -22 0
-557 -29 0
-558 -36 0
-559 -1 0
-560 -8 0
-561 -15 0
-562 -22 0
-563 -29 0
-564 -36 0
-565 -1 0
-566 -8 0
-567 -15 0
-568 -22 0
-569 -29 0
-570 -36 0
-571 -1 0
-572 -8 0
-573 -15 0
-574 -22 0
-575 -29 0
-576 -36 0
-541 37 0
-542 38 0
-543 39 0
-544 40 0
-545 41 0
-546 42 0
-547 43 0
-548 44 0
-549 45 0
-550 46 0
-551 47 0
-552 48 0
-553 49 0
-554 50 0
-555 51 0
-556 52 0
-557 53 0
-558 54 0
-559 55 0
-560 56 0
-561 57 0
-562 58 0
-563 59 0
-564 60 0
-565 61 0
-566 62 0
-567 63 0
-568 64 0
-569 65 0
-570 66 0
-571 67 0
-572 68 0
-573 69 0
-574 70 0
-575 71 0
-576 72 0
-541 75 0
-542 78 0
-543 81 0
-544 84 0
-545 87 0
-546 90 0
-547 93 0
-548 96 0
-549 99 0
-550 102 0
-551 105 0
-552 108 0
-553 111 0
-554 114 0
-555 117 0
-556 120 0
-557 123 0
-558 126 0
-559 129 0
-560 132 0
-561 135 0
-562 138 0
-563 141 0
-564 144 0
-565 147 0
-566 150 0
-567 153 0
-568 156 0
-569 159 0
-570 162 0
-571 165 0
-572 168 0
-573 171 0
-574 174 0
-575 177 0
-576 180 0
-541 182 0
-542 184 0
-543 186 0
-544 188 0
-545 190 0
-546 192 0
-547 194 0
-548 196 0
-549 198 0
-550 200 0
-551 202 0
-552 204 0
-553 206 0
-554 208 0
-555 210 0
-556 212 0
-557 214 0
-558 216 0
-559 218 0
-560 220 0
-561 222 0
-562 224 0
-563 226 0
-564 228 0
-565 230 0
-566 232 0
-567 234 0
-568 236 0
-569 238 0
-570 240 0
-571 242 0
-572 244 0
-573 246 0
-574 248 0
-575 250 0
-576 252 0
-541 290 0
-542 292 0
-543 294 0
-544 296 0
-545 298 0
-546 300 0
-547 302 0
-548 304 0
-549 306 0
-550 308 0
-551 310 0
-552 312 0
-553 314 0
-554 316 0
-555 318 0
-556 320 0
-557 322 0
-558 324 0
-559 326 0
-560 328 0
-561 330 0
-562 332 0
-563 334 0
-564 336 0
-565 338 0
-566 340 0
-567 342 0
-568 344 0
-569 346 0
-570 348 0
-571 350 0
-572 352 0
-573 354 0
-574 356 0
-575 358 0
-576 360 0
-541 361 0
-542 362 0
-543 363 0
-544 364 0
-545 365 0
-546 366 0
-547 367 0
-548 368 0
-549 369 0
-550 370 0
-551 371 0
-552 372 0
-553 373 0
-554 374 0
-555 375 0
-556 376 0
-557 377 0
-558 378 0
-559 379 0
-560 380 0
-561 381 0
-562 382 0
-563 383 0
-564 384 0
-565 385 0
-566 386 0
-567 387 0
-568 388 0
-569 389 0
-570 390 0
-571 391 0
-572 392 0
-573 393 0
-574 394 0
-575 395 0
-576 396 0
-541 433 0
-542 434 0
-543 435 0
-544 436 0
-545 437 0
-546 438 0
-547 439 0
-548 440 0
-549 441 0
-550 442 0
-551 443 0
-552 444 0
-553 445 0
-554 446 0
-555 447 0
-556 448 0
-557 449 0
-558 450 0
-559 451 0
-560 452 0
-561 453 0
-562 454 0
-563 455 0
-564 456 0
-565 457 0
-566 458 0
-567 459 0
-568 460 0
-569 461 0
-570 462 0
-571 463 0
-572 464 0
-573 465 0
-574 466 0
-575 467 0
-576 468 0
-541 505 0
-542 506 0
-543 507 0
-544 508 0
-545 509 0
-546 510 0
-547 511 0
-548 512 0
-549 513 0
-550 514 0
-551 515 0
-552 516 0
-553 517 0
-554 518 0
-555 519 0
-556 520 0
-557 521 0
-558 522 0
-559 523 0
-560 524 0
-561 525 0
-562 526 0
-563 527 0
-564 528 0
-565 529 0
-566 530 0
-567 531 0
-568 532 0
-569 533 0
-570 534 0
-571 535 0
-572 536 0
-573 537 0
-574 538 0
-575 539 0
-576 540 0
541 0
542 0
543 0
544 0
545 0
546 0
547 0
548 0
549 0
550 0
551 0
552 0
553 0
554 0
555 0
556 0
557 0
558 0
559 0
560 0
561 0
562 0
563 0
564 0
565 0
566 0
567 0
568 0
569 0
570 0
571 0
572 0
573 0
574 0
575 0
576 0
1 577 0
-577 578 0
2 -577 579 0
-579 580 0
3 -579 581 0
-581 582 0
4 -581 583 0
-583 584 0
5 -583 585 0
-585 586 0
6 -585 587 0
-587 588 0
7 -587 589 0
-589 590 0
8 -589 591 0
-591 592 0
9 -591 593 0
-593 594 0
10 -593 595 0
-595 596 0
11 -595 597 0
-597 598 0
12 -597 599 0
-599 600 0
13 -599 0
2 578 0
-578 601 0
3 -578 580 0
-580 602 0
4 -580 582 0
-582 603 0
5 -582 584 0
-584 604 0
6 -584 586 0
-586 605 0
7 -586 588 0
-588 606 0
8 -588 590 0
-590 607 0
9 -590 592 0
-592 608 0
10 -592 594 0
-594 609 0
11 -594 596 0
-596 610 0
12 -596 598 0
-598 611 0
13 -598 600 0
-600 612 0
14 -600 0
3 601 0
-601 613 0
4 -601 602 0
-602 614 0
5 -602 603 0
-603 615 0
6 -603 604 0
-604 616 0
7 -604 605 0
-605 617 0
8 -605 606 0
-606 618 0
9 -606 607 0
-607 619 0
10 -607 608 0
-608 620 0
11 -608 609 0
-609 621 0
12 -609 610 0
-610 622 0
13 -610 611 0
-611 623 0
14 -611 612 0
-612 624 0
15 -612 0
4 613 0
-613 625 0
5 -613 614 0
-614 626 0
6 -614 615 0
-615 627 0
7 -615 616 0
-616 628 0
8 -616 617 0
-617 629 0
9 -617 618 0
-618 630 0
10 -618 619 0
-619 631 0
11 -619 620 0
-620 632 0
12 -620 621 0
-621 633 0
13 -621 622 0
-622 634 0
14 -622 623 0
-623 635 0
15 -623 624 0
-624 636 0
16 -624 0
5 625 0
-625 637 0
6 -625 626 0
-626 638 0
7 -626 627 0
-627 639 0
8 -627 628 0
-628 640 0
9 -628 629 0
-629 641 0
10 -629 630 0
-630 642 0
11 -630 631 0
-631 643 0
12 -631 632 0
-632 644 0
13 -632 633 0
-633 645 0
14 -633 634 0
-634 646 0
15 -634 635 0
-635 647 0
16 -635 636 0
-636 648 0
17 -636 0
6 637 0
-637 649 0
7 -637 638 0
-638 650 0
8 -638 639 0
-639 651 0
9 -639 640 0
-640 652 0
10 -640 641 0
-641 653 0
11 -641 642 0
-642 654 0
12 -642 643 0
-643 655 0
13 -643 644 0
-644 656 0
14 -644 645 0
-645 657 0
15 -645 646 0
-646 658 0
16 -646 647 0
-647 659 0
17 -647 648 0
-648 660 0
18 -648 0
7 649 0
-649 661 0
8 -649 650 0
-650 662 0
9 -650 651 0
-651 663 0
10 -651 652 0
-652 664 0
11 -652 653 0
-653 665 0
12 -653 654 0
-654 666 0
13 -654 655 0
-655 667 0
14 -655 656 0
-656 668 0
15 -656 657 0
-657 669 0
16 -657 658 0
-658 670 0
17 -658 659 0
-659 671 0
18 -659 660 0
-660 672 0
19 -660 0
8 661 0
-661 673 0
9 -661 662 0
-662 674 0
10 -662 663 0
-663 675 0
11 -663 664 0
-664 676 0
12 -664 665 0
-665 677 0
13 -665 666 0
-666 678 0
14 -666 667 0
-667 679 0
15 -667 668 0
-668 680 0
16 -668 669 0
-669 681 0
17 -669 670 0
-670 682 0
18 -670 671 0
-671 683 0
19 -671 672 0
-672 684 0
20 -672 0
9 673 0
-673 685 0
10 -673 674 0
-674 686 0
11 -674 675 0
-675 687 0
12 -675 676 0
-676 688 0
13 -676 677 0
-677 689 0
14 -677 678 0
-678 690 0
15 -678 679 0
-679 691 0
16 -679 680 0
-680 692 0
17 -680 681 0
-681 693 0
18 -681 682 0
-682 694 0
19 -682 683 0
-683 695 0
20 -683 684 0
-684 696 0
21 -684 0
10 685 0
-685 697 0
11 -685 686 0
-686 698 0
12 -686 687 0
-687 699 0
13 -687 688 0
-688 700 0
14 -688 689 0
-689 701 0
15 -689 690 0
-690 702 0
16 -690 691 0
-691 703 0
17 -691 692 0
-692 704 0
18 -692 693 0
-693 705 0
19 -693 694 0
-694 706 0
20 -694 695 0
-695 707 0
21 -695 696 0
-696 708 0
22 -696 0
11 697 0
-697 709 0
12 -697 698 0
-698 710 0
13 -698 699 0
-699 711 0
14 -699 700 0
-700 712 0
15 -700 701 0
-701 713 0
16 -701 702 0
-702 714 0
17 -702 703 0
-703 715 0
18 -703 704 0
-704 716 0
19 -704 705 0
-705 717 0
20 -705 706 0
-706 718 0
21 -706 707 0
-707 719 0
22 -707 708 0
-708 720 0
23 -708 0
12 709 0
-709 721 0
13 -709 710 0
-710 722 0
14 -710 711 0
-711 723 0
15 -711 712 0
-712 724 0
16 -712 713 0
-713 725 0
17 -713 714 0
-714 726 0
18 -714 715 0
-715 727 0
19 -715 716 0
-716 728 0
20 -716 717 0
-717 729 0
21 -717 718 0
-718 730 0
22 -718 719 0
-719 731 0
23 -719 720 0
-720 732 0
24 -720 0
13 721 0
-721 733 0
14 -721 722 0
-722 734 0
15 -722 723 0
-723 735 0
16 -723 724 0
-724 736 0
17 -724 725 0
-725 737 0
18 -725 726 0
-726 738 0
19 -726 727 0
-727 739 0
20 -727 728 0
-728 740 0
21 -728 729 0
-729 741 0
22 -729 730 0
-730 742 0
23 -730 731 0
-731 743 0
24 -731 732 0
-732 744 0
25 -732 0
14 733 0
-733 745 0
15 -733 734 0
-734 746 0
16 -734 735 0
-735 747 0
17 -735 736 0
-736 748 0
18 -736 737 0
-737 749 0
19 -737 738 0
-738 750 0
20 -738 739 0
-739 751 0
21 -739 740 0
-740 752 0
22 -740 741 0
-741 753 0
23 -741 742 0
-742 754 0
24 -742 743 0
-743 755 0
25 -743 744 0
-744 756 0
26 -744 0
15 745 0
-745 757 0
16 -745 746 0
-746 758 0
17 -746 747 0
-747 759 0
18 -747 748 0
-748 760 0
19 -748 749 0
-749 761 0
20 -749 750 0
-750 762 0
21 -750 751 0
-751 763 0
22 -751 752 0
-752 764 0
23 -752 753 0
-753 765 0
24 -753 754 0
-754 766 0
25 -754 755 0
-755 767 0
26 -755 756 0
-756 768 0
27 -756 0
16 757 0
-757 769 0
17 -757 758 0
-758 770 0
18 -758 759 0
-759 771 0
19 -759 760 0
-760 772 0
20 -760 761 0
-761 773 0
21 -761 762 0
-762 774 0
22 -762 763 0
-763 775 0
23 -763 764 0
-764 776 0
24 -764 765 0
-765 777 0
25 -765 766 0
-766 778 0
26 -766 767 0
-767 779 0
27 -767 768 0
-768 780 0
28 -768 0
17 769 0
-769 781 0
18 -769 770 0
-770 782 0
19 -770 771 0
-771 783 0
20 -771 772 0
-772 784 0
21 -772 773 0
-773 785 0
22 -773 774 0
-774 786 0
23 -774 775 0
-775 787 0
24 -775 776 0
-776 788 0
25 -776 777 0
-777 789 0
26 -777 778 0
-778 790 0
27 -778 779 0
-779 791 0
28 -779 780 0
-780 792 0
29 -780 0
18 781 0
-781 793 0
19 -781 782 0
-782 794 0
20 -782 783 0
-783 795 0
21 -783 784 0
-784 796 0
22 -784 785 0
-785 797 0
23 -785 786 0
-786 798 0
24 -786 787 0
-787 799 0
25 -787 788 0
-788 800 0
26 -788 789 0
-789 801 0
27 -789 790 0
-790 802 0
28 -790 791 0
-791 803 0
29 -791 792 0
-792 804 0
30 -792 0
19 793 0
-793 805 0
20 -793 794 0
-794 806 0
21 -794 795 0
-795 807 0
22 -795 796 0
-796 808 0
23 -796 797 0
-797 809 0
24 -797 798 0
-798 810 0
25 -798 799 0
-799 811 0
26 -799 800 0
-800 812 0
27 -800 801 0
-801 813 0
28 -801 802 0
-802 814 0
29 -802 803 0
-803 815 0
30 -803 804 0
-804 816 0
31 -804 0
20 805 0
-805 817 0
21 -805 806 0
-806 818 0
22 -806 807 0
-807 819 0
23 -807 808 0
-808 820 0
24 -808 809 0
-809 821 0
25 -809 810 0
-810 822 0
26 -810 811 0
-811 823 0
27 -811 812 0
-812 824 0
28 -812 813 0
-813 825 0
29 -813 814 0
-814 826 0
30 -814 815 0
-815 827 0
31 -815 816 0
-816 828 0
32 -816 0
21 817 0
-817 829 0
22 -817 818 0
-818 830 0
23 -818 819 0
-819 831 0
24 -819 820 0
-820 832 0
25 -820 821 0
-821 833 0
26 -821 822 0
-822 834 0
27 -822 823 0
-823 835 0
28 -823 824 0
-824 836 0
29 -824 825 0
-825 837 0
30 -825 826 0
-826 838 0
31 -826 827 0
-827 839 0
32 -827 828 0
-828 840 0
33 -828 0
22 829 0
-829 841 0
23 -829 830 0
-830 842 0
24 -830 831 0
-831 843 0
25 -831 832 0
-832 844 0
26 -832 833 0
-833 845 0
27 -833 834 0
-834 846 0
28 -834 835 0
-835 847 0
29 -835 836 0
-836 848 0
30 -836 837 0
-837 849 0
31 -837 838 0
-838 850 0
32 -838 839 0
-839 851 0
33 -839 840 0
-840 852 0
34 -840 0
23 841 0
-841 853 0
24 -841 842 0
-842 854 0
25 -842 843 0
-843 855 0
26 -843 844 0
-844 856 0
27 -844 845 0
-845 857 0
28 -845 846 0
-846 858 0
29 -846 847 0
-847 859 0
30 -847 848 0
-848 860 0
31 -848 849 0
-849 861 0
32 -849 850 0
-850 862 0
33 -850 851 0
-851 863 0
34 -851 852 0
-852 864 0
35 -852 0
24 853 0
25 -853 854 0
26 -854 855 0
27 -855 856 0
28 -856 857 0
29 -857 858 0
30 -858 859 0
31 -859 860 0
32 -860 861 0
33 -861 862 0
34 -862 863 0
35 -863 864 0
36 -864 0
-1 865 0
-865 866 0
-2 -865 867 0
-867 868 0
-3 -867 869 0
-869 870 0
-4 -869 871 0
-871 872 0
-5 -871 873 0
-873 874 0
-6 -873 875 0
-875 876 0
-7 -875 877 0
-877 878 0
-8 -877 879 0
-879 880 0
-9 -879 881 0
-881 882 0
-10 -881 883 0
-883 884 0
-11 -883 885 0
-885 886 0
-12 -885 887 0
-887 888 0
-13 -887 889 0
-889 890 0
-14 -889 891 0
-891 892 0
-15 -891 893 0
-893 894 0
-16 -893 895 0
-895 896 0
-17 -895 897 0
-897 898 0
-18 -897 899 0
-899 900 0
-19 -899 901 0
-901 902 0
-20 -901 903 0
-903 904 0
-21 -903 905 0
-905 906 0
-22 -905 907 0
-907 908 0
-23 -907 909 0
-909 910 0
-24 -909 911 0
-911 912 0
-25 -911 0
-2 866 0
-866 913 0
-3 -866 868 0
-868 914 0
-4 -868 870 0
-870 915 0
-5 -870 872 0
-872 916 0
-6 -872 874 0
-874 917 0
-7 -874 876 0
-876 918 0
-8 -876 878 0
-878 919 0
-9 -878 880 0
-880 920 0
-10 -880 882 0
-882 921 0
-11 -882 884 0
-884 922 0
-12 -884 886 0
-886 923 0
-13 -886 888 0
-888 924 0
-14 -888 890 0
-890 925 0
-15 -890 892 0
-892 926 0
-16 -892 894 0
-894 927 0
-17 -894 896 0
-896 928 0
-18 -896 898 0
-898 929 0
-19 -898 900 0
-900 930 0
-20 -900 902 0
-902 931 0
-21 -902 904 0
-904 932 0
-22 -904 906 0
-906 933 0
-23 -906 908 0
-908 934 0
-24 -908 910 0
-910 935 0
-25 -910 912 0
-912 936 0
-26 -912 0
-3 913 0
-913 937 0
-4 -913 914 0
-914 938 0
-5 -914 915 0
-915 939 0
-6 -915 916 0
-916 940 0
-7 -916 917 0
-917 941 0
-8 -917 918 0
-918 942 0
-9 -918 919 0
-919 943 0
-10 -919 920 0
-920 944 0
-11 -920 921 0
-921 945 0
-12 -921 922 0
-922 946 0
-13 -922 923 0
-923 947 0
-14 -923 924 0
-924 948 0
-15 -924 925 0
-925 949 0
-16 -925 926 0
-926 950 0
-17 -926 927 0
-927 951 0
-18 -927 928 0
-928 952 0
-19 -928 929 0
-929 953 0
-20 -929 930 0
-930 954 0
-21 -930 931 0
-931 955 0
-22 -931 932 0
-932 956 0
-23 -932 933 0
-933 957 0
-24 -933 934 0
-934 958 0
-25 -934 935 0
-935 959 0
-26 -935 936 0
-936 960 0
-27 -936 0
-4 937 0
-937 961 0
-5 -937 938 0
-938 962 0
-6 -938 939 0
-939 963 0
-7 -939 940 0
-940 964 0
-8 -940 941 0
-941 965 0
-9 -941 942 0
-942 966 0
-10 -942 943 0
-943 967 0
-11 -943 944 0
-944 968 0
-12 -944 945 0
-945 969 0
-13 -945 946 0
-946 970 0
-14 -946 947 0
-947 971 0
-15 -947 948 0
-948 972 0
-16 -948 949 0
-949 973 0
-17 -949 950 0
-950 974 0
-18 -950 951 0
-951 975 0
-19 -951 952 0
-952 976 0
-20 -952 953 0
-953 977 0
-21 -953 954 0
-954 978 0
-22 -954 955 0
-955 979 0
-23 -955 956 0
-956 980 0
-24 -956 957 0
-957 981 0
-25 -957 958 0
-958 982 0
-26 -958 959 0
-959 983 0
-27 -959 960 0
-960 984 0
-28 -960 0
-5 961 0
-961 985 0
-6 -961 962 0
-962 986 0
-7 -962 963 0
-963 987 0
-8 -963 964 0
-964 988 0
-9 -964 965 0
-965 989 0
-10 -965 966 0
-966 990 0
-11 -966 967 0
-967 991 0
-12 -967 968 0
-968 992 0
-13 -968 969 0
-969 993 0
-14 -969 970 0
-970 994 0
-15 -970 971 0
-971 995 0
-16 -971 972 0
-972 996 0
-17 -972 973 0
-973 997 0
-18 -973 974 0
-974 998 0
-19 -974 975 0
-975 999 0
-20 -975 976 0
-976 1000 0
-21 -976 977 0
-977 1001 0
-22 -977 978 0
-978 1002 0
-23 -978 979 0
-979 1003 0
-24 -979 980 0
-980 1004 0
-25 -980 981 0
-981 1005 0
-26 -981 982 0
-982 1006 0
-27 -982 983 0
-983 1007 0
-28 -983 984 0
-984 1008 0
-29 -984 0
-6 985 0
-985 1009 0
-7 -985 986 0
-986 1010 0
-8 -986 987 0
-987 1011 0
-9 -987 988 0
-988 1012 0
-10 -988 989 0
-989 1013 0
-11 -989 990 0
-990 1014 0
-12 -990 991 0
-991 1015 0
-13 -991 992 0
-992 1016 0
-14 -992 993 0
-993 1017 0
-15 -993 994 0
-994 1018 0
-16 -994 995 0
-995 1019 0
-17 -995 996 0
-996 1020 0
-18 -996 997 0
-997 1021 0
-19 -997 998 0
-998 1022 0
-20 -998 999 0
-999 1023 0
-21 -999 1000 0
-1000 1024 0
-22 -1000 1001 0
-1001 1025 0
-23 -1001 1002 0
-1002 1026 0
-24 -1002 1003 0
-1003 1027 0
-25 -1003 1004 0
-1004 1028 0
-26 -1004 1005 0
-1005 1029 0
-27 -1005 1006 0
-1006 1030 0
-28 -1006 1007 0
-1007 1031 0
-29 -1007 1008 0
-1008 1032 0
-30 -1008 0
-7 1009 0
-1009 1033 0
-8 -1009 1010 0
-1010 1034 0
-9 -1010 1011 0
-1011 1035 0
-10 -1011 1012 0
-1012 1036 0
-11 -1012 1013 0
-1013 1037 0
-12 -1013 1014 0
-1014 1038 0
-13 -1014 1015 0
-1015 1039 0
-14 -1015 1016 0
-1016 1040 0
-15 -1016 1017 0
-1017 1041 0
-16 -1017 1018 0
-1018 1042 0
-17 -1018 1019 0
-1019 1043 0
-18 -1019 1020 0
-1020 1044 0
-19 -1020 1021 0
-1021 1045 0
-20 -1021 1022 0
-1022 1046 0
-21 -1022 1023 0
-1023 1047 0
-22 -1023 1024 0
-1024 1048 0
-23 -1024 1025 0
-1025 1049 0
-24 -1025 1026 0
-1026 1050 0
-25 -1026 1027 0
-1027 1051 0
-26 -1027 1028 0
-1028 1052 0
-27 -1028 1029 0
-1029 1053 0
-28 -1029 1030 0
-1030 1054 0
-29 -1030 1031 0
-1031 1055 0
-30 -1031 1032 0
-1032 1056 0
-31 -1032 0
-8 1033 0
-1033 1057 0
-9 -1033 1034 0
-1034 1058 0
-10 -1034 1035 0
-1035 1059 0
-11 -1035 1036 0
-1036 1060 0
-12 -1036 1037 0
-1037 1061 0
-13 -1037 1038 0
-1038 1062 0
-14 -1038 1039 0
-1039 1063 0
-15 -1039 1040 0
-1040 1064 0
-16 -1040 1041 0
-1041 1065 0
-17 -1041 1042 0
-1042 1066 0
-18 -1042 1043 0
-1043 1067 0
-19 -1043 1044 0
-1044 1068 0
-20 -1044 1045 0
-1045 1069 0
-21 -1045 1046 0
-1046 1070 0
-22 -1046 1047 0
-1047 1071 0
-23 -1047 1048 0
-1048 1072 0
-24 -1048 1049 0
-1049 1073 0
-25 -1049 1050 0
-1050 1074 0
-26 -1050 1051 0
-1051 1075 0
-27 -1051 1052 0
-1052 1076 0
-28 -1052 1053 0
-1053 1077 0
-29 -1053 1054 0
-1054 1078 0
-30 -1054 1055 0
-1055 1079 0
-31 -1055 1056 0
-1056 1080 0
-32 -1056 0
-9 1057 0
-1057 1081 0
-10 -1057 1058 0
-1058 1082 0
-11 -1058 1059 0
-1059 1083 0
-12 -1059 1060 0
-1060 1084 0
-13 -1060 1061 0
-1061 1085 0
-14 -1061 1062 0
-1062 1086 0
-15 -1062 1063 0
-1063 1087 0
-16 -1063 1064 0
-1064 1088 0
-17 -1064 1065 0
-1065 1089 0
-18 -1065 1066 0
-1066 1090 0
-19 -1066 1067 0
-1067 1091 0
-20 -1067 1068 0
-1068 1092 0
-21 -1068 1069 0
-1069 1093 0
-22 -1069 1070 0
-1070 1094 0
-23 -1070 1071 0
-1071 1095 0
-24 -1071 1072 0
-1072 1096 0
-25 -1072 1073 0
-1073 1097 0
-26 -1073 1074 0
-1074 1098 0
-27 -1074 1075 0
-1075 1099 0
-28 -1075 1076 0
-1076 1100 0
-29 -1076 1077 0
-1077 1101 0
-30 -1077 1078 0
-1078 1102 0
-31 -1078 1079 0
-1079 1103 0
-32 -1079 1080 0
-1080 1104 0
-33 -1080 0
-10 1081 0
-1081 1105 0
-11 -1081 1082 0
-1082 1106 0
-12 -1082 1083 0
-1083 1107 0
-13 -1083 1084 0
-1084 1108 0
-14 -1084 1085 0
-1085 1109 0
-15 -1085 1086 0
-1086 1110 0
-16 -1086 1087 0
-1087 1111 0
-17 -1087 1088 0
-1088 1112 0
-18 -1088 1089 0
-1089 1113 0
-19 -1089 1090 0
-1090 1114 0
-20 -1090 1091 0
-1091 1115 0
-21 -1091 1092 0
-1092 1116 0
-22 -1092 1093 0
-1093 1117 0
-23 -1093 1094 0
-1094 1118 0
-24 -1094 1095 0
-1095 1119 0
-25 -1095 1096 0
-1096 1120 0
-26 -1096 1097 0
-1097 1121 0
-27 -1097 1098 0
-1098 1122 0
-28 -1098 1099 0
-1099 1123 0
-29 -1099 1100 0
-1100 1124 0
-30 -1100 1101 0
-1101 1125 0
-31 -1101 1102 0
-1102 1126 0
-32 -1102 1103 0
-1103 1127 0
-33 -1103 1104 0
-1104 1128 0
-34 -1104 0
-11 1105 0
-1105 1129 0
-12 -1105 1106 0
-1106 1130 0
-13 -1106 1107 0
-1107 1131 0
-14 -1107 1108 0
-1108 1132 0
-15 -1108 1109 0
-1109 1133 0
-16 -1109 1110 0
-1110 1134 0
-17 -1110 1111 0
-1111 1135 0
-18 -1111 1112 0
-1112 1136 0
-19 -1112 1113 0
-1113 1137 0
-20 -1113 1114 0
-1114 1138 0
-21 -1114 1115 0
-1115 1139 0
-22 -1115 1116 0
-1116 1140 0
-23 -1116 1117 0
-1117 1141 0
-24 -1117 1118 0
-1118 1142 0
-25 -1118 1119 0
-1119 1143 0
-26 -1119 1120 0
-1120 1144 0
-27 -1120 1121 0
-1121 1145 0
-28 -1121 1122 0
-1122 1146 0
-29 -1122 1123 0
-1123 1147 0
-30 -1123 1124 0
-1124 1148 0
-31 -1124 1125 0
-1125 1149 0
-32 -1125 1126 0
-1126 1150 0
-33 -1126 1127 0
-1127 1151 0
-34 -1127 1128 0
-1128 1152 0
-35 -1128 0
-12 1129 0
-13 -1129 1130 0
-14 -1130 1131 0
-15 -1131 1132 0
-16 -1132 1133 0
-17 -1133 1134 0
-18 -1134 1135 0
-19 -1135 1136 0
-20 -1136 1137 0
-21 -1137 1138 0
-22 -1138 1139 0
-23 -1139 1140 0
-24 -1140 1141 0
-25 -1141 1142 0
-26 -1142 1143 0
-27 -1143 1144 0
-28 -1144 1145 0
-29 -1145 1146 0
-30 -1146 1147 0
-31 -1147 1148 0
-32 -1148 1149 0
-33 -1149 1150 0
-34 -1150 1151 0
-35 -1151 1152 0
-36 -1152 0
1153 0
1154 1155 0
-1154 -1155 0
-1154 -1156 1157 0
-1154 -1158 1159 0
-1154 -1160 1161 0
-1154 -1162 1163 0
1157 1164 0
-1157 -1164 0
-1157 -1165 1154 0
-1157 -1166 1159 0
-1157 -1167 1161 0
-1157 -1168 1163 0
1159 1169 0
-1159 -1169 0
-1159 -1170 1154 0
-1159 -1171 1157 0
-1159 -1172 1161 0
-1159 -1173 1163 0
1161 1174 0
-1161 -1174 0
-1161 -1175 1154 0
-1161 -1176 1157 0
-1161 -1177 1159 0
-1161 -1178 1163 0
1163 1179 0
-1163 -1179 0
-1163 -1180 1154 0
-1163 -1181 1157 0
-1163 -1182 1159 0
-1163 -1183 1161 0
1184 0
1155 1154 0
-1155 -1154 0
-1155 -1157 1156 0
-1155 -1159 1158 0
-1155 -1161 1160 0
-1155 -1163 1162 0
1156 1165 0
-1156 -1165 0
-1156 -1164 1155 0
-1156 -1166 1158 0
-1156 -1167 1160 0
-1156 -1168 1162 0
1158 1170 0
-1158 -1170 0
-1158 -1169 1155 0
-1158 -1171 1156 0
-1158 -1172 1160 0
-1158 -1173 1162 0
1160 1175 0
-1160 -1175 0
-1160 -1174 1155 0
-1160 -1176 1156 0
-1160 -1177 1158 0
-1160 -1178 1162 0
1162 1180 0
-1162 -1180 0
-1162 -1179 1155 0
-1162 -1181 1156 0
-1162 -1182 1158 0
-1162 -1183 1160 0
1185 0
1164 1157 0
-1164 -1157 0
-1164 -1154 1165 0
-1164 -1159 1166 0
-1164 -1161 1167 0
-1164 -1163 1168 0
1165 1156 0
-1165 -1156 0
-1165 -1155 1164 0
-1165 -1158 1166 0
-1165 -1160 1167 0
-1165 -1162 1168 0
1166 1171 0
-1166 -1171 0
-1166 -1169 1164 0
-1166 -1170 1165 0
-1166 -1172 1167 0
-1166 -1173 1168 0
1167 1176 0
-1167 -1176 0
-1167 -1174 1164 0
-1167 -1175 1165 0
-1167 -1177 1166 0
-1167 -1178 1168 0
1168 1181 0
-1168 -1181 0
-1168 -1179 1164 0
-1168 -1180 1165 0
-1168 -1182 1166 0
-1168 -1183 1167 0
1186 0
1169 1159 0
-1169 -1159 0
-1169 -1154 1170 0
-1169 -1157 1171 0
-1169 -1161 1172 0
-1169 -1163 1173 0
1170 1158 0
-1170 -1158 0
-1170 -1155 1169 0
-1170 -1156 1171 0
-1170 -1160 1172 0
-1170 -1162 1173 0
1171 1166 0
-1171 -1166 0
-1171 -1164 1169 0
-1171 -1165 1170 0
-1171 -1167 1172 0
-1171 -1168 1173 0
1172 1177 0
-1172 -1177 0
-1172 -1174 1169 0
-1172 -1175 1170 0
-1172 -1176 1171 0
-1172 -1178 1173 0
1173 1182 0
-1173 -1182 0
-1173 -1179 1169 0
-1173 -1180 1170 0
-1173 -1181 1171 0
-1173 -1183 1172 0
1187 0
1174 1161 0
-1174 -1161 0
-1174 -1154 1175 0
-1174 -1157 1176 0
-1174 -1159 1177 0
-1174 -1163 1178 0
1175 1160 0
-1175 -1160 0
-1175 -1155 1174 0
-1175 -1156 1176 0
-1175 -1158 1177 0
-1175 -1162 1178 0
1176 1167 0
-1176 -1167 0
-1176 -1164 1174 0
-1176 -1165 1175 0
-1176 -1166 1177 0
-1176 -1168 1178 0
1177 1172 0
-1177 -1172 0
-1177 -1169 1174 0
-1177 -1170 1175 0
-1177 -1171 1176 0
-1177 -1173 1178 0
1178 1183 0
-1178 -1183 0
-1178 -1179 1174 0
-1178 -1180 1175 0
-1178 -1181 1176 0
-1178 -1182 1177 0
1188 0
1179 1163 0
-1179 -1163 0
-1179 -1154 1180 0
-1179 -1157 1181 0
-1179 -1159 1182 0
-1179 -1161 1183 0
1180 1162 0
-1180 -1162 0
-1180 -1155 1179 0
-1180 -1156 1181 0
-1180 -1158 1182 0
-1180 -1160 1183 0
1181 1168 0
-1181 -1168 0
-1181 -1164 1179 0
-1181 -1165 1180 0
-1181 -1166 1182 0
-1181 -1167 1183 0
1182 1173 0
-1182 -1173 0
-1182 -1169 1179 0
-1182 -1170 1180 0
-1182 -1171 1181 0
-1182 -1172 1183 0
1183 1178 0
-1183 -1178 0
-1183 -1174 1179 0
-1183 -1175 1180 0
-1183 -1176 1181 0
-1183 -1177 1182 0
-1189 0
-1190 1154 0
-1191 1157 0
-1191 1165 0
-1157 -1165 1191 0
-1192 1159 0
-1192 1170 0
-1159 -1170 1192 0
-1193 1161 0
-1193 1175 0
-1161 -1175 1193 0
-1194 1163 0
-1194 1180 0
-1163 -1180 1194 0
-1190 -1191 0
-1190 -1192 0
-1190 -1193 0
-1190 -1194 0
-1154 1190 1191 1192 1193 1194 0
-1195 1157 0
-1196 1154 0
-1196 1156 0
-1154 -1156 1196 0
-1197 1159 0
-1197 1171 0
-1159 -1171 1197 0
-1198 1161 0
-1198 1176 0
-1161 -1176 1198 0
-1199 1163 0
-1199 1181 0
-1163 -1181 1199 0
-1195 -1196 0
-1195 -1197 0
-1195 -1198 0
-1195 -1199 0
-1157 1195 1196 1197 1198 1199 0
-1200 1159 0
-1201 1154 0
-1201 1158 0
-1154 -1158 1201 0
-1202 1157 0
-1202 1166 0
-1157 -1166 1202 0
-1203 1161 0
-1203 1177 0
-1161 -1177 1203 0
-1204 1163 0
-1204 1182 0
-1163 -1182 1204 0
-1200 -1201 0
-1200 -1202 0
-1200 -1203 0
-1200 -1204 0
-1159 1200 1201 1202 1203 1204 0
-1205 1161 0
-1206 1154 0
-1206 1160 0
-1154 -1160 1206 0
-1207 1157 0
-1207 1167 0
-1157 -1167 1207 0
-1208 1159 0
-1208 1172 0
-1159 -1172 1208 0
-1209 1163 0
-1209 1183 0
-1163 -1183 1209 0
-1205 -1206 0
-1205 -1207 0
-1205 -1208 0
-1205 -1209 0
-1161 1205 1206 1207 1208 1209 0
-1210 1163 0
-1211 1154 0
-1211 1162 0
-1154 -1162 1211 0
-1212 1157 0
-1212 1168 0
-1157 -1168 1212 0
-1213 1159 0
-1213 1173 0
-1159 -1173 1213 0
-1214 1161 0
-1214 1178 0
-1161 -1178 1214 0
-1210 -1211 0
-1210 -1212 0
-1210 -1213 0
-1210 -1214 0
-1163 1210 1211 1212 1213 1214 0
-1215 1155 0
-1216 1156 0
-1216 1164 0
-1156 -1164 1216 0
-1217 1158 0
-1217 1169 0
-1158 -1169 1217 0
-1218 1160 0
-1218 1174 0
-1160 -1174 1218 0
-1219 1162 0
-1219 1179 0
-1162 -1179 1219 0
-1215 -1216 0
-1215 -1217 0
-1215 -1218 0
-1215 -1219 0
-1155 1215 1216 1217 1218 1219 0
-1220 0
-1221 1156 0
-1222 1155 0
-1222 1157 0
-1155 -1157 1222 0
-1223 1158 0
-1223 1171 0
-1158 -1171 1223 0
-1224 1160 0
-1224 1176 0
-1160 -1176 1224 0
-1225 1162 0
-1225 1181 0
-1162 -1181 1225 0
-1221 -1222 0
-1221 -1223 0
-1221 -1224 0
-1221 -1225 0
-1156 1221 1222 1223 1224 1225 0
-1226 1158 0
-1227 1155 0
-1227 1159 0
-1155 -1159 1227 0
-1228 1156 0
-1228 1166 0
-1156 -1166 1228 0
-1229 1160 0
-1229 1177 0
-1160 -1177 1229 0
-1230 1162 0
-1230 1182 0
-1162 -1182 1230 0
-1226 -1227 0
-1226 -1228 0
-1226 -1229 0
-1226 -1230 0
-1158 1226 1227 1228 1229 1230 0
-1231 1160 0
-1232 1155 0
-1232 1161 0
-1155 -1161 1232 0
-1233 1156 0
-1233 1167 0
-1156 -1167 1233 0
-1234 1158 0
-1234 1172 0
-1158 -1172 1234 0
-1235 1162 0
-1235 1183 0
-1162 -1183 1235 0
-1231 -1232 0
-1231 -1233 0
-1231 -1234 0
-1231 -1235 0
-1160 1231 1232 1233 1234 1235 0
-1236 1162 0
-1237 1155 0
-1237 1163 0
-1155 -1163 1237 0
-1238 1156 0
-1238 1168 0
-1156 -1168 1238 0
-1239 1158 0
-1239 1173 0
-1158 -1173 1239 0
-1240 1160 0
-1240 1178 0
-1160 -1178 1240 0
-1236 -1237 0
-1236 -1238 0
-1236 -1239 0
-1236 -1240 0
-1162 1236 1237 1238 1239 1240 0
-1241 1164 0
-1242 1165 0
-1242 1155 0
-1165 -1155 1242 0
-1243 1166 0
-1243 1169 0
-1166 -1169 1243 0
-1244 1167 0
-1244 1174 0
-1167 -1174 1244 0
-1245 1168 0
-1245 1179 0
-1168 -1179 1245 0
-1241 -1242 0
-1241 -1243 0
-1241 -1244 0
-1241 -1245 0
-1164 1241 1242 1243 1244 1245 0
-1246 1165 0
-1247 1164 0
-1247 1154 0
-1164 -1154 1247 0
-1248 1166 0
-1248 1170 0
-1166 -1170 1248 0
-1249 1167 0
-1249 1175 0
-1167 -1175 1249 0
-1250 1168 0
-1250 1180 0
-1168 -1180 1250 0
-1246 -1247 0
-1246 -1248 0
-1246 -1249 0
-1246 -1250 0
-1165 1246 1247 1248 1249 1250 0
-1251 0
-1252 1166 0
-1253 1164 0
-1253 1159 0
-1164 -1159 1253 0
-1254 1165 0
-1254 1158 0
-1165 -1158 1254 0
-1255 1167 0
-1255 1177 0
-1167 -1177 1255 0
-1256 1168 0
-1256 1182 0
-1168 -1182 1256 0
-1252 -1253 0
-1252 -1254 0
-1252 -1255 0
-1252 -1256 0
-1166 1252 1253 1254 1255 1256 0
-1257 1167 0
-1258 1164 0
-1258 1161 0
-1164 -1161 1258 0
-1259 1165 0
-1259 1160 0
-1165 -1160 1259 0
-1260 1166 0
-1260 1172 0
-1166 -1172 1260 0
-1261 1168 0
-1261 1183 0
-1168 -1183 1261 0
-1257 -1258 0
-1257 -1259 0
-1257 -1260 0
-1257 -1261 0
-1167 1257 1258 1259 1260 1261 0
-1262 1168 0
-1263 1164 0
-1263 1163 0
-1164 -1163 1263 0
-1264 1165 0
-1264 1162 0
-1165 -1162 1264 0
-1265 1166 0
-1265 1173 0
-1166 -1173 1265 0
-1266 1167 0
-1266 1178 0
-1167 -1178 1266 0
-1262 -1263 0
-1262 -1264 0
-1262 -1265 0
-1262 -1266 0
-1168 1262 1263 1264 1265 1266 0
-1267 1169 0
-1268 1170 0
-1268 1155 0
-1170 -1155 1268 0
-1269 1171 0
-1269 1164 0
-1171 -1164 1269 0
-1270 1172 0
-1270 1174 0
-1172 -1174 1270 0
-1271 1173 0
-1271 1179 0
-1173 -1179 1271 0
-1267 -1268 0
-1267 -1269 0
-1267 -1270 0
-1267 -1271 0
-1169 1267 1268 1269 1270 1271 0
-1272 1170 0
-1273 1169 0
-1273 1154 0
-1169 -1154 1273 0
-1274 1171 0
-1274 1165 0
-1171 -1165 1274 0
-1275 1172 0
-1275 1175 0
-1172 -1175 1275 0
-1276 1173 0
-1276 1180 0
-1173 -1180 1276 0
-1272 -1273 0
-1272 -1274 0
-1272 -1275 0
-1272 -1276 0
-1170 1272 1273 1274 1275 1276 0
-1277 1171 0
-1278 1169 0
-1278 1157 0
-1169 -1157 1278 0
-1279 1170 0
-1279 1156 0
-1170 -1156 1279 0
-1280 1172 0
-1280 1176 0
-1172 -1176 1280 0
-1281 1173 0
-1281 1181 0
-1173 -1181 1281 0
-1277 -1278 0
-1277 -1279 0
-1277 -1280 0
-1277 -1281 0
-1171 1277 1278 1279 1280 1281 0
-1282 0
-1283 1172 0
-1284 1169 0
-1284 1161 0
-1169 -1161 1284 0
-1285 1170 0
-1285 1160 0
-1170 -1160 1285 0
-1286 1171 0
-1286 1167 0
-1171 -1167 1286 0
-1287 1173 0
-1287 1183 0
-1173 -1183 1287 0
-1283 -1284 0
-1283 -1285 0
-1283 -1286 0
-1283 -1287 0
-1172 1283 1284 1285 1286 1287 0
-1288 1173 0
-1289 1169 0
-1289 1163 0
-1169 -1163 1289 0
-1290 1170 0
-1290 1162 0
-1170 -1162 1290 0
-1291 1171 0
-1291 1168 0
-1171 -1168 1291 0
-1292 1172 0
-1292 1178 0
-1172 -1178 1292 0
-1288 -1289 0
-1288 -1290 0
-1288 -1291 0
-1288 -1292 0
-1173 1288 1289 1290 1291 1292 0
-1293 1174 0
-1294 1175 0
-1294 1155 0
-1175 -1155 1294 0
-1295 1176 0
-1295 1164 0
-1176 -1164 1295 0
-1296 1177 0
-1296 1169 0
-1177 -1169 1296 0
-1297 1178 0
-1297 1179 0
-1178 -1179 1297 0
-1293 -1294 0
-1293 -1295 0
-1293 -1296 0
-1293 -1297 0
-1174 1293 1294 1295 1296 1297 0
-1298 1175 0
-1299 1174 0
-1299 1154 0
-1174 -1154 1299 0
-1300 1176 0
-1300 1165 0
-1176 -1165 1300 0
-1301 1177 0
-1301 1170 0
-1177 -1170 1301 0
-1302 1178 0
-1302 1180 0
-1178 -1180 1302 0
-1298 -1299 0
-1298 -1300 0
-1298 -1301 0
-1298 -1302 0
-1175 1298 1299 1300 1301 1302 0
-1303 1176 0
-1304 1174 0
-1304 1157 0
-1174 -1157 1304 0
-1305 1175 0
-1305 1156 0
-1175 -1156 1305 0
-1306 1177 0
-1306 1171 0
-1177 -1171 1306 0
-1307 1178 0
-1307 1181 0
-1178 -1181 1307 0
-1303 -1304 0
-1303 -1305 0
-1303 -1306 0
-1303 -1307 0
-1176 1303 1304 1305 1306 1307 0
-1308 1177 0
-1309 1174 0
-1309 1159 0
-1174 -1159 1309 0
-1310 1175 0
-1310 1158 0
-1175 -1158 1310 0
-1311 1176 0
-1311 1166 0
-1176 -1166 1311 0
-1312 1178 0
-1312 1182 0
-1178 -1182 1312 0
-1308 -1309 0
-1308 -1310 0
-1308 -1311 0
-1308 -1312 0
-1177 1308 1309 1310 1311 1312 0
-1313 0
-1314 1178 0
-1315 1174 0
-1315 1163 0
-1174 -1163 1315 0
-1316 1175 0
-1316 1162 0
-1175 -1162 1316 0
-1317 1176 0
-1317 1168 0
-1176 -1168 1317 0
-1318 1177 0
-1318 1173 0
-1177 -1173 1318 0
-1314 -1315 0
-1314 -1316 0
-1314 -1317 0
-1314 -1318 0
-1178 1314 1315 1316 1317 1318 0
-1319 1179 0
-1320 1180 0
-1320 1155 0
-1180 -1155 1320 0
-1321 1181 0
-1321 1164 0
-1181 -1164 1321 0
-1322 1182 0
-1322 1169 0
-1182 -1169 1322 0
-1323 1183 0
-1323 1174 0
-1183 -1174 1323 0
-1319 -1320 0
-1319 -1321 0
-1319 -1322 0
-1319 -1323 0
-1179 1319 1320 1321 1322 1323 0
-1324 1180 0
-1325 1179 0
-1325 1154 0
-1179 -1154 1325 0
-1326 1181 0
-1326 1165 0
-1181 -1165 1326 0
-1327 1182 0
-1327 1170 0
-1182 -1170 1327 0
-1328 1183 0
-1328 1175 0
-1183 -1175 1328 0
-1324 -1325 0
-1324 -1326 0
-1324 -1327 0
-1324 -1328 0
-1180 1324 1325 1326 1327 1328 0
-1329 1181 0
-1330 1179 0
-1330 1157 0
-1179 -1157 1330 0
-1331 1180 0
-1331 1156 0
-1180 -1156 1331 0
-1332 1182 0
-1332 1171 0
-1182 -1171 1332 0
-1333 1183 0
-1333 1176 0
-1183 -1176 1333 0
-1329 -1330 0
-1329 -1331 0
-1329 -1332 0
-1329 -1333 0
-1181 1329 1330 1331 1332 1333 0
-1334 1182 0
-1335 1179 0
-1335 1159 0
-1179 -1159 1335 0
-1336 1180 0
-1336 1158 0
-1180 -1158 1336 0
-1337 1181 0
-1337 1166 0
-1181 -1166 1337 0
-1338 1183 0
-1338 1177 0
-1183 -1177 1338 0
-1334 -1335 0
-1334 -1336 0
-1334 -1337 0
-1334 -1338 0
-1182 1334 1335 1336 1337 1338 0
-1339 1183 0
-1340 1179 0
-1340 1161 0
-1179 -1161 1340 0
-1341 1180 0
-1341 1160 0
-1180 -1160 1341 0
-1342 1181 0
-1342 1167 0
-1181 -1167 1342 0
-1343 1182 0
-1343 1172 0
-1182 -1172 1343 0
-1339 -1340 0
-1339 -1341 0
-1339 -1342 0
-1339 -1343 0
-1183 1339 1340 1341 1342 1343 0
-1344 0
-1345 1153 0
-1345 1154 0
-1345 1157 0
-1345 1159 0
-1345 1161 0
-1345 1163 0
-1153 -1154 -1157 -1159 -1161 -1163 1345 0
-1346 1153 0
-1346 1155 0
-1346 1164 0
-1346 1169 0
-1346 1174 0
-1346 1179 0
-1153 -1155 -1164 -1169 -1174 -1179 1346 0
-1347 1155 0
-1347 1184 0
-1347 1156 0
-1347 1158 0
-1347 1160 0
-1347 1162 0
-1155 -1184 -1156 -1158 -1160 -1162 1347 0
-1348 1154 0
-1348 1184 0
-1348 1165 0
-1348 1170 0
-1348 1175 0
-1348 1180 0
-1154 -1184 -1165 -1170 -1175 -1180 1348 0
-1349 1164 0
-1349 1165 0
-1349 1185 0
-1349 1166 0
-1349 1167 0
-1349 1168 0
-1164 -1165 -1185 -1166 -1167 -1168 1349 0
-1350 1157 0
-1350 1156 0
-1350 1185 0
-1350 1171 0
-1350 1176 0
-1350 1181 0
-1157 -1156 -1185 -1171 -1176 -1181 1350 0
-1351 1169 0
-1351 1170 0
-1351 1171 0
-1351 1186 0
-1351 1172 0
-1351 1173 0
-1169 -1170 -1171 -1186 -1172 -1173 1351 0
-1352 1159 0
-1352 1158 0
-1352 1166 0
-1352 1186 0
-1352 1177 0
-1352 1182 0
-1159 -1158 -1166 -1186 -1177 -1182 1352 0
-1353 1174 0
-1353 1175 0
-1353 1176 0
-1353 1177 0
-1353 1187 0
-1353 1178 0
-1174 -1175 -1176 -1177 -1187 -1178 1353 0
-1354 1161 0
-1354 1160 0
-1354 1167 0
-1354 1172 0
-1354 1187 0
-1354 1183 0
-1161 -1160 -1167 -1172 -1187 -1183 1354 0
-1355 1179 0
-1355 1180 0
-1355 1181 0
-1355 1182 0
-1355 1183 0
-1355 1188 0
-1179 -1180 -1181 -1182 -1183 -1188 1355 0
-1356 1163 0
-1356 1162 0
-1356 1168 0
-1356 1173 0
-1356 1178 0
-1356 1188 0
-1163 -1162 -1168 -1173 -1178 -1188 1356 0
-1189 74 0
-1346 -1345 74 0
-74 1189 1346 0
-74 1189 1345 0
-1190 92 0
-1346 -1347 92 0
-92 1190 1346 0
-92 1190 1347 0
-1195 110 0
-1346 -1349 110 0
-110 1195 1346 0
-110 1195 1349 0
-1200 128 0
-1346 -1351 128 0
-128 1200 1346 0
-128 1200 1351 0
-1205 146 0
-1346 -1353 146 0
-146 1205 1346 0
-146 1205 1353 0
-1210 164 0
-1346 -1355 164 0
-164 1210 1346 0
-164 1210 1355 0
-1215 77 0
-1348 -1345 77 0
-77 1215 1348 0
-77 1215 1345 0
-1220 95 0
-1348 -1347 95 0
-95 1220 1348 0
-95 1220 1347 0
-1221 113 0
-1348 -1349 113 0
-113 1221 1348 0
-113 1221 1349 0
-1226 131 0
-1348 -1351 131 0
-131 1226 1348 0
-131 1226 1351 0
-1231 149 0
-1348 -1353 149 0
-149 1231 1348 0
-149 1231 1353 0
-1236 167 0
-1348 -1355 167 0
-167 1236 1348 0
-167 1236 1355 0
-1241 80 0
-1350 -1345 80 0
-80 1241 1350 0
-80 1241 1345 0
-1246 98 0
-1350 -1347 98 0
-98 1246 1350 0
-98 1246 1347 0
-1251 116 0
-1350 -1349 116 0
-116 1251 1350 0
-116 1251 1349 0
-1252 134 0
-1350 -1351 134 0
-134 1252 1350 0
-134 1252 1351 0
-1257 152 0
-1350 -1353 152 0
-152 1257 1350 0
-152 1257 1353 0
-1262 170 0
-1350 -1355 170 0
-170 1262 1350 0
-170 1262 1355 0
-1267 83 0
-1352 -1345 83 0
-83 1267 1352 0
-83 1267 1345 0
-1272 101 0
-1352 -1347 101 0
-101 1272 1352 0
-101 1272 1347 0
-1277 119 0
-1352 -1349 119 0
-119 1277 1352 0
-119 1277 1349 0
-1282 137 0
-1352 -1351 137 0
-137 1282 1352 0
-137 1282 1351 0
-1283 155 0
-1352 -1353 155 0
-155 1283 1352 0
-155 1283 1353 0
-1288 173 0
-1352 -1355 173 0
-173 1288 1352 0
-173 1288 1355 0
-1293 86 0
-1354 -1345 86 0
-86 1293 1354 0
-86 1293 1345 0
-1298 104 0
-1354 -1347 104 0
-104 1298 1354 0
-104 1298 1347 0
-1303 122 0
-1354 -1349 122 0
-122 1303 1354 0
-122 1303 1349 0
-1308 140 0
-1354 -1351 140 0
-140 1308 1354 0
-140 1308 1351 0
-1313 158 0
-1354 -1353 158 0
-158 1313 1354 0
-158 1313 1353 0
-1314 176 0
-1354 -1355 176 0
-176 1314 1354 0
-176 1314 1355 0
-1319 89 0
-1356 -1345 89 0
-89 1319 1356 0
-89 1319 1345 0
-1324 107 0
-1356 -1347 107 0
-107 1324 1356 0
-107 1324 1347 0
-1329 125 0
-1356 -1349 125 0
-125 1329 1356 0
-125 1329 1349 0
-1334 143 0
-1356 -1351 143 0
-143 1334 1356 0
-143 1334 1351 0
-1339 161 0
-1356 -1353 161 0
-161 1339 1356 0
-161 1339 1353 0
-1344 179 0
-1356 -1355 179 0
-179 1344 1356 0
-179 1344 1355 0
