p cnf 1396 3746
c ind 1 2 3 4 5 6 7 8 9 10 11 12 13 14 15 16 17 18 19 20 21 22 23 24 25 26 27 28 29 30 31 32 33 34 35 36 37 38 39 40 41 42 43 44 45 46 47 48 49 50 0
c ind 51 52 53 54 55 56 57 58 59 60 61 62 63 64 65 66 67 68 69 70 71 72 73 74 75 76 77 78 79 80 81 82 83 84 85 86 87 88 89 90 91 92 93 94 95 96 97 98 99 100 0
c ind 101 102 103 104 105 106 107 108 109 110 111 112 113 114 115 116 117 118 119 120 121 122 123 124 125 126 127 128 129 130 131 132 133 134 135 136 137 138 139 140 141 142 143 144 145 146 147 148 149 150 0
c ind 151 152 153 154 155 156 157 158 159 160 161 162 163 164 165 166 167 168 169 170 171 172 173 174 175 176 177 178 179 180 181 182 183 184 185 186 187 188 189 190 191 192 193 194 195 196 197 198 199 200 0
c ind 201 202 203 204 205 206 207 208 209 210 211 212 213 214 215 216 217 218 219 220 221 222 223 224 225 226 227 228 229 230 231 232 233 234 235 236 237 238 239 240 241 242 243 244 245 246 247 248 249 250 0
c ind 251 252 253 254 255 256 257 258 259 260 261 262 263 264 265 266 267 268 269 270 271 272 273 274 275 276 277 278 279 280 281 282 283 284 285 286 287 288 289 290 291 292 293 294 295 296 297 298 299 300 0
c ind 301 302 303 304 305 306 307 308 309 310 311 312 313 314 315 316 317 318 319 320 321 322 323 324 325 326 327 328 329 330 331 332 333 334 335 336 337 338 339 340 341 342 343 344 345 346 347 348 349 350 0
c ind 351 352 353 354 355 356 357 358 359 360 361 362 363 364 365 366 367 368 369 370 371 372 373 374 375 376 377 378 379 380 381 382 383 384 385 386 387 388 389 390 391 392 393 394 395 396 397 398 399 400 0
c ind 401 402 403 404 405 406 407 408 409 410 411 412 413 414 415 416 417 418 419 420 421 422 423 424 425 426 427 428 429 430 431 432 433 434 435 436 437 438 439 440 441 442 443 444 445 446 447 448 449 450 0
c ind 451 452 453 454 455 456 457 458 459 460 461 462 463 464 465 466 467 468 469 470 471 472 473 474 475 476 477 478 479 480 481 482 483 484 485 486 487 488 489 490 491 492 493 494 495 496 497 498 499 500 0
c ind 501 502 503 504 505 506 507 508 509 510 511 512 513 514 515 516 517 518 519 520 521 522 523 524 525 526 527 528 529 530 531 532 533 534 535 536 537 538 539 540 541 542 543 544 545 546 547 548 549 550 0
c ind 551 552 553 554 555 556 557 558 559 560 561 562 563 564 565 566 567 568 569 570 571 572 573 574 575 576 1193 1194 1195 1196 1197 1198 1199 1200 1201 1202 1203 1204 1205 1206 1207 1208 1209 1210 1211 1212 1213 1214 1215 1216 0
c ind 1217 1218 1219 1220 1221 1222 1223 1224 1225 1226 1227 1228 1229 1230 1231 1232 1233 1234 1235 1236 1237 1238 1239 1240 1241 1242 1243 1244 1245 1246 1247 1248 1249 1250 1251 1252 1253 1254 1255 1256 1257 1258 1259 1260 1261 1262 1263 1264 1265 1266 0
c ind 1267 1268 1269 1270 1271 1272 1273 1274 1275 1276 1277 1278 1279 1280 1281 1282 1283 1284 1285 1286 1287 1288 1289 1290 1291 1292 1293 1294 1295 1296 1297 1298 1299 1300 1301 1302 1303 1304 1305 1306 1307 1308 1309 1310 1311 1312 1313 1314 1315 1316 0
c ind 1317 1318 1319 1320 1321 1322 1323 1324 1325 1326 1327 1328 1329 1330 1331 1332 1333 1334 1335 1336 1337 1338 1339 1340 1341 1342 1343 1344 1345 1346 1347 1348 1349 1350 1351 1352 1353 1354 1355 1356 1357 1358 1359 1360 1361 1362 1363 1364 1365 1366 0
c ind 1367 1368 1369 1370 1371 1372 1373 1374 1375 1376 1377 1378 1379 1380 1381 1382 1383 1384 1385 1386 1387 1388 1389 1390 1391 1392 1393 1394 1395 1396 0
1 2 3 4 5 6 0
7 8 9 10 11 12 0
13 14 15 16 17 18 0
19 20 21 22 23 24 0
25 26 27 28 29 30 0
31 32 33 34 35 36 0
-1 -1 -37 0
-7 -2 -38 0
-13 -3 -39 0
-19 -4 -40 0
-25 -5 -41 0
-31 -6 -42 0
-2 -7 -43 0
-8 -8 -44 0
-14 -9 -45 0
-20 -10 -46 0
-26 -11 -47 0
-32 -12 -48 0
-3 -13 -49 0
-9 -14 -50 0
-15 -15 -51 0
-21 -16 -52 0
-27 -17 -53 0
-33 -18 -54 0
-4 -19 -55 0
-10 -20 -56 0
-16 -21 -57 0
-22 -22 -58 0
-28 -23 -59 0
-34 -24 -60 0
-5 -25 -61 0
-11 -26 -62 0
-17 -27 -63 0
-23 -28 -64 0
-29 -29 -65 0
-35 -30 -66 0
-6 -31 -67 0
-12 -32 -68 0
-18 -33 -69 0
-24 -34 -70 0
-30 -35 -71 0
-36 -36 -72 0
37 1 0
38 7 0
39 13 0
40 19 0
41 25 0
42 31 0
43 2 0
44 8 0
45 14 0
46 20 0
47 26 0
48 32 0
49 3 0
50 9 0
51 15 0
52 21 0
53 27 0
54 33 0
55 4 0
56 10 0
57 16 0
58 22 0
59 28 0
60 34 0
61 5 0
62 11 0
63 17 0
64 23 0
65 29 0
66 35 0
67 6 0
68 12 0
69 18 0
70 24 0
71 30 0
72 36 0
37 1 0
38 2 0
39 3 0
40 4 0
41 5 0
42 6 0
43 7 0
44 8 0
45 9 0
46 10 0
47 11 0
48 12 0
49 13 0
50 14 0
51 15 0
52 16 0
53 17 0
54 18 0
55 19 0
56 20 0
57 21 0
58 22 0
59 23 0
60 24 0
61 25 0
62 26 0
63 27 0
64 28 0
65 29 0
66 30 0
67 31 0
68 32 0
69 33 0
70 34 0
71 35 0
72 36 0
73 74 -1 -75 0
76 77 -7 -78 0
79 80 -13 -81 0
82 83 -19 -84 0
85 86 -25 -87 0
88 89 -31 -90 0
91 92 -2 -93 0
94 95 -8 -96 0
97 98 -14 -99 0
100 101 -20 -102 0
103 104 -26 -105 0
106 107 -32 -108 0
109 110 -3 -111 0
112 113 -9 -114 0
115 116 -15 -117 0
118 119 -21 -120 0
121 122 -27 -123 0
124 125 -33 -126 0
127 128 -4 -129 0
130 131 -10 -132 0
133 134 -16 -135 0
136 137 -22 -138 0
139 140 -28 -141 0
142 143 -34 -144 0
145 146 -5 -147 0
148 149 -11 -150 0
151 152 -17 -153 0
154 155 -23 -156 0
157 158 -29 -159 0
160 161 -35 -162 0
163 164 -6 -165 0
166 167 -12 -168 0
169 170 -18 -171 0
172 173 -24 -174 0
175 176 -30 -177 0
178 179 -36 -180 0
75 -73 0
78 -76 0
81 -79 0
84 -82 0
87 -85 0
90 -88 0
93 -91 0
96 -94 0
99 -97 0
102 -100 0
105 -103 0
108 -106 0
111 -109 0
114 -112 0
117 -115 0
120 -118 0
123 -121 0
126 -124 0
129 -127 0
132 -130 0
135 -133 0
138 -136 0
141 -139 0
144 -142 0
147 -145 0
150 -148 0
153 -151 0
156 -154 0
159 -157 0
162 -160 0
165 -163 0
168 -166 0
171 -169 0
174 -172 0
177 -175 0
180 -178 0
75 -74 0
78 -77 0
81 -80 0
84 -83 0
87 -86 0
90 -89 0
93 -92 0
96 -95 0
99 -98 0
102 -101 0
105 -104 0
108 -107 0
111 -110 0
114 -113 0
117 -116 0
120 -119 0
123 -122 0
126 -125 0
129 -128 0
132 -131 0
135 -134 0
138 -137 0
141 -140 0
144 -143 0
147 -146 0
150 -149 0
153 -152 0
156 -155 0
159 -158 0
162 -161 0
165 -164 0
168 -167 0
171 -170 0
174 -173 0
177 -176 0
180 -179 0
75 1 0
78 7 0
81 13 0
84 19 0
87 25 0
90 31 0
93 2 0
96 8 0
99 14 0
102 20 0
105 26 0
108 32 0
111 3 0
114 9 0
117 15 0
120 21 0
123 27 0
126 33 0
129 4 0
132 10 0
135 16 0
138 22 0
141 28 0
144 34 0
147 5 0
150 11 0
153 17 0
156 23 0
159 29 0
162 35 0
165 6 0
168 12 0
171 18 0
174 24 0
177 30 0
180 36 0
1 1 -181 -182 0
7 2 -183 -184 0
13 3 -185 -186 0
19 4 -187 -188 0
25 5 -189 -190 0
31 6 -191 -192 0
2 7 -193 -194 0
8 8 -195 -196 0
14 9 -197 -198 0
20 10 -199 -200 0
26 11 -201 -202 0
32 12 -203 -204 0
3 13 -205 -206 0
9 14 -207 -208 0
15 15 -209 -210 0
21 16 -211 -212 0
27 17 -213 -214 0
33 18 -215 -216 0
4 19 -217 -218 0
10 20 -219 -220 0
16 21 -221 -222 0
22 22 -223 -224 0
28 23 -225 -226 0
34 24 -227 -228 0
5 25 -229 -230 0
11 26 -231 -232 0
17 27 -233 -234 0
23 28 -235 -236 0
29 29 -237 -238 0
35 30 -239 -240 0
6 31 -241 -242 0
12 32 -243 -244 0
18 33 -245 -246 0
24 34 -247 -248 0
30 35 -249 -250 0
36 36 -251 -252 0
182 -1 0
184 -7 0
186 -13 0
188 -19 0
190 -25 0
192 -31 0
194 -2 0
196 -8 0
198 -14 0
200 -20 0
202 -26 0
204 -32 0
206 -3 0
208 -9 0
210 -15 0
212 -21 0
214 -27 0
216 -33 0
218 -4 0
220 -10 0
222 -16 0
224 -22 0
226 -28 0
228 -34 0
230 -5 0
232 -11 0
234 -17 0
236 -23 0
238 -29 0
240 -35 0
242 -6 0
244 -12 0
246 -18 0
248 -24 0
250 -30 0
252 -36 0
182 -1 0
184 -2 0
186 -3 0
188 -4 0
190 -5 0
192 -6 0
194 -7 0
196 -8 0
198 -9 0
200 -10 0
202 -11 0
204 -12 0
206 -13 0
208 -14 0
210 -15 0
212 -16 0
214 -17 0
216 -18 0
218 -19 0
220 -20 0
222 -21 0
224 -22 0
226 -23 0
228 -24 0
230 -25 0
232 -26 0
234 -27 0
236 -28 0
238 -29 0
240 -30 0
242 -31 0
244 -32 0
246 -33 0
248 -34 0
250 -35 0
252 -36 0
182 181 0
184 183 0
186 185 0
188 187 0
190 189 0
192 191 0
194 193 0
196 195 0
198 197 0
200 199 0
202 201 0
204 203 0
206 205 0
208 207 0
210 209 0
212 211 0
214 213 0
216 215 0
218 217 0
220 219 0
222 221 0
224 223 0
226 225 0
228 227 0
230 229 0
232 231 0
234 233 0
236 235 0
238 237 0
240 239 0
242 241 0
244 243 0
246 245 0
248 247 0
250 249 0
252 251 0
-74 -1 253 0
-77 -7 254 0
-80 -13 255 0
-83 -19 256 0
-86 -25 257 0
-89 -31 258 0
-92 -2 259 0
-95 -8 260 0
-98 -14 261 0
-101 -20 262 0
-104 -26 263 0
-107 -32 264 0
-110 -3 265 0
-113 -9 266 0
-116 -15 267 0
-119 -21 268 0
-122 -27 269 0
-125 -33 270 0
-128 -4 271 0
-131 -10 272 0
-134 -16 273 0
-137 -22 274 0
-140 -28 275 0
-143 -34 276 0
-146 -5 277 0
-149 -11 278 0
-152 -17 279 0
-155 -23 280 0
-158 -29 281 0
-161 -35 282 0
-164 -6 283 0
-167 -12 284 0
-170 -18 285 0
-173 -24 286 0
-176 -30 287 0
-179 -36 288 0
-253 74 0
-254 77 0
-255 80 0
-256 83 0
-257 86 0
-258 89 0
-259 92 0
-260 95 0
-261 98 0
-262 101 0
-263 104 0
-264 107 0
-265 110 0
-266 113 0
-267 116 0
-268 119 0
-269 122 0
-270 125 0
-271 128 0
-272 131 0
-273 134 0
-274 137 0
-275 140 0
-276 143 0
-277 146 0
-278 149 0
-279 152 0
-280 155 0
-281 158 0
-282 161 0
-283 164 0
-284 167 0
-285 170 0
-286 173 0
-287 176 0
-288 179 0
-253 1 0
-254 7 0
-255 13 0
-256 19 0
-257 25 0
-258 31 0
-259 2 0
-260 8 0
-261 14 0
-262 20 0
-263 26 0
-264 32 0
-265 3 0
-266 9 0
-267 15 0
-268 21 0
-269 27 0
-270 33 0
-271 4 0
-272 10 0
-273 16 0
-274 22 0
-275 28 0
-276 34 0
-277 5 0
-278 11 0
-279 17 0
-280 23 0
-281 29 0
-282 35 0
-283 6 0
-284 12 0
-285 18 0
-286 24 0
-287 30 0
-288 36 0
-289 253 -290 0
-291 254 -292 0
-293 255 -294 0
-295 256 -296 0
-297 257 -298 0
-299 258 -300 0
-301 259 -302 0
-303 260 -304 0
-305 261 -306 0
-307 262 -308 0
-309 263 -310 0
-311 264 -312 0
-313 265 -314 0
-315 266 -316 0
-317 267 -318 0
-319 268 -320 0
-321 269 -322 0
-323 270 -324 0
-325 271 -326 0
-327 272 -328 0
-329 273 -330 0
-331 274 -332 0
-333 275 -334 0
-335 276 -336 0
-337 277 -338 0
-339 278 -340 0
-341 279 -342 0
-343 280 -344 0
-345 281 -346 0
-347 282 -348 0
-349 283 -350 0
-351 284 -352 0
-353 285 -354 0
-355 286 -356 0
-357 287 -358 0
-359 288 -360 0
290 289 0
292 291 0
294 293 0
296 295 0
298 297 0
300 299 0
302 301 0
304 303 0
306 305 0
308 307 0
310 309 0
312 311 0
314 313 0
316 315 0
318 317 0
320 319 0
322 321 0
324 323 0
326 325 0
328 327 0
330 329 0
332 331 0
334 333 0
336 335 0
338 337 0
340 339 0
342 341 0
344 343 0
346 345 0
348 347 0
350 349 0
352 351 0
354 353 0
356 355 0
358 357 0
360 359 0
290 -253 0
292 -254 0
294 -255 0
296 -256 0
298 -257 0
300 -258 0
302 -259 0
304 -260 0
306 -261 0
308 -262 0
310 -263 0
312 -264 0
314 -265 0
316 -266 0
318 -267 0
320 -268 0
322 -269 0
324 -270 0
326 -271 0
328 -272 0
330 -273 0
332 -274 0
334 -275 0
336 -276 0
338 -277 0
340 -278 0
342 -279 0
344 -280 0
346 -281 0
348 -282 0
350 -283 0
352 -284 0
354 -285 0
356 -286 0
358 -287 0
360 -288 0
289 -74 -1 -361 0
291 -77 -7 -362 0
293 -80 -13 -363 0
295 -83 -19 -364 0
297 -86 -25 -365 0
299 -89 -31 -366 0
301 -92 -2 -367 0
303 -95 -8 -368 0
305 -98 -14 -369 0
307 -101 -20 -370 0
309 -104 -26 -371 0
311 -107 -32 -372 0
313 -110 -3 -373 0
315 -113 -9 -374 0
317 -116 -15 -375 0
319 -119 -21 -376 0
321 -122 -27 -377 0
323 -125 -33 -378 0
325 -128 -4 -379 0
327 -131 -10 -380 0
329 -134 -16 -381 0
331 -137 -22 -382 0
333 -140 -28 -383 0
335 -143 -34 -384 0
337 -146 -5 -385 0
339 -149 -11 -386 0
341 -152 -17 -387 0
343 -155 -23 -388 0
345 -158 -29 -389 0
347 -161 -35 -390 0
349 -164 -6 -391 0
351 -167 -12 -392 0
353 -170 -18 -393 0
355 -173 -24 -394 0
357 -176 -30 -395 0
359 -179 -36 -396 0
361 -289 0
362 -291 0
363 -293 0
364 -295 0
365 -297 0
366 -299 0
367 -301 0
368 -303 0
369 -305 0
370 -307 0
371 -309 0
372 -311 0
373 -313 0
374 -315 0
375 -317 0
376 -319 0
377 -321 0
378 -323 0
379 -325 0
380 -327 0
381 -329 0
382 -331 0
383 -333 0
384 -335 0
385 -337 0
386 -339 0
387 -341 0
388 -343 0
389 -345 0
390 -347 0
391 -349 0
392 -351 0
393 -353 0
394 -355 0
395 -357 0
396 -359 0
361 74 0
362 77 0
363 80 0
364 83 0
365 86 0
366 89 0
367 92 0
368 95 0
369 98 0
370 101 0
371 104 0
372 107 0
373 110 0
374 113 0
375 116 0
376 119 0
377 122 0
378 125 0
379 128 0
380 131 0
381 134 0
382 137 0
383 140 0
384 143 0
385 146 0
386 149 0
387 152 0
388 155 0
389 158 0
390 161 0
391 164 0
392 167 0
393 170 0
394 173 0
395 176 0
396 179 0
361 1 0
362 7 0
363 13 0
364 19 0
365 25 0
366 31 0
367 2 0
368 8 0
369 14 0
370 20 0
371 26 0
372 32 0
373 3 0
374 9 0
375 15 0
376 21 0
377 27 0
378 33 0
379 4 0
380 10 0
381 16 0
382 22 0
383 28 0
384 34 0
385 5 0
386 11 0
387 17 0
388 23 0
389 29 0
390 35 0
391 6 0
392 12 0
393 18 0
394 24 0
395 30 0
396 36 0
1 1 397 0
7 2 398 0
13 3 399 0
19 4 400 0
25 5 401 0
31 6 402 0
2 7 403 0
8 8 404 0
14 9 405 0
20 10 406 0
26 11 407 0
32 12 408 0
3 13 409 0
9 14 410 0
15 15 411 0
21 16 412 0
27 17 413 0
33 18 414 0
4 19 415 0
10 20 416 0
16 21 417 0
22 22 418 0
28 23 419 0
34 24 420 0
5 25 421 0
11 26 422 0
17 27 423 0
23 28 424 0
29 29 425 0
35 30 426 0
6 31 427 0
12 32 428 0
18 33 429 0
24 34 430 0
30 35 431 0
36 36 432 0
-397 -1 0
-398 -7 0
-399 -13 0
-400 -19 0
-401 -25 0
-402 -31 0
-403 -2 0
-404 -8 0
-405 -14 0
-406 -20 0
-407 -26 0
-408 -32 0
-409 -3 0
-410 -9 0
-411 -15 0
-412 -21 0
-413 -27 0
-414 -33 0
-415 -4 0
-416 -10 0
-417 -16 0
-418 -22 0
-419 -28 0
-420 -34 0
-421 -5 0
-422 -11 0
-423 -17 0
-424 -23 0
-425 -29 0
-426 -35 0
-427 -6 0
-428 -12 0
-429 -18 0
-430 -24 0
-431 -30 0
-432 -36 0
-397 -1 0
-398 -2 0
-399 -3 0
-400 -4 0
-401 -5 0
-402 -6 0
-403 -7 0
-404 -8 0
-405 -9 0
-406 -10 0
-407 -11 0
-408 -12 0
-409 -13 0
-410 -14 0
-411 -15 0
-412 -16 0
-413 -17 0
-414 -18 0
-415 -19 0
-416 -20 0
-417 -21 0
-418 -22 0
-419 -23 0
-420 -24 0
-421 -25 0
-422 -26 0
-423 -27 0
-424 -28 0
-425 -29 0
-426 -30 0
-427 -31 0
-428 -32 0
-429 -33 0
-430 -34 0
-431 -35 0
-432 -36 0
181 397 -433 0
183 398 -434 0
185 399 -435 0
187 400 -436 0
189 401 -437 0
191 402 -438 0
193 403 -439 0
195 404 -440 0
197 405 -441 0
199 406 -442 0
201 407 -443 0
203 408 -444 0
205 409 -445 0
207 410 -446 0
209 411 -447 0
211 412 -448 0
213 413 -449 0
215 414 -450 0
217 415 -451 0
219 416 -452 0
221 417 -453 0
223 418 -454 0
225 419 -455 0
227 420 -456 0
229 421 -457 0
231 422 -458 0
233 423 -459 0
235 424 -460 0
237 425 -461 0
239 426 -462 0
241 427 -463 0
243 428 -464 0
245 429 -465 0
247 430 -466 0
249 431 -467 0
251 432 -468 0
433 -181 0
434 -183 0
435 -185 0
436 -187 0
437 -189 0
438 -191 0
439 -193 0
440 -195 0
441 -197 0
442 -199 0
443 -201 0
444 -203 0
445 -205 0
446 -207 0
447 -209 0
448 -211 0
449 -213 0
450 -215 0
451 -217 0
452 -219 0
453 -221 0
454 -223 0
455 -225 0
456 -227 0
457 -229 0
458 -231 0
459 -233 0
460 -235 0
461 -237 0
462 -239 0
463 -241 0
464 -243 0
465 -245 0
466 -247 0
467 -249 0
468 -251 0
433 -397 0
434 -398 0
435 -399 0
436 -400 0
437 -401 0
438 -402 0
439 -403 0
440 -404 0
441 -405 0
442 -406 0
443 -407 0
444 -408 0
445 -409 0
446 -410 0
447 -411 0
448 -412 0
449 -413 0
450 -414 0
451 -415 0
452 -416 0
453 -417 0
454 -418 0
455 -419 0
456 -420 0
457 -421 0
458 -422 0
459 -423 0
460 -424 0
461 -425 0
462 -426 0
463 -427 0
464 -428 0
465 -429 0
466 -430 0
467 -431 0
468 -432 0
-1 74 469 0
-7 77 470 0
-13 80 471 0
-19 83 472 0
-25 86 473 0
-31 89 474 0
-2 92 475 0
-8 95 476 0
-14 98 477 0
-20 101 478 0
-26 104 479 0
-32 107 480 0
-3 110 481 0
-9 113 482 0
-15 116 483 0
-21 119 484 0
-27 122 485 0
-33 125 486 0
-4 128 487 0
-10 131 488 0
-16 134 489 0
-22 137 490 0
-28 140 491 0
-34 143 492 0
-5 146 493 0
-11 149 494 0
-17 152 495 0
-23 155 496 0
-29 158 497 0
-35 161 498 0
-6 164 499 0
-12 167 500 0
-18 170 501 0
-24 173 502 0
-30 176 503 0
-36 179 504 0
-469 1 0
-470 7 0
-471 13 0
-472 19 0
-473 25 0
-474 31 0
-475 2 0
-476 8 0
-477 14 0
-478 20 0
-479 26 0
-480 32 0
-481 3 0
-482 9 0
-483 15 0
-484 21 0
-485 27 0
-486 33 0
-487 4 0
-488 10 0
-489 16 0
-490 22 0
-491 28 0
-492 34 0
-493 5 0
-494 11 0
-495 17 0
-496 23 0
-497 29 0
-498 35 0
-499 6 0
-500 12 0
-501 18 0
-502 24 0
-503 30 0
-504 36 0
-469 -74 0
-470 -77 0
-471 -80 0
-472 -83 0
-473 -86 0
-474 -89 0
-475 -92 0
-476 -95 0
-477 -98 0
-478 -101 0
-479 -104 0
-480 -107 0
-481 -110 0
-482 -113 0
-483 -116 0
-484 -119 0
-485 -122 0
-486 -125 0
-487 -128 0
-488 -131 0
-489 -134 0
-490 -137 0
-491 -140 0
-492 -143 0
-493 -146 0
-494 -149 0
-495 -152 0
-496 -155 0
-497 -158 0
-498 -161 0
-499 -164 0
-500 -167 0
-501 -170 0
-502 -173 0
-503 -176 0
-504 -179 0
-73 469 -505 0
-76 470 -506 0
-79 471 -507 0
-82 472 -508 0
-85 473 -509 0
-88 474 -510 0
-91 475 -511 0
-94 476 -512 0
-97 477 -513 0
-100 478 -514 0
-103 479 -515 0
-106 480 -516 0
-109 481 -517 0
-112 482 -518 0
-115 483 -519 0
-118 484 -520 0
-121 485 -521 0
-124 486 -522 0
-127 487 -523 0
-130 488 -524 0
-133 489 -525 0
-136 490 -526 0
-139 491 -527 0
-142 492 -528 0
-145 493 -529 0
-148 494 -530 0
-151 495 -531 0
-154 496 -532 0
-157 497 -533 0
-160 498 -534 0
-163 499 -535 0
-166 500 -536 0
-169 501 -537 0
-172 502 -538 0
-175 503 -539 0
-178 504 -540 0
505 73 0
506 76 0
507 79 0
508 82 0
509 85 0
510 88 0
511 91 0
512 94 0
513 97 0
514 100 0
515 103 0
516 106 0
517 109 0
518 112 0
519 115 0
520 118 0
521 121 0
522 124 0
523 127 0
524 130 0
525 133 0
526 136 0
527 139 0
528 142 0
529 145 0
530 148 0
531 151 0
532 154 0
533 157 0
534 160 0
535 163 0
536 166 0
537 169 0
538 172 0
539 175 0
540 178 0
505 -469 0
506 -470 0
507 -471 0
508 -472 0
509 -473 0
510 -474 0
511 -475 0
512 -476 0
513 -477 0
514 -478 0
515 -479 0
516 -480 0
517 -481 0
518 -482 0
519 -483 0
520 -484 0
521 -485 0
522 -486 0
523 -487 0
524 -488 0
525 -489 0
526 -490 0
527 -491 0
528 -492 0
529 -493 0
530 -494 0
531 -495 0
532 -496 0
533 -497 0
534 -498 0
535 -499 0
536 -500 0
537 -501 0
538 -502 0
539 -503 0
540 -504 0
1 -37 -75 -182 -290 -361 -433 -505 541 0
8 -38 -78 -184 -292 -362 -434 -506 542 0
15 -39 -81 -186 -294 -363 -435 -507 543 0
22 -40 -84 -188 -296 -364 -436 -508 544 0
29 -41 -87 -190 -298 -365 -437 -509 545 0
36 -42 -90 -192 -300 -366 -438 -510 546 0
1 -43 -93 -194 -302 -367 -439 -511 547 0
8 -44 -96 -196 -304 -368 -440 -512 548 0
15 -45 -99 -198 -306 -369 -441 -513 549 0
22 -46 -102 -200 -308 -370 -442 -514 550 0
29 -47 -105 -202 -310 -371 -443 -515 551 0
36 -48 -108 -204 -312 -372 -444 -516 552 0
1 -49 -111 -206 -314 -373 -445 -517 553 0
8 -50 -114 -208 -316 -374 -446 -518 554 0
15 -51 -117 -210 -318 -375 -447 -519 555 0
22 -52 -120 -212 -320 -376 -448 -520 556 0
29 -53 -123 -214 -322 -377 -449 -521 557 0
36 -54 -126 -216 -324 -378 -450 -522 558 0
1 -55 -129 -218 -326 -379 -451 -523 559 0
8 -56 -132 -220 -328 -380 -452 -524 560 0
15 -57 -135 -222 -330 -381 -453 -525 561 0
22 -58 -138 -224 -332 -382 -454 -526 562 0
29 -59 -141 -226 -334 -383 -455 -527 563 0
36 -60 -144 -228 -336 -384 -456 -528 564 0
1 -61 -147 -230 -338 -385 -457 -529 565 0
8 -62 -150 -232 -340 -386 -458 -530 566 0
15 -63 -153 -234 -342 -387 -459 -531 567 0
22 -64 -156 -236 -344 -388 -460 -532 568 0
29 -65 -159 -238 -346 -389 -461 -533 569 0
36 -66 -162 -240 -348 -390 -462 -534 570 0
1 -67 -165 -242 -350 -391 -463 -535 571 0
8 -68 -168 -244 -352 -392 -464 -536 572 0
15 -69 -171 -246 -354 -393 -465 -537 573 0
22 -70 -174 -248 -356 -394 -466 -538 574 0
29 -71 -177 -250 -358 -395 -467 -539 575 0
36 -72 -180 -252 -360 -396 -468 -540 576 0
-541 -1 0
-542 -8 0
-543 -15 0
-544 -22 0
-545 -29 0
-546 -36 0
-547 -1 0
-548 -8 0
-549 -15 0
-550 -22 0
-551 -29 0
-552 -36 0
-553 -1 0
-554 -8 0
-555 -15 0
-556 -22 0
-557 -29 0
-558 -36 0
-559 -1 0
-560 -8 0
-561 -15 0
-562 -22 0
-563 -29 0
-564 -36 0
-565 -1 0
-566 -8 0
-567 -15 0
-568 -22 0
-569 -29 0
-570 -36 0
-571 -1 0
-572 -8 0
-573 -15 0
-574 -22 0
-575 -29 0
-576 -36 0
-541 37 0
-542 38 0
-543 39 0
-544 40 0
-545 41 0
-546 42 0
-547 43 0
-548 44 0
-549 45 0
-550 46 0
-551 47 0
-552 48 0
-553 49 0
-554 50 0
-555 51 0
-556 52 0
-557 53 0
-558 54 0
-559 55 0
-560 56 0
-561 57 0
-562 58 0
-563 59 0
-564 60 0
-565 61 0
-566 62 0
-567 63 0
-568 64 0
-569 65 0
-570 66 0
-571 67 0
-572 68 0
-573 69 0
-574 70 0
-575 71 0
-576 72 0
-541 75 0
-542 78 0
-543 81 0
-544 84 0
-545 87 0
-546 90 0
-547 93 0
-548 96 0
-549 99 0
-550 102 0
-551 105 0
-552 108 0
-553 111 0
-554 114 0
-555 117 0
-556 120 0
-557 123 0
-558 126 0
-559 129 0
-560 132 0
-561 135 0
-562 138 0
-563 141 0
-564 144 0
-565 147 0
-566 150 0
-567 153 0
-568 156 0
-569 159 0
-570 162 0
-571 165 0
-572 168 0
-573 171 0
-574 174 0
-575 177 0
-576 180 0
-541 182 0
-542 184 0
-543 186 0
-544 188 0
-545 190 0
-546 192 0
-547 194 0
-548 196 0
-549 198 0
-550 200 0
-551 202 0
-552 204 0
-553 206 0
-554 208 0
-555 210 0
-556 212 0
-557 214 0
-558 216 0
-559 218 0
-560 220 0
-561 222 0
-562 224 0
-563 226 0
-564 228 0
-565 230 0
-566 232 0
-567 234 0
-568 236 0
-569 238 0
-570 240 0
-571 242 0
-572 244 0
-573 246 0
-574 248 0
-575 250 0
-576 252 0
-541 290 0
-542 292 0
-543 294 0
-544 296 0
-545 298 0
-546 300 0
-547 302 0
-548 304 0
-549 306 0
-550 308 0
-551 310 0
-552 312 0
-553 314 0
-554 316 0
-555 318 0
-556 320 0
-557 322 0
-558 324 0
-559 326 0
-560 328 0
-561 330 0
-562 332 0
-563 334 0
-564 336 0
-565 338 0
-566 340 0
-567 342 0
-568 344 0
-569 346 0
-570 348 0
-571 350 0
-572 352 0
-573 354 0
-574 356 0
-575 358 0
-576 360 0
-541 361 0
-542 362 0
-543 363 0
-544 364 0
-545 365 0
-546 366 0
-547 367 0
-548 368 0
-549 369 0
-550 370 0
-551 371 0
-552 372 0
-553 373 0
-554 374 0
-555 375 0
-556 376 0
-557 377 0
-558 378 0
-559 379 0
-560 380 0
-561 381 0
-562 382 0
-563 383 0
-564 384 0
-565 385 0
-566 386 0
-567 387 0
-568 388 0
-569 389 0
-570 390 0
-571 391 0
-572 392 0
-573 393 0
-574 394 0
-575 395 0
-576 396 0
-541 433 0
-542 434 0
-543 435 0
-544 436 0
-545 437 0
-546 438 0
-547 439 0
-548 440 0
-549 441 0
-550 442 0
-551 443 0
-552 444 0
-553 445 0
-554 446 0
-555 447 0
-556 448 0
-557 449 0
-558 450 0
-559 451 0
-560 452 0
-561 453 0
-562 454 0
-563 455 0
-564 456 0
-565 457 0
-566 458 0
-567 459 0
-568 460 0
-569 461 0
-570 462 0
-571 463 0
-572 464 0
-573 465 0
-574 466 0
-575 467 0
-576 468 0
-541 505 0
-542 506 0
-543 507 0
-544 508 0
-545 509 0
-546 510 0
-547 511 0
-548 512 0
-549 513 0
-550 514 0
-551 515 0
-552 516 0
-553 517 0
-554 518 0
-555 519 0
-556 520 0
-557 521 0
-558 522 0
-559 523 0
-560 524 0
-561 525 0
-562 526 0
-563 527 0
-564 528 0
-565 529 0
-566 530 0
-567 531 0
-568 532 0
-569 533 0
-570 534 0
-571 535 0
-572 536 0
-573 537 0
-574 538 0
-575 539 0
-576 540 0
541 0
542 0
543 0
544 0
545 0
546 0
547 0
548 0
549 0
550 0
551 0
552 0
553 0
554 0
555 0
556 0
557 0
558 0
559 0
560 0
561 0
562 0
563 0
564 0
565 0
566 0
567 0
568 0
569 0
570 0
571 0
572 0
573 0
574 0
575 0
576 0
1 577 0
-577 578 0
2 -577 579 0
-579 580 0
3 -579 581 0
-581 582 0
4 -581 583 0
-583 584 0
5 -583 585 0
-585 586 0
6 -585 587 0
-587 588 0
7 -587 589 0
-589 590 0
8 -589 591 0
-591 592 0
9 -591 593 0
-593 594 0
10 -593 595 0
-595 596 0
11 -595 597 0
-597 598 0
12 -597 599 0
-599 600 0
13 -599 601 0
-601 602 0
14 -601 603 0
-603 604 0
15 -603 0
2 578 0
-578 605 0
3 -578 580 0
-580 606 0
4 -580 582 0
-582 607 0
5 -582 584 0
-584 608 0
6 -584 586 0
-586 609 0
7 -586 588 0
-588 610 0
8 -588 590 0
-590 611 0
9 -590 592 0
-592 612 0
10 -592 594 0
-594 613 0
11 -594 596 0
-596 614 0
12 -596 598 0
-598 615 0
13 -598 600 0
-600 616 0
14 -600 602 0
-602 617 0
15 -602 604 0
-604 618 0
16 -604 0
3 605 0
-605 619 0
4 -605 606 0
-606 620 0
5 -606 607 0
-607 621 0
6 -607 608 0
-608 622 0
7 -608 609 0
-609 623 0
8 -609 610 0
-610 624 0
9 -610 611 0
-611 625 0
10 -611 612 0
-612 626 0
11 -612 613 0
-613 627 0
12 -613 614 0
-614 628 0
13 -614 615 0
-615 629 0
14 -615 616 0
-616 630 0
15 -616 617 0
-617 631 0
16 -617 618 0
-618 632 0
17 -618 0
4 619 0
-619 633 0
5 -619 620 0
-620 634 0
6 -620 621 0
-621 635 0
7 -621 622 0
-622 636 0
8 -622 623 0
-623 637 0
9 -623 624 0
-624 638 0
10 -624 625 0
-625 639 0
11 -625 626 0
-626 640 0
12 -626 627 0
-627 641 0
13 -627 628 0
-628 642 0
14 -628 629 0
-629 643 0
15 -629 630 0
-630 644 0
16 -630 631 0
-631 645 0
17 -631 632 0
-632 646 0
18 -632 0
5 633 0
-633 647 0
6 -633 634 0
-634 648 0
7 -634 635 0
-635 649 0
8 -635 636 0
-636 650 0
9 -636 637 0
-637 651 0
10 -637 638 0
-638 652 0
11 -638 639 0
-639 653 0
12 -639 640 0
-640 654 0
13 -640 641 0
-641 655 0
14 -641 642 0
-642 656 0
15 -642 643 0
-643 657 0
16 -643 644 0
-644 658 0
17 -644 645 0
-645 659 0
18 -645 646 0
-646 660 0
19 -646 0
6 647 0
-647 661 0
7 -647 648 0
-648 662 0
8 -648 649 0
-649 663 0
9 -649 650 0
-650 664 0
10 -650 651 0
-651 665 0
11 -651 652 0
-652 666 0
12 -652 653 0
-653 667 0
13 -653 654 0
-654 668 0
14 -654 655 0
-655 669 0
15 -655 656 0
-656 670 0
16 -656 657 0
-657 671 0
17 -657 658 0
-658 672 0
18 -658 659 0
-659 673 0
19 -659 660 0
-660 674 0
20 -660 0
7 661 0
-661 675 0
8 -661 662 0
-662 676 0
9 -662 663 0
-663 677 0
10 -663 664 0
-664 678 0
11 -664 665 0
-665 679 0
12 -665 666 0
-666 680 0
13 -666 667 0
-667 681 0
14 -667 668 0
-668 682 0
15 -668 669 0
-669 683 0
16 -669 670 0
-670 684 0
17 -670 671 0
-671 685 0
18 -671 672 0
-672 686 0
19 -672 673 0
-673 687 0
20 -673 674 0
-674 688 0
21 -674 0
8 675 0
-675 689 0
9 -675 676 0
-676 690 0
10 -676 677 0
-677 691 0
11 -677 678 0
-678 692 0
12 -678 679 0
-679 693 0
13 -679 680 0
-680 694 0
14 -680 681 0
-681 695 0
15 -681 682 0
-682 696 0
16 -682 683 0
-683 697 0
17 -683 684 0
-684 698 0
18 -684 685 0
-685 699 0
19 -685 686 0
-686 700 0
20 -686 687 0
-687 701 0
21 -687 688 0
-688 702 0
22 -688 0
9 689 0
-689 703 0
10 -689 690 0
-690 704 0
11 -690 691 0
-691 705 0
12 -691 692 0
-692 706 0
13 -692 693 0
-693 707 0
14 -693 694 0
-694 708 0
15 -694 695 0
-695 709 0
16 -695 696 0
-696 710 0
17 -696 697 0
-697 711 0
18 -697 698 0
-698 712 0
19 -698 699 0
-699 713 0
20 -699 700 0
-700 714 0
21 -700 701 0
-701 715 0
22 -701 702 0
-702 716 0
23 -702 0
10 703 0
-703 717 0
11 -703 704 0
-704 718 0
12 -704 705 0
-705 719 0
13 -705 706 0
-706 720 0
14 -706 707 0
-707 721 0
15 -707 708 0
-708 722 0
16 -708 709 0
-709 723 0
17 -709 710 0
-710 724 0
18 -710 711 0
-711 725 0
19 -711 712 0
-712 726 0
20 -712 713 0
-713 727 0
21 -713 714 0
-714 728 0
22 -714 715 0
-715 729 0
23 -715 716 0
-716 730 0
24 -716 0
11 717 0
-717 731 0
12 -717 718 0
-718 732 0
13 -718 719 0
-719 733 0
14 -719 720 0
-720 734 0
15 -720 721 0
-721 735 0
16 -721 722 0
-722 736 0
17 -722 723 0
-723 737 0
18 -723 724 0
-724 738 0
19 -724 725 0
-725 739 0
20 -725 726 0
-726 740 0
21 -726 727 0
-727 741 0
22 -727 728 0
-728 742 0
23 -728 729 0
-729 743 0
24 -729 730 0
-730 744 0
25 -730 0
12 731 0
-731 745 0
13 -731 732 0
-732 746 0
14 -732 733 0
-733 747 0
15 -733 734 0
-734 748 0
16 -734 735 0
-735 749 0
17 -735 736 0
-736 750 0
18 -736 737 0
-737 751 0
19 -737 738 0
-738 752 0
20 -738 739 0
-739 753 0
21 -739 740 0
-740 754 0
22 -740 741 0
-741 755 0
23 -741 742 0
-742 756 0
24 -742 743 0
-743 757 0
25 -743 744 0
-744 758 0
26 -744 0
13 745 0
-745 759 0
14 -745 746 0
-746 760 0
15 -746 747 0
-747 761 0
16 -747 748 0
-748 762 0
17 -748 749 0
-749 763 0
18 -749 750 0
-750 764 0
19 -750 751 0
-751 765 0
20 -751 752 0
-752 766 0
21 -752 753 0
-753 767 0
22 -753 754 0
-754 768 0
23 -754 755 0
-755 769 0
24 -755 756 0
-756 770 0
25 -756 757 0
-757 771 0
26 -757 758 0
-758 772 0
27 -758 0
14 759 0
-759 773 0
15 -759 760 0
-760 774 0
16 -760 761 0
-761 775 0
17 -761 762 0
-762 776 0
18 -762 763 0
-763 777 0
19 -763 764 0
-764 778 0
20 -764 765 0
-765 779 0
21 -765 766 0
-766 780 0
22 -766 767 0
-767 781 0
23 -767 768 0
-768 782 0
24 -768 769 0
-769 783 0
25 -769 770 0
-770 784 0
26 -770 771 0
-771 785 0
27 -771 772 0
-772 786 0
28 -772 0
15 773 0
-773 787 0
16 -773 774 0
-774 788 0
17 -774 775 0
-775 789 0
18 -775 776 0
-776 790 0
19 -776 777 0
-777 791 0
20 -777 778 0
-778 792 0
21 -778 779 0
-779 793 0
22 -779 780 0
-780 794 0
23 -780 781 0
-781 795 0
24 -781 782 0
-782 796 0
25 -782 783 0
-783 797 0
26 -783 784 0
-784 798 0
27 -784 785 0
-785 799 0
28 -785 786 0
-786 800 0
29 -786 0
16 787 0
-787 801 0
17 -787 788 0
-788 802 0
18 -788 789 0
-789 803 0
19 -789 790 0
-790 804 0
20 -790 791 0
-791 805 0
21 -791 792 0
-792 806 0
22 -792 793 0
-793 807 0
23 -793 794 0
-794 808 0
24 -794 795 0
-795 809 0
25 -795 796 0
-796 810 0
26 -796 797 0
-797 811 0
27 -797 798 0
-798 812 0
28 -798 799 0
-799 813 0
29 -799 800 0
-800 814 0
30 -800 0
17 801 0
-801 815 0
18 -801 802 0
-802 816 0
19 -802 803 0
-803 817 0
20 -803 804 0
-804 818 0
21 -804 805 0
-805 819 0
22 -805 806 0
-806 820 0
23 -806 807 0
-807 821 0
24 -807 808 0
-808 822 0
25 -808 809 0
-809 823 0
26 -809 810 0
-810 824 0
27 -810 811 0
-811 825 0
28 -811 812 0
-812 826 0
29 -812 813 0
-813 827 0
30 -813 814 0
-814 828 0
31 -814 0
18 815 0
-815 829 0
19 -815 816 0
-816 830 0
20 -816 817 0
-817 831 0
21 -817 818 0
-818 832 0
22 -818 819 0
-819 833 0
23 -819 820 0
-820 834 0
24 -820 821 0
-821 835 0
25 -821 822 0
-822 836 0
26 -822 823 0
-823 837 0
27 -823 824 0
-824 838 0
28 -824 825 0
-825 839 0
29 -825 826 0
-826 840 0
30 -826 827 0
-827 841 0
31 -827 828 0
-828 842 0
32 -828 0
19 829 0
-829 843 0
20 -829 830 0
-830 844 0
21 -830 831 0
-831 845 0
22 -831 832 0
-832 846 0
23 -832 833 0
-833 847 0
24 -833 834 0
-834 848 0
25 -834 835 0
-835 849 0
26 -835 836 0
-836 850 0
27 -836 837 0
-837 851 0
28 -837 838 0
-838 852 0
29 -838 839 0
-839 853 0
30 -839 840 0
-840 854 0
31 -840 841 0
-841 855 0
32 -841 842 0
-842 856 0
33 -842 0
20 843 0
-843 857 0
21 -843 844 0
-844 858 0
22 -844 845 0
-845 859 0
23 -845 846 0
-846 860 0
24 -846 847 0
-847 861 0
25 -847 848 0
-848 862 0
26 -848 849 0
-849 863 0
27 -849 850 0
-850 864 0
28 -850 851 0
-851 865 0
29 -851 852 0
-852 866 0
30 -852 853 0
-853 867 0
31 -853 854 0
-854 868 0
32 -854 855 0
-855 869 0
33 -855 856 0
-856 870 0
34 -856 0
21 857 0
-857 871 0
22 -857 858 0
-858 872 0
23 -858 859 0
-859 873 0
24 -859 860 0
-860 874 0
25 -860 861 0
-861 875 0
26 -861 862 0
-862 876 0
27 -862 863 0
-863 877 0
28 -863 864 0
-864 878 0
29 -864 865 0
-865 879 0
30 -865 866 0
-866 880 0
31 -866 867 0
-867 881 0
32 -867 868 0
-868 882 0
33 -868 869 0
-869 883 0
34 -869 870 0
-870 884 0
35 -870 0
22 871 0
23 -871 872 0
24 -872 873 0
25 -873 874 0
26 -874 875 0
27 -875 876 0
28 -876 877 0
29 -877 878 0
30 -878 879 0
31 -879 880 0
32 -880 881 0
33 -881 882 0
34 -882 883 0
35 -883 884 0
36 -884 0
-1 885 0
-885 886 0
-2 -885 887 0
-887 888 0
-3 -887 889 0
-889 890 0
-4 -889 891 0
-891 892 0
-5 -891 893 0
-893 894 0
-6 -893 895 0
-895 896 0
-7 -895 897 0
-897 898 0
-8 -897 899 0
-899 900 0
-9 -899 901 0
-901 902 0
-10 -901 903 0
-903 904 0
-11 -903 905 0
-905 906 0
-12 -905 907 0
-907 908 0
-13 -907 909 0
-909 910 0
-14 -909 911 0
-911 912 0
-15 -911 913 0
-913 914 0
-16 -913 915 0
-915 916 0
-17 -915 917 0
-917 918 0
-18 -917 919 0
-919 920 0
-19 -919 921 0
-921 922 0
-20 -921 923 0
-923 924 0
-21 -923 925 0
-925 926 0
-22 -925 927 0
-927 928 0
-23 -927 0
-2 886 0
-886 929 0
-3 -886 888 0
-888 930 0
-4 -888 890 0
-890 931 0
-5 -890 892 0
-892 932 0
-6 -892 894 0
-894 933 0
-7 -894 896 0
-896 934 0
-8 -896 898 0
-898 935 0
-9 -898 900 0
-900 936 0
-10 -900 902 0
-902 937 0
-11 -902 904 0
-904 938 0
-12 -904 906 0
-906 939 0
-13 -906 908 0
-908 940 0
-14 -908 910 0
-910 941 0
-15 -910 912 0
-912 942 0
-16 -912 914 0
-914 943 0
-17 -914 916 0
-916 944 0
-18 -916 918 0
-918 945 0
-19 -918 920 0
-920 946 0
-20 -920 922 0
-922 947 0
-21 -922 924 0
-924 948 0
-22 -924 926 0
-926 949 0
-23 -926 928 0
-928 950 0
-24 -928 0
-3 929 0
-929 951 0
-4 -929 930 0
-930 952 0
-5 -930 931 0
-931 953 0
-6 -931 932 0
-932 954 0
-7 -932 933 0
-933 955 0
-8 -933 934 0
-934 956 0
-9 -934 935 0
-935 957 0
-10 -935 936 0
-936 958 0
-11 -936 937 0
-937 959 0
-12 -937 938 0
-938 960 0
-13 -938 939 0
-939 961 0
-14 -939 940 0
-940 962 0
-15 -940 941 0
-941 963 0
-16 -941 942 0
-942 964 0
-17 -942 943 0
-943 965 0
-18 -943 944 0
-944 966 0
-19 -944 945 0
-945 967 0
-20 -945 946 0
-946 968 0
-21 -946 947 0
-947 969 0
-22 -947 948 0
-948 970 0
-23 -948 949 0
-949 971 0
-24 -949 950 0
-950 972 0
-25 -950 0
-4 951 0
-951 973 0
-5 -951 952 0
-952 974 0
-6 -952 953 0
-953 975 0
-7 -953 954 0
-954 976 0
-8 -954 955 0
-955 977 0
-9 -955 956 0
-956 978 0
-10 -956 957 0
-957 979 0
-11 -957 958 0
-958 980 0
-12 -958 959 0
-959 981 0
-13 -959 960 0
-960 982 0
-14 -960 961 0
-961 983 0
-15 -961 962 0
-962 984 0
-16 -962 963 0
-963 985 0
-17 -963 964 0
-964 986 0
-18 -964 965 0
-965 987 0
-19 -965 966 0
-966 988 0
-20 -966 967 0
-967 989 0
-21 -967 968 0
-968 990 0
-22 -968 969 0
-969 991 0
-23 -969 970 0
-970 992 0
-24 -970 971 0
-971 993 0
-25 -971 972 0
-972 994 0
-26 -972 0
-5 973 0
-973 995 0
-6 -973 974 0
-974 996 0
-7 -974 975 0
-975 997 0
-8 -975 976 0
-976 998 0
-9 -976 977 0
-977 999 0
-10 -977 978 0
-978 1000 0
-11 -978 979 0
-979 1001 0
-12 -979 980 0
-980 1002 0
-13 -980 981 0
-981 1003 0
-14 -981 982 0
-982 1004 0
-15 -982 983 0
-983 1005 0
-16 -983 984 0
-984 1006 0
-17 -984 985 0
-985 1007 0
-18 -985 986 0
-986 1008 0
-19 -986 987 0
-987 1009 0
-20 -987 988 0
-988 1010 0
-21 -988 989 0
-989 1011 0
-22 -989 990 0
-990 1012 0
-23 -990 991 0
-991 1013 0
-24 -991 992 0
-992 1014 0
-25 -992 993 0
-993 1015 0
-26 -993 994 0
-994 1016 0
-27 -994 0
-6 995 0
-995 1017 0
-7 -995 996 0
-996 1018 0
-8 -996 997 0
-997 1019 0
-9 -997 998 0
-998 1020 0
-10 -998 999 0
-999 1021 0
-11 -999 1000 0
-1000 1022 0
-12 -1000 1001 0
-1001 1023 0
-13 -1001 1002 0
-1002 1024 0
-14 -1002 1003 0
-1003 1025 0
-15 -1003 1004 0
-1004 1026 0
-16 -1004 1005 0
-1005 1027 0
-17 -1005 1006 0
-1006 1028 0
-18 -1006 1007 0
-1007 1029 0
-19 -1007 1008 0
-1008 1030 0
-20 -1008 1009 0
-1009 1031 0
-21 -1009 1010 0
-1010 1032 0
-22 -1010 1011 0
-1011 1033 0
-23 -1011 1012 0
-1012 1034 0
-24 -1012 1013 0
-1013 1035 0
-25 -1013 1014 0
-1014 1036 0
-26 -1014 1015 0
-1015 1037 0
-27 -1015 1016 0
-1016 1038 0
-28 -1016 0
-7 1017 0
-1017 1039 0
-8 -1017 1018 0
-1018 1040 0
-9 -1018 1019 0
-1019 1041 0
-10 -1019 1020 0
-1020 1042 0
-11 -1020 1021 0
-1021 1043 0
-12 -1021 1022 0
-1022 1044 0
-13 -1022 1023 0
-1023 1045 0
-14 -1023 1024 0
-1024 1046 0
-15 -1024 1025 0
-1025 1047 0
-16 -1025 1026 0
-1026 1048 0
-17 -1026 1027 0
-1027 1049 0
-18 -1027 1028 0
-1028 1050 0
-19 -1028 1029 0
-1029 1051 0
-20 -1029 1030 0
-1030 1052 0
-21 -1030 1031 0
-1031 1053 0
-22 -1031 1032 0
-1032 1054 0
-23 -1032 1033 0
-1033 1055 0
-24 -1033 1034 0
-1034 1056 0
-25 -1034 1035 0
-1035 1057 0
-26 -1035 1036 0
-1036 1058 0
-27 -1036 1037 0
-1037 1059 0
-28 -1037 1038 0
-1038 1060 0
-29 -1038 0
-8 1039 0
-1039 1061 0
-9 -1039 1040 0
-1040 1062 0
-10 -1040 1041 0
-1041 1063 0
-11 -1041 1042 0
-1042 1064 0
-12 -1042 1043 0
-1043 1065 0
-13 -1043 1044 0
-1044 1066 0
-14 -1044 1045 0
-1045 1067 0
-15 -1045 1046 0
-1046 1068 0
-16 -1046 1047 0
-1047 1069 0
-17 -1047 1048 0
-1048 1070 0
-18 -1048 1049 0
-1049 1071 0
-19 -1049 1050 0
-1050 1072 0
-20 -1050 1051 0
-1051 1073 0
-21 -1051 1052 0
-1052 1074 0
-22 -1052 1053 0
-1053 1075 0
-23 -1053 1054 0
-1054 1076 0
-24 -1054 1055 0
-1055 1077 0
-25 -1055 1056 0
-1056 1078 0
-26 -1056 1057 0
-1057 1079 0
-27 -1057 1058 0
-1058 1080 0
-28 -1058 1059 0
-1059 1081 0
-29 -1059 1060 0
-1060 1082 0
-30 -1060 0
-9 1061 0
-1061 1083 0
-10 -1061 1062 0
-1062 1084 0
-11 -1062 1063 0
-1063 1085 0
-12 -1063 1064 0
-1064 1086 0
-13 -1064 1065 0
-1065 1087 0
-14 -1065 1066 0
-1066 1088 0
-15 -1066 1067 0
-1067 1089 0
-16 -1067 1068 0
-1068 1090 0
-17 -1068 1069 0
-1069 1091 0
-18 -1069 1070 0
-1070 1092 0
-19 -1070 1071 0
-1071 1093 0
-20 -1071 1072 0
-1072 1094 0
-21 -1072 1073 0
-1073 1095 0
-22 -1073 1074 0
-1074 1096 0
-23 -1074 1075 0
-1075 1097 0
-24 -1075 1076 0
-1076 1098 0
-25 -1076 1077 0
-1077 1099 0
-26 -1077 1078 0
-1078 1100 0
-27 -1078 1079 0
-1079 1101 0
-28 -1079 1080 0
-1080 1102 0
-29 -1080 1081 0
-1081 1103 0
-30 -1081 1082 0
-1082 1104 0
-31 -1082 0
-10 1083 0
-1083 1105 0
-11 -1083 1084 0
-1084 1106 0
-12 -1084 1085 0
-1085 1107 0
-13 -1085 1086 0
-1086 1108 0
-14 -1086 1087 0
-1087 1109 0
-15 -1087 1088 0
-1088 1110 0
-16 -1088 1089 0
-1089 1111 0
-17 -1089 1090 0
-1090 1112 0
-18 -1090 1091 0
-1091 1113 0
-19 -1091 1092 0
-1092 1114 0
-20 -1092 1093 0
-1093 1115 0
-21 -1093 1094 0
-1094 1116 0
-22 -1094 1095 0
-1095 1117 0
-23 -1095 1096 0
-1096 1118 0
-24 -1096 1097 0
-1097 1119 0
-25 -1097 1098 0
-1098 1120 0
-26 -1098 1099 0
-1099 1121 0
-27 -1099 1100 0
-1100 1122 0
-28 -1100 1101 0
-1101 1123 0
-29 -1101 1102 0
-1102 1124 0
-30 -1102 1103 0
-1103 1125 0
-31 -1103 1104 0
-1104 1126 0
-32 -1104 0
-11 1105 0
-1105 1127 0
-12 -1105 1106 0
-1106 1128 0
-13 -1106 1107 0
-1107 1129 0
-14 -1107 1108 0
-1108 1130 0
-15 -1108 1109 0
-1109 1131 0
-16 -1109 1110 0
-1110 1132 0
-17 -1110 1111 0
-1111 1133 0
-18 -1111 1112 0
-1112 1134 0
-19 -1112 1113 0
-1113 1135 0
-20 -1113 1114 0
-1114 1136 0
-21 -1114 1115 0
-1115 1137 0
-22 -1115 1116 0
-1116 1138 0
-23 -1116 1117 0
-1117 1139 0
-24 -1117 1118 0
-1118 1140 0
-25 -1118 1119 0
-1119 1141 0
-26 -1119 1120 0
-1120 1142 0
-27 -1120 1121 0
-1121 1143 0
-28 -1121 1122 0
-1122 1144 0
-29 -1122 1123 0
-1123 1145 0
-30 -1123 1124 0
-1124 1146 0
-31 -1124 1125 0
-1125 1147 0
-32 -1125 1126 0
-1126 1148 0
-33 -1126 0
-12 1127 0
-1127 1149 0
-13 -1127 1128 0
-1128 1150 0
-14 -1128 1129 0
-1129 1151 0
-15 -1129 1130 0
-1130 1152 0
-16 -1130 1131 0
-1131 1153 0
-17 -1131 1132 0
-1132 1154 0
-18 -1132 1133 0
-1133 1155 0
-19 -1133 1134 0
-1134 1156 0
-20 -1134 1135 0
-1135 1157 0
-21 -1135 1136 0
-1136 1158 0
-22 -1136 1137 0
-1137 1159 0
-23 -1137 1138 0
-1138 1160 0
-24 -1138 1139 0
-1139 1161 0
-25 -1139 1140 0
-1140 1162 0
-26 -1140 1141 0
-1141 1163 0
-27 -1141 1142 0
-1142 1164 0
-28 -1142 1143 0
-1143 1165 0
-29 -1143 1144 0
-1144 1166 0
-30 -1144 1145 0
-1145 1167 0
-31 -1145 1146 0
-1146 1168 0
-32 -1146 1147 0
-1147 1169 0
-33 -1147 1148 0
-1148 1170 0
-34 -1148 0
-13 1149 0
-1149 1171 0
-14 -1149 1150 0
-1150 1172 0
-15 -1150 1151 0
-1151 1173 0
-16 -1151 1152 0
-1152 1174 0
-17 -1152 1153 0
-1153 1175 0
-18 -1153 1154 0
-1154 1176 0
-19 -1154 1155 0
-1155 1177 0
-20 -1155 1156 0
-1156 1178 0
-21 -1156 1157 0
-1157 1179 0
-22 -1157 1158 0
-1158 1180 0
-23 -1158 1159 0
-1159 1181 0
-24 -1159 1160 0
-1160 1182 0
-25 -1160 1161 0
-1161 1183 0
-26 -1161 1162 0
-1162 1184 0
-27 -1162 1163 0
-1163 1185 0
-28 -1163 1164 0
-1164 1186 0
-29 -1164 1165 0
-1165 1187 0
-30 -1165 1166 0
-1166 1188 0
-31 -1166 1167 0
-1167 1189 0
-32 -1167 1168 0
-1168 1190 0
-33 -1168 1169 0
-1169 1191 0
-34 -1169 1170 0
-1170 1192 0
-35 -1170 0
-14 1171 0
-15 -1171 1172 0
-16 -1172 1173 0
-17 -1173 1174 0
-18 -1174 1175 0
-19 -1175 1176 0
-20 -1176 1177 0
-21 -1177 1178 0
-22 -1178 1179 0
-23 -1179 1180 0
-24 -1180 1181 0
-25 -1181 1182 0
-26 -1182 1183 0
-27 -1183 1184 0
-28 -1184 1185 0
-29 -1185 1186 0
-30 -1186 1187 0
-31 -1187 1188 0
-32 -1188 1189 0
-33 -1189 1190 0
-34 -1190 1191 0
-35 -1191 1192 0
-36 -1192 0
1193 0
1194 1195 0
-1194 -1195 0
-1194 -1196 1197 0
-1194 -1198 1199 0
-1194 -1200 1201 0
-1194 -1202 1203 0
1197 1204 0
-1197 -1204 0
-1197 -1205 1194 0
-1197 -1206 1199 0
-1197 -1207 1201 0
-1197 -1208 1203 0
1199 1209 0
-1199 -1209 0
-1199 -1210 1194 0
-1199 -1211 1197 0
-1199 -1212 1201 0
-1199 -1213 1203 0
1201 1214 0
-1201 -1214 0
-1201 -1215 1194 0
-1201 -1216 1197 0
-1201 -1217 1199 0
-1201 -1218 1203 0
1203 1219 0
-1203 -1219 0
-1203 -1220 1194 0
-1203 -1221 1197 0
-1203 -1222 1199 0
-1203 -1223 1201 0
1224 0
1195 1194 0
-1195 -1194 0
-1195 -1197 1196 0
-1195 -1199 1198 0
-1195 -1201 1200 0
-1195 -1203 1202 0
1196 1205 0
-1196 -1205 0
-1196 -1204 1195 0
-1196 -1206 1198 0
-1196 -1207 1200 0
-1196 -1208 1202 0
1198 1210 0
-1198 -1210 0
-1198 -1209 1195 0
-1198 -1211 1196 0
-1198 -1212 1200 0
-1198 -1213 1202 0
1200 1215 0
-1200 -1215 0
-1200 -1214 1195 0
-1200 -1216 1196 0
-1200 -1217 1198 0
-1200 -1218 1202 0
1202 1220 0
-1202 -1220 0
-1202 -1219 1195 0
-1202 -1221 1196 0
-1202 -1222 1198 0
-1202 -1223 1200 0
1225 0
1204 1197 0
-1204 -1197 0
-1204 -1194 1205 0
-1204 -1199 1206 0
-1204 -1201 1207 0
-1204 -1203 1208 0
1205 1196 0
-1205 -1196 0
-1205 -1195 1204 0
-1205 -1198 1206 0
-1205 -1200 1207 0
-1205 -1202 1208 0
1206 1211 0
-1206 -1211 0
-1206 -1209 1204 0
-1206 -1210 1205 0
-1206 -1212 1207 0
-1206 -1213 1208 0
1207 1216 0
-1207 -1216 0
-1207 -1214 1204 0
-1207 -1215 1205 0
-1207 -1217 1206 0
-1207 -1218 1208 0
1208 1221 0
-1208 -1221 0
-1208 -1219 1204 0
-1208 -1220 1205 0
-1208 -1222 1206 0
-1208 -1223 1207 0
1226 0
1209 1199 0
-1209 -1199 0
-1209 -1194 1210 0
-1209 -1197 1211 0
-1209 -1201 1212 0
-1209 -1203 1213 0
1210 1198 0
-1210 -1198 0
-1210 -1195 1209 0
-1210 -1196 1211 0
-1210 -1200 1212 0
-1210 -1202 1213 0
1211 1206 0
-1211 -1206 0
-1211 -1204 1209 0
-1211 -1205 1210 0
-1211 -1207 1212 0
-1211 -1208 1213 0
1212 1217 0
-1212 -1217 0
-1212 -1214 1209 0
-1212 -1215 1210 0
-1212 -1216 1211 0
-1212 -1218 1213 0
1213 1222 0
-1213 -1222 0
-1213 -1219 1209 0
-1213 -1220 1210 0
-1213 -1221 1211 0
-1213 -1223 1212 0
1227 0
1214 1201 0
-1214 -1201 0
-1214 -1194 1215 0
-1214 -1197 1216 0
-1214 -1199 1217 0
-1214 -1203 1218 0
1215 1200 0
-1215 -1200 0
-1215 -1195 1214 0
-1215 -1196 1216 0
-1215 -1198 1217 0
-1215 -1202 1218 0
1216 1207 0
-1216 -1207 0
-1216 -1204 1214 0
-1216 -1205 1215 0
-1216 -1206 1217 0
-1216 -1208 1218 0
1217 1212 0
-1217 -1212 0
-1217 -1209 1214 0
-1217 -1210 1215 0
-1217 -1211 1216 0
-1217 -1213 1218 0
1218 1223 0
-1218 -1223 0
-1218 -1219 1214 0
-1218 -1220 1215 0
-1218 -1221 1216 0
-1218 -1222 1217 0
1228 0
1219 1203 0
-1219 -1203 0
-1219 -1194 1220 0
-1219 -1197 1221 0
-1219 -1199 1222 0
-1219 -1201 1223 0
1220 1202 0
-1220 -1202 0
-1220 -1195 1219 0
-1220 -1196 1221 0
-1220 -1198 1222 0
-1220 -1200 1223 0
1221 1208 0
-1221 -1208 0
-1221 -1204 1219 0
-1221 -1205 1220 0
-1221 -1206 1222 0
-1221 -1207 1223 0
1222 1213 0
-1222 -1213 0
-1222 -1209 1219 0
-1222 -1210 1220 0
-1222 -1211 1221 0
-1222 -1212 1223 0
1223 1218 0
-1223 -1218 0
-1223 -1214 1219 0
-1223 -1215 1220 0
-1223 -1216 1221 0
-1223 -1217 1222 0
-1229 0
-1230 1194 0
-1231 1197 0
-1231 1205 0
-1197 -1205 1231 0
-1232 1199 0
-1232 1210 0
-1199 -1210 1232 0
-1233 1201 0
-1233 1215 0
-1201 -1215 1233 0
-1234 1203 0
-1234 1220 0
-1203 -1220 1234 0
-1230 -1231 0
-1230 -1232 0
-1230 -1233 0
-1230 -1234 0
-1194 1230 1231 1232 1233 1234 0
-1235 1197 0
-1236 1194 0
-1236 1196 0
-1194 -1196 1236 0
-1237 1199 0
-1237 1211 0
-1199 -1211 1237 0
-1238 1201 0
-1238 1216 0
-1201 -1216 1238 0
-1239 1203 0
-1239 1221 0
-1203 -1221 1239 0
-1235 -1236 0
-1235 -1237 0
-1235 -1238 0
-1235 -1239 0
-1197 1235 1236 1237 1238 1239 0
-1240 1199 0
-1241 1194 0
-1241 1198 0
-1194 -1198 1241 0
-1242 1197 0
-1242 1206 0
-1197 -1206 1242 0
-1243 1201 0
-1243 1217 0
-1201 -1217 1243 0
-1244 1203 0
-1244 1222 0
-1203 -1222 1244 0
-1240 -1241 0
-1240 -1242 0
-1240 -1243 0
-1240 -1244 0
-1199 1240 1241 1242 1243 1244 0
-1245 1201 0
-1246 1194 0
-1246 1200 0
-1194 -1200 1246 0
-1247 1197 0
-1247 1207 0
-1197 -1207 1247 0
-1248 1199 0
-1248 1212 0
-1199 -1212 1248 0
-1249 1203 0
-1249 1223 0
-1203 -1223 1249 0
-1245 -1246 0
-1245 -1247 0
-1245 -1248 0
-1245 -1249 0
-1201 1245 1246 1247 1248 1249 0
-1250 1203 0
-1251 1194 0
-1251 1202 0
-1194 -1202 1251 0
-1252 1197 0
-1252 1208 0
-1197 -1208 1252 0
-1253 1199 0
-1253 1213 0
-1199 -1213 1253 0
-1254 1201 0
-1254 1218 0
-1201 -1218 1254 0
-1250 -1251 0
-1250 -1252 0
-1250 -1253 0
-1250 -1254 0
-1203 1250 1251 1252 1253 1254 0
-1255 1195 0
-1256 1196 0
-1256 1204 0
-1196 -1204 1256 0
-1257 1198 0
-1257 1209 0
-1198 -1209 1257 0
-1258 1200 0
-1258 1214 0
-1200 -1214 1258 0
-1259 1202 0
-1259 1219 0
-1202 -1219 1259 0
-1255 -1256 0
-1255 -1257 0
-1255 -1258 0
-1255 -1259 0
-1195 1255 1256 1257 1258 1259 0
-1260 0
-1261 1196 0
-1262 1195 0
-1262 1197 0
-1195 -1197 1262 0
-1263 1198 0
-1263 1211 0
-1198 -1211 1263 0
-1264 1200 0
-1264 1216 0
-1200 -1216 1264 0
-1265 1202 0
-1265 1221 0
-1202 -1221 1265 0
-1261 -1262 0
-1261 -1263 0
-1261 -1264 0
-1261 -1265 0
-1196 1261 1262 1263 1264 1265 0
-1266 1198 0
-1267 1195 0
-1267 1199 0
-1195 -1199 1267 0
-1268 1196 0
-1268 1206 0
-1196 -1206 1268 0
-1269 1200 0
-1269 1217 0
-1200 -1217 1269 0
-1270 1202 0
-1270 1222 0
-1202 -1222 1270 0
-1266 -1267 0
-1266 -1268 0
-1266 -1269 0
-1266 -1270 0
-1198 1266 1267 1268 1269 1270 0
-1271 1200 0
-1272 1195 0
-1272 1201 0
-1195 -1201 1272 0
-1273 1196 0
-1273 1207 0
-1196 -1207 1273 0
-1274 1198 0
-1274 1212 0
-1198 -1212 1274 0
-1275 1202 0
-1275 1223 0
-1202 -1223 1275 0
-1271 -1272 0
-1271 -1273 0
-1271 -1274 0
-1271 -1275 0
-1200 1271 1272 1273 1274 1275 0
-1276 1202 0
-1277 1195 0
-1277 1203 0
-1195 -1203 1277 0
-1278 1196 0
-1278 1208 0
-1196 -1208 1278 0
-1279 1198 0
-1279 1213 0
-1198 -1213 1279 0
-1280 1200 0
-1280 1218 0
-1200 -1218 1280 0
-1276 -1277 0
-1276 -1278 0
-1276 -1279 0
-1276 -1280 0
-1202 1276 1277 1278 1279 1280 0
-1281 1204 0
-1282 1205 0
-1282 1195 0
-1205 -1195 1282 0
-1283 1206 0
-1283 1209 0
-1206 -1209 1283 0
-1284 1207 0
-1284 1214 0
-1207 -1214 1284 0
-1285 1208 0
-1285 1219 0
-1208 -1219 1285 0
-1281 -1282 0
-1281 -1283 0
-1281 -1284 0
-1281 -1285 0
-1204 1281 1282 1283 1284 1285 0
-1286 1205 0
-1287 1204 0
-1287 1194 0
-1204 -1194 1287 0
-1288 1206 0
-1288 1210 0
-1206 -1210 1288 0
-1289 1207 0
-1289 1215 0
-1207 -1215 1289 0
-1290 1208 0
-1290 1220 0
-1208 -1220 1290 0
-1286 -1287 0
-1286 -1288 0
-1286 -1289 0
-1286 -1290 0
-1205 1286 1287 1288 1289 1290 0
-1291 0
-1292 1206 0
-1293 1204 0
-1293 1199 0
-1204 -1199 1293 0
-1294 1205 0
-1294 1198 0
-1205 -1198 1294 0
-1295 1207 0
-1295 1217 0
-1207 -1217 1295 0
-1296 1208 0
-1296 1222 0
-1208 -1222 1296 0
-1292 -1293 0
-1292 -1294 0
-1292 -1295 0
-1292 -1296 0
-1206 1292 1293 1294 1295 1296 0
-1297 1207 0
-1298 1204 0
-1298 1201 0
-1204 -1201 1298 0
-1299 1205 0
-1299 1200 0
-1205 -1200 1299 0
-1300 1206 0
-1300 1212 0
-1206 -1212 1300 0
-1301 1208 0
-1301 1223 0
-1208 -1223 1301 0
-1297 -1298 0
-1297 -1299 0
-1297 -1300 0
-1297 -1301 0
-1207 1297 1298 1299 1300 1301 0
-1302 1208 0
-1303 1204 0
-1303 1203 0
-1204 -1203 1303 0
-1304 1205 0
-1304 1202 0
-1205 -1202 1304 0
-1305 1206 0
-1305 1213 0
-1206 -1213 1305 0
-1306 1207 0
-1306 1218 0
-1207 -1218 1306 0
-1302 -1303 0
-1302 -1304 0
-1302 -1305 0
-1302 -1306 0
-1208 1302 1303 1304 1305 1306 0
-1307 1209 0
-1308 1210 0
-1308 1195 0
-1210 -1195 1308 0
-1309 1211 0
-1309 1204 0
-1211 -1204 1309 0
-1310 1212 0
-1310 1214 0
-1212 -1214 1310 0
-1311 1213 0
-1311 1219 0
-1213 -1219 1311 0
-1307 -1308 0
-1307 -1309 0
-1307 -1310 0
-1307 -1311 0
-1209 1307 1308 1309 1310 1311 0
-1312 1210 0
-1313 1209 0
-1313 1194 0
-1209 -1194 1313 0
-1314 1211 0
-1314 1205 0
-1211 -1205 1314 0
-1315 1212 0
-1315 1215 0
-1212 -1215 1315 0
-1316 1213 0
-1316 1220 0
-1213 -1220 1316 0
-1312 -1313 0
-1312 -1314 0
-1312 -1315 0
-1312 -1316 0
-1210 1312 1313 1314 1315 1316 0
-1317 1211 0
-1318 1209 0
-1318 1197 0
-1209 -1197 1318 0
-1319 1210 0
-1319 1196 0
-1210 -1196 1319 0
-1320 1212 0
-1320 1216 0
-1212 -1216 1320 0
-1321 1213 0
-1321 1221 0
-1213 -1221 1321 0
-1317 -1318 0
-1317 -1319 0
-1317 -1320 0
-1317 -1321 0
-1211 1317 1318 1319 1320 1321 0
-1322 0
-1323 1212 0
-1324 1209 0
-1324 1201 0
-1209 -1201 1324 0
-1325 1210 0
-1325 1200 0
-1210 -1200 1325 0
-1326 1211 0
-1326 1207 0
-1211 -1207 1326 0
-1327 1213 0
-1327 1223 0
-1213 -1223 1327 0
-1323 -1324 0
-1323 -1325 0
-1323 -1326 0
-1323 -1327 0
-1212 1323 1324 1325 1326 1327 0
-1328 1213 0
-1329 1209 0
-1329 1203 0
-1209 -1203 1329 0
-1330 1210 0
-1330 1202 0
-1210 -1202 1330 0
-1331 1211 0
-1331 1208 0
-1211 -1208 1331 0
-1332 1212 0
-1332 1218 0
-1212 -1218 1332 0
-1328 -1329 0
-1328 -1330 0
-1328 -1331 0
-1328 -1332 0
-1213 1328 1329 1330 1331 1332 0
-1333 1214 0
-1334 1215 0
-1334 1195 0
-1215 -1195 1334 0
-1335 1216 0
-1335 1204 0
-1216 -1204 1335 0
-1336 1217 0
-1336 1209 0
-1217 -1209 1336 0
-1337 1218 0
-1337 1219 0
-1218 -1219 1337 0
-1333 -1334 0
-1333 -1335 0
-1333 -1336 0
-1333 -1337 0
-1214 1333 1334 1335 1336 1337 0
-1338 1215 0
-1339 1214 0
-1339 1194 0
-1214 -1194 1339 0
-1340 1216 0
-1340 1205 0
-1216 -1205 1340 0
-1341 1217 0
-1341 1210 0
-1217 -1210 1341 0
-1342 1218 0
-1342 1220 0
-1218 -1220 1342 0
-1338 -1339 0
-1338 -1340 0
-1338 -1341 0
-1338 -1342 0
-1215 1338 1339 1340 1341 1342 0
-1343 1216 0
-1344 1214 0
-1344 1197 0
-1214 -1197 1344 0
-1345 1215 0
-1345 1196 0
-1215 -1196 1345 0
-1346 1217 0
-1346 1211 0
-1217 -1211 1346 0
-1347 1218 0
-1347 1221 0
-1218 -1221 1347 0
-1343 -1344 0
-1343 -1345 0
-1343 -1346 0
-1343 -1347 0
-1216 1343 1344 1345 1346 1347 0
-1348 1217 0
-1349 1214 0
-1349 1199 0
-1214 -1199 1349 0
-1350 1215 0
-1350 1198 0
-1215 -1198 1350 0
-1351 1216 0
-1351 1206 0
-1216 -1206 1351 0
-1352 1218 0
-1352 1222 0
-1218 -1222 1352 0
-1348 -1349 0
-1348 -1350 0
-1348 -1351 0
-1348 -1352 0
-1217 1348 1349 1350 1351 1352 0
-1353 0
-1354 1218 0
-1355 1214 0
-1355 1203 0
-1214 -1203 1355 0
-1356 1215 0
-1356 1202 0
-1215 -1202 1356 0
-1357 1216 0
-1357 1208 0
-1216 -1208 1357 0
-1358 1217 0
-1358 1213 0
-1217 -1213 1358 0
-1354 -1355 0
-1354 -1356 0
-1354 -1357 0
-1354 -1358 0
-1218 1354 1355 1356 1357 1358 0
-1359 1219 0
-1360 1220 0
-1360 1195 0
-1220 -1195 1360 0
-1361 1221 0
-1361 1204 0
-1221 -1204 1361 0
-1362 1222 0
-1362 1209 0
-1222 -1209 1362 0
-1363 1223 0
-1363 1214 0
-1223 -1214 1363 0
-1359 -1360 0
-1359 -1361 0
-1359 -1362 0
-1359 -1363 0
-1219 1359 1360 1361 1362 1363 0
-1364 1220 0
-1365 1219 0
-1365 1194 0
-1219 -1194 1365 0
-1366 1221 0
-1366 1205 0
-1221 -1205 1366 0
-1367 1222 0
-1367 1210 0
-1222 -1210 1367 0
-1368 1223 0
-1368 1215 0
-1223 -1215 1368 0
-1364 -1365 0
-1364 -1366 0
-1364 -1367 0
-1364 -1368 0
-1220 1364 1365 1366 1367 1368 0
-1369 1221 0
-1370 1219 0
-1370 1197 0
-1219 -1197 1370 0
-1371 1220 0
-1371 1196 0
-1220 -1196 1371 0
-1372 1222 0
-1372 1211 0
-1222 -1211 1372 0
-1373 1223 0
-1373 1216 0
-1223 -1216 1373 0
-1369 -1370 0
-1369 -1371 0
-1369 -1372 0
-1369 -1373 0
-1221 1369 1370 1371 1372 1373 0
-1374 1222 0
-1375 1219 0
-1375 1199 0
-1219 -1199 1375 0
-1376 1220 0
-1376 1198 0
-1220 -1198 1376 0
-1377 1221 0
-1377 1206 0
-1221 -1206 1377 0
-1378 1223 0
-1378 1217 0
-1223 -1217 1378 0
-1374 -1375 0
-1374 -1376 0
-1374 -1377 0
-1374 -1378 0
-1222 1374 1375 1376 1377 1378 0
-1379 1223 0
-1380 1219 0
-1380 1201 0
-1219 -1201 1380 0
-1381 1220 0
-1381 1200 0
-1220 -1200 1381 0
-1382 1221 0
-1382 1207 0
-1221 -1207 1382 0
-1383 1222 0
-1383 1212 0
-1222 -1212 1383 0
-1379 -1380 0
-1379 -1381 0
-1379 -1382 0
-1379 -1383 0
-1223 1379 1380 1381 1382 1383 0
-1384 0
-1385 1193 0
-1385 1194 0
-1385 1197 0
-1385 1199 0
-1385 1201 0
-1385 1203 0
-1193 -1194 -1197 -1199 -1201 -1203 1385 0
-1386 1193 0
-1386 1195 0
-1386 1204 0
-1386 1209 0
-1386 1214 0
-1386 1219 0
-1193 -1195 -1204 -1209 -1214 -1219 1386 0
-1387 1195 0
-1387 1224 0
-1387 1196 0
-1387 1198 0
-1387 1200 0
-1387 1202 0
-1195 -1224 -1196 -1198 -1200 -1202 1387 0
-1388 1194 0
-1388 1224 0
-1388 1205 0
-1388 1210 0
-1388 1215 0
-1388 1220 0
-1194 -1224 -1205 -1210 -1215 -1220 1388 0
-1389 1204 0
-1389 1205 0
-1389 1225 0
-1389 1206 0
-1389 1207 0
-1389 1208 0
-1204 -1205 -1225 -1206 -1207 -1208 1389 0
-1390 1197 0
-1390 1196 0
-1390 1225 0
-1390 1211 0
-1390 1216 0
-1390 1221 0
-1197 -1196 -1225 -1211 -1216 -1221 1390 0
-1391 1209 0
-1391 1210 0
-1391 1211 0
-1391 1226 0
-1391 1212 0
-1391 1213 0
-1209 -1210 -1211 -1226 -1212 -1213 1391 0
-1392 1199 0
-1392 1198 0
-1392 1206 0
-1392 1226 0
-1392 1217 0
-1392 1222 0
-1199 -1198 -1206 -1226 -1217 -1222 1392 0
-1393 1214 0
-1393 1215 0
-1393 1216 0
-1393 1217 0
-1393 1227 0
-1393 1218 0
-1214 -1215 -1216 -1217 -1227 -1218 1393 0
-1394 1201 0
-1394 1200 0
-1394 1207 0
-1394 1212 0
-1394 1227 0
-1394 1223 0
-1201 -1200 -1207 -1212 -1227 -1223 1394 0
-1395 1219 0
-1395 1220 0
-1395 1221 0
-1395 1222 0
-1395 1223 0
-1395 1228 0
-1219 -1220 -1221 -1222 -1223 -1228 1395 0
-1396 1203 0
-1396 1202 0
-1396 1208 0
-1396 1213 0
-1396 1218 0
-1396 1228 0
-1203 -1202 -1208 -1213 -1218 -1228 1396 0
-1229 74 0
-1386 -1385 74 0
-74 1229 1386 0
-74 1229 1385 0
-1230 92 0
-1386 -1387 92 0
-92 1230 1386 0
-92 1230 1387 0
-1235 110 0
-1386 -1389 110 0
-110 1235 1386 0
-110 1235 1389 0
-1240 128 0
-1386 -1391 128 0
-128 1240 1386 0
-128 1240 1391 0
-1245 146 0
-1386 -1393 146 0
-146 1245 1386 0
-146 1245 1393 0
-1250 164 0
-1386 -1395 164 0
-164 1250 1386 0
-164 1250 1395 0
-1255 77 0
-1388 -1385 77 0
-77 1255 1388 0
-77 1255 1385 0
-1260 95 0
-1388 -1387 95 0
-95 1260 1388 0
-95 1260 1387 0
-1261 113 0
-1388 -1389 113 0
-113 1261 1388 0
-113 1261 1389 0
-1266 131 0
-1388 -1391 131 0
-131 1266 1388 0
-131 1266 1391 0
-1271 149 0
-1388 -1393 149 0
-149 1271 1388 0
-149 1271 1393 0
-1276 167 0
-1388 -1395 167 0
-167 1276 1388 0
-167 1276 1395 0
-1281 80 0
-1390 -1385 80 0
-80 1281 1390 0
-80 1281 1385 0
-1286 98 0
-1390 -1387 98 0
-98 1286 1390 0
-98 1286 1387 0
-1291 116 0
-1390 -1389 116 0
-116 1291 1390 0
-116 1291 1389 0
-1292 134 0
-1390 -1391 134 0
-134 1292 1390 0
-134 1292 1391 0
-1297 152 0
-1390 -1393 152 0
-152 1297 1390 0
-152 1297 1393 0
-1302 170 0
-1390 -1395 170 0
-170 1302 1390 0
-170 1302 1395 0
-1307 83 0
-1392 -1385 83 0
-83 1307 1392 0
-83 1307 1385 0
-1312 101 0
-1392 -1387 101 0
-101 1312 1392 0
-101 1312 1387 0
-1317 119 0
-1392 -1389 119 0
-119 1317 1392 0
-119 1317 1389 0
-1322 137 0
-1392 -1391 137 0
-137 1322 1392 0
-137 1322 1391 0
-1323 155 0
-1392 -1393 155 0
-155 1323 1392 0
-155 1323 1393 0
-1328 173 0
-1392 -1395 173 0
-173 1328 1392 0
-173 1328 1395 0
-1333 86 0
-1394 -1385 86 0
-86 1333 1394 0
-86 1333 1385 0
-1338 104 0
-1394 -1387 104 0
-104 1338 1394 0
-104 1338 1387 0
-1343 122 0
-1394 -1389 122 0
-122 1343 1394 0
-122 1343 1389 0
-1348 140 0
-1394 -1391 140 0
-140 1348 1394 0
-140 1348 1391 0
-1353 158 0
-1394 -1393 158 0
-158 1353 1394 0
-158 1353 1393 0
-1354 176 0
-1394 -1395 176 0
-176 1354 1394 0
-176 1354 1395 0
-1359 89 0
-1396 -1385 89 0
-89 1359 1396 0
-89 1359 1385 0
-1364 107 0
-1396 -1387 107 0
-107 1364 1396 0
-107 1364 1387 0
-1369 125 0
-1396 -1389 125 0
-125 1369 1396 0
-125 1369 1389 0
-1374 143 0
-1396 -1391 143 0
-143 1374 1396 0
-143 1374 1391 0
-1379 161 0
-1396 -1393 161 0
-161 1379 1396 0
-161 1379 1393 0
-1384 179 0
-1396 -1395 179 0
-179 1384 1396 0
-179 1384 1395 0
