p cnf 1428 3810
c ind 1 2 3 4 5 6 7 8 9 10 11 12 13 14 15 16 17 18 19 20 21 22 23 24 25 26 27 28 29 30 31 32 33 34 35 36 37 38 39 40 41 42 43 44 45 46 47 48 49 50 0
c ind 51 52 53 54 55 56 57 58 59 60 61 62 63 64 65 66 67 68 69 70 71 72 73 74 75 76 77 78 79 80 81 82 83 84 85 86 87 88 89 90 91 92 93 94 95 96 97 98 99 100 0
c ind 101 102 103 104 105 106 107 108 109 110 111 112 113 114 115 116 117 118 119 120 121 122 123 124 125 126 127 128 129 130 131 132 133 134 135 136 137 138 139 140 141 142 143 144 145 146 147 148 149 150 0
c ind 151 152 153 154 155 156 157 158 159 160 161 162 163 164 165 166 167 168 169 170 171 172 173 174 175 176 177 178 179 180 181 182 183 184 185 186 187 188 189 190 191 192 193 194 195 196 197 198 199 200 0
c ind 201 202 203 204 205 206 207 208 209 210 211 212 213 214 215 216 217 218 219 220 221 222 223 224 225 226 227 228 229 230 231 232 233 234 235 236 237 238 239 240 241 242 243 244 245 246 247 248 249 250 0
c ind 251 252 253 254 255 256 257 258 259 260 261 262 263 264 265 266 267 268 269 270 271 272 273 274 275 276 277 278 279 280 281 282 283 284 285 286 287 288 289 290 291 292 293 294 295 296 297 298 299 300 0
c ind 301 302 303 304 305 306 307 308 309 310 311 312 313 314 315 316 317 318 319 320 321 322 323 324 325 326 327 328 329 330 331 332 333 334 335 336 337 338 339 340 341 342 343 344 345 346 347 348 349 350 0
c ind 351 352 353 354 355 356 357 358 359 360 361 362 363 364 365 366 367 368 369 370 371 372 373 374 375 376 377 378 379 380 381 382 383 384 385 386 387 388 389 390 391 392 393 394 395 396 397 398 399 400 0
c ind 401 402 403 404 405 406 407 408 409 410 411 412 413 414 415 416 417 418 419 420 421 422 423 424 425 426 427 428 429 430 431 432 433 434 435 436 437 438 439 440 441 442 443 444 445 446 447 448 449 450 0
c ind 451 452 453 454 455 456 457 458 459 460 461 462 463 464 465 466 467 468 469 470 471 472 473 474 475 476 477 478 479 480 481 482 483 484 485 486 487 488 489 490 491 492 493 494 495 496 497 498 499 500 0
c ind 501 502 503 504 505 506 507 508 509 510 511 512 513 514 515 516 517 518 519 520 521 522 523 524 525 526 527 528 529 530 531 532 533 534 535 536 537 538 539 540 541 542 543 544 545 546 547 548 549 550 0
c ind 551 552 553 554 555 556 557 558 559 560 561 562 563 564 565 566 567 568 569 570 571 572 573 574 575 576 1225 1226 1227 1228 1229 1230 1231 1232 1233 1234 1235 1236 1237 1238 1239 1240 1241 1242 1243 1244 1245 1246 1247 1248 0
c ind 1249 1250 1251 1252 1253 1254 1255 1256 1257 1258 1259 1260 1261 1262 1263 1264 1265 1266 1267 1268 1269 1270 1271 1272 1273 1274 1275 1276 1277 1278 1279 1280 1281 1282 1283 1284 1285 1286 1287 1288 1289 1290 1291 1292 1293 1294 1295 1296 1297 1298 0
c ind 1299 1300 1301 1302 1303 1304 1305 1306 1307 1308 1309 1310 1311 1312 1313 1314 1315 1316 1317 1318 1319 1320 1321 1322 1323 1324 1325 1326 1327 1328 1329 1330 1331 1332 1333 1334 1335 1336 1337 1338 1339 1340 1341 1342 1343 1344 1345 1346 1347 1348 0
c ind 1349 1350 1351 1352 1353 1354 1355 1356 1357 1358 1359 1360 1361 1362 1363 1364 1365 1366 1367 1368 1369 1370 1371 1372 1373 1374 1375 1376 1377 1378 1379 1380 1381 1382 1383 1384 1385 1386 1387 1388 1389 1390 1391 1392 1393 1394 1395 1396 1397 1398 0
c ind 1399 1400 1401 1402 1403 1404 1405 1406 1407 1408 1409 1410 1411 1412 1413 1414 1415 1416 1417 1418 1419 1420 1421 1422 1423 1424 1425 1426 1427 1428 0
1 2 3 4 5 6 0
7 8 9 10 11 12 0
13 14 15 16 17 18 0
19 20 21 22 23 24 0
25 26 27 28 29 30 0
31 32 33 34 35 36 0
-1 -1 -37 0
-7 -2 -38 0
-13 -3 -39 0
-19 -4 -40 0
-25 -5 -41 0
-31 -6 -42 0
-2 -7 -43 0
-8 -8 -44 0
-14 -9 -45 0
-20 -10 -46 0
-26 -11 -47 0
-32 -12 -48 0
-3 -13 -49 0
-9 -14 -50 0
-15 -15 -51 0
-21 -16 -52 0
-27 -17 -53 0
-33 -18 -54 0
-4 -19 -55 0
-10 -20 -56 0
-16 -21 -57 0
-22 -22 -58 0
-28 -23 -59 0
-34 -24 -60 0
-5 -25 -61 0
-11 -26 -62 0
-17 -27 -63 0
-23 -28 -64 0
-29 -29 -65 0
-35 -30 -66 0
-6 -31 -67 0
-12 -32 -68 0
-18 -33 -69 0
-24 -34 -70 0
-30 -35 -71 0
-36 -36 -72 0
37 1 0
38 7 0
39 13 0
40 19 0
41 25 0
42 31 0
43 2 0
44 8 0
45 14 0
46 20 0
47 26 0
48 32 0
49 3 0
50 9 0
51 15 0
52 21 0
53 27 0
54 33 0
55 4 0
56 10 0
57 16 0
58 22 0
59 28 0
60 34 0
61 5 0
62 11 0
63 17 0
64 23 0
65 29 0
66 35 0
67 6 0
68 12 0
69 18 0
70 24 0
71 30 0
72 36 0
37 1 0
38 2 0
39 3 0
40 4 0
41 5 0
42 6 0
43 7 0
44 8 0
45 9 0
46 10 0
47 11 0
48 12 0
49 13 0
50 14 0
51 15 0
52 16 0
53 17 0
54 18 0
55 19 0
56 20 0
57 21 0
58 22 0
59 23 0
60 24 0
61 25 0
62 26 0
63 27 0
64 28 0
65 29 0
66 30 0
67 31 0
68 32 0
69 33 0
70 34 0
71 35 0
72 36 0
73 74 -1 -75 0
76 77 -7 -78 0
79 80 -13 -81 0
82 83 -19 -84 0
85 86 -25 -87 0
88 89 -31 -90 0
91 92 -2 -93 0
94 95 -8 -96 0
97 98 -14 -99 0
100 101 -20 -102 0
103 104 -26 -105 0
106 107 -32 -108 0
109 110 -3 -111 0
112 113 -9 -114 0
115 116 -15 -117 0
118 119 -21 -120 0
121 122 -27 -123 0
124 125 -33 -126 0
127 128 -4 -129 0
130 131 -10 -132 0
133 134 -16 -135 0
136 137 -22 -138 0
139 140 -28 -141 0
142 143 -34 -144 0
145 146 -5 -147 0
148 149 -11 -150 0
151 152 -17 -153 0
154 155 -23 -156 0
157 158 -29 -159 0
160 161 -35 -162 0
163 164 -6 -165 0
166 167 -12 -168 0
169 170 -18 -171 0
172 173 -24 -174 0
175 176 -30 -177 0
178 179 -36 -180 0
75 -73 0
78 -76 0
81 -79 0
84 -82 0
87 -85 0
90 -88 0
93 -91 0
96 -94 0
99 -97 0
102 -100 0
105 -103 0
108 -106 0
111 -109 0
114 -112 0
117 -115 0
120 -118 0
123 -121 0
126 -124 0
129 -127 0
132 -130 0
135 -133 0
138 -136 0
141 -139 0
144 -142 0
147 -145 0
150 -148 0
153 -151 0
156 -154 0
159 -157 0
162 -160 0
165 -163 0
168 -166 0
171 -169 0
174 -172 0
177 -175 0
180 -178 0
75 -74 0
78 -77 0
81 -80 0
84 -83 0
87 -86 0
90 -89 0
93 -92 0
96 -95 0
99 -98 0
102 -101 0
105 -104 0
108 -107 0
111 -110 0
114 -113 0
117 -116 0
120 -119 0
123 -122 0
126 -125 0
129 -128 0
132 -131 0
135 -134 0
138 -137 0
141 -140 0
144 -143 0
147 -146 0
150 -149 0
153 -152 0
156 -155 0
159 -158 0
162 -161 0
165 -164 0
168 -167 0
171 -170 0
174 -173 0
177 -176 0
180 -179 0
75 1 0
78 7 0
81 13 0
84 19 0
87 25 0
90 31 0
93 2 0
96 8 0
99 14 0
102 20 0
105 26 0
108 32 0
111 3 0
114 9 0
117 15 0
120 21 0
123 27 0
126 33 0
129 4 0
132 10 0
135 16 0
138 22 0
141 28 0
144 34 0
147 5 0
150 11 0
153 17 0
156 23 0
159 29 0
162 35 0
165 6 0
168 12 0
171 18 0
174 24 0
177 30 0
180 36 0
1 1 -181 -182 0
7 2 -183 -184 0
13 3 -185 -186 0
19 4 -187 -188 0
25 5 -189 -190 0
31 6 -191 -192 0
2 7 -193 -194 0
8 8 -195 -196 0
14 9 -197 -198 0
20 10 -199 -200 0
26 11 -201 -202 0
32 12 -203 -204 0
3 13 -205 -206 0
9 14 -207 -208 0
15 15 -209 -210 0
21 16 -211 -212 0
27 17 -213 -214 0
33 18 -215 -216 0
4 19 -217 -218 0
10 20 -219 -220 0
16 21 -221 -222 0
22 22 -223 -224 0
28 23 -225 -226 0
34 24 -227 -228 0
5 25 -229 -230 0
11 26 -231 -232 0
17 27 -233 -234 0
23 28 -235 -236 0
29 29 -237 -238 0
35 30 -239 -240 0
6 31 -241 -242 0
12 32 -243 -244 0
18 33 -245 -246 0
24 34 -247 -248 0
30 35 -249 -250 0
36 36 -251 -252 0
182 -1 0
184 -7 0
186 -13 0
188 -19 0
190 -25 0
192 -31 0
194 -2 0
196 -8 0
198 -14 0
200 -20 0
202 -26 0
204 -32 0
206 -3 0
208 -9 0
210 -15 0
212 -21 0
214 -27 0
216 -33 0
218 -4 0
220 -10 0
222 -16 0
224 -22 0
226 -28 0
228 -34 0
230 -5 0
232 -11 0
234 -17 0
236 -23 0
238 -29 0
240 -35 0
242 -6 0
244 -12 0
246 -18 0
248 -24 0
250 -30 0
252 -36 0
182 -1 0
184 -2 0
186 -3 0
188 -4 0
190 -5 0
192 -6 0
194 -7 0
196 -8 0
198 -9 0
200 -10 0
202 -11 0
204 -12 0
206 -13 0
208 -14 0
210 -15 0
212 -16 0
214 -17 0
216 -18 0
218 -19 0
220 -20 0
222 -21 0
224 -22 0
226 -23 0
228 -24 0
230 -25 0
232 -26 0
234 -27 0
236 -28 0
238 -29 0
240 -30 0
242 -31 0
244 -32 0
246 -33 0
248 -34 0
250 -35 0
252 -36 0
182 181 0
184 183 0
186 185 0
188 187 0
190 189 0
192 191 0
194 193 0
196 195 0
198 197 0
200 199 0
202 201 0
204 203 0
206 205 0
208 207 0
210 209 0
212 211 0
214 213 0
216 215 0
218 217 0
220 219 0
222 221 0
224 223 0
226 225 0
228 227 0
230 229 0
232 231 0
234 233 0
236 235 0
238 237 0
240 239 0
242 241 0
244 243 0
246 245 0
248 247 0
250 249 0
252 251 0
-74 -1 253 0
-77 -7 254 0
-80 -13 255 0
-83 -19 256 0
-86 -25 257 0
-89 -31 258 0
-92 -2 259 0
-95 -8 260 0
-98 -14 261 0
-101 -20 262 0
-104 -26 263 0
-107 -32 264 0
-110 -3 265 0
-113 -9 266 0
-116 -15 267 0
-119 -21 268 0
-122 -27 269 0
-125 -33 270 0
-128 -4 271 0
-131 -10 272 0
-134 -16 273 0
-137 -22 274 0
-140 -28 275 0
-143 -34 276 0
-146 -5 277 0
-149 -11 278 0
-152 -17 279 0
-155 -23 280 0
-158 -29 281 0
-161 -35 282 0
-164 -6 283 0
-167 -12 284 0
-170 -18 285 0
-173 -24 286 0
-176 -30 287 0
-179 -36 288 0
-253 74 0
-254 77 0
-255 80 0
-256 83 0
-257 86 0
-258 89 0
-259 92 0
-260 95 0
-261 98 0
-262 101 0
-263 104 0
-264 107 0
-265 110 0
-266 113 0
-267 116 0
-268 119 0
-269 122 0
-270 125 0
-271 128 0
-272 131 0
-273 134 0
-274 137 0
-275 140 0
-276 143 0
-277 146 0
-278 149 0
-279 152 0
-280 155 0
-281 158 0
-282 161 0
-283 164 0
-284 167 0
-285 170 0
-286 173 0
-287 176 0
-288 179 0
-253 1 0
-254 7 0
-255 13 0
-256 19 0
-257 25 0
-258 31 0
-259 2 0
-260 8 0
-261 14 0
-262 20 0
-263 26 0
-264 32 0
-265 3 0
-266 9 0
-267 15 0
-268 21 0
-269 27 0
-270 33 0
-271 4 0
-272 10 0
-273 16 0
-274 22 0
-275 28 0
-276 34 0
-277 5 0
-278 11 0
-279 17 0
-280 23 0
-281 29 0
-282 35 0
-283 6 0
-284 12 0
-285 18 0
-286 24 0
-287 30 0
-288 36 0
-289 253 -290 0
-291 254 -292 0
-293 255 -294 0
-295 256 -296 0
-297 257 -298 0
-299 258 -300 0
-301 259 -302 0
-303 260 -304 0
-305 261 -306 0
-307 262 -308 0
-309 263 -310 0
-311 264 -312 0
-313 265 -314 0
-315 266 -316 0
-317 267 -318 0
-319 268 -320 0
-321 269 -322 0
-323 270 -324 0
-325 271 -326 0
-327 272 -328 0
-329 273 -330 0
-331 274 -332 0
-333 275 -334 0
-335 276 -336 0
-337 277 -338 0
-339 278 -340 0
-341 279 -342 0
-343 280 -344 0
-345 281 -346 0
-347 282 -348 0
-349 283 -350 0
-351 284 -352 0
-353 285 -354 0
-355 286 -356 0
-357 287 -358 0
-359 288 -360 0
290 289 0
292 291 0
294 293 0
296 295 0
298 297 0
300 299 0
302 301 0
304 303 0
306 305 0
308 307 0
310 309 0
312 311 0
314 313 0
316 315 0
318 317 0
320 319 0
322 321 0
324 323 0
326 325 0
328 327 0
330 329 0
332 331 0
334 333 0
336 335 0
338 337 0
340 339 0
342 341 0
344 343 0
346 345 0
348 347 0
350 349 0
352 351 0
354 353 0
356 355 0
358 357 0
360 359 0
290 -253 0
292 -254 0
294 -255 0
296 -256 0
298 -257 0
300 -258 0
302 -259 0
304 -260 0
306 -261 0
308 -262 0
310 -263 0
312 -264 0
314 -265 0
316 -266 0
318 -267 0
320 -268 0
322 -269 0
324 -270 0
326 -271 0
328 -272 0
330 -273 0
332 -274 0
334 -275 0
336 -276 0
338 -277 0
340 -278 0
342 -279 0
344 -280 0
346 -281 0
348 -282 0
350 -283 0
352 -284 0
354 -285 0
356 -286 0
358 -287 0
360 -288 0
289 -74 -1 -361 0
291 -77 -7 -362 0
293 -80 -13 -363 0
295 -83 -19 -364 0
297 -86 -25 -365 0
299 -89 -31 -366 0
301 -92 -2 -367 0
303 -95 -8 -368 0
305 -98 -14 -369 0
307 -101 -20 -370 0
309 -104 -26 -371 0
311 -107 -32 -372 0
313 -110 -3 -373 0
315 -113 -9 -374 0
317 -116 -15 -375 0
319 -119 -21 -376 0
321 -122 -27 -377 0
323 -125 -33 -378 0
325 -128 -4 -379 0
327 -131 -10 -380 0
329 -134 -16 -381 0
331 -137 -22 -382 0
333 -140 -28 -383 0
335 -143 -34 -384 0
337 -146 -5 -385 0
339 -149 -11 -386 0
341 -152 -17 -387 0
343 -155 -23 -388 0
345 -158 -29 -389 0
347 -161 -35 -390 0
349 -164 -6 -391 0
351 -167 -12 -392 0
353 -170 -18 -393 0
355 -173 -24 -394 0
357 -176 -30 -395 0
359 -179 -36 -396 0
361 -289 0
362 -291 0
363 -293 0
364 -295 0
365 -297 0
366 -299 0
367 -301 0
368 -303 0
369 -305 0
370 -307 0
371 -309 0
372 -311 0
373 -313 0
374 -315 0
375 -317 0
376 -319 0
377 -321 0
378 -323 0
379 -325 0
380 -327 0
381 -329 0
382 -331 0
383 -333 0
384 -335 0
385 -337 0
386 -339 0
387 -341 0
388 -343 0
389 -345 0
390 -347 0
391 -349 0
392 -351 0
393 -353 0
394 -355 0
395 -357 0
396 -359 0
361 74 0
362 77 0
363 80 0
364 83 0
365 86 0
366 89 0
367 92 0
368 95 0
369 98 0
370 101 0
371 104 0
372 107 0
373 110 0
374 113 0
375 116 0
376 119 0
377 122 0
378 125 0
379 128 0
380 131 0
381 134 0
382 137 0
383 140 0
384 143 0
385 146 0
386 149 0
387 152 0
388 155 0
389 158 0
390 161 0
391 164 0
392 167 0
393 170 0
394 173 0
395 176 0
396 179 0
361 1 0
362 7 0
363 13 0
364 19 0
365 25 0
366 31 0
367 2 0
368 8 0
369 14 0
370 20 0
371 26 0
372 32 0
373 3 0
374 9 0
375 15 0
376 21 0
377 27 0
378 33 0
379 4 0
380 10 0
381 16 0
382 22 0
383 28 0
384 34 0
385 5 0
386 11 0
387 17 0
388 23 0
389 29 0
390 35 0
391 6 0
392 12 0
393 18 0
394 24 0
395 30 0
396 36 0
1 1 397 0
7 2 398 0
13 3 399 0
19 4 400 0
25 5 401 0
31 6 402 0
2 7 403 0
8 8 404 0
14 9 405 0
20 10 406 0
26 11 407 0
32 12 408 0
3 13 409 0
9 14 410 0
15 15 411 0
21 16 412 0
27 17 413 0
33 18 414 0
4 19 415 0
10 20 416 0
16 21 417 0
22 22 418 0
28 23 419 0
34 24 420 0
5 25 421 0
11 26 422 0
17 27 423 0
23 28 424 0
29 29 425 0
35 30 426 0
6 31 427 0
12 32 428 0
18 33 429 0
24 34 430 0
30 35 431 0
36 36 432 0
-397 -1 0
-398 -7 0
-399 -13 0
-400 -19 0
-401 -25 0
-402 -31 0
-403 -2 0
-404 -8 0
-405 -14 0
-406 -20 0
-407 -26 0
-408 -32 0
-409 -3 0
-410 -9 0
-411 -15 0
-412 -21 0
-413 -27 0
-414 -33 0
-415 -4 0
-416 -10 0
-417 -16 0
-418 -22 0
-419 -28 0
-420 -34 0
-421 -5 0
-422 -11 0
-423 -17 0
-424 -23 0
-425 -29 0
-426 -35 0
-427 -6 0
-428 -12 0
-429 -18 0
-430 -24 0
-431 -30 0
-432 -36 0
-397 -1 0
-398 -2 0
-399 -3 0
-400 -4 0
-401 -5 0
-402 -6 0
-403 -7 0
-404 -8 0
-405 -9 0
-406 -10 0
-407 -11 0
-408 -12 0
-409 -13 0
-410 -14 0
-411 -15 0
-412 -16 0
-413 -17 0
-414 -18 0
-415 -19 0
-416 -20 0
-417 -21 0
-418 -22 0
-419 -23 0
-420 -24 0
-421 -25 0
-422 -26 0
-423 -27 0
-424 -28 0
-425 -29 0
-426 -30 0
-427 -31 0
-428 -32 0
-429 -33 0
-430 -34 0
-431 -35 0
-432 -36 0
181 397 -433 0
183 398 -434 0
185 399 -435 0
187 400 -436 0
189 401 -437 0
191 402 -438 0
193 403 -439 0
195 404 -440 0
197 405 -441 0
199 406 -442 0
201 407 -443 0
203 408 -444 0
205 409 -445 0
207 410 -446 0
209 411 -447 0
211 412 -448 0
213 413 -449 0
215 414 -450 0
217 415 -451 0
219 416 -452 0
221 417 -453 0
223 418 -454 0
225 419 -455 0
227 420 -456 0
229 421 -457 0
231 422 -458 0
233 423 -459 0
235 424 -460 0
237 425 -461 0
239 426 -462 0
241 427 -463 0
243 428 -464 0
245 429 -465 0
247 430 -466 0
249 431 -467 0
251 432 -468 0
433 -181 0
434 -183 0
435 -185 0
436 -187 0
437 -189 0
438 -191 0
439 -193 0
440 -195 0
441 -197 0
442 -199 0
443 -201 0
444 -203 0
445 -205 0
446 -207 0
447 -209 0
448 -211 0
449 -213 0
450 -215 0
451 -217 0
452 -219 0
453 -221 0
454 -223 0
455 -225 0
456 -227 0
457 -229 0
458 -231 0
459 -233 0
460 -235 0
461 -237 0
462 -239 0
463 -241 0
464 -243 0
465 -245 0
466 -247 0
467 -249 0
468 -251 0
433 -397 0
434 -398 0
435 -399 0
436 -400 0
437 -401 0
438 -402 0
439 -403 0
440 -404 0
441 -405 0
442 -406 0
443 -407 0
444 -408 0
445 -409 0
446 -410 0
447 -411 0
448 -412 0
449 -413 0
450 -414 0
451 -415 0
452 -416 0
453 -417 0
454 -418 0
455 -419 0
456 -420 0
457 -421 0
458 -422 0
459 -423 0
460 -424 0
461 -425 0
462 -426 0
463 -427 0
464 -428 0
465 -429 0
466 -430 0
467 -431 0
468 -432 0
-1 74 469 0
-7 77 470 0
-13 80 471 0
-19 83 472 0
-25 86 473 0
-31 89 474 0
-2 92 475 0
-8 95 476 0
-14 98 477 0
-20 101 478 0
-26 104 479 0
-32 107 480 0
-3 110 481 0
-9 113 482 0
-15 116 483 0
-21 119 484 0
-27 122 485 0
-33 125 486 0
-4 128 487 0
-10 131 488 0
-16 134 489 0
-22 137 490 0
-28 140 491 0
-34 143 492 0
-5 146 493 0
-11 149 494 0
-17 152 495 0
-23 155 496 0
-29 158 497 0
-35 161 498 0
-6 164 499 0
-12 167 500 0
-18 170 501 0
-24 173 502 0
-30 176 503 0
-36 179 504 0
-469 1 0
-470 7 0
-471 13 0
-472 19 0
-473 25 0
-474 31 0
-475 2 0
-476 8 0
-477 14 0
-478 20 0
-479 26 0
-480 32 0
-481 3 0
-482 9 0
-483 15 0
-484 21 0
-485 27 0
-486 33 0
-487 4 0
-488 10 0
-489 16 0
-490 22 0
-491 28 0
-492 34 0
-493 5 0
-494 11 0
-495 17 0
-496 23 0
-497 29 0
-498 35 0
-499 6 0
-500 12 0
-501 18 0
-502 24 0
-503 30 0
-504 36 0
-469 -74 0
-470 -77 0
-471 -80 0
-472 -83 0
-473 -86 0
-474 -89 0
-475 -92 0
-476 -95 0
-477 -98 0
-478 -101 0
-479 -104 0
-480 -107 0
-481 -110 0
-482 -113 0
-483 -116 0
-484 -119 0
-485 -122 0
-486 -125 0
-487 -128 0
-488 -131 0
-489 -134 0
-490 -137 0
-491 -140 0
-492 -143 0
-493 -146 0
-494 -149 0
-495 -152 0
-496 -155 0
-497 -158 0
-498 -161 0
-499 -164 0
-500 -167 0
-501 -170 0
-502 -173 0
-503 -176 0
-504 -179 0
-73 469 -505 0
-76 470 -506 0
-79 471 -507 0
-82 472 -508 0
-85 473 -509 0
-88 474 -510 0
-91 475 -511 0
-94 476 -512 0
-97 477 -513 0
-100 478 -514 0
-103 479 -515 0
-106 480 -516 0
-109 481 -517 0
-112 482 -518 0
-115 483 -519 0
-118 484 -520 0
-121 485 -521 0
-124 486 -522 0
-127 487 -523 0
-130 488 -524 0
-133 489 -525 0
-136 490 -526 0
-139 491 -527 0
-142 492 -528 0
-145 493 -529 0
-148 494 -530 0
-151 495 -531 0
-154 496 -532 0
-157 497 -533 0
-160 498 -534 0
-163 499 -535 0
-166 500 -536 0
-169 501 -537 0
-172 502 -538 0
-175 503 -539 0
-178 504 -540 0
505 73 0
506 76 0
507 79 0
508 82 0
509 85 0
510 88 0
511 91 0
512 94 0
513 97 0
514 100 0
515 103 0
516 106 0
517 109 0
518 112 0
519 115 0
520 118 0
521 121 0
522 124 0
523 127 0
524 130 0
525 133 0
526 136 0
527 139 0
528 142 0
529 145 0
530 148 0
531 151 0
532 154 0
533 157 0
534 160 0
535 163 0
536 166 0
537 169 0
538 172 0
539 175 0
540 178 0
505 -469 0
506 -470 0
507 -471 0
508 -472 0
509 -473 0
510 -474 0
511 -475 0
512 -476 0
513 -477 0
514 -478 0
515 -479 0
516 -480 0
517 -481 0
518 -482 0
519 -483 0
520 -484 0
521 -485 0
522 -486 0
523 -487 0
524 -488 0
525 -489 0
526 -490 0
527 -491 0
528 -492 0
529 -493 0
530 -494 0
531 -495 0
532 -496 0
533 -497 0
534 -498 0
535 -499 0
536 -500 0
537 -501 0
538 -502 0
539 -503 0
540 -504 0
1 -37 -75 -182 -290 -361 -433 -505 541 0
8 -38 -78 -184 -292 -362 -434 -506 542 0
15 -39 -81 -186 -294 -363 -435 -507 543 0
22 -40 -84 -188 -296 -364 -436 -508 544 0
29 -41 -87 -190 -298 -365 -437 -509 545 0
36 -42 -90 -192 -300 -366 -438 -510 546 0
1 -43 -93 -194 -302 -367 -439 -511 547 0
8 -44 -96 -196 -304 -368 -440 -512 548 0
15 -45 -99 -198 -306 -369 -441 -513 549 0
22 -46 -102 -200 -308 -370 -442 -514 550 0
29 -47 -105 -202 -310 -371 -443 -515 551 0
36 -48 -108 -204 -312 -372 -444 -516 552 0
1 -49 -111 -206 -314 -373 -445 -517 553 0
8 -50 -114 -208 -316 -374 -446 -518 554 0
15 -51 -117 -210 -318 -375 -447 -519 555 0
22 -52 -120 -212 -320 -376 -448 -520 556 0
29 -53 -123 -214 -322 -377 -449 -521 557 0
36 -54 -126 -216 -324 -378 -450 -522 558 0
1 -55 -129 -218 -326 -379 -451 -523 559 0
8 -56 -132 -220 -328 -380 -452 -524 560 0
15 -57 -135 -222 -330 -381 -453 -525 561 0
22 -58 -138 -224 -332 -382 -454 -526 562 0
29 -59 -141 -226 -334 -383 -455 -527 563 0
36 -60 -144 -228 -336 -384 -456 -528 564 0
1 -61 -147 -230 -338 -385 -457 -529 565 0
8 -62 -150 -232 -340 -386 -458 -530 566 0
15 -63 -153 -234 -342 -387 -459 -531 567 0
22 -64 -156 -236 -344 -388 -460 -532 568 0
29 -65 -159 -238 -346 -389 -461 -533 569 0
36 -66 -162 -240 -348 -390 -462 -534 570 0
1 -67 -165 -242 -350 -391 -463 -535 571 0
8 -68 -168 -244 -352 -392 -464 -536 572 0
15 -69 -171 -246 -354 -393 -465 -537 573 0
22 -70 -174 -248 -356 -394 -466 -538 574 0
29 -71 -177 -250 -358 -395 -467 -539 575 0
36 -72 -180 -252 -360 -396 -468 -540 576 0
-541 -1 0
-542 -8 0
-543 -15 0
-544 -22 0
-545 -29 0
-546 -36 0
-547 -1 0
-548 -8 0
-549 -15 0
-550 -22 0
-551 -29 0
-552 -36 0
-553 -1 0
-554 -8 0
-555 -15 0
-556 -22 0
-557 -29 0
-558 -36 0
-559 -1 0
-560 -8 0
-561 -15 0
-562 -22 0
-563 -29 0
-564 -36 0
-565 -1 0
-566 -8 0
-567 -15 0
-568 -22 0
-569 -29 0
-570 -36 0
-571 -1 0
-572 -8 0
-573 -15 0
-574 -22 0
-575 -29 0
-576 -36 0
-541 37 0
-542 38 0
-543 39 0
-544 40 0
-545 41 0
-546 42 0
-547 43 0
-548 44 0
-549 45 0
-550 46 0
-551 47 0
-552 48 0
-553 49 0
-554 50 0
-555 51 0
-556 52 0
-557 53 0
-558 54 0
-559 55 0
-560 56 0
-561 57 0
-562 58 0
-563 59 0
-564 60 0
-565 61 0
-566 62 0
-567 63 0
-568 64 0
-569 65 0
-570 66 0
-571 67 0
-572 68 0
-573 69 0
-574 70 0
-575 71 0
-576 72 0
-541 75 0
-542 78 0
-543 81 0
-544 84 0
-545 87 0
-546 90 0
-547 93 0
-548 96 0
-549 99 0
-550 102 0
-551 105 0
-552 108 0
-553 111 0
-554 114 0
-555 117 0
-556 120 0
-557 123 0
-558 126 0
-559 129 0
-560 132 0
-561 135 0
-562 138 0
-563 141 0
-564 144 0
-565 147 0
-566 150 0
-567 153 0
-568 156 0
-569 159 0
-570 162 0
-571 165 0
-572 168 0
-573 171 0
-574 174 0
-575 177 0
-576 180 0
-541 182 0
-542 184 0
-543 186 0
-544 188 0
-545 190 0
-546 192 0
-547 194 0
-548 196 0
-549 198 0
-550 200 0
-551 202 0
-552 204 0
-553 206 0
-554 208 0
-555 210 0
-556 212 0
-557 214 0
-558 216 0
-559 218 0
-560 220 0
-561 222 0
-562 224 0
-563 226 0
-564 228 0
-565 230 0
-566 232 0
-567 234 0
-568 236 0
-569 238 0
-570 240 0
-571 242 0
-572 244 0
-573 246 0
-574 248 0
-575 250 0
-576 252 0
-541 290 0
-542 292 0
-543 294 0
-544 296 0
-545 298 0
-546 300 0
-547 302 0
-548 304 0
-549 306 0
-550 308 0
-551 310 0
-552 312 0
-553 314 0
-554 316 0
-555 318 0
-556 320 0
-557 322 0
-558 324 0
-559 326 0
-560 328 0
-561 330 0
-562 332 0
-563 334 0
-564 336 0
-565 338 0
-566 340 0
-567 342 0
-568 344 0
-569 346 0
-570 348 0
-571 350 0
-572 352 0
-573 354 0
-574 356 0
-575 358 0
-576 360 0
-541 361 0
-542 362 0
-543 363 0
-544 364 0
-545 365 0
-546 366 0
-547 367 0
-548 368 0
-549 369 0
-550 370 0
-551 371 0
-552 372 0
-553 373 0
-554 374 0
-555 375 0
-556 376 0
-557 377 0
-558 378 0
-559 379 0
-560 380 0
-561 381 0
-562 382 0
-563 383 0
-564 384 0
-565 385 0
-566 386 0
-567 387 0
-568 388 0
-569 389 0
-570 390 0
-571 391 0
-572 392 0
-573 393 0
-574 394 0
-575 395 0
-576 396 0
-541 433 0
-542 434 0
-543 435 0
-544 436 0
-545 437 0
-546 438 0
-547 439 0
-548 440 0
-549 441 0
-550 442 0
-551 443 0
-552 444 0
-553 445 0
-554 446 0
-555 447 0
-556 448 0
-557 449 0
-558 450 0
-559 451 0
-560 452 0
-561 453 0
-562 454 0
-563 455 0
-564 456 0
-565 457 0
-566 458 0
-567 459 0
-568 460 0
-569 461 0
-570 462 0
-571 463 0
-572 464 0
-573 465 0
-574 466 0
-575 467 0
-576 468 0
-541 505 0
-542 506 0
-543 507 0
-544 508 0
-545 509 0
-546 510 0
-547 511 0
-548 512 0
-549 513 0
-550 514 0
-551 515 0
-552 516 0
-553 517 0
-554 518 0
-555 519 0
-556 520 0
-557 521 0
-558 522 0
-559 523 0
-560 524 0
-561 525 0
-562 526 0
-563 527 0
-564 528 0
-565 529 0
-566 530 0
-567 531 0
-568 532 0
-569 533 0
-570 534 0
-571 535 0
-572 536 0
-573 537 0
-574 538 0
-575 539 0
-576 540 0
541 0
542 0
543 0
544 0
545 0
546 0
547 0
548 0
549 0
550 0
551 0
552 0
553 0
554 0
555 0
556 0
557 0
558 0
559 0
560 0
561 0
562 0
563 0
564 0
565 0
566 0
567 0
568 0
569 0
570 0
571 0
572 0
573 0
574 0
575 0
576 0
1 577 0
-577 578 0
2 -577 579 0
-579 580 0
3 -579 581 0
-581 582 0
4 -581 583 0
-583 584 0
5 -583 585 0
-585 586 0
6 -585 587 0
-587 588 0
7 -587 589 0
-589 590 0
8 -589 591 0
-591 592 0
9 -591 593 0
-593 594 0
10 -593 595 0
-595 596 0
11 -595 597 0
-597 598 0
12 -597 599 0
-599 600 0
13 -599 601 0
-601 602 0
14 -601 603 0
-603 604 0
15 -603 605 0
-605 606 0
16 -605 607 0
-607 608 0
17 -607 609 0
-609 610 0
18 -609 611 0
-611 612 0
19 -611 0
2 578 0
-578 613 0
3 -578 580 0
-580 614 0
4 -580 582 0
-582 615 0
5 -582 584 0
-584 616 0
6 -584 586 0
-586 617 0
7 -586 588 0
-588 618 0
8 -588 590 0
-590 619 0
9 -590 592 0
-592 620 0
10 -592 594 0
-594 621 0
11 -594 596 0
-596 622 0
12 -596 598 0
-598 623 0
13 -598 600 0
-600 624 0
14 -600 602 0
-602 625 0
15 -602 604 0
-604 626 0
16 -604 606 0
-606 627 0
17 -606 608 0
-608 628 0
18 -608 610 0
-610 629 0
19 -610 612 0
-612 630 0
20 -612 0
3 613 0
-613 631 0
4 -613 614 0
-614 632 0
5 -614 615 0
-615 633 0
6 -615 616 0
-616 634 0
7 -616 617 0
-617 635 0
8 -617 618 0
-618 636 0
9 -618 619 0
-619 637 0
10 -619 620 0
-620 638 0
11 -620 621 0
-621 639 0
12 -621 622 0
-622 640 0
13 -622 623 0
-623 641 0
14 -623 624 0
-624 642 0
15 -624 625 0
-625 643 0
16 -625 626 0
-626 644 0
17 -626 627 0
-627 645 0
18 -627 628 0
-628 646 0
19 -628 629 0
-629 647 0
20 -629 630 0
-630 648 0
21 -630 0
4 631 0
-631 649 0
5 -631 632 0
-632 650 0
6 -632 633 0
-633 651 0
7 -633 634 0
-634 652 0
8 -634 635 0
-635 653 0
9 -635 636 0
-636 654 0
10 -636 637 0
-637 655 0
11 -637 638 0
-638 656 0
12 -638 639 0
-639 657 0
13 -639 640 0
-640 658 0
14 -640 641 0
-641 659 0
15 -641 642 0
-642 660 0
16 -642 643 0
-643 661 0
17 -643 644 0
-644 662 0
18 -644 645 0
-645 663 0
19 -645 646 0
-646 664 0
20 -646 647 0
-647 665 0
21 -647 648 0
-648 666 0
22 -648 0
5 649 0
-649 667 0
6 -649 650 0
-650 668 0
7 -650 651 0
-651 669 0
8 -651 652 0
-652 670 0
9 -652 653 0
-653 671 0
10 -653 654 0
-654 672 0
11 -654 655 0
-655 673 0
12 -655 656 0
-656 674 0
13 -656 657 0
-657 675 0
14 -657 658 0
-658 676 0
15 -658 659 0
-659 677 0
16 -659 660 0
-660 678 0
17 -660 661 0
-661 679 0
18 -661 662 0
-662 680 0
19 -662 663 0
-663 681 0
20 -663 664 0
-664 682 0
21 -664 665 0
-665 683 0
22 -665 666 0
-666 684 0
23 -666 0
6 667 0
-667 685 0
7 -667 668 0
-668 686 0
8 -668 669 0
-669 687 0
9 -669 670 0
-670 688 0
10 -670 671 0
-671 689 0
11 -671 672 0
-672 690 0
12 -672 673 0
-673 691 0
13 -673 674 0
-674 692 0
14 -674 675 0
-675 693 0
15 -675 676 0
-676 694 0
16 -676 677 0
-677 695 0
17 -677 678 0
-678 696 0
18 -678 679 0
-679 697 0
19 -679 680 0
-680 698 0
20 -680 681 0
-681 699 0
21 -681 682 0
-682 700 0
22 -682 683 0
-683 701 0
23 -683 684 0
-684 702 0
24 -684 0
7 685 0
-685 703 0
8 -685 686 0
-686 704 0
9 -686 687 0
-687 705 0
10 -687 688 0
-688 706 0
11 -688 689 0
-689 707 0
12 -689 690 0
-690 708 0
13 -690 691 0
-691 709 0
14 -691 692 0
-692 710 0
15 -692 693 0
-693 711 0
16 -693 694 0
-694 712 0
17 -694 695 0
-695 713 0
18 -695 696 0
-696 714 0
19 -696 697 0
-697 715 0
20 -697 698 0
-698 716 0
21 -698 699 0
-699 717 0
22 -699 700 0
-700 718 0
23 -700 701 0
-701 719 0
24 -701 702 0
-702 720 0
25 -702 0
8 703 0
-703 721 0
9 -703 704 0
-704 722 0
10 -704 705 0
-705 723 0
11 -705 706 0
-706 724 0
12 -706 707 0
-707 725 0
13 -707 708 0
-708 726 0
14 -708 709 0
-709 727 0
15 -709 710 0
-710 728 0
16 -710 711 0
-711 729 0
17 -711 712 0
-712 730 0
18 -712 713 0
-713 731 0
19 -713 714 0
-714 732 0
20 -714 715 0
-715 733 0
21 -715 716 0
-716 734 0
22 -716 717 0
-717 735 0
23 -717 718 0
-718 736 0
24 -718 719 0
-719 737 0
25 -719 720 0
-720 738 0
26 -720 0
9 721 0
-721 739 0
10 -721 722 0
-722 740 0
11 -722 723 0
-723 741 0
12 -723 724 0
-724 742 0
13 -724 725 0
-725 743 0
14 -725 726 0
-726 744 0
15 -726 727 0
-727 745 0
16 -727 728 0
-728 746 0
17 -728 729 0
-729 747 0
18 -729 730 0
-730 748 0
19 -730 731 0
-731 749 0
20 -731 732 0
-732 750 0
21 -732 733 0
-733 751 0
22 -733 734 0
-734 752 0
23 -734 735 0
-735 753 0
24 -735 736 0
-736 754 0
25 -736 737 0
-737 755 0
26 -737 738 0
-738 756 0
27 -738 0
10 739 0
-739 757 0
11 -739 740 0
-740 758 0
12 -740 741 0
-741 759 0
13 -741 742 0
-742 760 0
14 -742 743 0
-743 761 0
15 -743 744 0
-744 762 0
16 -744 745 0
-745 763 0
17 -745 746 0
-746 764 0
18 -746 747 0
-747 765 0
19 -747 748 0
-748 766 0
20 -748 749 0
-749 767 0
21 -749 750 0
-750 768 0
22 -750 751 0
-751 769 0
23 -751 752 0
-752 770 0
24 -752 753 0
-753 771 0
25 -753 754 0
-754 772 0
26 -754 755 0
-755 773 0
27 -755 756 0
-756 774 0
28 -756 0
11 757 0
-757 775 0
12 -757 758 0
-758 776 0
13 -758 759 0
-759 777 0
14 -759 760 0
-760 778 0
15 -760 761 0
-761 779 0
16 -761 762 0
-762 780 0
17 -762 763 0
-763 781 0
18 -763 764 0
-764 782 0
19 -764 765 0
-765 783 0
20 -765 766 0
-766 784 0
21 -766 767 0
-767 785 0
22 -767 768 0
-768 786 0
23 -768 769 0
-769 787 0
24 -769 770 0
-770 788 0
25 -770 771 0
-771 789 0
26 -771 772 0
-772 790 0
27 -772 773 0
-773 791 0
28 -773 774 0
-774 792 0
29 -774 0
12 775 0
-775 793 0
13 -775 776 0
-776 794 0
14 -776 777 0
-777 795 0
15 -777 778 0
-778 796 0
16 -778 779 0
-779 797 0
17 -779 780 0
-780 798 0
18 -780 781 0
-781 799 0
19 -781 782 0
-782 800 0
20 -782 783 0
-783 801 0
21 -783 784 0
-784 802 0
22 -784 785 0
-785 803 0
23 -785 786 0
-786 804 0
24 -786 787 0
-787 805 0
25 -787 788 0
-788 806 0
26 -788 789 0
-789 807 0
27 -789 790 0
-790 808 0
28 -790 791 0
-791 809 0
29 -791 792 0
-792 810 0
30 -792 0
13 793 0
-793 811 0
14 -793 794 0
-794 812 0
15 -794 795 0
-795 813 0
16 -795 796 0
-796 814 0
17 -796 797 0
-797 815 0
18 -797 798 0
-798 816 0
19 -798 799 0
-799 817 0
20 -799 800 0
-800 818 0
21 -800 801 0
-801 819 0
22 -801 802 0
-802 820 0
23 -802 803 0
-803 821 0
24 -803 804 0
-804 822 0
25 -804 805 0
-805 823 0
26 -805 806 0
-806 824 0
27 -806 807 0
-807 825 0
28 -807 808 0
-808 826 0
29 -808 809 0
-809 827 0
30 -809 810 0
-810 828 0
31 -810 0
14 811 0
-811 829 0
15 -811 812 0
-812 830 0
16 -812 813 0
-813 831 0
17 -813 814 0
-814 832 0
18 -814 815 0
-815 833 0
19 -815 816 0
-816 834 0
20 -816 817 0
-817 835 0
21 -817 818 0
-818 836 0
22 -818 819 0
-819 837 0
23 -819 820 0
-820 838 0
24 -820 821 0
-821 839 0
25 -821 822 0
-822 840 0
26 -822 823 0
-823 841 0
27 -823 824 0
-824 842 0
28 -824 825 0
-825 843 0
29 -825 826 0
-826 844 0
30 -826 827 0
-827 845 0
31 -827 828 0
-828 846 0
32 -828 0
15 829 0
-829 847 0
16 -829 830 0
-830 848 0
17 -830 831 0
-831 849 0
18 -831 832 0
-832 850 0
19 -832 833 0
-833 851 0
20 -833 834 0
-834 852 0
21 -834 835 0
-835 853 0
22 -835 836 0
-836 854 0
23 -836 837 0
-837 855 0
24 -837 838 0
-838 856 0
25 -838 839 0
-839 857 0
26 -839 840 0
-840 858 0
27 -840 841 0
-841 859 0
28 -841 842 0
-842 860 0
29 -842 843 0
-843 861 0
30 -843 844 0
-844 862 0
31 -844 845 0
-845 863 0
32 -845 846 0
-846 864 0
33 -846 0
16 847 0
-847 865 0
17 -847 848 0
-848 866 0
18 -848 849 0
-849 867 0
19 -849 850 0
-850 868 0
20 -850 851 0
-851 869 0
21 -851 852 0
-852 870 0
22 -852 853 0
-853 871 0
23 -853 854 0
-854 872 0
24 -854 855 0
-855 873 0
25 -855 856 0
-856 874 0
26 -856 857 0
-857 875 0
27 -857 858 0
-858 876 0
28 -858 859 0
-859 877 0
29 -859 860 0
-860 878 0
30 -860 861 0
-861 879 0
31 -861 862 0
-862 880 0
32 -862 863 0
-863 881 0
33 -863 864 0
-864 882 0
34 -864 0
17 865 0
-865 883 0
18 -865 866 0
-866 884 0
19 -866 867 0
-867 885 0
20 -867 868 0
-868 886 0
21 -868 869 0
-869 887 0
22 -869 870 0
-870 888 0
23 -870 871 0
-871 889 0
24 -871 872 0
-872 890 0
25 -872 873 0
-873 891 0
26 -873 874 0
-874 892 0
27 -874 875 0
-875 893 0
28 -875 876 0
-876 894 0
29 -876 877 0
-877 895 0
30 -877 878 0
-878 896 0
31 -878 879 0
-879 897 0
32 -879 880 0
-880 898 0
33 -880 881 0
-881 899 0
34 -881 882 0
-882 900 0
35 -882 0
18 883 0
19 -883 884 0
20 -884 885 0
21 -885 886 0
22 -886 887 0
23 -887 888 0
24 -888 889 0
25 -889 890 0
26 -890 891 0
27 -891 892 0
28 -892 893 0
29 -893 894 0
30 -894 895 0
31 -895 896 0
32 -896 897 0
33 -897 898 0
34 -898 899 0
35 -899 900 0
36 -900 0
-1 901 0
-901 902 0
-2 -901 903 0
-903 904 0
-3 -903 905 0
-905 906 0
-4 -905 907 0
-907 908 0
-5 -907 909 0
-909 910 0
-6 -909 911 0
-911 912 0
-7 -911 913 0
-913 914 0
-8 -913 915 0
-915 916 0
-9 -915 917 0
-917 918 0
-10 -917 919 0
-919 920 0
-11 -919 921 0
-921 922 0
-12 -921 923 0
-923 924 0
-13 -923 925 0
-925 926 0
-14 -925 927 0
-927 928 0
-15 -927 929 0
-929 930 0
-16 -929 931 0
-931 932 0
-17 -931 933 0
-933 934 0
-18 -933 935 0
-935 936 0
-19 -935 0
-2 902 0
-902 937 0
-3 -902 904 0
-904 938 0
-4 -904 906 0
-906 939 0
-5 -906 908 0
-908 940 0
-6 -908 910 0
-910 941 0
-7 -910 912 0
-912 942 0
-8 -912 914 0
-914 943 0
-9 -914 916 0
-916 944 0
-10 -916 918 0
-918 945 0
-11 -918 920 0
-920 946 0
-12 -920 922 0
-922 947 0
-13 -922 924 0
-924 948 0
-14 -924 926 0
-926 949 0
-15 -926 928 0
-928 950 0
-16 -928 930 0
-930 951 0
-17 -930 932 0
-932 952 0
-18 -932 934 0
-934 953 0
-19 -934 936 0
-936 954 0
-20 -936 0
-3 937 0
-937 955 0
-4 -937 938 0
-938 956 0
-5 -938 939 0
-939 957 0
-6 -939 940 0
-940 958 0
-7 -940 941 0
-941 959 0
-8 -941 942 0
-942 960 0
-9 -942 943 0
-943 961 0
-10 -943 944 0
-944 962 0
-11 -944 945 0
-945 963 0
-12 -945 946 0
-946 964 0
-13 -946 947 0
-947 965 0
-14 -947 948 0
-948 966 0
-15 -948 949 0
-949 967 0
-16 -949 950 0
-950 968 0
-17 -950 951 0
-951 969 0
-18 -951 952 0
-952 970 0
-19 -952 953 0
-953 971 0
-20 -953 954 0
-954 972 0
-21 -954 0
-4 955 0
-955 973 0
-5 -955 956 0
-956 974 0
-6 -956 957 0
-957 975 0
-7 -957 958 0
-958 976 0
-8 -958 959 0
-959 977 0
-9 -959 960 0
-960 978 0
-10 -960 961 0
-961 979 0
-11 -961 962 0
-962 980 0
-12 -962 963 0
-963 981 0
-13 -963 964 0
-964 982 0
-14 -964 965 0
-965 983 0
-15 -965 966 0
-966 984 0
-16 -966 967 0
-967 985 0
-17 -967 968 0
-968 986 0
-18 -968 969 0
-969 987 0
-19 -969 970 0
-970 988 0
-20 -970 971 0
-971 989 0
-21 -971 972 0
-972 990 0
-22 -972 0
-5 973 0
-973 991 0
-6 -973 974 0
-974 992 0
-7 -974 975 0
-975 993 0
-8 -975 976 0
-976 994 0
-9 -976 977 0
-977 995 0
-10 -977 978 0
-978 996 0
-11 -978 979 0
-979 997 0
-12 -979 980 0
-980 998 0
-13 -980 981 0
-981 999 0
-14 -981 982 0
-982 1000 0
-15 -982 983 0
-983 1001 0
-16 -983 984 0
-984 1002 0
-17 -984 985 0
-985 1003 0
-18 -985 986 0
-986 1004 0
-19 -986 987 0
-987 1005 0
-20 -987 988 0
-988 1006 0
-21 -988 989 0
-989 1007 0
-22 -989 990 0
-990 1008 0
-23 -990 0
-6 991 0
-991 1009 0
-7 -991 992 0
-992 1010 0
-8 -992 993 0
-993 1011 0
-9 -993 994 0
-994 1012 0
-10 -994 995 0
-995 1013 0
-11 -995 996 0
-996 1014 0
-12 -996 997 0
-997 1015 0
-13 -997 998 0
-998 1016 0
-14 -998 999 0
-999 1017 0
-15 -999 1000 0
-1000 1018 0
-16 -1000 1001 0
-1001 1019 0
-17 -1001 1002 0
-1002 1020 0
-18 -1002 1003 0
-1003 1021 0
-19 -1003 1004 0
-1004 1022 0
-20 -1004 1005 0
-1005 1023 0
-21 -1005 1006 0
-1006 1024 0
-22 -1006 1007 0
-1007 1025 0
-23 -1007 1008 0
-1008 1026 0
-24 -1008 0
-7 1009 0
-1009 1027 0
-8 -1009 1010 0
-1010 1028 0
-9 -1010 1011 0
-1011 1029 0
-10 -1011 1012 0
-1012 1030 0
-11 -1012 1013 0
-1013 1031 0
-12 -1013 1014 0
-1014 1032 0
-13 -1014 1015 0
-1015 1033 0
-14 -1015 1016 0
-1016 1034 0
-15 -1016 1017 0
-1017 1035 0
-16 -1017 1018 0
-1018 1036 0
-17 -1018 1019 0
-1019 1037 0
-18 -1019 1020 0
-1020 1038 0
-19 -1020 1021 0
-1021 1039 0
-20 -1021 1022 0
-1022 1040 0
-21 -1022 1023 0
-1023 1041 0
-22 -1023 1024 0
-1024 1042 0
-23 -1024 1025 0
-1025 1043 0
-24 -1025 1026 0
-1026 1044 0
-25 -1026 0
-8 1027 0
-1027 1045 0
-9 -1027 1028 0
-1028 1046 0
-10 -1028 1029 0
-1029 1047 0
-11 -1029 1030 0
-1030 1048 0
-12 -1030 1031 0
-1031 1049 0
-13 -1031 1032 0
-1032 1050 0
-14 -1032 1033 0
-1033 1051 0
-15 -1033 1034 0
-1034 1052 0
-16 -1034 1035 0
-1035 1053 0
-17 -1035 1036 0
-1036 1054 0
-18 -1036 1037 0
-1037 1055 0
-19 -1037 1038 0
-1038 1056 0
-20 -1038 1039 0
-1039 1057 0
-21 -1039 1040 0
-1040 1058 0
-22 -1040 1041 0
-1041 1059 0
-23 -1041 1042 0
-1042 1060 0
-24 -1042 1043 0
-1043 1061 0
-25 -1043 1044 0
-1044 1062 0
-26 -1044 0
-9 1045 0
-1045 1063 0
-10 -1045 1046 0
-1046 1064 0
-11 -1046 1047 0
-1047 1065 0
-12 -1047 1048 0
-1048 1066 0
-13 -1048 1049 0
-1049 1067 0
-14 -1049 1050 0
-1050 1068 0
-15 -1050 1051 0
-1051 1069 0
-16 -1051 1052 0
-1052 1070 0
-17 -1052 1053 0
-1053 1071 0
-18 -1053 1054 0
-1054 1072 0
-19 -1054 1055 0
-1055 1073 0
-20 -1055 1056 0
-1056 1074 0
-21 -1056 1057 0
-1057 1075 0
-22 -1057 1058 0
-1058 1076 0
-23 -1058 1059 0
-1059 1077 0
-24 -1059 1060 0
-1060 1078 0
-25 -1060 1061 0
-1061 1079 0
-26 -1061 1062 0
-1062 1080 0
-27 -1062 0
-10 1063 0
-1063 1081 0
-11 -1063 1064 0
-1064 1082 0
-12 -1064 1065 0
-1065 1083 0
-13 -1065 1066 0
-1066 1084 0
-14 -1066 1067 0
-1067 1085 0
-15 -1067 1068 0
-1068 1086 0
-16 -1068 1069 0
-1069 1087 0
-17 -1069 1070 0
-1070 1088 0
-18 -1070 1071 0
-1071 1089 0
-19 -1071 1072 0
-1072 1090 0
-20 -1072 1073 0
-1073 1091 0
-21 -1073 1074 0
-1074 1092 0
-22 -1074 1075 0
-1075 1093 0
-23 -1075 1076 0
-1076 1094 0
-24 -1076 1077 0
-1077 1095 0
-25 -1077 1078 0
-1078 1096 0
-26 -1078 1079 0
-1079 1097 0
-27 -1079 1080 0
-1080 1098 0
-28 -1080 0
-11 1081 0
-1081 1099 0
-12 -1081 1082 0
-1082 1100 0
-13 -1082 1083 0
-1083 1101 0
-14 -1083 1084 0
-1084 1102 0
-15 -1084 1085 0
-1085 1103 0
-16 -1085 1086 0
-1086 1104 0
-17 -1086 1087 0
-1087 1105 0
-18 -1087 1088 0
-1088 1106 0
-19 -1088 1089 0
-1089 1107 0
-20 -1089 1090 0
-1090 1108 0
-21 -1090 1091 0
-1091 1109 0
-22 -1091 1092 0
-1092 1110 0
-23 -1092 1093 0
-1093 1111 0
-24 -1093 1094 0
-1094 1112 0
-25 -1094 1095 0
-1095 1113 0
-26 -1095 1096 0
-1096 1114 0
-27 -1096 1097 0
-1097 1115 0
-28 -1097 1098 0
-1098 1116 0
-29 -1098 0
-12 1099 0
-1099 1117 0
-13 -1099 1100 0
-1100 1118 0
-14 -1100 1101 0
-1101 1119 0
-15 -1101 1102 0
-1102 1120 0
-16 -1102 1103 0
-1103 1121 0
-17 -1103 1104 0
-1104 1122 0
-18 -1104 1105 0
-1105 1123 0
-19 -1105 1106 0
-1106 1124 0
-20 -1106 1107 0
-1107 1125 0
-21 -1107 1108 0
-1108 1126 0
-22 -1108 1109 0
-1109 1127 0
-23 -1109 1110 0
-1110 1128 0
-24 -1110 1111 0
-1111 1129 0
-25 -1111 1112 0
-1112 1130 0
-26 -1112 1113 0
-1113 1131 0
-27 -1113 1114 0
-1114 1132 0
-28 -1114 1115 0
-1115 1133 0
-29 -1115 1116 0
-1116 1134 0
-30 -1116 0
-13 1117 0
-1117 1135 0
-14 -1117 1118 0
-1118 1136 0
-15 -1118 1119 0
-1119 1137 0
-16 -1119 1120 0
-1120 1138 0
-17 -1120 1121 0
-1121 1139 0
-18 -1121 1122 0
-1122 1140 0
-19 -1122 1123 0
-1123 1141 0
-20 -1123 1124 0
-1124 1142 0
-21 -1124 1125 0
-1125 1143 0
-22 -1125 1126 0
-1126 1144 0
-23 -1126 1127 0
-1127 1145 0
-24 -1127 1128 0
-1128 1146 0
-25 -1128 1129 0
-1129 1147 0
-26 -1129 1130 0
-1130 1148 0
-27 -1130 1131 0
-1131 1149 0
-28 -1131 1132 0
-1132 1150 0
-29 -1132 1133 0
-1133 1151 0
-30 -1133 1134 0
-1134 1152 0
-31 -1134 0
-14 1135 0
-1135 1153 0
-15 -1135 1136 0
-1136 1154 0
-16 -1136 1137 0
-1137 1155 0
-17 -1137 1138 0
-1138 1156 0
-18 -1138 1139 0
-1139 1157 0
-19 -1139 1140 0
-1140 1158 0
-20 -1140 1141 0
-1141 1159 0
-21 -1141 1142 0
-1142 1160 0
-22 -1142 1143 0
-1143 1161 0
-23 -1143 1144 0
-1144 1162 0
-24 -1144 1145 0
-1145 1163 0
-25 -1145 1146 0
-1146 1164 0
-26 -1146 1147 0
-1147 1165 0
-27 -1147 1148 0
-1148 1166 0
-28 -1148 1149 0
-1149 1167 0
-29 -1149 1150 0
-1150 1168 0
-30 -1150 1151 0
-1151 1169 0
-31 -1151 1152 0
-1152 1170 0
-32 -1152 0
-15 1153 0
-1153 1171 0
-16 -1153 1154 0
-1154 1172 0
-17 -1154 1155 0
-1155 1173 0
-18 -1155 1156 0
-1156 1174 0
-19 -1156 1157 0
-1157 1175 0
-20 -1157 1158 0
-1158 1176 0
-21 -1158 1159 0
-1159 1177 0
-22 -1159 1160 0
-1160 1178 0
-23 -1160 1161 0
-1161 1179 0
-24 -1161 1162 0
-1162 1180 0
-25 -1162 1163 0
-1163 1181 0
-26 -1163 1164 0
-1164 1182 0
-27 -1164 1165 0
-1165 1183 0
-28 -1165 1166 0
-1166 1184 0
-29 -1166 1167 0
-1167 1185 0
-30 -1167 1168 0
-1168 1186 0
-31 -1168 1169 0
-1169 1187 0
-32 -1169 1170 0
-1170 1188 0
-33 -1170 0
-16 1171 0
-1171 1189 0
-17 -1171 1172 0
-1172 1190 0
-18 -1172 1173 0
-1173 1191 0
-19 -1173 1174 0
-1174 1192 0
-20 -1174 1175 0
-1175 1193 0
-21 -1175 1176 0
-1176 1194 0
-22 -1176 1177 0
-1177 1195 0
-23 -1177 1178 0
-1178 1196 0
-24 -1178 1179 0
-1179 1197 0
-25 -1179 1180 0
-1180 1198 0
-26 -1180 1181 0
-1181 1199 0
-27 -1181 1182 0
-1182 1200 0
-28 -1182 1183 0
-1183 1201 0
-29 -1183 1184 0
-1184 1202 0
-30 -1184 1185 0
-1185 1203 0
-31 -1185 1186 0
-1186 1204 0
-32 -1186 1187 0
-1187 1205 0
-33 -1187 1188 0
-1188 1206 0
-34 -1188 0
-17 1189 0
-1189 1207 0
-18 -1189 1190 0
-1190 1208 0
-19 -1190 1191 0
-1191 1209 0
-20 -1191 1192 0
-1192 1210 0
-21 -1192 1193 0
-1193 1211 0
-22 -1193 1194 0
-1194 1212 0
-23 -1194 1195 0
-1195 1213 0
-24 -1195 1196 0
-1196 1214 0
-25 -1196 1197 0
-1197 1215 0
-26 -1197 1198 0
-1198 1216 0
-27 -1198 1199 0
-1199 1217 0
-28 -1199 1200 0
-1200 1218 0
-29 -1200 1201 0
-1201 1219 0
-30 -1201 1202 0
-1202 1220 0
-31 -1202 1203 0
-1203 1221 0
-32 -1203 1204 0
-1204 1222 0
-33 -1204 1205 0
-1205 1223 0
-34 -1205 1206 0
-1206 1224 0
-35 -1206 0
-18 1207 0
-19 -1207 1208 0
-20 -1208 1209 0
-21 -1209 1210 0
-22 -1210 1211 0
-23 -1211 1212 0
-24 -1212 1213 0
-25 -1213 1214 0
-26 -1214 1215 0
-27 -1215 1216 0
-28 -1216 1217 0
-29 -1217 1218 0
-30 -1218 1219 0
-31 -1219 1220 0
-32 -1220 1221 0
-33 -1221 1222 0
-34 -1222 1223 0
-35 -1223 1224 0
-36 -1224 0
1225 0
1226 1227 0
-1226 -1227 0
-1226 -1228 1229 0
-1226 -1230 1231 0
-1226 -1232 1233 0
-1226 -1234 1235 0
1229 1236 0
-1229 -1236 0
-1229 -1237 1226 0
-1229 -1238 1231 0
-1229 -1239 1233 0
-1229 -1240 1235 0
1231 1241 0
-1231 -1241 0
-1231 -1242 1226 0
-1231 -1243 1229 0
-1231 -1244 1233 0
-1231 -1245 1235 0
1233 1246 0
-1233 -1246 0
-1233 -1247 1226 0
-1233 -1248 1229 0
-1233 -1249 1231 0
-1233 -1250 1235 0
1235 1251 0
-1235 -1251 0
-1235 -1252 1226 0
-1235 -1253 1229 0
-1235 -1254 1231 0
-1235 -1255 1233 0
1256 0
1227 1226 0
-1227 -1226 0
-1227 -1229 1228 0
-1227 -1231 1230 0
-1227 -1233 1232 0
-1227 -1235 1234 0
1228 1237 0
-1228 -1237 0
-1228 -1236 1227 0
-1228 -1238 1230 0
-1228 -1239 1232 0
-1228 -1240 1234 0
1230 1242 0
-1230 -1242 0
-1230 -1241 1227 0
-1230 -1243 1228 0
-1230 -1244 1232 0
-1230 -1245 1234 0
1232 1247 0
-1232 -1247 0
-1232 -1246 1227 0
-1232 -1248 1228 0
-1232 -1249 1230 0
-1232 -1250 1234 0
1234 1252 0
-1234 -1252 0
-1234 -1251 1227 0
-1234 -1253 1228 0
-1234 -1254 1230 0
-1234 -1255 1232 0
1257 0
1236 1229 0
-1236 -1229 0
-1236 -1226 1237 0
-1236 -1231 1238 0
-1236 -1233 1239 0
-1236 -1235 1240 0
1237 1228 0
-1237 -1228 0
-1237 -1227 1236 0
-1237 -1230 1238 0
-1237 -1232 1239 0
-1237 -1234 1240 0
1238 1243 0
-1238 -1243 0
-1238 -1241 1236 0
-1238 -1242 1237 0
-1238 -1244 1239 0
-1238 -1245 1240 0
1239 1248 0
-1239 -1248 0
-1239 -1246 1236 0
-1239 -1247 1237 0
-1239 -1249 1238 0
-1239 -1250 1240 0
1240 1253 0
-1240 -1253 0
-1240 -1251 1236 0
-1240 -1252 1237 0
-1240 -1254 1238 0
-1240 -1255 1239 0
1258 0
1241 1231 0
-1241 -1231 0
-1241 -1226 1242 0
-1241 -1229 1243 0
-1241 -1233 1244 0
-1241 -1235 1245 0
1242 1230 0
-1242 -1230 0
-1242 -1227 1241 0
-1242 -1228 1243 0
-1242 -1232 1244 0
-1242 -1234 1245 0
1243 1238 0
-1243 -1238 0
-1243 -1236 1241 0
-1243 -1237 1242 0
-1243 -1239 1244 0
-1243 -1240 1245 0
1244 1249 0
-1244 -1249 0
-1244 -1246 1241 0
-1244 -1247 1242 0
-1244 -1248 1243 0
-1244 -1250 1245 0
1245 1254 0
-1245 -1254 0
-1245 -1251 1241 0
-1245 -1252 1242 0
-1245 -1253 1243 0
-1245 -1255 1244 0
1259 0
1246 1233 0
-1246 -1233 0
-1246 -1226 1247 0
-1246 -1229 1248 0
-1246 -1231 1249 0
-1246 -1235 1250 0
1247 1232 0
-1247 -1232 0
-1247 -1227 1246 0
-1247 -1228 1248 0
-1247 -1230 1249 0
-1247 -1234 1250 0
1248 1239 0
-1248 -1239 0
-1248 -1236 1246 0
-1248 -1237 1247 0
-1248 -1238 1249 0
-1248 -1240 1250 0
1249 1244 0
-1249 -1244 0
-1249 -1241 1246 0
-1249 -1242 1247 0
-1249 -1243 1248 0
-1249 -1245 1250 0
1250 1255 0
-1250 -1255 0
-1250 -1251 1246 0
-1250 -1252 1247 0
-1250 -1253 1248 0
-1250 -1254 1249 0
1260 0
1251 1235 0
-1251 -1235 0
-1251 -1226 1252 0
-1251 -1229 1253 0
-1251 -1231 1254 0
-1251 -1233 1255 0
1252 1234 0
-1252 -1234 0
-1252 -1227 1251 0
-1252 -1228 1253 0
-1252 -1230 1254 0
-1252 -1232 1255 0
1253 1240 0
-1253 -1240 0
-1253 -1236 1251 0
-1253 -1237 1252 0
-1253 -1238 1254 0
-1253 -1239 1255 0
1254 1245 0
-1254 -1245 0
-1254 -1241 1251 0
-1254 -1242 1252 0
-1254 -1243 1253 0
-1254 -1244 1255 0
1255 1250 0
-1255 -1250 0
-1255 -1246 1251 0
-1255 -1247 1252 0
-1255 -1248 1253 0
-1255 -1249 1254 0
-1261 0
-1262 1226 0
-1263 1229 0
-1263 1237 0
-1229 -1237 1263 0
-1264 1231 0
-1264 1242 0
-1231 -1242 1264 0
-1265 1233 0
-1265 1247 0
-1233 -1247 1265 0
-1266 1235 0
-1266 1252 0
-1235 -1252 1266 0
-1262 -1263 0
-1262 -1264 0
-1262 -1265 0
-1262 -1266 0
-1226 1262 1263 1264 1265 1266 0
-1267 1229 0
-1268 1226 0
-1268 1228 0
-1226 -1228 1268 0
-1269 1231 0
-1269 1243 0
-1231 -1243 1269 0
-1270 1233 0
-1270 1248 0
-1233 -1248 1270 0
-1271 1235 0
-1271 1253 0
-1235 -1253 1271 0
-1267 -1268 0
-1267 -1269 0
-1267 -1270 0
-1267 -1271 0
-1229 1267 1268 1269 1270 1271 0
-1272 1231 0
-1273 1226 0
-1273 1230 0
-1226 -1230 1273 0
-1274 1229 0
-1274 1238 0
-1229 -1238 1274 0
-1275 1233 0
-1275 1249 0
-1233 -1249 1275 0
-1276 1235 0
-1276 1254 0
-1235 -1254 1276 0
-1272 -1273 0
-1272 -1274 0
-1272 -1275 0
-1272 -1276 0
-1231 1272 1273 1274 1275 1276 0
-1277 1233 0
-1278 1226 0
-1278 1232 0
-1226 -1232 1278 0
-1279 1229 0
-1279 1239 0
-1229 -1239 1279 0
-1280 1231 0
-1280 1244 0
-1231 -1244 1280 0
-1281 1235 0
-1281 1255 0
-1235 -1255 1281 0
-1277 -1278 0
-1277 -1279 0
-1277 -1280 0
-1277 -1281 0
-1233 1277 1278 1279 1280 1281 0
-1282 1235 0
-1283 1226 0
-1283 1234 0
-1226 -1234 1283 0
-1284 1229 0
-1284 1240 0
-1229 -1240 1284 0
-1285 1231 0
-1285 1245 0
-1231 -1245 1285 0
-1286 1233 0
-1286 1250 0
-1233 -1250 1286 0
-1282 -1283 0
-1282 -1284 0
-1282 -1285 0
-1282 -1286 0
-1235 1282 1283 1284 1285 1286 0
-1287 1227 0
-1288 1228 0
-1288 1236 0
-1228 -1236 1288 0
-1289 1230 0
-1289 1241 0
-1230 -1241 1289 0
-1290 1232 0
-1290 1246 0
-1232 -1246 1290 0
-1291 1234 0
-1291 1251 0
-1234 -1251 1291 0
-1287 -1288 0
-1287 -1289 0
-1287 -1290 0
-1287 -1291 0
-1227 1287 1288 1289 1290 1291 0
-1292 0
-1293 1228 0
-1294 1227 0
-1294 1229 0
-1227 -1229 1294 0
-1295 1230 0
-1295 1243 0
-1230 -1243 1295 0
-1296 1232 0
-1296 1248 0
-1232 -1248 1296 0
-1297 1234 0
-1297 1253 0
-1234 -1253 1297 0
-1293 -1294 0
-1293 -1295 0
-1293 -1296 0
-1293 -1297 0
-1228 1293 1294 1295 1296 1297 0
-1298 1230 0
-1299 1227 0
-1299 1231 0
-1227 -1231 1299 0
-1300 1228 0
-1300 1238 0
-1228 -1238 1300 0
-1301 1232 0
-1301 1249 0
-1232 -1249 1301 0
-1302 1234 0
-1302 1254 0
-1234 -1254 1302 0
-1298 -1299 0
-1298 -1300 0
-1298 -1301 0
-1298 -1302 0
-1230 1298 1299 1300 1301 1302 0
-1303 1232 0
-1304 1227 0
-1304 1233 0
-1227 -1233 1304 0
-1305 1228 0
-1305 1239 0
-1228 -1239 1305 0
-1306 1230 0
-1306 1244 0
-1230 -1244 1306 0
-1307 1234 0
-1307 1255 0
-1234 -1255 1307 0
-1303 -1304 0
-1303 -1305 0
-1303 -1306 0
-1303 -1307 0
-1232 1303 1304 1305 1306 1307 0
-1308 1234 0
-1309 1227 0
-1309 1235 0
-1227 -1235 1309 0
-1310 1228 0
-1310 1240 0
-1228 -1240 1310 0
-1311 1230 0
-1311 1245 0
-1230 -1245 1311 0
-1312 1232 0
-1312 1250 0
-1232 -1250 1312 0
-1308 -1309 0
-1308 -1310 0
-1308 -1311 0
-1308 -1312 0
-1234 1308 1309 1310 1311 1312 0
-1313 1236 0
-1314 1237 0
-1314 1227 0
-1237 -1227 1314 0
-1315 1238 0
-1315 1241 0
-1238 -1241 1315 0
-1316 1239 0
-1316 1246 0
-1239 -1246 1316 0
-1317 1240 0
-1317 1251 0
-1240 -1251 1317 0
-1313 -1314 0
-1313 -1315 0
-1313 -1316 0
-1313 -1317 0
-1236 1313 1314 1315 1316 1317 0
-1318 1237 0
-1319 1236 0
-1319 1226 0
-1236 -1226 1319 0
-1320 1238 0
-1320 1242 0
-1238 -1242 1320 0
-1321 1239 0
-1321 1247 0
-1239 -1247 1321 0
-1322 1240 0
-1322 1252 0
-1240 -1252 1322 0
-1318 -1319 0
-1318 -1320 0
-1318 -1321 0
-1318 -1322 0
-1237 1318 1319 1320 1321 1322 0
-1323 0
-1324 1238 0
-1325 1236 0
-1325 1231 0
-1236 -1231 1325 0
-1326 1237 0
-1326 1230 0
-1237 -1230 1326 0
-1327 1239 0
-1327 1249 0
-1239 -1249 1327 0
-1328 1240 0
-1328 1254 0
-1240 -1254 1328 0
-1324 -1325 0
-1324 -1326 0
-1324 -1327 0
-1324 -1328 0
-1238 1324 1325 1326 1327 1328 0
-1329 1239 0
-1330 1236 0
-1330 1233 0
-1236 -1233 1330 0
-1331 1237 0
-1331 1232 0
-1237 -1232 1331 0
-1332 1238 0
-1332 1244 0
-1238 -1244 1332 0
-1333 1240 0
-1333 1255 0
-1240 -1255 1333 0
-1329 -1330 0
-1329 -1331 0
-1329 -1332 0
-1329 -1333 0
-1239 1329 1330 1331 1332 1333 0
-1334 1240 0
-1335 1236 0
-1335 1235 0
-1236 -1235 1335 0
-1336 1237 0
-1336 1234 0
-1237 -1234 1336 0
-1337 1238 0
-1337 1245 0
-1238 -1245 1337 0
-1338 1239 0
-1338 1250 0
-1239 -1250 1338 0
-1334 -1335 0
-1334 -1336 0
-1334 -1337 0
-1334 -1338 0
-1240 1334 1335 1336 1337 1338 0
-1339 1241 0
-1340 1242 0
-1340 1227 0
-1242 -1227 1340 0
-1341 1243 0
-1341 1236 0
-1243 -1236 1341 0
-1342 1244 0
-1342 1246 0
-1244 -1246 1342 0
-1343 1245 0
-1343 1251 0
-1245 -1251 1343 0
-1339 -1340 0
-1339 -1341 0
-1339 -1342 0
-1339 -1343 0
-1241 1339 1340 1341 1342 1343 0
-1344 1242 0
-1345 1241 0
-1345 1226 0
-1241 -1226 1345 0
-1346 1243 0
-1346 1237 0
-1243 -1237 1346 0
-1347 1244 0
-1347 1247 0
-1244 -1247 1347 0
-1348 1245 0
-1348 1252 0
-1245 -1252 1348 0
-1344 -1345 0
-1344 -1346 0
-1344 -1347 0
-1344 -1348 0
-1242 1344 1345 1346 1347 1348 0
-1349 1243 0
-1350 1241 0
-1350 1229 0
-1241 -1229 1350 0
-1351 1242 0
-1351 1228 0
-1242 -1228 1351 0
-1352 1244 0
-1352 1248 0
-1244 -1248 1352 0
-1353 1245 0
-1353 1253 0
-1245 -1253 1353 0
-1349 -1350 0
-1349 -1351 0
-1349 -1352 0
-1349 -1353 0
-1243 1349 1350 1351 1352 1353 0
-1354 0
-1355 1244 0
-1356 1241 0
-1356 1233 0
-1241 -1233 1356 0
-1357 1242 0
-1357 1232 0
-1242 -1232 1357 0
-1358 1243 0
-1358 1239 0
-1243 -1239 1358 0
-1359 1245 0
-1359 1255 0
-1245 -1255 1359 0
-1355 -1356 0
-1355 -1357 0
-1355 -1358 0
-1355 -1359 0
-1244 1355 1356 1357 1358 1359 0
-1360 1245 0
-1361 1241 0
-1361 1235 0
-1241 -1235 1361 0
-1362 1242 0
-1362 1234 0
-1242 -1234 1362 0
-1363 1243 0
-1363 1240 0
-1243 -1240 1363 0
-1364 1244 0
-1364 1250 0
-1244 -1250 1364 0
-1360 -1361 0
-1360 -1362 0
-1360 -1363 0
-1360 -1364 0
-1245 1360 1361 1362 1363 1364 0
-1365 1246 0
-1366 1247 0
-1366 1227 0
-1247 -1227 1366 0
-1367 1248 0
-1367 1236 0
-1248 -1236 1367 0
-1368 1249 0
-1368 1241 0
-1249 -1241 1368 0
-1369 1250 0
-1369 1251 0
-1250 -1251 1369 0
-1365 -1366 0
-1365 -1367 0
-1365 -1368 0
-1365 -1369 0
-1246 1365 1366 1367 1368 1369 0
-1370 1247 0
-1371 1246 0
-1371 1226 0
-1246 -1226 1371 0
-1372 1248 0
-1372 1237 0
-1248 -1237 1372 0
-1373 1249 0
-1373 1242 0
-1249 -1242 1373 0
-1374 1250 0
-1374 1252 0
-1250 -1252 1374 0
-1370 -1371 0
-1370 -1372 0
-1370 -1373 0
-1370 -1374 0
-1247 1370 1371 1372 1373 1374 0
-1375 1248 0
-1376 1246 0
-1376 1229 0
-1246 -1229 1376 0
-1377 1247 0
-1377 1228 0
-1247 -1228 1377 0
-1378 1249 0
-1378 1243 0
-1249 -1243 1378 0
-1379 1250 0
-1379 1253 0
-1250 -1253 1379 0
-1375 -1376 0
-1375 -1377 0
-1375 -1378 0
-1375 -1379 0
-1248 1375 1376 1377 1378 1379 0
-1380 1249 0
-1381 1246 0
-1381 1231 0
-1246 -1231 1381 0
-1382 1247 0
-1382 1230 0
-1247 -1230 1382 0
-1383 1248 0
-1383 1238 0
-1248 -1238 1383 0
-1384 1250 0
-1384 1254 0
-1250 -1254 1384 0
-1380 -1381 0
-1380 -1382 0
-1380 -1383 0
-1380 -1384 0
-1249 1380 1381 1382 1383 1384 0
-1385 0
-1386 1250 0
-1387 1246 0
-1387 1235 0
-1246 -1235 1387 0
-1388 1247 0
-1388 1234 0
-1247 -1234 1388 0
-1389 1248 0
-1389 1240 0
-1248 -1240 1389 0
-1390 1249 0
-1390 1245 0
-1249 -1245 1390 0
-1386 -1387 0
-1386 -1388 0
-1386 -1389 0
-1386 -1390 0
-1250 1386 1387 1388 1389 1390 0
-1391 1251 0
-1392 1252 0
-1392 1227 0
-1252 -1227 1392 0
-1393 1253 0
-1393 1236 0
-1253 -1236 1393 0
-1394 1254 0
-1394 1241 0
-1254 -1241 1394 0
-1395 1255 0
-1395 1246 0
-1255 -1246 1395 0
-1391 -1392 0
-1391 -1393 0
-1391 -1394 0
-1391 -1395 0
-1251 1391 1392 1393 1394 1395 0
-1396 1252 0
-1397 1251 0
-1397 1226 0
-1251 -1226 1397 0
-1398 1253 0
-1398 1237 0
-1253 -1237 1398 0
-1399 1254 0
-1399 1242 0
-1254 -1242 1399 0
-1400 1255 0
-1400 1247 0
-1255 -1247 1400 0
-1396 -1397 0
-1396 -1398 0
-1396 -1399 0
-1396 -1400 0
-1252 1396 1397 1398 1399 1400 0
-1401 1253 0
-1402 1251 0
-1402 1229 0
-1251 -1229 1402 0
-1403 1252 0
-1403 1228 0
-1252 -1228 1403 0
-1404 1254 0
-1404 1243 0
-1254 -1243 1404 0
-1405 1255 0
-1405 1248 0
-1255 -1248 1405 0
-1401 -1402 0
-1401 -1403 0
-1401 -1404 0
-1401 -1405 0
-1253 1401 1402 1403 1404 1405 0
-1406 1254 0
-1407 1251 0
-1407 1231 0
-1251 -1231 1407 0
-1408 1252 0
-1408 1230 0
-1252 -1230 1408 0
-1409 1253 0
-1409 1238 0
-1253 -1238 1409 0
-1410 1255 0
-1410 1249 0
-1255 -1249 1410 0
-1406 -1407 0
-1406 -1408 0
-1406 -1409 0
-1406 -1410 0
-1254 1406 1407 1408 1409 1410 0
-1411 1255 0
-1412 1251 0
-1412 1233 0
-1251 -1233 1412 0
-1413 1252 0
-1413 1232 0
-1252 -1232 1413 0
-1414 1253 0
-1414 1239 0
-1253 -1239 1414 0
-1415 1254 0
-1415 1244 0
-1254 -1244 1415 0
-1411 -1412 0
-1411 -1413 0
-1411 -1414 0
-1411 -1415 0
-1255 1411 1412 1413 1414 1415 0
-1416 0
-1417 1225 0
-1417 1226 0
-1417 1229 0
-1417 1231 0
-1417 1233 0
-1417 1235 0
-1225 -1226 -1229 -1231 -1233 -1235 1417 0
-1418 1225 0
-1418 1227 0
-1418 1236 0
-1418 1241 0
-1418 1246 0
-1418 1251 0
-1225 -1227 -1236 -1241 -1246 -1251 1418 0
-1419 1227 0
-1419 1256 0
-1419 1228 0
-1419 1230 0
-1419 1232 0
-1419 1234 0
-1227 -1256 -1228 -1230 -1232 -1234 1419 0
-1420 1226 0
-1420 1256 0
-1420 1237 0
-1420 1242 0
-1420 1247 0
-1420 1252 0
-1226 -1256 -1237 -1242 -1247 -1252 1420 0
-1421 1236 0
-1421 1237 0
-1421 1257 0
-1421 1238 0
-1421 1239 0
-1421 1240 0
-1236 -1237 -1257 -1238 -1239 -1240 1421 0
-1422 1229 0
-1422 1228 0
-1422 1257 0
-1422 1243 0
-1422 1248 0
-1422 1253 0
-1229 -1228 -1257 -1243 -1248 -1253 1422 0
-1423 1241 0
-1423 1242 0
-1423 1243 0
-1423 1258 0
-1423 1244 0
-1423 1245 0
-1241 -1242 -1243 -1258 -1244 -1245 1423 0
-1424 1231 0
-1424 1230 0
-1424 1238 0
-1424 1258 0
-1424 1249 0
-1424 1254 0
-1231 -1230 -1238 -1258 -1249 -1254 1424 0
-1425 1246 0
-1425 1247 0
-1425 1248 0
-1425 1249 0
-1425 1259 0
-1425 1250 0
-1246 -1247 -1248 -1249 -1259 -1250 1425 0
-1426 1233 0
-1426 1232 0
-1426 1239 0
-1426 1244 0
-1426 1259 0
-1426 1255 0
-1233 -1232 -1239 -1244 -1259 -1255 1426 0
-1427 1251 0
-1427 1252 0
-1427 1253 0
-1427 1254 0
-1427 1255 0
-1427 1260 0
-1251 -1252 -1253 -1254 -1255 -1260 1427 0
-1428 1235 0
-1428 1234 0
-1428 1240 0
-1428 1245 0
-1428 1250 0
-1428 1260 0
-1235 -1234 -1240 -1245 -1250 -1260 1428 0
-1261 74 0
-1418 -1417 74 0
-74 1261 1418 0
-74 1261 1417 0
-1262 92 0
-1418 -1419 92 0
-92 1262 1418 0
-92 1262 1419 0
-1267 110 0
-1418 -1421 110 0
-110 1267 1418 0
-110 1267 1421 0
-1272 128 0
-1418 -1423 128 0
-128 1272 1418 0
-128 1272 1423 0
-1277 146 0
-1418 -1425 146 0
-146 1277 1418 0
-146 1277 1425 0
-1282 164 0
-1418 -1427 164 0
-164 1282 1418 0
-164 1282 1427 0
-1287 77 0
-1420 -1417 77 0
-77 1287 1420 0
-77 1287 1417 0
-1292 95 0
-1420 -1419 95 0
-95 1292 1420 0
-95 1292 1419 0
-1293 113 0
-1420 -1421 113 0
-113 1293 1420 0
-113 1293 1421 0
-1298 131 0
-1420 -1423 131 0
-131 1298 1420 0
-131 1298 1423 0
-1303 149 0
-1420 -1425 149 0
-149 1303 1420 0
-149 1303 1425 0
-1308 167 0
-1420 -1427 167 0
-167 1308 1420 0
-167 1308 1427 0
-1313 80 0
-1422 -1417 80 0
-80 1313 1422 0
-80 1313 1417 0
-1318 98 0
-1422 -1419 98 0
-98 1318 1422 0
-98 1318 1419 0
-1323 116 0
-1422 -1421 116 0
-116 1323 1422 0
-116 1323 1421 0
-1324 134 0
-1422 -1423 134 0
-134 1324 1422 0
-134 1324 1423 0
-1329 152 0
-1422 -1425 152 0
-152 1329 1422 0
-152 1329 1425 0
-1334 170 0
-1422 -1427 170 0
-170 1334 1422 0
-170 1334 1427 0
-1339 83 0
-1424 -1417 83 0
-83 1339 1424 0
-83 1339 1417 0
-1344 101 0
-1424 -1419 101 0
-101 1344 1424 0
-101 1344 1419 0
-1349 119 0
-1424 -1421 119 0
-119 1349 1424 0
-119 1349 1421 0
-1354 137 0
-1424 -1423 137 0
-137 1354 1424 0
-137 1354 1423 0
-1355 155 0
-1424 -1425 155 0
-155 1355 1424 0
-155 1355 1425 0
-1360 173 0
-1424 -1427 173 0
-173 1360 1424 0
-173 1360 1427 0
-1365 86 0
-1426 -1417 86 0
-86 1365 1426 0
-86 1365 1417 0
-1370 104 0
-1426 -1419 104 0
-104 1370 1426 0
-104 1370 1419 0
-1375 122 0
-1426 -1421 122 0
-122 1375 1426 0
-122 1375 1421 0
-1380 140 0
-1426 -1423 140 0
-140 1380 1426 0
-140 1380 1423 0
-1385 158 0
-1426 -1425 158 0
-158 1385 1426 0
-158 1385 1425 0
-1386 176 0
-1426 -1427 176 0
-176 1386 1426 0
-176 1386 1427 0
-1391 89 0
-1428 -1417 89 0
-89 1391 1428 0
-89 1391 1417 0
-1396 107 0
-1428 -1419 107 0
-107 1396 1428 0
-107 1396 1419 0
-1401 125 0
-1428 -1421 125 0
-125 1401 1428 0
-125 1401 1421 0
-1406 143 0
-1428 -1423 143 0
-143 1406 1428 0
-143 1406 1423 0
-1411 161 0
-1428 -1425 161 0
-161 1411 1428 0
-161 1411 1425 0
-1416 179 0
-1428 -1427 179 0
-179 1416 1428 0
-179 1416 1427 0
