p cnf 1140 3234
c ind 1 2 3 4 5 6 7 8 9 10 11 12 13 14 15 16 17 18 19 20 21 22 23 24 25 26 27 28 29 30 31 32 33 34 35 36 37 38 39 40 41 42 43 44 45 46 47 48 49 50 0
c ind 51 52 53 54 55 56 57 58 59 60 61 62 63 64 65 66 67 68 69 70 71 72 73 74 75 76 77 78 79 80 81 82 83 84 85 86 87 88 89 90 91 92 93 94 95 96 97 98 99 100 0
c ind 101 102 103 104 105 106 107 108 109 110 111 112 113 114 115 116 117 118 119 120 121 122 123 124 125 126 127 128 129 130 131 132 133 134 135 136 137 138 139 140 141 142 143 144 145 146 147 148 149 150 0
c ind 151 152 153 154 155 156 157 158 159 160 161 162 163 164 165 166 167 168 169 170 171 172 173 174 175 176 177 178 179 180 181 182 183 184 185 186 187 188 189 190 191 192 193 194 195 196 197 198 199 200 0
c ind 201 202 203 204 205 206 207 208 209 210 211 212 213 214 215 216 217 218 219 220 221 222 223 224 225 226 227 228 229 230 231 232 233 234 235 236 237 238 239 240 241 242 243 244 245 246 247 248 249 250 0
c ind 251 252 253 254 255 256 257 258 259 260 261 262 263 264 265 266 267 268 269 270 271 272 273 274 275 276 277 278 279 280 281 282 283 284 285 286 287 288 289 290 291 292 293 294 295 296 297 298 299 300 0
c ind 301 302 303 304 305 306 307 308 309 310 311 312 313 314 315 316 317 318 319 320 321 322 323 324 325 326 327 328 329 330 331 332 333 334 335 336 337 338 339 340 341 342 343 344 345 346 347 348 349 350 0
c ind 351 352 353 354 355 356 357 358 359 360 361 362 363 364 365 366 367 368 369 370 371 372 373 374 375 376 377 378 379 380 381 382 383 384 385 386 387 388 389 390 391 392 393 394 395 396 397 398 399 400 0
c ind 401 402 403 404 405 406 407 408 409 410 411 412 413 414 415 416 417 418 419 420 421 422 423 424 425 426 427 428 429 430 431 432 433 434 435 436 437 438 439 440 441 442 443 444 445 446 447 448 449 450 0
c ind 451 452 453 454 455 456 457 458 459 460 461 462 463 464 465 466 467 468 469 470 471 472 473 474 475 476 477 478 479 480 481 482 483 484 485 486 487 488 489 490 491 492 493 494 495 496 497 498 499 500 0
c ind 501 502 503 504 505 506 507 508 509 510 511 512 513 514 515 516 517 518 519 520 521 522 523 524 525 526 527 528 529 530 531 532 533 534 535 536 537 538 539 540 541 542 543 544 545 546 547 548 549 550 0
c ind 551 552 553 554 555 556 557 558 559 560 561 562 563 564 565 566 567 568 569 570 571 572 573 574 575 576 937 938 939 940 941 942 943 944 945 946 947 948 949 950 951 952 953 954 955 956 957 958 959 960 0
c ind 961 962 963 964 965 966 967 968 969 970 971 972 973 974 975 976 977 978 979 980 981 982 983 984 985 986 987 988 989 990 991 992 993 994 995 996 997 998 999 1000 1001 1002 1003 1004 1005 1006 1007 1008 1009 1010 0
c ind 1011 1012 1013 1014 1015 1016 1017 1018 1019 1020 1021 1022 1023 1024 1025 1026 1027 1028 1029 1030 1031 1032 1033 1034 1035 1036 1037 1038 1039 1040 1041 1042 1043 1044 1045 1046 1047 1048 1049 1050 1051 1052 1053 1054 1055 1056 1057 1058 1059 1060 0
c ind 1061 1062 1063 1064 1065 1066 1067 1068 1069 1070 1071 1072 1073 1074 1075 1076 1077 1078 1079 1080 1081 1082 1083 1084 1085 1086 1087 1088 1089 1090 1091 1092 1093 1094 1095 1096 1097 1098 1099 1100 1101 1102 1103 1104 1105 1106 1107 1108 1109 1110 0
c ind 1111 1112 1113 1114 1115 1116 1117 1118 1119 1120 1121 1122 1123 1124 1125 1126 1127 1128 1129 1130 1131 1132 1133 1134 1135 1136 1137 1138 1139 1140 0
1 2 3 4 5 6 0
7 8 9 10 11 12 0
13 14 15 16 17 18 0
19 20 21 22 23 24 0
25 26 27 28 29 30 0
31 32 33 34 35 36 0
-1 -1 -37 0
-7 -2 -38 0
-13 -3 -39 0
-19 -4 -40 0
-25 -5 -41 0
-31 -6 -42 0
-2 -7 -43 0
-8 -8 -44 0
-14 -9 -45 0
-20 -10 -46 0
-26 -11 -47 0
-32 -12 -48 0
-3 -13 -49 0
-9 -14 -50 0
-15 -15 -51 0
-21 -16 -52 0
-27 -17 -53 0
-33 -18 -54 0
-4 -19 -55 0
-10 -20 -56 0
-16 -21 -57 0
-22 -22 -58 0
-28 -23 -59 0
-34 -24 -60 0
-5 -25 -61 0
-11 -26 -62 0
-17 -27 -63 0
-23 -28 -64 0
-29 -29 -65 0
-35 -30 -66 0
-6 -31 -67 0
-12 -32 -68 0
-18 -33 -69 0
-24 -34 -70 0
-30 -35 -71 0
-36 -36 -72 0
37 1 0
38 7 0
39 13 0
40 19 0
41 25 0
42 31 0
43 2 0
44 8 0
45 14 0
46 20 0
47 26 0
48 32 0
49 3 0
50 9 0
51 15 0
52 21 0
53 27 0
54 33 0
55 4 0
56 10 0
57 16 0
58 22 0
59 28 0
60 34 0
61 5 0
62 11 0
63 17 0
64 23 0
65 29 0
66 35 0
67 6 0
68 12 0
69 18 0
70 24 0
71 30 0
72 36 0
37 1 0
38 2 0
39 3 0
40 4 0
41 5 0
42 6 0
43 7 0
44 8 0
45 9 0
46 10 0
47 11 0
48 12 0
49 13 0
50 14 0
51 15 0
52 16 0
53 17 0
54 18 0
55 19 0
56 20 0
57 21 0
58 22 0
59 23 0
60 24 0
61 25 0
62 26 0
63 27 0
64 28 0
65 29 0
66 30 0
67 31 0
68 32 0
69 33 0
70 34 0
71 35 0
72 36 0
73 74 -1 -75 0
76 77 -7 -78 0
79 80 -13 -81 0
82 83 -19 -84 0
85 86 -25 -87 0
88 89 -31 -90 0
91 92 -2 -93 0
94 95 -8 -96 0
97 98 -14 -99 0
100 101 -20 -102 0
103 104 -26 -105 0
106 107 -32 -108 0
109 110 -3 -111 0
112 113 -9 -114 0
115 116 -15 -117 0
118 119 -21 -120 0
121 122 -27 -123 0
124 125 -33 -126 0
127 128 -4 -129 0
130 131 -10 -132 0
133 134 -16 -135 0
136 137 -22 -138 0
139 140 -28 -141 0
142 143 -34 -144 0
145 146 -5 -147 0
148 149 -11 -150 0
151 152 -17 -153 0
154 155 -23 -156 0
157 158 -29 -159 0
160 161 -35 -162 0
163 164 -6 -165 0
166 167 -12 -168 0
169 170 -18 -171 0
172 173 -24 -174 0
175 176 -30 -177 0
178 179 -36 -180 0
75 -73 0
78 -76 0
81 -79 0
84 -82 0
87 -85 0
90 -88 0
93 -91 0
96 -94 0
99 -97 0
102 -100 0
105 -103 0
108 -106 0
111 -109 0
114 -112 0
117 -115 0
120 -118 0
123 -121 0
126 -124 0
129 -127 0
132 -130 0
135 -133 0
138 -136 0
141 -139 0
144 -142 0
147 -145 0
150 -148 0
153 -151 0
156 -154 0
159 -157 0
162 -160 0
165 -163 0
168 -166 0
171 -169 0
174 -172 0
177 -175 0
180 -178 0
75 -74 0
78 -77 0
81 -80 0
84 -83 0
87 -86 0
90 -89 0
93 -92 0
96 -95 0
99 -98 0
102 -101 0
105 -104 0
108 -107 0
111 -110 0
114 -113 0
117 -116 0
120 -119 0
123 -122 0
126 -125 0
129 -128 0
132 -131 0
135 -134 0
138 -137 0
141 -140 0
144 -143 0
147 -146 0
150 -149 0
153 -152 0
156 -155 0
159 -158 0
162 -161 0
165 -164 0
168 -167 0
171 -170 0
174 -173 0
177 -176 0
180 -179 0
75 1 0
78 7 0
81 13 0
84 19 0
87 25 0
90 31 0
93 2 0
96 8 0
99 14 0
102 20 0
105 26 0
108 32 0
111 3 0
114 9 0
117 15 0
120 21 0
123 27 0
126 33 0
129 4 0
132 10 0
135 16 0
138 22 0
141 28 0
144 34 0
147 5 0
150 11 0
153 17 0
156 23 0
159 29 0
162 35 0
165 6 0
168 12 0
171 18 0
174 24 0
177 30 0
180 36 0
1 1 -181 -182 0
7 2 -183 -184 0
13 3 -185 -186 0
19 4 -187 -188 0
25 5 -189 -190 0
31 6 -191 -192 0
2 7 -193 -194 0
8 8 -195 -196 0
14 9 -197 -198 0
20 10 -199 -200 0
26 11 -201 -202 0
32 12 -203 -204 0
3 13 -205 -206 0
9 14 -207 -208 0
15 15 -209 -210 0
21 16 -211 -212 0
27 17 -213 -214 0
33 18 -215 -216 0
4 19 -217 -218 0
10 20 -219 -220 0
16 21 -221 -222 0
22 22 -223 -224 0
28 23 -225 -226 0
34 24 -227 -228 0
5 25 -229 -230 0
11 26 -231 -232 0
17 27 -233 -234 0
23 28 -235 -236 0
29 29 -237 -238 0
35 30 -239 -240 0
6 31 -241 -242 0
12 32 -243 -244 0
18 33 -245 -246 0
24 34 -247 -248 0
30 35 -249 -250 0
36 36 -251 -252 0
182 -1 0
184 -7 0
186 -13 0
188 -19 0
190 -25 0
192 -31 0
194 -2 0
196 -8 0
198 -14 0
200 -20 0
202 -26 0
204 -32 0
206 -3 0
208 -9 0
210 -15 0
212 -21 0
214 -27 0
216 -33 0
218 -4 0
220 -10 0
222 -16 0
224 -22 0
226 -28 0
228 -34 0
230 -5 0
232 -11 0
234 -17 0
236 -23 0
238 -29 0
240 -35 0
242 -6 0
244 -12 0
246 -18 0
248 -24 0
250 -30 0
252 -36 0
182 -1 0
184 -2 0
186 -3 0
188 -4 0
190 -5 0
192 -6 0
194 -7 0
196 -8 0
198 -9 0
200 -10 0
202 -11 0
204 -12 0
206 -13 0
208 -14 0
210 -15 0
212 -16 0
214 -17 0
216 -18 0
218 -19 0
220 -20 0
222 -21 0
224 -22 0
226 -23 0
228 -24 0
230 -25 0
232 -26 0
234 -27 0
236 -28 0
238 -29 0
240 -30 0
242 -31 0
244 -32 0
246 -33 0
248 -34 0
250 -35 0
252 -36 0
182 181 0
184 183 0
186 185 0
188 187 0
190 189 0
192 191 0
194 193 0
196 195 0
198 197 0
200 199 0
202 201 0
204 203 0
206 205 0
208 207 0
210 209 0
212 211 0
214 213 0
216 215 0
218 217 0
220 219 0
222 221 0
224 223 0
226 225 0
228 227 0
230 229 0
232 231 0
234 233 0
236 235 0
238 237 0
240 239 0
242 241 0
244 243 0
246 245 0
248 247 0
250 249 0
252 251 0
-74 -1 253 0
-77 -7 254 0
-80 -13 255 0
-83 -19 256 0
-86 -25 257 0
-89 -31 258 0
-92 -2 259 0
-95 -8 260 0
-98 -14 261 0
-101 -20 262 0
-104 -26 263 0
-107 -32 264 0
-110 -3 265 0
-113 -9 266 0
-116 -15 267 0
-119 -21 268 0
-122 -27 269 0
-125 -33 270 0
-128 -4 271 0
-131 -10 272 0
-134 -16 273 0
-137 -22 274 0
-140 -28 275 0
-143 -34 276 0
-146 -5 277 0
-149 -11 278 0
-152 -17 279 0
-155 -23 280 0
-158 -29 281 0
-161 -35 282 0
-164 -6 283 0
-167 -12 284 0
-170 -18 285 0
-173 -24 286 0
-176 -30 287 0
-179 -36 288 0
-253 74 0
-254 77 0
-255 80 0
-256 83 0
-257 86 0
-258 89 0
-259 92 0
-260 95 0
-261 98 0
-262 101 0
-263 104 0
-264 107 0
-265 110 0
-266 113 0
-267 116 0
-268 119 0
-269 122 0
-270 125 0
-271 128 0
-272 131 0
-273 134 0
-274 137 0
-275 140 0
-276 143 0
-277 146 0
-278 149 0
-279 152 0
-280 155 0
-281 158 0
-282 161 0
-283 164 0
-284 167 0
-285 170 0
-286 173 0
-287 176 0
-288 179 0
-253 1 0
-254 7 0
-255 13 0
-256 19 0
-257 25 0
-258 31 0
-259 2 0
-260 8 0
-261 14 0
-262 20 0
-263 26 0
-264 32 0
-265 3 0
-266 9 0
-267 15 0
-268 21 0
-269 27 0
-270 33 0
-271 4 0
-272 10 0
-273 16 0
-274 22 0
-275 28 0
-276 34 0
-277 5 0
-278 11 0
-279 17 0
-280 23 0
-281 29 0
-282 35 0
-283 6 0
-284 12 0
-285 18 0
-286 24 0
-287 30 0
-288 36 0
-289 253 -290 0
-291 254 -292 0
-293 255 -294 0
-295 256 -296 0
-297 257 -298 0
-299 258 -300 0
-301 259 -302 0
-303 260 -304 0
-305 261 -306 0
-307 262 -308 0
-309 263 -310 0
-311 264 -312 0
-313 265 -314 0
-315 266 -316 0
-317 267 -318 0
-319 268 -320 0
-321 269 -322 0
-323 270 -324 0
-325 271 -326 0
-327 272 -328 0
-329 273 -330 0
-331 274 -332 0
-333 275 -334 0
-335 276 -336 0
-337 277 -338 0
-339 278 -340 0
-341 279 -342 0
-343 280 -344 0
-345 281 -346 0
-347 282 -348 0
-349 283 -350 0
-351 284 -352 0
-353 285 -354 0
-355 286 -356 0
-357 287 -358 0
-359 288 -360 0
290 289 0
292 291 0
294 293 0
296 295 0
298 297 0
300 299 0
302 301 0
304 303 0
306 305 0
308 307 0
310 309 0
312 311 0
314 313 0
316 315 0
318 317 0
320 319 0
322 321 0
324 323 0
326 325 0
328 327 0
330 329 0
332 331 0
334 333 0
336 335 0
338 337 0
340 339 0
342 341 0
344 343 0
346 345 0
348 347 0
350 349 0
352 351 0
354 353 0
356 355 0
358 357 0
360 359 0
290 -253 0
292 -254 0
294 -255 0
296 -256 0
298 -257 0
300 -258 0
302 -259 0
304 -260 0
306 -261 0
308 -262 0
310 -263 0
312 -264 0
314 -265 0
316 -266 0
318 -267 0
320 -268 0
322 -269 0
324 -270 0
326 -271 0
328 -272 0
330 -273 0
332 -274 0
334 -275 0
336 -276 0
338 -277 0
340 -278 0
342 -279 0
344 -280 0
346 -281 0
348 -282 0
350 -283 0
352 -284 0
354 -285 0
356 -286 0
358 -287 0
360 -288 0
289 -74 -1 -361 0
291 -77 -7 -362 0
293 -80 -13 -363 0
295 -83 -19 -364 0
297 -86 -25 -365 0
299 -89 -31 -366 0
301 -92 -2 -367 0
303 -95 -8 -368 0
305 -98 -14 -369 0
307 -101 -20 -370 0
309 -104 -26 -371 0
311 -107 -32 -372 0
313 -110 -3 -373 0
315 -113 -9 -374 0
317 -116 -15 -375 0
319 -119 -21 -376 0
321 -122 -27 -377 0
323 -125 -33 -378 0
325 -128 -4 -379 0
327 -131 -10 -380 0
329 -134 -16 -381 0
331 -137 -22 -382 0
333 -140 -28 -383 0
335 -143 -34 -384 0
337 -146 -5 -385 0
339 -149 -11 -386 0
341 -152 -17 -387 0
343 -155 -23 -388 0
345 -158 -29 -389 0
347 -161 -35 -390 0
349 -164 -6 -391 0
351 -167 -12 -392 0
353 -170 -18 -393 0
355 -173 -24 -394 0
357 -176 -30 -395 0
359 -179 -36 -396 0
361 -289 0
362 -291 0
363 -293 0
364 -295 0
365 -297 0
366 -299 0
367 -301 0
368 -303 0
369 -305 0
370 -307 0
371 -309 0
372 -311 0
373 -313 0
374 -315 0
375 -317 0
376 -319 0
377 -321 0
378 -323 0
379 -325 0
380 -327 0
381 -329 0
382 -331 0
383 -333 0
384 -335 0
385 -337 0
386 -339 0
387 -341 0
388 -343 0
389 -345 0
390 -347 0
391 -349 0
392 -351 0
393 -353 0
394 -355 0
395 -357 0
396 -359 0
361 74 0
362 77 0
363 80 0
364 83 0
365 86 0
366 89 0
367 92 0
368 95 0
369 98 0
370 101 0
371 104 0
372 107 0
373 110 0
374 113 0
375 116 0
376 119 0
377 122 0
378 125 0
379 128 0
380 131 0
381 134 0
382 137 0
383 140 0
384 143 0
385 146 0
386 149 0
387 152 0
388 155 0
389 158 0
390 161 0
391 164 0
392 167 0
393 170 0
394 173 0
395 176 0
396 179 0
361 1 0
362 7 0
363 13 0
364 19 0
365 25 0
366 31 0
367 2 0
368 8 0
369 14 0
370 20 0
371 26 0
372 32 0
373 3 0
374 9 0
375 15 0
376 21 0
377 27 0
378 33 0
379 4 0
380 10 0
381 16 0
382 22 0
383 28 0
384 34 0
385 5 0
386 11 0
387 17 0
388 23 0
389 29 0
390 35 0
391 6 0
392 12 0
393 18 0
394 24 0
395 30 0
396 36 0
1 1 397 0
7 2 398 0
13 3 399 0
19 4 400 0
25 5 401 0
31 6 402 0
2 7 403 0
8 8 404 0
14 9 405 0
20 10 406 0
26 11 407 0
32 12 408 0
3 13 409 0
9 14 410 0
15 15 411 0
21 16 412 0
27 17 413 0
33 18 414 0
4 19 415 0
10 20 416 0
16 21 417 0
22 22 418 0
28 23 419 0
34 24 420 0
5 25 421 0
11 26 422 0
17 27 423 0
23 28 424 0
29 29 425 0
35 30 426 0
6 31 427 0
12 32 428 0
18 33 429 0
24 34 430 0
30 35 431 0
36 36 432 0
-397 -1 0
-398 -7 0
-399 -13 0
-400 -19 0
-401 -25 0
-402 -31 0
-403 -2 0
-404 -8 0
-405 -14 0
-406 -20 0
-407 -26 0
-408 -32 0
-409 -3 0
-410 -9 0
-411 -15 0
-412 -21 0
-413 -27 0
-414 -33 0
-415 -4 0
-416 -10 0
-417 -16 0
-418 -22 0
-419 -28 0
-420 -34 0
-421 -5 0
-422 -11 0
-423 -17 0
-424 -23 0
-425 -29 0
-426 -35 0
-427 -6 0
-428 -12 0
-429 -18 0
-430 -24 0
-431 -30 0
-432 -36 0
-397 -1 0
-398 -2 0
-399 -3 0
-400 -4 0
-401 -5 0
-402 -6 0
-403 -7 0
-404 -8 0
-405 -9 0
-406 -10 0
-407 -11 0
-408 -12 0
-409 -13 0
-410 -14 0
-411 -15 0
-412 -16 0
-413 -17 0
-414 -18 0
-415 -19 0
-416 -20 0
-417 -21 0
-418 -22 0
-419 -23 0
-420 -24 0
-421 -25 0
-422 -26 0
-423 -27 0
-424 -28 0
-425 -29 0
-426 -30 0
-427 -31 0
-428 -32 0
-429 -33 0
-430 -34 0
-431 -35 0
-432 -36 0
181 397 -433 0
183 398 -434 0
185 399 -435 0
187 400 -436 0
189 401 -437 0
191 402 -438 0
193 403 -439 0
195 404 -440 0
197 405 -441 0
199 406 -442 0
201 407 -443 0
203 408 -444 0
205 409 -445 0
207 410 -446 0
209 411 -447 0
211 412 -448 0
213 413 -449 0
215 414 -450 0
217 415 -451 0
219 416 -452 0
221 417 -453 0
223 418 -454 0
225 419 -455 0
227 420 -456 0
229 421 -457 0
231 422 -458 0
233 423 -459 0
235 424 -460 0
237 425 -461 0
239 426 -462 0
241 427 -463 0
243 428 -464 0
245 429 -465 0
247 430 -466 0
249 431 -467 0
251 432 -468 0
433 -181 0
434 -183 0
435 -185 0
436 -187 0
437 -189 0
438 -191 0
439 -193 0
440 -195 0
441 -197 0
442 -199 0
443 -201 0
444 -203 0
445 -205 0
446 -207 0
447 -209 0
448 -211 0
449 -213 0
450 -215 0
451 -217 0
452 -219 0
453 -221 0
454 -223 0
455 -225 0
456 -227 0
457 -229 0
458 -231 0
459 -233 0
460 -235 0
461 -237 0
462 -239 0
463 -241 0
464 -243 0
465 -245 0
466 -247 0
467 -249 0
468 -251 0
433 -397 0
434 -398 0
435 -399 0
436 -400 0
437 -401 0
438 -402 0
439 -403 0
440 -404 0
441 -405 0
442 -406 0
443 -407 0
444 -408 0
445 -409 0
446 -410 0
447 -411 0
448 -412 0
449 -413 0
450 -414 0
451 -415 0
452 -416 0
453 -417 0
454 -418 0
455 -419 0
456 -420 0
457 -421 0
458 -422 0
459 -423 0
460 -424 0
461 -425 0
462 -426 0
463 -427 0
464 -428 0
465 -429 0
466 -430 0
467 -431 0
468 -432 0
-1 74 469 0
-7 77 470 0
-13 80 471 0
-19 83 472 0
-25 86 473 0
-31 89 474 0
-2 92 475 0
-8 95 476 0
-14 98 477 0
-20 101 478 0
-26 104 479 0
-32 107 480 0
-3 110 481 0
-9 113 482 0
-15 116 483 0
-21 119 484 0
-27 122 485 0
-33 125 486 0
-4 128 487 0
-10 131 488 0
-16 134 489 0
-22 137 490 0
-28 140 491 0
-34 143 492 0
-5 146 493 0
-11 149 494 0
-17 152 495 0
-23 155 496 0
-29 158 497 0
-35 161 498 0
-6 164 499 0
-12 167 500 0
-18 170 501 0
-24 173 502 0
-30 176 503 0
-36 179 504 0
-469 1 0
-470 7 0
-471 13 0
-472 19 0
-473 25 0
-474 31 0
-475 2 0
-476 8 0
-477 14 0
-478 20 0
-479 26 0
-480 32 0
-481 3 0
-482 9 0
-483 15 0
-484 21 0
-485 27 0
-486 33 0
-487 4 0
-488 10 0
-489 16 0
-490 22 0
-491 28 0
-492 34 0
-493 5 0
-494 11 0
-495 17 0
-496 23 0
-497 29 0
-498 35 0
-499 6 0
-500 12 0
-501 18 0
-502 24 0
-503 30 0
-504 36 0
-469 -74 0
-470 -77 0
-471 -80 0
-472 -83 0
-473 -86 0
-474 -89 0
-475 -92 0
-476 -95 0
-477 -98 0
-478 -101 0
-479 -104 0
-480 -107 0
-481 -110 0
-482 -113 0
-483 -116 0
-484 -119 0
-485 -122 0
-486 -125 0
-487 -128 0
-488 -131 0
-489 -134 0
-490 -137 0
-491 -140 0
-492 -143 0
-493 -146 0
-494 -149 0
-495 -152 0
-496 -155 0
-497 -158 0
-498 -161 0
-499 -164 0
-500 -167 0
-501 -170 0
-502 -173 0
-503 -176 0
-504 -179 0
-73 469 -505 0
-76 470 -506 0
-79 471 -507 0
-82 472 -508 0
-85 473 -509 0
-88 474 -510 0
-91 475 -511 0
-94 476 -512 0
-97 477 -513 0
-100 478 -514 0
-103 479 -515 0
-106 480 -516 0
-109 481 -517 0
-112 482 -518 0
-115 483 -519 0
-118 484 -520 0
-121 485 -521 0
-124 486 -522 0
-127 487 -523 0
-130 488 -524 0
-133 489 -525 0
-136 490 -526 0
-139 491 -527 0
-142 492 -528 0
-145 493 -529 0
-148 494 -530 0
-151 495 -531 0
-154 496 -532 0
-157 497 -533 0
-160 498 -534 0
-163 499 -535 0
-166 500 -536 0
-169 501 -537 0
-172 502 -538 0
-175 503 -539 0
-178 504 -540 0
505 73 0
506 76 0
507 79 0
508 82 0
509 85 0
510 88 0
511 91 0
512 94 0
513 97 0
514 100 0
515 103 0
516 106 0
517 109 0
518 112 0
519 115 0
520 118 0
521 121 0
522 124 0
523 127 0
524 130 0
525 133 0
526 136 0
527 139 0
528 142 0
529 145 0
530 148 0
531 151 0
532 154 0
533 157 0
534 160 0
535 163 0
536 166 0
537 169 0
538 172 0
539 175 0
540 178 0
505 -469 0
506 -470 0
507 -471 0
508 -472 0
509 -473 0
510 -474 0
511 -475 0
512 -476 0
513 -477 0
514 -478 0
515 -479 0
516 -480 0
517 -481 0
518 -482 0
519 -483 0
520 -484 0
521 -485 0
522 -486 0
523 -487 0
524 -488 0
525 -489 0
526 -490 0
527 -491 0
528 -492 0
529 -493 0
530 -494 0
531 -495 0
532 -496 0
533 -497 0
534 -498 0
535 -499 0
536 -500 0
537 -501 0
538 -502 0
539 -503 0
540 -504 0
1 -37 -75 -182 -290 -361 -433 -505 541 0
8 -38 -78 -184 -292 -362 -434 -506 542 0
15 -39 -81 -186 -294 -363 -435 -507 543 0
22 -40 -84 -188 -296 -364 -436 -508 544 0
29 -41 -87 -190 -298 -365 -437 -509 545 0
36 -42 -90 -192 -300 -366 -438 -510 546 0
1 -43 -93 -194 -302 -367 -439 -511 547 0
8 -44 -96 -196 -304 -368 -440 -512 548 0
15 -45 -99 -198 -306 -369 -441 -513 549 0
22 -46 -102 -200 -308 -370 -442 -514 550 0
29 -47 -105 -202 -310 -371 -443 -515 551 0
36 -48 -108 -204 -312 -372 -444 -516 552 0
1 -49 -111 -206 -314 -373 -445 -517 553 0
8 -50 -114 -208 -316 -374 -446 -518 554 0
15 -51 -117 -210 -318 -375 -447 -519 555 0
22 -52 -120 -212 -320 -376 -448 -520 556 0
29 -53 -123 -214 -322 -377 -449 -521 557 0
36 -54 -126 -216 -324 -378 -450 -522 558 0
1 -55 -129 -218 -326 -379 -451 -523 559 0
8 -56 -132 -220 -328 -380 -452 -524 560 0
15 -57 -135 -222 -330 -381 -453 -525 561 0
22 -58 -138 -224 -332 -382 -454 -526 562 0
29 -59 -141 -226 -334 -383 -455 -527 563 0
36 -60 -144 -228 -336 -384 -456 -528 564 0
1 -61 -147 -230 -338 -385 -457 -529 565 0
8 -62 -150 -232 -340 -386 -458 -530 566 0
15 -63 -153 -234 -342 -387 -459 -531 567 0
22 -64 -156 -236 -344 -388 -460 -532 568 0
29 -65 -159 -238 -346 -389 -461 -533 569 0
36 -66 -162 -240 -348 -390 -462 -534 570 0
1 -67 -165 -242 -350 -391 -463 -535 571 0
8 -68 -168 -244 -352 -392 -464 -536 572 0
15 -69 -171 -246 -354 -393 -465 -537 573 0
22 -70 -174 -248 -356 -394 -466 -538 574 0
29 -71 -177 -250 -358 -395 -467 -539 575 0
36 -72 -180 -252 -360 -396 -468 -540 576 0
-541 -1 0
-542 -8 0
-543 -15 0
-544 -22 0
-545 -29 0
-546 -36 0
-547 -1 0
-548 -8 0
-549 -15 0
-550 -22 0
-551 -29 0
-552 -36 0
-553 -1 0
-554 -8 0
-555 -15 0
-556 -22 0
-557 -29 0
-558 -36 0
-559 -1 0
-560 -8 0
-561 -15 0
-562 -22 0
-563 -29 0
-564 -36 0
-565 -1 0
-566 -8 0
-567 -15 0
-568 -22 0
-569 -29 0
-570 -36 0
-571 -1 0
-572 -8 0
-573 -15 0
-574 -22 0
-575 -29 0
-576 -36 0
-541 37 0
-542 38 0
-543 39 0
-544 40 0
-545 41 0
-546 42 0
-547 43 0
-548 44 0
-549 45 0
-550 46 0
-551 47 0
-552 48 0
-553 49 0
-554 50 0
-555 51 0
-556 52 0
-557 53 0
-558 54 0
-559 55 0
-560 56 0
-561 57 0
-562 58 0
-563 59 0
-564 60 0
-565 61 0
-566 62 0
-567 63 0
-568 64 0
-569 65 0
-570 66 0
-571 67 0
-572 68 0
-573 69 0
-574 70 0
-575 71 0
-576 72 0
-541 75 0
-542 78 0
-543 81 0
-544 84 0
-545 87 0
-546 90 0
-547 93 0
-548 96 0
-549 99 0
-550 102 0
-551 105 0
-552 108 0
-553 111 0
-554 114 0
-555 117 0
-556 120 0
-557 123 0
-558 126 0
-559 129 0
-560 132 0
-561 135 0
-562 138 0
-563 141 0
-564 144 0
-565 147 0
-566 150 0
-567 153 0
-568 156 0
-569 159 0
-570 162 0
-571 165 0
-572 168 0
-573 171 0
-574 174 0
-575 177 0
-576 180 0
-541 182 0
-542 184 0
-543 186 0
-544 188 0
-545 190 0
-546 192 0
-547 194 0
-548 196 0
-549 198 0
-550 200 0
-551 202 0
-552 204 0
-553 206 0
-554 208 0
-555 210 0
-556 212 0
-557 214 0
-558 216 0
-559 218 0
-560 220 0
-561 222 0
-562 224 0
-563 226 0
-564 228 0
-565 230 0
-566 232 0
-567 234 0
-568 236 0
-569 238 0
-570 240 0
-571 242 0
-572 244 0
-573 246 0
-574 248 0
-575 250 0
-576 252 0
-541 290 0
-542 292 0
-543 294 0
-544 296 0
-545 298 0
-546 300 0
-547 302 0
-548 304 0
-549 306 0
-550 308 0
-551 310 0
-552 312 0
-553 314 0
-554 316 0
-555 318 0
-556 320 0
-557 322 0
-558 324 0
-559 326 0
-560 328 0
-561 330 0
-562 332 0
-563 334 0
-564 336 0
-565 338 0
-566 340 0
-567 342 0
-568 344 0
-569 346 0
-570 348 0
-571 350 0
-572 352 0
-573 354 0
-574 356 0
-575 358 0
-576 360 0
-541 361 0
-542 362 0
-543 363 0
-544 364 0
-545 365 0
-546 366 0
-547 367 0
-548 368 0
-549 369 0
-550 370 0
-551 371 0
-552 372 0
-553 373 0
-554 374 0
-555 375 0
-556 376 0
-557 377 0
-558 378 0
-559 379 0
-560 380 0
-561 381 0
-562 382 0
-563 383 0
-564 384 0
-565 385 0
-566 386 0
-567 387 0
-568 388 0
-569 389 0
-570 390 0
-571 391 0
-572 392 0
-573 393 0
-574 394 0
-575 395 0
-576 396 0
-541 433 0
-542 434 0
-543 435 0
-544 436 0
-545 437 0
-546 438 0
-547 439 0
-548 440 0
-549 441 0
-550 442 0
-551 443 0
-552 444 0
-553 445 0
-554 446 0
-555 447 0
-556 448 0
-557 449 0
-558 450 0
-559 451 0
-560 452 0
-561 453 0
-562 454 0
-563 455 0
-564 456 0
-565 457 0
-566 458 0
-567 459 0
-568 460 0
-569 461 0
-570 462 0
-571 463 0
-572 464 0
-573 465 0
-574 466 0
-575 467 0
-576 468 0
-541 505 0
-542 506 0
-543 507 0
-544 508 0
-545 509 0
-546 510 0
-547 511 0
-548 512 0
-549 513 0
-550 514 0
-551 515 0
-552 516 0
-553 517 0
-554 518 0
-555 519 0
-556 520 0
-557 521 0
-558 522 0
-559 523 0
-560 524 0
-561 525 0
-562 526 0
-563 527 0
-564 528 0
-565 529 0
-566 530 0
-567 531 0
-568 532 0
-569 533 0
-570 534 0
-571 535 0
-572 536 0
-573 537 0
-574 538 0
-575 539 0
-576 540 0
541 0
542 0
543 0
544 0
545 0
546 0
547 0
548 0
549 0
550 0
551 0
552 0
553 0
554 0
555 0
556 0
557 0
558 0
559 0
560 0
561 0
562 0
563 0
564 0
565 0
566 0
567 0
568 0
569 0
570 0
571 0
572 0
573 0
574 0
575 0
576 0
1 577 0
-577 578 0
2 -577 579 0
-579 580 0
3 -579 581 0
-581 582 0
4 -581 583 0
-583 584 0
5 -583 585 0
-585 586 0
6 -585 587 0
-587 588 0
7 -587 589 0
-589 590 0
8 -589 591 0
-591 592 0
9 -591 593 0
-593 594 0
10 -593 595 0
-595 596 0
11 -595 597 0
-597 598 0
12 -597 599 0
-599 600 0
13 -599 601 0
-601 602 0
14 -601 603 0
-603 604 0
15 -603 605 0
-605 606 0
16 -605 607 0
-607 608 0
17 -607 609 0
-609 610 0
18 -609 611 0
-611 612 0
19 -611 613 0
-613 614 0
20 -613 615 0
-615 616 0
21 -615 617 0
-617 618 0
22 -617 619 0
-619 620 0
23 -619 621 0
-621 622 0
24 -621 623 0
-623 624 0
25 -623 625 0
-625 626 0
26 -625 627 0
-627 628 0
27 -627 629 0
-629 630 0
28 -629 631 0
-631 632 0
29 -631 633 0
-633 634 0
30 -633 635 0
-635 636 0
31 -635 0
2 578 0
-578 637 0
3 -578 580 0
-580 638 0
4 -580 582 0
-582 639 0
5 -582 584 0
-584 640 0
6 -584 586 0
-586 641 0
7 -586 588 0
-588 642 0
8 -588 590 0
-590 643 0
9 -590 592 0
-592 644 0
10 -592 594 0
-594 645 0
11 -594 596 0
-596 646 0
12 -596 598 0
-598 647 0
13 -598 600 0
-600 648 0
14 -600 602 0
-602 649 0
15 -602 604 0
-604 650 0
16 -604 606 0
-606 651 0
17 -606 608 0
-608 652 0
18 -608 610 0
-610 653 0
19 -610 612 0
-612 654 0
20 -612 614 0
-614 655 0
21 -614 616 0
-616 656 0
22 -616 618 0
-618 657 0
23 -618 620 0
-620 658 0
24 -620 622 0
-622 659 0
25 -622 624 0
-624 660 0
26 -624 626 0
-626 661 0
27 -626 628 0
-628 662 0
28 -628 630 0
-630 663 0
29 -630 632 0
-632 664 0
30 -632 634 0
-634 665 0
31 -634 636 0
-636 666 0
32 -636 0
3 637 0
-637 667 0
4 -637 638 0
-638 668 0
5 -638 639 0
-639 669 0
6 -639 640 0
-640 670 0
7 -640 641 0
-641 671 0
8 -641 642 0
-642 672 0
9 -642 643 0
-643 673 0
10 -643 644 0
-644 674 0
11 -644 645 0
-645 675 0
12 -645 646 0
-646 676 0
13 -646 647 0
-647 677 0
14 -647 648 0
-648 678 0
15 -648 649 0
-649 679 0
16 -649 650 0
-650 680 0
17 -650 651 0
-651 681 0
18 -651 652 0
-652 682 0
19 -652 653 0
-653 683 0
20 -653 654 0
-654 684 0
21 -654 655 0
-655 685 0
22 -655 656 0
-656 686 0
23 -656 657 0
-657 687 0
24 -657 658 0
-658 688 0
25 -658 659 0
-659 689 0
26 -659 660 0
-660 690 0
27 -660 661 0
-661 691 0
28 -661 662 0
-662 692 0
29 -662 663 0
-663 693 0
30 -663 664 0
-664 694 0
31 -664 665 0
-665 695 0
32 -665 666 0
-666 696 0
33 -666 0
4 667 0
-667 697 0
5 -667 668 0
-668 698 0
6 -668 669 0
-669 699 0
7 -669 670 0
-670 700 0
8 -670 671 0
-671 701 0
9 -671 672 0
-672 702 0
10 -672 673 0
-673 703 0
11 -673 674 0
-674 704 0
12 -674 675 0
-675 705 0
13 -675 676 0
-676 706 0
14 -676 677 0
-677 707 0
15 -677 678 0
-678 708 0
16 -678 679 0
-679 709 0
17 -679 680 0
-680 710 0
18 -680 681 0
-681 711 0
19 -681 682 0
-682 712 0
20 -682 683 0
-683 713 0
21 -683 684 0
-684 714 0
22 -684 685 0
-685 715 0
23 -685 686 0
-686 716 0
24 -686 687 0
-687 717 0
25 -687 688 0
-688 718 0
26 -688 689 0
-689 719 0
27 -689 690 0
-690 720 0
28 -690 691 0
-691 721 0
29 -691 692 0
-692 722 0
30 -692 693 0
-693 723 0
31 -693 694 0
-694 724 0
32 -694 695 0
-695 725 0
33 -695 696 0
-696 726 0
34 -696 0
5 697 0
-697 727 0
6 -697 698 0
-698 728 0
7 -698 699 0
-699 729 0
8 -699 700 0
-700 730 0
9 -700 701 0
-701 731 0
10 -701 702 0
-702 732 0
11 -702 703 0
-703 733 0
12 -703 704 0
-704 734 0
13 -704 705 0
-705 735 0
14 -705 706 0
-706 736 0
15 -706 707 0
-707 737 0
16 -707 708 0
-708 738 0
17 -708 709 0
-709 739 0
18 -709 710 0
-710 740 0
19 -710 711 0
-711 741 0
20 -711 712 0
-712 742 0
21 -712 713 0
-713 743 0
22 -713 714 0
-714 744 0
23 -714 715 0
-715 745 0
24 -715 716 0
-716 746 0
25 -716 717 0
-717 747 0
26 -717 718 0
-718 748 0
27 -718 719 0
-719 749 0
28 -719 720 0
-720 750 0
29 -720 721 0
-721 751 0
30 -721 722 0
-722 752 0
31 -722 723 0
-723 753 0
32 -723 724 0
-724 754 0
33 -724 725 0
-725 755 0
34 -725 726 0
-726 756 0
35 -726 0
6 727 0
7 -727 728 0
8 -728 729 0
9 -729 730 0
10 -730 731 0
11 -731 732 0
12 -732 733 0
13 -733 734 0
14 -734 735 0
15 -735 736 0
16 -736 737 0
17 -737 738 0
18 -738 739 0
19 -739 740 0
20 -740 741 0
21 -741 742 0
22 -742 743 0
23 -743 744 0
24 -744 745 0
25 -745 746 0
26 -746 747 0
27 -747 748 0
28 -748 749 0
29 -749 750 0
30 -750 751 0
31 -751 752 0
32 -752 753 0
33 -753 754 0
34 -754 755 0
35 -755 756 0
36 -756 0
-1 757 0
-757 758 0
-2 -757 759 0
-759 760 0
-3 -759 761 0
-761 762 0
-4 -761 763 0
-763 764 0
-5 -763 765 0
-765 766 0
-6 -765 767 0
-767 768 0
-7 -767 0
-2 758 0
-758 769 0
-3 -758 760 0
-760 770 0
-4 -760 762 0
-762 771 0
-5 -762 764 0
-764 772 0
-6 -764 766 0
-766 773 0
-7 -766 768 0
-768 774 0
-8 -768 0
-3 769 0
-769 775 0
-4 -769 770 0
-770 776 0
-5 -770 771 0
-771 777 0
-6 -771 772 0
-772 778 0
-7 -772 773 0
-773 779 0
-8 -773 774 0
-774 780 0
-9 -774 0
-4 775 0
-775 781 0
-5 -775 776 0
-776 782 0
-6 -776 777 0
-777 783 0
-7 -777 778 0
-778 784 0
-8 -778 779 0
-779 785 0
-9 -779 780 0
-780 786 0
-10 -780 0
-5 781 0
-781 787 0
-6 -781 782 0
-782 788 0
-7 -782 783 0
-783 789 0
-8 -783 784 0
-784 790 0
-9 -784 785 0
-785 791 0
-10 -785 786 0
-786 792 0
-11 -786 0
-6 787 0
-787 793 0
-7 -787 788 0
-788 794 0
-8 -788 789 0
-789 795 0
-9 -789 790 0
-790 796 0
-10 -790 791 0
-791 797 0
-11 -791 792 0
-792 798 0
-12 -792 0
-7 793 0
-793 799 0
-8 -793 794 0
-794 800 0
-9 -794 795 0
-795 801 0
-10 -795 796 0
-796 802 0
-11 -796 797 0
-797 803 0
-12 -797 798 0
-798 804 0
-13 -798 0
-8 799 0
-799 805 0
-9 -799 800 0
-800 806 0
-10 -800 801 0
-801 807 0
-11 -801 802 0
-802 808 0
-12 -802 803 0
-803 809 0
-13 -803 804 0
-804 810 0
-14 -804 0
-9 805 0
-805 811 0
-10 -805 806 0
-806 812 0
-11 -806 807 0
-807 813 0
-12 -807 808 0
-808 814 0
-13 -808 809 0
-809 815 0
-14 -809 810 0
-810 816 0
-15 -810 0
-10 811 0
-811 817 0
-11 -811 812 0
-812 818 0
-12 -812 813 0
-813 819 0
-13 -813 814 0
-814 820 0
-14 -814 815 0
-815 821 0
-15 -815 816 0
-816 822 0
-16 -816 0
-11 817 0
-817 823 0
-12 -817 818 0
-818 824 0
-13 -818 819 0
-819 825 0
-14 -819 820 0
-820 826 0
-15 -820 821 0
-821 827 0
-16 -821 822 0
-822 828 0
-17 -822 0
-12 823 0
-823 829 0
-13 -823 824 0
-824 830 0
-14 -824 825 0
-825 831 0
-15 -825 826 0
-826 832 0
-16 -826 827 0
-827 833 0
-17 -827 828 0
-828 834 0
-18 -828 0
-13 829 0
-829 835 0
-14 -829 830 0
-830 836 0
-15 -830 831 0
-831 837 0
-16 -831 832 0
-832 838 0
-17 -832 833 0
-833 839 0
-18 -833 834 0
-834 840 0
-19 -834 0
-14 835 0
-835 841 0
-15 -835 836 0
-836 842 0
-16 -836 837 0
-837 843 0
-17 -837 838 0
-838 844 0
-18 -838 839 0
-839 845 0
-19 -839 840 0
-840 846 0
-20 -840 0
-15 841 0
-841 847 0
-16 -841 842 0
-842 848 0
-17 -842 843 0
-843 849 0
-18 -843 844 0
-844 850 0
-19 -844 845 0
-845 851 0
-20 -845 846 0
-846 852 0
-21 -846 0
-16 847 0
-847 853 0
-17 -847 848 0
-848 854 0
-18 -848 849 0
-849 855 0
-19 -849 850 0
-850 856 0
-20 -850 851 0
-851 857 0
-21 -851 852 0
-852 858 0
-22 -852 0
-17 853 0
-853 859 0
-18 -853 854 0
-854 860 0
-19 -854 855 0
-855 861 0
-20 -855 856 0
-856 862 0
-21 -856 857 0
-857 863 0
-22 -857 858 0
-858 864 0
-23 -858 0
-18 859 0
-859 865 0
-19 -859 860 0
-860 866 0
-20 -860 861 0
-861 867 0
-21 -861 862 0
-862 868 0
-22 -862 863 0
-863 869 0
-23 -863 864 0
-864 870 0
-24 -864 0
-19 865 0
-865 871 0
-20 -865 866 0
-866 872 0
-21 -866 867 0
-867 873 0
-22 -867 868 0
-868 874 0
-23 -868 869 0
-869 875 0
-24 -869 870 0
-870 876 0
-25 -870 0
-20 871 0
-871 877 0
-21 -871 872 0
-872 878 0
-22 -872 873 0
-873 879 0
-23 -873 874 0
-874 880 0
-24 -874 875 0
-875 881 0
-25 -875 876 0
-876 882 0
-26 -876 0
-21 877 0
-877 883 0
-22 -877 878 0
-878 884 0
-23 -878 879 0
-879 885 0
-24 -879 880 0
-880 886 0
-25 -880 881 0
-881 887 0
-26 -881 882 0
-882 888 0
-27 -882 0
-22 883 0
-883 889 0
-23 -883 884 0
-884 890 0
-24 -884 885 0
-885 891 0
-25 -885 886 0
-886 892 0
-26 -886 887 0
-887 893 0
-27 -887 888 0
-888 894 0
-28 -888 0
-23 889 0
-889 895 0
-24 -889 890 0
-890 896 0
-25 -890 891 0
-891 897 0
-26 -891 892 0
-892 898 0
-27 -892 893 0
-893 899 0
-28 -893 894 0
-894 900 0
-29 -894 0
-24 895 0
-895 901 0
-25 -895 896 0
-896 902 0
-26 -896 897 0
-897 903 0
-27 -897 898 0
-898 904 0
-28 -898 899 0
-899 905 0
-29 -899 900 0
-900 906 0
-30 -900 0
-25 901 0
-901 907 0
-26 -901 902 0
-902 908 0
-27 -902 903 0
-903 909 0
-28 -903 904 0
-904 910 0
-29 -904 905 0
-905 911 0
-30 -905 906 0
-906 912 0
-31 -906 0
-26 907 0
-907 913 0
-27 -907 908 0
-908 914 0
-28 -908 909 0
-909 915 0
-29 -909 910 0
-910 916 0
-30 -910 911 0
-911 917 0
-31 -911 912 0
-912 918 0
-32 -912 0
-27 913 0
-913 919 0
-28 -913 914 0
-914 920 0
-29 -914 915 0
-915 921 0
-30 -915 916 0
-916 922 0
-31 -916 917 0
-917 923 0
-32 -917 918 0
-918 924 0
-33 -918 0
-28 919 0
-919 925 0
-29 -919 920 0
-920 926 0
-30 -920 921 0
-921 927 0
-31 -921 922 0
-922 928 0
-32 -922 923 0
-923 929 0
-33 -923 924 0
-924 930 0
-34 -924 0
-29 925 0
-925 931 0
-30 -925 926 0
-926 932 0
-31 -926 927 0
-927 933 0
-32 -927 928 0
-928 934 0
-33 -928 929 0
-929 935 0
-34 -929 930 0
-930 936 0
-35 -930 0
-30 931 0
-31 -931 932 0
-32 -932 933 0
-33 -933 934 0
-34 -934 935 0
-35 -935 936 0
-36 -936 0
937 0
938 939 0
-938 -939 0
-938 -940 941 0
-938 -942 943 0
-938 -944 945 0
-938 -946 947 0
941 948 0
-941 -948 0
-941 -949 938 0
-941 -950 943 0
-941 -951 945 0
-941 -952 947 0
943 953 0
-943 -953 0
-943 -954 938 0
-943 -955 941 0
-943 -956 945 0
-943 -957 947 0
945 958 0
-945 -958 0
-945 -959 938 0
-945 -960 941 0
-945 -961 943 0
-945 -962 947 0
947 963 0
-947 -963 0
-947 -964 938 0
-947 -965 941 0
-947 -966 943 0
-947 -967 945 0
968 0
939 938 0
-939 -938 0
-939 -941 940 0
-939 -943 942 0
-939 -945 944 0
-939 -947 946 0
940 949 0
-940 -949 0
-940 -948 939 0
-940 -950 942 0
-940 -951 944 0
-940 -952 946 0
942 954 0
-942 -954 0
-942 -953 939 0
-942 -955 940 0
-942 -956 944 0
-942 -957 946 0
944 959 0
-944 -959 0
-944 -958 939 0
-944 -960 940 0
-944 -961 942 0
-944 -962 946 0
946 964 0
-946 -964 0
-946 -963 939 0
-946 -965 940 0
-946 -966 942 0
-946 -967 944 0
969 0
948 941 0
-948 -941 0
-948 -938 949 0
-948 -943 950 0
-948 -945 951 0
-948 -947 952 0
949 940 0
-949 -940 0
-949 -939 948 0
-949 -942 950 0
-949 -944 951 0
-949 -946 952 0
950 955 0
-950 -955 0
-950 -953 948 0
-950 -954 949 0
-950 -956 951 0
-950 -957 952 0
951 960 0
-951 -960 0
-951 -958 948 0
-951 -959 949 0
-951 -961 950 0
-951 -962 952 0
952 965 0
-952 -965 0
-952 -963 948 0
-952 -964 949 0
-952 -966 950 0
-952 -967 951 0
970 0
953 943 0
-953 -943 0
-953 -938 954 0
-953 -941 955 0
-953 -945 956 0
-953 -947 957 0
954 942 0
-954 -942 0
-954 -939 953 0
-954 -940 955 0
-954 -944 956 0
-954 -946 957 0
955 950 0
-955 -950 0
-955 -948 953 0
-955 -949 954 0
-955 -951 956 0
-955 -952 957 0
956 961 0
-956 -961 0
-956 -958 953 0
-956 -959 954 0
-956 -960 955 0
-956 -962 957 0
957 966 0
-957 -966 0
-957 -963 953 0
-957 -964 954 0
-957 -965 955 0
-957 -967 956 0
971 0
958 945 0
-958 -945 0
-958 -938 959 0
-958 -941 960 0
-958 -943 961 0
-958 -947 962 0
959 944 0
-959 -944 0
-959 -939 958 0
-959 -940 960 0
-959 -942 961 0
-959 -946 962 0
960 951 0
-960 -951 0
-960 -948 958 0
-960 -949 959 0
-960 -950 961 0
-960 -952 962 0
961 956 0
-961 -956 0
-961 -953 958 0
-961 -954 959 0
-961 -955 960 0
-961 -957 962 0
962 967 0
-962 -967 0
-962 -963 958 0
-962 -964 959 0
-962 -965 960 0
-962 -966 961 0
972 0
963 947 0
-963 -947 0
-963 -938 964 0
-963 -941 965 0
-963 -943 966 0
-963 -945 967 0
964 946 0
-964 -946 0
-964 -939 963 0
-964 -940 965 0
-964 -942 966 0
-964 -944 967 0
965 952 0
-965 -952 0
-965 -948 963 0
-965 -949 964 0
-965 -950 966 0
-965 -951 967 0
966 957 0
-966 -957 0
-966 -953 963 0
-966 -954 964 0
-966 -955 965 0
-966 -956 967 0
967 962 0
-967 -962 0
-967 -958 963 0
-967 -959 964 0
-967 -960 965 0
-967 -961 966 0
-973 0
-974 938 0
-975 941 0
-975 949 0
-941 -949 975 0
-976 943 0
-976 954 0
-943 -954 976 0
-977 945 0
-977 959 0
-945 -959 977 0
-978 947 0
-978 964 0
-947 -964 978 0
-974 -975 0
-974 -976 0
-974 -977 0
-974 -978 0
-938 974 975 976 977 978 0
-979 941 0
-980 938 0
-980 940 0
-938 -940 980 0
-981 943 0
-981 955 0
-943 -955 981 0
-982 945 0
-982 960 0
-945 -960 982 0
-983 947 0
-983 965 0
-947 -965 983 0
-979 -980 0
-979 -981 0
-979 -982 0
-979 -983 0
-941 979 980 981 982 983 0
-984 943 0
-985 938 0
-985 942 0
-938 -942 985 0
-986 941 0
-986 950 0
-941 -950 986 0
-987 945 0
-987 961 0
-945 -961 987 0
-988 947 0
-988 966 0
-947 -966 988 0
-984 -985 0
-984 -986 0
-984 -987 0
-984 -988 0
-943 984 985 986 987 988 0
-989 945 0
-990 938 0
-990 944 0
-938 -944 990 0
-991 941 0
-991 951 0
-941 -951 991 0
-992 943 0
-992 956 0
-943 -956 992 0
-993 947 0
-993 967 0
-947 -967 993 0
-989 -990 0
-989 -991 0
-989 -992 0
-989 -993 0
-945 989 990 991 992 993 0
-994 947 0
-995 938 0
-995 946 0
-938 -946 995 0
-996 941 0
-996 952 0
-941 -952 996 0
-997 943 0
-997 957 0
-943 -957 997 0
-998 945 0
-998 962 0
-945 -962 998 0
-994 -995 0
-994 -996 0
-994 -997 0
-994 -998 0
-947 994 995 996 997 998 0
-999 939 0
-1000 940 0
-1000 948 0
-940 -948 1000 0
-1001 942 0
-1001 953 0
-942 -953 1001 0
-1002 944 0
-1002 958 0
-944 -958 1002 0
-1003 946 0
-1003 963 0
-946 -963 1003 0
-999 -1000 0
-999 -1001 0
-999 -1002 0
-999 -1003 0
-939 999 1000 1001 1002 1003 0
-1004 0
-1005 940 0
-1006 939 0
-1006 941 0
-939 -941 1006 0
-1007 942 0
-1007 955 0
-942 -955 1007 0
-1008 944 0
-1008 960 0
-944 -960 1008 0
-1009 946 0
-1009 965 0
-946 -965 1009 0
-1005 -1006 0
-1005 -1007 0
-1005 -1008 0
-1005 -1009 0
-940 1005 1006 1007 1008 1009 0
-1010 942 0
-1011 939 0
-1011 943 0
-939 -943 1011 0
-1012 940 0
-1012 950 0
-940 -950 1012 0
-1013 944 0
-1013 961 0
-944 -961 1013 0
-1014 946 0
-1014 966 0
-946 -966 1014 0
-1010 -1011 0
-1010 -1012 0
-1010 -1013 0
-1010 -1014 0
-942 1010 1011 1012 1013 1014 0
-1015 944 0
-1016 939 0
-1016 945 0
-939 -945 1016 0
-1017 940 0
-1017 951 0
-940 -951 1017 0
-1018 942 0
-1018 956 0
-942 -956 1018 0
-1019 946 0
-1019 967 0
-946 -967 1019 0
-1015 -1016 0
-1015 -1017 0
-1015 -1018 0
-1015 -1019 0
-944 1015 1016 1017 1018 1019 0
-1020 946 0
-1021 939 0
-1021 947 0
-939 -947 1021 0
-1022 940 0
-1022 952 0
-940 -952 1022 0
-1023 942 0
-1023 957 0
-942 -957 1023 0
-1024 944 0
-1024 962 0
-944 -962 1024 0
-1020 -1021 0
-1020 -1022 0
-1020 -1023 0
-1020 -1024 0
-946 1020 1021 1022 1023 1024 0
-1025 948 0
-1026 949 0
-1026 939 0
-949 -939 1026 0
-1027 950 0
-1027 953 0
-950 -953 1027 0
-1028 951 0
-1028 958 0
-951 -958 1028 0
-1029 952 0
-1029 963 0
-952 -963 1029 0
-1025 -1026 0
-1025 -1027 0
-1025 -1028 0
-1025 -1029 0
-948 1025 1026 1027 1028 1029 0
-1030 949 0
-1031 948 0
-1031 938 0
-948 -938 1031 0
-1032 950 0
-1032 954 0
-950 -954 1032 0
-1033 951 0
-1033 959 0
-951 -959 1033 0
-1034 952 0
-1034 964 0
-952 -964 1034 0
-1030 -1031 0
-1030 -1032 0
-1030 -1033 0
-1030 -1034 0
-949 1030 1031 1032 1033 1034 0
-1035 0
-1036 950 0
-1037 948 0
-1037 943 0
-948 -943 1037 0
-1038 949 0
-1038 942 0
-949 -942 1038 0
-1039 951 0
-1039 961 0
-951 -961 1039 0
-1040 952 0
-1040 966 0
-952 -966 1040 0
-1036 -1037 0
-1036 -1038 0
-1036 -1039 0
-1036 -1040 0
-950 1036 1037 1038 1039 1040 0
-1041 951 0
-1042 948 0
-1042 945 0
-948 -945 1042 0
-1043 949 0
-1043 944 0
-949 -944 1043 0
-1044 950 0
-1044 956 0
-950 -956 1044 0
-1045 952 0
-1045 967 0
-952 -967 1045 0
-1041 -1042 0
-1041 -1043 0
-1041 -1044 0
-1041 -1045 0
-951 1041 1042 1043 1044 1045 0
-1046 952 0
-1047 948 0
-1047 947 0
-948 -947 1047 0
-1048 949 0
-1048 946 0
-949 -946 1048 0
-1049 950 0
-1049 957 0
-950 -957 1049 0
-1050 951 0
-1050 962 0
-951 -962 1050 0
-1046 -1047 0
-1046 -1048 0
-1046 -1049 0
-1046 -1050 0
-952 1046 1047 1048 1049 1050 0
-1051 953 0
-1052 954 0
-1052 939 0
-954 -939 1052 0
-1053 955 0
-1053 948 0
-955 -948 1053 0
-1054 956 0
-1054 958 0
-956 -958 1054 0
-1055 957 0
-1055 963 0
-957 -963 1055 0
-1051 -1052 0
-1051 -1053 0
-1051 -1054 0
-1051 -1055 0
-953 1051 1052 1053 1054 1055 0
-1056 954 0
-1057 953 0
-1057 938 0
-953 -938 1057 0
-1058 955 0
-1058 949 0
-955 -949 1058 0
-1059 956 0
-1059 959 0
-956 -959 1059 0
-1060 957 0
-1060 964 0
-957 -964 1060 0
-1056 -1057 0
-1056 -1058 0
-1056 -1059 0
-1056 -1060 0
-954 1056 1057 1058 1059 1060 0
-1061 955 0
-1062 953 0
-1062 941 0
-953 -941 1062 0
-1063 954 0
-1063 940 0
-954 -940 1063 0
-1064 956 0
-1064 960 0
-956 -960 1064 0
-1065 957 0
-1065 965 0
-957 -965 1065 0
-1061 -1062 0
-1061 -1063 0
-1061 -1064 0
-1061 -1065 0
-955 1061 1062 1063 1064 1065 0
-1066 0
-1067 956 0
-1068 953 0
-1068 945 0
-953 -945 1068 0
-1069 954 0
-1069 944 0
-954 -944 1069 0
-1070 955 0
-1070 951 0
-955 -951 1070 0
-1071 957 0
-1071 967 0
-957 -967 1071 0
-1067 -1068 0
-1067 -1069 0
-1067 -1070 0
-1067 -1071 0
-956 1067 1068 1069 1070 1071 0
-1072 957 0
-1073 953 0
-1073 947 0
-953 -947 1073 0
-1074 954 0
-1074 946 0
-954 -946 1074 0
-1075 955 0
-1075 952 0
-955 -952 1075 0
-1076 956 0
-1076 962 0
-956 -962 1076 0
-1072 -1073 0
-1072 -1074 0
-1072 -1075 0
-1072 -1076 0
-957 1072 1073 1074 1075 1076 0
-1077 958 0
-1078 959 0
-1078 939 0
-959 -939 1078 0
-1079 960 0
-1079 948 0
-960 -948 1079 0
-1080 961 0
-1080 953 0
-961 -953 1080 0
-1081 962 0
-1081 963 0
-962 -963 1081 0
-1077 -1078 0
-1077 -1079 0
-1077 -1080 0
-1077 -1081 0
-958 1077 1078 1079 1080 1081 0
-1082 959 0
-1083 958 0
-1083 938 0
-958 -938 1083 0
-1084 960 0
-1084 949 0
-960 -949 1084 0
-1085 961 0
-1085 954 0
-961 -954 1085 0
-1086 962 0
-1086 964 0
-962 -964 1086 0
-1082 -1083 0
-1082 -1084 0
-1082 -1085 0
-1082 -1086 0
-959 1082 1083 1084 1085 1086 0
-1087 960 0
-1088 958 0
-1088 941 0
-958 -941 1088 0
-1089 959 0
-1089 940 0
-959 -940 1089 0
-1090 961 0
-1090 955 0
-961 -955 1090 0
-1091 962 0
-1091 965 0
-962 -965 1091 0
-1087 -1088 0
-1087 -1089 0
-1087 -1090 0
-1087 -1091 0
-960 1087 1088 1089 1090 1091 0
-1092 961 0
-1093 958 0
-1093 943 0
-958 -943 1093 0
-1094 959 0
-1094 942 0
-959 -942 1094 0
-1095 960 0
-1095 950 0
-960 -950 1095 0
-1096 962 0
-1096 966 0
-962 -966 1096 0
-1092 -1093 0
-1092 -1094 0
-1092 -1095 0
-1092 -1096 0
-961 1092 1093 1094 1095 1096 0
-1097 0
-1098 962 0
-1099 958 0
-1099 947 0
-958 -947 1099 0
-1100 959 0
-1100 946 0
-959 -946 1100 0
-1101 960 0
-1101 952 0
-960 -952 1101 0
-1102 961 0
-1102 957 0
-961 -957 1102 0
-1098 -1099 0
-1098 -1100 0
-1098 -1101 0
-1098 -1102 0
-962 1098 1099 1100 1101 1102 0
-1103 963 0
-1104 964 0
-1104 939 0
-964 -939 1104 0
-1105 965 0
-1105 948 0
-965 -948 1105 0
-1106 966 0
-1106 953 0
-966 -953 1106 0
-1107 967 0
-1107 958 0
-967 -958 1107 0
-1103 -1104 0
-1103 -1105 0
-1103 -1106 0
-1103 -1107 0
-963 1103 1104 1105 1106 1107 0
-1108 964 0
-1109 963 0
-1109 938 0
-963 -938 1109 0
-1110 965 0
-1110 949 0
-965 -949 1110 0
-1111 966 0
-1111 954 0
-966 -954 1111 0
-1112 967 0
-1112 959 0
-967 -959 1112 0
-1108 -1109 0
-1108 -1110 0
-1108 -1111 0
-1108 -1112 0
-964 1108 1109 1110 1111 1112 0
-1113 965 0
-1114 963 0
-1114 941 0
-963 -941 1114 0
-1115 964 0
-1115 940 0
-964 -940 1115 0
-1116 966 0
-1116 955 0
-966 -955 1116 0
-1117 967 0
-1117 960 0
-967 -960 1117 0
-1113 -1114 0
-1113 -1115 0
-1113 -1116 0
-1113 -1117 0
-965 1113 1114 1115 1116 1117 0
-1118 966 0
-1119 963 0
-1119 943 0
-963 -943 1119 0
-1120 964 0
-1120 942 0
-964 -942 1120 0
-1121 965 0
-1121 950 0
-965 -950 1121 0
-1122 967 0
-1122 961 0
-967 -961 1122 0
-1118 -1119 0
-1118 -1120 0
-1118 -1121 0
-1118 -1122 0
-966 1118 1119 1120 1121 1122 0
-1123 967 0
-1124 963 0
-1124 945 0
-963 -945 1124 0
-1125 964 0
-1125 944 0
-964 -944 1125 0
-1126 965 0
-1126 951 0
-965 -951 1126 0
-1127 966 0
-1127 956 0
-966 -956 1127 0
-1123 -1124 0
-1123 -1125 0
-1123 -1126 0
-1123 -1127 0
-967 1123 1124 1125 1126 1127 0
-1128 0
-1129 937 0
-1129 938 0
-1129 941 0
-1129 943 0
-1129 945 0
-1129 947 0
-937 -938 -941 -943 -945 -947 1129 0
-1130 937 0
-1130 939 0
-1130 948 0
-1130 953 0
-1130 958 0
-1130 963 0
-937 -939 -948 -953 -958 -963 1130 0
-1131 939 0
-1131 968 0
-1131 940 0
-1131 942 0
-1131 944 0
-1131 946 0
-939 -968 -940 -942 -944 -946 1131 0
-1132 938 0
-1132 968 0
-1132 949 0
-1132 954 0
-1132 959 0
-1132 964 0
-938 -968 -949 -954 -959 -964 1132 0
-1133 948 0
-1133 949 0
-1133 969 0
-1133 950 0
-1133 951 0
-1133 952 0
-948 -949 -969 -950 -951 -952 1133 0
-1134 941 0
-1134 940 0
-1134 969 0
-1134 955 0
-1134 960 0
-1134 965 0
-941 -940 -969 -955 -960 -965 1134 0
-1135 953 0
-1135 954 0
-1135 955 0
-1135 970 0
-1135 956 0
-1135 957 0
-953 -954 -955 -970 -956 -957 1135 0
-1136 943 0
-1136 942 0
-1136 950 0
-1136 970 0
-1136 961 0
-1136 966 0
-943 -942 -950 -970 -961 -966 1136 0
-1137 958 0
-1137 959 0
-1137 960 0
-1137 961 0
-1137 971 0
-1137 962 0
-958 -959 -960 -961 -971 -962 1137 0
-1138 945 0
-1138 944 0
-1138 951 0
-1138 956 0
-1138 971 0
-1138 967 0
-945 -944 -951 -956 -971 -967 1138 0
-1139 963 0
-1139 964 0
-1139 965 0
-1139 966 0
-1139 967 0
-1139 972 0
-963 -964 -965 -966 -967 -972 1139 0
-1140 947 0
-1140 946 0
-1140 952 0
-1140 957 0
-1140 962 0
-1140 972 0
-947 -946 -952 -957 -962 -972 1140 0
-973 74 0
-1130 -1129 74 0
-74 973 1130 0
-74 973 1129 0
-974 92 0
-1130 -1131 92 0
-92 974 1130 0
-92 974 1131 0
-979 110 0
-1130 -1133 110 0
-110 979 1130 0
-110 979 1133 0
-984 128 0
-1130 -1135 128 0
-128 984 1130 0
-128 984 1135 0
-989 146 0
-1130 -1137 146 0
-146 989 1130 0
-146 989 1137 0
-994 164 0
-1130 -1139 164 0
-164 994 1130 0
-164 994 1139 0
-999 77 0
-1132 -1129 77 0
-77 999 1132 0
-77 999 1129 0
-1004 95 0
-1132 -1131 95 0
-95 1004 1132 0
-95 1004 1131 0
-1005 113 0
-1132 -1133 113 0
-113 1005 1132 0
-113 1005 1133 0
-1010 131 0
-1132 -1135 131 0
-131 1010 1132 0
-131 1010 1135 0
-1015 149 0
-1132 -1137 149 0
-149 1015 1132 0
-149 1015 1137 0
-1020 167 0
-1132 -1139 167 0
-167 1020 1132 0
-167 1020 1139 0
-1025 80 0
-1134 -1129 80 0
-80 1025 1134 0
-80 1025 1129 0
-1030 98 0
-1134 -1131 98 0
-98 1030 1134 0
-98 1030 1131 0
-1035 116 0
-1134 -1133 116 0
-116 1035 1134 0
-116 1035 1133 0
-1036 134 0
-1134 -1135 134 0
-134 1036 1134 0
-134 1036 1135 0
-1041 152 0
-1134 -1137 152 0
-152 1041 1134 0
-152 1041 1137 0
-1046 170 0
-1134 -1139 170 0
-170 1046 1134 0
-170 1046 1139 0
-1051 83 0
-1136 -1129 83 0
-83 1051 1136 0
-83 1051 1129 0
-1056 101 0
-1136 -1131 101 0
-101 1056 1136 0
-101 1056 1131 0
-1061 119 0
-1136 -1133 119 0
-119 1061 1136 0
-119 1061 1133 0
-1066 137 0
-1136 -1135 137 0
-137 1066 1136 0
-137 1066 1135 0
-1067 155 0
-1136 -1137 155 0
-155 1067 1136 0
-155 1067 1137 0
-1072 173 0
-1136 -1139 173 0
-173 1072 1136 0
-173 1072 1139 0
-1077 86 0
-1138 -1129 86 0
-86 1077 1138 0
-86 1077 1129 0
-1082 104 0
-1138 -1131 104 0
-104 1082 1138 0
-104 1082 1131 0
-1087 122 0
-1138 -1133 122 0
-122 1087 1138 0
-122 1087 1133 0
-1092 140 0
-1138 -1135 140 0
-140 1092 1138 0
-140 1092 1135 0
-1097 158 0
-1138 -1137 158 0
-158 1097 1138 0
-158 1097 1137 0
-1098 176 0
-1138 -1139 176 0
-176 1098 1138 0
-176 1098 1139 0
-1103 89 0
-1140 -1129 89 0
-89 1103 1140 0
-89 1103 1129 0
-1108 107 0
-1140 -1131 107 0
-107 1108 1140 0
-107 1108 1131 0
-1113 125 0
-1140 -1133 125 0
-125 1113 1140 0
-125 1113 1133 0
-1118 143 0
-1140 -1135 143 0
-143 1118 1140 0
-143 1118 1135 0
-1123 161 0
-1140 -1137 161 0
-161 1123 1140 0
-161 1123 1137 0
-1128 179 0
-1140 -1139 179 0
-179 1128 1140 0
-179 1128 1139 0
