p cnf 9405 36468
c ind 1 2 3 4 5 6 7 8 9 10 11 12 13 14 15 16 17 18 19 20 21 22 23 24 25 26 27 28 29 30 31 32 33 34 35 36 37 38 39 40 41 42 43 44 45 46 47 48 49 50 0
c ind 51 52 53 54 55 56 57 58 59 60 61 62 63 64 65 66 67 68 69 70 71 72 73 74 75 76 77 78 79 80 81 82 83 84 85 86 87 88 89 90 91 92 93 94 95 96 97 98 99 100 0
c ind 101 102 103 104 105 106 107 108 109 110 111 112 113 114 115 116 117 118 119 120 121 122 123 124 125 126 127 128 129 130 131 132 133 134 135 136 137 138 139 140 141 142 143 144 145 146 147 148 149 150 0
c ind 151 152 153 154 155 156 157 158 159 160 161 162 163 164 165 166 167 168 169 170 171 172 173 174 175 176 177 178 179 180 181 182 183 184 185 186 187 188 189 190 191 192 193 194 195 196 197 198 199 200 0
c ind 201 202 203 204 205 206 207 208 209 210 211 212 213 214 215 216 217 218 219 220 221 222 223 224 225 226 227 228 229 230 231 232 233 234 235 236 237 238 239 240 241 242 243 244 245 246 247 248 249 250 0
c ind 251 252 253 254 255 256 257 258 259 260 261 262 263 264 265 266 267 268 269 270 271 272 273 274 275 276 277 278 279 280 281 282 283 284 285 286 287 288 289 290 291 292 293 294 295 296 297 298 299 300 0
c ind 301 302 303 304 305 306 307 308 309 310 311 312 313 314 315 316 317 318 319 320 321 322 323 324 325 326 327 328 329 330 331 332 333 334 335 336 337 338 339 340 341 342 343 344 345 346 347 348 349 350 0
c ind 351 352 353 354 355 356 357 358 359 360 361 362 363 364 365 366 367 368 369 370 371 372 373 374 375 376 377 378 379 380 381 382 383 384 385 386 387 388 389 390 391 392 393 394 395 396 397 398 399 400 0
c ind 401 402 403 404 405 406 407 408 409 410 411 412 413 414 415 416 417 418 419 420 421 422 423 424 425 426 427 428 429 430 431 432 433 434 435 436 437 438 439 440 441 442 443 444 445 446 447 448 449 450 0
c ind 451 452 453 454 455 456 457 458 459 460 461 462 463 464 465 466 467 468 469 470 471 472 473 474 475 476 477 478 479 480 481 482 483 484 485 486 487 488 489 490 491 492 493 494 495 496 497 498 499 500 0
c ind 501 502 503 504 505 506 507 508 509 510 511 512 513 514 515 516 517 518 519 520 521 522 523 524 525 526 527 528 529 530 531 532 533 534 535 536 537 538 539 540 541 542 543 544 545 546 547 548 549 550 0
c ind 551 552 553 554 555 556 557 558 559 560 561 562 563 564 565 566 567 568 569 570 571 572 573 574 575 576 577 578 579 580 581 582 583 584 585 586 587 588 589 590 591 592 593 594 595 596 597 598 599 600 0
c ind 601 602 603 604 605 606 607 608 609 610 611 612 613 614 615 616 617 618 619 620 621 622 623 624 625 626 627 628 629 630 631 632 633 634 635 636 637 638 639 640 641 642 643 644 645 646 647 648 649 650 0
c ind 651 652 653 654 655 656 657 658 659 660 661 662 663 664 665 666 667 668 669 670 671 672 673 674 675 676 677 678 679 680 681 682 683 684 685 686 687 688 689 690 691 692 693 694 695 696 697 698 699 700 0
c ind 701 702 703 704 705 706 707 708 709 710 711 712 713 714 715 716 717 718 719 720 721 722 723 724 725 726 727 728 729 730 731 732 733 734 735 736 737 738 739 740 741 742 743 744 745 746 747 748 749 750 0
c ind 751 752 753 754 755 756 757 758 759 760 761 762 763 764 765 766 767 768 769 770 771 772 773 774 775 776 777 778 779 780 781 782 783 784 785 786 787 788 789 790 791 792 793 794 795 796 797 798 799 800 0
c ind 801 802 803 804 805 806 807 808 809 810 811 812 813 814 815 816 817 818 819 820 821 822 823 824 825 826 827 828 829 830 831 832 833 834 835 836 837 838 839 840 841 842 843 844 845 846 847 848 849 850 0
c ind 851 852 853 854 855 856 857 858 859 860 861 862 863 864 865 866 867 868 869 870 871 872 873 874 875 876 877 878 879 880 881 882 883 884 885 886 887 888 889 890 891 892 893 894 895 896 897 898 899 900 0
c ind 901 902 903 904 905 906 907 908 909 910 911 912 913 914 915 916 917 918 919 920 921 922 923 924 925 926 927 928 929 930 931 932 933 934 935 936 937 938 939 940 941 942 943 944 945 946 947 948 949 950 0
c ind 951 952 953 954 955 956 957 958 959 960 961 962 963 964 965 966 967 968 969 970 971 972 973 974 975 976 977 978 979 980 981 982 983 984 985 986 987 988 989 990 991 992 993 994 995 996 997 998 999 1000 0
c ind 1001 1002 1003 1004 1005 1006 1007 1008 1009 1010 1011 1012 1013 1014 1015 1016 1017 1018 1019 1020 1021 1022 1023 1024 1025 1026 1027 1028 1029 1030 1031 1032 1033 1034 1035 1036 1037 1038 1039 1040 1041 1042 1043 1044 1045 1046 1047 1048 1049 1050 0
c ind 1051 1052 1053 1054 1055 1056 1057 1058 1059 1060 1061 1062 1063 1064 1065 1066 1067 1068 1069 1070 1071 1072 1073 1074 1075 1076 1077 1078 1079 1080 1081 1082 1083 1084 1085 1086 1087 1088 1089 1090 1091 1092 1093 1094 1095 1096 1097 1098 1099 1100 0
c ind 1101 1102 1103 1104 1105 1106 1107 1108 1109 1110 1111 1112 1113 1114 1115 1116 1117 1118 1119 1120 1121 1122 1123 1124 1125 1126 1127 1128 1129 1130 1131 1132 1133 1134 1135 1136 1137 1138 1139 1140 1141 1142 1143 1144 1145 1146 1147 1148 1149 1150 0
c ind 1151 1152 1153 1154 1155 1156 1157 1158 1159 1160 1161 1162 1163 1164 1165 1166 1167 1168 1169 1170 1171 1172 1173 1174 1175 1176 1177 1178 1179 1180 1181 1182 1183 1184 1185 1186 1187 1188 1189 1190 1191 1192 1193 1194 1195 1196 1197 1198 1199 1200 0
c ind 1201 1202 1203 1204 1205 1206 1207 1208 1209 1210 1211 1212 1213 1214 1215 1216 1217 1218 1219 1220 1221 1222 1223 1224 1225 1226 1227 1228 1229 1230 1231 1232 1233 1234 1235 1236 1237 1238 1239 1240 1241 1242 1243 1244 1245 1246 1247 1248 1249 1250 0
c ind 1251 1252 1253 1254 1255 1256 1257 1258 1259 1260 1261 1262 1263 1264 1265 1266 1267 1268 1269 1270 1271 1272 1273 1274 1275 1276 1277 1278 1279 1280 1281 1282 1283 1284 1285 1286 1287 1288 1289 1290 1291 1292 1293 1294 1295 1296 1297 1298 1299 1300 0
c ind 1301 1302 1303 1304 1305 1306 1307 1308 1309 1310 1311 1312 1313 1314 1315 1316 1317 1318 1319 1320 1321 1322 1323 1324 1325 1326 1327 1328 1329 1330 1331 1332 1333 1334 1335 1336 1337 1338 1339 1340 1341 1342 1343 1344 1345 1346 1347 1348 1349 1350 0
c ind 1351 1352 1353 1354 1355 1356 1357 1358 1359 1360 1361 1362 1363 1364 1365 1366 1367 1368 1369 1370 1371 1372 1373 1374 1375 1376 1377 1378 1379 1380 1381 1382 1383 1384 1385 1386 1387 1388 1389 1390 1391 1392 1393 1394 1395 1396 1397 1398 1399 1400 0
c ind 1401 1402 1403 1404 1405 1406 1407 1408 1409 1410 1411 1412 1413 1414 1415 1416 1417 1418 1419 1420 1421 1422 1423 1424 1425 1426 1427 1428 1429 1430 1431 1432 1433 1434 1435 1436 1437 1438 1439 1440 1441 1442 1443 1444 1445 1446 1447 1448 1449 1450 0
c ind 1451 1452 1453 1454 1455 1456 1457 1458 1459 1460 1461 1462 1463 1464 1465 1466 1467 1468 1469 1470 1471 1472 1473 1474 1475 1476 1477 1478 1479 1480 1481 1482 1483 1484 1485 1486 1487 1488 1489 1490 1491 1492 1493 1494 1495 1496 1497 1498 1499 1500 0
c ind 1501 1502 1503 1504 1505 1506 1507 1508 1509 1510 1511 1512 1513 1514 1515 1516 1517 1518 1519 1520 1521 1522 1523 1524 1525 1526 1527 1528 1529 1530 1531 1532 1533 1534 1535 1536 1537 1538 1539 1540 1541 1542 1543 1544 1545 1546 1547 1548 1549 1550 0
c ind 1551 1552 1553 1554 1555 1556 1557 1558 1559 1560 1561 1562 1563 1564 1565 1566 1567 1568 1569 1570 1571 1572 1573 1574 1575 1576 1577 1578 1579 1580 1581 1582 1583 1584 1585 1586 1587 1588 1589 1590 1591 1592 1593 1594 1595 1596 1597 1598 1599 1600 0
c ind 1601 1602 1603 1604 1605 1606 1607 1608 1609 1610 1611 1612 1613 1614 1615 1616 1617 1618 1619 1620 1621 1622 1623 1624 1625 1626 1627 1628 1629 1630 1631 1632 1633 1634 1635 1636 1637 1638 1639 1640 1641 1642 1643 1644 1645 1646 1647 1648 1649 1650 0
c ind 1651 1652 1653 1654 1655 1656 1657 1658 1659 1660 1661 1662 1663 1664 1665 1666 1667 1668 1669 1670 1671 1672 1673 1674 1675 1676 1677 1678 1679 1680 1681 1682 1683 1684 1685 1686 1687 1688 1689 1690 1691 1692 1693 1694 1695 1696 1697 1698 1699 1700 0
c ind 1701 1702 1703 1704 1705 1706 1707 1708 1709 1710 1711 1712 1713 1714 1715 1716 1717 1718 1719 1720 1721 1722 1723 1724 1725 1726 1727 1728 1729 1730 1731 1732 1733 1734 1735 1736 1737 1738 1739 1740 1741 1742 1743 1744 1745 1746 1747 1748 1749 1750 0
c ind 1751 1752 1753 1754 1755 1756 1757 1758 1759 1760 1761 1762 1763 1764 1765 1766 1767 1768 1769 1770 1771 1772 1773 1774 1775 1776 1777 1778 1779 1780 1781 1782 1783 1784 1785 1786 1787 1788 1789 1790 1791 1792 1793 1794 1795 1796 1797 1798 1799 1800 0
c ind 1801 1802 1803 1804 1805 1806 1807 1808 1809 1810 1811 1812 1813 1814 1815 1816 1817 1818 1819 1820 1821 1822 1823 1824 1825 1826 1827 1828 1829 1830 1831 1832 1833 1834 1835 1836 1837 1838 1839 1840 1841 1842 1843 1844 1845 1846 1847 1848 1849 1850 0
c ind 1851 1852 1853 1854 1855 1856 1857 1858 1859 1860 1861 1862 1863 1864 1865 1866 1867 1868 1869 1870 1871 1872 1873 1874 1875 1876 1877 1878 1879 1880 1881 1882 1883 1884 1885 1886 1887 1888 1889 1890 1891 1892 1893 1894 1895 1896 1897 1898 1899 1900 0
c ind 1901 1902 1903 1904 1905 1906 1907 1908 1909 1910 1911 1912 1913 1914 1915 1916 1917 1918 1919 1920 1921 1922 1923 1924 1925 1926 1927 1928 1929 1930 1931 1932 1933 1934 1935 1936 1937 1938 1939 1940 1941 1942 1943 1944 1945 1946 1947 1948 1949 1950 0
c ind 1951 1952 1953 1954 1955 1956 1957 1958 1959 1960 1961 1962 1963 1964 1965 1966 1967 1968 1969 1970 1971 1972 1973 1974 1975 1976 1977 1978 1979 1980 1981 1982 1983 1984 1985 1986 1987 1988 1989 1990 1991 1992 1993 1994 1995 1996 1997 1998 1999 2000 0
c ind 2001 2002 2003 2004 2005 2006 2007 2008 2009 2010 2011 2012 2013 2014 2015 2016 2017 2018 2019 2020 2021 2022 2023 2024 2025 2026 2027 2028 2029 2030 2031 2032 2033 2034 2035 2036 2037 2038 2039 2040 2041 2042 2043 2044 2045 2046 2047 2048 2049 2050 0
c ind 2051 2052 2053 2054 2055 2056 2057 2058 2059 2060 2061 2062 2063 2064 2065 2066 2067 2068 2069 2070 2071 2072 2073 2074 2075 2076 2077 2078 2079 2080 2081 2082 2083 2084 2085 2086 2087 2088 2089 2090 2091 2092 2093 2094 2095 2096 2097 2098 2099 2100 0
c ind 2101 2102 2103 2104 2105 2106 2107 2108 2109 2110 2111 2112 2113 2114 2115 2116 2117 2118 2119 2120 2121 2122 2123 2124 2125 2126 2127 2128 2129 2130 2131 2132 2133 2134 2135 2136 2137 2138 2139 2140 2141 2142 2143 2144 2145 2146 2147 2148 2149 2150 0
c ind 2151 2152 2153 2154 2155 2156 2157 2158 2159 2160 2161 2162 2163 2164 2165 2166 2167 2168 2169 2170 2171 2172 2173 2174 2175 2176 2177 2178 2179 2180 2181 2182 2183 2184 2185 2186 2187 2188 2189 2190 2191 2192 2193 2194 2195 2196 2197 2198 2199 2200 0
c ind 2201 2202 2203 2204 2205 2206 2207 2208 2209 2210 2211 2212 2213 2214 2215 2216 2217 2218 2219 2220 2221 2222 2223 2224 2225 2226 2227 2228 2229 2230 2231 2232 2233 2234 2235 2236 2237 2238 2239 2240 2241 2242 2243 2244 2245 2246 2247 2248 2249 2250 0
c ind 2251 2252 2253 2254 2255 2256 2257 2258 2259 2260 2261 2262 2263 2264 2265 2266 2267 2268 2269 2270 2271 2272 2273 2274 2275 2276 2277 2278 2279 2280 2281 2282 2283 2284 2285 2286 2287 2288 2289 2290 2291 2292 2293 2294 2295 2296 2297 2298 2299 2300 0
c ind 2301 2302 2303 2304 2305 2306 2307 2308 2309 2310 2311 2312 2313 2314 2315 2316 2317 2318 2319 2320 2321 2322 2323 2324 2325 2326 2327 2328 2329 2330 2331 2332 2333 2334 2335 2336 2337 2338 2339 2340 2341 2342 2343 2344 2345 2346 2347 2348 2349 2350 0
c ind 2351 2352 2353 2354 2355 2356 2357 2358 2359 2360 2361 2362 2363 2364 2365 2366 2367 2368 2369 2370 2371 2372 2373 2374 2375 2376 2377 2378 2379 2380 2381 2382 2383 2384 2385 2386 2387 2388 2389 2390 2391 2392 2393 2394 2395 2396 2397 2398 2399 2400 0
c ind 2401 2402 2403 2404 2405 2406 2407 2408 2409 2410 2411 2412 2413 2414 2415 2416 2417 2418 2419 2420 2421 2422 2423 2424 2425 2426 2427 2428 2429 2430 2431 2432 2433 2434 2435 2436 2437 2438 2439 2440 2441 2442 2443 2444 2445 2446 2447 2448 2449 2450 0
c ind 2451 2452 2453 2454 2455 2456 2457 2458 2459 2460 2461 2462 2463 2464 2465 2466 2467 2468 2469 2470 2471 2472 2473 2474 2475 2476 2477 2478 2479 2480 2481 2482 2483 2484 2485 2486 2487 2488 2489 2490 2491 2492 2493 2494 2495 2496 2497 2498 2499 2500 0
c ind 2501 2502 2503 2504 2505 2506 2507 2508 2509 2510 2511 2512 2513 2514 2515 2516 2517 2518 2519 2520 2521 2522 2523 2524 2525 2526 2527 2528 2529 2530 2531 2532 2533 2534 2535 2536 2537 2538 2539 2540 2541 2542 2543 2544 2545 2546 2547 2548 2549 2550 0
c ind 2551 2552 2553 2554 2555 2556 2557 2558 2559 2560 2561 2562 2563 2564 2565 2566 2567 2568 2569 2570 2571 2572 2573 2574 2575 2576 2577 2578 2579 2580 2581 2582 2583 2584 2585 2586 2587 2588 2589 2590 2591 2592 2593 2594 2595 2596 2597 2598 2599 2600 0
c ind 2601 2602 2603 2604 2605 2606 2607 2608 2609 2610 2611 2612 2613 2614 2615 2616 2617 2618 2619 2620 2621 2622 2623 2624 2625 2626 2627 2628 2629 2630 2631 2632 2633 2634 2635 2636 2637 2638 2639 2640 2641 2642 2643 2644 2645 2646 2647 2648 2649 2650 0
c ind 2651 2652 2653 2654 2655 2656 2657 2658 2659 2660 2661 2662 2663 2664 2665 2666 2667 2668 2669 2670 2671 2672 2673 2674 2675 2676 2677 2678 2679 2680 2681 2682 2683 2684 2685 2686 2687 2688 2689 2690 2691 2692 2693 2694 2695 2696 2697 2698 2699 2700 0
c ind 2701 2702 2703 2704 2705 2706 2707 2708 2709 2710 2711 2712 2713 2714 2715 2716 2717 2718 2719 2720 2721 2722 2723 2724 2725 2726 2727 2728 2729 2730 2731 2732 2733 2734 2735 2736 2737 2738 2739 2740 2741 2742 2743 2744 2745 2746 2747 2748 2749 2750 0
c ind 2751 2752 2753 2754 2755 2756 2757 2758 2759 2760 2761 2762 2763 2764 2765 2766 2767 2768 2769 2770 2771 2772 2773 2774 2775 2776 2777 2778 2779 2780 2781 2782 2783 2784 2785 2786 2787 2788 2789 2790 2791 2792 2793 2794 2795 2796 2797 2798 2799 2800 0
c ind 2801 2802 2803 2804 2805 2806 2807 2808 2809 2810 2811 2812 2813 2814 2815 2816 2817 2818 2819 2820 2821 2822 2823 2824 2825 2826 2827 2828 2829 2830 2831 2832 2833 2834 2835 2836 2837 2838 2839 2840 2841 2842 2843 2844 2845 2846 2847 2848 2849 2850 0
c ind 2851 2852 2853 2854 2855 2856 2857 2858 2859 2860 2861 2862 2863 2864 2865 2866 2867 2868 2869 2870 2871 2872 2873 2874 2875 2876 2877 2878 2879 2880 2881 2882 2883 2884 2885 2886 2887 2888 2889 2890 2891 2892 2893 2894 2895 2896 2897 2898 2899 2900 0
c ind 2901 2902 2903 2904 2905 2906 2907 2908 2909 2910 2911 2912 2913 2914 2915 2916 2917 2918 2919 2920 2921 2922 2923 2924 2925 2926 2927 2928 2929 2930 2931 2932 2933 2934 2935 2936 2937 2938 2939 2940 2941 2942 2943 2944 2945 2946 2947 2948 2949 2950 0
c ind 2951 2952 2953 2954 2955 2956 2957 2958 2959 2960 2961 2962 2963 2964 2965 2966 2967 2968 2969 2970 2971 2972 2973 2974 2975 2976 2977 2978 2979 2980 2981 2982 2983 2984 2985 2986 2987 2988 2989 2990 2991 2992 2993 2994 2995 2996 2997 2998 2999 3000 0
c ind 3001 3002 3003 3004 3005 3006 3007 3008 3009 3010 3011 3012 3013 3014 3015 3016 3017 3018 3019 3020 3021 3022 3023 3024 3025 3026 3027 3028 3029 3030 3031 3032 3033 3034 3035 3036 3037 3038 3039 3040 3041 3042 3043 3044 3045 3046 3047 3048 3049 3050 0
c ind 3051 3052 3053 3054 3055 3056 3057 3058 3059 3060 3061 3062 3063 3064 3065 3066 3067 3068 3069 3070 3071 3072 3073 3074 3075 3076 3077 3078 3079 3080 3081 3082 3083 3084 3085 3086 3087 3088 3089 3090 3091 3092 3093 3094 3095 3096 3097 3098 3099 3100 0
c ind 3101 3102 3103 3104 3105 3106 3107 3108 3109 3110 3111 3112 3113 3114 3115 3116 3117 3118 3119 3120 3121 3122 3123 3124 3125 3126 3127 3128 3129 3130 3131 3132 3133 3134 3135 3136 3137 3138 3139 3140 3141 3142 3143 3144 3145 3146 3147 3148 3149 3150 0
c ind 3151 3152 3153 3154 3155 3156 3157 3158 3159 3160 3161 3162 3163 3164 3165 3166 3167 3168 3169 3170 3171 3172 3173 3174 3175 3176 3177 3178 3179 3180 3181 3182 3183 3184 3185 3186 3187 3188 3189 3190 3191 3192 3193 3194 3195 3196 3197 3198 3199 3200 0
c ind 3201 3202 3203 3204 3205 3206 3207 3208 3209 3210 3211 3212 3213 3214 3215 3216 3217 3218 3219 3220 3221 3222 3223 3224 3225 3226 3227 3228 3229 3230 3231 3232 3233 3234 3235 3236 3237 3238 3239 3240 3241 3242 3243 3244 3245 3246 3247 3248 3249 3250 0
c ind 3251 3252 3253 3254 3255 3256 3257 3258 3259 3260 3261 3262 3263 3264 3265 3266 3267 3268 3269 3270 3271 3272 3273 3274 3275 3276 3277 3278 3279 3280 3281 3282 3283 3284 3285 3286 3287 3288 3289 3290 3291 3292 3293 3294 3295 3296 3297 3298 3299 3300 0
c ind 3301 3302 3303 3304 3305 3306 3307 3308 3309 3310 3311 3312 3313 3314 3315 3316 3317 3318 3319 3320 3321 3322 3323 3324 3325 3326 3327 3328 3329 3330 3331 3332 3333 3334 3335 3336 3337 3338 3339 3340 3341 3342 3343 3344 3345 3346 3347 3348 3349 3350 0
c ind 3351 3352 3353 3354 3355 3356 3357 3358 3359 3360 3361 3362 3363 3364 3365 3366 3367 3368 3369 3370 3371 3372 3373 3374 3375 3376 3377 3378 3379 3380 3381 3382 3383 3384 3385 3386 3387 3388 3389 3390 3391 3392 3393 3394 3395 3396 3397 3398 3399 3400 0
c ind 3401 3402 3403 3404 3405 3406 3407 3408 3409 3410 3411 3412 3413 3414 3415 3416 3417 3418 3419 3420 3421 3422 3423 3424 3425 3426 3427 3428 3429 3430 3431 3432 3433 3434 3435 3436 3437 3438 3439 3440 3441 3442 3443 3444 3445 3446 3447 3448 3449 3450 0
c ind 3451 3452 3453 3454 3455 3456 3457 3458 3459 3460 3461 3462 3463 3464 3465 3466 3467 3468 3469 3470 3471 3472 3473 3474 3475 3476 3477 3478 3479 3480 3481 3482 3483 3484 3485 3486 3487 3488 3489 3490 3491 3492 3493 3494 3495 3496 3497 3498 3499 3500 0
c ind 3501 3502 3503 3504 3505 3506 3507 3508 3509 3510 3511 3512 3513 3514 3515 3516 3517 3518 3519 3520 3521 3522 3523 3524 3525 3526 3527 3528 3529 3530 3531 3532 3533 3534 3535 3536 3537 3538 3539 3540 3541 3542 3543 3544 3545 3546 3547 3548 3549 3550 0
c ind 3551 3552 3553 3554 3555 3556 3557 3558 3559 3560 3561 3562 3563 3564 3565 3566 3567 3568 3569 3570 3571 3572 3573 3574 3575 3576 3577 3578 3579 3580 3581 3582 3583 3584 3585 3586 3587 3588 3589 3590 3591 3592 3593 3594 3595 3596 3597 3598 3599 3600 0
c ind 3601 3602 3603 3604 3605 3606 3607 3608 3609 3610 3611 3612 3613 3614 3615 3616 3617 3618 3619 3620 3621 3622 3623 3624 3625 3626 3627 3628 3629 3630 3631 3632 3633 3634 3635 3636 3637 3638 3639 3640 3641 3642 3643 3644 3645 3646 3647 3648 3649 3650 0
c ind 3651 3652 3653 3654 3655 3656 3657 3658 3659 3660 3661 3662 3663 3664 3665 3666 3667 3668 3669 3670 3671 3672 3673 3674 3675 3676 3677 3678 3679 3680 3681 3682 3683 3684 3685 3686 3687 3688 3689 3690 3691 3692 3693 3694 3695 3696 3697 3698 3699 3700 0
c ind 3701 3702 3703 3704 3705 3706 3707 3708 3709 3710 3711 3712 3713 3714 3715 3716 3717 3718 3719 3720 3721 3722 3723 3724 3725 3726 3727 3728 3729 3730 3731 3732 3733 3734 3735 3736 3737 3738 3739 3740 3741 3742 3743 3744 3745 3746 3747 3748 3749 3750 0
c ind 3751 3752 3753 3754 3755 3756 3757 3758 3759 3760 3761 3762 3763 3764 3765 3766 3767 3768 3769 3770 3771 3772 3773 3774 3775 3776 3777 3778 3779 3780 3781 3782 3783 3784 3785 3786 3787 3788 3789 3790 3791 3792 3793 3794 3795 3796 3797 3798 3799 3800 0
c ind 3801 3802 3803 3804 3805 3806 3807 3808 3809 3810 3811 3812 3813 3814 3815 3816 3817 3818 3819 3820 3821 3822 3823 3824 3825 3826 3827 3828 3829 3830 3831 3832 3833 3834 3835 3836 3837 3838 3839 3840 3841 3842 3843 3844 3845 3846 3847 3848 3849 3850 0
c ind 3851 3852 3853 3854 3855 3856 3857 3858 3859 3860 3861 3862 3863 3864 3865 3866 3867 3868 3869 3870 3871 3872 3873 3874 3875 3876 3877 3878 3879 3880 3881 3882 3883 3884 3885 3886 3887 3888 3889 3890 3891 3892 3893 3894 3895 3896 3897 3898 3899 3900 0
c ind 3901 3902 3903 3904 3905 3906 3907 3908 3909 3910 3911 3912 3913 3914 3915 3916 3917 3918 3919 3920 3921 3922 3923 3924 3925 3926 3927 3928 3929 3930 3931 3932 3933 3934 3935 3936 3937 3938 3939 3940 3941 3942 3943 3944 3945 3946 3947 3948 3949 3950 0
c ind 3951 3952 3953 3954 3955 3956 3957 3958 3959 3960 3961 3962 3963 3964 3965 3966 3967 3968 3969 3970 3971 3972 3973 3974 3975 3976 3977 3978 3979 3980 3981 3982 3983 3984 3985 3986 3987 3988 3989 3990 3991 3992 3993 3994 3995 3996 3997 3998 3999 4000 0
c ind 4001 4002 4003 4004 4005 4006 4007 4008 4009 4010 4011 4012 4013 4014 4015 4016 4017 4018 4019 4020 4021 4022 4023 4024 4025 4026 4027 4028 4029 4030 4031 4032 4033 4034 4035 4036 4037 4038 4039 4040 4041 4042 4043 4044 4045 4046 4047 4048 4049 4050 0
c ind 4051 4052 4053 4054 4055 4056 4057 4058 4059 4060 4061 4062 4063 4064 4065 4066 4067 4068 4069 4070 4071 4072 4073 4074 4075 4076 4077 4078 4079 4080 4081 4082 4083 4084 4085 4086 4087 4088 4089 4090 4091 4092 4093 4094 4095 4096 4097 4098 4099 4100 0
c ind 4101 4102 4103 4104 4105 4106 4107 4108 4109 4110 4111 4112 4113 4114 4115 4116 4117 4118 4119 4120 4121 4122 4123 4124 4125 4126 4127 4128 4129 4130 4131 4132 4133 4134 4135 4136 4137 4138 4139 4140 4141 4142 4143 4144 4145 4146 4147 4148 4149 4150 0
c ind 4151 4152 4153 4154 4155 4156 4157 4158 4159 4160 4161 4162 4163 4164 4165 4166 4167 4168 4169 4170 4171 4172 4173 4174 4175 4176 4177 4178 4179 4180 4181 4182 4183 4184 4185 4186 4187 4188 4189 4190 4191 4192 4193 4194 4195 4196 4197 4198 4199 4200 0
c ind 4201 4202 4203 4204 4205 4206 4207 4208 4209 4210 4211 4212 4213 4214 4215 4216 4217 4218 4219 4220 4221 4222 4223 4224 4225 4226 4227 4228 4229 4230 4231 4232 4233 4234 4235 4236 4237 4238 4239 4240 4241 4242 4243 4244 4245 4246 4247 4248 4249 4250 0
c ind 4251 4252 4253 4254 4255 4256 4257 4258 4259 4260 4261 4262 4263 4264 4265 4266 4267 4268 4269 4270 4271 4272 4273 4274 4275 4276 4277 4278 4279 4280 4281 4282 4283 4284 4285 4286 4287 4288 4289 4290 4291 4292 4293 4294 4295 4296 4297 4298 4299 4300 0
c ind 4301 4302 4303 4304 4305 4306 4307 4308 4309 4310 4311 4312 4313 4314 4315 4316 4317 4318 4319 4320 4321 4322 4323 4324 4325 4326 4327 4328 4329 4330 4331 4332 4333 4334 4335 4336 4337 4338 4339 4340 4341 4342 4343 4344 4345 4346 4347 4348 4349 4350 0
c ind 4351 4352 4353 4354 4355 4356 4357 4358 4359 4360 4361 4362 4363 4364 4365 4366 4367 4368 4369 4370 4371 4372 4373 4374 4375 4376 4377 4378 4379 4380 4381 4382 4383 4384 4385 4386 4387 4388 4389 4390 4391 4392 4393 4394 4395 4396 4397 4398 4399 4400 0
c ind 4401 4402 4403 4404 4405 4406 4407 4408 4409 4410 4411 4412 4413 4414 4415 4416 4417 4418 4419 4420 4421 4422 4423 4424 4425 4426 4427 4428 4429 4430 4431 4432 4433 4434 4435 4436 4437 4438 4439 4440 4441 4442 4443 4444 4445 4446 4447 4448 4449 4450 0
c ind 4451 4452 4453 4454 4455 4456 4457 4458 4459 4460 4461 4462 4463 4464 4465 4466 4467 4468 4469 4470 4471 4472 4473 4474 4475 4476 4477 4478 4479 4480 4481 4482 4483 4484 4485 4486 4487 4488 4489 4490 4491 4492 4493 4494 4495 4496 4497 4498 4499 4500 0
c ind 4501 4502 4503 4504 4505 4506 4507 4508 4509 4510 4511 4512 4513 4514 4515 4516 4517 4518 4519 4520 4521 4522 4523 4524 4525 4526 4527 4528 4529 4530 4531 4532 4533 4534 4535 4536 4537 4538 4539 4540 4541 4542 4543 4544 4545 4546 4547 4548 4549 4550 0
c ind 4551 4552 4553 4554 4555 4556 4557 4558 4559 4560 4561 4562 4563 4564 4565 4566 4567 4568 4569 4570 4571 4572 4573 4574 4575 4576 4577 4578 4579 4580 4581 4582 4583 4584 4585 4586 4587 4588 4589 4590 4591 4592 4593 4594 4595 4596 4597 4598 4599 4600 0
c ind 4601 4602 4603 4604 4605 4606 4607 4608 4609 4610 4611 4612 4613 4614 4615 4616 4617 4618 4619 4620 4621 4622 4623 4624 4625 4626 4627 4628 4629 4630 4631 4632 4633 4634 4635 4636 4637 4638 4639 4640 4641 4642 4643 4644 4645 4646 4647 4648 4649 4650 0
c ind 4651 4652 4653 4654 4655 4656 4657 4658 4659 4660 4661 4662 4663 4664 4665 4666 4667 4668 4669 4670 4671 4672 4673 4674 4675 4676 4677 4678 4679 4680 4681 4682 4683 4684 4685 4686 4687 4688 4689 4690 4691 4692 4693 4694 4695 4696 4697 4698 4699 4700 0
c ind 4701 4702 4703 4704 4705 4706 4707 4708 4709 4710 4711 4712 4713 4714 4715 4716 4717 4718 4719 4720 4721 4722 4723 4724 4725 4726 4727 4728 4729 4730 4731 4732 4733 4734 4735 4736 4737 4738 4739 4740 4741 4742 4743 4744 4745 4746 4747 4748 4749 4750 0
c ind 4751 4752 4753 4754 4755 4756 4757 4758 4759 4760 4761 4762 4763 4764 4765 4766 4767 4768 4769 4770 4771 4772 4773 4774 4775 4776 4777 4778 4779 4780 4781 4782 4783 4784 4785 4786 4787 4788 4789 4790 4791 4792 4793 4794 4795 4796 4797 4798 4799 4800 0
c ind 4801 4802 4803 4804 4805 4806 4807 4808 4809 4810 4811 4812 4813 4814 4815 4816 4817 4818 4819 4820 4821 4822 4823 4824 4825 4826 4827 4828 4829 4830 4831 4832 4833 4834 4835 4836 4837 4838 4839 4840 4841 4842 4843 4844 4845 4846 4847 4848 4849 4850 0
c ind 4851 4852 4853 4854 4855 4856 4857 4858 4859 4860 4861 4862 4863 4864 4865 4866 4867 4868 4869 4870 4871 4872 4873 4874 4875 4876 4877 4878 4879 4880 4881 4882 4883 4884 4885 4886 4887 4888 4889 4890 4891 4892 4893 4894 4895 4896 4897 4898 4899 4900 0
c ind 4901 4902 4903 4904 4905 4906 4907 4908 4909 4910 4911 4912 4913 4914 4915 4916 4917 4918 4919 4920 4921 4922 4923 4924 4925 4926 4927 4928 4929 4930 4931 4932 4933 4934 4935 4936 4937 4938 4939 4940 4941 4942 4943 4944 4945 4946 4947 4948 4949 4950 0
c ind 4951 4952 4953 4954 4955 4956 4957 4958 4959 4960 4961 4962 4963 4964 4965 4966 4967 4968 4969 4970 4971 4972 4973 4974 4975 4976 4977 4978 4979 4980 4981 4982 4983 4984 4985 4986 4987 4988 4989 4990 4991 4992 4993 4994 4995 4996 4997 4998 4999 5000 0
c ind 5001 5002 5003 5004 5005 5006 5007 5008 5009 5010 5011 5012 5013 5014 5015 5016 5017 5018 5019 5020 5021 5022 5023 5024 5025 5026 5027 5028 5029 5030 5031 5032 5033 5034 5035 5036 5037 5038 5039 5040 5041 5042 5043 5044 5045 5046 5047 5048 5049 5050 0
c ind 5051 5052 5053 5054 5055 5056 5057 5058 5059 5060 5061 5062 5063 5064 5065 5066 5067 5068 5069 5070 5071 5072 5073 5074 5075 5076 5077 5078 5079 5080 5081 5082 5083 5084 5085 5086 5087 5088 5089 5090 5091 5092 5093 5094 5095 5096 5097 5098 5099 5100 0
c ind 5101 5102 5103 5104 5105 5106 5107 5108 5109 5110 5111 5112 5113 5114 5115 5116 5117 5118 5119 5120 5121 5122 5123 5124 5125 5126 5127 5128 5129 5130 5131 5132 5133 5134 5135 5136 5137 5138 5139 5140 5141 5142 5143 5144 5145 5146 5147 5148 5149 5150 0
c ind 5151 5152 5153 5154 5155 5156 5157 5158 5159 5160 5161 5162 5163 5164 5165 5166 5167 5168 5169 5170 5171 5172 5173 5174 5175 5176 5177 5178 5179 5180 5181 5182 5183 5184 5185 5186 5187 5188 5189 5190 5191 5192 5193 5194 5195 5196 5197 5198 5199 5200 0
c ind 5201 5202 5203 5204 5205 5206 5207 5208 5209 5210 5211 5212 5213 5214 5215 5216 5217 5218 5219 5220 5221 5222 5223 5224 5225 5226 5227 5228 5229 5230 5231 5232 5233 5234 5235 5236 5237 5238 5239 5240 5241 5242 5243 5244 5245 5246 5247 5248 5249 5250 0
c ind 5251 5252 5253 5254 5255 5256 5257 5258 5259 5260 5261 5262 5263 5264 5265 5266 5267 5268 5269 5270 5271 5272 5273 5274 5275 5276 5277 5278 5279 5280 5281 5282 5283 5284 5285 5286 5287 5288 5289 5290 5291 5292 5293 5294 5295 5296 5297 5298 5299 5300 0
c ind 5301 5302 5303 5304 5305 5306 5307 5308 5309 5310 5311 5312 5313 5314 5315 5316 5317 5318 5319 5320 5321 5322 5323 5324 5325 5326 5327 5328 5329 5330 5331 5332 5333 5334 5335 5336 5337 5338 5339 5340 5341 5342 5343 5344 5345 5346 5347 5348 5349 5350 0
c ind 5351 5352 5353 5354 5355 5356 5357 5358 5359 5360 5361 5362 5363 5364 5365 5366 5367 5368 5369 5370 5371 5372 5373 5374 5375 5376 5377 5378 5379 5380 5381 5382 5383 5384 5385 5386 5387 5388 5389 5390 5391 5392 5393 5394 5395 5396 5397 5398 5399 5400 0
c ind 5401 5402 5403 5404 5405 5406 5407 5408 5409 5410 5411 5412 5413 5414 5415 5416 5417 5418 5419 5420 5421 5422 5423 5424 5425 5426 5427 5428 5429 5430 5431 5432 5433 5434 5435 5436 5437 5438 5439 5440 5441 5442 5443 5444 5445 5446 5447 5448 5449 5450 0
c ind 5451 5452 5453 5454 5455 5456 5457 5458 5459 5460 5461 5462 5463 5464 5465 5466 5467 5468 5469 5470 5471 5472 5473 5474 5475 5476 5477 5478 5479 5480 5481 5482 5483 5484 5485 5486 5487 5488 5489 5490 5491 5492 5493 5494 5495 5496 5497 5498 5499 5500 0
c ind 5501 5502 5503 5504 5505 5506 5507 5508 5509 5510 5511 5512 5513 5514 5515 5516 5517 5518 5519 5520 5521 5522 5523 5524 5525 5526 5527 5528 5529 5530 5531 5532 5533 5534 5535 5536 5537 5538 5539 5540 5541 5542 5543 5544 5545 5546 5547 5548 5549 5550 0
c ind 5551 5552 5553 5554 5555 5556 5557 5558 5559 5560 5561 5562 5563 5564 5565 5566 5567 5568 5569 5570 5571 5572 5573 5574 5575 5576 5577 5578 5579 5580 5581 5582 5583 5584 5585 5586 5587 5588 5589 5590 5591 5592 5593 5594 5595 5596 5597 5598 5599 5600 0
c ind 5601 5602 5603 5604 5605 5606 5607 5608 5609 5610 5611 5612 5613 5614 5615 5616 5617 5618 5619 5620 5621 5622 5623 5624 5625 5626 5627 5628 5629 5630 5631 5632 5633 5634 5635 5636 5637 5638 5639 5640 5641 5642 5643 5644 5645 5646 5647 5648 5649 5650 0
c ind 5651 5652 5653 5654 5655 5656 5657 5658 5659 5660 5661 5662 5663 5664 5665 5666 5667 5668 5669 5670 5671 5672 5673 5674 5675 5676 5677 5678 5679 5680 5681 5682 5683 5684 5685 5686 5687 5688 5689 5690 5691 5692 5693 5694 5695 5696 5697 5698 5699 5700 0
c ind 5701 5702 5703 5704 5705 5706 5707 5708 5709 5710 5711 5712 5713 5714 5715 5716 5717 5718 5719 5720 5721 5722 5723 5724 5725 5726 5727 5728 5729 5730 5731 5732 5733 5734 5735 5736 5737 5738 5739 5740 5741 5742 5743 5744 5745 5746 5747 5748 5749 5750 0
c ind 5751 5752 5753 5754 5755 5756 5757 5758 5759 5760 5761 5762 5763 5764 5765 5766 5767 5768 5769 5770 5771 5772 5773 5774 5775 5776 5777 5778 5779 5780 5781 5782 5783 5784 5785 5786 5787 5788 5789 5790 5791 5792 5793 5794 5795 5796 5797 5798 5799 5800 0
c ind 5801 5802 5803 5804 5805 5806 5807 5808 5809 5810 5811 5812 5813 5814 5815 5816 5817 5818 5819 5820 5821 5822 5823 5824 5825 5826 5827 5828 5829 5830 5831 5832 5833 5834 5835 5836 5837 5838 5839 5840 5841 5842 5843 5844 5845 5846 5847 5848 5849 5850 0
c ind 5851 5852 5853 5854 5855 5856 5857 5858 5859 5860 5861 5862 5863 5864 5865 5866 5867 5868 5869 5870 5871 5872 5873 5874 5875 5876 5877 5878 5879 5880 5881 5882 5883 5884 5885 5886 5887 5888 5889 5890 5891 5892 5893 5894 5895 5896 5897 5898 5899 5900 0
c ind 5901 5902 5903 5904 5905 5906 5907 5908 5909 5910 5911 5912 5913 5914 5915 5916 5917 5918 5919 5920 5921 5922 5923 5924 5925 5926 5927 5928 5929 5930 5931 5932 5933 5934 5935 5936 5937 5938 5939 5940 5941 5942 5943 5944 5945 5946 5947 5948 5949 5950 0
c ind 5951 5952 5953 5954 5955 5956 5957 5958 5959 5960 5961 5962 5963 5964 5965 5966 5967 5968 5969 5970 5971 5972 5973 5974 5975 5976 5977 5978 5979 5980 5981 5982 5983 5984 5985 5986 5987 5988 5989 5990 5991 5992 5993 5994 5995 5996 5997 5998 5999 6000 0
c ind 6046 6047 6048 6049 6050 6051 6052 6053 6054 6055 6056 6057 6058 6059 6060 6061 6062 6063 6064 6065 6066 6067 6068 6069 6070 6071 6072 6073 6074 6075 6076 6077 6078 6079 6080 6081 6082 6083 6084 6085 6086 6087 6088 6089 6090 6091 6092 6093 6094 6095 0
c ind 6096 6097 6098 6099 6100 6101 6102 6103 6104 6105 6106 6107 6108 6109 6110 6111 6112 6113 6114 6115 6116 6117 6118 6119 6120 6121 6122 6123 6124 6125 6126 6127 6128 6129 6130 6131 6132 6133 6134 6135 6136 6137 6138 6139 6140 6141 6142 6143 6144 6145 0
c ind 6146 6147 6148 6149 6150 6151 6152 6153 6154 6155 6156 6157 6158 6159 6160 6161 6162 6163 6164 6165 6166 6167 6168 6169 6170 6171 6172 6173 6174 6175 6176 6177 6178 6179 6180 6181 6182 6183 6184 6185 6186 6187 6188 6189 6190 6191 6192 6193 6194 6195 0
c ind 6196 6197 6198 6199 6200 6201 6202 6203 6204 6205 6206 6207 6208 6209 6210 6211 6212 6213 6214 6215 6216 6217 6218 6219 6220 6221 6222 6223 6224 6225 6226 6227 6228 6229 6230 6231 6232 6233 6234 6235 6236 6237 6238 6239 6240 6241 6242 6243 6244 6245 0
c ind 6246 6247 6248 6249 6250 6251 6252 6253 6254 6255 6256 6257 6258 6259 6260 6261 6262 6263 6264 6265 6266 6267 6268 6269 6270 6271 6272 6273 6274 6275 6276 6277 6278 6279 6280 6281 6282 6283 6284 6285 6286 6287 6288 6289 6290 6291 6292 6293 6294 6295 0
c ind 6296 6297 6298 6299 6300 6301 6302 6303 6304 6305 6306 6307 6308 6309 6310 6311 6312 6313 6314 6315 6316 6317 6318 6319 6320 6321 6322 6323 6324 6325 6326 6327 6328 6329 6330 6331 6332 6333 6334 6335 6336 6337 6338 6339 6340 6341 6342 6343 6344 6345 0
c ind 6346 6347 6348 6349 6350 6351 6352 6353 6354 6355 6356 6357 6358 6359 6360 6361 6362 6363 6364 6365 6366 6367 6368 6369 6370 6371 6372 6373 6374 6375 6376 6377 6378 6379 6380 6381 6382 6383 6384 6385 6386 6387 6388 6389 6390 6391 6392 6393 6394 6395 0
c ind 6396 6397 6398 6399 6400 6401 6402 6403 6404 6405 6406 6407 6408 6409 6410 6411 6412 6413 6414 6415 6416 6417 6418 6419 6420 6421 6422 6423 6424 6425 6426 6427 6428 6429 6430 6431 6432 6433 6434 6435 6436 6437 6438 6439 6440 6441 6442 6443 6444 6445 0
c ind 6446 6447 6448 6449 6450 6451 6452 6453 6454 6455 6456 6457 6458 6459 6460 6461 6462 6463 6464 6465 6466 6467 6468 6469 6470 6471 6472 6473 6474 6475 6476 6477 6478 6479 6480 6481 6482 6483 6484 6485 6486 6487 6488 6489 6490 6491 6492 6493 6494 6495 0
c ind 6496 6497 6498 6499 6500 6501 6502 6503 6504 6505 6506 6507 6508 6509 6510 6511 6512 6513 6514 6515 6516 6517 6518 6519 6520 6521 6522 6523 6524 6525 6526 6527 6528 6529 6530 6531 6532 6533 6534 6535 6536 6537 6538 6539 6540 6541 6542 6543 6544 6545 0
c ind 6546 6547 6548 6549 6550 6551 6552 6553 6554 6555 6556 6557 6558 6559 6560 6561 6562 6563 6564 6565 6566 6567 6568 6569 6570 6571 6572 6573 6574 6575 6576 6577 6578 6579 6580 6581 6582 6583 6584 6585 6586 6587 6588 6589 6590 6591 6592 6593 6594 6595 0
c ind 6596 6597 6598 6599 6600 6601 6602 6603 6604 6605 6606 6607 6608 6609 6610 6611 6612 6613 6614 6615 6616 6617 6618 6619 6620 6621 6622 6623 6624 6625 6626 6627 6628 6629 6630 6631 6632 6633 6634 6635 6636 6637 6638 6639 6640 6641 6642 6643 6644 6645 0
c ind 6646 6647 6648 6649 6650 6651 6652 6653 6654 6655 6656 6657 6658 6659 6660 6661 6662 6663 6664 6665 6666 6667 6668 6669 6670 6671 6672 6673 6674 6675 6676 6677 6678 6679 6680 6681 6682 6683 6684 6685 6686 6687 6688 6689 6690 6691 6692 6693 6694 6695 0
c ind 6696 6697 6698 6699 6700 6701 6702 6703 6704 6705 6706 6707 6708 6709 6710 6711 6712 6713 6714 6715 6716 6717 6718 6719 6720 6721 6722 6723 6724 6725 6726 6727 6728 6729 6730 6731 6732 6733 6734 6735 6736 6737 6738 6739 6740 6741 6742 6743 6744 6745 0
c ind 6746 6747 6748 6749 6750 6751 6752 6753 6754 6755 6756 6757 6758 6759 6760 6761 6762 6763 6764 6765 6766 6767 6768 6769 6770 6771 6772 6773 6774 6775 6776 6777 6778 6779 6780 6781 6782 6783 6784 6785 6786 6787 6788 6789 6790 6791 6792 6793 6794 6795 0
c ind 6796 6797 6798 6799 6800 6801 6802 6803 6804 6805 6806 6807 6808 6809 6810 6811 6812 6813 6814 6815 6816 6817 6818 6819 6820 6821 6822 6823 6824 6825 6826 6827 6828 6829 6830 6831 6832 6833 6834 6835 6836 6837 6838 6839 6840 6841 6842 6843 6844 6845 0
c ind 6846 6847 6848 6849 6850 6851 6852 6853 6854 6855 6856 6857 6858 6859 6860 6861 6862 6863 6864 6865 6866 6867 6868 6869 6870 6871 6872 6873 6874 6875 6876 6877 6878 6879 6880 6881 6882 6883 6884 6885 6886 6887 6888 6889 6890 6891 6892 6893 6894 6895 0
c ind 6896 6897 6898 6899 6900 6901 6902 6903 6904 6905 6906 6907 6908 6909 6910 6911 6912 6913 6914 6915 6916 6917 6918 6919 6920 6921 6922 6923 6924 6925 6926 6927 6928 6929 6930 6931 6932 6933 6934 6935 6936 6937 6938 6939 6940 6941 6942 6943 6944 6945 0
c ind 6946 6947 6948 6949 6950 6951 6952 6953 6954 6955 6956 6957 6958 6959 6960 6961 6962 6963 6964 6965 6966 6967 6968 6969 6970 6971 6972 6973 6974 6975 6976 6977 6978 6979 6980 6981 6982 6983 6984 6985 6986 6987 6988 6989 6990 6991 6992 6993 6994 6995 0
c ind 6996 6997 6998 6999 7000 7001 7002 7003 7004 7005 7006 7007 7008 7009 7010 7011 7012 7013 7014 7015 7016 7017 7018 7019 7020 7021 7022 7023 7024 7025 7026 7027 7028 7029 7030 7031 7032 7033 7034 7035 7036 7037 7038 7039 7040 7041 7042 7043 7044 7045 0
c ind 7046 7047 7048 7049 7050 7051 7052 7053 7054 7055 7056 7057 7058 7059 7060 7061 7062 7063 7064 7065 7066 7067 7068 7069 7070 7071 7072 7073 7074 7075 7076 7077 7078 7079 7080 7081 7082 7083 7084 7085 7086 7087 7088 7089 7090 7091 7092 7093 7094 7095 0
c ind 7096 7097 7098 7099 7100 7101 7102 7103 7104 7105 7106 7107 7108 7109 7110 7111 7112 7113 7114 7115 7116 7117 7118 7119 7120 7121 7122 7123 7124 7125 7126 7127 7128 7129 7130 7131 7132 7133 7134 7135 7136 7137 7138 7139 7140 7141 7142 7143 7144 7145 0
c ind 7146 7147 7148 7149 7150 7151 7152 7153 7154 7155 7156 7157 7158 7159 7160 7161 7162 7163 7164 7165 7166 7167 7168 7169 7170 7171 7172 7173 7174 7175 7176 7177 7178 7179 7180 7181 7182 7183 7184 7185 7186 7187 7188 7189 7190 7191 7192 7193 7194 7195 0
c ind 7196 7197 7198 7199 7200 7201 7202 7203 7204 7205 7206 7207 7208 7209 7210 7211 7212 7213 7214 7215 7216 7217 7218 7219 7220 7221 7222 7223 7224 7225 7226 7227 7228 7229 7230 7231 7232 7233 7234 7235 7236 7237 7238 7239 7240 7241 7242 7243 7244 7245 0
c ind 7246 7247 7248 7249 7250 7251 7252 7253 7254 7255 7256 7257 7258 7259 7260 7261 7262 7263 7264 7265 7266 7267 7268 7269 7270 7271 7272 7273 7274 7275 7276 7277 7278 7279 7280 7281 7282 7283 7284 7285 7286 7287 7288 7289 7290 7291 7292 7293 7294 7295 0
c ind 7296 7297 7298 7299 7300 7301 7302 7303 7304 7305 7306 7307 7308 7309 7310 7311 7312 7313 7314 7315 7316 7317 7318 7319 7320 7321 7322 7323 7324 7325 7326 7327 7328 7329 7330 7331 7332 7333 7334 7335 7336 7337 7338 7339 7340 7341 7342 7343 7344 7345 0
c ind 7346 7347 7348 7349 7350 7351 7352 7353 7354 7355 7356 7357 7358 7359 7360 7361 7362 7363 7364 7365 7366 7367 7368 7369 7370 7371 7372 7373 7374 7375 7376 7377 7378 7379 7380 7381 7382 7383 7384 7385 7386 7387 7388 7389 7390 7391 7392 7393 7394 7395 0
c ind 7396 7397 7398 7399 7400 7401 7402 7403 7404 7405 7406 7407 7408 7409 7410 7411 7412 7413 7414 7415 7416 7417 7418 7419 7420 7421 7422 7423 7424 7425 7426 7427 7428 7429 7430 7431 7432 7433 7434 7435 7436 7437 7438 7439 7440 7441 7442 7443 7444 7445 0
c ind 7446 7447 7448 7449 7450 7451 7452 7453 7454 7455 7456 7457 7458 7459 7460 7461 7462 7463 7464 7465 7466 7467 7468 7469 7470 7471 7472 7473 7474 7475 7476 7477 7478 7479 7480 7481 7482 7483 7484 7485 7486 7487 7488 7489 7490 7491 7492 7493 7494 7495 0
c ind 7496 7497 7498 7499 7500 7501 7502 7503 7504 7505 7506 7507 7508 7509 7510 7511 7512 7513 7514 7515 7516 7517 7518 7519 7520 7521 7522 7523 7524 7525 7526 7527 7528 7529 7530 7531 7532 7533 7534 7535 7536 7537 7538 7539 7540 7541 7542 7543 7544 7545 0
c ind 7546 7547 7548 7549 7550 7551 7552 7553 7554 7555 7556 7557 7558 7559 7560 7561 7562 7563 7564 7565 7566 7567 7568 7569 7570 7571 7572 7573 7574 7575 7576 7577 7578 7579 7580 7581 7582 7583 7584 7585 7586 7587 7588 7589 7590 7591 7592 7593 7594 7595 0
c ind 7596 7597 7598 7599 7600 7601 7602 7603 7604 7605 7606 7607 7608 7609 7610 7611 7612 7613 7614 7615 7616 7617 7618 7619 7620 7621 7622 7623 7624 7625 7626 7627 7628 7629 7630 7631 7632 7633 7634 7635 7636 7637 7638 7639 7640 7641 7642 7643 7644 7645 0
c ind 7646 7647 7648 7649 7650 7651 7652 7653 7654 7655 7656 7657 7658 7659 7660 7661 7662 7663 7664 7665 7666 7667 7668 7669 7670 7671 7672 7673 7674 7675 7676 7677 7678 7679 7680 7681 7682 7683 7684 7685 7686 7687 7688 7689 7690 7691 7692 7693 7694 7695 0
c ind 7696 7697 7698 7699 7700 7701 7702 7703 7704 7705 7706 7707 7708 7709 7710 7711 7712 7713 7714 7715 7716 7717 7718 7719 7720 7721 7722 7723 7724 7725 7726 7727 7728 7729 7730 7731 7732 7733 7734 7735 7736 7737 7738 7739 7740 7741 7742 7743 7744 7745 0
c ind 7746 7747 7748 7749 7750 7751 7752 7753 7754 7755 7756 7757 7758 7759 7760 7761 7762 7763 7764 7765 7766 7767 7768 7769 7770 7771 7772 7773 7774 7775 7776 7777 7778 7779 7780 7781 7782 7783 7784 7785 7786 7787 7788 7789 7790 7791 7792 7793 7794 7795 0
c ind 7796 7797 7798 7799 7800 7801 7802 7803 7804 7805 7806 7807 7808 7809 7810 7811 7812 7813 7814 7815 7816 7817 7818 7819 7820 7821 7822 7823 7824 7825 7826 7827 7828 7829 7830 7831 7832 7833 7834 7835 7836 7837 7838 7839 7840 7841 7842 7843 7844 7845 0
c ind 7846 7847 7848 7849 7850 7851 7852 7853 7854 7855 7856 7857 7858 7859 7860 7861 7862 7863 7864 7865 7866 7867 7868 7869 7870 7871 7872 7873 7874 7875 7876 7877 7878 7879 7880 7881 7882 7883 7884 7885 7886 7887 7888 7889 7890 7891 7892 7893 7894 7895 0
c ind 7896 7897 7898 7899 7900 7901 7902 7903 7904 7905 7906 7907 7908 7909 7910 7911 7912 7913 7914 7915 7916 7917 7918 7919 7920 7921 7922 7923 7924 7925 7926 7927 7928 7929 7930 7931 7932 7933 7934 7935 7936 7937 7938 7939 7940 7941 7942 7943 7944 7945 0
c ind 7946 7947 7948 7949 7950 7951 7952 7953 7954 7955 7956 7957 7958 7959 7960 7961 7962 7963 7964 7965 7966 7967 7968 7969 7970 7971 7972 7973 7974 7975 7976 7977 7978 7979 7980 7981 7982 7983 7984 7985 7986 7987 7988 7989 7990 7991 7992 7993 7994 7995 0
c ind 7996 7997 7998 7999 8000 8001 8002 8003 8004 8005 8006 8007 8008 8009 8010 8011 8012 8013 8014 8015 8016 8017 8018 8019 8020 8021 8022 8023 8024 8025 8026 8027 8028 8029 8030 8031 8032 8033 8034 8035 8036 8037 8038 8039 8040 8041 8042 8043 8044 8045 0
c ind 8046 8047 8048 8049 8050 8051 8052 8053 8054 8055 8056 8057 8058 8059 8060 8061 8062 8063 8064 8065 8066 8067 8068 8069 8070 8071 8072 8073 8074 8075 8076 8077 8078 8079 8080 8081 8082 8083 8084 8085 8086 8087 8088 8089 8090 8091 8092 8093 8094 8095 0
c ind 8096 8097 8098 8099 8100 8101 8102 8103 8104 8105 8106 8107 8108 8109 8110 8111 8112 8113 8114 8115 8116 8117 8118 8119 8120 8121 8122 8123 8124 8125 8126 8127 8128 8129 8130 8131 8132 8133 8134 8135 8136 8137 8138 8139 8140 8141 8142 8143 8144 8145 0
c ind 8146 8147 8148 8149 8150 8151 8152 8153 8154 8155 8156 8157 8158 8159 8160 8161 8162 8163 8164 8165 8166 8167 8168 8169 8170 8171 8172 8173 8174 8175 8176 8177 8178 8179 8180 8181 8182 8183 8184 8185 8186 8187 8188 8189 8190 8191 8192 8193 8194 8195 0
c ind 8196 8197 8198 8199 8200 8201 8202 8203 8204 8205 8206 8207 8208 8209 8210 8211 8212 8213 8214 8215 8216 8217 8218 8219 8220 8221 8222 8223 8224 8225 8226 8227 8228 8229 8230 8231 8232 8233 8234 8235 8236 8237 8238 8239 8240 8241 8242 8243 8244 8245 0
c ind 8246 8247 8248 8249 8250 8251 8252 8253 8254 8255 8256 8257 8258 8259 8260 8261 8262 8263 8264 8265 8266 8267 8268 8269 8270 8271 8272 8273 8274 8275 8276 8277 8278 8279 8280 8281 8282 8283 8284 8285 8286 8287 8288 8289 8290 8291 8292 8293 8294 8295 0
c ind 8296 8297 8298 8299 8300 8301 8302 8303 8304 8305 8306 8307 8308 8309 8310 8311 8312 8313 8314 8315 8316 8317 8318 8319 8320 8321 8322 8323 8324 8325 8326 8327 8328 8329 8330 8331 8332 8333 8334 8335 8336 8337 8338 8339 8340 8341 8342 8343 8344 8345 0
c ind 8346 8347 8348 8349 8350 8351 8352 8353 8354 8355 8356 8357 8358 8359 8360 8361 8362 8363 8364 8365 8366 8367 8368 8369 8370 8371 8372 8373 8374 8375 8376 8377 8378 8379 8380 8381 8382 8383 8384 8385 8386 8387 8388 8389 8390 8391 8392 8393 8394 8395 0
c ind 8396 8397 8398 8399 8400 8401 8402 8403 8404 8405 8406 8407 8408 8409 8410 8411 8412 8413 8414 8415 8416 8417 8418 8419 8420 8421 8422 8423 8424 8425 8426 8427 8428 8429 8430 8431 8432 8433 8434 8435 8436 8437 8438 8439 8440 8441 8442 8443 8444 8445 0
c ind 8446 8447 8448 8449 8450 8451 8452 8453 8454 8455 8456 8457 8458 8459 8460 8461 8462 8463 8464 8465 8466 8467 8468 8469 8470 8471 8472 8473 8474 8475 8476 8477 8478 8479 8480 8481 8482 8483 8484 8485 8486 8487 8488 8489 8490 8491 8492 8493 8494 8495 0
c ind 8496 8497 8498 8499 8500 8501 8502 8503 8504 8505 8506 8507 8508 8509 8510 8511 8512 8513 8514 8515 8516 8517 8518 8519 8520 8521 8522 8523 8524 8525 8526 8527 8528 8529 8530 8531 8532 8533 8534 8535 8536 8537 8538 8539 8540 8541 8542 8543 8544 8545 0
c ind 8546 8547 8548 8549 8550 8551 8552 8553 8554 8555 8556 8557 8558 8559 8560 8561 8562 8563 8564 8565 8566 8567 8568 8569 8570 8571 8572 8573 8574 8575 8576 8577 8578 8579 8580 8581 8582 8583 8584 8585 8586 8587 8588 8589 8590 8591 8592 8593 8594 8595 0
c ind 8596 8597 8598 8599 8600 8601 8602 8603 8604 8605 8606 8607 8608 8609 8610 8611 8612 8613 8614 8615 8616 8617 8618 8619 8620 8621 8622 8623 8624 8625 8626 8627 8628 8629 8630 8631 8632 8633 8634 8635 8636 8637 8638 8639 8640 8641 8642 8643 8644 8645 0
c ind 8646 8647 8648 8649 8650 8651 8652 8653 8654 8655 8656 8657 8658 8659 8660 8661 8662 8663 8664 8665 8666 8667 8668 8669 8670 8671 8672 8673 8674 8675 8676 8677 8678 8679 8680 8681 8682 8683 8684 8685 8686 8687 8688 8689 8690 8691 8692 8693 8694 8695 0
c ind 8696 8697 8698 8699 8700 8701 8702 8703 8704 8705 8706 8707 8708 8709 8710 8711 8712 8713 8714 8715 8716 8717 8718 8719 8720 8721 8722 8723 8724 8725 8726 8727 8728 8729 8730 8731 8732 8733 8734 8735 8736 8737 8738 8739 8740 8741 8742 8743 8744 8745 0
c ind 8746 8747 8748 8749 8750 8751 8752 8753 8754 8755 8756 8757 8758 8759 8760 8761 8762 8763 8764 8765 8766 8767 8768 8769 8770 8771 8772 8773 8774 8775 8776 8777 8778 8779 8780 8781 8782 8783 8784 8785 8786 8787 8788 8789 8790 8791 8792 8793 8794 8795 0
c ind 8796 8797 8798 8799 8800 8801 8802 8803 8804 8805 8806 8807 8808 8809 8810 8811 8812 8813 8814 8815 8816 8817 8818 8819 8820 8821 8822 8823 8824 8825 8826 8827 8828 8829 8830 8831 8832 8833 8834 8835 8836 8837 8838 8839 8840 8841 8842 8843 8844 8845 0
c ind 8846 8847 8848 8849 8850 8851 8852 8853 8854 8855 8856 8857 8858 8859 8860 8861 8862 8863 8864 8865 8866 8867 8868 8869 8870 8871 8872 8873 8874 8875 8876 8877 8878 8879 8880 8881 8882 8883 8884 8885 8886 8887 8888 8889 8890 8891 8892 8893 8894 8895 0
c ind 8896 8897 8898 8899 8900 8901 8902 8903 8904 8905 8906 8907 8908 8909 8910 8911 8912 8913 8914 8915 8916 8917 8918 8919 8920 8921 8922 8923 8924 8925 8926 8927 8928 8929 8930 8931 8932 8933 8934 8935 8936 8937 8938 8939 8940 8941 8942 8943 8944 8945 0
c ind 8946 8947 8948 8949 8950 8951 8952 8953 8954 8955 8956 8957 8958 8959 8960 8961 8962 8963 8964 8965 8966 8967 8968 8969 8970 8971 8972 8973 8974 8975 8976 8977 8978 8979 8980 8981 8982 8983 8984 8985 8986 8987 8988 8989 8990 8991 8992 8993 8994 8995 0
c ind 8996 8997 8998 8999 9000 9001 9002 9003 9004 9005 9006 9007 9008 9009 9010 9011 9012 9013 9014 9015 9016 9017 9018 9019 9020 9021 9022 9023 9024 9025 9026 9027 9028 9029 9030 9031 9032 9033 9034 9035 9036 9037 9038 9039 9040 9041 9042 9043 9044 9045 0
c ind 9046 9047 9048 9049 9050 9051 9052 9053 9054 9055 9056 9057 9058 9059 9060 9061 9062 9063 9064 9065 9066 9067 9068 9069 9070 9071 9072 9073 9074 9075 9076 9077 9078 9079 9080 9081 9082 9083 9084 9085 9086 9087 9088 9089 9090 9091 9092 9093 9094 9095 0
c ind 9096 9097 9098 9099 9100 9101 9102 9103 9104 9105 9106 9107 9108 9109 9110 9111 9112 9113 9114 9115 9116 9117 9118 9119 9120 9121 9122 9123 9124 9125 9126 9127 9128 9129 9130 9131 9132 9133 9134 9135 9136 9137 9138 9139 9140 9141 9142 9143 9144 9145 0
c ind 9146 9147 9148 9149 9150 9151 9152 9153 9154 9155 9156 9157 9158 9159 9160 9161 9162 9163 9164 9165 9166 9167 9168 9169 9170 9171 9172 9173 9174 9175 9176 9177 9178 9179 9180 9181 9182 9183 9184 9185 9186 9187 9188 9189 9190 9191 9192 9193 9194 9195 0
c ind 9196 9197 9198 9199 9200 9201 9202 9203 9204 9205 9206 9207 9208 9209 9210 9211 9212 9213 9214 9215 9216 9217 9218 9219 9220 9221 9222 9223 9224 9225 9226 9227 9228 9229 9230 9231 9232 9233 9234 9235 9236 9237 9238 9239 9240 9241 9242 9243 9244 9245 0
c ind 9246 9247 9248 9249 9250 9251 9252 9253 9254 9255 9256 9257 9258 9259 9260 9261 9262 9263 9264 9265 9266 9267 9268 9269 9270 9271 9272 9273 9274 9275 9276 9277 9278 9279 9280 9281 9282 9283 9284 9285 9286 9287 9288 9289 9290 9291 9292 9293 9294 9295 0
c ind 9296 9297 9298 9299 9300 9301 9302 9303 9304 9305 9306 9307 9308 9309 9310 9311 9312 9313 9314 9315 9316 9317 9318 9319 9320 9321 9322 9323 9324 9325 9326 9327 9328 9329 9330 9331 9332 9333 9334 9335 9336 9337 9338 9339 9340 9341 9342 9343 9344 9345 0
c ind 9346 9347 9348 9349 9350 9351 9352 9353 9354 9355 9356 9357 9358 9359 9360 9361 9362 9363 9364 9365 9366 9367 9368 9369 9370 9371 9372 9373 9374 9375 9376 9377 9378 9379 9380 9381 9382 9383 9384 9385 9386 9387 9388 9389 9390 9391 9392 9393 9394 9395 0
c ind 9396 9397 9398 9399 9400 9401 9402 9403 9404 9405 0
1 2 3 4 5 6 7 8 9 10 11 12 13 14 15 16 0
17 18 19 20 21 22 23 24 25 26 27 28 29 30 31 32 0
33 34 35 36 37 38 39 40 41 42 43 44 45 46 47 48 0
49 50 51 52 53 54 55 56 57 58 59 60 61 62 63 64 0
65 66 67 68 69 70 71 72 73 74 75 76 77 78 79 80 0
81 82 83 84 85 86 87 88 89 90 91 92 93 94 95 96 0
97 98 99 100 101 102 103 104 105 106 107 108 109 110 111 112 0
113 114 115 116 117 118 119 120 121 122 123 124 125 126 127 128 0
129 130 131 132 133 134 135 136 137 138 139 140 141 142 143 144 0
145 146 147 148 149 150 151 152 153 154 155 156 157 158 159 160 0
161 162 163 164 165 166 167 168 169 170 171 172 173 174 175 176 0
177 178 179 180 181 182 183 184 185 186 187 188 189 190 191 192 0
193 194 195 196 197 198 199 200 201 202 203 204 205 206 207 208 0
209 210 211 212 213 214 215 216 217 218 219 220 221 222 223 224 0
225 226 227 228 229 230 231 232 233 234 235 236 237 238 239 240 0
241 242 243 244 245 246 247 248 249 250 251 252 253 254 255 256 0
257 258 259 260 261 262 263 264 265 266 267 268 269 270 271 272 0
273 274 275 276 277 278 279 280 281 282 283 284 285 286 287 288 0
289 290 291 292 293 294 295 296 297 298 299 300 301 302 303 304 0
305 306 307 308 309 310 311 312 313 314 315 316 317 318 319 320 0
321 322 323 324 325 326 327 328 329 330 331 332 333 334 335 336 0
337 338 339 340 341 342 343 344 345 346 347 348 349 350 351 352 0
353 354 355 356 357 358 359 360 361 362 363 364 365 366 367 368 0
369 370 371 372 373 374 375 376 377 378 379 380 381 382 383 384 0
385 386 387 388 389 390 391 392 393 394 395 396 397 398 399 400 0
401 402 403 404 405 406 407 408 409 410 411 412 413 414 415 416 0
417 418 419 420 421 422 423 424 425 426 427 428 429 430 431 432 0
433 434 435 436 437 438 439 440 441 442 443 444 445 446 447 448 0
449 450 451 452 453 454 455 456 457 458 459 460 461 462 463 464 0
465 466 467 468 469 470 471 472 473 474 475 476 477 478 479 480 0
481 482 483 484 485 486 487 488 489 490 491 492 493 494 495 496 0
497 498 499 500 501 502 503 504 505 506 507 508 509 510 511 512 0
513 514 515 516 517 518 519 520 521 522 523 524 525 526 527 528 0
529 530 531 532 533 534 535 536 537 538 539 540 541 542 543 544 0
545 546 547 548 549 550 551 552 553 554 555 556 557 558 559 560 0
561 562 563 564 565 566 567 568 569 570 571 572 573 574 575 576 0
577 578 579 580 581 582 583 584 585 586 587 588 589 590 591 592 0
593 594 595 596 597 598 599 600 601 602 603 604 605 606 607 608 0
609 610 611 612 613 614 615 616 617 618 619 620 621 622 623 624 0
625 626 627 628 629 630 631 632 633 634 635 636 637 638 639 640 0
641 642 643 644 645 646 647 648 649 650 651 652 653 654 655 656 0
657 658 659 660 661 662 663 664 665 666 667 668 669 670 671 672 0
673 674 675 676 677 678 679 680 681 682 683 684 685 686 687 688 0
689 690 691 692 693 694 695 696 697 698 699 700 701 702 703 704 0
705 706 707 708 709 710 711 712 713 714 715 716 717 718 719 720 0
721 722 723 724 725 726 727 728 729 730 731 732 733 734 735 736 0
737 738 739 740 741 742 743 744 745 746 747 748 749 750 751 752 0
753 754 755 756 757 758 759 760 761 762 763 764 765 766 767 768 0
769 770 -770 -771 0
772 770 -773 -774 0
775 770 -776 -777 0
778 770 -779 -780 0
781 770 -782 -783 0
784 770 -785 -786 0
787 770 -788 -789 0
790 770 -791 -792 0
793 770 -794 -795 0
796 770 -797 -798 0
799 770 -800 -801 0
802 770 -803 -804 0
805 770 -806 -807 0
808 770 -809 -810 0
811 770 -812 -813 0
814 770 -815 -816 0
817 773 -770 -818 0
819 773 -773 -820 0
821 773 -776 -822 0
823 773 -779 -824 0
825 773 -782 -826 0
827 773 -785 -828 0
829 773 -788 -830 0
831 773 -791 -832 0
833 773 -794 -834 0
835 773 -797 -836 0
837 773 -800 -838 0
839 773 -803 -840 0
841 773 -806 -842 0
843 773 -809 -844 0
845 773 -812 -846 0
847 773 -815 -848 0
849 776 -770 -850 0
851 776 -773 -852 0
853 776 -776 -854 0
855 776 -779 -856 0
857 776 -782 -858 0
859 776 -785 -860 0
861 776 -788 -862 0
863 776 -791 -864 0
865 776 -794 -866 0
867 776 -797 -868 0
869 776 -800 -870 0
871 776 -803 -872 0
873 776 -806 -874 0
875 776 -809 -876 0
877 776 -812 -878 0
879 776 -815 -880 0
881 779 -770 -882 0
883 779 -773 -884 0
885 779 -776 -886 0
887 779 -779 -888 0
889 779 -782 -890 0
891 779 -785 -892 0
893 779 -788 -894 0
895 779 -791 -896 0
897 779 -794 -898 0
899 779 -797 -900 0
901 779 -800 -902 0
903 779 -803 -904 0
905 779 -806 -906 0
907 779 -809 -908 0
909 779 -812 -910 0
911 779 -815 -912 0
913 782 -770 -914 0
915 782 -773 -916 0
917 782 -776 -918 0
919 782 -779 -920 0
921 782 -782 -922 0
923 782 -785 -924 0
925 782 -788 -926 0
927 782 -791 -928 0
929 782 -794 -930 0
931 782 -797 -932 0
933 782 -800 -934 0
935 782 -803 -936 0
937 782 -806 -938 0
939 782 -809 -940 0
941 782 -812 -942 0
943 782 -815 -944 0
945 785 -770 -946 0
947 785 -773 -948 0
949 785 -776 -950 0
951 785 -779 -952 0
953 785 -782 -954 0
955 785 -785 -956 0
957 785 -788 -958 0
959 785 -791 -960 0
961 785 -794 -962 0
963 785 -797 -964 0
965 785 -800 -966 0
967 785 -803 -968 0
969 785 -806 -970 0
971 785 -809 -972 0
973 785 -812 -974 0
975 785 -815 -976 0
977 788 -770 -978 0
979 788 -773 -980 0
981 788 -776 -982 0
983 788 -779 -984 0
985 788 -782 -986 0
987 788 -785 -988 0
989 788 -788 -990 0
991 788 -791 -992 0
993 788 -794 -994 0
995 788 -797 -996 0
997 788 -800 -998 0
999 788 -803 -1000 0
1001 788 -806 -1002 0
1003 788 -809 -1004 0
1005 788 -812 -1006 0
1007 788 -815 -1008 0
1009 791 -770 -1010 0
1011 791 -773 -1012 0
1013 791 -776 -1014 0
1015 791 -779 -1016 0
1017 791 -782 -1018 0
1019 791 -785 -1020 0
1021 791 -788 -1022 0
1023 791 -791 -1024 0
1025 791 -794 -1026 0
1027 791 -797 -1028 0
1029 791 -800 -1030 0
1031 791 -803 -1032 0
1033 791 -806 -1034 0
1035 791 -809 -1036 0
1037 791 -812 -1038 0
1039 791 -815 -1040 0
1041 794 -770 -1042 0
1043 794 -773 -1044 0
1045 794 -776 -1046 0
1047 794 -779 -1048 0
1049 794 -782 -1050 0
1051 794 -785 -1052 0
1053 794 -788 -1054 0
1055 794 -791 -1056 0
1057 794 -794 -1058 0
1059 794 -797 -1060 0
1061 794 -800 -1062 0
1063 794 -803 -1064 0
1065 794 -806 -1066 0
1067 794 -809 -1068 0
1069 794 -812 -1070 0
1071 794 -815 -1072 0
1073 797 -770 -1074 0
1075 797 -773 -1076 0
1077 797 -776 -1078 0
1079 797 -779 -1080 0
1081 797 -782 -1082 0
1083 797 -785 -1084 0
1085 797 -788 -1086 0
1087 797 -791 -1088 0
1089 797 -794 -1090 0
1091 797 -797 -1092 0
1093 797 -800 -1094 0
1095 797 -803 -1096 0
1097 797 -806 -1098 0
1099 797 -809 -1100 0
1101 797 -812 -1102 0
1103 797 -815 -1104 0
1105 800 -770 -1106 0
1107 800 -773 -1108 0
1109 800 -776 -1110 0
1111 800 -779 -1112 0
1113 800 -782 -1114 0
1115 800 -785 -1116 0
1117 800 -788 -1118 0
1119 800 -791 -1120 0
1121 800 -794 -1122 0
1123 800 -797 -1124 0
1125 800 -800 -1126 0
1127 800 -803 -1128 0
1129 800 -806 -1130 0
1131 800 -809 -1132 0
1133 800 -812 -1134 0
1135 800 -815 -1136 0
1137 803 -770 -1138 0
1139 803 -773 -1140 0
1141 803 -776 -1142 0
1143 803 -779 -1144 0
1145 803 -782 -1146 0
1147 803 -785 -1148 0
1149 803 -788 -1150 0
1151 803 -791 -1152 0
1153 803 -794 -1154 0
1155 803 -797 -1156 0
1157 803 -800 -1158 0
1159 803 -803 -1160 0
1161 803 -806 -1162 0
1163 803 -809 -1164 0
1165 803 -812 -1166 0
1167 803 -815 -1168 0
1169 806 -770 -1170 0
1171 806 -773 -1172 0
1173 806 -776 -1174 0
1175 806 -779 -1176 0
1177 806 -782 -1178 0
1179 806 -785 -1180 0
1181 806 -788 -1182 0
1183 806 -791 -1184 0
1185 806 -794 -1186 0
1187 806 -797 -1188 0
1189 806 -800 -1190 0
1191 806 -803 -1192 0
1193 806 -806 -1194 0
1195 806 -809 -1196 0
1197 806 -812 -1198 0
1199 806 -815 -1200 0
1201 809 -770 -1202 0
1203 809 -773 -1204 0
1205 809 -776 -1206 0
1207 809 -779 -1208 0
1209 809 -782 -1210 0
1211 809 -785 -1212 0
1213 809 -788 -1214 0
1215 809 -791 -1216 0
1217 809 -794 -1218 0
1219 809 -797 -1220 0
1221 809 -800 -1222 0
1223 809 -803 -1224 0
1225 809 -806 -1226 0
1227 809 -809 -1228 0
1229 809 -812 -1230 0
1231 809 -815 -1232 0
1233 812 -770 -1234 0
1235 812 -773 -1236 0
1237 812 -776 -1238 0
1239 812 -779 -1240 0
1241 812 -782 -1242 0
1243 812 -785 -1244 0
1245 812 -788 -1246 0
1247 812 -791 -1248 0
1249 812 -794 -1250 0
1251 812 -797 -1252 0
1253 812 -800 -1254 0
1255 812 -803 -1256 0
1257 812 -806 -1258 0
1259 812 -809 -1260 0
1261 812 -812 -1262 0
1263 812 -815 -1264 0
1265 815 -770 -1266 0
1267 815 -773 -1268 0
1269 815 -776 -1270 0
1271 815 -779 -1272 0
1273 815 -782 -1274 0
1275 815 -785 -1276 0
1277 815 -788 -1278 0
1279 815 -791 -1280 0
1281 815 -794 -1282 0
1283 815 -797 -1284 0
1285 815 -800 -1286 0
1287 815 -803 -1288 0
1289 815 -806 -1290 0
1291 815 -809 -1292 0
1293 815 -812 -1294 0
1295 815 -815 -1296 0
771 -769 0
774 -772 0
777 -775 0
780 -778 0
783 -781 0
786 -784 0
789 -787 0
792 -790 0
795 -793 0
798 -796 0
801 -799 0
804 -802 0
807 -805 0
810 -808 0
813 -811 0
816 -814 0
818 -817 0
820 -819 0
822 -821 0
824 -823 0
826 -825 0
828 -827 0
830 -829 0
832 -831 0
834 -833 0
836 -835 0
838 -837 0
840 -839 0
842 -841 0
844 -843 0
846 -845 0
848 -847 0
850 -849 0
852 -851 0
854 -853 0
856 -855 0
858 -857 0
860 -859 0
862 -861 0
864 -863 0
866 -865 0
868 -867 0
870 -869 0
872 -871 0
874 -873 0
876 -875 0
878 -877 0
880 -879 0
882 -881 0
884 -883 0
886 -885 0
888 -887 0
890 -889 0
892 -891 0
894 -893 0
896 -895 0
898 -897 0
900 -899 0
902 -901 0
904 -903 0
906 -905 0
908 -907 0
910 -909 0
912 -911 0
914 -913 0
916 -915 0
918 -917 0
920 -919 0
922 -921 0
924 -923 0
926 -925 0
928 -927 0
930 -929 0
932 -931 0
934 -933 0
936 -935 0
938 -937 0
940 -939 0
942 -941 0
944 -943 0
946 -945 0
948 -947 0
950 -949 0
952 -951 0
954 -953 0
956 -955 0
958 -957 0
960 -959 0
962 -961 0
964 -963 0
966 -965 0
968 -967 0
970 -969 0
972 -971 0
974 -973 0
976 -975 0
978 -977 0
980 -979 0
982 -981 0
984 -983 0
986 -985 0
988 -987 0
990 -989 0
992 -991 0
994 -993 0
996 -995 0
998 -997 0
1000 -999 0
1002 -1001 0
1004 -1003 0
1006 -1005 0
1008 -1007 0
1010 -1009 0
1012 -1011 0
1014 -1013 0
1016 -1015 0
1018 -1017 0
1020 -1019 0
1022 -1021 0
1024 -1023 0
1026 -1025 0
1028 -1027 0
1030 -1029 0
1032 -1031 0
1034 -1033 0
1036 -1035 0
1038 -1037 0
1040 -1039 0
1042 -1041 0
1044 -1043 0
1046 -1045 0
1048 -1047 0
1050 -1049 0
1052 -1051 0
1054 -1053 0
1056 -1055 0
1058 -1057 0
1060 -1059 0
1062 -1061 0
1064 -1063 0
1066 -1065 0
1068 -1067 0
1070 -1069 0
1072 -1071 0
1074 -1073 0
1076 -1075 0
1078 -1077 0
1080 -1079 0
1082 -1081 0
1084 -1083 0
1086 -1085 0
1088 -1087 0
1090 -1089 0
1092 -1091 0
1094 -1093 0
1096 -1095 0
1098 -1097 0
1100 -1099 0
1102 -1101 0
1104 -1103 0
1106 -1105 0
1108 -1107 0
1110 -1109 0
1112 -1111 0
1114 -1113 0
1116 -1115 0
1118 -1117 0
1120 -1119 0
1122 -1121 0
1124 -1123 0
1126 -1125 0
1128 -1127 0
1130 -1129 0
1132 -1131 0
1134 -1133 0
1136 -1135 0
1138 -1137 0
1140 -1139 0
1142 -1141 0
1144 -1143 0
1146 -1145 0
1148 -1147 0
1150 -1149 0
1152 -1151 0
1154 -1153 0
1156 -1155 0
1158 -1157 0
1160 -1159 0
1162 -1161 0
1164 -1163 0
1166 -1165 0
1168 -1167 0
1170 -1169 0
1172 -1171 0
1174 -1173 0
1176 -1175 0
1178 -1177 0
1180 -1179 0
1182 -1181 0
1184 -1183 0
1186 -1185 0
1188 -1187 0
1190 -1189 0
1192 -1191 0
1194 -1193 0
1196 -1195 0
1198 -1197 0
1200 -1199 0
1202 -1201 0
1204 -1203 0
1206 -1205 0
1208 -1207 0
1210 -1209 0
1212 -1211 0
1214 -1213 0
1216 -1215 0
1218 -1217 0
1220 -1219 0
1222 -1221 0
1224 -1223 0
1226 -1225 0
1228 -1227 0
1230 -1229 0
1232 -1231 0
1234 -1233 0
1236 -1235 0
1238 -1237 0
1240 -1239 0
1242 -1241 0
1244 -1243 0
1246 -1245 0
1248 -1247 0
1250 -1249 0
1252 -1251 0
1254 -1253 0
1256 -1255 0
1258 -1257 0
1260 -1259 0
1262 -1261 0
1264 -1263 0
1266 -1265 0
1268 -1267 0
1270 -1269 0
1272 -1271 0
1274 -1273 0
1276 -1275 0
1278 -1277 0
1280 -1279 0
1282 -1281 0
1284 -1283 0
1286 -1285 0
1288 -1287 0
1290 -1289 0
1292 -1291 0
1294 -1293 0
1296 -1295 0
771 -770 0
774 -770 0
777 -770 0
780 -770 0
783 -770 0
786 -770 0
789 -770 0
792 -770 0
795 -770 0
798 -770 0
801 -770 0
804 -770 0
807 -770 0
810 -770 0
813 -770 0
816 -770 0
818 -773 0
820 -773 0
822 -773 0
824 -773 0
826 -773 0
828 -773 0
830 -773 0
832 -773 0
834 -773 0
836 -773 0
838 -773 0
840 -773 0
842 -773 0
844 -773 0
846 -773 0
848 -773 0
850 -776 0
852 -776 0
854 -776 0
856 -776 0
858 -776 0
860 -776 0
862 -776 0
864 -776 0
866 -776 0
868 -776 0
870 -776 0
872 -776 0
874 -776 0
876 -776 0
878 -776 0
880 -776 0
882 -779 0
884 -779 0
886 -779 0
888 -779 0
890 -779 0
892 -779 0
894 -779 0
896 -779 0
898 -779 0
900 -779 0
902 -779 0
904 -779 0
906 -779 0
908 -779 0
910 -779 0
912 -779 0
914 -782 0
916 -782 0
918 -782 0
920 -782 0
922 -782 0
924 -782 0
926 -782 0
928 -782 0
930 -782 0
932 -782 0
934 -782 0
936 -782 0
938 -782 0
940 -782 0
942 -782 0
944 -782 0
946 -785 0
948 -785 0
950 -785 0
952 -785 0
954 -785 0
956 -785 0
958 -785 0
960 -785 0
962 -785 0
964 -785 0
966 -785 0
968 -785 0
970 -785 0
972 -785 0
974 -785 0
976 -785 0
978 -788 0
980 -788 0
982 -788 0
984 -788 0
986 -788 0
988 -788 0
990 -788 0
992 -788 0
994 -788 0
996 -788 0
998 -788 0
1000 -788 0
1002 -788 0
1004 -788 0
1006 -788 0
1008 -788 0
1010 -791 0
1012 -791 0
1014 -791 0
1016 -791 0
1018 -791 0
1020 -791 0
1022 -791 0
1024 -791 0
1026 -791 0
1028 -791 0
1030 -791 0
1032 -791 0
1034 -791 0
1036 -791 0
1038 -791 0
1040 -791 0
1042 -794 0
1044 -794 0
1046 -794 0
1048 -794 0
1050 -794 0
1052 -794 0
1054 -794 0
1056 -794 0
1058 -794 0
1060 -794 0
1062 -794 0
1064 -794 0
1066 -794 0
1068 -794 0
1070 -794 0
1072 -794 0
1074 -797 0
1076 -797 0
1078 -797 0
1080 -797 0
1082 -797 0
1084 -797 0
1086 -797 0
1088 -797 0
1090 -797 0
1092 -797 0
1094 -797 0
1096 -797 0
1098 -797 0
1100 -797 0
1102 -797 0
1104 -797 0
1106 -800 0
1108 -800 0
1110 -800 0
1112 -800 0
1114 -800 0
1116 -800 0
1118 -800 0
1120 -800 0
1122 -800 0
1124 -800 0
1126 -800 0
1128 -800 0
1130 -800 0
1132 -800 0
1134 -800 0
1136 -800 0
1138 -803 0
1140 -803 0
1142 -803 0
1144 -803 0
1146 -803 0
1148 -803 0
1150 -803 0
1152 -803 0
1154 -803 0
1156 -803 0
1158 -803 0
1160 -803 0
1162 -803 0
1164 -803 0
1166 -803 0
1168 -803 0
1170 -806 0
1172 -806 0
1174 -806 0
1176 -806 0
1178 -806 0
1180 -806 0
1182 -806 0
1184 -806 0
1186 -806 0
1188 -806 0
1190 -806 0
1192 -806 0
1194 -806 0
1196 -806 0
1198 -806 0
1200 -806 0
1202 -809 0
1204 -809 0
1206 -809 0
1208 -809 0
1210 -809 0
1212 -809 0
1214 -809 0
1216 -809 0
1218 -809 0
1220 -809 0
1222 -809 0
1224 -809 0
1226 -809 0
1228 -809 0
1230 -809 0
1232 -809 0
1234 -812 0
1236 -812 0
1238 -812 0
1240 -812 0
1242 -812 0
1244 -812 0
1246 -812 0
1248 -812 0
1250 -812 0
1252 -812 0
1254 -812 0
1256 -812 0
1258 -812 0
1260 -812 0
1262 -812 0
1264 -812 0
1266 -815 0
1268 -815 0
1270 -815 0
1272 -815 0
1274 -815 0
1276 -815 0
1278 -815 0
1280 -815 0
1282 -815 0
1284 -815 0
1286 -815 0
1288 -815 0
1290 -815 0
1292 -815 0
1294 -815 0
1296 -815 0
771 770 0
774 773 0
777 776 0
780 779 0
783 782 0
786 785 0
789 788 0
792 791 0
795 794 0
798 797 0
801 800 0
804 803 0
807 806 0
810 809 0
813 812 0
816 815 0
818 770 0
820 773 0
822 776 0
824 779 0
826 782 0
828 785 0
830 788 0
832 791 0
834 794 0
836 797 0
838 800 0
840 803 0
842 806 0
844 809 0
846 812 0
848 815 0
850 770 0
852 773 0
854 776 0
856 779 0
858 782 0
860 785 0
862 788 0
864 791 0
866 794 0
868 797 0
870 800 0
872 803 0
874 806 0
876 809 0
878 812 0
880 815 0
882 770 0
884 773 0
886 776 0
888 779 0
890 782 0
892 785 0
894 788 0
896 791 0
898 794 0
900 797 0
902 800 0
904 803 0
906 806 0
908 809 0
910 812 0
912 815 0
914 770 0
916 773 0
918 776 0
920 779 0
922 782 0
924 785 0
926 788 0
928 791 0
930 794 0
932 797 0
934 800 0
936 803 0
938 806 0
940 809 0
942 812 0
944 815 0
946 770 0
948 773 0
950 776 0
952 779 0
954 782 0
956 785 0
958 788 0
960 791 0
962 794 0
964 797 0
966 800 0
968 803 0
970 806 0
972 809 0
974 812 0
976 815 0
978 770 0
980 773 0
982 776 0
984 779 0
986 782 0
988 785 0
990 788 0
992 791 0
994 794 0
996 797 0
998 800 0
1000 803 0
1002 806 0
1004 809 0
1006 812 0
1008 815 0
1010 770 0
1012 773 0
1014 776 0
1016 779 0
1018 782 0
1020 785 0
1022 788 0
1024 791 0
1026 794 0
1028 797 0
1030 800 0
1032 803 0
1034 806 0
1036 809 0
1038 812 0
1040 815 0
1042 770 0
1044 773 0
1046 776 0
1048 779 0
1050 782 0
1052 785 0
1054 788 0
1056 791 0
1058 794 0
1060 797 0
1062 800 0
1064 803 0
1066 806 0
1068 809 0
1070 812 0
1072 815 0
1074 770 0
1076 773 0
1078 776 0
1080 779 0
1082 782 0
1084 785 0
1086 788 0
1088 791 0
1090 794 0
1092 797 0
1094 800 0
1096 803 0
1098 806 0
1100 809 0
1102 812 0
1104 815 0
1106 770 0
1108 773 0
1110 776 0
1112 779 0
1114 782 0
1116 785 0
1118 788 0
1120 791 0
1122 794 0
1124 797 0
1126 800 0
1128 803 0
1130 806 0
1132 809 0
1134 812 0
1136 815 0
1138 770 0
1140 773 0
1142 776 0
1144 779 0
1146 782 0
1148 785 0
1150 788 0
1152 791 0
1154 794 0
1156 797 0
1158 800 0
1160 803 0
1162 806 0
1164 809 0
1166 812 0
1168 815 0
1170 770 0
1172 773 0
1174 776 0
1176 779 0
1178 782 0
1180 785 0
1182 788 0
1184 791 0
1186 794 0
1188 797 0
1190 800 0
1192 803 0
1194 806 0
1196 809 0
1198 812 0
1200 815 0
1202 770 0
1204 773 0
1206 776 0
1208 779 0
1210 782 0
1212 785 0
1214 788 0
1216 791 0
1218 794 0
1220 797 0
1222 800 0
1224 803 0
1226 806 0
1228 809 0
1230 812 0
1232 815 0
1234 770 0
1236 773 0
1238 776 0
1240 779 0
1242 782 0
1244 785 0
1246 788 0
1248 791 0
1250 794 0
1252 797 0
1254 800 0
1256 803 0
1258 806 0
1260 809 0
1262 812 0
1264 815 0
1266 770 0
1268 773 0
1270 776 0
1272 779 0
1274 782 0
1276 785 0
1278 788 0
1280 791 0
1282 794 0
1284 797 0
1286 800 0
1288 803 0
1290 806 0
1292 809 0
1294 812 0
1296 815 0
-1297 -770 -770 1298 0
-1299 -773 -770 1300 0
-1301 -776 -770 1302 0
-1303 -779 -770 1304 0
-1305 -782 -770 1306 0
-1307 -785 -770 1308 0
-1309 -788 -770 1310 0
-1311 -791 -770 1312 0
-1313 -794 -770 1314 0
-1315 -797 -770 1316 0
-1317 -800 -770 1318 0
-1319 -803 -770 1320 0
-1321 -806 -770 1322 0
-1323 -809 -770 1324 0
-1325 -812 -770 1326 0
-1327 -815 -770 1328 0
-1329 -770 -773 1330 0
-1331 -773 -773 1332 0
-1333 -776 -773 1334 0
-1335 -779 -773 1336 0
-1337 -782 -773 1338 0
-1339 -785 -773 1340 0
-1341 -788 -773 1342 0
-1343 -791 -773 1344 0
-1345 -794 -773 1346 0
-1347 -797 -773 1348 0
-1349 -800 -773 1350 0
-1351 -803 -773 1352 0
-1353 -806 -773 1354 0
-1355 -809 -773 1356 0
-1357 -812 -773 1358 0
-1359 -815 -773 1360 0
-1361 -770 -776 1362 0
-1363 -773 -776 1364 0
-1365 -776 -776 1366 0
-1367 -779 -776 1368 0
-1369 -782 -776 1370 0
-1371 -785 -776 1372 0
-1373 -788 -776 1374 0
-1375 -791 -776 1376 0
-1377 -794 -776 1378 0
-1379 -797 -776 1380 0
-1381 -800 -776 1382 0
-1383 -803 -776 1384 0
-1385 -806 -776 1386 0
-1387 -809 -776 1388 0
-1389 -812 -776 1390 0
-1391 -815 -776 1392 0
-1393 -770 -779 1394 0
-1395 -773 -779 1396 0
-1397 -776 -779 1398 0
-1399 -779 -779 1400 0
-1401 -782 -779 1402 0
-1403 -785 -779 1404 0
-1405 -788 -779 1406 0
-1407 -791 -779 1408 0
-1409 -794 -779 1410 0
-1411 -797 -779 1412 0
-1413 -800 -779 1414 0
-1415 -803 -779 1416 0
-1417 -806 -779 1418 0
-1419 -809 -779 1420 0
-1421 -812 -779 1422 0
-1423 -815 -779 1424 0
-1425 -770 -782 1426 0
-1427 -773 -782 1428 0
-1429 -776 -782 1430 0
-1431 -779 -782 1432 0
-1433 -782 -782 1434 0
-1435 -785 -782 1436 0
-1437 -788 -782 1438 0
-1439 -791 -782 1440 0
-1441 -794 -782 1442 0
-1443 -797 -782 1444 0
-1445 -800 -782 1446 0
-1447 -803 -782 1448 0
-1449 -806 -782 1450 0
-1451 -809 -782 1452 0
-1453 -812 -782 1454 0
-1455 -815 -782 1456 0
-1457 -770 -785 1458 0
-1459 -773 -785 1460 0
-1461 -776 -785 1462 0
-1463 -779 -785 1464 0
-1465 -782 -785 1466 0
-1467 -785 -785 1468 0
-1469 -788 -785 1470 0
-1471 -791 -785 1472 0
-1473 -794 -785 1474 0
-1475 -797 -785 1476 0
-1477 -800 -785 1478 0
-1479 -803 -785 1480 0
-1481 -806 -785 1482 0
-1483 -809 -785 1484 0
-1485 -812 -785 1486 0
-1487 -815 -785 1488 0
-1489 -770 -788 1490 0
-1491 -773 -788 1492 0
-1493 -776 -788 1494 0
-1495 -779 -788 1496 0
-1497 -782 -788 1498 0
-1499 -785 -788 1500 0
-1501 -788 -788 1502 0
-1503 -791 -788 1504 0
-1505 -794 -788 1506 0
-1507 -797 -788 1508 0
-1509 -800 -788 1510 0
-1511 -803 -788 1512 0
-1513 -806 -788 1514 0
-1515 -809 -788 1516 0
-1517 -812 -788 1518 0
-1519 -815 -788 1520 0
-1521 -770 -791 1522 0
-1523 -773 -791 1524 0
-1525 -776 -791 1526 0
-1527 -779 -791 1528 0
-1529 -782 -791 1530 0
-1531 -785 -791 1532 0
-1533 -788 -791 1534 0
-1535 -791 -791 1536 0
-1537 -794 -791 1538 0
-1539 -797 -791 1540 0
-1541 -800 -791 1542 0
-1543 -803 -791 1544 0
-1545 -806 -791 1546 0
-1547 -809 -791 1548 0
-1549 -812 -791 1550 0
-1551 -815 -791 1552 0
-1553 -770 -794 1554 0
-1555 -773 -794 1556 0
-1557 -776 -794 1558 0
-1559 -779 -794 1560 0
-1561 -782 -794 1562 0
-1563 -785 -794 1564 0
-1565 -788 -794 1566 0
-1567 -791 -794 1568 0
-1569 -794 -794 1570 0
-1571 -797 -794 1572 0
-1573 -800 -794 1574 0
-1575 -803 -794 1576 0
-1577 -806 -794 1578 0
-1579 -809 -794 1580 0
-1581 -812 -794 1582 0
-1583 -815 -794 1584 0
-1585 -770 -797 1586 0
-1587 -773 -797 1588 0
-1589 -776 -797 1590 0
-1591 -779 -797 1592 0
-1593 -782 -797 1594 0
-1595 -785 -797 1596 0
-1597 -788 -797 1598 0
-1599 -791 -797 1600 0
-1601 -794 -797 1602 0
-1603 -797 -797 1604 0
-1605 -800 -797 1606 0
-1607 -803 -797 1608 0
-1609 -806 -797 1610 0
-1611 -809 -797 1612 0
-1613 -812 -797 1614 0
-1615 -815 -797 1616 0
-1617 -770 -800 1618 0
-1619 -773 -800 1620 0
-1621 -776 -800 1622 0
-1623 -779 -800 1624 0
-1625 -782 -800 1626 0
-1627 -785 -800 1628 0
-1629 -788 -800 1630 0
-1631 -791 -800 1632 0
-1633 -794 -800 1634 0
-1635 -797 -800 1636 0
-1637 -800 -800 1638 0
-1639 -803 -800 1640 0
-1641 -806 -800 1642 0
-1643 -809 -800 1644 0
-1645 -812 -800 1646 0
-1647 -815 -800 1648 0
-1649 -770 -803 1650 0
-1651 -773 -803 1652 0
-1653 -776 -803 1654 0
-1655 -779 -803 1656 0
-1657 -782 -803 1658 0
-1659 -785 -803 1660 0
-1661 -788 -803 1662 0
-1663 -791 -803 1664 0
-1665 -794 -803 1666 0
-1667 -797 -803 1668 0
-1669 -800 -803 1670 0
-1671 -803 -803 1672 0
-1673 -806 -803 1674 0
-1675 -809 -803 1676 0
-1677 -812 -803 1678 0
-1679 -815 -803 1680 0
-1681 -770 -806 1682 0
-1683 -773 -806 1684 0
-1685 -776 -806 1686 0
-1687 -779 -806 1688 0
-1689 -782 -806 1690 0
-1691 -785 -806 1692 0
-1693 -788 -806 1694 0
-1695 -791 -806 1696 0
-1697 -794 -806 1698 0
-1699 -797 -806 1700 0
-1701 -800 -806 1702 0
-1703 -803 -806 1704 0
-1705 -806 -806 1706 0
-1707 -809 -806 1708 0
-1709 -812 -806 1710 0
-1711 -815 -806 1712 0
-1713 -770 -809 1714 0
-1715 -773 -809 1716 0
-1717 -776 -809 1718 0
-1719 -779 -809 1720 0
-1721 -782 -809 1722 0
-1723 -785 -809 1724 0
-1725 -788 -809 1726 0
-1727 -791 -809 1728 0
-1729 -794 -809 1730 0
-1731 -797 -809 1732 0
-1733 -800 -809 1734 0
-1735 -803 -809 1736 0
-1737 -806 -809 1738 0
-1739 -809 -809 1740 0
-1741 -812 -809 1742 0
-1743 -815 -809 1744 0
-1745 -770 -812 1746 0
-1747 -773 -812 1748 0
-1749 -776 -812 1750 0
-1751 -779 -812 1752 0
-1753 -782 -812 1754 0
-1755 -785 -812 1756 0
-1757 -788 -812 1758 0
-1759 -791 -812 1760 0
-1761 -794 -812 1762 0
-1763 -797 -812 1764 0
-1765 -800 -812 1766 0
-1767 -803 -812 1768 0
-1769 -806 -812 1770 0
-1771 -809 -812 1772 0
-1773 -812 -812 1774 0
-1775 -815 -812 1776 0
-1777 -770 -815 1778 0
-1779 -773 -815 1780 0
-1781 -776 -815 1782 0
-1783 -779 -815 1784 0
-1785 -782 -815 1786 0
-1787 -785 -815 1788 0
-1789 -788 -815 1790 0
-1791 -791 -815 1792 0
-1793 -794 -815 1794 0
-1795 -797 -815 1796 0
-1797 -800 -815 1798 0
-1799 -803 -815 1800 0
-1801 -806 -815 1802 0
-1803 -809 -815 1804 0
-1805 -812 -815 1806 0
-1807 -815 -815 1808 0
-1298 1297 0
-1300 1299 0
-1302 1301 0
-1304 1303 0
-1306 1305 0
-1308 1307 0
-1310 1309 0
-1312 1311 0
-1314 1313 0
-1316 1315 0
-1318 1317 0
-1320 1319 0
-1322 1321 0
-1324 1323 0
-1326 1325 0
-1328 1327 0
-1330 1329 0
-1332 1331 0
-1334 1333 0
-1336 1335 0
-1338 1337 0
-1340 1339 0
-1342 1341 0
-1344 1343 0
-1346 1345 0
-1348 1347 0
-1350 1349 0
-1352 1351 0
-1354 1353 0
-1356 1355 0
-1358 1357 0
-1360 1359 0
-1362 1361 0
-1364 1363 0
-1366 1365 0
-1368 1367 0
-1370 1369 0
-1372 1371 0
-1374 1373 0
-1376 1375 0
-1378 1377 0
-1380 1379 0
-1382 1381 0
-1384 1383 0
-1386 1385 0
-1388 1387 0
-1390 1389 0
-1392 1391 0
-1394 1393 0
-1396 1395 0
-1398 1397 0
-1400 1399 0
-1402 1401 0
-1404 1403 0
-1406 1405 0
-1408 1407 0
-1410 1409 0
-1412 1411 0
-1414 1413 0
-1416 1415 0
-1418 1417 0
-1420 1419 0
-1422 1421 0
-1424 1423 0
-1426 1425 0
-1428 1427 0
-1430 1429 0
-1432 1431 0
-1434 1433 0
-1436 1435 0
-1438 1437 0
-1440 1439 0
-1442 1441 0
-1444 1443 0
-1446 1445 0
-1448 1447 0
-1450 1449 0
-1452 1451 0
-1454 1453 0
-1456 1455 0
-1458 1457 0
-1460 1459 0
-1462 1461 0
-1464 1463 0
-1466 1465 0
-1468 1467 0
-1470 1469 0
-1472 1471 0
-1474 1473 0
-1476 1475 0
-1478 1477 0
-1480 1479 0
-1482 1481 0
-1484 1483 0
-1486 1485 0
-1488 1487 0
-1490 1489 0
-1492 1491 0
-1494 1493 0
-1496 1495 0
-1498 1497 0
-1500 1499 0
-1502 1501 0
-1504 1503 0
-1506 1505 0
-1508 1507 0
-1510 1509 0
-1512 1511 0
-1514 1513 0
-1516 1515 0
-1518 1517 0
-1520 1519 0
-1522 1521 0
-1524 1523 0
-1526 1525 0
-1528 1527 0
-1530 1529 0
-1532 1531 0
-1534 1533 0
-1536 1535 0
-1538 1537 0
-1540 1539 0
-1542 1541 0
-1544 1543 0
-1546 1545 0
-1548 1547 0
-1550 1549 0
-1552 1551 0
-1554 1553 0
-1556 1555 0
-1558 1557 0
-1560 1559 0
-1562 1561 0
-1564 1563 0
-1566 1565 0
-1568 1567 0
-1570 1569 0
-1572 1571 0
-1574 1573 0
-1576 1575 0
-1578 1577 0
-1580 1579 0
-1582 1581 0
-1584 1583 0
-1586 1585 0
-1588 1587 0
-1590 1589 0
-1592 1591 0
-1594 1593 0
-1596 1595 0
-1598 1597 0
-1600 1599 0
-1602 1601 0
-1604 1603 0
-1606 1605 0
-1608 1607 0
-1610 1609 0
-1612 1611 0
-1614 1613 0
-1616 1615 0
-1618 1617 0
-1620 1619 0
-1622 1621 0
-1624 1623 0
-1626 1625 0
-1628 1627 0
-1630 1629 0
-1632 1631 0
-1634 1633 0
-1636 1635 0
-1638 1637 0
-1640 1639 0
-1642 1641 0
-1644 1643 0
-1646 1645 0
-1648 1647 0
-1650 1649 0
-1652 1651 0
-1654 1653 0
-1656 1655 0
-1658 1657 0
-1660 1659 0
-1662 1661 0
-1664 1663 0
-1666 1665 0
-1668 1667 0
-1670 1669 0
-1672 1671 0
-1674 1673 0
-1676 1675 0
-1678 1677 0
-1680 1679 0
-1682 1681 0
-1684 1683 0
-1686 1685 0
-1688 1687 0
-1690 1689 0
-1692 1691 0
-1694 1693 0
-1696 1695 0
-1698 1697 0
-1700 1699 0
-1702 1701 0
-1704 1703 0
-1706 1705 0
-1708 1707 0
-1710 1709 0
-1712 1711 0
-1714 1713 0
-1716 1715 0
-1718 1717 0
-1720 1719 0
-1722 1721 0
-1724 1723 0
-1726 1725 0
-1728 1727 0
-1730 1729 0
-1732 1731 0
-1734 1733 0
-1736 1735 0
-1738 1737 0
-1740 1739 0
-1742 1741 0
-1744 1743 0
-1746 1745 0
-1748 1747 0
-1750 1749 0
-1752 1751 0
-1754 1753 0
-1756 1755 0
-1758 1757 0
-1760 1759 0
-1762 1761 0
-1764 1763 0
-1766 1765 0
-1768 1767 0
-1770 1769 0
-1772 1771 0
-1774 1773 0
-1776 1775 0
-1778 1777 0
-1780 1779 0
-1782 1781 0
-1784 1783 0
-1786 1785 0
-1788 1787 0
-1790 1789 0
-1792 1791 0
-1794 1793 0
-1796 1795 0
-1798 1797 0
-1800 1799 0
-1802 1801 0
-1804 1803 0
-1806 1805 0
-1808 1807 0
-1298 770 0
-1300 773 0
-1302 776 0
-1304 779 0
-1306 782 0
-1308 785 0
-1310 788 0
-1312 791 0
-1314 794 0
-1316 797 0
-1318 800 0
-1320 803 0
-1322 806 0
-1324 809 0
-1326 812 0
-1328 815 0
-1330 770 0
-1332 773 0
-1334 776 0
-1336 779 0
-1338 782 0
-1340 785 0
-1342 788 0
-1344 791 0
-1346 794 0
-1348 797 0
-1350 800 0
-1352 803 0
-1354 806 0
-1356 809 0
-1358 812 0
-1360 815 0
-1362 770 0
-1364 773 0
-1366 776 0
-1368 779 0
-1370 782 0
-1372 785 0
-1374 788 0
-1376 791 0
-1378 794 0
-1380 797 0
-1382 800 0
-1384 803 0
-1386 806 0
-1388 809 0
-1390 812 0
-1392 815 0
-1394 770 0
-1396 773 0
-1398 776 0
-1400 779 0
-1402 782 0
-1404 785 0
-1406 788 0
-1408 791 0
-1410 794 0
-1412 797 0
-1414 800 0
-1416 803 0
-1418 806 0
-1420 809 0
-1422 812 0
-1424 815 0
-1426 770 0
-1428 773 0
-1430 776 0
-1432 779 0
-1434 782 0
-1436 785 0
-1438 788 0
-1440 791 0
-1442 794 0
-1444 797 0
-1446 800 0
-1448 803 0
-1450 806 0
-1452 809 0
-1454 812 0
-1456 815 0
-1458 770 0
-1460 773 0
-1462 776 0
-1464 779 0
-1466 782 0
-1468 785 0
-1470 788 0
-1472 791 0
-1474 794 0
-1476 797 0
-1478 800 0
-1480 803 0
-1482 806 0
-1484 809 0
-1486 812 0
-1488 815 0
-1490 770 0
-1492 773 0
-1494 776 0
-1496 779 0
-1498 782 0
-1500 785 0
-1502 788 0
-1504 791 0
-1506 794 0
-1508 797 0
-1510 800 0
-1512 803 0
-1514 806 0
-1516 809 0
-1518 812 0
-1520 815 0
-1522 770 0
-1524 773 0
-1526 776 0
-1528 779 0
-1530 782 0
-1532 785 0
-1534 788 0
-1536 791 0
-1538 794 0
-1540 797 0
-1542 800 0
-1544 803 0
-1546 806 0
-1548 809 0
-1550 812 0
-1552 815 0
-1554 770 0
-1556 773 0
-1558 776 0
-1560 779 0
-1562 782 0
-1564 785 0
-1566 788 0
-1568 791 0
-1570 794 0
-1572 797 0
-1574 800 0
-1576 803 0
-1578 806 0
-1580 809 0
-1582 812 0
-1584 815 0
-1586 770 0
-1588 773 0
-1590 776 0
-1592 779 0
-1594 782 0
-1596 785 0
-1598 788 0
-1600 791 0
-1602 794 0
-1604 797 0
-1606 800 0
-1608 803 0
-1610 806 0
-1612 809 0
-1614 812 0
-1616 815 0
-1618 770 0
-1620 773 0
-1622 776 0
-1624 779 0
-1626 782 0
-1628 785 0
-1630 788 0
-1632 791 0
-1634 794 0
-1636 797 0
-1638 800 0
-1640 803 0
-1642 806 0
-1644 809 0
-1646 812 0
-1648 815 0
-1650 770 0
-1652 773 0
-1654 776 0
-1656 779 0
-1658 782 0
-1660 785 0
-1662 788 0
-1664 791 0
-1666 794 0
-1668 797 0
-1670 800 0
-1672 803 0
-1674 806 0
-1676 809 0
-1678 812 0
-1680 815 0
-1682 770 0
-1684 773 0
-1686 776 0
-1688 779 0
-1690 782 0
-1692 785 0
-1694 788 0
-1696 791 0
-1698 794 0
-1700 797 0
-1702 800 0
-1704 803 0
-1706 806 0
-1708 809 0
-1710 812 0
-1712 815 0
-1714 770 0
-1716 773 0
-1718 776 0
-1720 779 0
-1722 782 0
-1724 785 0
-1726 788 0
-1728 791 0
-1730 794 0
-1732 797 0
-1734 800 0
-1736 803 0
-1738 806 0
-1740 809 0
-1742 812 0
-1744 815 0
-1746 770 0
-1748 773 0
-1750 776 0
-1752 779 0
-1754 782 0
-1756 785 0
-1758 788 0
-1760 791 0
-1762 794 0
-1764 797 0
-1766 800 0
-1768 803 0
-1770 806 0
-1772 809 0
-1774 812 0
-1776 815 0
-1778 770 0
-1780 773 0
-1782 776 0
-1784 779 0
-1786 782 0
-1788 785 0
-1790 788 0
-1792 791 0
-1794 794 0
-1796 797 0
-1798 800 0
-1800 803 0
-1802 806 0
-1804 809 0
-1806 812 0
-1808 815 0
-1298 770 0
-1300 770 0
-1302 770 0
-1304 770 0
-1306 770 0
-1308 770 0
-1310 770 0
-1312 770 0
-1314 770 0
-1316 770 0
-1318 770 0
-1320 770 0
-1322 770 0
-1324 770 0
-1326 770 0
-1328 770 0
-1330 773 0
-1332 773 0
-1334 773 0
-1336 773 0
-1338 773 0
-1340 773 0
-1342 773 0
-1344 773 0
-1346 773 0
-1348 773 0
-1350 773 0
-1352 773 0
-1354 773 0
-1356 773 0
-1358 773 0
-1360 773 0
-1362 776 0
-1364 776 0
-1366 776 0
-1368 776 0
-1370 776 0
-1372 776 0
-1374 776 0
-1376 776 0
-1378 776 0
-1380 776 0
-1382 776 0
-1384 776 0
-1386 776 0
-1388 776 0
-1390 776 0
-1392 776 0
-1394 779 0
-1396 779 0
-1398 779 0
-1400 779 0
-1402 779 0
-1404 779 0
-1406 779 0
-1408 779 0
-1410 779 0
-1412 779 0
-1414 779 0
-1416 779 0
-1418 779 0
-1420 779 0
-1422 779 0
-1424 779 0
-1426 782 0
-1428 782 0
-1430 782 0
-1432 782 0
-1434 782 0
-1436 782 0
-1438 782 0
-1440 782 0
-1442 782 0
-1444 782 0
-1446 782 0
-1448 782 0
-1450 782 0
-1452 782 0
-1454 782 0
-1456 782 0
-1458 785 0
-1460 785 0
-1462 785 0
-1464 785 0
-1466 785 0
-1468 785 0
-1470 785 0
-1472 785 0
-1474 785 0
-1476 785 0
-1478 785 0
-1480 785 0
-1482 785 0
-1484 785 0
-1486 785 0
-1488 785 0
-1490 788 0
-1492 788 0
-1494 788 0
-1496 788 0
-1498 788 0
-1500 788 0
-1502 788 0
-1504 788 0
-1506 788 0
-1508 788 0
-1510 788 0
-1512 788 0
-1514 788 0
-1516 788 0
-1518 788 0
-1520 788 0
-1522 791 0
-1524 791 0
-1526 791 0
-1528 791 0
-1530 791 0
-1532 791 0
-1534 791 0
-1536 791 0
-1538 791 0
-1540 791 0
-1542 791 0
-1544 791 0
-1546 791 0
-1548 791 0
-1550 791 0
-1552 791 0
-1554 794 0
-1556 794 0
-1558 794 0
-1560 794 0
-1562 794 0
-1564 794 0
-1566 794 0
-1568 794 0
-1570 794 0
-1572 794 0
-1574 794 0
-1576 794 0
-1578 794 0
-1580 794 0
-1582 794 0
-1584 794 0
-1586 797 0
-1588 797 0
-1590 797 0
-1592 797 0
-1594 797 0
-1596 797 0
-1598 797 0
-1600 797 0
-1602 797 0
-1604 797 0
-1606 797 0
-1608 797 0
-1610 797 0
-1612 797 0
-1614 797 0
-1616 797 0
-1618 800 0
-1620 800 0
-1622 800 0
-1624 800 0
-1626 800 0
-1628 800 0
-1630 800 0
-1632 800 0
-1634 800 0
-1636 800 0
-1638 800 0
-1640 800 0
-1642 800 0
-1644 800 0
-1646 800 0
-1648 800 0
-1650 803 0
-1652 803 0
-1654 803 0
-1656 803 0
-1658 803 0
-1660 803 0
-1662 803 0
-1664 803 0
-1666 803 0
-1668 803 0
-1670 803 0
-1672 803 0
-1674 803 0
-1676 803 0
-1678 803 0
-1680 803 0
-1682 806 0
-1684 806 0
-1686 806 0
-1688 806 0
-1690 806 0
-1692 806 0
-1694 806 0
-1696 806 0
-1698 806 0
-1700 806 0
-1702 806 0
-1704 806 0
-1706 806 0
-1708 806 0
-1710 806 0
-1712 806 0
-1714 809 0
-1716 809 0
-1718 809 0
-1720 809 0
-1722 809 0
-1724 809 0
-1726 809 0
-1728 809 0
-1730 809 0
-1732 809 0
-1734 809 0
-1736 809 0
-1738 809 0
-1740 809 0
-1742 809 0
-1744 809 0
-1746 812 0
-1748 812 0
-1750 812 0
-1752 812 0
-1754 812 0
-1756 812 0
-1758 812 0
-1760 812 0
-1762 812 0
-1764 812 0
-1766 812 0
-1768 812 0
-1770 812 0
-1772 812 0
-1774 812 0
-1776 812 0
-1778 815 0
-1780 815 0
-1782 815 0
-1784 815 0
-1786 815 0
-1788 815 0
-1790 815 0
-1792 815 0
-1794 815 0
-1796 815 0
-1798 815 0
-1800 815 0
-1802 815 0
-1804 815 0
-1806 815 0
-1808 815 0
-1809 1298 -1810 0
-1811 1300 -1812 0
-1813 1302 -1814 0
-1815 1304 -1816 0
-1817 1306 -1818 0
-1819 1308 -1820 0
-1821 1310 -1822 0
-1823 1312 -1824 0
-1825 1314 -1826 0
-1827 1316 -1828 0
-1829 1318 -1830 0
-1831 1320 -1832 0
-1833 1322 -1834 0
-1835 1324 -1836 0
-1837 1326 -1838 0
-1839 1328 -1840 0
-1841 1330 -1842 0
-1843 1332 -1844 0
-1845 1334 -1846 0
-1847 1336 -1848 0
-1849 1338 -1850 0
-1851 1340 -1852 0
-1853 1342 -1854 0
-1855 1344 -1856 0
-1857 1346 -1858 0
-1859 1348 -1860 0
-1861 1350 -1862 0
-1863 1352 -1864 0
-1865 1354 -1866 0
-1867 1356 -1868 0
-1869 1358 -1870 0
-1871 1360 -1872 0
-1873 1362 -1874 0
-1875 1364 -1876 0
-1877 1366 -1878 0
-1879 1368 -1880 0
-1881 1370 -1882 0
-1883 1372 -1884 0
-1885 1374 -1886 0
-1887 1376 -1888 0
-1889 1378 -1890 0
-1891 1380 -1892 0
-1893 1382 -1894 0
-1895 1384 -1896 0
-1897 1386 -1898 0
-1899 1388 -1900 0
-1901 1390 -1902 0
-1903 1392 -1904 0
-1905 1394 -1906 0
-1907 1396 -1908 0
-1909 1398 -1910 0
-1911 1400 -1912 0
-1913 1402 -1914 0
-1915 1404 -1916 0
-1917 1406 -1918 0
-1919 1408 -1920 0
-1921 1410 -1922 0
-1923 1412 -1924 0
-1925 1414 -1926 0
-1927 1416 -1928 0
-1929 1418 -1930 0
-1931 1420 -1932 0
-1933 1422 -1934 0
-1935 1424 -1936 0
-1937 1426 -1938 0
-1939 1428 -1940 0
-1941 1430 -1942 0
-1943 1432 -1944 0
-1945 1434 -1946 0
-1947 1436 -1948 0
-1949 1438 -1950 0
-1951 1440 -1952 0
-1953 1442 -1954 0
-1955 1444 -1956 0
-1957 1446 -1958 0
-1959 1448 -1960 0
-1961 1450 -1962 0
-1963 1452 -1964 0
-1965 1454 -1966 0
-1967 1456 -1968 0
-1969 1458 -1970 0
-1971 1460 -1972 0
-1973 1462 -1974 0
-1975 1464 -1976 0
-1977 1466 -1978 0
-1979 1468 -1980 0
-1981 1470 -1982 0
-1983 1472 -1984 0
-1985 1474 -1986 0
-1987 1476 -1988 0
-1989 1478 -1990 0
-1991 1480 -1992 0
-1993 1482 -1994 0
-1995 1484 -1996 0
-1997 1486 -1998 0
-1999 1488 -2000 0
-2001 1490 -2002 0
-2003 1492 -2004 0
-2005 1494 -2006 0
-2007 1496 -2008 0
-2009 1498 -2010 0
-2011 1500 -2012 0
-2013 1502 -2014 0
-2015 1504 -2016 0
-2017 1506 -2018 0
-2019 1508 -2020 0
-2021 1510 -2022 0
-2023 1512 -2024 0
-2025 1514 -2026 0
-2027 1516 -2028 0
-2029 1518 -2030 0
-2031 1520 -2032 0
-2033 1522 -2034 0
-2035 1524 -2036 0
-2037 1526 -2038 0
-2039 1528 -2040 0
-2041 1530 -2042 0
-2043 1532 -2044 0
-2045 1534 -2046 0
-2047 1536 -2048 0
-2049 1538 -2050 0
-2051 1540 -2052 0
-2053 1542 -2054 0
-2055 1544 -2056 0
-2057 1546 -2058 0
-2059 1548 -2060 0
-2061 1550 -2062 0
-2063 1552 -2064 0
-2065 1554 -2066 0
-2067 1556 -2068 0
-2069 1558 -2070 0
-2071 1560 -2072 0
-2073 1562 -2074 0
-2075 1564 -2076 0
-2077 1566 -2078 0
-2079 1568 -2080 0
-2081 1570 -2082 0
-2083 1572 -2084 0
-2085 1574 -2086 0
-2087 1576 -2088 0
-2089 1578 -2090 0
-2091 1580 -2092 0
-2093 1582 -2094 0
-2095 1584 -2096 0
-2097 1586 -2098 0
-2099 1588 -2100 0
-2101 1590 -2102 0
-2103 1592 -2104 0
-2105 1594 -2106 0
-2107 1596 -2108 0
-2109 1598 -2110 0
-2111 1600 -2112 0
-2113 1602 -2114 0
-2115 1604 -2116 0
-2117 1606 -2118 0
-2119 1608 -2120 0
-2121 1610 -2122 0
-2123 1612 -2124 0
-2125 1614 -2126 0
-2127 1616 -2128 0
-2129 1618 -2130 0
-2131 1620 -2132 0
-2133 1622 -2134 0
-2135 1624 -2136 0
-2137 1626 -2138 0
-2139 1628 -2140 0
-2141 1630 -2142 0
-2143 1632 -2144 0
-2145 1634 -2146 0
-2147 1636 -2148 0
-2149 1638 -2150 0
-2151 1640 -2152 0
-2153 1642 -2154 0
-2155 1644 -2156 0
-2157 1646 -2158 0
-2159 1648 -2160 0
-2161 1650 -2162 0
-2163 1652 -2164 0
-2165 1654 -2166 0
-2167 1656 -2168 0
-2169 1658 -2170 0
-2171 1660 -2172 0
-2173 1662 -2174 0
-2175 1664 -2176 0
-2177 1666 -2178 0
-2179 1668 -2180 0
-2181 1670 -2182 0
-2183 1672 -2184 0
-2185 1674 -2186 0
-2187 1676 -2188 0
-2189 1678 -2190 0
-2191 1680 -2192 0
-2193 1682 -2194 0
-2195 1684 -2196 0
-2197 1686 -2198 0
-2199 1688 -2200 0
-2201 1690 -2202 0
-2203 1692 -2204 0
-2205 1694 -2206 0
-2207 1696 -2208 0
-2209 1698 -2210 0
-2211 1700 -2212 0
-2213 1702 -2214 0
-2215 1704 -2216 0
-2217 1706 -2218 0
-2219 1708 -2220 0
-2221 1710 -2222 0
-2223 1712 -2224 0
-2225 1714 -2226 0
-2227 1716 -2228 0
-2229 1718 -2230 0
-2231 1720 -2232 0
-2233 1722 -2234 0
-2235 1724 -2236 0
-2237 1726 -2238 0
-2239 1728 -2240 0
-2241 1730 -2242 0
-2243 1732 -2244 0
-2245 1734 -2246 0
-2247 1736 -2248 0
-2249 1738 -2250 0
-2251 1740 -2252 0
-2253 1742 -2254 0
-2255 1744 -2256 0
-2257 1746 -2258 0
-2259 1748 -2260 0
-2261 1750 -2262 0
-2263 1752 -2264 0
-2265 1754 -2266 0
-2267 1756 -2268 0
-2269 1758 -2270 0
-2271 1760 -2272 0
-2273 1762 -2274 0
-2275 1764 -2276 0
-2277 1766 -2278 0
-2279 1768 -2280 0
-2281 1770 -2282 0
-2283 1772 -2284 0
-2285 1774 -2286 0
-2287 1776 -2288 0
-2289 1778 -2290 0
-2291 1780 -2292 0
-2293 1782 -2294 0
-2295 1784 -2296 0
-2297 1786 -2298 0
-2299 1788 -2300 0
-2301 1790 -2302 0
-2303 1792 -2304 0
-2305 1794 -2306 0
-2307 1796 -2308 0
-2309 1798 -2310 0
-2311 1800 -2312 0
-2313 1802 -2314 0
-2315 1804 -2316 0
-2317 1806 -2318 0
-2319 1808 -2320 0
1810 1809 0
1812 1811 0
1814 1813 0
1816 1815 0
1818 1817 0
1820 1819 0
1822 1821 0
1824 1823 0
1826 1825 0
1828 1827 0
1830 1829 0
1832 1831 0
1834 1833 0
1836 1835 0
1838 1837 0
1840 1839 0
1842 1841 0
1844 1843 0
1846 1845 0
1848 1847 0
1850 1849 0
1852 1851 0
1854 1853 0
1856 1855 0
1858 1857 0
1860 1859 0
1862 1861 0
1864 1863 0
1866 1865 0
1868 1867 0
1870 1869 0
1872 1871 0
1874 1873 0
1876 1875 0
1878 1877 0
1880 1879 0
1882 1881 0
1884 1883 0
1886 1885 0
1888 1887 0
1890 1889 0
1892 1891 0
1894 1893 0
1896 1895 0
1898 1897 0
1900 1899 0
1902 1901 0
1904 1903 0
1906 1905 0
1908 1907 0
1910 1909 0
1912 1911 0
1914 1913 0
1916 1915 0
1918 1917 0
1920 1919 0
1922 1921 0
1924 1923 0
1926 1925 0
1928 1927 0
1930 1929 0
1932 1931 0
1934 1933 0
1936 1935 0
1938 1937 0
1940 1939 0
1942 1941 0
1944 1943 0
1946 1945 0
1948 1947 0
1950 1949 0
1952 1951 0
1954 1953 0
1956 1955 0
1958 1957 0
1960 1959 0
1962 1961 0
1964 1963 0
1966 1965 0
1968 1967 0
1970 1969 0
1972 1971 0
1974 1973 0
1976 1975 0
1978 1977 0
1980 1979 0
1982 1981 0
1984 1983 0
1986 1985 0
1988 1987 0
1990 1989 0
1992 1991 0
1994 1993 0
1996 1995 0
1998 1997 0
2000 1999 0
2002 2001 0
2004 2003 0
2006 2005 0
2008 2007 0
2010 2009 0
2012 2011 0
2014 2013 0
2016 2015 0
2018 2017 0
2020 2019 0
2022 2021 0
2024 2023 0
2026 2025 0
2028 2027 0
2030 2029 0
2032 2031 0
2034 2033 0
2036 2035 0
2038 2037 0
2040 2039 0
2042 2041 0
2044 2043 0
2046 2045 0
2048 2047 0
2050 2049 0
2052 2051 0
2054 2053 0
2056 2055 0
2058 2057 0
2060 2059 0
2062 2061 0
2064 2063 0
2066 2065 0
2068 2067 0
2070 2069 0
2072 2071 0
2074 2073 0
2076 2075 0
2078 2077 0
2080 2079 0
2082 2081 0
2084 2083 0
2086 2085 0
2088 2087 0
2090 2089 0
2092 2091 0
2094 2093 0
2096 2095 0
2098 2097 0
2100 2099 0
2102 2101 0
2104 2103 0
2106 2105 0
2108 2107 0
2110 2109 0
2112 2111 0
2114 2113 0
2116 2115 0
2118 2117 0
2120 2119 0
2122 2121 0
2124 2123 0
2126 2125 0
2128 2127 0
2130 2129 0
2132 2131 0
2134 2133 0
2136 2135 0
2138 2137 0
2140 2139 0
2142 2141 0
2144 2143 0
2146 2145 0
2148 2147 0
2150 2149 0
2152 2151 0
2154 2153 0
2156 2155 0
2158 2157 0
2160 2159 0
2162 2161 0
2164 2163 0
2166 2165 0
2168 2167 0
2170 2169 0
2172 2171 0
2174 2173 0
2176 2175 0
2178 2177 0
2180 2179 0
2182 2181 0
2184 2183 0
2186 2185 0
2188 2187 0
2190 2189 0
2192 2191 0
2194 2193 0
2196 2195 0
2198 2197 0
2200 2199 0
2202 2201 0
2204 2203 0
2206 2205 0
2208 2207 0
2210 2209 0
2212 2211 0
2214 2213 0
2216 2215 0
2218 2217 0
2220 2219 0
2222 2221 0
2224 2223 0
2226 2225 0
2228 2227 0
2230 2229 0
2232 2231 0
2234 2233 0
2236 2235 0
2238 2237 0
2240 2239 0
2242 2241 0
2244 2243 0
2246 2245 0
2248 2247 0
2250 2249 0
2252 2251 0
2254 2253 0
2256 2255 0
2258 2257 0
2260 2259 0
2262 2261 0
2264 2263 0
2266 2265 0
2268 2267 0
2270 2269 0
2272 2271 0
2274 2273 0
2276 2275 0
2278 2277 0
2280 2279 0
2282 2281 0
2284 2283 0
2286 2285 0
2288 2287 0
2290 2289 0
2292 2291 0
2294 2293 0
2296 2295 0
2298 2297 0
2300 2299 0
2302 2301 0
2304 2303 0
2306 2305 0
2308 2307 0
2310 2309 0
2312 2311 0
2314 2313 0
2316 2315 0
2318 2317 0
2320 2319 0
1810 -1298 0
1812 -1300 0
1814 -1302 0
1816 -1304 0
1818 -1306 0
1820 -1308 0
1822 -1310 0
1824 -1312 0
1826 -1314 0
1828 -1316 0
1830 -1318 0
1832 -1320 0
1834 -1322 0
1836 -1324 0
1838 -1326 0
1840 -1328 0
1842 -1330 0
1844 -1332 0
1846 -1334 0
1848 -1336 0
1850 -1338 0
1852 -1340 0
1854 -1342 0
1856 -1344 0
1858 -1346 0
1860 -1348 0
1862 -1350 0
1864 -1352 0
1866 -1354 0
1868 -1356 0
1870 -1358 0
1872 -1360 0
1874 -1362 0
1876 -1364 0
1878 -1366 0
1880 -1368 0
1882 -1370 0
1884 -1372 0
1886 -1374 0
1888 -1376 0
1890 -1378 0
1892 -1380 0
1894 -1382 0
1896 -1384 0
1898 -1386 0
1900 -1388 0
1902 -1390 0
1904 -1392 0
1906 -1394 0
1908 -1396 0
1910 -1398 0
1912 -1400 0
1914 -1402 0
1916 -1404 0
1918 -1406 0
1920 -1408 0
1922 -1410 0
1924 -1412 0
1926 -1414 0
1928 -1416 0
1930 -1418 0
1932 -1420 0
1934 -1422 0
1936 -1424 0
1938 -1426 0
1940 -1428 0
1942 -1430 0
1944 -1432 0
1946 -1434 0
1948 -1436 0
1950 -1438 0
1952 -1440 0
1954 -1442 0
1956 -1444 0
1958 -1446 0
1960 -1448 0
1962 -1450 0
1964 -1452 0
1966 -1454 0
1968 -1456 0
1970 -1458 0
1972 -1460 0
1974 -1462 0
1976 -1464 0
1978 -1466 0
1980 -1468 0
1982 -1470 0
1984 -1472 0
1986 -1474 0
1988 -1476 0
1990 -1478 0
1992 -1480 0
1994 -1482 0
1996 -1484 0
1998 -1486 0
2000 -1488 0
2002 -1490 0
2004 -1492 0
2006 -1494 0
2008 -1496 0
2010 -1498 0
2012 -1500 0
2014 -1502 0
2016 -1504 0
2018 -1506 0
2020 -1508 0
2022 -1510 0
2024 -1512 0
2026 -1514 0
2028 -1516 0
2030 -1518 0
2032 -1520 0
2034 -1522 0
2036 -1524 0
2038 -1526 0
2040 -1528 0
2042 -1530 0
2044 -1532 0
2046 -1534 0
2048 -1536 0
2050 -1538 0
2052 -1540 0
2054 -1542 0
2056 -1544 0
2058 -1546 0
2060 -1548 0
2062 -1550 0
2064 -1552 0
2066 -1554 0
2068 -1556 0
2070 -1558 0
2072 -1560 0
2074 -1562 0
2076 -1564 0
2078 -1566 0
2080 -1568 0
2082 -1570 0
2084 -1572 0
2086 -1574 0
2088 -1576 0
2090 -1578 0
2092 -1580 0
2094 -1582 0
2096 -1584 0
2098 -1586 0
2100 -1588 0
2102 -1590 0
2104 -1592 0
2106 -1594 0
2108 -1596 0
2110 -1598 0
2112 -1600 0
2114 -1602 0
2116 -1604 0
2118 -1606 0
2120 -1608 0
2122 -1610 0
2124 -1612 0
2126 -1614 0
2128 -1616 0
2130 -1618 0
2132 -1620 0
2134 -1622 0
2136 -1624 0
2138 -1626 0
2140 -1628 0
2142 -1630 0
2144 -1632 0
2146 -1634 0
2148 -1636 0
2150 -1638 0
2152 -1640 0
2154 -1642 0
2156 -1644 0
2158 -1646 0
2160 -1648 0
2162 -1650 0
2164 -1652 0
2166 -1654 0
2168 -1656 0
2170 -1658 0
2172 -1660 0
2174 -1662 0
2176 -1664 0
2178 -1666 0
2180 -1668 0
2182 -1670 0
2184 -1672 0
2186 -1674 0
2188 -1676 0
2190 -1678 0
2192 -1680 0
2194 -1682 0
2196 -1684 0
2198 -1686 0
2200 -1688 0
2202 -1690 0
2204 -1692 0
2206 -1694 0
2208 -1696 0
2210 -1698 0
2212 -1700 0
2214 -1702 0
2216 -1704 0
2218 -1706 0
2220 -1708 0
2222 -1710 0
2224 -1712 0
2226 -1714 0
2228 -1716 0
2230 -1718 0
2232 -1720 0
2234 -1722 0
2236 -1724 0
2238 -1726 0
2240 -1728 0
2242 -1730 0
2244 -1732 0
2246 -1734 0
2248 -1736 0
2250 -1738 0
2252 -1740 0
2254 -1742 0
2256 -1744 0
2258 -1746 0
2260 -1748 0
2262 -1750 0
2264 -1752 0
2266 -1754 0
2268 -1756 0
2270 -1758 0
2272 -1760 0
2274 -1762 0
2276 -1764 0
2278 -1766 0
2280 -1768 0
2282 -1770 0
2284 -1772 0
2286 -1774 0
2288 -1776 0
2290 -1778 0
2292 -1780 0
2294 -1782 0
2296 -1784 0
2298 -1786 0
2300 -1788 0
2302 -1790 0
2304 -1792 0
2306 -1794 0
2308 -1796 0
2310 -1798 0
2312 -1800 0
2314 -1802 0
2316 -1804 0
2318 -1806 0
2320 -1808 0
1809 -1297 -770 -770 -2321 0
1811 -1299 -773 -770 -2322 0
1813 -1301 -776 -770 -2323 0
1815 -1303 -779 -770 -2324 0
1817 -1305 -782 -770 -2325 0
1819 -1307 -785 -770 -2326 0
1821 -1309 -788 -770 -2327 0
1823 -1311 -791 -770 -2328 0
1825 -1313 -794 -770 -2329 0
1827 -1315 -797 -770 -2330 0
1829 -1317 -800 -770 -2331 0
1831 -1319 -803 -770 -2332 0
1833 -1321 -806 -770 -2333 0
1835 -1323 -809 -770 -2334 0
1837 -1325 -812 -770 -2335 0
1839 -1327 -815 -770 -2336 0
1841 -1329 -770 -773 -2337 0
1843 -1331 -773 -773 -2338 0
1845 -1333 -776 -773 -2339 0
1847 -1335 -779 -773 -2340 0
1849 -1337 -782 -773 -2341 0
1851 -1339 -785 -773 -2342 0
1853 -1341 -788 -773 -2343 0
1855 -1343 -791 -773 -2344 0
1857 -1345 -794 -773 -2345 0
1859 -1347 -797 -773 -2346 0
1861 -1349 -800 -773 -2347 0
1863 -1351 -803 -773 -2348 0
1865 -1353 -806 -773 -2349 0
1867 -1355 -809 -773 -2350 0
1869 -1357 -812 -773 -2351 0
1871 -1359 -815 -773 -2352 0
1873 -1361 -770 -776 -2353 0
1875 -1363 -773 -776 -2354 0
1877 -1365 -776 -776 -2355 0
1879 -1367 -779 -776 -2356 0
1881 -1369 -782 -776 -2357 0
1883 -1371 -785 -776 -2358 0
1885 -1373 -788 -776 -2359 0
1887 -1375 -791 -776 -2360 0
1889 -1377 -794 -776 -2361 0
1891 -1379 -797 -776 -2362 0
1893 -1381 -800 -776 -2363 0
1895 -1383 -803 -776 -2364 0
1897 -1385 -806 -776 -2365 0
1899 -1387 -809 -776 -2366 0
1901 -1389 -812 -776 -2367 0
1903 -1391 -815 -776 -2368 0
1905 -1393 -770 -779 -2369 0
1907 -1395 -773 -779 -2370 0
1909 -1397 -776 -779 -2371 0
1911 -1399 -779 -779 -2372 0
1913 -1401 -782 -779 -2373 0
1915 -1403 -785 -779 -2374 0
1917 -1405 -788 -779 -2375 0
1919 -1407 -791 -779 -2376 0
1921 -1409 -794 -779 -2377 0
1923 -1411 -797 -779 -2378 0
1925 -1413 -800 -779 -2379 0
1927 -1415 -803 -779 -2380 0
1929 -1417 -806 -779 -2381 0
1931 -1419 -809 -779 -2382 0
1933 -1421 -812 -779 -2383 0
1935 -1423 -815 -779 -2384 0
1937 -1425 -770 -782 -2385 0
1939 -1427 -773 -782 -2386 0
1941 -1429 -776 -782 -2387 0
1943 -1431 -779 -782 -2388 0
1945 -1433 -782 -782 -2389 0
1947 -1435 -785 -782 -2390 0
1949 -1437 -788 -782 -2391 0
1951 -1439 -791 -782 -2392 0
1953 -1441 -794 -782 -2393 0
1955 -1443 -797 -782 -2394 0
1957 -1445 -800 -782 -2395 0
1959 -1447 -803 -782 -2396 0
1961 -1449 -806 -782 -2397 0
1963 -1451 -809 -782 -2398 0
1965 -1453 -812 -782 -2399 0
1967 -1455 -815 -782 -2400 0
1969 -1457 -770 -785 -2401 0
1971 -1459 -773 -785 -2402 0
1973 -1461 -776 -785 -2403 0
1975 -1463 -779 -785 -2404 0
1977 -1465 -782 -785 -2405 0
1979 -1467 -785 -785 -2406 0
1981 -1469 -788 -785 -2407 0
1983 -1471 -791 -785 -2408 0
1985 -1473 -794 -785 -2409 0
1987 -1475 -797 -785 -2410 0
1989 -1477 -800 -785 -2411 0
1991 -1479 -803 -785 -2412 0
1993 -1481 -806 -785 -2413 0
1995 -1483 -809 -785 -2414 0
1997 -1485 -812 -785 -2415 0
1999 -1487 -815 -785 -2416 0
2001 -1489 -770 -788 -2417 0
2003 -1491 -773 -788 -2418 0
2005 -1493 -776 -788 -2419 0
2007 -1495 -779 -788 -2420 0
2009 -1497 -782 -788 -2421 0
2011 -1499 -785 -788 -2422 0
2013 -1501 -788 -788 -2423 0
2015 -1503 -791 -788 -2424 0
2017 -1505 -794 -788 -2425 0
2019 -1507 -797 -788 -2426 0
2021 -1509 -800 -788 -2427 0
2023 -1511 -803 -788 -2428 0
2025 -1513 -806 -788 -2429 0
2027 -1515 -809 -788 -2430 0
2029 -1517 -812 -788 -2431 0
2031 -1519 -815 -788 -2432 0
2033 -1521 -770 -791 -2433 0
2035 -1523 -773 -791 -2434 0
2037 -1525 -776 -791 -2435 0
2039 -1527 -779 -791 -2436 0
2041 -1529 -782 -791 -2437 0
2043 -1531 -785 -791 -2438 0
2045 -1533 -788 -791 -2439 0
2047 -1535 -791 -791 -2440 0
2049 -1537 -794 -791 -2441 0
2051 -1539 -797 -791 -2442 0
2053 -1541 -800 -791 -2443 0
2055 -1543 -803 -791 -2444 0
2057 -1545 -806 -791 -2445 0
2059 -1547 -809 -791 -2446 0
2061 -1549 -812 -791 -2447 0
2063 -1551 -815 -791 -2448 0
2065 -1553 -770 -794 -2449 0
2067 -1555 -773 -794 -2450 0
2069 -1557 -776 -794 -2451 0
2071 -1559 -779 -794 -2452 0
2073 -1561 -782 -794 -2453 0
2075 -1563 -785 -794 -2454 0
2077 -1565 -788 -794 -2455 0
2079 -1567 -791 -794 -2456 0
2081 -1569 -794 -794 -2457 0
2083 -1571 -797 -794 -2458 0
2085 -1573 -800 -794 -2459 0
2087 -1575 -803 -794 -2460 0
2089 -1577 -806 -794 -2461 0
2091 -1579 -809 -794 -2462 0
2093 -1581 -812 -794 -2463 0
2095 -1583 -815 -794 -2464 0
2097 -1585 -770 -797 -2465 0
2099 -1587 -773 -797 -2466 0
2101 -1589 -776 -797 -2467 0
2103 -1591 -779 -797 -2468 0
2105 -1593 -782 -797 -2469 0
2107 -1595 -785 -797 -2470 0
2109 -1597 -788 -797 -2471 0
2111 -1599 -791 -797 -2472 0
2113 -1601 -794 -797 -2473 0
2115 -1603 -797 -797 -2474 0
2117 -1605 -800 -797 -2475 0
2119 -1607 -803 -797 -2476 0
2121 -1609 -806 -797 -2477 0
2123 -1611 -809 -797 -2478 0
2125 -1613 -812 -797 -2479 0
2127 -1615 -815 -797 -2480 0
2129 -1617 -770 -800 -2481 0
2131 -1619 -773 -800 -2482 0
2133 -1621 -776 -800 -2483 0
2135 -1623 -779 -800 -2484 0
2137 -1625 -782 -800 -2485 0
2139 -1627 -785 -800 -2486 0
2141 -1629 -788 -800 -2487 0
2143 -1631 -791 -800 -2488 0
2145 -1633 -794 -800 -2489 0
2147 -1635 -797 -800 -2490 0
2149 -1637 -800 -800 -2491 0
2151 -1639 -803 -800 -2492 0
2153 -1641 -806 -800 -2493 0
2155 -1643 -809 -800 -2494 0
2157 -1645 -812 -800 -2495 0
2159 -1647 -815 -800 -2496 0
2161 -1649 -770 -803 -2497 0
2163 -1651 -773 -803 -2498 0
2165 -1653 -776 -803 -2499 0
2167 -1655 -779 -803 -2500 0
2169 -1657 -782 -803 -2501 0
2171 -1659 -785 -803 -2502 0
2173 -1661 -788 -803 -2503 0
2175 -1663 -791 -803 -2504 0
2177 -1665 -794 -803 -2505 0
2179 -1667 -797 -803 -2506 0
2181 -1669 -800 -803 -2507 0
2183 -1671 -803 -803 -2508 0
2185 -1673 -806 -803 -2509 0
2187 -1675 -809 -803 -2510 0
2189 -1677 -812 -803 -2511 0
2191 -1679 -815 -803 -2512 0
2193 -1681 -770 -806 -2513 0
2195 -1683 -773 -806 -2514 0
2197 -1685 -776 -806 -2515 0
2199 -1687 -779 -806 -2516 0
2201 -1689 -782 -806 -2517 0
2203 -1691 -785 -806 -2518 0
2205 -1693 -788 -806 -2519 0
2207 -1695 -791 -806 -2520 0
2209 -1697 -794 -806 -2521 0
2211 -1699 -797 -806 -2522 0
2213 -1701 -800 -806 -2523 0
2215 -1703 -803 -806 -2524 0
2217 -1705 -806 -806 -2525 0
2219 -1707 -809 -806 -2526 0
2221 -1709 -812 -806 -2527 0
2223 -1711 -815 -806 -2528 0
2225 -1713 -770 -809 -2529 0
2227 -1715 -773 -809 -2530 0
2229 -1717 -776 -809 -2531 0
2231 -1719 -779 -809 -2532 0
2233 -1721 -782 -809 -2533 0
2235 -1723 -785 -809 -2534 0
2237 -1725 -788 -809 -2535 0
2239 -1727 -791 -809 -2536 0
2241 -1729 -794 -809 -2537 0
2243 -1731 -797 -809 -2538 0
2245 -1733 -800 -809 -2539 0
2247 -1735 -803 -809 -2540 0
2249 -1737 -806 -809 -2541 0
2251 -1739 -809 -809 -2542 0
2253 -1741 -812 -809 -2543 0
2255 -1743 -815 -809 -2544 0
2257 -1745 -770 -812 -2545 0
2259 -1747 -773 -812 -2546 0
2261 -1749 -776 -812 -2547 0
2263 -1751 -779 -812 -2548 0
2265 -1753 -782 -812 -2549 0
2267 -1755 -785 -812 -2550 0
2269 -1757 -788 -812 -2551 0
2271 -1759 -791 -812 -2552 0
2273 -1761 -794 -812 -2553 0
2275 -1763 -797 -812 -2554 0
2277 -1765 -800 -812 -2555 0
2279 -1767 -803 -812 -2556 0
2281 -1769 -806 -812 -2557 0
2283 -1771 -809 -812 -2558 0
2285 -1773 -812 -812 -2559 0
2287 -1775 -815 -812 -2560 0
2289 -1777 -770 -815 -2561 0
2291 -1779 -773 -815 -2562 0
2293 -1781 -776 -815 -2563 0
2295 -1783 -779 -815 -2564 0
2297 -1785 -782 -815 -2565 0
2299 -1787 -785 -815 -2566 0
2301 -1789 -788 -815 -2567 0
2303 -1791 -791 -815 -2568 0
2305 -1793 -794 -815 -2569 0
2307 -1795 -797 -815 -2570 0
2309 -1797 -800 -815 -2571 0
2311 -1799 -803 -815 -2572 0
2313 -1801 -806 -815 -2573 0
2315 -1803 -809 -815 -2574 0
2317 -1805 -812 -815 -2575 0
2319 -1807 -815 -815 -2576 0
2321 -1809 0
2322 -1811 0
2323 -1813 0
2324 -1815 0
2325 -1817 0
2326 -1819 0
2327 -1821 0
2328 -1823 0
2329 -1825 0
2330 -1827 0
2331 -1829 0
2332 -1831 0
2333 -1833 0
2334 -1835 0
2335 -1837 0
2336 -1839 0
2337 -1841 0
2338 -1843 0
2339 -1845 0
2340 -1847 0
2341 -1849 0
2342 -1851 0
2343 -1853 0
2344 -1855 0
2345 -1857 0
2346 -1859 0
2347 -1861 0
2348 -1863 0
2349 -1865 0
2350 -1867 0
2351 -1869 0
2352 -1871 0
2353 -1873 0
2354 -1875 0
2355 -1877 0
2356 -1879 0
2357 -1881 0
2358 -1883 0
2359 -1885 0
2360 -1887 0
2361 -1889 0
2362 -1891 0
2363 -1893 0
2364 -1895 0
2365 -1897 0
2366 -1899 0
2367 -1901 0
2368 -1903 0
2369 -1905 0
2370 -1907 0
2371 -1909 0
2372 -1911 0
2373 -1913 0
2374 -1915 0
2375 -1917 0
2376 -1919 0
2377 -1921 0
2378 -1923 0
2379 -1925 0
2380 -1927 0
2381 -1929 0
2382 -1931 0
2383 -1933 0
2384 -1935 0
2385 -1937 0
2386 -1939 0
2387 -1941 0
2388 -1943 0
2389 -1945 0
2390 -1947 0
2391 -1949 0
2392 -1951 0
2393 -1953 0
2394 -1955 0
2395 -1957 0
2396 -1959 0
2397 -1961 0
2398 -1963 0
2399 -1965 0
2400 -1967 0
2401 -1969 0
2402 -1971 0
2403 -1973 0
2404 -1975 0
2405 -1977 0
2406 -1979 0
2407 -1981 0
2408 -1983 0
2409 -1985 0
2410 -1987 0
2411 -1989 0
2412 -1991 0
2413 -1993 0
2414 -1995 0
2415 -1997 0
2416 -1999 0
2417 -2001 0
2418 -2003 0
2419 -2005 0
2420 -2007 0
2421 -2009 0
2422 -2011 0
2423 -2013 0
2424 -2015 0
2425 -2017 0
2426 -2019 0
2427 -2021 0
2428 -2023 0
2429 -2025 0
2430 -2027 0
2431 -2029 0
2432 -2031 0
2433 -2033 0
2434 -2035 0
2435 -2037 0
2436 -2039 0
2437 -2041 0
2438 -2043 0
2439 -2045 0
2440 -2047 0
2441 -2049 0
2442 -2051 0
2443 -2053 0
2444 -2055 0
2445 -2057 0
2446 -2059 0
2447 -2061 0
2448 -2063 0
2449 -2065 0
2450 -2067 0
2451 -2069 0
2452 -2071 0
2453 -2073 0
2454 -2075 0
2455 -2077 0
2456 -2079 0
2457 -2081 0
2458 -2083 0
2459 -2085 0
2460 -2087 0
2461 -2089 0
2462 -2091 0
2463 -2093 0
2464 -2095 0
2465 -2097 0
2466 -2099 0
2467 -2101 0
2468 -2103 0
2469 -2105 0
2470 -2107 0
2471 -2109 0
2472 -2111 0
2473 -2113 0
2474 -2115 0
2475 -2117 0
2476 -2119 0
2477 -2121 0
2478 -2123 0
2479 -2125 0
2480 -2127 0
2481 -2129 0
2482 -2131 0
2483 -2133 0
2484 -2135 0
2485 -2137 0
2486 -2139 0
2487 -2141 0
2488 -2143 0
2489 -2145 0
2490 -2147 0
2491 -2149 0
2492 -2151 0
2493 -2153 0
2494 -2155 0
2495 -2157 0
2496 -2159 0
2497 -2161 0
2498 -2163 0
2499 -2165 0
2500 -2167 0
2501 -2169 0
2502 -2171 0
2503 -2173 0
2504 -2175 0
2505 -2177 0
2506 -2179 0
2507 -2181 0
2508 -2183 0
2509 -2185 0
2510 -2187 0
2511 -2189 0
2512 -2191 0
2513 -2193 0
2514 -2195 0
2515 -2197 0
2516 -2199 0
2517 -2201 0
2518 -2203 0
2519 -2205 0
2520 -2207 0
2521 -2209 0
2522 -2211 0
2523 -2213 0
2524 -2215 0
2525 -2217 0
2526 -2219 0
2527 -2221 0
2528 -2223 0
2529 -2225 0
2530 -2227 0
2531 -2229 0
2532 -2231 0
2533 -2233 0
2534 -2235 0
2535 -2237 0
2536 -2239 0
2537 -2241 0
2538 -2243 0
2539 -2245 0
2540 -2247 0
2541 -2249 0
2542 -2251 0
2543 -2253 0
2544 -2255 0
2545 -2257 0
2546 -2259 0
2547 -2261 0
2548 -2263 0
2549 -2265 0
2550 -2267 0
2551 -2269 0
2552 -2271 0
2553 -2273 0
2554 -2275 0
2555 -2277 0
2556 -2279 0
2557 -2281 0
2558 -2283 0
2559 -2285 0
2560 -2287 0
2561 -2289 0
2562 -2291 0
2563 -2293 0
2564 -2295 0
2565 -2297 0
2566 -2299 0
2567 -2301 0
2568 -2303 0
2569 -2305 0
2570 -2307 0
2571 -2309 0
2572 -2311 0
2573 -2313 0
2574 -2315 0
2575 -2317 0
2576 -2319 0
2321 1297 0
2322 1299 0
2323 1301 0
2324 1303 0
2325 1305 0
2326 1307 0
2327 1309 0
2328 1311 0
2329 1313 0
2330 1315 0
2331 1317 0
2332 1319 0
2333 1321 0
2334 1323 0
2335 1325 0
2336 1327 0
2337 1329 0
2338 1331 0
2339 1333 0
2340 1335 0
2341 1337 0
2342 1339 0
2343 1341 0
2344 1343 0
2345 1345 0
2346 1347 0
2347 1349 0
2348 1351 0
2349 1353 0
2350 1355 0
2351 1357 0
2352 1359 0
2353 1361 0
2354 1363 0
2355 1365 0
2356 1367 0
2357 1369 0
2358 1371 0
2359 1373 0
2360 1375 0
2361 1377 0
2362 1379 0
2363 1381 0
2364 1383 0
2365 1385 0
2366 1387 0
2367 1389 0
2368 1391 0
2369 1393 0
2370 1395 0
2371 1397 0
2372 1399 0
2373 1401 0
2374 1403 0
2375 1405 0
2376 1407 0
2377 1409 0
2378 1411 0
2379 1413 0
2380 1415 0
2381 1417 0
2382 1419 0
2383 1421 0
2384 1423 0
2385 1425 0
2386 1427 0
2387 1429 0
2388 1431 0
2389 1433 0
2390 1435 0
2391 1437 0
2392 1439 0
2393 1441 0
2394 1443 0
2395 1445 0
2396 1447 0
2397 1449 0
2398 1451 0
2399 1453 0
2400 1455 0
2401 1457 0
2402 1459 0
2403 1461 0
2404 1463 0
2405 1465 0
2406 1467 0
2407 1469 0
2408 1471 0
2409 1473 0
2410 1475 0
2411 1477 0
2412 1479 0
2413 1481 0
2414 1483 0
2415 1485 0
2416 1487 0
2417 1489 0
2418 1491 0
2419 1493 0
2420 1495 0
2421 1497 0
2422 1499 0
2423 1501 0
2424 1503 0
2425 1505 0
2426 1507 0
2427 1509 0
2428 1511 0
2429 1513 0
2430 1515 0
2431 1517 0
2432 1519 0
2433 1521 0
2434 1523 0
2435 1525 0
2436 1527 0
2437 1529 0
2438 1531 0
2439 1533 0
2440 1535 0
2441 1537 0
2442 1539 0
2443 1541 0
2444 1543 0
2445 1545 0
2446 1547 0
2447 1549 0
2448 1551 0
2449 1553 0
2450 1555 0
2451 1557 0
2452 1559 0
2453 1561 0
2454 1563 0
2455 1565 0
2456 1567 0
2457 1569 0
2458 1571 0
2459 1573 0
2460 1575 0
2461 1577 0
2462 1579 0
2463 1581 0
2464 1583 0
2465 1585 0
2466 1587 0
2467 1589 0
2468 1591 0
2469 1593 0
2470 1595 0
2471 1597 0
2472 1599 0
2473 1601 0
2474 1603 0
2475 1605 0
2476 1607 0
2477 1609 0
2478 1611 0
2479 1613 0
2480 1615 0
2481 1617 0
2482 1619 0
2483 1621 0
2484 1623 0
2485 1625 0
2486 1627 0
2487 1629 0
2488 1631 0
2489 1633 0
2490 1635 0
2491 1637 0
2492 1639 0
2493 1641 0
2494 1643 0
2495 1645 0
2496 1647 0
2497 1649 0
2498 1651 0
2499 1653 0
2500 1655 0
2501 1657 0
2502 1659 0
2503 1661 0
2504 1663 0
2505 1665 0
2506 1667 0
2507 1669 0
2508 1671 0
2509 1673 0
2510 1675 0
2511 1677 0
2512 1679 0
2513 1681 0
2514 1683 0
2515 1685 0
2516 1687 0
2517 1689 0
2518 1691 0
2519 1693 0
2520 1695 0
2521 1697 0
2522 1699 0
2523 1701 0
2524 1703 0
2525 1705 0
2526 1707 0
2527 1709 0
2528 1711 0
2529 1713 0
2530 1715 0
2531 1717 0
2532 1719 0
2533 1721 0
2534 1723 0
2535 1725 0
2536 1727 0
2537 1729 0
2538 1731 0
2539 1733 0
2540 1735 0
2541 1737 0
2542 1739 0
2543 1741 0
2544 1743 0
2545 1745 0
2546 1747 0
2547 1749 0
2548 1751 0
2549 1753 0
2550 1755 0
2551 1757 0
2552 1759 0
2553 1761 0
2554 1763 0
2555 1765 0
2556 1767 0
2557 1769 0
2558 1771 0
2559 1773 0
2560 1775 0
2561 1777 0
2562 1779 0
2563 1781 0
2564 1783 0
2565 1785 0
2566 1787 0
2567 1789 0
2568 1791 0
2569 1793 0
2570 1795 0
2571 1797 0
2572 1799 0
2573 1801 0
2574 1803 0
2575 1805 0
2576 1807 0
2321 770 0
2322 773 0
2323 776 0
2324 779 0
2325 782 0
2326 785 0
2327 788 0
2328 791 0
2329 794 0
2330 797 0
2331 800 0
2332 803 0
2333 806 0
2334 809 0
2335 812 0
2336 815 0
2337 770 0
2338 773 0
2339 776 0
2340 779 0
2341 782 0
2342 785 0
2343 788 0
2344 791 0
2345 794 0
2346 797 0
2347 800 0
2348 803 0
2349 806 0
2350 809 0
2351 812 0
2352 815 0
2353 770 0
2354 773 0
2355 776 0
2356 779 0
2357 782 0
2358 785 0
2359 788 0
2360 791 0
2361 794 0
2362 797 0
2363 800 0
2364 803 0
2365 806 0
2366 809 0
2367 812 0
2368 815 0
2369 770 0
2370 773 0
2371 776 0
2372 779 0
2373 782 0
2374 785 0
2375 788 0
2376 791 0
2377 794 0
2378 797 0
2379 800 0
2380 803 0
2381 806 0
2382 809 0
2383 812 0
2384 815 0
2385 770 0
2386 773 0
2387 776 0
2388 779 0
2389 782 0
2390 785 0
2391 788 0
2392 791 0
2393 794 0
2394 797 0
2395 800 0
2396 803 0
2397 806 0
2398 809 0
2399 812 0
2400 815 0
2401 770 0
2402 773 0
2403 776 0
2404 779 0
2405 782 0
2406 785 0
2407 788 0
2408 791 0
2409 794 0
2410 797 0
2411 800 0
2412 803 0
2413 806 0
2414 809 0
2415 812 0
2416 815 0
2417 770 0
2418 773 0
2419 776 0
2420 779 0
2421 782 0
2422 785 0
2423 788 0
2424 791 0
2425 794 0
2426 797 0
2427 800 0
2428 803 0
2429 806 0
2430 809 0
2431 812 0
2432 815 0
2433 770 0
2434 773 0
2435 776 0
2436 779 0
2437 782 0
2438 785 0
2439 788 0
2440 791 0
2441 794 0
2442 797 0
2443 800 0
2444 803 0
2445 806 0
2446 809 0
2447 812 0
2448 815 0
2449 770 0
2450 773 0
2451 776 0
2452 779 0
2453 782 0
2454 785 0
2455 788 0
2456 791 0
2457 794 0
2458 797 0
2459 800 0
2460 803 0
2461 806 0
2462 809 0
2463 812 0
2464 815 0
2465 770 0
2466 773 0
2467 776 0
2468 779 0
2469 782 0
2470 785 0
2471 788 0
2472 791 0
2473 794 0
2474 797 0
2475 800 0
2476 803 0
2477 806 0
2478 809 0
2479 812 0
2480 815 0
2481 770 0
2482 773 0
2483 776 0
2484 779 0
2485 782 0
2486 785 0
2487 788 0
2488 791 0
2489 794 0
2490 797 0
2491 800 0
2492 803 0
2493 806 0
2494 809 0
2495 812 0
2496 815 0
2497 770 0
2498 773 0
2499 776 0
2500 779 0
2501 782 0
2502 785 0
2503 788 0
2504 791 0
2505 794 0
2506 797 0
2507 800 0
2508 803 0
2509 806 0
2510 809 0
2511 812 0
2512 815 0
2513 770 0
2514 773 0
2515 776 0
2516 779 0
2517 782 0
2518 785 0
2519 788 0
2520 791 0
2521 794 0
2522 797 0
2523 800 0
2524 803 0
2525 806 0
2526 809 0
2527 812 0
2528 815 0
2529 770 0
2530 773 0
2531 776 0
2532 779 0
2533 782 0
2534 785 0
2535 788 0
2536 791 0
2537 794 0
2538 797 0
2539 800 0
2540 803 0
2541 806 0
2542 809 0
2543 812 0
2544 815 0
2545 770 0
2546 773 0
2547 776 0
2548 779 0
2549 782 0
2550 785 0
2551 788 0
2552 791 0
2553 794 0
2554 797 0
2555 800 0
2556 803 0
2557 806 0
2558 809 0
2559 812 0
2560 815 0
2561 770 0
2562 773 0
2563 776 0
2564 779 0
2565 782 0
2566 785 0
2567 788 0
2568 791 0
2569 794 0
2570 797 0
2571 800 0
2572 803 0
2573 806 0
2574 809 0
2575 812 0
2576 815 0
2321 770 0
2322 770 0
2323 770 0
2324 770 0
2325 770 0
2326 770 0
2327 770 0
2328 770 0
2329 770 0
2330 770 0
2331 770 0
2332 770 0
2333 770 0
2334 770 0
2335 770 0
2336 770 0
2337 773 0
2338 773 0
2339 773 0
2340 773 0
2341 773 0
2342 773 0
2343 773 0
2344 773 0
2345 773 0
2346 773 0
2347 773 0
2348 773 0
2349 773 0
2350 773 0
2351 773 0
2352 773 0
2353 776 0
2354 776 0
2355 776 0
2356 776 0
2357 776 0
2358 776 0
2359 776 0
2360 776 0
2361 776 0
2362 776 0
2363 776 0
2364 776 0
2365 776 0
2366 776 0
2367 776 0
2368 776 0
2369 779 0
2370 779 0
2371 779 0
2372 779 0
2373 779 0
2374 779 0
2375 779 0
2376 779 0
2377 779 0
2378 779 0
2379 779 0
2380 779 0
2381 779 0
2382 779 0
2383 779 0
2384 779 0
2385 782 0
2386 782 0
2387 782 0
2388 782 0
2389 782 0
2390 782 0
2391 782 0
2392 782 0
2393 782 0
2394 782 0
2395 782 0
2396 782 0
2397 782 0
2398 782 0
2399 782 0
2400 782 0
2401 785 0
2402 785 0
2403 785 0
2404 785 0
2405 785 0
2406 785 0
2407 785 0
2408 785 0
2409 785 0
2410 785 0
2411 785 0
2412 785 0
2413 785 0
2414 785 0
2415 785 0
2416 785 0
2417 788 0
2418 788 0
2419 788 0
2420 788 0
2421 788 0
2422 788 0
2423 788 0
2424 788 0
2425 788 0
2426 788 0
2427 788 0
2428 788 0
2429 788 0
2430 788 0
2431 788 0
2432 788 0
2433 791 0
2434 791 0
2435 791 0
2436 791 0
2437 791 0
2438 791 0
2439 791 0
2440 791 0
2441 791 0
2442 791 0
2443 791 0
2444 791 0
2445 791 0
2446 791 0
2447 791 0
2448 791 0
2449 794 0
2450 794 0
2451 794 0
2452 794 0
2453 794 0
2454 794 0
2455 794 0
2456 794 0
2457 794 0
2458 794 0
2459 794 0
2460 794 0
2461 794 0
2462 794 0
2463 794 0
2464 794 0
2465 797 0
2466 797 0
2467 797 0
2468 797 0
2469 797 0
2470 797 0
2471 797 0
2472 797 0
2473 797 0
2474 797 0
2475 797 0
2476 797 0
2477 797 0
2478 797 0
2479 797 0
2480 797 0
2481 800 0
2482 800 0
2483 800 0
2484 800 0
2485 800 0
2486 800 0
2487 800 0
2488 800 0
2489 800 0
2490 800 0
2491 800 0
2492 800 0
2493 800 0
2494 800 0
2495 800 0
2496 800 0
2497 803 0
2498 803 0
2499 803 0
2500 803 0
2501 803 0
2502 803 0
2503 803 0
2504 803 0
2505 803 0
2506 803 0
2507 803 0
2508 803 0
2509 803 0
2510 803 0
2511 803 0
2512 803 0
2513 806 0
2514 806 0
2515 806 0
2516 806 0
2517 806 0
2518 806 0
2519 806 0
2520 806 0
2521 806 0
2522 806 0
2523 806 0
2524 806 0
2525 806 0
2526 806 0
2527 806 0
2528 806 0
2529 809 0
2530 809 0
2531 809 0
2532 809 0
2533 809 0
2534 809 0
2535 809 0
2536 809 0
2537 809 0
2538 809 0
2539 809 0
2540 809 0
2541 809 0
2542 809 0
2543 809 0
2544 809 0
2545 812 0
2546 812 0
2547 812 0
2548 812 0
2549 812 0
2550 812 0
2551 812 0
2552 812 0
2553 812 0
2554 812 0
2555 812 0
2556 812 0
2557 812 0
2558 812 0
2559 812 0
2560 812 0
2561 815 0
2562 815 0
2563 815 0
2564 815 0
2565 815 0
2566 815 0
2567 815 0
2568 815 0
2569 815 0
2570 815 0
2571 815 0
2572 815 0
2573 815 0
2574 815 0
2575 815 0
2576 815 0
-1809 -2577 -2578 0
-1841 -2577 -2579 0
-1873 -2577 -2580 0
-1905 -2577 -2581 0
-1937 -2577 -2582 0
-1969 -2577 -2583 0
-2001 -2577 -2584 0
-2033 -2577 -2585 0
-2065 -2577 -2586 0
-2097 -2577 -2587 0
-2129 -2577 -2588 0
-2161 -2577 -2589 0
-2193 -2577 -2590 0
-2225 -2577 -2591 0
-2257 -2577 -2592 0
-2289 -2577 -2593 0
-1811 -2594 -2595 0
-1843 -2594 -2596 0
-1875 -2594 -2597 0
-1907 -2594 -2598 0
-1939 -2594 -2599 0
-1971 -2594 -2600 0
-2003 -2594 -2601 0
-2035 -2594 -2602 0
-2067 -2594 -2603 0
-2099 -2594 -2604 0
-2131 -2594 -2605 0
-2163 -2594 -2606 0
-2195 -2594 -2607 0
-2227 -2594 -2608 0
-2259 -2594 -2609 0
-2291 -2594 -2610 0
-1813 -2611 -2612 0
-1845 -2611 -2613 0
-1877 -2611 -2614 0
-1909 -2611 -2615 0
-1941 -2611 -2616 0
-1973 -2611 -2617 0
-2005 -2611 -2618 0
-2037 -2611 -2619 0
-2069 -2611 -2620 0
-2101 -2611 -2621 0
-2133 -2611 -2622 0
-2165 -2611 -2623 0
-2197 -2611 -2624 0
-2229 -2611 -2625 0
-2261 -2611 -2626 0
-2293 -2611 -2627 0
-1815 -2628 -2629 0
-1847 -2628 -2630 0
-1879 -2628 -2631 0
-1911 -2628 -2632 0
-1943 -2628 -2633 0
-1975 -2628 -2634 0
-2007 -2628 -2635 0
-2039 -2628 -2636 0
-2071 -2628 -2637 0
-2103 -2628 -2638 0
-2135 -2628 -2639 0
-2167 -2628 -2640 0
-2199 -2628 -2641 0
-2231 -2628 -2642 0
-2263 -2628 -2643 0
-2295 -2628 -2644 0
-1817 -2645 -2646 0
-1849 -2645 -2647 0
-1881 -2645 -2648 0
-1913 -2645 -2649 0
-1945 -2645 -2650 0
-1977 -2645 -2651 0
-2009 -2645 -2652 0
-2041 -2645 -2653 0
-2073 -2645 -2654 0
-2105 -2645 -2655 0
-2137 -2645 -2656 0
-2169 -2645 -2657 0
-2201 -2645 -2658 0
-2233 -2645 -2659 0
-2265 -2645 -2660 0
-2297 -2645 -2661 0
-1819 -2662 -2663 0
-1851 -2662 -2664 0
-1883 -2662 -2665 0
-1915 -2662 -2666 0
-1947 -2662 -2667 0
-1979 -2662 -2668 0
-2011 -2662 -2669 0
-2043 -2662 -2670 0
-2075 -2662 -2671 0
-2107 -2662 -2672 0
-2139 -2662 -2673 0
-2171 -2662 -2674 0
-2203 -2662 -2675 0
-2235 -2662 -2676 0
-2267 -2662 -2677 0
-2299 -2662 -2678 0
-1821 -2679 -2680 0
-1853 -2679 -2681 0
-1885 -2679 -2682 0
-1917 -2679 -2683 0
-1949 -2679 -2684 0
-1981 -2679 -2685 0
-2013 -2679 -2686 0
-2045 -2679 -2687 0
-2077 -2679 -2688 0
-2109 -2679 -2689 0
-2141 -2679 -2690 0
-2173 -2679 -2691 0
-2205 -2679 -2692 0
-2237 -2679 -2693 0
-2269 -2679 -2694 0
-2301 -2679 -2695 0
-1823 -2696 -2697 0
-1855 -2696 -2698 0
-1887 -2696 -2699 0
-1919 -2696 -2700 0
-1951 -2696 -2701 0
-1983 -2696 -2702 0
-2015 -2696 -2703 0
-2047 -2696 -2704 0
-2079 -2696 -2705 0
-2111 -2696 -2706 0
-2143 -2696 -2707 0
-2175 -2696 -2708 0
-2207 -2696 -2709 0
-2239 -2696 -2710 0
-2271 -2696 -2711 0
-2303 -2696 -2712 0
-1825 -2713 -2714 0
-1857 -2713 -2715 0
-1889 -2713 -2716 0
-1921 -2713 -2717 0
-1953 -2713 -2718 0
-1985 -2713 -2719 0
-2017 -2713 -2720 0
-2049 -2713 -2721 0
-2081 -2713 -2722 0
-2113 -2713 -2723 0
-2145 -2713 -2724 0
-2177 -2713 -2725 0
-2209 -2713 -2726 0
-2241 -2713 -2727 0
-2273 -2713 -2728 0
-2305 -2713 -2729 0
-1827 -2730 -2731 0
-1859 -2730 -2732 0
-1891 -2730 -2733 0
-1923 -2730 -2734 0
-1955 -2730 -2735 0
-1987 -2730 -2736 0
-2019 -2730 -2737 0
-2051 -2730 -2738 0
-2083 -2730 -2739 0
-2115 -2730 -2740 0
-2147 -2730 -2741 0
-2179 -2730 -2742 0
-2211 -2730 -2743 0
-2243 -2730 -2744 0
-2275 -2730 -2745 0
-2307 -2730 -2746 0
-1829 -2747 -2748 0
-1861 -2747 -2749 0
-1893 -2747 -2750 0
-1925 -2747 -2751 0
-1957 -2747 -2752 0
-1989 -2747 -2753 0
-2021 -2747 -2754 0
-2053 -2747 -2755 0
-2085 -2747 -2756 0
-2117 -2747 -2757 0
-2149 -2747 -2758 0
-2181 -2747 -2759 0
-2213 -2747 -2760 0
-2245 -2747 -2761 0
-2277 -2747 -2762 0
-2309 -2747 -2763 0
-1831 -2764 -2765 0
-1863 -2764 -2766 0
-1895 -2764 -2767 0
-1927 -2764 -2768 0
-1959 -2764 -2769 0
-1991 -2764 -2770 0
-2023 -2764 -2771 0
-2055 -2764 -2772 0
-2087 -2764 -2773 0
-2119 -2764 -2774 0
-2151 -2764 -2775 0
-2183 -2764 -2776 0
-2215 -2764 -2777 0
-2247 -2764 -2778 0
-2279 -2764 -2779 0
-2311 -2764 -2780 0
-1833 -2781 -2782 0
-1865 -2781 -2783 0
-1897 -2781 -2784 0
-1929 -2781 -2785 0
-1961 -2781 -2786 0
-1993 -2781 -2787 0
-2025 -2781 -2788 0
-2057 -2781 -2789 0
-2089 -2781 -2790 0
-2121 -2781 -2791 0
-2153 -2781 -2792 0
-2185 -2781 -2793 0
-2217 -2781 -2794 0
-2249 -2781 -2795 0
-2281 -2781 -2796 0
-2313 -2781 -2797 0
-1835 -2798 -2799 0
-1867 -2798 -2800 0
-1899 -2798 -2801 0
-1931 -2798 -2802 0
-1963 -2798 -2803 0
-1995 -2798 -2804 0
-2027 -2798 -2805 0
-2059 -2798 -2806 0
-2091 -2798 -2807 0
-2123 -2798 -2808 0
-2155 -2798 -2809 0
-2187 -2798 -2810 0
-2219 -2798 -2811 0
-2251 -2798 -2812 0
-2283 -2798 -2813 0
-2315 -2798 -2814 0
-1837 -2815 -2816 0
-1869 -2815 -2817 0
-1901 -2815 -2818 0
-1933 -2815 -2819 0
-1965 -2815 -2820 0
-1997 -2815 -2821 0
-2029 -2815 -2822 0
-2061 -2815 -2823 0
-2093 -2815 -2824 0
-2125 -2815 -2825 0
-2157 -2815 -2826 0
-2189 -2815 -2827 0
-2221 -2815 -2828 0
-2253 -2815 -2829 0
-2285 -2815 -2830 0
-2317 -2815 -2831 0
-1839 -2832 -2833 0
-1871 -2832 -2834 0
-1903 -2832 -2835 0
-1935 -2832 -2836 0
-1967 -2832 -2837 0
-1999 -2832 -2838 0
-2031 -2832 -2839 0
-2063 -2832 -2840 0
-2095 -2832 -2841 0
-2127 -2832 -2842 0
-2159 -2832 -2843 0
-2191 -2832 -2844 0
-2223 -2832 -2845 0
-2255 -2832 -2846 0
-2287 -2832 -2847 0
-2319 -2832 -2848 0
2578 1809 0
2579 1841 0
2580 1873 0
2581 1905 0
2582 1937 0
2583 1969 0
2584 2001 0
2585 2033 0
2586 2065 0
2587 2097 0
2588 2129 0
2589 2161 0
2590 2193 0
2591 2225 0
2592 2257 0
2593 2289 0
2595 1811 0
2596 1843 0
2597 1875 0
2598 1907 0
2599 1939 0
2600 1971 0
2601 2003 0
2602 2035 0
2603 2067 0
2604 2099 0
2605 2131 0
2606 2163 0
2607 2195 0
2608 2227 0
2609 2259 0
2610 2291 0
2612 1813 0
2613 1845 0
2614 1877 0
2615 1909 0
2616 1941 0
2617 1973 0
2618 2005 0
2619 2037 0
2620 2069 0
2621 2101 0
2622 2133 0
2623 2165 0
2624 2197 0
2625 2229 0
2626 2261 0
2627 2293 0
2629 1815 0
2630 1847 0
2631 1879 0
2632 1911 0
2633 1943 0
2634 1975 0
2635 2007 0
2636 2039 0
2637 2071 0
2638 2103 0
2639 2135 0
2640 2167 0
2641 2199 0
2642 2231 0
2643 2263 0
2644 2295 0
2646 1817 0
2647 1849 0
2648 1881 0
2649 1913 0
2650 1945 0
2651 1977 0
2652 2009 0
2653 2041 0
2654 2073 0
2655 2105 0
2656 2137 0
2657 2169 0
2658 2201 0
2659 2233 0
2660 2265 0
2661 2297 0
2663 1819 0
2664 1851 0
2665 1883 0
2666 1915 0
2667 1947 0
2668 1979 0
2669 2011 0
2670 2043 0
2671 2075 0
2672 2107 0
2673 2139 0
2674 2171 0
2675 2203 0
2676 2235 0
2677 2267 0
2678 2299 0
2680 1821 0
2681 1853 0
2682 1885 0
2683 1917 0
2684 1949 0
2685 1981 0
2686 2013 0
2687 2045 0
2688 2077 0
2689 2109 0
2690 2141 0
2691 2173 0
2692 2205 0
2693 2237 0
2694 2269 0
2695 2301 0
2697 1823 0
2698 1855 0
2699 1887 0
2700 1919 0
2701 1951 0
2702 1983 0
2703 2015 0
2704 2047 0
2705 2079 0
2706 2111 0
2707 2143 0
2708 2175 0
2709 2207 0
2710 2239 0
2711 2271 0
2712 2303 0
2714 1825 0
2715 1857 0
2716 1889 0
2717 1921 0
2718 1953 0
2719 1985 0
2720 2017 0
2721 2049 0
2722 2081 0
2723 2113 0
2724 2145 0
2725 2177 0
2726 2209 0
2727 2241 0
2728 2273 0
2729 2305 0
2731 1827 0
2732 1859 0
2733 1891 0
2734 1923 0
2735 1955 0
2736 1987 0
2737 2019 0
2738 2051 0
2739 2083 0
2740 2115 0
2741 2147 0
2742 2179 0
2743 2211 0
2744 2243 0
2745 2275 0
2746 2307 0
2748 1829 0
2749 1861 0
2750 1893 0
2751 1925 0
2752 1957 0
2753 1989 0
2754 2021 0
2755 2053 0
2756 2085 0
2757 2117 0
2758 2149 0
2759 2181 0
2760 2213 0
2761 2245 0
2762 2277 0
2763 2309 0
2765 1831 0
2766 1863 0
2767 1895 0
2768 1927 0
2769 1959 0
2770 1991 0
2771 2023 0
2772 2055 0
2773 2087 0
2774 2119 0
2775 2151 0
2776 2183 0
2777 2215 0
2778 2247 0
2779 2279 0
2780 2311 0
2782 1833 0
2783 1865 0
2784 1897 0
2785 1929 0
2786 1961 0
2787 1993 0
2788 2025 0
2789 2057 0
2790 2089 0
2791 2121 0
2792 2153 0
2793 2185 0
2794 2217 0
2795 2249 0
2796 2281 0
2797 2313 0
2799 1835 0
2800 1867 0
2801 1899 0
2802 1931 0
2803 1963 0
2804 1995 0
2805 2027 0
2806 2059 0
2807 2091 0
2808 2123 0
2809 2155 0
2810 2187 0
2811 2219 0
2812 2251 0
2813 2283 0
2814 2315 0
2816 1837 0
2817 1869 0
2818 1901 0
2819 1933 0
2820 1965 0
2821 1997 0
2822 2029 0
2823 2061 0
2824 2093 0
2825 2125 0
2826 2157 0
2827 2189 0
2828 2221 0
2829 2253 0
2830 2285 0
2831 2317 0
2833 1839 0
2834 1871 0
2835 1903 0
2836 1935 0
2837 1967 0
2838 1999 0
2839 2031 0
2840 2063 0
2841 2095 0
2842 2127 0
2843 2159 0
2844 2191 0
2845 2223 0
2846 2255 0
2847 2287 0
2848 2319 0
2578 2577 0
2579 2577 0
2580 2577 0
2581 2577 0
2582 2577 0
2583 2577 0
2584 2577 0
2585 2577 0
2586 2577 0
2587 2577 0
2588 2577 0
2589 2577 0
2590 2577 0
2591 2577 0
2592 2577 0
2593 2577 0
2595 2594 0
2596 2594 0
2597 2594 0
2598 2594 0
2599 2594 0
2600 2594 0
2601 2594 0
2602 2594 0
2603 2594 0
2604 2594 0
2605 2594 0
2606 2594 0
2607 2594 0
2608 2594 0
2609 2594 0
2610 2594 0
2612 2611 0
2613 2611 0
2614 2611 0
2615 2611 0
2616 2611 0
2617 2611 0
2618 2611 0
2619 2611 0
2620 2611 0
2621 2611 0
2622 2611 0
2623 2611 0
2624 2611 0
2625 2611 0
2626 2611 0
2627 2611 0
2629 2628 0
2630 2628 0
2631 2628 0
2632 2628 0
2633 2628 0
2634 2628 0
2635 2628 0
2636 2628 0
2637 2628 0
2638 2628 0
2639 2628 0
2640 2628 0
2641 2628 0
2642 2628 0
2643 2628 0
2644 2628 0
2646 2645 0
2647 2645 0
2648 2645 0
2649 2645 0
2650 2645 0
2651 2645 0
2652 2645 0
2653 2645 0
2654 2645 0
2655 2645 0
2656 2645 0
2657 2645 0
2658 2645 0
2659 2645 0
2660 2645 0
2661 2645 0
2663 2662 0
2664 2662 0
2665 2662 0
2666 2662 0
2667 2662 0
2668 2662 0
2669 2662 0
2670 2662 0
2671 2662 0
2672 2662 0
2673 2662 0
2674 2662 0
2675 2662 0
2676 2662 0
2677 2662 0
2678 2662 0
2680 2679 0
2681 2679 0
2682 2679 0
2683 2679 0
2684 2679 0
2685 2679 0
2686 2679 0
2687 2679 0
2688 2679 0
2689 2679 0
2690 2679 0
2691 2679 0
2692 2679 0
2693 2679 0
2694 2679 0
2695 2679 0
2697 2696 0
2698 2696 0
2699 2696 0
2700 2696 0
2701 2696 0
2702 2696 0
2703 2696 0
2704 2696 0
2705 2696 0
2706 2696 0
2707 2696 0
2708 2696 0
2709 2696 0
2710 2696 0
2711 2696 0
2712 2696 0
2714 2713 0
2715 2713 0
2716 2713 0
2717 2713 0
2718 2713 0
2719 2713 0
2720 2713 0
2721 2713 0
2722 2713 0
2723 2713 0
2724 2713 0
2725 2713 0
2726 2713 0
2727 2713 0
2728 2713 0
2729 2713 0
2731 2730 0
2732 2730 0
2733 2730 0
2734 2730 0
2735 2730 0
2736 2730 0
2737 2730 0
2738 2730 0
2739 2730 0
2740 2730 0
2741 2730 0
2742 2730 0
2743 2730 0
2744 2730 0
2745 2730 0
2746 2730 0
2748 2747 0
2749 2747 0
2750 2747 0
2751 2747 0
2752 2747 0
2753 2747 0
2754 2747 0
2755 2747 0
2756 2747 0
2757 2747 0
2758 2747 0
2759 2747 0
2760 2747 0
2761 2747 0
2762 2747 0
2763 2747 0
2765 2764 0
2766 2764 0
2767 2764 0
2768 2764 0
2769 2764 0
2770 2764 0
2771 2764 0
2772 2764 0
2773 2764 0
2774 2764 0
2775 2764 0
2776 2764 0
2777 2764 0
2778 2764 0
2779 2764 0
2780 2764 0
2782 2781 0
2783 2781 0
2784 2781 0
2785 2781 0
2786 2781 0
2787 2781 0
2788 2781 0
2789 2781 0
2790 2781 0
2791 2781 0
2792 2781 0
2793 2781 0
2794 2781 0
2795 2781 0
2796 2781 0
2797 2781 0
2799 2798 0
2800 2798 0
2801 2798 0
2802 2798 0
2803 2798 0
2804 2798 0
2805 2798 0
2806 2798 0
2807 2798 0
2808 2798 0
2809 2798 0
2810 2798 0
2811 2798 0
2812 2798 0
2813 2798 0
2814 2798 0
2816 2815 0
2817 2815 0
2818 2815 0
2819 2815 0
2820 2815 0
2821 2815 0
2822 2815 0
2823 2815 0
2824 2815 0
2825 2815 0
2826 2815 0
2827 2815 0
2828 2815 0
2829 2815 0
2830 2815 0
2831 2815 0
2833 2832 0
2834 2832 0
2835 2832 0
2836 2832 0
2837 2832 0
2838 2832 0
2839 2832 0
2840 2832 0
2841 2832 0
2842 2832 0
2843 2832 0
2844 2832 0
2845 2832 0
2846 2832 0
2847 2832 0
2848 2832 0
-2577 -2578 2849 0
-2594 -2579 2850 0
-2611 -2580 2851 0
-2628 -2581 2852 0
-2645 -2582 2853 0
-2662 -2583 2854 0
-2679 -2584 2855 0
-2696 -2585 2856 0
-2713 -2586 2857 0
-2730 -2587 2858 0
-2747 -2588 2859 0
-2764 -2589 2860 0
-2781 -2590 2861 0
-2798 -2591 2862 0
-2815 -2592 2863 0
-2832 -2593 2864 0
-2577 -2595 2865 0
-2594 -2596 2866 0
-2611 -2597 2867 0
-2628 -2598 2868 0
-2645 -2599 2869 0
-2662 -2600 2870 0
-2679 -2601 2871 0
-2696 -2602 2872 0
-2713 -2603 2873 0
-2730 -2604 2874 0
-2747 -2605 2875 0
-2764 -2606 2876 0
-2781 -2607 2877 0
-2798 -2608 2878 0
-2815 -2609 2879 0
-2832 -2610 2880 0
-2577 -2612 2881 0
-2594 -2613 2882 0
-2611 -2614 2883 0
-2628 -2615 2884 0
-2645 -2616 2885 0
-2662 -2617 2886 0
-2679 -2618 2887 0
-2696 -2619 2888 0
-2713 -2620 2889 0
-2730 -2621 2890 0
-2747 -2622 2891 0
-2764 -2623 2892 0
-2781 -2624 2893 0
-2798 -2625 2894 0
-2815 -2626 2895 0
-2832 -2627 2896 0
-2577 -2629 2897 0
-2594 -2630 2898 0
-2611 -2631 2899 0
-2628 -2632 2900 0
-2645 -2633 2901 0
-2662 -2634 2902 0
-2679 -2635 2903 0
-2696 -2636 2904 0
-2713 -2637 2905 0
-2730 -2638 2906 0
-2747 -2639 2907 0
-2764 -2640 2908 0
-2781 -2641 2909 0
-2798 -2642 2910 0
-2815 -2643 2911 0
-2832 -2644 2912 0
-2577 -2646 2913 0
-2594 -2647 2914 0
-2611 -2648 2915 0
-2628 -2649 2916 0
-2645 -2650 2917 0
-2662 -2651 2918 0
-2679 -2652 2919 0
-2696 -2653 2920 0
-2713 -2654 2921 0
-2730 -2655 2922 0
-2747 -2656 2923 0
-2764 -2657 2924 0
-2781 -2658 2925 0
-2798 -2659 2926 0
-2815 -2660 2927 0
-2832 -2661 2928 0
-2577 -2663 2929 0
-2594 -2664 2930 0
-2611 -2665 2931 0
-2628 -2666 2932 0
-2645 -2667 2933 0
-2662 -2668 2934 0
-2679 -2669 2935 0
-2696 -2670 2936 0
-2713 -2671 2937 0
-2730 -2672 2938 0
-2747 -2673 2939 0
-2764 -2674 2940 0
-2781 -2675 2941 0
-2798 -2676 2942 0
-2815 -2677 2943 0
-2832 -2678 2944 0
-2577 -2680 2945 0
-2594 -2681 2946 0
-2611 -2682 2947 0
-2628 -2683 2948 0
-2645 -2684 2949 0
-2662 -2685 2950 0
-2679 -2686 2951 0
-2696 -2687 2952 0
-2713 -2688 2953 0
-2730 -2689 2954 0
-2747 -2690 2955 0
-2764 -2691 2956 0
-2781 -2692 2957 0
-2798 -2693 2958 0
-2815 -2694 2959 0
-2832 -2695 2960 0
-2577 -2697 2961 0
-2594 -2698 2962 0
-2611 -2699 2963 0
-2628 -2700 2964 0
-2645 -2701 2965 0
-2662 -2702 2966 0
-2679 -2703 2967 0
-2696 -2704 2968 0
-2713 -2705 2969 0
-2730 -2706 2970 0
-2747 -2707 2971 0
-2764 -2708 2972 0
-2781 -2709 2973 0
-2798 -2710 2974 0
-2815 -2711 2975 0
-2832 -2712 2976 0
-2577 -2714 2977 0
-2594 -2715 2978 0
-2611 -2716 2979 0
-2628 -2717 2980 0
-2645 -2718 2981 0
-2662 -2719 2982 0
-2679 -2720 2983 0
-2696 -2721 2984 0
-2713 -2722 2985 0
-2730 -2723 2986 0
-2747 -2724 2987 0
-2764 -2725 2988 0
-2781 -2726 2989 0
-2798 -2727 2990 0
-2815 -2728 2991 0
-2832 -2729 2992 0
-2577 -2731 2993 0
-2594 -2732 2994 0
-2611 -2733 2995 0
-2628 -2734 2996 0
-2645 -2735 2997 0
-2662 -2736 2998 0
-2679 -2737 2999 0
-2696 -2738 3000 0
-2713 -2739 3001 0
-2730 -2740 3002 0
-2747 -2741 3003 0
-2764 -2742 3004 0
-2781 -2743 3005 0
-2798 -2744 3006 0
-2815 -2745 3007 0
-2832 -2746 3008 0
-2577 -2748 3009 0
-2594 -2749 3010 0
-2611 -2750 3011 0
-2628 -2751 3012 0
-2645 -2752 3013 0
-2662 -2753 3014 0
-2679 -2754 3015 0
-2696 -2755 3016 0
-2713 -2756 3017 0
-2730 -2757 3018 0
-2747 -2758 3019 0
-2764 -2759 3020 0
-2781 -2760 3021 0
-2798 -2761 3022 0
-2815 -2762 3023 0
-2832 -2763 3024 0
-2577 -2765 3025 0
-2594 -2766 3026 0
-2611 -2767 3027 0
-2628 -2768 3028 0
-2645 -2769 3029 0
-2662 -2770 3030 0
-2679 -2771 3031 0
-2696 -2772 3032 0
-2713 -2773 3033 0
-2730 -2774 3034 0
-2747 -2775 3035 0
-2764 -2776 3036 0
-2781 -2777 3037 0
-2798 -2778 3038 0
-2815 -2779 3039 0
-2832 -2780 3040 0
-2577 -2782 3041 0
-2594 -2783 3042 0
-2611 -2784 3043 0
-2628 -2785 3044 0
-2645 -2786 3045 0
-2662 -2787 3046 0
-2679 -2788 3047 0
-2696 -2789 3048 0
-2713 -2790 3049 0
-2730 -2791 3050 0
-2747 -2792 3051 0
-2764 -2793 3052 0
-2781 -2794 3053 0
-2798 -2795 3054 0
-2815 -2796 3055 0
-2832 -2797 3056 0
-2577 -2799 3057 0
-2594 -2800 3058 0
-2611 -2801 3059 0
-2628 -2802 3060 0
-2645 -2803 3061 0
-2662 -2804 3062 0
-2679 -2805 3063 0
-2696 -2806 3064 0
-2713 -2807 3065 0
-2730 -2808 3066 0
-2747 -2809 3067 0
-2764 -2810 3068 0
-2781 -2811 3069 0
-2798 -2812 3070 0
-2815 -2813 3071 0
-2832 -2814 3072 0
-2577 -2816 3073 0
-2594 -2817 3074 0
-2611 -2818 3075 0
-2628 -2819 3076 0
-2645 -2820 3077 0
-2662 -2821 3078 0
-2679 -2822 3079 0
-2696 -2823 3080 0
-2713 -2824 3081 0
-2730 -2825 3082 0
-2747 -2826 3083 0
-2764 -2827 3084 0
-2781 -2828 3085 0
-2798 -2829 3086 0
-2815 -2830 3087 0
-2832 -2831 3088 0
-2577 -2833 3089 0
-2594 -2834 3090 0
-2611 -2835 3091 0
-2628 -2836 3092 0
-2645 -2837 3093 0
-2662 -2838 3094 0
-2679 -2839 3095 0
-2696 -2840 3096 0
-2713 -2841 3097 0
-2730 -2842 3098 0
-2747 -2843 3099 0
-2764 -2844 3100 0
-2781 -2845 3101 0
-2798 -2846 3102 0
-2815 -2847 3103 0
-2832 -2848 3104 0
-2849 2577 0
-2850 2594 0
-2851 2611 0
-2852 2628 0
-2853 2645 0
-2854 2662 0
-2855 2679 0
-2856 2696 0
-2857 2713 0
-2858 2730 0
-2859 2747 0
-2860 2764 0
-2861 2781 0
-2862 2798 0
-2863 2815 0
-2864 2832 0
-2865 2577 0
-2866 2594 0
-2867 2611 0
-2868 2628 0
-2869 2645 0
-2870 2662 0
-2871 2679 0
-2872 2696 0
-2873 2713 0
-2874 2730 0
-2875 2747 0
-2876 2764 0
-2877 2781 0
-2878 2798 0
-2879 2815 0
-2880 2832 0
-2881 2577 0
-2882 2594 0
-2883 2611 0
-2884 2628 0
-2885 2645 0
-2886 2662 0
-2887 2679 0
-2888 2696 0
-2889 2713 0
-2890 2730 0
-2891 2747 0
-2892 2764 0
-2893 2781 0
-2894 2798 0
-2895 2815 0
-2896 2832 0
-2897 2577 0
-2898 2594 0
-2899 2611 0
-2900 2628 0
-2901 2645 0
-2902 2662 0
-2903 2679 0
-2904 2696 0
-2905 2713 0
-2906 2730 0
-2907 2747 0
-2908 2764 0
-2909 2781 0
-2910 2798 0
-2911 2815 0
-2912 2832 0
-2913 2577 0
-2914 2594 0
-2915 2611 0
-2916 2628 0
-2917 2645 0
-2918 2662 0
-2919 2679 0
-2920 2696 0
-2921 2713 0
-2922 2730 0
-2923 2747 0
-2924 2764 0
-2925 2781 0
-2926 2798 0
-2927 2815 0
-2928 2832 0
-2929 2577 0
-2930 2594 0
-2931 2611 0
-2932 2628 0
-2933 2645 0
-2934 2662 0
-2935 2679 0
-2936 2696 0
-2937 2713 0
-2938 2730 0
-2939 2747 0
-2940 2764 0
-2941 2781 0
-2942 2798 0
-2943 2815 0
-2944 2832 0
-2945 2577 0
-2946 2594 0
-2947 2611 0
-2948 2628 0
-2949 2645 0
-2950 2662 0
-2951 2679 0
-2952 2696 0
-2953 2713 0
-2954 2730 0
-2955 2747 0
-2956 2764 0
-2957 2781 0
-2958 2798 0
-2959 2815 0
-2960 2832 0
-2961 2577 0
-2962 2594 0
-2963 2611 0
-2964 2628 0
-2965 2645 0
-2966 2662 0
-2967 2679 0
-2968 2696 0
-2969 2713 0
-2970 2730 0
-2971 2747 0
-2972 2764 0
-2973 2781 0
-2974 2798 0
-2975 2815 0
-2976 2832 0
-2977 2577 0
-2978 2594 0
-2979 2611 0
-2980 2628 0
-2981 2645 0
-2982 2662 0
-2983 2679 0
-2984 2696 0
-2985 2713 0
-2986 2730 0
-2987 2747 0
-2988 2764 0
-2989 2781 0
-2990 2798 0
-2991 2815 0
-2992 2832 0
-2993 2577 0
-2994 2594 0
-2995 2611 0
-2996 2628 0
-2997 2645 0
-2998 2662 0
-2999 2679 0
-3000 2696 0
-3001 2713 0
-3002 2730 0
-3003 2747 0
-3004 2764 0
-3005 2781 0
-3006 2798 0
-3007 2815 0
-3008 2832 0
-3009 2577 0
-3010 2594 0
-3011 2611 0
-3012 2628 0
-3013 2645 0
-3014 2662 0
-3015 2679 0
-3016 2696 0
-3017 2713 0
-3018 2730 0
-3019 2747 0
-3020 2764 0
-3021 2781 0
-3022 2798 0
-3023 2815 0
-3024 2832 0
-3025 2577 0
-3026 2594 0
-3027 2611 0
-3028 2628 0
-3029 2645 0
-3030 2662 0
-3031 2679 0
-3032 2696 0
-3033 2713 0
-3034 2730 0
-3035 2747 0
-3036 2764 0
-3037 2781 0
-3038 2798 0
-3039 2815 0
-3040 2832 0
-3041 2577 0
-3042 2594 0
-3043 2611 0
-3044 2628 0
-3045 2645 0
-3046 2662 0
-3047 2679 0
-3048 2696 0
-3049 2713 0
-3050 2730 0
-3051 2747 0
-3052 2764 0
-3053 2781 0
-3054 2798 0
-3055 2815 0
-3056 2832 0
-3057 2577 0
-3058 2594 0
-3059 2611 0
-3060 2628 0
-3061 2645 0
-3062 2662 0
-3063 2679 0
-3064 2696 0
-3065 2713 0
-3066 2730 0
-3067 2747 0
-3068 2764 0
-3069 2781 0
-3070 2798 0
-3071 2815 0
-3072 2832 0
-3073 2577 0
-3074 2594 0
-3075 2611 0
-3076 2628 0
-3077 2645 0
-3078 2662 0
-3079 2679 0
-3080 2696 0
-3081 2713 0
-3082 2730 0
-3083 2747 0
-3084 2764 0
-3085 2781 0
-3086 2798 0
-3087 2815 0
-3088 2832 0
-3089 2577 0
-3090 2594 0
-3091 2611 0
-3092 2628 0
-3093 2645 0
-3094 2662 0
-3095 2679 0
-3096 2696 0
-3097 2713 0
-3098 2730 0
-3099 2747 0
-3100 2764 0
-3101 2781 0
-3102 2798 0
-3103 2815 0
-3104 2832 0
-2849 2578 0
-2850 2579 0
-2851 2580 0
-2852 2581 0
-2853 2582 0
-2854 2583 0
-2855 2584 0
-2856 2585 0
-2857 2586 0
-2858 2587 0
-2859 2588 0
-2860 2589 0
-2861 2590 0
-2862 2591 0
-2863 2592 0
-2864 2593 0
-2865 2595 0
-2866 2596 0
-2867 2597 0
-2868 2598 0
-2869 2599 0
-2870 2600 0
-2871 2601 0
-2872 2602 0
-2873 2603 0
-2874 2604 0
-2875 2605 0
-2876 2606 0
-2877 2607 0
-2878 2608 0
-2879 2609 0
-2880 2610 0
-2881 2612 0
-2882 2613 0
-2883 2614 0
-2884 2615 0
-2885 2616 0
-2886 2617 0
-2887 2618 0
-2888 2619 0
-2889 2620 0
-2890 2621 0
-2891 2622 0
-2892 2623 0
-2893 2624 0
-2894 2625 0
-2895 2626 0
-2896 2627 0
-2897 2629 0
-2898 2630 0
-2899 2631 0
-2900 2632 0
-2901 2633 0
-2902 2634 0
-2903 2635 0
-2904 2636 0
-2905 2637 0
-2906 2638 0
-2907 2639 0
-2908 2640 0
-2909 2641 0
-2910 2642 0
-2911 2643 0
-2912 2644 0
-2913 2646 0
-2914 2647 0
-2915 2648 0
-2916 2649 0
-2917 2650 0
-2918 2651 0
-2919 2652 0
-2920 2653 0
-2921 2654 0
-2922 2655 0
-2923 2656 0
-2924 2657 0
-2925 2658 0
-2926 2659 0
-2927 2660 0
-2928 2661 0
-2929 2663 0
-2930 2664 0
-2931 2665 0
-2932 2666 0
-2933 2667 0
-2934 2668 0
-2935 2669 0
-2936 2670 0
-2937 2671 0
-2938 2672 0
-2939 2673 0
-2940 2674 0
-2941 2675 0
-2942 2676 0
-2943 2677 0
-2944 2678 0
-2945 2680 0
-2946 2681 0
-2947 2682 0
-2948 2683 0
-2949 2684 0
-2950 2685 0
-2951 2686 0
-2952 2687 0
-2953 2688 0
-2954 2689 0
-2955 2690 0
-2956 2691 0
-2957 2692 0
-2958 2693 0
-2959 2694 0
-2960 2695 0
-2961 2697 0
-2962 2698 0
-2963 2699 0
-2964 2700 0
-2965 2701 0
-2966 2702 0
-2967 2703 0
-2968 2704 0
-2969 2705 0
-2970 2706 0
-2971 2707 0
-2972 2708 0
-2973 2709 0
-2974 2710 0
-2975 2711 0
-2976 2712 0
-2977 2714 0
-2978 2715 0
-2979 2716 0
-2980 2717 0
-2981 2718 0
-2982 2719 0
-2983 2720 0
-2984 2721 0
-2985 2722 0
-2986 2723 0
-2987 2724 0
-2988 2725 0
-2989 2726 0
-2990 2727 0
-2991 2728 0
-2992 2729 0
-2993 2731 0
-2994 2732 0
-2995 2733 0
-2996 2734 0
-2997 2735 0
-2998 2736 0
-2999 2737 0
-3000 2738 0
-3001 2739 0
-3002 2740 0
-3003 2741 0
-3004 2742 0
-3005 2743 0
-3006 2744 0
-3007 2745 0
-3008 2746 0
-3009 2748 0
-3010 2749 0
-3011 2750 0
-3012 2751 0
-3013 2752 0
-3014 2753 0
-3015 2754 0
-3016 2755 0
-3017 2756 0
-3018 2757 0
-3019 2758 0
-3020 2759 0
-3021 2760 0
-3022 2761 0
-3023 2762 0
-3024 2763 0
-3025 2765 0
-3026 2766 0
-3027 2767 0
-3028 2768 0
-3029 2769 0
-3030 2770 0
-3031 2771 0
-3032 2772 0
-3033 2773 0
-3034 2774 0
-3035 2775 0
-3036 2776 0
-3037 2777 0
-3038 2778 0
-3039 2779 0
-3040 2780 0
-3041 2782 0
-3042 2783 0
-3043 2784 0
-3044 2785 0
-3045 2786 0
-3046 2787 0
-3047 2788 0
-3048 2789 0
-3049 2790 0
-3050 2791 0
-3051 2792 0
-3052 2793 0
-3053 2794 0
-3054 2795 0
-3055 2796 0
-3056 2797 0
-3057 2799 0
-3058 2800 0
-3059 2801 0
-3060 2802 0
-3061 2803 0
-3062 2804 0
-3063 2805 0
-3064 2806 0
-3065 2807 0
-3066 2808 0
-3067 2809 0
-3068 2810 0
-3069 2811 0
-3070 2812 0
-3071 2813 0
-3072 2814 0
-3073 2816 0
-3074 2817 0
-3075 2818 0
-3076 2819 0
-3077 2820 0
-3078 2821 0
-3079 2822 0
-3080 2823 0
-3081 2824 0
-3082 2825 0
-3083 2826 0
-3084 2827 0
-3085 2828 0
-3086 2829 0
-3087 2830 0
-3088 2831 0
-3089 2833 0
-3090 2834 0
-3091 2835 0
-3092 2836 0
-3093 2837 0
-3094 2838 0
-3095 2839 0
-3096 2840 0
-3097 2841 0
-3098 2842 0
-3099 2843 0
-3100 2844 0
-3101 2845 0
-3102 2846 0
-3103 2847 0
-3104 2848 0
-3105 2849 -3106 0
-3107 2850 -3108 0
-3109 2851 -3110 0
-3111 2852 -3112 0
-3113 2853 -3114 0
-3115 2854 -3116 0
-3117 2855 -3118 0
-3119 2856 -3120 0
-3121 2857 -3122 0
-3123 2858 -3124 0
-3125 2859 -3126 0
-3127 2860 -3128 0
-3129 2861 -3130 0
-3131 2862 -3132 0
-3133 2863 -3134 0
-3135 2864 -3136 0
-3105 2865 -3137 0
-3107 2866 -3138 0
-3109 2867 -3139 0
-3111 2868 -3140 0
-3113 2869 -3141 0
-3115 2870 -3142 0
-3117 2871 -3143 0
-3119 2872 -3144 0
-3121 2873 -3145 0
-3123 2874 -3146 0
-3125 2875 -3147 0
-3127 2876 -3148 0
-3129 2877 -3149 0
-3131 2878 -3150 0
-3133 2879 -3151 0
-3135 2880 -3152 0
-3105 2881 -3153 0
-3107 2882 -3154 0
-3109 2883 -3155 0
-3111 2884 -3156 0
-3113 2885 -3157 0
-3115 2886 -3158 0
-3117 2887 -3159 0
-3119 2888 -3160 0
-3121 2889 -3161 0
-3123 2890 -3162 0
-3125 2891 -3163 0
-3127 2892 -3164 0
-3129 2893 -3165 0
-3131 2894 -3166 0
-3133 2895 -3167 0
-3135 2896 -3168 0
-3105 2897 -3169 0
-3107 2898 -3170 0
-3109 2899 -3171 0
-3111 2900 -3172 0
-3113 2901 -3173 0
-3115 2902 -3174 0
-3117 2903 -3175 0
-3119 2904 -3176 0
-3121 2905 -3177 0
-3123 2906 -3178 0
-3125 2907 -3179 0
-3127 2908 -3180 0
-3129 2909 -3181 0
-3131 2910 -3182 0
-3133 2911 -3183 0
-3135 2912 -3184 0
-3105 2913 -3185 0
-3107 2914 -3186 0
-3109 2915 -3187 0
-3111 2916 -3188 0
-3113 2917 -3189 0
-3115 2918 -3190 0
-3117 2919 -3191 0
-3119 2920 -3192 0
-3121 2921 -3193 0
-3123 2922 -3194 0
-3125 2923 -3195 0
-3127 2924 -3196 0
-3129 2925 -3197 0
-3131 2926 -3198 0
-3133 2927 -3199 0
-3135 2928 -3200 0
-3105 2929 -3201 0
-3107 2930 -3202 0
-3109 2931 -3203 0
-3111 2932 -3204 0
-3113 2933 -3205 0
-3115 2934 -3206 0
-3117 2935 -3207 0
-3119 2936 -3208 0
-3121 2937 -3209 0
-3123 2938 -3210 0
-3125 2939 -3211 0
-3127 2940 -3212 0
-3129 2941 -3213 0
-3131 2942 -3214 0
-3133 2943 -3215 0
-3135 2944 -3216 0
-3105 2945 -3217 0
-3107 2946 -3218 0
-3109 2947 -3219 0
-3111 2948 -3220 0
-3113 2949 -3221 0
-3115 2950 -3222 0
-3117 2951 -3223 0
-3119 2952 -3224 0
-3121 2953 -3225 0
-3123 2954 -3226 0
-3125 2955 -3227 0
-3127 2956 -3228 0
-3129 2957 -3229 0
-3131 2958 -3230 0
-3133 2959 -3231 0
-3135 2960 -3232 0
-3105 2961 -3233 0
-3107 2962 -3234 0
-3109 2963 -3235 0
-3111 2964 -3236 0
-3113 2965 -3237 0
-3115 2966 -3238 0
-3117 2967 -3239 0
-3119 2968 -3240 0
-3121 2969 -3241 0
-3123 2970 -3242 0
-3125 2971 -3243 0
-3127 2972 -3244 0
-3129 2973 -3245 0
-3131 2974 -3246 0
-3133 2975 -3247 0
-3135 2976 -3248 0
-3105 2977 -3249 0
-3107 2978 -3250 0
-3109 2979 -3251 0
-3111 2980 -3252 0
-3113 2981 -3253 0
-3115 2982 -3254 0
-3117 2983 -3255 0
-3119 2984 -3256 0
-3121 2985 -3257 0
-3123 2986 -3258 0
-3125 2987 -3259 0
-3127 2988 -3260 0
-3129 2989 -3261 0
-3131 2990 -3262 0
-3133 2991 -3263 0
-3135 2992 -3264 0
-3105 2993 -3265 0
-3107 2994 -3266 0
-3109 2995 -3267 0
-3111 2996 -3268 0
-3113 2997 -3269 0
-3115 2998 -3270 0
-3117 2999 -3271 0
-3119 3000 -3272 0
-3121 3001 -3273 0
-3123 3002 -3274 0
-3125 3003 -3275 0
-3127 3004 -3276 0
-3129 3005 -3277 0
-3131 3006 -3278 0
-3133 3007 -3279 0
-3135 3008 -3280 0
-3105 3009 -3281 0
-3107 3010 -3282 0
-3109 3011 -3283 0
-3111 3012 -3284 0
-3113 3013 -3285 0
-3115 3014 -3286 0
-3117 3015 -3287 0
-3119 3016 -3288 0
-3121 3017 -3289 0
-3123 3018 -3290 0
-3125 3019 -3291 0
-3127 3020 -3292 0
-3129 3021 -3293 0
-3131 3022 -3294 0
-3133 3023 -3295 0
-3135 3024 -3296 0
-3105 3025 -3297 0
-3107 3026 -3298 0
-3109 3027 -3299 0
-3111 3028 -3300 0
-3113 3029 -3301 0
-3115 3030 -3302 0
-3117 3031 -3303 0
-3119 3032 -3304 0
-3121 3033 -3305 0
-3123 3034 -3306 0
-3125 3035 -3307 0
-3127 3036 -3308 0
-3129 3037 -3309 0
-3131 3038 -3310 0
-3133 3039 -3311 0
-3135 3040 -3312 0
-3105 3041 -3313 0
-3107 3042 -3314 0
-3109 3043 -3315 0
-3111 3044 -3316 0
-3113 3045 -3317 0
-3115 3046 -3318 0
-3117 3047 -3319 0
-3119 3048 -3320 0
-3121 3049 -3321 0
-3123 3050 -3322 0
-3125 3051 -3323 0
-3127 3052 -3324 0
-3129 3053 -3325 0
-3131 3054 -3326 0
-3133 3055 -3327 0
-3135 3056 -3328 0
-3105 3057 -3329 0
-3107 3058 -3330 0
-3109 3059 -3331 0
-3111 3060 -3332 0
-3113 3061 -3333 0
-3115 3062 -3334 0
-3117 3063 -3335 0
-3119 3064 -3336 0
-3121 3065 -3337 0
-3123 3066 -3338 0
-3125 3067 -3339 0
-3127 3068 -3340 0
-3129 3069 -3341 0
-3131 3070 -3342 0
-3133 3071 -3343 0
-3135 3072 -3344 0
-3105 3073 -3345 0
-3107 3074 -3346 0
-3109 3075 -3347 0
-3111 3076 -3348 0
-3113 3077 -3349 0
-3115 3078 -3350 0
-3117 3079 -3351 0
-3119 3080 -3352 0
-3121 3081 -3353 0
-3123 3082 -3354 0
-3125 3083 -3355 0
-3127 3084 -3356 0
-3129 3085 -3357 0
-3131 3086 -3358 0
-3133 3087 -3359 0
-3135 3088 -3360 0
-3105 3089 -3361 0
-3107 3090 -3362 0
-3109 3091 -3363 0
-3111 3092 -3364 0
-3113 3093 -3365 0
-3115 3094 -3366 0
-3117 3095 -3367 0
-3119 3096 -3368 0
-3121 3097 -3369 0
-3123 3098 -3370 0
-3125 3099 -3371 0
-3127 3100 -3372 0
-3129 3101 -3373 0
-3131 3102 -3374 0
-3133 3103 -3375 0
-3135 3104 -3376 0
3106 3105 0
3108 3107 0
3110 3109 0
3112 3111 0
3114 3113 0
3116 3115 0
3118 3117 0
3120 3119 0
3122 3121 0
3124 3123 0
3126 3125 0
3128 3127 0
3130 3129 0
3132 3131 0
3134 3133 0
3136 3135 0
3137 3105 0
3138 3107 0
3139 3109 0
3140 3111 0
3141 3113 0
3142 3115 0
3143 3117 0
3144 3119 0
3145 3121 0
3146 3123 0
3147 3125 0
3148 3127 0
3149 3129 0
3150 3131 0
3151 3133 0
3152 3135 0
3153 3105 0
3154 3107 0
3155 3109 0
3156 3111 0
3157 3113 0
3158 3115 0
3159 3117 0
3160 3119 0
3161 3121 0
3162 3123 0
3163 3125 0
3164 3127 0
3165 3129 0
3166 3131 0
3167 3133 0
3168 3135 0
3169 3105 0
3170 3107 0
3171 3109 0
3172 3111 0
3173 3113 0
3174 3115 0
3175 3117 0
3176 3119 0
3177 3121 0
3178 3123 0
3179 3125 0
3180 3127 0
3181 3129 0
3182 3131 0
3183 3133 0
3184 3135 0
3185 3105 0
3186 3107 0
3187 3109 0
3188 3111 0
3189 3113 0
3190 3115 0
3191 3117 0
3192 3119 0
3193 3121 0
3194 3123 0
3195 3125 0
3196 3127 0
3197 3129 0
3198 3131 0
3199 3133 0
3200 3135 0
3201 3105 0
3202 3107 0
3203 3109 0
3204 3111 0
3205 3113 0
3206 3115 0
3207 3117 0
3208 3119 0
3209 3121 0
3210 3123 0
3211 3125 0
3212 3127 0
3213 3129 0
3214 3131 0
3215 3133 0
3216 3135 0
3217 3105 0
3218 3107 0
3219 3109 0
3220 3111 0
3221 3113 0
3222 3115 0
3223 3117 0
3224 3119 0
3225 3121 0
3226 3123 0
3227 3125 0
3228 3127 0
3229 3129 0
3230 3131 0
3231 3133 0
3232 3135 0
3233 3105 0
3234 3107 0
3235 3109 0
3236 3111 0
3237 3113 0
3238 3115 0
3239 3117 0
3240 3119 0
3241 3121 0
3242 3123 0
3243 3125 0
3244 3127 0
3245 3129 0
3246 3131 0
3247 3133 0
3248 3135 0
3249 3105 0
3250 3107 0
3251 3109 0
3252 3111 0
3253 3113 0
3254 3115 0
3255 3117 0
3256 3119 0
3257 3121 0
3258 3123 0
3259 3125 0
3260 3127 0
3261 3129 0
3262 3131 0
3263 3133 0
3264 3135 0
3265 3105 0
3266 3107 0
3267 3109 0
3268 3111 0
3269 3113 0
3270 3115 0
3271 3117 0
3272 3119 0
3273 3121 0
3274 3123 0
3275 3125 0
3276 3127 0
3277 3129 0
3278 3131 0
3279 3133 0
3280 3135 0
3281 3105 0
3282 3107 0
3283 3109 0
3284 3111 0
3285 3113 0
3286 3115 0
3287 3117 0
3288 3119 0
3289 3121 0
3290 3123 0
3291 3125 0
3292 3127 0
3293 3129 0
3294 3131 0
3295 3133 0
3296 3135 0
3297 3105 0
3298 3107 0
3299 3109 0
3300 3111 0
3301 3113 0
3302 3115 0
3303 3117 0
3304 3119 0
3305 3121 0
3306 3123 0
3307 3125 0
3308 3127 0
3309 3129 0
3310 3131 0
3311 3133 0
3312 3135 0
3313 3105 0
3314 3107 0
3315 3109 0
3316 3111 0
3317 3113 0
3318 3115 0
3319 3117 0
3320 3119 0
3321 3121 0
3322 3123 0
3323 3125 0
3324 3127 0
3325 3129 0
3326 3131 0
3327 3133 0
3328 3135 0
3329 3105 0
3330 3107 0
3331 3109 0
3332 3111 0
3333 3113 0
3334 3115 0
3335 3117 0
3336 3119 0
3337 3121 0
3338 3123 0
3339 3125 0
3340 3127 0
3341 3129 0
3342 3131 0
3343 3133 0
3344 3135 0
3345 3105 0
3346 3107 0
3347 3109 0
3348 3111 0
3349 3113 0
3350 3115 0
3351 3117 0
3352 3119 0
3353 3121 0
3354 3123 0
3355 3125 0
3356 3127 0
3357 3129 0
3358 3131 0
3359 3133 0
3360 3135 0
3361 3105 0
3362 3107 0
3363 3109 0
3364 3111 0
3365 3113 0
3366 3115 0
3367 3117 0
3368 3119 0
3369 3121 0
3370 3123 0
3371 3125 0
3372 3127 0
3373 3129 0
3374 3131 0
3375 3133 0
3376 3135 0
3106 -2849 0
3108 -2850 0
3110 -2851 0
3112 -2852 0
3114 -2853 0
3116 -2854 0
3118 -2855 0
3120 -2856 0
3122 -2857 0
3124 -2858 0
3126 -2859 0
3128 -2860 0
3130 -2861 0
3132 -2862 0
3134 -2863 0
3136 -2864 0
3137 -2865 0
3138 -2866 0
3139 -2867 0
3140 -2868 0
3141 -2869 0
3142 -2870 0
3143 -2871 0
3144 -2872 0
3145 -2873 0
3146 -2874 0
3147 -2875 0
3148 -2876 0
3149 -2877 0
3150 -2878 0
3151 -2879 0
3152 -2880 0
3153 -2881 0
3154 -2882 0
3155 -2883 0
3156 -2884 0
3157 -2885 0
3158 -2886 0
3159 -2887 0
3160 -2888 0
3161 -2889 0
3162 -2890 0
3163 -2891 0
3164 -2892 0
3165 -2893 0
3166 -2894 0
3167 -2895 0
3168 -2896 0
3169 -2897 0
3170 -2898 0
3171 -2899 0
3172 -2900 0
3173 -2901 0
3174 -2902 0
3175 -2903 0
3176 -2904 0
3177 -2905 0
3178 -2906 0
3179 -2907 0
3180 -2908 0
3181 -2909 0
3182 -2910 0
3183 -2911 0
3184 -2912 0
3185 -2913 0
3186 -2914 0
3187 -2915 0
3188 -2916 0
3189 -2917 0
3190 -2918 0
3191 -2919 0
3192 -2920 0
3193 -2921 0
3194 -2922 0
3195 -2923 0
3196 -2924 0
3197 -2925 0
3198 -2926 0
3199 -2927 0
3200 -2928 0
3201 -2929 0
3202 -2930 0
3203 -2931 0
3204 -2932 0
3205 -2933 0
3206 -2934 0
3207 -2935 0
3208 -2936 0
3209 -2937 0
3210 -2938 0
3211 -2939 0
3212 -2940 0
3213 -2941 0
3214 -2942 0
3215 -2943 0
3216 -2944 0
3217 -2945 0
3218 -2946 0
3219 -2947 0
3220 -2948 0
3221 -2949 0
3222 -2950 0
3223 -2951 0
3224 -2952 0
3225 -2953 0
3226 -2954 0
3227 -2955 0
3228 -2956 0
3229 -2957 0
3230 -2958 0
3231 -2959 0
3232 -2960 0
3233 -2961 0
3234 -2962 0
3235 -2963 0
3236 -2964 0
3237 -2965 0
3238 -2966 0
3239 -2967 0
3240 -2968 0
3241 -2969 0
3242 -2970 0
3243 -2971 0
3244 -2972 0
3245 -2973 0
3246 -2974 0
3247 -2975 0
3248 -2976 0
3249 -2977 0
3250 -2978 0
3251 -2979 0
3252 -2980 0
3253 -2981 0
3254 -2982 0
3255 -2983 0
3256 -2984 0
3257 -2985 0
3258 -2986 0
3259 -2987 0
3260 -2988 0
3261 -2989 0
3262 -2990 0
3263 -2991 0
3264 -2992 0
3265 -2993 0
3266 -2994 0
3267 -2995 0
3268 -2996 0
3269 -2997 0
3270 -2998 0
3271 -2999 0
3272 -3000 0
3273 -3001 0
3274 -3002 0
3275 -3003 0
3276 -3004 0
3277 -3005 0
3278 -3006 0
3279 -3007 0
3280 -3008 0
3281 -3009 0
3282 -3010 0
3283 -3011 0
3284 -3012 0
3285 -3013 0
3286 -3014 0
3287 -3015 0
3288 -3016 0
3289 -3017 0
3290 -3018 0
3291 -3019 0
3292 -3020 0
3293 -3021 0
3294 -3022 0
3295 -3023 0
3296 -3024 0
3297 -3025 0
3298 -3026 0
3299 -3027 0
3300 -3028 0
3301 -3029 0
3302 -3030 0
3303 -3031 0
3304 -3032 0
3305 -3033 0
3306 -3034 0
3307 -3035 0
3308 -3036 0
3309 -3037 0
3310 -3038 0
3311 -3039 0
3312 -3040 0
3313 -3041 0
3314 -3042 0
3315 -3043 0
3316 -3044 0
3317 -3045 0
3318 -3046 0
3319 -3047 0
3320 -3048 0
3321 -3049 0
3322 -3050 0
3323 -3051 0
3324 -3052 0
3325 -3053 0
3326 -3054 0
3327 -3055 0
3328 -3056 0
3329 -3057 0
3330 -3058 0
3331 -3059 0
3332 -3060 0
3333 -3061 0
3334 -3062 0
3335 -3063 0
3336 -3064 0
3337 -3065 0
3338 -3066 0
3339 -3067 0
3340 -3068 0
3341 -3069 0
3342 -3070 0
3343 -3071 0
3344 -3072 0
3345 -3073 0
3346 -3074 0
3347 -3075 0
3348 -3076 0
3349 -3077 0
3350 -3078 0
3351 -3079 0
3352 -3080 0
3353 -3081 0
3354 -3082 0
3355 -3083 0
3356 -3084 0
3357 -3085 0
3358 -3086 0
3359 -3087 0
3360 -3088 0
3361 -3089 0
3362 -3090 0
3363 -3091 0
3364 -3092 0
3365 -3093 0
3366 -3094 0
3367 -3095 0
3368 -3096 0
3369 -3097 0
3370 -3098 0
3371 -3099 0
3372 -3100 0
3373 -3101 0
3374 -3102 0
3375 -3103 0
3376 -3104 0
-1809 -3377 -3378 0
-1841 -3377 -3379 0
-1873 -3377 -3380 0
-1905 -3377 -3381 0
-1937 -3377 -3382 0
-1969 -3377 -3383 0
-2001 -3377 -3384 0
-2033 -3377 -3385 0
-2065 -3377 -3386 0
-2097 -3377 -3387 0
-2129 -3377 -3388 0
-2161 -3377 -3389 0
-2193 -3377 -3390 0
-2225 -3377 -3391 0
-2257 -3377 -3392 0
-2289 -3377 -3393 0
-1811 -3394 -3395 0
-1843 -3394 -3396 0
-1875 -3394 -3397 0
-1907 -3394 -3398 0
-1939 -3394 -3399 0
-1971 -3394 -3400 0
-2003 -3394 -3401 0
-2035 -3394 -3402 0
-2067 -3394 -3403 0
-2099 -3394 -3404 0
-2131 -3394 -3405 0
-2163 -3394 -3406 0
-2195 -3394 -3407 0
-2227 -3394 -3408 0
-2259 -3394 -3409 0
-2291 -3394 -3410 0
-1813 -3411 -3412 0
-1845 -3411 -3413 0
-1877 -3411 -3414 0
-1909 -3411 -3415 0
-1941 -3411 -3416 0
-1973 -3411 -3417 0
-2005 -3411 -3418 0
-2037 -3411 -3419 0
-2069 -3411 -3420 0
-2101 -3411 -3421 0
-2133 -3411 -3422 0
-2165 -3411 -3423 0
-2197 -3411 -3424 0
-2229 -3411 -3425 0
-2261 -3411 -3426 0
-2293 -3411 -3427 0
-1815 -3428 -3429 0
-1847 -3428 -3430 0
-1879 -3428 -3431 0
-1911 -3428 -3432 0
-1943 -3428 -3433 0
-1975 -3428 -3434 0
-2007 -3428 -3435 0
-2039 -3428 -3436 0
-2071 -3428 -3437 0
-2103 -3428 -3438 0
-2135 -3428 -3439 0
-2167 -3428 -3440 0
-2199 -3428 -3441 0
-2231 -3428 -3442 0
-2263 -3428 -3443 0
-2295 -3428 -3444 0
-1817 -3445 -3446 0
-1849 -3445 -3447 0
-1881 -3445 -3448 0
-1913 -3445 -3449 0
-1945 -3445 -3450 0
-1977 -3445 -3451 0
-2009 -3445 -3452 0
-2041 -3445 -3453 0
-2073 -3445 -3454 0
-2105 -3445 -3455 0
-2137 -3445 -3456 0
-2169 -3445 -3457 0
-2201 -3445 -3458 0
-2233 -3445 -3459 0
-2265 -3445 -3460 0
-2297 -3445 -3461 0
-1819 -3462 -3463 0
-1851 -3462 -3464 0
-1883 -3462 -3465 0
-1915 -3462 -3466 0
-1947 -3462 -3467 0
-1979 -3462 -3468 0
-2011 -3462 -3469 0
-2043 -3462 -3470 0
-2075 -3462 -3471 0
-2107 -3462 -3472 0
-2139 -3462 -3473 0
-2171 -3462 -3474 0
-2203 -3462 -3475 0
-2235 -3462 -3476 0
-2267 -3462 -3477 0
-2299 -3462 -3478 0
-1821 -3479 -3480 0
-1853 -3479 -3481 0
-1885 -3479 -3482 0
-1917 -3479 -3483 0
-1949 -3479 -3484 0
-1981 -3479 -3485 0
-2013 -3479 -3486 0
-2045 -3479 -3487 0
-2077 -3479 -3488 0
-2109 -3479 -3489 0
-2141 -3479 -3490 0
-2173 -3479 -3491 0
-2205 -3479 -3492 0
-2237 -3479 -3493 0
-2269 -3479 -3494 0
-2301 -3479 -3495 0
-1823 -3496 -3497 0
-1855 -3496 -3498 0
-1887 -3496 -3499 0
-1919 -3496 -3500 0
-1951 -3496 -3501 0
-1983 -3496 -3502 0
-2015 -3496 -3503 0
-2047 -3496 -3504 0
-2079 -3496 -3505 0
-2111 -3496 -3506 0
-2143 -3496 -3507 0
-2175 -3496 -3508 0
-2207 -3496 -3509 0
-2239 -3496 -3510 0
-2271 -3496 -3511 0
-2303 -3496 -3512 0
-1825 -3513 -3514 0
-1857 -3513 -3515 0
-1889 -3513 -3516 0
-1921 -3513 -3517 0
-1953 -3513 -3518 0
-1985 -3513 -3519 0
-2017 -3513 -3520 0
-2049 -3513 -3521 0
-2081 -3513 -3522 0
-2113 -3513 -3523 0
-2145 -3513 -3524 0
-2177 -3513 -3525 0
-2209 -3513 -3526 0
-2241 -3513 -3527 0
-2273 -3513 -3528 0
-2305 -3513 -3529 0
-1827 -3530 -3531 0
-1859 -3530 -3532 0
-1891 -3530 -3533 0
-1923 -3530 -3534 0
-1955 -3530 -3535 0
-1987 -3530 -3536 0
-2019 -3530 -3537 0
-2051 -3530 -3538 0
-2083 -3530 -3539 0
-2115 -3530 -3540 0
-2147 -3530 -3541 0
-2179 -3530 -3542 0
-2211 -3530 -3543 0
-2243 -3530 -3544 0
-2275 -3530 -3545 0
-2307 -3530 -3546 0
-1829 -3547 -3548 0
-1861 -3547 -3549 0
-1893 -3547 -3550 0
-1925 -3547 -3551 0
-1957 -3547 -3552 0
-1989 -3547 -3553 0
-2021 -3547 -3554 0
-2053 -3547 -3555 0
-2085 -3547 -3556 0
-2117 -3547 -3557 0
-2149 -3547 -3558 0
-2181 -3547 -3559 0
-2213 -3547 -3560 0
-2245 -3547 -3561 0
-2277 -3547 -3562 0
-2309 -3547 -3563 0
-1831 -3564 -3565 0
-1863 -3564 -3566 0
-1895 -3564 -3567 0
-1927 -3564 -3568 0
-1959 -3564 -3569 0
-1991 -3564 -3570 0
-2023 -3564 -3571 0
-2055 -3564 -3572 0
-2087 -3564 -3573 0
-2119 -3564 -3574 0
-2151 -3564 -3575 0
-2183 -3564 -3576 0
-2215 -3564 -3577 0
-2247 -3564 -3578 0
-2279 -3564 -3579 0
-2311 -3564 -3580 0
-1833 -3581 -3582 0
-1865 -3581 -3583 0
-1897 -3581 -3584 0
-1929 -3581 -3585 0
-1961 -3581 -3586 0
-1993 -3581 -3587 0
-2025 -3581 -3588 0
-2057 -3581 -3589 0
-2089 -3581 -3590 0
-2121 -3581 -3591 0
-2153 -3581 -3592 0
-2185 -3581 -3593 0
-2217 -3581 -3594 0
-2249 -3581 -3595 0
-2281 -3581 -3596 0
-2313 -3581 -3597 0
-1835 -3598 -3599 0
-1867 -3598 -3600 0
-1899 -3598 -3601 0
-1931 -3598 -3602 0
-1963 -3598 -3603 0
-1995 -3598 -3604 0
-2027 -3598 -3605 0
-2059 -3598 -3606 0
-2091 -3598 -3607 0
-2123 -3598 -3608 0
-2155 -3598 -3609 0
-2187 -3598 -3610 0
-2219 -3598 -3611 0
-2251 -3598 -3612 0
-2283 -3598 -3613 0
-2315 -3598 -3614 0
-1837 -3615 -3616 0
-1869 -3615 -3617 0
-1901 -3615 -3618 0
-1933 -3615 -3619 0
-1965 -3615 -3620 0
-1997 -3615 -3621 0
-2029 -3615 -3622 0
-2061 -3615 -3623 0
-2093 -3615 -3624 0
-2125 -3615 -3625 0
-2157 -3615 -3626 0
-2189 -3615 -3627 0
-2221 -3615 -3628 0
-2253 -3615 -3629 0
-2285 -3615 -3630 0
-2317 -3615 -3631 0
-1839 -3632 -3633 0
-1871 -3632 -3634 0
-1903 -3632 -3635 0
-1935 -3632 -3636 0
-1967 -3632 -3637 0
-1999 -3632 -3638 0
-2031 -3632 -3639 0
-2063 -3632 -3640 0
-2095 -3632 -3641 0
-2127 -3632 -3642 0
-2159 -3632 -3643 0
-2191 -3632 -3644 0
-2223 -3632 -3645 0
-2255 -3632 -3646 0
-2287 -3632 -3647 0
-2319 -3632 -3648 0
3378 1809 0
3379 1841 0
3380 1873 0
3381 1905 0
3382 1937 0
3383 1969 0
3384 2001 0
3385 2033 0
3386 2065 0
3387 2097 0
3388 2129 0
3389 2161 0
3390 2193 0
3391 2225 0
3392 2257 0
3393 2289 0
3395 1811 0
3396 1843 0
3397 1875 0
3398 1907 0
3399 1939 0
3400 1971 0
3401 2003 0
3402 2035 0
3403 2067 0
3404 2099 0
3405 2131 0
3406 2163 0
3407 2195 0
3408 2227 0
3409 2259 0
3410 2291 0
3412 1813 0
3413 1845 0
3414 1877 0
3415 1909 0
3416 1941 0
3417 1973 0
3418 2005 0
3419 2037 0
3420 2069 0
3421 2101 0
3422 2133 0
3423 2165 0
3424 2197 0
3425 2229 0
3426 2261 0
3427 2293 0
3429 1815 0
3430 1847 0
3431 1879 0
3432 1911 0
3433 1943 0
3434 1975 0
3435 2007 0
3436 2039 0
3437 2071 0
3438 2103 0
3439 2135 0
3440 2167 0
3441 2199 0
3442 2231 0
3443 2263 0
3444 2295 0
3446 1817 0
3447 1849 0
3448 1881 0
3449 1913 0
3450 1945 0
3451 1977 0
3452 2009 0
3453 2041 0
3454 2073 0
3455 2105 0
3456 2137 0
3457 2169 0
3458 2201 0
3459 2233 0
3460 2265 0
3461 2297 0
3463 1819 0
3464 1851 0
3465 1883 0
3466 1915 0
3467 1947 0
3468 1979 0
3469 2011 0
3470 2043 0
3471 2075 0
3472 2107 0
3473 2139 0
3474 2171 0
3475 2203 0
3476 2235 0
3477 2267 0
3478 2299 0
3480 1821 0
3481 1853 0
3482 1885 0
3483 1917 0
3484 1949 0
3485 1981 0
3486 2013 0
3487 2045 0
3488 2077 0
3489 2109 0
3490 2141 0
3491 2173 0
3492 2205 0
3493 2237 0
3494 2269 0
3495 2301 0
3497 1823 0
3498 1855 0
3499 1887 0
3500 1919 0
3501 1951 0
3502 1983 0
3503 2015 0
3504 2047 0
3505 2079 0
3506 2111 0
3507 2143 0
3508 2175 0
3509 2207 0
3510 2239 0
3511 2271 0
3512 2303 0
3514 1825 0
3515 1857 0
3516 1889 0
3517 1921 0
3518 1953 0
3519 1985 0
3520 2017 0
3521 2049 0
3522 2081 0
3523 2113 0
3524 2145 0
3525 2177 0
3526 2209 0
3527 2241 0
3528 2273 0
3529 2305 0
3531 1827 0
3532 1859 0
3533 1891 0
3534 1923 0
3535 1955 0
3536 1987 0
3537 2019 0
3538 2051 0
3539 2083 0
3540 2115 0
3541 2147 0
3542 2179 0
3543 2211 0
3544 2243 0
3545 2275 0
3546 2307 0
3548 1829 0
3549 1861 0
3550 1893 0
3551 1925 0
3552 1957 0
3553 1989 0
3554 2021 0
3555 2053 0
3556 2085 0
3557 2117 0
3558 2149 0
3559 2181 0
3560 2213 0
3561 2245 0
3562 2277 0
3563 2309 0
3565 1831 0
3566 1863 0
3567 1895 0
3568 1927 0
3569 1959 0
3570 1991 0
3571 2023 0
3572 2055 0
3573 2087 0
3574 2119 0
3575 2151 0
3576 2183 0
3577 2215 0
3578 2247 0
3579 2279 0
3580 2311 0
3582 1833 0
3583 1865 0
3584 1897 0
3585 1929 0
3586 1961 0
3587 1993 0
3588 2025 0
3589 2057 0
3590 2089 0
3591 2121 0
3592 2153 0
3593 2185 0
3594 2217 0
3595 2249 0
3596 2281 0
3597 2313 0
3599 1835 0
3600 1867 0
3601 1899 0
3602 1931 0
3603 1963 0
3604 1995 0
3605 2027 0
3606 2059 0
3607 2091 0
3608 2123 0
3609 2155 0
3610 2187 0
3611 2219 0
3612 2251 0
3613 2283 0
3614 2315 0
3616 1837 0
3617 1869 0
3618 1901 0
3619 1933 0
3620 1965 0
3621 1997 0
3622 2029 0
3623 2061 0
3624 2093 0
3625 2125 0
3626 2157 0
3627 2189 0
3628 2221 0
3629 2253 0
3630 2285 0
3631 2317 0
3633 1839 0
3634 1871 0
3635 1903 0
3636 1935 0
3637 1967 0
3638 1999 0
3639 2031 0
3640 2063 0
3641 2095 0
3642 2127 0
3643 2159 0
3644 2191 0
3645 2223 0
3646 2255 0
3647 2287 0
3648 2319 0
3378 3377 0
3379 3377 0
3380 3377 0
3381 3377 0
3382 3377 0
3383 3377 0
3384 3377 0
3385 3377 0
3386 3377 0
3387 3377 0
3388 3377 0
3389 3377 0
3390 3377 0
3391 3377 0
3392 3377 0
3393 3377 0
3395 3394 0
3396 3394 0
3397 3394 0
3398 3394 0
3399 3394 0
3400 3394 0
3401 3394 0
3402 3394 0
3403 3394 0
3404 3394 0
3405 3394 0
3406 3394 0
3407 3394 0
3408 3394 0
3409 3394 0
3410 3394 0
3412 3411 0
3413 3411 0
3414 3411 0
3415 3411 0
3416 3411 0
3417 3411 0
3418 3411 0
3419 3411 0
3420 3411 0
3421 3411 0
3422 3411 0
3423 3411 0
3424 3411 0
3425 3411 0
3426 3411 0
3427 3411 0
3429 3428 0
3430 3428 0
3431 3428 0
3432 3428 0
3433 3428 0
3434 3428 0
3435 3428 0
3436 3428 0
3437 3428 0
3438 3428 0
3439 3428 0
3440 3428 0
3441 3428 0
3442 3428 0
3443 3428 0
3444 3428 0
3446 3445 0
3447 3445 0
3448 3445 0
3449 3445 0
3450 3445 0
3451 3445 0
3452 3445 0
3453 3445 0
3454 3445 0
3455 3445 0
3456 3445 0
3457 3445 0
3458 3445 0
3459 3445 0
3460 3445 0
3461 3445 0
3463 3462 0
3464 3462 0
3465 3462 0
3466 3462 0
3467 3462 0
3468 3462 0
3469 3462 0
3470 3462 0
3471 3462 0
3472 3462 0
3473 3462 0
3474 3462 0
3475 3462 0
3476 3462 0
3477 3462 0
3478 3462 0
3480 3479 0
3481 3479 0
3482 3479 0
3483 3479 0
3484 3479 0
3485 3479 0
3486 3479 0
3487 3479 0
3488 3479 0
3489 3479 0
3490 3479 0
3491 3479 0
3492 3479 0
3493 3479 0
3494 3479 0
3495 3479 0
3497 3496 0
3498 3496 0
3499 3496 0
3500 3496 0
3501 3496 0
3502 3496 0
3503 3496 0
3504 3496 0
3505 3496 0
3506 3496 0
3507 3496 0
3508 3496 0
3509 3496 0
3510 3496 0
3511 3496 0
3512 3496 0
3514 3513 0
3515 3513 0
3516 3513 0
3517 3513 0
3518 3513 0
3519 3513 0
3520 3513 0
3521 3513 0
3522 3513 0
3523 3513 0
3524 3513 0
3525 3513 0
3526 3513 0
3527 3513 0
3528 3513 0
3529 3513 0
3531 3530 0
3532 3530 0
3533 3530 0
3534 3530 0
3535 3530 0
3536 3530 0
3537 3530 0
3538 3530 0
3539 3530 0
3540 3530 0
3541 3530 0
3542 3530 0
3543 3530 0
3544 3530 0
3545 3530 0
3546 3530 0
3548 3547 0
3549 3547 0
3550 3547 0
3551 3547 0
3552 3547 0
3553 3547 0
3554 3547 0
3555 3547 0
3556 3547 0
3557 3547 0
3558 3547 0
3559 3547 0
3560 3547 0
3561 3547 0
3562 3547 0
3563 3547 0
3565 3564 0
3566 3564 0
3567 3564 0
3568 3564 0
3569 3564 0
3570 3564 0
3571 3564 0
3572 3564 0
3573 3564 0
3574 3564 0
3575 3564 0
3576 3564 0
3577 3564 0
3578 3564 0
3579 3564 0
3580 3564 0
3582 3581 0
3583 3581 0
3584 3581 0
3585 3581 0
3586 3581 0
3587 3581 0
3588 3581 0
3589 3581 0
3590 3581 0
3591 3581 0
3592 3581 0
3593 3581 0
3594 3581 0
3595 3581 0
3596 3581 0
3597 3581 0
3599 3598 0
3600 3598 0
3601 3598 0
3602 3598 0
3603 3598 0
3604 3598 0
3605 3598 0
3606 3598 0
3607 3598 0
3608 3598 0
3609 3598 0
3610 3598 0
3611 3598 0
3612 3598 0
3613 3598 0
3614 3598 0
3616 3615 0
3617 3615 0
3618 3615 0
3619 3615 0
3620 3615 0
3621 3615 0
3622 3615 0
3623 3615 0
3624 3615 0
3625 3615 0
3626 3615 0
3627 3615 0
3628 3615 0
3629 3615 0
3630 3615 0
3631 3615 0
3633 3632 0
3634 3632 0
3635 3632 0
3636 3632 0
3637 3632 0
3638 3632 0
3639 3632 0
3640 3632 0
3641 3632 0
3642 3632 0
3643 3632 0
3644 3632 0
3645 3632 0
3646 3632 0
3647 3632 0
3648 3632 0
-3377 -3378 3649 0
-3394 -3379 3650 0
-3411 -3380 3651 0
-3428 -3381 3652 0
-3445 -3382 3653 0
-3462 -3383 3654 0
-3479 -3384 3655 0
-3496 -3385 3656 0
-3513 -3386 3657 0
-3530 -3387 3658 0
-3547 -3388 3659 0
-3564 -3389 3660 0
-3581 -3390 3661 0
-3598 -3391 3662 0
-3615 -3392 3663 0
-3632 -3393 3664 0
-3377 -3395 3665 0
-3394 -3396 3666 0
-3411 -3397 3667 0
-3428 -3398 3668 0
-3445 -3399 3669 0
-3462 -3400 3670 0
-3479 -3401 3671 0
-3496 -3402 3672 0
-3513 -3403 3673 0
-3530 -3404 3674 0
-3547 -3405 3675 0
-3564 -3406 3676 0
-3581 -3407 3677 0
-3598 -3408 3678 0
-3615 -3409 3679 0
-3632 -3410 3680 0
-3377 -3412 3681 0
-3394 -3413 3682 0
-3411 -3414 3683 0
-3428 -3415 3684 0
-3445 -3416 3685 0
-3462 -3417 3686 0
-3479 -3418 3687 0
-3496 -3419 3688 0
-3513 -3420 3689 0
-3530 -3421 3690 0
-3547 -3422 3691 0
-3564 -3423 3692 0
-3581 -3424 3693 0
-3598 -3425 3694 0
-3615 -3426 3695 0
-3632 -3427 3696 0
-3377 -3429 3697 0
-3394 -3430 3698 0
-3411 -3431 3699 0
-3428 -3432 3700 0
-3445 -3433 3701 0
-3462 -3434 3702 0
-3479 -3435 3703 0
-3496 -3436 3704 0
-3513 -3437 3705 0
-3530 -3438 3706 0
-3547 -3439 3707 0
-3564 -3440 3708 0
-3581 -3441 3709 0
-3598 -3442 3710 0
-3615 -3443 3711 0
-3632 -3444 3712 0
-3377 -3446 3713 0
-3394 -3447 3714 0
-3411 -3448 3715 0
-3428 -3449 3716 0
-3445 -3450 3717 0
-3462 -3451 3718 0
-3479 -3452 3719 0
-3496 -3453 3720 0
-3513 -3454 3721 0
-3530 -3455 3722 0
-3547 -3456 3723 0
-3564 -3457 3724 0
-3581 -3458 3725 0
-3598 -3459 3726 0
-3615 -3460 3727 0
-3632 -3461 3728 0
-3377 -3463 3729 0
-3394 -3464 3730 0
-3411 -3465 3731 0
-3428 -3466 3732 0
-3445 -3467 3733 0
-3462 -3468 3734 0
-3479 -3469 3735 0
-3496 -3470 3736 0
-3513 -3471 3737 0
-3530 -3472 3738 0
-3547 -3473 3739 0
-3564 -3474 3740 0
-3581 -3475 3741 0
-3598 -3476 3742 0
-3615 -3477 3743 0
-3632 -3478 3744 0
-3377 -3480 3745 0
-3394 -3481 3746 0
-3411 -3482 3747 0
-3428 -3483 3748 0
-3445 -3484 3749 0
-3462 -3485 3750 0
-3479 -3486 3751 0
-3496 -3487 3752 0
-3513 -3488 3753 0
-3530 -3489 3754 0
-3547 -3490 3755 0
-3564 -3491 3756 0
-3581 -3492 3757 0
-3598 -3493 3758 0
-3615 -3494 3759 0
-3632 -3495 3760 0
-3377 -3497 3761 0
-3394 -3498 3762 0
-3411 -3499 3763 0
-3428 -3500 3764 0
-3445 -3501 3765 0
-3462 -3502 3766 0
-3479 -3503 3767 0
-3496 -3504 3768 0
-3513 -3505 3769 0
-3530 -3506 3770 0
-3547 -3507 3771 0
-3564 -3508 3772 0
-3581 -3509 3773 0
-3598 -3510 3774 0
-3615 -3511 3775 0
-3632 -3512 3776 0
-3377 -3514 3777 0
-3394 -3515 3778 0
-3411 -3516 3779 0
-3428 -3517 3780 0
-3445 -3518 3781 0
-3462 -3519 3782 0
-3479 -3520 3783 0
-3496 -3521 3784 0
-3513 -3522 3785 0
-3530 -3523 3786 0
-3547 -3524 3787 0
-3564 -3525 3788 0
-3581 -3526 3789 0
-3598 -3527 3790 0
-3615 -3528 3791 0
-3632 -3529 3792 0
-3377 -3531 3793 0
-3394 -3532 3794 0
-3411 -3533 3795 0
-3428 -3534 3796 0
-3445 -3535 3797 0
-3462 -3536 3798 0
-3479 -3537 3799 0
-3496 -3538 3800 0
-3513 -3539 3801 0
-3530 -3540 3802 0
-3547 -3541 3803 0
-3564 -3542 3804 0
-3581 -3543 3805 0
-3598 -3544 3806 0
-3615 -3545 3807 0
-3632 -3546 3808 0
-3377 -3548 3809 0
-3394 -3549 3810 0
-3411 -3550 3811 0
-3428 -3551 3812 0
-3445 -3552 3813 0
-3462 -3553 3814 0
-3479 -3554 3815 0
-3496 -3555 3816 0
-3513 -3556 3817 0
-3530 -3557 3818 0
-3547 -3558 3819 0
-3564 -3559 3820 0
-3581 -3560 3821 0
-3598 -3561 3822 0
-3615 -3562 3823 0
-3632 -3563 3824 0
-3377 -3565 3825 0
-3394 -3566 3826 0
-3411 -3567 3827 0
-3428 -3568 3828 0
-3445 -3569 3829 0
-3462 -3570 3830 0
-3479 -3571 3831 0
-3496 -3572 3832 0
-3513 -3573 3833 0
-3530 -3574 3834 0
-3547 -3575 3835 0
-3564 -3576 3836 0
-3581 -3577 3837 0
-3598 -3578 3838 0
-3615 -3579 3839 0
-3632 -3580 3840 0
-3377 -3582 3841 0
-3394 -3583 3842 0
-3411 -3584 3843 0
-3428 -3585 3844 0
-3445 -3586 3845 0
-3462 -3587 3846 0
-3479 -3588 3847 0
-3496 -3589 3848 0
-3513 -3590 3849 0
-3530 -3591 3850 0
-3547 -3592 3851 0
-3564 -3593 3852 0
-3581 -3594 3853 0
-3598 -3595 3854 0
-3615 -3596 3855 0
-3632 -3597 3856 0
-3377 -3599 3857 0
-3394 -3600 3858 0
-3411 -3601 3859 0
-3428 -3602 3860 0
-3445 -3603 3861 0
-3462 -3604 3862 0
-3479 -3605 3863 0
-3496 -3606 3864 0
-3513 -3607 3865 0
-3530 -3608 3866 0
-3547 -3609 3867 0
-3564 -3610 3868 0
-3581 -3611 3869 0
-3598 -3612 3870 0
-3615 -3613 3871 0
-3632 -3614 3872 0
-3377 -3616 3873 0
-3394 -3617 3874 0
-3411 -3618 3875 0
-3428 -3619 3876 0
-3445 -3620 3877 0
-3462 -3621 3878 0
-3479 -3622 3879 0
-3496 -3623 3880 0
-3513 -3624 3881 0
-3530 -3625 3882 0
-3547 -3626 3883 0
-3564 -3627 3884 0
-3581 -3628 3885 0
-3598 -3629 3886 0
-3615 -3630 3887 0
-3632 -3631 3888 0
-3377 -3633 3889 0
-3394 -3634 3890 0
-3411 -3635 3891 0
-3428 -3636 3892 0
-3445 -3637 3893 0
-3462 -3638 3894 0
-3479 -3639 3895 0
-3496 -3640 3896 0
-3513 -3641 3897 0
-3530 -3642 3898 0
-3547 -3643 3899 0
-3564 -3644 3900 0
-3581 -3645 3901 0
-3598 -3646 3902 0
-3615 -3647 3903 0
-3632 -3648 3904 0
-3649 3377 0
-3650 3394 0
-3651 3411 0
-3652 3428 0
-3653 3445 0
-3654 3462 0
-3655 3479 0
-3656 3496 0
-3657 3513 0
-3658 3530 0
-3659 3547 0
-3660 3564 0
-3661 3581 0
-3662 3598 0
-3663 3615 0
-3664 3632 0
-3665 3377 0
-3666 3394 0
-3667 3411 0
-3668 3428 0
-3669 3445 0
-3670 3462 0
-3671 3479 0
-3672 3496 0
-3673 3513 0
-3674 3530 0
-3675 3547 0
-3676 3564 0
-3677 3581 0
-3678 3598 0
-3679 3615 0
-3680 3632 0
-3681 3377 0
-3682 3394 0
-3683 3411 0
-3684 3428 0
-3685 3445 0
-3686 3462 0
-3687 3479 0
-3688 3496 0
-3689 3513 0
-3690 3530 0
-3691 3547 0
-3692 3564 0
-3693 3581 0
-3694 3598 0
-3695 3615 0
-3696 3632 0
-3697 3377 0
-3698 3394 0
-3699 3411 0
-3700 3428 0
-3701 3445 0
-3702 3462 0
-3703 3479 0
-3704 3496 0
-3705 3513 0
-3706 3530 0
-3707 3547 0
-3708 3564 0
-3709 3581 0
-3710 3598 0
-3711 3615 0
-3712 3632 0
-3713 3377 0
-3714 3394 0
-3715 3411 0
-3716 3428 0
-3717 3445 0
-3718 3462 0
-3719 3479 0
-3720 3496 0
-3721 3513 0
-3722 3530 0
-3723 3547 0
-3724 3564 0
-3725 3581 0
-3726 3598 0
-3727 3615 0
-3728 3632 0
-3729 3377 0
-3730 3394 0
-3731 3411 0
-3732 3428 0
-3733 3445 0
-3734 3462 0
-3735 3479 0
-3736 3496 0
-3737 3513 0
-3738 3530 0
-3739 3547 0
-3740 3564 0
-3741 3581 0
-3742 3598 0
-3743 3615 0
-3744 3632 0
-3745 3377 0
-3746 3394 0
-3747 3411 0
-3748 3428 0
-3749 3445 0
-3750 3462 0
-3751 3479 0
-3752 3496 0
-3753 3513 0
-3754 3530 0
-3755 3547 0
-3756 3564 0
-3757 3581 0
-3758 3598 0
-3759 3615 0
-3760 3632 0
-3761 3377 0
-3762 3394 0
-3763 3411 0
-3764 3428 0
-3765 3445 0
-3766 3462 0
-3767 3479 0
-3768 3496 0
-3769 3513 0
-3770 3530 0
-3771 3547 0
-3772 3564 0
-3773 3581 0
-3774 3598 0
-3775 3615 0
-3776 3632 0
-3777 3377 0
-3778 3394 0
-3779 3411 0
-3780 3428 0
-3781 3445 0
-3782 3462 0
-3783 3479 0
-3784 3496 0
-3785 3513 0
-3786 3530 0
-3787 3547 0
-3788 3564 0
-3789 3581 0
-3790 3598 0
-3791 3615 0
-3792 3632 0
-3793 3377 0
-3794 3394 0
-3795 3411 0
-3796 3428 0
-3797 3445 0
-3798 3462 0
-3799 3479 0
-3800 3496 0
-3801 3513 0
-3802 3530 0
-3803 3547 0
-3804 3564 0
-3805 3581 0
-3806 3598 0
-3807 3615 0
-3808 3632 0
-3809 3377 0
-3810 3394 0
-3811 3411 0
-3812 3428 0
-3813 3445 0
-3814 3462 0
-3815 3479 0
-3816 3496 0
-3817 3513 0
-3818 3530 0
-3819 3547 0
-3820 3564 0
-3821 3581 0
-3822 3598 0
-3823 3615 0
-3824 3632 0
-3825 3377 0
-3826 3394 0
-3827 3411 0
-3828 3428 0
-3829 3445 0
-3830 3462 0
-3831 3479 0
-3832 3496 0
-3833 3513 0
-3834 3530 0
-3835 3547 0
-3836 3564 0
-3837 3581 0
-3838 3598 0
-3839 3615 0
-3840 3632 0
-3841 3377 0
-3842 3394 0
-3843 3411 0
-3844 3428 0
-3845 3445 0
-3846 3462 0
-3847 3479 0
-3848 3496 0
-3849 3513 0
-3850 3530 0
-3851 3547 0
-3852 3564 0
-3853 3581 0
-3854 3598 0
-3855 3615 0
-3856 3632 0
-3857 3377 0
-3858 3394 0
-3859 3411 0
-3860 3428 0
-3861 3445 0
-3862 3462 0
-3863 3479 0
-3864 3496 0
-3865 3513 0
-3866 3530 0
-3867 3547 0
-3868 3564 0
-3869 3581 0
-3870 3598 0
-3871 3615 0
-3872 3632 0
-3873 3377 0
-3874 3394 0
-3875 3411 0
-3876 3428 0
-3877 3445 0
-3878 3462 0
-3879 3479 0
-3880 3496 0
-3881 3513 0
-3882 3530 0
-3883 3547 0
-3884 3564 0
-3885 3581 0
-3886 3598 0
-3887 3615 0
-3888 3632 0
-3889 3377 0
-3890 3394 0
-3891 3411 0
-3892 3428 0
-3893 3445 0
-3894 3462 0
-3895 3479 0
-3896 3496 0
-3897 3513 0
-3898 3530 0
-3899 3547 0
-3900 3564 0
-3901 3581 0
-3902 3598 0
-3903 3615 0
-3904 3632 0
-3649 3378 0
-3650 3379 0
-3651 3380 0
-3652 3381 0
-3653 3382 0
-3654 3383 0
-3655 3384 0
-3656 3385 0
-3657 3386 0
-3658 3387 0
-3659 3388 0
-3660 3389 0
-3661 3390 0
-3662 3391 0
-3663 3392 0
-3664 3393 0
-3665 3395 0
-3666 3396 0
-3667 3397 0
-3668 3398 0
-3669 3399 0
-3670 3400 0
-3671 3401 0
-3672 3402 0
-3673 3403 0
-3674 3404 0
-3675 3405 0
-3676 3406 0
-3677 3407 0
-3678 3408 0
-3679 3409 0
-3680 3410 0
-3681 3412 0
-3682 3413 0
-3683 3414 0
-3684 3415 0
-3685 3416 0
-3686 3417 0
-3687 3418 0
-3688 3419 0
-3689 3420 0
-3690 3421 0
-3691 3422 0
-3692 3423 0
-3693 3424 0
-3694 3425 0
-3695 3426 0
-3696 3427 0
-3697 3429 0
-3698 3430 0
-3699 3431 0
-3700 3432 0
-3701 3433 0
-3702 3434 0
-3703 3435 0
-3704 3436 0
-3705 3437 0
-3706 3438 0
-3707 3439 0
-3708 3440 0
-3709 3441 0
-3710 3442 0
-3711 3443 0
-3712 3444 0
-3713 3446 0
-3714 3447 0
-3715 3448 0
-3716 3449 0
-3717 3450 0
-3718 3451 0
-3719 3452 0
-3720 3453 0
-3721 3454 0
-3722 3455 0
-3723 3456 0
-3724 3457 0
-3725 3458 0
-3726 3459 0
-3727 3460 0
-3728 3461 0
-3729 3463 0
-3730 3464 0
-3731 3465 0
-3732 3466 0
-3733 3467 0
-3734 3468 0
-3735 3469 0
-3736 3470 0
-3737 3471 0
-3738 3472 0
-3739 3473 0
-3740 3474 0
-3741 3475 0
-3742 3476 0
-3743 3477 0
-3744 3478 0
-3745 3480 0
-3746 3481 0
-3747 3482 0
-3748 3483 0
-3749 3484 0
-3750 3485 0
-3751 3486 0
-3752 3487 0
-3753 3488 0
-3754 3489 0
-3755 3490 0
-3756 3491 0
-3757 3492 0
-3758 3493 0
-3759 3494 0
-3760 3495 0
-3761 3497 0
-3762 3498 0
-3763 3499 0
-3764 3500 0
-3765 3501 0
-3766 3502 0
-3767 3503 0
-3768 3504 0
-3769 3505 0
-3770 3506 0
-3771 3507 0
-3772 3508 0
-3773 3509 0
-3774 3510 0
-3775 3511 0
-3776 3512 0
-3777 3514 0
-3778 3515 0
-3779 3516 0
-3780 3517 0
-3781 3518 0
-3782 3519 0
-3783 3520 0
-3784 3521 0
-3785 3522 0
-3786 3523 0
-3787 3524 0
-3788 3525 0
-3789 3526 0
-3790 3527 0
-3791 3528 0
-3792 3529 0
-3793 3531 0
-3794 3532 0
-3795 3533 0
-3796 3534 0
-3797 3535 0
-3798 3536 0
-3799 3537 0
-3800 3538 0
-3801 3539 0
-3802 3540 0
-3803 3541 0
-3804 3542 0
-3805 3543 0
-3806 3544 0
-3807 3545 0
-3808 3546 0
-3809 3548 0
-3810 3549 0
-3811 3550 0
-3812 3551 0
-3813 3552 0
-3814 3553 0
-3815 3554 0
-3816 3555 0
-3817 3556 0
-3818 3557 0
-3819 3558 0
-3820 3559 0
-3821 3560 0
-3822 3561 0
-3823 3562 0
-3824 3563 0
-3825 3565 0
-3826 3566 0
-3827 3567 0
-3828 3568 0
-3829 3569 0
-3830 3570 0
-3831 3571 0
-3832 3572 0
-3833 3573 0
-3834 3574 0
-3835 3575 0
-3836 3576 0
-3837 3577 0
-3838 3578 0
-3839 3579 0
-3840 3580 0
-3841 3582 0
-3842 3583 0
-3843 3584 0
-3844 3585 0
-3845 3586 0
-3846 3587 0
-3847 3588 0
-3848 3589 0
-3849 3590 0
-3850 3591 0
-3851 3592 0
-3852 3593 0
-3853 3594 0
-3854 3595 0
-3855 3596 0
-3856 3597 0
-3857 3599 0
-3858 3600 0
-3859 3601 0
-3860 3602 0
-3861 3603 0
-3862 3604 0
-3863 3605 0
-3864 3606 0
-3865 3607 0
-3866 3608 0
-3867 3609 0
-3868 3610 0
-3869 3611 0
-3870 3612 0
-3871 3613 0
-3872 3614 0
-3873 3616 0
-3874 3617 0
-3875 3618 0
-3876 3619 0
-3877 3620 0
-3878 3621 0
-3879 3622 0
-3880 3623 0
-3881 3624 0
-3882 3625 0
-3883 3626 0
-3884 3627 0
-3885 3628 0
-3886 3629 0
-3887 3630 0
-3888 3631 0
-3889 3633 0
-3890 3634 0
-3891 3635 0
-3892 3636 0
-3893 3637 0
-3894 3638 0
-3895 3639 0
-3896 3640 0
-3897 3641 0
-3898 3642 0
-3899 3643 0
-3900 3644 0
-3901 3645 0
-3902 3646 0
-3903 3647 0
-3904 3648 0
-3905 3649 -3906 0
-3907 3650 -3908 0
-3909 3651 -3910 0
-3911 3652 -3912 0
-3913 3653 -3914 0
-3915 3654 -3916 0
-3917 3655 -3918 0
-3919 3656 -3920 0
-3921 3657 -3922 0
-3923 3658 -3924 0
-3925 3659 -3926 0
-3927 3660 -3928 0
-3929 3661 -3930 0
-3931 3662 -3932 0
-3933 3663 -3934 0
-3935 3664 -3936 0
-3905 3665 -3937 0
-3907 3666 -3938 0
-3909 3667 -3939 0
-3911 3668 -3940 0
-3913 3669 -3941 0
-3915 3670 -3942 0
-3917 3671 -3943 0
-3919 3672 -3944 0
-3921 3673 -3945 0
-3923 3674 -3946 0
-3925 3675 -3947 0
-3927 3676 -3948 0
-3929 3677 -3949 0
-3931 3678 -3950 0
-3933 3679 -3951 0
-3935 3680 -3952 0
-3905 3681 -3953 0
-3907 3682 -3954 0
-3909 3683 -3955 0
-3911 3684 -3956 0
-3913 3685 -3957 0
-3915 3686 -3958 0
-3917 3687 -3959 0
-3919 3688 -3960 0
-3921 3689 -3961 0
-3923 3690 -3962 0
-3925 3691 -3963 0
-3927 3692 -3964 0
-3929 3693 -3965 0
-3931 3694 -3966 0
-3933 3695 -3967 0
-3935 3696 -3968 0
-3905 3697 -3969 0
-3907 3698 -3970 0
-3909 3699 -3971 0
-3911 3700 -3972 0
-3913 3701 -3973 0
-3915 3702 -3974 0
-3917 3703 -3975 0
-3919 3704 -3976 0
-3921 3705 -3977 0
-3923 3706 -3978 0
-3925 3707 -3979 0
-3927 3708 -3980 0
-3929 3709 -3981 0
-3931 3710 -3982 0
-3933 3711 -3983 0
-3935 3712 -3984 0
-3905 3713 -3985 0
-3907 3714 -3986 0
-3909 3715 -3987 0
-3911 3716 -3988 0
-3913 3717 -3989 0
-3915 3718 -3990 0
-3917 3719 -3991 0
-3919 3720 -3992 0
-3921 3721 -3993 0
-3923 3722 -3994 0
-3925 3723 -3995 0
-3927 3724 -3996 0
-3929 3725 -3997 0
-3931 3726 -3998 0
-3933 3727 -3999 0
-3935 3728 -4000 0
-3905 3729 -4001 0
-3907 3730 -4002 0
-3909 3731 -4003 0
-3911 3732 -4004 0
-3913 3733 -4005 0
-3915 3734 -4006 0
-3917 3735 -4007 0
-3919 3736 -4008 0
-3921 3737 -4009 0
-3923 3738 -4010 0
-3925 3739 -4011 0
-3927 3740 -4012 0
-3929 3741 -4013 0
-3931 3742 -4014 0
-3933 3743 -4015 0
-3935 3744 -4016 0
-3905 3745 -4017 0
-3907 3746 -4018 0
-3909 3747 -4019 0
-3911 3748 -4020 0
-3913 3749 -4021 0
-3915 3750 -4022 0
-3917 3751 -4023 0
-3919 3752 -4024 0
-3921 3753 -4025 0
-3923 3754 -4026 0
-3925 3755 -4027 0
-3927 3756 -4028 0
-3929 3757 -4029 0
-3931 3758 -4030 0
-3933 3759 -4031 0
-3935 3760 -4032 0
-3905 3761 -4033 0
-3907 3762 -4034 0
-3909 3763 -4035 0
-3911 3764 -4036 0
-3913 3765 -4037 0
-3915 3766 -4038 0
-3917 3767 -4039 0
-3919 3768 -4040 0
-3921 3769 -4041 0
-3923 3770 -4042 0
-3925 3771 -4043 0
-3927 3772 -4044 0
-3929 3773 -4045 0
-3931 3774 -4046 0
-3933 3775 -4047 0
-3935 3776 -4048 0
-3905 3777 -4049 0
-3907 3778 -4050 0
-3909 3779 -4051 0
-3911 3780 -4052 0
-3913 3781 -4053 0
-3915 3782 -4054 0
-3917 3783 -4055 0
-3919 3784 -4056 0
-3921 3785 -4057 0
-3923 3786 -4058 0
-3925 3787 -4059 0
-3927 3788 -4060 0
-3929 3789 -4061 0
-3931 3790 -4062 0
-3933 3791 -4063 0
-3935 3792 -4064 0
-3905 3793 -4065 0
-3907 3794 -4066 0
-3909 3795 -4067 0
-3911 3796 -4068 0
-3913 3797 -4069 0
-3915 3798 -4070 0
-3917 3799 -4071 0
-3919 3800 -4072 0
-3921 3801 -4073 0
-3923 3802 -4074 0
-3925 3803 -4075 0
-3927 3804 -4076 0
-3929 3805 -4077 0
-3931 3806 -4078 0
-3933 3807 -4079 0
-3935 3808 -4080 0
-3905 3809 -4081 0
-3907 3810 -4082 0
-3909 3811 -4083 0
-3911 3812 -4084 0
-3913 3813 -4085 0
-3915 3814 -4086 0
-3917 3815 -4087 0
-3919 3816 -4088 0
-3921 3817 -4089 0
-3923 3818 -4090 0
-3925 3819 -4091 0
-3927 3820 -4092 0
-3929 3821 -4093 0
-3931 3822 -4094 0
-3933 3823 -4095 0
-3935 3824 -4096 0
-3905 3825 -4097 0
-3907 3826 -4098 0
-3909 3827 -4099 0
-3911 3828 -4100 0
-3913 3829 -4101 0
-3915 3830 -4102 0
-3917 3831 -4103 0
-3919 3832 -4104 0
-3921 3833 -4105 0
-3923 3834 -4106 0
-3925 3835 -4107 0
-3927 3836 -4108 0
-3929 3837 -4109 0
-3931 3838 -4110 0
-3933 3839 -4111 0
-3935 3840 -4112 0
-3905 3841 -4113 0
-3907 3842 -4114 0
-3909 3843 -4115 0
-3911 3844 -4116 0
-3913 3845 -4117 0
-3915 3846 -4118 0
-3917 3847 -4119 0
-3919 3848 -4120 0
-3921 3849 -4121 0
-3923 3850 -4122 0
-3925 3851 -4123 0
-3927 3852 -4124 0
-3929 3853 -4125 0
-3931 3854 -4126 0
-3933 3855 -4127 0
-3935 3856 -4128 0
-3905 3857 -4129 0
-3907 3858 -4130 0
-3909 3859 -4131 0
-3911 3860 -4132 0
-3913 3861 -4133 0
-3915 3862 -4134 0
-3917 3863 -4135 0
-3919 3864 -4136 0
-3921 3865 -4137 0
-3923 3866 -4138 0
-3925 3867 -4139 0
-3927 3868 -4140 0
-3929 3869 -4141 0
-3931 3870 -4142 0
-3933 3871 -4143 0
-3935 3872 -4144 0
-3905 3873 -4145 0
-3907 3874 -4146 0
-3909 3875 -4147 0
-3911 3876 -4148 0
-3913 3877 -4149 0
-3915 3878 -4150 0
-3917 3879 -4151 0
-3919 3880 -4152 0
-3921 3881 -4153 0
-3923 3882 -4154 0
-3925 3883 -4155 0
-3927 3884 -4156 0
-3929 3885 -4157 0
-3931 3886 -4158 0
-3933 3887 -4159 0
-3935 3888 -4160 0
-3905 3889 -4161 0
-3907 3890 -4162 0
-3909 3891 -4163 0
-3911 3892 -4164 0
-3913 3893 -4165 0
-3915 3894 -4166 0
-3917 3895 -4167 0
-3919 3896 -4168 0
-3921 3897 -4169 0
-3923 3898 -4170 0
-3925 3899 -4171 0
-3927 3900 -4172 0
-3929 3901 -4173 0
-3931 3902 -4174 0
-3933 3903 -4175 0
-3935 3904 -4176 0
3906 3905 0
3908 3907 0
3910 3909 0
3912 3911 0
3914 3913 0
3916 3915 0
3918 3917 0
3920 3919 0
3922 3921 0
3924 3923 0
3926 3925 0
3928 3927 0
3930 3929 0
3932 3931 0
3934 3933 0
3936 3935 0
3937 3905 0
3938 3907 0
3939 3909 0
3940 3911 0
3941 3913 0
3942 3915 0
3943 3917 0
3944 3919 0
3945 3921 0
3946 3923 0
3947 3925 0
3948 3927 0
3949 3929 0
3950 3931 0
3951 3933 0
3952 3935 0
3953 3905 0
3954 3907 0
3955 3909 0
3956 3911 0
3957 3913 0
3958 3915 0
3959 3917 0
3960 3919 0
3961 3921 0
3962 3923 0
3963 3925 0
3964 3927 0
3965 3929 0
3966 3931 0
3967 3933 0
3968 3935 0
3969 3905 0
3970 3907 0
3971 3909 0
3972 3911 0
3973 3913 0
3974 3915 0
3975 3917 0
3976 3919 0
3977 3921 0
3978 3923 0
3979 3925 0
3980 3927 0
3981 3929 0
3982 3931 0
3983 3933 0
3984 3935 0
3985 3905 0
3986 3907 0
3987 3909 0
3988 3911 0
3989 3913 0
3990 3915 0
3991 3917 0
3992 3919 0
3993 3921 0
3994 3923 0
3995 3925 0
3996 3927 0
3997 3929 0
3998 3931 0
3999 3933 0
4000 3935 0
4001 3905 0
4002 3907 0
4003 3909 0
4004 3911 0
4005 3913 0
4006 3915 0
4007 3917 0
4008 3919 0
4009 3921 0
4010 3923 0
4011 3925 0
4012 3927 0
4013 3929 0
4014 3931 0
4015 3933 0
4016 3935 0
4017 3905 0
4018 3907 0
4019 3909 0
4020 3911 0
4021 3913 0
4022 3915 0
4023 3917 0
4024 3919 0
4025 3921 0
4026 3923 0
4027 3925 0
4028 3927 0
4029 3929 0
4030 3931 0
4031 3933 0
4032 3935 0
4033 3905 0
4034 3907 0
4035 3909 0
4036 3911 0
4037 3913 0
4038 3915 0
4039 3917 0
4040 3919 0
4041 3921 0
4042 3923 0
4043 3925 0
4044 3927 0
4045 3929 0
4046 3931 0
4047 3933 0
4048 3935 0
4049 3905 0
4050 3907 0
4051 3909 0
4052 3911 0
4053 3913 0
4054 3915 0
4055 3917 0
4056 3919 0
4057 3921 0
4058 3923 0
4059 3925 0
4060 3927 0
4061 3929 0
4062 3931 0
4063 3933 0
4064 3935 0
4065 3905 0
4066 3907 0
4067 3909 0
4068 3911 0
4069 3913 0
4070 3915 0
4071 3917 0
4072 3919 0
4073 3921 0
4074 3923 0
4075 3925 0
4076 3927 0
4077 3929 0
4078 3931 0
4079 3933 0
4080 3935 0
4081 3905 0
4082 3907 0
4083 3909 0
4084 3911 0
4085 3913 0
4086 3915 0
4087 3917 0
4088 3919 0
4089 3921 0
4090 3923 0
4091 3925 0
4092 3927 0
4093 3929 0
4094 3931 0
4095 3933 0
4096 3935 0
4097 3905 0
4098 3907 0
4099 3909 0
4100 3911 0
4101 3913 0
4102 3915 0
4103 3917 0
4104 3919 0
4105 3921 0
4106 3923 0
4107 3925 0
4108 3927 0
4109 3929 0
4110 3931 0
4111 3933 0
4112 3935 0
4113 3905 0
4114 3907 0
4115 3909 0
4116 3911 0
4117 3913 0
4118 3915 0
4119 3917 0
4120 3919 0
4121 3921 0
4122 3923 0
4123 3925 0
4124 3927 0
4125 3929 0
4126 3931 0
4127 3933 0
4128 3935 0
4129 3905 0
4130 3907 0
4131 3909 0
4132 3911 0
4133 3913 0
4134 3915 0
4135 3917 0
4136 3919 0
4137 3921 0
4138 3923 0
4139 3925 0
4140 3927 0
4141 3929 0
4142 3931 0
4143 3933 0
4144 3935 0
4145 3905 0
4146 3907 0
4147 3909 0
4148 3911 0
4149 3913 0
4150 3915 0
4151 3917 0
4152 3919 0
4153 3921 0
4154 3923 0
4155 3925 0
4156 3927 0
4157 3929 0
4158 3931 0
4159 3933 0
4160 3935 0
4161 3905 0
4162 3907 0
4163 3909 0
4164 3911 0
4165 3913 0
4166 3915 0
4167 3917 0
4168 3919 0
4169 3921 0
4170 3923 0
4171 3925 0
4172 3927 0
4173 3929 0
4174 3931 0
4175 3933 0
4176 3935 0
3906 -3649 0
3908 -3650 0
3910 -3651 0
3912 -3652 0
3914 -3653 0
3916 -3654 0
3918 -3655 0
3920 -3656 0
3922 -3657 0
3924 -3658 0
3926 -3659 0
3928 -3660 0
3930 -3661 0
3932 -3662 0
3934 -3663 0
3936 -3664 0
3937 -3665 0
3938 -3666 0
3939 -3667 0
3940 -3668 0
3941 -3669 0
3942 -3670 0
3943 -3671 0
3944 -3672 0
3945 -3673 0
3946 -3674 0
3947 -3675 0
3948 -3676 0
3949 -3677 0
3950 -3678 0
3951 -3679 0
3952 -3680 0
3953 -3681 0
3954 -3682 0
3955 -3683 0
3956 -3684 0
3957 -3685 0
3958 -3686 0
3959 -3687 0
3960 -3688 0
3961 -3689 0
3962 -3690 0
3963 -3691 0
3964 -3692 0
3965 -3693 0
3966 -3694 0
3967 -3695 0
3968 -3696 0
3969 -3697 0
3970 -3698 0
3971 -3699 0
3972 -3700 0
3973 -3701 0
3974 -3702 0
3975 -3703 0
3976 -3704 0
3977 -3705 0
3978 -3706 0
3979 -3707 0
3980 -3708 0
3981 -3709 0
3982 -3710 0
3983 -3711 0
3984 -3712 0
3985 -3713 0
3986 -3714 0
3987 -3715 0
3988 -3716 0
3989 -3717 0
3990 -3718 0
3991 -3719 0
3992 -3720 0
3993 -3721 0
3994 -3722 0
3995 -3723 0
3996 -3724 0
3997 -3725 0
3998 -3726 0
3999 -3727 0
4000 -3728 0
4001 -3729 0
4002 -3730 0
4003 -3731 0
4004 -3732 0
4005 -3733 0
4006 -3734 0
4007 -3735 0
4008 -3736 0
4009 -3737 0
4010 -3738 0
4011 -3739 0
4012 -3740 0
4013 -3741 0
4014 -3742 0
4015 -3743 0
4016 -3744 0
4017 -3745 0
4018 -3746 0
4019 -3747 0
4020 -3748 0
4021 -3749 0
4022 -3750 0
4023 -3751 0
4024 -3752 0
4025 -3753 0
4026 -3754 0
4027 -3755 0
4028 -3756 0
4029 -3757 0
4030 -3758 0
4031 -3759 0
4032 -3760 0
4033 -3761 0
4034 -3762 0
4035 -3763 0
4036 -3764 0
4037 -3765 0
4038 -3766 0
4039 -3767 0
4040 -3768 0
4041 -3769 0
4042 -3770 0
4043 -3771 0
4044 -3772 0
4045 -3773 0
4046 -3774 0
4047 -3775 0
4048 -3776 0
4049 -3777 0
4050 -3778 0
4051 -3779 0
4052 -3780 0
4053 -3781 0
4054 -3782 0
4055 -3783 0
4056 -3784 0
4057 -3785 0
4058 -3786 0
4059 -3787 0
4060 -3788 0
4061 -3789 0
4062 -3790 0
4063 -3791 0
4064 -3792 0
4065 -3793 0
4066 -3794 0
4067 -3795 0
4068 -3796 0
4069 -3797 0
4070 -3798 0
4071 -3799 0
4072 -3800 0
4073 -3801 0
4074 -3802 0
4075 -3803 0
4076 -3804 0
4077 -3805 0
4078 -3806 0
4079 -3807 0
4080 -3808 0
4081 -3809 0
4082 -3810 0
4083 -3811 0
4084 -3812 0
4085 -3813 0
4086 -3814 0
4087 -3815 0
4088 -3816 0
4089 -3817 0
4090 -3818 0
4091 -3819 0
4092 -3820 0
4093 -3821 0
4094 -3822 0
4095 -3823 0
4096 -3824 0
4097 -3825 0
4098 -3826 0
4099 -3827 0
4100 -3828 0
4101 -3829 0
4102 -3830 0
4103 -3831 0
4104 -3832 0
4105 -3833 0
4106 -3834 0
4107 -3835 0
4108 -3836 0
4109 -3837 0
4110 -3838 0
4111 -3839 0
4112 -3840 0
4113 -3841 0
4114 -3842 0
4115 -3843 0
4116 -3844 0
4117 -3845 0
4118 -3846 0
4119 -3847 0
4120 -3848 0
4121 -3849 0
4122 -3850 0
4123 -3851 0
4124 -3852 0
4125 -3853 0
4126 -3854 0
4127 -3855 0
4128 -3856 0
4129 -3857 0
4130 -3858 0
4131 -3859 0
4132 -3860 0
4133 -3861 0
4134 -3862 0
4135 -3863 0
4136 -3864 0
4137 -3865 0
4138 -3866 0
4139 -3867 0
4140 -3868 0
4141 -3869 0
4142 -3870 0
4143 -3871 0
4144 -3872 0
4145 -3873 0
4146 -3874 0
4147 -3875 0
4148 -3876 0
4149 -3877 0
4150 -3878 0
4151 -3879 0
4152 -3880 0
4153 -3881 0
4154 -3882 0
4155 -3883 0
4156 -3884 0
4157 -3885 0
4158 -3886 0
4159 -3887 0
4160 -3888 0
4161 -3889 0
4162 -3890 0
4163 -3891 0
4164 -3892 0
4165 -3893 0
4166 -3894 0
4167 -3895 0
4168 -3896 0
4169 -3897 0
4170 -3898 0
4171 -3899 0
4172 -3900 0
4173 -3901 0
4174 -3902 0
4175 -3903 0
4176 -3904 0
-1809 -4177 -4178 0
-1841 -4177 -4179 0
-1873 -4177 -4180 0
-1905 -4177 -4181 0
-1937 -4177 -4182 0
-1969 -4177 -4183 0
-2001 -4177 -4184 0
-2033 -4177 -4185 0
-2065 -4177 -4186 0
-2097 -4177 -4187 0
-2129 -4177 -4188 0
-2161 -4177 -4189 0
-2193 -4177 -4190 0
-2225 -4177 -4191 0
-2257 -4177 -4192 0
-2289 -4177 -4193 0
-1811 -4194 -4195 0
-1843 -4194 -4196 0
-1875 -4194 -4197 0
-1907 -4194 -4198 0
-1939 -4194 -4199 0
-1971 -4194 -4200 0
-2003 -4194 -4201 0
-2035 -4194 -4202 0
-2067 -4194 -4203 0
-2099 -4194 -4204 0
-2131 -4194 -4205 0
-2163 -4194 -4206 0
-2195 -4194 -4207 0
-2227 -4194 -4208 0
-2259 -4194 -4209 0
-2291 -4194 -4210 0
-1813 -4211 -4212 0
-1845 -4211 -4213 0
-1877 -4211 -4214 0
-1909 -4211 -4215 0
-1941 -4211 -4216 0
-1973 -4211 -4217 0
-2005 -4211 -4218 0
-2037 -4211 -4219 0
-2069 -4211 -4220 0
-2101 -4211 -4221 0
-2133 -4211 -4222 0
-2165 -4211 -4223 0
-2197 -4211 -4224 0
-2229 -4211 -4225 0
-2261 -4211 -4226 0
-2293 -4211 -4227 0
-1815 -4228 -4229 0
-1847 -4228 -4230 0
-1879 -4228 -4231 0
-1911 -4228 -4232 0
-1943 -4228 -4233 0
-1975 -4228 -4234 0
-2007 -4228 -4235 0
-2039 -4228 -4236 0
-2071 -4228 -4237 0
-2103 -4228 -4238 0
-2135 -4228 -4239 0
-2167 -4228 -4240 0
-2199 -4228 -4241 0
-2231 -4228 -4242 0
-2263 -4228 -4243 0
-2295 -4228 -4244 0
-1817 -4245 -4246 0
-1849 -4245 -4247 0
-1881 -4245 -4248 0
-1913 -4245 -4249 0
-1945 -4245 -4250 0
-1977 -4245 -4251 0
-2009 -4245 -4252 0
-2041 -4245 -4253 0
-2073 -4245 -4254 0
-2105 -4245 -4255 0
-2137 -4245 -4256 0
-2169 -4245 -4257 0
-2201 -4245 -4258 0
-2233 -4245 -4259 0
-2265 -4245 -4260 0
-2297 -4245 -4261 0
-1819 -4262 -4263 0
-1851 -4262 -4264 0
-1883 -4262 -4265 0
-1915 -4262 -4266 0
-1947 -4262 -4267 0
-1979 -4262 -4268 0
-2011 -4262 -4269 0
-2043 -4262 -4270 0
-2075 -4262 -4271 0
-2107 -4262 -4272 0
-2139 -4262 -4273 0
-2171 -4262 -4274 0
-2203 -4262 -4275 0
-2235 -4262 -4276 0
-2267 -4262 -4277 0
-2299 -4262 -4278 0
-1821 -4279 -4280 0
-1853 -4279 -4281 0
-1885 -4279 -4282 0
-1917 -4279 -4283 0
-1949 -4279 -4284 0
-1981 -4279 -4285 0
-2013 -4279 -4286 0
-2045 -4279 -4287 0
-2077 -4279 -4288 0
-2109 -4279 -4289 0
-2141 -4279 -4290 0
-2173 -4279 -4291 0
-2205 -4279 -4292 0
-2237 -4279 -4293 0
-2269 -4279 -4294 0
-2301 -4279 -4295 0
-1823 -4296 -4297 0
-1855 -4296 -4298 0
-1887 -4296 -4299 0
-1919 -4296 -4300 0
-1951 -4296 -4301 0
-1983 -4296 -4302 0
-2015 -4296 -4303 0
-2047 -4296 -4304 0
-2079 -4296 -4305 0
-2111 -4296 -4306 0
-2143 -4296 -4307 0
-2175 -4296 -4308 0
-2207 -4296 -4309 0
-2239 -4296 -4310 0
-2271 -4296 -4311 0
-2303 -4296 -4312 0
-1825 -4313 -4314 0
-1857 -4313 -4315 0
-1889 -4313 -4316 0
-1921 -4313 -4317 0
-1953 -4313 -4318 0
-1985 -4313 -4319 0
-2017 -4313 -4320 0
-2049 -4313 -4321 0
-2081 -4313 -4322 0
-2113 -4313 -4323 0
-2145 -4313 -4324 0
-2177 -4313 -4325 0
-2209 -4313 -4326 0
-2241 -4313 -4327 0
-2273 -4313 -4328 0
-2305 -4313 -4329 0
-1827 -4330 -4331 0
-1859 -4330 -4332 0
-1891 -4330 -4333 0
-1923 -4330 -4334 0
-1955 -4330 -4335 0
-1987 -4330 -4336 0
-2019 -4330 -4337 0
-2051 -4330 -4338 0
-2083 -4330 -4339 0
-2115 -4330 -4340 0
-2147 -4330 -4341 0
-2179 -4330 -4342 0
-2211 -4330 -4343 0
-2243 -4330 -4344 0
-2275 -4330 -4345 0
-2307 -4330 -4346 0
-1829 -4347 -4348 0
-1861 -4347 -4349 0
-1893 -4347 -4350 0
-1925 -4347 -4351 0
-1957 -4347 -4352 0
-1989 -4347 -4353 0
-2021 -4347 -4354 0
-2053 -4347 -4355 0
-2085 -4347 -4356 0
-2117 -4347 -4357 0
-2149 -4347 -4358 0
-2181 -4347 -4359 0
-2213 -4347 -4360 0
-2245 -4347 -4361 0
-2277 -4347 -4362 0
-2309 -4347 -4363 0
-1831 -4364 -4365 0
-1863 -4364 -4366 0
-1895 -4364 -4367 0
-1927 -4364 -4368 0
-1959 -4364 -4369 0
-1991 -4364 -4370 0
-2023 -4364 -4371 0
-2055 -4364 -4372 0
-2087 -4364 -4373 0
-2119 -4364 -4374 0
-2151 -4364 -4375 0
-2183 -4364 -4376 0
-2215 -4364 -4377 0
-2247 -4364 -4378 0
-2279 -4364 -4379 0
-2311 -4364 -4380 0
-1833 -4381 -4382 0
-1865 -4381 -4383 0
-1897 -4381 -4384 0
-1929 -4381 -4385 0
-1961 -4381 -4386 0
-1993 -4381 -4387 0
-2025 -4381 -4388 0
-2057 -4381 -4389 0
-2089 -4381 -4390 0
-2121 -4381 -4391 0
-2153 -4381 -4392 0
-2185 -4381 -4393 0
-2217 -4381 -4394 0
-2249 -4381 -4395 0
-2281 -4381 -4396 0
-2313 -4381 -4397 0
-1835 -4398 -4399 0
-1867 -4398 -4400 0
-1899 -4398 -4401 0
-1931 -4398 -4402 0
-1963 -4398 -4403 0
-1995 -4398 -4404 0
-2027 -4398 -4405 0
-2059 -4398 -4406 0
-2091 -4398 -4407 0
-2123 -4398 -4408 0
-2155 -4398 -4409 0
-2187 -4398 -4410 0
-2219 -4398 -4411 0
-2251 -4398 -4412 0
-2283 -4398 -4413 0
-2315 -4398 -4414 0
-1837 -4415 -4416 0
-1869 -4415 -4417 0
-1901 -4415 -4418 0
-1933 -4415 -4419 0
-1965 -4415 -4420 0
-1997 -4415 -4421 0
-2029 -4415 -4422 0
-2061 -4415 -4423 0
-2093 -4415 -4424 0
-2125 -4415 -4425 0
-2157 -4415 -4426 0
-2189 -4415 -4427 0
-2221 -4415 -4428 0
-2253 -4415 -4429 0
-2285 -4415 -4430 0
-2317 -4415 -4431 0
-1839 -4432 -4433 0
-1871 -4432 -4434 0
-1903 -4432 -4435 0
-1935 -4432 -4436 0
-1967 -4432 -4437 0
-1999 -4432 -4438 0
-2031 -4432 -4439 0
-2063 -4432 -4440 0
-2095 -4432 -4441 0
-2127 -4432 -4442 0
-2159 -4432 -4443 0
-2191 -4432 -4444 0
-2223 -4432 -4445 0
-2255 -4432 -4446 0
-2287 -4432 -4447 0
-2319 -4432 -4448 0
4178 1809 0
4179 1841 0
4180 1873 0
4181 1905 0
4182 1937 0
4183 1969 0
4184 2001 0
4185 2033 0
4186 2065 0
4187 2097 0
4188 2129 0
4189 2161 0
4190 2193 0
4191 2225 0
4192 2257 0
4193 2289 0
4195 1811 0
4196 1843 0
4197 1875 0
4198 1907 0
4199 1939 0
4200 1971 0
4201 2003 0
4202 2035 0
4203 2067 0
4204 2099 0
4205 2131 0
4206 2163 0
4207 2195 0
4208 2227 0
4209 2259 0
4210 2291 0
4212 1813 0
4213 1845 0
4214 1877 0
4215 1909 0
4216 1941 0
4217 1973 0
4218 2005 0
4219 2037 0
4220 2069 0
4221 2101 0
4222 2133 0
4223 2165 0
4224 2197 0
4225 2229 0
4226 2261 0
4227 2293 0
4229 1815 0
4230 1847 0
4231 1879 0
4232 1911 0
4233 1943 0
4234 1975 0
4235 2007 0
4236 2039 0
4237 2071 0
4238 2103 0
4239 2135 0
4240 2167 0
4241 2199 0
4242 2231 0
4243 2263 0
4244 2295 0
4246 1817 0
4247 1849 0
4248 1881 0
4249 1913 0
4250 1945 0
4251 1977 0
4252 2009 0
4253 2041 0
4254 2073 0
4255 2105 0
4256 2137 0
4257 2169 0
4258 2201 0
4259 2233 0
4260 2265 0
4261 2297 0
4263 1819 0
4264 1851 0
4265 1883 0
4266 1915 0
4267 1947 0
4268 1979 0
4269 2011 0
4270 2043 0
4271 2075 0
4272 2107 0
4273 2139 0
4274 2171 0
4275 2203 0
4276 2235 0
4277 2267 0
4278 2299 0
4280 1821 0
4281 1853 0
4282 1885 0
4283 1917 0
4284 1949 0
4285 1981 0
4286 2013 0
4287 2045 0
4288 2077 0
4289 2109 0
4290 2141 0
4291 2173 0
4292 2205 0
4293 2237 0
4294 2269 0
4295 2301 0
4297 1823 0
4298 1855 0
4299 1887 0
4300 1919 0
4301 1951 0
4302 1983 0
4303 2015 0
4304 2047 0
4305 2079 0
4306 2111 0
4307 2143 0
4308 2175 0
4309 2207 0
4310 2239 0
4311 2271 0
4312 2303 0
4314 1825 0
4315 1857 0
4316 1889 0
4317 1921 0
4318 1953 0
4319 1985 0
4320 2017 0
4321 2049 0
4322 2081 0
4323 2113 0
4324 2145 0
4325 2177 0
4326 2209 0
4327 2241 0
4328 2273 0
4329 2305 0
4331 1827 0
4332 1859 0
4333 1891 0
4334 1923 0
4335 1955 0
4336 1987 0
4337 2019 0
4338 2051 0
4339 2083 0
4340 2115 0
4341 2147 0
4342 2179 0
4343 2211 0
4344 2243 0
4345 2275 0
4346 2307 0
4348 1829 0
4349 1861 0
4350 1893 0
4351 1925 0
4352 1957 0
4353 1989 0
4354 2021 0
4355 2053 0
4356 2085 0
4357 2117 0
4358 2149 0
4359 2181 0
4360 2213 0
4361 2245 0
4362 2277 0
4363 2309 0
4365 1831 0
4366 1863 0
4367 1895 0
4368 1927 0
4369 1959 0
4370 1991 0
4371 2023 0
4372 2055 0
4373 2087 0
4374 2119 0
4375 2151 0
4376 2183 0
4377 2215 0
4378 2247 0
4379 2279 0
4380 2311 0
4382 1833 0
4383 1865 0
4384 1897 0
4385 1929 0
4386 1961 0
4387 1993 0
4388 2025 0
4389 2057 0
4390 2089 0
4391 2121 0
4392 2153 0
4393 2185 0
4394 2217 0
4395 2249 0
4396 2281 0
4397 2313 0
4399 1835 0
4400 1867 0
4401 1899 0
4402 1931 0
4403 1963 0
4404 1995 0
4405 2027 0
4406 2059 0
4407 2091 0
4408 2123 0
4409 2155 0
4410 2187 0
4411 2219 0
4412 2251 0
4413 2283 0
4414 2315 0
4416 1837 0
4417 1869 0
4418 1901 0
4419 1933 0
4420 1965 0
4421 1997 0
4422 2029 0
4423 2061 0
4424 2093 0
4425 2125 0
4426 2157 0
4427 2189 0
4428 2221 0
4429 2253 0
4430 2285 0
4431 2317 0
4433 1839 0
4434 1871 0
4435 1903 0
4436 1935 0
4437 1967 0
4438 1999 0
4439 2031 0
4440 2063 0
4441 2095 0
4442 2127 0
4443 2159 0
4444 2191 0
4445 2223 0
4446 2255 0
4447 2287 0
4448 2319 0
4178 4177 0
4179 4177 0
4180 4177 0
4181 4177 0
4182 4177 0
4183 4177 0
4184 4177 0
4185 4177 0
4186 4177 0
4187 4177 0
4188 4177 0
4189 4177 0
4190 4177 0
4191 4177 0
4192 4177 0
4193 4177 0
4195 4194 0
4196 4194 0
4197 4194 0
4198 4194 0
4199 4194 0
4200 4194 0
4201 4194 0
4202 4194 0
4203 4194 0
4204 4194 0
4205 4194 0
4206 4194 0
4207 4194 0
4208 4194 0
4209 4194 0
4210 4194 0
4212 4211 0
4213 4211 0
4214 4211 0
4215 4211 0
4216 4211 0
4217 4211 0
4218 4211 0
4219 4211 0
4220 4211 0
4221 4211 0
4222 4211 0
4223 4211 0
4224 4211 0
4225 4211 0
4226 4211 0
4227 4211 0
4229 4228 0
4230 4228 0
4231 4228 0
4232 4228 0
4233 4228 0
4234 4228 0
4235 4228 0
4236 4228 0
4237 4228 0
4238 4228 0
4239 4228 0
4240 4228 0
4241 4228 0
4242 4228 0
4243 4228 0
4244 4228 0
4246 4245 0
4247 4245 0
4248 4245 0
4249 4245 0
4250 4245 0
4251 4245 0
4252 4245 0
4253 4245 0
4254 4245 0
4255 4245 0
4256 4245 0
4257 4245 0
4258 4245 0
4259 4245 0
4260 4245 0
4261 4245 0
4263 4262 0
4264 4262 0
4265 4262 0
4266 4262 0
4267 4262 0
4268 4262 0
4269 4262 0
4270 4262 0
4271 4262 0
4272 4262 0
4273 4262 0
4274 4262 0
4275 4262 0
4276 4262 0
4277 4262 0
4278 4262 0
4280 4279 0
4281 4279 0
4282 4279 0
4283 4279 0
4284 4279 0
4285 4279 0
4286 4279 0
4287 4279 0
4288 4279 0
4289 4279 0
4290 4279 0
4291 4279 0
4292 4279 0
4293 4279 0
4294 4279 0
4295 4279 0
4297 4296 0
4298 4296 0
4299 4296 0
4300 4296 0
4301 4296 0
4302 4296 0
4303 4296 0
4304 4296 0
4305 4296 0
4306 4296 0
4307 4296 0
4308 4296 0
4309 4296 0
4310 4296 0
4311 4296 0
4312 4296 0
4314 4313 0
4315 4313 0
4316 4313 0
4317 4313 0
4318 4313 0
4319 4313 0
4320 4313 0
4321 4313 0
4322 4313 0
4323 4313 0
4324 4313 0
4325 4313 0
4326 4313 0
4327 4313 0
4328 4313 0
4329 4313 0
4331 4330 0
4332 4330 0
4333 4330 0
4334 4330 0
4335 4330 0
4336 4330 0
4337 4330 0
4338 4330 0
4339 4330 0
4340 4330 0
4341 4330 0
4342 4330 0
4343 4330 0
4344 4330 0
4345 4330 0
4346 4330 0
4348 4347 0
4349 4347 0
4350 4347 0
4351 4347 0
4352 4347 0
4353 4347 0
4354 4347 0
4355 4347 0
4356 4347 0
4357 4347 0
4358 4347 0
4359 4347 0
4360 4347 0
4361 4347 0
4362 4347 0
4363 4347 0
4365 4364 0
4366 4364 0
4367 4364 0
4368 4364 0
4369 4364 0
4370 4364 0
4371 4364 0
4372 4364 0
4373 4364 0
4374 4364 0
4375 4364 0
4376 4364 0
4377 4364 0
4378 4364 0
4379 4364 0
4380 4364 0
4382 4381 0
4383 4381 0
4384 4381 0
4385 4381 0
4386 4381 0
4387 4381 0
4388 4381 0
4389 4381 0
4390 4381 0
4391 4381 0
4392 4381 0
4393 4381 0
4394 4381 0
4395 4381 0
4396 4381 0
4397 4381 0
4399 4398 0
4400 4398 0
4401 4398 0
4402 4398 0
4403 4398 0
4404 4398 0
4405 4398 0
4406 4398 0
4407 4398 0
4408 4398 0
4409 4398 0
4410 4398 0
4411 4398 0
4412 4398 0
4413 4398 0
4414 4398 0
4416 4415 0
4417 4415 0
4418 4415 0
4419 4415 0
4420 4415 0
4421 4415 0
4422 4415 0
4423 4415 0
4424 4415 0
4425 4415 0
4426 4415 0
4427 4415 0
4428 4415 0
4429 4415 0
4430 4415 0
4431 4415 0
4433 4432 0
4434 4432 0
4435 4432 0
4436 4432 0
4437 4432 0
4438 4432 0
4439 4432 0
4440 4432 0
4441 4432 0
4442 4432 0
4443 4432 0
4444 4432 0
4445 4432 0
4446 4432 0
4447 4432 0
4448 4432 0
-4177 -4178 4449 0
-4194 -4179 4450 0
-4211 -4180 4451 0
-4228 -4181 4452 0
-4245 -4182 4453 0
-4262 -4183 4454 0
-4279 -4184 4455 0
-4296 -4185 4456 0
-4313 -4186 4457 0
-4330 -4187 4458 0
-4347 -4188 4459 0
-4364 -4189 4460 0
-4381 -4190 4461 0
-4398 -4191 4462 0
-4415 -4192 4463 0
-4432 -4193 4464 0
-4177 -4195 4465 0
-4194 -4196 4466 0
-4211 -4197 4467 0
-4228 -4198 4468 0
-4245 -4199 4469 0
-4262 -4200 4470 0
-4279 -4201 4471 0
-4296 -4202 4472 0
-4313 -4203 4473 0
-4330 -4204 4474 0
-4347 -4205 4475 0
-4364 -4206 4476 0
-4381 -4207 4477 0
-4398 -4208 4478 0
-4415 -4209 4479 0
-4432 -4210 4480 0
-4177 -4212 4481 0
-4194 -4213 4482 0
-4211 -4214 4483 0
-4228 -4215 4484 0
-4245 -4216 4485 0
-4262 -4217 4486 0
-4279 -4218 4487 0
-4296 -4219 4488 0
-4313 -4220 4489 0
-4330 -4221 4490 0
-4347 -4222 4491 0
-4364 -4223 4492 0
-4381 -4224 4493 0
-4398 -4225 4494 0
-4415 -4226 4495 0
-4432 -4227 4496 0
-4177 -4229 4497 0
-4194 -4230 4498 0
-4211 -4231 4499 0
-4228 -4232 4500 0
-4245 -4233 4501 0
-4262 -4234 4502 0
-4279 -4235 4503 0
-4296 -4236 4504 0
-4313 -4237 4505 0
-4330 -4238 4506 0
-4347 -4239 4507 0
-4364 -4240 4508 0
-4381 -4241 4509 0
-4398 -4242 4510 0
-4415 -4243 4511 0
-4432 -4244 4512 0
-4177 -4246 4513 0
-4194 -4247 4514 0
-4211 -4248 4515 0
-4228 -4249 4516 0
-4245 -4250 4517 0
-4262 -4251 4518 0
-4279 -4252 4519 0
-4296 -4253 4520 0
-4313 -4254 4521 0
-4330 -4255 4522 0
-4347 -4256 4523 0
-4364 -4257 4524 0
-4381 -4258 4525 0
-4398 -4259 4526 0
-4415 -4260 4527 0
-4432 -4261 4528 0
-4177 -4263 4529 0
-4194 -4264 4530 0
-4211 -4265 4531 0
-4228 -4266 4532 0
-4245 -4267 4533 0
-4262 -4268 4534 0
-4279 -4269 4535 0
-4296 -4270 4536 0
-4313 -4271 4537 0
-4330 -4272 4538 0
-4347 -4273 4539 0
-4364 -4274 4540 0
-4381 -4275 4541 0
-4398 -4276 4542 0
-4415 -4277 4543 0
-4432 -4278 4544 0
-4177 -4280 4545 0
-4194 -4281 4546 0
-4211 -4282 4547 0
-4228 -4283 4548 0
-4245 -4284 4549 0
-4262 -4285 4550 0
-4279 -4286 4551 0
-4296 -4287 4552 0
-4313 -4288 4553 0
-4330 -4289 4554 0
-4347 -4290 4555 0
-4364 -4291 4556 0
-4381 -4292 4557 0
-4398 -4293 4558 0
-4415 -4294 4559 0
-4432 -4295 4560 0
-4177 -4297 4561 0
-4194 -4298 4562 0
-4211 -4299 4563 0
-4228 -4300 4564 0
-4245 -4301 4565 0
-4262 -4302 4566 0
-4279 -4303 4567 0
-4296 -4304 4568 0
-4313 -4305 4569 0
-4330 -4306 4570 0
-4347 -4307 4571 0
-4364 -4308 4572 0
-4381 -4309 4573 0
-4398 -4310 4574 0
-4415 -4311 4575 0
-4432 -4312 4576 0
-4177 -4314 4577 0
-4194 -4315 4578 0
-4211 -4316 4579 0
-4228 -4317 4580 0
-4245 -4318 4581 0
-4262 -4319 4582 0
-4279 -4320 4583 0
-4296 -4321 4584 0
-4313 -4322 4585 0
-4330 -4323 4586 0
-4347 -4324 4587 0
-4364 -4325 4588 0
-4381 -4326 4589 0
-4398 -4327 4590 0
-4415 -4328 4591 0
-4432 -4329 4592 0
-4177 -4331 4593 0
-4194 -4332 4594 0
-4211 -4333 4595 0
-4228 -4334 4596 0
-4245 -4335 4597 0
-4262 -4336 4598 0
-4279 -4337 4599 0
-4296 -4338 4600 0
-4313 -4339 4601 0
-4330 -4340 4602 0
-4347 -4341 4603 0
-4364 -4342 4604 0
-4381 -4343 4605 0
-4398 -4344 4606 0
-4415 -4345 4607 0
-4432 -4346 4608 0
-4177 -4348 4609 0
-4194 -4349 4610 0
-4211 -4350 4611 0
-4228 -4351 4612 0
-4245 -4352 4613 0
-4262 -4353 4614 0
-4279 -4354 4615 0
-4296 -4355 4616 0
-4313 -4356 4617 0
-4330 -4357 4618 0
-4347 -4358 4619 0
-4364 -4359 4620 0
-4381 -4360 4621 0
-4398 -4361 4622 0
-4415 -4362 4623 0
-4432 -4363 4624 0
-4177 -4365 4625 0
-4194 -4366 4626 0
-4211 -4367 4627 0
-4228 -4368 4628 0
-4245 -4369 4629 0
-4262 -4370 4630 0
-4279 -4371 4631 0
-4296 -4372 4632 0
-4313 -4373 4633 0
-4330 -4374 4634 0
-4347 -4375 4635 0
-4364 -4376 4636 0
-4381 -4377 4637 0
-4398 -4378 4638 0
-4415 -4379 4639 0
-4432 -4380 4640 0
-4177 -4382 4641 0
-4194 -4383 4642 0
-4211 -4384 4643 0
-4228 -4385 4644 0
-4245 -4386 4645 0
-4262 -4387 4646 0
-4279 -4388 4647 0
-4296 -4389 4648 0
-4313 -4390 4649 0
-4330 -4391 4650 0
-4347 -4392 4651 0
-4364 -4393 4652 0
-4381 -4394 4653 0
-4398 -4395 4654 0
-4415 -4396 4655 0
-4432 -4397 4656 0
-4177 -4399 4657 0
-4194 -4400 4658 0
-4211 -4401 4659 0
-4228 -4402 4660 0
-4245 -4403 4661 0
-4262 -4404 4662 0
-4279 -4405 4663 0
-4296 -4406 4664 0
-4313 -4407 4665 0
-4330 -4408 4666 0
-4347 -4409 4667 0
-4364 -4410 4668 0
-4381 -4411 4669 0
-4398 -4412 4670 0
-4415 -4413 4671 0
-4432 -4414 4672 0
-4177 -4416 4673 0
-4194 -4417 4674 0
-4211 -4418 4675 0
-4228 -4419 4676 0
-4245 -4420 4677 0
-4262 -4421 4678 0
-4279 -4422 4679 0
-4296 -4423 4680 0
-4313 -4424 4681 0
-4330 -4425 4682 0
-4347 -4426 4683 0
-4364 -4427 4684 0
-4381 -4428 4685 0
-4398 -4429 4686 0
-4415 -4430 4687 0
-4432 -4431 4688 0
-4177 -4433 4689 0
-4194 -4434 4690 0
-4211 -4435 4691 0
-4228 -4436 4692 0
-4245 -4437 4693 0
-4262 -4438 4694 0
-4279 -4439 4695 0
-4296 -4440 4696 0
-4313 -4441 4697 0
-4330 -4442 4698 0
-4347 -4443 4699 0
-4364 -4444 4700 0
-4381 -4445 4701 0
-4398 -4446 4702 0
-4415 -4447 4703 0
-4432 -4448 4704 0
-4449 4177 0
-4450 4194 0
-4451 4211 0
-4452 4228 0
-4453 4245 0
-4454 4262 0
-4455 4279 0
-4456 4296 0
-4457 4313 0
-4458 4330 0
-4459 4347 0
-4460 4364 0
-4461 4381 0
-4462 4398 0
-4463 4415 0
-4464 4432 0
-4465 4177 0
-4466 4194 0
-4467 4211 0
-4468 4228 0
-4469 4245 0
-4470 4262 0
-4471 4279 0
-4472 4296 0
-4473 4313 0
-4474 4330 0
-4475 4347 0
-4476 4364 0
-4477 4381 0
-4478 4398 0
-4479 4415 0
-4480 4432 0
-4481 4177 0
-4482 4194 0
-4483 4211 0
-4484 4228 0
-4485 4245 0
-4486 4262 0
-4487 4279 0
-4488 4296 0
-4489 4313 0
-4490 4330 0
-4491 4347 0
-4492 4364 0
-4493 4381 0
-4494 4398 0
-4495 4415 0
-4496 4432 0
-4497 4177 0
-4498 4194 0
-4499 4211 0
-4500 4228 0
-4501 4245 0
-4502 4262 0
-4503 4279 0
-4504 4296 0
-4505 4313 0
-4506 4330 0
-4507 4347 0
-4508 4364 0
-4509 4381 0
-4510 4398 0
-4511 4415 0
-4512 4432 0
-4513 4177 0
-4514 4194 0
-4515 4211 0
-4516 4228 0
-4517 4245 0
-4518 4262 0
-4519 4279 0
-4520 4296 0
-4521 4313 0
-4522 4330 0
-4523 4347 0
-4524 4364 0
-4525 4381 0
-4526 4398 0
-4527 4415 0
-4528 4432 0
-4529 4177 0
-4530 4194 0
-4531 4211 0
-4532 4228 0
-4533 4245 0
-4534 4262 0
-4535 4279 0
-4536 4296 0
-4537 4313 0
-4538 4330 0
-4539 4347 0
-4540 4364 0
-4541 4381 0
-4542 4398 0
-4543 4415 0
-4544 4432 0
-4545 4177 0
-4546 4194 0
-4547 4211 0
-4548 4228 0
-4549 4245 0
-4550 4262 0
-4551 4279 0
-4552 4296 0
-4553 4313 0
-4554 4330 0
-4555 4347 0
-4556 4364 0
-4557 4381 0
-4558 4398 0
-4559 4415 0
-4560 4432 0
-4561 4177 0
-4562 4194 0
-4563 4211 0
-4564 4228 0
-4565 4245 0
-4566 4262 0
-4567 4279 0
-4568 4296 0
-4569 4313 0
-4570 4330 0
-4571 4347 0
-4572 4364 0
-4573 4381 0
-4574 4398 0
-4575 4415 0
-4576 4432 0
-4577 4177 0
-4578 4194 0
-4579 4211 0
-4580 4228 0
-4581 4245 0
-4582 4262 0
-4583 4279 0
-4584 4296 0
-4585 4313 0
-4586 4330 0
-4587 4347 0
-4588 4364 0
-4589 4381 0
-4590 4398 0
-4591 4415 0
-4592 4432 0
-4593 4177 0
-4594 4194 0
-4595 4211 0
-4596 4228 0
-4597 4245 0
-4598 4262 0
-4599 4279 0
-4600 4296 0
-4601 4313 0
-4602 4330 0
-4603 4347 0
-4604 4364 0
-4605 4381 0
-4606 4398 0
-4607 4415 0
-4608 4432 0
-4609 4177 0
-4610 4194 0
-4611 4211 0
-4612 4228 0
-4613 4245 0
-4614 4262 0
-4615 4279 0
-4616 4296 0
-4617 4313 0
-4618 4330 0
-4619 4347 0
-4620 4364 0
-4621 4381 0
-4622 4398 0
-4623 4415 0
-4624 4432 0
-4625 4177 0
-4626 4194 0
-4627 4211 0
-4628 4228 0
-4629 4245 0
-4630 4262 0
-4631 4279 0
-4632 4296 0
-4633 4313 0
-4634 4330 0
-4635 4347 0
-4636 4364 0
-4637 4381 0
-4638 4398 0
-4639 4415 0
-4640 4432 0
-4641 4177 0
-4642 4194 0
-4643 4211 0
-4644 4228 0
-4645 4245 0
-4646 4262 0
-4647 4279 0
-4648 4296 0
-4649 4313 0
-4650 4330 0
-4651 4347 0
-4652 4364 0
-4653 4381 0
-4654 4398 0
-4655 4415 0
-4656 4432 0
-4657 4177 0
-4658 4194 0
-4659 4211 0
-4660 4228 0
-4661 4245 0
-4662 4262 0
-4663 4279 0
-4664 4296 0
-4665 4313 0
-4666 4330 0
-4667 4347 0
-4668 4364 0
-4669 4381 0
-4670 4398 0
-4671 4415 0
-4672 4432 0
-4673 4177 0
-4674 4194 0
-4675 4211 0
-4676 4228 0
-4677 4245 0
-4678 4262 0
-4679 4279 0
-4680 4296 0
-4681 4313 0
-4682 4330 0
-4683 4347 0
-4684 4364 0
-4685 4381 0
-4686 4398 0
-4687 4415 0
-4688 4432 0
-4689 4177 0
-4690 4194 0
-4691 4211 0
-4692 4228 0
-4693 4245 0
-4694 4262 0
-4695 4279 0
-4696 4296 0
-4697 4313 0
-4698 4330 0
-4699 4347 0
-4700 4364 0
-4701 4381 0
-4702 4398 0
-4703 4415 0
-4704 4432 0
-4449 4178 0
-4450 4179 0
-4451 4180 0
-4452 4181 0
-4453 4182 0
-4454 4183 0
-4455 4184 0
-4456 4185 0
-4457 4186 0
-4458 4187 0
-4459 4188 0
-4460 4189 0
-4461 4190 0
-4462 4191 0
-4463 4192 0
-4464 4193 0
-4465 4195 0
-4466 4196 0
-4467 4197 0
-4468 4198 0
-4469 4199 0
-4470 4200 0
-4471 4201 0
-4472 4202 0
-4473 4203 0
-4474 4204 0
-4475 4205 0
-4476 4206 0
-4477 4207 0
-4478 4208 0
-4479 4209 0
-4480 4210 0
-4481 4212 0
-4482 4213 0
-4483 4214 0
-4484 4215 0
-4485 4216 0
-4486 4217 0
-4487 4218 0
-4488 4219 0
-4489 4220 0
-4490 4221 0
-4491 4222 0
-4492 4223 0
-4493 4224 0
-4494 4225 0
-4495 4226 0
-4496 4227 0
-4497 4229 0
-4498 4230 0
-4499 4231 0
-4500 4232 0
-4501 4233 0
-4502 4234 0
-4503 4235 0
-4504 4236 0
-4505 4237 0
-4506 4238 0
-4507 4239 0
-4508 4240 0
-4509 4241 0
-4510 4242 0
-4511 4243 0
-4512 4244 0
-4513 4246 0
-4514 4247 0
-4515 4248 0
-4516 4249 0
-4517 4250 0
-4518 4251 0
-4519 4252 0
-4520 4253 0
-4521 4254 0
-4522 4255 0
-4523 4256 0
-4524 4257 0
-4525 4258 0
-4526 4259 0
-4527 4260 0
-4528 4261 0
-4529 4263 0
-4530 4264 0
-4531 4265 0
-4532 4266 0
-4533 4267 0
-4534 4268 0
-4535 4269 0
-4536 4270 0
-4537 4271 0
-4538 4272 0
-4539 4273 0
-4540 4274 0
-4541 4275 0
-4542 4276 0
-4543 4277 0
-4544 4278 0
-4545 4280 0
-4546 4281 0
-4547 4282 0
-4548 4283 0
-4549 4284 0
-4550 4285 0
-4551 4286 0
-4552 4287 0
-4553 4288 0
-4554 4289 0
-4555 4290 0
-4556 4291 0
-4557 4292 0
-4558 4293 0
-4559 4294 0
-4560 4295 0
-4561 4297 0
-4562 4298 0
-4563 4299 0
-4564 4300 0
-4565 4301 0
-4566 4302 0
-4567 4303 0
-4568 4304 0
-4569 4305 0
-4570 4306 0
-4571 4307 0
-4572 4308 0
-4573 4309 0
-4574 4310 0
-4575 4311 0
-4576 4312 0
-4577 4314 0
-4578 4315 0
-4579 4316 0
-4580 4317 0
-4581 4318 0
-4582 4319 0
-4583 4320 0
-4584 4321 0
-4585 4322 0
-4586 4323 0
-4587 4324 0
-4588 4325 0
-4589 4326 0
-4590 4327 0
-4591 4328 0
-4592 4329 0
-4593 4331 0
-4594 4332 0
-4595 4333 0
-4596 4334 0
-4597 4335 0
-4598 4336 0
-4599 4337 0
-4600 4338 0
-4601 4339 0
-4602 4340 0
-4603 4341 0
-4604 4342 0
-4605 4343 0
-4606 4344 0
-4607 4345 0
-4608 4346 0
-4609 4348 0
-4610 4349 0
-4611 4350 0
-4612 4351 0
-4613 4352 0
-4614 4353 0
-4615 4354 0
-4616 4355 0
-4617 4356 0
-4618 4357 0
-4619 4358 0
-4620 4359 0
-4621 4360 0
-4622 4361 0
-4623 4362 0
-4624 4363 0
-4625 4365 0
-4626 4366 0
-4627 4367 0
-4628 4368 0
-4629 4369 0
-4630 4370 0
-4631 4371 0
-4632 4372 0
-4633 4373 0
-4634 4374 0
-4635 4375 0
-4636 4376 0
-4637 4377 0
-4638 4378 0
-4639 4379 0
-4640 4380 0
-4641 4382 0
-4642 4383 0
-4643 4384 0
-4644 4385 0
-4645 4386 0
-4646 4387 0
-4647 4388 0
-4648 4389 0
-4649 4390 0
-4650 4391 0
-4651 4392 0
-4652 4393 0
-4653 4394 0
-4654 4395 0
-4655 4396 0
-4656 4397 0
-4657 4399 0
-4658 4400 0
-4659 4401 0
-4660 4402 0
-4661 4403 0
-4662 4404 0
-4663 4405 0
-4664 4406 0
-4665 4407 0
-4666 4408 0
-4667 4409 0
-4668 4410 0
-4669 4411 0
-4670 4412 0
-4671 4413 0
-4672 4414 0
-4673 4416 0
-4674 4417 0
-4675 4418 0
-4676 4419 0
-4677 4420 0
-4678 4421 0
-4679 4422 0
-4680 4423 0
-4681 4424 0
-4682 4425 0
-4683 4426 0
-4684 4427 0
-4685 4428 0
-4686 4429 0
-4687 4430 0
-4688 4431 0
-4689 4433 0
-4690 4434 0
-4691 4435 0
-4692 4436 0
-4693 4437 0
-4694 4438 0
-4695 4439 0
-4696 4440 0
-4697 4441 0
-4698 4442 0
-4699 4443 0
-4700 4444 0
-4701 4445 0
-4702 4446 0
-4703 4447 0
-4704 4448 0
-4705 4449 -4706 0
-4707 4450 -4708 0
-4709 4451 -4710 0
-4711 4452 -4712 0
-4713 4453 -4714 0
-4715 4454 -4716 0
-4717 4455 -4718 0
-4719 4456 -4720 0
-4721 4457 -4722 0
-4723 4458 -4724 0
-4725 4459 -4726 0
-4727 4460 -4728 0
-4729 4461 -4730 0
-4731 4462 -4732 0
-4733 4463 -4734 0
-4735 4464 -4736 0
-4705 4465 -4737 0
-4707 4466 -4738 0
-4709 4467 -4739 0
-4711 4468 -4740 0
-4713 4469 -4741 0
-4715 4470 -4742 0
-4717 4471 -4743 0
-4719 4472 -4744 0
-4721 4473 -4745 0
-4723 4474 -4746 0
-4725 4475 -4747 0
-4727 4476 -4748 0
-4729 4477 -4749 0
-4731 4478 -4750 0
-4733 4479 -4751 0
-4735 4480 -4752 0
-4705 4481 -4753 0
-4707 4482 -4754 0
-4709 4483 -4755 0
-4711 4484 -4756 0
-4713 4485 -4757 0
-4715 4486 -4758 0
-4717 4487 -4759 0
-4719 4488 -4760 0
-4721 4489 -4761 0
-4723 4490 -4762 0
-4725 4491 -4763 0
-4727 4492 -4764 0
-4729 4493 -4765 0
-4731 4494 -4766 0
-4733 4495 -4767 0
-4735 4496 -4768 0
-4705 4497 -4769 0
-4707 4498 -4770 0
-4709 4499 -4771 0
-4711 4500 -4772 0
-4713 4501 -4773 0
-4715 4502 -4774 0
-4717 4503 -4775 0
-4719 4504 -4776 0
-4721 4505 -4777 0
-4723 4506 -4778 0
-4725 4507 -4779 0
-4727 4508 -4780 0
-4729 4509 -4781 0
-4731 4510 -4782 0
-4733 4511 -4783 0
-4735 4512 -4784 0
-4705 4513 -4785 0
-4707 4514 -4786 0
-4709 4515 -4787 0
-4711 4516 -4788 0
-4713 4517 -4789 0
-4715 4518 -4790 0
-4717 4519 -4791 0
-4719 4520 -4792 0
-4721 4521 -4793 0
-4723 4522 -4794 0
-4725 4523 -4795 0
-4727 4524 -4796 0
-4729 4525 -4797 0
-4731 4526 -4798 0
-4733 4527 -4799 0
-4735 4528 -4800 0
-4705 4529 -4801 0
-4707 4530 -4802 0
-4709 4531 -4803 0
-4711 4532 -4804 0
-4713 4533 -4805 0
-4715 4534 -4806 0
-4717 4535 -4807 0
-4719 4536 -4808 0
-4721 4537 -4809 0
-4723 4538 -4810 0
-4725 4539 -4811 0
-4727 4540 -4812 0
-4729 4541 -4813 0
-4731 4542 -4814 0
-4733 4543 -4815 0
-4735 4544 -4816 0
-4705 4545 -4817 0
-4707 4546 -4818 0
-4709 4547 -4819 0
-4711 4548 -4820 0
-4713 4549 -4821 0
-4715 4550 -4822 0
-4717 4551 -4823 0
-4719 4552 -4824 0
-4721 4553 -4825 0
-4723 4554 -4826 0
-4725 4555 -4827 0
-4727 4556 -4828 0
-4729 4557 -4829 0
-4731 4558 -4830 0
-4733 4559 -4831 0
-4735 4560 -4832 0
-4705 4561 -4833 0
-4707 4562 -4834 0
-4709 4563 -4835 0
-4711 4564 -4836 0
-4713 4565 -4837 0
-4715 4566 -4838 0
-4717 4567 -4839 0
-4719 4568 -4840 0
-4721 4569 -4841 0
-4723 4570 -4842 0
-4725 4571 -4843 0
-4727 4572 -4844 0
-4729 4573 -4845 0
-4731 4574 -4846 0
-4733 4575 -4847 0
-4735 4576 -4848 0
-4705 4577 -4849 0
-4707 4578 -4850 0
-4709 4579 -4851 0
-4711 4580 -4852 0
-4713 4581 -4853 0
-4715 4582 -4854 0
-4717 4583 -4855 0
-4719 4584 -4856 0
-4721 4585 -4857 0
-4723 4586 -4858 0
-4725 4587 -4859 0
-4727 4588 -4860 0
-4729 4589 -4861 0
-4731 4590 -4862 0
-4733 4591 -4863 0
-4735 4592 -4864 0
-4705 4593 -4865 0
-4707 4594 -4866 0
-4709 4595 -4867 0
-4711 4596 -4868 0
-4713 4597 -4869 0
-4715 4598 -4870 0
-4717 4599 -4871 0
-4719 4600 -4872 0
-4721 4601 -4873 0
-4723 4602 -4874 0
-4725 4603 -4875 0
-4727 4604 -4876 0
-4729 4605 -4877 0
-4731 4606 -4878 0
-4733 4607 -4879 0
-4735 4608 -4880 0
-4705 4609 -4881 0
-4707 4610 -4882 0
-4709 4611 -4883 0
-4711 4612 -4884 0
-4713 4613 -4885 0
-4715 4614 -4886 0
-4717 4615 -4887 0
-4719 4616 -4888 0
-4721 4617 -4889 0
-4723 4618 -4890 0
-4725 4619 -4891 0
-4727 4620 -4892 0
-4729 4621 -4893 0
-4731 4622 -4894 0
-4733 4623 -4895 0
-4735 4624 -4896 0
-4705 4625 -4897 0
-4707 4626 -4898 0
-4709 4627 -4899 0
-4711 4628 -4900 0
-4713 4629 -4901 0
-4715 4630 -4902 0
-4717 4631 -4903 0
-4719 4632 -4904 0
-4721 4633 -4905 0
-4723 4634 -4906 0
-4725 4635 -4907 0
-4727 4636 -4908 0
-4729 4637 -4909 0
-4731 4638 -4910 0
-4733 4639 -4911 0
-4735 4640 -4912 0
-4705 4641 -4913 0
-4707 4642 -4914 0
-4709 4643 -4915 0
-4711 4644 -4916 0
-4713 4645 -4917 0
-4715 4646 -4918 0
-4717 4647 -4919 0
-4719 4648 -4920 0
-4721 4649 -4921 0
-4723 4650 -4922 0
-4725 4651 -4923 0
-4727 4652 -4924 0
-4729 4653 -4925 0
-4731 4654 -4926 0
-4733 4655 -4927 0
-4735 4656 -4928 0
-4705 4657 -4929 0
-4707 4658 -4930 0
-4709 4659 -4931 0
-4711 4660 -4932 0
-4713 4661 -4933 0
-4715 4662 -4934 0
-4717 4663 -4935 0
-4719 4664 -4936 0
-4721 4665 -4937 0
-4723 4666 -4938 0
-4725 4667 -4939 0
-4727 4668 -4940 0
-4729 4669 -4941 0
-4731 4670 -4942 0
-4733 4671 -4943 0
-4735 4672 -4944 0
-4705 4673 -4945 0
-4707 4674 -4946 0
-4709 4675 -4947 0
-4711 4676 -4948 0
-4713 4677 -4949 0
-4715 4678 -4950 0
-4717 4679 -4951 0
-4719 4680 -4952 0
-4721 4681 -4953 0
-4723 4682 -4954 0
-4725 4683 -4955 0
-4727 4684 -4956 0
-4729 4685 -4957 0
-4731 4686 -4958 0
-4733 4687 -4959 0
-4735 4688 -4960 0
-4705 4689 -4961 0
-4707 4690 -4962 0
-4709 4691 -4963 0
-4711 4692 -4964 0
-4713 4693 -4965 0
-4715 4694 -4966 0
-4717 4695 -4967 0
-4719 4696 -4968 0
-4721 4697 -4969 0
-4723 4698 -4970 0
-4725 4699 -4971 0
-4727 4700 -4972 0
-4729 4701 -4973 0
-4731 4702 -4974 0
-4733 4703 -4975 0
-4735 4704 -4976 0
4706 4705 0
4708 4707 0
4710 4709 0
4712 4711 0
4714 4713 0
4716 4715 0
4718 4717 0
4720 4719 0
4722 4721 0
4724 4723 0
4726 4725 0
4728 4727 0
4730 4729 0
4732 4731 0
4734 4733 0
4736 4735 0
4737 4705 0
4738 4707 0
4739 4709 0
4740 4711 0
4741 4713 0
4742 4715 0
4743 4717 0
4744 4719 0
4745 4721 0
4746 4723 0
4747 4725 0
4748 4727 0
4749 4729 0
4750 4731 0
4751 4733 0
4752 4735 0
4753 4705 0
4754 4707 0
4755 4709 0
4756 4711 0
4757 4713 0
4758 4715 0
4759 4717 0
4760 4719 0
4761 4721 0
4762 4723 0
4763 4725 0
4764 4727 0
4765 4729 0
4766 4731 0
4767 4733 0
4768 4735 0
4769 4705 0
4770 4707 0
4771 4709 0
4772 4711 0
4773 4713 0
4774 4715 0
4775 4717 0
4776 4719 0
4777 4721 0
4778 4723 0
4779 4725 0
4780 4727 0
4781 4729 0
4782 4731 0
4783 4733 0
4784 4735 0
4785 4705 0
4786 4707 0
4787 4709 0
4788 4711 0
4789 4713 0
4790 4715 0
4791 4717 0
4792 4719 0
4793 4721 0
4794 4723 0
4795 4725 0
4796 4727 0
4797 4729 0
4798 4731 0
4799 4733 0
4800 4735 0
4801 4705 0
4802 4707 0
4803 4709 0
4804 4711 0
4805 4713 0
4806 4715 0
4807 4717 0
4808 4719 0
4809 4721 0
4810 4723 0
4811 4725 0
4812 4727 0
4813 4729 0
4814 4731 0
4815 4733 0
4816 4735 0
4817 4705 0
4818 4707 0
4819 4709 0
4820 4711 0
4821 4713 0
4822 4715 0
4823 4717 0
4824 4719 0
4825 4721 0
4826 4723 0
4827 4725 0
4828 4727 0
4829 4729 0
4830 4731 0
4831 4733 0
4832 4735 0
4833 4705 0
4834 4707 0
4835 4709 0
4836 4711 0
4837 4713 0
4838 4715 0
4839 4717 0
4840 4719 0
4841 4721 0
4842 4723 0
4843 4725 0
4844 4727 0
4845 4729 0
4846 4731 0
4847 4733 0
4848 4735 0
4849 4705 0
4850 4707 0
4851 4709 0
4852 4711 0
4853 4713 0
4854 4715 0
4855 4717 0
4856 4719 0
4857 4721 0
4858 4723 0
4859 4725 0
4860 4727 0
4861 4729 0
4862 4731 0
4863 4733 0
4864 4735 0
4865 4705 0
4866 4707 0
4867 4709 0
4868 4711 0
4869 4713 0
4870 4715 0
4871 4717 0
4872 4719 0
4873 4721 0
4874 4723 0
4875 4725 0
4876 4727 0
4877 4729 0
4878 4731 0
4879 4733 0
4880 4735 0
4881 4705 0
4882 4707 0
4883 4709 0
4884 4711 0
4885 4713 0
4886 4715 0
4887 4717 0
4888 4719 0
4889 4721 0
4890 4723 0
4891 4725 0
4892 4727 0
4893 4729 0
4894 4731 0
4895 4733 0
4896 4735 0
4897 4705 0
4898 4707 0
4899 4709 0
4900 4711 0
4901 4713 0
4902 4715 0
4903 4717 0
4904 4719 0
4905 4721 0
4906 4723 0
4907 4725 0
4908 4727 0
4909 4729 0
4910 4731 0
4911 4733 0
4912 4735 0
4913 4705 0
4914 4707 0
4915 4709 0
4916 4711 0
4917 4713 0
4918 4715 0
4919 4717 0
4920 4719 0
4921 4721 0
4922 4723 0
4923 4725 0
4924 4727 0
4925 4729 0
4926 4731 0
4927 4733 0
4928 4735 0
4929 4705 0
4930 4707 0
4931 4709 0
4932 4711 0
4933 4713 0
4934 4715 0
4935 4717 0
4936 4719 0
4937 4721 0
4938 4723 0
4939 4725 0
4940 4727 0
4941 4729 0
4942 4731 0
4943 4733 0
4944 4735 0
4945 4705 0
4946 4707 0
4947 4709 0
4948 4711 0
4949 4713 0
4950 4715 0
4951 4717 0
4952 4719 0
4953 4721 0
4954 4723 0
4955 4725 0
4956 4727 0
4957 4729 0
4958 4731 0
4959 4733 0
4960 4735 0
4961 4705 0
4962 4707 0
4963 4709 0
4964 4711 0
4965 4713 0
4966 4715 0
4967 4717 0
4968 4719 0
4969 4721 0
4970 4723 0
4971 4725 0
4972 4727 0
4973 4729 0
4974 4731 0
4975 4733 0
4976 4735 0
4706 -4449 0
4708 -4450 0
4710 -4451 0
4712 -4452 0
4714 -4453 0
4716 -4454 0
4718 -4455 0
4720 -4456 0
4722 -4457 0
4724 -4458 0
4726 -4459 0
4728 -4460 0
4730 -4461 0
4732 -4462 0
4734 -4463 0
4736 -4464 0
4737 -4465 0
4738 -4466 0
4739 -4467 0
4740 -4468 0
4741 -4469 0
4742 -4470 0
4743 -4471 0
4744 -4472 0
4745 -4473 0
4746 -4474 0
4747 -4475 0
4748 -4476 0
4749 -4477 0
4750 -4478 0
4751 -4479 0
4752 -4480 0
4753 -4481 0
4754 -4482 0
4755 -4483 0
4756 -4484 0
4757 -4485 0
4758 -4486 0
4759 -4487 0
4760 -4488 0
4761 -4489 0
4762 -4490 0
4763 -4491 0
4764 -4492 0
4765 -4493 0
4766 -4494 0
4767 -4495 0
4768 -4496 0
4769 -4497 0
4770 -4498 0
4771 -4499 0
4772 -4500 0
4773 -4501 0
4774 -4502 0
4775 -4503 0
4776 -4504 0
4777 -4505 0
4778 -4506 0
4779 -4507 0
4780 -4508 0
4781 -4509 0
4782 -4510 0
4783 -4511 0
4784 -4512 0
4785 -4513 0
4786 -4514 0
4787 -4515 0
4788 -4516 0
4789 -4517 0
4790 -4518 0
4791 -4519 0
4792 -4520 0
4793 -4521 0
4794 -4522 0
4795 -4523 0
4796 -4524 0
4797 -4525 0
4798 -4526 0
4799 -4527 0
4800 -4528 0
4801 -4529 0
4802 -4530 0
4803 -4531 0
4804 -4532 0
4805 -4533 0
4806 -4534 0
4807 -4535 0
4808 -4536 0
4809 -4537 0
4810 -4538 0
4811 -4539 0
4812 -4540 0
4813 -4541 0
4814 -4542 0
4815 -4543 0
4816 -4544 0
4817 -4545 0
4818 -4546 0
4819 -4547 0
4820 -4548 0
4821 -4549 0
4822 -4550 0
4823 -4551 0
4824 -4552 0
4825 -4553 0
4826 -4554 0
4827 -4555 0
4828 -4556 0
4829 -4557 0
4830 -4558 0
4831 -4559 0
4832 -4560 0
4833 -4561 0
4834 -4562 0
4835 -4563 0
4836 -4564 0
4837 -4565 0
4838 -4566 0
4839 -4567 0
4840 -4568 0
4841 -4569 0
4842 -4570 0
4843 -4571 0
4844 -4572 0
4845 -4573 0
4846 -4574 0
4847 -4575 0
4848 -4576 0
4849 -4577 0
4850 -4578 0
4851 -4579 0
4852 -4580 0
4853 -4581 0
4854 -4582 0
4855 -4583 0
4856 -4584 0
4857 -4585 0
4858 -4586 0
4859 -4587 0
4860 -4588 0
4861 -4589 0
4862 -4590 0
4863 -4591 0
4864 -4592 0
4865 -4593 0
4866 -4594 0
4867 -4595 0
4868 -4596 0
4869 -4597 0
4870 -4598 0
4871 -4599 0
4872 -4600 0
4873 -4601 0
4874 -4602 0
4875 -4603 0
4876 -4604 0
4877 -4605 0
4878 -4606 0
4879 -4607 0
4880 -4608 0
4881 -4609 0
4882 -4610 0
4883 -4611 0
4884 -4612 0
4885 -4613 0
4886 -4614 0
4887 -4615 0
4888 -4616 0
4889 -4617 0
4890 -4618 0
4891 -4619 0
4892 -4620 0
4893 -4621 0
4894 -4622 0
4895 -4623 0
4896 -4624 0
4897 -4625 0
4898 -4626 0
4899 -4627 0
4900 -4628 0
4901 -4629 0
4902 -4630 0
4903 -4631 0
4904 -4632 0
4905 -4633 0
4906 -4634 0
4907 -4635 0
4908 -4636 0
4909 -4637 0
4910 -4638 0
4911 -4639 0
4912 -4640 0
4913 -4641 0
4914 -4642 0
4915 -4643 0
4916 -4644 0
4917 -4645 0
4918 -4646 0
4919 -4647 0
4920 -4648 0
4921 -4649 0
4922 -4650 0
4923 -4651 0
4924 -4652 0
4925 -4653 0
4926 -4654 0
4927 -4655 0
4928 -4656 0
4929 -4657 0
4930 -4658 0
4931 -4659 0
4932 -4660 0
4933 -4661 0
4934 -4662 0
4935 -4663 0
4936 -4664 0
4937 -4665 0
4938 -4666 0
4939 -4667 0
4940 -4668 0
4941 -4669 0
4942 -4670 0
4943 -4671 0
4944 -4672 0
4945 -4673 0
4946 -4674 0
4947 -4675 0
4948 -4676 0
4949 -4677 0
4950 -4678 0
4951 -4679 0
4952 -4680 0
4953 -4681 0
4954 -4682 0
4955 -4683 0
4956 -4684 0
4957 -4685 0
4958 -4686 0
4959 -4687 0
4960 -4688 0
4961 -4689 0
4962 -4690 0
4963 -4691 0
4964 -4692 0
4965 -4693 0
4966 -4694 0
4967 -4695 0
4968 -4696 0
4969 -4697 0
4970 -4698 0
4971 -4699 0
4972 -4700 0
4973 -4701 0
4974 -4702 0
4975 -4703 0
4976 -4704 0
-771 -1810 -2321 -3106 -3906 -4706 4977 0
-774 -1812 -2322 -3108 -3908 -4708 4978 0
-777 -1814 -2323 -3110 -3910 -4710 4979 0
-780 -1816 -2324 -3112 -3912 -4712 4980 0
-783 -1818 -2325 -3114 -3914 -4714 4981 0
-786 -1820 -2326 -3116 -3916 -4716 4982 0
-789 -1822 -2327 -3118 -3918 -4718 4983 0
-792 -1824 -2328 -3120 -3920 -4720 4984 0
-795 -1826 -2329 -3122 -3922 -4722 4985 0
-798 -1828 -2330 -3124 -3924 -4724 4986 0
-801 -1830 -2331 -3126 -3926 -4726 4987 0
-804 -1832 -2332 -3128 -3928 -4728 4988 0
-807 -1834 -2333 -3130 -3930 -4730 4989 0
-810 -1836 -2334 -3132 -3932 -4732 4990 0
-813 -1838 -2335 -3134 -3934 -4734 4991 0
-816 -1840 -2336 -3136 -3936 -4736 4992 0
-818 -1842 -2337 -3137 -3937 -4737 4993 0
-820 -1844 -2338 -3138 -3938 -4738 4994 0
-822 -1846 -2339 -3139 -3939 -4739 4995 0
-824 -1848 -2340 -3140 -3940 -4740 4996 0
-826 -1850 -2341 -3141 -3941 -4741 4997 0
-828 -1852 -2342 -3142 -3942 -4742 4998 0
-830 -1854 -2343 -3143 -3943 -4743 4999 0
-832 -1856 -2344 -3144 -3944 -4744 5000 0
-834 -1858 -2345 -3145 -3945 -4745 5001 0
-836 -1860 -2346 -3146 -3946 -4746 5002 0
-838 -1862 -2347 -3147 -3947 -4747 5003 0
-840 -1864 -2348 -3148 -3948 -4748 5004 0
-842 -1866 -2349 -3149 -3949 -4749 5005 0
-844 -1868 -2350 -3150 -3950 -4750 5006 0
-846 -1870 -2351 -3151 -3951 -4751 5007 0
-848 -1872 -2352 -3152 -3952 -4752 5008 0
-850 -1874 -2353 -3153 -3953 -4753 5009 0
-852 -1876 -2354 -3154 -3954 -4754 5010 0
-854 -1878 -2355 -3155 -3955 -4755 5011 0
-856 -1880 -2356 -3156 -3956 -4756 5012 0
-858 -1882 -2357 -3157 -3957 -4757 5013 0
-860 -1884 -2358 -3158 -3958 -4758 5014 0
-862 -1886 -2359 -3159 -3959 -4759 5015 0
-864 -1888 -2360 -3160 -3960 -4760 5016 0
-866 -1890 -2361 -3161 -3961 -4761 5017 0
-868 -1892 -2362 -3162 -3962 -4762 5018 0
-870 -1894 -2363 -3163 -3963 -4763 5019 0
-872 -1896 -2364 -3164 -3964 -4764 5020 0
-874 -1898 -2365 -3165 -3965 -4765 5021 0
-876 -1900 -2366 -3166 -3966 -4766 5022 0
-878 -1902 -2367 -3167 -3967 -4767 5023 0
-880 -1904 -2368 -3168 -3968 -4768 5024 0
-882 -1906 -2369 -3169 -3969 -4769 5025 0
-884 -1908 -2370 -3170 -3970 -4770 5026 0
-886 -1910 -2371 -3171 -3971 -4771 5027 0
-888 -1912 -2372 -3172 -3972 -4772 5028 0
-890 -1914 -2373 -3173 -3973 -4773 5029 0
-892 -1916 -2374 -3174 -3974 -4774 5030 0
-894 -1918 -2375 -3175 -3975 -4775 5031 0
-896 -1920 -2376 -3176 -3976 -4776 5032 0
-898 -1922 -2377 -3177 -3977 -4777 5033 0
-900 -1924 -2378 -3178 -3978 -4778 5034 0
-902 -1926 -2379 -3179 -3979 -4779 5035 0
-904 -1928 -2380 -3180 -3980 -4780 5036 0
-906 -1930 -2381 -3181 -3981 -4781 5037 0
-908 -1932 -2382 -3182 -3982 -4782 5038 0
-910 -1934 -2383 -3183 -3983 -4783 5039 0
-912 -1936 -2384 -3184 -3984 -4784 5040 0
-914 -1938 -2385 -3185 -3985 -4785 5041 0
-916 -1940 -2386 -3186 -3986 -4786 5042 0
-918 -1942 -2387 -3187 -3987 -4787 5043 0
-920 -1944 -2388 -3188 -3988 -4788 5044 0
-922 -1946 -2389 -3189 -3989 -4789 5045 0
-924 -1948 -2390 -3190 -3990 -4790 5046 0
-926 -1950 -2391 -3191 -3991 -4791 5047 0
-928 -1952 -2392 -3192 -3992 -4792 5048 0
-930 -1954 -2393 -3193 -3993 -4793 5049 0
-932 -1956 -2394 -3194 -3994 -4794 5050 0
-934 -1958 -2395 -3195 -3995 -4795 5051 0
-936 -1960 -2396 -3196 -3996 -4796 5052 0
-938 -1962 -2397 -3197 -3997 -4797 5053 0
-940 -1964 -2398 -3198 -3998 -4798 5054 0
-942 -1966 -2399 -3199 -3999 -4799 5055 0
-944 -1968 -2400 -3200 -4000 -4800 5056 0
-946 -1970 -2401 -3201 -4001 -4801 5057 0
-948 -1972 -2402 -3202 -4002 -4802 5058 0
-950 -1974 -2403 -3203 -4003 -4803 5059 0
-952 -1976 -2404 -3204 -4004 -4804 5060 0
-954 -1978 -2405 -3205 -4005 -4805 5061 0
-956 -1980 -2406 -3206 -4006 -4806 5062 0
-958 -1982 -2407 -3207 -4007 -4807 5063 0
-960 -1984 -2408 -3208 -4008 -4808 5064 0
-962 -1986 -2409 -3209 -4009 -4809 5065 0
-964 -1988 -2410 -3210 -4010 -4810 5066 0
-966 -1990 -2411 -3211 -4011 -4811 5067 0
-968 -1992 -2412 -3212 -4012 -4812 5068 0
-970 -1994 -2413 -3213 -4013 -4813 5069 0
-972 -1996 -2414 -3214 -4014 -4814 5070 0
-974 -1998 -2415 -3215 -4015 -4815 5071 0
-976 -2000 -2416 -3216 -4016 -4816 5072 0
-978 -2002 -2417 -3217 -4017 -4817 5073 0
-980 -2004 -2418 -3218 -4018 -4818 5074 0
-982 -2006 -2419 -3219 -4019 -4819 5075 0
-984 -2008 -2420 -3220 -4020 -4820 5076 0
-986 -2010 -2421 -3221 -4021 -4821 5077 0
-988 -2012 -2422 -3222 -4022 -4822 5078 0
-990 -2014 -2423 -3223 -4023 -4823 5079 0
-992 -2016 -2424 -3224 -4024 -4824 5080 0
-994 -2018 -2425 -3225 -4025 -4825 5081 0
-996 -2020 -2426 -3226 -4026 -4826 5082 0
-998 -2022 -2427 -3227 -4027 -4827 5083 0
-1000 -2024 -2428 -3228 -4028 -4828 5084 0
-1002 -2026 -2429 -3229 -4029 -4829 5085 0
-1004 -2028 -2430 -3230 -4030 -4830 5086 0
-1006 -2030 -2431 -3231 -4031 -4831 5087 0
-1008 -2032 -2432 -3232 -4032 -4832 5088 0
-1010 -2034 -2433 -3233 -4033 -4833 5089 0
-1012 -2036 -2434 -3234 -4034 -4834 5090 0
-1014 -2038 -2435 -3235 -4035 -4835 5091 0
-1016 -2040 -2436 -3236 -4036 -4836 5092 0
-1018 -2042 -2437 -3237 -4037 -4837 5093 0
-1020 -2044 -2438 -3238 -4038 -4838 5094 0
-1022 -2046 -2439 -3239 -4039 -4839 5095 0
-1024 -2048 -2440 -3240 -4040 -4840 5096 0
-1026 -2050 -2441 -3241 -4041 -4841 5097 0
-1028 -2052 -2442 -3242 -4042 -4842 5098 0
-1030 -2054 -2443 -3243 -4043 -4843 5099 0
-1032 -2056 -2444 -3244 -4044 -4844 5100 0
-1034 -2058 -2445 -3245 -4045 -4845 5101 0
-1036 -2060 -2446 -3246 -4046 -4846 5102 0
-1038 -2062 -2447 -3247 -4047 -4847 5103 0
-1040 -2064 -2448 -3248 -4048 -4848 5104 0
-1042 -2066 -2449 -3249 -4049 -4849 5105 0
-1044 -2068 -2450 -3250 -4050 -4850 5106 0
-1046 -2070 -2451 -3251 -4051 -4851 5107 0
-1048 -2072 -2452 -3252 -4052 -4852 5108 0
-1050 -2074 -2453 -3253 -4053 -4853 5109 0
-1052 -2076 -2454 -3254 -4054 -4854 5110 0
-1054 -2078 -2455 -3255 -4055 -4855 5111 0
-1056 -2080 -2456 -3256 -4056 -4856 5112 0
-1058 -2082 -2457 -3257 -4057 -4857 5113 0
-1060 -2084 -2458 -3258 -4058 -4858 5114 0
-1062 -2086 -2459 -3259 -4059 -4859 5115 0
-1064 -2088 -2460 -3260 -4060 -4860 5116 0
-1066 -2090 -2461 -3261 -4061 -4861 5117 0
-1068 -2092 -2462 -3262 -4062 -4862 5118 0
-1070 -2094 -2463 -3263 -4063 -4863 5119 0
-1072 -2096 -2464 -3264 -4064 -4864 5120 0
-1074 -2098 -2465 -3265 -4065 -4865 5121 0
-1076 -2100 -2466 -3266 -4066 -4866 5122 0
-1078 -2102 -2467 -3267 -4067 -4867 5123 0
-1080 -2104 -2468 -3268 -4068 -4868 5124 0
-1082 -2106 -2469 -3269 -4069 -4869 5125 0
-1084 -2108 -2470 -3270 -4070 -4870 5126 0
-1086 -2110 -2471 -3271 -4071 -4871 5127 0
-1088 -2112 -2472 -3272 -4072 -4872 5128 0
-1090 -2114 -2473 -3273 -4073 -4873 5129 0
-1092 -2116 -2474 -3274 -4074 -4874 5130 0
-1094 -2118 -2475 -3275 -4075 -4875 5131 0
-1096 -2120 -2476 -3276 -4076 -4876 5132 0
-1098 -2122 -2477 -3277 -4077 -4877 5133 0
-1100 -2124 -2478 -3278 -4078 -4878 5134 0
-1102 -2126 -2479 -3279 -4079 -4879 5135 0
-1104 -2128 -2480 -3280 -4080 -4880 5136 0
-1106 -2130 -2481 -3281 -4081 -4881 5137 0
-1108 -2132 -2482 -3282 -4082 -4882 5138 0
-1110 -2134 -2483 -3283 -4083 -4883 5139 0
-1112 -2136 -2484 -3284 -4084 -4884 5140 0
-1114 -2138 -2485 -3285 -4085 -4885 5141 0
-1116 -2140 -2486 -3286 -4086 -4886 5142 0
-1118 -2142 -2487 -3287 -4087 -4887 5143 0
-1120 -2144 -2488 -3288 -4088 -4888 5144 0
-1122 -2146 -2489 -3289 -4089 -4889 5145 0
-1124 -2148 -2490 -3290 -4090 -4890 5146 0
-1126 -2150 -2491 -3291 -4091 -4891 5147 0
-1128 -2152 -2492 -3292 -4092 -4892 5148 0
-1130 -2154 -2493 -3293 -4093 -4893 5149 0
-1132 -2156 -2494 -3294 -4094 -4894 5150 0
-1134 -2158 -2495 -3295 -4095 -4895 5151 0
-1136 -2160 -2496 -3296 -4096 -4896 5152 0
-1138 -2162 -2497 -3297 -4097 -4897 5153 0
-1140 -2164 -2498 -3298 -4098 -4898 5154 0
-1142 -2166 -2499 -3299 -4099 -4899 5155 0
-1144 -2168 -2500 -3300 -4100 -4900 5156 0
-1146 -2170 -2501 -3301 -4101 -4901 5157 0
-1148 -2172 -2502 -3302 -4102 -4902 5158 0
-1150 -2174 -2503 -3303 -4103 -4903 5159 0
-1152 -2176 -2504 -3304 -4104 -4904 5160 0
-1154 -2178 -2505 -3305 -4105 -4905 5161 0
-1156 -2180 -2506 -3306 -4106 -4906 5162 0
-1158 -2182 -2507 -3307 -4107 -4907 5163 0
-1160 -2184 -2508 -3308 -4108 -4908 5164 0
-1162 -2186 -2509 -3309 -4109 -4909 5165 0
-1164 -2188 -2510 -3310 -4110 -4910 5166 0
-1166 -2190 -2511 -3311 -4111 -4911 5167 0
-1168 -2192 -2512 -3312 -4112 -4912 5168 0
-1170 -2194 -2513 -3313 -4113 -4913 5169 0
-1172 -2196 -2514 -3314 -4114 -4914 5170 0
-1174 -2198 -2515 -3315 -4115 -4915 5171 0
-1176 -2200 -2516 -3316 -4116 -4916 5172 0
-1178 -2202 -2517 -3317 -4117 -4917 5173 0
-1180 -2204 -2518 -3318 -4118 -4918 5174 0
-1182 -2206 -2519 -3319 -4119 -4919 5175 0
-1184 -2208 -2520 -3320 -4120 -4920 5176 0
-1186 -2210 -2521 -3321 -4121 -4921 5177 0
-1188 -2212 -2522 -3322 -4122 -4922 5178 0
-1190 -2214 -2523 -3323 -4123 -4923 5179 0
-1192 -2216 -2524 -3324 -4124 -4924 5180 0
-1194 -2218 -2525 -3325 -4125 -4925 5181 0
-1196 -2220 -2526 -3326 -4126 -4926 5182 0
-1198 -2222 -2527 -3327 -4127 -4927 5183 0
-1200 -2224 -2528 -3328 -4128 -4928 5184 0
-1202 -2226 -2529 -3329 -4129 -4929 5185 0
-1204 -2228 -2530 -3330 -4130 -4930 5186 0
-1206 -2230 -2531 -3331 -4131 -4931 5187 0
-1208 -2232 -2532 -3332 -4132 -4932 5188 0
-1210 -2234 -2533 -3333 -4133 -4933 5189 0
-1212 -2236 -2534 -3334 -4134 -4934 5190 0
-1214 -2238 -2535 -3335 -4135 -4935 5191 0
-1216 -2240 -2536 -3336 -4136 -4936 5192 0
-1218 -2242 -2537 -3337 -4137 -4937 5193 0
-1220 -2244 -2538 -3338 -4138 -4938 5194 0
-1222 -2246 -2539 -3339 -4139 -4939 5195 0
-1224 -2248 -2540 -3340 -4140 -4940 5196 0
-1226 -2250 -2541 -3341 -4141 -4941 5197 0
-1228 -2252 -2542 -3342 -4142 -4942 5198 0
-1230 -2254 -2543 -3343 -4143 -4943 5199 0
-1232 -2256 -2544 -3344 -4144 -4944 5200 0
-1234 -2258 -2545 -3345 -4145 -4945 5201 0
-1236 -2260 -2546 -3346 -4146 -4946 5202 0
-1238 -2262 -2547 -3347 -4147 -4947 5203 0
-1240 -2264 -2548 -3348 -4148 -4948 5204 0
-1242 -2266 -2549 -3349 -4149 -4949 5205 0
-1244 -2268 -2550 -3350 -4150 -4950 5206 0
-1246 -2270 -2551 -3351 -4151 -4951 5207 0
-1248 -2272 -2552 -3352 -4152 -4952 5208 0
-1250 -2274 -2553 -3353 -4153 -4953 5209 0
-1252 -2276 -2554 -3354 -4154 -4954 5210 0
-1254 -2278 -2555 -3355 -4155 -4955 5211 0
-1256 -2280 -2556 -3356 -4156 -4956 5212 0
-1258 -2282 -2557 -3357 -4157 -4957 5213 0
-1260 -2284 -2558 -3358 -4158 -4958 5214 0
-1262 -2286 -2559 -3359 -4159 -4959 5215 0
-1264 -2288 -2560 -3360 -4160 -4960 5216 0
-1266 -2290 -2561 -3361 -4161 -4961 5217 0
-1268 -2292 -2562 -3362 -4162 -4962 5218 0
-1270 -2294 -2563 -3363 -4163 -4963 5219 0
-1272 -2296 -2564 -3364 -4164 -4964 5220 0
-1274 -2298 -2565 -3365 -4165 -4965 5221 0
-1276 -2300 -2566 -3366 -4166 -4966 5222 0
-1278 -2302 -2567 -3367 -4167 -4967 5223 0
-1280 -2304 -2568 -3368 -4168 -4968 5224 0
-1282 -2306 -2569 -3369 -4169 -4969 5225 0
-1284 -2308 -2570 -3370 -4170 -4970 5226 0
-1286 -2310 -2571 -3371 -4171 -4971 5227 0
-1288 -2312 -2572 -3372 -4172 -4972 5228 0
-1290 -2314 -2573 -3373 -4173 -4973 5229 0
-1292 -2316 -2574 -3374 -4174 -4974 5230 0
-1294 -2318 -2575 -3375 -4175 -4975 5231 0
-1296 -2320 -2576 -3376 -4176 -4976 5232 0
-4977 771 0
-4978 774 0
-4979 777 0
-4980 780 0
-4981 783 0
-4982 786 0
-4983 789 0
-4984 792 0
-4985 795 0
-4986 798 0
-4987 801 0
-4988 804 0
-4989 807 0
-4990 810 0
-4991 813 0
-4992 816 0
-4993 818 0
-4994 820 0
-4995 822 0
-4996 824 0
-4997 826 0
-4998 828 0
-4999 830 0
-5000 832 0
-5001 834 0
-5002 836 0
-5003 838 0
-5004 840 0
-5005 842 0
-5006 844 0
-5007 846 0
-5008 848 0
-5009 850 0
-5010 852 0
-5011 854 0
-5012 856 0
-5013 858 0
-5014 860 0
-5015 862 0
-5016 864 0
-5017 866 0
-5018 868 0
-5019 870 0
-5020 872 0
-5021 874 0
-5022 876 0
-5023 878 0
-5024 880 0
-5025 882 0
-5026 884 0
-5027 886 0
-5028 888 0
-5029 890 0
-5030 892 0
-5031 894 0
-5032 896 0
-5033 898 0
-5034 900 0
-5035 902 0
-5036 904 0
-5037 906 0
-5038 908 0
-5039 910 0
-5040 912 0
-5041 914 0
-5042 916 0
-5043 918 0
-5044 920 0
-5045 922 0
-5046 924 0
-5047 926 0
-5048 928 0
-5049 930 0
-5050 932 0
-5051 934 0
-5052 936 0
-5053 938 0
-5054 940 0
-5055 942 0
-5056 944 0
-5057 946 0
-5058 948 0
-5059 950 0
-5060 952 0
-5061 954 0
-5062 956 0
-5063 958 0
-5064 960 0
-5065 962 0
-5066 964 0
-5067 966 0
-5068 968 0
-5069 970 0
-5070 972 0
-5071 974 0
-5072 976 0
-5073 978 0
-5074 980 0
-5075 982 0
-5076 984 0
-5077 986 0
-5078 988 0
-5079 990 0
-5080 992 0
-5081 994 0
-5082 996 0
-5083 998 0
-5084 1000 0
-5085 1002 0
-5086 1004 0
-5087 1006 0
-5088 1008 0
-5089 1010 0
-5090 1012 0
-5091 1014 0
-5092 1016 0
-5093 1018 0
-5094 1020 0
-5095 1022 0
-5096 1024 0
-5097 1026 0
-5098 1028 0
-5099 1030 0
-5100 1032 0
-5101 1034 0
-5102 1036 0
-5103 1038 0
-5104 1040 0
-5105 1042 0
-5106 1044 0
-5107 1046 0
-5108 1048 0
-5109 1050 0
-5110 1052 0
-5111 1054 0
-5112 1056 0
-5113 1058 0
-5114 1060 0
-5115 1062 0
-5116 1064 0
-5117 1066 0
-5118 1068 0
-5119 1070 0
-5120 1072 0
-5121 1074 0
-5122 1076 0
-5123 1078 0
-5124 1080 0
-5125 1082 0
-5126 1084 0
-5127 1086 0
-5128 1088 0
-5129 1090 0
-5130 1092 0
-5131 1094 0
-5132 1096 0
-5133 1098 0
-5134 1100 0
-5135 1102 0
-5136 1104 0
-5137 1106 0
-5138 1108 0
-5139 1110 0
-5140 1112 0
-5141 1114 0
-5142 1116 0
-5143 1118 0
-5144 1120 0
-5145 1122 0
-5146 1124 0
-5147 1126 0
-5148 1128 0
-5149 1130 0
-5150 1132 0
-5151 1134 0
-5152 1136 0
-5153 1138 0
-5154 1140 0
-5155 1142 0
-5156 1144 0
-5157 1146 0
-5158 1148 0
-5159 1150 0
-5160 1152 0
-5161 1154 0
-5162 1156 0
-5163 1158 0
-5164 1160 0
-5165 1162 0
-5166 1164 0
-5167 1166 0
-5168 1168 0
-5169 1170 0
-5170 1172 0
-5171 1174 0
-5172 1176 0
-5173 1178 0
-5174 1180 0
-5175 1182 0
-5176 1184 0
-5177 1186 0
-5178 1188 0
-5179 1190 0
-5180 1192 0
-5181 1194 0
-5182 1196 0
-5183 1198 0
-5184 1200 0
-5185 1202 0
-5186 1204 0
-5187 1206 0
-5188 1208 0
-5189 1210 0
-5190 1212 0
-5191 1214 0
-5192 1216 0
-5193 1218 0
-5194 1220 0
-5195 1222 0
-5196 1224 0
-5197 1226 0
-5198 1228 0
-5199 1230 0
-5200 1232 0
-5201 1234 0
-5202 1236 0
-5203 1238 0
-5204 1240 0
-5205 1242 0
-5206 1244 0
-5207 1246 0
-5208 1248 0
-5209 1250 0
-5210 1252 0
-5211 1254 0
-5212 1256 0
-5213 1258 0
-5214 1260 0
-5215 1262 0
-5216 1264 0
-5217 1266 0
-5218 1268 0
-5219 1270 0
-5220 1272 0
-5221 1274 0
-5222 1276 0
-5223 1278 0
-5224 1280 0
-5225 1282 0
-5226 1284 0
-5227 1286 0
-5228 1288 0
-5229 1290 0
-5230 1292 0
-5231 1294 0
-5232 1296 0
-4977 1810 0
-4978 1812 0
-4979 1814 0
-4980 1816 0
-4981 1818 0
-4982 1820 0
-4983 1822 0
-4984 1824 0
-4985 1826 0
-4986 1828 0
-4987 1830 0
-4988 1832 0
-4989 1834 0
-4990 1836 0
-4991 1838 0
-4992 1840 0
-4993 1842 0
-4994 1844 0
-4995 1846 0
-4996 1848 0
-4997 1850 0
-4998 1852 0
-4999 1854 0
-5000 1856 0
-5001 1858 0
-5002 1860 0
-5003 1862 0
-5004 1864 0
-5005 1866 0
-5006 1868 0
-5007 1870 0
-5008 1872 0
-5009 1874 0
-5010 1876 0
-5011 1878 0
-5012 1880 0
-5013 1882 0
-5014 1884 0
-5015 1886 0
-5016 1888 0
-5017 1890 0
-5018 1892 0
-5019 1894 0
-5020 1896 0
-5021 1898 0
-5022 1900 0
-5023 1902 0
-5024 1904 0
-5025 1906 0
-5026 1908 0
-5027 1910 0
-5028 1912 0
-5029 1914 0
-5030 1916 0
-5031 1918 0
-5032 1920 0
-5033 1922 0
-5034 1924 0
-5035 1926 0
-5036 1928 0
-5037 1930 0
-5038 1932 0
-5039 1934 0
-5040 1936 0
-5041 1938 0
-5042 1940 0
-5043 1942 0
-5044 1944 0
-5045 1946 0
-5046 1948 0
-5047 1950 0
-5048 1952 0
-5049 1954 0
-5050 1956 0
-5051 1958 0
-5052 1960 0
-5053 1962 0
-5054 1964 0
-5055 1966 0
-5056 1968 0
-5057 1970 0
-5058 1972 0
-5059 1974 0
-5060 1976 0
-5061 1978 0
-5062 1980 0
-5063 1982 0
-5064 1984 0
-5065 1986 0
-5066 1988 0
-5067 1990 0
-5068 1992 0
-5069 1994 0
-5070 1996 0
-5071 1998 0
-5072 2000 0
-5073 2002 0
-5074 2004 0
-5075 2006 0
-5076 2008 0
-5077 2010 0
-5078 2012 0
-5079 2014 0
-5080 2016 0
-5081 2018 0
-5082 2020 0
-5083 2022 0
-5084 2024 0
-5085 2026 0
-5086 2028 0
-5087 2030 0
-5088 2032 0
-5089 2034 0
-5090 2036 0
-5091 2038 0
-5092 2040 0
-5093 2042 0
-5094 2044 0
-5095 2046 0
-5096 2048 0
-5097 2050 0
-5098 2052 0
-5099 2054 0
-5100 2056 0
-5101 2058 0
-5102 2060 0
-5103 2062 0
-5104 2064 0
-5105 2066 0
-5106 2068 0
-5107 2070 0
-5108 2072 0
-5109 2074 0
-5110 2076 0
-5111 2078 0
-5112 2080 0
-5113 2082 0
-5114 2084 0
-5115 2086 0
-5116 2088 0
-5117 2090 0
-5118 2092 0
-5119 2094 0
-5120 2096 0
-5121 2098 0
-5122 2100 0
-5123 2102 0
-5124 2104 0
-5125 2106 0
-5126 2108 0
-5127 2110 0
-5128 2112 0
-5129 2114 0
-5130 2116 0
-5131 2118 0
-5132 2120 0
-5133 2122 0
-5134 2124 0
-5135 2126 0
-5136 2128 0
-5137 2130 0
-5138 2132 0
-5139 2134 0
-5140 2136 0
-5141 2138 0
-5142 2140 0
-5143 2142 0
-5144 2144 0
-5145 2146 0
-5146 2148 0
-5147 2150 0
-5148 2152 0
-5149 2154 0
-5150 2156 0
-5151 2158 0
-5152 2160 0
-5153 2162 0
-5154 2164 0
-5155 2166 0
-5156 2168 0
-5157 2170 0
-5158 2172 0
-5159 2174 0
-5160 2176 0
-5161 2178 0
-5162 2180 0
-5163 2182 0
-5164 2184 0
-5165 2186 0
-5166 2188 0
-5167 2190 0
-5168 2192 0
-5169 2194 0
-5170 2196 0
-5171 2198 0
-5172 2200 0
-5173 2202 0
-5174 2204 0
-5175 2206 0
-5176 2208 0
-5177 2210 0
-5178 2212 0
-5179 2214 0
-5180 2216 0
-5181 2218 0
-5182 2220 0
-5183 2222 0
-5184 2224 0
-5185 2226 0
-5186 2228 0
-5187 2230 0
-5188 2232 0
-5189 2234 0
-5190 2236 0
-5191 2238 0
-5192 2240 0
-5193 2242 0
-5194 2244 0
-5195 2246 0
-5196 2248 0
-5197 2250 0
-5198 2252 0
-5199 2254 0
-5200 2256 0
-5201 2258 0
-5202 2260 0
-5203 2262 0
-5204 2264 0
-5205 2266 0
-5206 2268 0
-5207 2270 0
-5208 2272 0
-5209 2274 0
-5210 2276 0
-5211 2278 0
-5212 2280 0
-5213 2282 0
-5214 2284 0
-5215 2286 0
-5216 2288 0
-5217 2290 0
-5218 2292 0
-5219 2294 0
-5220 2296 0
-5221 2298 0
-5222 2300 0
-5223 2302 0
-5224 2304 0
-5225 2306 0
-5226 2308 0
-5227 2310 0
-5228 2312 0
-5229 2314 0
-5230 2316 0
-5231 2318 0
-5232 2320 0
-4977 2321 0
-4978 2322 0
-4979 2323 0
-4980 2324 0
-4981 2325 0
-4982 2326 0
-4983 2327 0
-4984 2328 0
-4985 2329 0
-4986 2330 0
-4987 2331 0
-4988 2332 0
-4989 2333 0
-4990 2334 0
-4991 2335 0
-4992 2336 0
-4993 2337 0
-4994 2338 0
-4995 2339 0
-4996 2340 0
-4997 2341 0
-4998 2342 0
-4999 2343 0
-5000 2344 0
-5001 2345 0
-5002 2346 0
-5003 2347 0
-5004 2348 0
-5005 2349 0
-5006 2350 0
-5007 2351 0
-5008 2352 0
-5009 2353 0
-5010 2354 0
-5011 2355 0
-5012 2356 0
-5013 2357 0
-5014 2358 0
-5015 2359 0
-5016 2360 0
-5017 2361 0
-5018 2362 0
-5019 2363 0
-5020 2364 0
-5021 2365 0
-5022 2366 0
-5023 2367 0
-5024 2368 0
-5025 2369 0
-5026 2370 0
-5027 2371 0
-5028 2372 0
-5029 2373 0
-5030 2374 0
-5031 2375 0
-5032 2376 0
-5033 2377 0
-5034 2378 0
-5035 2379 0
-5036 2380 0
-5037 2381 0
-5038 2382 0
-5039 2383 0
-5040 2384 0
-5041 2385 0
-5042 2386 0
-5043 2387 0
-5044 2388 0
-5045 2389 0
-5046 2390 0
-5047 2391 0
-5048 2392 0
-5049 2393 0
-5050 2394 0
-5051 2395 0
-5052 2396 0
-5053 2397 0
-5054 2398 0
-5055 2399 0
-5056 2400 0
-5057 2401 0
-5058 2402 0
-5059 2403 0
-5060 2404 0
-5061 2405 0
-5062 2406 0
-5063 2407 0
-5064 2408 0
-5065 2409 0
-5066 2410 0
-5067 2411 0
-5068 2412 0
-5069 2413 0
-5070 2414 0
-5071 2415 0
-5072 2416 0
-5073 2417 0
-5074 2418 0
-5075 2419 0
-5076 2420 0
-5077 2421 0
-5078 2422 0
-5079 2423 0
-5080 2424 0
-5081 2425 0
-5082 2426 0
-5083 2427 0
-5084 2428 0
-5085 2429 0
-5086 2430 0
-5087 2431 0
-5088 2432 0
-5089 2433 0
-5090 2434 0
-5091 2435 0
-5092 2436 0
-5093 2437 0
-5094 2438 0
-5095 2439 0
-5096 2440 0
-5097 2441 0
-5098 2442 0
-5099 2443 0
-5100 2444 0
-5101 2445 0
-5102 2446 0
-5103 2447 0
-5104 2448 0
-5105 2449 0
-5106 2450 0
-5107 2451 0
-5108 2452 0
-5109 2453 0
-5110 2454 0
-5111 2455 0
-5112 2456 0
-5113 2457 0
-5114 2458 0
-5115 2459 0
-5116 2460 0
-5117 2461 0
-5118 2462 0
-5119 2463 0
-5120 2464 0
-5121 2465 0
-5122 2466 0
-5123 2467 0
-5124 2468 0
-5125 2469 0
-5126 2470 0
-5127 2471 0
-5128 2472 0
-5129 2473 0
-5130 2474 0
-5131 2475 0
-5132 2476 0
-5133 2477 0
-5134 2478 0
-5135 2479 0
-5136 2480 0
-5137 2481 0
-5138 2482 0
-5139 2483 0
-5140 2484 0
-5141 2485 0
-5142 2486 0
-5143 2487 0
-5144 2488 0
-5145 2489 0
-5146 2490 0
-5147 2491 0
-5148 2492 0
-5149 2493 0
-5150 2494 0
-5151 2495 0
-5152 2496 0
-5153 2497 0
-5154 2498 0
-5155 2499 0
-5156 2500 0
-5157 2501 0
-5158 2502 0
-5159 2503 0
-5160 2504 0
-5161 2505 0
-5162 2506 0
-5163 2507 0
-5164 2508 0
-5165 2509 0
-5166 2510 0
-5167 2511 0
-5168 2512 0
-5169 2513 0
-5170 2514 0
-5171 2515 0
-5172 2516 0
-5173 2517 0
-5174 2518 0
-5175 2519 0
-5176 2520 0
-5177 2521 0
-5178 2522 0
-5179 2523 0
-5180 2524 0
-5181 2525 0
-5182 2526 0
-5183 2527 0
-5184 2528 0
-5185 2529 0
-5186 2530 0
-5187 2531 0
-5188 2532 0
-5189 2533 0
-5190 2534 0
-5191 2535 0
-5192 2536 0
-5193 2537 0
-5194 2538 0
-5195 2539 0
-5196 2540 0
-5197 2541 0
-5198 2542 0
-5199 2543 0
-5200 2544 0
-5201 2545 0
-5202 2546 0
-5203 2547 0
-5204 2548 0
-5205 2549 0
-5206 2550 0
-5207 2551 0
-5208 2552 0
-5209 2553 0
-5210 2554 0
-5211 2555 0
-5212 2556 0
-5213 2557 0
-5214 2558 0
-5215 2559 0
-5216 2560 0
-5217 2561 0
-5218 2562 0
-5219 2563 0
-5220 2564 0
-5221 2565 0
-5222 2566 0
-5223 2567 0
-5224 2568 0
-5225 2569 0
-5226 2570 0
-5227 2571 0
-5228 2572 0
-5229 2573 0
-5230 2574 0
-5231 2575 0
-5232 2576 0
-4977 3106 0
-4978 3108 0
-4979 3110 0
-4980 3112 0
-4981 3114 0
-4982 3116 0
-4983 3118 0
-4984 3120 0
-4985 3122 0
-4986 3124 0
-4987 3126 0
-4988 3128 0
-4989 3130 0
-4990 3132 0
-4991 3134 0
-4992 3136 0
-4993 3137 0
-4994 3138 0
-4995 3139 0
-4996 3140 0
-4997 3141 0
-4998 3142 0
-4999 3143 0
-5000 3144 0
-5001 3145 0
-5002 3146 0
-5003 3147 0
-5004 3148 0
-5005 3149 0
-5006 3150 0
-5007 3151 0
-5008 3152 0
-5009 3153 0
-5010 3154 0
-5011 3155 0
-5012 3156 0
-5013 3157 0
-5014 3158 0
-5015 3159 0
-5016 3160 0
-5017 3161 0
-5018 3162 0
-5019 3163 0
-5020 3164 0
-5021 3165 0
-5022 3166 0
-5023 3167 0
-5024 3168 0
-5025 3169 0
-5026 3170 0
-5027 3171 0
-5028 3172 0
-5029 3173 0
-5030 3174 0
-5031 3175 0
-5032 3176 0
-5033 3177 0
-5034 3178 0
-5035 3179 0
-5036 3180 0
-5037 3181 0
-5038 3182 0
-5039 3183 0
-5040 3184 0
-5041 3185 0
-5042 3186 0
-5043 3187 0
-5044 3188 0
-5045 3189 0
-5046 3190 0
-5047 3191 0
-5048 3192 0
-5049 3193 0
-5050 3194 0
-5051 3195 0
-5052 3196 0
-5053 3197 0
-5054 3198 0
-5055 3199 0
-5056 3200 0
-5057 3201 0
-5058 3202 0
-5059 3203 0
-5060 3204 0
-5061 3205 0
-5062 3206 0
-5063 3207 0
-5064 3208 0
-5065 3209 0
-5066 3210 0
-5067 3211 0
-5068 3212 0
-5069 3213 0
-5070 3214 0
-5071 3215 0
-5072 3216 0
-5073 3217 0
-5074 3218 0
-5075 3219 0
-5076 3220 0
-5077 3221 0
-5078 3222 0
-5079 3223 0
-5080 3224 0
-5081 3225 0
-5082 3226 0
-5083 3227 0
-5084 3228 0
-5085 3229 0
-5086 3230 0
-5087 3231 0
-5088 3232 0
-5089 3233 0
-5090 3234 0
-5091 3235 0
-5092 3236 0
-5093 3237 0
-5094 3238 0
-5095 3239 0
-5096 3240 0
-5097 3241 0
-5098 3242 0
-5099 3243 0
-5100 3244 0
-5101 3245 0
-5102 3246 0
-5103 3247 0
-5104 3248 0
-5105 3249 0
-5106 3250 0
-5107 3251 0
-5108 3252 0
-5109 3253 0
-5110 3254 0
-5111 3255 0
-5112 3256 0
-5113 3257 0
-5114 3258 0
-5115 3259 0
-5116 3260 0
-5117 3261 0
-5118 3262 0
-5119 3263 0
-5120 3264 0
-5121 3265 0
-5122 3266 0
-5123 3267 0
-5124 3268 0
-5125 3269 0
-5126 3270 0
-5127 3271 0
-5128 3272 0
-5129 3273 0
-5130 3274 0
-5131 3275 0
-5132 3276 0
-5133 3277 0
-5134 3278 0
-5135 3279 0
-5136 3280 0
-5137 3281 0
-5138 3282 0
-5139 3283 0
-5140 3284 0
-5141 3285 0
-5142 3286 0
-5143 3287 0
-5144 3288 0
-5145 3289 0
-5146 3290 0
-5147 3291 0
-5148 3292 0
-5149 3293 0
-5150 3294 0
-5151 3295 0
-5152 3296 0
-5153 3297 0
-5154 3298 0
-5155 3299 0
-5156 3300 0
-5157 3301 0
-5158 3302 0
-5159 3303 0
-5160 3304 0
-5161 3305 0
-5162 3306 0
-5163 3307 0
-5164 3308 0
-5165 3309 0
-5166 3310 0
-5167 3311 0
-5168 3312 0
-5169 3313 0
-5170 3314 0
-5171 3315 0
-5172 3316 0
-5173 3317 0
-5174 3318 0
-5175 3319 0
-5176 3320 0
-5177 3321 0
-5178 3322 0
-5179 3323 0
-5180 3324 0
-5181 3325 0
-5182 3326 0
-5183 3327 0
-5184 3328 0
-5185 3329 0
-5186 3330 0
-5187 3331 0
-5188 3332 0
-5189 3333 0
-5190 3334 0
-5191 3335 0
-5192 3336 0
-5193 3337 0
-5194 3338 0
-5195 3339 0
-5196 3340 0
-5197 3341 0
-5198 3342 0
-5199 3343 0
-5200 3344 0
-5201 3345 0
-5202 3346 0
-5203 3347 0
-5204 3348 0
-5205 3349 0
-5206 3350 0
-5207 3351 0
-5208 3352 0
-5209 3353 0
-5210 3354 0
-5211 3355 0
-5212 3356 0
-5213 3357 0
-5214 3358 0
-5215 3359 0
-5216 3360 0
-5217 3361 0
-5218 3362 0
-5219 3363 0
-5220 3364 0
-5221 3365 0
-5222 3366 0
-5223 3367 0
-5224 3368 0
-5225 3369 0
-5226 3370 0
-5227 3371 0
-5228 3372 0
-5229 3373 0
-5230 3374 0
-5231 3375 0
-5232 3376 0
-4977 3906 0
-4978 3908 0
-4979 3910 0
-4980 3912 0
-4981 3914 0
-4982 3916 0
-4983 3918 0
-4984 3920 0
-4985 3922 0
-4986 3924 0
-4987 3926 0
-4988 3928 0
-4989 3930 0
-4990 3932 0
-4991 3934 0
-4992 3936 0
-4993 3937 0
-4994 3938 0
-4995 3939 0
-4996 3940 0
-4997 3941 0
-4998 3942 0
-4999 3943 0
-5000 3944 0
-5001 3945 0
-5002 3946 0
-5003 3947 0
-5004 3948 0
-5005 3949 0
-5006 3950 0
-5007 3951 0
-5008 3952 0
-5009 3953 0
-5010 3954 0
-5011 3955 0
-5012 3956 0
-5013 3957 0
-5014 3958 0
-5015 3959 0
-5016 3960 0
-5017 3961 0
-5018 3962 0
-5019 3963 0
-5020 3964 0
-5021 3965 0
-5022 3966 0
-5023 3967 0
-5024 3968 0
-5025 3969 0
-5026 3970 0
-5027 3971 0
-5028 3972 0
-5029 3973 0
-5030 3974 0
-5031 3975 0
-5032 3976 0
-5033 3977 0
-5034 3978 0
-5035 3979 0
-5036 3980 0
-5037 3981 0
-5038 3982 0
-5039 3983 0
-5040 3984 0
-5041 3985 0
-5042 3986 0
-5043 3987 0
-5044 3988 0
-5045 3989 0
-5046 3990 0
-5047 3991 0
-5048 3992 0
-5049 3993 0
-5050 3994 0
-5051 3995 0
-5052 3996 0
-5053 3997 0
-5054 3998 0
-5055 3999 0
-5056 4000 0
-5057 4001 0
-5058 4002 0
-5059 4003 0
-5060 4004 0
-5061 4005 0
-5062 4006 0
-5063 4007 0
-5064 4008 0
-5065 4009 0
-5066 4010 0
-5067 4011 0
-5068 4012 0
-5069 4013 0
-5070 4014 0
-5071 4015 0
-5072 4016 0
-5073 4017 0
-5074 4018 0
-5075 4019 0
-5076 4020 0
-5077 4021 0
-5078 4022 0
-5079 4023 0
-5080 4024 0
-5081 4025 0
-5082 4026 0
-5083 4027 0
-5084 4028 0
-5085 4029 0
-5086 4030 0
-5087 4031 0
-5088 4032 0
-5089 4033 0
-5090 4034 0
-5091 4035 0
-5092 4036 0
-5093 4037 0
-5094 4038 0
-5095 4039 0
-5096 4040 0
-5097 4041 0
-5098 4042 0
-5099 4043 0
-5100 4044 0
-5101 4045 0
-5102 4046 0
-5103 4047 0
-5104 4048 0
-5105 4049 0
-5106 4050 0
-5107 4051 0
-5108 4052 0
-5109 4053 0
-5110 4054 0
-5111 4055 0
-5112 4056 0
-5113 4057 0
-5114 4058 0
-5115 4059 0
-5116 4060 0
-5117 4061 0
-5118 4062 0
-5119 4063 0
-5120 4064 0
-5121 4065 0
-5122 4066 0
-5123 4067 0
-5124 4068 0
-5125 4069 0
-5126 4070 0
-5127 4071 0
-5128 4072 0
-5129 4073 0
-5130 4074 0
-5131 4075 0
-5132 4076 0
-5133 4077 0
-5134 4078 0
-5135 4079 0
-5136 4080 0
-5137 4081 0
-5138 4082 0
-5139 4083 0
-5140 4084 0
-5141 4085 0
-5142 4086 0
-5143 4087 0
-5144 4088 0
-5145 4089 0
-5146 4090 0
-5147 4091 0
-5148 4092 0
-5149 4093 0
-5150 4094 0
-5151 4095 0
-5152 4096 0
-5153 4097 0
-5154 4098 0
-5155 4099 0
-5156 4100 0
-5157 4101 0
-5158 4102 0
-5159 4103 0
-5160 4104 0
-5161 4105 0
-5162 4106 0
-5163 4107 0
-5164 4108 0
-5165 4109 0
-5166 4110 0
-5167 4111 0
-5168 4112 0
-5169 4113 0
-5170 4114 0
-5171 4115 0
-5172 4116 0
-5173 4117 0
-5174 4118 0
-5175 4119 0
-5176 4120 0
-5177 4121 0
-5178 4122 0
-5179 4123 0
-5180 4124 0
-5181 4125 0
-5182 4126 0
-5183 4127 0
-5184 4128 0
-5185 4129 0
-5186 4130 0
-5187 4131 0
-5188 4132 0
-5189 4133 0
-5190 4134 0
-5191 4135 0
-5192 4136 0
-5193 4137 0
-5194 4138 0
-5195 4139 0
-5196 4140 0
-5197 4141 0
-5198 4142 0
-5199 4143 0
-5200 4144 0
-5201 4145 0
-5202 4146 0
-5203 4147 0
-5204 4148 0
-5205 4149 0
-5206 4150 0
-5207 4151 0
-5208 4152 0
-5209 4153 0
-5210 4154 0
-5211 4155 0
-5212 4156 0
-5213 4157 0
-5214 4158 0
-5215 4159 0
-5216 4160 0
-5217 4161 0
-5218 4162 0
-5219 4163 0
-5220 4164 0
-5221 4165 0
-5222 4166 0
-5223 4167 0
-5224 4168 0
-5225 4169 0
-5226 4170 0
-5227 4171 0
-5228 4172 0
-5229 4173 0
-5230 4174 0
-5231 4175 0
-5232 4176 0
-4977 4706 0
-4978 4708 0
-4979 4710 0
-4980 4712 0
-4981 4714 0
-4982 4716 0
-4983 4718 0
-4984 4720 0
-4985 4722 0
-4986 4724 0
-4987 4726 0
-4988 4728 0
-4989 4730 0
-4990 4732 0
-4991 4734 0
-4992 4736 0
-4993 4737 0
-4994 4738 0
-4995 4739 0
-4996 4740 0
-4997 4741 0
-4998 4742 0
-4999 4743 0
-5000 4744 0
-5001 4745 0
-5002 4746 0
-5003 4747 0
-5004 4748 0
-5005 4749 0
-5006 4750 0
-5007 4751 0
-5008 4752 0
-5009 4753 0
-5010 4754 0
-5011 4755 0
-5012 4756 0
-5013 4757 0
-5014 4758 0
-5015 4759 0
-5016 4760 0
-5017 4761 0
-5018 4762 0
-5019 4763 0
-5020 4764 0
-5021 4765 0
-5022 4766 0
-5023 4767 0
-5024 4768 0
-5025 4769 0
-5026 4770 0
-5027 4771 0
-5028 4772 0
-5029 4773 0
-5030 4774 0
-5031 4775 0
-5032 4776 0
-5033 4777 0
-5034 4778 0
-5035 4779 0
-5036 4780 0
-5037 4781 0
-5038 4782 0
-5039 4783 0
-5040 4784 0
-5041 4785 0
-5042 4786 0
-5043 4787 0
-5044 4788 0
-5045 4789 0
-5046 4790 0
-5047 4791 0
-5048 4792 0
-5049 4793 0
-5050 4794 0
-5051 4795 0
-5052 4796 0
-5053 4797 0
-5054 4798 0
-5055 4799 0
-5056 4800 0
-5057 4801 0
-5058 4802 0
-5059 4803 0
-5060 4804 0
-5061 4805 0
-5062 4806 0
-5063 4807 0
-5064 4808 0
-5065 4809 0
-5066 4810 0
-5067 4811 0
-5068 4812 0
-5069 4813 0
-5070 4814 0
-5071 4815 0
-5072 4816 0
-5073 4817 0
-5074 4818 0
-5075 4819 0
-5076 4820 0
-5077 4821 0
-5078 4822 0
-5079 4823 0
-5080 4824 0
-5081 4825 0
-5082 4826 0
-5083 4827 0
-5084 4828 0
-5085 4829 0
-5086 4830 0
-5087 4831 0
-5088 4832 0
-5089 4833 0
-5090 4834 0
-5091 4835 0
-5092 4836 0
-5093 4837 0
-5094 4838 0
-5095 4839 0
-5096 4840 0
-5097 4841 0
-5098 4842 0
-5099 4843 0
-5100 4844 0
-5101 4845 0
-5102 4846 0
-5103 4847 0
-5104 4848 0
-5105 4849 0
-5106 4850 0
-5107 4851 0
-5108 4852 0
-5109 4853 0
-5110 4854 0
-5111 4855 0
-5112 4856 0
-5113 4857 0
-5114 4858 0
-5115 4859 0
-5116 4860 0
-5117 4861 0
-5118 4862 0
-5119 4863 0
-5120 4864 0
-5121 4865 0
-5122 4866 0
-5123 4867 0
-5124 4868 0
-5125 4869 0
-5126 4870 0
-5127 4871 0
-5128 4872 0
-5129 4873 0
-5130 4874 0
-5131 4875 0
-5132 4876 0
-5133 4877 0
-5134 4878 0
-5135 4879 0
-5136 4880 0
-5137 4881 0
-5138 4882 0
-5139 4883 0
-5140 4884 0
-5141 4885 0
-5142 4886 0
-5143 4887 0
-5144 4888 0
-5145 4889 0
-5146 4890 0
-5147 4891 0
-5148 4892 0
-5149 4893 0
-5150 4894 0
-5151 4895 0
-5152 4896 0
-5153 4897 0
-5154 4898 0
-5155 4899 0
-5156 4900 0
-5157 4901 0
-5158 4902 0
-5159 4903 0
-5160 4904 0
-5161 4905 0
-5162 4906 0
-5163 4907 0
-5164 4908 0
-5165 4909 0
-5166 4910 0
-5167 4911 0
-5168 4912 0
-5169 4913 0
-5170 4914 0
-5171 4915 0
-5172 4916 0
-5173 4917 0
-5174 4918 0
-5175 4919 0
-5176 4920 0
-5177 4921 0
-5178 4922 0
-5179 4923 0
-5180 4924 0
-5181 4925 0
-5182 4926 0
-5183 4927 0
-5184 4928 0
-5185 4929 0
-5186 4930 0
-5187 4931 0
-5188 4932 0
-5189 4933 0
-5190 4934 0
-5191 4935 0
-5192 4936 0
-5193 4937 0
-5194 4938 0
-5195 4939 0
-5196 4940 0
-5197 4941 0
-5198 4942 0
-5199 4943 0
-5200 4944 0
-5201 4945 0
-5202 4946 0
-5203 4947 0
-5204 4948 0
-5205 4949 0
-5206 4950 0
-5207 4951 0
-5208 4952 0
-5209 4953 0
-5210 4954 0
-5211 4955 0
-5212 4956 0
-5213 4957 0
-5214 4958 0
-5215 4959 0
-5216 4960 0
-5217 4961 0
-5218 4962 0
-5219 4963 0
-5220 4964 0
-5221 4965 0
-5222 4966 0
-5223 4967 0
-5224 4968 0
-5225 4969 0
-5226 4970 0
-5227 4971 0
-5228 4972 0
-5229 4973 0
-5230 4974 0
-5231 4975 0
-5232 4976 0
4977 0
4978 0
4979 0
4980 0
4981 0
4982 0
4983 0
4984 0
4985 0
4986 0
4987 0
4988 0
4989 0
4990 0
4991 0
4992 0
4993 0
4994 0
4995 0
4996 0
4997 0
4998 0
4999 0
5000 0
5001 0
5002 0
5003 0
5004 0
5005 0
5006 0
5007 0
5008 0
5009 0
5010 0
5011 0
5012 0
5013 0
5014 0
5015 0
5016 0
5017 0
5018 0
5019 0
5020 0
5021 0
5022 0
5023 0
5024 0
5025 0
5026 0
5027 0
5028 0
5029 0
5030 0
5031 0
5032 0
5033 0
5034 0
5035 0
5036 0
5037 0
5038 0
5039 0
5040 0
5041 0
5042 0
5043 0
5044 0
5045 0
5046 0
5047 0
5048 0
5049 0
5050 0
5051 0
5052 0
5053 0
5054 0
5055 0
5056 0
5057 0
5058 0
5059 0
5060 0
5061 0
5062 0
5063 0
5064 0
5065 0
5066 0
5067 0
5068 0
5069 0
5070 0
5071 0
5072 0
5073 0
5074 0
5075 0
5076 0
5077 0
5078 0
5079 0
5080 0
5081 0
5082 0
5083 0
5084 0
5085 0
5086 0
5087 0
5088 0
5089 0
5090 0
5091 0
5092 0
5093 0
5094 0
5095 0
5096 0
5097 0
5098 0
5099 0
5100 0
5101 0
5102 0
5103 0
5104 0
5105 0
5106 0
5107 0
5108 0
5109 0
5110 0
5111 0
5112 0
5113 0
5114 0
5115 0
5116 0
5117 0
5118 0
5119 0
5120 0
5121 0
5122 0
5123 0
5124 0
5125 0
5126 0
5127 0
5128 0
5129 0
5130 0
5131 0
5132 0
5133 0
5134 0
5135 0
5136 0
5137 0
5138 0
5139 0
5140 0
5141 0
5142 0
5143 0
5144 0
5145 0
5146 0
5147 0
5148 0
5149 0
5150 0
5151 0
5152 0
5153 0
5154 0
5155 0
5156 0
5157 0
5158 0
5159 0
5160 0
5161 0
5162 0
5163 0
5164 0
5165 0
5166 0
5167 0
5168 0
5169 0
5170 0
5171 0
5172 0
5173 0
5174 0
5175 0
5176 0
5177 0
5178 0
5179 0
5180 0
5181 0
5182 0
5183 0
5184 0
5185 0
5186 0
5187 0
5188 0
5189 0
5190 0
5191 0
5192 0
5193 0
5194 0
5195 0
5196 0
5197 0
5198 0
5199 0
5200 0
5201 0
5202 0
5203 0
5204 0
5205 0
5206 0
5207 0
5208 0
5209 0
5210 0
5211 0
5212 0
5213 0
5214 0
5215 0
5216 0
5217 0
5218 0
5219 0
5220 0
5221 0
5222 0
5223 0
5224 0
5225 0
5226 0
5227 0
5228 0
5229 0
5230 0
5231 0
5232 0
-1809 -2577 5233 0
-1841 -2577 5234 0
-1873 -2577 5235 0
-1905 -2577 5236 0
-1937 -2577 5237 0
-1969 -2577 5238 0
-2001 -2577 5239 0
-2033 -2577 5240 0
-2065 -2577 5241 0
-2097 -2577 5242 0
-2129 -2577 5243 0
-2161 -2577 5244 0
-2193 -2577 5245 0
-2225 -2577 5246 0
-2257 -2577 5247 0
-2289 -2577 5248 0
-1811 -2594 5249 0
-1843 -2594 5250 0
-1875 -2594 5251 0
-1907 -2594 5252 0
-1939 -2594 5253 0
-1971 -2594 5254 0
-2003 -2594 5255 0
-2035 -2594 5256 0
-2067 -2594 5257 0
-2099 -2594 5258 0
-2131 -2594 5259 0
-2163 -2594 5260 0
-2195 -2594 5261 0
-2227 -2594 5262 0
-2259 -2594 5263 0
-2291 -2594 5264 0
-1813 -2611 5265 0
-1845 -2611 5266 0
-1877 -2611 5267 0
-1909 -2611 5268 0
-1941 -2611 5269 0
-1973 -2611 5270 0
-2005 -2611 5271 0
-2037 -2611 5272 0
-2069 -2611 5273 0
-2101 -2611 5274 0
-2133 -2611 5275 0
-2165 -2611 5276 0
-2197 -2611 5277 0
-2229 -2611 5278 0
-2261 -2611 5279 0
-2293 -2611 5280 0
-1815 -2628 5281 0
-1847 -2628 5282 0
-1879 -2628 5283 0
-1911 -2628 5284 0
-1943 -2628 5285 0
-1975 -2628 5286 0
-2007 -2628 5287 0
-2039 -2628 5288 0
-2071 -2628 5289 0
-2103 -2628 5290 0
-2135 -2628 5291 0
-2167 -2628 5292 0
-2199 -2628 5293 0
-2231 -2628 5294 0
-2263 -2628 5295 0
-2295 -2628 5296 0
-1817 -2645 5297 0
-1849 -2645 5298 0
-1881 -2645 5299 0
-1913 -2645 5300 0
-1945 -2645 5301 0
-1977 -2645 5302 0
-2009 -2645 5303 0
-2041 -2645 5304 0
-2073 -2645 5305 0
-2105 -2645 5306 0
-2137 -2645 5307 0
-2169 -2645 5308 0
-2201 -2645 5309 0
-2233 -2645 5310 0
-2265 -2645 5311 0
-2297 -2645 5312 0
-1819 -2662 5313 0
-1851 -2662 5314 0
-1883 -2662 5315 0
-1915 -2662 5316 0
-1947 -2662 5317 0
-1979 -2662 5318 0
-2011 -2662 5319 0
-2043 -2662 5320 0
-2075 -2662 5321 0
-2107 -2662 5322 0
-2139 -2662 5323 0
-2171 -2662 5324 0
-2203 -2662 5325 0
-2235 -2662 5326 0
-2267 -2662 5327 0
-2299 -2662 5328 0
-1821 -2679 5329 0
-1853 -2679 5330 0
-1885 -2679 5331 0
-1917 -2679 5332 0
-1949 -2679 5333 0
-1981 -2679 5334 0
-2013 -2679 5335 0
-2045 -2679 5336 0
-2077 -2679 5337 0
-2109 -2679 5338 0
-2141 -2679 5339 0
-2173 -2679 5340 0
-2205 -2679 5341 0
-2237 -2679 5342 0
-2269 -2679 5343 0
-2301 -2679 5344 0
-1823 -2696 5345 0
-1855 -2696 5346 0
-1887 -2696 5347 0
-1919 -2696 5348 0
-1951 -2696 5349 0
-1983 -2696 5350 0
-2015 -2696 5351 0
-2047 -2696 5352 0
-2079 -2696 5353 0
-2111 -2696 5354 0
-2143 -2696 5355 0
-2175 -2696 5356 0
-2207 -2696 5357 0
-2239 -2696 5358 0
-2271 -2696 5359 0
-2303 -2696 5360 0
-1825 -2713 5361 0
-1857 -2713 5362 0
-1889 -2713 5363 0
-1921 -2713 5364 0
-1953 -2713 5365 0
-1985 -2713 5366 0
-2017 -2713 5367 0
-2049 -2713 5368 0
-2081 -2713 5369 0
-2113 -2713 5370 0
-2145 -2713 5371 0
-2177 -2713 5372 0
-2209 -2713 5373 0
-2241 -2713 5374 0
-2273 -2713 5375 0
-2305 -2713 5376 0
-1827 -2730 5377 0
-1859 -2730 5378 0
-1891 -2730 5379 0
-1923 -2730 5380 0
-1955 -2730 5381 0
-1987 -2730 5382 0
-2019 -2730 5383 0
-2051 -2730 5384 0
-2083 -2730 5385 0
-2115 -2730 5386 0
-2147 -2730 5387 0
-2179 -2730 5388 0
-2211 -2730 5389 0
-2243 -2730 5390 0
-2275 -2730 5391 0
-2307 -2730 5392 0
-1829 -2747 5393 0
-1861 -2747 5394 0
-1893 -2747 5395 0
-1925 -2747 5396 0
-1957 -2747 5397 0
-1989 -2747 5398 0
-2021 -2747 5399 0
-2053 -2747 5400 0
-2085 -2747 5401 0
-2117 -2747 5402 0
-2149 -2747 5403 0
-2181 -2747 5404 0
-2213 -2747 5405 0
-2245 -2747 5406 0
-2277 -2747 5407 0
-2309 -2747 5408 0
-1831 -2764 5409 0
-1863 -2764 5410 0
-1895 -2764 5411 0
-1927 -2764 5412 0
-1959 -2764 5413 0
-1991 -2764 5414 0
-2023 -2764 5415 0
-2055 -2764 5416 0
-2087 -2764 5417 0
-2119 -2764 5418 0
-2151 -2764 5419 0
-2183 -2764 5420 0
-2215 -2764 5421 0
-2247 -2764 5422 0
-2279 -2764 5423 0
-2311 -2764 5424 0
-1833 -2781 5425 0
-1865 -2781 5426 0
-1897 -2781 5427 0
-1929 -2781 5428 0
-1961 -2781 5429 0
-1993 -2781 5430 0
-2025 -2781 5431 0
-2057 -2781 5432 0
-2089 -2781 5433 0
-2121 -2781 5434 0
-2153 -2781 5435 0
-2185 -2781 5436 0
-2217 -2781 5437 0
-2249 -2781 5438 0
-2281 -2781 5439 0
-2313 -2781 5440 0
-1835 -2798 5441 0
-1867 -2798 5442 0
-1899 -2798 5443 0
-1931 -2798 5444 0
-1963 -2798 5445 0
-1995 -2798 5446 0
-2027 -2798 5447 0
-2059 -2798 5448 0
-2091 -2798 5449 0
-2123 -2798 5450 0
-2155 -2798 5451 0
-2187 -2798 5452 0
-2219 -2798 5453 0
-2251 -2798 5454 0
-2283 -2798 5455 0
-2315 -2798 5456 0
-1837 -2815 5457 0
-1869 -2815 5458 0
-1901 -2815 5459 0
-1933 -2815 5460 0
-1965 -2815 5461 0
-1997 -2815 5462 0
-2029 -2815 5463 0
-2061 -2815 5464 0
-2093 -2815 5465 0
-2125 -2815 5466 0
-2157 -2815 5467 0
-2189 -2815 5468 0
-2221 -2815 5469 0
-2253 -2815 5470 0
-2285 -2815 5471 0
-2317 -2815 5472 0
-1839 -2832 5473 0
-1871 -2832 5474 0
-1903 -2832 5475 0
-1935 -2832 5476 0
-1967 -2832 5477 0
-1999 -2832 5478 0
-2031 -2832 5479 0
-2063 -2832 5480 0
-2095 -2832 5481 0
-2127 -2832 5482 0
-2159 -2832 5483 0
-2191 -2832 5484 0
-2223 -2832 5485 0
-2255 -2832 5486 0
-2287 -2832 5487 0
-2319 -2832 5488 0
-5233 1809 0
-5234 1841 0
-5235 1873 0
-5236 1905 0
-5237 1937 0
-5238 1969 0
-5239 2001 0
-5240 2033 0
-5241 2065 0
-5242 2097 0
-5243 2129 0
-5244 2161 0
-5245 2193 0
-5246 2225 0
-5247 2257 0
-5248 2289 0
-5249 1811 0
-5250 1843 0
-5251 1875 0
-5252 1907 0
-5253 1939 0
-5254 1971 0
-5255 2003 0
-5256 2035 0
-5257 2067 0
-5258 2099 0
-5259 2131 0
-5260 2163 0
-5261 2195 0
-5262 2227 0
-5263 2259 0
-5264 2291 0
-5265 1813 0
-5266 1845 0
-5267 1877 0
-5268 1909 0
-5269 1941 0
-5270 1973 0
-5271 2005 0
-5272 2037 0
-5273 2069 0
-5274 2101 0
-5275 2133 0
-5276 2165 0
-5277 2197 0
-5278 2229 0
-5279 2261 0
-5280 2293 0
-5281 1815 0
-5282 1847 0
-5283 1879 0
-5284 1911 0
-5285 1943 0
-5286 1975 0
-5287 2007 0
-5288 2039 0
-5289 2071 0
-5290 2103 0
-5291 2135 0
-5292 2167 0
-5293 2199 0
-5294 2231 0
-5295 2263 0
-5296 2295 0
-5297 1817 0
-5298 1849 0
-5299 1881 0
-5300 1913 0
-5301 1945 0
-5302 1977 0
-5303 2009 0
-5304 2041 0
-5305 2073 0
-5306 2105 0
-5307 2137 0
-5308 2169 0
-5309 2201 0
-5310 2233 0
-5311 2265 0
-5312 2297 0
-5313 1819 0
-5314 1851 0
-5315 1883 0
-5316 1915 0
-5317 1947 0
-5318 1979 0
-5319 2011 0
-5320 2043 0
-5321 2075 0
-5322 2107 0
-5323 2139 0
-5324 2171 0
-5325 2203 0
-5326 2235 0
-5327 2267 0
-5328 2299 0
-5329 1821 0
-5330 1853 0
-5331 1885 0
-5332 1917 0
-5333 1949 0
-5334 1981 0
-5335 2013 0
-5336 2045 0
-5337 2077 0
-5338 2109 0
-5339 2141 0
-5340 2173 0
-5341 2205 0
-5342 2237 0
-5343 2269 0
-5344 2301 0
-5345 1823 0
-5346 1855 0
-5347 1887 0
-5348 1919 0
-5349 1951 0
-5350 1983 0
-5351 2015 0
-5352 2047 0
-5353 2079 0
-5354 2111 0
-5355 2143 0
-5356 2175 0
-5357 2207 0
-5358 2239 0
-5359 2271 0
-5360 2303 0
-5361 1825 0
-5362 1857 0
-5363 1889 0
-5364 1921 0
-5365 1953 0
-5366 1985 0
-5367 2017 0
-5368 2049 0
-5369 2081 0
-5370 2113 0
-5371 2145 0
-5372 2177 0
-5373 2209 0
-5374 2241 0
-5375 2273 0
-5376 2305 0
-5377 1827 0
-5378 1859 0
-5379 1891 0
-5380 1923 0
-5381 1955 0
-5382 1987 0
-5383 2019 0
-5384 2051 0
-5385 2083 0
-5386 2115 0
-5387 2147 0
-5388 2179 0
-5389 2211 0
-5390 2243 0
-5391 2275 0
-5392 2307 0
-5393 1829 0
-5394 1861 0
-5395 1893 0
-5396 1925 0
-5397 1957 0
-5398 1989 0
-5399 2021 0
-5400 2053 0
-5401 2085 0
-5402 2117 0
-5403 2149 0
-5404 2181 0
-5405 2213 0
-5406 2245 0
-5407 2277 0
-5408 2309 0
-5409 1831 0
-5410 1863 0
-5411 1895 0
-5412 1927 0
-5413 1959 0
-5414 1991 0
-5415 2023 0
-5416 2055 0
-5417 2087 0
-5418 2119 0
-5419 2151 0
-5420 2183 0
-5421 2215 0
-5422 2247 0
-5423 2279 0
-5424 2311 0
-5425 1833 0
-5426 1865 0
-5427 1897 0
-5428 1929 0
-5429 1961 0
-5430 1993 0
-5431 2025 0
-5432 2057 0
-5433 2089 0
-5434 2121 0
-5435 2153 0
-5436 2185 0
-5437 2217 0
-5438 2249 0
-5439 2281 0
-5440 2313 0
-5441 1835 0
-5442 1867 0
-5443 1899 0
-5444 1931 0
-5445 1963 0
-5446 1995 0
-5447 2027 0
-5448 2059 0
-5449 2091 0
-5450 2123 0
-5451 2155 0
-5452 2187 0
-5453 2219 0
-5454 2251 0
-5455 2283 0
-5456 2315 0
-5457 1837 0
-5458 1869 0
-5459 1901 0
-5460 1933 0
-5461 1965 0
-5462 1997 0
-5463 2029 0
-5464 2061 0
-5465 2093 0
-5466 2125 0
-5467 2157 0
-5468 2189 0
-5469 2221 0
-5470 2253 0
-5471 2285 0
-5472 2317 0
-5473 1839 0
-5474 1871 0
-5475 1903 0
-5476 1935 0
-5477 1967 0
-5478 1999 0
-5479 2031 0
-5480 2063 0
-5481 2095 0
-5482 2127 0
-5483 2159 0
-5484 2191 0
-5485 2223 0
-5486 2255 0
-5487 2287 0
-5488 2319 0
-5233 2577 0
-5234 2577 0
-5235 2577 0
-5236 2577 0
-5237 2577 0
-5238 2577 0
-5239 2577 0
-5240 2577 0
-5241 2577 0
-5242 2577 0
-5243 2577 0
-5244 2577 0
-5245 2577 0
-5246 2577 0
-5247 2577 0
-5248 2577 0
-5249 2594 0
-5250 2594 0
-5251 2594 0
-5252 2594 0
-5253 2594 0
-5254 2594 0
-5255 2594 0
-5256 2594 0
-5257 2594 0
-5258 2594 0
-5259 2594 0
-5260 2594 0
-5261 2594 0
-5262 2594 0
-5263 2594 0
-5264 2594 0
-5265 2611 0
-5266 2611 0
-5267 2611 0
-5268 2611 0
-5269 2611 0
-5270 2611 0
-5271 2611 0
-5272 2611 0
-5273 2611 0
-5274 2611 0
-5275 2611 0
-5276 2611 0
-5277 2611 0
-5278 2611 0
-5279 2611 0
-5280 2611 0
-5281 2628 0
-5282 2628 0
-5283 2628 0
-5284 2628 0
-5285 2628 0
-5286 2628 0
-5287 2628 0
-5288 2628 0
-5289 2628 0
-5290 2628 0
-5291 2628 0
-5292 2628 0
-5293 2628 0
-5294 2628 0
-5295 2628 0
-5296 2628 0
-5297 2645 0
-5298 2645 0
-5299 2645 0
-5300 2645 0
-5301 2645 0
-5302 2645 0
-5303 2645 0
-5304 2645 0
-5305 2645 0
-5306 2645 0
-5307 2645 0
-5308 2645 0
-5309 2645 0
-5310 2645 0
-5311 2645 0
-5312 2645 0
-5313 2662 0
-5314 2662 0
-5315 2662 0
-5316 2662 0
-5317 2662 0
-5318 2662 0
-5319 2662 0
-5320 2662 0
-5321 2662 0
-5322 2662 0
-5323 2662 0
-5324 2662 0
-5325 2662 0
-5326 2662 0
-5327 2662 0
-5328 2662 0
-5329 2679 0
-5330 2679 0
-5331 2679 0
-5332 2679 0
-5333 2679 0
-5334 2679 0
-5335 2679 0
-5336 2679 0
-5337 2679 0
-5338 2679 0
-5339 2679 0
-5340 2679 0
-5341 2679 0
-5342 2679 0
-5343 2679 0
-5344 2679 0
-5345 2696 0
-5346 2696 0
-5347 2696 0
-5348 2696 0
-5349 2696 0
-5350 2696 0
-5351 2696 0
-5352 2696 0
-5353 2696 0
-5354 2696 0
-5355 2696 0
-5356 2696 0
-5357 2696 0
-5358 2696 0
-5359 2696 0
-5360 2696 0
-5361 2713 0
-5362 2713 0
-5363 2713 0
-5364 2713 0
-5365 2713 0
-5366 2713 0
-5367 2713 0
-5368 2713 0
-5369 2713 0
-5370 2713 0
-5371 2713 0
-5372 2713 0
-5373 2713 0
-5374 2713 0
-5375 2713 0
-5376 2713 0
-5377 2730 0
-5378 2730 0
-5379 2730 0
-5380 2730 0
-5381 2730 0
-5382 2730 0
-5383 2730 0
-5384 2730 0
-5385 2730 0
-5386 2730 0
-5387 2730 0
-5388 2730 0
-5389 2730 0
-5390 2730 0
-5391 2730 0
-5392 2730 0
-5393 2747 0
-5394 2747 0
-5395 2747 0
-5396 2747 0
-5397 2747 0
-5398 2747 0
-5399 2747 0
-5400 2747 0
-5401 2747 0
-5402 2747 0
-5403 2747 0
-5404 2747 0
-5405 2747 0
-5406 2747 0
-5407 2747 0
-5408 2747 0
-5409 2764 0
-5410 2764 0
-5411 2764 0
-5412 2764 0
-5413 2764 0
-5414 2764 0
-5415 2764 0
-5416 2764 0
-5417 2764 0
-5418 2764 0
-5419 2764 0
-5420 2764 0
-5421 2764 0
-5422 2764 0
-5423 2764 0
-5424 2764 0
-5425 2781 0
-5426 2781 0
-5427 2781 0
-5428 2781 0
-5429 2781 0
-5430 2781 0
-5431 2781 0
-5432 2781 0
-5433 2781 0
-5434 2781 0
-5435 2781 0
-5436 2781 0
-5437 2781 0
-5438 2781 0
-5439 2781 0
-5440 2781 0
-5441 2798 0
-5442 2798 0
-5443 2798 0
-5444 2798 0
-5445 2798 0
-5446 2798 0
-5447 2798 0
-5448 2798 0
-5449 2798 0
-5450 2798 0
-5451 2798 0
-5452 2798 0
-5453 2798 0
-5454 2798 0
-5455 2798 0
-5456 2798 0
-5457 2815 0
-5458 2815 0
-5459 2815 0
-5460 2815 0
-5461 2815 0
-5462 2815 0
-5463 2815 0
-5464 2815 0
-5465 2815 0
-5466 2815 0
-5467 2815 0
-5468 2815 0
-5469 2815 0
-5470 2815 0
-5471 2815 0
-5472 2815 0
-5473 2832 0
-5474 2832 0
-5475 2832 0
-5476 2832 0
-5477 2832 0
-5478 2832 0
-5479 2832 0
-5480 2832 0
-5481 2832 0
-5482 2832 0
-5483 2832 0
-5484 2832 0
-5485 2832 0
-5486 2832 0
-5487 2832 0
-5488 2832 0
3105 -2577 5233 -1 0
3107 -2594 5234 -17 0
3109 -2611 5235 -33 0
3111 -2628 5236 -49 0
3113 -2645 5237 -65 0
3115 -2662 5238 -81 0
3117 -2679 5239 -97 0
3119 -2696 5240 -113 0
3121 -2713 5241 -129 0
3123 -2730 5242 -145 0
3125 -2747 5243 -161 0
3127 -2764 5244 -177 0
3129 -2781 5245 -193 0
3131 -2798 5246 -209 0
3133 -2815 5247 -225 0
3135 -2832 5248 -241 0
3105 -2577 5249 -2 0
3107 -2594 5250 -18 0
3109 -2611 5251 -34 0
3111 -2628 5252 -50 0
3113 -2645 5253 -66 0
3115 -2662 5254 -82 0
3117 -2679 5255 -98 0
3119 -2696 5256 -114 0
3121 -2713 5257 -130 0
3123 -2730 5258 -146 0
3125 -2747 5259 -162 0
3127 -2764 5260 -178 0
3129 -2781 5261 -194 0
3131 -2798 5262 -210 0
3133 -2815 5263 -226 0
3135 -2832 5264 -242 0
3105 -2577 5265 -3 0
3107 -2594 5266 -19 0
3109 -2611 5267 -35 0
3111 -2628 5268 -51 0
3113 -2645 5269 -67 0
3115 -2662 5270 -83 0
3117 -2679 5271 -99 0
3119 -2696 5272 -115 0
3121 -2713 5273 -131 0
3123 -2730 5274 -147 0
3125 -2747 5275 -163 0
3127 -2764 5276 -179 0
3129 -2781 5277 -195 0
3131 -2798 5278 -211 0
3133 -2815 5279 -227 0
3135 -2832 5280 -243 0
3105 -2577 5281 -4 0
3107 -2594 5282 -20 0
3109 -2611 5283 -36 0
3111 -2628 5284 -52 0
3113 -2645 5285 -68 0
3115 -2662 5286 -84 0
3117 -2679 5287 -100 0
3119 -2696 5288 -116 0
3121 -2713 5289 -132 0
3123 -2730 5290 -148 0
3125 -2747 5291 -164 0
3127 -2764 5292 -180 0
3129 -2781 5293 -196 0
3131 -2798 5294 -212 0
3133 -2815 5295 -228 0
3135 -2832 5296 -244 0
3105 -2577 5297 -5 0
3107 -2594 5298 -21 0
3109 -2611 5299 -37 0
3111 -2628 5300 -53 0
3113 -2645 5301 -69 0
3115 -2662 5302 -85 0
3117 -2679 5303 -101 0
3119 -2696 5304 -117 0
3121 -2713 5305 -133 0
3123 -2730 5306 -149 0
3125 -2747 5307 -165 0
3127 -2764 5308 -181 0
3129 -2781 5309 -197 0
3131 -2798 5310 -213 0
3133 -2815 5311 -229 0
3135 -2832 5312 -245 0
3105 -2577 5313 -6 0
3107 -2594 5314 -22 0
3109 -2611 5315 -38 0
3111 -2628 5316 -54 0
3113 -2645 5317 -70 0
3115 -2662 5318 -86 0
3117 -2679 5319 -102 0
3119 -2696 5320 -118 0
3121 -2713 5321 -134 0
3123 -2730 5322 -150 0
3125 -2747 5323 -166 0
3127 -2764 5324 -182 0
3129 -2781 5325 -198 0
3131 -2798 5326 -214 0
3133 -2815 5327 -230 0
3135 -2832 5328 -246 0
3105 -2577 5329 -7 0
3107 -2594 5330 -23 0
3109 -2611 5331 -39 0
3111 -2628 5332 -55 0
3113 -2645 5333 -71 0
3115 -2662 5334 -87 0
3117 -2679 5335 -103 0
3119 -2696 5336 -119 0
3121 -2713 5337 -135 0
3123 -2730 5338 -151 0
3125 -2747 5339 -167 0
3127 -2764 5340 -183 0
3129 -2781 5341 -199 0
3131 -2798 5342 -215 0
3133 -2815 5343 -231 0
3135 -2832 5344 -247 0
3105 -2577 5345 -8 0
3107 -2594 5346 -24 0
3109 -2611 5347 -40 0
3111 -2628 5348 -56 0
3113 -2645 5349 -72 0
3115 -2662 5350 -88 0
3117 -2679 5351 -104 0
3119 -2696 5352 -120 0
3121 -2713 5353 -136 0
3123 -2730 5354 -152 0
3125 -2747 5355 -168 0
3127 -2764 5356 -184 0
3129 -2781 5357 -200 0
3131 -2798 5358 -216 0
3133 -2815 5359 -232 0
3135 -2832 5360 -248 0
3105 -2577 5361 -9 0
3107 -2594 5362 -25 0
3109 -2611 5363 -41 0
3111 -2628 5364 -57 0
3113 -2645 5365 -73 0
3115 -2662 5366 -89 0
3117 -2679 5367 -105 0
3119 -2696 5368 -121 0
3121 -2713 5369 -137 0
3123 -2730 5370 -153 0
3125 -2747 5371 -169 0
3127 -2764 5372 -185 0
3129 -2781 5373 -201 0
3131 -2798 5374 -217 0
3133 -2815 5375 -233 0
3135 -2832 5376 -249 0
3105 -2577 5377 -10 0
3107 -2594 5378 -26 0
3109 -2611 5379 -42 0
3111 -2628 5380 -58 0
3113 -2645 5381 -74 0
3115 -2662 5382 -90 0
3117 -2679 5383 -106 0
3119 -2696 5384 -122 0
3121 -2713 5385 -138 0
3123 -2730 5386 -154 0
3125 -2747 5387 -170 0
3127 -2764 5388 -186 0
3129 -2781 5389 -202 0
3131 -2798 5390 -218 0
3133 -2815 5391 -234 0
3135 -2832 5392 -250 0
3105 -2577 5393 -11 0
3107 -2594 5394 -27 0
3109 -2611 5395 -43 0
3111 -2628 5396 -59 0
3113 -2645 5397 -75 0
3115 -2662 5398 -91 0
3117 -2679 5399 -107 0
3119 -2696 5400 -123 0
3121 -2713 5401 -139 0
3123 -2730 5402 -155 0
3125 -2747 5403 -171 0
3127 -2764 5404 -187 0
3129 -2781 5405 -203 0
3131 -2798 5406 -219 0
3133 -2815 5407 -235 0
3135 -2832 5408 -251 0
3105 -2577 5409 -12 0
3107 -2594 5410 -28 0
3109 -2611 5411 -44 0
3111 -2628 5412 -60 0
3113 -2645 5413 -76 0
3115 -2662 5414 -92 0
3117 -2679 5415 -108 0
3119 -2696 5416 -124 0
3121 -2713 5417 -140 0
3123 -2730 5418 -156 0
3125 -2747 5419 -172 0
3127 -2764 5420 -188 0
3129 -2781 5421 -204 0
3131 -2798 5422 -220 0
3133 -2815 5423 -236 0
3135 -2832 5424 -252 0
3105 -2577 5425 -13 0
3107 -2594 5426 -29 0
3109 -2611 5427 -45 0
3111 -2628 5428 -61 0
3113 -2645 5429 -77 0
3115 -2662 5430 -93 0
3117 -2679 5431 -109 0
3119 -2696 5432 -125 0
3121 -2713 5433 -141 0
3123 -2730 5434 -157 0
3125 -2747 5435 -173 0
3127 -2764 5436 -189 0
3129 -2781 5437 -205 0
3131 -2798 5438 -221 0
3133 -2815 5439 -237 0
3135 -2832 5440 -253 0
3105 -2577 5441 -14 0
3107 -2594 5442 -30 0
3109 -2611 5443 -46 0
3111 -2628 5444 -62 0
3113 -2645 5445 -78 0
3115 -2662 5446 -94 0
3117 -2679 5447 -110 0
3119 -2696 5448 -126 0
3121 -2713 5449 -142 0
3123 -2730 5450 -158 0
3125 -2747 5451 -174 0
3127 -2764 5452 -190 0
3129 -2781 5453 -206 0
3131 -2798 5454 -222 0
3133 -2815 5455 -238 0
3135 -2832 5456 -254 0
3105 -2577 5457 -15 0
3107 -2594 5458 -31 0
3109 -2611 5459 -47 0
3111 -2628 5460 -63 0
3113 -2645 5461 -79 0
3115 -2662 5462 -95 0
3117 -2679 5463 -111 0
3119 -2696 5464 -127 0
3121 -2713 5465 -143 0
3123 -2730 5466 -159 0
3125 -2747 5467 -175 0
3127 -2764 5468 -191 0
3129 -2781 5469 -207 0
3131 -2798 5470 -223 0
3133 -2815 5471 -239 0
3135 -2832 5472 -255 0
3105 -2577 5473 -16 0
3107 -2594 5474 -32 0
3109 -2611 5475 -48 0
3111 -2628 5476 -64 0
3113 -2645 5477 -80 0
3115 -2662 5478 -96 0
3117 -2679 5479 -112 0
3119 -2696 5480 -128 0
3121 -2713 5481 -144 0
3123 -2730 5482 -160 0
3125 -2747 5483 -176 0
3127 -2764 5484 -192 0
3129 -2781 5485 -208 0
3131 -2798 5486 -224 0
3133 -2815 5487 -240 0
3135 -2832 5488 -256 0
1 -3105 0
17 -3107 0
33 -3109 0
49 -3111 0
65 -3113 0
81 -3115 0
97 -3117 0
113 -3119 0
129 -3121 0
145 -3123 0
161 -3125 0
177 -3127 0
193 -3129 0
209 -3131 0
225 -3133 0
241 -3135 0
2 -3105 0
18 -3107 0
34 -3109 0
50 -3111 0
66 -3113 0
82 -3115 0
98 -3117 0
114 -3119 0
130 -3121 0
146 -3123 0
162 -3125 0
178 -3127 0
194 -3129 0
210 -3131 0
226 -3133 0
242 -3135 0
3 -3105 0
19 -3107 0
35 -3109 0
51 -3111 0
67 -3113 0
83 -3115 0
99 -3117 0
115 -3119 0
131 -3121 0
147 -3123 0
163 -3125 0
179 -3127 0
195 -3129 0
211 -3131 0
227 -3133 0
243 -3135 0
4 -3105 0
20 -3107 0
36 -3109 0
52 -3111 0
68 -3113 0
84 -3115 0
100 -3117 0
116 -3119 0
132 -3121 0
148 -3123 0
164 -3125 0
180 -3127 0
196 -3129 0
212 -3131 0
228 -3133 0
244 -3135 0
5 -3105 0
21 -3107 0
37 -3109 0
53 -3111 0
69 -3113 0
85 -3115 0
101 -3117 0
117 -3119 0
133 -3121 0
149 -3123 0
165 -3125 0
181 -3127 0
197 -3129 0
213 -3131 0
229 -3133 0
245 -3135 0
6 -3105 0
22 -3107 0
38 -3109 0
54 -3111 0
70 -3113 0
86 -3115 0
102 -3117 0
118 -3119 0
134 -3121 0
150 -3123 0
166 -3125 0
182 -3127 0
198 -3129 0
214 -3131 0
230 -3133 0
246 -3135 0
7 -3105 0
23 -3107 0
39 -3109 0
55 -3111 0
71 -3113 0
87 -3115 0
103 -3117 0
119 -3119 0
135 -3121 0
151 -3123 0
167 -3125 0
183 -3127 0
199 -3129 0
215 -3131 0
231 -3133 0
247 -3135 0
8 -3105 0
24 -3107 0
40 -3109 0
56 -3111 0
72 -3113 0
88 -3115 0
104 -3117 0
120 -3119 0
136 -3121 0
152 -3123 0
168 -3125 0
184 -3127 0
200 -3129 0
216 -3131 0
232 -3133 0
248 -3135 0
9 -3105 0
25 -3107 0
41 -3109 0
57 -3111 0
73 -3113 0
89 -3115 0
105 -3117 0
121 -3119 0
137 -3121 0
153 -3123 0
169 -3125 0
185 -3127 0
201 -3129 0
217 -3131 0
233 -3133 0
249 -3135 0
10 -3105 0
26 -3107 0
42 -3109 0
58 -3111 0
74 -3113 0
90 -3115 0
106 -3117 0
122 -3119 0
138 -3121 0
154 -3123 0
170 -3125 0
186 -3127 0
202 -3129 0
218 -3131 0
234 -3133 0
250 -3135 0
11 -3105 0
27 -3107 0
43 -3109 0
59 -3111 0
75 -3113 0
91 -3115 0
107 -3117 0
123 -3119 0
139 -3121 0
155 -3123 0
171 -3125 0
187 -3127 0
203 -3129 0
219 -3131 0
235 -3133 0
251 -3135 0
12 -3105 0
28 -3107 0
44 -3109 0
60 -3111 0
76 -3113 0
92 -3115 0
108 -3117 0
124 -3119 0
140 -3121 0
156 -3123 0
172 -3125 0
188 -3127 0
204 -3129 0
220 -3131 0
236 -3133 0
252 -3135 0
13 -3105 0
29 -3107 0
45 -3109 0
61 -3111 0
77 -3113 0
93 -3115 0
109 -3117 0
125 -3119 0
141 -3121 0
157 -3123 0
173 -3125 0
189 -3127 0
205 -3129 0
221 -3131 0
237 -3133 0
253 -3135 0
14 -3105 0
30 -3107 0
46 -3109 0
62 -3111 0
78 -3113 0
94 -3115 0
110 -3117 0
126 -3119 0
142 -3121 0
158 -3123 0
174 -3125 0
190 -3127 0
206 -3129 0
222 -3131 0
238 -3133 0
254 -3135 0
15 -3105 0
31 -3107 0
47 -3109 0
63 -3111 0
79 -3113 0
95 -3115 0
111 -3117 0
127 -3119 0
143 -3121 0
159 -3123 0
175 -3125 0
191 -3127 0
207 -3129 0
223 -3131 0
239 -3133 0
255 -3135 0
16 -3105 0
32 -3107 0
48 -3109 0
64 -3111 0
80 -3113 0
96 -3115 0
112 -3117 0
128 -3119 0
144 -3121 0
160 -3123 0
176 -3125 0
192 -3127 0
208 -3129 0
224 -3131 0
240 -3133 0
256 -3135 0
1 2577 0
17 2594 0
33 2611 0
49 2628 0
65 2645 0
81 2662 0
97 2679 0
113 2696 0
129 2713 0
145 2730 0
161 2747 0
177 2764 0
193 2781 0
209 2798 0
225 2815 0
241 2832 0
2 2577 0
18 2594 0
34 2611 0
50 2628 0
66 2645 0
82 2662 0
98 2679 0
114 2696 0
130 2713 0
146 2730 0
162 2747 0
178 2764 0
194 2781 0
210 2798 0
226 2815 0
242 2832 0
3 2577 0
19 2594 0
35 2611 0
51 2628 0
67 2645 0
83 2662 0
99 2679 0
115 2696 0
131 2713 0
147 2730 0
163 2747 0
179 2764 0
195 2781 0
211 2798 0
227 2815 0
243 2832 0
4 2577 0
20 2594 0
36 2611 0
52 2628 0
68 2645 0
84 2662 0
100 2679 0
116 2696 0
132 2713 0
148 2730 0
164 2747 0
180 2764 0
196 2781 0
212 2798 0
228 2815 0
244 2832 0
5 2577 0
21 2594 0
37 2611 0
53 2628 0
69 2645 0
85 2662 0
101 2679 0
117 2696 0
133 2713 0
149 2730 0
165 2747 0
181 2764 0
197 2781 0
213 2798 0
229 2815 0
245 2832 0
6 2577 0
22 2594 0
38 2611 0
54 2628 0
70 2645 0
86 2662 0
102 2679 0
118 2696 0
134 2713 0
150 2730 0
166 2747 0
182 2764 0
198 2781 0
214 2798 0
230 2815 0
246 2832 0
7 2577 0
23 2594 0
39 2611 0
55 2628 0
71 2645 0
87 2662 0
103 2679 0
119 2696 0
135 2713 0
151 2730 0
167 2747 0
183 2764 0
199 2781 0
215 2798 0
231 2815 0
247 2832 0
8 2577 0
24 2594 0
40 2611 0
56 2628 0
72 2645 0
88 2662 0
104 2679 0
120 2696 0
136 2713 0
152 2730 0
168 2747 0
184 2764 0
200 2781 0
216 2798 0
232 2815 0
248 2832 0
9 2577 0
25 2594 0
41 2611 0
57 2628 0
73 2645 0
89 2662 0
105 2679 0
121 2696 0
137 2713 0
153 2730 0
169 2747 0
185 2764 0
201 2781 0
217 2798 0
233 2815 0
249 2832 0
10 2577 0
26 2594 0
42 2611 0
58 2628 0
74 2645 0
90 2662 0
106 2679 0
122 2696 0
138 2713 0
154 2730 0
170 2747 0
186 2764 0
202 2781 0
218 2798 0
234 2815 0
250 2832 0
11 2577 0
27 2594 0
43 2611 0
59 2628 0
75 2645 0
91 2662 0
107 2679 0
123 2696 0
139 2713 0
155 2730 0
171 2747 0
187 2764 0
203 2781 0
219 2798 0
235 2815 0
251 2832 0
12 2577 0
28 2594 0
44 2611 0
60 2628 0
76 2645 0
92 2662 0
108 2679 0
124 2696 0
140 2713 0
156 2730 0
172 2747 0
188 2764 0
204 2781 0
220 2798 0
236 2815 0
252 2832 0
13 2577 0
29 2594 0
45 2611 0
61 2628 0
77 2645 0
93 2662 0
109 2679 0
125 2696 0
141 2713 0
157 2730 0
173 2747 0
189 2764 0
205 2781 0
221 2798 0
237 2815 0
253 2832 0
14 2577 0
30 2594 0
46 2611 0
62 2628 0
78 2645 0
94 2662 0
110 2679 0
126 2696 0
142 2713 0
158 2730 0
174 2747 0
190 2764 0
206 2781 0
222 2798 0
238 2815 0
254 2832 0
15 2577 0
31 2594 0
47 2611 0
63 2628 0
79 2645 0
95 2662 0
111 2679 0
127 2696 0
143 2713 0
159 2730 0
175 2747 0
191 2764 0
207 2781 0
223 2798 0
239 2815 0
255 2832 0
16 2577 0
32 2594 0
48 2611 0
64 2628 0
80 2645 0
96 2662 0
112 2679 0
128 2696 0
144 2713 0
160 2730 0
176 2747 0
192 2764 0
208 2781 0
224 2798 0
240 2815 0
256 2832 0
1 -5233 0
17 -5234 0
33 -5235 0
49 -5236 0
65 -5237 0
81 -5238 0
97 -5239 0
113 -5240 0
129 -5241 0
145 -5242 0
161 -5243 0
177 -5244 0
193 -5245 0
209 -5246 0
225 -5247 0
241 -5248 0
2 -5249 0
18 -5250 0
34 -5251 0
50 -5252 0
66 -5253 0
82 -5254 0
98 -5255 0
114 -5256 0
130 -5257 0
146 -5258 0
162 -5259 0
178 -5260 0
194 -5261 0
210 -5262 0
226 -5263 0
242 -5264 0
3 -5265 0
19 -5266 0
35 -5267 0
51 -5268 0
67 -5269 0
83 -5270 0
99 -5271 0
115 -5272 0
131 -5273 0
147 -5274 0
163 -5275 0
179 -5276 0
195 -5277 0
211 -5278 0
227 -5279 0
243 -5280 0
4 -5281 0
20 -5282 0
36 -5283 0
52 -5284 0
68 -5285 0
84 -5286 0
100 -5287 0
116 -5288 0
132 -5289 0
148 -5290 0
164 -5291 0
180 -5292 0
196 -5293 0
212 -5294 0
228 -5295 0
244 -5296 0
5 -5297 0
21 -5298 0
37 -5299 0
53 -5300 0
69 -5301 0
85 -5302 0
101 -5303 0
117 -5304 0
133 -5305 0
149 -5306 0
165 -5307 0
181 -5308 0
197 -5309 0
213 -5310 0
229 -5311 0
245 -5312 0
6 -5313 0
22 -5314 0
38 -5315 0
54 -5316 0
70 -5317 0
86 -5318 0
102 -5319 0
118 -5320 0
134 -5321 0
150 -5322 0
166 -5323 0
182 -5324 0
198 -5325 0
214 -5326 0
230 -5327 0
246 -5328 0
7 -5329 0
23 -5330 0
39 -5331 0
55 -5332 0
71 -5333 0
87 -5334 0
103 -5335 0
119 -5336 0
135 -5337 0
151 -5338 0
167 -5339 0
183 -5340 0
199 -5341 0
215 -5342 0
231 -5343 0
247 -5344 0
8 -5345 0
24 -5346 0
40 -5347 0
56 -5348 0
72 -5349 0
88 -5350 0
104 -5351 0
120 -5352 0
136 -5353 0
152 -5354 0
168 -5355 0
184 -5356 0
200 -5357 0
216 -5358 0
232 -5359 0
248 -5360 0
9 -5361 0
25 -5362 0
41 -5363 0
57 -5364 0
73 -5365 0
89 -5366 0
105 -5367 0
121 -5368 0
137 -5369 0
153 -5370 0
169 -5371 0
185 -5372 0
201 -5373 0
217 -5374 0
233 -5375 0
249 -5376 0
10 -5377 0
26 -5378 0
42 -5379 0
58 -5380 0
74 -5381 0
90 -5382 0
106 -5383 0
122 -5384 0
138 -5385 0
154 -5386 0
170 -5387 0
186 -5388 0
202 -5389 0
218 -5390 0
234 -5391 0
250 -5392 0
11 -5393 0
27 -5394 0
43 -5395 0
59 -5396 0
75 -5397 0
91 -5398 0
107 -5399 0
123 -5400 0
139 -5401 0
155 -5402 0
171 -5403 0
187 -5404 0
203 -5405 0
219 -5406 0
235 -5407 0
251 -5408 0
12 -5409 0
28 -5410 0
44 -5411 0
60 -5412 0
76 -5413 0
92 -5414 0
108 -5415 0
124 -5416 0
140 -5417 0
156 -5418 0
172 -5419 0
188 -5420 0
204 -5421 0
220 -5422 0
236 -5423 0
252 -5424 0
13 -5425 0
29 -5426 0
45 -5427 0
61 -5428 0
77 -5429 0
93 -5430 0
109 -5431 0
125 -5432 0
141 -5433 0
157 -5434 0
173 -5435 0
189 -5436 0
205 -5437 0
221 -5438 0
237 -5439 0
253 -5440 0
14 -5441 0
30 -5442 0
46 -5443 0
62 -5444 0
78 -5445 0
94 -5446 0
110 -5447 0
126 -5448 0
142 -5449 0
158 -5450 0
174 -5451 0
190 -5452 0
206 -5453 0
222 -5454 0
238 -5455 0
254 -5456 0
15 -5457 0
31 -5458 0
47 -5459 0
63 -5460 0
79 -5461 0
95 -5462 0
111 -5463 0
127 -5464 0
143 -5465 0
159 -5466 0
175 -5467 0
191 -5468 0
207 -5469 0
223 -5470 0
239 -5471 0
255 -5472 0
16 -5473 0
32 -5474 0
48 -5475 0
64 -5476 0
80 -5477 0
96 -5478 0
112 -5479 0
128 -5480 0
144 -5481 0
160 -5482 0
176 -5483 0
192 -5484 0
208 -5485 0
224 -5486 0
240 -5487 0
256 -5488 0
-1809 -3377 5489 0
-1841 -3377 5490 0
-1873 -3377 5491 0
-1905 -3377 5492 0
-1937 -3377 5493 0
-1969 -3377 5494 0
-2001 -3377 5495 0
-2033 -3377 5496 0
-2065 -3377 5497 0
-2097 -3377 5498 0
-2129 -3377 5499 0
-2161 -3377 5500 0
-2193 -3377 5501 0
-2225 -3377 5502 0
-2257 -3377 5503 0
-2289 -3377 5504 0
-1811 -3394 5505 0
-1843 -3394 5506 0
-1875 -3394 5507 0
-1907 -3394 5508 0
-1939 -3394 5509 0
-1971 -3394 5510 0
-2003 -3394 5511 0
-2035 -3394 5512 0
-2067 -3394 5513 0
-2099 -3394 5514 0
-2131 -3394 5515 0
-2163 -3394 5516 0
-2195 -3394 5517 0
-2227 -3394 5518 0
-2259 -3394 5519 0
-2291 -3394 5520 0
-1813 -3411 5521 0
-1845 -3411 5522 0
-1877 -3411 5523 0
-1909 -3411 5524 0
-1941 -3411 5525 0
-1973 -3411 5526 0
-2005 -3411 5527 0
-2037 -3411 5528 0
-2069 -3411 5529 0
-2101 -3411 5530 0
-2133 -3411 5531 0
-2165 -3411 5532 0
-2197 -3411 5533 0
-2229 -3411 5534 0
-2261 -3411 5535 0
-2293 -3411 5536 0
-1815 -3428 5537 0
-1847 -3428 5538 0
-1879 -3428 5539 0
-1911 -3428 5540 0
-1943 -3428 5541 0
-1975 -3428 5542 0
-2007 -3428 5543 0
-2039 -3428 5544 0
-2071 -3428 5545 0
-2103 -3428 5546 0
-2135 -3428 5547 0
-2167 -3428 5548 0
-2199 -3428 5549 0
-2231 -3428 5550 0
-2263 -3428 5551 0
-2295 -3428 5552 0
-1817 -3445 5553 0
-1849 -3445 5554 0
-1881 -3445 5555 0
-1913 -3445 5556 0
-1945 -3445 5557 0
-1977 -3445 5558 0
-2009 -3445 5559 0
-2041 -3445 5560 0
-2073 -3445 5561 0
-2105 -3445 5562 0
-2137 -3445 5563 0
-2169 -3445 5564 0
-2201 -3445 5565 0
-2233 -3445 5566 0
-2265 -3445 5567 0
-2297 -3445 5568 0
-1819 -3462 5569 0
-1851 -3462 5570 0
-1883 -3462 5571 0
-1915 -3462 5572 0
-1947 -3462 5573 0
-1979 -3462 5574 0
-2011 -3462 5575 0
-2043 -3462 5576 0
-2075 -3462 5577 0
-2107 -3462 5578 0
-2139 -3462 5579 0
-2171 -3462 5580 0
-2203 -3462 5581 0
-2235 -3462 5582 0
-2267 -3462 5583 0
-2299 -3462 5584 0
-1821 -3479 5585 0
-1853 -3479 5586 0
-1885 -3479 5587 0
-1917 -3479 5588 0
-1949 -3479 5589 0
-1981 -3479 5590 0
-2013 -3479 5591 0
-2045 -3479 5592 0
-2077 -3479 5593 0
-2109 -3479 5594 0
-2141 -3479 5595 0
-2173 -3479 5596 0
-2205 -3479 5597 0
-2237 -3479 5598 0
-2269 -3479 5599 0
-2301 -3479 5600 0
-1823 -3496 5601 0
-1855 -3496 5602 0
-1887 -3496 5603 0
-1919 -3496 5604 0
-1951 -3496 5605 0
-1983 -3496 5606 0
-2015 -3496 5607 0
-2047 -3496 5608 0
-2079 -3496 5609 0
-2111 -3496 5610 0
-2143 -3496 5611 0
-2175 -3496 5612 0
-2207 -3496 5613 0
-2239 -3496 5614 0
-2271 -3496 5615 0
-2303 -3496 5616 0
-1825 -3513 5617 0
-1857 -3513 5618 0
-1889 -3513 5619 0
-1921 -3513 5620 0
-1953 -3513 5621 0
-1985 -3513 5622 0
-2017 -3513 5623 0
-2049 -3513 5624 0
-2081 -3513 5625 0
-2113 -3513 5626 0
-2145 -3513 5627 0
-2177 -3513 5628 0
-2209 -3513 5629 0
-2241 -3513 5630 0
-2273 -3513 5631 0
-2305 -3513 5632 0
-1827 -3530 5633 0
-1859 -3530 5634 0
-1891 -3530 5635 0
-1923 -3530 5636 0
-1955 -3530 5637 0
-1987 -3530 5638 0
-2019 -3530 5639 0
-2051 -3530 5640 0
-2083 -3530 5641 0
-2115 -3530 5642 0
-2147 -3530 5643 0
-2179 -3530 5644 0
-2211 -3530 5645 0
-2243 -3530 5646 0
-2275 -3530 5647 0
-2307 -3530 5648 0
-1829 -3547 5649 0
-1861 -3547 5650 0
-1893 -3547 5651 0
-1925 -3547 5652 0
-1957 -3547 5653 0
-1989 -3547 5654 0
-2021 -3547 5655 0
-2053 -3547 5656 0
-2085 -3547 5657 0
-2117 -3547 5658 0
-2149 -3547 5659 0
-2181 -3547 5660 0
-2213 -3547 5661 0
-2245 -3547 5662 0
-2277 -3547 5663 0
-2309 -3547 5664 0
-1831 -3564 5665 0
-1863 -3564 5666 0
-1895 -3564 5667 0
-1927 -3564 5668 0
-1959 -3564 5669 0
-1991 -3564 5670 0
-2023 -3564 5671 0
-2055 -3564 5672 0
-2087 -3564 5673 0
-2119 -3564 5674 0
-2151 -3564 5675 0
-2183 -3564 5676 0
-2215 -3564 5677 0
-2247 -3564 5678 0
-2279 -3564 5679 0
-2311 -3564 5680 0
-1833 -3581 5681 0
-1865 -3581 5682 0
-1897 -3581 5683 0
-1929 -3581 5684 0
-1961 -3581 5685 0
-1993 -3581 5686 0
-2025 -3581 5687 0
-2057 -3581 5688 0
-2089 -3581 5689 0
-2121 -3581 5690 0
-2153 -3581 5691 0
-2185 -3581 5692 0
-2217 -3581 5693 0
-2249 -3581 5694 0
-2281 -3581 5695 0
-2313 -3581 5696 0
-1835 -3598 5697 0
-1867 -3598 5698 0
-1899 -3598 5699 0
-1931 -3598 5700 0
-1963 -3598 5701 0
-1995 -3598 5702 0
-2027 -3598 5703 0
-2059 -3598 5704 0
-2091 -3598 5705 0
-2123 -3598 5706 0
-2155 -3598 5707 0
-2187 -3598 5708 0
-2219 -3598 5709 0
-2251 -3598 5710 0
-2283 -3598 5711 0
-2315 -3598 5712 0
-1837 -3615 5713 0
-1869 -3615 5714 0
-1901 -3615 5715 0
-1933 -3615 5716 0
-1965 -3615 5717 0
-1997 -3615 5718 0
-2029 -3615 5719 0
-2061 -3615 5720 0
-2093 -3615 5721 0
-2125 -3615 5722 0
-2157 -3615 5723 0
-2189 -3615 5724 0
-2221 -3615 5725 0
-2253 -3615 5726 0
-2285 -3615 5727 0
-2317 -3615 5728 0
-1839 -3632 5729 0
-1871 -3632 5730 0
-1903 -3632 5731 0
-1935 -3632 5732 0
-1967 -3632 5733 0
-1999 -3632 5734 0
-2031 -3632 5735 0
-2063 -3632 5736 0
-2095 -3632 5737 0
-2127 -3632 5738 0
-2159 -3632 5739 0
-2191 -3632 5740 0
-2223 -3632 5741 0
-2255 -3632 5742 0
-2287 -3632 5743 0
-2319 -3632 5744 0
-5489 1809 0
-5490 1841 0
-5491 1873 0
-5492 1905 0
-5493 1937 0
-5494 1969 0
-5495 2001 0
-5496 2033 0
-5497 2065 0
-5498 2097 0
-5499 2129 0
-5500 2161 0
-5501 2193 0
-5502 2225 0
-5503 2257 0
-5504 2289 0
-5505 1811 0
-5506 1843 0
-5507 1875 0
-5508 1907 0
-5509 1939 0
-5510 1971 0
-5511 2003 0
-5512 2035 0
-5513 2067 0
-5514 2099 0
-5515 2131 0
-5516 2163 0
-5517 2195 0
-5518 2227 0
-5519 2259 0
-5520 2291 0
-5521 1813 0
-5522 1845 0
-5523 1877 0
-5524 1909 0
-5525 1941 0
-5526 1973 0
-5527 2005 0
-5528 2037 0
-5529 2069 0
-5530 2101 0
-5531 2133 0
-5532 2165 0
-5533 2197 0
-5534 2229 0
-5535 2261 0
-5536 2293 0
-5537 1815 0
-5538 1847 0
-5539 1879 0
-5540 1911 0
-5541 1943 0
-5542 1975 0
-5543 2007 0
-5544 2039 0
-5545 2071 0
-5546 2103 0
-5547 2135 0
-5548 2167 0
-5549 2199 0
-5550 2231 0
-5551 2263 0
-5552 2295 0
-5553 1817 0
-5554 1849 0
-5555 1881 0
-5556 1913 0
-5557 1945 0
-5558 1977 0
-5559 2009 0
-5560 2041 0
-5561 2073 0
-5562 2105 0
-5563 2137 0
-5564 2169 0
-5565 2201 0
-5566 2233 0
-5567 2265 0
-5568 2297 0
-5569 1819 0
-5570 1851 0
-5571 1883 0
-5572 1915 0
-5573 1947 0
-5574 1979 0
-5575 2011 0
-5576 2043 0
-5577 2075 0
-5578 2107 0
-5579 2139 0
-5580 2171 0
-5581 2203 0
-5582 2235 0
-5583 2267 0
-5584 2299 0
-5585 1821 0
-5586 1853 0
-5587 1885 0
-5588 1917 0
-5589 1949 0
-5590 1981 0
-5591 2013 0
-5592 2045 0
-5593 2077 0
-5594 2109 0
-5595 2141 0
-5596 2173 0
-5597 2205 0
-5598 2237 0
-5599 2269 0
-5600 2301 0
-5601 1823 0
-5602 1855 0
-5603 1887 0
-5604 1919 0
-5605 1951 0
-5606 1983 0
-5607 2015 0
-5608 2047 0
-5609 2079 0
-5610 2111 0
-5611 2143 0
-5612 2175 0
-5613 2207 0
-5614 2239 0
-5615 2271 0
-5616 2303 0
-5617 1825 0
-5618 1857 0
-5619 1889 0
-5620 1921 0
-5621 1953 0
-5622 1985 0
-5623 2017 0
-5624 2049 0
-5625 2081 0
-5626 2113 0
-5627 2145 0
-5628 2177 0
-5629 2209 0
-5630 2241 0
-5631 2273 0
-5632 2305 0
-5633 1827 0
-5634 1859 0
-5635 1891 0
-5636 1923 0
-5637 1955 0
-5638 1987 0
-5639 2019 0
-5640 2051 0
-5641 2083 0
-5642 2115 0
-5643 2147 0
-5644 2179 0
-5645 2211 0
-5646 2243 0
-5647 2275 0
-5648 2307 0
-5649 1829 0
-5650 1861 0
-5651 1893 0
-5652 1925 0
-5653 1957 0
-5654 1989 0
-5655 2021 0
-5656 2053 0
-5657 2085 0
-5658 2117 0
-5659 2149 0
-5660 2181 0
-5661 2213 0
-5662 2245 0
-5663 2277 0
-5664 2309 0
-5665 1831 0
-5666 1863 0
-5667 1895 0
-5668 1927 0
-5669 1959 0
-5670 1991 0
-5671 2023 0
-5672 2055 0
-5673 2087 0
-5674 2119 0
-5675 2151 0
-5676 2183 0
-5677 2215 0
-5678 2247 0
-5679 2279 0
-5680 2311 0
-5681 1833 0
-5682 1865 0
-5683 1897 0
-5684 1929 0
-5685 1961 0
-5686 1993 0
-5687 2025 0
-5688 2057 0
-5689 2089 0
-5690 2121 0
-5691 2153 0
-5692 2185 0
-5693 2217 0
-5694 2249 0
-5695 2281 0
-5696 2313 0
-5697 1835 0
-5698 1867 0
-5699 1899 0
-5700 1931 0
-5701 1963 0
-5702 1995 0
-5703 2027 0
-5704 2059 0
-5705 2091 0
-5706 2123 0
-5707 2155 0
-5708 2187 0
-5709 2219 0
-5710 2251 0
-5711 2283 0
-5712 2315 0
-5713 1837 0
-5714 1869 0
-5715 1901 0
-5716 1933 0
-5717 1965 0
-5718 1997 0
-5719 2029 0
-5720 2061 0
-5721 2093 0
-5722 2125 0
-5723 2157 0
-5724 2189 0
-5725 2221 0
-5726 2253 0
-5727 2285 0
-5728 2317 0
-5729 1839 0
-5730 1871 0
-5731 1903 0
-5732 1935 0
-5733 1967 0
-5734 1999 0
-5735 2031 0
-5736 2063 0
-5737 2095 0
-5738 2127 0
-5739 2159 0
-5740 2191 0
-5741 2223 0
-5742 2255 0
-5743 2287 0
-5744 2319 0
-5489 3377 0
-5490 3377 0
-5491 3377 0
-5492 3377 0
-5493 3377 0
-5494 3377 0
-5495 3377 0
-5496 3377 0
-5497 3377 0
-5498 3377 0
-5499 3377 0
-5500 3377 0
-5501 3377 0
-5502 3377 0
-5503 3377 0
-5504 3377 0
-5505 3394 0
-5506 3394 0
-5507 3394 0
-5508 3394 0
-5509 3394 0
-5510 3394 0
-5511 3394 0
-5512 3394 0
-5513 3394 0
-5514 3394 0
-5515 3394 0
-5516 3394 0
-5517 3394 0
-5518 3394 0
-5519 3394 0
-5520 3394 0
-5521 3411 0
-5522 3411 0
-5523 3411 0
-5524 3411 0
-5525 3411 0
-5526 3411 0
-5527 3411 0
-5528 3411 0
-5529 3411 0
-5530 3411 0
-5531 3411 0
-5532 3411 0
-5533 3411 0
-5534 3411 0
-5535 3411 0
-5536 3411 0
-5537 3428 0
-5538 3428 0
-5539 3428 0
-5540 3428 0
-5541 3428 0
-5542 3428 0
-5543 3428 0
-5544 3428 0
-5545 3428 0
-5546 3428 0
-5547 3428 0
-5548 3428 0
-5549 3428 0
-5550 3428 0
-5551 3428 0
-5552 3428 0
-5553 3445 0
-5554 3445 0
-5555 3445 0
-5556 3445 0
-5557 3445 0
-5558 3445 0
-5559 3445 0
-5560 3445 0
-5561 3445 0
-5562 3445 0
-5563 3445 0
-5564 3445 0
-5565 3445 0
-5566 3445 0
-5567 3445 0
-5568 3445 0
-5569 3462 0
-5570 3462 0
-5571 3462 0
-5572 3462 0
-5573 3462 0
-5574 3462 0
-5575 3462 0
-5576 3462 0
-5577 3462 0
-5578 3462 0
-5579 3462 0
-5580 3462 0
-5581 3462 0
-5582 3462 0
-5583 3462 0
-5584 3462 0
-5585 3479 0
-5586 3479 0
-5587 3479 0
-5588 3479 0
-5589 3479 0
-5590 3479 0
-5591 3479 0
-5592 3479 0
-5593 3479 0
-5594 3479 0
-5595 3479 0
-5596 3479 0
-5597 3479 0
-5598 3479 0
-5599 3479 0
-5600 3479 0
-5601 3496 0
-5602 3496 0
-5603 3496 0
-5604 3496 0
-5605 3496 0
-5606 3496 0
-5607 3496 0
-5608 3496 0
-5609 3496 0
-5610 3496 0
-5611 3496 0
-5612 3496 0
-5613 3496 0
-5614 3496 0
-5615 3496 0
-5616 3496 0
-5617 3513 0
-5618 3513 0
-5619 3513 0
-5620 3513 0
-5621 3513 0
-5622 3513 0
-5623 3513 0
-5624 3513 0
-5625 3513 0
-5626 3513 0
-5627 3513 0
-5628 3513 0
-5629 3513 0
-5630 3513 0
-5631 3513 0
-5632 3513 0
-5633 3530 0
-5634 3530 0
-5635 3530 0
-5636 3530 0
-5637 3530 0
-5638 3530 0
-5639 3530 0
-5640 3530 0
-5641 3530 0
-5642 3530 0
-5643 3530 0
-5644 3530 0
-5645 3530 0
-5646 3530 0
-5647 3530 0
-5648 3530 0
-5649 3547 0
-5650 3547 0
-5651 3547 0
-5652 3547 0
-5653 3547 0
-5654 3547 0
-5655 3547 0
-5656 3547 0
-5657 3547 0
-5658 3547 0
-5659 3547 0
-5660 3547 0
-5661 3547 0
-5662 3547 0
-5663 3547 0
-5664 3547 0
-5665 3564 0
-5666 3564 0
-5667 3564 0
-5668 3564 0
-5669 3564 0
-5670 3564 0
-5671 3564 0
-5672 3564 0
-5673 3564 0
-5674 3564 0
-5675 3564 0
-5676 3564 0
-5677 3564 0
-5678 3564 0
-5679 3564 0
-5680 3564 0
-5681 3581 0
-5682 3581 0
-5683 3581 0
-5684 3581 0
-5685 3581 0
-5686 3581 0
-5687 3581 0
-5688 3581 0
-5689 3581 0
-5690 3581 0
-5691 3581 0
-5692 3581 0
-5693 3581 0
-5694 3581 0
-5695 3581 0
-5696 3581 0
-5697 3598 0
-5698 3598 0
-5699 3598 0
-5700 3598 0
-5701 3598 0
-5702 3598 0
-5703 3598 0
-5704 3598 0
-5705 3598 0
-5706 3598 0
-5707 3598 0
-5708 3598 0
-5709 3598 0
-5710 3598 0
-5711 3598 0
-5712 3598 0
-5713 3615 0
-5714 3615 0
-5715 3615 0
-5716 3615 0
-5717 3615 0
-5718 3615 0
-5719 3615 0
-5720 3615 0
-5721 3615 0
-5722 3615 0
-5723 3615 0
-5724 3615 0
-5725 3615 0
-5726 3615 0
-5727 3615 0
-5728 3615 0
-5729 3632 0
-5730 3632 0
-5731 3632 0
-5732 3632 0
-5733 3632 0
-5734 3632 0
-5735 3632 0
-5736 3632 0
-5737 3632 0
-5738 3632 0
-5739 3632 0
-5740 3632 0
-5741 3632 0
-5742 3632 0
-5743 3632 0
-5744 3632 0
3905 -3377 5489 -257 0
3907 -3394 5490 -273 0
3909 -3411 5491 -289 0
3911 -3428 5492 -305 0
3913 -3445 5493 -321 0
3915 -3462 5494 -337 0
3917 -3479 5495 -353 0
3919 -3496 5496 -369 0
3921 -3513 5497 -385 0
3923 -3530 5498 -401 0
3925 -3547 5499 -417 0
3927 -3564 5500 -433 0
3929 -3581 5501 -449 0
3931 -3598 5502 -465 0
3933 -3615 5503 -481 0
3935 -3632 5504 -497 0
3905 -3377 5505 -258 0
3907 -3394 5506 -274 0
3909 -3411 5507 -290 0
3911 -3428 5508 -306 0
3913 -3445 5509 -322 0
3915 -3462 5510 -338 0
3917 -3479 5511 -354 0
3919 -3496 5512 -370 0
3921 -3513 5513 -386 0
3923 -3530 5514 -402 0
3925 -3547 5515 -418 0
3927 -3564 5516 -434 0
3929 -3581 5517 -450 0
3931 -3598 5518 -466 0
3933 -3615 5519 -482 0
3935 -3632 5520 -498 0
3905 -3377 5521 -259 0
3907 -3394 5522 -275 0
3909 -3411 5523 -291 0
3911 -3428 5524 -307 0
3913 -3445 5525 -323 0
3915 -3462 5526 -339 0
3917 -3479 5527 -355 0
3919 -3496 5528 -371 0
3921 -3513 5529 -387 0
3923 -3530 5530 -403 0
3925 -3547 5531 -419 0
3927 -3564 5532 -435 0
3929 -3581 5533 -451 0
3931 -3598 5534 -467 0
3933 -3615 5535 -483 0
3935 -3632 5536 -499 0
3905 -3377 5537 -260 0
3907 -3394 5538 -276 0
3909 -3411 5539 -292 0
3911 -3428 5540 -308 0
3913 -3445 5541 -324 0
3915 -3462 5542 -340 0
3917 -3479 5543 -356 0
3919 -3496 5544 -372 0
3921 -3513 5545 -388 0
3923 -3530 5546 -404 0
3925 -3547 5547 -420 0
3927 -3564 5548 -436 0
3929 -3581 5549 -452 0
3931 -3598 5550 -468 0
3933 -3615 5551 -484 0
3935 -3632 5552 -500 0
3905 -3377 5553 -261 0
3907 -3394 5554 -277 0
3909 -3411 5555 -293 0
3911 -3428 5556 -309 0
3913 -3445 5557 -325 0
3915 -3462 5558 -341 0
3917 -3479 5559 -357 0
3919 -3496 5560 -373 0
3921 -3513 5561 -389 0
3923 -3530 5562 -405 0
3925 -3547 5563 -421 0
3927 -3564 5564 -437 0
3929 -3581 5565 -453 0
3931 -3598 5566 -469 0
3933 -3615 5567 -485 0
3935 -3632 5568 -501 0
3905 -3377 5569 -262 0
3907 -3394 5570 -278 0
3909 -3411 5571 -294 0
3911 -3428 5572 -310 0
3913 -3445 5573 -326 0
3915 -3462 5574 -342 0
3917 -3479 5575 -358 0
3919 -3496 5576 -374 0
3921 -3513 5577 -390 0
3923 -3530 5578 -406 0
3925 -3547 5579 -422 0
3927 -3564 5580 -438 0
3929 -3581 5581 -454 0
3931 -3598 5582 -470 0
3933 -3615 5583 -486 0
3935 -3632 5584 -502 0
3905 -3377 5585 -263 0
3907 -3394 5586 -279 0
3909 -3411 5587 -295 0
3911 -3428 5588 -311 0
3913 -3445 5589 -327 0
3915 -3462 5590 -343 0
3917 -3479 5591 -359 0
3919 -3496 5592 -375 0
3921 -3513 5593 -391 0
3923 -3530 5594 -407 0
3925 -3547 5595 -423 0
3927 -3564 5596 -439 0
3929 -3581 5597 -455 0
3931 -3598 5598 -471 0
3933 -3615 5599 -487 0
3935 -3632 5600 -503 0
3905 -3377 5601 -264 0
3907 -3394 5602 -280 0
3909 -3411 5603 -296 0
3911 -3428 5604 -312 0
3913 -3445 5605 -328 0
3915 -3462 5606 -344 0
3917 -3479 5607 -360 0
3919 -3496 5608 -376 0
3921 -3513 5609 -392 0
3923 -3530 5610 -408 0
3925 -3547 5611 -424 0
3927 -3564 5612 -440 0
3929 -3581 5613 -456 0
3931 -3598 5614 -472 0
3933 -3615 5615 -488 0
3935 -3632 5616 -504 0
3905 -3377 5617 -265 0
3907 -3394 5618 -281 0
3909 -3411 5619 -297 0
3911 -3428 5620 -313 0
3913 -3445 5621 -329 0
3915 -3462 5622 -345 0
3917 -3479 5623 -361 0
3919 -3496 5624 -377 0
3921 -3513 5625 -393 0
3923 -3530 5626 -409 0
3925 -3547 5627 -425 0
3927 -3564 5628 -441 0
3929 -3581 5629 -457 0
3931 -3598 5630 -473 0
3933 -3615 5631 -489 0
3935 -3632 5632 -505 0
3905 -3377 5633 -266 0
3907 -3394 5634 -282 0
3909 -3411 5635 -298 0
3911 -3428 5636 -314 0
3913 -3445 5637 -330 0
3915 -3462 5638 -346 0
3917 -3479 5639 -362 0
3919 -3496 5640 -378 0
3921 -3513 5641 -394 0
3923 -3530 5642 -410 0
3925 -3547 5643 -426 0
3927 -3564 5644 -442 0
3929 -3581 5645 -458 0
3931 -3598 5646 -474 0
3933 -3615 5647 -490 0
3935 -3632 5648 -506 0
3905 -3377 5649 -267 0
3907 -3394 5650 -283 0
3909 -3411 5651 -299 0
3911 -3428 5652 -315 0
3913 -3445 5653 -331 0
3915 -3462 5654 -347 0
3917 -3479 5655 -363 0
3919 -3496 5656 -379 0
3921 -3513 5657 -395 0
3923 -3530 5658 -411 0
3925 -3547 5659 -427 0
3927 -3564 5660 -443 0
3929 -3581 5661 -459 0
3931 -3598 5662 -475 0
3933 -3615 5663 -491 0
3935 -3632 5664 -507 0
3905 -3377 5665 -268 0
3907 -3394 5666 -284 0
3909 -3411 5667 -300 0
3911 -3428 5668 -316 0
3913 -3445 5669 -332 0
3915 -3462 5670 -348 0
3917 -3479 5671 -364 0
3919 -3496 5672 -380 0
3921 -3513 5673 -396 0
3923 -3530 5674 -412 0
3925 -3547 5675 -428 0
3927 -3564 5676 -444 0
3929 -3581 5677 -460 0
3931 -3598 5678 -476 0
3933 -3615 5679 -492 0
3935 -3632 5680 -508 0
3905 -3377 5681 -269 0
3907 -3394 5682 -285 0
3909 -3411 5683 -301 0
3911 -3428 5684 -317 0
3913 -3445 5685 -333 0
3915 -3462 5686 -349 0
3917 -3479 5687 -365 0
3919 -3496 5688 -381 0
3921 -3513 5689 -397 0
3923 -3530 5690 -413 0
3925 -3547 5691 -429 0
3927 -3564 5692 -445 0
3929 -3581 5693 -461 0
3931 -3598 5694 -477 0
3933 -3615 5695 -493 0
3935 -3632 5696 -509 0
3905 -3377 5697 -270 0
3907 -3394 5698 -286 0
3909 -3411 5699 -302 0
3911 -3428 5700 -318 0
3913 -3445 5701 -334 0
3915 -3462 5702 -350 0
3917 -3479 5703 -366 0
3919 -3496 5704 -382 0
3921 -3513 5705 -398 0
3923 -3530 5706 -414 0
3925 -3547 5707 -430 0
3927 -3564 5708 -446 0
3929 -3581 5709 -462 0
3931 -3598 5710 -478 0
3933 -3615 5711 -494 0
3935 -3632 5712 -510 0
3905 -3377 5713 -271 0
3907 -3394 5714 -287 0
3909 -3411 5715 -303 0
3911 -3428 5716 -319 0
3913 -3445 5717 -335 0
3915 -3462 5718 -351 0
3917 -3479 5719 -367 0
3919 -3496 5720 -383 0
3921 -3513 5721 -399 0
3923 -3530 5722 -415 0
3925 -3547 5723 -431 0
3927 -3564 5724 -447 0
3929 -3581 5725 -463 0
3931 -3598 5726 -479 0
3933 -3615 5727 -495 0
3935 -3632 5728 -511 0
3905 -3377 5729 -272 0
3907 -3394 5730 -288 0
3909 -3411 5731 -304 0
3911 -3428 5732 -320 0
3913 -3445 5733 -336 0
3915 -3462 5734 -352 0
3917 -3479 5735 -368 0
3919 -3496 5736 -384 0
3921 -3513 5737 -400 0
3923 -3530 5738 -416 0
3925 -3547 5739 -432 0
3927 -3564 5740 -448 0
3929 -3581 5741 -464 0
3931 -3598 5742 -480 0
3933 -3615 5743 -496 0
3935 -3632 5744 -512 0
257 -3905 0
273 -3907 0
289 -3909 0
305 -3911 0
321 -3913 0
337 -3915 0
353 -3917 0
369 -3919 0
385 -3921 0
401 -3923 0
417 -3925 0
433 -3927 0
449 -3929 0
465 -3931 0
481 -3933 0
497 -3935 0
258 -3905 0
274 -3907 0
290 -3909 0
306 -3911 0
322 -3913 0
338 -3915 0
354 -3917 0
370 -3919 0
386 -3921 0
402 -3923 0
418 -3925 0
434 -3927 0
450 -3929 0
466 -3931 0
482 -3933 0
498 -3935 0
259 -3905 0
275 -3907 0
291 -3909 0
307 -3911 0
323 -3913 0
339 -3915 0
355 -3917 0
371 -3919 0
387 -3921 0
403 -3923 0
419 -3925 0
435 -3927 0
451 -3929 0
467 -3931 0
483 -3933 0
499 -3935 0
260 -3905 0
276 -3907 0
292 -3909 0
308 -3911 0
324 -3913 0
340 -3915 0
356 -3917 0
372 -3919 0
388 -3921 0
404 -3923 0
420 -3925 0
436 -3927 0
452 -3929 0
468 -3931 0
484 -3933 0
500 -3935 0
261 -3905 0
277 -3907 0
293 -3909 0
309 -3911 0
325 -3913 0
341 -3915 0
357 -3917 0
373 -3919 0
389 -3921 0
405 -3923 0
421 -3925 0
437 -3927 0
453 -3929 0
469 -3931 0
485 -3933 0
501 -3935 0
262 -3905 0
278 -3907 0
294 -3909 0
310 -3911 0
326 -3913 0
342 -3915 0
358 -3917 0
374 -3919 0
390 -3921 0
406 -3923 0
422 -3925 0
438 -3927 0
454 -3929 0
470 -3931 0
486 -3933 0
502 -3935 0
263 -3905 0
279 -3907 0
295 -3909 0
311 -3911 0
327 -3913 0
343 -3915 0
359 -3917 0
375 -3919 0
391 -3921 0
407 -3923 0
423 -3925 0
439 -3927 0
455 -3929 0
471 -3931 0
487 -3933 0
503 -3935 0
264 -3905 0
280 -3907 0
296 -3909 0
312 -3911 0
328 -3913 0
344 -3915 0
360 -3917 0
376 -3919 0
392 -3921 0
408 -3923 0
424 -3925 0
440 -3927 0
456 -3929 0
472 -3931 0
488 -3933 0
504 -3935 0
265 -3905 0
281 -3907 0
297 -3909 0
313 -3911 0
329 -3913 0
345 -3915 0
361 -3917 0
377 -3919 0
393 -3921 0
409 -3923 0
425 -3925 0
441 -3927 0
457 -3929 0
473 -3931 0
489 -3933 0
505 -3935 0
266 -3905 0
282 -3907 0
298 -3909 0
314 -3911 0
330 -3913 0
346 -3915 0
362 -3917 0
378 -3919 0
394 -3921 0
410 -3923 0
426 -3925 0
442 -3927 0
458 -3929 0
474 -3931 0
490 -3933 0
506 -3935 0
267 -3905 0
283 -3907 0
299 -3909 0
315 -3911 0
331 -3913 0
347 -3915 0
363 -3917 0
379 -3919 0
395 -3921 0
411 -3923 0
427 -3925 0
443 -3927 0
459 -3929 0
475 -3931 0
491 -3933 0
507 -3935 0
268 -3905 0
284 -3907 0
300 -3909 0
316 -3911 0
332 -3913 0
348 -3915 0
364 -3917 0
380 -3919 0
396 -3921 0
412 -3923 0
428 -3925 0
444 -3927 0
460 -3929 0
476 -3931 0
492 -3933 0
508 -3935 0
269 -3905 0
285 -3907 0
301 -3909 0
317 -3911 0
333 -3913 0
349 -3915 0
365 -3917 0
381 -3919 0
397 -3921 0
413 -3923 0
429 -3925 0
445 -3927 0
461 -3929 0
477 -3931 0
493 -3933 0
509 -3935 0
270 -3905 0
286 -3907 0
302 -3909 0
318 -3911 0
334 -3913 0
350 -3915 0
366 -3917 0
382 -3919 0
398 -3921 0
414 -3923 0
430 -3925 0
446 -3927 0
462 -3929 0
478 -3931 0
494 -3933 0
510 -3935 0
271 -3905 0
287 -3907 0
303 -3909 0
319 -3911 0
335 -3913 0
351 -3915 0
367 -3917 0
383 -3919 0
399 -3921 0
415 -3923 0
431 -3925 0
447 -3927 0
463 -3929 0
479 -3931 0
495 -3933 0
511 -3935 0
272 -3905 0
288 -3907 0
304 -3909 0
320 -3911 0
336 -3913 0
352 -3915 0
368 -3917 0
384 -3919 0
400 -3921 0
416 -3923 0
432 -3925 0
448 -3927 0
464 -3929 0
480 -3931 0
496 -3933 0
512 -3935 0
257 3377 0
273 3394 0
289 3411 0
305 3428 0
321 3445 0
337 3462 0
353 3479 0
369 3496 0
385 3513 0
401 3530 0
417 3547 0
433 3564 0
449 3581 0
465 3598 0
481 3615 0
497 3632 0
258 3377 0
274 3394 0
290 3411 0
306 3428 0
322 3445 0
338 3462 0
354 3479 0
370 3496 0
386 3513 0
402 3530 0
418 3547 0
434 3564 0
450 3581 0
466 3598 0
482 3615 0
498 3632 0
259 3377 0
275 3394 0
291 3411 0
307 3428 0
323 3445 0
339 3462 0
355 3479 0
371 3496 0
387 3513 0
403 3530 0
419 3547 0
435 3564 0
451 3581 0
467 3598 0
483 3615 0
499 3632 0
260 3377 0
276 3394 0
292 3411 0
308 3428 0
324 3445 0
340 3462 0
356 3479 0
372 3496 0
388 3513 0
404 3530 0
420 3547 0
436 3564 0
452 3581 0
468 3598 0
484 3615 0
500 3632 0
261 3377 0
277 3394 0
293 3411 0
309 3428 0
325 3445 0
341 3462 0
357 3479 0
373 3496 0
389 3513 0
405 3530 0
421 3547 0
437 3564 0
453 3581 0
469 3598 0
485 3615 0
501 3632 0
262 3377 0
278 3394 0
294 3411 0
310 3428 0
326 3445 0
342 3462 0
358 3479 0
374 3496 0
390 3513 0
406 3530 0
422 3547 0
438 3564 0
454 3581 0
470 3598 0
486 3615 0
502 3632 0
263 3377 0
279 3394 0
295 3411 0
311 3428 0
327 3445 0
343 3462 0
359 3479 0
375 3496 0
391 3513 0
407 3530 0
423 3547 0
439 3564 0
455 3581 0
471 3598 0
487 3615 0
503 3632 0
264 3377 0
280 3394 0
296 3411 0
312 3428 0
328 3445 0
344 3462 0
360 3479 0
376 3496 0
392 3513 0
408 3530 0
424 3547 0
440 3564 0
456 3581 0
472 3598 0
488 3615 0
504 3632 0
265 3377 0
281 3394 0
297 3411 0
313 3428 0
329 3445 0
345 3462 0
361 3479 0
377 3496 0
393 3513 0
409 3530 0
425 3547 0
441 3564 0
457 3581 0
473 3598 0
489 3615 0
505 3632 0
266 3377 0
282 3394 0
298 3411 0
314 3428 0
330 3445 0
346 3462 0
362 3479 0
378 3496 0
394 3513 0
410 3530 0
426 3547 0
442 3564 0
458 3581 0
474 3598 0
490 3615 0
506 3632 0
267 3377 0
283 3394 0
299 3411 0
315 3428 0
331 3445 0
347 3462 0
363 3479 0
379 3496 0
395 3513 0
411 3530 0
427 3547 0
443 3564 0
459 3581 0
475 3598 0
491 3615 0
507 3632 0
268 3377 0
284 3394 0
300 3411 0
316 3428 0
332 3445 0
348 3462 0
364 3479 0
380 3496 0
396 3513 0
412 3530 0
428 3547 0
444 3564 0
460 3581 0
476 3598 0
492 3615 0
508 3632 0
269 3377 0
285 3394 0
301 3411 0
317 3428 0
333 3445 0
349 3462 0
365 3479 0
381 3496 0
397 3513 0
413 3530 0
429 3547 0
445 3564 0
461 3581 0
477 3598 0
493 3615 0
509 3632 0
270 3377 0
286 3394 0
302 3411 0
318 3428 0
334 3445 0
350 3462 0
366 3479 0
382 3496 0
398 3513 0
414 3530 0
430 3547 0
446 3564 0
462 3581 0
478 3598 0
494 3615 0
510 3632 0
271 3377 0
287 3394 0
303 3411 0
319 3428 0
335 3445 0
351 3462 0
367 3479 0
383 3496 0
399 3513 0
415 3530 0
431 3547 0
447 3564 0
463 3581 0
479 3598 0
495 3615 0
511 3632 0
272 3377 0
288 3394 0
304 3411 0
320 3428 0
336 3445 0
352 3462 0
368 3479 0
384 3496 0
400 3513 0
416 3530 0
432 3547 0
448 3564 0
464 3581 0
480 3598 0
496 3615 0
512 3632 0
257 -5489 0
273 -5490 0
289 -5491 0
305 -5492 0
321 -5493 0
337 -5494 0
353 -5495 0
369 -5496 0
385 -5497 0
401 -5498 0
417 -5499 0
433 -5500 0
449 -5501 0
465 -5502 0
481 -5503 0
497 -5504 0
258 -5505 0
274 -5506 0
290 -5507 0
306 -5508 0
322 -5509 0
338 -5510 0
354 -5511 0
370 -5512 0
386 -5513 0
402 -5514 0
418 -5515 0
434 -5516 0
450 -5517 0
466 -5518 0
482 -5519 0
498 -5520 0
259 -5521 0
275 -5522 0
291 -5523 0
307 -5524 0
323 -5525 0
339 -5526 0
355 -5527 0
371 -5528 0
387 -5529 0
403 -5530 0
419 -5531 0
435 -5532 0
451 -5533 0
467 -5534 0
483 -5535 0
499 -5536 0
260 -5537 0
276 -5538 0
292 -5539 0
308 -5540 0
324 -5541 0
340 -5542 0
356 -5543 0
372 -5544 0
388 -5545 0
404 -5546 0
420 -5547 0
436 -5548 0
452 -5549 0
468 -5550 0
484 -5551 0
500 -5552 0
261 -5553 0
277 -5554 0
293 -5555 0
309 -5556 0
325 -5557 0
341 -5558 0
357 -5559 0
373 -5560 0
389 -5561 0
405 -5562 0
421 -5563 0
437 -5564 0
453 -5565 0
469 -5566 0
485 -5567 0
501 -5568 0
262 -5569 0
278 -5570 0
294 -5571 0
310 -5572 0
326 -5573 0
342 -5574 0
358 -5575 0
374 -5576 0
390 -5577 0
406 -5578 0
422 -5579 0
438 -5580 0
454 -5581 0
470 -5582 0
486 -5583 0
502 -5584 0
263 -5585 0
279 -5586 0
295 -5587 0
311 -5588 0
327 -5589 0
343 -5590 0
359 -5591 0
375 -5592 0
391 -5593 0
407 -5594 0
423 -5595 0
439 -5596 0
455 -5597 0
471 -5598 0
487 -5599 0
503 -5600 0
264 -5601 0
280 -5602 0
296 -5603 0
312 -5604 0
328 -5605 0
344 -5606 0
360 -5607 0
376 -5608 0
392 -5609 0
408 -5610 0
424 -5611 0
440 -5612 0
456 -5613 0
472 -5614 0
488 -5615 0
504 -5616 0
265 -5617 0
281 -5618 0
297 -5619 0
313 -5620 0
329 -5621 0
345 -5622 0
361 -5623 0
377 -5624 0
393 -5625 0
409 -5626 0
425 -5627 0
441 -5628 0
457 -5629 0
473 -5630 0
489 -5631 0
505 -5632 0
266 -5633 0
282 -5634 0
298 -5635 0
314 -5636 0
330 -5637 0
346 -5638 0
362 -5639 0
378 -5640 0
394 -5641 0
410 -5642 0
426 -5643 0
442 -5644 0
458 -5645 0
474 -5646 0
490 -5647 0
506 -5648 0
267 -5649 0
283 -5650 0
299 -5651 0
315 -5652 0
331 -5653 0
347 -5654 0
363 -5655 0
379 -5656 0
395 -5657 0
411 -5658 0
427 -5659 0
443 -5660 0
459 -5661 0
475 -5662 0
491 -5663 0
507 -5664 0
268 -5665 0
284 -5666 0
300 -5667 0
316 -5668 0
332 -5669 0
348 -5670 0
364 -5671 0
380 -5672 0
396 -5673 0
412 -5674 0
428 -5675 0
444 -5676 0
460 -5677 0
476 -5678 0
492 -5679 0
508 -5680 0
269 -5681 0
285 -5682 0
301 -5683 0
317 -5684 0
333 -5685 0
349 -5686 0
365 -5687 0
381 -5688 0
397 -5689 0
413 -5690 0
429 -5691 0
445 -5692 0
461 -5693 0
477 -5694 0
493 -5695 0
509 -5696 0
270 -5697 0
286 -5698 0
302 -5699 0
318 -5700 0
334 -5701 0
350 -5702 0
366 -5703 0
382 -5704 0
398 -5705 0
414 -5706 0
430 -5707 0
446 -5708 0
462 -5709 0
478 -5710 0
494 -5711 0
510 -5712 0
271 -5713 0
287 -5714 0
303 -5715 0
319 -5716 0
335 -5717 0
351 -5718 0
367 -5719 0
383 -5720 0
399 -5721 0
415 -5722 0
431 -5723 0
447 -5724 0
463 -5725 0
479 -5726 0
495 -5727 0
511 -5728 0
272 -5729 0
288 -5730 0
304 -5731 0
320 -5732 0
336 -5733 0
352 -5734 0
368 -5735 0
384 -5736 0
400 -5737 0
416 -5738 0
432 -5739 0
448 -5740 0
464 -5741 0
480 -5742 0
496 -5743 0
512 -5744 0
-1809 -4177 5745 0
-1841 -4177 5746 0
-1873 -4177 5747 0
-1905 -4177 5748 0
-1937 -4177 5749 0
-1969 -4177 5750 0
-2001 -4177 5751 0
-2033 -4177 5752 0
-2065 -4177 5753 0
-2097 -4177 5754 0
-2129 -4177 5755 0
-2161 -4177 5756 0
-2193 -4177 5757 0
-2225 -4177 5758 0
-2257 -4177 5759 0
-2289 -4177 5760 0
-1811 -4194 5761 0
-1843 -4194 5762 0
-1875 -4194 5763 0
-1907 -4194 5764 0
-1939 -4194 5765 0
-1971 -4194 5766 0
-2003 -4194 5767 0
-2035 -4194 5768 0
-2067 -4194 5769 0
-2099 -4194 5770 0
-2131 -4194 5771 0
-2163 -4194 5772 0
-2195 -4194 5773 0
-2227 -4194 5774 0
-2259 -4194 5775 0
-2291 -4194 5776 0
-1813 -4211 5777 0
-1845 -4211 5778 0
-1877 -4211 5779 0
-1909 -4211 5780 0
-1941 -4211 5781 0
-1973 -4211 5782 0
-2005 -4211 5783 0
-2037 -4211 5784 0
-2069 -4211 5785 0
-2101 -4211 5786 0
-2133 -4211 5787 0
-2165 -4211 5788 0
-2197 -4211 5789 0
-2229 -4211 5790 0
-2261 -4211 5791 0
-2293 -4211 5792 0
-1815 -4228 5793 0
-1847 -4228 5794 0
-1879 -4228 5795 0
-1911 -4228 5796 0
-1943 -4228 5797 0
-1975 -4228 5798 0
-2007 -4228 5799 0
-2039 -4228 5800 0
-2071 -4228 5801 0
-2103 -4228 5802 0
-2135 -4228 5803 0
-2167 -4228 5804 0
-2199 -4228 5805 0
-2231 -4228 5806 0
-2263 -4228 5807 0
-2295 -4228 5808 0
-1817 -4245 5809 0
-1849 -4245 5810 0
-1881 -4245 5811 0
-1913 -4245 5812 0
-1945 -4245 5813 0
-1977 -4245 5814 0
-2009 -4245 5815 0
-2041 -4245 5816 0
-2073 -4245 5817 0
-2105 -4245 5818 0
-2137 -4245 5819 0
-2169 -4245 5820 0
-2201 -4245 5821 0
-2233 -4245 5822 0
-2265 -4245 5823 0
-2297 -4245 5824 0
-1819 -4262 5825 0
-1851 -4262 5826 0
-1883 -4262 5827 0
-1915 -4262 5828 0
-1947 -4262 5829 0
-1979 -4262 5830 0
-2011 -4262 5831 0
-2043 -4262 5832 0
-2075 -4262 5833 0
-2107 -4262 5834 0
-2139 -4262 5835 0
-2171 -4262 5836 0
-2203 -4262 5837 0
-2235 -4262 5838 0
-2267 -4262 5839 0
-2299 -4262 5840 0
-1821 -4279 5841 0
-1853 -4279 5842 0
-1885 -4279 5843 0
-1917 -4279 5844 0
-1949 -4279 5845 0
-1981 -4279 5846 0
-2013 -4279 5847 0
-2045 -4279 5848 0
-2077 -4279 5849 0
-2109 -4279 5850 0
-2141 -4279 5851 0
-2173 -4279 5852 0
-2205 -4279 5853 0
-2237 -4279 5854 0
-2269 -4279 5855 0
-2301 -4279 5856 0
-1823 -4296 5857 0
-1855 -4296 5858 0
-1887 -4296 5859 0
-1919 -4296 5860 0
-1951 -4296 5861 0
-1983 -4296 5862 0
-2015 -4296 5863 0
-2047 -4296 5864 0
-2079 -4296 5865 0
-2111 -4296 5866 0
-2143 -4296 5867 0
-2175 -4296 5868 0
-2207 -4296 5869 0
-2239 -4296 5870 0
-2271 -4296 5871 0
-2303 -4296 5872 0
-1825 -4313 5873 0
-1857 -4313 5874 0
-1889 -4313 5875 0
-1921 -4313 5876 0
-1953 -4313 5877 0
-1985 -4313 5878 0
-2017 -4313 5879 0
-2049 -4313 5880 0
-2081 -4313 5881 0
-2113 -4313 5882 0
-2145 -4313 5883 0
-2177 -4313 5884 0
-2209 -4313 5885 0
-2241 -4313 5886 0
-2273 -4313 5887 0
-2305 -4313 5888 0
-1827 -4330 5889 0
-1859 -4330 5890 0
-1891 -4330 5891 0
-1923 -4330 5892 0
-1955 -4330 5893 0
-1987 -4330 5894 0
-2019 -4330 5895 0
-2051 -4330 5896 0
-2083 -4330 5897 0
-2115 -4330 5898 0
-2147 -4330 5899 0
-2179 -4330 5900 0
-2211 -4330 5901 0
-2243 -4330 5902 0
-2275 -4330 5903 0
-2307 -4330 5904 0
-1829 -4347 5905 0
-1861 -4347 5906 0
-1893 -4347 5907 0
-1925 -4347 5908 0
-1957 -4347 5909 0
-1989 -4347 5910 0
-2021 -4347 5911 0
-2053 -4347 5912 0
-2085 -4347 5913 0
-2117 -4347 5914 0
-2149 -4347 5915 0
-2181 -4347 5916 0
-2213 -4347 5917 0
-2245 -4347 5918 0
-2277 -4347 5919 0
-2309 -4347 5920 0
-1831 -4364 5921 0
-1863 -4364 5922 0
-1895 -4364 5923 0
-1927 -4364 5924 0
-1959 -4364 5925 0
-1991 -4364 5926 0
-2023 -4364 5927 0
-2055 -4364 5928 0
-2087 -4364 5929 0
-2119 -4364 5930 0
-2151 -4364 5931 0
-2183 -4364 5932 0
-2215 -4364 5933 0
-2247 -4364 5934 0
-2279 -4364 5935 0
-2311 -4364 5936 0
-1833 -4381 5937 0
-1865 -4381 5938 0
-1897 -4381 5939 0
-1929 -4381 5940 0
-1961 -4381 5941 0
-1993 -4381 5942 0
-2025 -4381 5943 0
-2057 -4381 5944 0
-2089 -4381 5945 0
-2121 -4381 5946 0
-2153 -4381 5947 0
-2185 -4381 5948 0
-2217 -4381 5949 0
-2249 -4381 5950 0
-2281 -4381 5951 0
-2313 -4381 5952 0
-1835 -4398 5953 0
-1867 -4398 5954 0
-1899 -4398 5955 0
-1931 -4398 5956 0
-1963 -4398 5957 0
-1995 -4398 5958 0
-2027 -4398 5959 0
-2059 -4398 5960 0
-2091 -4398 5961 0
-2123 -4398 5962 0
-2155 -4398 5963 0
-2187 -4398 5964 0
-2219 -4398 5965 0
-2251 -4398 5966 0
-2283 -4398 5967 0
-2315 -4398 5968 0
-1837 -4415 5969 0
-1869 -4415 5970 0
-1901 -4415 5971 0
-1933 -4415 5972 0
-1965 -4415 5973 0
-1997 -4415 5974 0
-2029 -4415 5975 0
-2061 -4415 5976 0
-2093 -4415 5977 0
-2125 -4415 5978 0
-2157 -4415 5979 0
-2189 -4415 5980 0
-2221 -4415 5981 0
-2253 -4415 5982 0
-2285 -4415 5983 0
-2317 -4415 5984 0
-1839 -4432 5985 0
-1871 -4432 5986 0
-1903 -4432 5987 0
-1935 -4432 5988 0
-1967 -4432 5989 0
-1999 -4432 5990 0
-2031 -4432 5991 0
-2063 -4432 5992 0
-2095 -4432 5993 0
-2127 -4432 5994 0
-2159 -4432 5995 0
-2191 -4432 5996 0
-2223 -4432 5997 0
-2255 -4432 5998 0
-2287 -4432 5999 0
-2319 -4432 6000 0
-5745 1809 0
-5746 1841 0
-5747 1873 0
-5748 1905 0
-5749 1937 0
-5750 1969 0
-5751 2001 0
-5752 2033 0
-5753 2065 0
-5754 2097 0
-5755 2129 0
-5756 2161 0
-5757 2193 0
-5758 2225 0
-5759 2257 0
-5760 2289 0
-5761 1811 0
-5762 1843 0
-5763 1875 0
-5764 1907 0
-5765 1939 0
-5766 1971 0
-5767 2003 0
-5768 2035 0
-5769 2067 0
-5770 2099 0
-5771 2131 0
-5772 2163 0
-5773 2195 0
-5774 2227 0
-5775 2259 0
-5776 2291 0
-5777 1813 0
-5778 1845 0
-5779 1877 0
-5780 1909 0
-5781 1941 0
-5782 1973 0
-5783 2005 0
-5784 2037 0
-5785 2069 0
-5786 2101 0
-5787 2133 0
-5788 2165 0
-5789 2197 0
-5790 2229 0
-5791 2261 0
-5792 2293 0
-5793 1815 0
-5794 1847 0
-5795 1879 0
-5796 1911 0
-5797 1943 0
-5798 1975 0
-5799 2007 0
-5800 2039 0
-5801 2071 0
-5802 2103 0
-5803 2135 0
-5804 2167 0
-5805 2199 0
-5806 2231 0
-5807 2263 0
-5808 2295 0
-5809 1817 0
-5810 1849 0
-5811 1881 0
-5812 1913 0
-5813 1945 0
-5814 1977 0
-5815 2009 0
-5816 2041 0
-5817 2073 0
-5818 2105 0
-5819 2137 0
-5820 2169 0
-5821 2201 0
-5822 2233 0
-5823 2265 0
-5824 2297 0
-5825 1819 0
-5826 1851 0
-5827 1883 0
-5828 1915 0
-5829 1947 0
-5830 1979 0
-5831 2011 0
-5832 2043 0
-5833 2075 0
-5834 2107 0
-5835 2139 0
-5836 2171 0
-5837 2203 0
-5838 2235 0
-5839 2267 0
-5840 2299 0
-5841 1821 0
-5842 1853 0
-5843 1885 0
-5844 1917 0
-5845 1949 0
-5846 1981 0
-5847 2013 0
-5848 2045 0
-5849 2077 0
-5850 2109 0
-5851 2141 0
-5852 2173 0
-5853 2205 0
-5854 2237 0
-5855 2269 0
-5856 2301 0
-5857 1823 0
-5858 1855 0
-5859 1887 0
-5860 1919 0
-5861 1951 0
-5862 1983 0
-5863 2015 0
-5864 2047 0
-5865 2079 0
-5866 2111 0
-5867 2143 0
-5868 2175 0
-5869 2207 0
-5870 2239 0
-5871 2271 0
-5872 2303 0
-5873 1825 0
-5874 1857 0
-5875 1889 0
-5876 1921 0
-5877 1953 0
-5878 1985 0
-5879 2017 0
-5880 2049 0
-5881 2081 0
-5882 2113 0
-5883 2145 0
-5884 2177 0
-5885 2209 0
-5886 2241 0
-5887 2273 0
-5888 2305 0
-5889 1827 0
-5890 1859 0
-5891 1891 0
-5892 1923 0
-5893 1955 0
-5894 1987 0
-5895 2019 0
-5896 2051 0
-5897 2083 0
-5898 2115 0
-5899 2147 0
-5900 2179 0
-5901 2211 0
-5902 2243 0
-5903 2275 0
-5904 2307 0
-5905 1829 0
-5906 1861 0
-5907 1893 0
-5908 1925 0
-5909 1957 0
-5910 1989 0
-5911 2021 0
-5912 2053 0
-5913 2085 0
-5914 2117 0
-5915 2149 0
-5916 2181 0
-5917 2213 0
-5918 2245 0
-5919 2277 0
-5920 2309 0
-5921 1831 0
-5922 1863 0
-5923 1895 0
-5924 1927 0
-5925 1959 0
-5926 1991 0
-5927 2023 0
-5928 2055 0
-5929 2087 0
-5930 2119 0
-5931 2151 0
-5932 2183 0
-5933 2215 0
-5934 2247 0
-5935 2279 0
-5936 2311 0
-5937 1833 0
-5938 1865 0
-5939 1897 0
-5940 1929 0
-5941 1961 0
-5942 1993 0
-5943 2025 0
-5944 2057 0
-5945 2089 0
-5946 2121 0
-5947 2153 0
-5948 2185 0
-5949 2217 0
-5950 2249 0
-5951 2281 0
-5952 2313 0
-5953 1835 0
-5954 1867 0
-5955 1899 0
-5956 1931 0
-5957 1963 0
-5958 1995 0
-5959 2027 0
-5960 2059 0
-5961 2091 0
-5962 2123 0
-5963 2155 0
-5964 2187 0
-5965 2219 0
-5966 2251 0
-5967 2283 0
-5968 2315 0
-5969 1837 0
-5970 1869 0
-5971 1901 0
-5972 1933 0
-5973 1965 0
-5974 1997 0
-5975 2029 0
-5976 2061 0
-5977 2093 0
-5978 2125 0
-5979 2157 0
-5980 2189 0
-5981 2221 0
-5982 2253 0
-5983 2285 0
-5984 2317 0
-5985 1839 0
-5986 1871 0
-5987 1903 0
-5988 1935 0
-5989 1967 0
-5990 1999 0
-5991 2031 0
-5992 2063 0
-5993 2095 0
-5994 2127 0
-5995 2159 0
-5996 2191 0
-5997 2223 0
-5998 2255 0
-5999 2287 0
-6000 2319 0
-5745 4177 0
-5746 4177 0
-5747 4177 0
-5748 4177 0
-5749 4177 0
-5750 4177 0
-5751 4177 0
-5752 4177 0
-5753 4177 0
-5754 4177 0
-5755 4177 0
-5756 4177 0
-5757 4177 0
-5758 4177 0
-5759 4177 0
-5760 4177 0
-5761 4194 0
-5762 4194 0
-5763 4194 0
-5764 4194 0
-5765 4194 0
-5766 4194 0
-5767 4194 0
-5768 4194 0
-5769 4194 0
-5770 4194 0
-5771 4194 0
-5772 4194 0
-5773 4194 0
-5774 4194 0
-5775 4194 0
-5776 4194 0
-5777 4211 0
-5778 4211 0
-5779 4211 0
-5780 4211 0
-5781 4211 0
-5782 4211 0
-5783 4211 0
-5784 4211 0
-5785 4211 0
-5786 4211 0
-5787 4211 0
-5788 4211 0
-5789 4211 0
-5790 4211 0
-5791 4211 0
-5792 4211 0
-5793 4228 0
-5794 4228 0
-5795 4228 0
-5796 4228 0
-5797 4228 0
-5798 4228 0
-5799 4228 0
-5800 4228 0
-5801 4228 0
-5802 4228 0
-5803 4228 0
-5804 4228 0
-5805 4228 0
-5806 4228 0
-5807 4228 0
-5808 4228 0
-5809 4245 0
-5810 4245 0
-5811 4245 0
-5812 4245 0
-5813 4245 0
-5814 4245 0
-5815 4245 0
-5816 4245 0
-5817 4245 0
-5818 4245 0
-5819 4245 0
-5820 4245 0
-5821 4245 0
-5822 4245 0
-5823 4245 0
-5824 4245 0
-5825 4262 0
-5826 4262 0
-5827 4262 0
-5828 4262 0
-5829 4262 0
-5830 4262 0
-5831 4262 0
-5832 4262 0
-5833 4262 0
-5834 4262 0
-5835 4262 0
-5836 4262 0
-5837 4262 0
-5838 4262 0
-5839 4262 0
-5840 4262 0
-5841 4279 0
-5842 4279 0
-5843 4279 0
-5844 4279 0
-5845 4279 0
-5846 4279 0
-5847 4279 0
-5848 4279 0
-5849 4279 0
-5850 4279 0
-5851 4279 0
-5852 4279 0
-5853 4279 0
-5854 4279 0
-5855 4279 0
-5856 4279 0
-5857 4296 0
-5858 4296 0
-5859 4296 0
-5860 4296 0
-5861 4296 0
-5862 4296 0
-5863 4296 0
-5864 4296 0
-5865 4296 0
-5866 4296 0
-5867 4296 0
-5868 4296 0
-5869 4296 0
-5870 4296 0
-5871 4296 0
-5872 4296 0
-5873 4313 0
-5874 4313 0
-5875 4313 0
-5876 4313 0
-5877 4313 0
-5878 4313 0
-5879 4313 0
-5880 4313 0
-5881 4313 0
-5882 4313 0
-5883 4313 0
-5884 4313 0
-5885 4313 0
-5886 4313 0
-5887 4313 0
-5888 4313 0
-5889 4330 0
-5890 4330 0
-5891 4330 0
-5892 4330 0
-5893 4330 0
-5894 4330 0
-5895 4330 0
-5896 4330 0
-5897 4330 0
-5898 4330 0
-5899 4330 0
-5900 4330 0
-5901 4330 0
-5902 4330 0
-5903 4330 0
-5904 4330 0
-5905 4347 0
-5906 4347 0
-5907 4347 0
-5908 4347 0
-5909 4347 0
-5910 4347 0
-5911 4347 0
-5912 4347 0
-5913 4347 0
-5914 4347 0
-5915 4347 0
-5916 4347 0
-5917 4347 0
-5918 4347 0
-5919 4347 0
-5920 4347 0
-5921 4364 0
-5922 4364 0
-5923 4364 0
-5924 4364 0
-5925 4364 0
-5926 4364 0
-5927 4364 0
-5928 4364 0
-5929 4364 0
-5930 4364 0
-5931 4364 0
-5932 4364 0
-5933 4364 0
-5934 4364 0
-5935 4364 0
-5936 4364 0
-5937 4381 0
-5938 4381 0
-5939 4381 0
-5940 4381 0
-5941 4381 0
-5942 4381 0
-5943 4381 0
-5944 4381 0
-5945 4381 0
-5946 4381 0
-5947 4381 0
-5948 4381 0
-5949 4381 0
-5950 4381 0
-5951 4381 0
-5952 4381 0
-5953 4398 0
-5954 4398 0
-5955 4398 0
-5956 4398 0
-5957 4398 0
-5958 4398 0
-5959 4398 0
-5960 4398 0
-5961 4398 0
-5962 4398 0
-5963 4398 0
-5964 4398 0
-5965 4398 0
-5966 4398 0
-5967 4398 0
-5968 4398 0
-5969 4415 0
-5970 4415 0
-5971 4415 0
-5972 4415 0
-5973 4415 0
-5974 4415 0
-5975 4415 0
-5976 4415 0
-5977 4415 0
-5978 4415 0
-5979 4415 0
-5980 4415 0
-5981 4415 0
-5982 4415 0
-5983 4415 0
-5984 4415 0
-5985 4432 0
-5986 4432 0
-5987 4432 0
-5988 4432 0
-5989 4432 0
-5990 4432 0
-5991 4432 0
-5992 4432 0
-5993 4432 0
-5994 4432 0
-5995 4432 0
-5996 4432 0
-5997 4432 0
-5998 4432 0
-5999 4432 0
-6000 4432 0
4705 -4177 5745 -513 0
4707 -4194 5746 -529 0
4709 -4211 5747 -545 0
4711 -4228 5748 -561 0
4713 -4245 5749 -577 0
4715 -4262 5750 -593 0
4717 -4279 5751 -609 0
4719 -4296 5752 -625 0
4721 -4313 5753 -641 0
4723 -4330 5754 -657 0
4725 -4347 5755 -673 0
4727 -4364 5756 -689 0
4729 -4381 5757 -705 0
4731 -4398 5758 -721 0
4733 -4415 5759 -737 0
4735 -4432 5760 -753 0
4705 -4177 5761 -514 0
4707 -4194 5762 -530 0
4709 -4211 5763 -546 0
4711 -4228 5764 -562 0
4713 -4245 5765 -578 0
4715 -4262 5766 -594 0
4717 -4279 5767 -610 0
4719 -4296 5768 -626 0
4721 -4313 5769 -642 0
4723 -4330 5770 -658 0
4725 -4347 5771 -674 0
4727 -4364 5772 -690 0
4729 -4381 5773 -706 0
4731 -4398 5774 -722 0
4733 -4415 5775 -738 0
4735 -4432 5776 -754 0
4705 -4177 5777 -515 0
4707 -4194 5778 -531 0
4709 -4211 5779 -547 0
4711 -4228 5780 -563 0
4713 -4245 5781 -579 0
4715 -4262 5782 -595 0
4717 -4279 5783 -611 0
4719 -4296 5784 -627 0
4721 -4313 5785 -643 0
4723 -4330 5786 -659 0
4725 -4347 5787 -675 0
4727 -4364 5788 -691 0
4729 -4381 5789 -707 0
4731 -4398 5790 -723 0
4733 -4415 5791 -739 0
4735 -4432 5792 -755 0
4705 -4177 5793 -516 0
4707 -4194 5794 -532 0
4709 -4211 5795 -548 0
4711 -4228 5796 -564 0
4713 -4245 5797 -580 0
4715 -4262 5798 -596 0
4717 -4279 5799 -612 0
4719 -4296 5800 -628 0
4721 -4313 5801 -644 0
4723 -4330 5802 -660 0
4725 -4347 5803 -676 0
4727 -4364 5804 -692 0
4729 -4381 5805 -708 0
4731 -4398 5806 -724 0
4733 -4415 5807 -740 0
4735 -4432 5808 -756 0
4705 -4177 5809 -517 0
4707 -4194 5810 -533 0
4709 -4211 5811 -549 0
4711 -4228 5812 -565 0
4713 -4245 5813 -581 0
4715 -4262 5814 -597 0
4717 -4279 5815 -613 0
4719 -4296 5816 -629 0
4721 -4313 5817 -645 0
4723 -4330 5818 -661 0
4725 -4347 5819 -677 0
4727 -4364 5820 -693 0
4729 -4381 5821 -709 0
4731 -4398 5822 -725 0
4733 -4415 5823 -741 0
4735 -4432 5824 -757 0
4705 -4177 5825 -518 0
4707 -4194 5826 -534 0
4709 -4211 5827 -550 0
4711 -4228 5828 -566 0
4713 -4245 5829 -582 0
4715 -4262 5830 -598 0
4717 -4279 5831 -614 0
4719 -4296 5832 -630 0
4721 -4313 5833 -646 0
4723 -4330 5834 -662 0
4725 -4347 5835 -678 0
4727 -4364 5836 -694 0
4729 -4381 5837 -710 0
4731 -4398 5838 -726 0
4733 -4415 5839 -742 0
4735 -4432 5840 -758 0
4705 -4177 5841 -519 0
4707 -4194 5842 -535 0
4709 -4211 5843 -551 0
4711 -4228 5844 -567 0
4713 -4245 5845 -583 0
4715 -4262 5846 -599 0
4717 -4279 5847 -615 0
4719 -4296 5848 -631 0
4721 -4313 5849 -647 0
4723 -4330 5850 -663 0
4725 -4347 5851 -679 0
4727 -4364 5852 -695 0
4729 -4381 5853 -711 0
4731 -4398 5854 -727 0
4733 -4415 5855 -743 0
4735 -4432 5856 -759 0
4705 -4177 5857 -520 0
4707 -4194 5858 -536 0
4709 -4211 5859 -552 0
4711 -4228 5860 -568 0
4713 -4245 5861 -584 0
4715 -4262 5862 -600 0
4717 -4279 5863 -616 0
4719 -4296 5864 -632 0
4721 -4313 5865 -648 0
4723 -4330 5866 -664 0
4725 -4347 5867 -680 0
4727 -4364 5868 -696 0
4729 -4381 5869 -712 0
4731 -4398 5870 -728 0
4733 -4415 5871 -744 0
4735 -4432 5872 -760 0
4705 -4177 5873 -521 0
4707 -4194 5874 -537 0
4709 -4211 5875 -553 0
4711 -4228 5876 -569 0
4713 -4245 5877 -585 0
4715 -4262 5878 -601 0
4717 -4279 5879 -617 0
4719 -4296 5880 -633 0
4721 -4313 5881 -649 0
4723 -4330 5882 -665 0
4725 -4347 5883 -681 0
4727 -4364 5884 -697 0
4729 -4381 5885 -713 0
4731 -4398 5886 -729 0
4733 -4415 5887 -745 0
4735 -4432 5888 -761 0
4705 -4177 5889 -522 0
4707 -4194 5890 -538 0
4709 -4211 5891 -554 0
4711 -4228 5892 -570 0
4713 -4245 5893 -586 0
4715 -4262 5894 -602 0
4717 -4279 5895 -618 0
4719 -4296 5896 -634 0
4721 -4313 5897 -650 0
4723 -4330 5898 -666 0
4725 -4347 5899 -682 0
4727 -4364 5900 -698 0
4729 -4381 5901 -714 0
4731 -4398 5902 -730 0
4733 -4415 5903 -746 0
4735 -4432 5904 -762 0
4705 -4177 5905 -523 0
4707 -4194 5906 -539 0
4709 -4211 5907 -555 0
4711 -4228 5908 -571 0
4713 -4245 5909 -587 0
4715 -4262 5910 -603 0
4717 -4279 5911 -619 0
4719 -4296 5912 -635 0
4721 -4313 5913 -651 0
4723 -4330 5914 -667 0
4725 -4347 5915 -683 0
4727 -4364 5916 -699 0
4729 -4381 5917 -715 0
4731 -4398 5918 -731 0
4733 -4415 5919 -747 0
4735 -4432 5920 -763 0
4705 -4177 5921 -524 0
4707 -4194 5922 -540 0
4709 -4211 5923 -556 0
4711 -4228 5924 -572 0
4713 -4245 5925 -588 0
4715 -4262 5926 -604 0
4717 -4279 5927 -620 0
4719 -4296 5928 -636 0
4721 -4313 5929 -652 0
4723 -4330 5930 -668 0
4725 -4347 5931 -684 0
4727 -4364 5932 -700 0
4729 -4381 5933 -716 0
4731 -4398 5934 -732 0
4733 -4415 5935 -748 0
4735 -4432 5936 -764 0
4705 -4177 5937 -525 0
4707 -4194 5938 -541 0
4709 -4211 5939 -557 0
4711 -4228 5940 -573 0
4713 -4245 5941 -589 0
4715 -4262 5942 -605 0
4717 -4279 5943 -621 0
4719 -4296 5944 -637 0
4721 -4313 5945 -653 0
4723 -4330 5946 -669 0
4725 -4347 5947 -685 0
4727 -4364 5948 -701 0
4729 -4381 5949 -717 0
4731 -4398 5950 -733 0
4733 -4415 5951 -749 0
4735 -4432 5952 -765 0
4705 -4177 5953 -526 0
4707 -4194 5954 -542 0
4709 -4211 5955 -558 0
4711 -4228 5956 -574 0
4713 -4245 5957 -590 0
4715 -4262 5958 -606 0
4717 -4279 5959 -622 0
4719 -4296 5960 -638 0
4721 -4313 5961 -654 0
4723 -4330 5962 -670 0
4725 -4347 5963 -686 0
4727 -4364 5964 -702 0
4729 -4381 5965 -718 0
4731 -4398 5966 -734 0
4733 -4415 5967 -750 0
4735 -4432 5968 -766 0
4705 -4177 5969 -527 0
4707 -4194 5970 -543 0
4709 -4211 5971 -559 0
4711 -4228 5972 -575 0
4713 -4245 5973 -591 0
4715 -4262 5974 -607 0
4717 -4279 5975 -623 0
4719 -4296 5976 -639 0
4721 -4313 5977 -655 0
4723 -4330 5978 -671 0
4725 -4347 5979 -687 0
4727 -4364 5980 -703 0
4729 -4381 5981 -719 0
4731 -4398 5982 -735 0
4733 -4415 5983 -751 0
4735 -4432 5984 -767 0
4705 -4177 5985 -528 0
4707 -4194 5986 -544 0
4709 -4211 5987 -560 0
4711 -4228 5988 -576 0
4713 -4245 5989 -592 0
4715 -4262 5990 -608 0
4717 -4279 5991 -624 0
4719 -4296 5992 -640 0
4721 -4313 5993 -656 0
4723 -4330 5994 -672 0
4725 -4347 5995 -688 0
4727 -4364 5996 -704 0
4729 -4381 5997 -720 0
4731 -4398 5998 -736 0
4733 -4415 5999 -752 0
4735 -4432 6000 -768 0
513 -4705 0
529 -4707 0
545 -4709 0
561 -4711 0
577 -4713 0
593 -4715 0
609 -4717 0
625 -4719 0
641 -4721 0
657 -4723 0
673 -4725 0
689 -4727 0
705 -4729 0
721 -4731 0
737 -4733 0
753 -4735 0
514 -4705 0
530 -4707 0
546 -4709 0
562 -4711 0
578 -4713 0
594 -4715 0
610 -4717 0
626 -4719 0
642 -4721 0
658 -4723 0
674 -4725 0
690 -4727 0
706 -4729 0
722 -4731 0
738 -4733 0
754 -4735 0
515 -4705 0
531 -4707 0
547 -4709 0
563 -4711 0
579 -4713 0
595 -4715 0
611 -4717 0
627 -4719 0
643 -4721 0
659 -4723 0
675 -4725 0
691 -4727 0
707 -4729 0
723 -4731 0
739 -4733 0
755 -4735 0
516 -4705 0
532 -4707 0
548 -4709 0
564 -4711 0
580 -4713 0
596 -4715 0
612 -4717 0
628 -4719 0
644 -4721 0
660 -4723 0
676 -4725 0
692 -4727 0
708 -4729 0
724 -4731 0
740 -4733 0
756 -4735 0
517 -4705 0
533 -4707 0
549 -4709 0
565 -4711 0
581 -4713 0
597 -4715 0
613 -4717 0
629 -4719 0
645 -4721 0
661 -4723 0
677 -4725 0
693 -4727 0
709 -4729 0
725 -4731 0
741 -4733 0
757 -4735 0
518 -4705 0
534 -4707 0
550 -4709 0
566 -4711 0
582 -4713 0
598 -4715 0
614 -4717 0
630 -4719 0
646 -4721 0
662 -4723 0
678 -4725 0
694 -4727 0
710 -4729 0
726 -4731 0
742 -4733 0
758 -4735 0
519 -4705 0
535 -4707 0
551 -4709 0
567 -4711 0
583 -4713 0
599 -4715 0
615 -4717 0
631 -4719 0
647 -4721 0
663 -4723 0
679 -4725 0
695 -4727 0
711 -4729 0
727 -4731 0
743 -4733 0
759 -4735 0
520 -4705 0
536 -4707 0
552 -4709 0
568 -4711 0
584 -4713 0
600 -4715 0
616 -4717 0
632 -4719 0
648 -4721 0
664 -4723 0
680 -4725 0
696 -4727 0
712 -4729 0
728 -4731 0
744 -4733 0
760 -4735 0
521 -4705 0
537 -4707 0
553 -4709 0
569 -4711 0
585 -4713 0
601 -4715 0
617 -4717 0
633 -4719 0
649 -4721 0
665 -4723 0
681 -4725 0
697 -4727 0
713 -4729 0
729 -4731 0
745 -4733 0
761 -4735 0
522 -4705 0
538 -4707 0
554 -4709 0
570 -4711 0
586 -4713 0
602 -4715 0
618 -4717 0
634 -4719 0
650 -4721 0
666 -4723 0
682 -4725 0
698 -4727 0
714 -4729 0
730 -4731 0
746 -4733 0
762 -4735 0
523 -4705 0
539 -4707 0
555 -4709 0
571 -4711 0
587 -4713 0
603 -4715 0
619 -4717 0
635 -4719 0
651 -4721 0
667 -4723 0
683 -4725 0
699 -4727 0
715 -4729 0
731 -4731 0
747 -4733 0
763 -4735 0
524 -4705 0
540 -4707 0
556 -4709 0
572 -4711 0
588 -4713 0
604 -4715 0
620 -4717 0
636 -4719 0
652 -4721 0
668 -4723 0
684 -4725 0
700 -4727 0
716 -4729 0
732 -4731 0
748 -4733 0
764 -4735 0
525 -4705 0
541 -4707 0
557 -4709 0
573 -4711 0
589 -4713 0
605 -4715 0
621 -4717 0
637 -4719 0
653 -4721 0
669 -4723 0
685 -4725 0
701 -4727 0
717 -4729 0
733 -4731 0
749 -4733 0
765 -4735 0
526 -4705 0
542 -4707 0
558 -4709 0
574 -4711 0
590 -4713 0
606 -4715 0
622 -4717 0
638 -4719 0
654 -4721 0
670 -4723 0
686 -4725 0
702 -4727 0
718 -4729 0
734 -4731 0
750 -4733 0
766 -4735 0
527 -4705 0
543 -4707 0
559 -4709 0
575 -4711 0
591 -4713 0
607 -4715 0
623 -4717 0
639 -4719 0
655 -4721 0
671 -4723 0
687 -4725 0
703 -4727 0
719 -4729 0
735 -4731 0
751 -4733 0
767 -4735 0
528 -4705 0
544 -4707 0
560 -4709 0
576 -4711 0
592 -4713 0
608 -4715 0
624 -4717 0
640 -4719 0
656 -4721 0
672 -4723 0
688 -4725 0
704 -4727 0
720 -4729 0
736 -4731 0
752 -4733 0
768 -4735 0
513 4177 0
529 4194 0
545 4211 0
561 4228 0
577 4245 0
593 4262 0
609 4279 0
625 4296 0
641 4313 0
657 4330 0
673 4347 0
689 4364 0
705 4381 0
721 4398 0
737 4415 0
753 4432 0
514 4177 0
530 4194 0
546 4211 0
562 4228 0
578 4245 0
594 4262 0
610 4279 0
626 4296 0
642 4313 0
658 4330 0
674 4347 0
690 4364 0
706 4381 0
722 4398 0
738 4415 0
754 4432 0
515 4177 0
531 4194 0
547 4211 0
563 4228 0
579 4245 0
595 4262 0
611 4279 0
627 4296 0
643 4313 0
659 4330 0
675 4347 0
691 4364 0
707 4381 0
723 4398 0
739 4415 0
755 4432 0
516 4177 0
532 4194 0
548 4211 0
564 4228 0
580 4245 0
596 4262 0
612 4279 0
628 4296 0
644 4313 0
660 4330 0
676 4347 0
692 4364 0
708 4381 0
724 4398 0
740 4415 0
756 4432 0
517 4177 0
533 4194 0
549 4211 0
565 4228 0
581 4245 0
597 4262 0
613 4279 0
629 4296 0
645 4313 0
661 4330 0
677 4347 0
693 4364 0
709 4381 0
725 4398 0
741 4415 0
757 4432 0
518 4177 0
534 4194 0
550 4211 0
566 4228 0
582 4245 0
598 4262 0
614 4279 0
630 4296 0
646 4313 0
662 4330 0
678 4347 0
694 4364 0
710 4381 0
726 4398 0
742 4415 0
758 4432 0
519 4177 0
535 4194 0
551 4211 0
567 4228 0
583 4245 0
599 4262 0
615 4279 0
631 4296 0
647 4313 0
663 4330 0
679 4347 0
695 4364 0
711 4381 0
727 4398 0
743 4415 0
759 4432 0
520 4177 0
536 4194 0
552 4211 0
568 4228 0
584 4245 0
600 4262 0
616 4279 0
632 4296 0
648 4313 0
664 4330 0
680 4347 0
696 4364 0
712 4381 0
728 4398 0
744 4415 0
760 4432 0
521 4177 0
537 4194 0
553 4211 0
569 4228 0
585 4245 0
601 4262 0
617 4279 0
633 4296 0
649 4313 0
665 4330 0
681 4347 0
697 4364 0
713 4381 0
729 4398 0
745 4415 0
761 4432 0
522 4177 0
538 4194 0
554 4211 0
570 4228 0
586 4245 0
602 4262 0
618 4279 0
634 4296 0
650 4313 0
666 4330 0
682 4347 0
698 4364 0
714 4381 0
730 4398 0
746 4415 0
762 4432 0
523 4177 0
539 4194 0
555 4211 0
571 4228 0
587 4245 0
603 4262 0
619 4279 0
635 4296 0
651 4313 0
667 4330 0
683 4347 0
699 4364 0
715 4381 0
731 4398 0
747 4415 0
763 4432 0
524 4177 0
540 4194 0
556 4211 0
572 4228 0
588 4245 0
604 4262 0
620 4279 0
636 4296 0
652 4313 0
668 4330 0
684 4347 0
700 4364 0
716 4381 0
732 4398 0
748 4415 0
764 4432 0
525 4177 0
541 4194 0
557 4211 0
573 4228 0
589 4245 0
605 4262 0
621 4279 0
637 4296 0
653 4313 0
669 4330 0
685 4347 0
701 4364 0
717 4381 0
733 4398 0
749 4415 0
765 4432 0
526 4177 0
542 4194 0
558 4211 0
574 4228 0
590 4245 0
606 4262 0
622 4279 0
638 4296 0
654 4313 0
670 4330 0
686 4347 0
702 4364 0
718 4381 0
734 4398 0
750 4415 0
766 4432 0
527 4177 0
543 4194 0
559 4211 0
575 4228 0
591 4245 0
607 4262 0
623 4279 0
639 4296 0
655 4313 0
671 4330 0
687 4347 0
703 4364 0
719 4381 0
735 4398 0
751 4415 0
767 4432 0
528 4177 0
544 4194 0
560 4211 0
576 4228 0
592 4245 0
608 4262 0
624 4279 0
640 4296 0
656 4313 0
672 4330 0
688 4347 0
704 4364 0
720 4381 0
736 4398 0
752 4415 0
768 4432 0
513 -5745 0
529 -5746 0
545 -5747 0
561 -5748 0
577 -5749 0
593 -5750 0
609 -5751 0
625 -5752 0
641 -5753 0
657 -5754 0
673 -5755 0
689 -5756 0
705 -5757 0
721 -5758 0
737 -5759 0
753 -5760 0
514 -5761 0
530 -5762 0
546 -5763 0
562 -5764 0
578 -5765 0
594 -5766 0
610 -5767 0
626 -5768 0
642 -5769 0
658 -5770 0
674 -5771 0
690 -5772 0
706 -5773 0
722 -5774 0
738 -5775 0
754 -5776 0
515 -5777 0
531 -5778 0
547 -5779 0
563 -5780 0
579 -5781 0
595 -5782 0
611 -5783 0
627 -5784 0
643 -5785 0
659 -5786 0
675 -5787 0
691 -5788 0
707 -5789 0
723 -5790 0
739 -5791 0
755 -5792 0
516 -5793 0
532 -5794 0
548 -5795 0
564 -5796 0
580 -5797 0
596 -5798 0
612 -5799 0
628 -5800 0
644 -5801 0
660 -5802 0
676 -5803 0
692 -5804 0
708 -5805 0
724 -5806 0
740 -5807 0
756 -5808 0
517 -5809 0
533 -5810 0
549 -5811 0
565 -5812 0
581 -5813 0
597 -5814 0
613 -5815 0
629 -5816 0
645 -5817 0
661 -5818 0
677 -5819 0
693 -5820 0
709 -5821 0
725 -5822 0
741 -5823 0
757 -5824 0
518 -5825 0
534 -5826 0
550 -5827 0
566 -5828 0
582 -5829 0
598 -5830 0
614 -5831 0
630 -5832 0
646 -5833 0
662 -5834 0
678 -5835 0
694 -5836 0
710 -5837 0
726 -5838 0
742 -5839 0
758 -5840 0
519 -5841 0
535 -5842 0
551 -5843 0
567 -5844 0
583 -5845 0
599 -5846 0
615 -5847 0
631 -5848 0
647 -5849 0
663 -5850 0
679 -5851 0
695 -5852 0
711 -5853 0
727 -5854 0
743 -5855 0
759 -5856 0
520 -5857 0
536 -5858 0
552 -5859 0
568 -5860 0
584 -5861 0
600 -5862 0
616 -5863 0
632 -5864 0
648 -5865 0
664 -5866 0
680 -5867 0
696 -5868 0
712 -5869 0
728 -5870 0
744 -5871 0
760 -5872 0
521 -5873 0
537 -5874 0
553 -5875 0
569 -5876 0
585 -5877 0
601 -5878 0
617 -5879 0
633 -5880 0
649 -5881 0
665 -5882 0
681 -5883 0
697 -5884 0
713 -5885 0
729 -5886 0
745 -5887 0
761 -5888 0
522 -5889 0
538 -5890 0
554 -5891 0
570 -5892 0
586 -5893 0
602 -5894 0
618 -5895 0
634 -5896 0
650 -5897 0
666 -5898 0
682 -5899 0
698 -5900 0
714 -5901 0
730 -5902 0
746 -5903 0
762 -5904 0
523 -5905 0
539 -5906 0
555 -5907 0
571 -5908 0
587 -5909 0
603 -5910 0
619 -5911 0
635 -5912 0
651 -5913 0
667 -5914 0
683 -5915 0
699 -5916 0
715 -5917 0
731 -5918 0
747 -5919 0
763 -5920 0
524 -5921 0
540 -5922 0
556 -5923 0
572 -5924 0
588 -5925 0
604 -5926 0
620 -5927 0
636 -5928 0
652 -5929 0
668 -5930 0
684 -5931 0
700 -5932 0
716 -5933 0
732 -5934 0
748 -5935 0
764 -5936 0
525 -5937 0
541 -5938 0
557 -5939 0
573 -5940 0
589 -5941 0
605 -5942 0
621 -5943 0
637 -5944 0
653 -5945 0
669 -5946 0
685 -5947 0
701 -5948 0
717 -5949 0
733 -5950 0
749 -5951 0
765 -5952 0
526 -5953 0
542 -5954 0
558 -5955 0
574 -5956 0
590 -5957 0
606 -5958 0
622 -5959 0
638 -5960 0
654 -5961 0
670 -5962 0
686 -5963 0
702 -5964 0
718 -5965 0
734 -5966 0
750 -5967 0
766 -5968 0
527 -5969 0
543 -5970 0
559 -5971 0
575 -5972 0
591 -5973 0
607 -5974 0
623 -5975 0
639 -5976 0
655 -5977 0
671 -5978 0
687 -5979 0
703 -5980 0
719 -5981 0
735 -5982 0
751 -5983 0
767 -5984 0
528 -5985 0
544 -5986 0
560 -5987 0
576 -5988 0
592 -5989 0
608 -5990 0
624 -5991 0
640 -5992 0
656 -5993 0
672 -5994 0
688 -5995 0
704 -5996 0
720 -5997 0
736 -5998 0
752 -5999 0
768 -6000 0
-2798 0
-4177 0
-3462 0
-2730 0
776 0
-2764 0
4381 0
4415 0
809 0
815 0
2645 0
-3394 0
2594 0
3564 0
4398 0
-3411 0
-4211 0
2662 0
-2747 0
-2815 0
-2781 0
3496 0
779 0
803 0
-3377 0
-3632 0
-4330 0
3530 0
-4364 0
812 0
-2696 0
3547 0
797 0
-2713 0
-3598 0
806 0
2611 0
791 0
800 0
-3428 0
-4228 0
-4347 0
3479 0
788 0
-2679 0
2577 0
3513 0
782 0
-4296 0
-4262 0
-4279 0
2628 0
-4313 0
794 0
-3581 0
-3615 0
773 0
-4245 0
785 0
-4194 0
4432 0
-2832 0
-3445 0
770 0
-3105 6001 0
-6001 6002 0
-3107 -6001 0
-3107 6002 0
-6002 6003 0
-3109 -6002 0
-3109 6003 0
-6003 6004 0
-3111 -6003 0
-3111 6004 0
-6004 6005 0
-3113 -6004 0
-3113 6005 0
-6005 6006 0
-3115 -6005 0
-3115 6006 0
-6006 6007 0
-3117 -6006 0
-3117 6007 0
-6007 6008 0
-3119 -6007 0
-3119 6008 0
-6008 6009 0
-3121 -6008 0
-3121 6009 0
-6009 6010 0
-3123 -6009 0
-3123 6010 0
-6010 6011 0
-3125 -6010 0
-3125 6011 0
-6011 6012 0
-3127 -6011 0
-3127 6012 0
-6012 6013 0
-3129 -6012 0
-3129 6013 0
-6013 6014 0
-3131 -6013 0
-3131 6014 0
-6014 6015 0
-3133 -6014 0
-3133 6015 0
-3135 -6015 0
-3905 6016 0
-6016 6017 0
-3907 -6016 0
-3907 6017 0
-6017 6018 0
-3909 -6017 0
-3909 6018 0
-6018 6019 0
-3911 -6018 0
-3911 6019 0
-6019 6020 0
-3913 -6019 0
-3913 6020 0
-6020 6021 0
-3915 -6020 0
-3915 6021 0
-6021 6022 0
-3917 -6021 0
-3917 6022 0
-6022 6023 0
-3919 -6022 0
-3919 6023 0
-6023 6024 0
-3921 -6023 0
-3921 6024 0
-6024 6025 0
-3923 -6024 0
-3923 6025 0
-6025 6026 0
-3925 -6025 0
-3925 6026 0
-6026 6027 0
-3927 -6026 0
-3927 6027 0
-6027 6028 0
-3929 -6027 0
-3929 6028 0
-6028 6029 0
-3931 -6028 0
-3931 6029 0
-6029 6030 0
-3933 -6029 0
-3933 6030 0
-3935 -6030 0
-4705 6031 0
-6031 6032 0
-4707 -6031 0
-4707 6032 0
-6032 6033 0
-4709 -6032 0
-4709 6033 0
-6033 6034 0
-4711 -6033 0
-4711 6034 0
-6034 6035 0
-4713 -6034 0
-4713 6035 0
-6035 6036 0
-4715 -6035 0
-4715 6036 0
-6036 6037 0
-4717 -6036 0
-4717 6037 0
-6037 6038 0
-4719 -6037 0
-4719 6038 0
-6038 6039 0
-4721 -6038 0
-4721 6039 0
-6039 6040 0
-4723 -6039 0
-4723 6040 0
-6040 6041 0
-4725 -6040 0
-4725 6041 0
-6041 6042 0
-4727 -6041 0
-4727 6042 0
-6042 6043 0
-4729 -6042 0
-4729 6043 0
-6043 6044 0
-4731 -6043 0
-4731 6044 0
-6044 6045 0
-4733 -6044 0
-4733 6045 0
-4735 -6045 0
769 0
817 772 0
-817 -772 0
-817 -851 849 0
-817 -883 881 0
-817 -915 913 0
-817 -947 945 0
-817 -979 977 0
-817 -1011 1009 0
-817 -1043 1041 0
-817 -1075 1073 0
-817 -1107 1105 0
-817 -1139 1137 0
-817 -1171 1169 0
-817 -1203 1201 0
-817 -1235 1233 0
-817 -1267 1265 0
849 775 0
-849 -775 0
-849 -821 817 0
-849 -885 881 0
-849 -917 913 0
-849 -949 945 0
-849 -981 977 0
-849 -1013 1009 0
-849 -1045 1041 0
-849 -1077 1073 0
-849 -1109 1105 0
-849 -1141 1137 0
-849 -1173 1169 0
-849 -1205 1201 0
-849 -1237 1233 0
-849 -1269 1265 0
881 778 0
-881 -778 0
-881 -823 817 0
-881 -855 849 0
-881 -919 913 0
-881 -951 945 0
-881 -983 977 0
-881 -1015 1009 0
-881 -1047 1041 0
-881 -1079 1073 0
-881 -1111 1105 0
-881 -1143 1137 0
-881 -1175 1169 0
-881 -1207 1201 0
-881 -1239 1233 0
-881 -1271 1265 0
913 781 0
-913 -781 0
-913 -825 817 0
-913 -857 849 0
-913 -889 881 0
-913 -953 945 0
-913 -985 977 0
-913 -1017 1009 0
-913 -1049 1041 0
-913 -1081 1073 0
-913 -1113 1105 0
-913 -1145 1137 0
-913 -1177 1169 0
-913 -1209 1201 0
-913 -1241 1233 0
-913 -1273 1265 0
945 784 0
-945 -784 0
-945 -827 817 0
-945 -859 849 0
-945 -891 881 0
-945 -923 913 0
-945 -987 977 0
-945 -1019 1009 0
-945 -1051 1041 0
-945 -1083 1073 0
-945 -1115 1105 0
-945 -1147 1137 0
-945 -1179 1169 0
-945 -1211 1201 0
-945 -1243 1233 0
-945 -1275 1265 0
977 787 0
-977 -787 0
-977 -829 817 0
-977 -861 849 0
-977 -893 881 0
-977 -925 913 0
-977 -957 945 0
-977 -1021 1009 0
-977 -1053 1041 0
-977 -1085 1073 0
-977 -1117 1105 0
-977 -1149 1137 0
-977 -1181 1169 0
-977 -1213 1201 0
-977 -1245 1233 0
-977 -1277 1265 0
1009 790 0
-1009 -790 0
-1009 -831 817 0
-1009 -863 849 0
-1009 -895 881 0
-1009 -927 913 0
-1009 -959 945 0
-1009 -991 977 0
-1009 -1055 1041 0
-1009 -1087 1073 0
-1009 -1119 1105 0
-1009 -1151 1137 0
-1009 -1183 1169 0
-1009 -1215 1201 0
-1009 -1247 1233 0
-1009 -1279 1265 0
1041 793 0
-1041 -793 0
-1041 -833 817 0
-1041 -865 849 0
-1041 -897 881 0
-1041 -929 913 0
-1041 -961 945 0
-1041 -993 977 0
-1041 -1025 1009 0
-1041 -1089 1073 0
-1041 -1121 1105 0
-1041 -1153 1137 0
-1041 -1185 1169 0
-1041 -1217 1201 0
-1041 -1249 1233 0
-1041 -1281 1265 0
1073 796 0
-1073 -796 0
-1073 -835 817 0
-1073 -867 849 0
-1073 -899 881 0
-1073 -931 913 0
-1073 -963 945 0
-1073 -995 977 0
-1073 -1027 1009 0
-1073 -1059 1041 0
-1073 -1123 1105 0
-1073 -1155 1137 0
-1073 -1187 1169 0
-1073 -1219 1201 0
-1073 -1251 1233 0
-1073 -1283 1265 0
1105 799 0
-1105 -799 0
-1105 -837 817 0
-1105 -869 849 0
-1105 -901 881 0
-1105 -933 913 0
-1105 -965 945 0
-1105 -997 977 0
-1105 -1029 1009 0
-1105 -1061 1041 0
-1105 -1093 1073 0
-1105 -1157 1137 0
-1105 -1189 1169 0
-1105 -1221 1201 0
-1105 -1253 1233 0
-1105 -1285 1265 0
1137 802 0
-1137 -802 0
-1137 -839 817 0
-1137 -871 849 0
-1137 -903 881 0
-1137 -935 913 0
-1137 -967 945 0
-1137 -999 977 0
-1137 -1031 1009 0
-1137 -1063 1041 0
-1137 -1095 1073 0
-1137 -1127 1105 0
-1137 -1191 1169 0
-1137 -1223 1201 0
-1137 -1255 1233 0
-1137 -1287 1265 0
1169 805 0
-1169 -805 0
-1169 -841 817 0
-1169 -873 849 0
-1169 -905 881 0
-1169 -937 913 0
-1169 -969 945 0
-1169 -1001 977 0
-1169 -1033 1009 0
-1169 -1065 1041 0
-1169 -1097 1073 0
-1169 -1129 1105 0
-1169 -1161 1137 0
-1169 -1225 1201 0
-1169 -1257 1233 0
-1169 -1289 1265 0
1201 808 0
-1201 -808 0
-1201 -843 817 0
-1201 -875 849 0
-1201 -907 881 0
-1201 -939 913 0
-1201 -971 945 0
-1201 -1003 977 0
-1201 -1035 1009 0
-1201 -1067 1041 0
-1201 -1099 1073 0
-1201 -1131 1105 0
-1201 -1163 1137 0
-1201 -1195 1169 0
-1201 -1259 1233 0
-1201 -1291 1265 0
1233 811 0
-1233 -811 0
-1233 -845 817 0
-1233 -877 849 0
-1233 -909 881 0
-1233 -941 913 0
-1233 -973 945 0
-1233 -1005 977 0
-1233 -1037 1009 0
-1233 -1069 1041 0
-1233 -1101 1073 0
-1233 -1133 1105 0
-1233 -1165 1137 0
-1233 -1197 1169 0
-1233 -1229 1201 0
-1233 -1293 1265 0
1265 814 0
-1265 -814 0
-1265 -847 817 0
-1265 -879 849 0
-1265 -911 881 0
-1265 -943 913 0
-1265 -975 945 0
-1265 -1007 977 0
-1265 -1039 1009 0
-1265 -1071 1041 0
-1265 -1103 1073 0
-1265 -1135 1105 0
-1265 -1167 1137 0
-1265 -1199 1169 0
-1265 -1231 1201 0
-1265 -1263 1233 0
819 0
772 817 0
-772 -817 0
-772 -849 851 0
-772 -881 883 0
-772 -913 915 0
-772 -945 947 0
-772 -977 979 0
-772 -1009 1011 0
-772 -1041 1043 0
-772 -1073 1075 0
-772 -1105 1107 0
-772 -1137 1139 0
-772 -1169 1171 0
-772 -1201 1203 0
-772 -1233 1235 0
-772 -1265 1267 0
851 821 0
-851 -821 0
-851 -775 772 0
-851 -885 883 0
-851 -917 915 0
-851 -949 947 0
-851 -981 979 0
-851 -1013 1011 0
-851 -1045 1043 0
-851 -1077 1075 0
-851 -1109 1107 0
-851 -1141 1139 0
-851 -1173 1171 0
-851 -1205 1203 0
-851 -1237 1235 0
-851 -1269 1267 0
883 823 0
-883 -823 0
-883 -778 772 0
-883 -855 851 0
-883 -919 915 0
-883 -951 947 0
-883 -983 979 0
-883 -1015 1011 0
-883 -1047 1043 0
-883 -1079 1075 0
-883 -1111 1107 0
-883 -1143 1139 0
-883 -1175 1171 0
-883 -1207 1203 0
-883 -1239 1235 0
-883 -1271 1267 0
915 825 0
-915 -825 0
-915 -781 772 0
-915 -857 851 0
-915 -889 883 0
-915 -953 947 0
-915 -985 979 0
-915 -1017 1011 0
-915 -1049 1043 0
-915 -1081 1075 0
-915 -1113 1107 0
-915 -1145 1139 0
-915 -1177 1171 0
-915 -1209 1203 0
-915 -1241 1235 0
-915 -1273 1267 0
947 827 0
-947 -827 0
-947 -784 772 0
-947 -859 851 0
-947 -891 883 0
-947 -923 915 0
-947 -987 979 0
-947 -1019 1011 0
-947 -1051 1043 0
-947 -1083 1075 0
-947 -1115 1107 0
-947 -1147 1139 0
-947 -1179 1171 0
-947 -1211 1203 0
-947 -1243 1235 0
-947 -1275 1267 0
979 829 0
-979 -829 0
-979 -787 772 0
-979 -861 851 0
-979 -893 883 0
-979 -925 915 0
-979 -957 947 0
-979 -1021 1011 0
-979 -1053 1043 0
-979 -1085 1075 0
-979 -1117 1107 0
-979 -1149 1139 0
-979 -1181 1171 0
-979 -1213 1203 0
-979 -1245 1235 0
-979 -1277 1267 0
1011 831 0
-1011 -831 0
-1011 -790 772 0
-1011 -863 851 0
-1011 -895 883 0
-1011 -927 915 0
-1011 -959 947 0
-1011 -991 979 0
-1011 -1055 1043 0
-1011 -1087 1075 0
-1011 -1119 1107 0
-1011 -1151 1139 0
-1011 -1183 1171 0
-1011 -1215 1203 0
-1011 -1247 1235 0
-1011 -1279 1267 0
1043 833 0
-1043 -833 0
-1043 -793 772 0
-1043 -865 851 0
-1043 -897 883 0
-1043 -929 915 0
-1043 -961 947 0
-1043 -993 979 0
-1043 -1025 1011 0
-1043 -1089 1075 0
-1043 -1121 1107 0
-1043 -1153 1139 0
-1043 -1185 1171 0
-1043 -1217 1203 0
-1043 -1249 1235 0
-1043 -1281 1267 0
1075 835 0
-1075 -835 0
-1075 -796 772 0
-1075 -867 851 0
-1075 -899 883 0
-1075 -931 915 0
-1075 -963 947 0
-1075 -995 979 0
-1075 -1027 1011 0
-1075 -1059 1043 0
-1075 -1123 1107 0
-1075 -1155 1139 0
-1075 -1187 1171 0
-1075 -1219 1203 0
-1075 -1251 1235 0
-1075 -1283 1267 0
1107 837 0
-1107 -837 0
-1107 -799 772 0
-1107 -869 851 0
-1107 -901 883 0
-1107 -933 915 0
-1107 -965 947 0
-1107 -997 979 0
-1107 -1029 1011 0
-1107 -1061 1043 0
-1107 -1093 1075 0
-1107 -1157 1139 0
-1107 -1189 1171 0
-1107 -1221 1203 0
-1107 -1253 1235 0
-1107 -1285 1267 0
1139 839 0
-1139 -839 0
-1139 -802 772 0
-1139 -871 851 0
-1139 -903 883 0
-1139 -935 915 0
-1139 -967 947 0
-1139 -999 979 0
-1139 -1031 1011 0
-1139 -1063 1043 0
-1139 -1095 1075 0
-1139 -1127 1107 0
-1139 -1191 1171 0
-1139 -1223 1203 0
-1139 -1255 1235 0
-1139 -1287 1267 0
1171 841 0
-1171 -841 0
-1171 -805 772 0
-1171 -873 851 0
-1171 -905 883 0
-1171 -937 915 0
-1171 -969 947 0
-1171 -1001 979 0
-1171 -1033 1011 0
-1171 -1065 1043 0
-1171 -1097 1075 0
-1171 -1129 1107 0
-1171 -1161 1139 0
-1171 -1225 1203 0
-1171 -1257 1235 0
-1171 -1289 1267 0
1203 843 0
-1203 -843 0
-1203 -808 772 0
-1203 -875 851 0
-1203 -907 883 0
-1203 -939 915 0
-1203 -971 947 0
-1203 -1003 979 0
-1203 -1035 1011 0
-1203 -1067 1043 0
-1203 -1099 1075 0
-1203 -1131 1107 0
-1203 -1163 1139 0
-1203 -1195 1171 0
-1203 -1259 1235 0
-1203 -1291 1267 0
1235 845 0
-1235 -845 0
-1235 -811 772 0
-1235 -877 851 0
-1235 -909 883 0
-1235 -941 915 0
-1235 -973 947 0
-1235 -1005 979 0
-1235 -1037 1011 0
-1235 -1069 1043 0
-1235 -1101 1075 0
-1235 -1133 1107 0
-1235 -1165 1139 0
-1235 -1197 1171 0
-1235 -1229 1203 0
-1235 -1293 1267 0
1267 847 0
-1267 -847 0
-1267 -814 772 0
-1267 -879 851 0
-1267 -911 883 0
-1267 -943 915 0
-1267 -975 947 0
-1267 -1007 979 0
-1267 -1039 1011 0
-1267 -1071 1043 0
-1267 -1103 1075 0
-1267 -1135 1107 0
-1267 -1167 1139 0
-1267 -1199 1171 0
-1267 -1231 1203 0
-1267 -1263 1235 0
853 0
775 849 0
-775 -849 0
-775 -817 821 0
-775 -881 885 0
-775 -913 917 0
-775 -945 949 0
-775 -977 981 0
-775 -1009 1013 0
-775 -1041 1045 0
-775 -1073 1077 0
-775 -1105 1109 0
-775 -1137 1141 0
-775 -1169 1173 0
-775 -1201 1205 0
-775 -1233 1237 0
-775 -1265 1269 0
821 851 0
-821 -851 0
-821 -772 775 0
-821 -883 885 0
-821 -915 917 0
-821 -947 949 0
-821 -979 981 0
-821 -1011 1013 0
-821 -1043 1045 0
-821 -1075 1077 0
-821 -1107 1109 0
-821 -1139 1141 0
-821 -1171 1173 0
-821 -1203 1205 0
-821 -1235 1237 0
-821 -1267 1269 0
885 855 0
-885 -855 0
-885 -778 775 0
-885 -823 821 0
-885 -919 917 0
-885 -951 949 0
-885 -983 981 0
-885 -1015 1013 0
-885 -1047 1045 0
-885 -1079 1077 0
-885 -1111 1109 0
-885 -1143 1141 0
-885 -1175 1173 0
-885 -1207 1205 0
-885 -1239 1237 0
-885 -1271 1269 0
917 857 0
-917 -857 0
-917 -781 775 0
-917 -825 821 0
-917 -889 885 0
-917 -953 949 0
-917 -985 981 0
-917 -1017 1013 0
-917 -1049 1045 0
-917 -1081 1077 0
-917 -1113 1109 0
-917 -1145 1141 0
-917 -1177 1173 0
-917 -1209 1205 0
-917 -1241 1237 0
-917 -1273 1269 0
949 859 0
-949 -859 0
-949 -784 775 0
-949 -827 821 0
-949 -891 885 0
-949 -923 917 0
-949 -987 981 0
-949 -1019 1013 0
-949 -1051 1045 0
-949 -1083 1077 0
-949 -1115 1109 0
-949 -1147 1141 0
-949 -1179 1173 0
-949 -1211 1205 0
-949 -1243 1237 0
-949 -1275 1269 0
981 861 0
-981 -861 0
-981 -787 775 0
-981 -829 821 0
-981 -893 885 0
-981 -925 917 0
-981 -957 949 0
-981 -1021 1013 0
-981 -1053 1045 0
-981 -1085 1077 0
-981 -1117 1109 0
-981 -1149 1141 0
-981 -1181 1173 0
-981 -1213 1205 0
-981 -1245 1237 0
-981 -1277 1269 0
1013 863 0
-1013 -863 0
-1013 -790 775 0
-1013 -831 821 0
-1013 -895 885 0
-1013 -927 917 0
-1013 -959 949 0
-1013 -991 981 0
-1013 -1055 1045 0
-1013 -1087 1077 0
-1013 -1119 1109 0
-1013 -1151 1141 0
-1013 -1183 1173 0
-1013 -1215 1205 0
-1013 -1247 1237 0
-1013 -1279 1269 0
1045 865 0
-1045 -865 0
-1045 -793 775 0
-1045 -833 821 0
-1045 -897 885 0
-1045 -929 917 0
-1045 -961 949 0
-1045 -993 981 0
-1045 -1025 1013 0
-1045 -1089 1077 0
-1045 -1121 1109 0
-1045 -1153 1141 0
-1045 -1185 1173 0
-1045 -1217 1205 0
-1045 -1249 1237 0
-1045 -1281 1269 0
1077 867 0
-1077 -867 0
-1077 -796 775 0
-1077 -835 821 0
-1077 -899 885 0
-1077 -931 917 0
-1077 -963 949 0
-1077 -995 981 0
-1077 -1027 1013 0
-1077 -1059 1045 0
-1077 -1123 1109 0
-1077 -1155 1141 0
-1077 -1187 1173 0
-1077 -1219 1205 0
-1077 -1251 1237 0
-1077 -1283 1269 0
1109 869 0
-1109 -869 0
-1109 -799 775 0
-1109 -837 821 0
-1109 -901 885 0
-1109 -933 917 0
-1109 -965 949 0
-1109 -997 981 0
-1109 -1029 1013 0
-1109 -1061 1045 0
-1109 -1093 1077 0
-1109 -1157 1141 0
-1109 -1189 1173 0
-1109 -1221 1205 0
-1109 -1253 1237 0
-1109 -1285 1269 0
1141 871 0
-1141 -871 0
-1141 -802 775 0
-1141 -839 821 0
-1141 -903 885 0
-1141 -935 917 0
-1141 -967 949 0
-1141 -999 981 0
-1141 -1031 1013 0
-1141 -1063 1045 0
-1141 -1095 1077 0
-1141 -1127 1109 0
-1141 -1191 1173 0
-1141 -1223 1205 0
-1141 -1255 1237 0
-1141 -1287 1269 0
1173 873 0
-1173 -873 0
-1173 -805 775 0
-1173 -841 821 0
-1173 -905 885 0
-1173 -937 917 0
-1173 -969 949 0
-1173 -1001 981 0
-1173 -1033 1013 0
-1173 -1065 1045 0
-1173 -1097 1077 0
-1173 -1129 1109 0
-1173 -1161 1141 0
-1173 -1225 1205 0
-1173 -1257 1237 0
-1173 -1289 1269 0
1205 875 0
-1205 -875 0
-1205 -808 775 0
-1205 -843 821 0
-1205 -907 885 0
-1205 -939 917 0
-1205 -971 949 0
-1205 -1003 981 0
-1205 -1035 1013 0
-1205 -1067 1045 0
-1205 -1099 1077 0
-1205 -1131 1109 0
-1205 -1163 1141 0
-1205 -1195 1173 0
-1205 -1259 1237 0
-1205 -1291 1269 0
1237 877 0
-1237 -877 0
-1237 -811 775 0
-1237 -845 821 0
-1237 -909 885 0
-1237 -941 917 0
-1237 -973 949 0
-1237 -1005 981 0
-1237 -1037 1013 0
-1237 -1069 1045 0
-1237 -1101 1077 0
-1237 -1133 1109 0
-1237 -1165 1141 0
-1237 -1197 1173 0
-1237 -1229 1205 0
-1237 -1293 1269 0
1269 879 0
-1269 -879 0
-1269 -814 775 0
-1269 -847 821 0
-1269 -911 885 0
-1269 -943 917 0
-1269 -975 949 0
-1269 -1007 981 0
-1269 -1039 1013 0
-1269 -1071 1045 0
-1269 -1103 1077 0
-1269 -1135 1109 0
-1269 -1167 1141 0
-1269 -1199 1173 0
-1269 -1231 1205 0
-1269 -1263 1237 0
887 0
778 881 0
-778 -881 0
-778 -817 823 0
-778 -849 855 0
-778 -913 919 0
-778 -945 951 0
-778 -977 983 0
-778 -1009 1015 0
-778 -1041 1047 0
-778 -1073 1079 0
-778 -1105 1111 0
-778 -1137 1143 0
-778 -1169 1175 0
-778 -1201 1207 0
-778 -1233 1239 0
-778 -1265 1271 0
823 883 0
-823 -883 0
-823 -772 778 0
-823 -851 855 0
-823 -915 919 0
-823 -947 951 0
-823 -979 983 0
-823 -1011 1015 0
-823 -1043 1047 0
-823 -1075 1079 0
-823 -1107 1111 0
-823 -1139 1143 0
-823 -1171 1175 0
-823 -1203 1207 0
-823 -1235 1239 0
-823 -1267 1271 0
855 885 0
-855 -885 0
-855 -775 778 0
-855 -821 823 0
-855 -917 919 0
-855 -949 951 0
-855 -981 983 0
-855 -1013 1015 0
-855 -1045 1047 0
-855 -1077 1079 0
-855 -1109 1111 0
-855 -1141 1143 0
-855 -1173 1175 0
-855 -1205 1207 0
-855 -1237 1239 0
-855 -1269 1271 0
919 889 0
-919 -889 0
-919 -781 778 0
-919 -825 823 0
-919 -857 855 0
-919 -953 951 0
-919 -985 983 0
-919 -1017 1015 0
-919 -1049 1047 0
-919 -1081 1079 0
-919 -1113 1111 0
-919 -1145 1143 0
-919 -1177 1175 0
-919 -1209 1207 0
-919 -1241 1239 0
-919 -1273 1271 0
951 891 0
-951 -891 0
-951 -784 778 0
-951 -827 823 0
-951 -859 855 0
-951 -923 919 0
-951 -987 983 0
-951 -1019 1015 0
-951 -1051 1047 0
-951 -1083 1079 0
-951 -1115 1111 0
-951 -1147 1143 0
-951 -1179 1175 0
-951 -1211 1207 0
-951 -1243 1239 0
-951 -1275 1271 0
983 893 0
-983 -893 0
-983 -787 778 0
-983 -829 823 0
-983 -861 855 0
-983 -925 919 0
-983 -957 951 0
-983 -1021 1015 0
-983 -1053 1047 0
-983 -1085 1079 0
-983 -1117 1111 0
-983 -1149 1143 0
-983 -1181 1175 0
-983 -1213 1207 0
-983 -1245 1239 0
-983 -1277 1271 0
1015 895 0
-1015 -895 0
-1015 -790 778 0
-1015 -831 823 0
-1015 -863 855 0
-1015 -927 919 0
-1015 -959 951 0
-1015 -991 983 0
-1015 -1055 1047 0
-1015 -1087 1079 0
-1015 -1119 1111 0
-1015 -1151 1143 0
-1015 -1183 1175 0
-1015 -1215 1207 0
-1015 -1247 1239 0
-1015 -1279 1271 0
1047 897 0
-1047 -897 0
-1047 -793 778 0
-1047 -833 823 0
-1047 -865 855 0
-1047 -929 919 0
-1047 -961 951 0
-1047 -993 983 0
-1047 -1025 1015 0
-1047 -1089 1079 0
-1047 -1121 1111 0
-1047 -1153 1143 0
-1047 -1185 1175 0
-1047 -1217 1207 0
-1047 -1249 1239 0
-1047 -1281 1271 0
1079 899 0
-1079 -899 0
-1079 -796 778 0
-1079 -835 823 0
-1079 -867 855 0
-1079 -931 919 0
-1079 -963 951 0
-1079 -995 983 0
-1079 -1027 1015 0
-1079 -1059 1047 0
-1079 -1123 1111 0
-1079 -1155 1143 0
-1079 -1187 1175 0
-1079 -1219 1207 0
-1079 -1251 1239 0
-1079 -1283 1271 0
1111 901 0
-1111 -901 0
-1111 -799 778 0
-1111 -837 823 0
-1111 -869 855 0
-1111 -933 919 0
-1111 -965 951 0
-1111 -997 983 0
-1111 -1029 1015 0
-1111 -1061 1047 0
-1111 -1093 1079 0
-1111 -1157 1143 0
-1111 -1189 1175 0
-1111 -1221 1207 0
-1111 -1253 1239 0
-1111 -1285 1271 0
1143 903 0
-1143 -903 0
-1143 -802 778 0
-1143 -839 823 0
-1143 -871 855 0
-1143 -935 919 0
-1143 -967 951 0
-1143 -999 983 0
-1143 -1031 1015 0
-1143 -1063 1047 0
-1143 -1095 1079 0
-1143 -1127 1111 0
-1143 -1191 1175 0
-1143 -1223 1207 0
-1143 -1255 1239 0
-1143 -1287 1271 0
1175 905 0
-1175 -905 0
-1175 -805 778 0
-1175 -841 823 0
-1175 -873 855 0
-1175 -937 919 0
-1175 -969 951 0
-1175 -1001 983 0
-1175 -1033 1015 0
-1175 -1065 1047 0
-1175 -1097 1079 0
-1175 -1129 1111 0
-1175 -1161 1143 0
-1175 -1225 1207 0
-1175 -1257 1239 0
-1175 -1289 1271 0
1207 907 0
-1207 -907 0
-1207 -808 778 0
-1207 -843 823 0
-1207 -875 855 0
-1207 -939 919 0
-1207 -971 951 0
-1207 -1003 983 0
-1207 -1035 1015 0
-1207 -1067 1047 0
-1207 -1099 1079 0
-1207 -1131 1111 0
-1207 -1163 1143 0
-1207 -1195 1175 0
-1207 -1259 1239 0
-1207 -1291 1271 0
1239 909 0
-1239 -909 0
-1239 -811 778 0
-1239 -845 823 0
-1239 -877 855 0
-1239 -941 919 0
-1239 -973 951 0
-1239 -1005 983 0
-1239 -1037 1015 0
-1239 -1069 1047 0
-1239 -1101 1079 0
-1239 -1133 1111 0
-1239 -1165 1143 0
-1239 -1197 1175 0
-1239 -1229 1207 0
-1239 -1293 1271 0
1271 911 0
-1271 -911 0
-1271 -814 778 0
-1271 -847 823 0
-1271 -879 855 0
-1271 -943 919 0
-1271 -975 951 0
-1271 -1007 983 0
-1271 -1039 1015 0
-1271 -1071 1047 0
-1271 -1103 1079 0
-1271 -1135 1111 0
-1271 -1167 1143 0
-1271 -1199 1175 0
-1271 -1231 1207 0
-1271 -1263 1239 0
921 0
781 913 0
-781 -913 0
-781 -817 825 0
-781 -849 857 0
-781 -881 889 0
-781 -945 953 0
-781 -977 985 0
-781 -1009 1017 0
-781 -1041 1049 0
-781 -1073 1081 0
-781 -1105 1113 0
-781 -1137 1145 0
-781 -1169 1177 0
-781 -1201 1209 0
-781 -1233 1241 0
-781 -1265 1273 0
825 915 0
-825 -915 0
-825 -772 781 0
-825 -851 857 0
-825 -883 889 0
-825 -947 953 0
-825 -979 985 0
-825 -1011 1017 0
-825 -1043 1049 0
-825 -1075 1081 0
-825 -1107 1113 0
-825 -1139 1145 0
-825 -1171 1177 0
-825 -1203 1209 0
-825 -1235 1241 0
-825 -1267 1273 0
857 917 0
-857 -917 0
-857 -775 781 0
-857 -821 825 0
-857 -885 889 0
-857 -949 953 0
-857 -981 985 0
-857 -1013 1017 0
-857 -1045 1049 0
-857 -1077 1081 0
-857 -1109 1113 0
-857 -1141 1145 0
-857 -1173 1177 0
-857 -1205 1209 0
-857 -1237 1241 0
-857 -1269 1273 0
889 919 0
-889 -919 0
-889 -778 781 0
-889 -823 825 0
-889 -855 857 0
-889 -951 953 0
-889 -983 985 0
-889 -1015 1017 0
-889 -1047 1049 0
-889 -1079 1081 0
-889 -1111 1113 0
-889 -1143 1145 0
-889 -1175 1177 0
-889 -1207 1209 0
-889 -1239 1241 0
-889 -1271 1273 0
953 923 0
-953 -923 0
-953 -784 781 0
-953 -827 825 0
-953 -859 857 0
-953 -891 889 0
-953 -987 985 0
-953 -1019 1017 0
-953 -1051 1049 0
-953 -1083 1081 0
-953 -1115 1113 0
-953 -1147 1145 0
-953 -1179 1177 0
-953 -1211 1209 0
-953 -1243 1241 0
-953 -1275 1273 0
985 925 0
-985 -925 0
-985 -787 781 0
-985 -829 825 0
-985 -861 857 0
-985 -893 889 0
-985 -957 953 0
-985 -1021 1017 0
-985 -1053 1049 0
-985 -1085 1081 0
-985 -1117 1113 0
-985 -1149 1145 0
-985 -1181 1177 0
-985 -1213 1209 0
-985 -1245 1241 0
-985 -1277 1273 0
1017 927 0
-1017 -927 0
-1017 -790 781 0
-1017 -831 825 0
-1017 -863 857 0
-1017 -895 889 0
-1017 -959 953 0
-1017 -991 985 0
-1017 -1055 1049 0
-1017 -1087 1081 0
-1017 -1119 1113 0
-1017 -1151 1145 0
-1017 -1183 1177 0
-1017 -1215 1209 0
-1017 -1247 1241 0
-1017 -1279 1273 0
1049 929 0
-1049 -929 0
-1049 -793 781 0
-1049 -833 825 0
-1049 -865 857 0
-1049 -897 889 0
-1049 -961 953 0
-1049 -993 985 0
-1049 -1025 1017 0
-1049 -1089 1081 0
-1049 -1121 1113 0
-1049 -1153 1145 0
-1049 -1185 1177 0
-1049 -1217 1209 0
-1049 -1249 1241 0
-1049 -1281 1273 0
1081 931 0
-1081 -931 0
-1081 -796 781 0
-1081 -835 825 0
-1081 -867 857 0
-1081 -899 889 0
-1081 -963 953 0
-1081 -995 985 0
-1081 -1027 1017 0
-1081 -1059 1049 0
-1081 -1123 1113 0
-1081 -1155 1145 0
-1081 -1187 1177 0
-1081 -1219 1209 0
-1081 -1251 1241 0
-1081 -1283 1273 0
1113 933 0
-1113 -933 0
-1113 -799 781 0
-1113 -837 825 0
-1113 -869 857 0
-1113 -901 889 0
-1113 -965 953 0
-1113 -997 985 0
-1113 -1029 1017 0
-1113 -1061 1049 0
-1113 -1093 1081 0
-1113 -1157 1145 0
-1113 -1189 1177 0
-1113 -1221 1209 0
-1113 -1253 1241 0
-1113 -1285 1273 0
1145 935 0
-1145 -935 0
-1145 -802 781 0
-1145 -839 825 0
-1145 -871 857 0
-1145 -903 889 0
-1145 -967 953 0
-1145 -999 985 0
-1145 -1031 1017 0
-1145 -1063 1049 0
-1145 -1095 1081 0
-1145 -1127 1113 0
-1145 -1191 1177 0
-1145 -1223 1209 0
-1145 -1255 1241 0
-1145 -1287 1273 0
1177 937 0
-1177 -937 0
-1177 -805 781 0
-1177 -841 825 0
-1177 -873 857 0
-1177 -905 889 0
-1177 -969 953 0
-1177 -1001 985 0
-1177 -1033 1017 0
-1177 -1065 1049 0
-1177 -1097 1081 0
-1177 -1129 1113 0
-1177 -1161 1145 0
-1177 -1225 1209 0
-1177 -1257 1241 0
-1177 -1289 1273 0
1209 939 0
-1209 -939 0
-1209 -808 781 0
-1209 -843 825 0
-1209 -875 857 0
-1209 -907 889 0
-1209 -971 953 0
-1209 -1003 985 0
-1209 -1035 1017 0
-1209 -1067 1049 0
-1209 -1099 1081 0
-1209 -1131 1113 0
-1209 -1163 1145 0
-1209 -1195 1177 0
-1209 -1259 1241 0
-1209 -1291 1273 0
1241 941 0
-1241 -941 0
-1241 -811 781 0
-1241 -845 825 0
-1241 -877 857 0
-1241 -909 889 0
-1241 -973 953 0
-1241 -1005 985 0
-1241 -1037 1017 0
-1241 -1069 1049 0
-1241 -1101 1081 0
-1241 -1133 1113 0
-1241 -1165 1145 0
-1241 -1197 1177 0
-1241 -1229 1209 0
-1241 -1293 1273 0
1273 943 0
-1273 -943 0
-1273 -814 781 0
-1273 -847 825 0
-1273 -879 857 0
-1273 -911 889 0
-1273 -975 953 0
-1273 -1007 985 0
-1273 -1039 1017 0
-1273 -1071 1049 0
-1273 -1103 1081 0
-1273 -1135 1113 0
-1273 -1167 1145 0
-1273 -1199 1177 0
-1273 -1231 1209 0
-1273 -1263 1241 0
955 0
784 945 0
-784 -945 0
-784 -817 827 0
-784 -849 859 0
-784 -881 891 0
-784 -913 923 0
-784 -977 987 0
-784 -1009 1019 0
-784 -1041 1051 0
-784 -1073 1083 0
-784 -1105 1115 0
-784 -1137 1147 0
-784 -1169 1179 0
-784 -1201 1211 0
-784 -1233 1243 0
-784 -1265 1275 0
827 947 0
-827 -947 0
-827 -772 784 0
-827 -851 859 0
-827 -883 891 0
-827 -915 923 0
-827 -979 987 0
-827 -1011 1019 0
-827 -1043 1051 0
-827 -1075 1083 0
-827 -1107 1115 0
-827 -1139 1147 0
-827 -1171 1179 0
-827 -1203 1211 0
-827 -1235 1243 0
-827 -1267 1275 0
859 949 0
-859 -949 0
-859 -775 784 0
-859 -821 827 0
-859 -885 891 0
-859 -917 923 0
-859 -981 987 0
-859 -1013 1019 0
-859 -1045 1051 0
-859 -1077 1083 0
-859 -1109 1115 0
-859 -1141 1147 0
-859 -1173 1179 0
-859 -1205 1211 0
-859 -1237 1243 0
-859 -1269 1275 0
891 951 0
-891 -951 0
-891 -778 784 0
-891 -823 827 0
-891 -855 859 0
-891 -919 923 0
-891 -983 987 0
-891 -1015 1019 0
-891 -1047 1051 0
-891 -1079 1083 0
-891 -1111 1115 0
-891 -1143 1147 0
-891 -1175 1179 0
-891 -1207 1211 0
-891 -1239 1243 0
-891 -1271 1275 0
923 953 0
-923 -953 0
-923 -781 784 0
-923 -825 827 0
-923 -857 859 0
-923 -889 891 0
-923 -985 987 0
-923 -1017 1019 0
-923 -1049 1051 0
-923 -1081 1083 0
-923 -1113 1115 0
-923 -1145 1147 0
-923 -1177 1179 0
-923 -1209 1211 0
-923 -1241 1243 0
-923 -1273 1275 0
987 957 0
-987 -957 0
-987 -787 784 0
-987 -829 827 0
-987 -861 859 0
-987 -893 891 0
-987 -925 923 0
-987 -1021 1019 0
-987 -1053 1051 0
-987 -1085 1083 0
-987 -1117 1115 0
-987 -1149 1147 0
-987 -1181 1179 0
-987 -1213 1211 0
-987 -1245 1243 0
-987 -1277 1275 0
1019 959 0
-1019 -959 0
-1019 -790 784 0
-1019 -831 827 0
-1019 -863 859 0
-1019 -895 891 0
-1019 -927 923 0
-1019 -991 987 0
-1019 -1055 1051 0
-1019 -1087 1083 0
-1019 -1119 1115 0
-1019 -1151 1147 0
-1019 -1183 1179 0
-1019 -1215 1211 0
-1019 -1247 1243 0
-1019 -1279 1275 0
1051 961 0
-1051 -961 0
-1051 -793 784 0
-1051 -833 827 0
-1051 -865 859 0
-1051 -897 891 0
-1051 -929 923 0
-1051 -993 987 0
-1051 -1025 1019 0
-1051 -1089 1083 0
-1051 -1121 1115 0
-1051 -1153 1147 0
-1051 -1185 1179 0
-1051 -1217 1211 0
-1051 -1249 1243 0
-1051 -1281 1275 0
1083 963 0
-1083 -963 0
-1083 -796 784 0
-1083 -835 827 0
-1083 -867 859 0
-1083 -899 891 0
-1083 -931 923 0
-1083 -995 987 0
-1083 -1027 1019 0
-1083 -1059 1051 0
-1083 -1123 1115 0
-1083 -1155 1147 0
-1083 -1187 1179 0
-1083 -1219 1211 0
-1083 -1251 1243 0
-1083 -1283 1275 0
1115 965 0
-1115 -965 0
-1115 -799 784 0
-1115 -837 827 0
-1115 -869 859 0
-1115 -901 891 0
-1115 -933 923 0
-1115 -997 987 0
-1115 -1029 1019 0
-1115 -1061 1051 0
-1115 -1093 1083 0
-1115 -1157 1147 0
-1115 -1189 1179 0
-1115 -1221 1211 0
-1115 -1253 1243 0
-1115 -1285 1275 0
1147 967 0
-1147 -967 0
-1147 -802 784 0
-1147 -839 827 0
-1147 -871 859 0
-1147 -903 891 0
-1147 -935 923 0
-1147 -999 987 0
-1147 -1031 1019 0
-1147 -1063 1051 0
-1147 -1095 1083 0
-1147 -1127 1115 0
-1147 -1191 1179 0
-1147 -1223 1211 0
-1147 -1255 1243 0
-1147 -1287 1275 0
1179 969 0
-1179 -969 0
-1179 -805 784 0
-1179 -841 827 0
-1179 -873 859 0
-1179 -905 891 0
-1179 -937 923 0
-1179 -1001 987 0
-1179 -1033 1019 0
-1179 -1065 1051 0
-1179 -1097 1083 0
-1179 -1129 1115 0
-1179 -1161 1147 0
-1179 -1225 1211 0
-1179 -1257 1243 0
-1179 -1289 1275 0
1211 971 0
-1211 -971 0
-1211 -808 784 0
-1211 -843 827 0
-1211 -875 859 0
-1211 -907 891 0
-1211 -939 923 0
-1211 -1003 987 0
-1211 -1035 1019 0
-1211 -1067 1051 0
-1211 -1099 1083 0
-1211 -1131 1115 0
-1211 -1163 1147 0
-1211 -1195 1179 0
-1211 -1259 1243 0
-1211 -1291 1275 0
1243 973 0
-1243 -973 0
-1243 -811 784 0
-1243 -845 827 0
-1243 -877 859 0
-1243 -909 891 0
-1243 -941 923 0
-1243 -1005 987 0
-1243 -1037 1019 0
-1243 -1069 1051 0
-1243 -1101 1083 0
-1243 -1133 1115 0
-1243 -1165 1147 0
-1243 -1197 1179 0
-1243 -1229 1211 0
-1243 -1293 1275 0
1275 975 0
-1275 -975 0
-1275 -814 784 0
-1275 -847 827 0
-1275 -879 859 0
-1275 -911 891 0
-1275 -943 923 0
-1275 -1007 987 0
-1275 -1039 1019 0
-1275 -1071 1051 0
-1275 -1103 1083 0
-1275 -1135 1115 0
-1275 -1167 1147 0
-1275 -1199 1179 0
-1275 -1231 1211 0
-1275 -1263 1243 0
989 0
787 977 0
-787 -977 0
-787 -817 829 0
-787 -849 861 0
-787 -881 893 0
-787 -913 925 0
-787 -945 957 0
-787 -1009 1021 0
-787 -1041 1053 0
-787 -1073 1085 0
-787 -1105 1117 0
-787 -1137 1149 0
-787 -1169 1181 0
-787 -1201 1213 0
-787 -1233 1245 0
-787 -1265 1277 0
829 979 0
-829 -979 0
-829 -772 787 0
-829 -851 861 0
-829 -883 893 0
-829 -915 925 0
-829 -947 957 0
-829 -1011 1021 0
-829 -1043 1053 0
-829 -1075 1085 0
-829 -1107 1117 0
-829 -1139 1149 0
-829 -1171 1181 0
-829 -1203 1213 0
-829 -1235 1245 0
-829 -1267 1277 0
861 981 0
-861 -981 0
-861 -775 787 0
-861 -821 829 0
-861 -885 893 0
-861 -917 925 0
-861 -949 957 0
-861 -1013 1021 0
-861 -1045 1053 0
-861 -1077 1085 0
-861 -1109 1117 0
-861 -1141 1149 0
-861 -1173 1181 0
-861 -1205 1213 0
-861 -1237 1245 0
-861 -1269 1277 0
893 983 0
-893 -983 0
-893 -778 787 0
-893 -823 829 0
-893 -855 861 0
-893 -919 925 0
-893 -951 957 0
-893 -1015 1021 0
-893 -1047 1053 0
-893 -1079 1085 0
-893 -1111 1117 0
-893 -1143 1149 0
-893 -1175 1181 0
-893 -1207 1213 0
-893 -1239 1245 0
-893 -1271 1277 0
925 985 0
-925 -985 0
-925 -781 787 0
-925 -825 829 0
-925 -857 861 0
-925 -889 893 0
-925 -953 957 0
-925 -1017 1021 0
-925 -1049 1053 0
-925 -1081 1085 0
-925 -1113 1117 0
-925 -1145 1149 0
-925 -1177 1181 0
-925 -1209 1213 0
-925 -1241 1245 0
-925 -1273 1277 0
957 987 0
-957 -987 0
-957 -784 787 0
-957 -827 829 0
-957 -859 861 0
-957 -891 893 0
-957 -923 925 0
-957 -1019 1021 0
-957 -1051 1053 0
-957 -1083 1085 0
-957 -1115 1117 0
-957 -1147 1149 0
-957 -1179 1181 0
-957 -1211 1213 0
-957 -1243 1245 0
-957 -1275 1277 0
1021 991 0
-1021 -991 0
-1021 -790 787 0
-1021 -831 829 0
-1021 -863 861 0
-1021 -895 893 0
-1021 -927 925 0
-1021 -959 957 0
-1021 -1055 1053 0
-1021 -1087 1085 0
-1021 -1119 1117 0
-1021 -1151 1149 0
-1021 -1183 1181 0
-1021 -1215 1213 0
-1021 -1247 1245 0
-1021 -1279 1277 0
1053 993 0
-1053 -993 0
-1053 -793 787 0
-1053 -833 829 0
-1053 -865 861 0
-1053 -897 893 0
-1053 -929 925 0
-1053 -961 957 0
-1053 -1025 1021 0
-1053 -1089 1085 0
-1053 -1121 1117 0
-1053 -1153 1149 0
-1053 -1185 1181 0
-1053 -1217 1213 0
-1053 -1249 1245 0
-1053 -1281 1277 0
1085 995 0
-1085 -995 0
-1085 -796 787 0
-1085 -835 829 0
-1085 -867 861 0
-1085 -899 893 0
-1085 -931 925 0
-1085 -963 957 0
-1085 -1027 1021 0
-1085 -1059 1053 0
-1085 -1123 1117 0
-1085 -1155 1149 0
-1085 -1187 1181 0
-1085 -1219 1213 0
-1085 -1251 1245 0
-1085 -1283 1277 0
1117 997 0
-1117 -997 0
-1117 -799 787 0
-1117 -837 829 0
-1117 -869 861 0
-1117 -901 893 0
-1117 -933 925 0
-1117 -965 957 0
-1117 -1029 1021 0
-1117 -1061 1053 0
-1117 -1093 1085 0
-1117 -1157 1149 0
-1117 -1189 1181 0
-1117 -1221 1213 0
-1117 -1253 1245 0
-1117 -1285 1277 0
1149 999 0
-1149 -999 0
-1149 -802 787 0
-1149 -839 829 0
-1149 -871 861 0
-1149 -903 893 0
-1149 -935 925 0
-1149 -967 957 0
-1149 -1031 1021 0
-1149 -1063 1053 0
-1149 -1095 1085 0
-1149 -1127 1117 0
-1149 -1191 1181 0
-1149 -1223 1213 0
-1149 -1255 1245 0
-1149 -1287 1277 0
1181 1001 0
-1181 -1001 0
-1181 -805 787 0
-1181 -841 829 0
-1181 -873 861 0
-1181 -905 893 0
-1181 -937 925 0
-1181 -969 957 0
-1181 -1033 1021 0
-1181 -1065 1053 0
-1181 -1097 1085 0
-1181 -1129 1117 0
-1181 -1161 1149 0
-1181 -1225 1213 0
-1181 -1257 1245 0
-1181 -1289 1277 0
1213 1003 0
-1213 -1003 0
-1213 -808 787 0
-1213 -843 829 0
-1213 -875 861 0
-1213 -907 893 0
-1213 -939 925 0
-1213 -971 957 0
-1213 -1035 1021 0
-1213 -1067 1053 0
-1213 -1099 1085 0
-1213 -1131 1117 0
-1213 -1163 1149 0
-1213 -1195 1181 0
-1213 -1259 1245 0
-1213 -1291 1277 0
1245 1005 0
-1245 -1005 0
-1245 -811 787 0
-1245 -845 829 0
-1245 -877 861 0
-1245 -909 893 0
-1245 -941 925 0
-1245 -973 957 0
-1245 -1037 1021 0
-1245 -1069 1053 0
-1245 -1101 1085 0
-1245 -1133 1117 0
-1245 -1165 1149 0
-1245 -1197 1181 0
-1245 -1229 1213 0
-1245 -1293 1277 0
1277 1007 0
-1277 -1007 0
-1277 -814 787 0
-1277 -847 829 0
-1277 -879 861 0
-1277 -911 893 0
-1277 -943 925 0
-1277 -975 957 0
-1277 -1039 1021 0
-1277 -1071 1053 0
-1277 -1103 1085 0
-1277 -1135 1117 0
-1277 -1167 1149 0
-1277 -1199 1181 0
-1277 -1231 1213 0
-1277 -1263 1245 0
1023 0
790 1009 0
-790 -1009 0
-790 -817 831 0
-790 -849 863 0
-790 -881 895 0
-790 -913 927 0
-790 -945 959 0
-790 -977 991 0
-790 -1041 1055 0
-790 -1073 1087 0
-790 -1105 1119 0
-790 -1137 1151 0
-790 -1169 1183 0
-790 -1201 1215 0
-790 -1233 1247 0
-790 -1265 1279 0
831 1011 0
-831 -1011 0
-831 -772 790 0
-831 -851 863 0
-831 -883 895 0
-831 -915 927 0
-831 -947 959 0
-831 -979 991 0
-831 -1043 1055 0
-831 -1075 1087 0
-831 -1107 1119 0
-831 -1139 1151 0
-831 -1171 1183 0
-831 -1203 1215 0
-831 -1235 1247 0
-831 -1267 1279 0
863 1013 0
-863 -1013 0
-863 -775 790 0
-863 -821 831 0
-863 -885 895 0
-863 -917 927 0
-863 -949 959 0
-863 -981 991 0
-863 -1045 1055 0
-863 -1077 1087 0
-863 -1109 1119 0
-863 -1141 1151 0
-863 -1173 1183 0
-863 -1205 1215 0
-863 -1237 1247 0
-863 -1269 1279 0
895 1015 0
-895 -1015 0
-895 -778 790 0
-895 -823 831 0
-895 -855 863 0
-895 -919 927 0
-895 -951 959 0
-895 -983 991 0
-895 -1047 1055 0
-895 -1079 1087 0
-895 -1111 1119 0
-895 -1143 1151 0
-895 -1175 1183 0
-895 -1207 1215 0
-895 -1239 1247 0
-895 -1271 1279 0
927 1017 0
-927 -1017 0
-927 -781 790 0
-927 -825 831 0
-927 -857 863 0
-927 -889 895 0
-927 -953 959 0
-927 -985 991 0
-927 -1049 1055 0
-927 -1081 1087 0
-927 -1113 1119 0
-927 -1145 1151 0
-927 -1177 1183 0
-927 -1209 1215 0
-927 -1241 1247 0
-927 -1273 1279 0
959 1019 0
-959 -1019 0
-959 -784 790 0
-959 -827 831 0
-959 -859 863 0
-959 -891 895 0
-959 -923 927 0
-959 -987 991 0
-959 -1051 1055 0
-959 -1083 1087 0
-959 -1115 1119 0
-959 -1147 1151 0
-959 -1179 1183 0
-959 -1211 1215 0
-959 -1243 1247 0
-959 -1275 1279 0
991 1021 0
-991 -1021 0
-991 -787 790 0
-991 -829 831 0
-991 -861 863 0
-991 -893 895 0
-991 -925 927 0
-991 -957 959 0
-991 -1053 1055 0
-991 -1085 1087 0
-991 -1117 1119 0
-991 -1149 1151 0
-991 -1181 1183 0
-991 -1213 1215 0
-991 -1245 1247 0
-991 -1277 1279 0
1055 1025 0
-1055 -1025 0
-1055 -793 790 0
-1055 -833 831 0
-1055 -865 863 0
-1055 -897 895 0
-1055 -929 927 0
-1055 -961 959 0
-1055 -993 991 0
-1055 -1089 1087 0
-1055 -1121 1119 0
-1055 -1153 1151 0
-1055 -1185 1183 0
-1055 -1217 1215 0
-1055 -1249 1247 0
-1055 -1281 1279 0
1087 1027 0
-1087 -1027 0
-1087 -796 790 0
-1087 -835 831 0
-1087 -867 863 0
-1087 -899 895 0
-1087 -931 927 0
-1087 -963 959 0
-1087 -995 991 0
-1087 -1059 1055 0
-1087 -1123 1119 0
-1087 -1155 1151 0
-1087 -1187 1183 0
-1087 -1219 1215 0
-1087 -1251 1247 0
-1087 -1283 1279 0
1119 1029 0
-1119 -1029 0
-1119 -799 790 0
-1119 -837 831 0
-1119 -869 863 0
-1119 -901 895 0
-1119 -933 927 0
-1119 -965 959 0
-1119 -997 991 0
-1119 -1061 1055 0
-1119 -1093 1087 0
-1119 -1157 1151 0
-1119 -1189 1183 0
-1119 -1221 1215 0
-1119 -1253 1247 0
-1119 -1285 1279 0
1151 1031 0
-1151 -1031 0
-1151 -802 790 0
-1151 -839 831 0
-1151 -871 863 0
-1151 -903 895 0
-1151 -935 927 0
-1151 -967 959 0
-1151 -999 991 0
-1151 -1063 1055 0
-1151 -1095 1087 0
-1151 -1127 1119 0
-1151 -1191 1183 0
-1151 -1223 1215 0
-1151 -1255 1247 0
-1151 -1287 1279 0
1183 1033 0
-1183 -1033 0
-1183 -805 790 0
-1183 -841 831 0
-1183 -873 863 0
-1183 -905 895 0
-1183 -937 927 0
-1183 -969 959 0
-1183 -1001 991 0
-1183 -1065 1055 0
-1183 -1097 1087 0
-1183 -1129 1119 0
-1183 -1161 1151 0
-1183 -1225 1215 0
-1183 -1257 1247 0
-1183 -1289 1279 0
1215 1035 0
-1215 -1035 0
-1215 -808 790 0
-1215 -843 831 0
-1215 -875 863 0
-1215 -907 895 0
-1215 -939 927 0
-1215 -971 959 0
-1215 -1003 991 0
-1215 -1067 1055 0
-1215 -1099 1087 0
-1215 -1131 1119 0
-1215 -1163 1151 0
-1215 -1195 1183 0
-1215 -1259 1247 0
-1215 -1291 1279 0
1247 1037 0
-1247 -1037 0
-1247 -811 790 0
-1247 -845 831 0
-1247 -877 863 0
-1247 -909 895 0
-1247 -941 927 0
-1247 -973 959 0
-1247 -1005 991 0
-1247 -1069 1055 0
-1247 -1101 1087 0
-1247 -1133 1119 0
-1247 -1165 1151 0
-1247 -1197 1183 0
-1247 -1229 1215 0
-1247 -1293 1279 0
1279 1039 0
-1279 -1039 0
-1279 -814 790 0
-1279 -847 831 0
-1279 -879 863 0
-1279 -911 895 0
-1279 -943 927 0
-1279 -975 959 0
-1279 -1007 991 0
-1279 -1071 1055 0
-1279 -1103 1087 0
-1279 -1135 1119 0
-1279 -1167 1151 0
-1279 -1199 1183 0
-1279 -1231 1215 0
-1279 -1263 1247 0
1057 0
793 1041 0
-793 -1041 0
-793 -817 833 0
-793 -849 865 0
-793 -881 897 0
-793 -913 929 0
-793 -945 961 0
-793 -977 993 0
-793 -1009 1025 0
-793 -1073 1089 0
-793 -1105 1121 0
-793 -1137 1153 0
-793 -1169 1185 0
-793 -1201 1217 0
-793 -1233 1249 0
-793 -1265 1281 0
833 1043 0
-833 -1043 0
-833 -772 793 0
-833 -851 865 0
-833 -883 897 0
-833 -915 929 0
-833 -947 961 0
-833 -979 993 0
-833 -1011 1025 0
-833 -1075 1089 0
-833 -1107 1121 0
-833 -1139 1153 0
-833 -1171 1185 0
-833 -1203 1217 0
-833 -1235 1249 0
-833 -1267 1281 0
865 1045 0
-865 -1045 0
-865 -775 793 0
-865 -821 833 0
-865 -885 897 0
-865 -917 929 0
-865 -949 961 0
-865 -981 993 0
-865 -1013 1025 0
-865 -1077 1089 0
-865 -1109 1121 0
-865 -1141 1153 0
-865 -1173 1185 0
-865 -1205 1217 0
-865 -1237 1249 0
-865 -1269 1281 0
897 1047 0
-897 -1047 0
-897 -778 793 0
-897 -823 833 0
-897 -855 865 0
-897 -919 929 0
-897 -951 961 0
-897 -983 993 0
-897 -1015 1025 0
-897 -1079 1089 0
-897 -1111 1121 0
-897 -1143 1153 0
-897 -1175 1185 0
-897 -1207 1217 0
-897 -1239 1249 0
-897 -1271 1281 0
929 1049 0
-929 -1049 0
-929 -781 793 0
-929 -825 833 0
-929 -857 865 0
-929 -889 897 0
-929 -953 961 0
-929 -985 993 0
-929 -1017 1025 0
-929 -1081 1089 0
-929 -1113 1121 0
-929 -1145 1153 0
-929 -1177 1185 0
-929 -1209 1217 0
-929 -1241 1249 0
-929 -1273 1281 0
961 1051 0
-961 -1051 0
-961 -784 793 0
-961 -827 833 0
-961 -859 865 0
-961 -891 897 0
-961 -923 929 0
-961 -987 993 0
-961 -1019 1025 0
-961 -1083 1089 0
-961 -1115 1121 0
-961 -1147 1153 0
-961 -1179 1185 0
-961 -1211 1217 0
-961 -1243 1249 0
-961 -1275 1281 0
993 1053 0
-993 -1053 0
-993 -787 793 0
-993 -829 833 0
-993 -861 865 0
-993 -893 897 0
-993 -925 929 0
-993 -957 961 0
-993 -1021 1025 0
-993 -1085 1089 0
-993 -1117 1121 0
-993 -1149 1153 0
-993 -1181 1185 0
-993 -1213 1217 0
-993 -1245 1249 0
-993 -1277 1281 0
1025 1055 0
-1025 -1055 0
-1025 -790 793 0
-1025 -831 833 0
-1025 -863 865 0
-1025 -895 897 0
-1025 -927 929 0
-1025 -959 961 0
-1025 -991 993 0
-1025 -1087 1089 0
-1025 -1119 1121 0
-1025 -1151 1153 0
-1025 -1183 1185 0
-1025 -1215 1217 0
-1025 -1247 1249 0
-1025 -1279 1281 0
1089 1059 0
-1089 -1059 0
-1089 -796 793 0
-1089 -835 833 0
-1089 -867 865 0
-1089 -899 897 0
-1089 -931 929 0
-1089 -963 961 0
-1089 -995 993 0
-1089 -1027 1025 0
-1089 -1123 1121 0
-1089 -1155 1153 0
-1089 -1187 1185 0
-1089 -1219 1217 0
-1089 -1251 1249 0
-1089 -1283 1281 0
1121 1061 0
-1121 -1061 0
-1121 -799 793 0
-1121 -837 833 0
-1121 -869 865 0
-1121 -901 897 0
-1121 -933 929 0
-1121 -965 961 0
-1121 -997 993 0
-1121 -1029 1025 0
-1121 -1093 1089 0
-1121 -1157 1153 0
-1121 -1189 1185 0
-1121 -1221 1217 0
-1121 -1253 1249 0
-1121 -1285 1281 0
1153 1063 0
-1153 -1063 0
-1153 -802 793 0
-1153 -839 833 0
-1153 -871 865 0
-1153 -903 897 0
-1153 -935 929 0
-1153 -967 961 0
-1153 -999 993 0
-1153 -1031 1025 0
-1153 -1095 1089 0
-1153 -1127 1121 0
-1153 -1191 1185 0
-1153 -1223 1217 0
-1153 -1255 1249 0
-1153 -1287 1281 0
1185 1065 0
-1185 -1065 0
-1185 -805 793 0
-1185 -841 833 0
-1185 -873 865 0
-1185 -905 897 0
-1185 -937 929 0
-1185 -969 961 0
-1185 -1001 993 0
-1185 -1033 1025 0
-1185 -1097 1089 0
-1185 -1129 1121 0
-1185 -1161 1153 0
-1185 -1225 1217 0
-1185 -1257 1249 0
-1185 -1289 1281 0
1217 1067 0
-1217 -1067 0
-1217 -808 793 0
-1217 -843 833 0
-1217 -875 865 0
-1217 -907 897 0
-1217 -939 929 0
-1217 -971 961 0
-1217 -1003 993 0
-1217 -1035 1025 0
-1217 -1099 1089 0
-1217 -1131 1121 0
-1217 -1163 1153 0
-1217 -1195 1185 0
-1217 -1259 1249 0
-1217 -1291 1281 0
1249 1069 0
-1249 -1069 0
-1249 -811 793 0
-1249 -845 833 0
-1249 -877 865 0
-1249 -909 897 0
-1249 -941 929 0
-1249 -973 961 0
-1249 -1005 993 0
-1249 -1037 1025 0
-1249 -1101 1089 0
-1249 -1133 1121 0
-1249 -1165 1153 0
-1249 -1197 1185 0
-1249 -1229 1217 0
-1249 -1293 1281 0
1281 1071 0
-1281 -1071 0
-1281 -814 793 0
-1281 -847 833 0
-1281 -879 865 0
-1281 -911 897 0
-1281 -943 929 0
-1281 -975 961 0
-1281 -1007 993 0
-1281 -1039 1025 0
-1281 -1103 1089 0
-1281 -1135 1121 0
-1281 -1167 1153 0
-1281 -1199 1185 0
-1281 -1231 1217 0
-1281 -1263 1249 0
1091 0
796 1073 0
-796 -1073 0
-796 -817 835 0
-796 -849 867 0
-796 -881 899 0
-796 -913 931 0
-796 -945 963 0
-796 -977 995 0
-796 -1009 1027 0
-796 -1041 1059 0
-796 -1105 1123 0
-796 -1137 1155 0
-796 -1169 1187 0
-796 -1201 1219 0
-796 -1233 1251 0
-796 -1265 1283 0
835 1075 0
-835 -1075 0
-835 -772 796 0
-835 -851 867 0
-835 -883 899 0
-835 -915 931 0
-835 -947 963 0
-835 -979 995 0
-835 -1011 1027 0
-835 -1043 1059 0
-835 -1107 1123 0
-835 -1139 1155 0
-835 -1171 1187 0
-835 -1203 1219 0
-835 -1235 1251 0
-835 -1267 1283 0
867 1077 0
-867 -1077 0
-867 -775 796 0
-867 -821 835 0
-867 -885 899 0
-867 -917 931 0
-867 -949 963 0
-867 -981 995 0
-867 -1013 1027 0
-867 -1045 1059 0
-867 -1109 1123 0
-867 -1141 1155 0
-867 -1173 1187 0
-867 -1205 1219 0
-867 -1237 1251 0
-867 -1269 1283 0
899 1079 0
-899 -1079 0
-899 -778 796 0
-899 -823 835 0
-899 -855 867 0
-899 -919 931 0
-899 -951 963 0
-899 -983 995 0
-899 -1015 1027 0
-899 -1047 1059 0
-899 -1111 1123 0
-899 -1143 1155 0
-899 -1175 1187 0
-899 -1207 1219 0
-899 -1239 1251 0
-899 -1271 1283 0
931 1081 0
-931 -1081 0
-931 -781 796 0
-931 -825 835 0
-931 -857 867 0
-931 -889 899 0
-931 -953 963 0
-931 -985 995 0
-931 -1017 1027 0
-931 -1049 1059 0
-931 -1113 1123 0
-931 -1145 1155 0
-931 -1177 1187 0
-931 -1209 1219 0
-931 -1241 1251 0
-931 -1273 1283 0
963 1083 0
-963 -1083 0
-963 -784 796 0
-963 -827 835 0
-963 -859 867 0
-963 -891 899 0
-963 -923 931 0
-963 -987 995 0
-963 -1019 1027 0
-963 -1051 1059 0
-963 -1115 1123 0
-963 -1147 1155 0
-963 -1179 1187 0
-963 -1211 1219 0
-963 -1243 1251 0
-963 -1275 1283 0
995 1085 0
-995 -1085 0
-995 -787 796 0
-995 -829 835 0
-995 -861 867 0
-995 -893 899 0
-995 -925 931 0
-995 -957 963 0
-995 -1021 1027 0
-995 -1053 1059 0
-995 -1117 1123 0
-995 -1149 1155 0
-995 -1181 1187 0
-995 -1213 1219 0
-995 -1245 1251 0
-995 -1277 1283 0
1027 1087 0
-1027 -1087 0
-1027 -790 796 0
-1027 -831 835 0
-1027 -863 867 0
-1027 -895 899 0
-1027 -927 931 0
-1027 -959 963 0
-1027 -991 995 0
-1027 -1055 1059 0
-1027 -1119 1123 0
-1027 -1151 1155 0
-1027 -1183 1187 0
-1027 -1215 1219 0
-1027 -1247 1251 0
-1027 -1279 1283 0
1059 1089 0
-1059 -1089 0
-1059 -793 796 0
-1059 -833 835 0
-1059 -865 867 0
-1059 -897 899 0
-1059 -929 931 0
-1059 -961 963 0
-1059 -993 995 0
-1059 -1025 1027 0
-1059 -1121 1123 0
-1059 -1153 1155 0
-1059 -1185 1187 0
-1059 -1217 1219 0
-1059 -1249 1251 0
-1059 -1281 1283 0
1123 1093 0
-1123 -1093 0
-1123 -799 796 0
-1123 -837 835 0
-1123 -869 867 0
-1123 -901 899 0
-1123 -933 931 0
-1123 -965 963 0
-1123 -997 995 0
-1123 -1029 1027 0
-1123 -1061 1059 0
-1123 -1157 1155 0
-1123 -1189 1187 0
-1123 -1221 1219 0
-1123 -1253 1251 0
-1123 -1285 1283 0
1155 1095 0
-1155 -1095 0
-1155 -802 796 0
-1155 -839 835 0
-1155 -871 867 0
-1155 -903 899 0
-1155 -935 931 0
-1155 -967 963 0
-1155 -999 995 0
-1155 -1031 1027 0
-1155 -1063 1059 0
-1155 -1127 1123 0
-1155 -1191 1187 0
-1155 -1223 1219 0
-1155 -1255 1251 0
-1155 -1287 1283 0
1187 1097 0
-1187 -1097 0
-1187 -805 796 0
-1187 -841 835 0
-1187 -873 867 0
-1187 -905 899 0
-1187 -937 931 0
-1187 -969 963 0
-1187 -1001 995 0
-1187 -1033 1027 0
-1187 -1065 1059 0
-1187 -1129 1123 0
-1187 -1161 1155 0
-1187 -1225 1219 0
-1187 -1257 1251 0
-1187 -1289 1283 0
1219 1099 0
-1219 -1099 0
-1219 -808 796 0
-1219 -843 835 0
-1219 -875 867 0
-1219 -907 899 0
-1219 -939 931 0
-1219 -971 963 0
-1219 -1003 995 0
-1219 -1035 1027 0
-1219 -1067 1059 0
-1219 -1131 1123 0
-1219 -1163 1155 0
-1219 -1195 1187 0
-1219 -1259 1251 0
-1219 -1291 1283 0
1251 1101 0
-1251 -1101 0
-1251 -811 796 0
-1251 -845 835 0
-1251 -877 867 0
-1251 -909 899 0
-1251 -941 931 0
-1251 -973 963 0
-1251 -1005 995 0
-1251 -1037 1027 0
-1251 -1069 1059 0
-1251 -1133 1123 0
-1251 -1165 1155 0
-1251 -1197 1187 0
-1251 -1229 1219 0
-1251 -1293 1283 0
1283 1103 0
-1283 -1103 0
-1283 -814 796 0
-1283 -847 835 0
-1283 -879 867 0
-1283 -911 899 0
-1283 -943 931 0
-1283 -975 963 0
-1283 -1007 995 0
-1283 -1039 1027 0
-1283 -1071 1059 0
-1283 -1135 1123 0
-1283 -1167 1155 0
-1283 -1199 1187 0
-1283 -1231 1219 0
-1283 -1263 1251 0
1125 0
799 1105 0
-799 -1105 0
-799 -817 837 0
-799 -849 869 0
-799 -881 901 0
-799 -913 933 0
-799 -945 965 0
-799 -977 997 0
-799 -1009 1029 0
-799 -1041 1061 0
-799 -1073 1093 0
-799 -1137 1157 0
-799 -1169 1189 0
-799 -1201 1221 0
-799 -1233 1253 0
-799 -1265 1285 0
837 1107 0
-837 -1107 0
-837 -772 799 0
-837 -851 869 0
-837 -883 901 0
-837 -915 933 0
-837 -947 965 0
-837 -979 997 0
-837 -1011 1029 0
-837 -1043 1061 0
-837 -1075 1093 0
-837 -1139 1157 0
-837 -1171 1189 0
-837 -1203 1221 0
-837 -1235 1253 0
-837 -1267 1285 0
869 1109 0
-869 -1109 0
-869 -775 799 0
-869 -821 837 0
-869 -885 901 0
-869 -917 933 0
-869 -949 965 0
-869 -981 997 0
-869 -1013 1029 0
-869 -1045 1061 0
-869 -1077 1093 0
-869 -1141 1157 0
-869 -1173 1189 0
-869 -1205 1221 0
-869 -1237 1253 0
-869 -1269 1285 0
901 1111 0
-901 -1111 0
-901 -778 799 0
-901 -823 837 0
-901 -855 869 0
-901 -919 933 0
-901 -951 965 0
-901 -983 997 0
-901 -1015 1029 0
-901 -1047 1061 0
-901 -1079 1093 0
-901 -1143 1157 0
-901 -1175 1189 0
-901 -1207 1221 0
-901 -1239 1253 0
-901 -1271 1285 0
933 1113 0
-933 -1113 0
-933 -781 799 0
-933 -825 837 0
-933 -857 869 0
-933 -889 901 0
-933 -953 965 0
-933 -985 997 0
-933 -1017 1029 0
-933 -1049 1061 0
-933 -1081 1093 0
-933 -1145 1157 0
-933 -1177 1189 0
-933 -1209 1221 0
-933 -1241 1253 0
-933 -1273 1285 0
965 1115 0
-965 -1115 0
-965 -784 799 0
-965 -827 837 0
-965 -859 869 0
-965 -891 901 0
-965 -923 933 0
-965 -987 997 0
-965 -1019 1029 0
-965 -1051 1061 0
-965 -1083 1093 0
-965 -1147 1157 0
-965 -1179 1189 0
-965 -1211 1221 0
-965 -1243 1253 0
-965 -1275 1285 0
997 1117 0
-997 -1117 0
-997 -787 799 0
-997 -829 837 0
-997 -861 869 0
-997 -893 901 0
-997 -925 933 0
-997 -957 965 0
-997 -1021 1029 0
-997 -1053 1061 0
-997 -1085 1093 0
-997 -1149 1157 0
-997 -1181 1189 0
-997 -1213 1221 0
-997 -1245 1253 0
-997 -1277 1285 0
1029 1119 0
-1029 -1119 0
-1029 -790 799 0
-1029 -831 837 0
-1029 -863 869 0
-1029 -895 901 0
-1029 -927 933 0
-1029 -959 965 0
-1029 -991 997 0
-1029 -1055 1061 0
-1029 -1087 1093 0
-1029 -1151 1157 0
-1029 -1183 1189 0
-1029 -1215 1221 0
-1029 -1247 1253 0
-1029 -1279 1285 0
1061 1121 0
-1061 -1121 0
-1061 -793 799 0
-1061 -833 837 0
-1061 -865 869 0
-1061 -897 901 0
-1061 -929 933 0
-1061 -961 965 0
-1061 -993 997 0
-1061 -1025 1029 0
-1061 -1089 1093 0
-1061 -1153 1157 0
-1061 -1185 1189 0
-1061 -1217 1221 0
-1061 -1249 1253 0
-1061 -1281 1285 0
1093 1123 0
-1093 -1123 0
-1093 -796 799 0
-1093 -835 837 0
-1093 -867 869 0
-1093 -899 901 0
-1093 -931 933 0
-1093 -963 965 0
-1093 -995 997 0
-1093 -1027 1029 0
-1093 -1059 1061 0
-1093 -1155 1157 0
-1093 -1187 1189 0
-1093 -1219 1221 0
-1093 -1251 1253 0
-1093 -1283 1285 0
1157 1127 0
-1157 -1127 0
-1157 -802 799 0
-1157 -839 837 0
-1157 -871 869 0
-1157 -903 901 0
-1157 -935 933 0
-1157 -967 965 0
-1157 -999 997 0
-1157 -1031 1029 0
-1157 -1063 1061 0
-1157 -1095 1093 0
-1157 -1191 1189 0
-1157 -1223 1221 0
-1157 -1255 1253 0
-1157 -1287 1285 0
1189 1129 0
-1189 -1129 0
-1189 -805 799 0
-1189 -841 837 0
-1189 -873 869 0
-1189 -905 901 0
-1189 -937 933 0
-1189 -969 965 0
-1189 -1001 997 0
-1189 -1033 1029 0
-1189 -1065 1061 0
-1189 -1097 1093 0
-1189 -1161 1157 0
-1189 -1225 1221 0
-1189 -1257 1253 0
-1189 -1289 1285 0
1221 1131 0
-1221 -1131 0
-1221 -808 799 0
-1221 -843 837 0
-1221 -875 869 0
-1221 -907 901 0
-1221 -939 933 0
-1221 -971 965 0
-1221 -1003 997 0
-1221 -1035 1029 0
-1221 -1067 1061 0
-1221 -1099 1093 0
-1221 -1163 1157 0
-1221 -1195 1189 0
-1221 -1259 1253 0
-1221 -1291 1285 0
1253 1133 0
-1253 -1133 0
-1253 -811 799 0
-1253 -845 837 0
-1253 -877 869 0
-1253 -909 901 0
-1253 -941 933 0
-1253 -973 965 0
-1253 -1005 997 0
-1253 -1037 1029 0
-1253 -1069 1061 0
-1253 -1101 1093 0
-1253 -1165 1157 0
-1253 -1197 1189 0
-1253 -1229 1221 0
-1253 -1293 1285 0
1285 1135 0
-1285 -1135 0
-1285 -814 799 0
-1285 -847 837 0
-1285 -879 869 0
-1285 -911 901 0
-1285 -943 933 0
-1285 -975 965 0
-1285 -1007 997 0
-1285 -1039 1029 0
-1285 -1071 1061 0
-1285 -1103 1093 0
-1285 -1167 1157 0
-1285 -1199 1189 0
-1285 -1231 1221 0
-1285 -1263 1253 0
1159 0
802 1137 0
-802 -1137 0
-802 -817 839 0
-802 -849 871 0
-802 -881 903 0
-802 -913 935 0
-802 -945 967 0
-802 -977 999 0
-802 -1009 1031 0
-802 -1041 1063 0
-802 -1073 1095 0
-802 -1105 1127 0
-802 -1169 1191 0
-802 -1201 1223 0
-802 -1233 1255 0
-802 -1265 1287 0
839 1139 0
-839 -1139 0
-839 -772 802 0
-839 -851 871 0
-839 -883 903 0
-839 -915 935 0
-839 -947 967 0
-839 -979 999 0
-839 -1011 1031 0
-839 -1043 1063 0
-839 -1075 1095 0
-839 -1107 1127 0
-839 -1171 1191 0
-839 -1203 1223 0
-839 -1235 1255 0
-839 -1267 1287 0
871 1141 0
-871 -1141 0
-871 -775 802 0
-871 -821 839 0
-871 -885 903 0
-871 -917 935 0
-871 -949 967 0
-871 -981 999 0
-871 -1013 1031 0
-871 -1045 1063 0
-871 -1077 1095 0
-871 -1109 1127 0
-871 -1173 1191 0
-871 -1205 1223 0
-871 -1237 1255 0
-871 -1269 1287 0
903 1143 0
-903 -1143 0
-903 -778 802 0
-903 -823 839 0
-903 -855 871 0
-903 -919 935 0
-903 -951 967 0
-903 -983 999 0
-903 -1015 1031 0
-903 -1047 1063 0
-903 -1079 1095 0
-903 -1111 1127 0
-903 -1175 1191 0
-903 -1207 1223 0
-903 -1239 1255 0
-903 -1271 1287 0
935 1145 0
-935 -1145 0
-935 -781 802 0
-935 -825 839 0
-935 -857 871 0
-935 -889 903 0
-935 -953 967 0
-935 -985 999 0
-935 -1017 1031 0
-935 -1049 1063 0
-935 -1081 1095 0
-935 -1113 1127 0
-935 -1177 1191 0
-935 -1209 1223 0
-935 -1241 1255 0
-935 -1273 1287 0
967 1147 0
-967 -1147 0
-967 -784 802 0
-967 -827 839 0
-967 -859 871 0
-967 -891 903 0
-967 -923 935 0
-967 -987 999 0
-967 -1019 1031 0
-967 -1051 1063 0
-967 -1083 1095 0
-967 -1115 1127 0
-967 -1179 1191 0
-967 -1211 1223 0
-967 -1243 1255 0
-967 -1275 1287 0
999 1149 0
-999 -1149 0
-999 -787 802 0
-999 -829 839 0
-999 -861 871 0
-999 -893 903 0
-999 -925 935 0
-999 -957 967 0
-999 -1021 1031 0
-999 -1053 1063 0
-999 -1085 1095 0
-999 -1117 1127 0
-999 -1181 1191 0
-999 -1213 1223 0
-999 -1245 1255 0
-999 -1277 1287 0
1031 1151 0
-1031 -1151 0
-1031 -790 802 0
-1031 -831 839 0
-1031 -863 871 0
-1031 -895 903 0
-1031 -927 935 0
-1031 -959 967 0
-1031 -991 999 0
-1031 -1055 1063 0
-1031 -1087 1095 0
-1031 -1119 1127 0
-1031 -1183 1191 0
-1031 -1215 1223 0
-1031 -1247 1255 0
-1031 -1279 1287 0
1063 1153 0
-1063 -1153 0
-1063 -793 802 0
-1063 -833 839 0
-1063 -865 871 0
-1063 -897 903 0
-1063 -929 935 0
-1063 -961 967 0
-1063 -993 999 0
-1063 -1025 1031 0
-1063 -1089 1095 0
-1063 -1121 1127 0
-1063 -1185 1191 0
-1063 -1217 1223 0
-1063 -1249 1255 0
-1063 -1281 1287 0
1095 1155 0
-1095 -1155 0
-1095 -796 802 0
-1095 -835 839 0
-1095 -867 871 0
-1095 -899 903 0
-1095 -931 935 0
-1095 -963 967 0
-1095 -995 999 0
-1095 -1027 1031 0
-1095 -1059 1063 0
-1095 -1123 1127 0
-1095 -1187 1191 0
-1095 -1219 1223 0
-1095 -1251 1255 0
-1095 -1283 1287 0
1127 1157 0
-1127 -1157 0
-1127 -799 802 0
-1127 -837 839 0
-1127 -869 871 0
-1127 -901 903 0
-1127 -933 935 0
-1127 -965 967 0
-1127 -997 999 0
-1127 -1029 1031 0
-1127 -1061 1063 0
-1127 -1093 1095 0
-1127 -1189 1191 0
-1127 -1221 1223 0
-1127 -1253 1255 0
-1127 -1285 1287 0
1191 1161 0
-1191 -1161 0
-1191 -805 802 0
-1191 -841 839 0
-1191 -873 871 0
-1191 -905 903 0
-1191 -937 935 0
-1191 -969 967 0
-1191 -1001 999 0
-1191 -1033 1031 0
-1191 -1065 1063 0
-1191 -1097 1095 0
-1191 -1129 1127 0
-1191 -1225 1223 0
-1191 -1257 1255 0
-1191 -1289 1287 0
1223 1163 0
-1223 -1163 0
-1223 -808 802 0
-1223 -843 839 0
-1223 -875 871 0
-1223 -907 903 0
-1223 -939 935 0
-1223 -971 967 0
-1223 -1003 999 0
-1223 -1035 1031 0
-1223 -1067 1063 0
-1223 -1099 1095 0
-1223 -1131 1127 0
-1223 -1195 1191 0
-1223 -1259 1255 0
-1223 -1291 1287 0
1255 1165 0
-1255 -1165 0
-1255 -811 802 0
-1255 -845 839 0
-1255 -877 871 0
-1255 -909 903 0
-1255 -941 935 0
-1255 -973 967 0
-1255 -1005 999 0
-1255 -1037 1031 0
-1255 -1069 1063 0
-1255 -1101 1095 0
-1255 -1133 1127 0
-1255 -1197 1191 0
-1255 -1229 1223 0
-1255 -1293 1287 0
1287 1167 0
-1287 -1167 0
-1287 -814 802 0
-1287 -847 839 0
-1287 -879 871 0
-1287 -911 903 0
-1287 -943 935 0
-1287 -975 967 0
-1287 -1007 999 0
-1287 -1039 1031 0
-1287 -1071 1063 0
-1287 -1103 1095 0
-1287 -1135 1127 0
-1287 -1199 1191 0
-1287 -1231 1223 0
-1287 -1263 1255 0
1193 0
805 1169 0
-805 -1169 0
-805 -817 841 0
-805 -849 873 0
-805 -881 905 0
-805 -913 937 0
-805 -945 969 0
-805 -977 1001 0
-805 -1009 1033 0
-805 -1041 1065 0
-805 -1073 1097 0
-805 -1105 1129 0
-805 -1137 1161 0
-805 -1201 1225 0
-805 -1233 1257 0
-805 -1265 1289 0
841 1171 0
-841 -1171 0
-841 -772 805 0
-841 -851 873 0
-841 -883 905 0
-841 -915 937 0
-841 -947 969 0
-841 -979 1001 0
-841 -1011 1033 0
-841 -1043 1065 0
-841 -1075 1097 0
-841 -1107 1129 0
-841 -1139 1161 0
-841 -1203 1225 0
-841 -1235 1257 0
-841 -1267 1289 0
873 1173 0
-873 -1173 0
-873 -775 805 0
-873 -821 841 0
-873 -885 905 0
-873 -917 937 0
-873 -949 969 0
-873 -981 1001 0
-873 -1013 1033 0
-873 -1045 1065 0
-873 -1077 1097 0
-873 -1109 1129 0
-873 -1141 1161 0
-873 -1205 1225 0
-873 -1237 1257 0
-873 -1269 1289 0
905 1175 0
-905 -1175 0
-905 -778 805 0
-905 -823 841 0
-905 -855 873 0
-905 -919 937 0
-905 -951 969 0
-905 -983 1001 0
-905 -1015 1033 0
-905 -1047 1065 0
-905 -1079 1097 0
-905 -1111 1129 0
-905 -1143 1161 0
-905 -1207 1225 0
-905 -1239 1257 0
-905 -1271 1289 0
937 1177 0
-937 -1177 0
-937 -781 805 0
-937 -825 841 0
-937 -857 873 0
-937 -889 905 0
-937 -953 969 0
-937 -985 1001 0
-937 -1017 1033 0
-937 -1049 1065 0
-937 -1081 1097 0
-937 -1113 1129 0
-937 -1145 1161 0
-937 -1209 1225 0
-937 -1241 1257 0
-937 -1273 1289 0
969 1179 0
-969 -1179 0
-969 -784 805 0
-969 -827 841 0
-969 -859 873 0
-969 -891 905 0
-969 -923 937 0
-969 -987 1001 0
-969 -1019 1033 0
-969 -1051 1065 0
-969 -1083 1097 0
-969 -1115 1129 0
-969 -1147 1161 0
-969 -1211 1225 0
-969 -1243 1257 0
-969 -1275 1289 0
1001 1181 0
-1001 -1181 0
-1001 -787 805 0
-1001 -829 841 0
-1001 -861 873 0
-1001 -893 905 0
-1001 -925 937 0
-1001 -957 969 0
-1001 -1021 1033 0
-1001 -1053 1065 0
-1001 -1085 1097 0
-1001 -1117 1129 0
-1001 -1149 1161 0
-1001 -1213 1225 0
-1001 -1245 1257 0
-1001 -1277 1289 0
1033 1183 0
-1033 -1183 0
-1033 -790 805 0
-1033 -831 841 0
-1033 -863 873 0
-1033 -895 905 0
-1033 -927 937 0
-1033 -959 969 0
-1033 -991 1001 0
-1033 -1055 1065 0
-1033 -1087 1097 0
-1033 -1119 1129 0
-1033 -1151 1161 0
-1033 -1215 1225 0
-1033 -1247 1257 0
-1033 -1279 1289 0
1065 1185 0
-1065 -1185 0
-1065 -793 805 0
-1065 -833 841 0
-1065 -865 873 0
-1065 -897 905 0
-1065 -929 937 0
-1065 -961 969 0
-1065 -993 1001 0
-1065 -1025 1033 0
-1065 -1089 1097 0
-1065 -1121 1129 0
-1065 -1153 1161 0
-1065 -1217 1225 0
-1065 -1249 1257 0
-1065 -1281 1289 0
1097 1187 0
-1097 -1187 0
-1097 -796 805 0
-1097 -835 841 0
-1097 -867 873 0
-1097 -899 905 0
-1097 -931 937 0
-1097 -963 969 0
-1097 -995 1001 0
-1097 -1027 1033 0
-1097 -1059 1065 0
-1097 -1123 1129 0
-1097 -1155 1161 0
-1097 -1219 1225 0
-1097 -1251 1257 0
-1097 -1283 1289 0
1129 1189 0
-1129 -1189 0
-1129 -799 805 0
-1129 -837 841 0
-1129 -869 873 0
-1129 -901 905 0
-1129 -933 937 0
-1129 -965 969 0
-1129 -997 1001 0
-1129 -1029 1033 0
-1129 -1061 1065 0
-1129 -1093 1097 0
-1129 -1157 1161 0
-1129 -1221 1225 0
-1129 -1253 1257 0
-1129 -1285 1289 0
1161 1191 0
-1161 -1191 0
-1161 -802 805 0
-1161 -839 841 0
-1161 -871 873 0
-1161 -903 905 0
-1161 -935 937 0
-1161 -967 969 0
-1161 -999 1001 0
-1161 -1031 1033 0
-1161 -1063 1065 0
-1161 -1095 1097 0
-1161 -1127 1129 0
-1161 -1223 1225 0
-1161 -1255 1257 0
-1161 -1287 1289 0
1225 1195 0
-1225 -1195 0
-1225 -808 805 0
-1225 -843 841 0
-1225 -875 873 0
-1225 -907 905 0
-1225 -939 937 0
-1225 -971 969 0
-1225 -1003 1001 0
-1225 -1035 1033 0
-1225 -1067 1065 0
-1225 -1099 1097 0
-1225 -1131 1129 0
-1225 -1163 1161 0
-1225 -1259 1257 0
-1225 -1291 1289 0
1257 1197 0
-1257 -1197 0
-1257 -811 805 0
-1257 -845 841 0
-1257 -877 873 0
-1257 -909 905 0
-1257 -941 937 0
-1257 -973 969 0
-1257 -1005 1001 0
-1257 -1037 1033 0
-1257 -1069 1065 0
-1257 -1101 1097 0
-1257 -1133 1129 0
-1257 -1165 1161 0
-1257 -1229 1225 0
-1257 -1293 1289 0
1289 1199 0
-1289 -1199 0
-1289 -814 805 0
-1289 -847 841 0
-1289 -879 873 0
-1289 -911 905 0
-1289 -943 937 0
-1289 -975 969 0
-1289 -1007 1001 0
-1289 -1039 1033 0
-1289 -1071 1065 0
-1289 -1103 1097 0
-1289 -1135 1129 0
-1289 -1167 1161 0
-1289 -1231 1225 0
-1289 -1263 1257 0
1227 0
808 1201 0
-808 -1201 0
-808 -817 843 0
-808 -849 875 0
-808 -881 907 0
-808 -913 939 0
-808 -945 971 0
-808 -977 1003 0
-808 -1009 1035 0
-808 -1041 1067 0
-808 -1073 1099 0
-808 -1105 1131 0
-808 -1137 1163 0
-808 -1169 1195 0
-808 -1233 1259 0
-808 -1265 1291 0
843 1203 0
-843 -1203 0
-843 -772 808 0
-843 -851 875 0
-843 -883 907 0
-843 -915 939 0
-843 -947 971 0
-843 -979 1003 0
-843 -1011 1035 0
-843 -1043 1067 0
-843 -1075 1099 0
-843 -1107 1131 0
-843 -1139 1163 0
-843 -1171 1195 0
-843 -1235 1259 0
-843 -1267 1291 0
875 1205 0
-875 -1205 0
-875 -775 808 0
-875 -821 843 0
-875 -885 907 0
-875 -917 939 0
-875 -949 971 0
-875 -981 1003 0
-875 -1013 1035 0
-875 -1045 1067 0
-875 -1077 1099 0
-875 -1109 1131 0
-875 -1141 1163 0
-875 -1173 1195 0
-875 -1237 1259 0
-875 -1269 1291 0
907 1207 0
-907 -1207 0
-907 -778 808 0
-907 -823 843 0
-907 -855 875 0
-907 -919 939 0
-907 -951 971 0
-907 -983 1003 0
-907 -1015 1035 0
-907 -1047 1067 0
-907 -1079 1099 0
-907 -1111 1131 0
-907 -1143 1163 0
-907 -1175 1195 0
-907 -1239 1259 0
-907 -1271 1291 0
939 1209 0
-939 -1209 0
-939 -781 808 0
-939 -825 843 0
-939 -857 875 0
-939 -889 907 0
-939 -953 971 0
-939 -985 1003 0
-939 -1017 1035 0
-939 -1049 1067 0
-939 -1081 1099 0
-939 -1113 1131 0
-939 -1145 1163 0
-939 -1177 1195 0
-939 -1241 1259 0
-939 -1273 1291 0
971 1211 0
-971 -1211 0
-971 -784 808 0
-971 -827 843 0
-971 -859 875 0
-971 -891 907 0
-971 -923 939 0
-971 -987 1003 0
-971 -1019 1035 0
-971 -1051 1067 0
-971 -1083 1099 0
-971 -1115 1131 0
-971 -1147 1163 0
-971 -1179 1195 0
-971 -1243 1259 0
-971 -1275 1291 0
1003 1213 0
-1003 -1213 0
-1003 -787 808 0
-1003 -829 843 0
-1003 -861 875 0
-1003 -893 907 0
-1003 -925 939 0
-1003 -957 971 0
-1003 -1021 1035 0
-1003 -1053 1067 0
-1003 -1085 1099 0
-1003 -1117 1131 0
-1003 -1149 1163 0
-1003 -1181 1195 0
-1003 -1245 1259 0
-1003 -1277 1291 0
1035 1215 0
-1035 -1215 0
-1035 -790 808 0
-1035 -831 843 0
-1035 -863 875 0
-1035 -895 907 0
-1035 -927 939 0
-1035 -959 971 0
-1035 -991 1003 0
-1035 -1055 1067 0
-1035 -1087 1099 0
-1035 -1119 1131 0
-1035 -1151 1163 0
-1035 -1183 1195 0
-1035 -1247 1259 0
-1035 -1279 1291 0
1067 1217 0
-1067 -1217 0
-1067 -793 808 0
-1067 -833 843 0
-1067 -865 875 0
-1067 -897 907 0
-1067 -929 939 0
-1067 -961 971 0
-1067 -993 1003 0
-1067 -1025 1035 0
-1067 -1089 1099 0
-1067 -1121 1131 0
-1067 -1153 1163 0
-1067 -1185 1195 0
-1067 -1249 1259 0
-1067 -1281 1291 0
1099 1219 0
-1099 -1219 0
-1099 -796 808 0
-1099 -835 843 0
-1099 -867 875 0
-1099 -899 907 0
-1099 -931 939 0
-1099 -963 971 0
-1099 -995 1003 0
-1099 -1027 1035 0
-1099 -1059 1067 0
-1099 -1123 1131 0
-1099 -1155 1163 0
-1099 -1187 1195 0
-1099 -1251 1259 0
-1099 -1283 1291 0
1131 1221 0
-1131 -1221 0
-1131 -799 808 0
-1131 -837 843 0
-1131 -869 875 0
-1131 -901 907 0
-1131 -933 939 0
-1131 -965 971 0
-1131 -997 1003 0
-1131 -1029 1035 0
-1131 -1061 1067 0
-1131 -1093 1099 0
-1131 -1157 1163 0
-1131 -1189 1195 0
-1131 -1253 1259 0
-1131 -1285 1291 0
1163 1223 0
-1163 -1223 0
-1163 -802 808 0
-1163 -839 843 0
-1163 -871 875 0
-1163 -903 907 0
-1163 -935 939 0
-1163 -967 971 0
-1163 -999 1003 0
-1163 -1031 1035 0
-1163 -1063 1067 0
-1163 -1095 1099 0
-1163 -1127 1131 0
-1163 -1191 1195 0
-1163 -1255 1259 0
-1163 -1287 1291 0
1195 1225 0
-1195 -1225 0
-1195 -805 808 0
-1195 -841 843 0
-1195 -873 875 0
-1195 -905 907 0
-1195 -937 939 0
-1195 -969 971 0
-1195 -1001 1003 0
-1195 -1033 1035 0
-1195 -1065 1067 0
-1195 -1097 1099 0
-1195 -1129 1131 0
-1195 -1161 1163 0
-1195 -1257 1259 0
-1195 -1289 1291 0
1259 1229 0
-1259 -1229 0
-1259 -811 808 0
-1259 -845 843 0
-1259 -877 875 0
-1259 -909 907 0
-1259 -941 939 0
-1259 -973 971 0
-1259 -1005 1003 0
-1259 -1037 1035 0
-1259 -1069 1067 0
-1259 -1101 1099 0
-1259 -1133 1131 0
-1259 -1165 1163 0
-1259 -1197 1195 0
-1259 -1293 1291 0
1291 1231 0
-1291 -1231 0
-1291 -814 808 0
-1291 -847 843 0
-1291 -879 875 0
-1291 -911 907 0
-1291 -943 939 0
-1291 -975 971 0
-1291 -1007 1003 0
-1291 -1039 1035 0
-1291 -1071 1067 0
-1291 -1103 1099 0
-1291 -1135 1131 0
-1291 -1167 1163 0
-1291 -1199 1195 0
-1291 -1263 1259 0
1261 0
811 1233 0
-811 -1233 0
-811 -817 845 0
-811 -849 877 0
-811 -881 909 0
-811 -913 941 0
-811 -945 973 0
-811 -977 1005 0
-811 -1009 1037 0
-811 -1041 1069 0
-811 -1073 1101 0
-811 -1105 1133 0
-811 -1137 1165 0
-811 -1169 1197 0
-811 -1201 1229 0
-811 -1265 1293 0
845 1235 0
-845 -1235 0
-845 -772 811 0
-845 -851 877 0
-845 -883 909 0
-845 -915 941 0
-845 -947 973 0
-845 -979 1005 0
-845 -1011 1037 0
-845 -1043 1069 0
-845 -1075 1101 0
-845 -1107 1133 0
-845 -1139 1165 0
-845 -1171 1197 0
-845 -1203 1229 0
-845 -1267 1293 0
877 1237 0
-877 -1237 0
-877 -775 811 0
-877 -821 845 0
-877 -885 909 0
-877 -917 941 0
-877 -949 973 0
-877 -981 1005 0
-877 -1013 1037 0
-877 -1045 1069 0
-877 -1077 1101 0
-877 -1109 1133 0
-877 -1141 1165 0
-877 -1173 1197 0
-877 -1205 1229 0
-877 -1269 1293 0
909 1239 0
-909 -1239 0
-909 -778 811 0
-909 -823 845 0
-909 -855 877 0
-909 -919 941 0
-909 -951 973 0
-909 -983 1005 0
-909 -1015 1037 0
-909 -1047 1069 0
-909 -1079 1101 0
-909 -1111 1133 0
-909 -1143 1165 0
-909 -1175 1197 0
-909 -1207 1229 0
-909 -1271 1293 0
941 1241 0
-941 -1241 0
-941 -781 811 0
-941 -825 845 0
-941 -857 877 0
-941 -889 909 0
-941 -953 973 0
-941 -985 1005 0
-941 -1017 1037 0
-941 -1049 1069 0
-941 -1081 1101 0
-941 -1113 1133 0
-941 -1145 1165 0
-941 -1177 1197 0
-941 -1209 1229 0
-941 -1273 1293 0
973 1243 0
-973 -1243 0
-973 -784 811 0
-973 -827 845 0
-973 -859 877 0
-973 -891 909 0
-973 -923 941 0
-973 -987 1005 0
-973 -1019 1037 0
-973 -1051 1069 0
-973 -1083 1101 0
-973 -1115 1133 0
-973 -1147 1165 0
-973 -1179 1197 0
-973 -1211 1229 0
-973 -1275 1293 0
1005 1245 0
-1005 -1245 0
-1005 -787 811 0
-1005 -829 845 0
-1005 -861 877 0
-1005 -893 909 0
-1005 -925 941 0
-1005 -957 973 0
-1005 -1021 1037 0
-1005 -1053 1069 0
-1005 -1085 1101 0
-1005 -1117 1133 0
-1005 -1149 1165 0
-1005 -1181 1197 0
-1005 -1213 1229 0
-1005 -1277 1293 0
1037 1247 0
-1037 -1247 0
-1037 -790 811 0
-1037 -831 845 0
-1037 -863 877 0
-1037 -895 909 0
-1037 -927 941 0
-1037 -959 973 0
-1037 -991 1005 0
-1037 -1055 1069 0
-1037 -1087 1101 0
-1037 -1119 1133 0
-1037 -1151 1165 0
-1037 -1183 1197 0
-1037 -1215 1229 0
-1037 -1279 1293 0
1069 1249 0
-1069 -1249 0
-1069 -793 811 0
-1069 -833 845 0
-1069 -865 877 0
-1069 -897 909 0
-1069 -929 941 0
-1069 -961 973 0
-1069 -993 1005 0
-1069 -1025 1037 0
-1069 -1089 1101 0
-1069 -1121 1133 0
-1069 -1153 1165 0
-1069 -1185 1197 0
-1069 -1217 1229 0
-1069 -1281 1293 0
1101 1251 0
-1101 -1251 0
-1101 -796 811 0
-1101 -835 845 0
-1101 -867 877 0
-1101 -899 909 0
-1101 -931 941 0
-1101 -963 973 0
-1101 -995 1005 0
-1101 -1027 1037 0
-1101 -1059 1069 0
-1101 -1123 1133 0
-1101 -1155 1165 0
-1101 -1187 1197 0
-1101 -1219 1229 0
-1101 -1283 1293 0
1133 1253 0
-1133 -1253 0
-1133 -799 811 0
-1133 -837 845 0
-1133 -869 877 0
-1133 -901 909 0
-1133 -933 941 0
-1133 -965 973 0
-1133 -997 1005 0
-1133 -1029 1037 0
-1133 -1061 1069 0
-1133 -1093 1101 0
-1133 -1157 1165 0
-1133 -1189 1197 0
-1133 -1221 1229 0
-1133 -1285 1293 0
1165 1255 0
-1165 -1255 0
-1165 -802 811 0
-1165 -839 845 0
-1165 -871 877 0
-1165 -903 909 0
-1165 -935 941 0
-1165 -967 973 0
-1165 -999 1005 0
-1165 -1031 1037 0
-1165 -1063 1069 0
-1165 -1095 1101 0
-1165 -1127 1133 0
-1165 -1191 1197 0
-1165 -1223 1229 0
-1165 -1287 1293 0
1197 1257 0
-1197 -1257 0
-1197 -805 811 0
-1197 -841 845 0
-1197 -873 877 0
-1197 -905 909 0
-1197 -937 941 0
-1197 -969 973 0
-1197 -1001 1005 0
-1197 -1033 1037 0
-1197 -1065 1069 0
-1197 -1097 1101 0
-1197 -1129 1133 0
-1197 -1161 1165 0
-1197 -1225 1229 0
-1197 -1289 1293 0
1229 1259 0
-1229 -1259 0
-1229 -808 811 0
-1229 -843 845 0
-1229 -875 877 0
-1229 -907 909 0
-1229 -939 941 0
-1229 -971 973 0
-1229 -1003 1005 0
-1229 -1035 1037 0
-1229 -1067 1069 0
-1229 -1099 1101 0
-1229 -1131 1133 0
-1229 -1163 1165 0
-1229 -1195 1197 0
-1229 -1291 1293 0
1293 1263 0
-1293 -1263 0
-1293 -814 811 0
-1293 -847 845 0
-1293 -879 877 0
-1293 -911 909 0
-1293 -943 941 0
-1293 -975 973 0
-1293 -1007 1005 0
-1293 -1039 1037 0
-1293 -1071 1069 0
-1293 -1103 1101 0
-1293 -1135 1133 0
-1293 -1167 1165 0
-1293 -1199 1197 0
-1293 -1231 1229 0
1295 0
814 1265 0
-814 -1265 0
-814 -817 847 0
-814 -849 879 0
-814 -881 911 0
-814 -913 943 0
-814 -945 975 0
-814 -977 1007 0
-814 -1009 1039 0
-814 -1041 1071 0
-814 -1073 1103 0
-814 -1105 1135 0
-814 -1137 1167 0
-814 -1169 1199 0
-814 -1201 1231 0
-814 -1233 1263 0
847 1267 0
-847 -1267 0
-847 -772 814 0
-847 -851 879 0
-847 -883 911 0
-847 -915 943 0
-847 -947 975 0
-847 -979 1007 0
-847 -1011 1039 0
-847 -1043 1071 0
-847 -1075 1103 0
-847 -1107 1135 0
-847 -1139 1167 0
-847 -1171 1199 0
-847 -1203 1231 0
-847 -1235 1263 0
879 1269 0
-879 -1269 0
-879 -775 814 0
-879 -821 847 0
-879 -885 911 0
-879 -917 943 0
-879 -949 975 0
-879 -981 1007 0
-879 -1013 1039 0
-879 -1045 1071 0
-879 -1077 1103 0
-879 -1109 1135 0
-879 -1141 1167 0
-879 -1173 1199 0
-879 -1205 1231 0
-879 -1237 1263 0
911 1271 0
-911 -1271 0
-911 -778 814 0
-911 -823 847 0
-911 -855 879 0
-911 -919 943 0
-911 -951 975 0
-911 -983 1007 0
-911 -1015 1039 0
-911 -1047 1071 0
-911 -1079 1103 0
-911 -1111 1135 0
-911 -1143 1167 0
-911 -1175 1199 0
-911 -1207 1231 0
-911 -1239 1263 0
943 1273 0
-943 -1273 0
-943 -781 814 0
-943 -825 847 0
-943 -857 879 0
-943 -889 911 0
-943 -953 975 0
-943 -985 1007 0
-943 -1017 1039 0
-943 -1049 1071 0
-943 -1081 1103 0
-943 -1113 1135 0
-943 -1145 1167 0
-943 -1177 1199 0
-943 -1209 1231 0
-943 -1241 1263 0
975 1275 0
-975 -1275 0
-975 -784 814 0
-975 -827 847 0
-975 -859 879 0
-975 -891 911 0
-975 -923 943 0
-975 -987 1007 0
-975 -1019 1039 0
-975 -1051 1071 0
-975 -1083 1103 0
-975 -1115 1135 0
-975 -1147 1167 0
-975 -1179 1199 0
-975 -1211 1231 0
-975 -1243 1263 0
1007 1277 0
-1007 -1277 0
-1007 -787 814 0
-1007 -829 847 0
-1007 -861 879 0
-1007 -893 911 0
-1007 -925 943 0
-1007 -957 975 0
-1007 -1021 1039 0
-1007 -1053 1071 0
-1007 -1085 1103 0
-1007 -1117 1135 0
-1007 -1149 1167 0
-1007 -1181 1199 0
-1007 -1213 1231 0
-1007 -1245 1263 0
1039 1279 0
-1039 -1279 0
-1039 -790 814 0
-1039 -831 847 0
-1039 -863 879 0
-1039 -895 911 0
-1039 -927 943 0
-1039 -959 975 0
-1039 -991 1007 0
-1039 -1055 1071 0
-1039 -1087 1103 0
-1039 -1119 1135 0
-1039 -1151 1167 0
-1039 -1183 1199 0
-1039 -1215 1231 0
-1039 -1247 1263 0
1071 1281 0
-1071 -1281 0
-1071 -793 814 0
-1071 -833 847 0
-1071 -865 879 0
-1071 -897 911 0
-1071 -929 943 0
-1071 -961 975 0
-1071 -993 1007 0
-1071 -1025 1039 0
-1071 -1089 1103 0
-1071 -1121 1135 0
-1071 -1153 1167 0
-1071 -1185 1199 0
-1071 -1217 1231 0
-1071 -1249 1263 0
1103 1283 0
-1103 -1283 0
-1103 -796 814 0
-1103 -835 847 0
-1103 -867 879 0
-1103 -899 911 0
-1103 -931 943 0
-1103 -963 975 0
-1103 -995 1007 0
-1103 -1027 1039 0
-1103 -1059 1071 0
-1103 -1123 1135 0
-1103 -1155 1167 0
-1103 -1187 1199 0
-1103 -1219 1231 0
-1103 -1251 1263 0
1135 1285 0
-1135 -1285 0
-1135 -799 814 0
-1135 -837 847 0
-1135 -869 879 0
-1135 -901 911 0
-1135 -933 943 0
-1135 -965 975 0
-1135 -997 1007 0
-1135 -1029 1039 0
-1135 -1061 1071 0
-1135 -1093 1103 0
-1135 -1157 1167 0
-1135 -1189 1199 0
-1135 -1221 1231 0
-1135 -1253 1263 0
1167 1287 0
-1167 -1287 0
-1167 -802 814 0
-1167 -839 847 0
-1167 -871 879 0
-1167 -903 911 0
-1167 -935 943 0
-1167 -967 975 0
-1167 -999 1007 0
-1167 -1031 1039 0
-1167 -1063 1071 0
-1167 -1095 1103 0
-1167 -1127 1135 0
-1167 -1191 1199 0
-1167 -1223 1231 0
-1167 -1255 1263 0
1199 1289 0
-1199 -1289 0
-1199 -805 814 0
-1199 -841 847 0
-1199 -873 879 0
-1199 -905 911 0
-1199 -937 943 0
-1199 -969 975 0
-1199 -1001 1007 0
-1199 -1033 1039 0
-1199 -1065 1071 0
-1199 -1097 1103 0
-1199 -1129 1135 0
-1199 -1161 1167 0
-1199 -1225 1231 0
-1199 -1257 1263 0
1231 1291 0
-1231 -1291 0
-1231 -808 814 0
-1231 -843 847 0
-1231 -875 879 0
-1231 -907 911 0
-1231 -939 943 0
-1231 -971 975 0
-1231 -1003 1007 0
-1231 -1035 1039 0
-1231 -1067 1071 0
-1231 -1099 1103 0
-1231 -1131 1135 0
-1231 -1163 1167 0
-1231 -1195 1199 0
-1231 -1259 1263 0
1263 1293 0
-1263 -1293 0
-1263 -811 814 0
-1263 -845 847 0
-1263 -877 879 0
-1263 -909 911 0
-1263 -941 943 0
-1263 -973 975 0
-1263 -1005 1007 0
-1263 -1037 1039 0
-1263 -1069 1071 0
-1263 -1101 1103 0
-1263 -1133 1135 0
-1263 -1165 1167 0
-1263 -1197 1199 0
-1263 -1229 1231 0
-1297 0
-1329 817 0
-6046 849 0
-6046 821 0
-849 -821 6046 0
-6047 881 0
-6047 823 0
-881 -823 6047 0
-6048 913 0
-6048 825 0
-913 -825 6048 0
-6049 945 0
-6049 827 0
-945 -827 6049 0
-6050 977 0
-6050 829 0
-977 -829 6050 0
-6051 1009 0
-6051 831 0
-1009 -831 6051 0
-6052 1041 0
-6052 833 0
-1041 -833 6052 0
-6053 1073 0
-6053 835 0
-1073 -835 6053 0
-6054 1105 0
-6054 837 0
-1105 -837 6054 0
-6055 1137 0
-6055 839 0
-1137 -839 6055 0
-6056 1169 0
-6056 841 0
-1169 -841 6056 0
-6057 1201 0
-6057 843 0
-1201 -843 6057 0
-6058 1233 0
-6058 845 0
-1233 -845 6058 0
-6059 1265 0
-6059 847 0
-1265 -847 6059 0
-1329 -6046 0
-1329 -6047 0
-1329 -6048 0
-1329 -6049 0
-1329 -6050 0
-1329 -6051 0
-1329 -6052 0
-1329 -6053 0
-1329 -6054 0
-1329 -6055 0
-1329 -6056 0
-1329 -6057 0
-1329 -6058 0
-1329 -6059 0
-817 1329 6046 6047 6048 6049 6050 6051 6052 6053 6054 6055 6056 6057 6058 6059 0
-1361 849 0
-6060 817 0
-6060 851 0
-817 -851 6060 0
-6061 881 0
-6061 855 0
-881 -855 6061 0
-6062 913 0
-6062 857 0
-913 -857 6062 0
-6063 945 0
-6063 859 0
-945 -859 6063 0
-6064 977 0
-6064 861 0
-977 -861 6064 0
-6065 1009 0
-6065 863 0
-1009 -863 6065 0
-6066 1041 0
-6066 865 0
-1041 -865 6066 0
-6067 1073 0
-6067 867 0
-1073 -867 6067 0
-6068 1105 0
-6068 869 0
-1105 -869 6068 0
-6069 1137 0
-6069 871 0
-1137 -871 6069 0
-6070 1169 0
-6070 873 0
-1169 -873 6070 0
-6071 1201 0
-6071 875 0
-1201 -875 6071 0
-6072 1233 0
-6072 877 0
-1233 -877 6072 0
-6073 1265 0
-6073 879 0
-1265 -879 6073 0
-1361 -6060 0
-1361 -6061 0
-1361 -6062 0
-1361 -6063 0
-1361 -6064 0
-1361 -6065 0
-1361 -6066 0
-1361 -6067 0
-1361 -6068 0
-1361 -6069 0
-1361 -6070 0
-1361 -6071 0
-1361 -6072 0
-1361 -6073 0
-849 1361 6060 6061 6062 6063 6064 6065 6066 6067 6068 6069 6070 6071 6072 6073 0
-1393 881 0
-6074 817 0
-6074 883 0
-817 -883 6074 0
-6075 849 0
-6075 885 0
-849 -885 6075 0
-6076 913 0
-6076 889 0
-913 -889 6076 0
-6077 945 0
-6077 891 0
-945 -891 6077 0
-6078 977 0
-6078 893 0
-977 -893 6078 0
-6079 1009 0
-6079 895 0
-1009 -895 6079 0
-6080 1041 0
-6080 897 0
-1041 -897 6080 0
-6081 1073 0
-6081 899 0
-1073 -899 6081 0
-6082 1105 0
-6082 901 0
-1105 -901 6082 0
-6083 1137 0
-6083 903 0
-1137 -903 6083 0
-6084 1169 0
-6084 905 0
-1169 -905 6084 0
-6085 1201 0
-6085 907 0
-1201 -907 6085 0
-6086 1233 0
-6086 909 0
-1233 -909 6086 0
-6087 1265 0
-6087 911 0
-1265 -911 6087 0
-1393 -6074 0
-1393 -6075 0
-1393 -6076 0
-1393 -6077 0
-1393 -6078 0
-1393 -6079 0
-1393 -6080 0
-1393 -6081 0
-1393 -6082 0
-1393 -6083 0
-1393 -6084 0
-1393 -6085 0
-1393 -6086 0
-1393 -6087 0
-881 1393 6074 6075 6076 6077 6078 6079 6080 6081 6082 6083 6084 6085 6086 6087 0
-1425 913 0
-6088 817 0
-6088 915 0
-817 -915 6088 0
-6089 849 0
-6089 917 0
-849 -917 6089 0
-6090 881 0
-6090 919 0
-881 -919 6090 0
-6091 945 0
-6091 923 0
-945 -923 6091 0
-6092 977 0
-6092 925 0
-977 -925 6092 0
-6093 1009 0
-6093 927 0
-1009 -927 6093 0
-6094 1041 0
-6094 929 0
-1041 -929 6094 0
-6095 1073 0
-6095 931 0
-1073 -931 6095 0
-6096 1105 0
-6096 933 0
-1105 -933 6096 0
-6097 1137 0
-6097 935 0
-1137 -935 6097 0
-6098 1169 0
-6098 937 0
-1169 -937 6098 0
-6099 1201 0
-6099 939 0
-1201 -939 6099 0
-6100 1233 0
-6100 941 0
-1233 -941 6100 0
-6101 1265 0
-6101 943 0
-1265 -943 6101 0
-1425 -6088 0
-1425 -6089 0
-1425 -6090 0
-1425 -6091 0
-1425 -6092 0
-1425 -6093 0
-1425 -6094 0
-1425 -6095 0
-1425 -6096 0
-1425 -6097 0
-1425 -6098 0
-1425 -6099 0
-1425 -6100 0
-1425 -6101 0
-913 1425 6088 6089 6090 6091 6092 6093 6094 6095 6096 6097 6098 6099 6100 6101 0
-1457 945 0
-6102 817 0
-6102 947 0
-817 -947 6102 0
-6103 849 0
-6103 949 0
-849 -949 6103 0
-6104 881 0
-6104 951 0
-881 -951 6104 0
-6105 913 0
-6105 953 0
-913 -953 6105 0
-6106 977 0
-6106 957 0
-977 -957 6106 0
-6107 1009 0
-6107 959 0
-1009 -959 6107 0
-6108 1041 0
-6108 961 0
-1041 -961 6108 0
-6109 1073 0
-6109 963 0
-1073 -963 6109 0
-6110 1105 0
-6110 965 0
-1105 -965 6110 0
-6111 1137 0
-6111 967 0
-1137 -967 6111 0
-6112 1169 0
-6112 969 0
-1169 -969 6112 0
-6113 1201 0
-6113 971 0
-1201 -971 6113 0
-6114 1233 0
-6114 973 0
-1233 -973 6114 0
-6115 1265 0
-6115 975 0
-1265 -975 6115 0
-1457 -6102 0
-1457 -6103 0
-1457 -6104 0
-1457 -6105 0
-1457 -6106 0
-1457 -6107 0
-1457 -6108 0
-1457 -6109 0
-1457 -6110 0
-1457 -6111 0
-1457 -6112 0
-1457 -6113 0
-1457 -6114 0
-1457 -6115 0
-945 1457 6102 6103 6104 6105 6106 6107 6108 6109 6110 6111 6112 6113 6114 6115 0
-1489 977 0
-6116 817 0
-6116 979 0
-817 -979 6116 0
-6117 849 0
-6117 981 0
-849 -981 6117 0
-6118 881 0
-6118 983 0
-881 -983 6118 0
-6119 913 0
-6119 985 0
-913 -985 6119 0
-6120 945 0
-6120 987 0
-945 -987 6120 0
-6121 1009 0
-6121 991 0
-1009 -991 6121 0
-6122 1041 0
-6122 993 0
-1041 -993 6122 0
-6123 1073 0
-6123 995 0
-1073 -995 6123 0
-6124 1105 0
-6124 997 0
-1105 -997 6124 0
-6125 1137 0
-6125 999 0
-1137 -999 6125 0
-6126 1169 0
-6126 1001 0
-1169 -1001 6126 0
-6127 1201 0
-6127 1003 0
-1201 -1003 6127 0
-6128 1233 0
-6128 1005 0
-1233 -1005 6128 0
-6129 1265 0
-6129 1007 0
-1265 -1007 6129 0
-1489 -6116 0
-1489 -6117 0
-1489 -6118 0
-1489 -6119 0
-1489 -6120 0
-1489 -6121 0
-1489 -6122 0
-1489 -6123 0
-1489 -6124 0
-1489 -6125 0
-1489 -6126 0
-1489 -6127 0
-1489 -6128 0
-1489 -6129 0
-977 1489 6116 6117 6118 6119 6120 6121 6122 6123 6124 6125 6126 6127 6128 6129 0
-1521 1009 0
-6130 817 0
-6130 1011 0
-817 -1011 6130 0
-6131 849 0
-6131 1013 0
-849 -1013 6131 0
-6132 881 0
-6132 1015 0
-881 -1015 6132 0
-6133 913 0
-6133 1017 0
-913 -1017 6133 0
-6134 945 0
-6134 1019 0
-945 -1019 6134 0
-6135 977 0
-6135 1021 0
-977 -1021 6135 0
-6136 1041 0
-6136 1025 0
-1041 -1025 6136 0
-6137 1073 0
-6137 1027 0
-1073 -1027 6137 0
-6138 1105 0
-6138 1029 0
-1105 -1029 6138 0
-6139 1137 0
-6139 1031 0
-1137 -1031 6139 0
-6140 1169 0
-6140 1033 0
-1169 -1033 6140 0
-6141 1201 0
-6141 1035 0
-1201 -1035 6141 0
-6142 1233 0
-6142 1037 0
-1233 -1037 6142 0
-6143 1265 0
-6143 1039 0
-1265 -1039 6143 0
-1521 -6130 0
-1521 -6131 0
-1521 -6132 0
-1521 -6133 0
-1521 -6134 0
-1521 -6135 0
-1521 -6136 0
-1521 -6137 0
-1521 -6138 0
-1521 -6139 0
-1521 -6140 0
-1521 -6141 0
-1521 -6142 0
-1521 -6143 0
-1009 1521 6130 6131 6132 6133 6134 6135 6136 6137 6138 6139 6140 6141 6142 6143 0
-1553 1041 0
-6144 817 0
-6144 1043 0
-817 -1043 6144 0
-6145 849 0
-6145 1045 0
-849 -1045 6145 0
-6146 881 0
-6146 1047 0
-881 -1047 6146 0
-6147 913 0
-6147 1049 0
-913 -1049 6147 0
-6148 945 0
-6148 1051 0
-945 -1051 6148 0
-6149 977 0
-6149 1053 0
-977 -1053 6149 0
-6150 1009 0
-6150 1055 0
-1009 -1055 6150 0
-6151 1073 0
-6151 1059 0
-1073 -1059 6151 0
-6152 1105 0
-6152 1061 0
-1105 -1061 6152 0
-6153 1137 0
-6153 1063 0
-1137 -1063 6153 0
-6154 1169 0
-6154 1065 0
-1169 -1065 6154 0
-6155 1201 0
-6155 1067 0
-1201 -1067 6155 0
-6156 1233 0
-6156 1069 0
-1233 -1069 6156 0
-6157 1265 0
-6157 1071 0
-1265 -1071 6157 0
-1553 -6144 0
-1553 -6145 0
-1553 -6146 0
-1553 -6147 0
-1553 -6148 0
-1553 -6149 0
-1553 -6150 0
-1553 -6151 0
-1553 -6152 0
-1553 -6153 0
-1553 -6154 0
-1553 -6155 0
-1553 -6156 0
-1553 -6157 0
-1041 1553 6144 6145 6146 6147 6148 6149 6150 6151 6152 6153 6154 6155 6156 6157 0
-1585 1073 0
-6158 817 0
-6158 1075 0
-817 -1075 6158 0
-6159 849 0
-6159 1077 0
-849 -1077 6159 0
-6160 881 0
-6160 1079 0
-881 -1079 6160 0
-6161 913 0
-6161 1081 0
-913 -1081 6161 0
-6162 945 0
-6162 1083 0
-945 -1083 6162 0
-6163 977 0
-6163 1085 0
-977 -1085 6163 0
-6164 1009 0
-6164 1087 0
-1009 -1087 6164 0
-6165 1041 0
-6165 1089 0
-1041 -1089 6165 0
-6166 1105 0
-6166 1093 0
-1105 -1093 6166 0
-6167 1137 0
-6167 1095 0
-1137 -1095 6167 0
-6168 1169 0
-6168 1097 0
-1169 -1097 6168 0
-6169 1201 0
-6169 1099 0
-1201 -1099 6169 0
-6170 1233 0
-6170 1101 0
-1233 -1101 6170 0
-6171 1265 0
-6171 1103 0
-1265 -1103 6171 0
-1585 -6158 0
-1585 -6159 0
-1585 -6160 0
-1585 -6161 0
-1585 -6162 0
-1585 -6163 0
-1585 -6164 0
-1585 -6165 0
-1585 -6166 0
-1585 -6167 0
-1585 -6168 0
-1585 -6169 0
-1585 -6170 0
-1585 -6171 0
-1073 1585 6158 6159 6160 6161 6162 6163 6164 6165 6166 6167 6168 6169 6170 6171 0
-1617 1105 0
-6172 817 0
-6172 1107 0
-817 -1107 6172 0
-6173 849 0
-6173 1109 0
-849 -1109 6173 0
-6174 881 0
-6174 1111 0
-881 -1111 6174 0
-6175 913 0
-6175 1113 0
-913 -1113 6175 0
-6176 945 0
-6176 1115 0
-945 -1115 6176 0
-6177 977 0
-6177 1117 0
-977 -1117 6177 0
-6178 1009 0
-6178 1119 0
-1009 -1119 6178 0
-6179 1041 0
-6179 1121 0
-1041 -1121 6179 0
-6180 1073 0
-6180 1123 0
-1073 -1123 6180 0
-6181 1137 0
-6181 1127 0
-1137 -1127 6181 0
-6182 1169 0
-6182 1129 0
-1169 -1129 6182 0
-6183 1201 0
-6183 1131 0
-1201 -1131 6183 0
-6184 1233 0
-6184 1133 0
-1233 -1133 6184 0
-6185 1265 0
-6185 1135 0
-1265 -1135 6185 0
-1617 -6172 0
-1617 -6173 0
-1617 -6174 0
-1617 -6175 0
-1617 -6176 0
-1617 -6177 0
-1617 -6178 0
-1617 -6179 0
-1617 -6180 0
-1617 -6181 0
-1617 -6182 0
-1617 -6183 0
-1617 -6184 0
-1617 -6185 0
-1105 1617 6172 6173 6174 6175 6176 6177 6178 6179 6180 6181 6182 6183 6184 6185 0
-1649 1137 0
-6186 817 0
-6186 1139 0
-817 -1139 6186 0
-6187 849 0
-6187 1141 0
-849 -1141 6187 0
-6188 881 0
-6188 1143 0
-881 -1143 6188 0
-6189 913 0
-6189 1145 0
-913 -1145 6189 0
-6190 945 0
-6190 1147 0
-945 -1147 6190 0
-6191 977 0
-6191 1149 0
-977 -1149 6191 0
-6192 1009 0
-6192 1151 0
-1009 -1151 6192 0
-6193 1041 0
-6193 1153 0
-1041 -1153 6193 0
-6194 1073 0
-6194 1155 0
-1073 -1155 6194 0
-6195 1105 0
-6195 1157 0
-1105 -1157 6195 0
-6196 1169 0
-6196 1161 0
-1169 -1161 6196 0
-6197 1201 0
-6197 1163 0
-1201 -1163 6197 0
-6198 1233 0
-6198 1165 0
-1233 -1165 6198 0
-6199 1265 0
-6199 1167 0
-1265 -1167 6199 0
-1649 -6186 0
-1649 -6187 0
-1649 -6188 0
-1649 -6189 0
-1649 -6190 0
-1649 -6191 0
-1649 -6192 0
-1649 -6193 0
-1649 -6194 0
-1649 -6195 0
-1649 -6196 0
-1649 -6197 0
-1649 -6198 0
-1649 -6199 0
-1137 1649 6186 6187 6188 6189 6190 6191 6192 6193 6194 6195 6196 6197 6198 6199 0
-1681 1169 0
-6200 817 0
-6200 1171 0
-817 -1171 6200 0
-6201 849 0
-6201 1173 0
-849 -1173 6201 0
-6202 881 0
-6202 1175 0
-881 -1175 6202 0
-6203 913 0
-6203 1177 0
-913 -1177 6203 0
-6204 945 0
-6204 1179 0
-945 -1179 6204 0
-6205 977 0
-6205 1181 0
-977 -1181 6205 0
-6206 1009 0
-6206 1183 0
-1009 -1183 6206 0
-6207 1041 0
-6207 1185 0
-1041 -1185 6207 0
-6208 1073 0
-6208 1187 0
-1073 -1187 6208 0
-6209 1105 0
-6209 1189 0
-1105 -1189 6209 0
-6210 1137 0
-6210 1191 0
-1137 -1191 6210 0
-6211 1201 0
-6211 1195 0
-1201 -1195 6211 0
-6212 1233 0
-6212 1197 0
-1233 -1197 6212 0
-6213 1265 0
-6213 1199 0
-1265 -1199 6213 0
-1681 -6200 0
-1681 -6201 0
-1681 -6202 0
-1681 -6203 0
-1681 -6204 0
-1681 -6205 0
-1681 -6206 0
-1681 -6207 0
-1681 -6208 0
-1681 -6209 0
-1681 -6210 0
-1681 -6211 0
-1681 -6212 0
-1681 -6213 0
-1169 1681 6200 6201 6202 6203 6204 6205 6206 6207 6208 6209 6210 6211 6212 6213 0
-1713 1201 0
-6214 817 0
-6214 1203 0
-817 -1203 6214 0
-6215 849 0
-6215 1205 0
-849 -1205 6215 0
-6216 881 0
-6216 1207 0
-881 -1207 6216 0
-6217 913 0
-6217 1209 0
-913 -1209 6217 0
-6218 945 0
-6218 1211 0
-945 -1211 6218 0
-6219 977 0
-6219 1213 0
-977 -1213 6219 0
-6220 1009 0
-6220 1215 0
-1009 -1215 6220 0
-6221 1041 0
-6221 1217 0
-1041 -1217 6221 0
-6222 1073 0
-6222 1219 0
-1073 -1219 6222 0
-6223 1105 0
-6223 1221 0
-1105 -1221 6223 0
-6224 1137 0
-6224 1223 0
-1137 -1223 6224 0
-6225 1169 0
-6225 1225 0
-1169 -1225 6225 0
-6226 1233 0
-6226 1229 0
-1233 -1229 6226 0
-6227 1265 0
-6227 1231 0
-1265 -1231 6227 0
-1713 -6214 0
-1713 -6215 0
-1713 -6216 0
-1713 -6217 0
-1713 -6218 0
-1713 -6219 0
-1713 -6220 0
-1713 -6221 0
-1713 -6222 0
-1713 -6223 0
-1713 -6224 0
-1713 -6225 0
-1713 -6226 0
-1713 -6227 0
-1201 1713 6214 6215 6216 6217 6218 6219 6220 6221 6222 6223 6224 6225 6226 6227 0
-1745 1233 0
-6228 817 0
-6228 1235 0
-817 -1235 6228 0
-6229 849 0
-6229 1237 0
-849 -1237 6229 0
-6230 881 0
-6230 1239 0
-881 -1239 6230 0
-6231 913 0
-6231 1241 0
-913 -1241 6231 0
-6232 945 0
-6232 1243 0
-945 -1243 6232 0
-6233 977 0
-6233 1245 0
-977 -1245 6233 0
-6234 1009 0
-6234 1247 0
-1009 -1247 6234 0
-6235 1041 0
-6235 1249 0
-1041 -1249 6235 0
-6236 1073 0
-6236 1251 0
-1073 -1251 6236 0
-6237 1105 0
-6237 1253 0
-1105 -1253 6237 0
-6238 1137 0
-6238 1255 0
-1137 -1255 6238 0
-6239 1169 0
-6239 1257 0
-1169 -1257 6239 0
-6240 1201 0
-6240 1259 0
-1201 -1259 6240 0
-6241 1265 0
-6241 1263 0
-1265 -1263 6241 0
-1745 -6228 0
-1745 -6229 0
-1745 -6230 0
-1745 -6231 0
-1745 -6232 0
-1745 -6233 0
-1745 -6234 0
-1745 -6235 0
-1745 -6236 0
-1745 -6237 0
-1745 -6238 0
-1745 -6239 0
-1745 -6240 0
-1745 -6241 0
-1233 1745 6228 6229 6230 6231 6232 6233 6234 6235 6236 6237 6238 6239 6240 6241 0
-1777 1265 0
-6242 817 0
-6242 1267 0
-817 -1267 6242 0
-6243 849 0
-6243 1269 0
-849 -1269 6243 0
-6244 881 0
-6244 1271 0
-881 -1271 6244 0
-6245 913 0
-6245 1273 0
-913 -1273 6245 0
-6246 945 0
-6246 1275 0
-945 -1275 6246 0
-6247 977 0
-6247 1277 0
-977 -1277 6247 0
-6248 1009 0
-6248 1279 0
-1009 -1279 6248 0
-6249 1041 0
-6249 1281 0
-1041 -1281 6249 0
-6250 1073 0
-6250 1283 0
-1073 -1283 6250 0
-6251 1105 0
-6251 1285 0
-1105 -1285 6251 0
-6252 1137 0
-6252 1287 0
-1137 -1287 6252 0
-6253 1169 0
-6253 1289 0
-1169 -1289 6253 0
-6254 1201 0
-6254 1291 0
-1201 -1291 6254 0
-6255 1233 0
-6255 1293 0
-1233 -1293 6255 0
-1777 -6242 0
-1777 -6243 0
-1777 -6244 0
-1777 -6245 0
-1777 -6246 0
-1777 -6247 0
-1777 -6248 0
-1777 -6249 0
-1777 -6250 0
-1777 -6251 0
-1777 -6252 0
-1777 -6253 0
-1777 -6254 0
-1777 -6255 0
-1265 1777 6242 6243 6244 6245 6246 6247 6248 6249 6250 6251 6252 6253 6254 6255 0
-1299 772 0
-6256 851 0
-6256 775 0
-851 -775 6256 0
-6257 883 0
-6257 778 0
-883 -778 6257 0
-6258 915 0
-6258 781 0
-915 -781 6258 0
-6259 947 0
-6259 784 0
-947 -784 6259 0
-6260 979 0
-6260 787 0
-979 -787 6260 0
-6261 1011 0
-6261 790 0
-1011 -790 6261 0
-6262 1043 0
-6262 793 0
-1043 -793 6262 0
-6263 1075 0
-6263 796 0
-1075 -796 6263 0
-6264 1107 0
-6264 799 0
-1107 -799 6264 0
-6265 1139 0
-6265 802 0
-1139 -802 6265 0
-6266 1171 0
-6266 805 0
-1171 -805 6266 0
-6267 1203 0
-6267 808 0
-1203 -808 6267 0
-6268 1235 0
-6268 811 0
-1235 -811 6268 0
-6269 1267 0
-6269 814 0
-1267 -814 6269 0
-1299 -6256 0
-1299 -6257 0
-1299 -6258 0
-1299 -6259 0
-1299 -6260 0
-1299 -6261 0
-1299 -6262 0
-1299 -6263 0
-1299 -6264 0
-1299 -6265 0
-1299 -6266 0
-1299 -6267 0
-1299 -6268 0
-1299 -6269 0
-772 1299 6256 6257 6258 6259 6260 6261 6262 6263 6264 6265 6266 6267 6268 6269 0
-1331 0
-1363 851 0
-6270 772 0
-6270 849 0
-772 -849 6270 0
-6271 883 0
-6271 855 0
-883 -855 6271 0
-6272 915 0
-6272 857 0
-915 -857 6272 0
-6273 947 0
-6273 859 0
-947 -859 6273 0
-6274 979 0
-6274 861 0
-979 -861 6274 0
-6275 1011 0
-6275 863 0
-1011 -863 6275 0
-6276 1043 0
-6276 865 0
-1043 -865 6276 0
-6277 1075 0
-6277 867 0
-1075 -867 6277 0
-6278 1107 0
-6278 869 0
-1107 -869 6278 0
-6279 1139 0
-6279 871 0
-1139 -871 6279 0
-6280 1171 0
-6280 873 0
-1171 -873 6280 0
-6281 1203 0
-6281 875 0
-1203 -875 6281 0
-6282 1235 0
-6282 877 0
-1235 -877 6282 0
-6283 1267 0
-6283 879 0
-1267 -879 6283 0
-1363 -6270 0
-1363 -6271 0
-1363 -6272 0
-1363 -6273 0
-1363 -6274 0
-1363 -6275 0
-1363 -6276 0
-1363 -6277 0
-1363 -6278 0
-1363 -6279 0
-1363 -6280 0
-1363 -6281 0
-1363 -6282 0
-1363 -6283 0
-851 1363 6270 6271 6272 6273 6274 6275 6276 6277 6278 6279 6280 6281 6282 6283 0
-1395 883 0
-6284 772 0
-6284 881 0
-772 -881 6284 0
-6285 851 0
-6285 885 0
-851 -885 6285 0
-6286 915 0
-6286 889 0
-915 -889 6286 0
-6287 947 0
-6287 891 0
-947 -891 6287 0
-6288 979 0
-6288 893 0
-979 -893 6288 0
-6289 1011 0
-6289 895 0
-1011 -895 6289 0
-6290 1043 0
-6290 897 0
-1043 -897 6290 0
-6291 1075 0
-6291 899 0
-1075 -899 6291 0
-6292 1107 0
-6292 901 0
-1107 -901 6292 0
-6293 1139 0
-6293 903 0
-1139 -903 6293 0
-6294 1171 0
-6294 905 0
-1171 -905 6294 0
-6295 1203 0
-6295 907 0
-1203 -907 6295 0
-6296 1235 0
-6296 909 0
-1235 -909 6296 0
-6297 1267 0
-6297 911 0
-1267 -911 6297 0
-1395 -6284 0
-1395 -6285 0
-1395 -6286 0
-1395 -6287 0
-1395 -6288 0
-1395 -6289 0
-1395 -6290 0
-1395 -6291 0
-1395 -6292 0
-1395 -6293 0
-1395 -6294 0
-1395 -6295 0
-1395 -6296 0
-1395 -6297 0
-883 1395 6284 6285 6286 6287 6288 6289 6290 6291 6292 6293 6294 6295 6296 6297 0
-1427 915 0
-6298 772 0
-6298 913 0
-772 -913 6298 0
-6299 851 0
-6299 917 0
-851 -917 6299 0
-6300 883 0
-6300 919 0
-883 -919 6300 0
-6301 947 0
-6301 923 0
-947 -923 6301 0
-6302 979 0
-6302 925 0
-979 -925 6302 0
-6303 1011 0
-6303 927 0
-1011 -927 6303 0
-6304 1043 0
-6304 929 0
-1043 -929 6304 0
-6305 1075 0
-6305 931 0
-1075 -931 6305 0
-6306 1107 0
-6306 933 0
-1107 -933 6306 0
-6307 1139 0
-6307 935 0
-1139 -935 6307 0
-6308 1171 0
-6308 937 0
-1171 -937 6308 0
-6309 1203 0
-6309 939 0
-1203 -939 6309 0
-6310 1235 0
-6310 941 0
-1235 -941 6310 0
-6311 1267 0
-6311 943 0
-1267 -943 6311 0
-1427 -6298 0
-1427 -6299 0
-1427 -6300 0
-1427 -6301 0
-1427 -6302 0
-1427 -6303 0
-1427 -6304 0
-1427 -6305 0
-1427 -6306 0
-1427 -6307 0
-1427 -6308 0
-1427 -6309 0
-1427 -6310 0
-1427 -6311 0
-915 1427 6298 6299 6300 6301 6302 6303 6304 6305 6306 6307 6308 6309 6310 6311 0
-1459 947 0
-6312 772 0
-6312 945 0
-772 -945 6312 0
-6313 851 0
-6313 949 0
-851 -949 6313 0
-6314 883 0
-6314 951 0
-883 -951 6314 0
-6315 915 0
-6315 953 0
-915 -953 6315 0
-6316 979 0
-6316 957 0
-979 -957 6316 0
-6317 1011 0
-6317 959 0
-1011 -959 6317 0
-6318 1043 0
-6318 961 0
-1043 -961 6318 0
-6319 1075 0
-6319 963 0
-1075 -963 6319 0
-6320 1107 0
-6320 965 0
-1107 -965 6320 0
-6321 1139 0
-6321 967 0
-1139 -967 6321 0
-6322 1171 0
-6322 969 0
-1171 -969 6322 0
-6323 1203 0
-6323 971 0
-1203 -971 6323 0
-6324 1235 0
-6324 973 0
-1235 -973 6324 0
-6325 1267 0
-6325 975 0
-1267 -975 6325 0
-1459 -6312 0
-1459 -6313 0
-1459 -6314 0
-1459 -6315 0
-1459 -6316 0
-1459 -6317 0
-1459 -6318 0
-1459 -6319 0
-1459 -6320 0
-1459 -6321 0
-1459 -6322 0
-1459 -6323 0
-1459 -6324 0
-1459 -6325 0
-947 1459 6312 6313 6314 6315 6316 6317 6318 6319 6320 6321 6322 6323 6324 6325 0
-1491 979 0
-6326 772 0
-6326 977 0
-772 -977 6326 0
-6327 851 0
-6327 981 0
-851 -981 6327 0
-6328 883 0
-6328 983 0
-883 -983 6328 0
-6329 915 0
-6329 985 0
-915 -985 6329 0
-6330 947 0
-6330 987 0
-947 -987 6330 0
-6331 1011 0
-6331 991 0
-1011 -991 6331 0
-6332 1043 0
-6332 993 0
-1043 -993 6332 0
-6333 1075 0
-6333 995 0
-1075 -995 6333 0
-6334 1107 0
-6334 997 0
-1107 -997 6334 0
-6335 1139 0
-6335 999 0
-1139 -999 6335 0
-6336 1171 0
-6336 1001 0
-1171 -1001 6336 0
-6337 1203 0
-6337 1003 0
-1203 -1003 6337 0
-6338 1235 0
-6338 1005 0
-1235 -1005 6338 0
-6339 1267 0
-6339 1007 0
-1267 -1007 6339 0
-1491 -6326 0
-1491 -6327 0
-1491 -6328 0
-1491 -6329 0
-1491 -6330 0
-1491 -6331 0
-1491 -6332 0
-1491 -6333 0
-1491 -6334 0
-1491 -6335 0
-1491 -6336 0
-1491 -6337 0
-1491 -6338 0
-1491 -6339 0
-979 1491 6326 6327 6328 6329 6330 6331 6332 6333 6334 6335 6336 6337 6338 6339 0
-1523 1011 0
-6340 772 0
-6340 1009 0
-772 -1009 6340 0
-6341 851 0
-6341 1013 0
-851 -1013 6341 0
-6342 883 0
-6342 1015 0
-883 -1015 6342 0
-6343 915 0
-6343 1017 0
-915 -1017 6343 0
-6344 947 0
-6344 1019 0
-947 -1019 6344 0
-6345 979 0
-6345 1021 0
-979 -1021 6345 0
-6346 1043 0
-6346 1025 0
-1043 -1025 6346 0
-6347 1075 0
-6347 1027 0
-1075 -1027 6347 0
-6348 1107 0
-6348 1029 0
-1107 -1029 6348 0
-6349 1139 0
-6349 1031 0
-1139 -1031 6349 0
-6350 1171 0
-6350 1033 0
-1171 -1033 6350 0
-6351 1203 0
-6351 1035 0
-1203 -1035 6351 0
-6352 1235 0
-6352 1037 0
-1235 -1037 6352 0
-6353 1267 0
-6353 1039 0
-1267 -1039 6353 0
-1523 -6340 0
-1523 -6341 0
-1523 -6342 0
-1523 -6343 0
-1523 -6344 0
-1523 -6345 0
-1523 -6346 0
-1523 -6347 0
-1523 -6348 0
-1523 -6349 0
-1523 -6350 0
-1523 -6351 0
-1523 -6352 0
-1523 -6353 0
-1011 1523 6340 6341 6342 6343 6344 6345 6346 6347 6348 6349 6350 6351 6352 6353 0
-1555 1043 0
-6354 772 0
-6354 1041 0
-772 -1041 6354 0
-6355 851 0
-6355 1045 0
-851 -1045 6355 0
-6356 883 0
-6356 1047 0
-883 -1047 6356 0
-6357 915 0
-6357 1049 0
-915 -1049 6357 0
-6358 947 0
-6358 1051 0
-947 -1051 6358 0
-6359 979 0
-6359 1053 0
-979 -1053 6359 0
-6360 1011 0
-6360 1055 0
-1011 -1055 6360 0
-6361 1075 0
-6361 1059 0
-1075 -1059 6361 0
-6362 1107 0
-6362 1061 0
-1107 -1061 6362 0
-6363 1139 0
-6363 1063 0
-1139 -1063 6363 0
-6364 1171 0
-6364 1065 0
-1171 -1065 6364 0
-6365 1203 0
-6365 1067 0
-1203 -1067 6365 0
-6366 1235 0
-6366 1069 0
-1235 -1069 6366 0
-6367 1267 0
-6367 1071 0
-1267 -1071 6367 0
-1555 -6354 0
-1555 -6355 0
-1555 -6356 0
-1555 -6357 0
-1555 -6358 0
-1555 -6359 0
-1555 -6360 0
-1555 -6361 0
-1555 -6362 0
-1555 -6363 0
-1555 -6364 0
-1555 -6365 0
-1555 -6366 0
-1555 -6367 0
-1043 1555 6354 6355 6356 6357 6358 6359 6360 6361 6362 6363 6364 6365 6366 6367 0
-1587 1075 0
-6368 772 0
-6368 1073 0
-772 -1073 6368 0
-6369 851 0
-6369 1077 0
-851 -1077 6369 0
-6370 883 0
-6370 1079 0
-883 -1079 6370 0
-6371 915 0
-6371 1081 0
-915 -1081 6371 0
-6372 947 0
-6372 1083 0
-947 -1083 6372 0
-6373 979 0
-6373 1085 0
-979 -1085 6373 0
-6374 1011 0
-6374 1087 0
-1011 -1087 6374 0
-6375 1043 0
-6375 1089 0
-1043 -1089 6375 0
-6376 1107 0
-6376 1093 0
-1107 -1093 6376 0
-6377 1139 0
-6377 1095 0
-1139 -1095 6377 0
-6378 1171 0
-6378 1097 0
-1171 -1097 6378 0
-6379 1203 0
-6379 1099 0
-1203 -1099 6379 0
-6380 1235 0
-6380 1101 0
-1235 -1101 6380 0
-6381 1267 0
-6381 1103 0
-1267 -1103 6381 0
-1587 -6368 0
-1587 -6369 0
-1587 -6370 0
-1587 -6371 0
-1587 -6372 0
-1587 -6373 0
-1587 -6374 0
-1587 -6375 0
-1587 -6376 0
-1587 -6377 0
-1587 -6378 0
-1587 -6379 0
-1587 -6380 0
-1587 -6381 0
-1075 1587 6368 6369 6370 6371 6372 6373 6374 6375 6376 6377 6378 6379 6380 6381 0
-1619 1107 0
-6382 772 0
-6382 1105 0
-772 -1105 6382 0
-6383 851 0
-6383 1109 0
-851 -1109 6383 0
-6384 883 0
-6384 1111 0
-883 -1111 6384 0
-6385 915 0
-6385 1113 0
-915 -1113 6385 0
-6386 947 0
-6386 1115 0
-947 -1115 6386 0
-6387 979 0
-6387 1117 0
-979 -1117 6387 0
-6388 1011 0
-6388 1119 0
-1011 -1119 6388 0
-6389 1043 0
-6389 1121 0
-1043 -1121 6389 0
-6390 1075 0
-6390 1123 0
-1075 -1123 6390 0
-6391 1139 0
-6391 1127 0
-1139 -1127 6391 0
-6392 1171 0
-6392 1129 0
-1171 -1129 6392 0
-6393 1203 0
-6393 1131 0
-1203 -1131 6393 0
-6394 1235 0
-6394 1133 0
-1235 -1133 6394 0
-6395 1267 0
-6395 1135 0
-1267 -1135 6395 0
-1619 -6382 0
-1619 -6383 0
-1619 -6384 0
-1619 -6385 0
-1619 -6386 0
-1619 -6387 0
-1619 -6388 0
-1619 -6389 0
-1619 -6390 0
-1619 -6391 0
-1619 -6392 0
-1619 -6393 0
-1619 -6394 0
-1619 -6395 0
-1107 1619 6382 6383 6384 6385 6386 6387 6388 6389 6390 6391 6392 6393 6394 6395 0
-1651 1139 0
-6396 772 0
-6396 1137 0
-772 -1137 6396 0
-6397 851 0
-6397 1141 0
-851 -1141 6397 0
-6398 883 0
-6398 1143 0
-883 -1143 6398 0
-6399 915 0
-6399 1145 0
-915 -1145 6399 0
-6400 947 0
-6400 1147 0
-947 -1147 6400 0
-6401 979 0
-6401 1149 0
-979 -1149 6401 0
-6402 1011 0
-6402 1151 0
-1011 -1151 6402 0
-6403 1043 0
-6403 1153 0
-1043 -1153 6403 0
-6404 1075 0
-6404 1155 0
-1075 -1155 6404 0
-6405 1107 0
-6405 1157 0
-1107 -1157 6405 0
-6406 1171 0
-6406 1161 0
-1171 -1161 6406 0
-6407 1203 0
-6407 1163 0
-1203 -1163 6407 0
-6408 1235 0
-6408 1165 0
-1235 -1165 6408 0
-6409 1267 0
-6409 1167 0
-1267 -1167 6409 0
-1651 -6396 0
-1651 -6397 0
-1651 -6398 0
-1651 -6399 0
-1651 -6400 0
-1651 -6401 0
-1651 -6402 0
-1651 -6403 0
-1651 -6404 0
-1651 -6405 0
-1651 -6406 0
-1651 -6407 0
-1651 -6408 0
-1651 -6409 0
-1139 1651 6396 6397 6398 6399 6400 6401 6402 6403 6404 6405 6406 6407 6408 6409 0
-1683 1171 0
-6410 772 0
-6410 1169 0
-772 -1169 6410 0
-6411 851 0
-6411 1173 0
-851 -1173 6411 0
-6412 883 0
-6412 1175 0
-883 -1175 6412 0
-6413 915 0
-6413 1177 0
-915 -1177 6413 0
-6414 947 0
-6414 1179 0
-947 -1179 6414 0
-6415 979 0
-6415 1181 0
-979 -1181 6415 0
-6416 1011 0
-6416 1183 0
-1011 -1183 6416 0
-6417 1043 0
-6417 1185 0
-1043 -1185 6417 0
-6418 1075 0
-6418 1187 0
-1075 -1187 6418 0
-6419 1107 0
-6419 1189 0
-1107 -1189 6419 0
-6420 1139 0
-6420 1191 0
-1139 -1191 6420 0
-6421 1203 0
-6421 1195 0
-1203 -1195 6421 0
-6422 1235 0
-6422 1197 0
-1235 -1197 6422 0
-6423 1267 0
-6423 1199 0
-1267 -1199 6423 0
-1683 -6410 0
-1683 -6411 0
-1683 -6412 0
-1683 -6413 0
-1683 -6414 0
-1683 -6415 0
-1683 -6416 0
-1683 -6417 0
-1683 -6418 0
-1683 -6419 0
-1683 -6420 0
-1683 -6421 0
-1683 -6422 0
-1683 -6423 0
-1171 1683 6410 6411 6412 6413 6414 6415 6416 6417 6418 6419 6420 6421 6422 6423 0
-1715 1203 0
-6424 772 0
-6424 1201 0
-772 -1201 6424 0
-6425 851 0
-6425 1205 0
-851 -1205 6425 0
-6426 883 0
-6426 1207 0
-883 -1207 6426 0
-6427 915 0
-6427 1209 0
-915 -1209 6427 0
-6428 947 0
-6428 1211 0
-947 -1211 6428 0
-6429 979 0
-6429 1213 0
-979 -1213 6429 0
-6430 1011 0
-6430 1215 0
-1011 -1215 6430 0
-6431 1043 0
-6431 1217 0
-1043 -1217 6431 0
-6432 1075 0
-6432 1219 0
-1075 -1219 6432 0
-6433 1107 0
-6433 1221 0
-1107 -1221 6433 0
-6434 1139 0
-6434 1223 0
-1139 -1223 6434 0
-6435 1171 0
-6435 1225 0
-1171 -1225 6435 0
-6436 1235 0
-6436 1229 0
-1235 -1229 6436 0
-6437 1267 0
-6437 1231 0
-1267 -1231 6437 0
-1715 -6424 0
-1715 -6425 0
-1715 -6426 0
-1715 -6427 0
-1715 -6428 0
-1715 -6429 0
-1715 -6430 0
-1715 -6431 0
-1715 -6432 0
-1715 -6433 0
-1715 -6434 0
-1715 -6435 0
-1715 -6436 0
-1715 -6437 0
-1203 1715 6424 6425 6426 6427 6428 6429 6430 6431 6432 6433 6434 6435 6436 6437 0
-1747 1235 0
-6438 772 0
-6438 1233 0
-772 -1233 6438 0
-6439 851 0
-6439 1237 0
-851 -1237 6439 0
-6440 883 0
-6440 1239 0
-883 -1239 6440 0
-6441 915 0
-6441 1241 0
-915 -1241 6441 0
-6442 947 0
-6442 1243 0
-947 -1243 6442 0
-6443 979 0
-6443 1245 0
-979 -1245 6443 0
-6444 1011 0
-6444 1247 0
-1011 -1247 6444 0
-6445 1043 0
-6445 1249 0
-1043 -1249 6445 0
-6446 1075 0
-6446 1251 0
-1075 -1251 6446 0
-6447 1107 0
-6447 1253 0
-1107 -1253 6447 0
-6448 1139 0
-6448 1255 0
-1139 -1255 6448 0
-6449 1171 0
-6449 1257 0
-1171 -1257 6449 0
-6450 1203 0
-6450 1259 0
-1203 -1259 6450 0
-6451 1267 0
-6451 1263 0
-1267 -1263 6451 0
-1747 -6438 0
-1747 -6439 0
-1747 -6440 0
-1747 -6441 0
-1747 -6442 0
-1747 -6443 0
-1747 -6444 0
-1747 -6445 0
-1747 -6446 0
-1747 -6447 0
-1747 -6448 0
-1747 -6449 0
-1747 -6450 0
-1747 -6451 0
-1235 1747 6438 6439 6440 6441 6442 6443 6444 6445 6446 6447 6448 6449 6450 6451 0
-1779 1267 0
-6452 772 0
-6452 1265 0
-772 -1265 6452 0
-6453 851 0
-6453 1269 0
-851 -1269 6453 0
-6454 883 0
-6454 1271 0
-883 -1271 6454 0
-6455 915 0
-6455 1273 0
-915 -1273 6455 0
-6456 947 0
-6456 1275 0
-947 -1275 6456 0
-6457 979 0
-6457 1277 0
-979 -1277 6457 0
-6458 1011 0
-6458 1279 0
-1011 -1279 6458 0
-6459 1043 0
-6459 1281 0
-1043 -1281 6459 0
-6460 1075 0
-6460 1283 0
-1075 -1283 6460 0
-6461 1107 0
-6461 1285 0
-1107 -1285 6461 0
-6462 1139 0
-6462 1287 0
-1139 -1287 6462 0
-6463 1171 0
-6463 1289 0
-1171 -1289 6463 0
-6464 1203 0
-6464 1291 0
-1203 -1291 6464 0
-6465 1235 0
-6465 1293 0
-1235 -1293 6465 0
-1779 -6452 0
-1779 -6453 0
-1779 -6454 0
-1779 -6455 0
-1779 -6456 0
-1779 -6457 0
-1779 -6458 0
-1779 -6459 0
-1779 -6460 0
-1779 -6461 0
-1779 -6462 0
-1779 -6463 0
-1779 -6464 0
-1779 -6465 0
-1267 1779 6452 6453 6454 6455 6456 6457 6458 6459 6460 6461 6462 6463 6464 6465 0
-1301 775 0
-6466 821 0
-6466 772 0
-821 -772 6466 0
-6467 885 0
-6467 778 0
-885 -778 6467 0
-6468 917 0
-6468 781 0
-917 -781 6468 0
-6469 949 0
-6469 784 0
-949 -784 6469 0
-6470 981 0
-6470 787 0
-981 -787 6470 0
-6471 1013 0
-6471 790 0
-1013 -790 6471 0
-6472 1045 0
-6472 793 0
-1045 -793 6472 0
-6473 1077 0
-6473 796 0
-1077 -796 6473 0
-6474 1109 0
-6474 799 0
-1109 -799 6474 0
-6475 1141 0
-6475 802 0
-1141 -802 6475 0
-6476 1173 0
-6476 805 0
-1173 -805 6476 0
-6477 1205 0
-6477 808 0
-1205 -808 6477 0
-6478 1237 0
-6478 811 0
-1237 -811 6478 0
-6479 1269 0
-6479 814 0
-1269 -814 6479 0
-1301 -6466 0
-1301 -6467 0
-1301 -6468 0
-1301 -6469 0
-1301 -6470 0
-1301 -6471 0
-1301 -6472 0
-1301 -6473 0
-1301 -6474 0
-1301 -6475 0
-1301 -6476 0
-1301 -6477 0
-1301 -6478 0
-1301 -6479 0
-775 1301 6466 6467 6468 6469 6470 6471 6472 6473 6474 6475 6476 6477 6478 6479 0
-1333 821 0
-6480 775 0
-6480 817 0
-775 -817 6480 0
-6481 885 0
-6481 823 0
-885 -823 6481 0
-6482 917 0
-6482 825 0
-917 -825 6482 0
-6483 949 0
-6483 827 0
-949 -827 6483 0
-6484 981 0
-6484 829 0
-981 -829 6484 0
-6485 1013 0
-6485 831 0
-1013 -831 6485 0
-6486 1045 0
-6486 833 0
-1045 -833 6486 0
-6487 1077 0
-6487 835 0
-1077 -835 6487 0
-6488 1109 0
-6488 837 0
-1109 -837 6488 0
-6489 1141 0
-6489 839 0
-1141 -839 6489 0
-6490 1173 0
-6490 841 0
-1173 -841 6490 0
-6491 1205 0
-6491 843 0
-1205 -843 6491 0
-6492 1237 0
-6492 845 0
-1237 -845 6492 0
-6493 1269 0
-6493 847 0
-1269 -847 6493 0
-1333 -6480 0
-1333 -6481 0
-1333 -6482 0
-1333 -6483 0
-1333 -6484 0
-1333 -6485 0
-1333 -6486 0
-1333 -6487 0
-1333 -6488 0
-1333 -6489 0
-1333 -6490 0
-1333 -6491 0
-1333 -6492 0
-1333 -6493 0
-821 1333 6480 6481 6482 6483 6484 6485 6486 6487 6488 6489 6490 6491 6492 6493 0
-1365 0
-1397 885 0
-6494 775 0
-6494 881 0
-775 -881 6494 0
-6495 821 0
-6495 883 0
-821 -883 6495 0
-6496 917 0
-6496 889 0
-917 -889 6496 0
-6497 949 0
-6497 891 0
-949 -891 6497 0
-6498 981 0
-6498 893 0
-981 -893 6498 0
-6499 1013 0
-6499 895 0
-1013 -895 6499 0
-6500 1045 0
-6500 897 0
-1045 -897 6500 0
-6501 1077 0
-6501 899 0
-1077 -899 6501 0
-6502 1109 0
-6502 901 0
-1109 -901 6502 0
-6503 1141 0
-6503 903 0
-1141 -903 6503 0
-6504 1173 0
-6504 905 0
-1173 -905 6504 0
-6505 1205 0
-6505 907 0
-1205 -907 6505 0
-6506 1237 0
-6506 909 0
-1237 -909 6506 0
-6507 1269 0
-6507 911 0
-1269 -911 6507 0
-1397 -6494 0
-1397 -6495 0
-1397 -6496 0
-1397 -6497 0
-1397 -6498 0
-1397 -6499 0
-1397 -6500 0
-1397 -6501 0
-1397 -6502 0
-1397 -6503 0
-1397 -6504 0
-1397 -6505 0
-1397 -6506 0
-1397 -6507 0
-885 1397 6494 6495 6496 6497 6498 6499 6500 6501 6502 6503 6504 6505 6506 6507 0
-1429 917 0
-6508 775 0
-6508 913 0
-775 -913 6508 0
-6509 821 0
-6509 915 0
-821 -915 6509 0
-6510 885 0
-6510 919 0
-885 -919 6510 0
-6511 949 0
-6511 923 0
-949 -923 6511 0
-6512 981 0
-6512 925 0
-981 -925 6512 0
-6513 1013 0
-6513 927 0
-1013 -927 6513 0
-6514 1045 0
-6514 929 0
-1045 -929 6514 0
-6515 1077 0
-6515 931 0
-1077 -931 6515 0
-6516 1109 0
-6516 933 0
-1109 -933 6516 0
-6517 1141 0
-6517 935 0
-1141 -935 6517 0
-6518 1173 0
-6518 937 0
-1173 -937 6518 0
-6519 1205 0
-6519 939 0
-1205 -939 6519 0
-6520 1237 0
-6520 941 0
-1237 -941 6520 0
-6521 1269 0
-6521 943 0
-1269 -943 6521 0
-1429 -6508 0
-1429 -6509 0
-1429 -6510 0
-1429 -6511 0
-1429 -6512 0
-1429 -6513 0
-1429 -6514 0
-1429 -6515 0
-1429 -6516 0
-1429 -6517 0
-1429 -6518 0
-1429 -6519 0
-1429 -6520 0
-1429 -6521 0
-917 1429 6508 6509 6510 6511 6512 6513 6514 6515 6516 6517 6518 6519 6520 6521 0
-1461 949 0
-6522 775 0
-6522 945 0
-775 -945 6522 0
-6523 821 0
-6523 947 0
-821 -947 6523 0
-6524 885 0
-6524 951 0
-885 -951 6524 0
-6525 917 0
-6525 953 0
-917 -953 6525 0
-6526 981 0
-6526 957 0
-981 -957 6526 0
-6527 1013 0
-6527 959 0
-1013 -959 6527 0
-6528 1045 0
-6528 961 0
-1045 -961 6528 0
-6529 1077 0
-6529 963 0
-1077 -963 6529 0
-6530 1109 0
-6530 965 0
-1109 -965 6530 0
-6531 1141 0
-6531 967 0
-1141 -967 6531 0
-6532 1173 0
-6532 969 0
-1173 -969 6532 0
-6533 1205 0
-6533 971 0
-1205 -971 6533 0
-6534 1237 0
-6534 973 0
-1237 -973 6534 0
-6535 1269 0
-6535 975 0
-1269 -975 6535 0
-1461 -6522 0
-1461 -6523 0
-1461 -6524 0
-1461 -6525 0
-1461 -6526 0
-1461 -6527 0
-1461 -6528 0
-1461 -6529 0
-1461 -6530 0
-1461 -6531 0
-1461 -6532 0
-1461 -6533 0
-1461 -6534 0
-1461 -6535 0
-949 1461 6522 6523 6524 6525 6526 6527 6528 6529 6530 6531 6532 6533 6534 6535 0
-1493 981 0
-6536 775 0
-6536 977 0
-775 -977 6536 0
-6537 821 0
-6537 979 0
-821 -979 6537 0
-6538 885 0
-6538 983 0
-885 -983 6538 0
-6539 917 0
-6539 985 0
-917 -985 6539 0
-6540 949 0
-6540 987 0
-949 -987 6540 0
-6541 1013 0
-6541 991 0
-1013 -991 6541 0
-6542 1045 0
-6542 993 0
-1045 -993 6542 0
-6543 1077 0
-6543 995 0
-1077 -995 6543 0
-6544 1109 0
-6544 997 0
-1109 -997 6544 0
-6545 1141 0
-6545 999 0
-1141 -999 6545 0
-6546 1173 0
-6546 1001 0
-1173 -1001 6546 0
-6547 1205 0
-6547 1003 0
-1205 -1003 6547 0
-6548 1237 0
-6548 1005 0
-1237 -1005 6548 0
-6549 1269 0
-6549 1007 0
-1269 -1007 6549 0
-1493 -6536 0
-1493 -6537 0
-1493 -6538 0
-1493 -6539 0
-1493 -6540 0
-1493 -6541 0
-1493 -6542 0
-1493 -6543 0
-1493 -6544 0
-1493 -6545 0
-1493 -6546 0
-1493 -6547 0
-1493 -6548 0
-1493 -6549 0
-981 1493 6536 6537 6538 6539 6540 6541 6542 6543 6544 6545 6546 6547 6548 6549 0
-1525 1013 0
-6550 775 0
-6550 1009 0
-775 -1009 6550 0
-6551 821 0
-6551 1011 0
-821 -1011 6551 0
-6552 885 0
-6552 1015 0
-885 -1015 6552 0
-6553 917 0
-6553 1017 0
-917 -1017 6553 0
-6554 949 0
-6554 1019 0
-949 -1019 6554 0
-6555 981 0
-6555 1021 0
-981 -1021 6555 0
-6556 1045 0
-6556 1025 0
-1045 -1025 6556 0
-6557 1077 0
-6557 1027 0
-1077 -1027 6557 0
-6558 1109 0
-6558 1029 0
-1109 -1029 6558 0
-6559 1141 0
-6559 1031 0
-1141 -1031 6559 0
-6560 1173 0
-6560 1033 0
-1173 -1033 6560 0
-6561 1205 0
-6561 1035 0
-1205 -1035 6561 0
-6562 1237 0
-6562 1037 0
-1237 -1037 6562 0
-6563 1269 0
-6563 1039 0
-1269 -1039 6563 0
-1525 -6550 0
-1525 -6551 0
-1525 -6552 0
-1525 -6553 0
-1525 -6554 0
-1525 -6555 0
-1525 -6556 0
-1525 -6557 0
-1525 -6558 0
-1525 -6559 0
-1525 -6560 0
-1525 -6561 0
-1525 -6562 0
-1525 -6563 0
-1013 1525 6550 6551 6552 6553 6554 6555 6556 6557 6558 6559 6560 6561 6562 6563 0
-1557 1045 0
-6564 775 0
-6564 1041 0
-775 -1041 6564 0
-6565 821 0
-6565 1043 0
-821 -1043 6565 0
-6566 885 0
-6566 1047 0
-885 -1047 6566 0
-6567 917 0
-6567 1049 0
-917 -1049 6567 0
-6568 949 0
-6568 1051 0
-949 -1051 6568 0
-6569 981 0
-6569 1053 0
-981 -1053 6569 0
-6570 1013 0
-6570 1055 0
-1013 -1055 6570 0
-6571 1077 0
-6571 1059 0
-1077 -1059 6571 0
-6572 1109 0
-6572 1061 0
-1109 -1061 6572 0
-6573 1141 0
-6573 1063 0
-1141 -1063 6573 0
-6574 1173 0
-6574 1065 0
-1173 -1065 6574 0
-6575 1205 0
-6575 1067 0
-1205 -1067 6575 0
-6576 1237 0
-6576 1069 0
-1237 -1069 6576 0
-6577 1269 0
-6577 1071 0
-1269 -1071 6577 0
-1557 -6564 0
-1557 -6565 0
-1557 -6566 0
-1557 -6567 0
-1557 -6568 0
-1557 -6569 0
-1557 -6570 0
-1557 -6571 0
-1557 -6572 0
-1557 -6573 0
-1557 -6574 0
-1557 -6575 0
-1557 -6576 0
-1557 -6577 0
-1045 1557 6564 6565 6566 6567 6568 6569 6570 6571 6572 6573 6574 6575 6576 6577 0
-1589 1077 0
-6578 775 0
-6578 1073 0
-775 -1073 6578 0
-6579 821 0
-6579 1075 0
-821 -1075 6579 0
-6580 885 0
-6580 1079 0
-885 -1079 6580 0
-6581 917 0
-6581 1081 0
-917 -1081 6581 0
-6582 949 0
-6582 1083 0
-949 -1083 6582 0
-6583 981 0
-6583 1085 0
-981 -1085 6583 0
-6584 1013 0
-6584 1087 0
-1013 -1087 6584 0
-6585 1045 0
-6585 1089 0
-1045 -1089 6585 0
-6586 1109 0
-6586 1093 0
-1109 -1093 6586 0
-6587 1141 0
-6587 1095 0
-1141 -1095 6587 0
-6588 1173 0
-6588 1097 0
-1173 -1097 6588 0
-6589 1205 0
-6589 1099 0
-1205 -1099 6589 0
-6590 1237 0
-6590 1101 0
-1237 -1101 6590 0
-6591 1269 0
-6591 1103 0
-1269 -1103 6591 0
-1589 -6578 0
-1589 -6579 0
-1589 -6580 0
-1589 -6581 0
-1589 -6582 0
-1589 -6583 0
-1589 -6584 0
-1589 -6585 0
-1589 -6586 0
-1589 -6587 0
-1589 -6588 0
-1589 -6589 0
-1589 -6590 0
-1589 -6591 0
-1077 1589 6578 6579 6580 6581 6582 6583 6584 6585 6586 6587 6588 6589 6590 6591 0
-1621 1109 0
-6592 775 0
-6592 1105 0
-775 -1105 6592 0
-6593 821 0
-6593 1107 0
-821 -1107 6593 0
-6594 885 0
-6594 1111 0
-885 -1111 6594 0
-6595 917 0
-6595 1113 0
-917 -1113 6595 0
-6596 949 0
-6596 1115 0
-949 -1115 6596 0
-6597 981 0
-6597 1117 0
-981 -1117 6597 0
-6598 1013 0
-6598 1119 0
-1013 -1119 6598 0
-6599 1045 0
-6599 1121 0
-1045 -1121 6599 0
-6600 1077 0
-6600 1123 0
-1077 -1123 6600 0
-6601 1141 0
-6601 1127 0
-1141 -1127 6601 0
-6602 1173 0
-6602 1129 0
-1173 -1129 6602 0
-6603 1205 0
-6603 1131 0
-1205 -1131 6603 0
-6604 1237 0
-6604 1133 0
-1237 -1133 6604 0
-6605 1269 0
-6605 1135 0
-1269 -1135 6605 0
-1621 -6592 0
-1621 -6593 0
-1621 -6594 0
-1621 -6595 0
-1621 -6596 0
-1621 -6597 0
-1621 -6598 0
-1621 -6599 0
-1621 -6600 0
-1621 -6601 0
-1621 -6602 0
-1621 -6603 0
-1621 -6604 0
-1621 -6605 0
-1109 1621 6592 6593 6594 6595 6596 6597 6598 6599 6600 6601 6602 6603 6604 6605 0
-1653 1141 0
-6606 775 0
-6606 1137 0
-775 -1137 6606 0
-6607 821 0
-6607 1139 0
-821 -1139 6607 0
-6608 885 0
-6608 1143 0
-885 -1143 6608 0
-6609 917 0
-6609 1145 0
-917 -1145 6609 0
-6610 949 0
-6610 1147 0
-949 -1147 6610 0
-6611 981 0
-6611 1149 0
-981 -1149 6611 0
-6612 1013 0
-6612 1151 0
-1013 -1151 6612 0
-6613 1045 0
-6613 1153 0
-1045 -1153 6613 0
-6614 1077 0
-6614 1155 0
-1077 -1155 6614 0
-6615 1109 0
-6615 1157 0
-1109 -1157 6615 0
-6616 1173 0
-6616 1161 0
-1173 -1161 6616 0
-6617 1205 0
-6617 1163 0
-1205 -1163 6617 0
-6618 1237 0
-6618 1165 0
-1237 -1165 6618 0
-6619 1269 0
-6619 1167 0
-1269 -1167 6619 0
-1653 -6606 0
-1653 -6607 0
-1653 -6608 0
-1653 -6609 0
-1653 -6610 0
-1653 -6611 0
-1653 -6612 0
-1653 -6613 0
-1653 -6614 0
-1653 -6615 0
-1653 -6616 0
-1653 -6617 0
-1653 -6618 0
-1653 -6619 0
-1141 1653 6606 6607 6608 6609 6610 6611 6612 6613 6614 6615 6616 6617 6618 6619 0
-1685 1173 0
-6620 775 0
-6620 1169 0
-775 -1169 6620 0
-6621 821 0
-6621 1171 0
-821 -1171 6621 0
-6622 885 0
-6622 1175 0
-885 -1175 6622 0
-6623 917 0
-6623 1177 0
-917 -1177 6623 0
-6624 949 0
-6624 1179 0
-949 -1179 6624 0
-6625 981 0
-6625 1181 0
-981 -1181 6625 0
-6626 1013 0
-6626 1183 0
-1013 -1183 6626 0
-6627 1045 0
-6627 1185 0
-1045 -1185 6627 0
-6628 1077 0
-6628 1187 0
-1077 -1187 6628 0
-6629 1109 0
-6629 1189 0
-1109 -1189 6629 0
-6630 1141 0
-6630 1191 0
-1141 -1191 6630 0
-6631 1205 0
-6631 1195 0
-1205 -1195 6631 0
-6632 1237 0
-6632 1197 0
-1237 -1197 6632 0
-6633 1269 0
-6633 1199 0
-1269 -1199 6633 0
-1685 -6620 0
-1685 -6621 0
-1685 -6622 0
-1685 -6623 0
-1685 -6624 0
-1685 -6625 0
-1685 -6626 0
-1685 -6627 0
-1685 -6628 0
-1685 -6629 0
-1685 -6630 0
-1685 -6631 0
-1685 -6632 0
-1685 -6633 0
-1173 1685 6620 6621 6622 6623 6624 6625 6626 6627 6628 6629 6630 6631 6632 6633 0
-1717 1205 0
-6634 775 0
-6634 1201 0
-775 -1201 6634 0
-6635 821 0
-6635 1203 0
-821 -1203 6635 0
-6636 885 0
-6636 1207 0
-885 -1207 6636 0
-6637 917 0
-6637 1209 0
-917 -1209 6637 0
-6638 949 0
-6638 1211 0
-949 -1211 6638 0
-6639 981 0
-6639 1213 0
-981 -1213 6639 0
-6640 1013 0
-6640 1215 0
-1013 -1215 6640 0
-6641 1045 0
-6641 1217 0
-1045 -1217 6641 0
-6642 1077 0
-6642 1219 0
-1077 -1219 6642 0
-6643 1109 0
-6643 1221 0
-1109 -1221 6643 0
-6644 1141 0
-6644 1223 0
-1141 -1223 6644 0
-6645 1173 0
-6645 1225 0
-1173 -1225 6645 0
-6646 1237 0
-6646 1229 0
-1237 -1229 6646 0
-6647 1269 0
-6647 1231 0
-1269 -1231 6647 0
-1717 -6634 0
-1717 -6635 0
-1717 -6636 0
-1717 -6637 0
-1717 -6638 0
-1717 -6639 0
-1717 -6640 0
-1717 -6641 0
-1717 -6642 0
-1717 -6643 0
-1717 -6644 0
-1717 -6645 0
-1717 -6646 0
-1717 -6647 0
-1205 1717 6634 6635 6636 6637 6638 6639 6640 6641 6642 6643 6644 6645 6646 6647 0
-1749 1237 0
-6648 775 0
-6648 1233 0
-775 -1233 6648 0
-6649 821 0
-6649 1235 0
-821 -1235 6649 0
-6650 885 0
-6650 1239 0
-885 -1239 6650 0
-6651 917 0
-6651 1241 0
-917 -1241 6651 0
-6652 949 0
-6652 1243 0
-949 -1243 6652 0
-6653 981 0
-6653 1245 0
-981 -1245 6653 0
-6654 1013 0
-6654 1247 0
-1013 -1247 6654 0
-6655 1045 0
-6655 1249 0
-1045 -1249 6655 0
-6656 1077 0
-6656 1251 0
-1077 -1251 6656 0
-6657 1109 0
-6657 1253 0
-1109 -1253 6657 0
-6658 1141 0
-6658 1255 0
-1141 -1255 6658 0
-6659 1173 0
-6659 1257 0
-1173 -1257 6659 0
-6660 1205 0
-6660 1259 0
-1205 -1259 6660 0
-6661 1269 0
-6661 1263 0
-1269 -1263 6661 0
-1749 -6648 0
-1749 -6649 0
-1749 -6650 0
-1749 -6651 0
-1749 -6652 0
-1749 -6653 0
-1749 -6654 0
-1749 -6655 0
-1749 -6656 0
-1749 -6657 0
-1749 -6658 0
-1749 -6659 0
-1749 -6660 0
-1749 -6661 0
-1237 1749 6648 6649 6650 6651 6652 6653 6654 6655 6656 6657 6658 6659 6660 6661 0
-1781 1269 0
-6662 775 0
-6662 1265 0
-775 -1265 6662 0
-6663 821 0
-6663 1267 0
-821 -1267 6663 0
-6664 885 0
-6664 1271 0
-885 -1271 6664 0
-6665 917 0
-6665 1273 0
-917 -1273 6665 0
-6666 949 0
-6666 1275 0
-949 -1275 6666 0
-6667 981 0
-6667 1277 0
-981 -1277 6667 0
-6668 1013 0
-6668 1279 0
-1013 -1279 6668 0
-6669 1045 0
-6669 1281 0
-1045 -1281 6669 0
-6670 1077 0
-6670 1283 0
-1077 -1283 6670 0
-6671 1109 0
-6671 1285 0
-1109 -1285 6671 0
-6672 1141 0
-6672 1287 0
-1141 -1287 6672 0
-6673 1173 0
-6673 1289 0
-1173 -1289 6673 0
-6674 1205 0
-6674 1291 0
-1205 -1291 6674 0
-6675 1237 0
-6675 1293 0
-1237 -1293 6675 0
-1781 -6662 0
-1781 -6663 0
-1781 -6664 0
-1781 -6665 0
-1781 -6666 0
-1781 -6667 0
-1781 -6668 0
-1781 -6669 0
-1781 -6670 0
-1781 -6671 0
-1781 -6672 0
-1781 -6673 0
-1781 -6674 0
-1781 -6675 0
-1269 1781 6662 6663 6664 6665 6666 6667 6668 6669 6670 6671 6672 6673 6674 6675 0
-1303 778 0
-6676 823 0
-6676 772 0
-823 -772 6676 0
-6677 855 0
-6677 775 0
-855 -775 6677 0
-6678 919 0
-6678 781 0
-919 -781 6678 0
-6679 951 0
-6679 784 0
-951 -784 6679 0
-6680 983 0
-6680 787 0
-983 -787 6680 0
-6681 1015 0
-6681 790 0
-1015 -790 6681 0
-6682 1047 0
-6682 793 0
-1047 -793 6682 0
-6683 1079 0
-6683 796 0
-1079 -796 6683 0
-6684 1111 0
-6684 799 0
-1111 -799 6684 0
-6685 1143 0
-6685 802 0
-1143 -802 6685 0
-6686 1175 0
-6686 805 0
-1175 -805 6686 0
-6687 1207 0
-6687 808 0
-1207 -808 6687 0
-6688 1239 0
-6688 811 0
-1239 -811 6688 0
-6689 1271 0
-6689 814 0
-1271 -814 6689 0
-1303 -6676 0
-1303 -6677 0
-1303 -6678 0
-1303 -6679 0
-1303 -6680 0
-1303 -6681 0
-1303 -6682 0
-1303 -6683 0
-1303 -6684 0
-1303 -6685 0
-1303 -6686 0
-1303 -6687 0
-1303 -6688 0
-1303 -6689 0
-778 1303 6676 6677 6678 6679 6680 6681 6682 6683 6684 6685 6686 6687 6688 6689 0
-1335 823 0
-6690 778 0
-6690 817 0
-778 -817 6690 0
-6691 855 0
-6691 821 0
-855 -821 6691 0
-6692 919 0
-6692 825 0
-919 -825 6692 0
-6693 951 0
-6693 827 0
-951 -827 6693 0
-6694 983 0
-6694 829 0
-983 -829 6694 0
-6695 1015 0
-6695 831 0
-1015 -831 6695 0
-6696 1047 0
-6696 833 0
-1047 -833 6696 0
-6697 1079 0
-6697 835 0
-1079 -835 6697 0
-6698 1111 0
-6698 837 0
-1111 -837 6698 0
-6699 1143 0
-6699 839 0
-1143 -839 6699 0
-6700 1175 0
-6700 841 0
-1175 -841 6700 0
-6701 1207 0
-6701 843 0
-1207 -843 6701 0
-6702 1239 0
-6702 845 0
-1239 -845 6702 0
-6703 1271 0
-6703 847 0
-1271 -847 6703 0
-1335 -6690 0
-1335 -6691 0
-1335 -6692 0
-1335 -6693 0
-1335 -6694 0
-1335 -6695 0
-1335 -6696 0
-1335 -6697 0
-1335 -6698 0
-1335 -6699 0
-1335 -6700 0
-1335 -6701 0
-1335 -6702 0
-1335 -6703 0
-823 1335 6690 6691 6692 6693 6694 6695 6696 6697 6698 6699 6700 6701 6702 6703 0
-1367 855 0
-6704 778 0
-6704 849 0
-778 -849 6704 0
-6705 823 0
-6705 851 0
-823 -851 6705 0
-6706 919 0
-6706 857 0
-919 -857 6706 0
-6707 951 0
-6707 859 0
-951 -859 6707 0
-6708 983 0
-6708 861 0
-983 -861 6708 0
-6709 1015 0
-6709 863 0
-1015 -863 6709 0
-6710 1047 0
-6710 865 0
-1047 -865 6710 0
-6711 1079 0
-6711 867 0
-1079 -867 6711 0
-6712 1111 0
-6712 869 0
-1111 -869 6712 0
-6713 1143 0
-6713 871 0
-1143 -871 6713 0
-6714 1175 0
-6714 873 0
-1175 -873 6714 0
-6715 1207 0
-6715 875 0
-1207 -875 6715 0
-6716 1239 0
-6716 877 0
-1239 -877 6716 0
-6717 1271 0
-6717 879 0
-1271 -879 6717 0
-1367 -6704 0
-1367 -6705 0
-1367 -6706 0
-1367 -6707 0
-1367 -6708 0
-1367 -6709 0
-1367 -6710 0
-1367 -6711 0
-1367 -6712 0
-1367 -6713 0
-1367 -6714 0
-1367 -6715 0
-1367 -6716 0
-1367 -6717 0
-855 1367 6704 6705 6706 6707 6708 6709 6710 6711 6712 6713 6714 6715 6716 6717 0
-1399 0
-1431 919 0
-6718 778 0
-6718 913 0
-778 -913 6718 0
-6719 823 0
-6719 915 0
-823 -915 6719 0
-6720 855 0
-6720 917 0
-855 -917 6720 0
-6721 951 0
-6721 923 0
-951 -923 6721 0
-6722 983 0
-6722 925 0
-983 -925 6722 0
-6723 1015 0
-6723 927 0
-1015 -927 6723 0
-6724 1047 0
-6724 929 0
-1047 -929 6724 0
-6725 1079 0
-6725 931 0
-1079 -931 6725 0
-6726 1111 0
-6726 933 0
-1111 -933 6726 0
-6727 1143 0
-6727 935 0
-1143 -935 6727 0
-6728 1175 0
-6728 937 0
-1175 -937 6728 0
-6729 1207 0
-6729 939 0
-1207 -939 6729 0
-6730 1239 0
-6730 941 0
-1239 -941 6730 0
-6731 1271 0
-6731 943 0
-1271 -943 6731 0
-1431 -6718 0
-1431 -6719 0
-1431 -6720 0
-1431 -6721 0
-1431 -6722 0
-1431 -6723 0
-1431 -6724 0
-1431 -6725 0
-1431 -6726 0
-1431 -6727 0
-1431 -6728 0
-1431 -6729 0
-1431 -6730 0
-1431 -6731 0
-919 1431 6718 6719 6720 6721 6722 6723 6724 6725 6726 6727 6728 6729 6730 6731 0
-1463 951 0
-6732 778 0
-6732 945 0
-778 -945 6732 0
-6733 823 0
-6733 947 0
-823 -947 6733 0
-6734 855 0
-6734 949 0
-855 -949 6734 0
-6735 919 0
-6735 953 0
-919 -953 6735 0
-6736 983 0
-6736 957 0
-983 -957 6736 0
-6737 1015 0
-6737 959 0
-1015 -959 6737 0
-6738 1047 0
-6738 961 0
-1047 -961 6738 0
-6739 1079 0
-6739 963 0
-1079 -963 6739 0
-6740 1111 0
-6740 965 0
-1111 -965 6740 0
-6741 1143 0
-6741 967 0
-1143 -967 6741 0
-6742 1175 0
-6742 969 0
-1175 -969 6742 0
-6743 1207 0
-6743 971 0
-1207 -971 6743 0
-6744 1239 0
-6744 973 0
-1239 -973 6744 0
-6745 1271 0
-6745 975 0
-1271 -975 6745 0
-1463 -6732 0
-1463 -6733 0
-1463 -6734 0
-1463 -6735 0
-1463 -6736 0
-1463 -6737 0
-1463 -6738 0
-1463 -6739 0
-1463 -6740 0
-1463 -6741 0
-1463 -6742 0
-1463 -6743 0
-1463 -6744 0
-1463 -6745 0
-951 1463 6732 6733 6734 6735 6736 6737 6738 6739 6740 6741 6742 6743 6744 6745 0
-1495 983 0
-6746 778 0
-6746 977 0
-778 -977 6746 0
-6747 823 0
-6747 979 0
-823 -979 6747 0
-6748 855 0
-6748 981 0
-855 -981 6748 0
-6749 919 0
-6749 985 0
-919 -985 6749 0
-6750 951 0
-6750 987 0
-951 -987 6750 0
-6751 1015 0
-6751 991 0
-1015 -991 6751 0
-6752 1047 0
-6752 993 0
-1047 -993 6752 0
-6753 1079 0
-6753 995 0
-1079 -995 6753 0
-6754 1111 0
-6754 997 0
-1111 -997 6754 0
-6755 1143 0
-6755 999 0
-1143 -999 6755 0
-6756 1175 0
-6756 1001 0
-1175 -1001 6756 0
-6757 1207 0
-6757 1003 0
-1207 -1003 6757 0
-6758 1239 0
-6758 1005 0
-1239 -1005 6758 0
-6759 1271 0
-6759 1007 0
-1271 -1007 6759 0
-1495 -6746 0
-1495 -6747 0
-1495 -6748 0
-1495 -6749 0
-1495 -6750 0
-1495 -6751 0
-1495 -6752 0
-1495 -6753 0
-1495 -6754 0
-1495 -6755 0
-1495 -6756 0
-1495 -6757 0
-1495 -6758 0
-1495 -6759 0
-983 1495 6746 6747 6748 6749 6750 6751 6752 6753 6754 6755 6756 6757 6758 6759 0
-1527 1015 0
-6760 778 0
-6760 1009 0
-778 -1009 6760 0
-6761 823 0
-6761 1011 0
-823 -1011 6761 0
-6762 855 0
-6762 1013 0
-855 -1013 6762 0
-6763 919 0
-6763 1017 0
-919 -1017 6763 0
-6764 951 0
-6764 1019 0
-951 -1019 6764 0
-6765 983 0
-6765 1021 0
-983 -1021 6765 0
-6766 1047 0
-6766 1025 0
-1047 -1025 6766 0
-6767 1079 0
-6767 1027 0
-1079 -1027 6767 0
-6768 1111 0
-6768 1029 0
-1111 -1029 6768 0
-6769 1143 0
-6769 1031 0
-1143 -1031 6769 0
-6770 1175 0
-6770 1033 0
-1175 -1033 6770 0
-6771 1207 0
-6771 1035 0
-1207 -1035 6771 0
-6772 1239 0
-6772 1037 0
-1239 -1037 6772 0
-6773 1271 0
-6773 1039 0
-1271 -1039 6773 0
-1527 -6760 0
-1527 -6761 0
-1527 -6762 0
-1527 -6763 0
-1527 -6764 0
-1527 -6765 0
-1527 -6766 0
-1527 -6767 0
-1527 -6768 0
-1527 -6769 0
-1527 -6770 0
-1527 -6771 0
-1527 -6772 0
-1527 -6773 0
-1015 1527 6760 6761 6762 6763 6764 6765 6766 6767 6768 6769 6770 6771 6772 6773 0
-1559 1047 0
-6774 778 0
-6774 1041 0
-778 -1041 6774 0
-6775 823 0
-6775 1043 0
-823 -1043 6775 0
-6776 855 0
-6776 1045 0
-855 -1045 6776 0
-6777 919 0
-6777 1049 0
-919 -1049 6777 0
-6778 951 0
-6778 1051 0
-951 -1051 6778 0
-6779 983 0
-6779 1053 0
-983 -1053 6779 0
-6780 1015 0
-6780 1055 0
-1015 -1055 6780 0
-6781 1079 0
-6781 1059 0
-1079 -1059 6781 0
-6782 1111 0
-6782 1061 0
-1111 -1061 6782 0
-6783 1143 0
-6783 1063 0
-1143 -1063 6783 0
-6784 1175 0
-6784 1065 0
-1175 -1065 6784 0
-6785 1207 0
-6785 1067 0
-1207 -1067 6785 0
-6786 1239 0
-6786 1069 0
-1239 -1069 6786 0
-6787 1271 0
-6787 1071 0
-1271 -1071 6787 0
-1559 -6774 0
-1559 -6775 0
-1559 -6776 0
-1559 -6777 0
-1559 -6778 0
-1559 -6779 0
-1559 -6780 0
-1559 -6781 0
-1559 -6782 0
-1559 -6783 0
-1559 -6784 0
-1559 -6785 0
-1559 -6786 0
-1559 -6787 0
-1047 1559 6774 6775 6776 6777 6778 6779 6780 6781 6782 6783 6784 6785 6786 6787 0
-1591 1079 0
-6788 778 0
-6788 1073 0
-778 -1073 6788 0
-6789 823 0
-6789 1075 0
-823 -1075 6789 0
-6790 855 0
-6790 1077 0
-855 -1077 6790 0
-6791 919 0
-6791 1081 0
-919 -1081 6791 0
-6792 951 0
-6792 1083 0
-951 -1083 6792 0
-6793 983 0
-6793 1085 0
-983 -1085 6793 0
-6794 1015 0
-6794 1087 0
-1015 -1087 6794 0
-6795 1047 0
-6795 1089 0
-1047 -1089 6795 0
-6796 1111 0
-6796 1093 0
-1111 -1093 6796 0
-6797 1143 0
-6797 1095 0
-1143 -1095 6797 0
-6798 1175 0
-6798 1097 0
-1175 -1097 6798 0
-6799 1207 0
-6799 1099 0
-1207 -1099 6799 0
-6800 1239 0
-6800 1101 0
-1239 -1101 6800 0
-6801 1271 0
-6801 1103 0
-1271 -1103 6801 0
-1591 -6788 0
-1591 -6789 0
-1591 -6790 0
-1591 -6791 0
-1591 -6792 0
-1591 -6793 0
-1591 -6794 0
-1591 -6795 0
-1591 -6796 0
-1591 -6797 0
-1591 -6798 0
-1591 -6799 0
-1591 -6800 0
-1591 -6801 0
-1079 1591 6788 6789 6790 6791 6792 6793 6794 6795 6796 6797 6798 6799 6800 6801 0
-1623 1111 0
-6802 778 0
-6802 1105 0
-778 -1105 6802 0
-6803 823 0
-6803 1107 0
-823 -1107 6803 0
-6804 855 0
-6804 1109 0
-855 -1109 6804 0
-6805 919 0
-6805 1113 0
-919 -1113 6805 0
-6806 951 0
-6806 1115 0
-951 -1115 6806 0
-6807 983 0
-6807 1117 0
-983 -1117 6807 0
-6808 1015 0
-6808 1119 0
-1015 -1119 6808 0
-6809 1047 0
-6809 1121 0
-1047 -1121 6809 0
-6810 1079 0
-6810 1123 0
-1079 -1123 6810 0
-6811 1143 0
-6811 1127 0
-1143 -1127 6811 0
-6812 1175 0
-6812 1129 0
-1175 -1129 6812 0
-6813 1207 0
-6813 1131 0
-1207 -1131 6813 0
-6814 1239 0
-6814 1133 0
-1239 -1133 6814 0
-6815 1271 0
-6815 1135 0
-1271 -1135 6815 0
-1623 -6802 0
-1623 -6803 0
-1623 -6804 0
-1623 -6805 0
-1623 -6806 0
-1623 -6807 0
-1623 -6808 0
-1623 -6809 0
-1623 -6810 0
-1623 -6811 0
-1623 -6812 0
-1623 -6813 0
-1623 -6814 0
-1623 -6815 0
-1111 1623 6802 6803 6804 6805 6806 6807 6808 6809 6810 6811 6812 6813 6814 6815 0
-1655 1143 0
-6816 778 0
-6816 1137 0
-778 -1137 6816 0
-6817 823 0
-6817 1139 0
-823 -1139 6817 0
-6818 855 0
-6818 1141 0
-855 -1141 6818 0
-6819 919 0
-6819 1145 0
-919 -1145 6819 0
-6820 951 0
-6820 1147 0
-951 -1147 6820 0
-6821 983 0
-6821 1149 0
-983 -1149 6821 0
-6822 1015 0
-6822 1151 0
-1015 -1151 6822 0
-6823 1047 0
-6823 1153 0
-1047 -1153 6823 0
-6824 1079 0
-6824 1155 0
-1079 -1155 6824 0
-6825 1111 0
-6825 1157 0
-1111 -1157 6825 0
-6826 1175 0
-6826 1161 0
-1175 -1161 6826 0
-6827 1207 0
-6827 1163 0
-1207 -1163 6827 0
-6828 1239 0
-6828 1165 0
-1239 -1165 6828 0
-6829 1271 0
-6829 1167 0
-1271 -1167 6829 0
-1655 -6816 0
-1655 -6817 0
-1655 -6818 0
-1655 -6819 0
-1655 -6820 0
-1655 -6821 0
-1655 -6822 0
-1655 -6823 0
-1655 -6824 0
-1655 -6825 0
-1655 -6826 0
-1655 -6827 0
-1655 -6828 0
-1655 -6829 0
-1143 1655 6816 6817 6818 6819 6820 6821 6822 6823 6824 6825 6826 6827 6828 6829 0
-1687 1175 0
-6830 778 0
-6830 1169 0
-778 -1169 6830 0
-6831 823 0
-6831 1171 0
-823 -1171 6831 0
-6832 855 0
-6832 1173 0
-855 -1173 6832 0
-6833 919 0
-6833 1177 0
-919 -1177 6833 0
-6834 951 0
-6834 1179 0
-951 -1179 6834 0
-6835 983 0
-6835 1181 0
-983 -1181 6835 0
-6836 1015 0
-6836 1183 0
-1015 -1183 6836 0
-6837 1047 0
-6837 1185 0
-1047 -1185 6837 0
-6838 1079 0
-6838 1187 0
-1079 -1187 6838 0
-6839 1111 0
-6839 1189 0
-1111 -1189 6839 0
-6840 1143 0
-6840 1191 0
-1143 -1191 6840 0
-6841 1207 0
-6841 1195 0
-1207 -1195 6841 0
-6842 1239 0
-6842 1197 0
-1239 -1197 6842 0
-6843 1271 0
-6843 1199 0
-1271 -1199 6843 0
-1687 -6830 0
-1687 -6831 0
-1687 -6832 0
-1687 -6833 0
-1687 -6834 0
-1687 -6835 0
-1687 -6836 0
-1687 -6837 0
-1687 -6838 0
-1687 -6839 0
-1687 -6840 0
-1687 -6841 0
-1687 -6842 0
-1687 -6843 0
-1175 1687 6830 6831 6832 6833 6834 6835 6836 6837 6838 6839 6840 6841 6842 6843 0
-1719 1207 0
-6844 778 0
-6844 1201 0
-778 -1201 6844 0
-6845 823 0
-6845 1203 0
-823 -1203 6845 0
-6846 855 0
-6846 1205 0
-855 -1205 6846 0
-6847 919 0
-6847 1209 0
-919 -1209 6847 0
-6848 951 0
-6848 1211 0
-951 -1211 6848 0
-6849 983 0
-6849 1213 0
-983 -1213 6849 0
-6850 1015 0
-6850 1215 0
-1015 -1215 6850 0
-6851 1047 0
-6851 1217 0
-1047 -1217 6851 0
-6852 1079 0
-6852 1219 0
-1079 -1219 6852 0
-6853 1111 0
-6853 1221 0
-1111 -1221 6853 0
-6854 1143 0
-6854 1223 0
-1143 -1223 6854 0
-6855 1175 0
-6855 1225 0
-1175 -1225 6855 0
-6856 1239 0
-6856 1229 0
-1239 -1229 6856 0
-6857 1271 0
-6857 1231 0
-1271 -1231 6857 0
-1719 -6844 0
-1719 -6845 0
-1719 -6846 0
-1719 -6847 0
-1719 -6848 0
-1719 -6849 0
-1719 -6850 0
-1719 -6851 0
-1719 -6852 0
-1719 -6853 0
-1719 -6854 0
-1719 -6855 0
-1719 -6856 0
-1719 -6857 0
-1207 1719 6844 6845 6846 6847 6848 6849 6850 6851 6852 6853 6854 6855 6856 6857 0
-1751 1239 0
-6858 778 0
-6858 1233 0
-778 -1233 6858 0
-6859 823 0
-6859 1235 0
-823 -1235 6859 0
-6860 855 0
-6860 1237 0
-855 -1237 6860 0
-6861 919 0
-6861 1241 0
-919 -1241 6861 0
-6862 951 0
-6862 1243 0
-951 -1243 6862 0
-6863 983 0
-6863 1245 0
-983 -1245 6863 0
-6864 1015 0
-6864 1247 0
-1015 -1247 6864 0
-6865 1047 0
-6865 1249 0
-1047 -1249 6865 0
-6866 1079 0
-6866 1251 0
-1079 -1251 6866 0
-6867 1111 0
-6867 1253 0
-1111 -1253 6867 0
-6868 1143 0
-6868 1255 0
-1143 -1255 6868 0
-6869 1175 0
-6869 1257 0
-1175 -1257 6869 0
-6870 1207 0
-6870 1259 0
-1207 -1259 6870 0
-6871 1271 0
-6871 1263 0
-1271 -1263 6871 0
-1751 -6858 0
-1751 -6859 0
-1751 -6860 0
-1751 -6861 0
-1751 -6862 0
-1751 -6863 0
-1751 -6864 0
-1751 -6865 0
-1751 -6866 0
-1751 -6867 0
-1751 -6868 0
-1751 -6869 0
-1751 -6870 0
-1751 -6871 0
-1239 1751 6858 6859 6860 6861 6862 6863 6864 6865 6866 6867 6868 6869 6870 6871 0
-1783 1271 0
-6872 778 0
-6872 1265 0
-778 -1265 6872 0
-6873 823 0
-6873 1267 0
-823 -1267 6873 0
-6874 855 0
-6874 1269 0
-855 -1269 6874 0
-6875 919 0
-6875 1273 0
-919 -1273 6875 0
-6876 951 0
-6876 1275 0
-951 -1275 6876 0
-6877 983 0
-6877 1277 0
-983 -1277 6877 0
-6878 1015 0
-6878 1279 0
-1015 -1279 6878 0
-6879 1047 0
-6879 1281 0
-1047 -1281 6879 0
-6880 1079 0
-6880 1283 0
-1079 -1283 6880 0
-6881 1111 0
-6881 1285 0
-1111 -1285 6881 0
-6882 1143 0
-6882 1287 0
-1143 -1287 6882 0
-6883 1175 0
-6883 1289 0
-1175 -1289 6883 0
-6884 1207 0
-6884 1291 0
-1207 -1291 6884 0
-6885 1239 0
-6885 1293 0
-1239 -1293 6885 0
-1783 -6872 0
-1783 -6873 0
-1783 -6874 0
-1783 -6875 0
-1783 -6876 0
-1783 -6877 0
-1783 -6878 0
-1783 -6879 0
-1783 -6880 0
-1783 -6881 0
-1783 -6882 0
-1783 -6883 0
-1783 -6884 0
-1783 -6885 0
-1271 1783 6872 6873 6874 6875 6876 6877 6878 6879 6880 6881 6882 6883 6884 6885 0
-1305 781 0
-6886 825 0
-6886 772 0
-825 -772 6886 0
-6887 857 0
-6887 775 0
-857 -775 6887 0
-6888 889 0
-6888 778 0
-889 -778 6888 0
-6889 953 0
-6889 784 0
-953 -784 6889 0
-6890 985 0
-6890 787 0
-985 -787 6890 0
-6891 1017 0
-6891 790 0
-1017 -790 6891 0
-6892 1049 0
-6892 793 0
-1049 -793 6892 0
-6893 1081 0
-6893 796 0
-1081 -796 6893 0
-6894 1113 0
-6894 799 0
-1113 -799 6894 0
-6895 1145 0
-6895 802 0
-1145 -802 6895 0
-6896 1177 0
-6896 805 0
-1177 -805 6896 0
-6897 1209 0
-6897 808 0
-1209 -808 6897 0
-6898 1241 0
-6898 811 0
-1241 -811 6898 0
-6899 1273 0
-6899 814 0
-1273 -814 6899 0
-1305 -6886 0
-1305 -6887 0
-1305 -6888 0
-1305 -6889 0
-1305 -6890 0
-1305 -6891 0
-1305 -6892 0
-1305 -6893 0
-1305 -6894 0
-1305 -6895 0
-1305 -6896 0
-1305 -6897 0
-1305 -6898 0
-1305 -6899 0
-781 1305 6886 6887 6888 6889 6890 6891 6892 6893 6894 6895 6896 6897 6898 6899 0
-1337 825 0
-6900 781 0
-6900 817 0
-781 -817 6900 0
-6901 857 0
-6901 821 0
-857 -821 6901 0
-6902 889 0
-6902 823 0
-889 -823 6902 0
-6903 953 0
-6903 827 0
-953 -827 6903 0
-6904 985 0
-6904 829 0
-985 -829 6904 0
-6905 1017 0
-6905 831 0
-1017 -831 6905 0
-6906 1049 0
-6906 833 0
-1049 -833 6906 0
-6907 1081 0
-6907 835 0
-1081 -835 6907 0
-6908 1113 0
-6908 837 0
-1113 -837 6908 0
-6909 1145 0
-6909 839 0
-1145 -839 6909 0
-6910 1177 0
-6910 841 0
-1177 -841 6910 0
-6911 1209 0
-6911 843 0
-1209 -843 6911 0
-6912 1241 0
-6912 845 0
-1241 -845 6912 0
-6913 1273 0
-6913 847 0
-1273 -847 6913 0
-1337 -6900 0
-1337 -6901 0
-1337 -6902 0
-1337 -6903 0
-1337 -6904 0
-1337 -6905 0
-1337 -6906 0
-1337 -6907 0
-1337 -6908 0
-1337 -6909 0
-1337 -6910 0
-1337 -6911 0
-1337 -6912 0
-1337 -6913 0
-825 1337 6900 6901 6902 6903 6904 6905 6906 6907 6908 6909 6910 6911 6912 6913 0
-1369 857 0
-6914 781 0
-6914 849 0
-781 -849 6914 0
-6915 825 0
-6915 851 0
-825 -851 6915 0
-6916 889 0
-6916 855 0
-889 -855 6916 0
-6917 953 0
-6917 859 0
-953 -859 6917 0
-6918 985 0
-6918 861 0
-985 -861 6918 0
-6919 1017 0
-6919 863 0
-1017 -863 6919 0
-6920 1049 0
-6920 865 0
-1049 -865 6920 0
-6921 1081 0
-6921 867 0
-1081 -867 6921 0
-6922 1113 0
-6922 869 0
-1113 -869 6922 0
-6923 1145 0
-6923 871 0
-1145 -871 6923 0
-6924 1177 0
-6924 873 0
-1177 -873 6924 0
-6925 1209 0
-6925 875 0
-1209 -875 6925 0
-6926 1241 0
-6926 877 0
-1241 -877 6926 0
-6927 1273 0
-6927 879 0
-1273 -879 6927 0
-1369 -6914 0
-1369 -6915 0
-1369 -6916 0
-1369 -6917 0
-1369 -6918 0
-1369 -6919 0
-1369 -6920 0
-1369 -6921 0
-1369 -6922 0
-1369 -6923 0
-1369 -6924 0
-1369 -6925 0
-1369 -6926 0
-1369 -6927 0
-857 1369 6914 6915 6916 6917 6918 6919 6920 6921 6922 6923 6924 6925 6926 6927 0
-1401 889 0
-6928 781 0
-6928 881 0
-781 -881 6928 0
-6929 825 0
-6929 883 0
-825 -883 6929 0
-6930 857 0
-6930 885 0
-857 -885 6930 0
-6931 953 0
-6931 891 0
-953 -891 6931 0
-6932 985 0
-6932 893 0
-985 -893 6932 0
-6933 1017 0
-6933 895 0
-1017 -895 6933 0
-6934 1049 0
-6934 897 0
-1049 -897 6934 0
-6935 1081 0
-6935 899 0
-1081 -899 6935 0
-6936 1113 0
-6936 901 0
-1113 -901 6936 0
-6937 1145 0
-6937 903 0
-1145 -903 6937 0
-6938 1177 0
-6938 905 0
-1177 -905 6938 0
-6939 1209 0
-6939 907 0
-1209 -907 6939 0
-6940 1241 0
-6940 909 0
-1241 -909 6940 0
-6941 1273 0
-6941 911 0
-1273 -911 6941 0
-1401 -6928 0
-1401 -6929 0
-1401 -6930 0
-1401 -6931 0
-1401 -6932 0
-1401 -6933 0
-1401 -6934 0
-1401 -6935 0
-1401 -6936 0
-1401 -6937 0
-1401 -6938 0
-1401 -6939 0
-1401 -6940 0
-1401 -6941 0
-889 1401 6928 6929 6930 6931 6932 6933 6934 6935 6936 6937 6938 6939 6940 6941 0
-1433 0
-1465 953 0
-6942 781 0
-6942 945 0
-781 -945 6942 0
-6943 825 0
-6943 947 0
-825 -947 6943 0
-6944 857 0
-6944 949 0
-857 -949 6944 0
-6945 889 0
-6945 951 0
-889 -951 6945 0
-6946 985 0
-6946 957 0
-985 -957 6946 0
-6947 1017 0
-6947 959 0
-1017 -959 6947 0
-6948 1049 0
-6948 961 0
-1049 -961 6948 0
-6949 1081 0
-6949 963 0
-1081 -963 6949 0
-6950 1113 0
-6950 965 0
-1113 -965 6950 0
-6951 1145 0
-6951 967 0
-1145 -967 6951 0
-6952 1177 0
-6952 969 0
-1177 -969 6952 0
-6953 1209 0
-6953 971 0
-1209 -971 6953 0
-6954 1241 0
-6954 973 0
-1241 -973 6954 0
-6955 1273 0
-6955 975 0
-1273 -975 6955 0
-1465 -6942 0
-1465 -6943 0
-1465 -6944 0
-1465 -6945 0
-1465 -6946 0
-1465 -6947 0
-1465 -6948 0
-1465 -6949 0
-1465 -6950 0
-1465 -6951 0
-1465 -6952 0
-1465 -6953 0
-1465 -6954 0
-1465 -6955 0
-953 1465 6942 6943 6944 6945 6946 6947 6948 6949 6950 6951 6952 6953 6954 6955 0
-1497 985 0
-6956 781 0
-6956 977 0
-781 -977 6956 0
-6957 825 0
-6957 979 0
-825 -979 6957 0
-6958 857 0
-6958 981 0
-857 -981 6958 0
-6959 889 0
-6959 983 0
-889 -983 6959 0
-6960 953 0
-6960 987 0
-953 -987 6960 0
-6961 1017 0
-6961 991 0
-1017 -991 6961 0
-6962 1049 0
-6962 993 0
-1049 -993 6962 0
-6963 1081 0
-6963 995 0
-1081 -995 6963 0
-6964 1113 0
-6964 997 0
-1113 -997 6964 0
-6965 1145 0
-6965 999 0
-1145 -999 6965 0
-6966 1177 0
-6966 1001 0
-1177 -1001 6966 0
-6967 1209 0
-6967 1003 0
-1209 -1003 6967 0
-6968 1241 0
-6968 1005 0
-1241 -1005 6968 0
-6969 1273 0
-6969 1007 0
-1273 -1007 6969 0
-1497 -6956 0
-1497 -6957 0
-1497 -6958 0
-1497 -6959 0
-1497 -6960 0
-1497 -6961 0
-1497 -6962 0
-1497 -6963 0
-1497 -6964 0
-1497 -6965 0
-1497 -6966 0
-1497 -6967 0
-1497 -6968 0
-1497 -6969 0
-985 1497 6956 6957 6958 6959 6960 6961 6962 6963 6964 6965 6966 6967 6968 6969 0
-1529 1017 0
-6970 781 0
-6970 1009 0
-781 -1009 6970 0
-6971 825 0
-6971 1011 0
-825 -1011 6971 0
-6972 857 0
-6972 1013 0
-857 -1013 6972 0
-6973 889 0
-6973 1015 0
-889 -1015 6973 0
-6974 953 0
-6974 1019 0
-953 -1019 6974 0
-6975 985 0
-6975 1021 0
-985 -1021 6975 0
-6976 1049 0
-6976 1025 0
-1049 -1025 6976 0
-6977 1081 0
-6977 1027 0
-1081 -1027 6977 0
-6978 1113 0
-6978 1029 0
-1113 -1029 6978 0
-6979 1145 0
-6979 1031 0
-1145 -1031 6979 0
-6980 1177 0
-6980 1033 0
-1177 -1033 6980 0
-6981 1209 0
-6981 1035 0
-1209 -1035 6981 0
-6982 1241 0
-6982 1037 0
-1241 -1037 6982 0
-6983 1273 0
-6983 1039 0
-1273 -1039 6983 0
-1529 -6970 0
-1529 -6971 0
-1529 -6972 0
-1529 -6973 0
-1529 -6974 0
-1529 -6975 0
-1529 -6976 0
-1529 -6977 0
-1529 -6978 0
-1529 -6979 0
-1529 -6980 0
-1529 -6981 0
-1529 -6982 0
-1529 -6983 0
-1017 1529 6970 6971 6972 6973 6974 6975 6976 6977 6978 6979 6980 6981 6982 6983 0
-1561 1049 0
-6984 781 0
-6984 1041 0
-781 -1041 6984 0
-6985 825 0
-6985 1043 0
-825 -1043 6985 0
-6986 857 0
-6986 1045 0
-857 -1045 6986 0
-6987 889 0
-6987 1047 0
-889 -1047 6987 0
-6988 953 0
-6988 1051 0
-953 -1051 6988 0
-6989 985 0
-6989 1053 0
-985 -1053 6989 0
-6990 1017 0
-6990 1055 0
-1017 -1055 6990 0
-6991 1081 0
-6991 1059 0
-1081 -1059 6991 0
-6992 1113 0
-6992 1061 0
-1113 -1061 6992 0
-6993 1145 0
-6993 1063 0
-1145 -1063 6993 0
-6994 1177 0
-6994 1065 0
-1177 -1065 6994 0
-6995 1209 0
-6995 1067 0
-1209 -1067 6995 0
-6996 1241 0
-6996 1069 0
-1241 -1069 6996 0
-6997 1273 0
-6997 1071 0
-1273 -1071 6997 0
-1561 -6984 0
-1561 -6985 0
-1561 -6986 0
-1561 -6987 0
-1561 -6988 0
-1561 -6989 0
-1561 -6990 0
-1561 -6991 0
-1561 -6992 0
-1561 -6993 0
-1561 -6994 0
-1561 -6995 0
-1561 -6996 0
-1561 -6997 0
-1049 1561 6984 6985 6986 6987 6988 6989 6990 6991 6992 6993 6994 6995 6996 6997 0
-1593 1081 0
-6998 781 0
-6998 1073 0
-781 -1073 6998 0
-6999 825 0
-6999 1075 0
-825 -1075 6999 0
-7000 857 0
-7000 1077 0
-857 -1077 7000 0
-7001 889 0
-7001 1079 0
-889 -1079 7001 0
-7002 953 0
-7002 1083 0
-953 -1083 7002 0
-7003 985 0
-7003 1085 0
-985 -1085 7003 0
-7004 1017 0
-7004 1087 0
-1017 -1087 7004 0
-7005 1049 0
-7005 1089 0
-1049 -1089 7005 0
-7006 1113 0
-7006 1093 0
-1113 -1093 7006 0
-7007 1145 0
-7007 1095 0
-1145 -1095 7007 0
-7008 1177 0
-7008 1097 0
-1177 -1097 7008 0
-7009 1209 0
-7009 1099 0
-1209 -1099 7009 0
-7010 1241 0
-7010 1101 0
-1241 -1101 7010 0
-7011 1273 0
-7011 1103 0
-1273 -1103 7011 0
-1593 -6998 0
-1593 -6999 0
-1593 -7000 0
-1593 -7001 0
-1593 -7002 0
-1593 -7003 0
-1593 -7004 0
-1593 -7005 0
-1593 -7006 0
-1593 -7007 0
-1593 -7008 0
-1593 -7009 0
-1593 -7010 0
-1593 -7011 0
-1081 1593 6998 6999 7000 7001 7002 7003 7004 7005 7006 7007 7008 7009 7010 7011 0
-1625 1113 0
-7012 781 0
-7012 1105 0
-781 -1105 7012 0
-7013 825 0
-7013 1107 0
-825 -1107 7013 0
-7014 857 0
-7014 1109 0
-857 -1109 7014 0
-7015 889 0
-7015 1111 0
-889 -1111 7015 0
-7016 953 0
-7016 1115 0
-953 -1115 7016 0
-7017 985 0
-7017 1117 0
-985 -1117 7017 0
-7018 1017 0
-7018 1119 0
-1017 -1119 7018 0
-7019 1049 0
-7019 1121 0
-1049 -1121 7019 0
-7020 1081 0
-7020 1123 0
-1081 -1123 7020 0
-7021 1145 0
-7021 1127 0
-1145 -1127 7021 0
-7022 1177 0
-7022 1129 0
-1177 -1129 7022 0
-7023 1209 0
-7023 1131 0
-1209 -1131 7023 0
-7024 1241 0
-7024 1133 0
-1241 -1133 7024 0
-7025 1273 0
-7025 1135 0
-1273 -1135 7025 0
-1625 -7012 0
-1625 -7013 0
-1625 -7014 0
-1625 -7015 0
-1625 -7016 0
-1625 -7017 0
-1625 -7018 0
-1625 -7019 0
-1625 -7020 0
-1625 -7021 0
-1625 -7022 0
-1625 -7023 0
-1625 -7024 0
-1625 -7025 0
-1113 1625 7012 7013 7014 7015 7016 7017 7018 7019 7020 7021 7022 7023 7024 7025 0
-1657 1145 0
-7026 781 0
-7026 1137 0
-781 -1137 7026 0
-7027 825 0
-7027 1139 0
-825 -1139 7027 0
-7028 857 0
-7028 1141 0
-857 -1141 7028 0
-7029 889 0
-7029 1143 0
-889 -1143 7029 0
-7030 953 0
-7030 1147 0
-953 -1147 7030 0
-7031 985 0
-7031 1149 0
-985 -1149 7031 0
-7032 1017 0
-7032 1151 0
-1017 -1151 7032 0
-7033 1049 0
-7033 1153 0
-1049 -1153 7033 0
-7034 1081 0
-7034 1155 0
-1081 -1155 7034 0
-7035 1113 0
-7035 1157 0
-1113 -1157 7035 0
-7036 1177 0
-7036 1161 0
-1177 -1161 7036 0
-7037 1209 0
-7037 1163 0
-1209 -1163 7037 0
-7038 1241 0
-7038 1165 0
-1241 -1165 7038 0
-7039 1273 0
-7039 1167 0
-1273 -1167 7039 0
-1657 -7026 0
-1657 -7027 0
-1657 -7028 0
-1657 -7029 0
-1657 -7030 0
-1657 -7031 0
-1657 -7032 0
-1657 -7033 0
-1657 -7034 0
-1657 -7035 0
-1657 -7036 0
-1657 -7037 0
-1657 -7038 0
-1657 -7039 0
-1145 1657 7026 7027 7028 7029 7030 7031 7032 7033 7034 7035 7036 7037 7038 7039 0
-1689 1177 0
-7040 781 0
-7040 1169 0
-781 -1169 7040 0
-7041 825 0
-7041 1171 0
-825 -1171 7041 0
-7042 857 0
-7042 1173 0
-857 -1173 7042 0
-7043 889 0
-7043 1175 0
-889 -1175 7043 0
-7044 953 0
-7044 1179 0
-953 -1179 7044 0
-7045 985 0
-7045 1181 0
-985 -1181 7045 0
-7046 1017 0
-7046 1183 0
-1017 -1183 7046 0
-7047 1049 0
-7047 1185 0
-1049 -1185 7047 0
-7048 1081 0
-7048 1187 0
-1081 -1187 7048 0
-7049 1113 0
-7049 1189 0
-1113 -1189 7049 0
-7050 1145 0
-7050 1191 0
-1145 -1191 7050 0
-7051 1209 0
-7051 1195 0
-1209 -1195 7051 0
-7052 1241 0
-7052 1197 0
-1241 -1197 7052 0
-7053 1273 0
-7053 1199 0
-1273 -1199 7053 0
-1689 -7040 0
-1689 -7041 0
-1689 -7042 0
-1689 -7043 0
-1689 -7044 0
-1689 -7045 0
-1689 -7046 0
-1689 -7047 0
-1689 -7048 0
-1689 -7049 0
-1689 -7050 0
-1689 -7051 0
-1689 -7052 0
-1689 -7053 0
-1177 1689 7040 7041 7042 7043 7044 7045 7046 7047 7048 7049 7050 7051 7052 7053 0
-1721 1209 0
-7054 781 0
-7054 1201 0
-781 -1201 7054 0
-7055 825 0
-7055 1203 0
-825 -1203 7055 0
-7056 857 0
-7056 1205 0
-857 -1205 7056 0
-7057 889 0
-7057 1207 0
-889 -1207 7057 0
-7058 953 0
-7058 1211 0
-953 -1211 7058 0
-7059 985 0
-7059 1213 0
-985 -1213 7059 0
-7060 1017 0
-7060 1215 0
-1017 -1215 7060 0
-7061 1049 0
-7061 1217 0
-1049 -1217 7061 0
-7062 1081 0
-7062 1219 0
-1081 -1219 7062 0
-7063 1113 0
-7063 1221 0
-1113 -1221 7063 0
-7064 1145 0
-7064 1223 0
-1145 -1223 7064 0
-7065 1177 0
-7065 1225 0
-1177 -1225 7065 0
-7066 1241 0
-7066 1229 0
-1241 -1229 7066 0
-7067 1273 0
-7067 1231 0
-1273 -1231 7067 0
-1721 -7054 0
-1721 -7055 0
-1721 -7056 0
-1721 -7057 0
-1721 -7058 0
-1721 -7059 0
-1721 -7060 0
-1721 -7061 0
-1721 -7062 0
-1721 -7063 0
-1721 -7064 0
-1721 -7065 0
-1721 -7066 0
-1721 -7067 0
-1209 1721 7054 7055 7056 7057 7058 7059 7060 7061 7062 7063 7064 7065 7066 7067 0
-1753 1241 0
-7068 781 0
-7068 1233 0
-781 -1233 7068 0
-7069 825 0
-7069 1235 0
-825 -1235 7069 0
-7070 857 0
-7070 1237 0
-857 -1237 7070 0
-7071 889 0
-7071 1239 0
-889 -1239 7071 0
-7072 953 0
-7072 1243 0
-953 -1243 7072 0
-7073 985 0
-7073 1245 0
-985 -1245 7073 0
-7074 1017 0
-7074 1247 0
-1017 -1247 7074 0
-7075 1049 0
-7075 1249 0
-1049 -1249 7075 0
-7076 1081 0
-7076 1251 0
-1081 -1251 7076 0
-7077 1113 0
-7077 1253 0
-1113 -1253 7077 0
-7078 1145 0
-7078 1255 0
-1145 -1255 7078 0
-7079 1177 0
-7079 1257 0
-1177 -1257 7079 0
-7080 1209 0
-7080 1259 0
-1209 -1259 7080 0
-7081 1273 0
-7081 1263 0
-1273 -1263 7081 0
-1753 -7068 0
-1753 -7069 0
-1753 -7070 0
-1753 -7071 0
-1753 -7072 0
-1753 -7073 0
-1753 -7074 0
-1753 -7075 0
-1753 -7076 0
-1753 -7077 0
-1753 -7078 0
-1753 -7079 0
-1753 -7080 0
-1753 -7081 0
-1241 1753 7068 7069 7070 7071 7072 7073 7074 7075 7076 7077 7078 7079 7080 7081 0
-1785 1273 0
-7082 781 0
-7082 1265 0
-781 -1265 7082 0
-7083 825 0
-7083 1267 0
-825 -1267 7083 0
-7084 857 0
-7084 1269 0
-857 -1269 7084 0
-7085 889 0
-7085 1271 0
-889 -1271 7085 0
-7086 953 0
-7086 1275 0
-953 -1275 7086 0
-7087 985 0
-7087 1277 0
-985 -1277 7087 0
-7088 1017 0
-7088 1279 0
-1017 -1279 7088 0
-7089 1049 0
-7089 1281 0
-1049 -1281 7089 0
-7090 1081 0
-7090 1283 0
-1081 -1283 7090 0
-7091 1113 0
-7091 1285 0
-1113 -1285 7091 0
-7092 1145 0
-7092 1287 0
-1145 -1287 7092 0
-7093 1177 0
-7093 1289 0
-1177 -1289 7093 0
-7094 1209 0
-7094 1291 0
-1209 -1291 7094 0
-7095 1241 0
-7095 1293 0
-1241 -1293 7095 0
-1785 -7082 0
-1785 -7083 0
-1785 -7084 0
-1785 -7085 0
-1785 -7086 0
-1785 -7087 0
-1785 -7088 0
-1785 -7089 0
-1785 -7090 0
-1785 -7091 0
-1785 -7092 0
-1785 -7093 0
-1785 -7094 0
-1785 -7095 0
-1273 1785 7082 7083 7084 7085 7086 7087 7088 7089 7090 7091 7092 7093 7094 7095 0
-1307 784 0
-7096 827 0
-7096 772 0
-827 -772 7096 0
-7097 859 0
-7097 775 0
-859 -775 7097 0
-7098 891 0
-7098 778 0
-891 -778 7098 0
-7099 923 0
-7099 781 0
-923 -781 7099 0
-7100 987 0
-7100 787 0
-987 -787 7100 0
-7101 1019 0
-7101 790 0
-1019 -790 7101 0
-7102 1051 0
-7102 793 0
-1051 -793 7102 0
-7103 1083 0
-7103 796 0
-1083 -796 7103 0
-7104 1115 0
-7104 799 0
-1115 -799 7104 0
-7105 1147 0
-7105 802 0
-1147 -802 7105 0
-7106 1179 0
-7106 805 0
-1179 -805 7106 0
-7107 1211 0
-7107 808 0
-1211 -808 7107 0
-7108 1243 0
-7108 811 0
-1243 -811 7108 0
-7109 1275 0
-7109 814 0
-1275 -814 7109 0
-1307 -7096 0
-1307 -7097 0
-1307 -7098 0
-1307 -7099 0
-1307 -7100 0
-1307 -7101 0
-1307 -7102 0
-1307 -7103 0
-1307 -7104 0
-1307 -7105 0
-1307 -7106 0
-1307 -7107 0
-1307 -7108 0
-1307 -7109 0
-784 1307 7096 7097 7098 7099 7100 7101 7102 7103 7104 7105 7106 7107 7108 7109 0
-1339 827 0
-7110 784 0
-7110 817 0
-784 -817 7110 0
-7111 859 0
-7111 821 0
-859 -821 7111 0
-7112 891 0
-7112 823 0
-891 -823 7112 0
-7113 923 0
-7113 825 0
-923 -825 7113 0
-7114 987 0
-7114 829 0
-987 -829 7114 0
-7115 1019 0
-7115 831 0
-1019 -831 7115 0
-7116 1051 0
-7116 833 0
-1051 -833 7116 0
-7117 1083 0
-7117 835 0
-1083 -835 7117 0
-7118 1115 0
-7118 837 0
-1115 -837 7118 0
-7119 1147 0
-7119 839 0
-1147 -839 7119 0
-7120 1179 0
-7120 841 0
-1179 -841 7120 0
-7121 1211 0
-7121 843 0
-1211 -843 7121 0
-7122 1243 0
-7122 845 0
-1243 -845 7122 0
-7123 1275 0
-7123 847 0
-1275 -847 7123 0
-1339 -7110 0
-1339 -7111 0
-1339 -7112 0
-1339 -7113 0
-1339 -7114 0
-1339 -7115 0
-1339 -7116 0
-1339 -7117 0
-1339 -7118 0
-1339 -7119 0
-1339 -7120 0
-1339 -7121 0
-1339 -7122 0
-1339 -7123 0
-827 1339 7110 7111 7112 7113 7114 7115 7116 7117 7118 7119 7120 7121 7122 7123 0
-1371 859 0
-7124 784 0
-7124 849 0
-784 -849 7124 0
-7125 827 0
-7125 851 0
-827 -851 7125 0
-7126 891 0
-7126 855 0
-891 -855 7126 0
-7127 923 0
-7127 857 0
-923 -857 7127 0
-7128 987 0
-7128 861 0
-987 -861 7128 0
-7129 1019 0
-7129 863 0
-1019 -863 7129 0
-7130 1051 0
-7130 865 0
-1051 -865 7130 0
-7131 1083 0
-7131 867 0
-1083 -867 7131 0
-7132 1115 0
-7132 869 0
-1115 -869 7132 0
-7133 1147 0
-7133 871 0
-1147 -871 7133 0
-7134 1179 0
-7134 873 0
-1179 -873 7134 0
-7135 1211 0
-7135 875 0
-1211 -875 7135 0
-7136 1243 0
-7136 877 0
-1243 -877 7136 0
-7137 1275 0
-7137 879 0
-1275 -879 7137 0
-1371 -7124 0
-1371 -7125 0
-1371 -7126 0
-1371 -7127 0
-1371 -7128 0
-1371 -7129 0
-1371 -7130 0
-1371 -7131 0
-1371 -7132 0
-1371 -7133 0
-1371 -7134 0
-1371 -7135 0
-1371 -7136 0
-1371 -7137 0
-859 1371 7124 7125 7126 7127 7128 7129 7130 7131 7132 7133 7134 7135 7136 7137 0
-1403 891 0
-7138 784 0
-7138 881 0
-784 -881 7138 0
-7139 827 0
-7139 883 0
-827 -883 7139 0
-7140 859 0
-7140 885 0
-859 -885 7140 0
-7141 923 0
-7141 889 0
-923 -889 7141 0
-7142 987 0
-7142 893 0
-987 -893 7142 0
-7143 1019 0
-7143 895 0
-1019 -895 7143 0
-7144 1051 0
-7144 897 0
-1051 -897 7144 0
-7145 1083 0
-7145 899 0
-1083 -899 7145 0
-7146 1115 0
-7146 901 0
-1115 -901 7146 0
-7147 1147 0
-7147 903 0
-1147 -903 7147 0
-7148 1179 0
-7148 905 0
-1179 -905 7148 0
-7149 1211 0
-7149 907 0
-1211 -907 7149 0
-7150 1243 0
-7150 909 0
-1243 -909 7150 0
-7151 1275 0
-7151 911 0
-1275 -911 7151 0
-1403 -7138 0
-1403 -7139 0
-1403 -7140 0
-1403 -7141 0
-1403 -7142 0
-1403 -7143 0
-1403 -7144 0
-1403 -7145 0
-1403 -7146 0
-1403 -7147 0
-1403 -7148 0
-1403 -7149 0
-1403 -7150 0
-1403 -7151 0
-891 1403 7138 7139 7140 7141 7142 7143 7144 7145 7146 7147 7148 7149 7150 7151 0
-1435 923 0
-7152 784 0
-7152 913 0
-784 -913 7152 0
-7153 827 0
-7153 915 0
-827 -915 7153 0
-7154 859 0
-7154 917 0
-859 -917 7154 0
-7155 891 0
-7155 919 0
-891 -919 7155 0
-7156 987 0
-7156 925 0
-987 -925 7156 0
-7157 1019 0
-7157 927 0
-1019 -927 7157 0
-7158 1051 0
-7158 929 0
-1051 -929 7158 0
-7159 1083 0
-7159 931 0
-1083 -931 7159 0
-7160 1115 0
-7160 933 0
-1115 -933 7160 0
-7161 1147 0
-7161 935 0
-1147 -935 7161 0
-7162 1179 0
-7162 937 0
-1179 -937 7162 0
-7163 1211 0
-7163 939 0
-1211 -939 7163 0
-7164 1243 0
-7164 941 0
-1243 -941 7164 0
-7165 1275 0
-7165 943 0
-1275 -943 7165 0
-1435 -7152 0
-1435 -7153 0
-1435 -7154 0
-1435 -7155 0
-1435 -7156 0
-1435 -7157 0
-1435 -7158 0
-1435 -7159 0
-1435 -7160 0
-1435 -7161 0
-1435 -7162 0
-1435 -7163 0
-1435 -7164 0
-1435 -7165 0
-923 1435 7152 7153 7154 7155 7156 7157 7158 7159 7160 7161 7162 7163 7164 7165 0
-1467 0
-1499 987 0
-7166 784 0
-7166 977 0
-784 -977 7166 0
-7167 827 0
-7167 979 0
-827 -979 7167 0
-7168 859 0
-7168 981 0
-859 -981 7168 0
-7169 891 0
-7169 983 0
-891 -983 7169 0
-7170 923 0
-7170 985 0
-923 -985 7170 0
-7171 1019 0
-7171 991 0
-1019 -991 7171 0
-7172 1051 0
-7172 993 0
-1051 -993 7172 0
-7173 1083 0
-7173 995 0
-1083 -995 7173 0
-7174 1115 0
-7174 997 0
-1115 -997 7174 0
-7175 1147 0
-7175 999 0
-1147 -999 7175 0
-7176 1179 0
-7176 1001 0
-1179 -1001 7176 0
-7177 1211 0
-7177 1003 0
-1211 -1003 7177 0
-7178 1243 0
-7178 1005 0
-1243 -1005 7178 0
-7179 1275 0
-7179 1007 0
-1275 -1007 7179 0
-1499 -7166 0
-1499 -7167 0
-1499 -7168 0
-1499 -7169 0
-1499 -7170 0
-1499 -7171 0
-1499 -7172 0
-1499 -7173 0
-1499 -7174 0
-1499 -7175 0
-1499 -7176 0
-1499 -7177 0
-1499 -7178 0
-1499 -7179 0
-987 1499 7166 7167 7168 7169 7170 7171 7172 7173 7174 7175 7176 7177 7178 7179 0
-1531 1019 0
-7180 784 0
-7180 1009 0
-784 -1009 7180 0
-7181 827 0
-7181 1011 0
-827 -1011 7181 0
-7182 859 0
-7182 1013 0
-859 -1013 7182 0
-7183 891 0
-7183 1015 0
-891 -1015 7183 0
-7184 923 0
-7184 1017 0
-923 -1017 7184 0
-7185 987 0
-7185 1021 0
-987 -1021 7185 0
-7186 1051 0
-7186 1025 0
-1051 -1025 7186 0
-7187 1083 0
-7187 1027 0
-1083 -1027 7187 0
-7188 1115 0
-7188 1029 0
-1115 -1029 7188 0
-7189 1147 0
-7189 1031 0
-1147 -1031 7189 0
-7190 1179 0
-7190 1033 0
-1179 -1033 7190 0
-7191 1211 0
-7191 1035 0
-1211 -1035 7191 0
-7192 1243 0
-7192 1037 0
-1243 -1037 7192 0
-7193 1275 0
-7193 1039 0
-1275 -1039 7193 0
-1531 -7180 0
-1531 -7181 0
-1531 -7182 0
-1531 -7183 0
-1531 -7184 0
-1531 -7185 0
-1531 -7186 0
-1531 -7187 0
-1531 -7188 0
-1531 -7189 0
-1531 -7190 0
-1531 -7191 0
-1531 -7192 0
-1531 -7193 0
-1019 1531 7180 7181 7182 7183 7184 7185 7186 7187 7188 7189 7190 7191 7192 7193 0
-1563 1051 0
-7194 784 0
-7194 1041 0
-784 -1041 7194 0
-7195 827 0
-7195 1043 0
-827 -1043 7195 0
-7196 859 0
-7196 1045 0
-859 -1045 7196 0
-7197 891 0
-7197 1047 0
-891 -1047 7197 0
-7198 923 0
-7198 1049 0
-923 -1049 7198 0
-7199 987 0
-7199 1053 0
-987 -1053 7199 0
-7200 1019 0
-7200 1055 0
-1019 -1055 7200 0
-7201 1083 0
-7201 1059 0
-1083 -1059 7201 0
-7202 1115 0
-7202 1061 0
-1115 -1061 7202 0
-7203 1147 0
-7203 1063 0
-1147 -1063 7203 0
-7204 1179 0
-7204 1065 0
-1179 -1065 7204 0
-7205 1211 0
-7205 1067 0
-1211 -1067 7205 0
-7206 1243 0
-7206 1069 0
-1243 -1069 7206 0
-7207 1275 0
-7207 1071 0
-1275 -1071 7207 0
-1563 -7194 0
-1563 -7195 0
-1563 -7196 0
-1563 -7197 0
-1563 -7198 0
-1563 -7199 0
-1563 -7200 0
-1563 -7201 0
-1563 -7202 0
-1563 -7203 0
-1563 -7204 0
-1563 -7205 0
-1563 -7206 0
-1563 -7207 0
-1051 1563 7194 7195 7196 7197 7198 7199 7200 7201 7202 7203 7204 7205 7206 7207 0
-1595 1083 0
-7208 784 0
-7208 1073 0
-784 -1073 7208 0
-7209 827 0
-7209 1075 0
-827 -1075 7209 0
-7210 859 0
-7210 1077 0
-859 -1077 7210 0
-7211 891 0
-7211 1079 0
-891 -1079 7211 0
-7212 923 0
-7212 1081 0
-923 -1081 7212 0
-7213 987 0
-7213 1085 0
-987 -1085 7213 0
-7214 1019 0
-7214 1087 0
-1019 -1087 7214 0
-7215 1051 0
-7215 1089 0
-1051 -1089 7215 0
-7216 1115 0
-7216 1093 0
-1115 -1093 7216 0
-7217 1147 0
-7217 1095 0
-1147 -1095 7217 0
-7218 1179 0
-7218 1097 0
-1179 -1097 7218 0
-7219 1211 0
-7219 1099 0
-1211 -1099 7219 0
-7220 1243 0
-7220 1101 0
-1243 -1101 7220 0
-7221 1275 0
-7221 1103 0
-1275 -1103 7221 0
-1595 -7208 0
-1595 -7209 0
-1595 -7210 0
-1595 -7211 0
-1595 -7212 0
-1595 -7213 0
-1595 -7214 0
-1595 -7215 0
-1595 -7216 0
-1595 -7217 0
-1595 -7218 0
-1595 -7219 0
-1595 -7220 0
-1595 -7221 0
-1083 1595 7208 7209 7210 7211 7212 7213 7214 7215 7216 7217 7218 7219 7220 7221 0
-1627 1115 0
-7222 784 0
-7222 1105 0
-784 -1105 7222 0
-7223 827 0
-7223 1107 0
-827 -1107 7223 0
-7224 859 0
-7224 1109 0
-859 -1109 7224 0
-7225 891 0
-7225 1111 0
-891 -1111 7225 0
-7226 923 0
-7226 1113 0
-923 -1113 7226 0
-7227 987 0
-7227 1117 0
-987 -1117 7227 0
-7228 1019 0
-7228 1119 0
-1019 -1119 7228 0
-7229 1051 0
-7229 1121 0
-1051 -1121 7229 0
-7230 1083 0
-7230 1123 0
-1083 -1123 7230 0
-7231 1147 0
-7231 1127 0
-1147 -1127 7231 0
-7232 1179 0
-7232 1129 0
-1179 -1129 7232 0
-7233 1211 0
-7233 1131 0
-1211 -1131 7233 0
-7234 1243 0
-7234 1133 0
-1243 -1133 7234 0
-7235 1275 0
-7235 1135 0
-1275 -1135 7235 0
-1627 -7222 0
-1627 -7223 0
-1627 -7224 0
-1627 -7225 0
-1627 -7226 0
-1627 -7227 0
-1627 -7228 0
-1627 -7229 0
-1627 -7230 0
-1627 -7231 0
-1627 -7232 0
-1627 -7233 0
-1627 -7234 0
-1627 -7235 0
-1115 1627 7222 7223 7224 7225 7226 7227 7228 7229 7230 7231 7232 7233 7234 7235 0
-1659 1147 0
-7236 784 0
-7236 1137 0
-784 -1137 7236 0
-7237 827 0
-7237 1139 0
-827 -1139 7237 0
-7238 859 0
-7238 1141 0
-859 -1141 7238 0
-7239 891 0
-7239 1143 0
-891 -1143 7239 0
-7240 923 0
-7240 1145 0
-923 -1145 7240 0
-7241 987 0
-7241 1149 0
-987 -1149 7241 0
-7242 1019 0
-7242 1151 0
-1019 -1151 7242 0
-7243 1051 0
-7243 1153 0
-1051 -1153 7243 0
-7244 1083 0
-7244 1155 0
-1083 -1155 7244 0
-7245 1115 0
-7245 1157 0
-1115 -1157 7245 0
-7246 1179 0
-7246 1161 0
-1179 -1161 7246 0
-7247 1211 0
-7247 1163 0
-1211 -1163 7247 0
-7248 1243 0
-7248 1165 0
-1243 -1165 7248 0
-7249 1275 0
-7249 1167 0
-1275 -1167 7249 0
-1659 -7236 0
-1659 -7237 0
-1659 -7238 0
-1659 -7239 0
-1659 -7240 0
-1659 -7241 0
-1659 -7242 0
-1659 -7243 0
-1659 -7244 0
-1659 -7245 0
-1659 -7246 0
-1659 -7247 0
-1659 -7248 0
-1659 -7249 0
-1147 1659 7236 7237 7238 7239 7240 7241 7242 7243 7244 7245 7246 7247 7248 7249 0
-1691 1179 0
-7250 784 0
-7250 1169 0
-784 -1169 7250 0
-7251 827 0
-7251 1171 0
-827 -1171 7251 0
-7252 859 0
-7252 1173 0
-859 -1173 7252 0
-7253 891 0
-7253 1175 0
-891 -1175 7253 0
-7254 923 0
-7254 1177 0
-923 -1177 7254 0
-7255 987 0
-7255 1181 0
-987 -1181 7255 0
-7256 1019 0
-7256 1183 0
-1019 -1183 7256 0
-7257 1051 0
-7257 1185 0
-1051 -1185 7257 0
-7258 1083 0
-7258 1187 0
-1083 -1187 7258 0
-7259 1115 0
-7259 1189 0
-1115 -1189 7259 0
-7260 1147 0
-7260 1191 0
-1147 -1191 7260 0
-7261 1211 0
-7261 1195 0
-1211 -1195 7261 0
-7262 1243 0
-7262 1197 0
-1243 -1197 7262 0
-7263 1275 0
-7263 1199 0
-1275 -1199 7263 0
-1691 -7250 0
-1691 -7251 0
-1691 -7252 0
-1691 -7253 0
-1691 -7254 0
-1691 -7255 0
-1691 -7256 0
-1691 -7257 0
-1691 -7258 0
-1691 -7259 0
-1691 -7260 0
-1691 -7261 0
-1691 -7262 0
-1691 -7263 0
-1179 1691 7250 7251 7252 7253 7254 7255 7256 7257 7258 7259 7260 7261 7262 7263 0
-1723 1211 0
-7264 784 0
-7264 1201 0
-784 -1201 7264 0
-7265 827 0
-7265 1203 0
-827 -1203 7265 0
-7266 859 0
-7266 1205 0
-859 -1205 7266 0
-7267 891 0
-7267 1207 0
-891 -1207 7267 0
-7268 923 0
-7268 1209 0
-923 -1209 7268 0
-7269 987 0
-7269 1213 0
-987 -1213 7269 0
-7270 1019 0
-7270 1215 0
-1019 -1215 7270 0
-7271 1051 0
-7271 1217 0
-1051 -1217 7271 0
-7272 1083 0
-7272 1219 0
-1083 -1219 7272 0
-7273 1115 0
-7273 1221 0
-1115 -1221 7273 0
-7274 1147 0
-7274 1223 0
-1147 -1223 7274 0
-7275 1179 0
-7275 1225 0
-1179 -1225 7275 0
-7276 1243 0
-7276 1229 0
-1243 -1229 7276 0
-7277 1275 0
-7277 1231 0
-1275 -1231 7277 0
-1723 -7264 0
-1723 -7265 0
-1723 -7266 0
-1723 -7267 0
-1723 -7268 0
-1723 -7269 0
-1723 -7270 0
-1723 -7271 0
-1723 -7272 0
-1723 -7273 0
-1723 -7274 0
-1723 -7275 0
-1723 -7276 0
-1723 -7277 0
-1211 1723 7264 7265 7266 7267 7268 7269 7270 7271 7272 7273 7274 7275 7276 7277 0
-1755 1243 0
-7278 784 0
-7278 1233 0
-784 -1233 7278 0
-7279 827 0
-7279 1235 0
-827 -1235 7279 0
-7280 859 0
-7280 1237 0
-859 -1237 7280 0
-7281 891 0
-7281 1239 0
-891 -1239 7281 0
-7282 923 0
-7282 1241 0
-923 -1241 7282 0
-7283 987 0
-7283 1245 0
-987 -1245 7283 0
-7284 1019 0
-7284 1247 0
-1019 -1247 7284 0
-7285 1051 0
-7285 1249 0
-1051 -1249 7285 0
-7286 1083 0
-7286 1251 0
-1083 -1251 7286 0
-7287 1115 0
-7287 1253 0
-1115 -1253 7287 0
-7288 1147 0
-7288 1255 0
-1147 -1255 7288 0
-7289 1179 0
-7289 1257 0
-1179 -1257 7289 0
-7290 1211 0
-7290 1259 0
-1211 -1259 7290 0
-7291 1275 0
-7291 1263 0
-1275 -1263 7291 0
-1755 -7278 0
-1755 -7279 0
-1755 -7280 0
-1755 -7281 0
-1755 -7282 0
-1755 -7283 0
-1755 -7284 0
-1755 -7285 0
-1755 -7286 0
-1755 -7287 0
-1755 -7288 0
-1755 -7289 0
-1755 -7290 0
-1755 -7291 0
-1243 1755 7278 7279 7280 7281 7282 7283 7284 7285 7286 7287 7288 7289 7290 7291 0
-1787 1275 0
-7292 784 0
-7292 1265 0
-784 -1265 7292 0
-7293 827 0
-7293 1267 0
-827 -1267 7293 0
-7294 859 0
-7294 1269 0
-859 -1269 7294 0
-7295 891 0
-7295 1271 0
-891 -1271 7295 0
-7296 923 0
-7296 1273 0
-923 -1273 7296 0
-7297 987 0
-7297 1277 0
-987 -1277 7297 0
-7298 1019 0
-7298 1279 0
-1019 -1279 7298 0
-7299 1051 0
-7299 1281 0
-1051 -1281 7299 0
-7300 1083 0
-7300 1283 0
-1083 -1283 7300 0
-7301 1115 0
-7301 1285 0
-1115 -1285 7301 0
-7302 1147 0
-7302 1287 0
-1147 -1287 7302 0
-7303 1179 0
-7303 1289 0
-1179 -1289 7303 0
-7304 1211 0
-7304 1291 0
-1211 -1291 7304 0
-7305 1243 0
-7305 1293 0
-1243 -1293 7305 0
-1787 -7292 0
-1787 -7293 0
-1787 -7294 0
-1787 -7295 0
-1787 -7296 0
-1787 -7297 0
-1787 -7298 0
-1787 -7299 0
-1787 -7300 0
-1787 -7301 0
-1787 -7302 0
-1787 -7303 0
-1787 -7304 0
-1787 -7305 0
-1275 1787 7292 7293 7294 7295 7296 7297 7298 7299 7300 7301 7302 7303 7304 7305 0
-1309 787 0
-7306 829 0
-7306 772 0
-829 -772 7306 0
-7307 861 0
-7307 775 0
-861 -775 7307 0
-7308 893 0
-7308 778 0
-893 -778 7308 0
-7309 925 0
-7309 781 0
-925 -781 7309 0
-7310 957 0
-7310 784 0
-957 -784 7310 0
-7311 1021 0
-7311 790 0
-1021 -790 7311 0
-7312 1053 0
-7312 793 0
-1053 -793 7312 0
-7313 1085 0
-7313 796 0
-1085 -796 7313 0
-7314 1117 0
-7314 799 0
-1117 -799 7314 0
-7315 1149 0
-7315 802 0
-1149 -802 7315 0
-7316 1181 0
-7316 805 0
-1181 -805 7316 0
-7317 1213 0
-7317 808 0
-1213 -808 7317 0
-7318 1245 0
-7318 811 0
-1245 -811 7318 0
-7319 1277 0
-7319 814 0
-1277 -814 7319 0
-1309 -7306 0
-1309 -7307 0
-1309 -7308 0
-1309 -7309 0
-1309 -7310 0
-1309 -7311 0
-1309 -7312 0
-1309 -7313 0
-1309 -7314 0
-1309 -7315 0
-1309 -7316 0
-1309 -7317 0
-1309 -7318 0
-1309 -7319 0
-787 1309 7306 7307 7308 7309 7310 7311 7312 7313 7314 7315 7316 7317 7318 7319 0
-1341 829 0
-7320 787 0
-7320 817 0
-787 -817 7320 0
-7321 861 0
-7321 821 0
-861 -821 7321 0
-7322 893 0
-7322 823 0
-893 -823 7322 0
-7323 925 0
-7323 825 0
-925 -825 7323 0
-7324 957 0
-7324 827 0
-957 -827 7324 0
-7325 1021 0
-7325 831 0
-1021 -831 7325 0
-7326 1053 0
-7326 833 0
-1053 -833 7326 0
-7327 1085 0
-7327 835 0
-1085 -835 7327 0
-7328 1117 0
-7328 837 0
-1117 -837 7328 0
-7329 1149 0
-7329 839 0
-1149 -839 7329 0
-7330 1181 0
-7330 841 0
-1181 -841 7330 0
-7331 1213 0
-7331 843 0
-1213 -843 7331 0
-7332 1245 0
-7332 845 0
-1245 -845 7332 0
-7333 1277 0
-7333 847 0
-1277 -847 7333 0
-1341 -7320 0
-1341 -7321 0
-1341 -7322 0
-1341 -7323 0
-1341 -7324 0
-1341 -7325 0
-1341 -7326 0
-1341 -7327 0
-1341 -7328 0
-1341 -7329 0
-1341 -7330 0
-1341 -7331 0
-1341 -7332 0
-1341 -7333 0
-829 1341 7320 7321 7322 7323 7324 7325 7326 7327 7328 7329 7330 7331 7332 7333 0
-1373 861 0
-7334 787 0
-7334 849 0
-787 -849 7334 0
-7335 829 0
-7335 851 0
-829 -851 7335 0
-7336 893 0
-7336 855 0
-893 -855 7336 0
-7337 925 0
-7337 857 0
-925 -857 7337 0
-7338 957 0
-7338 859 0
-957 -859 7338 0
-7339 1021 0
-7339 863 0
-1021 -863 7339 0
-7340 1053 0
-7340 865 0
-1053 -865 7340 0
-7341 1085 0
-7341 867 0
-1085 -867 7341 0
-7342 1117 0
-7342 869 0
-1117 -869 7342 0
-7343 1149 0
-7343 871 0
-1149 -871 7343 0
-7344 1181 0
-7344 873 0
-1181 -873 7344 0
-7345 1213 0
-7345 875 0
-1213 -875 7345 0
-7346 1245 0
-7346 877 0
-1245 -877 7346 0
-7347 1277 0
-7347 879 0
-1277 -879 7347 0
-1373 -7334 0
-1373 -7335 0
-1373 -7336 0
-1373 -7337 0
-1373 -7338 0
-1373 -7339 0
-1373 -7340 0
-1373 -7341 0
-1373 -7342 0
-1373 -7343 0
-1373 -7344 0
-1373 -7345 0
-1373 -7346 0
-1373 -7347 0
-861 1373 7334 7335 7336 7337 7338 7339 7340 7341 7342 7343 7344 7345 7346 7347 0
-1405 893 0
-7348 787 0
-7348 881 0
-787 -881 7348 0
-7349 829 0
-7349 883 0
-829 -883 7349 0
-7350 861 0
-7350 885 0
-861 -885 7350 0
-7351 925 0
-7351 889 0
-925 -889 7351 0
-7352 957 0
-7352 891 0
-957 -891 7352 0
-7353 1021 0
-7353 895 0
-1021 -895 7353 0
-7354 1053 0
-7354 897 0
-1053 -897 7354 0
-7355 1085 0
-7355 899 0
-1085 -899 7355 0
-7356 1117 0
-7356 901 0
-1117 -901 7356 0
-7357 1149 0
-7357 903 0
-1149 -903 7357 0
-7358 1181 0
-7358 905 0
-1181 -905 7358 0
-7359 1213 0
-7359 907 0
-1213 -907 7359 0
-7360 1245 0
-7360 909 0
-1245 -909 7360 0
-7361 1277 0
-7361 911 0
-1277 -911 7361 0
-1405 -7348 0
-1405 -7349 0
-1405 -7350 0
-1405 -7351 0
-1405 -7352 0
-1405 -7353 0
-1405 -7354 0
-1405 -7355 0
-1405 -7356 0
-1405 -7357 0
-1405 -7358 0
-1405 -7359 0
-1405 -7360 0
-1405 -7361 0
-893 1405 7348 7349 7350 7351 7352 7353 7354 7355 7356 7357 7358 7359 7360 7361 0
-1437 925 0
-7362 787 0
-7362 913 0
-787 -913 7362 0
-7363 829 0
-7363 915 0
-829 -915 7363 0
-7364 861 0
-7364 917 0
-861 -917 7364 0
-7365 893 0
-7365 919 0
-893 -919 7365 0
-7366 957 0
-7366 923 0
-957 -923 7366 0
-7367 1021 0
-7367 927 0
-1021 -927 7367 0
-7368 1053 0
-7368 929 0
-1053 -929 7368 0
-7369 1085 0
-7369 931 0
-1085 -931 7369 0
-7370 1117 0
-7370 933 0
-1117 -933 7370 0
-7371 1149 0
-7371 935 0
-1149 -935 7371 0
-7372 1181 0
-7372 937 0
-1181 -937 7372 0
-7373 1213 0
-7373 939 0
-1213 -939 7373 0
-7374 1245 0
-7374 941 0
-1245 -941 7374 0
-7375 1277 0
-7375 943 0
-1277 -943 7375 0
-1437 -7362 0
-1437 -7363 0
-1437 -7364 0
-1437 -7365 0
-1437 -7366 0
-1437 -7367 0
-1437 -7368 0
-1437 -7369 0
-1437 -7370 0
-1437 -7371 0
-1437 -7372 0
-1437 -7373 0
-1437 -7374 0
-1437 -7375 0
-925 1437 7362 7363 7364 7365 7366 7367 7368 7369 7370 7371 7372 7373 7374 7375 0
-1469 957 0
-7376 787 0
-7376 945 0
-787 -945 7376 0
-7377 829 0
-7377 947 0
-829 -947 7377 0
-7378 861 0
-7378 949 0
-861 -949 7378 0
-7379 893 0
-7379 951 0
-893 -951 7379 0
-7380 925 0
-7380 953 0
-925 -953 7380 0
-7381 1021 0
-7381 959 0
-1021 -959 7381 0
-7382 1053 0
-7382 961 0
-1053 -961 7382 0
-7383 1085 0
-7383 963 0
-1085 -963 7383 0
-7384 1117 0
-7384 965 0
-1117 -965 7384 0
-7385 1149 0
-7385 967 0
-1149 -967 7385 0
-7386 1181 0
-7386 969 0
-1181 -969 7386 0
-7387 1213 0
-7387 971 0
-1213 -971 7387 0
-7388 1245 0
-7388 973 0
-1245 -973 7388 0
-7389 1277 0
-7389 975 0
-1277 -975 7389 0
-1469 -7376 0
-1469 -7377 0
-1469 -7378 0
-1469 -7379 0
-1469 -7380 0
-1469 -7381 0
-1469 -7382 0
-1469 -7383 0
-1469 -7384 0
-1469 -7385 0
-1469 -7386 0
-1469 -7387 0
-1469 -7388 0
-1469 -7389 0
-957 1469 7376 7377 7378 7379 7380 7381 7382 7383 7384 7385 7386 7387 7388 7389 0
-1501 0
-1533 1021 0
-7390 787 0
-7390 1009 0
-787 -1009 7390 0
-7391 829 0
-7391 1011 0
-829 -1011 7391 0
-7392 861 0
-7392 1013 0
-861 -1013 7392 0
-7393 893 0
-7393 1015 0
-893 -1015 7393 0
-7394 925 0
-7394 1017 0
-925 -1017 7394 0
-7395 957 0
-7395 1019 0
-957 -1019 7395 0
-7396 1053 0
-7396 1025 0
-1053 -1025 7396 0
-7397 1085 0
-7397 1027 0
-1085 -1027 7397 0
-7398 1117 0
-7398 1029 0
-1117 -1029 7398 0
-7399 1149 0
-7399 1031 0
-1149 -1031 7399 0
-7400 1181 0
-7400 1033 0
-1181 -1033 7400 0
-7401 1213 0
-7401 1035 0
-1213 -1035 7401 0
-7402 1245 0
-7402 1037 0
-1245 -1037 7402 0
-7403 1277 0
-7403 1039 0
-1277 -1039 7403 0
-1533 -7390 0
-1533 -7391 0
-1533 -7392 0
-1533 -7393 0
-1533 -7394 0
-1533 -7395 0
-1533 -7396 0
-1533 -7397 0
-1533 -7398 0
-1533 -7399 0
-1533 -7400 0
-1533 -7401 0
-1533 -7402 0
-1533 -7403 0
-1021 1533 7390 7391 7392 7393 7394 7395 7396 7397 7398 7399 7400 7401 7402 7403 0
-1565 1053 0
-7404 787 0
-7404 1041 0
-787 -1041 7404 0
-7405 829 0
-7405 1043 0
-829 -1043 7405 0
-7406 861 0
-7406 1045 0
-861 -1045 7406 0
-7407 893 0
-7407 1047 0
-893 -1047 7407 0
-7408 925 0
-7408 1049 0
-925 -1049 7408 0
-7409 957 0
-7409 1051 0
-957 -1051 7409 0
-7410 1021 0
-7410 1055 0
-1021 -1055 7410 0
-7411 1085 0
-7411 1059 0
-1085 -1059 7411 0
-7412 1117 0
-7412 1061 0
-1117 -1061 7412 0
-7413 1149 0
-7413 1063 0
-1149 -1063 7413 0
-7414 1181 0
-7414 1065 0
-1181 -1065 7414 0
-7415 1213 0
-7415 1067 0
-1213 -1067 7415 0
-7416 1245 0
-7416 1069 0
-1245 -1069 7416 0
-7417 1277 0
-7417 1071 0
-1277 -1071 7417 0
-1565 -7404 0
-1565 -7405 0
-1565 -7406 0
-1565 -7407 0
-1565 -7408 0
-1565 -7409 0
-1565 -7410 0
-1565 -7411 0
-1565 -7412 0
-1565 -7413 0
-1565 -7414 0
-1565 -7415 0
-1565 -7416 0
-1565 -7417 0
-1053 1565 7404 7405 7406 7407 7408 7409 7410 7411 7412 7413 7414 7415 7416 7417 0
-1597 1085 0
-7418 787 0
-7418 1073 0
-787 -1073 7418 0
-7419 829 0
-7419 1075 0
-829 -1075 7419 0
-7420 861 0
-7420 1077 0
-861 -1077 7420 0
-7421 893 0
-7421 1079 0
-893 -1079 7421 0
-7422 925 0
-7422 1081 0
-925 -1081 7422 0
-7423 957 0
-7423 1083 0
-957 -1083 7423 0
-7424 1021 0
-7424 1087 0
-1021 -1087 7424 0
-7425 1053 0
-7425 1089 0
-1053 -1089 7425 0
-7426 1117 0
-7426 1093 0
-1117 -1093 7426 0
-7427 1149 0
-7427 1095 0
-1149 -1095 7427 0
-7428 1181 0
-7428 1097 0
-1181 -1097 7428 0
-7429 1213 0
-7429 1099 0
-1213 -1099 7429 0
-7430 1245 0
-7430 1101 0
-1245 -1101 7430 0
-7431 1277 0
-7431 1103 0
-1277 -1103 7431 0
-1597 -7418 0
-1597 -7419 0
-1597 -7420 0
-1597 -7421 0
-1597 -7422 0
-1597 -7423 0
-1597 -7424 0
-1597 -7425 0
-1597 -7426 0
-1597 -7427 0
-1597 -7428 0
-1597 -7429 0
-1597 -7430 0
-1597 -7431 0
-1085 1597 7418 7419 7420 7421 7422 7423 7424 7425 7426 7427 7428 7429 7430 7431 0
-1629 1117 0
-7432 787 0
-7432 1105 0
-787 -1105 7432 0
-7433 829 0
-7433 1107 0
-829 -1107 7433 0
-7434 861 0
-7434 1109 0
-861 -1109 7434 0
-7435 893 0
-7435 1111 0
-893 -1111 7435 0
-7436 925 0
-7436 1113 0
-925 -1113 7436 0
-7437 957 0
-7437 1115 0
-957 -1115 7437 0
-7438 1021 0
-7438 1119 0
-1021 -1119 7438 0
-7439 1053 0
-7439 1121 0
-1053 -1121 7439 0
-7440 1085 0
-7440 1123 0
-1085 -1123 7440 0
-7441 1149 0
-7441 1127 0
-1149 -1127 7441 0
-7442 1181 0
-7442 1129 0
-1181 -1129 7442 0
-7443 1213 0
-7443 1131 0
-1213 -1131 7443 0
-7444 1245 0
-7444 1133 0
-1245 -1133 7444 0
-7445 1277 0
-7445 1135 0
-1277 -1135 7445 0
-1629 -7432 0
-1629 -7433 0
-1629 -7434 0
-1629 -7435 0
-1629 -7436 0
-1629 -7437 0
-1629 -7438 0
-1629 -7439 0
-1629 -7440 0
-1629 -7441 0
-1629 -7442 0
-1629 -7443 0
-1629 -7444 0
-1629 -7445 0
-1117 1629 7432 7433 7434 7435 7436 7437 7438 7439 7440 7441 7442 7443 7444 7445 0
-1661 1149 0
-7446 787 0
-7446 1137 0
-787 -1137 7446 0
-7447 829 0
-7447 1139 0
-829 -1139 7447 0
-7448 861 0
-7448 1141 0
-861 -1141 7448 0
-7449 893 0
-7449 1143 0
-893 -1143 7449 0
-7450 925 0
-7450 1145 0
-925 -1145 7450 0
-7451 957 0
-7451 1147 0
-957 -1147 7451 0
-7452 1021 0
-7452 1151 0
-1021 -1151 7452 0
-7453 1053 0
-7453 1153 0
-1053 -1153 7453 0
-7454 1085 0
-7454 1155 0
-1085 -1155 7454 0
-7455 1117 0
-7455 1157 0
-1117 -1157 7455 0
-7456 1181 0
-7456 1161 0
-1181 -1161 7456 0
-7457 1213 0
-7457 1163 0
-1213 -1163 7457 0
-7458 1245 0
-7458 1165 0
-1245 -1165 7458 0
-7459 1277 0
-7459 1167 0
-1277 -1167 7459 0
-1661 -7446 0
-1661 -7447 0
-1661 -7448 0
-1661 -7449 0
-1661 -7450 0
-1661 -7451 0
-1661 -7452 0
-1661 -7453 0
-1661 -7454 0
-1661 -7455 0
-1661 -7456 0
-1661 -7457 0
-1661 -7458 0
-1661 -7459 0
-1149 1661 7446 7447 7448 7449 7450 7451 7452 7453 7454 7455 7456 7457 7458 7459 0
-1693 1181 0
-7460 787 0
-7460 1169 0
-787 -1169 7460 0
-7461 829 0
-7461 1171 0
-829 -1171 7461 0
-7462 861 0
-7462 1173 0
-861 -1173 7462 0
-7463 893 0
-7463 1175 0
-893 -1175 7463 0
-7464 925 0
-7464 1177 0
-925 -1177 7464 0
-7465 957 0
-7465 1179 0
-957 -1179 7465 0
-7466 1021 0
-7466 1183 0
-1021 -1183 7466 0
-7467 1053 0
-7467 1185 0
-1053 -1185 7467 0
-7468 1085 0
-7468 1187 0
-1085 -1187 7468 0
-7469 1117 0
-7469 1189 0
-1117 -1189 7469 0
-7470 1149 0
-7470 1191 0
-1149 -1191 7470 0
-7471 1213 0
-7471 1195 0
-1213 -1195 7471 0
-7472 1245 0
-7472 1197 0
-1245 -1197 7472 0
-7473 1277 0
-7473 1199 0
-1277 -1199 7473 0
-1693 -7460 0
-1693 -7461 0
-1693 -7462 0
-1693 -7463 0
-1693 -7464 0
-1693 -7465 0
-1693 -7466 0
-1693 -7467 0
-1693 -7468 0
-1693 -7469 0
-1693 -7470 0
-1693 -7471 0
-1693 -7472 0
-1693 -7473 0
-1181 1693 7460 7461 7462 7463 7464 7465 7466 7467 7468 7469 7470 7471 7472 7473 0
-1725 1213 0
-7474 787 0
-7474 1201 0
-787 -1201 7474 0
-7475 829 0
-7475 1203 0
-829 -1203 7475 0
-7476 861 0
-7476 1205 0
-861 -1205 7476 0
-7477 893 0
-7477 1207 0
-893 -1207 7477 0
-7478 925 0
-7478 1209 0
-925 -1209 7478 0
-7479 957 0
-7479 1211 0
-957 -1211 7479 0
-7480 1021 0
-7480 1215 0
-1021 -1215 7480 0
-7481 1053 0
-7481 1217 0
-1053 -1217 7481 0
-7482 1085 0
-7482 1219 0
-1085 -1219 7482 0
-7483 1117 0
-7483 1221 0
-1117 -1221 7483 0
-7484 1149 0
-7484 1223 0
-1149 -1223 7484 0
-7485 1181 0
-7485 1225 0
-1181 -1225 7485 0
-7486 1245 0
-7486 1229 0
-1245 -1229 7486 0
-7487 1277 0
-7487 1231 0
-1277 -1231 7487 0
-1725 -7474 0
-1725 -7475 0
-1725 -7476 0
-1725 -7477 0
-1725 -7478 0
-1725 -7479 0
-1725 -7480 0
-1725 -7481 0
-1725 -7482 0
-1725 -7483 0
-1725 -7484 0
-1725 -7485 0
-1725 -7486 0
-1725 -7487 0
-1213 1725 7474 7475 7476 7477 7478 7479 7480 7481 7482 7483 7484 7485 7486 7487 0
-1757 1245 0
-7488 787 0
-7488 1233 0
-787 -1233 7488 0
-7489 829 0
-7489 1235 0
-829 -1235 7489 0
-7490 861 0
-7490 1237 0
-861 -1237 7490 0
-7491 893 0
-7491 1239 0
-893 -1239 7491 0
-7492 925 0
-7492 1241 0
-925 -1241 7492 0
-7493 957 0
-7493 1243 0
-957 -1243 7493 0
-7494 1021 0
-7494 1247 0
-1021 -1247 7494 0
-7495 1053 0
-7495 1249 0
-1053 -1249 7495 0
-7496 1085 0
-7496 1251 0
-1085 -1251 7496 0
-7497 1117 0
-7497 1253 0
-1117 -1253 7497 0
-7498 1149 0
-7498 1255 0
-1149 -1255 7498 0
-7499 1181 0
-7499 1257 0
-1181 -1257 7499 0
-7500 1213 0
-7500 1259 0
-1213 -1259 7500 0
-7501 1277 0
-7501 1263 0
-1277 -1263 7501 0
-1757 -7488 0
-1757 -7489 0
-1757 -7490 0
-1757 -7491 0
-1757 -7492 0
-1757 -7493 0
-1757 -7494 0
-1757 -7495 0
-1757 -7496 0
-1757 -7497 0
-1757 -7498 0
-1757 -7499 0
-1757 -7500 0
-1757 -7501 0
-1245 1757 7488 7489 7490 7491 7492 7493 7494 7495 7496 7497 7498 7499 7500 7501 0
-1789 1277 0
-7502 787 0
-7502 1265 0
-787 -1265 7502 0
-7503 829 0
-7503 1267 0
-829 -1267 7503 0
-7504 861 0
-7504 1269 0
-861 -1269 7504 0
-7505 893 0
-7505 1271 0
-893 -1271 7505 0
-7506 925 0
-7506 1273 0
-925 -1273 7506 0
-7507 957 0
-7507 1275 0
-957 -1275 7507 0
-7508 1021 0
-7508 1279 0
-1021 -1279 7508 0
-7509 1053 0
-7509 1281 0
-1053 -1281 7509 0
-7510 1085 0
-7510 1283 0
-1085 -1283 7510 0
-7511 1117 0
-7511 1285 0
-1117 -1285 7511 0
-7512 1149 0
-7512 1287 0
-1149 -1287 7512 0
-7513 1181 0
-7513 1289 0
-1181 -1289 7513 0
-7514 1213 0
-7514 1291 0
-1213 -1291 7514 0
-7515 1245 0
-7515 1293 0
-1245 -1293 7515 0
-1789 -7502 0
-1789 -7503 0
-1789 -7504 0
-1789 -7505 0
-1789 -7506 0
-1789 -7507 0
-1789 -7508 0
-1789 -7509 0
-1789 -7510 0
-1789 -7511 0
-1789 -7512 0
-1789 -7513 0
-1789 -7514 0
-1789 -7515 0
-1277 1789 7502 7503 7504 7505 7506 7507 7508 7509 7510 7511 7512 7513 7514 7515 0
-1311 790 0
-7516 831 0
-7516 772 0
-831 -772 7516 0
-7517 863 0
-7517 775 0
-863 -775 7517 0
-7518 895 0
-7518 778 0
-895 -778 7518 0
-7519 927 0
-7519 781 0
-927 -781 7519 0
-7520 959 0
-7520 784 0
-959 -784 7520 0
-7521 991 0
-7521 787 0
-991 -787 7521 0
-7522 1055 0
-7522 793 0
-1055 -793 7522 0
-7523 1087 0
-7523 796 0
-1087 -796 7523 0
-7524 1119 0
-7524 799 0
-1119 -799 7524 0
-7525 1151 0
-7525 802 0
-1151 -802 7525 0
-7526 1183 0
-7526 805 0
-1183 -805 7526 0
-7527 1215 0
-7527 808 0
-1215 -808 7527 0
-7528 1247 0
-7528 811 0
-1247 -811 7528 0
-7529 1279 0
-7529 814 0
-1279 -814 7529 0
-1311 -7516 0
-1311 -7517 0
-1311 -7518 0
-1311 -7519 0
-1311 -7520 0
-1311 -7521 0
-1311 -7522 0
-1311 -7523 0
-1311 -7524 0
-1311 -7525 0
-1311 -7526 0
-1311 -7527 0
-1311 -7528 0
-1311 -7529 0
-790 1311 7516 7517 7518 7519 7520 7521 7522 7523 7524 7525 7526 7527 7528 7529 0
-1343 831 0
-7530 790 0
-7530 817 0
-790 -817 7530 0
-7531 863 0
-7531 821 0
-863 -821 7531 0
-7532 895 0
-7532 823 0
-895 -823 7532 0
-7533 927 0
-7533 825 0
-927 -825 7533 0
-7534 959 0
-7534 827 0
-959 -827 7534 0
-7535 991 0
-7535 829 0
-991 -829 7535 0
-7536 1055 0
-7536 833 0
-1055 -833 7536 0
-7537 1087 0
-7537 835 0
-1087 -835 7537 0
-7538 1119 0
-7538 837 0
-1119 -837 7538 0
-7539 1151 0
-7539 839 0
-1151 -839 7539 0
-7540 1183 0
-7540 841 0
-1183 -841 7540 0
-7541 1215 0
-7541 843 0
-1215 -843 7541 0
-7542 1247 0
-7542 845 0
-1247 -845 7542 0
-7543 1279 0
-7543 847 0
-1279 -847 7543 0
-1343 -7530 0
-1343 -7531 0
-1343 -7532 0
-1343 -7533 0
-1343 -7534 0
-1343 -7535 0
-1343 -7536 0
-1343 -7537 0
-1343 -7538 0
-1343 -7539 0
-1343 -7540 0
-1343 -7541 0
-1343 -7542 0
-1343 -7543 0
-831 1343 7530 7531 7532 7533 7534 7535 7536 7537 7538 7539 7540 7541 7542 7543 0
-1375 863 0
-7544 790 0
-7544 849 0
-790 -849 7544 0
-7545 831 0
-7545 851 0
-831 -851 7545 0
-7546 895 0
-7546 855 0
-895 -855 7546 0
-7547 927 0
-7547 857 0
-927 -857 7547 0
-7548 959 0
-7548 859 0
-959 -859 7548 0
-7549 991 0
-7549 861 0
-991 -861 7549 0
-7550 1055 0
-7550 865 0
-1055 -865 7550 0
-7551 1087 0
-7551 867 0
-1087 -867 7551 0
-7552 1119 0
-7552 869 0
-1119 -869 7552 0
-7553 1151 0
-7553 871 0
-1151 -871 7553 0
-7554 1183 0
-7554 873 0
-1183 -873 7554 0
-7555 1215 0
-7555 875 0
-1215 -875 7555 0
-7556 1247 0
-7556 877 0
-1247 -877 7556 0
-7557 1279 0
-7557 879 0
-1279 -879 7557 0
-1375 -7544 0
-1375 -7545 0
-1375 -7546 0
-1375 -7547 0
-1375 -7548 0
-1375 -7549 0
-1375 -7550 0
-1375 -7551 0
-1375 -7552 0
-1375 -7553 0
-1375 -7554 0
-1375 -7555 0
-1375 -7556 0
-1375 -7557 0
-863 1375 7544 7545 7546 7547 7548 7549 7550 7551 7552 7553 7554 7555 7556 7557 0
-1407 895 0
-7558 790 0
-7558 881 0
-790 -881 7558 0
-7559 831 0
-7559 883 0
-831 -883 7559 0
-7560 863 0
-7560 885 0
-863 -885 7560 0
-7561 927 0
-7561 889 0
-927 -889 7561 0
-7562 959 0
-7562 891 0
-959 -891 7562 0
-7563 991 0
-7563 893 0
-991 -893 7563 0
-7564 1055 0
-7564 897 0
-1055 -897 7564 0
-7565 1087 0
-7565 899 0
-1087 -899 7565 0
-7566 1119 0
-7566 901 0
-1119 -901 7566 0
-7567 1151 0
-7567 903 0
-1151 -903 7567 0
-7568 1183 0
-7568 905 0
-1183 -905 7568 0
-7569 1215 0
-7569 907 0
-1215 -907 7569 0
-7570 1247 0
-7570 909 0
-1247 -909 7570 0
-7571 1279 0
-7571 911 0
-1279 -911 7571 0
-1407 -7558 0
-1407 -7559 0
-1407 -7560 0
-1407 -7561 0
-1407 -7562 0
-1407 -7563 0
-1407 -7564 0
-1407 -7565 0
-1407 -7566 0
-1407 -7567 0
-1407 -7568 0
-1407 -7569 0
-1407 -7570 0
-1407 -7571 0
-895 1407 7558 7559 7560 7561 7562 7563 7564 7565 7566 7567 7568 7569 7570 7571 0
-1439 927 0
-7572 790 0
-7572 913 0
-790 -913 7572 0
-7573 831 0
-7573 915 0
-831 -915 7573 0
-7574 863 0
-7574 917 0
-863 -917 7574 0
-7575 895 0
-7575 919 0
-895 -919 7575 0
-7576 959 0
-7576 923 0
-959 -923 7576 0
-7577 991 0
-7577 925 0
-991 -925 7577 0
-7578 1055 0
-7578 929 0
-1055 -929 7578 0
-7579 1087 0
-7579 931 0
-1087 -931 7579 0
-7580 1119 0
-7580 933 0
-1119 -933 7580 0
-7581 1151 0
-7581 935 0
-1151 -935 7581 0
-7582 1183 0
-7582 937 0
-1183 -937 7582 0
-7583 1215 0
-7583 939 0
-1215 -939 7583 0
-7584 1247 0
-7584 941 0
-1247 -941 7584 0
-7585 1279 0
-7585 943 0
-1279 -943 7585 0
-1439 -7572 0
-1439 -7573 0
-1439 -7574 0
-1439 -7575 0
-1439 -7576 0
-1439 -7577 0
-1439 -7578 0
-1439 -7579 0
-1439 -7580 0
-1439 -7581 0
-1439 -7582 0
-1439 -7583 0
-1439 -7584 0
-1439 -7585 0
-927 1439 7572 7573 7574 7575 7576 7577 7578 7579 7580 7581 7582 7583 7584 7585 0
-1471 959 0
-7586 790 0
-7586 945 0
-790 -945 7586 0
-7587 831 0
-7587 947 0
-831 -947 7587 0
-7588 863 0
-7588 949 0
-863 -949 7588 0
-7589 895 0
-7589 951 0
-895 -951 7589 0
-7590 927 0
-7590 953 0
-927 -953 7590 0
-7591 991 0
-7591 957 0
-991 -957 7591 0
-7592 1055 0
-7592 961 0
-1055 -961 7592 0
-7593 1087 0
-7593 963 0
-1087 -963 7593 0
-7594 1119 0
-7594 965 0
-1119 -965 7594 0
-7595 1151 0
-7595 967 0
-1151 -967 7595 0
-7596 1183 0
-7596 969 0
-1183 -969 7596 0
-7597 1215 0
-7597 971 0
-1215 -971 7597 0
-7598 1247 0
-7598 973 0
-1247 -973 7598 0
-7599 1279 0
-7599 975 0
-1279 -975 7599 0
-1471 -7586 0
-1471 -7587 0
-1471 -7588 0
-1471 -7589 0
-1471 -7590 0
-1471 -7591 0
-1471 -7592 0
-1471 -7593 0
-1471 -7594 0
-1471 -7595 0
-1471 -7596 0
-1471 -7597 0
-1471 -7598 0
-1471 -7599 0
-959 1471 7586 7587 7588 7589 7590 7591 7592 7593 7594 7595 7596 7597 7598 7599 0
-1503 991 0
-7600 790 0
-7600 977 0
-790 -977 7600 0
-7601 831 0
-7601 979 0
-831 -979 7601 0
-7602 863 0
-7602 981 0
-863 -981 7602 0
-7603 895 0
-7603 983 0
-895 -983 7603 0
-7604 927 0
-7604 985 0
-927 -985 7604 0
-7605 959 0
-7605 987 0
-959 -987 7605 0
-7606 1055 0
-7606 993 0
-1055 -993 7606 0
-7607 1087 0
-7607 995 0
-1087 -995 7607 0
-7608 1119 0
-7608 997 0
-1119 -997 7608 0
-7609 1151 0
-7609 999 0
-1151 -999 7609 0
-7610 1183 0
-7610 1001 0
-1183 -1001 7610 0
-7611 1215 0
-7611 1003 0
-1215 -1003 7611 0
-7612 1247 0
-7612 1005 0
-1247 -1005 7612 0
-7613 1279 0
-7613 1007 0
-1279 -1007 7613 0
-1503 -7600 0
-1503 -7601 0
-1503 -7602 0
-1503 -7603 0
-1503 -7604 0
-1503 -7605 0
-1503 -7606 0
-1503 -7607 0
-1503 -7608 0
-1503 -7609 0
-1503 -7610 0
-1503 -7611 0
-1503 -7612 0
-1503 -7613 0
-991 1503 7600 7601 7602 7603 7604 7605 7606 7607 7608 7609 7610 7611 7612 7613 0
-1535 0
-1567 1055 0
-7614 790 0
-7614 1041 0
-790 -1041 7614 0
-7615 831 0
-7615 1043 0
-831 -1043 7615 0
-7616 863 0
-7616 1045 0
-863 -1045 7616 0
-7617 895 0
-7617 1047 0
-895 -1047 7617 0
-7618 927 0
-7618 1049 0
-927 -1049 7618 0
-7619 959 0
-7619 1051 0
-959 -1051 7619 0
-7620 991 0
-7620 1053 0
-991 -1053 7620 0
-7621 1087 0
-7621 1059 0
-1087 -1059 7621 0
-7622 1119 0
-7622 1061 0
-1119 -1061 7622 0
-7623 1151 0
-7623 1063 0
-1151 -1063 7623 0
-7624 1183 0
-7624 1065 0
-1183 -1065 7624 0
-7625 1215 0
-7625 1067 0
-1215 -1067 7625 0
-7626 1247 0
-7626 1069 0
-1247 -1069 7626 0
-7627 1279 0
-7627 1071 0
-1279 -1071 7627 0
-1567 -7614 0
-1567 -7615 0
-1567 -7616 0
-1567 -7617 0
-1567 -7618 0
-1567 -7619 0
-1567 -7620 0
-1567 -7621 0
-1567 -7622 0
-1567 -7623 0
-1567 -7624 0
-1567 -7625 0
-1567 -7626 0
-1567 -7627 0
-1055 1567 7614 7615 7616 7617 7618 7619 7620 7621 7622 7623 7624 7625 7626 7627 0
-1599 1087 0
-7628 790 0
-7628 1073 0
-790 -1073 7628 0
-7629 831 0
-7629 1075 0
-831 -1075 7629 0
-7630 863 0
-7630 1077 0
-863 -1077 7630 0
-7631 895 0
-7631 1079 0
-895 -1079 7631 0
-7632 927 0
-7632 1081 0
-927 -1081 7632 0
-7633 959 0
-7633 1083 0
-959 -1083 7633 0
-7634 991 0
-7634 1085 0
-991 -1085 7634 0
-7635 1055 0
-7635 1089 0
-1055 -1089 7635 0
-7636 1119 0
-7636 1093 0
-1119 -1093 7636 0
-7637 1151 0
-7637 1095 0
-1151 -1095 7637 0
-7638 1183 0
-7638 1097 0
-1183 -1097 7638 0
-7639 1215 0
-7639 1099 0
-1215 -1099 7639 0
-7640 1247 0
-7640 1101 0
-1247 -1101 7640 0
-7641 1279 0
-7641 1103 0
-1279 -1103 7641 0
-1599 -7628 0
-1599 -7629 0
-1599 -7630 0
-1599 -7631 0
-1599 -7632 0
-1599 -7633 0
-1599 -7634 0
-1599 -7635 0
-1599 -7636 0
-1599 -7637 0
-1599 -7638 0
-1599 -7639 0
-1599 -7640 0
-1599 -7641 0
-1087 1599 7628 7629 7630 7631 7632 7633 7634 7635 7636 7637 7638 7639 7640 7641 0
-1631 1119 0
-7642 790 0
-7642 1105 0
-790 -1105 7642 0
-7643 831 0
-7643 1107 0
-831 -1107 7643 0
-7644 863 0
-7644 1109 0
-863 -1109 7644 0
-7645 895 0
-7645 1111 0
-895 -1111 7645 0
-7646 927 0
-7646 1113 0
-927 -1113 7646 0
-7647 959 0
-7647 1115 0
-959 -1115 7647 0
-7648 991 0
-7648 1117 0
-991 -1117 7648 0
-7649 1055 0
-7649 1121 0
-1055 -1121 7649 0
-7650 1087 0
-7650 1123 0
-1087 -1123 7650 0
-7651 1151 0
-7651 1127 0
-1151 -1127 7651 0
-7652 1183 0
-7652 1129 0
-1183 -1129 7652 0
-7653 1215 0
-7653 1131 0
-1215 -1131 7653 0
-7654 1247 0
-7654 1133 0
-1247 -1133 7654 0
-7655 1279 0
-7655 1135 0
-1279 -1135 7655 0
-1631 -7642 0
-1631 -7643 0
-1631 -7644 0
-1631 -7645 0
-1631 -7646 0
-1631 -7647 0
-1631 -7648 0
-1631 -7649 0
-1631 -7650 0
-1631 -7651 0
-1631 -7652 0
-1631 -7653 0
-1631 -7654 0
-1631 -7655 0
-1119 1631 7642 7643 7644 7645 7646 7647 7648 7649 7650 7651 7652 7653 7654 7655 0
-1663 1151 0
-7656 790 0
-7656 1137 0
-790 -1137 7656 0
-7657 831 0
-7657 1139 0
-831 -1139 7657 0
-7658 863 0
-7658 1141 0
-863 -1141 7658 0
-7659 895 0
-7659 1143 0
-895 -1143 7659 0
-7660 927 0
-7660 1145 0
-927 -1145 7660 0
-7661 959 0
-7661 1147 0
-959 -1147 7661 0
-7662 991 0
-7662 1149 0
-991 -1149 7662 0
-7663 1055 0
-7663 1153 0
-1055 -1153 7663 0
-7664 1087 0
-7664 1155 0
-1087 -1155 7664 0
-7665 1119 0
-7665 1157 0
-1119 -1157 7665 0
-7666 1183 0
-7666 1161 0
-1183 -1161 7666 0
-7667 1215 0
-7667 1163 0
-1215 -1163 7667 0
-7668 1247 0
-7668 1165 0
-1247 -1165 7668 0
-7669 1279 0
-7669 1167 0
-1279 -1167 7669 0
-1663 -7656 0
-1663 -7657 0
-1663 -7658 0
-1663 -7659 0
-1663 -7660 0
-1663 -7661 0
-1663 -7662 0
-1663 -7663 0
-1663 -7664 0
-1663 -7665 0
-1663 -7666 0
-1663 -7667 0
-1663 -7668 0
-1663 -7669 0
-1151 1663 7656 7657 7658 7659 7660 7661 7662 7663 7664 7665 7666 7667 7668 7669 0
-1695 1183 0
-7670 790 0
-7670 1169 0
-790 -1169 7670 0
-7671 831 0
-7671 1171 0
-831 -1171 7671 0
-7672 863 0
-7672 1173 0
-863 -1173 7672 0
-7673 895 0
-7673 1175 0
-895 -1175 7673 0
-7674 927 0
-7674 1177 0
-927 -1177 7674 0
-7675 959 0
-7675 1179 0
-959 -1179 7675 0
-7676 991 0
-7676 1181 0
-991 -1181 7676 0
-7677 1055 0
-7677 1185 0
-1055 -1185 7677 0
-7678 1087 0
-7678 1187 0
-1087 -1187 7678 0
-7679 1119 0
-7679 1189 0
-1119 -1189 7679 0
-7680 1151 0
-7680 1191 0
-1151 -1191 7680 0
-7681 1215 0
-7681 1195 0
-1215 -1195 7681 0
-7682 1247 0
-7682 1197 0
-1247 -1197 7682 0
-7683 1279 0
-7683 1199 0
-1279 -1199 7683 0
-1695 -7670 0
-1695 -7671 0
-1695 -7672 0
-1695 -7673 0
-1695 -7674 0
-1695 -7675 0
-1695 -7676 0
-1695 -7677 0
-1695 -7678 0
-1695 -7679 0
-1695 -7680 0
-1695 -7681 0
-1695 -7682 0
-1695 -7683 0
-1183 1695 7670 7671 7672 7673 7674 7675 7676 7677 7678 7679 7680 7681 7682 7683 0
-1727 1215 0
-7684 790 0
-7684 1201 0
-790 -1201 7684 0
-7685 831 0
-7685 1203 0
-831 -1203 7685 0
-7686 863 0
-7686 1205 0
-863 -1205 7686 0
-7687 895 0
-7687 1207 0
-895 -1207 7687 0
-7688 927 0
-7688 1209 0
-927 -1209 7688 0
-7689 959 0
-7689 1211 0
-959 -1211 7689 0
-7690 991 0
-7690 1213 0
-991 -1213 7690 0
-7691 1055 0
-7691 1217 0
-1055 -1217 7691 0
-7692 1087 0
-7692 1219 0
-1087 -1219 7692 0
-7693 1119 0
-7693 1221 0
-1119 -1221 7693 0
-7694 1151 0
-7694 1223 0
-1151 -1223 7694 0
-7695 1183 0
-7695 1225 0
-1183 -1225 7695 0
-7696 1247 0
-7696 1229 0
-1247 -1229 7696 0
-7697 1279 0
-7697 1231 0
-1279 -1231 7697 0
-1727 -7684 0
-1727 -7685 0
-1727 -7686 0
-1727 -7687 0
-1727 -7688 0
-1727 -7689 0
-1727 -7690 0
-1727 -7691 0
-1727 -7692 0
-1727 -7693 0
-1727 -7694 0
-1727 -7695 0
-1727 -7696 0
-1727 -7697 0
-1215 1727 7684 7685 7686 7687 7688 7689 7690 7691 7692 7693 7694 7695 7696 7697 0
-1759 1247 0
-7698 790 0
-7698 1233 0
-790 -1233 7698 0
-7699 831 0
-7699 1235 0
-831 -1235 7699 0
-7700 863 0
-7700 1237 0
-863 -1237 7700 0
-7701 895 0
-7701 1239 0
-895 -1239 7701 0
-7702 927 0
-7702 1241 0
-927 -1241 7702 0
-7703 959 0
-7703 1243 0
-959 -1243 7703 0
-7704 991 0
-7704 1245 0
-991 -1245 7704 0
-7705 1055 0
-7705 1249 0
-1055 -1249 7705 0
-7706 1087 0
-7706 1251 0
-1087 -1251 7706 0
-7707 1119 0
-7707 1253 0
-1119 -1253 7707 0
-7708 1151 0
-7708 1255 0
-1151 -1255 7708 0
-7709 1183 0
-7709 1257 0
-1183 -1257 7709 0
-7710 1215 0
-7710 1259 0
-1215 -1259 7710 0
-7711 1279 0
-7711 1263 0
-1279 -1263 7711 0
-1759 -7698 0
-1759 -7699 0
-1759 -7700 0
-1759 -7701 0
-1759 -7702 0
-1759 -7703 0
-1759 -7704 0
-1759 -7705 0
-1759 -7706 0
-1759 -7707 0
-1759 -7708 0
-1759 -7709 0
-1759 -7710 0
-1759 -7711 0
-1247 1759 7698 7699 7700 7701 7702 7703 7704 7705 7706 7707 7708 7709 7710 7711 0
-1791 1279 0
-7712 790 0
-7712 1265 0
-790 -1265 7712 0
-7713 831 0
-7713 1267 0
-831 -1267 7713 0
-7714 863 0
-7714 1269 0
-863 -1269 7714 0
-7715 895 0
-7715 1271 0
-895 -1271 7715 0
-7716 927 0
-7716 1273 0
-927 -1273 7716 0
-7717 959 0
-7717 1275 0
-959 -1275 7717 0
-7718 991 0
-7718 1277 0
-991 -1277 7718 0
-7719 1055 0
-7719 1281 0
-1055 -1281 7719 0
-7720 1087 0
-7720 1283 0
-1087 -1283 7720 0
-7721 1119 0
-7721 1285 0
-1119 -1285 7721 0
-7722 1151 0
-7722 1287 0
-1151 -1287 7722 0
-7723 1183 0
-7723 1289 0
-1183 -1289 7723 0
-7724 1215 0
-7724 1291 0
-1215 -1291 7724 0
-7725 1247 0
-7725 1293 0
-1247 -1293 7725 0
-1791 -7712 0
-1791 -7713 0
-1791 -7714 0
-1791 -7715 0
-1791 -7716 0
-1791 -7717 0
-1791 -7718 0
-1791 -7719 0
-1791 -7720 0
-1791 -7721 0
-1791 -7722 0
-1791 -7723 0
-1791 -7724 0
-1791 -7725 0
-1279 1791 7712 7713 7714 7715 7716 7717 7718 7719 7720 7721 7722 7723 7724 7725 0
-1313 793 0
-7726 833 0
-7726 772 0
-833 -772 7726 0
-7727 865 0
-7727 775 0
-865 -775 7727 0
-7728 897 0
-7728 778 0
-897 -778 7728 0
-7729 929 0
-7729 781 0
-929 -781 7729 0
-7730 961 0
-7730 784 0
-961 -784 7730 0
-7731 993 0
-7731 787 0
-993 -787 7731 0
-7732 1025 0
-7732 790 0
-1025 -790 7732 0
-7733 1089 0
-7733 796 0
-1089 -796 7733 0
-7734 1121 0
-7734 799 0
-1121 -799 7734 0
-7735 1153 0
-7735 802 0
-1153 -802 7735 0
-7736 1185 0
-7736 805 0
-1185 -805 7736 0
-7737 1217 0
-7737 808 0
-1217 -808 7737 0
-7738 1249 0
-7738 811 0
-1249 -811 7738 0
-7739 1281 0
-7739 814 0
-1281 -814 7739 0
-1313 -7726 0
-1313 -7727 0
-1313 -7728 0
-1313 -7729 0
-1313 -7730 0
-1313 -7731 0
-1313 -7732 0
-1313 -7733 0
-1313 -7734 0
-1313 -7735 0
-1313 -7736 0
-1313 -7737 0
-1313 -7738 0
-1313 -7739 0
-793 1313 7726 7727 7728 7729 7730 7731 7732 7733 7734 7735 7736 7737 7738 7739 0
-1345 833 0
-7740 793 0
-7740 817 0
-793 -817 7740 0
-7741 865 0
-7741 821 0
-865 -821 7741 0
-7742 897 0
-7742 823 0
-897 -823 7742 0
-7743 929 0
-7743 825 0
-929 -825 7743 0
-7744 961 0
-7744 827 0
-961 -827 7744 0
-7745 993 0
-7745 829 0
-993 -829 7745 0
-7746 1025 0
-7746 831 0
-1025 -831 7746 0
-7747 1089 0
-7747 835 0
-1089 -835 7747 0
-7748 1121 0
-7748 837 0
-1121 -837 7748 0
-7749 1153 0
-7749 839 0
-1153 -839 7749 0
-7750 1185 0
-7750 841 0
-1185 -841 7750 0
-7751 1217 0
-7751 843 0
-1217 -843 7751 0
-7752 1249 0
-7752 845 0
-1249 -845 7752 0
-7753 1281 0
-7753 847 0
-1281 -847 7753 0
-1345 -7740 0
-1345 -7741 0
-1345 -7742 0
-1345 -7743 0
-1345 -7744 0
-1345 -7745 0
-1345 -7746 0
-1345 -7747 0
-1345 -7748 0
-1345 -7749 0
-1345 -7750 0
-1345 -7751 0
-1345 -7752 0
-1345 -7753 0
-833 1345 7740 7741 7742 7743 7744 7745 7746 7747 7748 7749 7750 7751 7752 7753 0
-1377 865 0
-7754 793 0
-7754 849 0
-793 -849 7754 0
-7755 833 0
-7755 851 0
-833 -851 7755 0
-7756 897 0
-7756 855 0
-897 -855 7756 0
-7757 929 0
-7757 857 0
-929 -857 7757 0
-7758 961 0
-7758 859 0
-961 -859 7758 0
-7759 993 0
-7759 861 0
-993 -861 7759 0
-7760 1025 0
-7760 863 0
-1025 -863 7760 0
-7761 1089 0
-7761 867 0
-1089 -867 7761 0
-7762 1121 0
-7762 869 0
-1121 -869 7762 0
-7763 1153 0
-7763 871 0
-1153 -871 7763 0
-7764 1185 0
-7764 873 0
-1185 -873 7764 0
-7765 1217 0
-7765 875 0
-1217 -875 7765 0
-7766 1249 0
-7766 877 0
-1249 -877 7766 0
-7767 1281 0
-7767 879 0
-1281 -879 7767 0
-1377 -7754 0
-1377 -7755 0
-1377 -7756 0
-1377 -7757 0
-1377 -7758 0
-1377 -7759 0
-1377 -7760 0
-1377 -7761 0
-1377 -7762 0
-1377 -7763 0
-1377 -7764 0
-1377 -7765 0
-1377 -7766 0
-1377 -7767 0
-865 1377 7754 7755 7756 7757 7758 7759 7760 7761 7762 7763 7764 7765 7766 7767 0
-1409 897 0
-7768 793 0
-7768 881 0
-793 -881 7768 0
-7769 833 0
-7769 883 0
-833 -883 7769 0
-7770 865 0
-7770 885 0
-865 -885 7770 0
-7771 929 0
-7771 889 0
-929 -889 7771 0
-7772 961 0
-7772 891 0
-961 -891 7772 0
-7773 993 0
-7773 893 0
-993 -893 7773 0
-7774 1025 0
-7774 895 0
-1025 -895 7774 0
-7775 1089 0
-7775 899 0
-1089 -899 7775 0
-7776 1121 0
-7776 901 0
-1121 -901 7776 0
-7777 1153 0
-7777 903 0
-1153 -903 7777 0
-7778 1185 0
-7778 905 0
-1185 -905 7778 0
-7779 1217 0
-7779 907 0
-1217 -907 7779 0
-7780 1249 0
-7780 909 0
-1249 -909 7780 0
-7781 1281 0
-7781 911 0
-1281 -911 7781 0
-1409 -7768 0
-1409 -7769 0
-1409 -7770 0
-1409 -7771 0
-1409 -7772 0
-1409 -7773 0
-1409 -7774 0
-1409 -7775 0
-1409 -7776 0
-1409 -7777 0
-1409 -7778 0
-1409 -7779 0
-1409 -7780 0
-1409 -7781 0
-897 1409 7768 7769 7770 7771 7772 7773 7774 7775 7776 7777 7778 7779 7780 7781 0
-1441 929 0
-7782 793 0
-7782 913 0
-793 -913 7782 0
-7783 833 0
-7783 915 0
-833 -915 7783 0
-7784 865 0
-7784 917 0
-865 -917 7784 0
-7785 897 0
-7785 919 0
-897 -919 7785 0
-7786 961 0
-7786 923 0
-961 -923 7786 0
-7787 993 0
-7787 925 0
-993 -925 7787 0
-7788 1025 0
-7788 927 0
-1025 -927 7788 0
-7789 1089 0
-7789 931 0
-1089 -931 7789 0
-7790 1121 0
-7790 933 0
-1121 -933 7790 0
-7791 1153 0
-7791 935 0
-1153 -935 7791 0
-7792 1185 0
-7792 937 0
-1185 -937 7792 0
-7793 1217 0
-7793 939 0
-1217 -939 7793 0
-7794 1249 0
-7794 941 0
-1249 -941 7794 0
-7795 1281 0
-7795 943 0
-1281 -943 7795 0
-1441 -7782 0
-1441 -7783 0
-1441 -7784 0
-1441 -7785 0
-1441 -7786 0
-1441 -7787 0
-1441 -7788 0
-1441 -7789 0
-1441 -7790 0
-1441 -7791 0
-1441 -7792 0
-1441 -7793 0
-1441 -7794 0
-1441 -7795 0
-929 1441 7782 7783 7784 7785 7786 7787 7788 7789 7790 7791 7792 7793 7794 7795 0
-1473 961 0
-7796 793 0
-7796 945 0
-793 -945 7796 0
-7797 833 0
-7797 947 0
-833 -947 7797 0
-7798 865 0
-7798 949 0
-865 -949 7798 0
-7799 897 0
-7799 951 0
-897 -951 7799 0
-7800 929 0
-7800 953 0
-929 -953 7800 0
-7801 993 0
-7801 957 0
-993 -957 7801 0
-7802 1025 0
-7802 959 0
-1025 -959 7802 0
-7803 1089 0
-7803 963 0
-1089 -963 7803 0
-7804 1121 0
-7804 965 0
-1121 -965 7804 0
-7805 1153 0
-7805 967 0
-1153 -967 7805 0
-7806 1185 0
-7806 969 0
-1185 -969 7806 0
-7807 1217 0
-7807 971 0
-1217 -971 7807 0
-7808 1249 0
-7808 973 0
-1249 -973 7808 0
-7809 1281 0
-7809 975 0
-1281 -975 7809 0
-1473 -7796 0
-1473 -7797 0
-1473 -7798 0
-1473 -7799 0
-1473 -7800 0
-1473 -7801 0
-1473 -7802 0
-1473 -7803 0
-1473 -7804 0
-1473 -7805 0
-1473 -7806 0
-1473 -7807 0
-1473 -7808 0
-1473 -7809 0
-961 1473 7796 7797 7798 7799 7800 7801 7802 7803 7804 7805 7806 7807 7808 7809 0
-1505 993 0
-7810 793 0
-7810 977 0
-793 -977 7810 0
-7811 833 0
-7811 979 0
-833 -979 7811 0
-7812 865 0
-7812 981 0
-865 -981 7812 0
-7813 897 0
-7813 983 0
-897 -983 7813 0
-7814 929 0
-7814 985 0
-929 -985 7814 0
-7815 961 0
-7815 987 0
-961 -987 7815 0
-7816 1025 0
-7816 991 0
-1025 -991 7816 0
-7817 1089 0
-7817 995 0
-1089 -995 7817 0
-7818 1121 0
-7818 997 0
-1121 -997 7818 0
-7819 1153 0
-7819 999 0
-1153 -999 7819 0
-7820 1185 0
-7820 1001 0
-1185 -1001 7820 0
-7821 1217 0
-7821 1003 0
-1217 -1003 7821 0
-7822 1249 0
-7822 1005 0
-1249 -1005 7822 0
-7823 1281 0
-7823 1007 0
-1281 -1007 7823 0
-1505 -7810 0
-1505 -7811 0
-1505 -7812 0
-1505 -7813 0
-1505 -7814 0
-1505 -7815 0
-1505 -7816 0
-1505 -7817 0
-1505 -7818 0
-1505 -7819 0
-1505 -7820 0
-1505 -7821 0
-1505 -7822 0
-1505 -7823 0
-993 1505 7810 7811 7812 7813 7814 7815 7816 7817 7818 7819 7820 7821 7822 7823 0
-1537 1025 0
-7824 793 0
-7824 1009 0
-793 -1009 7824 0
-7825 833 0
-7825 1011 0
-833 -1011 7825 0
-7826 865 0
-7826 1013 0
-865 -1013 7826 0
-7827 897 0
-7827 1015 0
-897 -1015 7827 0
-7828 929 0
-7828 1017 0
-929 -1017 7828 0
-7829 961 0
-7829 1019 0
-961 -1019 7829 0
-7830 993 0
-7830 1021 0
-993 -1021 7830 0
-7831 1089 0
-7831 1027 0
-1089 -1027 7831 0
-7832 1121 0
-7832 1029 0
-1121 -1029 7832 0
-7833 1153 0
-7833 1031 0
-1153 -1031 7833 0
-7834 1185 0
-7834 1033 0
-1185 -1033 7834 0
-7835 1217 0
-7835 1035 0
-1217 -1035 7835 0
-7836 1249 0
-7836 1037 0
-1249 -1037 7836 0
-7837 1281 0
-7837 1039 0
-1281 -1039 7837 0
-1537 -7824 0
-1537 -7825 0
-1537 -7826 0
-1537 -7827 0
-1537 -7828 0
-1537 -7829 0
-1537 -7830 0
-1537 -7831 0
-1537 -7832 0
-1537 -7833 0
-1537 -7834 0
-1537 -7835 0
-1537 -7836 0
-1537 -7837 0
-1025 1537 7824 7825 7826 7827 7828 7829 7830 7831 7832 7833 7834 7835 7836 7837 0
-1569 0
-1601 1089 0
-7838 793 0
-7838 1073 0
-793 -1073 7838 0
-7839 833 0
-7839 1075 0
-833 -1075 7839 0
-7840 865 0
-7840 1077 0
-865 -1077 7840 0
-7841 897 0
-7841 1079 0
-897 -1079 7841 0
-7842 929 0
-7842 1081 0
-929 -1081 7842 0
-7843 961 0
-7843 1083 0
-961 -1083 7843 0
-7844 993 0
-7844 1085 0
-993 -1085 7844 0
-7845 1025 0
-7845 1087 0
-1025 -1087 7845 0
-7846 1121 0
-7846 1093 0
-1121 -1093 7846 0
-7847 1153 0
-7847 1095 0
-1153 -1095 7847 0
-7848 1185 0
-7848 1097 0
-1185 -1097 7848 0
-7849 1217 0
-7849 1099 0
-1217 -1099 7849 0
-7850 1249 0
-7850 1101 0
-1249 -1101 7850 0
-7851 1281 0
-7851 1103 0
-1281 -1103 7851 0
-1601 -7838 0
-1601 -7839 0
-1601 -7840 0
-1601 -7841 0
-1601 -7842 0
-1601 -7843 0
-1601 -7844 0
-1601 -7845 0
-1601 -7846 0
-1601 -7847 0
-1601 -7848 0
-1601 -7849 0
-1601 -7850 0
-1601 -7851 0
-1089 1601 7838 7839 7840 7841 7842 7843 7844 7845 7846 7847 7848 7849 7850 7851 0
-1633 1121 0
-7852 793 0
-7852 1105 0
-793 -1105 7852 0
-7853 833 0
-7853 1107 0
-833 -1107 7853 0
-7854 865 0
-7854 1109 0
-865 -1109 7854 0
-7855 897 0
-7855 1111 0
-897 -1111 7855 0
-7856 929 0
-7856 1113 0
-929 -1113 7856 0
-7857 961 0
-7857 1115 0
-961 -1115 7857 0
-7858 993 0
-7858 1117 0
-993 -1117 7858 0
-7859 1025 0
-7859 1119 0
-1025 -1119 7859 0
-7860 1089 0
-7860 1123 0
-1089 -1123 7860 0
-7861 1153 0
-7861 1127 0
-1153 -1127 7861 0
-7862 1185 0
-7862 1129 0
-1185 -1129 7862 0
-7863 1217 0
-7863 1131 0
-1217 -1131 7863 0
-7864 1249 0
-7864 1133 0
-1249 -1133 7864 0
-7865 1281 0
-7865 1135 0
-1281 -1135 7865 0
-1633 -7852 0
-1633 -7853 0
-1633 -7854 0
-1633 -7855 0
-1633 -7856 0
-1633 -7857 0
-1633 -7858 0
-1633 -7859 0
-1633 -7860 0
-1633 -7861 0
-1633 -7862 0
-1633 -7863 0
-1633 -7864 0
-1633 -7865 0
-1121 1633 7852 7853 7854 7855 7856 7857 7858 7859 7860 7861 7862 7863 7864 7865 0
-1665 1153 0
-7866 793 0
-7866 1137 0
-793 -1137 7866 0
-7867 833 0
-7867 1139 0
-833 -1139 7867 0
-7868 865 0
-7868 1141 0
-865 -1141 7868 0
-7869 897 0
-7869 1143 0
-897 -1143 7869 0
-7870 929 0
-7870 1145 0
-929 -1145 7870 0
-7871 961 0
-7871 1147 0
-961 -1147 7871 0
-7872 993 0
-7872 1149 0
-993 -1149 7872 0
-7873 1025 0
-7873 1151 0
-1025 -1151 7873 0
-7874 1089 0
-7874 1155 0
-1089 -1155 7874 0
-7875 1121 0
-7875 1157 0
-1121 -1157 7875 0
-7876 1185 0
-7876 1161 0
-1185 -1161 7876 0
-7877 1217 0
-7877 1163 0
-1217 -1163 7877 0
-7878 1249 0
-7878 1165 0
-1249 -1165 7878 0
-7879 1281 0
-7879 1167 0
-1281 -1167 7879 0
-1665 -7866 0
-1665 -7867 0
-1665 -7868 0
-1665 -7869 0
-1665 -7870 0
-1665 -7871 0
-1665 -7872 0
-1665 -7873 0
-1665 -7874 0
-1665 -7875 0
-1665 -7876 0
-1665 -7877 0
-1665 -7878 0
-1665 -7879 0
-1153 1665 7866 7867 7868 7869 7870 7871 7872 7873 7874 7875 7876 7877 7878 7879 0
-1697 1185 0
-7880 793 0
-7880 1169 0
-793 -1169 7880 0
-7881 833 0
-7881 1171 0
-833 -1171 7881 0
-7882 865 0
-7882 1173 0
-865 -1173 7882 0
-7883 897 0
-7883 1175 0
-897 -1175 7883 0
-7884 929 0
-7884 1177 0
-929 -1177 7884 0
-7885 961 0
-7885 1179 0
-961 -1179 7885 0
-7886 993 0
-7886 1181 0
-993 -1181 7886 0
-7887 1025 0
-7887 1183 0
-1025 -1183 7887 0
-7888 1089 0
-7888 1187 0
-1089 -1187 7888 0
-7889 1121 0
-7889 1189 0
-1121 -1189 7889 0
-7890 1153 0
-7890 1191 0
-1153 -1191 7890 0
-7891 1217 0
-7891 1195 0
-1217 -1195 7891 0
-7892 1249 0
-7892 1197 0
-1249 -1197 7892 0
-7893 1281 0
-7893 1199 0
-1281 -1199 7893 0
-1697 -7880 0
-1697 -7881 0
-1697 -7882 0
-1697 -7883 0
-1697 -7884 0
-1697 -7885 0
-1697 -7886 0
-1697 -7887 0
-1697 -7888 0
-1697 -7889 0
-1697 -7890 0
-1697 -7891 0
-1697 -7892 0
-1697 -7893 0
-1185 1697 7880 7881 7882 7883 7884 7885 7886 7887 7888 7889 7890 7891 7892 7893 0
-1729 1217 0
-7894 793 0
-7894 1201 0
-793 -1201 7894 0
-7895 833 0
-7895 1203 0
-833 -1203 7895 0
-7896 865 0
-7896 1205 0
-865 -1205 7896 0
-7897 897 0
-7897 1207 0
-897 -1207 7897 0
-7898 929 0
-7898 1209 0
-929 -1209 7898 0
-7899 961 0
-7899 1211 0
-961 -1211 7899 0
-7900 993 0
-7900 1213 0
-993 -1213 7900 0
-7901 1025 0
-7901 1215 0
-1025 -1215 7901 0
-7902 1089 0
-7902 1219 0
-1089 -1219 7902 0
-7903 1121 0
-7903 1221 0
-1121 -1221 7903 0
-7904 1153 0
-7904 1223 0
-1153 -1223 7904 0
-7905 1185 0
-7905 1225 0
-1185 -1225 7905 0
-7906 1249 0
-7906 1229 0
-1249 -1229 7906 0
-7907 1281 0
-7907 1231 0
-1281 -1231 7907 0
-1729 -7894 0
-1729 -7895 0
-1729 -7896 0
-1729 -7897 0
-1729 -7898 0
-1729 -7899 0
-1729 -7900 0
-1729 -7901 0
-1729 -7902 0
-1729 -7903 0
-1729 -7904 0
-1729 -7905 0
-1729 -7906 0
-1729 -7907 0
-1217 1729 7894 7895 7896 7897 7898 7899 7900 7901 7902 7903 7904 7905 7906 7907 0
-1761 1249 0
-7908 793 0
-7908 1233 0
-793 -1233 7908 0
-7909 833 0
-7909 1235 0
-833 -1235 7909 0
-7910 865 0
-7910 1237 0
-865 -1237 7910 0
-7911 897 0
-7911 1239 0
-897 -1239 7911 0
-7912 929 0
-7912 1241 0
-929 -1241 7912 0
-7913 961 0
-7913 1243 0
-961 -1243 7913 0
-7914 993 0
-7914 1245 0
-993 -1245 7914 0
-7915 1025 0
-7915 1247 0
-1025 -1247 7915 0
-7916 1089 0
-7916 1251 0
-1089 -1251 7916 0
-7917 1121 0
-7917 1253 0
-1121 -1253 7917 0
-7918 1153 0
-7918 1255 0
-1153 -1255 7918 0
-7919 1185 0
-7919 1257 0
-1185 -1257 7919 0
-7920 1217 0
-7920 1259 0
-1217 -1259 7920 0
-7921 1281 0
-7921 1263 0
-1281 -1263 7921 0
-1761 -7908 0
-1761 -7909 0
-1761 -7910 0
-1761 -7911 0
-1761 -7912 0
-1761 -7913 0
-1761 -7914 0
-1761 -7915 0
-1761 -7916 0
-1761 -7917 0
-1761 -7918 0
-1761 -7919 0
-1761 -7920 0
-1761 -7921 0
-1249 1761 7908 7909 7910 7911 7912 7913 7914 7915 7916 7917 7918 7919 7920 7921 0
-1793 1281 0
-7922 793 0
-7922 1265 0
-793 -1265 7922 0
-7923 833 0
-7923 1267 0
-833 -1267 7923 0
-7924 865 0
-7924 1269 0
-865 -1269 7924 0
-7925 897 0
-7925 1271 0
-897 -1271 7925 0
-7926 929 0
-7926 1273 0
-929 -1273 7926 0
-7927 961 0
-7927 1275 0
-961 -1275 7927 0
-7928 993 0
-7928 1277 0
-993 -1277 7928 0
-7929 1025 0
-7929 1279 0
-1025 -1279 7929 0
-7930 1089 0
-7930 1283 0
-1089 -1283 7930 0
-7931 1121 0
-7931 1285 0
-1121 -1285 7931 0
-7932 1153 0
-7932 1287 0
-1153 -1287 7932 0
-7933 1185 0
-7933 1289 0
-1185 -1289 7933 0
-7934 1217 0
-7934 1291 0
-1217 -1291 7934 0
-7935 1249 0
-7935 1293 0
-1249 -1293 7935 0
-1793 -7922 0
-1793 -7923 0
-1793 -7924 0
-1793 -7925 0
-1793 -7926 0
-1793 -7927 0
-1793 -7928 0
-1793 -7929 0
-1793 -7930 0
-1793 -7931 0
-1793 -7932 0
-1793 -7933 0
-1793 -7934 0
-1793 -7935 0
-1281 1793 7922 7923 7924 7925 7926 7927 7928 7929 7930 7931 7932 7933 7934 7935 0
-1315 796 0
-7936 835 0
-7936 772 0
-835 -772 7936 0
-7937 867 0
-7937 775 0
-867 -775 7937 0
-7938 899 0
-7938 778 0
-899 -778 7938 0
-7939 931 0
-7939 781 0
-931 -781 7939 0
-7940 963 0
-7940 784 0
-963 -784 7940 0
-7941 995 0
-7941 787 0
-995 -787 7941 0
-7942 1027 0
-7942 790 0
-1027 -790 7942 0
-7943 1059 0
-7943 793 0
-1059 -793 7943 0
-7944 1123 0
-7944 799 0
-1123 -799 7944 0
-7945 1155 0
-7945 802 0
-1155 -802 7945 0
-7946 1187 0
-7946 805 0
-1187 -805 7946 0
-7947 1219 0
-7947 808 0
-1219 -808 7947 0
-7948 1251 0
-7948 811 0
-1251 -811 7948 0
-7949 1283 0
-7949 814 0
-1283 -814 7949 0
-1315 -7936 0
-1315 -7937 0
-1315 -7938 0
-1315 -7939 0
-1315 -7940 0
-1315 -7941 0
-1315 -7942 0
-1315 -7943 0
-1315 -7944 0
-1315 -7945 0
-1315 -7946 0
-1315 -7947 0
-1315 -7948 0
-1315 -7949 0
-796 1315 7936 7937 7938 7939 7940 7941 7942 7943 7944 7945 7946 7947 7948 7949 0
-1347 835 0
-7950 796 0
-7950 817 0
-796 -817 7950 0
-7951 867 0
-7951 821 0
-867 -821 7951 0
-7952 899 0
-7952 823 0
-899 -823 7952 0
-7953 931 0
-7953 825 0
-931 -825 7953 0
-7954 963 0
-7954 827 0
-963 -827 7954 0
-7955 995 0
-7955 829 0
-995 -829 7955 0
-7956 1027 0
-7956 831 0
-1027 -831 7956 0
-7957 1059 0
-7957 833 0
-1059 -833 7957 0
-7958 1123 0
-7958 837 0
-1123 -837 7958 0
-7959 1155 0
-7959 839 0
-1155 -839 7959 0
-7960 1187 0
-7960 841 0
-1187 -841 7960 0
-7961 1219 0
-7961 843 0
-1219 -843 7961 0
-7962 1251 0
-7962 845 0
-1251 -845 7962 0
-7963 1283 0
-7963 847 0
-1283 -847 7963 0
-1347 -7950 0
-1347 -7951 0
-1347 -7952 0
-1347 -7953 0
-1347 -7954 0
-1347 -7955 0
-1347 -7956 0
-1347 -7957 0
-1347 -7958 0
-1347 -7959 0
-1347 -7960 0
-1347 -7961 0
-1347 -7962 0
-1347 -7963 0
-835 1347 7950 7951 7952 7953 7954 7955 7956 7957 7958 7959 7960 7961 7962 7963 0
-1379 867 0
-7964 796 0
-7964 849 0
-796 -849 7964 0
-7965 835 0
-7965 851 0
-835 -851 7965 0
-7966 899 0
-7966 855 0
-899 -855 7966 0
-7967 931 0
-7967 857 0
-931 -857 7967 0
-7968 963 0
-7968 859 0
-963 -859 7968 0
-7969 995 0
-7969 861 0
-995 -861 7969 0
-7970 1027 0
-7970 863 0
-1027 -863 7970 0
-7971 1059 0
-7971 865 0
-1059 -865 7971 0
-7972 1123 0
-7972 869 0
-1123 -869 7972 0
-7973 1155 0
-7973 871 0
-1155 -871 7973 0
-7974 1187 0
-7974 873 0
-1187 -873 7974 0
-7975 1219 0
-7975 875 0
-1219 -875 7975 0
-7976 1251 0
-7976 877 0
-1251 -877 7976 0
-7977 1283 0
-7977 879 0
-1283 -879 7977 0
-1379 -7964 0
-1379 -7965 0
-1379 -7966 0
-1379 -7967 0
-1379 -7968 0
-1379 -7969 0
-1379 -7970 0
-1379 -7971 0
-1379 -7972 0
-1379 -7973 0
-1379 -7974 0
-1379 -7975 0
-1379 -7976 0
-1379 -7977 0
-867 1379 7964 7965 7966 7967 7968 7969 7970 7971 7972 7973 7974 7975 7976 7977 0
-1411 899 0
-7978 796 0
-7978 881 0
-796 -881 7978 0
-7979 835 0
-7979 883 0
-835 -883 7979 0
-7980 867 0
-7980 885 0
-867 -885 7980 0
-7981 931 0
-7981 889 0
-931 -889 7981 0
-7982 963 0
-7982 891 0
-963 -891 7982 0
-7983 995 0
-7983 893 0
-995 -893 7983 0
-7984 1027 0
-7984 895 0
-1027 -895 7984 0
-7985 1059 0
-7985 897 0
-1059 -897 7985 0
-7986 1123 0
-7986 901 0
-1123 -901 7986 0
-7987 1155 0
-7987 903 0
-1155 -903 7987 0
-7988 1187 0
-7988 905 0
-1187 -905 7988 0
-7989 1219 0
-7989 907 0
-1219 -907 7989 0
-7990 1251 0
-7990 909 0
-1251 -909 7990 0
-7991 1283 0
-7991 911 0
-1283 -911 7991 0
-1411 -7978 0
-1411 -7979 0
-1411 -7980 0
-1411 -7981 0
-1411 -7982 0
-1411 -7983 0
-1411 -7984 0
-1411 -7985 0
-1411 -7986 0
-1411 -7987 0
-1411 -7988 0
-1411 -7989 0
-1411 -7990 0
-1411 -7991 0
-899 1411 7978 7979 7980 7981 7982 7983 7984 7985 7986 7987 7988 7989 7990 7991 0
-1443 931 0
-7992 796 0
-7992 913 0
-796 -913 7992 0
-7993 835 0
-7993 915 0
-835 -915 7993 0
-7994 867 0
-7994 917 0
-867 -917 7994 0
-7995 899 0
-7995 919 0
-899 -919 7995 0
-7996 963 0
-7996 923 0
-963 -923 7996 0
-7997 995 0
-7997 925 0
-995 -925 7997 0
-7998 1027 0
-7998 927 0
-1027 -927 7998 0
-7999 1059 0
-7999 929 0
-1059 -929 7999 0
-8000 1123 0
-8000 933 0
-1123 -933 8000 0
-8001 1155 0
-8001 935 0
-1155 -935 8001 0
-8002 1187 0
-8002 937 0
-1187 -937 8002 0
-8003 1219 0
-8003 939 0
-1219 -939 8003 0
-8004 1251 0
-8004 941 0
-1251 -941 8004 0
-8005 1283 0
-8005 943 0
-1283 -943 8005 0
-1443 -7992 0
-1443 -7993 0
-1443 -7994 0
-1443 -7995 0
-1443 -7996 0
-1443 -7997 0
-1443 -7998 0
-1443 -7999 0
-1443 -8000 0
-1443 -8001 0
-1443 -8002 0
-1443 -8003 0
-1443 -8004 0
-1443 -8005 0
-931 1443 7992 7993 7994 7995 7996 7997 7998 7999 8000 8001 8002 8003 8004 8005 0
-1475 963 0
-8006 796 0
-8006 945 0
-796 -945 8006 0
-8007 835 0
-8007 947 0
-835 -947 8007 0
-8008 867 0
-8008 949 0
-867 -949 8008 0
-8009 899 0
-8009 951 0
-899 -951 8009 0
-8010 931 0
-8010 953 0
-931 -953 8010 0
-8011 995 0
-8011 957 0
-995 -957 8011 0
-8012 1027 0
-8012 959 0
-1027 -959 8012 0
-8013 1059 0
-8013 961 0
-1059 -961 8013 0
-8014 1123 0
-8014 965 0
-1123 -965 8014 0
-8015 1155 0
-8015 967 0
-1155 -967 8015 0
-8016 1187 0
-8016 969 0
-1187 -969 8016 0
-8017 1219 0
-8017 971 0
-1219 -971 8017 0
-8018 1251 0
-8018 973 0
-1251 -973 8018 0
-8019 1283 0
-8019 975 0
-1283 -975 8019 0
-1475 -8006 0
-1475 -8007 0
-1475 -8008 0
-1475 -8009 0
-1475 -8010 0
-1475 -8011 0
-1475 -8012 0
-1475 -8013 0
-1475 -8014 0
-1475 -8015 0
-1475 -8016 0
-1475 -8017 0
-1475 -8018 0
-1475 -8019 0
-963 1475 8006 8007 8008 8009 8010 8011 8012 8013 8014 8015 8016 8017 8018 8019 0
-1507 995 0
-8020 796 0
-8020 977 0
-796 -977 8020 0
-8021 835 0
-8021 979 0
-835 -979 8021 0
-8022 867 0
-8022 981 0
-867 -981 8022 0
-8023 899 0
-8023 983 0
-899 -983 8023 0
-8024 931 0
-8024 985 0
-931 -985 8024 0
-8025 963 0
-8025 987 0
-963 -987 8025 0
-8026 1027 0
-8026 991 0
-1027 -991 8026 0
-8027 1059 0
-8027 993 0
-1059 -993 8027 0
-8028 1123 0
-8028 997 0
-1123 -997 8028 0
-8029 1155 0
-8029 999 0
-1155 -999 8029 0
-8030 1187 0
-8030 1001 0
-1187 -1001 8030 0
-8031 1219 0
-8031 1003 0
-1219 -1003 8031 0
-8032 1251 0
-8032 1005 0
-1251 -1005 8032 0
-8033 1283 0
-8033 1007 0
-1283 -1007 8033 0
-1507 -8020 0
-1507 -8021 0
-1507 -8022 0
-1507 -8023 0
-1507 -8024 0
-1507 -8025 0
-1507 -8026 0
-1507 -8027 0
-1507 -8028 0
-1507 -8029 0
-1507 -8030 0
-1507 -8031 0
-1507 -8032 0
-1507 -8033 0
-995 1507 8020 8021 8022 8023 8024 8025 8026 8027 8028 8029 8030 8031 8032 8033 0
-1539 1027 0
-8034 796 0
-8034 1009 0
-796 -1009 8034 0
-8035 835 0
-8035 1011 0
-835 -1011 8035 0
-8036 867 0
-8036 1013 0
-867 -1013 8036 0
-8037 899 0
-8037 1015 0
-899 -1015 8037 0
-8038 931 0
-8038 1017 0
-931 -1017 8038 0
-8039 963 0
-8039 1019 0
-963 -1019 8039 0
-8040 995 0
-8040 1021 0
-995 -1021 8040 0
-8041 1059 0
-8041 1025 0
-1059 -1025 8041 0
-8042 1123 0
-8042 1029 0
-1123 -1029 8042 0
-8043 1155 0
-8043 1031 0
-1155 -1031 8043 0
-8044 1187 0
-8044 1033 0
-1187 -1033 8044 0
-8045 1219 0
-8045 1035 0
-1219 -1035 8045 0
-8046 1251 0
-8046 1037 0
-1251 -1037 8046 0
-8047 1283 0
-8047 1039 0
-1283 -1039 8047 0
-1539 -8034 0
-1539 -8035 0
-1539 -8036 0
-1539 -8037 0
-1539 -8038 0
-1539 -8039 0
-1539 -8040 0
-1539 -8041 0
-1539 -8042 0
-1539 -8043 0
-1539 -8044 0
-1539 -8045 0
-1539 -8046 0
-1539 -8047 0
-1027 1539 8034 8035 8036 8037 8038 8039 8040 8041 8042 8043 8044 8045 8046 8047 0
-1571 1059 0
-8048 796 0
-8048 1041 0
-796 -1041 8048 0
-8049 835 0
-8049 1043 0
-835 -1043 8049 0
-8050 867 0
-8050 1045 0
-867 -1045 8050 0
-8051 899 0
-8051 1047 0
-899 -1047 8051 0
-8052 931 0
-8052 1049 0
-931 -1049 8052 0
-8053 963 0
-8053 1051 0
-963 -1051 8053 0
-8054 995 0
-8054 1053 0
-995 -1053 8054 0
-8055 1027 0
-8055 1055 0
-1027 -1055 8055 0
-8056 1123 0
-8056 1061 0
-1123 -1061 8056 0
-8057 1155 0
-8057 1063 0
-1155 -1063 8057 0
-8058 1187 0
-8058 1065 0
-1187 -1065 8058 0
-8059 1219 0
-8059 1067 0
-1219 -1067 8059 0
-8060 1251 0
-8060 1069 0
-1251 -1069 8060 0
-8061 1283 0
-8061 1071 0
-1283 -1071 8061 0
-1571 -8048 0
-1571 -8049 0
-1571 -8050 0
-1571 -8051 0
-1571 -8052 0
-1571 -8053 0
-1571 -8054 0
-1571 -8055 0
-1571 -8056 0
-1571 -8057 0
-1571 -8058 0
-1571 -8059 0
-1571 -8060 0
-1571 -8061 0
-1059 1571 8048 8049 8050 8051 8052 8053 8054 8055 8056 8057 8058 8059 8060 8061 0
-1603 0
-1635 1123 0
-8062 796 0
-8062 1105 0
-796 -1105 8062 0
-8063 835 0
-8063 1107 0
-835 -1107 8063 0
-8064 867 0
-8064 1109 0
-867 -1109 8064 0
-8065 899 0
-8065 1111 0
-899 -1111 8065 0
-8066 931 0
-8066 1113 0
-931 -1113 8066 0
-8067 963 0
-8067 1115 0
-963 -1115 8067 0
-8068 995 0
-8068 1117 0
-995 -1117 8068 0
-8069 1027 0
-8069 1119 0
-1027 -1119 8069 0
-8070 1059 0
-8070 1121 0
-1059 -1121 8070 0
-8071 1155 0
-8071 1127 0
-1155 -1127 8071 0
-8072 1187 0
-8072 1129 0
-1187 -1129 8072 0
-8073 1219 0
-8073 1131 0
-1219 -1131 8073 0
-8074 1251 0
-8074 1133 0
-1251 -1133 8074 0
-8075 1283 0
-8075 1135 0
-1283 -1135 8075 0
-1635 -8062 0
-1635 -8063 0
-1635 -8064 0
-1635 -8065 0
-1635 -8066 0
-1635 -8067 0
-1635 -8068 0
-1635 -8069 0
-1635 -8070 0
-1635 -8071 0
-1635 -8072 0
-1635 -8073 0
-1635 -8074 0
-1635 -8075 0
-1123 1635 8062 8063 8064 8065 8066 8067 8068 8069 8070 8071 8072 8073 8074 8075 0
-1667 1155 0
-8076 796 0
-8076 1137 0
-796 -1137 8076 0
-8077 835 0
-8077 1139 0
-835 -1139 8077 0
-8078 867 0
-8078 1141 0
-867 -1141 8078 0
-8079 899 0
-8079 1143 0
-899 -1143 8079 0
-8080 931 0
-8080 1145 0
-931 -1145 8080 0
-8081 963 0
-8081 1147 0
-963 -1147 8081 0
-8082 995 0
-8082 1149 0
-995 -1149 8082 0
-8083 1027 0
-8083 1151 0
-1027 -1151 8083 0
-8084 1059 0
-8084 1153 0
-1059 -1153 8084 0
-8085 1123 0
-8085 1157 0
-1123 -1157 8085 0
-8086 1187 0
-8086 1161 0
-1187 -1161 8086 0
-8087 1219 0
-8087 1163 0
-1219 -1163 8087 0
-8088 1251 0
-8088 1165 0
-1251 -1165 8088 0
-8089 1283 0
-8089 1167 0
-1283 -1167 8089 0
-1667 -8076 0
-1667 -8077 0
-1667 -8078 0
-1667 -8079 0
-1667 -8080 0
-1667 -8081 0
-1667 -8082 0
-1667 -8083 0
-1667 -8084 0
-1667 -8085 0
-1667 -8086 0
-1667 -8087 0
-1667 -8088 0
-1667 -8089 0
-1155 1667 8076 8077 8078 8079 8080 8081 8082 8083 8084 8085 8086 8087 8088 8089 0
-1699 1187 0
-8090 796 0
-8090 1169 0
-796 -1169 8090 0
-8091 835 0
-8091 1171 0
-835 -1171 8091 0
-8092 867 0
-8092 1173 0
-867 -1173 8092 0
-8093 899 0
-8093 1175 0
-899 -1175 8093 0
-8094 931 0
-8094 1177 0
-931 -1177 8094 0
-8095 963 0
-8095 1179 0
-963 -1179 8095 0
-8096 995 0
-8096 1181 0
-995 -1181 8096 0
-8097 1027 0
-8097 1183 0
-1027 -1183 8097 0
-8098 1059 0
-8098 1185 0
-1059 -1185 8098 0
-8099 1123 0
-8099 1189 0
-1123 -1189 8099 0
-8100 1155 0
-8100 1191 0
-1155 -1191 8100 0
-8101 1219 0
-8101 1195 0
-1219 -1195 8101 0
-8102 1251 0
-8102 1197 0
-1251 -1197 8102 0
-8103 1283 0
-8103 1199 0
-1283 -1199 8103 0
-1699 -8090 0
-1699 -8091 0
-1699 -8092 0
-1699 -8093 0
-1699 -8094 0
-1699 -8095 0
-1699 -8096 0
-1699 -8097 0
-1699 -8098 0
-1699 -8099 0
-1699 -8100 0
-1699 -8101 0
-1699 -8102 0
-1699 -8103 0
-1187 1699 8090 8091 8092 8093 8094 8095 8096 8097 8098 8099 8100 8101 8102 8103 0
-1731 1219 0
-8104 796 0
-8104 1201 0
-796 -1201 8104 0
-8105 835 0
-8105 1203 0
-835 -1203 8105 0
-8106 867 0
-8106 1205 0
-867 -1205 8106 0
-8107 899 0
-8107 1207 0
-899 -1207 8107 0
-8108 931 0
-8108 1209 0
-931 -1209 8108 0
-8109 963 0
-8109 1211 0
-963 -1211 8109 0
-8110 995 0
-8110 1213 0
-995 -1213 8110 0
-8111 1027 0
-8111 1215 0
-1027 -1215 8111 0
-8112 1059 0
-8112 1217 0
-1059 -1217 8112 0
-8113 1123 0
-8113 1221 0
-1123 -1221 8113 0
-8114 1155 0
-8114 1223 0
-1155 -1223 8114 0
-8115 1187 0
-8115 1225 0
-1187 -1225 8115 0
-8116 1251 0
-8116 1229 0
-1251 -1229 8116 0
-8117 1283 0
-8117 1231 0
-1283 -1231 8117 0
-1731 -8104 0
-1731 -8105 0
-1731 -8106 0
-1731 -8107 0
-1731 -8108 0
-1731 -8109 0
-1731 -8110 0
-1731 -8111 0
-1731 -8112 0
-1731 -8113 0
-1731 -8114 0
-1731 -8115 0
-1731 -8116 0
-1731 -8117 0
-1219 1731 8104 8105 8106 8107 8108 8109 8110 8111 8112 8113 8114 8115 8116 8117 0
-1763 1251 0
-8118 796 0
-8118 1233 0
-796 -1233 8118 0
-8119 835 0
-8119 1235 0
-835 -1235 8119 0
-8120 867 0
-8120 1237 0
-867 -1237 8120 0
-8121 899 0
-8121 1239 0
-899 -1239 8121 0
-8122 931 0
-8122 1241 0
-931 -1241 8122 0
-8123 963 0
-8123 1243 0
-963 -1243 8123 0
-8124 995 0
-8124 1245 0
-995 -1245 8124 0
-8125 1027 0
-8125 1247 0
-1027 -1247 8125 0
-8126 1059 0
-8126 1249 0
-1059 -1249 8126 0
-8127 1123 0
-8127 1253 0
-1123 -1253 8127 0
-8128 1155 0
-8128 1255 0
-1155 -1255 8128 0
-8129 1187 0
-8129 1257 0
-1187 -1257 8129 0
-8130 1219 0
-8130 1259 0
-1219 -1259 8130 0
-8131 1283 0
-8131 1263 0
-1283 -1263 8131 0
-1763 -8118 0
-1763 -8119 0
-1763 -8120 0
-1763 -8121 0
-1763 -8122 0
-1763 -8123 0
-1763 -8124 0
-1763 -8125 0
-1763 -8126 0
-1763 -8127 0
-1763 -8128 0
-1763 -8129 0
-1763 -8130 0
-1763 -8131 0
-1251 1763 8118 8119 8120 8121 8122 8123 8124 8125 8126 8127 8128 8129 8130 8131 0
-1795 1283 0
-8132 796 0
-8132 1265 0
-796 -1265 8132 0
-8133 835 0
-8133 1267 0
-835 -1267 8133 0
-8134 867 0
-8134 1269 0
-867 -1269 8134 0
-8135 899 0
-8135 1271 0
-899 -1271 8135 0
-8136 931 0
-8136 1273 0
-931 -1273 8136 0
-8137 963 0
-8137 1275 0
-963 -1275 8137 0
-8138 995 0
-8138 1277 0
-995 -1277 8138 0
-8139 1027 0
-8139 1279 0
-1027 -1279 8139 0
-8140 1059 0
-8140 1281 0
-1059 -1281 8140 0
-8141 1123 0
-8141 1285 0
-1123 -1285 8141 0
-8142 1155 0
-8142 1287 0
-1155 -1287 8142 0
-8143 1187 0
-8143 1289 0
-1187 -1289 8143 0
-8144 1219 0
-8144 1291 0
-1219 -1291 8144 0
-8145 1251 0
-8145 1293 0
-1251 -1293 8145 0
-1795 -8132 0
-1795 -8133 0
-1795 -8134 0
-1795 -8135 0
-1795 -8136 0
-1795 -8137 0
-1795 -8138 0
-1795 -8139 0
-1795 -8140 0
-1795 -8141 0
-1795 -8142 0
-1795 -8143 0
-1795 -8144 0
-1795 -8145 0
-1283 1795 8132 8133 8134 8135 8136 8137 8138 8139 8140 8141 8142 8143 8144 8145 0
-1317 799 0
-8146 837 0
-8146 772 0
-837 -772 8146 0
-8147 869 0
-8147 775 0
-869 -775 8147 0
-8148 901 0
-8148 778 0
-901 -778 8148 0
-8149 933 0
-8149 781 0
-933 -781 8149 0
-8150 965 0
-8150 784 0
-965 -784 8150 0
-8151 997 0
-8151 787 0
-997 -787 8151 0
-8152 1029 0
-8152 790 0
-1029 -790 8152 0
-8153 1061 0
-8153 793 0
-1061 -793 8153 0
-8154 1093 0
-8154 796 0
-1093 -796 8154 0
-8155 1157 0
-8155 802 0
-1157 -802 8155 0
-8156 1189 0
-8156 805 0
-1189 -805 8156 0
-8157 1221 0
-8157 808 0
-1221 -808 8157 0
-8158 1253 0
-8158 811 0
-1253 -811 8158 0
-8159 1285 0
-8159 814 0
-1285 -814 8159 0
-1317 -8146 0
-1317 -8147 0
-1317 -8148 0
-1317 -8149 0
-1317 -8150 0
-1317 -8151 0
-1317 -8152 0
-1317 -8153 0
-1317 -8154 0
-1317 -8155 0
-1317 -8156 0
-1317 -8157 0
-1317 -8158 0
-1317 -8159 0
-799 1317 8146 8147 8148 8149 8150 8151 8152 8153 8154 8155 8156 8157 8158 8159 0
-1349 837 0
-8160 799 0
-8160 817 0
-799 -817 8160 0
-8161 869 0
-8161 821 0
-869 -821 8161 0
-8162 901 0
-8162 823 0
-901 -823 8162 0
-8163 933 0
-8163 825 0
-933 -825 8163 0
-8164 965 0
-8164 827 0
-965 -827 8164 0
-8165 997 0
-8165 829 0
-997 -829 8165 0
-8166 1029 0
-8166 831 0
-1029 -831 8166 0
-8167 1061 0
-8167 833 0
-1061 -833 8167 0
-8168 1093 0
-8168 835 0
-1093 -835 8168 0
-8169 1157 0
-8169 839 0
-1157 -839 8169 0
-8170 1189 0
-8170 841 0
-1189 -841 8170 0
-8171 1221 0
-8171 843 0
-1221 -843 8171 0
-8172 1253 0
-8172 845 0
-1253 -845 8172 0
-8173 1285 0
-8173 847 0
-1285 -847 8173 0
-1349 -8160 0
-1349 -8161 0
-1349 -8162 0
-1349 -8163 0
-1349 -8164 0
-1349 -8165 0
-1349 -8166 0
-1349 -8167 0
-1349 -8168 0
-1349 -8169 0
-1349 -8170 0
-1349 -8171 0
-1349 -8172 0
-1349 -8173 0
-837 1349 8160 8161 8162 8163 8164 8165 8166 8167 8168 8169 8170 8171 8172 8173 0
-1381 869 0
-8174 799 0
-8174 849 0
-799 -849 8174 0
-8175 837 0
-8175 851 0
-837 -851 8175 0
-8176 901 0
-8176 855 0
-901 -855 8176 0
-8177 933 0
-8177 857 0
-933 -857 8177 0
-8178 965 0
-8178 859 0
-965 -859 8178 0
-8179 997 0
-8179 861 0
-997 -861 8179 0
-8180 1029 0
-8180 863 0
-1029 -863 8180 0
-8181 1061 0
-8181 865 0
-1061 -865 8181 0
-8182 1093 0
-8182 867 0
-1093 -867 8182 0
-8183 1157 0
-8183 871 0
-1157 -871 8183 0
-8184 1189 0
-8184 873 0
-1189 -873 8184 0
-8185 1221 0
-8185 875 0
-1221 -875 8185 0
-8186 1253 0
-8186 877 0
-1253 -877 8186 0
-8187 1285 0
-8187 879 0
-1285 -879 8187 0
-1381 -8174 0
-1381 -8175 0
-1381 -8176 0
-1381 -8177 0
-1381 -8178 0
-1381 -8179 0
-1381 -8180 0
-1381 -8181 0
-1381 -8182 0
-1381 -8183 0
-1381 -8184 0
-1381 -8185 0
-1381 -8186 0
-1381 -8187 0
-869 1381 8174 8175 8176 8177 8178 8179 8180 8181 8182 8183 8184 8185 8186 8187 0
-1413 901 0
-8188 799 0
-8188 881 0
-799 -881 8188 0
-8189 837 0
-8189 883 0
-837 -883 8189 0
-8190 869 0
-8190 885 0
-869 -885 8190 0
-8191 933 0
-8191 889 0
-933 -889 8191 0
-8192 965 0
-8192 891 0
-965 -891 8192 0
-8193 997 0
-8193 893 0
-997 -893 8193 0
-8194 1029 0
-8194 895 0
-1029 -895 8194 0
-8195 1061 0
-8195 897 0
-1061 -897 8195 0
-8196 1093 0
-8196 899 0
-1093 -899 8196 0
-8197 1157 0
-8197 903 0
-1157 -903 8197 0
-8198 1189 0
-8198 905 0
-1189 -905 8198 0
-8199 1221 0
-8199 907 0
-1221 -907 8199 0
-8200 1253 0
-8200 909 0
-1253 -909 8200 0
-8201 1285 0
-8201 911 0
-1285 -911 8201 0
-1413 -8188 0
-1413 -8189 0
-1413 -8190 0
-1413 -8191 0
-1413 -8192 0
-1413 -8193 0
-1413 -8194 0
-1413 -8195 0
-1413 -8196 0
-1413 -8197 0
-1413 -8198 0
-1413 -8199 0
-1413 -8200 0
-1413 -8201 0
-901 1413 8188 8189 8190 8191 8192 8193 8194 8195 8196 8197 8198 8199 8200 8201 0
-1445 933 0
-8202 799 0
-8202 913 0
-799 -913 8202 0
-8203 837 0
-8203 915 0
-837 -915 8203 0
-8204 869 0
-8204 917 0
-869 -917 8204 0
-8205 901 0
-8205 919 0
-901 -919 8205 0
-8206 965 0
-8206 923 0
-965 -923 8206 0
-8207 997 0
-8207 925 0
-997 -925 8207 0
-8208 1029 0
-8208 927 0
-1029 -927 8208 0
-8209 1061 0
-8209 929 0
-1061 -929 8209 0
-8210 1093 0
-8210 931 0
-1093 -931 8210 0
-8211 1157 0
-8211 935 0
-1157 -935 8211 0
-8212 1189 0
-8212 937 0
-1189 -937 8212 0
-8213 1221 0
-8213 939 0
-1221 -939 8213 0
-8214 1253 0
-8214 941 0
-1253 -941 8214 0
-8215 1285 0
-8215 943 0
-1285 -943 8215 0
-1445 -8202 0
-1445 -8203 0
-1445 -8204 0
-1445 -8205 0
-1445 -8206 0
-1445 -8207 0
-1445 -8208 0
-1445 -8209 0
-1445 -8210 0
-1445 -8211 0
-1445 -8212 0
-1445 -8213 0
-1445 -8214 0
-1445 -8215 0
-933 1445 8202 8203 8204 8205 8206 8207 8208 8209 8210 8211 8212 8213 8214 8215 0
-1477 965 0
-8216 799 0
-8216 945 0
-799 -945 8216 0
-8217 837 0
-8217 947 0
-837 -947 8217 0
-8218 869 0
-8218 949 0
-869 -949 8218 0
-8219 901 0
-8219 951 0
-901 -951 8219 0
-8220 933 0
-8220 953 0
-933 -953 8220 0
-8221 997 0
-8221 957 0
-997 -957 8221 0
-8222 1029 0
-8222 959 0
-1029 -959 8222 0
-8223 1061 0
-8223 961 0
-1061 -961 8223 0
-8224 1093 0
-8224 963 0
-1093 -963 8224 0
-8225 1157 0
-8225 967 0
-1157 -967 8225 0
-8226 1189 0
-8226 969 0
-1189 -969 8226 0
-8227 1221 0
-8227 971 0
-1221 -971 8227 0
-8228 1253 0
-8228 973 0
-1253 -973 8228 0
-8229 1285 0
-8229 975 0
-1285 -975 8229 0
-1477 -8216 0
-1477 -8217 0
-1477 -8218 0
-1477 -8219 0
-1477 -8220 0
-1477 -8221 0
-1477 -8222 0
-1477 -8223 0
-1477 -8224 0
-1477 -8225 0
-1477 -8226 0
-1477 -8227 0
-1477 -8228 0
-1477 -8229 0
-965 1477 8216 8217 8218 8219 8220 8221 8222 8223 8224 8225 8226 8227 8228 8229 0
-1509 997 0
-8230 799 0
-8230 977 0
-799 -977 8230 0
-8231 837 0
-8231 979 0
-837 -979 8231 0
-8232 869 0
-8232 981 0
-869 -981 8232 0
-8233 901 0
-8233 983 0
-901 -983 8233 0
-8234 933 0
-8234 985 0
-933 -985 8234 0
-8235 965 0
-8235 987 0
-965 -987 8235 0
-8236 1029 0
-8236 991 0
-1029 -991 8236 0
-8237 1061 0
-8237 993 0
-1061 -993 8237 0
-8238 1093 0
-8238 995 0
-1093 -995 8238 0
-8239 1157 0
-8239 999 0
-1157 -999 8239 0
-8240 1189 0
-8240 1001 0
-1189 -1001 8240 0
-8241 1221 0
-8241 1003 0
-1221 -1003 8241 0
-8242 1253 0
-8242 1005 0
-1253 -1005 8242 0
-8243 1285 0
-8243 1007 0
-1285 -1007 8243 0
-1509 -8230 0
-1509 -8231 0
-1509 -8232 0
-1509 -8233 0
-1509 -8234 0
-1509 -8235 0
-1509 -8236 0
-1509 -8237 0
-1509 -8238 0
-1509 -8239 0
-1509 -8240 0
-1509 -8241 0
-1509 -8242 0
-1509 -8243 0
-997 1509 8230 8231 8232 8233 8234 8235 8236 8237 8238 8239 8240 8241 8242 8243 0
-1541 1029 0
-8244 799 0
-8244 1009 0
-799 -1009 8244 0
-8245 837 0
-8245 1011 0
-837 -1011 8245 0
-8246 869 0
-8246 1013 0
-869 -1013 8246 0
-8247 901 0
-8247 1015 0
-901 -1015 8247 0
-8248 933 0
-8248 1017 0
-933 -1017 8248 0
-8249 965 0
-8249 1019 0
-965 -1019 8249 0
-8250 997 0
-8250 1021 0
-997 -1021 8250 0
-8251 1061 0
-8251 1025 0
-1061 -1025 8251 0
-8252 1093 0
-8252 1027 0
-1093 -1027 8252 0
-8253 1157 0
-8253 1031 0
-1157 -1031 8253 0
-8254 1189 0
-8254 1033 0
-1189 -1033 8254 0
-8255 1221 0
-8255 1035 0
-1221 -1035 8255 0
-8256 1253 0
-8256 1037 0
-1253 -1037 8256 0
-8257 1285 0
-8257 1039 0
-1285 -1039 8257 0
-1541 -8244 0
-1541 -8245 0
-1541 -8246 0
-1541 -8247 0
-1541 -8248 0
-1541 -8249 0
-1541 -8250 0
-1541 -8251 0
-1541 -8252 0
-1541 -8253 0
-1541 -8254 0
-1541 -8255 0
-1541 -8256 0
-1541 -8257 0
-1029 1541 8244 8245 8246 8247 8248 8249 8250 8251 8252 8253 8254 8255 8256 8257 0
-1573 1061 0
-8258 799 0
-8258 1041 0
-799 -1041 8258 0
-8259 837 0
-8259 1043 0
-837 -1043 8259 0
-8260 869 0
-8260 1045 0
-869 -1045 8260 0
-8261 901 0
-8261 1047 0
-901 -1047 8261 0
-8262 933 0
-8262 1049 0
-933 -1049 8262 0
-8263 965 0
-8263 1051 0
-965 -1051 8263 0
-8264 997 0
-8264 1053 0
-997 -1053 8264 0
-8265 1029 0
-8265 1055 0
-1029 -1055 8265 0
-8266 1093 0
-8266 1059 0
-1093 -1059 8266 0
-8267 1157 0
-8267 1063 0
-1157 -1063 8267 0
-8268 1189 0
-8268 1065 0
-1189 -1065 8268 0
-8269 1221 0
-8269 1067 0
-1221 -1067 8269 0
-8270 1253 0
-8270 1069 0
-1253 -1069 8270 0
-8271 1285 0
-8271 1071 0
-1285 -1071 8271 0
-1573 -8258 0
-1573 -8259 0
-1573 -8260 0
-1573 -8261 0
-1573 -8262 0
-1573 -8263 0
-1573 -8264 0
-1573 -8265 0
-1573 -8266 0
-1573 -8267 0
-1573 -8268 0
-1573 -8269 0
-1573 -8270 0
-1573 -8271 0
-1061 1573 8258 8259 8260 8261 8262 8263 8264 8265 8266 8267 8268 8269 8270 8271 0
-1605 1093 0
-8272 799 0
-8272 1073 0
-799 -1073 8272 0
-8273 837 0
-8273 1075 0
-837 -1075 8273 0
-8274 869 0
-8274 1077 0
-869 -1077 8274 0
-8275 901 0
-8275 1079 0
-901 -1079 8275 0
-8276 933 0
-8276 1081 0
-933 -1081 8276 0
-8277 965 0
-8277 1083 0
-965 -1083 8277 0
-8278 997 0
-8278 1085 0
-997 -1085 8278 0
-8279 1029 0
-8279 1087 0
-1029 -1087 8279 0
-8280 1061 0
-8280 1089 0
-1061 -1089 8280 0
-8281 1157 0
-8281 1095 0
-1157 -1095 8281 0
-8282 1189 0
-8282 1097 0
-1189 -1097 8282 0
-8283 1221 0
-8283 1099 0
-1221 -1099 8283 0
-8284 1253 0
-8284 1101 0
-1253 -1101 8284 0
-8285 1285 0
-8285 1103 0
-1285 -1103 8285 0
-1605 -8272 0
-1605 -8273 0
-1605 -8274 0
-1605 -8275 0
-1605 -8276 0
-1605 -8277 0
-1605 -8278 0
-1605 -8279 0
-1605 -8280 0
-1605 -8281 0
-1605 -8282 0
-1605 -8283 0
-1605 -8284 0
-1605 -8285 0
-1093 1605 8272 8273 8274 8275 8276 8277 8278 8279 8280 8281 8282 8283 8284 8285 0
-1637 0
-1669 1157 0
-8286 799 0
-8286 1137 0
-799 -1137 8286 0
-8287 837 0
-8287 1139 0
-837 -1139 8287 0
-8288 869 0
-8288 1141 0
-869 -1141 8288 0
-8289 901 0
-8289 1143 0
-901 -1143 8289 0
-8290 933 0
-8290 1145 0
-933 -1145 8290 0
-8291 965 0
-8291 1147 0
-965 -1147 8291 0
-8292 997 0
-8292 1149 0
-997 -1149 8292 0
-8293 1029 0
-8293 1151 0
-1029 -1151 8293 0
-8294 1061 0
-8294 1153 0
-1061 -1153 8294 0
-8295 1093 0
-8295 1155 0
-1093 -1155 8295 0
-8296 1189 0
-8296 1161 0
-1189 -1161 8296 0
-8297 1221 0
-8297 1163 0
-1221 -1163 8297 0
-8298 1253 0
-8298 1165 0
-1253 -1165 8298 0
-8299 1285 0
-8299 1167 0
-1285 -1167 8299 0
-1669 -8286 0
-1669 -8287 0
-1669 -8288 0
-1669 -8289 0
-1669 -8290 0
-1669 -8291 0
-1669 -8292 0
-1669 -8293 0
-1669 -8294 0
-1669 -8295 0
-1669 -8296 0
-1669 -8297 0
-1669 -8298 0
-1669 -8299 0
-1157 1669 8286 8287 8288 8289 8290 8291 8292 8293 8294 8295 8296 8297 8298 8299 0
-1701 1189 0
-8300 799 0
-8300 1169 0
-799 -1169 8300 0
-8301 837 0
-8301 1171 0
-837 -1171 8301 0
-8302 869 0
-8302 1173 0
-869 -1173 8302 0
-8303 901 0
-8303 1175 0
-901 -1175 8303 0
-8304 933 0
-8304 1177 0
-933 -1177 8304 0
-8305 965 0
-8305 1179 0
-965 -1179 8305 0
-8306 997 0
-8306 1181 0
-997 -1181 8306 0
-8307 1029 0
-8307 1183 0
-1029 -1183 8307 0
-8308 1061 0
-8308 1185 0
-1061 -1185 8308 0
-8309 1093 0
-8309 1187 0
-1093 -1187 8309 0
-8310 1157 0
-8310 1191 0
-1157 -1191 8310 0
-8311 1221 0
-8311 1195 0
-1221 -1195 8311 0
-8312 1253 0
-8312 1197 0
-1253 -1197 8312 0
-8313 1285 0
-8313 1199 0
-1285 -1199 8313 0
-1701 -8300 0
-1701 -8301 0
-1701 -8302 0
-1701 -8303 0
-1701 -8304 0
-1701 -8305 0
-1701 -8306 0
-1701 -8307 0
-1701 -8308 0
-1701 -8309 0
-1701 -8310 0
-1701 -8311 0
-1701 -8312 0
-1701 -8313 0
-1189 1701 8300 8301 8302 8303 8304 8305 8306 8307 8308 8309 8310 8311 8312 8313 0
-1733 1221 0
-8314 799 0
-8314 1201 0
-799 -1201 8314 0
-8315 837 0
-8315 1203 0
-837 -1203 8315 0
-8316 869 0
-8316 1205 0
-869 -1205 8316 0
-8317 901 0
-8317 1207 0
-901 -1207 8317 0
-8318 933 0
-8318 1209 0
-933 -1209 8318 0
-8319 965 0
-8319 1211 0
-965 -1211 8319 0
-8320 997 0
-8320 1213 0
-997 -1213 8320 0
-8321 1029 0
-8321 1215 0
-1029 -1215 8321 0
-8322 1061 0
-8322 1217 0
-1061 -1217 8322 0
-8323 1093 0
-8323 1219 0
-1093 -1219 8323 0
-8324 1157 0
-8324 1223 0
-1157 -1223 8324 0
-8325 1189 0
-8325 1225 0
-1189 -1225 8325 0
-8326 1253 0
-8326 1229 0
-1253 -1229 8326 0
-8327 1285 0
-8327 1231 0
-1285 -1231 8327 0
-1733 -8314 0
-1733 -8315 0
-1733 -8316 0
-1733 -8317 0
-1733 -8318 0
-1733 -8319 0
-1733 -8320 0
-1733 -8321 0
-1733 -8322 0
-1733 -8323 0
-1733 -8324 0
-1733 -8325 0
-1733 -8326 0
-1733 -8327 0
-1221 1733 8314 8315 8316 8317 8318 8319 8320 8321 8322 8323 8324 8325 8326 8327 0
-1765 1253 0
-8328 799 0
-8328 1233 0
-799 -1233 8328 0
-8329 837 0
-8329 1235 0
-837 -1235 8329 0
-8330 869 0
-8330 1237 0
-869 -1237 8330 0
-8331 901 0
-8331 1239 0
-901 -1239 8331 0
-8332 933 0
-8332 1241 0
-933 -1241 8332 0
-8333 965 0
-8333 1243 0
-965 -1243 8333 0
-8334 997 0
-8334 1245 0
-997 -1245 8334 0
-8335 1029 0
-8335 1247 0
-1029 -1247 8335 0
-8336 1061 0
-8336 1249 0
-1061 -1249 8336 0
-8337 1093 0
-8337 1251 0
-1093 -1251 8337 0
-8338 1157 0
-8338 1255 0
-1157 -1255 8338 0
-8339 1189 0
-8339 1257 0
-1189 -1257 8339 0
-8340 1221 0
-8340 1259 0
-1221 -1259 8340 0
-8341 1285 0
-8341 1263 0
-1285 -1263 8341 0
-1765 -8328 0
-1765 -8329 0
-1765 -8330 0
-1765 -8331 0
-1765 -8332 0
-1765 -8333 0
-1765 -8334 0
-1765 -8335 0
-1765 -8336 0
-1765 -8337 0
-1765 -8338 0
-1765 -8339 0
-1765 -8340 0
-1765 -8341 0
-1253 1765 8328 8329 8330 8331 8332 8333 8334 8335 8336 8337 8338 8339 8340 8341 0
-1797 1285 0
-8342 799 0
-8342 1265 0
-799 -1265 8342 0
-8343 837 0
-8343 1267 0
-837 -1267 8343 0
-8344 869 0
-8344 1269 0
-869 -1269 8344 0
-8345 901 0
-8345 1271 0
-901 -1271 8345 0
-8346 933 0
-8346 1273 0
-933 -1273 8346 0
-8347 965 0
-8347 1275 0
-965 -1275 8347 0
-8348 997 0
-8348 1277 0
-997 -1277 8348 0
-8349 1029 0
-8349 1279 0
-1029 -1279 8349 0
-8350 1061 0
-8350 1281 0
-1061 -1281 8350 0
-8351 1093 0
-8351 1283 0
-1093 -1283 8351 0
-8352 1157 0
-8352 1287 0
-1157 -1287 8352 0
-8353 1189 0
-8353 1289 0
-1189 -1289 8353 0
-8354 1221 0
-8354 1291 0
-1221 -1291 8354 0
-8355 1253 0
-8355 1293 0
-1253 -1293 8355 0
-1797 -8342 0
-1797 -8343 0
-1797 -8344 0
-1797 -8345 0
-1797 -8346 0
-1797 -8347 0
-1797 -8348 0
-1797 -8349 0
-1797 -8350 0
-1797 -8351 0
-1797 -8352 0
-1797 -8353 0
-1797 -8354 0
-1797 -8355 0
-1285 1797 8342 8343 8344 8345 8346 8347 8348 8349 8350 8351 8352 8353 8354 8355 0
-1319 802 0
-8356 839 0
-8356 772 0
-839 -772 8356 0
-8357 871 0
-8357 775 0
-871 -775 8357 0
-8358 903 0
-8358 778 0
-903 -778 8358 0
-8359 935 0
-8359 781 0
-935 -781 8359 0
-8360 967 0
-8360 784 0
-967 -784 8360 0
-8361 999 0
-8361 787 0
-999 -787 8361 0
-8362 1031 0
-8362 790 0
-1031 -790 8362 0
-8363 1063 0
-8363 793 0
-1063 -793 8363 0
-8364 1095 0
-8364 796 0
-1095 -796 8364 0
-8365 1127 0
-8365 799 0
-1127 -799 8365 0
-8366 1191 0
-8366 805 0
-1191 -805 8366 0
-8367 1223 0
-8367 808 0
-1223 -808 8367 0
-8368 1255 0
-8368 811 0
-1255 -811 8368 0
-8369 1287 0
-8369 814 0
-1287 -814 8369 0
-1319 -8356 0
-1319 -8357 0
-1319 -8358 0
-1319 -8359 0
-1319 -8360 0
-1319 -8361 0
-1319 -8362 0
-1319 -8363 0
-1319 -8364 0
-1319 -8365 0
-1319 -8366 0
-1319 -8367 0
-1319 -8368 0
-1319 -8369 0
-802 1319 8356 8357 8358 8359 8360 8361 8362 8363 8364 8365 8366 8367 8368 8369 0
-1351 839 0
-8370 802 0
-8370 817 0
-802 -817 8370 0
-8371 871 0
-8371 821 0
-871 -821 8371 0
-8372 903 0
-8372 823 0
-903 -823 8372 0
-8373 935 0
-8373 825 0
-935 -825 8373 0
-8374 967 0
-8374 827 0
-967 -827 8374 0
-8375 999 0
-8375 829 0
-999 -829 8375 0
-8376 1031 0
-8376 831 0
-1031 -831 8376 0
-8377 1063 0
-8377 833 0
-1063 -833 8377 0
-8378 1095 0
-8378 835 0
-1095 -835 8378 0
-8379 1127 0
-8379 837 0
-1127 -837 8379 0
-8380 1191 0
-8380 841 0
-1191 -841 8380 0
-8381 1223 0
-8381 843 0
-1223 -843 8381 0
-8382 1255 0
-8382 845 0
-1255 -845 8382 0
-8383 1287 0
-8383 847 0
-1287 -847 8383 0
-1351 -8370 0
-1351 -8371 0
-1351 -8372 0
-1351 -8373 0
-1351 -8374 0
-1351 -8375 0
-1351 -8376 0
-1351 -8377 0
-1351 -8378 0
-1351 -8379 0
-1351 -8380 0
-1351 -8381 0
-1351 -8382 0
-1351 -8383 0
-839 1351 8370 8371 8372 8373 8374 8375 8376 8377 8378 8379 8380 8381 8382 8383 0
-1383 871 0
-8384 802 0
-8384 849 0
-802 -849 8384 0
-8385 839 0
-8385 851 0
-839 -851 8385 0
-8386 903 0
-8386 855 0
-903 -855 8386 0
-8387 935 0
-8387 857 0
-935 -857 8387 0
-8388 967 0
-8388 859 0
-967 -859 8388 0
-8389 999 0
-8389 861 0
-999 -861 8389 0
-8390 1031 0
-8390 863 0
-1031 -863 8390 0
-8391 1063 0
-8391 865 0
-1063 -865 8391 0
-8392 1095 0
-8392 867 0
-1095 -867 8392 0
-8393 1127 0
-8393 869 0
-1127 -869 8393 0
-8394 1191 0
-8394 873 0
-1191 -873 8394 0
-8395 1223 0
-8395 875 0
-1223 -875 8395 0
-8396 1255 0
-8396 877 0
-1255 -877 8396 0
-8397 1287 0
-8397 879 0
-1287 -879 8397 0
-1383 -8384 0
-1383 -8385 0
-1383 -8386 0
-1383 -8387 0
-1383 -8388 0
-1383 -8389 0
-1383 -8390 0
-1383 -8391 0
-1383 -8392 0
-1383 -8393 0
-1383 -8394 0
-1383 -8395 0
-1383 -8396 0
-1383 -8397 0
-871 1383 8384 8385 8386 8387 8388 8389 8390 8391 8392 8393 8394 8395 8396 8397 0
-1415 903 0
-8398 802 0
-8398 881 0
-802 -881 8398 0
-8399 839 0
-8399 883 0
-839 -883 8399 0
-8400 871 0
-8400 885 0
-871 -885 8400 0
-8401 935 0
-8401 889 0
-935 -889 8401 0
-8402 967 0
-8402 891 0
-967 -891 8402 0
-8403 999 0
-8403 893 0
-999 -893 8403 0
-8404 1031 0
-8404 895 0
-1031 -895 8404 0
-8405 1063 0
-8405 897 0
-1063 -897 8405 0
-8406 1095 0
-8406 899 0
-1095 -899 8406 0
-8407 1127 0
-8407 901 0
-1127 -901 8407 0
-8408 1191 0
-8408 905 0
-1191 -905 8408 0
-8409 1223 0
-8409 907 0
-1223 -907 8409 0
-8410 1255 0
-8410 909 0
-1255 -909 8410 0
-8411 1287 0
-8411 911 0
-1287 -911 8411 0
-1415 -8398 0
-1415 -8399 0
-1415 -8400 0
-1415 -8401 0
-1415 -8402 0
-1415 -8403 0
-1415 -8404 0
-1415 -8405 0
-1415 -8406 0
-1415 -8407 0
-1415 -8408 0
-1415 -8409 0
-1415 -8410 0
-1415 -8411 0
-903 1415 8398 8399 8400 8401 8402 8403 8404 8405 8406 8407 8408 8409 8410 8411 0
-1447 935 0
-8412 802 0
-8412 913 0
-802 -913 8412 0
-8413 839 0
-8413 915 0
-839 -915 8413 0
-8414 871 0
-8414 917 0
-871 -917 8414 0
-8415 903 0
-8415 919 0
-903 -919 8415 0
-8416 967 0
-8416 923 0
-967 -923 8416 0
-8417 999 0
-8417 925 0
-999 -925 8417 0
-8418 1031 0
-8418 927 0
-1031 -927 8418 0
-8419 1063 0
-8419 929 0
-1063 -929 8419 0
-8420 1095 0
-8420 931 0
-1095 -931 8420 0
-8421 1127 0
-8421 933 0
-1127 -933 8421 0
-8422 1191 0
-8422 937 0
-1191 -937 8422 0
-8423 1223 0
-8423 939 0
-1223 -939 8423 0
-8424 1255 0
-8424 941 0
-1255 -941 8424 0
-8425 1287 0
-8425 943 0
-1287 -943 8425 0
-1447 -8412 0
-1447 -8413 0
-1447 -8414 0
-1447 -8415 0
-1447 -8416 0
-1447 -8417 0
-1447 -8418 0
-1447 -8419 0
-1447 -8420 0
-1447 -8421 0
-1447 -8422 0
-1447 -8423 0
-1447 -8424 0
-1447 -8425 0
-935 1447 8412 8413 8414 8415 8416 8417 8418 8419 8420 8421 8422 8423 8424 8425 0
-1479 967 0
-8426 802 0
-8426 945 0
-802 -945 8426 0
-8427 839 0
-8427 947 0
-839 -947 8427 0
-8428 871 0
-8428 949 0
-871 -949 8428 0
-8429 903 0
-8429 951 0
-903 -951 8429 0
-8430 935 0
-8430 953 0
-935 -953 8430 0
-8431 999 0
-8431 957 0
-999 -957 8431 0
-8432 1031 0
-8432 959 0
-1031 -959 8432 0
-8433 1063 0
-8433 961 0
-1063 -961 8433 0
-8434 1095 0
-8434 963 0
-1095 -963 8434 0
-8435 1127 0
-8435 965 0
-1127 -965 8435 0
-8436 1191 0
-8436 969 0
-1191 -969 8436 0
-8437 1223 0
-8437 971 0
-1223 -971 8437 0
-8438 1255 0
-8438 973 0
-1255 -973 8438 0
-8439 1287 0
-8439 975 0
-1287 -975 8439 0
-1479 -8426 0
-1479 -8427 0
-1479 -8428 0
-1479 -8429 0
-1479 -8430 0
-1479 -8431 0
-1479 -8432 0
-1479 -8433 0
-1479 -8434 0
-1479 -8435 0
-1479 -8436 0
-1479 -8437 0
-1479 -8438 0
-1479 -8439 0
-967 1479 8426 8427 8428 8429 8430 8431 8432 8433 8434 8435 8436 8437 8438 8439 0
-1511 999 0
-8440 802 0
-8440 977 0
-802 -977 8440 0
-8441 839 0
-8441 979 0
-839 -979 8441 0
-8442 871 0
-8442 981 0
-871 -981 8442 0
-8443 903 0
-8443 983 0
-903 -983 8443 0
-8444 935 0
-8444 985 0
-935 -985 8444 0
-8445 967 0
-8445 987 0
-967 -987 8445 0
-8446 1031 0
-8446 991 0
-1031 -991 8446 0
-8447 1063 0
-8447 993 0
-1063 -993 8447 0
-8448 1095 0
-8448 995 0
-1095 -995 8448 0
-8449 1127 0
-8449 997 0
-1127 -997 8449 0
-8450 1191 0
-8450 1001 0
-1191 -1001 8450 0
-8451 1223 0
-8451 1003 0
-1223 -1003 8451 0
-8452 1255 0
-8452 1005 0
-1255 -1005 8452 0
-8453 1287 0
-8453 1007 0
-1287 -1007 8453 0
-1511 -8440 0
-1511 -8441 0
-1511 -8442 0
-1511 -8443 0
-1511 -8444 0
-1511 -8445 0
-1511 -8446 0
-1511 -8447 0
-1511 -8448 0
-1511 -8449 0
-1511 -8450 0
-1511 -8451 0
-1511 -8452 0
-1511 -8453 0
-999 1511 8440 8441 8442 8443 8444 8445 8446 8447 8448 8449 8450 8451 8452 8453 0
-1543 1031 0
-8454 802 0
-8454 1009 0
-802 -1009 8454 0
-8455 839 0
-8455 1011 0
-839 -1011 8455 0
-8456 871 0
-8456 1013 0
-871 -1013 8456 0
-8457 903 0
-8457 1015 0
-903 -1015 8457 0
-8458 935 0
-8458 1017 0
-935 -1017 8458 0
-8459 967 0
-8459 1019 0
-967 -1019 8459 0
-8460 999 0
-8460 1021 0
-999 -1021 8460 0
-8461 1063 0
-8461 1025 0
-1063 -1025 8461 0
-8462 1095 0
-8462 1027 0
-1095 -1027 8462 0
-8463 1127 0
-8463 1029 0
-1127 -1029 8463 0
-8464 1191 0
-8464 1033 0
-1191 -1033 8464 0
-8465 1223 0
-8465 1035 0
-1223 -1035 8465 0
-8466 1255 0
-8466 1037 0
-1255 -1037 8466 0
-8467 1287 0
-8467 1039 0
-1287 -1039 8467 0
-1543 -8454 0
-1543 -8455 0
-1543 -8456 0
-1543 -8457 0
-1543 -8458 0
-1543 -8459 0
-1543 -8460 0
-1543 -8461 0
-1543 -8462 0
-1543 -8463 0
-1543 -8464 0
-1543 -8465 0
-1543 -8466 0
-1543 -8467 0
-1031 1543 8454 8455 8456 8457 8458 8459 8460 8461 8462 8463 8464 8465 8466 8467 0
-1575 1063 0
-8468 802 0
-8468 1041 0
-802 -1041 8468 0
-8469 839 0
-8469 1043 0
-839 -1043 8469 0
-8470 871 0
-8470 1045 0
-871 -1045 8470 0
-8471 903 0
-8471 1047 0
-903 -1047 8471 0
-8472 935 0
-8472 1049 0
-935 -1049 8472 0
-8473 967 0
-8473 1051 0
-967 -1051 8473 0
-8474 999 0
-8474 1053 0
-999 -1053 8474 0
-8475 1031 0
-8475 1055 0
-1031 -1055 8475 0
-8476 1095 0
-8476 1059 0
-1095 -1059 8476 0
-8477 1127 0
-8477 1061 0
-1127 -1061 8477 0
-8478 1191 0
-8478 1065 0
-1191 -1065 8478 0
-8479 1223 0
-8479 1067 0
-1223 -1067 8479 0
-8480 1255 0
-8480 1069 0
-1255 -1069 8480 0
-8481 1287 0
-8481 1071 0
-1287 -1071 8481 0
-1575 -8468 0
-1575 -8469 0
-1575 -8470 0
-1575 -8471 0
-1575 -8472 0
-1575 -8473 0
-1575 -8474 0
-1575 -8475 0
-1575 -8476 0
-1575 -8477 0
-1575 -8478 0
-1575 -8479 0
-1575 -8480 0
-1575 -8481 0
-1063 1575 8468 8469 8470 8471 8472 8473 8474 8475 8476 8477 8478 8479 8480 8481 0
-1607 1095 0
-8482 802 0
-8482 1073 0
-802 -1073 8482 0
-8483 839 0
-8483 1075 0
-839 -1075 8483 0
-8484 871 0
-8484 1077 0
-871 -1077 8484 0
-8485 903 0
-8485 1079 0
-903 -1079 8485 0
-8486 935 0
-8486 1081 0
-935 -1081 8486 0
-8487 967 0
-8487 1083 0
-967 -1083 8487 0
-8488 999 0
-8488 1085 0
-999 -1085 8488 0
-8489 1031 0
-8489 1087 0
-1031 -1087 8489 0
-8490 1063 0
-8490 1089 0
-1063 -1089 8490 0
-8491 1127 0
-8491 1093 0
-1127 -1093 8491 0
-8492 1191 0
-8492 1097 0
-1191 -1097 8492 0
-8493 1223 0
-8493 1099 0
-1223 -1099 8493 0
-8494 1255 0
-8494 1101 0
-1255 -1101 8494 0
-8495 1287 0
-8495 1103 0
-1287 -1103 8495 0
-1607 -8482 0
-1607 -8483 0
-1607 -8484 0
-1607 -8485 0
-1607 -8486 0
-1607 -8487 0
-1607 -8488 0
-1607 -8489 0
-1607 -8490 0
-1607 -8491 0
-1607 -8492 0
-1607 -8493 0
-1607 -8494 0
-1607 -8495 0
-1095 1607 8482 8483 8484 8485 8486 8487 8488 8489 8490 8491 8492 8493 8494 8495 0
-1639 1127 0
-8496 802 0
-8496 1105 0
-802 -1105 8496 0
-8497 839 0
-8497 1107 0
-839 -1107 8497 0
-8498 871 0
-8498 1109 0
-871 -1109 8498 0
-8499 903 0
-8499 1111 0
-903 -1111 8499 0
-8500 935 0
-8500 1113 0
-935 -1113 8500 0
-8501 967 0
-8501 1115 0
-967 -1115 8501 0
-8502 999 0
-8502 1117 0
-999 -1117 8502 0
-8503 1031 0
-8503 1119 0
-1031 -1119 8503 0
-8504 1063 0
-8504 1121 0
-1063 -1121 8504 0
-8505 1095 0
-8505 1123 0
-1095 -1123 8505 0
-8506 1191 0
-8506 1129 0
-1191 -1129 8506 0
-8507 1223 0
-8507 1131 0
-1223 -1131 8507 0
-8508 1255 0
-8508 1133 0
-1255 -1133 8508 0
-8509 1287 0
-8509 1135 0
-1287 -1135 8509 0
-1639 -8496 0
-1639 -8497 0
-1639 -8498 0
-1639 -8499 0
-1639 -8500 0
-1639 -8501 0
-1639 -8502 0
-1639 -8503 0
-1639 -8504 0
-1639 -8505 0
-1639 -8506 0
-1639 -8507 0
-1639 -8508 0
-1639 -8509 0
-1127 1639 8496 8497 8498 8499 8500 8501 8502 8503 8504 8505 8506 8507 8508 8509 0
-1671 0
-1703 1191 0
-8510 802 0
-8510 1169 0
-802 -1169 8510 0
-8511 839 0
-8511 1171 0
-839 -1171 8511 0
-8512 871 0
-8512 1173 0
-871 -1173 8512 0
-8513 903 0
-8513 1175 0
-903 -1175 8513 0
-8514 935 0
-8514 1177 0
-935 -1177 8514 0
-8515 967 0
-8515 1179 0
-967 -1179 8515 0
-8516 999 0
-8516 1181 0
-999 -1181 8516 0
-8517 1031 0
-8517 1183 0
-1031 -1183 8517 0
-8518 1063 0
-8518 1185 0
-1063 -1185 8518 0
-8519 1095 0
-8519 1187 0
-1095 -1187 8519 0
-8520 1127 0
-8520 1189 0
-1127 -1189 8520 0
-8521 1223 0
-8521 1195 0
-1223 -1195 8521 0
-8522 1255 0
-8522 1197 0
-1255 -1197 8522 0
-8523 1287 0
-8523 1199 0
-1287 -1199 8523 0
-1703 -8510 0
-1703 -8511 0
-1703 -8512 0
-1703 -8513 0
-1703 -8514 0
-1703 -8515 0
-1703 -8516 0
-1703 -8517 0
-1703 -8518 0
-1703 -8519 0
-1703 -8520 0
-1703 -8521 0
-1703 -8522 0
-1703 -8523 0
-1191 1703 8510 8511 8512 8513 8514 8515 8516 8517 8518 8519 8520 8521 8522 8523 0
-1735 1223 0
-8524 802 0
-8524 1201 0
-802 -1201 8524 0
-8525 839 0
-8525 1203 0
-839 -1203 8525 0
-8526 871 0
-8526 1205 0
-871 -1205 8526 0
-8527 903 0
-8527 1207 0
-903 -1207 8527 0
-8528 935 0
-8528 1209 0
-935 -1209 8528 0
-8529 967 0
-8529 1211 0
-967 -1211 8529 0
-8530 999 0
-8530 1213 0
-999 -1213 8530 0
-8531 1031 0
-8531 1215 0
-1031 -1215 8531 0
-8532 1063 0
-8532 1217 0
-1063 -1217 8532 0
-8533 1095 0
-8533 1219 0
-1095 -1219 8533 0
-8534 1127 0
-8534 1221 0
-1127 -1221 8534 0
-8535 1191 0
-8535 1225 0
-1191 -1225 8535 0
-8536 1255 0
-8536 1229 0
-1255 -1229 8536 0
-8537 1287 0
-8537 1231 0
-1287 -1231 8537 0
-1735 -8524 0
-1735 -8525 0
-1735 -8526 0
-1735 -8527 0
-1735 -8528 0
-1735 -8529 0
-1735 -8530 0
-1735 -8531 0
-1735 -8532 0
-1735 -8533 0
-1735 -8534 0
-1735 -8535 0
-1735 -8536 0
-1735 -8537 0
-1223 1735 8524 8525 8526 8527 8528 8529 8530 8531 8532 8533 8534 8535 8536 8537 0
-1767 1255 0
-8538 802 0
-8538 1233 0
-802 -1233 8538 0
-8539 839 0
-8539 1235 0
-839 -1235 8539 0
-8540 871 0
-8540 1237 0
-871 -1237 8540 0
-8541 903 0
-8541 1239 0
-903 -1239 8541 0
-8542 935 0
-8542 1241 0
-935 -1241 8542 0
-8543 967 0
-8543 1243 0
-967 -1243 8543 0
-8544 999 0
-8544 1245 0
-999 -1245 8544 0
-8545 1031 0
-8545 1247 0
-1031 -1247 8545 0
-8546 1063 0
-8546 1249 0
-1063 -1249 8546 0
-8547 1095 0
-8547 1251 0
-1095 -1251 8547 0
-8548 1127 0
-8548 1253 0
-1127 -1253 8548 0
-8549 1191 0
-8549 1257 0
-1191 -1257 8549 0
-8550 1223 0
-8550 1259 0
-1223 -1259 8550 0
-8551 1287 0
-8551 1263 0
-1287 -1263 8551 0
-1767 -8538 0
-1767 -8539 0
-1767 -8540 0
-1767 -8541 0
-1767 -8542 0
-1767 -8543 0
-1767 -8544 0
-1767 -8545 0
-1767 -8546 0
-1767 -8547 0
-1767 -8548 0
-1767 -8549 0
-1767 -8550 0
-1767 -8551 0
-1255 1767 8538 8539 8540 8541 8542 8543 8544 8545 8546 8547 8548 8549 8550 8551 0
-1799 1287 0
-8552 802 0
-8552 1265 0
-802 -1265 8552 0
-8553 839 0
-8553 1267 0
-839 -1267 8553 0
-8554 871 0
-8554 1269 0
-871 -1269 8554 0
-8555 903 0
-8555 1271 0
-903 -1271 8555 0
-8556 935 0
-8556 1273 0
-935 -1273 8556 0
-8557 967 0
-8557 1275 0
-967 -1275 8557 0
-8558 999 0
-8558 1277 0
-999 -1277 8558 0
-8559 1031 0
-8559 1279 0
-1031 -1279 8559 0
-8560 1063 0
-8560 1281 0
-1063 -1281 8560 0
-8561 1095 0
-8561 1283 0
-1095 -1283 8561 0
-8562 1127 0
-8562 1285 0
-1127 -1285 8562 0
-8563 1191 0
-8563 1289 0
-1191 -1289 8563 0
-8564 1223 0
-8564 1291 0
-1223 -1291 8564 0
-8565 1255 0
-8565 1293 0
-1255 -1293 8565 0
-1799 -8552 0
-1799 -8553 0
-1799 -8554 0
-1799 -8555 0
-1799 -8556 0
-1799 -8557 0
-1799 -8558 0
-1799 -8559 0
-1799 -8560 0
-1799 -8561 0
-1799 -8562 0
-1799 -8563 0
-1799 -8564 0
-1799 -8565 0
-1287 1799 8552 8553 8554 8555 8556 8557 8558 8559 8560 8561 8562 8563 8564 8565 0
-1321 805 0
-8566 841 0
-8566 772 0
-841 -772 8566 0
-8567 873 0
-8567 775 0
-873 -775 8567 0
-8568 905 0
-8568 778 0
-905 -778 8568 0
-8569 937 0
-8569 781 0
-937 -781 8569 0
-8570 969 0
-8570 784 0
-969 -784 8570 0
-8571 1001 0
-8571 787 0
-1001 -787 8571 0
-8572 1033 0
-8572 790 0
-1033 -790 8572 0
-8573 1065 0
-8573 793 0
-1065 -793 8573 0
-8574 1097 0
-8574 796 0
-1097 -796 8574 0
-8575 1129 0
-8575 799 0
-1129 -799 8575 0
-8576 1161 0
-8576 802 0
-1161 -802 8576 0
-8577 1225 0
-8577 808 0
-1225 -808 8577 0
-8578 1257 0
-8578 811 0
-1257 -811 8578 0
-8579 1289 0
-8579 814 0
-1289 -814 8579 0
-1321 -8566 0
-1321 -8567 0
-1321 -8568 0
-1321 -8569 0
-1321 -8570 0
-1321 -8571 0
-1321 -8572 0
-1321 -8573 0
-1321 -8574 0
-1321 -8575 0
-1321 -8576 0
-1321 -8577 0
-1321 -8578 0
-1321 -8579 0
-805 1321 8566 8567 8568 8569 8570 8571 8572 8573 8574 8575 8576 8577 8578 8579 0
-1353 841 0
-8580 805 0
-8580 817 0
-805 -817 8580 0
-8581 873 0
-8581 821 0
-873 -821 8581 0
-8582 905 0
-8582 823 0
-905 -823 8582 0
-8583 937 0
-8583 825 0
-937 -825 8583 0
-8584 969 0
-8584 827 0
-969 -827 8584 0
-8585 1001 0
-8585 829 0
-1001 -829 8585 0
-8586 1033 0
-8586 831 0
-1033 -831 8586 0
-8587 1065 0
-8587 833 0
-1065 -833 8587 0
-8588 1097 0
-8588 835 0
-1097 -835 8588 0
-8589 1129 0
-8589 837 0
-1129 -837 8589 0
-8590 1161 0
-8590 839 0
-1161 -839 8590 0
-8591 1225 0
-8591 843 0
-1225 -843 8591 0
-8592 1257 0
-8592 845 0
-1257 -845 8592 0
-8593 1289 0
-8593 847 0
-1289 -847 8593 0
-1353 -8580 0
-1353 -8581 0
-1353 -8582 0
-1353 -8583 0
-1353 -8584 0
-1353 -8585 0
-1353 -8586 0
-1353 -8587 0
-1353 -8588 0
-1353 -8589 0
-1353 -8590 0
-1353 -8591 0
-1353 -8592 0
-1353 -8593 0
-841 1353 8580 8581 8582 8583 8584 8585 8586 8587 8588 8589 8590 8591 8592 8593 0
-1385 873 0
-8594 805 0
-8594 849 0
-805 -849 8594 0
-8595 841 0
-8595 851 0
-841 -851 8595 0
-8596 905 0
-8596 855 0
-905 -855 8596 0
-8597 937 0
-8597 857 0
-937 -857 8597 0
-8598 969 0
-8598 859 0
-969 -859 8598 0
-8599 1001 0
-8599 861 0
-1001 -861 8599 0
-8600 1033 0
-8600 863 0
-1033 -863 8600 0
-8601 1065 0
-8601 865 0
-1065 -865 8601 0
-8602 1097 0
-8602 867 0
-1097 -867 8602 0
-8603 1129 0
-8603 869 0
-1129 -869 8603 0
-8604 1161 0
-8604 871 0
-1161 -871 8604 0
-8605 1225 0
-8605 875 0
-1225 -875 8605 0
-8606 1257 0
-8606 877 0
-1257 -877 8606 0
-8607 1289 0
-8607 879 0
-1289 -879 8607 0
-1385 -8594 0
-1385 -8595 0
-1385 -8596 0
-1385 -8597 0
-1385 -8598 0
-1385 -8599 0
-1385 -8600 0
-1385 -8601 0
-1385 -8602 0
-1385 -8603 0
-1385 -8604 0
-1385 -8605 0
-1385 -8606 0
-1385 -8607 0
-873 1385 8594 8595 8596 8597 8598 8599 8600 8601 8602 8603 8604 8605 8606 8607 0
-1417 905 0
-8608 805 0
-8608 881 0
-805 -881 8608 0
-8609 841 0
-8609 883 0
-841 -883 8609 0
-8610 873 0
-8610 885 0
-873 -885 8610 0
-8611 937 0
-8611 889 0
-937 -889 8611 0
-8612 969 0
-8612 891 0
-969 -891 8612 0
-8613 1001 0
-8613 893 0
-1001 -893 8613 0
-8614 1033 0
-8614 895 0
-1033 -895 8614 0
-8615 1065 0
-8615 897 0
-1065 -897 8615 0
-8616 1097 0
-8616 899 0
-1097 -899 8616 0
-8617 1129 0
-8617 901 0
-1129 -901 8617 0
-8618 1161 0
-8618 903 0
-1161 -903 8618 0
-8619 1225 0
-8619 907 0
-1225 -907 8619 0
-8620 1257 0
-8620 909 0
-1257 -909 8620 0
-8621 1289 0
-8621 911 0
-1289 -911 8621 0
-1417 -8608 0
-1417 -8609 0
-1417 -8610 0
-1417 -8611 0
-1417 -8612 0
-1417 -8613 0
-1417 -8614 0
-1417 -8615 0
-1417 -8616 0
-1417 -8617 0
-1417 -8618 0
-1417 -8619 0
-1417 -8620 0
-1417 -8621 0
-905 1417 8608 8609 8610 8611 8612 8613 8614 8615 8616 8617 8618 8619 8620 8621 0
-1449 937 0
-8622 805 0
-8622 913 0
-805 -913 8622 0
-8623 841 0
-8623 915 0
-841 -915 8623 0
-8624 873 0
-8624 917 0
-873 -917 8624 0
-8625 905 0
-8625 919 0
-905 -919 8625 0
-8626 969 0
-8626 923 0
-969 -923 8626 0
-8627 1001 0
-8627 925 0
-1001 -925 8627 0
-8628 1033 0
-8628 927 0
-1033 -927 8628 0
-8629 1065 0
-8629 929 0
-1065 -929 8629 0
-8630 1097 0
-8630 931 0
-1097 -931 8630 0
-8631 1129 0
-8631 933 0
-1129 -933 8631 0
-8632 1161 0
-8632 935 0
-1161 -935 8632 0
-8633 1225 0
-8633 939 0
-1225 -939 8633 0
-8634 1257 0
-8634 941 0
-1257 -941 8634 0
-8635 1289 0
-8635 943 0
-1289 -943 8635 0
-1449 -8622 0
-1449 -8623 0
-1449 -8624 0
-1449 -8625 0
-1449 -8626 0
-1449 -8627 0
-1449 -8628 0
-1449 -8629 0
-1449 -8630 0
-1449 -8631 0
-1449 -8632 0
-1449 -8633 0
-1449 -8634 0
-1449 -8635 0
-937 1449 8622 8623 8624 8625 8626 8627 8628 8629 8630 8631 8632 8633 8634 8635 0
-1481 969 0
-8636 805 0
-8636 945 0
-805 -945 8636 0
-8637 841 0
-8637 947 0
-841 -947 8637 0
-8638 873 0
-8638 949 0
-873 -949 8638 0
-8639 905 0
-8639 951 0
-905 -951 8639 0
-8640 937 0
-8640 953 0
-937 -953 8640 0
-8641 1001 0
-8641 957 0
-1001 -957 8641 0
-8642 1033 0
-8642 959 0
-1033 -959 8642 0
-8643 1065 0
-8643 961 0
-1065 -961 8643 0
-8644 1097 0
-8644 963 0
-1097 -963 8644 0
-8645 1129 0
-8645 965 0
-1129 -965 8645 0
-8646 1161 0
-8646 967 0
-1161 -967 8646 0
-8647 1225 0
-8647 971 0
-1225 -971 8647 0
-8648 1257 0
-8648 973 0
-1257 -973 8648 0
-8649 1289 0
-8649 975 0
-1289 -975 8649 0
-1481 -8636 0
-1481 -8637 0
-1481 -8638 0
-1481 -8639 0
-1481 -8640 0
-1481 -8641 0
-1481 -8642 0
-1481 -8643 0
-1481 -8644 0
-1481 -8645 0
-1481 -8646 0
-1481 -8647 0
-1481 -8648 0
-1481 -8649 0
-969 1481 8636 8637 8638 8639 8640 8641 8642 8643 8644 8645 8646 8647 8648 8649 0
-1513 1001 0
-8650 805 0
-8650 977 0
-805 -977 8650 0
-8651 841 0
-8651 979 0
-841 -979 8651 0
-8652 873 0
-8652 981 0
-873 -981 8652 0
-8653 905 0
-8653 983 0
-905 -983 8653 0
-8654 937 0
-8654 985 0
-937 -985 8654 0
-8655 969 0
-8655 987 0
-969 -987 8655 0
-8656 1033 0
-8656 991 0
-1033 -991 8656 0
-8657 1065 0
-8657 993 0
-1065 -993 8657 0
-8658 1097 0
-8658 995 0
-1097 -995 8658 0
-8659 1129 0
-8659 997 0
-1129 -997 8659 0
-8660 1161 0
-8660 999 0
-1161 -999 8660 0
-8661 1225 0
-8661 1003 0
-1225 -1003 8661 0
-8662 1257 0
-8662 1005 0
-1257 -1005 8662 0
-8663 1289 0
-8663 1007 0
-1289 -1007 8663 0
-1513 -8650 0
-1513 -8651 0
-1513 -8652 0
-1513 -8653 0
-1513 -8654 0
-1513 -8655 0
-1513 -8656 0
-1513 -8657 0
-1513 -8658 0
-1513 -8659 0
-1513 -8660 0
-1513 -8661 0
-1513 -8662 0
-1513 -8663 0
-1001 1513 8650 8651 8652 8653 8654 8655 8656 8657 8658 8659 8660 8661 8662 8663 0
-1545 1033 0
-8664 805 0
-8664 1009 0
-805 -1009 8664 0
-8665 841 0
-8665 1011 0
-841 -1011 8665 0
-8666 873 0
-8666 1013 0
-873 -1013 8666 0
-8667 905 0
-8667 1015 0
-905 -1015 8667 0
-8668 937 0
-8668 1017 0
-937 -1017 8668 0
-8669 969 0
-8669 1019 0
-969 -1019 8669 0
-8670 1001 0
-8670 1021 0
-1001 -1021 8670 0
-8671 1065 0
-8671 1025 0
-1065 -1025 8671 0
-8672 1097 0
-8672 1027 0
-1097 -1027 8672 0
-8673 1129 0
-8673 1029 0
-1129 -1029 8673 0
-8674 1161 0
-8674 1031 0
-1161 -1031 8674 0
-8675 1225 0
-8675 1035 0
-1225 -1035 8675 0
-8676 1257 0
-8676 1037 0
-1257 -1037 8676 0
-8677 1289 0
-8677 1039 0
-1289 -1039 8677 0
-1545 -8664 0
-1545 -8665 0
-1545 -8666 0
-1545 -8667 0
-1545 -8668 0
-1545 -8669 0
-1545 -8670 0
-1545 -8671 0
-1545 -8672 0
-1545 -8673 0
-1545 -8674 0
-1545 -8675 0
-1545 -8676 0
-1545 -8677 0
-1033 1545 8664 8665 8666 8667 8668 8669 8670 8671 8672 8673 8674 8675 8676 8677 0
-1577 1065 0
-8678 805 0
-8678 1041 0
-805 -1041 8678 0
-8679 841 0
-8679 1043 0
-841 -1043 8679 0
-8680 873 0
-8680 1045 0
-873 -1045 8680 0
-8681 905 0
-8681 1047 0
-905 -1047 8681 0
-8682 937 0
-8682 1049 0
-937 -1049 8682 0
-8683 969 0
-8683 1051 0
-969 -1051 8683 0
-8684 1001 0
-8684 1053 0
-1001 -1053 8684 0
-8685 1033 0
-8685 1055 0
-1033 -1055 8685 0
-8686 1097 0
-8686 1059 0
-1097 -1059 8686 0
-8687 1129 0
-8687 1061 0
-1129 -1061 8687 0
-8688 1161 0
-8688 1063 0
-1161 -1063 8688 0
-8689 1225 0
-8689 1067 0
-1225 -1067 8689 0
-8690 1257 0
-8690 1069 0
-1257 -1069 8690 0
-8691 1289 0
-8691 1071 0
-1289 -1071 8691 0
-1577 -8678 0
-1577 -8679 0
-1577 -8680 0
-1577 -8681 0
-1577 -8682 0
-1577 -8683 0
-1577 -8684 0
-1577 -8685 0
-1577 -8686 0
-1577 -8687 0
-1577 -8688 0
-1577 -8689 0
-1577 -8690 0
-1577 -8691 0
-1065 1577 8678 8679 8680 8681 8682 8683 8684 8685 8686 8687 8688 8689 8690 8691 0
-1609 1097 0
-8692 805 0
-8692 1073 0
-805 -1073 8692 0
-8693 841 0
-8693 1075 0
-841 -1075 8693 0
-8694 873 0
-8694 1077 0
-873 -1077 8694 0
-8695 905 0
-8695 1079 0
-905 -1079 8695 0
-8696 937 0
-8696 1081 0
-937 -1081 8696 0
-8697 969 0
-8697 1083 0
-969 -1083 8697 0
-8698 1001 0
-8698 1085 0
-1001 -1085 8698 0
-8699 1033 0
-8699 1087 0
-1033 -1087 8699 0
-8700 1065 0
-8700 1089 0
-1065 -1089 8700 0
-8701 1129 0
-8701 1093 0
-1129 -1093 8701 0
-8702 1161 0
-8702 1095 0
-1161 -1095 8702 0
-8703 1225 0
-8703 1099 0
-1225 -1099 8703 0
-8704 1257 0
-8704 1101 0
-1257 -1101 8704 0
-8705 1289 0
-8705 1103 0
-1289 -1103 8705 0
-1609 -8692 0
-1609 -8693 0
-1609 -8694 0
-1609 -8695 0
-1609 -8696 0
-1609 -8697 0
-1609 -8698 0
-1609 -8699 0
-1609 -8700 0
-1609 -8701 0
-1609 -8702 0
-1609 -8703 0
-1609 -8704 0
-1609 -8705 0
-1097 1609 8692 8693 8694 8695 8696 8697 8698 8699 8700 8701 8702 8703 8704 8705 0
-1641 1129 0
-8706 805 0
-8706 1105 0
-805 -1105 8706 0
-8707 841 0
-8707 1107 0
-841 -1107 8707 0
-8708 873 0
-8708 1109 0
-873 -1109 8708 0
-8709 905 0
-8709 1111 0
-905 -1111 8709 0
-8710 937 0
-8710 1113 0
-937 -1113 8710 0
-8711 969 0
-8711 1115 0
-969 -1115 8711 0
-8712 1001 0
-8712 1117 0
-1001 -1117 8712 0
-8713 1033 0
-8713 1119 0
-1033 -1119 8713 0
-8714 1065 0
-8714 1121 0
-1065 -1121 8714 0
-8715 1097 0
-8715 1123 0
-1097 -1123 8715 0
-8716 1161 0
-8716 1127 0
-1161 -1127 8716 0
-8717 1225 0
-8717 1131 0
-1225 -1131 8717 0
-8718 1257 0
-8718 1133 0
-1257 -1133 8718 0
-8719 1289 0
-8719 1135 0
-1289 -1135 8719 0
-1641 -8706 0
-1641 -8707 0
-1641 -8708 0
-1641 -8709 0
-1641 -8710 0
-1641 -8711 0
-1641 -8712 0
-1641 -8713 0
-1641 -8714 0
-1641 -8715 0
-1641 -8716 0
-1641 -8717 0
-1641 -8718 0
-1641 -8719 0
-1129 1641 8706 8707 8708 8709 8710 8711 8712 8713 8714 8715 8716 8717 8718 8719 0
-1673 1161 0
-8720 805 0
-8720 1137 0
-805 -1137 8720 0
-8721 841 0
-8721 1139 0
-841 -1139 8721 0
-8722 873 0
-8722 1141 0
-873 -1141 8722 0
-8723 905 0
-8723 1143 0
-905 -1143 8723 0
-8724 937 0
-8724 1145 0
-937 -1145 8724 0
-8725 969 0
-8725 1147 0
-969 -1147 8725 0
-8726 1001 0
-8726 1149 0
-1001 -1149 8726 0
-8727 1033 0
-8727 1151 0
-1033 -1151 8727 0
-8728 1065 0
-8728 1153 0
-1065 -1153 8728 0
-8729 1097 0
-8729 1155 0
-1097 -1155 8729 0
-8730 1129 0
-8730 1157 0
-1129 -1157 8730 0
-8731 1225 0
-8731 1163 0
-1225 -1163 8731 0
-8732 1257 0
-8732 1165 0
-1257 -1165 8732 0
-8733 1289 0
-8733 1167 0
-1289 -1167 8733 0
-1673 -8720 0
-1673 -8721 0
-1673 -8722 0
-1673 -8723 0
-1673 -8724 0
-1673 -8725 0
-1673 -8726 0
-1673 -8727 0
-1673 -8728 0
-1673 -8729 0
-1673 -8730 0
-1673 -8731 0
-1673 -8732 0
-1673 -8733 0
-1161 1673 8720 8721 8722 8723 8724 8725 8726 8727 8728 8729 8730 8731 8732 8733 0
-1705 0
-1737 1225 0
-8734 805 0
-8734 1201 0
-805 -1201 8734 0
-8735 841 0
-8735 1203 0
-841 -1203 8735 0
-8736 873 0
-8736 1205 0
-873 -1205 8736 0
-8737 905 0
-8737 1207 0
-905 -1207 8737 0
-8738 937 0
-8738 1209 0
-937 -1209 8738 0
-8739 969 0
-8739 1211 0
-969 -1211 8739 0
-8740 1001 0
-8740 1213 0
-1001 -1213 8740 0
-8741 1033 0
-8741 1215 0
-1033 -1215 8741 0
-8742 1065 0
-8742 1217 0
-1065 -1217 8742 0
-8743 1097 0
-8743 1219 0
-1097 -1219 8743 0
-8744 1129 0
-8744 1221 0
-1129 -1221 8744 0
-8745 1161 0
-8745 1223 0
-1161 -1223 8745 0
-8746 1257 0
-8746 1229 0
-1257 -1229 8746 0
-8747 1289 0
-8747 1231 0
-1289 -1231 8747 0
-1737 -8734 0
-1737 -8735 0
-1737 -8736 0
-1737 -8737 0
-1737 -8738 0
-1737 -8739 0
-1737 -8740 0
-1737 -8741 0
-1737 -8742 0
-1737 -8743 0
-1737 -8744 0
-1737 -8745 0
-1737 -8746 0
-1737 -8747 0
-1225 1737 8734 8735 8736 8737 8738 8739 8740 8741 8742 8743 8744 8745 8746 8747 0
-1769 1257 0
-8748 805 0
-8748 1233 0
-805 -1233 8748 0
-8749 841 0
-8749 1235 0
-841 -1235 8749 0
-8750 873 0
-8750 1237 0
-873 -1237 8750 0
-8751 905 0
-8751 1239 0
-905 -1239 8751 0
-8752 937 0
-8752 1241 0
-937 -1241 8752 0
-8753 969 0
-8753 1243 0
-969 -1243 8753 0
-8754 1001 0
-8754 1245 0
-1001 -1245 8754 0
-8755 1033 0
-8755 1247 0
-1033 -1247 8755 0
-8756 1065 0
-8756 1249 0
-1065 -1249 8756 0
-8757 1097 0
-8757 1251 0
-1097 -1251 8757 0
-8758 1129 0
-8758 1253 0
-1129 -1253 8758 0
-8759 1161 0
-8759 1255 0
-1161 -1255 8759 0
-8760 1225 0
-8760 1259 0
-1225 -1259 8760 0
-8761 1289 0
-8761 1263 0
-1289 -1263 8761 0
-1769 -8748 0
-1769 -8749 0
-1769 -8750 0
-1769 -8751 0
-1769 -8752 0
-1769 -8753 0
-1769 -8754 0
-1769 -8755 0
-1769 -8756 0
-1769 -8757 0
-1769 -8758 0
-1769 -8759 0
-1769 -8760 0
-1769 -8761 0
-1257 1769 8748 8749 8750 8751 8752 8753 8754 8755 8756 8757 8758 8759 8760 8761 0
-1801 1289 0
-8762 805 0
-8762 1265 0
-805 -1265 8762 0
-8763 841 0
-8763 1267 0
-841 -1267 8763 0
-8764 873 0
-8764 1269 0
-873 -1269 8764 0
-8765 905 0
-8765 1271 0
-905 -1271 8765 0
-8766 937 0
-8766 1273 0
-937 -1273 8766 0
-8767 969 0
-8767 1275 0
-969 -1275 8767 0
-8768 1001 0
-8768 1277 0
-1001 -1277 8768 0
-8769 1033 0
-8769 1279 0
-1033 -1279 8769 0
-8770 1065 0
-8770 1281 0
-1065 -1281 8770 0
-8771 1097 0
-8771 1283 0
-1097 -1283 8771 0
-8772 1129 0
-8772 1285 0
-1129 -1285 8772 0
-8773 1161 0
-8773 1287 0
-1161 -1287 8773 0
-8774 1225 0
-8774 1291 0
-1225 -1291 8774 0
-8775 1257 0
-8775 1293 0
-1257 -1293 8775 0
-1801 -8762 0
-1801 -8763 0
-1801 -8764 0
-1801 -8765 0
-1801 -8766 0
-1801 -8767 0
-1801 -8768 0
-1801 -8769 0
-1801 -8770 0
-1801 -8771 0
-1801 -8772 0
-1801 -8773 0
-1801 -8774 0
-1801 -8775 0
-1289 1801 8762 8763 8764 8765 8766 8767 8768 8769 8770 8771 8772 8773 8774 8775 0
-1323 808 0
-8776 843 0
-8776 772 0
-843 -772 8776 0
-8777 875 0
-8777 775 0
-875 -775 8777 0
-8778 907 0
-8778 778 0
-907 -778 8778 0
-8779 939 0
-8779 781 0
-939 -781 8779 0
-8780 971 0
-8780 784 0
-971 -784 8780 0
-8781 1003 0
-8781 787 0
-1003 -787 8781 0
-8782 1035 0
-8782 790 0
-1035 -790 8782 0
-8783 1067 0
-8783 793 0
-1067 -793 8783 0
-8784 1099 0
-8784 796 0
-1099 -796 8784 0
-8785 1131 0
-8785 799 0
-1131 -799 8785 0
-8786 1163 0
-8786 802 0
-1163 -802 8786 0
-8787 1195 0
-8787 805 0
-1195 -805 8787 0
-8788 1259 0
-8788 811 0
-1259 -811 8788 0
-8789 1291 0
-8789 814 0
-1291 -814 8789 0
-1323 -8776 0
-1323 -8777 0
-1323 -8778 0
-1323 -8779 0
-1323 -8780 0
-1323 -8781 0
-1323 -8782 0
-1323 -8783 0
-1323 -8784 0
-1323 -8785 0
-1323 -8786 0
-1323 -8787 0
-1323 -8788 0
-1323 -8789 0
-808 1323 8776 8777 8778 8779 8780 8781 8782 8783 8784 8785 8786 8787 8788 8789 0
-1355 843 0
-8790 808 0
-8790 817 0
-808 -817 8790 0
-8791 875 0
-8791 821 0
-875 -821 8791 0
-8792 907 0
-8792 823 0
-907 -823 8792 0
-8793 939 0
-8793 825 0
-939 -825 8793 0
-8794 971 0
-8794 827 0
-971 -827 8794 0
-8795 1003 0
-8795 829 0
-1003 -829 8795 0
-8796 1035 0
-8796 831 0
-1035 -831 8796 0
-8797 1067 0
-8797 833 0
-1067 -833 8797 0
-8798 1099 0
-8798 835 0
-1099 -835 8798 0
-8799 1131 0
-8799 837 0
-1131 -837 8799 0
-8800 1163 0
-8800 839 0
-1163 -839 8800 0
-8801 1195 0
-8801 841 0
-1195 -841 8801 0
-8802 1259 0
-8802 845 0
-1259 -845 8802 0
-8803 1291 0
-8803 847 0
-1291 -847 8803 0
-1355 -8790 0
-1355 -8791 0
-1355 -8792 0
-1355 -8793 0
-1355 -8794 0
-1355 -8795 0
-1355 -8796 0
-1355 -8797 0
-1355 -8798 0
-1355 -8799 0
-1355 -8800 0
-1355 -8801 0
-1355 -8802 0
-1355 -8803 0
-843 1355 8790 8791 8792 8793 8794 8795 8796 8797 8798 8799 8800 8801 8802 8803 0
-1387 875 0
-8804 808 0
-8804 849 0
-808 -849 8804 0
-8805 843 0
-8805 851 0
-843 -851 8805 0
-8806 907 0
-8806 855 0
-907 -855 8806 0
-8807 939 0
-8807 857 0
-939 -857 8807 0
-8808 971 0
-8808 859 0
-971 -859 8808 0
-8809 1003 0
-8809 861 0
-1003 -861 8809 0
-8810 1035 0
-8810 863 0
-1035 -863 8810 0
-8811 1067 0
-8811 865 0
-1067 -865 8811 0
-8812 1099 0
-8812 867 0
-1099 -867 8812 0
-8813 1131 0
-8813 869 0
-1131 -869 8813 0
-8814 1163 0
-8814 871 0
-1163 -871 8814 0
-8815 1195 0
-8815 873 0
-1195 -873 8815 0
-8816 1259 0
-8816 877 0
-1259 -877 8816 0
-8817 1291 0
-8817 879 0
-1291 -879 8817 0
-1387 -8804 0
-1387 -8805 0
-1387 -8806 0
-1387 -8807 0
-1387 -8808 0
-1387 -8809 0
-1387 -8810 0
-1387 -8811 0
-1387 -8812 0
-1387 -8813 0
-1387 -8814 0
-1387 -8815 0
-1387 -8816 0
-1387 -8817 0
-875 1387 8804 8805 8806 8807 8808 8809 8810 8811 8812 8813 8814 8815 8816 8817 0
-1419 907 0
-8818 808 0
-8818 881 0
-808 -881 8818 0
-8819 843 0
-8819 883 0
-843 -883 8819 0
-8820 875 0
-8820 885 0
-875 -885 8820 0
-8821 939 0
-8821 889 0
-939 -889 8821 0
-8822 971 0
-8822 891 0
-971 -891 8822 0
-8823 1003 0
-8823 893 0
-1003 -893 8823 0
-8824 1035 0
-8824 895 0
-1035 -895 8824 0
-8825 1067 0
-8825 897 0
-1067 -897 8825 0
-8826 1099 0
-8826 899 0
-1099 -899 8826 0
-8827 1131 0
-8827 901 0
-1131 -901 8827 0
-8828 1163 0
-8828 903 0
-1163 -903 8828 0
-8829 1195 0
-8829 905 0
-1195 -905 8829 0
-8830 1259 0
-8830 909 0
-1259 -909 8830 0
-8831 1291 0
-8831 911 0
-1291 -911 8831 0
-1419 -8818 0
-1419 -8819 0
-1419 -8820 0
-1419 -8821 0
-1419 -8822 0
-1419 -8823 0
-1419 -8824 0
-1419 -8825 0
-1419 -8826 0
-1419 -8827 0
-1419 -8828 0
-1419 -8829 0
-1419 -8830 0
-1419 -8831 0
-907 1419 8818 8819 8820 8821 8822 8823 8824 8825 8826 8827 8828 8829 8830 8831 0
-1451 939 0
-8832 808 0
-8832 913 0
-808 -913 8832 0
-8833 843 0
-8833 915 0
-843 -915 8833 0
-8834 875 0
-8834 917 0
-875 -917 8834 0
-8835 907 0
-8835 919 0
-907 -919 8835 0
-8836 971 0
-8836 923 0
-971 -923 8836 0
-8837 1003 0
-8837 925 0
-1003 -925 8837 0
-8838 1035 0
-8838 927 0
-1035 -927 8838 0
-8839 1067 0
-8839 929 0
-1067 -929 8839 0
-8840 1099 0
-8840 931 0
-1099 -931 8840 0
-8841 1131 0
-8841 933 0
-1131 -933 8841 0
-8842 1163 0
-8842 935 0
-1163 -935 8842 0
-8843 1195 0
-8843 937 0
-1195 -937 8843 0
-8844 1259 0
-8844 941 0
-1259 -941 8844 0
-8845 1291 0
-8845 943 0
-1291 -943 8845 0
-1451 -8832 0
-1451 -8833 0
-1451 -8834 0
-1451 -8835 0
-1451 -8836 0
-1451 -8837 0
-1451 -8838 0
-1451 -8839 0
-1451 -8840 0
-1451 -8841 0
-1451 -8842 0
-1451 -8843 0
-1451 -8844 0
-1451 -8845 0
-939 1451 8832 8833 8834 8835 8836 8837 8838 8839 8840 8841 8842 8843 8844 8845 0
-1483 971 0
-8846 808 0
-8846 945 0
-808 -945 8846 0
-8847 843 0
-8847 947 0
-843 -947 8847 0
-8848 875 0
-8848 949 0
-875 -949 8848 0
-8849 907 0
-8849 951 0
-907 -951 8849 0
-8850 939 0
-8850 953 0
-939 -953 8850 0
-8851 1003 0
-8851 957 0
-1003 -957 8851 0
-8852 1035 0
-8852 959 0
-1035 -959 8852 0
-8853 1067 0
-8853 961 0
-1067 -961 8853 0
-8854 1099 0
-8854 963 0
-1099 -963 8854 0
-8855 1131 0
-8855 965 0
-1131 -965 8855 0
-8856 1163 0
-8856 967 0
-1163 -967 8856 0
-8857 1195 0
-8857 969 0
-1195 -969 8857 0
-8858 1259 0
-8858 973 0
-1259 -973 8858 0
-8859 1291 0
-8859 975 0
-1291 -975 8859 0
-1483 -8846 0
-1483 -8847 0
-1483 -8848 0
-1483 -8849 0
-1483 -8850 0
-1483 -8851 0
-1483 -8852 0
-1483 -8853 0
-1483 -8854 0
-1483 -8855 0
-1483 -8856 0
-1483 -8857 0
-1483 -8858 0
-1483 -8859 0
-971 1483 8846 8847 8848 8849 8850 8851 8852 8853 8854 8855 8856 8857 8858 8859 0
-1515 1003 0
-8860 808 0
-8860 977 0
-808 -977 8860 0
-8861 843 0
-8861 979 0
-843 -979 8861 0
-8862 875 0
-8862 981 0
-875 -981 8862 0
-8863 907 0
-8863 983 0
-907 -983 8863 0
-8864 939 0
-8864 985 0
-939 -985 8864 0
-8865 971 0
-8865 987 0
-971 -987 8865 0
-8866 1035 0
-8866 991 0
-1035 -991 8866 0
-8867 1067 0
-8867 993 0
-1067 -993 8867 0
-8868 1099 0
-8868 995 0
-1099 -995 8868 0
-8869 1131 0
-8869 997 0
-1131 -997 8869 0
-8870 1163 0
-8870 999 0
-1163 -999 8870 0
-8871 1195 0
-8871 1001 0
-1195 -1001 8871 0
-8872 1259 0
-8872 1005 0
-1259 -1005 8872 0
-8873 1291 0
-8873 1007 0
-1291 -1007 8873 0
-1515 -8860 0
-1515 -8861 0
-1515 -8862 0
-1515 -8863 0
-1515 -8864 0
-1515 -8865 0
-1515 -8866 0
-1515 -8867 0
-1515 -8868 0
-1515 -8869 0
-1515 -8870 0
-1515 -8871 0
-1515 -8872 0
-1515 -8873 0
-1003 1515 8860 8861 8862 8863 8864 8865 8866 8867 8868 8869 8870 8871 8872 8873 0
-1547 1035 0
-8874 808 0
-8874 1009 0
-808 -1009 8874 0
-8875 843 0
-8875 1011 0
-843 -1011 8875 0
-8876 875 0
-8876 1013 0
-875 -1013 8876 0
-8877 907 0
-8877 1015 0
-907 -1015 8877 0
-8878 939 0
-8878 1017 0
-939 -1017 8878 0
-8879 971 0
-8879 1019 0
-971 -1019 8879 0
-8880 1003 0
-8880 1021 0
-1003 -1021 8880 0
-8881 1067 0
-8881 1025 0
-1067 -1025 8881 0
-8882 1099 0
-8882 1027 0
-1099 -1027 8882 0
-8883 1131 0
-8883 1029 0
-1131 -1029 8883 0
-8884 1163 0
-8884 1031 0
-1163 -1031 8884 0
-8885 1195 0
-8885 1033 0
-1195 -1033 8885 0
-8886 1259 0
-8886 1037 0
-1259 -1037 8886 0
-8887 1291 0
-8887 1039 0
-1291 -1039 8887 0
-1547 -8874 0
-1547 -8875 0
-1547 -8876 0
-1547 -8877 0
-1547 -8878 0
-1547 -8879 0
-1547 -8880 0
-1547 -8881 0
-1547 -8882 0
-1547 -8883 0
-1547 -8884 0
-1547 -8885 0
-1547 -8886 0
-1547 -8887 0
-1035 1547 8874 8875 8876 8877 8878 8879 8880 8881 8882 8883 8884 8885 8886 8887 0
-1579 1067 0
-8888 808 0
-8888 1041 0
-808 -1041 8888 0
-8889 843 0
-8889 1043 0
-843 -1043 8889 0
-8890 875 0
-8890 1045 0
-875 -1045 8890 0
-8891 907 0
-8891 1047 0
-907 -1047 8891 0
-8892 939 0
-8892 1049 0
-939 -1049 8892 0
-8893 971 0
-8893 1051 0
-971 -1051 8893 0
-8894 1003 0
-8894 1053 0
-1003 -1053 8894 0
-8895 1035 0
-8895 1055 0
-1035 -1055 8895 0
-8896 1099 0
-8896 1059 0
-1099 -1059 8896 0
-8897 1131 0
-8897 1061 0
-1131 -1061 8897 0
-8898 1163 0
-8898 1063 0
-1163 -1063 8898 0
-8899 1195 0
-8899 1065 0
-1195 -1065 8899 0
-8900 1259 0
-8900 1069 0
-1259 -1069 8900 0
-8901 1291 0
-8901 1071 0
-1291 -1071 8901 0
-1579 -8888 0
-1579 -8889 0
-1579 -8890 0
-1579 -8891 0
-1579 -8892 0
-1579 -8893 0
-1579 -8894 0
-1579 -8895 0
-1579 -8896 0
-1579 -8897 0
-1579 -8898 0
-1579 -8899 0
-1579 -8900 0
-1579 -8901 0
-1067 1579 8888 8889 8890 8891 8892 8893 8894 8895 8896 8897 8898 8899 8900 8901 0
-1611 1099 0
-8902 808 0
-8902 1073 0
-808 -1073 8902 0
-8903 843 0
-8903 1075 0
-843 -1075 8903 0
-8904 875 0
-8904 1077 0
-875 -1077 8904 0
-8905 907 0
-8905 1079 0
-907 -1079 8905 0
-8906 939 0
-8906 1081 0
-939 -1081 8906 0
-8907 971 0
-8907 1083 0
-971 -1083 8907 0
-8908 1003 0
-8908 1085 0
-1003 -1085 8908 0
-8909 1035 0
-8909 1087 0
-1035 -1087 8909 0
-8910 1067 0
-8910 1089 0
-1067 -1089 8910 0
-8911 1131 0
-8911 1093 0
-1131 -1093 8911 0
-8912 1163 0
-8912 1095 0
-1163 -1095 8912 0
-8913 1195 0
-8913 1097 0
-1195 -1097 8913 0
-8914 1259 0
-8914 1101 0
-1259 -1101 8914 0
-8915 1291 0
-8915 1103 0
-1291 -1103 8915 0
-1611 -8902 0
-1611 -8903 0
-1611 -8904 0
-1611 -8905 0
-1611 -8906 0
-1611 -8907 0
-1611 -8908 0
-1611 -8909 0
-1611 -8910 0
-1611 -8911 0
-1611 -8912 0
-1611 -8913 0
-1611 -8914 0
-1611 -8915 0
-1099 1611 8902 8903 8904 8905 8906 8907 8908 8909 8910 8911 8912 8913 8914 8915 0
-1643 1131 0
-8916 808 0
-8916 1105 0
-808 -1105 8916 0
-8917 843 0
-8917 1107 0
-843 -1107 8917 0
-8918 875 0
-8918 1109 0
-875 -1109 8918 0
-8919 907 0
-8919 1111 0
-907 -1111 8919 0
-8920 939 0
-8920 1113 0
-939 -1113 8920 0
-8921 971 0
-8921 1115 0
-971 -1115 8921 0
-8922 1003 0
-8922 1117 0
-1003 -1117 8922 0
-8923 1035 0
-8923 1119 0
-1035 -1119 8923 0
-8924 1067 0
-8924 1121 0
-1067 -1121 8924 0
-8925 1099 0
-8925 1123 0
-1099 -1123 8925 0
-8926 1163 0
-8926 1127 0
-1163 -1127 8926 0
-8927 1195 0
-8927 1129 0
-1195 -1129 8927 0
-8928 1259 0
-8928 1133 0
-1259 -1133 8928 0
-8929 1291 0
-8929 1135 0
-1291 -1135 8929 0
-1643 -8916 0
-1643 -8917 0
-1643 -8918 0
-1643 -8919 0
-1643 -8920 0
-1643 -8921 0
-1643 -8922 0
-1643 -8923 0
-1643 -8924 0
-1643 -8925 0
-1643 -8926 0
-1643 -8927 0
-1643 -8928 0
-1643 -8929 0
-1131 1643 8916 8917 8918 8919 8920 8921 8922 8923 8924 8925 8926 8927 8928 8929 0
-1675 1163 0
-8930 808 0
-8930 1137 0
-808 -1137 8930 0
-8931 843 0
-8931 1139 0
-843 -1139 8931 0
-8932 875 0
-8932 1141 0
-875 -1141 8932 0
-8933 907 0
-8933 1143 0
-907 -1143 8933 0
-8934 939 0
-8934 1145 0
-939 -1145 8934 0
-8935 971 0
-8935 1147 0
-971 -1147 8935 0
-8936 1003 0
-8936 1149 0
-1003 -1149 8936 0
-8937 1035 0
-8937 1151 0
-1035 -1151 8937 0
-8938 1067 0
-8938 1153 0
-1067 -1153 8938 0
-8939 1099 0
-8939 1155 0
-1099 -1155 8939 0
-8940 1131 0
-8940 1157 0
-1131 -1157 8940 0
-8941 1195 0
-8941 1161 0
-1195 -1161 8941 0
-8942 1259 0
-8942 1165 0
-1259 -1165 8942 0
-8943 1291 0
-8943 1167 0
-1291 -1167 8943 0
-1675 -8930 0
-1675 -8931 0
-1675 -8932 0
-1675 -8933 0
-1675 -8934 0
-1675 -8935 0
-1675 -8936 0
-1675 -8937 0
-1675 -8938 0
-1675 -8939 0
-1675 -8940 0
-1675 -8941 0
-1675 -8942 0
-1675 -8943 0
-1163 1675 8930 8931 8932 8933 8934 8935 8936 8937 8938 8939 8940 8941 8942 8943 0
-1707 1195 0
-8944 808 0
-8944 1169 0
-808 -1169 8944 0
-8945 843 0
-8945 1171 0
-843 -1171 8945 0
-8946 875 0
-8946 1173 0
-875 -1173 8946 0
-8947 907 0
-8947 1175 0
-907 -1175 8947 0
-8948 939 0
-8948 1177 0
-939 -1177 8948 0
-8949 971 0
-8949 1179 0
-971 -1179 8949 0
-8950 1003 0
-8950 1181 0
-1003 -1181 8950 0
-8951 1035 0
-8951 1183 0
-1035 -1183 8951 0
-8952 1067 0
-8952 1185 0
-1067 -1185 8952 0
-8953 1099 0
-8953 1187 0
-1099 -1187 8953 0
-8954 1131 0
-8954 1189 0
-1131 -1189 8954 0
-8955 1163 0
-8955 1191 0
-1163 -1191 8955 0
-8956 1259 0
-8956 1197 0
-1259 -1197 8956 0
-8957 1291 0
-8957 1199 0
-1291 -1199 8957 0
-1707 -8944 0
-1707 -8945 0
-1707 -8946 0
-1707 -8947 0
-1707 -8948 0
-1707 -8949 0
-1707 -8950 0
-1707 -8951 0
-1707 -8952 0
-1707 -8953 0
-1707 -8954 0
-1707 -8955 0
-1707 -8956 0
-1707 -8957 0
-1195 1707 8944 8945 8946 8947 8948 8949 8950 8951 8952 8953 8954 8955 8956 8957 0
-1739 0
-1771 1259 0
-8958 808 0
-8958 1233 0
-808 -1233 8958 0
-8959 843 0
-8959 1235 0
-843 -1235 8959 0
-8960 875 0
-8960 1237 0
-875 -1237 8960 0
-8961 907 0
-8961 1239 0
-907 -1239 8961 0
-8962 939 0
-8962 1241 0
-939 -1241 8962 0
-8963 971 0
-8963 1243 0
-971 -1243 8963 0
-8964 1003 0
-8964 1245 0
-1003 -1245 8964 0
-8965 1035 0
-8965 1247 0
-1035 -1247 8965 0
-8966 1067 0
-8966 1249 0
-1067 -1249 8966 0
-8967 1099 0
-8967 1251 0
-1099 -1251 8967 0
-8968 1131 0
-8968 1253 0
-1131 -1253 8968 0
-8969 1163 0
-8969 1255 0
-1163 -1255 8969 0
-8970 1195 0
-8970 1257 0
-1195 -1257 8970 0
-8971 1291 0
-8971 1263 0
-1291 -1263 8971 0
-1771 -8958 0
-1771 -8959 0
-1771 -8960 0
-1771 -8961 0
-1771 -8962 0
-1771 -8963 0
-1771 -8964 0
-1771 -8965 0
-1771 -8966 0
-1771 -8967 0
-1771 -8968 0
-1771 -8969 0
-1771 -8970 0
-1771 -8971 0
-1259 1771 8958 8959 8960 8961 8962 8963 8964 8965 8966 8967 8968 8969 8970 8971 0
-1803 1291 0
-8972 808 0
-8972 1265 0
-808 -1265 8972 0
-8973 843 0
-8973 1267 0
-843 -1267 8973 0
-8974 875 0
-8974 1269 0
-875 -1269 8974 0
-8975 907 0
-8975 1271 0
-907 -1271 8975 0
-8976 939 0
-8976 1273 0
-939 -1273 8976 0
-8977 971 0
-8977 1275 0
-971 -1275 8977 0
-8978 1003 0
-8978 1277 0
-1003 -1277 8978 0
-8979 1035 0
-8979 1279 0
-1035 -1279 8979 0
-8980 1067 0
-8980 1281 0
-1067 -1281 8980 0
-8981 1099 0
-8981 1283 0
-1099 -1283 8981 0
-8982 1131 0
-8982 1285 0
-1131 -1285 8982 0
-8983 1163 0
-8983 1287 0
-1163 -1287 8983 0
-8984 1195 0
-8984 1289 0
-1195 -1289 8984 0
-8985 1259 0
-8985 1293 0
-1259 -1293 8985 0
-1803 -8972 0
-1803 -8973 0
-1803 -8974 0
-1803 -8975 0
-1803 -8976 0
-1803 -8977 0
-1803 -8978 0
-1803 -8979 0
-1803 -8980 0
-1803 -8981 0
-1803 -8982 0
-1803 -8983 0
-1803 -8984 0
-1803 -8985 0
-1291 1803 8972 8973 8974 8975 8976 8977 8978 8979 8980 8981 8982 8983 8984 8985 0
-1325 811 0
-8986 845 0
-8986 772 0
-845 -772 8986 0
-8987 877 0
-8987 775 0
-877 -775 8987 0
-8988 909 0
-8988 778 0
-909 -778 8988 0
-8989 941 0
-8989 781 0
-941 -781 8989 0
-8990 973 0
-8990 784 0
-973 -784 8990 0
-8991 1005 0
-8991 787 0
-1005 -787 8991 0
-8992 1037 0
-8992 790 0
-1037 -790 8992 0
-8993 1069 0
-8993 793 0
-1069 -793 8993 0
-8994 1101 0
-8994 796 0
-1101 -796 8994 0
-8995 1133 0
-8995 799 0
-1133 -799 8995 0
-8996 1165 0
-8996 802 0
-1165 -802 8996 0
-8997 1197 0
-8997 805 0
-1197 -805 8997 0
-8998 1229 0
-8998 808 0
-1229 -808 8998 0
-8999 1293 0
-8999 814 0
-1293 -814 8999 0
-1325 -8986 0
-1325 -8987 0
-1325 -8988 0
-1325 -8989 0
-1325 -8990 0
-1325 -8991 0
-1325 -8992 0
-1325 -8993 0
-1325 -8994 0
-1325 -8995 0
-1325 -8996 0
-1325 -8997 0
-1325 -8998 0
-1325 -8999 0
-811 1325 8986 8987 8988 8989 8990 8991 8992 8993 8994 8995 8996 8997 8998 8999 0
-1357 845 0
-9000 811 0
-9000 817 0
-811 -817 9000 0
-9001 877 0
-9001 821 0
-877 -821 9001 0
-9002 909 0
-9002 823 0
-909 -823 9002 0
-9003 941 0
-9003 825 0
-941 -825 9003 0
-9004 973 0
-9004 827 0
-973 -827 9004 0
-9005 1005 0
-9005 829 0
-1005 -829 9005 0
-9006 1037 0
-9006 831 0
-1037 -831 9006 0
-9007 1069 0
-9007 833 0
-1069 -833 9007 0
-9008 1101 0
-9008 835 0
-1101 -835 9008 0
-9009 1133 0
-9009 837 0
-1133 -837 9009 0
-9010 1165 0
-9010 839 0
-1165 -839 9010 0
-9011 1197 0
-9011 841 0
-1197 -841 9011 0
-9012 1229 0
-9012 843 0
-1229 -843 9012 0
-9013 1293 0
-9013 847 0
-1293 -847 9013 0
-1357 -9000 0
-1357 -9001 0
-1357 -9002 0
-1357 -9003 0
-1357 -9004 0
-1357 -9005 0
-1357 -9006 0
-1357 -9007 0
-1357 -9008 0
-1357 -9009 0
-1357 -9010 0
-1357 -9011 0
-1357 -9012 0
-1357 -9013 0
-845 1357 9000 9001 9002 9003 9004 9005 9006 9007 9008 9009 9010 9011 9012 9013 0
-1389 877 0
-9014 811 0
-9014 849 0
-811 -849 9014 0
-9015 845 0
-9015 851 0
-845 -851 9015 0
-9016 909 0
-9016 855 0
-909 -855 9016 0
-9017 941 0
-9017 857 0
-941 -857 9017 0
-9018 973 0
-9018 859 0
-973 -859 9018 0
-9019 1005 0
-9019 861 0
-1005 -861 9019 0
-9020 1037 0
-9020 863 0
-1037 -863 9020 0
-9021 1069 0
-9021 865 0
-1069 -865 9021 0
-9022 1101 0
-9022 867 0
-1101 -867 9022 0
-9023 1133 0
-9023 869 0
-1133 -869 9023 0
-9024 1165 0
-9024 871 0
-1165 -871 9024 0
-9025 1197 0
-9025 873 0
-1197 -873 9025 0
-9026 1229 0
-9026 875 0
-1229 -875 9026 0
-9027 1293 0
-9027 879 0
-1293 -879 9027 0
-1389 -9014 0
-1389 -9015 0
-1389 -9016 0
-1389 -9017 0
-1389 -9018 0
-1389 -9019 0
-1389 -9020 0
-1389 -9021 0
-1389 -9022 0
-1389 -9023 0
-1389 -9024 0
-1389 -9025 0
-1389 -9026 0
-1389 -9027 0
-877 1389 9014 9015 9016 9017 9018 9019 9020 9021 9022 9023 9024 9025 9026 9027 0
-1421 909 0
-9028 811 0
-9028 881 0
-811 -881 9028 0
-9029 845 0
-9029 883 0
-845 -883 9029 0
-9030 877 0
-9030 885 0
-877 -885 9030 0
-9031 941 0
-9031 889 0
-941 -889 9031 0
-9032 973 0
-9032 891 0
-973 -891 9032 0
-9033 1005 0
-9033 893 0
-1005 -893 9033 0
-9034 1037 0
-9034 895 0
-1037 -895 9034 0
-9035 1069 0
-9035 897 0
-1069 -897 9035 0
-9036 1101 0
-9036 899 0
-1101 -899 9036 0
-9037 1133 0
-9037 901 0
-1133 -901 9037 0
-9038 1165 0
-9038 903 0
-1165 -903 9038 0
-9039 1197 0
-9039 905 0
-1197 -905 9039 0
-9040 1229 0
-9040 907 0
-1229 -907 9040 0
-9041 1293 0
-9041 911 0
-1293 -911 9041 0
-1421 -9028 0
-1421 -9029 0
-1421 -9030 0
-1421 -9031 0
-1421 -9032 0
-1421 -9033 0
-1421 -9034 0
-1421 -9035 0
-1421 -9036 0
-1421 -9037 0
-1421 -9038 0
-1421 -9039 0
-1421 -9040 0
-1421 -9041 0
-909 1421 9028 9029 9030 9031 9032 9033 9034 9035 9036 9037 9038 9039 9040 9041 0
-1453 941 0
-9042 811 0
-9042 913 0
-811 -913 9042 0
-9043 845 0
-9043 915 0
-845 -915 9043 0
-9044 877 0
-9044 917 0
-877 -917 9044 0
-9045 909 0
-9045 919 0
-909 -919 9045 0
-9046 973 0
-9046 923 0
-973 -923 9046 0
-9047 1005 0
-9047 925 0
-1005 -925 9047 0
-9048 1037 0
-9048 927 0
-1037 -927 9048 0
-9049 1069 0
-9049 929 0
-1069 -929 9049 0
-9050 1101 0
-9050 931 0
-1101 -931 9050 0
-9051 1133 0
-9051 933 0
-1133 -933 9051 0
-9052 1165 0
-9052 935 0
-1165 -935 9052 0
-9053 1197 0
-9053 937 0
-1197 -937 9053 0
-9054 1229 0
-9054 939 0
-1229 -939 9054 0
-9055 1293 0
-9055 943 0
-1293 -943 9055 0
-1453 -9042 0
-1453 -9043 0
-1453 -9044 0
-1453 -9045 0
-1453 -9046 0
-1453 -9047 0
-1453 -9048 0
-1453 -9049 0
-1453 -9050 0
-1453 -9051 0
-1453 -9052 0
-1453 -9053 0
-1453 -9054 0
-1453 -9055 0
-941 1453 9042 9043 9044 9045 9046 9047 9048 9049 9050 9051 9052 9053 9054 9055 0
-1485 973 0
-9056 811 0
-9056 945 0
-811 -945 9056 0
-9057 845 0
-9057 947 0
-845 -947 9057 0
-9058 877 0
-9058 949 0
-877 -949 9058 0
-9059 909 0
-9059 951 0
-909 -951 9059 0
-9060 941 0
-9060 953 0
-941 -953 9060 0
-9061 1005 0
-9061 957 0
-1005 -957 9061 0
-9062 1037 0
-9062 959 0
-1037 -959 9062 0
-9063 1069 0
-9063 961 0
-1069 -961 9063 0
-9064 1101 0
-9064 963 0
-1101 -963 9064 0
-9065 1133 0
-9065 965 0
-1133 -965 9065 0
-9066 1165 0
-9066 967 0
-1165 -967 9066 0
-9067 1197 0
-9067 969 0
-1197 -969 9067 0
-9068 1229 0
-9068 971 0
-1229 -971 9068 0
-9069 1293 0
-9069 975 0
-1293 -975 9069 0
-1485 -9056 0
-1485 -9057 0
-1485 -9058 0
-1485 -9059 0
-1485 -9060 0
-1485 -9061 0
-1485 -9062 0
-1485 -9063 0
-1485 -9064 0
-1485 -9065 0
-1485 -9066 0
-1485 -9067 0
-1485 -9068 0
-1485 -9069 0
-973 1485 9056 9057 9058 9059 9060 9061 9062 9063 9064 9065 9066 9067 9068 9069 0
-1517 1005 0
-9070 811 0
-9070 977 0
-811 -977 9070 0
-9071 845 0
-9071 979 0
-845 -979 9071 0
-9072 877 0
-9072 981 0
-877 -981 9072 0
-9073 909 0
-9073 983 0
-909 -983 9073 0
-9074 941 0
-9074 985 0
-941 -985 9074 0
-9075 973 0
-9075 987 0
-973 -987 9075 0
-9076 1037 0
-9076 991 0
-1037 -991 9076 0
-9077 1069 0
-9077 993 0
-1069 -993 9077 0
-9078 1101 0
-9078 995 0
-1101 -995 9078 0
-9079 1133 0
-9079 997 0
-1133 -997 9079 0
-9080 1165 0
-9080 999 0
-1165 -999 9080 0
-9081 1197 0
-9081 1001 0
-1197 -1001 9081 0
-9082 1229 0
-9082 1003 0
-1229 -1003 9082 0
-9083 1293 0
-9083 1007 0
-1293 -1007 9083 0
-1517 -9070 0
-1517 -9071 0
-1517 -9072 0
-1517 -9073 0
-1517 -9074 0
-1517 -9075 0
-1517 -9076 0
-1517 -9077 0
-1517 -9078 0
-1517 -9079 0
-1517 -9080 0
-1517 -9081 0
-1517 -9082 0
-1517 -9083 0
-1005 1517 9070 9071 9072 9073 9074 9075 9076 9077 9078 9079 9080 9081 9082 9083 0
-1549 1037 0
-9084 811 0
-9084 1009 0
-811 -1009 9084 0
-9085 845 0
-9085 1011 0
-845 -1011 9085 0
-9086 877 0
-9086 1013 0
-877 -1013 9086 0
-9087 909 0
-9087 1015 0
-909 -1015 9087 0
-9088 941 0
-9088 1017 0
-941 -1017 9088 0
-9089 973 0
-9089 1019 0
-973 -1019 9089 0
-9090 1005 0
-9090 1021 0
-1005 -1021 9090 0
-9091 1069 0
-9091 1025 0
-1069 -1025 9091 0
-9092 1101 0
-9092 1027 0
-1101 -1027 9092 0
-9093 1133 0
-9093 1029 0
-1133 -1029 9093 0
-9094 1165 0
-9094 1031 0
-1165 -1031 9094 0
-9095 1197 0
-9095 1033 0
-1197 -1033 9095 0
-9096 1229 0
-9096 1035 0
-1229 -1035 9096 0
-9097 1293 0
-9097 1039 0
-1293 -1039 9097 0
-1549 -9084 0
-1549 -9085 0
-1549 -9086 0
-1549 -9087 0
-1549 -9088 0
-1549 -9089 0
-1549 -9090 0
-1549 -9091 0
-1549 -9092 0
-1549 -9093 0
-1549 -9094 0
-1549 -9095 0
-1549 -9096 0
-1549 -9097 0
-1037 1549 9084 9085 9086 9087 9088 9089 9090 9091 9092 9093 9094 9095 9096 9097 0
-1581 1069 0
-9098 811 0
-9098 1041 0
-811 -1041 9098 0
-9099 845 0
-9099 1043 0
-845 -1043 9099 0
-9100 877 0
-9100 1045 0
-877 -1045 9100 0
-9101 909 0
-9101 1047 0
-909 -1047 9101 0
-9102 941 0
-9102 1049 0
-941 -1049 9102 0
-9103 973 0
-9103 1051 0
-973 -1051 9103 0
-9104 1005 0
-9104 1053 0
-1005 -1053 9104 0
-9105 1037 0
-9105 1055 0
-1037 -1055 9105 0
-9106 1101 0
-9106 1059 0
-1101 -1059 9106 0
-9107 1133 0
-9107 1061 0
-1133 -1061 9107 0
-9108 1165 0
-9108 1063 0
-1165 -1063 9108 0
-9109 1197 0
-9109 1065 0
-1197 -1065 9109 0
-9110 1229 0
-9110 1067 0
-1229 -1067 9110 0
-9111 1293 0
-9111 1071 0
-1293 -1071 9111 0
-1581 -9098 0
-1581 -9099 0
-1581 -9100 0
-1581 -9101 0
-1581 -9102 0
-1581 -9103 0
-1581 -9104 0
-1581 -9105 0
-1581 -9106 0
-1581 -9107 0
-1581 -9108 0
-1581 -9109 0
-1581 -9110 0
-1581 -9111 0
-1069 1581 9098 9099 9100 9101 9102 9103 9104 9105 9106 9107 9108 9109 9110 9111 0
-1613 1101 0
-9112 811 0
-9112 1073 0
-811 -1073 9112 0
-9113 845 0
-9113 1075 0
-845 -1075 9113 0
-9114 877 0
-9114 1077 0
-877 -1077 9114 0
-9115 909 0
-9115 1079 0
-909 -1079 9115 0
-9116 941 0
-9116 1081 0
-941 -1081 9116 0
-9117 973 0
-9117 1083 0
-973 -1083 9117 0
-9118 1005 0
-9118 1085 0
-1005 -1085 9118 0
-9119 1037 0
-9119 1087 0
-1037 -1087 9119 0
-9120 1069 0
-9120 1089 0
-1069 -1089 9120 0
-9121 1133 0
-9121 1093 0
-1133 -1093 9121 0
-9122 1165 0
-9122 1095 0
-1165 -1095 9122 0
-9123 1197 0
-9123 1097 0
-1197 -1097 9123 0
-9124 1229 0
-9124 1099 0
-1229 -1099 9124 0
-9125 1293 0
-9125 1103 0
-1293 -1103 9125 0
-1613 -9112 0
-1613 -9113 0
-1613 -9114 0
-1613 -9115 0
-1613 -9116 0
-1613 -9117 0
-1613 -9118 0
-1613 -9119 0
-1613 -9120 0
-1613 -9121 0
-1613 -9122 0
-1613 -9123 0
-1613 -9124 0
-1613 -9125 0
-1101 1613 9112 9113 9114 9115 9116 9117 9118 9119 9120 9121 9122 9123 9124 9125 0
-1645 1133 0
-9126 811 0
-9126 1105 0
-811 -1105 9126 0
-9127 845 0
-9127 1107 0
-845 -1107 9127 0
-9128 877 0
-9128 1109 0
-877 -1109 9128 0
-9129 909 0
-9129 1111 0
-909 -1111 9129 0
-9130 941 0
-9130 1113 0
-941 -1113 9130 0
-9131 973 0
-9131 1115 0
-973 -1115 9131 0
-9132 1005 0
-9132 1117 0
-1005 -1117 9132 0
-9133 1037 0
-9133 1119 0
-1037 -1119 9133 0
-9134 1069 0
-9134 1121 0
-1069 -1121 9134 0
-9135 1101 0
-9135 1123 0
-1101 -1123 9135 0
-9136 1165 0
-9136 1127 0
-1165 -1127 9136 0
-9137 1197 0
-9137 1129 0
-1197 -1129 9137 0
-9138 1229 0
-9138 1131 0
-1229 -1131 9138 0
-9139 1293 0
-9139 1135 0
-1293 -1135 9139 0
-1645 -9126 0
-1645 -9127 0
-1645 -9128 0
-1645 -9129 0
-1645 -9130 0
-1645 -9131 0
-1645 -9132 0
-1645 -9133 0
-1645 -9134 0
-1645 -9135 0
-1645 -9136 0
-1645 -9137 0
-1645 -9138 0
-1645 -9139 0
-1133 1645 9126 9127 9128 9129 9130 9131 9132 9133 9134 9135 9136 9137 9138 9139 0
-1677 1165 0
-9140 811 0
-9140 1137 0
-811 -1137 9140 0
-9141 845 0
-9141 1139 0
-845 -1139 9141 0
-9142 877 0
-9142 1141 0
-877 -1141 9142 0
-9143 909 0
-9143 1143 0
-909 -1143 9143 0
-9144 941 0
-9144 1145 0
-941 -1145 9144 0
-9145 973 0
-9145 1147 0
-973 -1147 9145 0
-9146 1005 0
-9146 1149 0
-1005 -1149 9146 0
-9147 1037 0
-9147 1151 0
-1037 -1151 9147 0
-9148 1069 0
-9148 1153 0
-1069 -1153 9148 0
-9149 1101 0
-9149 1155 0
-1101 -1155 9149 0
-9150 1133 0
-9150 1157 0
-1133 -1157 9150 0
-9151 1197 0
-9151 1161 0
-1197 -1161 9151 0
-9152 1229 0
-9152 1163 0
-1229 -1163 9152 0
-9153 1293 0
-9153 1167 0
-1293 -1167 9153 0
-1677 -9140 0
-1677 -9141 0
-1677 -9142 0
-1677 -9143 0
-1677 -9144 0
-1677 -9145 0
-1677 -9146 0
-1677 -9147 0
-1677 -9148 0
-1677 -9149 0
-1677 -9150 0
-1677 -9151 0
-1677 -9152 0
-1677 -9153 0
-1165 1677 9140 9141 9142 9143 9144 9145 9146 9147 9148 9149 9150 9151 9152 9153 0
-1709 1197 0
-9154 811 0
-9154 1169 0
-811 -1169 9154 0
-9155 845 0
-9155 1171 0
-845 -1171 9155 0
-9156 877 0
-9156 1173 0
-877 -1173 9156 0
-9157 909 0
-9157 1175 0
-909 -1175 9157 0
-9158 941 0
-9158 1177 0
-941 -1177 9158 0
-9159 973 0
-9159 1179 0
-973 -1179 9159 0
-9160 1005 0
-9160 1181 0
-1005 -1181 9160 0
-9161 1037 0
-9161 1183 0
-1037 -1183 9161 0
-9162 1069 0
-9162 1185 0
-1069 -1185 9162 0
-9163 1101 0
-9163 1187 0
-1101 -1187 9163 0
-9164 1133 0
-9164 1189 0
-1133 -1189 9164 0
-9165 1165 0
-9165 1191 0
-1165 -1191 9165 0
-9166 1229 0
-9166 1195 0
-1229 -1195 9166 0
-9167 1293 0
-9167 1199 0
-1293 -1199 9167 0
-1709 -9154 0
-1709 -9155 0
-1709 -9156 0
-1709 -9157 0
-1709 -9158 0
-1709 -9159 0
-1709 -9160 0
-1709 -9161 0
-1709 -9162 0
-1709 -9163 0
-1709 -9164 0
-1709 -9165 0
-1709 -9166 0
-1709 -9167 0
-1197 1709 9154 9155 9156 9157 9158 9159 9160 9161 9162 9163 9164 9165 9166 9167 0
-1741 1229 0
-9168 811 0
-9168 1201 0
-811 -1201 9168 0
-9169 845 0
-9169 1203 0
-845 -1203 9169 0
-9170 877 0
-9170 1205 0
-877 -1205 9170 0
-9171 909 0
-9171 1207 0
-909 -1207 9171 0
-9172 941 0
-9172 1209 0
-941 -1209 9172 0
-9173 973 0
-9173 1211 0
-973 -1211 9173 0
-9174 1005 0
-9174 1213 0
-1005 -1213 9174 0
-9175 1037 0
-9175 1215 0
-1037 -1215 9175 0
-9176 1069 0
-9176 1217 0
-1069 -1217 9176 0
-9177 1101 0
-9177 1219 0
-1101 -1219 9177 0
-9178 1133 0
-9178 1221 0
-1133 -1221 9178 0
-9179 1165 0
-9179 1223 0
-1165 -1223 9179 0
-9180 1197 0
-9180 1225 0
-1197 -1225 9180 0
-9181 1293 0
-9181 1231 0
-1293 -1231 9181 0
-1741 -9168 0
-1741 -9169 0
-1741 -9170 0
-1741 -9171 0
-1741 -9172 0
-1741 -9173 0
-1741 -9174 0
-1741 -9175 0
-1741 -9176 0
-1741 -9177 0
-1741 -9178 0
-1741 -9179 0
-1741 -9180 0
-1741 -9181 0
-1229 1741 9168 9169 9170 9171 9172 9173 9174 9175 9176 9177 9178 9179 9180 9181 0
-1773 0
-1805 1293 0
-9182 811 0
-9182 1265 0
-811 -1265 9182 0
-9183 845 0
-9183 1267 0
-845 -1267 9183 0
-9184 877 0
-9184 1269 0
-877 -1269 9184 0
-9185 909 0
-9185 1271 0
-909 -1271 9185 0
-9186 941 0
-9186 1273 0
-941 -1273 9186 0
-9187 973 0
-9187 1275 0
-973 -1275 9187 0
-9188 1005 0
-9188 1277 0
-1005 -1277 9188 0
-9189 1037 0
-9189 1279 0
-1037 -1279 9189 0
-9190 1069 0
-9190 1281 0
-1069 -1281 9190 0
-9191 1101 0
-9191 1283 0
-1101 -1283 9191 0
-9192 1133 0
-9192 1285 0
-1133 -1285 9192 0
-9193 1165 0
-9193 1287 0
-1165 -1287 9193 0
-9194 1197 0
-9194 1289 0
-1197 -1289 9194 0
-9195 1229 0
-9195 1291 0
-1229 -1291 9195 0
-1805 -9182 0
-1805 -9183 0
-1805 -9184 0
-1805 -9185 0
-1805 -9186 0
-1805 -9187 0
-1805 -9188 0
-1805 -9189 0
-1805 -9190 0
-1805 -9191 0
-1805 -9192 0
-1805 -9193 0
-1805 -9194 0
-1805 -9195 0
-1293 1805 9182 9183 9184 9185 9186 9187 9188 9189 9190 9191 9192 9193 9194 9195 0
-1327 814 0
-9196 847 0
-9196 772 0
-847 -772 9196 0
-9197 879 0
-9197 775 0
-879 -775 9197 0
-9198 911 0
-9198 778 0
-911 -778 9198 0
-9199 943 0
-9199 781 0
-943 -781 9199 0
-9200 975 0
-9200 784 0
-975 -784 9200 0
-9201 1007 0
-9201 787 0
-1007 -787 9201 0
-9202 1039 0
-9202 790 0
-1039 -790 9202 0
-9203 1071 0
-9203 793 0
-1071 -793 9203 0
-9204 1103 0
-9204 796 0
-1103 -796 9204 0
-9205 1135 0
-9205 799 0
-1135 -799 9205 0
-9206 1167 0
-9206 802 0
-1167 -802 9206 0
-9207 1199 0
-9207 805 0
-1199 -805 9207 0
-9208 1231 0
-9208 808 0
-1231 -808 9208 0
-9209 1263 0
-9209 811 0
-1263 -811 9209 0
-1327 -9196 0
-1327 -9197 0
-1327 -9198 0
-1327 -9199 0
-1327 -9200 0
-1327 -9201 0
-1327 -9202 0
-1327 -9203 0
-1327 -9204 0
-1327 -9205 0
-1327 -9206 0
-1327 -9207 0
-1327 -9208 0
-1327 -9209 0
-814 1327 9196 9197 9198 9199 9200 9201 9202 9203 9204 9205 9206 9207 9208 9209 0
-1359 847 0
-9210 814 0
-9210 817 0
-814 -817 9210 0
-9211 879 0
-9211 821 0
-879 -821 9211 0
-9212 911 0
-9212 823 0
-911 -823 9212 0
-9213 943 0
-9213 825 0
-943 -825 9213 0
-9214 975 0
-9214 827 0
-975 -827 9214 0
-9215 1007 0
-9215 829 0
-1007 -829 9215 0
-9216 1039 0
-9216 831 0
-1039 -831 9216 0
-9217 1071 0
-9217 833 0
-1071 -833 9217 0
-9218 1103 0
-9218 835 0
-1103 -835 9218 0
-9219 1135 0
-9219 837 0
-1135 -837 9219 0
-9220 1167 0
-9220 839 0
-1167 -839 9220 0
-9221 1199 0
-9221 841 0
-1199 -841 9221 0
-9222 1231 0
-9222 843 0
-1231 -843 9222 0
-9223 1263 0
-9223 845 0
-1263 -845 9223 0
-1359 -9210 0
-1359 -9211 0
-1359 -9212 0
-1359 -9213 0
-1359 -9214 0
-1359 -9215 0
-1359 -9216 0
-1359 -9217 0
-1359 -9218 0
-1359 -9219 0
-1359 -9220 0
-1359 -9221 0
-1359 -9222 0
-1359 -9223 0
-847 1359 9210 9211 9212 9213 9214 9215 9216 9217 9218 9219 9220 9221 9222 9223 0
-1391 879 0
-9224 814 0
-9224 849 0
-814 -849 9224 0
-9225 847 0
-9225 851 0
-847 -851 9225 0
-9226 911 0
-9226 855 0
-911 -855 9226 0
-9227 943 0
-9227 857 0
-943 -857 9227 0
-9228 975 0
-9228 859 0
-975 -859 9228 0
-9229 1007 0
-9229 861 0
-1007 -861 9229 0
-9230 1039 0
-9230 863 0
-1039 -863 9230 0
-9231 1071 0
-9231 865 0
-1071 -865 9231 0
-9232 1103 0
-9232 867 0
-1103 -867 9232 0
-9233 1135 0
-9233 869 0
-1135 -869 9233 0
-9234 1167 0
-9234 871 0
-1167 -871 9234 0
-9235 1199 0
-9235 873 0
-1199 -873 9235 0
-9236 1231 0
-9236 875 0
-1231 -875 9236 0
-9237 1263 0
-9237 877 0
-1263 -877 9237 0
-1391 -9224 0
-1391 -9225 0
-1391 -9226 0
-1391 -9227 0
-1391 -9228 0
-1391 -9229 0
-1391 -9230 0
-1391 -9231 0
-1391 -9232 0
-1391 -9233 0
-1391 -9234 0
-1391 -9235 0
-1391 -9236 0
-1391 -9237 0
-879 1391 9224 9225 9226 9227 9228 9229 9230 9231 9232 9233 9234 9235 9236 9237 0
-1423 911 0
-9238 814 0
-9238 881 0
-814 -881 9238 0
-9239 847 0
-9239 883 0
-847 -883 9239 0
-9240 879 0
-9240 885 0
-879 -885 9240 0
-9241 943 0
-9241 889 0
-943 -889 9241 0
-9242 975 0
-9242 891 0
-975 -891 9242 0
-9243 1007 0
-9243 893 0
-1007 -893 9243 0
-9244 1039 0
-9244 895 0
-1039 -895 9244 0
-9245 1071 0
-9245 897 0
-1071 -897 9245 0
-9246 1103 0
-9246 899 0
-1103 -899 9246 0
-9247 1135 0
-9247 901 0
-1135 -901 9247 0
-9248 1167 0
-9248 903 0
-1167 -903 9248 0
-9249 1199 0
-9249 905 0
-1199 -905 9249 0
-9250 1231 0
-9250 907 0
-1231 -907 9250 0
-9251 1263 0
-9251 909 0
-1263 -909 9251 0
-1423 -9238 0
-1423 -9239 0
-1423 -9240 0
-1423 -9241 0
-1423 -9242 0
-1423 -9243 0
-1423 -9244 0
-1423 -9245 0
-1423 -9246 0
-1423 -9247 0
-1423 -9248 0
-1423 -9249 0
-1423 -9250 0
-1423 -9251 0
-911 1423 9238 9239 9240 9241 9242 9243 9244 9245 9246 9247 9248 9249 9250 9251 0
-1455 943 0
-9252 814 0
-9252 913 0
-814 -913 9252 0
-9253 847 0
-9253 915 0
-847 -915 9253 0
-9254 879 0
-9254 917 0
-879 -917 9254 0
-9255 911 0
-9255 919 0
-911 -919 9255 0
-9256 975 0
-9256 923 0
-975 -923 9256 0
-9257 1007 0
-9257 925 0
-1007 -925 9257 0
-9258 1039 0
-9258 927 0
-1039 -927 9258 0
-9259 1071 0
-9259 929 0
-1071 -929 9259 0
-9260 1103 0
-9260 931 0
-1103 -931 9260 0
-9261 1135 0
-9261 933 0
-1135 -933 9261 0
-9262 1167 0
-9262 935 0
-1167 -935 9262 0
-9263 1199 0
-9263 937 0
-1199 -937 9263 0
-9264 1231 0
-9264 939 0
-1231 -939 9264 0
-9265 1263 0
-9265 941 0
-1263 -941 9265 0
-1455 -9252 0
-1455 -9253 0
-1455 -9254 0
-1455 -9255 0
-1455 -9256 0
-1455 -9257 0
-1455 -9258 0
-1455 -9259 0
-1455 -9260 0
-1455 -9261 0
-1455 -9262 0
-1455 -9263 0
-1455 -9264 0
-1455 -9265 0
-943 1455 9252 9253 9254 9255 9256 9257 9258 9259 9260 9261 9262 9263 9264 9265 0
-1487 975 0
-9266 814 0
-9266 945 0
-814 -945 9266 0
-9267 847 0
-9267 947 0
-847 -947 9267 0
-9268 879 0
-9268 949 0
-879 -949 9268 0
-9269 911 0
-9269 951 0
-911 -951 9269 0
-9270 943 0
-9270 953 0
-943 -953 9270 0
-9271 1007 0
-9271 957 0
-1007 -957 9271 0
-9272 1039 0
-9272 959 0
-1039 -959 9272 0
-9273 1071 0
-9273 961 0
-1071 -961 9273 0
-9274 1103 0
-9274 963 0
-1103 -963 9274 0
-9275 1135 0
-9275 965 0
-1135 -965 9275 0
-9276 1167 0
-9276 967 0
-1167 -967 9276 0
-9277 1199 0
-9277 969 0
-1199 -969 9277 0
-9278 1231 0
-9278 971 0
-1231 -971 9278 0
-9279 1263 0
-9279 973 0
-1263 -973 9279 0
-1487 -9266 0
-1487 -9267 0
-1487 -9268 0
-1487 -9269 0
-1487 -9270 0
-1487 -9271 0
-1487 -9272 0
-1487 -9273 0
-1487 -9274 0
-1487 -9275 0
-1487 -9276 0
-1487 -9277 0
-1487 -9278 0
-1487 -9279 0
-975 1487 9266 9267 9268 9269 9270 9271 9272 9273 9274 9275 9276 9277 9278 9279 0
-1519 1007 0
-9280 814 0
-9280 977 0
-814 -977 9280 0
-9281 847 0
-9281 979 0
-847 -979 9281 0
-9282 879 0
-9282 981 0
-879 -981 9282 0
-9283 911 0
-9283 983 0
-911 -983 9283 0
-9284 943 0
-9284 985 0
-943 -985 9284 0
-9285 975 0
-9285 987 0
-975 -987 9285 0
-9286 1039 0
-9286 991 0
-1039 -991 9286 0
-9287 1071 0
-9287 993 0
-1071 -993 9287 0
-9288 1103 0
-9288 995 0
-1103 -995 9288 0
-9289 1135 0
-9289 997 0
-1135 -997 9289 0
-9290 1167 0
-9290 999 0
-1167 -999 9290 0
-9291 1199 0
-9291 1001 0
-1199 -1001 9291 0
-9292 1231 0
-9292 1003 0
-1231 -1003 9292 0
-9293 1263 0
-9293 1005 0
-1263 -1005 9293 0
-1519 -9280 0
-1519 -9281 0
-1519 -9282 0
-1519 -9283 0
-1519 -9284 0
-1519 -9285 0
-1519 -9286 0
-1519 -9287 0
-1519 -9288 0
-1519 -9289 0
-1519 -9290 0
-1519 -9291 0
-1519 -9292 0
-1519 -9293 0
-1007 1519 9280 9281 9282 9283 9284 9285 9286 9287 9288 9289 9290 9291 9292 9293 0
-1551 1039 0
-9294 814 0
-9294 1009 0
-814 -1009 9294 0
-9295 847 0
-9295 1011 0
-847 -1011 9295 0
-9296 879 0
-9296 1013 0
-879 -1013 9296 0
-9297 911 0
-9297 1015 0
-911 -1015 9297 0
-9298 943 0
-9298 1017 0
-943 -1017 9298 0
-9299 975 0
-9299 1019 0
-975 -1019 9299 0
-9300 1007 0
-9300 1021 0
-1007 -1021 9300 0
-9301 1071 0
-9301 1025 0
-1071 -1025 9301 0
-9302 1103 0
-9302 1027 0
-1103 -1027 9302 0
-9303 1135 0
-9303 1029 0
-1135 -1029 9303 0
-9304 1167 0
-9304 1031 0
-1167 -1031 9304 0
-9305 1199 0
-9305 1033 0
-1199 -1033 9305 0
-9306 1231 0
-9306 1035 0
-1231 -1035 9306 0
-9307 1263 0
-9307 1037 0
-1263 -1037 9307 0
-1551 -9294 0
-1551 -9295 0
-1551 -9296 0
-1551 -9297 0
-1551 -9298 0
-1551 -9299 0
-1551 -9300 0
-1551 -9301 0
-1551 -9302 0
-1551 -9303 0
-1551 -9304 0
-1551 -9305 0
-1551 -9306 0
-1551 -9307 0
-1039 1551 9294 9295 9296 9297 9298 9299 9300 9301 9302 9303 9304 9305 9306 9307 0
-1583 1071 0
-9308 814 0
-9308 1041 0
-814 -1041 9308 0
-9309 847 0
-9309 1043 0
-847 -1043 9309 0
-9310 879 0
-9310 1045 0
-879 -1045 9310 0
-9311 911 0
-9311 1047 0
-911 -1047 9311 0
-9312 943 0
-9312 1049 0
-943 -1049 9312 0
-9313 975 0
-9313 1051 0
-975 -1051 9313 0
-9314 1007 0
-9314 1053 0
-1007 -1053 9314 0
-9315 1039 0
-9315 1055 0
-1039 -1055 9315 0
-9316 1103 0
-9316 1059 0
-1103 -1059 9316 0
-9317 1135 0
-9317 1061 0
-1135 -1061 9317 0
-9318 1167 0
-9318 1063 0
-1167 -1063 9318 0
-9319 1199 0
-9319 1065 0
-1199 -1065 9319 0
-9320 1231 0
-9320 1067 0
-1231 -1067 9320 0
-9321 1263 0
-9321 1069 0
-1263 -1069 9321 0
-1583 -9308 0
-1583 -9309 0
-1583 -9310 0
-1583 -9311 0
-1583 -9312 0
-1583 -9313 0
-1583 -9314 0
-1583 -9315 0
-1583 -9316 0
-1583 -9317 0
-1583 -9318 0
-1583 -9319 0
-1583 -9320 0
-1583 -9321 0
-1071 1583 9308 9309 9310 9311 9312 9313 9314 9315 9316 9317 9318 9319 9320 9321 0
-1615 1103 0
-9322 814 0
-9322 1073 0
-814 -1073 9322 0
-9323 847 0
-9323 1075 0
-847 -1075 9323 0
-9324 879 0
-9324 1077 0
-879 -1077 9324 0
-9325 911 0
-9325 1079 0
-911 -1079 9325 0
-9326 943 0
-9326 1081 0
-943 -1081 9326 0
-9327 975 0
-9327 1083 0
-975 -1083 9327 0
-9328 1007 0
-9328 1085 0
-1007 -1085 9328 0
-9329 1039 0
-9329 1087 0
-1039 -1087 9329 0
-9330 1071 0
-9330 1089 0
-1071 -1089 9330 0
-9331 1135 0
-9331 1093 0
-1135 -1093 9331 0
-9332 1167 0
-9332 1095 0
-1167 -1095 9332 0
-9333 1199 0
-9333 1097 0
-1199 -1097 9333 0
-9334 1231 0
-9334 1099 0
-1231 -1099 9334 0
-9335 1263 0
-9335 1101 0
-1263 -1101 9335 0
-1615 -9322 0
-1615 -9323 0
-1615 -9324 0
-1615 -9325 0
-1615 -9326 0
-1615 -9327 0
-1615 -9328 0
-1615 -9329 0
-1615 -9330 0
-1615 -9331 0
-1615 -9332 0
-1615 -9333 0
-1615 -9334 0
-1615 -9335 0
-1103 1615 9322 9323 9324 9325 9326 9327 9328 9329 9330 9331 9332 9333 9334 9335 0
-1647 1135 0
-9336 814 0
-9336 1105 0
-814 -1105 9336 0
-9337 847 0
-9337 1107 0
-847 -1107 9337 0
-9338 879 0
-9338 1109 0
-879 -1109 9338 0
-9339 911 0
-9339 1111 0
-911 -1111 9339 0
-9340 943 0
-9340 1113 0
-943 -1113 9340 0
-9341 975 0
-9341 1115 0
-975 -1115 9341 0
-9342 1007 0
-9342 1117 0
-1007 -1117 9342 0
-9343 1039 0
-9343 1119 0
-1039 -1119 9343 0
-9344 1071 0
-9344 1121 0
-1071 -1121 9344 0
-9345 1103 0
-9345 1123 0
-1103 -1123 9345 0
-9346 1167 0
-9346 1127 0
-1167 -1127 9346 0
-9347 1199 0
-9347 1129 0
-1199 -1129 9347 0
-9348 1231 0
-9348 1131 0
-1231 -1131 9348 0
-9349 1263 0
-9349 1133 0
-1263 -1133 9349 0
-1647 -9336 0
-1647 -9337 0
-1647 -9338 0
-1647 -9339 0
-1647 -9340 0
-1647 -9341 0
-1647 -9342 0
-1647 -9343 0
-1647 -9344 0
-1647 -9345 0
-1647 -9346 0
-1647 -9347 0
-1647 -9348 0
-1647 -9349 0
-1135 1647 9336 9337 9338 9339 9340 9341 9342 9343 9344 9345 9346 9347 9348 9349 0
-1679 1167 0
-9350 814 0
-9350 1137 0
-814 -1137 9350 0
-9351 847 0
-9351 1139 0
-847 -1139 9351 0
-9352 879 0
-9352 1141 0
-879 -1141 9352 0
-9353 911 0
-9353 1143 0
-911 -1143 9353 0
-9354 943 0
-9354 1145 0
-943 -1145 9354 0
-9355 975 0
-9355 1147 0
-975 -1147 9355 0
-9356 1007 0
-9356 1149 0
-1007 -1149 9356 0
-9357 1039 0
-9357 1151 0
-1039 -1151 9357 0
-9358 1071 0
-9358 1153 0
-1071 -1153 9358 0
-9359 1103 0
-9359 1155 0
-1103 -1155 9359 0
-9360 1135 0
-9360 1157 0
-1135 -1157 9360 0
-9361 1199 0
-9361 1161 0
-1199 -1161 9361 0
-9362 1231 0
-9362 1163 0
-1231 -1163 9362 0
-9363 1263 0
-9363 1165 0
-1263 -1165 9363 0
-1679 -9350 0
-1679 -9351 0
-1679 -9352 0
-1679 -9353 0
-1679 -9354 0
-1679 -9355 0
-1679 -9356 0
-1679 -9357 0
-1679 -9358 0
-1679 -9359 0
-1679 -9360 0
-1679 -9361 0
-1679 -9362 0
-1679 -9363 0
-1167 1679 9350 9351 9352 9353 9354 9355 9356 9357 9358 9359 9360 9361 9362 9363 0
-1711 1199 0
-9364 814 0
-9364 1169 0
-814 -1169 9364 0
-9365 847 0
-9365 1171 0
-847 -1171 9365 0
-9366 879 0
-9366 1173 0
-879 -1173 9366 0
-9367 911 0
-9367 1175 0
-911 -1175 9367 0
-9368 943 0
-9368 1177 0
-943 -1177 9368 0
-9369 975 0
-9369 1179 0
-975 -1179 9369 0
-9370 1007 0
-9370 1181 0
-1007 -1181 9370 0
-9371 1039 0
-9371 1183 0
-1039 -1183 9371 0
-9372 1071 0
-9372 1185 0
-1071 -1185 9372 0
-9373 1103 0
-9373 1187 0
-1103 -1187 9373 0
-9374 1135 0
-9374 1189 0
-1135 -1189 9374 0
-9375 1167 0
-9375 1191 0
-1167 -1191 9375 0
-9376 1231 0
-9376 1195 0
-1231 -1195 9376 0
-9377 1263 0
-9377 1197 0
-1263 -1197 9377 0
-1711 -9364 0
-1711 -9365 0
-1711 -9366 0
-1711 -9367 0
-1711 -9368 0
-1711 -9369 0
-1711 -9370 0
-1711 -9371 0
-1711 -9372 0
-1711 -9373 0
-1711 -9374 0
-1711 -9375 0
-1711 -9376 0
-1711 -9377 0
-1199 1711 9364 9365 9366 9367 9368 9369 9370 9371 9372 9373 9374 9375 9376 9377 0
-1743 1231 0
-9378 814 0
-9378 1201 0
-814 -1201 9378 0
-9379 847 0
-9379 1203 0
-847 -1203 9379 0
-9380 879 0
-9380 1205 0
-879 -1205 9380 0
-9381 911 0
-9381 1207 0
-911 -1207 9381 0
-9382 943 0
-9382 1209 0
-943 -1209 9382 0
-9383 975 0
-9383 1211 0
-975 -1211 9383 0
-9384 1007 0
-9384 1213 0
-1007 -1213 9384 0
-9385 1039 0
-9385 1215 0
-1039 -1215 9385 0
-9386 1071 0
-9386 1217 0
-1071 -1217 9386 0
-9387 1103 0
-9387 1219 0
-1103 -1219 9387 0
-9388 1135 0
-9388 1221 0
-1135 -1221 9388 0
-9389 1167 0
-9389 1223 0
-1167 -1223 9389 0
-9390 1199 0
-9390 1225 0
-1199 -1225 9390 0
-9391 1263 0
-9391 1229 0
-1263 -1229 9391 0
-1743 -9378 0
-1743 -9379 0
-1743 -9380 0
-1743 -9381 0
-1743 -9382 0
-1743 -9383 0
-1743 -9384 0
-1743 -9385 0
-1743 -9386 0
-1743 -9387 0
-1743 -9388 0
-1743 -9389 0
-1743 -9390 0
-1743 -9391 0
-1231 1743 9378 9379 9380 9381 9382 9383 9384 9385 9386 9387 9388 9389 9390 9391 0
-1775 1263 0
-9392 814 0
-9392 1233 0
-814 -1233 9392 0
-9393 847 0
-9393 1235 0
-847 -1235 9393 0
-9394 879 0
-9394 1237 0
-879 -1237 9394 0
-9395 911 0
-9395 1239 0
-911 -1239 9395 0
-9396 943 0
-9396 1241 0
-943 -1241 9396 0
-9397 975 0
-9397 1243 0
-975 -1243 9397 0
-9398 1007 0
-9398 1245 0
-1007 -1245 9398 0
-9399 1039 0
-9399 1247 0
-1039 -1247 9399 0
-9400 1071 0
-9400 1249 0
-1071 -1249 9400 0
-9401 1103 0
-9401 1251 0
-1103 -1251 9401 0
-9402 1135 0
-9402 1253 0
-1135 -1253 9402 0
-9403 1167 0
-9403 1255 0
-1167 -1255 9403 0
-9404 1199 0
-9404 1257 0
-1199 -1257 9404 0
-9405 1231 0
-9405 1259 0
-1231 -1259 9405 0
-1775 -9392 0
-1775 -9393 0
-1775 -9394 0
-1775 -9395 0
-1775 -9396 0
-1775 -9397 0
-1775 -9398 0
-1775 -9399 0
-1775 -9400 0
-1775 -9401 0
-1775 -9402 0
-1775 -9403 0
-1775 -9404 0
-1775 -9405 0
-1263 1775 9392 9393 9394 9395 9396 9397 9398 9399 9400 9401 9402 9403 9404 9405 0
-1807 0
