p cnf 1188 5376
1 2 -2 -3 0
4 2 -5 -6 0
7 2 -8 -9 0
10 2 -11 -12 0
13 2 -14 -15 0
16 2 -17 -18 0
19 2 -20 -21 0
22 2 -23 -24 0
25 2 -26 -27 0
28 2 -29 -30 0
31 2 -32 -33 0
34 2 -35 -36 0
37 5 -2 -38 0
39 5 -5 -40 0
41 5 -8 -42 0
43 5 -11 -44 0
45 5 -14 -46 0
47 5 -17 -48 0
49 5 -20 -50 0
51 5 -23 -52 0
53 5 -26 -54 0
55 5 -29 -56 0
57 5 -32 -58 0
59 5 -35 -60 0
61 8 -2 -62 0
63 8 -5 -64 0
65 8 -8 -66 0
67 8 -11 -68 0
69 8 -14 -70 0
71 8 -17 -72 0
73 8 -20 -74 0
75 8 -23 -76 0
77 8 -26 -78 0
79 8 -29 -80 0
81 8 -32 -82 0
83 8 -35 -84 0
85 11 -2 -86 0
87 11 -5 -88 0
89 11 -8 -90 0
91 11 -11 -92 0
93 11 -14 -94 0
95 11 -17 -96 0
97 11 -20 -98 0
99 11 -23 -100 0
101 11 -26 -102 0
103 11 -29 -104 0
105 11 -32 -106 0
107 11 -35 -108 0
109 14 -2 -110 0
111 14 -5 -112 0
113 14 -8 -114 0
115 14 -11 -116 0
117 14 -14 -118 0
119 14 -17 -120 0
121 14 -20 -122 0
123 14 -23 -124 0
125 14 -26 -126 0
127 14 -29 -128 0
129 14 -32 -130 0
131 14 -35 -132 0
133 17 -2 -134 0
135 17 -5 -136 0
137 17 -8 -138 0
139 17 -11 -140 0
141 17 -14 -142 0
143 17 -17 -144 0
145 17 -20 -146 0
147 17 -23 -148 0
149 17 -26 -150 0
151 17 -29 -152 0
153 17 -32 -154 0
155 17 -35 -156 0
157 20 -2 -158 0
159 20 -5 -160 0
161 20 -8 -162 0
163 20 -11 -164 0
165 20 -14 -166 0
167 20 -17 -168 0
169 20 -20 -170 0
171 20 -23 -172 0
173 20 -26 -174 0
175 20 -29 -176 0
177 20 -32 -178 0
179 20 -35 -180 0
181 23 -2 -182 0
183 23 -5 -184 0
185 23 -8 -186 0
187 23 -11 -188 0
189 23 -14 -190 0
191 23 -17 -192 0
193 23 -20 -194 0
195 23 -23 -196 0
197 23 -26 -198 0
199 23 -29 -200 0
201 23 -32 -202 0
203 23 -35 -204 0
205 26 -2 -206 0
207 26 -5 -208 0
209 26 -8 -210 0
211 26 -11 -212 0
213 26 -14 -214 0
215 26 -17 -216 0
217 26 -20 -218 0
219 26 -23 -220 0
221 26 -26 -222 0
223 26 -29 -224 0
225 26 -32 -226 0
227 26 -35 -228 0
229 29 -2 -230 0
231 29 -5 -232 0
233 29 -8 -234 0
235 29 -11 -236 0
237 29 -14 -238 0
239 29 -17 -240 0
241 29 -20 -242 0
243 29 -23 -244 0
245 29 -26 -246 0
247 29 -29 -248 0
249 29 -32 -250 0
251 29 -35 -252 0
253 32 -2 -254 0
255 32 -5 -256 0
257 32 -8 -258 0
259 32 -11 -260 0
261 32 -14 -262 0
263 32 -17 -264 0
265 32 -20 -266 0
267 32 -23 -268 0
269 32 -26 -270 0
271 32 -29 -272 0
273 32 -32 -274 0
275 32 -35 -276 0
277 35 -2 -278 0
279 35 -5 -280 0
281 35 -8 -282 0
283 35 -11 -284 0
285 35 -14 -286 0
287 35 -17 -288 0
289 35 -20 -290 0
291 35 -23 -292 0
293 35 -26 -294 0
295 35 -29 -296 0
297 35 -32 -298 0
299 35 -35 -300 0
3 -1 0
6 -4 0
9 -7 0
12 -10 0
15 -13 0
18 -16 0
21 -19 0
24 -22 0
27 -25 0
30 -28 0
33 -31 0
36 -34 0
38 -37 0
40 -39 0
42 -41 0
44 -43 0
46 -45 0
48 -47 0
50 -49 0
52 -51 0
54 -53 0
56 -55 0
58 -57 0
60 -59 0
62 -61 0
64 -63 0
66 -65 0
68 -67 0
70 -69 0
72 -71 0
74 -73 0
76 -75 0
78 -77 0
80 -79 0
82 -81 0
84 -83 0
86 -85 0
88 -87 0
90 -89 0
92 -91 0
94 -93 0
96 -95 0
98 -97 0
100 -99 0
102 -101 0
104 -103 0
106 -105 0
108 -107 0
110 -109 0
112 -111 0
114 -113 0
116 -115 0
118 -117 0
120 -119 0
122 -121 0
124 -123 0
126 -125 0
128 -127 0
130 -129 0
132 -131 0
134 -133 0
136 -135 0
138 -137 0
140 -139 0
142 -141 0
144 -143 0
146 -145 0
148 -147 0
150 -149 0
152 -151 0
154 -153 0
156 -155 0
158 -157 0
160 -159 0
162 -161 0
164 -163 0
166 -165 0
168 -167 0
170 -169 0
172 -171 0
174 -173 0
176 -175 0
178 -177 0
180 -179 0
182 -181 0
184 -183 0
186 -185 0
188 -187 0
190 -189 0
192 -191 0
194 -193 0
196 -195 0
198 -197 0
200 -199 0
202 -201 0
204 -203 0
206 -205 0
208 -207 0
210 -209 0
212 -211 0
214 -213 0
216 -215 0
218 -217 0
220 -219 0
222 -221 0
224 -223 0
226 -225 0
228 -227 0
230 -229 0
232 -231 0
234 -233 0
236 -235 0
238 -237 0
240 -239 0
242 -241 0
244 -243 0
246 -245 0
248 -247 0
250 -249 0
252 -251 0
254 -253 0
256 -255 0
258 -257 0
260 -259 0
262 -261 0
264 -263 0
266 -265 0
268 -267 0
270 -269 0
272 -271 0
274 -273 0
276 -275 0
278 -277 0
280 -279 0
282 -281 0
284 -283 0
286 -285 0
288 -287 0
290 -289 0
292 -291 0
294 -293 0
296 -295 0
298 -297 0
300 -299 0
3 -2 0
6 -2 0
9 -2 0
12 -2 0
15 -2 0
18 -2 0
21 -2 0
24 -2 0
27 -2 0
30 -2 0
33 -2 0
36 -2 0
38 -5 0
40 -5 0
42 -5 0
44 -5 0
46 -5 0
48 -5 0
50 -5 0
52 -5 0
54 -5 0
56 -5 0
58 -5 0
60 -5 0
62 -8 0
64 -8 0
66 -8 0
68 -8 0
70 -8 0
72 -8 0
74 -8 0
76 -8 0
78 -8 0
80 -8 0
82 -8 0
84 -8 0
86 -11 0
88 -11 0
90 -11 0
92 -11 0
94 -11 0
96 -11 0
98 -11 0
100 -11 0
102 -11 0
104 -11 0
106 -11 0
108 -11 0
110 -14 0
112 -14 0
114 -14 0
116 -14 0
118 -14 0
120 -14 0
122 -14 0
124 -14 0
126 -14 0
128 -14 0
130 -14 0
132 -14 0
134 -17 0
136 -17 0
138 -17 0
140 -17 0
142 -17 0
144 -17 0
146 -17 0
148 -17 0
150 -17 0
152 -17 0
154 -17 0
156 -17 0
158 -20 0
160 -20 0
162 -20 0
164 -20 0
166 -20 0
168 -20 0
170 -20 0
172 -20 0
174 -20 0
176 -20 0
178 -20 0
180 -20 0
182 -23 0
184 -23 0
186 -23 0
188 -23 0
190 -23 0
192 -23 0
194 -23 0
196 -23 0
198 -23 0
200 -23 0
202 -23 0
204 -23 0
206 -26 0
208 -26 0
210 -26 0
212 -26 0
214 -26 0
216 -26 0
218 -26 0
220 -26 0
222 -26 0
224 -26 0
226 -26 0
228 -26 0
230 -29 0
232 -29 0
234 -29 0
236 -29 0
238 -29 0
240 -29 0
242 -29 0
244 -29 0
246 -29 0
248 -29 0
250 -29 0
252 -29 0
254 -32 0
256 -32 0
258 -32 0
260 -32 0
262 -32 0
264 -32 0
266 -32 0
268 -32 0
270 -32 0
272 -32 0
274 -32 0
276 -32 0
278 -35 0
280 -35 0
282 -35 0
284 -35 0
286 -35 0
288 -35 0
290 -35 0
292 -35 0
294 -35 0
296 -35 0
298 -35 0
300 -35 0
3 2 0
6 5 0
9 8 0
12 11 0
15 14 0
18 17 0
21 20 0
24 23 0
27 26 0
30 29 0
33 32 0
36 35 0
38 2 0
40 5 0
42 8 0
44 11 0
46 14 0
48 17 0
50 20 0
52 23 0
54 26 0
56 29 0
58 32 0
60 35 0
62 2 0
64 5 0
66 8 0
68 11 0
70 14 0
72 17 0
74 20 0
76 23 0
78 26 0
80 29 0
82 32 0
84 35 0
86 2 0
88 5 0
90 8 0
92 11 0
94 14 0
96 17 0
98 20 0
100 23 0
102 26 0
104 29 0
106 32 0
108 35 0
110 2 0
112 5 0
114 8 0
116 11 0
118 14 0
120 17 0
122 20 0
124 23 0
126 26 0
128 29 0
130 32 0
132 35 0
134 2 0
136 5 0
138 8 0
140 11 0
142 14 0
144 17 0
146 20 0
148 23 0
150 26 0
152 29 0
154 32 0
156 35 0
158 2 0
160 5 0
162 8 0
164 11 0
166 14 0
168 17 0
170 20 0
172 23 0
174 26 0
176 29 0
178 32 0
180 35 0
182 2 0
184 5 0
186 8 0
188 11 0
190 14 0
192 17 0
194 20 0
196 23 0
198 26 0
200 29 0
202 32 0
204 35 0
206 2 0
208 5 0
210 8 0
212 11 0
214 14 0
216 17 0
218 20 0
220 23 0
222 26 0
224 29 0
226 32 0
228 35 0
230 2 0
232 5 0
234 8 0
236 11 0
238 14 0
240 17 0
242 20 0
244 23 0
246 26 0
248 29 0
250 32 0
252 35 0
254 2 0
256 5 0
258 8 0
260 11 0
262 14 0
264 17 0
266 20 0
268 23 0
270 26 0
272 29 0
274 32 0
276 35 0
278 2 0
280 5 0
282 8 0
284 11 0
286 14 0
288 17 0
290 20 0
292 23 0
294 26 0
296 29 0
298 32 0
300 35 0
301 -302 -303 -304 0
305 -306 -303 -307 0
308 -309 -303 -310 0
311 -312 -303 -313 0
314 -315 -303 -316 0
317 -318 -303 -319 0
320 -321 -303 -322 0
323 -324 -303 -325 0
326 -327 -303 -328 0
329 -330 -303 -331 0
332 -333 -303 -334 0
335 -336 -303 -337 0
338 -302 -339 -340 0
341 -306 -339 -342 0
343 -309 -339 -344 0
345 -312 -339 -346 0
347 -315 -339 -348 0
349 -318 -339 -350 0
351 -321 -339 -352 0
353 -324 -339 -354 0
355 -327 -339 -356 0
357 -330 -339 -358 0
359 -333 -339 -360 0
361 -336 -339 -362 0
363 -302 -364 -365 0
366 -306 -364 -367 0
368 -309 -364 -369 0
370 -312 -364 -371 0
372 -315 -364 -373 0
374 -318 -364 -375 0
376 -321 -364 -377 0
378 -324 -364 -379 0
380 -327 -364 -381 0
382 -330 -364 -383 0
384 -333 -364 -385 0
386 -336 -364 -387 0
388 -302 -389 -390 0
391 -306 -389 -392 0
393 -309 -389 -394 0
395 -312 -389 -396 0
397 -315 -389 -398 0
399 -318 -389 -400 0
401 -321 -389 -402 0
403 -324 -389 -404 0
405 -327 -389 -406 0
407 -330 -389 -408 0
409 -333 -389 -410 0
411 -336 -389 -412 0
413 -302 -414 -415 0
416 -306 -414 -417 0
418 -309 -414 -419 0
420 -312 -414 -421 0
422 -315 -414 -423 0
424 -318 -414 -425 0
426 -321 -414 -427 0
428 -324 -414 -429 0
430 -327 -414 -431 0
432 -330 -414 -433 0
434 -333 -414 -435 0
436 -336 -414 -437 0
438 -302 -439 -440 0
441 -306 -439 -442 0
443 -309 -439 -444 0
445 -312 -439 -446 0
447 -315 -439 -448 0
449 -318 -439 -450 0
451 -321 -439 -452 0
453 -324 -439 -454 0
455 -327 -439 -456 0
457 -330 -439 -458 0
459 -333 -439 -460 0
461 -336 -439 -462 0
463 -302 -464 -465 0
466 -306 -464 -467 0
468 -309 -464 -469 0
470 -312 -464 -471 0
472 -315 -464 -473 0
474 -318 -464 -475 0
476 -321 -464 -477 0
478 -324 -464 -479 0
480 -327 -464 -481 0
482 -330 -464 -483 0
484 -333 -464 -485 0
486 -336 -464 -487 0
488 -302 -489 -490 0
491 -306 -489 -492 0
493 -309 -489 -494 0
495 -312 -489 -496 0
497 -315 -489 -498 0
499 -318 -489 -500 0
501 -321 -489 -502 0
503 -324 -489 -504 0
505 -327 -489 -506 0
507 -330 -489 -508 0
509 -333 -489 -510 0
511 -336 -489 -512 0
513 -302 -514 -515 0
516 -306 -514 -517 0
518 -309 -514 -519 0
520 -312 -514 -521 0
522 -315 -514 -523 0
524 -318 -514 -525 0
526 -321 -514 -527 0
528 -324 -514 -529 0
530 -327 -514 -531 0
532 -330 -514 -533 0
534 -333 -514 -535 0
536 -336 -514 -537 0
538 -302 -539 -540 0
541 -306 -539 -542 0
543 -309 -539 -544 0
545 -312 -539 -546 0
547 -315 -539 -548 0
549 -318 -539 -550 0
551 -321 -539 -552 0
553 -324 -539 -554 0
555 -327 -539 -556 0
557 -330 -539 -558 0
559 -333 -539 -560 0
561 -336 -539 -562 0
563 -302 -564 -565 0
566 -306 -564 -567 0
568 -309 -564 -569 0
570 -312 -564 -571 0
572 -315 -564 -573 0
574 -318 -564 -575 0
576 -321 -564 -577 0
578 -324 -564 -579 0
580 -327 -564 -581 0
582 -330 -564 -583 0
584 -333 -564 -585 0
586 -336 -564 -587 0
588 -302 -589 -590 0
591 -306 -589 -592 0
593 -309 -589 -594 0
595 -312 -589 -596 0
597 -315 -589 -598 0
599 -318 -589 -600 0
601 -321 -589 -602 0
603 -324 -589 -604 0
605 -327 -589 -606 0
607 -330 -589 -608 0
609 -333 -589 -610 0
611 -336 -589 -612 0
304 -301 0
307 -305 0
310 -308 0
313 -311 0
316 -314 0
319 -317 0
322 -320 0
325 -323 0
328 -326 0
331 -329 0
334 -332 0
337 -335 0
340 -338 0
342 -341 0
344 -343 0
346 -345 0
348 -347 0
350 -349 0
352 -351 0
354 -353 0
356 -355 0
358 -357 0
360 -359 0
362 -361 0
365 -363 0
367 -366 0
369 -368 0
371 -370 0
373 -372 0
375 -374 0
377 -376 0
379 -378 0
381 -380 0
383 -382 0
385 -384 0
387 -386 0
390 -388 0
392 -391 0
394 -393 0
396 -395 0
398 -397 0
400 -399 0
402 -401 0
404 -403 0
406 -405 0
408 -407 0
410 -409 0
412 -411 0
415 -413 0
417 -416 0
419 -418 0
421 -420 0
423 -422 0
425 -424 0
427 -426 0
429 -428 0
431 -430 0
433 -432 0
435 -434 0
437 -436 0
440 -438 0
442 -441 0
444 -443 0
446 -445 0
448 -447 0
450 -449 0
452 -451 0
454 -453 0
456 -455 0
458 -457 0
460 -459 0
462 -461 0
465 -463 0
467 -466 0
469 -468 0
471 -470 0
473 -472 0
475 -474 0
477 -476 0
479 -478 0
481 -480 0
483 -482 0
485 -484 0
487 -486 0
490 -488 0
492 -491 0
494 -493 0
496 -495 0
498 -497 0
500 -499 0
502 -501 0
504 -503 0
506 -505 0
508 -507 0
510 -509 0
512 -511 0
515 -513 0
517 -516 0
519 -518 0
521 -520 0
523 -522 0
525 -524 0
527 -526 0
529 -528 0
531 -530 0
533 -532 0
535 -534 0
537 -536 0
540 -538 0
542 -541 0
544 -543 0
546 -545 0
548 -547 0
550 -549 0
552 -551 0
554 -553 0
556 -555 0
558 -557 0
560 -559 0
562 -561 0
565 -563 0
567 -566 0
569 -568 0
571 -570 0
573 -572 0
575 -574 0
577 -576 0
579 -578 0
581 -580 0
583 -582 0
585 -584 0
587 -586 0
590 -588 0
592 -591 0
594 -593 0
596 -595 0
598 -597 0
600 -599 0
602 -601 0
604 -603 0
606 -605 0
608 -607 0
610 -609 0
612 -611 0
304 302 0
307 306 0
310 309 0
313 312 0
316 315 0
319 318 0
322 321 0
325 324 0
328 327 0
331 330 0
334 333 0
337 336 0
340 302 0
342 306 0
344 309 0
346 312 0
348 315 0
350 318 0
352 321 0
354 324 0
356 327 0
358 330 0
360 333 0
362 336 0
365 302 0
367 306 0
369 309 0
371 312 0
373 315 0
375 318 0
377 321 0
379 324 0
381 327 0
383 330 0
385 333 0
387 336 0
390 302 0
392 306 0
394 309 0
396 312 0
398 315 0
400 318 0
402 321 0
404 324 0
406 327 0
408 330 0
410 333 0
412 336 0
415 302 0
417 306 0
419 309 0
421 312 0
423 315 0
425 318 0
427 321 0
429 324 0
431 327 0
433 330 0
435 333 0
437 336 0
440 302 0
442 306 0
444 309 0
446 312 0
448 315 0
450 318 0
452 321 0
454 324 0
456 327 0
458 330 0
460 333 0
462 336 0
465 302 0
467 306 0
469 309 0
471 312 0
473 315 0
475 318 0
477 321 0
479 324 0
481 327 0
483 330 0
485 333 0
487 336 0
490 302 0
492 306 0
494 309 0
496 312 0
498 315 0
500 318 0
502 321 0
504 324 0
506 327 0
508 330 0
510 333 0
512 336 0
515 302 0
517 306 0
519 309 0
521 312 0
523 315 0
525 318 0
527 321 0
529 324 0
531 327 0
533 330 0
535 333 0
537 336 0
540 302 0
542 306 0
544 309 0
546 312 0
548 315 0
550 318 0
552 321 0
554 324 0
556 327 0
558 330 0
560 333 0
562 336 0
565 302 0
567 306 0
569 309 0
571 312 0
573 315 0
575 318 0
577 321 0
579 324 0
581 327 0
583 330 0
585 333 0
587 336 0
590 302 0
592 306 0
594 309 0
596 312 0
598 315 0
600 318 0
602 321 0
604 324 0
606 327 0
608 330 0
610 333 0
612 336 0
304 303 0
307 303 0
310 303 0
313 303 0
316 303 0
319 303 0
322 303 0
325 303 0
328 303 0
331 303 0
334 303 0
337 303 0
340 339 0
342 339 0
344 339 0
346 339 0
348 339 0
350 339 0
352 339 0
354 339 0
356 339 0
358 339 0
360 339 0
362 339 0
365 364 0
367 364 0
369 364 0
371 364 0
373 364 0
375 364 0
377 364 0
379 364 0
381 364 0
383 364 0
385 364 0
387 364 0
390 389 0
392 389 0
394 389 0
396 389 0
398 389 0
400 389 0
402 389 0
404 389 0
406 389 0
408 389 0
410 389 0
412 389 0
415 414 0
417 414 0
419 414 0
421 414 0
423 414 0
425 414 0
427 414 0
429 414 0
431 414 0
433 414 0
435 414 0
437 414 0
440 439 0
442 439 0
444 439 0
446 439 0
448 439 0
450 439 0
452 439 0
454 439 0
456 439 0
458 439 0
460 439 0
462 439 0
465 464 0
467 464 0
469 464 0
471 464 0
473 464 0
475 464 0
477 464 0
479 464 0
481 464 0
483 464 0
485 464 0
487 464 0
490 489 0
492 489 0
494 489 0
496 489 0
498 489 0
500 489 0
502 489 0
504 489 0
506 489 0
508 489 0
510 489 0
512 489 0
515 514 0
517 514 0
519 514 0
521 514 0
523 514 0
525 514 0
527 514 0
529 514 0
531 514 0
533 514 0
535 514 0
537 514 0
540 539 0
542 539 0
544 539 0
546 539 0
548 539 0
550 539 0
552 539 0
554 539 0
556 539 0
558 539 0
560 539 0
562 539 0
565 564 0
567 564 0
569 564 0
571 564 0
573 564 0
575 564 0
577 564 0
579 564 0
581 564 0
583 564 0
585 564 0
587 564 0
590 589 0
592 589 0
594 589 0
596 589 0
598 589 0
600 589 0
602 589 0
604 589 0
606 589 0
608 589 0
610 589 0
612 589 0
-1 -2 -2 613 0
-4 -5 -2 614 0
-7 -8 -2 615 0
-10 -11 -2 616 0
-13 -14 -2 617 0
-16 -17 -2 618 0
-19 -20 -2 619 0
-22 -23 -2 620 0
-25 -26 -2 621 0
-28 -29 -2 622 0
-31 -32 -2 623 0
-34 -35 -2 624 0
-37 -2 -5 625 0
-39 -5 -5 626 0
-41 -8 -5 627 0
-43 -11 -5 628 0
-45 -14 -5 629 0
-47 -17 -5 630 0
-49 -20 -5 631 0
-51 -23 -5 632 0
-53 -26 -5 633 0
-55 -29 -5 634 0
-57 -32 -5 635 0
-59 -35 -5 636 0
-61 -2 -8 637 0
-63 -5 -8 638 0
-65 -8 -8 639 0
-67 -11 -8 640 0
-69 -14 -8 641 0
-71 -17 -8 642 0
-73 -20 -8 643 0
-75 -23 -8 644 0
-77 -26 -8 645 0
-79 -29 -8 646 0
-81 -32 -8 647 0
-83 -35 -8 648 0
-85 -2 -11 649 0
-87 -5 -11 650 0
-89 -8 -11 651 0
-91 -11 -11 652 0
-93 -14 -11 653 0
-95 -17 -11 654 0
-97 -20 -11 655 0
-99 -23 -11 656 0
-101 -26 -11 657 0
-103 -29 -11 658 0
-105 -32 -11 659 0
-107 -35 -11 660 0
-109 -2 -14 661 0
-111 -5 -14 662 0
-113 -8 -14 663 0
-115 -11 -14 664 0
-117 -14 -14 665 0
-119 -17 -14 666 0
-121 -20 -14 667 0
-123 -23 -14 668 0
-125 -26 -14 669 0
-127 -29 -14 670 0
-129 -32 -14 671 0
-131 -35 -14 672 0
-133 -2 -17 673 0
-135 -5 -17 674 0
-137 -8 -17 675 0
-139 -11 -17 676 0
-141 -14 -17 677 0
-143 -17 -17 678 0
-145 -20 -17 679 0
-147 -23 -17 680 0
-149 -26 -17 681 0
-151 -29 -17 682 0
-153 -32 -17 683 0
-155 -35 -17 684 0
-157 -2 -20 685 0
-159 -5 -20 686 0
-161 -8 -20 687 0
-163 -11 -20 688 0
-165 -14 -20 689 0
-167 -17 -20 690 0
-169 -20 -20 691 0
-171 -23 -20 692 0
-173 -26 -20 693 0
-175 -29 -20 694 0
-177 -32 -20 695 0
-179 -35 -20 696 0
-181 -2 -23 697 0
-183 -5 -23 698 0
-185 -8 -23 699 0
-187 -11 -23 700 0
-189 -14 -23 701 0
-191 -17 -23 702 0
-193 -20 -23 703 0
-195 -23 -23 704 0
-197 -26 -23 705 0
-199 -29 -23 706 0
-201 -32 -23 707 0
-203 -35 -23 708 0
-205 -2 -26 709 0
-207 -5 -26 710 0
-209 -8 -26 711 0
-211 -11 -26 712 0
-213 -14 -26 713 0
-215 -17 -26 714 0
-217 -20 -26 715 0
-219 -23 -26 716 0
-221 -26 -26 717 0
-223 -29 -26 718 0
-225 -32 -26 719 0
-227 -35 -26 720 0
-229 -2 -29 721 0
-231 -5 -29 722 0
-233 -8 -29 723 0
-235 -11 -29 724 0
-237 -14 -29 725 0
-239 -17 -29 726 0
-241 -20 -29 727 0
-243 -23 -29 728 0
-245 -26 -29 729 0
-247 -29 -29 730 0
-249 -32 -29 731 0
-251 -35 -29 732 0
-253 -2 -32 733 0
-255 -5 -32 734 0
-257 -8 -32 735 0
-259 -11 -32 736 0
-261 -14 -32 737 0
-263 -17 -32 738 0
-265 -20 -32 739 0
-267 -23 -32 740 0
-269 -26 -32 741 0
-271 -29 -32 742 0
-273 -32 -32 743 0
-275 -35 -32 744 0
-277 -2 -35 745 0
-279 -5 -35 746 0
-281 -8 -35 747 0
-283 -11 -35 748 0
-285 -14 -35 749 0
-287 -17 -35 750 0
-289 -20 -35 751 0
-291 -23 -35 752 0
-293 -26 -35 753 0
-295 -29 -35 754 0
-297 -32 -35 755 0
-299 -35 -35 756 0
-613 1 0
-614 4 0
-615 7 0
-616 10 0
-617 13 0
-618 16 0
-619 19 0
-620 22 0
-621 25 0
-622 28 0
-623 31 0
-624 34 0
-625 37 0
-626 39 0
-627 41 0
-628 43 0
-629 45 0
-630 47 0
-631 49 0
-632 51 0
-633 53 0
-634 55 0
-635 57 0
-636 59 0
-637 61 0
-638 63 0
-639 65 0
-640 67 0
-641 69 0
-642 71 0
-643 73 0
-644 75 0
-645 77 0
-646 79 0
-647 81 0
-648 83 0
-649 85 0
-650 87 0
-651 89 0
-652 91 0
-653 93 0
-654 95 0
-655 97 0
-656 99 0
-657 101 0
-658 103 0
-659 105 0
-660 107 0
-661 109 0
-662 111 0
-663 113 0
-664 115 0
-665 117 0
-666 119 0
-667 121 0
-668 123 0
-669 125 0
-670 127 0
-671 129 0
-672 131 0
-673 133 0
-674 135 0
-675 137 0
-676 139 0
-677 141 0
-678 143 0
-679 145 0
-680 147 0
-681 149 0
-682 151 0
-683 153 0
-684 155 0
-685 157 0
-686 159 0
-687 161 0
-688 163 0
-689 165 0
-690 167 0
-691 169 0
-692 171 0
-693 173 0
-694 175 0
-695 177 0
-696 179 0
-697 181 0
-698 183 0
-699 185 0
-700 187 0
-701 189 0
-702 191 0
-703 193 0
-704 195 0
-705 197 0
-706 199 0
-707 201 0
-708 203 0
-709 205 0
-710 207 0
-711 209 0
-712 211 0
-713 213 0
-714 215 0
-715 217 0
-716 219 0
-717 221 0
-718 223 0
-719 225 0
-720 227 0
-721 229 0
-722 231 0
-723 233 0
-724 235 0
-725 237 0
-726 239 0
-727 241 0
-728 243 0
-729 245 0
-730 247 0
-731 249 0
-732 251 0
-733 253 0
-734 255 0
-735 257 0
-736 259 0
-737 261 0
-738 263 0
-739 265 0
-740 267 0
-741 269 0
-742 271 0
-743 273 0
-744 275 0
-745 277 0
-746 279 0
-747 281 0
-748 283 0
-749 285 0
-750 287 0
-751 289 0
-752 291 0
-753 293 0
-754 295 0
-755 297 0
-756 299 0
-613 2 0
-614 5 0
-615 8 0
-616 11 0
-617 14 0
-618 17 0
-619 20 0
-620 23 0
-621 26 0
-622 29 0
-623 32 0
-624 35 0
-625 2 0
-626 5 0
-627 8 0
-628 11 0
-629 14 0
-630 17 0
-631 20 0
-632 23 0
-633 26 0
-634 29 0
-635 32 0
-636 35 0
-637 2 0
-638 5 0
-639 8 0
-640 11 0
-641 14 0
-642 17 0
-643 20 0
-644 23 0
-645 26 0
-646 29 0
-647 32 0
-648 35 0
-649 2 0
-650 5 0
-651 8 0
-652 11 0
-653 14 0
-654 17 0
-655 20 0
-656 23 0
-657 26 0
-658 29 0
-659 32 0
-660 35 0
-661 2 0
-662 5 0
-663 8 0
-664 11 0
-665 14 0
-666 17 0
-667 20 0
-668 23 0
-669 26 0
-670 29 0
-671 32 0
-672 35 0
-673 2 0
-674 5 0
-675 8 0
-676 11 0
-677 14 0
-678 17 0
-679 20 0
-680 23 0
-681 26 0
-682 29 0
-683 32 0
-684 35 0
-685 2 0
-686 5 0
-687 8 0
-688 11 0
-689 14 0
-690 17 0
-691 20 0
-692 23 0
-693 26 0
-694 29 0
-695 32 0
-696 35 0
-697 2 0
-698 5 0
-699 8 0
-700 11 0
-701 14 0
-702 17 0
-703 20 0
-704 23 0
-705 26 0
-706 29 0
-707 32 0
-708 35 0
-709 2 0
-710 5 0
-711 8 0
-712 11 0
-713 14 0
-714 17 0
-715 20 0
-716 23 0
-717 26 0
-718 29 0
-719 32 0
-720 35 0
-721 2 0
-722 5 0
-723 8 0
-724 11 0
-725 14 0
-726 17 0
-727 20 0
-728 23 0
-729 26 0
-730 29 0
-731 32 0
-732 35 0
-733 2 0
-734 5 0
-735 8 0
-736 11 0
-737 14 0
-738 17 0
-739 20 0
-740 23 0
-741 26 0
-742 29 0
-743 32 0
-744 35 0
-745 2 0
-746 5 0
-747 8 0
-748 11 0
-749 14 0
-750 17 0
-751 20 0
-752 23 0
-753 26 0
-754 29 0
-755 32 0
-756 35 0
-613 2 0
-614 2 0
-615 2 0
-616 2 0
-617 2 0
-618 2 0
-619 2 0
-620 2 0
-621 2 0
-622 2 0
-623 2 0
-624 2 0
-625 5 0
-626 5 0
-627 5 0
-628 5 0
-629 5 0
-630 5 0
-631 5 0
-632 5 0
-633 5 0
-634 5 0
-635 5 0
-636 5 0
-637 8 0
-638 8 0
-639 8 0
-640 8 0
-641 8 0
-642 8 0
-643 8 0
-644 8 0
-645 8 0
-646 8 0
-647 8 0
-648 8 0
-649 11 0
-650 11 0
-651 11 0
-652 11 0
-653 11 0
-654 11 0
-655 11 0
-656 11 0
-657 11 0
-658 11 0
-659 11 0
-660 11 0
-661 14 0
-662 14 0
-663 14 0
-664 14 0
-665 14 0
-666 14 0
-667 14 0
-668 14 0
-669 14 0
-670 14 0
-671 14 0
-672 14 0
-673 17 0
-674 17 0
-675 17 0
-676 17 0
-677 17 0
-678 17 0
-679 17 0
-680 17 0
-681 17 0
-682 17 0
-683 17 0
-684 17 0
-685 20 0
-686 20 0
-687 20 0
-688 20 0
-689 20 0
-690 20 0
-691 20 0
-692 20 0
-693 20 0
-694 20 0
-695 20 0
-696 20 0
-697 23 0
-698 23 0
-699 23 0
-700 23 0
-701 23 0
-702 23 0
-703 23 0
-704 23 0
-705 23 0
-706 23 0
-707 23 0
-708 23 0
-709 26 0
-710 26 0
-711 26 0
-712 26 0
-713 26 0
-714 26 0
-715 26 0
-716 26 0
-717 26 0
-718 26 0
-719 26 0
-720 26 0
-721 29 0
-722 29 0
-723 29 0
-724 29 0
-725 29 0
-726 29 0
-727 29 0
-728 29 0
-729 29 0
-730 29 0
-731 29 0
-732 29 0
-733 32 0
-734 32 0
-735 32 0
-736 32 0
-737 32 0
-738 32 0
-739 32 0
-740 32 0
-741 32 0
-742 32 0
-743 32 0
-744 32 0
-745 35 0
-746 35 0
-747 35 0
-748 35 0
-749 35 0
-750 35 0
-751 35 0
-752 35 0
-753 35 0
-754 35 0
-755 35 0
-756 35 0
-301 613 -757 0
-305 614 -758 0
-308 615 -759 0
-311 616 -760 0
-314 617 -761 0
-317 618 -762 0
-320 619 -763 0
-323 620 -764 0
-326 621 -765 0
-329 622 -766 0
-332 623 -767 0
-335 624 -768 0
-338 625 -769 0
-341 626 -770 0
-343 627 -771 0
-345 628 -772 0
-347 629 -773 0
-349 630 -774 0
-351 631 -775 0
-353 632 -776 0
-355 633 -777 0
-357 634 -778 0
-359 635 -779 0
-361 636 -780 0
-363 637 -781 0
-366 638 -782 0
-368 639 -783 0
-370 640 -784 0
-372 641 -785 0
-374 642 -786 0
-376 643 -787 0
-378 644 -788 0
-380 645 -789 0
-382 646 -790 0
-384 647 -791 0
-386 648 -792 0
-388 649 -793 0
-391 650 -794 0
-393 651 -795 0
-395 652 -796 0
-397 653 -797 0
-399 654 -798 0
-401 655 -799 0
-403 656 -800 0
-405 657 -801 0
-407 658 -802 0
-409 659 -803 0
-411 660 -804 0
-413 661 -805 0
-416 662 -806 0
-418 663 -807 0
-420 664 -808 0
-422 665 -809 0
-424 666 -810 0
-426 667 -811 0
-428 668 -812 0
-430 669 -813 0
-432 670 -814 0
-434 671 -815 0
-436 672 -816 0
-438 673 -817 0
-441 674 -818 0
-443 675 -819 0
-445 676 -820 0
-447 677 -821 0
-449 678 -822 0
-451 679 -823 0
-453 680 -824 0
-455 681 -825 0
-457 682 -826 0
-459 683 -827 0
-461 684 -828 0
-463 685 -829 0
-466 686 -830 0
-468 687 -831 0
-470 688 -832 0
-472 689 -833 0
-474 690 -834 0
-476 691 -835 0
-478 692 -836 0
-480 693 -837 0
-482 694 -838 0
-484 695 -839 0
-486 696 -840 0
-488 697 -841 0
-491 698 -842 0
-493 699 -843 0
-495 700 -844 0
-497 701 -845 0
-499 702 -846 0
-501 703 -847 0
-503 704 -848 0
-505 705 -849 0
-507 706 -850 0
-509 707 -851 0
-511 708 -852 0
-513 709 -853 0
-516 710 -854 0
-518 711 -855 0
-520 712 -856 0
-522 713 -857 0
-524 714 -858 0
-526 715 -859 0
-528 716 -860 0
-530 717 -861 0
-532 718 -862 0
-534 719 -863 0
-536 720 -864 0
-538 721 -865 0
-541 722 -866 0
-543 723 -867 0
-545 724 -868 0
-547 725 -869 0
-549 726 -870 0
-551 727 -871 0
-553 728 -872 0
-555 729 -873 0
-557 730 -874 0
-559 731 -875 0
-561 732 -876 0
-563 733 -877 0
-566 734 -878 0
-568 735 -879 0
-570 736 -880 0
-572 737 -881 0
-574 738 -882 0
-576 739 -883 0
-578 740 -884 0
-580 741 -885 0
-582 742 -886 0
-584 743 -887 0
-586 744 -888 0
-588 745 -889 0
-591 746 -890 0
-593 747 -891 0
-595 748 -892 0
-597 749 -893 0
-599 750 -894 0
-601 751 -895 0
-603 752 -896 0
-605 753 -897 0
-607 754 -898 0
-609 755 -899 0
-611 756 -900 0
757 301 0
758 305 0
759 308 0
760 311 0
761 314 0
762 317 0
763 320 0
764 323 0
765 326 0
766 329 0
767 332 0
768 335 0
769 338 0
770 341 0
771 343 0
772 345 0
773 347 0
774 349 0
775 351 0
776 353 0
777 355 0
778 357 0
779 359 0
780 361 0
781 363 0
782 366 0
783 368 0
784 370 0
785 372 0
786 374 0
787 376 0
788 378 0
789 380 0
790 382 0
791 384 0
792 386 0
793 388 0
794 391 0
795 393 0
796 395 0
797 397 0
798 399 0
799 401 0
800 403 0
801 405 0
802 407 0
803 409 0
804 411 0
805 413 0
806 416 0
807 418 0
808 420 0
809 422 0
810 424 0
811 426 0
812 428 0
813 430 0
814 432 0
815 434 0
816 436 0
817 438 0
818 441 0
819 443 0
820 445 0
821 447 0
822 449 0
823 451 0
824 453 0
825 455 0
826 457 0
827 459 0
828 461 0
829 463 0
830 466 0
831 468 0
832 470 0
833 472 0
834 474 0
835 476 0
836 478 0
837 480 0
838 482 0
839 484 0
840 486 0
841 488 0
842 491 0
843 493 0
844 495 0
845 497 0
846 499 0
847 501 0
848 503 0
849 505 0
850 507 0
851 509 0
852 511 0
853 513 0
854 516 0
855 518 0
856 520 0
857 522 0
858 524 0
859 526 0
860 528 0
861 530 0
862 532 0
863 534 0
864 536 0
865 538 0
866 541 0
867 543 0
868 545 0
869 547 0
870 549 0
871 551 0
872 553 0
873 555 0
874 557 0
875 559 0
876 561 0
877 563 0
878 566 0
879 568 0
880 570 0
881 572 0
882 574 0
883 576 0
884 578 0
885 580 0
886 582 0
887 584 0
888 586 0
889 588 0
890 591 0
891 593 0
892 595 0
893 597 0
894 599 0
895 601 0
896 603 0
897 605 0
898 607 0
899 609 0
900 611 0
757 -613 0
758 -614 0
759 -615 0
760 -616 0
761 -617 0
762 -618 0
763 -619 0
764 -620 0
765 -621 0
766 -622 0
767 -623 0
768 -624 0
769 -625 0
770 -626 0
771 -627 0
772 -628 0
773 -629 0
774 -630 0
775 -631 0
776 -632 0
777 -633 0
778 -634 0
779 -635 0
780 -636 0
781 -637 0
782 -638 0
783 -639 0
784 -640 0
785 -641 0
786 -642 0
787 -643 0
788 -644 0
789 -645 0
790 -646 0
791 -647 0
792 -648 0
793 -649 0
794 -650 0
795 -651 0
796 -652 0
797 -653 0
798 -654 0
799 -655 0
800 -656 0
801 -657 0
802 -658 0
803 -659 0
804 -660 0
805 -661 0
806 -662 0
807 -663 0
808 -664 0
809 -665 0
810 -666 0
811 -667 0
812 -668 0
813 -669 0
814 -670 0
815 -671 0
816 -672 0
817 -673 0
818 -674 0
819 -675 0
820 -676 0
821 -677 0
822 -678 0
823 -679 0
824 -680 0
825 -681 0
826 -682 0
827 -683 0
828 -684 0
829 -685 0
830 -686 0
831 -687 0
832 -688 0
833 -689 0
834 -690 0
835 -691 0
836 -692 0
837 -693 0
838 -694 0
839 -695 0
840 -696 0
841 -697 0
842 -698 0
843 -699 0
844 -700 0
845 -701 0
846 -702 0
847 -703 0
848 -704 0
849 -705 0
850 -706 0
851 -707 0
852 -708 0
853 -709 0
854 -710 0
855 -711 0
856 -712 0
857 -713 0
858 -714 0
859 -715 0
860 -716 0
861 -717 0
862 -718 0
863 -719 0
864 -720 0
865 -721 0
866 -722 0
867 -723 0
868 -724 0
869 -725 0
870 -726 0
871 -727 0
872 -728 0
873 -729 0
874 -730 0
875 -731 0
876 -732 0
877 -733 0
878 -734 0
879 -735 0
880 -736 0
881 -737 0
882 -738 0
883 -739 0
884 -740 0
885 -741 0
886 -742 0
887 -743 0
888 -744 0
889 -745 0
890 -746 0
891 -747 0
892 -748 0
893 -749 0
894 -750 0
895 -751 0
896 -752 0
897 -753 0
898 -754 0
899 -755 0
900 -756 0
301 -1 -2 -2 -901 0
305 -4 -5 -2 -902 0
308 -7 -8 -2 -903 0
311 -10 -11 -2 -904 0
314 -13 -14 -2 -905 0
317 -16 -17 -2 -906 0
320 -19 -20 -2 -907 0
323 -22 -23 -2 -908 0
326 -25 -26 -2 -909 0
329 -28 -29 -2 -910 0
332 -31 -32 -2 -911 0
335 -34 -35 -2 -912 0
338 -37 -2 -5 -913 0
341 -39 -5 -5 -914 0
343 -41 -8 -5 -915 0
345 -43 -11 -5 -916 0
347 -45 -14 -5 -917 0
349 -47 -17 -5 -918 0
351 -49 -20 -5 -919 0
353 -51 -23 -5 -920 0
355 -53 -26 -5 -921 0
357 -55 -29 -5 -922 0
359 -57 -32 -5 -923 0
361 -59 -35 -5 -924 0
363 -61 -2 -8 -925 0
366 -63 -5 -8 -926 0
368 -65 -8 -8 -927 0
370 -67 -11 -8 -928 0
372 -69 -14 -8 -929 0
374 -71 -17 -8 -930 0
376 -73 -20 -8 -931 0
378 -75 -23 -8 -932 0
380 -77 -26 -8 -933 0
382 -79 -29 -8 -934 0
384 -81 -32 -8 -935 0
386 -83 -35 -8 -936 0
388 -85 -2 -11 -937 0
391 -87 -5 -11 -938 0
393 -89 -8 -11 -939 0
395 -91 -11 -11 -940 0
397 -93 -14 -11 -941 0
399 -95 -17 -11 -942 0
401 -97 -20 -11 -943 0
403 -99 -23 -11 -944 0
405 -101 -26 -11 -945 0
407 -103 -29 -11 -946 0
409 -105 -32 -11 -947 0
411 -107 -35 -11 -948 0
413 -109 -2 -14 -949 0
416 -111 -5 -14 -950 0
418 -113 -8 -14 -951 0
420 -115 -11 -14 -952 0
422 -117 -14 -14 -953 0
424 -119 -17 -14 -954 0
426 -121 -20 -14 -955 0
428 -123 -23 -14 -956 0
430 -125 -26 -14 -957 0
432 -127 -29 -14 -958 0
434 -129 -32 -14 -959 0
436 -131 -35 -14 -960 0
438 -133 -2 -17 -961 0
441 -135 -5 -17 -962 0
443 -137 -8 -17 -963 0
445 -139 -11 -17 -964 0
447 -141 -14 -17 -965 0
449 -143 -17 -17 -966 0
451 -145 -20 -17 -967 0
453 -147 -23 -17 -968 0
455 -149 -26 -17 -969 0
457 -151 -29 -17 -970 0
459 -153 -32 -17 -971 0
461 -155 -35 -17 -972 0
463 -157 -2 -20 -973 0
466 -159 -5 -20 -974 0
468 -161 -8 -20 -975 0
470 -163 -11 -20 -976 0
472 -165 -14 -20 -977 0
474 -167 -17 -20 -978 0
476 -169 -20 -20 -979 0
478 -171 -23 -20 -980 0
480 -173 -26 -20 -981 0
482 -175 -29 -20 -982 0
484 -177 -32 -20 -983 0
486 -179 -35 -20 -984 0
488 -181 -2 -23 -985 0
491 -183 -5 -23 -986 0
493 -185 -8 -23 -987 0
495 -187 -11 -23 -988 0
497 -189 -14 -23 -989 0
499 -191 -17 -23 -990 0
501 -193 -20 -23 -991 0
503 -195 -23 -23 -992 0
505 -197 -26 -23 -993 0
507 -199 -29 -23 -994 0
509 -201 -32 -23 -995 0
511 -203 -35 -23 -996 0
513 -205 -2 -26 -997 0
516 -207 -5 -26 -998 0
518 -209 -8 -26 -999 0
520 -211 -11 -26 -1000 0
522 -213 -14 -26 -1001 0
524 -215 -17 -26 -1002 0
526 -217 -20 -26 -1003 0
528 -219 -23 -26 -1004 0
530 -221 -26 -26 -1005 0
532 -223 -29 -26 -1006 0
534 -225 -32 -26 -1007 0
536 -227 -35 -26 -1008 0
538 -229 -2 -29 -1009 0
541 -231 -5 -29 -1010 0
543 -233 -8 -29 -1011 0
545 -235 -11 -29 -1012 0
547 -237 -14 -29 -1013 0
549 -239 -17 -29 -1014 0
551 -241 -20 -29 -1015 0
553 -243 -23 -29 -1016 0
555 -245 -26 -29 -1017 0
557 -247 -29 -29 -1018 0
559 -249 -32 -29 -1019 0
561 -251 -35 -29 -1020 0
563 -253 -2 -32 -1021 0
566 -255 -5 -32 -1022 0
568 -257 -8 -32 -1023 0
570 -259 -11 -32 -1024 0
572 -261 -14 -32 -1025 0
574 -263 -17 -32 -1026 0
576 -265 -20 -32 -1027 0
578 -267 -23 -32 -1028 0
580 -269 -26 -32 -1029 0
582 -271 -29 -32 -1030 0
584 -273 -32 -32 -1031 0
586 -275 -35 -32 -1032 0
588 -277 -2 -35 -1033 0
591 -279 -5 -35 -1034 0
593 -281 -8 -35 -1035 0
595 -283 -11 -35 -1036 0
597 -285 -14 -35 -1037 0
599 -287 -17 -35 -1038 0
601 -289 -20 -35 -1039 0
603 -291 -23 -35 -1040 0
605 -293 -26 -35 -1041 0
607 -295 -29 -35 -1042 0
609 -297 -32 -35 -1043 0
611 -299 -35 -35 -1044 0
901 -301 0
902 -305 0
903 -308 0
904 -311 0
905 -314 0
906 -317 0
907 -320 0
908 -323 0
909 -326 0
910 -329 0
911 -332 0
912 -335 0
913 -338 0
914 -341 0
915 -343 0
916 -345 0
917 -347 0
918 -349 0
919 -351 0
920 -353 0
921 -355 0
922 -357 0
923 -359 0
924 -361 0
925 -363 0
926 -366 0
927 -368 0
928 -370 0
929 -372 0
930 -374 0
931 -376 0
932 -378 0
933 -380 0
934 -382 0
935 -384 0
936 -386 0
937 -388 0
938 -391 0
939 -393 0
940 -395 0
941 -397 0
942 -399 0
943 -401 0
944 -403 0
945 -405 0
946 -407 0
947 -409 0
948 -411 0
949 -413 0
950 -416 0
951 -418 0
952 -420 0
953 -422 0
954 -424 0
955 -426 0
956 -428 0
957 -430 0
958 -432 0
959 -434 0
960 -436 0
961 -438 0
962 -441 0
963 -443 0
964 -445 0
965 -447 0
966 -449 0
967 -451 0
968 -453 0
969 -455 0
970 -457 0
971 -459 0
972 -461 0
973 -463 0
974 -466 0
975 -468 0
976 -470 0
977 -472 0
978 -474 0
979 -476 0
980 -478 0
981 -480 0
982 -482 0
983 -484 0
984 -486 0
985 -488 0
986 -491 0
987 -493 0
988 -495 0
989 -497 0
990 -499 0
991 -501 0
992 -503 0
993 -505 0
994 -507 0
995 -509 0
996 -511 0
997 -513 0
998 -516 0
999 -518 0
1000 -520 0
1001 -522 0
1002 -524 0
1003 -526 0
1004 -528 0
1005 -530 0
1006 -532 0
1007 -534 0
1008 -536 0
1009 -538 0
1010 -541 0
1011 -543 0
1012 -545 0
1013 -547 0
1014 -549 0
1015 -551 0
1016 -553 0
1017 -555 0
1018 -557 0
1019 -559 0
1020 -561 0
1021 -563 0
1022 -566 0
1023 -568 0
1024 -570 0
1025 -572 0
1026 -574 0
1027 -576 0
1028 -578 0
1029 -580 0
1030 -582 0
1031 -584 0
1032 -586 0
1033 -588 0
1034 -591 0
1035 -593 0
1036 -595 0
1037 -597 0
1038 -599 0
1039 -601 0
1040 -603 0
1041 -605 0
1042 -607 0
1043 -609 0
1044 -611 0
901 1 0
902 4 0
903 7 0
904 10 0
905 13 0
906 16 0
907 19 0
908 22 0
909 25 0
910 28 0
911 31 0
912 34 0
913 37 0
914 39 0
915 41 0
916 43 0
917 45 0
918 47 0
919 49 0
920 51 0
921 53 0
922 55 0
923 57 0
924 59 0
925 61 0
926 63 0
927 65 0
928 67 0
929 69 0
930 71 0
931 73 0
932 75 0
933 77 0
934 79 0
935 81 0
936 83 0
937 85 0
938 87 0
939 89 0
940 91 0
941 93 0
942 95 0
943 97 0
944 99 0
945 101 0
946 103 0
947 105 0
948 107 0
949 109 0
950 111 0
951 113 0
952 115 0
953 117 0
954 119 0
955 121 0
956 123 0
957 125 0
958 127 0
959 129 0
960 131 0
961 133 0
962 135 0
963 137 0
964 139 0
965 141 0
966 143 0
967 145 0
968 147 0
969 149 0
970 151 0
971 153 0
972 155 0
973 157 0
974 159 0
975 161 0
976 163 0
977 165 0
978 167 0
979 169 0
980 171 0
981 173 0
982 175 0
983 177 0
984 179 0
985 181 0
986 183 0
987 185 0
988 187 0
989 189 0
990 191 0
991 193 0
992 195 0
993 197 0
994 199 0
995 201 0
996 203 0
997 205 0
998 207 0
999 209 0
1000 211 0
1001 213 0
1002 215 0
1003 217 0
1004 219 0
1005 221 0
1006 223 0
1007 225 0
1008 227 0
1009 229 0
1010 231 0
1011 233 0
1012 235 0
1013 237 0
1014 239 0
1015 241 0
1016 243 0
1017 245 0
1018 247 0
1019 249 0
1020 251 0
1021 253 0
1022 255 0
1023 257 0
1024 259 0
1025 261 0
1026 263 0
1027 265 0
1028 267 0
1029 269 0
1030 271 0
1031 273 0
1032 275 0
1033 277 0
1034 279 0
1035 281 0
1036 283 0
1037 285 0
1038 287 0
1039 289 0
1040 291 0
1041 293 0
1042 295 0
1043 297 0
1044 299 0
901 2 0
902 5 0
903 8 0
904 11 0
905 14 0
906 17 0
907 20 0
908 23 0
909 26 0
910 29 0
911 32 0
912 35 0
913 2 0
914 5 0
915 8 0
916 11 0
917 14 0
918 17 0
919 20 0
920 23 0
921 26 0
922 29 0
923 32 0
924 35 0
925 2 0
926 5 0
927 8 0
928 11 0
929 14 0
930 17 0
931 20 0
932 23 0
933 26 0
934 29 0
935 32 0
936 35 0
937 2 0
938 5 0
939 8 0
940 11 0
941 14 0
942 17 0
943 20 0
944 23 0
945 26 0
946 29 0
947 32 0
948 35 0
949 2 0
950 5 0
951 8 0
952 11 0
953 14 0
954 17 0
955 20 0
956 23 0
957 26 0
958 29 0
959 32 0
960 35 0
961 2 0
962 5 0
963 8 0
964 11 0
965 14 0
966 17 0
967 20 0
968 23 0
969 26 0
970 29 0
971 32 0
972 35 0
973 2 0
974 5 0
975 8 0
976 11 0
977 14 0
978 17 0
979 20 0
980 23 0
981 26 0
982 29 0
983 32 0
984 35 0
985 2 0
986 5 0
987 8 0
988 11 0
989 14 0
990 17 0
991 20 0
992 23 0
993 26 0
994 29 0
995 32 0
996 35 0
997 2 0
998 5 0
999 8 0
1000 11 0
1001 14 0
1002 17 0
1003 20 0
1004 23 0
1005 26 0
1006 29 0
1007 32 0
1008 35 0
1009 2 0
1010 5 0
1011 8 0
1012 11 0
1013 14 0
1014 17 0
1015 20 0
1016 23 0
1017 26 0
1018 29 0
1019 32 0
1020 35 0
1021 2 0
1022 5 0
1023 8 0
1024 11 0
1025 14 0
1026 17 0
1027 20 0
1028 23 0
1029 26 0
1030 29 0
1031 32 0
1032 35 0
1033 2 0
1034 5 0
1035 8 0
1036 11 0
1037 14 0
1038 17 0
1039 20 0
1040 23 0
1041 26 0
1042 29 0
1043 32 0
1044 35 0
901 2 0
902 2 0
903 2 0
904 2 0
905 2 0
906 2 0
907 2 0
908 2 0
909 2 0
910 2 0
911 2 0
912 2 0
913 5 0
914 5 0
915 5 0
916 5 0
917 5 0
918 5 0
919 5 0
920 5 0
921 5 0
922 5 0
923 5 0
924 5 0
925 8 0
926 8 0
927 8 0
928 8 0
929 8 0
930 8 0
931 8 0
932 8 0
933 8 0
934 8 0
935 8 0
936 8 0
937 11 0
938 11 0
939 11 0
940 11 0
941 11 0
942 11 0
943 11 0
944 11 0
945 11 0
946 11 0
947 11 0
948 11 0
949 14 0
950 14 0
951 14 0
952 14 0
953 14 0
954 14 0
955 14 0
956 14 0
957 14 0
958 14 0
959 14 0
960 14 0
961 17 0
962 17 0
963 17 0
964 17 0
965 17 0
966 17 0
967 17 0
968 17 0
969 17 0
970 17 0
971 17 0
972 17 0
973 20 0
974 20 0
975 20 0
976 20 0
977 20 0
978 20 0
979 20 0
980 20 0
981 20 0
982 20 0
983 20 0
984 20 0
985 23 0
986 23 0
987 23 0
988 23 0
989 23 0
990 23 0
991 23 0
992 23 0
993 23 0
994 23 0
995 23 0
996 23 0
997 26 0
998 26 0
999 26 0
1000 26 0
1001 26 0
1002 26 0
1003 26 0
1004 26 0
1005 26 0
1006 26 0
1007 26 0
1008 26 0
1009 29 0
1010 29 0
1011 29 0
1012 29 0
1013 29 0
1014 29 0
1015 29 0
1016 29 0
1017 29 0
1018 29 0
1019 29 0
1020 29 0
1021 32 0
1022 32 0
1023 32 0
1024 32 0
1025 32 0
1026 32 0
1027 32 0
1028 32 0
1029 32 0
1030 32 0
1031 32 0
1032 32 0
1033 35 0
1034 35 0
1035 35 0
1036 35 0
1037 35 0
1038 35 0
1039 35 0
1040 35 0
1041 35 0
1042 35 0
1043 35 0
1044 35 0
-3 -304 -757 -901 1045 0
-6 -307 -758 -902 1046 0
-9 -310 -759 -903 1047 0
-12 -313 -760 -904 1048 0
-15 -316 -761 -905 1049 0
-18 -319 -762 -906 1050 0
-21 -322 -763 -907 1051 0
-24 -325 -764 -908 1052 0
-27 -328 -765 -909 1053 0
-30 -331 -766 -910 1054 0
-33 -334 -767 -911 1055 0
-36 -337 -768 -912 1056 0
-38 -340 -769 -913 1057 0
-40 -342 -770 -914 1058 0
-42 -344 -771 -915 1059 0
-44 -346 -772 -916 1060 0
-46 -348 -773 -917 1061 0
-48 -350 -774 -918 1062 0
-50 -352 -775 -919 1063 0
-52 -354 -776 -920 1064 0
-54 -356 -777 -921 1065 0
-56 -358 -778 -922 1066 0
-58 -360 -779 -923 1067 0
-60 -362 -780 -924 1068 0
-62 -365 -781 -925 1069 0
-64 -367 -782 -926 1070 0
-66 -369 -783 -927 1071 0
-68 -371 -784 -928 1072 0
-70 -373 -785 -929 1073 0
-72 -375 -786 -930 1074 0
-74 -377 -787 -931 1075 0
-76 -379 -788 -932 1076 0
-78 -381 -789 -933 1077 0
-80 -383 -790 -934 1078 0
-82 -385 -791 -935 1079 0
-84 -387 -792 -936 1080 0
-86 -390 -793 -937 1081 0
-88 -392 -794 -938 1082 0
-90 -394 -795 -939 1083 0
-92 -396 -796 -940 1084 0
-94 -398 -797 -941 1085 0
-96 -400 -798 -942 1086 0
-98 -402 -799 -943 1087 0
-100 -404 -800 -944 1088 0
-102 -406 -801 -945 1089 0
-104 -408 -802 -946 1090 0
-106 -410 -803 -947 1091 0
-108 -412 -804 -948 1092 0
-110 -415 -805 -949 1093 0
-112 -417 -806 -950 1094 0
-114 -419 -807 -951 1095 0
-116 -421 -808 -952 1096 0
-118 -423 -809 -953 1097 0
-120 -425 -810 -954 1098 0
-122 -427 -811 -955 1099 0
-124 -429 -812 -956 1100 0
-126 -431 -813 -957 1101 0
-128 -433 -814 -958 1102 0
-130 -435 -815 -959 1103 0
-132 -437 -816 -960 1104 0
-134 -440 -817 -961 1105 0
-136 -442 -818 -962 1106 0
-138 -444 -819 -963 1107 0
-140 -446 -820 -964 1108 0
-142 -448 -821 -965 1109 0
-144 -450 -822 -966 1110 0
-146 -452 -823 -967 1111 0
-148 -454 -824 -968 1112 0
-150 -456 -825 -969 1113 0
-152 -458 -826 -970 1114 0
-154 -460 -827 -971 1115 0
-156 -462 -828 -972 1116 0
-158 -465 -829 -973 1117 0
-160 -467 -830 -974 1118 0
-162 -469 -831 -975 1119 0
-164 -471 -832 -976 1120 0
-166 -473 -833 -977 1121 0
-168 -475 -834 -978 1122 0
-170 -477 -835 -979 1123 0
-172 -479 -836 -980 1124 0
-174 -481 -837 -981 1125 0
-176 -483 -838 -982 1126 0
-178 -485 -839 -983 1127 0
-180 -487 -840 -984 1128 0
-182 -490 -841 -985 1129 0
-184 -492 -842 -986 1130 0
-186 -494 -843 -987 1131 0
-188 -496 -844 -988 1132 0
-190 -498 -845 -989 1133 0
-192 -500 -846 -990 1134 0
-194 -502 -847 -991 1135 0
-196 -504 -848 -992 1136 0
-198 -506 -849 -993 1137 0
-200 -508 -850 -994 1138 0
-202 -510 -851 -995 1139 0
-204 -512 -852 -996 1140 0
-206 -515 -853 -997 1141 0
-208 -517 -854 -998 1142 0
-210 -519 -855 -999 1143 0
-212 -521 -856 -1000 1144 0
-214 -523 -857 -1001 1145 0
-216 -525 -858 -1002 1146 0
-218 -527 -859 -1003 1147 0
-220 -529 -860 -1004 1148 0
-222 -531 -861 -1005 1149 0
-224 -533 -862 -1006 1150 0
-226 -535 -863 -1007 1151 0
-228 -537 -864 -1008 1152 0
-230 -540 -865 -1009 1153 0
-232 -542 -866 -1010 1154 0
-234 -544 -867 -1011 1155 0
-236 -546 -868 -1012 1156 0
-238 -548 -869 -1013 1157 0
-240 -550 -870 -1014 1158 0
-242 -552 -871 -1015 1159 0
-244 -554 -872 -1016 1160 0
-246 -556 -873 -1017 1161 0
-248 -558 -874 -1018 1162 0
-250 -560 -875 -1019 1163 0
-252 -562 -876 -1020 1164 0
-254 -565 -877 -1021 1165 0
-256 -567 -878 -1022 1166 0
-258 -569 -879 -1023 1167 0
-260 -571 -880 -1024 1168 0
-262 -573 -881 -1025 1169 0
-264 -575 -882 -1026 1170 0
-266 -577 -883 -1027 1171 0
-268 -579 -884 -1028 1172 0
-270 -581 -885 -1029 1173 0
-272 -583 -886 -1030 1174 0
-274 -585 -887 -1031 1175 0
-276 -587 -888 -1032 1176 0
-278 -590 -889 -1033 1177 0
-280 -592 -890 -1034 1178 0
-282 -594 -891 -1035 1179 0
-284 -596 -892 -1036 1180 0
-286 -598 -893 -1037 1181 0
-288 -600 -894 -1038 1182 0
-290 -602 -895 -1039 1183 0
-292 -604 -896 -1040 1184 0
-294 -606 -897 -1041 1185 0
-296 -608 -898 -1042 1186 0
-298 -610 -899 -1043 1187 0
-300 -612 -900 -1044 1188 0
-1045 3 0
-1046 6 0
-1047 9 0
-1048 12 0
-1049 15 0
-1050 18 0
-1051 21 0
-1052 24 0
-1053 27 0
-1054 30 0
-1055 33 0
-1056 36 0
-1057 38 0
-1058 40 0
-1059 42 0
-1060 44 0
-1061 46 0
-1062 48 0
-1063 50 0
-1064 52 0
-1065 54 0
-1066 56 0
-1067 58 0
-1068 60 0
-1069 62 0
-1070 64 0
-1071 66 0
-1072 68 0
-1073 70 0
-1074 72 0
-1075 74 0
-1076 76 0
-1077 78 0
-1078 80 0
-1079 82 0
-1080 84 0
-1081 86 0
-1082 88 0
-1083 90 0
-1084 92 0
-1085 94 0
-1086 96 0
-1087 98 0
-1088 100 0
-1089 102 0
-1090 104 0
-1091 106 0
-1092 108 0
-1093 110 0
-1094 112 0
-1095 114 0
-1096 116 0
-1097 118 0
-1098 120 0
-1099 122 0
-1100 124 0
-1101 126 0
-1102 128 0
-1103 130 0
-1104 132 0
-1105 134 0
-1106 136 0
-1107 138 0
-1108 140 0
-1109 142 0
-1110 144 0
-1111 146 0
-1112 148 0
-1113 150 0
-1114 152 0
-1115 154 0
-1116 156 0
-1117 158 0
-1118 160 0
-1119 162 0
-1120 164 0
-1121 166 0
-1122 168 0
-1123 170 0
-1124 172 0
-1125 174 0
-1126 176 0
-1127 178 0
-1128 180 0
-1129 182 0
-1130 184 0
-1131 186 0
-1132 188 0
-1133 190 0
-1134 192 0
-1135 194 0
-1136 196 0
-1137 198 0
-1138 200 0
-1139 202 0
-1140 204 0
-1141 206 0
-1142 208 0
-1143 210 0
-1144 212 0
-1145 214 0
-1146 216 0
-1147 218 0
-1148 220 0
-1149 222 0
-1150 224 0
-1151 226 0
-1152 228 0
-1153 230 0
-1154 232 0
-1155 234 0
-1156 236 0
-1157 238 0
-1158 240 0
-1159 242 0
-1160 244 0
-1161 246 0
-1162 248 0
-1163 250 0
-1164 252 0
-1165 254 0
-1166 256 0
-1167 258 0
-1168 260 0
-1169 262 0
-1170 264 0
-1171 266 0
-1172 268 0
-1173 270 0
-1174 272 0
-1175 274 0
-1176 276 0
-1177 278 0
-1178 280 0
-1179 282 0
-1180 284 0
-1181 286 0
-1182 288 0
-1183 290 0
-1184 292 0
-1185 294 0
-1186 296 0
-1187 298 0
-1188 300 0
-1045 304 0
-1046 307 0
-1047 310 0
-1048 313 0
-1049 316 0
-1050 319 0
-1051 322 0
-1052 325 0
-1053 328 0
-1054 331 0
-1055 334 0
-1056 337 0
-1057 340 0
-1058 342 0
-1059 344 0
-1060 346 0
-1061 348 0
-1062 350 0
-1063 352 0
-1064 354 0
-1065 356 0
-1066 358 0
-1067 360 0
-1068 362 0
-1069 365 0
-1070 367 0
-1071 369 0
-1072 371 0
-1073 373 0
-1074 375 0
-1075 377 0
-1076 379 0
-1077 381 0
-1078 383 0
-1079 385 0
-1080 387 0
-1081 390 0
-1082 392 0
-1083 394 0
-1084 396 0
-1085 398 0
-1086 400 0
-1087 402 0
-1088 404 0
-1089 406 0
-1090 408 0
-1091 410 0
-1092 412 0
-1093 415 0
-1094 417 0
-1095 419 0
-1096 421 0
-1097 423 0
-1098 425 0
-1099 427 0
-1100 429 0
-1101 431 0
-1102 433 0
-1103 435 0
-1104 437 0
-1105 440 0
-1106 442 0
-1107 444 0
-1108 446 0
-1109 448 0
-1110 450 0
-1111 452 0
-1112 454 0
-1113 456 0
-1114 458 0
-1115 460 0
-1116 462 0
-1117 465 0
-1118 467 0
-1119 469 0
-1120 471 0
-1121 473 0
-1122 475 0
-1123 477 0
-1124 479 0
-1125 481 0
-1126 483 0
-1127 485 0
-1128 487 0
-1129 490 0
-1130 492 0
-1131 494 0
-1132 496 0
-1133 498 0
-1134 500 0
-1135 502 0
-1136 504 0
-1137 506 0
-1138 508 0
-1139 510 0
-1140 512 0
-1141 515 0
-1142 517 0
-1143 519 0
-1144 521 0
-1145 523 0
-1146 525 0
-1147 527 0
-1148 529 0
-1149 531 0
-1150 533 0
-1151 535 0
-1152 537 0
-1153 540 0
-1154 542 0
-1155 544 0
-1156 546 0
-1157 548 0
-1158 550 0
-1159 552 0
-1160 554 0
-1161 556 0
-1162 558 0
-1163 560 0
-1164 562 0
-1165 565 0
-1166 567 0
-1167 569 0
-1168 571 0
-1169 573 0
-1170 575 0
-1171 577 0
-1172 579 0
-1173 581 0
-1174 583 0
-1175 585 0
-1176 587 0
-1177 590 0
-1178 592 0
-1179 594 0
-1180 596 0
-1181 598 0
-1182 600 0
-1183 602 0
-1184 604 0
-1185 606 0
-1186 608 0
-1187 610 0
-1188 612 0
-1045 757 0
-1046 758 0
-1047 759 0
-1048 760 0
-1049 761 0
-1050 762 0
-1051 763 0
-1052 764 0
-1053 765 0
-1054 766 0
-1055 767 0
-1056 768 0
-1057 769 0
-1058 770 0
-1059 771 0
-1060 772 0
-1061 773 0
-1062 774 0
-1063 775 0
-1064 776 0
-1065 777 0
-1066 778 0
-1067 779 0
-1068 780 0
-1069 781 0
-1070 782 0
-1071 783 0
-1072 784 0
-1073 785 0
-1074 786 0
-1075 787 0
-1076 788 0
-1077 789 0
-1078 790 0
-1079 791 0
-1080 792 0
-1081 793 0
-1082 794 0
-1083 795 0
-1084 796 0
-1085 797 0
-1086 798 0
-1087 799 0
-1088 800 0
-1089 801 0
-1090 802 0
-1091 803 0
-1092 804 0
-1093 805 0
-1094 806 0
-1095 807 0
-1096 808 0
-1097 809 0
-1098 810 0
-1099 811 0
-1100 812 0
-1101 813 0
-1102 814 0
-1103 815 0
-1104 816 0
-1105 817 0
-1106 818 0
-1107 819 0
-1108 820 0
-1109 821 0
-1110 822 0
-1111 823 0
-1112 824 0
-1113 825 0
-1114 826 0
-1115 827 0
-1116 828 0
-1117 829 0
-1118 830 0
-1119 831 0
-1120 832 0
-1121 833 0
-1122 834 0
-1123 835 0
-1124 836 0
-1125 837 0
-1126 838 0
-1127 839 0
-1128 840 0
-1129 841 0
-1130 842 0
-1131 843 0
-1132 844 0
-1133 845 0
-1134 846 0
-1135 847 0
-1136 848 0
-1137 849 0
-1138 850 0
-1139 851 0
-1140 852 0
-1141 853 0
-1142 854 0
-1143 855 0
-1144 856 0
-1145 857 0
-1146 858 0
-1147 859 0
-1148 860 0
-1149 861 0
-1150 862 0
-1151 863 0
-1152 864 0
-1153 865 0
-1154 866 0
-1155 867 0
-1156 868 0
-1157 869 0
-1158 870 0
-1159 871 0
-1160 872 0
-1161 873 0
-1162 874 0
-1163 875 0
-1164 876 0
-1165 877 0
-1166 878 0
-1167 879 0
-1168 880 0
-1169 881 0
-1170 882 0
-1171 883 0
-1172 884 0
-1173 885 0
-1174 886 0
-1175 887 0
-1176 888 0
-1177 889 0
-1178 890 0
-1179 891 0
-1180 892 0
-1181 893 0
-1182 894 0
-1183 895 0
-1184 896 0
-1185 897 0
-1186 898 0
-1187 899 0
-1188 900 0
-1045 901 0
-1046 902 0
-1047 903 0
-1048 904 0
-1049 905 0
-1050 906 0
-1051 907 0
-1052 908 0
-1053 909 0
-1054 910 0
-1055 911 0
-1056 912 0
-1057 913 0
-1058 914 0
-1059 915 0
-1060 916 0
-1061 917 0
-1062 918 0
-1063 919 0
-1064 920 0
-1065 921 0
-1066 922 0
-1067 923 0
-1068 924 0
-1069 925 0
-1070 926 0
-1071 927 0
-1072 928 0
-1073 929 0
-1074 930 0
-1075 931 0
-1076 932 0
-1077 933 0
-1078 934 0
-1079 935 0
-1080 936 0
-1081 937 0
-1082 938 0
-1083 939 0
-1084 940 0
-1085 941 0
-1086 942 0
-1087 943 0
-1088 944 0
-1089 945 0
-1090 946 0
-1091 947 0
-1092 948 0
-1093 949 0
-1094 950 0
-1095 951 0
-1096 952 0
-1097 953 0
-1098 954 0
-1099 955 0
-1100 956 0
-1101 957 0
-1102 958 0
-1103 959 0
-1104 960 0
-1105 961 0
-1106 962 0
-1107 963 0
-1108 964 0
-1109 965 0
-1110 966 0
-1111 967 0
-1112 968 0
-1113 969 0
-1114 970 0
-1115 971 0
-1116 972 0
-1117 973 0
-1118 974 0
-1119 975 0
-1120 976 0
-1121 977 0
-1122 978 0
-1123 979 0
-1124 980 0
-1125 981 0
-1126 982 0
-1127 983 0
-1128 984 0
-1129 985 0
-1130 986 0
-1131 987 0
-1132 988 0
-1133 989 0
-1134 990 0
-1135 991 0
-1136 992 0
-1137 993 0
-1138 994 0
-1139 995 0
-1140 996 0
-1141 997 0
-1142 998 0
-1143 999 0
-1144 1000 0
-1145 1001 0
-1146 1002 0
-1147 1003 0
-1148 1004 0
-1149 1005 0
-1150 1006 0
-1151 1007 0
-1152 1008 0
-1153 1009 0
-1154 1010 0
-1155 1011 0
-1156 1012 0
-1157 1013 0
-1158 1014 0
-1159 1015 0
-1160 1016 0
-1161 1017 0
-1162 1018 0
-1163 1019 0
-1164 1020 0
-1165 1021 0
-1166 1022 0
-1167 1023 0
-1168 1024 0
-1169 1025 0
-1170 1026 0
-1171 1027 0
-1172 1028 0
-1173 1029 0
-1174 1030 0
-1175 1031 0
-1176 1032 0
-1177 1033 0
-1178 1034 0
-1179 1035 0
-1180 1036 0
-1181 1037 0
-1182 1038 0
-1183 1039 0
-1184 1040 0
-1185 1041 0
-1186 1042 0
-1187 1043 0
-1188 1044 0
1045 0
1046 0
1047 0
1048 0
1049 0
1050 0
1051 0
1052 0
1053 0
1054 0
1055 0
1056 0
1057 0
1058 0
1059 0
1060 0
1061 0
1062 0
1063 0
1064 0
1065 0
1066 0
1067 0
1068 0
1069 0
1070 0
1071 0
1072 0
1073 0
1074 0
1075 0
1076 0
1077 0
1078 0
1079 0
1080 0
1081 0
1082 0
1083 0
1084 0
1085 0
1086 0
1087 0
1088 0
1089 0
1090 0
1091 0
1092 0
1093 0
1094 0
1095 0
1096 0
1097 0
1098 0
1099 0
1100 0
1101 0
1102 0
1103 0
1104 0
1105 0
1106 0
1107 0
1108 0
1109 0
1110 0
1111 0
1112 0
1113 0
1114 0
1115 0
1116 0
1117 0
1118 0
1119 0
1120 0
1121 0
1122 0
1123 0
1124 0
1125 0
1126 0
1127 0
1128 0
1129 0
1130 0
1131 0
1132 0
1133 0
1134 0
1135 0
1136 0
1137 0
1138 0
1139 0
1140 0
1141 0
1142 0
1143 0
1144 0
1145 0
1146 0
1147 0
1148 0
1149 0
1150 0
1151 0
1152 0
1153 0
1154 0
1155 0
1156 0
1157 0
1158 0
1159 0
1160 0
1161 0
1162 0
1163 0
1164 0
1165 0
1166 0
1167 0
1168 0
1169 0
1170 0
1171 0
1172 0
1173 0
1174 0
1175 0
1176 0
1177 0
1178 0
1179 0
1180 0
1181 0
1182 0
1183 0
1184 0
1185 0
1186 0
1187 0
1188 0
8 0
2 0
-564 0
17 0
35 0
-336 0
-389 0
-318 0
-464 0
-514 0
-321 0
-539 0
-489 0
-327 0
-414 0
-333 0
339 0
26 0
32 0
11 0
-312 0
-324 0
20 0
14 0
-315 0
-364 0
29 0
-589 0
23 0
5 0
-330 0
302 0
-303 0
-439 0
-309 0
-306 0
1 0
37 4 0
-37 -4 0
-37 -63 61 0
-37 -87 85 0
-37 -111 109 0
-37 -135 133 0
-37 -159 157 0
-37 -183 181 0
-37 -207 205 0
-37 -231 229 0
-37 -255 253 0
-37 -279 277 0
61 7 0
-61 -7 0
-61 -41 37 0
-61 -89 85 0
-61 -113 109 0
-61 -137 133 0
-61 -161 157 0
-61 -185 181 0
-61 -209 205 0
-61 -233 229 0
-61 -257 253 0
-61 -281 277 0
85 10 0
-85 -10 0
-85 -43 37 0
-85 -67 61 0
-85 -115 109 0
-85 -139 133 0
-85 -163 157 0
-85 -187 181 0
-85 -211 205 0
-85 -235 229 0
-85 -259 253 0
-85 -283 277 0
109 13 0
-109 -13 0
-109 -45 37 0
-109 -69 61 0
-109 -93 85 0
-109 -141 133 0
-109 -165 157 0
-109 -189 181 0
-109 -213 205 0
-109 -237 229 0
-109 -261 253 0
-109 -285 277 0
133 16 0
-133 -16 0
-133 -47 37 0
-133 -71 61 0
-133 -95 85 0
-133 -119 109 0
-133 -167 157 0
-133 -191 181 0
-133 -215 205 0
-133 -239 229 0
-133 -263 253 0
-133 -287 277 0
157 19 0
-157 -19 0
-157 -49 37 0
-157 -73 61 0
-157 -97 85 0
-157 -121 109 0
-157 -145 133 0
-157 -193 181 0
-157 -217 205 0
-157 -241 229 0
-157 -265 253 0
-157 -289 277 0
181 22 0
-181 -22 0
-181 -51 37 0
-181 -75 61 0
-181 -99 85 0
-181 -123 109 0
-181 -147 133 0
-181 -171 157 0
-181 -219 205 0
-181 -243 229 0
-181 -267 253 0
-181 -291 277 0
205 25 0
-205 -25 0
-205 -53 37 0
-205 -77 61 0
-205 -101 85 0
-205 -125 109 0
-205 -149 133 0
-205 -173 157 0
-205 -197 181 0
-205 -245 229 0
-205 -269 253 0
-205 -293 277 0
229 28 0
-229 -28 0
-229 -55 37 0
-229 -79 61 0
-229 -103 85 0
-229 -127 109 0
-229 -151 133 0
-229 -175 157 0
-229 -199 181 0
-229 -223 205 0
-229 -271 253 0
-229 -295 277 0
253 31 0
-253 -31 0
-253 -57 37 0
-253 -81 61 0
-253 -105 85 0
-253 -129 109 0
-253 -153 133 0
-253 -177 157 0
-253 -201 181 0
-253 -225 205 0
-253 -249 229 0
-253 -297 277 0
277 34 0
-277 -34 0
-277 -59 37 0
-277 -83 61 0
-277 -107 85 0
-277 -131 109 0
-277 -155 133 0
-277 -179 157 0
-277 -203 181 0
-277 -227 205 0
-277 -251 229 0
-277 -275 253 0
39 0
4 37 0
-4 -37 0
-4 -61 63 0
-4 -85 87 0
-4 -109 111 0
-4 -133 135 0
-4 -157 159 0
-4 -181 183 0
-4 -205 207 0
-4 -229 231 0
-4 -253 255 0
-4 -277 279 0
63 41 0
-63 -41 0
-63 -7 4 0
-63 -89 87 0
-63 -113 111 0
-63 -137 135 0
-63 -161 159 0
-63 -185 183 0
-63 -209 207 0
-63 -233 231 0
-63 -257 255 0
-63 -281 279 0
87 43 0
-87 -43 0
-87 -10 4 0
-87 -67 63 0
-87 -115 111 0
-87 -139 135 0
-87 -163 159 0
-87 -187 183 0
-87 -211 207 0
-87 -235 231 0
-87 -259 255 0
-87 -283 279 0
111 45 0
-111 -45 0
-111 -13 4 0
-111 -69 63 0
-111 -93 87 0
-111 -141 135 0
-111 -165 159 0
-111 -189 183 0
-111 -213 207 0
-111 -237 231 0
-111 -261 255 0
-111 -285 279 0
135 47 0
-135 -47 0
-135 -16 4 0
-135 -71 63 0
-135 -95 87 0
-135 -119 111 0
-135 -167 159 0
-135 -191 183 0
-135 -215 207 0
-135 -239 231 0
-135 -263 255 0
-135 -287 279 0
159 49 0
-159 -49 0
-159 -19 4 0
-159 -73 63 0
-159 -97 87 0
-159 -121 111 0
-159 -145 135 0
-159 -193 183 0
-159 -217 207 0
-159 -241 231 0
-159 -265 255 0
-159 -289 279 0
183 51 0
-183 -51 0
-183 -22 4 0
-183 -75 63 0
-183 -99 87 0
-183 -123 111 0
-183 -147 135 0
-183 -171 159 0
-183 -219 207 0
-183 -243 231 0
-183 -267 255 0
-183 -291 279 0
207 53 0
-207 -53 0
-207 -25 4 0
-207 -77 63 0
-207 -101 87 0
-207 -125 111 0
-207 -149 135 0
-207 -173 159 0
-207 -197 183 0
-207 -245 231 0
-207 -269 255 0
-207 -293 279 0
231 55 0
-231 -55 0
-231 -28 4 0
-231 -79 63 0
-231 -103 87 0
-231 -127 111 0
-231 -151 135 0
-231 -175 159 0
-231 -199 183 0
-231 -223 207 0
-231 -271 255 0
-231 -295 279 0
255 57 0
-255 -57 0
-255 -31 4 0
-255 -81 63 0
-255 -105 87 0
-255 -129 111 0
-255 -153 135 0
-255 -177 159 0
-255 -201 183 0
-255 -225 207 0
-255 -249 231 0
-255 -297 279 0
279 59 0
-279 -59 0
-279 -34 4 0
-279 -83 63 0
-279 -107 87 0
-279 -131 111 0
-279 -155 135 0
-279 -179 159 0
-279 -203 183 0
-279 -227 207 0
-279 -251 231 0
-279 -275 255 0
65 0
7 61 0
-7 -61 0
-7 -37 41 0
-7 -85 89 0
-7 -109 113 0
-7 -133 137 0
-7 -157 161 0
-7 -181 185 0
-7 -205 209 0
-7 -229 233 0
-7 -253 257 0
-7 -277 281 0
41 63 0
-41 -63 0
-41 -4 7 0
-41 -87 89 0
-41 -111 113 0
-41 -135 137 0
-41 -159 161 0
-41 -183 185 0
-41 -207 209 0
-41 -231 233 0
-41 -255 257 0
-41 -279 281 0
89 67 0
-89 -67 0
-89 -10 7 0
-89 -43 41 0
-89 -115 113 0
-89 -139 137 0
-89 -163 161 0
-89 -187 185 0
-89 -211 209 0
-89 -235 233 0
-89 -259 257 0
-89 -283 281 0
113 69 0
-113 -69 0
-113 -13 7 0
-113 -45 41 0
-113 -93 89 0
-113 -141 137 0
-113 -165 161 0
-113 -189 185 0
-113 -213 209 0
-113 -237 233 0
-113 -261 257 0
-113 -285 281 0
137 71 0
-137 -71 0
-137 -16 7 0
-137 -47 41 0
-137 -95 89 0
-137 -119 113 0
-137 -167 161 0
-137 -191 185 0
-137 -215 209 0
-137 -239 233 0
-137 -263 257 0
-137 -287 281 0
161 73 0
-161 -73 0
-161 -19 7 0
-161 -49 41 0
-161 -97 89 0
-161 -121 113 0
-161 -145 137 0
-161 -193 185 0
-161 -217 209 0
-161 -241 233 0
-161 -265 257 0
-161 -289 281 0
185 75 0
-185 -75 0
-185 -22 7 0
-185 -51 41 0
-185 -99 89 0
-185 -123 113 0
-185 -147 137 0
-185 -171 161 0
-185 -219 209 0
-185 -243 233 0
-185 -267 257 0
-185 -291 281 0
209 77 0
-209 -77 0
-209 -25 7 0
-209 -53 41 0
-209 -101 89 0
-209 -125 113 0
-209 -149 137 0
-209 -173 161 0
-209 -197 185 0
-209 -245 233 0
-209 -269 257 0
-209 -293 281 0
233 79 0
-233 -79 0
-233 -28 7 0
-233 -55 41 0
-233 -103 89 0
-233 -127 113 0
-233 -151 137 0
-233 -175 161 0
-233 -199 185 0
-233 -223 209 0
-233 -271 257 0
-233 -295 281 0
257 81 0
-257 -81 0
-257 -31 7 0
-257 -57 41 0
-257 -105 89 0
-257 -129 113 0
-257 -153 137 0
-257 -177 161 0
-257 -201 185 0
-257 -225 209 0
-257 -249 233 0
-257 -297 281 0
281 83 0
-281 -83 0
-281 -34 7 0
-281 -59 41 0
-281 -107 89 0
-281 -131 113 0
-281 -155 137 0
-281 -179 161 0
-281 -203 185 0
-281 -227 209 0
-281 -251 233 0
-281 -275 257 0
91 0
10 85 0
-10 -85 0
-10 -37 43 0
-10 -61 67 0
-10 -109 115 0
-10 -133 139 0
-10 -157 163 0
-10 -181 187 0
-10 -205 211 0
-10 -229 235 0
-10 -253 259 0
-10 -277 283 0
43 87 0
-43 -87 0
-43 -4 10 0
-43 -63 67 0
-43 -111 115 0
-43 -135 139 0
-43 -159 163 0
-43 -183 187 0
-43 -207 211 0
-43 -231 235 0
-43 -255 259 0
-43 -279 283 0
67 89 0
-67 -89 0
-67 -7 10 0
-67 -41 43 0
-67 -113 115 0
-67 -137 139 0
-67 -161 163 0
-67 -185 187 0
-67 -209 211 0
-67 -233 235 0
-67 -257 259 0
-67 -281 283 0
115 93 0
-115 -93 0
-115 -13 10 0
-115 -45 43 0
-115 -69 67 0
-115 -141 139 0
-115 -165 163 0
-115 -189 187 0
-115 -213 211 0
-115 -237 235 0
-115 -261 259 0
-115 -285 283 0
139 95 0
-139 -95 0
-139 -16 10 0
-139 -47 43 0
-139 -71 67 0
-139 -119 115 0
-139 -167 163 0
-139 -191 187 0
-139 -215 211 0
-139 -239 235 0
-139 -263 259 0
-139 -287 283 0
163 97 0
-163 -97 0
-163 -19 10 0
-163 -49 43 0
-163 -73 67 0
-163 -121 115 0
-163 -145 139 0
-163 -193 187 0
-163 -217 211 0
-163 -241 235 0
-163 -265 259 0
-163 -289 283 0
187 99 0
-187 -99 0
-187 -22 10 0
-187 -51 43 0
-187 -75 67 0
-187 -123 115 0
-187 -147 139 0
-187 -171 163 0
-187 -219 211 0
-187 -243 235 0
-187 -267 259 0
-187 -291 283 0
211 101 0
-211 -101 0
-211 -25 10 0
-211 -53 43 0
-211 -77 67 0
-211 -125 115 0
-211 -149 139 0
-211 -173 163 0
-211 -197 187 0
-211 -245 235 0
-211 -269 259 0
-211 -293 283 0
235 103 0
-235 -103 0
-235 -28 10 0
-235 -55 43 0
-235 -79 67 0
-235 -127 115 0
-235 -151 139 0
-235 -175 163 0
-235 -199 187 0
-235 -223 211 0
-235 -271 259 0
-235 -295 283 0
259 105 0
-259 -105 0
-259 -31 10 0
-259 -57 43 0
-259 -81 67 0
-259 -129 115 0
-259 -153 139 0
-259 -177 163 0
-259 -201 187 0
-259 -225 211 0
-259 -249 235 0
-259 -297 283 0
283 107 0
-283 -107 0
-283 -34 10 0
-283 -59 43 0
-283 -83 67 0
-283 -131 115 0
-283 -155 139 0
-283 -179 163 0
-283 -203 187 0
-283 -227 211 0
-283 -251 235 0
-283 -275 259 0
117 0
13 109 0
-13 -109 0
-13 -37 45 0
-13 -61 69 0
-13 -85 93 0
-13 -133 141 0
-13 -157 165 0
-13 -181 189 0
-13 -205 213 0
-13 -229 237 0
-13 -253 261 0
-13 -277 285 0
45 111 0
-45 -111 0
-45 -4 13 0
-45 -63 69 0
-45 -87 93 0
-45 -135 141 0
-45 -159 165 0
-45 -183 189 0
-45 -207 213 0
-45 -231 237 0
-45 -255 261 0
-45 -279 285 0
69 113 0
-69 -113 0
-69 -7 13 0
-69 -41 45 0
-69 -89 93 0
-69 -137 141 0
-69 -161 165 0
-69 -185 189 0
-69 -209 213 0
-69 -233 237 0
-69 -257 261 0
-69 -281 285 0
93 115 0
-93 -115 0
-93 -10 13 0
-93 -43 45 0
-93 -67 69 0
-93 -139 141 0
-93 -163 165 0
-93 -187 189 0
-93 -211 213 0
-93 -235 237 0
-93 -259 261 0
-93 -283 285 0
141 119 0
-141 -119 0
-141 -16 13 0
-141 -47 45 0
-141 -71 69 0
-141 -95 93 0
-141 -167 165 0
-141 -191 189 0
-141 -215 213 0
-141 -239 237 0
-141 -263 261 0
-141 -287 285 0
165 121 0
-165 -121 0
-165 -19 13 0
-165 -49 45 0
-165 -73 69 0
-165 -97 93 0
-165 -145 141 0
-165 -193 189 0
-165 -217 213 0
-165 -241 237 0
-165 -265 261 0
-165 -289 285 0
189 123 0
-189 -123 0
-189 -22 13 0
-189 -51 45 0
-189 -75 69 0
-189 -99 93 0
-189 -147 141 0
-189 -171 165 0
-189 -219 213 0
-189 -243 237 0
-189 -267 261 0
-189 -291 285 0
213 125 0
-213 -125 0
-213 -25 13 0
-213 -53 45 0
-213 -77 69 0
-213 -101 93 0
-213 -149 141 0
-213 -173 165 0
-213 -197 189 0
-213 -245 237 0
-213 -269 261 0
-213 -293 285 0
237 127 0
-237 -127 0
-237 -28 13 0
-237 -55 45 0
-237 -79 69 0
-237 -103 93 0
-237 -151 141 0
-237 -175 165 0
-237 -199 189 0
-237 -223 213 0
-237 -271 261 0
-237 -295 285 0
261 129 0
-261 -129 0
-261 -31 13 0
-261 -57 45 0
-261 -81 69 0
-261 -105 93 0
-261 -153 141 0
-261 -177 165 0
-261 -201 189 0
-261 -225 213 0
-261 -249 237 0
-261 -297 285 0
285 131 0
-285 -131 0
-285 -34 13 0
-285 -59 45 0
-285 -83 69 0
-285 -107 93 0
-285 -155 141 0
-285 -179 165 0
-285 -203 189 0
-285 -227 213 0
-285 -251 237 0
-285 -275 261 0
143 0
16 133 0
-16 -133 0
-16 -37 47 0
-16 -61 71 0
-16 -85 95 0
-16 -109 119 0
-16 -157 167 0
-16 -181 191 0
-16 -205 215 0
-16 -229 239 0
-16 -253 263 0
-16 -277 287 0
47 135 0
-47 -135 0
-47 -4 16 0
-47 -63 71 0
-47 -87 95 0
-47 -111 119 0
-47 -159 167 0
-47 -183 191 0
-47 -207 215 0
-47 -231 239 0
-47 -255 263 0
-47 -279 287 0
71 137 0
-71 -137 0
-71 -7 16 0
-71 -41 47 0
-71 -89 95 0
-71 -113 119 0
-71 -161 167 0
-71 -185 191 0
-71 -209 215 0
-71 -233 239 0
-71 -257 263 0
-71 -281 287 0
95 139 0
-95 -139 0
-95 -10 16 0
-95 -43 47 0
-95 -67 71 0
-95 -115 119 0
-95 -163 167 0
-95 -187 191 0
-95 -211 215 0
-95 -235 239 0
-95 -259 263 0
-95 -283 287 0
119 141 0
-119 -141 0
-119 -13 16 0
-119 -45 47 0
-119 -69 71 0
-119 -93 95 0
-119 -165 167 0
-119 -189 191 0
-119 -213 215 0
-119 -237 239 0
-119 -261 263 0
-119 -285 287 0
167 145 0
-167 -145 0
-167 -19 16 0
-167 -49 47 0
-167 -73 71 0
-167 -97 95 0
-167 -121 119 0
-167 -193 191 0
-167 -217 215 0
-167 -241 239 0
-167 -265 263 0
-167 -289 287 0
191 147 0
-191 -147 0
-191 -22 16 0
-191 -51 47 0
-191 -75 71 0
-191 -99 95 0
-191 -123 119 0
-191 -171 167 0
-191 -219 215 0
-191 -243 239 0
-191 -267 263 0
-191 -291 287 0
215 149 0
-215 -149 0
-215 -25 16 0
-215 -53 47 0
-215 -77 71 0
-215 -101 95 0
-215 -125 119 0
-215 -173 167 0
-215 -197 191 0
-215 -245 239 0
-215 -269 263 0
-215 -293 287 0
239 151 0
-239 -151 0
-239 -28 16 0
-239 -55 47 0
-239 -79 71 0
-239 -103 95 0
-239 -127 119 0
-239 -175 167 0
-239 -199 191 0
-239 -223 215 0
-239 -271 263 0
-239 -295 287 0
263 153 0
-263 -153 0
-263 -31 16 0
-263 -57 47 0
-263 -81 71 0
-263 -105 95 0
-263 -129 119 0
-263 -177 167 0
-263 -201 191 0
-263 -225 215 0
-263 -249 239 0
-263 -297 287 0
287 155 0
-287 -155 0
-287 -34 16 0
-287 -59 47 0
-287 -83 71 0
-287 -107 95 0
-287 -131 119 0
-287 -179 167 0
-287 -203 191 0
-287 -227 215 0
-287 -251 239 0
-287 -275 263 0
169 0
19 157 0
-19 -157 0
-19 -37 49 0
-19 -61 73 0
-19 -85 97 0
-19 -109 121 0
-19 -133 145 0
-19 -181 193 0
-19 -205 217 0
-19 -229 241 0
-19 -253 265 0
-19 -277 289 0
49 159 0
-49 -159 0
-49 -4 19 0
-49 -63 73 0
-49 -87 97 0
-49 -111 121 0
-49 -135 145 0
-49 -183 193 0
-49 -207 217 0
-49 -231 241 0
-49 -255 265 0
-49 -279 289 0
73 161 0
-73 -161 0
-73 -7 19 0
-73 -41 49 0
-73 -89 97 0
-73 -113 121 0
-73 -137 145 0
-73 -185 193 0
-73 -209 217 0
-73 -233 241 0
-73 -257 265 0
-73 -281 289 0
97 163 0
-97 -163 0
-97 -10 19 0
-97 -43 49 0
-97 -67 73 0
-97 -115 121 0
-97 -139 145 0
-97 -187 193 0
-97 -211 217 0
-97 -235 241 0
-97 -259 265 0
-97 -283 289 0
121 165 0
-121 -165 0
-121 -13 19 0
-121 -45 49 0
-121 -69 73 0
-121 -93 97 0
-121 -141 145 0
-121 -189 193 0
-121 -213 217 0
-121 -237 241 0
-121 -261 265 0
-121 -285 289 0
145 167 0
-145 -167 0
-145 -16 19 0
-145 -47 49 0
-145 -71 73 0
-145 -95 97 0
-145 -119 121 0
-145 -191 193 0
-145 -215 217 0
-145 -239 241 0
-145 -263 265 0
-145 -287 289 0
193 171 0
-193 -171 0
-193 -22 19 0
-193 -51 49 0
-193 -75 73 0
-193 -99 97 0
-193 -123 121 0
-193 -147 145 0
-193 -219 217 0
-193 -243 241 0
-193 -267 265 0
-193 -291 289 0
217 173 0
-217 -173 0
-217 -25 19 0
-217 -53 49 0
-217 -77 73 0
-217 -101 97 0
-217 -125 121 0
-217 -149 145 0
-217 -197 193 0
-217 -245 241 0
-217 -269 265 0
-217 -293 289 0
241 175 0
-241 -175 0
-241 -28 19 0
-241 -55 49 0
-241 -79 73 0
-241 -103 97 0
-241 -127 121 0
-241 -151 145 0
-241 -199 193 0
-241 -223 217 0
-241 -271 265 0
-241 -295 289 0
265 177 0
-265 -177 0
-265 -31 19 0
-265 -57 49 0
-265 -81 73 0
-265 -105 97 0
-265 -129 121 0
-265 -153 145 0
-265 -201 193 0
-265 -225 217 0
-265 -249 241 0
-265 -297 289 0
289 179 0
-289 -179 0
-289 -34 19 0
-289 -59 49 0
-289 -83 73 0
-289 -107 97 0
-289 -131 121 0
-289 -155 145 0
-289 -203 193 0
-289 -227 217 0
-289 -251 241 0
-289 -275 265 0
195 0
22 181 0
-22 -181 0
-22 -37 51 0
-22 -61 75 0
-22 -85 99 0
-22 -109 123 0
-22 -133 147 0
-22 -157 171 0
-22 -205 219 0
-22 -229 243 0
-22 -253 267 0
-22 -277 291 0
51 183 0
-51 -183 0
-51 -4 22 0
-51 -63 75 0
-51 -87 99 0
-51 -111 123 0
-51 -135 147 0
-51 -159 171 0
-51 -207 219 0
-51 -231 243 0
-51 -255 267 0
-51 -279 291 0
75 185 0
-75 -185 0
-75 -7 22 0
-75 -41 51 0
-75 -89 99 0
-75 -113 123 0
-75 -137 147 0
-75 -161 171 0
-75 -209 219 0
-75 -233 243 0
-75 -257 267 0
-75 -281 291 0
99 187 0
-99 -187 0
-99 -10 22 0
-99 -43 51 0
-99 -67 75 0
-99 -115 123 0
-99 -139 147 0
-99 -163 171 0
-99 -211 219 0
-99 -235 243 0
-99 -259 267 0
-99 -283 291 0
123 189 0
-123 -189 0
-123 -13 22 0
-123 -45 51 0
-123 -69 75 0
-123 -93 99 0
-123 -141 147 0
-123 -165 171 0
-123 -213 219 0
-123 -237 243 0
-123 -261 267 0
-123 -285 291 0
147 191 0
-147 -191 0
-147 -16 22 0
-147 -47 51 0
-147 -71 75 0
-147 -95 99 0
-147 -119 123 0
-147 -167 171 0
-147 -215 219 0
-147 -239 243 0
-147 -263 267 0
-147 -287 291 0
171 193 0
-171 -193 0
-171 -19 22 0
-171 -49 51 0
-171 -73 75 0
-171 -97 99 0
-171 -121 123 0
-171 -145 147 0
-171 -217 219 0
-171 -241 243 0
-171 -265 267 0
-171 -289 291 0
219 197 0
-219 -197 0
-219 -25 22 0
-219 -53 51 0
-219 -77 75 0
-219 -101 99 0
-219 -125 123 0
-219 -149 147 0
-219 -173 171 0
-219 -245 243 0
-219 -269 267 0
-219 -293 291 0
243 199 0
-243 -199 0
-243 -28 22 0
-243 -55 51 0
-243 -79 75 0
-243 -103 99 0
-243 -127 123 0
-243 -151 147 0
-243 -175 171 0
-243 -223 219 0
-243 -271 267 0
-243 -295 291 0
267 201 0
-267 -201 0
-267 -31 22 0
-267 -57 51 0
-267 -81 75 0
-267 -105 99 0
-267 -129 123 0
-267 -153 147 0
-267 -177 171 0
-267 -225 219 0
-267 -249 243 0
-267 -297 291 0
291 203 0
-291 -203 0
-291 -34 22 0
-291 -59 51 0
-291 -83 75 0
-291 -107 99 0
-291 -131 123 0
-291 -155 147 0
-291 -179 171 0
-291 -227 219 0
-291 -251 243 0
-291 -275 267 0
221 0
25 205 0
-25 -205 0
-25 -37 53 0
-25 -61 77 0
-25 -85 101 0
-25 -109 125 0
-25 -133 149 0
-25 -157 173 0
-25 -181 197 0
-25 -229 245 0
-25 -253 269 0
-25 -277 293 0
53 207 0
-53 -207 0
-53 -4 25 0
-53 -63 77 0
-53 -87 101 0
-53 -111 125 0
-53 -135 149 0
-53 -159 173 0
-53 -183 197 0
-53 -231 245 0
-53 -255 269 0
-53 -279 293 0
77 209 0
-77 -209 0
-77 -7 25 0
-77 -41 53 0
-77 -89 101 0
-77 -113 125 0
-77 -137 149 0
-77 -161 173 0
-77 -185 197 0
-77 -233 245 0
-77 -257 269 0
-77 -281 293 0
101 211 0
-101 -211 0
-101 -10 25 0
-101 -43 53 0
-101 -67 77 0
-101 -115 125 0
-101 -139 149 0
-101 -163 173 0
-101 -187 197 0
-101 -235 245 0
-101 -259 269 0
-101 -283 293 0
125 213 0
-125 -213 0
-125 -13 25 0
-125 -45 53 0
-125 -69 77 0
-125 -93 101 0
-125 -141 149 0
-125 -165 173 0
-125 -189 197 0
-125 -237 245 0
-125 -261 269 0
-125 -285 293 0
149 215 0
-149 -215 0
-149 -16 25 0
-149 -47 53 0
-149 -71 77 0
-149 -95 101 0
-149 -119 125 0
-149 -167 173 0
-149 -191 197 0
-149 -239 245 0
-149 -263 269 0
-149 -287 293 0
173 217 0
-173 -217 0
-173 -19 25 0
-173 -49 53 0
-173 -73 77 0
-173 -97 101 0
-173 -121 125 0
-173 -145 149 0
-173 -193 197 0
-173 -241 245 0
-173 -265 269 0
-173 -289 293 0
197 219 0
-197 -219 0
-197 -22 25 0
-197 -51 53 0
-197 -75 77 0
-197 -99 101 0
-197 -123 125 0
-197 -147 149 0
-197 -171 173 0
-197 -243 245 0
-197 -267 269 0
-197 -291 293 0
245 223 0
-245 -223 0
-245 -28 25 0
-245 -55 53 0
-245 -79 77 0
-245 -103 101 0
-245 -127 125 0
-245 -151 149 0
-245 -175 173 0
-245 -199 197 0
-245 -271 269 0
-245 -295 293 0
269 225 0
-269 -225 0
-269 -31 25 0
-269 -57 53 0
-269 -81 77 0
-269 -105 101 0
-269 -129 125 0
-269 -153 149 0
-269 -177 173 0
-269 -201 197 0
-269 -249 245 0
-269 -297 293 0
293 227 0
-293 -227 0
-293 -34 25 0
-293 -59 53 0
-293 -83 77 0
-293 -107 101 0
-293 -131 125 0
-293 -155 149 0
-293 -179 173 0
-293 -203 197 0
-293 -251 245 0
-293 -275 269 0
247 0
28 229 0
-28 -229 0
-28 -37 55 0
-28 -61 79 0
-28 -85 103 0
-28 -109 127 0
-28 -133 151 0
-28 -157 175 0
-28 -181 199 0
-28 -205 223 0
-28 -253 271 0
-28 -277 295 0
55 231 0
-55 -231 0
-55 -4 28 0
-55 -63 79 0
-55 -87 103 0
-55 -111 127 0
-55 -135 151 0
-55 -159 175 0
-55 -183 199 0
-55 -207 223 0
-55 -255 271 0
-55 -279 295 0
79 233 0
-79 -233 0
-79 -7 28 0
-79 -41 55 0
-79 -89 103 0
-79 -113 127 0
-79 -137 151 0
-79 -161 175 0
-79 -185 199 0
-79 -209 223 0
-79 -257 271 0
-79 -281 295 0
103 235 0
-103 -235 0
-103 -10 28 0
-103 -43 55 0
-103 -67 79 0
-103 -115 127 0
-103 -139 151 0
-103 -163 175 0
-103 -187 199 0
-103 -211 223 0
-103 -259 271 0
-103 -283 295 0
127 237 0
-127 -237 0
-127 -13 28 0
-127 -45 55 0
-127 -69 79 0
-127 -93 103 0
-127 -141 151 0
-127 -165 175 0
-127 -189 199 0
-127 -213 223 0
-127 -261 271 0
-127 -285 295 0
151 239 0
-151 -239 0
-151 -16 28 0
-151 -47 55 0
-151 -71 79 0
-151 -95 103 0
-151 -119 127 0
-151 -167 175 0
-151 -191 199 0
-151 -215 223 0
-151 -263 271 0
-151 -287 295 0
175 241 0
-175 -241 0
-175 -19 28 0
-175 -49 55 0
-175 -73 79 0
-175 -97 103 0
-175 -121 127 0
-175 -145 151 0
-175 -193 199 0
-175 -217 223 0
-175 -265 271 0
-175 -289 295 0
199 243 0
-199 -243 0
-199 -22 28 0
-199 -51 55 0
-199 -75 79 0
-199 -99 103 0
-199 -123 127 0
-199 -147 151 0
-199 -171 175 0
-199 -219 223 0
-199 -267 271 0
-199 -291 295 0
223 245 0
-223 -245 0
-223 -25 28 0
-223 -53 55 0
-223 -77 79 0
-223 -101 103 0
-223 -125 127 0
-223 -149 151 0
-223 -173 175 0
-223 -197 199 0
-223 -269 271 0
-223 -293 295 0
271 249 0
-271 -249 0
-271 -31 28 0
-271 -57 55 0
-271 -81 79 0
-271 -105 103 0
-271 -129 127 0
-271 -153 151 0
-271 -177 175 0
-271 -201 199 0
-271 -225 223 0
-271 -297 295 0
295 251 0
-295 -251 0
-295 -34 28 0
-295 -59 55 0
-295 -83 79 0
-295 -107 103 0
-295 -131 127 0
-295 -155 151 0
-295 -179 175 0
-295 -203 199 0
-295 -227 223 0
-295 -275 271 0
273 0
31 253 0
-31 -253 0
-31 -37 57 0
-31 -61 81 0
-31 -85 105 0
-31 -109 129 0
-31 -133 153 0
-31 -157 177 0
-31 -181 201 0
-31 -205 225 0
-31 -229 249 0
-31 -277 297 0
57 255 0
-57 -255 0
-57 -4 31 0
-57 -63 81 0
-57 -87 105 0
-57 -111 129 0
-57 -135 153 0
-57 -159 177 0
-57 -183 201 0
-57 -207 225 0
-57 -231 249 0
-57 -279 297 0
81 257 0
-81 -257 0
-81 -7 31 0
-81 -41 57 0
-81 -89 105 0
-81 -113 129 0
-81 -137 153 0
-81 -161 177 0
-81 -185 201 0
-81 -209 225 0
-81 -233 249 0
-81 -281 297 0
105 259 0
-105 -259 0
-105 -10 31 0
-105 -43 57 0
-105 -67 81 0
-105 -115 129 0
-105 -139 153 0
-105 -163 177 0
-105 -187 201 0
-105 -211 225 0
-105 -235 249 0
-105 -283 297 0
129 261 0
-129 -261 0
-129 -13 31 0
-129 -45 57 0
-129 -69 81 0
-129 -93 105 0
-129 -141 153 0
-129 -165 177 0
-129 -189 201 0
-129 -213 225 0
-129 -237 249 0
-129 -285 297 0
153 263 0
-153 -263 0
-153 -16 31 0
-153 -47 57 0
-153 -71 81 0
-153 -95 105 0
-153 -119 129 0
-153 -167 177 0
-153 -191 201 0
-153 -215 225 0
-153 -239 249 0
-153 -287 297 0
177 265 0
-177 -265 0
-177 -19 31 0
-177 -49 57 0
-177 -73 81 0
-177 -97 105 0
-177 -121 129 0
-177 -145 153 0
-177 -193 201 0
-177 -217 225 0
-177 -241 249 0
-177 -289 297 0
201 267 0
-201 -267 0
-201 -22 31 0
-201 -51 57 0
-201 -75 81 0
-201 -99 105 0
-201 -123 129 0
-201 -147 153 0
-201 -171 177 0
-201 -219 225 0
-201 -243 249 0
-201 -291 297 0
225 269 0
-225 -269 0
-225 -25 31 0
-225 -53 57 0
-225 -77 81 0
-225 -101 105 0
-225 -125 129 0
-225 -149 153 0
-225 -173 177 0
-225 -197 201 0
-225 -245 249 0
-225 -293 297 0
249 271 0
-249 -271 0
-249 -28 31 0
-249 -55 57 0
-249 -79 81 0
-249 -103 105 0
-249 -127 129 0
-249 -151 153 0
-249 -175 177 0
-249 -199 201 0
-249 -223 225 0
-249 -295 297 0
297 275 0
-297 -275 0
-297 -34 31 0
-297 -59 57 0
-297 -83 81 0
-297 -107 105 0
-297 -131 129 0
-297 -155 153 0
-297 -179 177 0
-297 -203 201 0
-297 -227 225 0
-297 -251 249 0
299 0
34 277 0
-34 -277 0
-34 -37 59 0
-34 -61 83 0
-34 -85 107 0
-34 -109 131 0
-34 -133 155 0
-34 -157 179 0
-34 -181 203 0
-34 -205 227 0
-34 -229 251 0
-34 -253 275 0
59 279 0
-59 -279 0
-59 -4 34 0
-59 -63 83 0
-59 -87 107 0
-59 -111 131 0
-59 -135 155 0
-59 -159 179 0
-59 -183 203 0
-59 -207 227 0
-59 -231 251 0
-59 -255 275 0
83 281 0
-83 -281 0
-83 -7 34 0
-83 -41 59 0
-83 -89 107 0
-83 -113 131 0
-83 -137 155 0
-83 -161 179 0
-83 -185 203 0
-83 -209 227 0
-83 -233 251 0
-83 -257 275 0
107 283 0
-107 -283 0
-107 -10 34 0
-107 -43 59 0
-107 -67 83 0
-107 -115 131 0
-107 -139 155 0
-107 -163 179 0
-107 -187 203 0
-107 -211 227 0
-107 -235 251 0
-107 -259 275 0
131 285 0
-131 -285 0
-131 -13 34 0
-131 -45 59 0
-131 -69 83 0
-131 -93 107 0
-131 -141 155 0
-131 -165 179 0
-131 -189 203 0
-131 -213 227 0
-131 -237 251 0
-131 -261 275 0
155 287 0
-155 -287 0
-155 -16 34 0
-155 -47 59 0
-155 -71 83 0
-155 -95 107 0
-155 -119 131 0
-155 -167 179 0
-155 -191 203 0
-155 -215 227 0
-155 -239 251 0
-155 -263 275 0
179 289 0
-179 -289 0
-179 -19 34 0
-179 -49 59 0
-179 -73 83 0
-179 -97 107 0
-179 -121 131 0
-179 -145 155 0
-179 -193 203 0
-179 -217 227 0
-179 -241 251 0
-179 -265 275 0
203 291 0
-203 -291 0
-203 -22 34 0
-203 -51 59 0
-203 -75 83 0
-203 -99 107 0
-203 -123 131 0
-203 -147 155 0
-203 -171 179 0
-203 -219 227 0
-203 -243 251 0
-203 -267 275 0
227 293 0
-227 -293 0
-227 -25 34 0
-227 -53 59 0
-227 -77 83 0
-227 -101 107 0
-227 -125 131 0
-227 -149 155 0
-227 -173 179 0
-227 -197 203 0
-227 -245 251 0
-227 -269 275 0
251 295 0
-251 -295 0
-251 -28 34 0
-251 -55 59 0
-251 -79 83 0
-251 -103 107 0
-251 -127 131 0
-251 -151 155 0
-251 -175 179 0
-251 -199 203 0
-251 -223 227 0
-251 -271 275 0
275 297 0
-275 -297 0
-275 -31 34 0
-275 -57 59 0
-275 -81 83 0
-275 -105 107 0
-275 -129 131 0
-275 -153 155 0
-275 -177 179 0
-275 -201 203 0
-275 -225 227 0
-275 -249 251 0
