c LEQ(domain1,domain1) E(domain1,domain1) LEQ(domain1,domain2) E(domain1,domain2) LEQ(domain2,domain1) E(domain2,domain1) E(domain6,domain1) LEQ(domain1,domain6) E(domain1,domain6) LEQ(domain6,domain1) E(domain1,domain0) LEQ(domain0,domain1) E(domain0,domain1) LEQ(domain1,domain0) LEQ(domain1,domain3) E(domain3,domain1) E(domain1,domain3) LEQ(domain3,domain1) LEQ(domain1,domain5) E(domain5,domain1) E(domain1,domain5) LEQ(domain5,domain1) LEQ(domain1,domain8) LEQ(domain8,domain1) E(domain8,domain1) E(domain1,domain8) E(domain1,domain9) LEQ(domain1,domain9) E(domain9,domain1) LEQ(domain9,domain1) LEQ(domain1,domain7) E(domain1,domain7) LEQ(domain7,domain1) E(domain7,domain1) E(domain4,domain1) LEQ(domain1,domain4) E(domain1,domain4) LEQ(domain4,domain1) E(domain2,domain2) LEQ(domain2,domain2) E(domain6,domain2) E(domain2,domain6) LEQ(domain2,domain6) LEQ(domain6,domain2) LEQ(domain0,domain2) LEQ(domain2,domain0) E(domain0,domain2) E(domain2,domain0) LEQ(domain2,domain3) E(domain2,domain3) LEQ(domain3,domain2) E(domain3,domain2) LEQ(domain2,domain5) E(domain2,domain5) LEQ(domain5,domain2) E(domain5,domain2) E(domain8,domain2) LEQ(domain2,domain8) E(domain2,domain8) LEQ(domain8,domain2) LEQ(domain9,domain2) E(domain2,domain9) LEQ(domain2,domain9) E(domain9,domain2) LEQ(domain2,domain7) LEQ(domain7,domain2) E(domain7,domain2) E(domain2,domain7) LEQ(domain2,domain4) E(domain2,domain4) LEQ(domain4,domain2) E(domain4,domain2) E(domain6,domain6) LEQ(domain6,domain6) E(domain0,domain6) LEQ(domain0,domain6) LEQ(domain6,domain0) E(domain6,domain0) LEQ(domain3,domain6) E(domain3,domain6) LEQ(domain6,domain3) E(domain6,domain3) LEQ(domain6,domain5) LEQ(domain5,domain6) E(domain6,domain5) E(domain5,domain6) E(domain6,domain8) LEQ(domain8,domain6) E(domain8,domain6) LEQ(domain6,domain8) E(domain6,domain9) LEQ(domain6,domain9) LEQ(domain9,domain6) E(domain9,domain6) LEQ(domain6,domain7) E(domain6,domain7) LEQ(domain7,domain6) E(domain7,domain6) E(domain6,domain4) LEQ(domain6,domain4) LEQ(domain4,domain6) E(domain4,domain6) LEQ(domain0,domain0) E(domain0,domain0) E(domain0,domain3) E(domain3,domain0) LEQ(domain3,domain0) LEQ(domain0,domain3) LEQ(domain0,domain5) LEQ(domain5,domain0) E(domain5,domain0) E(domain0,domain5) LEQ(domain8,domain0) E(domain8,domain0) LEQ(domain0,domain8) E(domain0,domain8) E(domain0,domain9) LEQ(domain9,domain0) LEQ(domain0,domain9) E(domain9,domain0) E(domain7,domain0) E(domain0,domain7) LEQ(domain0,domain7) LEQ(domain7,domain0) E(domain0,domain4) LEQ(domain4,domain0) E(domain4,domain0) LEQ(domain0,domain4) LEQ(domain3,domain3) E(domain3,domain3) E(domain3,domain5) LEQ(domain5,domain3) E(domain5,domain3) LEQ(domain3,domain5) LEQ(domain3,domain8) E(domain3,domain8) LEQ(domain8,domain3) E(domain8,domain3) E(domain9,domain3) LEQ(domain3,domain9) E(domain3,domain9) LEQ(domain9,domain3) LEQ(domain7,domain3) E(domain7,domain3) E(domain3,domain7) LEQ(domain3,domain7) E(domain4,domain3) LEQ(domain3,domain4) LEQ(domain4,domain3) E(domain3,domain4) E(domain5,domain5) LEQ(domain5,domain5) LEQ(domain8,domain5) E(domain8,domain5) LEQ(domain5,domain8) E(domain5,domain8) LEQ(domain5,domain9) LEQ(domain9,domain5) E(domain9,domain5) E(domain5,domain9) LEQ(domain7,domain5) E(domain7,domain5) LEQ(domain5,domain7) E(domain5,domain7) LEQ(domain5,domain4) LEQ(domain4,domain5) E(domain5,domain4) E(domain4,domain5) E(domain8,domain8) LEQ(domain8,domain8) E(domain8,domain9) LEQ(domain9,domain8) E(domain9,domain8) LEQ(domain8,domain9) E(domain7,domain8) E(domain8,domain7) LEQ(domain8,domain7) LEQ(domain7,domain8) LEQ(domain8,domain4) E(domain8,domain4) LEQ(domain4,domain8) E(domain4,domain8) LEQ(domain9,domain9) E(domain9,domain9) E(domain9,domain7) LEQ(domain7,domain9) E(domain7,domain9) LEQ(domain9,domain7) E(domain9,domain4) LEQ(domain4,domain9) E(domain4,domain9) LEQ(domain9,domain4) LEQ(domain7,domain7) E(domain7,domain7) LEQ(domain7,domain4) E(domain4,domain7) E(domain7,domain4) LEQ(domain4,domain7) LEQ(domain4,domain4) E(domain4,domain4)
c 1 2 3 4 5 6 7 8 9 10 11 12 13 14 15 16 17 18 19 20 21 22 23 24 25 26 27 28 29 30 31 32 33 34 35 36 37 38 39 40 41 42 43 44 45 46 47 48 49 50 51 52 53 54 55 56 57 58 59 60 61 62 63 64 65 66 67 68 69 70 71 72 73 74 75 76 77 78 79 80 81 82 83 84 85 86 87 88 89 90 91 92 93 94 95 96 97 98 99 100 101 102 103 104 105 106 107 108 109 110 111 112 113 114 115 116 117 118 119 120 121 122 123 124 125 126 127 128 129 130 131 132 133 134 135 136 137 138 139 140 141 142 143 144 145 146 147 148 149 150 151 152 153 154 155 156 157 158 159 160 161 162 163 164 165 166 167 168 169 170 171 172 173 174 175 176 177 178 179 180 181 182 183 184 185 186 187 188 189 190 191 192 193 194 195 196 197 198 199 200
p cnf 200 920
103 -104 0
12 -13 0
45 -47 0
108 -105 0
128 -125 0
109 -112 0
76 -75 0
123 -122 0
115 -116 0
119 -117 0
14 -11 0
1 -2 0
3 -4 0
15 -17 0
36 -37 0
19 -21 0
8 -9 0
31 -32 0
23 -26 0
28 -27 0
46 -48 0
5 -6 0
40 -39 0
49 -50 0
69 -70 0
53 -54 0
43 -42 0
65 -68 0
58 -59 0
63 -62 0
107 -106 0
18 -16 0
51 -52 0
129 -130 0
148 -150 0
134 -131 0
79 -80 0
146 -145 0
135 -136 0
140 -141 0
126 -127 0
38 -35 0
71 -72 0
149 -147 0
199 -200 0
166 -168 0
101 -102 0
198 -196 0
181 -182 0
190 -191 0
110 -111 0
22 -20 0
55 -56 0
132 -133 0
165 -167 0
152 -151 0
84 -86 0
163 -164 0
155 -156 0
157 -160 0
77 -78 0
10 -7 0
44 -41 0
81 -82 0
100 -99 0
83 -85 0
74 -73 0
95 -96 0
90 -87 0
92 -91 0
124 -121 0
33 -34 0
66 -67 0
143 -144 0
195 -197 0
161 -162 0
97 -98 0
193 -194 0
178 -175 0
186 -187 0
113 -114 0
24 -25 0
60 -57 0
137 -138 0
179 -180 0
153 -154 0
88 -89 0
177 -176 0
170 -169 0
174 -171 0
118 -120 0
30 -29 0
61 -64 0
142 -139 0
192 -189 0
158 -159 0
93 -94 0
188 -185 0
172 -173 0
183 -184 0
103 0
12 14 0
-12 -14 0
-12 -3 45 0
-12 -15 108 0
-12 -36 128 0
-12 -19 109 0
-12 -8 76 0
-12 -31 123 0
-12 -23 115 0
-12 -28 119 0
45 46 0
-45 -46 0
-45 -5 12 0
-45 -49 108 0
-45 -69 128 0
-45 -53 109 0
-45 -43 76 0
-45 -65 123 0
-45 -58 115 0
-45 -63 119 0
108 107 0
-108 -107 0
-108 -18 12 0
-108 -51 45 0
-108 -148 128 0
-108 -134 109 0
-108 -79 76 0
-108 -146 123 0
-108 -135 115 0
-108 -140 119 0
128 126 0
-128 -126 0
-128 -38 12 0
-128 -71 45 0
-128 -149 108 0
-128 -166 109 0
-128 -101 76 0
-128 -198 123 0
-128 -181 115 0
-128 -190 119 0
109 110 0
-109 -110 0
-109 -22 12 0
-109 -55 45 0
-109 -132 108 0
-109 -165 128 0
-109 -84 76 0
-109 -163 123 0
-109 -155 115 0
-109 -157 119 0
76 77 0
-76 -77 0
-76 -10 12 0
-76 -44 45 0
-76 -81 108 0
-76 -100 128 0
-76 -83 109 0
-76 -95 123 0
-76 -90 115 0
-76 -92 119 0
123 124 0
-123 -124 0
-123 -33 12 0
-123 -66 45 0
-123 -143 108 0
-123 -195 128 0
-123 -161 109 0
-123 -97 76 0
-123 -178 115 0
-123 -186 119 0
115 113 0
-115 -113 0
-115 -24 12 0
-115 -60 45 0
-115 -137 108 0
-115 -179 128 0
-115 -153 109 0
-115 -88 76 0
-115 -177 123 0
-115 -174 119 0
119 118 0
-119 -118 0
-119 -30 12 0
-119 -61 45 0
-119 -142 108 0
-119 -192 128 0
-119 -158 109 0
-119 -93 76 0
-119 -188 123 0
-119 -172 115 0
1 0
-14 -45 3 0
-14 -108 15 0
-14 -128 36 0
-14 -109 19 0
-14 -76 8 0
-14 -123 31 0
-14 -115 23 0
-14 -119 28 0
3 5 0
-3 -5 0
-3 -46 14 0
-3 -49 15 0
-3 -69 36 0
-3 -53 19 0
-3 -43 8 0
-3 -65 31 0
-3 -58 23 0
-3 -63 28 0
15 18 0
-15 -18 0
-15 -107 14 0
-15 -51 3 0
-15 -148 36 0
-15 -134 19 0
-15 -79 8 0
-15 -146 31 0
-15 -135 23 0
-15 -140 28 0
36 38 0
-36 -38 0
-36 -126 14 0
-36 -71 3 0
-36 -149 15 0
-36 -166 19 0
-36 -101 8 0
-36 -198 31 0
-36 -181 23 0
-36 -190 28 0
19 22 0
-19 -22 0
-19 -110 14 0
-19 -55 3 0
-19 -132 15 0
-19 -165 36 0
-19 -84 8 0
-19 -163 31 0
-19 -155 23 0
-19 -157 28 0
8 10 0
-8 -10 0
-8 -77 14 0
-8 -44 3 0
-8 -81 15 0
-8 -100 36 0
-8 -83 19 0
-8 -95 31 0
-8 -90 23 0
-8 -92 28 0
31 33 0
-31 -33 0
-31 -124 14 0
-31 -66 3 0
-31 -143 15 0
-31 -195 36 0
-31 -161 19 0
-31 -97 8 0
-31 -178 23 0
-31 -186 28 0
23 24 0
-23 -24 0
-23 -113 14 0
-23 -60 3 0
-23 -137 15 0
-23 -179 36 0
-23 -153 19 0
-23 -88 8 0
-23 -177 31 0
-23 -174 28 0
28 30 0
-28 -30 0
-28 -118 14 0
-28 -61 3 0
-28 -142 15 0
-28 -192 36 0
-28 -158 19 0
-28 -93 8 0
-28 -188 31 0
-28 -172 23 0
40 0
-46 -12 5 0
-46 -108 49 0
-46 -128 69 0
-46 -109 53 0
-46 -76 43 0
-46 -123 65 0
-46 -115 58 0
-46 -119 63 0
-5 -14 46 0
-5 -15 49 0
-5 -36 69 0
-5 -19 53 0
-5 -8 43 0
-5 -31 65 0
-5 -23 58 0
-5 -28 63 0
49 51 0
-49 -51 0
-49 -107 46 0
-49 -18 5 0
-49 -148 69 0
-49 -134 53 0
-49 -79 43 0
-49 -146 65 0
-49 -135 58 0
-49 -140 63 0
69 71 0
-69 -71 0
-69 -126 46 0
-69 -38 5 0
-69 -149 49 0
-69 -166 53 0
-69 -101 43 0
-69 -198 65 0
-69 -181 58 0
-69 -190 63 0
53 55 0
-53 -55 0
-53 -110 46 0
-53 -22 5 0
-53 -132 49 0
-53 -165 69 0
-53 -84 43 0
-53 -163 65 0
-53 -155 58 0
-53 -157 63 0
43 44 0
-43 -44 0
-43 -77 46 0
-43 -10 5 0
-43 -81 49 0
-43 -100 69 0
-43 -83 53 0
-43 -95 65 0
-43 -90 58 0
-43 -92 63 0
65 66 0
-65 -66 0
-65 -124 46 0
-65 -33 5 0
-65 -143 49 0
-65 -195 69 0
-65 -161 53 0
-65 -97 43 0
-65 -178 58 0
-65 -186 63 0
58 60 0
-58 -60 0
-58 -113 46 0
-58 -24 5 0
-58 -137 49 0
-58 -179 69 0
-58 -153 53 0
-58 -88 43 0
-58 -177 65 0
-58 -174 63 0
63 61 0
-63 -61 0
-63 -118 46 0
-63 -30 5 0
-63 -142 49 0
-63 -192 69 0
-63 -158 53 0
-63 -93 43 0
-63 -188 65 0
-63 -172 58 0
129 0
-107 -12 18 0
-107 -45 51 0
-107 -128 148 0
-107 -109 134 0
-107 -76 79 0
-107 -123 146 0
-107 -115 135 0
-107 -119 140 0
-18 -14 107 0
-18 -3 51 0
-18 -36 148 0
-18 -19 134 0
-18 -8 79 0
-18 -31 146 0
-18 -23 135 0
-18 -28 140 0
-51 -46 107 0
-51 -5 18 0
-51 -69 148 0
-51 -53 134 0
-51 -43 79 0
-51 -65 146 0
-51 -58 135 0
-51 -63 140 0
148 149 0
-148 -149 0
-148 -126 107 0
-148 -38 18 0
-148 -71 51 0
-148 -166 134 0
-148 -101 79 0
-148 -198 146 0
-148 -181 135 0
-148 -190 140 0
134 132 0
-134 -132 0
-134 -110 107 0
-134 -22 18 0
-134 -55 51 0
-134 -165 148 0
-134 -84 79 0
-134 -163 146 0
-134 -155 135 0
-134 -157 140 0
79 81 0
-79 -81 0
-79 -77 107 0
-79 -10 18 0
-79 -44 51 0
-79 -100 148 0
-79 -83 134 0
-79 -95 146 0
-79 -90 135 0
-79 -92 140 0
146 143 0
-146 -143 0
-146 -124 107 0
-146 -33 18 0
-146 -66 51 0
-146 -195 148 0
-146 -161 134 0
-146 -97 79 0
-146 -178 135 0
-146 -186 140 0
135 137 0
-135 -137 0
-135 -113 107 0
-135 -24 18 0
-135 -60 51 0
-135 -179 148 0
-135 -153 134 0
-135 -88 79 0
-135 -177 146 0
-135 -174 140 0
140 142 0
-140 -142 0
-140 -118 107 0
-140 -30 18 0
-140 -61 51 0
-140 -192 148 0
-140 -158 134 0
-140 -93 79 0
-140 -188 146 0
-140 -172 135 0
199 0
-126 -12 38 0
-126 -45 71 0
-126 -108 149 0
-126 -109 166 0
-126 -76 101 0
-126 -123 198 0
-126 -115 181 0
-126 -119 190 0
-38 -14 126 0
-38 -3 71 0
-38 -15 149 0
-38 -19 166 0
-38 -8 101 0
-38 -31 198 0
-38 -23 181 0
-38 -28 190 0
-71 -46 126 0
-71 -5 38 0
-71 -49 149 0
-71 -53 166 0
-71 -43 101 0
-71 -65 198 0
-71 -58 181 0
-71 -63 190 0
-149 -107 126 0
-149 -18 38 0
-149 -51 71 0
-149 -134 166 0
-149 -79 101 0
-149 -146 198 0
-149 -135 181 0
-149 -140 190 0
166 165 0
-166 -165 0
-166 -110 126 0
-166 -22 38 0
-166 -55 71 0
-166 -132 149 0
-166 -84 101 0
-166 -163 198 0
-166 -155 181 0
-166 -157 190 0
101 100 0
-101 -100 0
-101 -77 126 0
-101 -10 38 0
-101 -44 71 0
-101 -81 149 0
-101 -83 166 0
-101 -95 198 0
-101 -90 181 0
-101 -92 190 0
198 195 0
-198 -195 0
-198 -124 126 0
-198 -33 38 0
-198 -66 71 0
-198 -143 149 0
-198 -161 166 0
-198 -97 101 0
-198 -178 181 0
-198 -186 190 0
181 179 0
-181 -179 0
-181 -113 126 0
-181 -24 38 0
-181 -60 71 0
-181 -137 149 0
-181 -153 166 0
-181 -88 101 0
-181 -177 198 0
-181 -174 190 0
190 192 0
-190 -192 0
-190 -118 126 0
-190 -30 38 0
-190 -61 71 0
-190 -142 149 0
-190 -158 166 0
-190 -93 101 0
-190 -188 198 0
-190 -172 181 0
152 0
-110 -12 22 0
-110 -45 55 0
-110 -108 132 0
-110 -128 165 0
-110 -76 84 0
-110 -123 163 0
-110 -115 155 0
-110 -119 157 0
-22 -14 110 0
-22 -3 55 0
-22 -15 132 0
-22 -36 165 0
-22 -8 84 0
-22 -31 163 0
-22 -23 155 0
-22 -28 157 0
-55 -46 110 0
-55 -5 22 0
-55 -49 132 0
-55 -69 165 0
-55 -43 84 0
-55 -65 163 0
-55 -58 155 0
-55 -63 157 0
-132 -107 110 0
-132 -18 22 0
-132 -51 55 0
-132 -148 165 0
-132 -79 84 0
-132 -146 163 0
-132 -135 155 0
-132 -140 157 0
-165 -126 110 0
-165 -38 22 0
-165 -71 55 0
-165 -149 132 0
-165 -101 84 0
-165 -198 163 0
-165 -181 155 0
-165 -190 157 0
84 83 0
-84 -83 0
-84 -77 110 0
-84 -10 22 0
-84 -44 55 0
-84 -81 132 0
-84 -100 165 0
-84 -95 163 0
-84 -90 155 0
-84 -92 157 0
163 161 0
-163 -161 0
-163 -124 110 0
-163 -33 22 0
-163 -66 55 0
-163 -143 132 0
-163 -195 165 0
-163 -97 84 0
-163 -178 155 0
-163 -186 157 0
155 153 0
-155 -153 0
-155 -113 110 0
-155 -24 22 0
-155 -60 55 0
-155 -137 132 0
-155 -179 165 0
-155 -88 84 0
-155 -177 163 0
-155 -174 157 0
157 158 0
-157 -158 0
-157 -118 110 0
-157 -30 22 0
-157 -61 55 0
-157 -142 132 0
-157 -192 165 0
-157 -93 84 0
-157 -188 163 0
-157 -172 155 0
74 0
-77 -12 10 0
-77 -45 44 0
-77 -108 81 0
-77 -128 100 0
-77 -109 83 0
-77 -123 95 0
-77 -115 90 0
-77 -119 92 0
-10 -14 77 0
-10 -3 44 0
-10 -15 81 0
-10 -36 100 0
-10 -19 83 0
-10 -31 95 0
-10 -23 90 0
-10 -28 92 0
-44 -46 77 0
-44 -5 10 0
-44 -49 81 0
-44 -69 100 0
-44 -53 83 0
-44 -65 95 0
-44 -58 90 0
-44 -63 92 0
-81 -107 77 0
-81 -18 10 0
-81 -51 44 0
-81 -148 100 0
-81 -134 83 0
-81 -146 95 0
-81 -135 90 0
-81 -140 92 0
-100 -126 77 0
-100 -38 10 0
-100 -71 44 0
-100 -149 81 0
-100 -166 83 0
-100 -198 95 0
-100 -181 90 0
-100 -190 92 0
-83 -110 77 0
-83 -22 10 0
-83 -55 44 0
-83 -132 81 0
-83 -165 100 0
-83 -163 95 0
-83 -155 90 0
-83 -157 92 0
95 97 0
-95 -97 0
-95 -124 77 0
-95 -33 10 0
-95 -66 44 0
-95 -143 81 0
-95 -195 100 0
-95 -161 83 0
-95 -178 90 0
-95 -186 92 0
90 88 0
-90 -88 0
-90 -113 77 0
-90 -24 10 0
-90 -60 44 0
-90 -137 81 0
-90 -179 100 0
-90 -153 83 0
-90 -177 95 0
-90 -174 92 0
92 93 0
-92 -93 0
-92 -118 77 0
-92 -30 10 0
-92 -61 44 0
-92 -142 81 0
-92 -192 100 0
-92 -158 83 0
-92 -188 95 0
-92 -172 90 0
193 0
-124 -12 33 0
-124 -45 66 0
-124 -108 143 0
-124 -128 195 0
-124 -109 161 0
-124 -76 97 0
-124 -115 178 0
-124 -119 186 0
-33 -14 124 0
-33 -3 66 0
-33 -15 143 0
-33 -36 195 0
-33 -19 161 0
-33 -8 97 0
-33 -23 178 0
-33 -28 186 0
-66 -46 124 0
-66 -5 33 0
-66 -49 143 0
-66 -69 195 0
-66 -53 161 0
-66 -43 97 0
-66 -58 178 0
-66 -63 186 0
-143 -107 124 0
-143 -18 33 0
-143 -51 66 0
-143 -148 195 0
-143 -134 161 0
-143 -79 97 0
-143 -135 178 0
-143 -140 186 0
-195 -126 124 0
-195 -38 33 0
-195 -71 66 0
-195 -149 143 0
-195 -166 161 0
-195 -101 97 0
-195 -181 178 0
-195 -190 186 0
-161 -110 124 0
-161 -22 33 0
-161 -55 66 0
-161 -132 143 0
-161 -165 195 0
-161 -84 97 0
-161 -155 178 0
-161 -157 186 0
-97 -77 124 0
-97 -10 33 0
-97 -44 66 0
-97 -81 143 0
-97 -100 195 0
-97 -83 161 0
-97 -90 178 0
-97 -92 186 0
178 177 0
-178 -177 0
-178 -113 124 0
-178 -24 33 0
-178 -60 66 0
-178 -137 143 0
-178 -179 195 0
-178 -153 161 0
-178 -88 97 0
-178 -174 186 0
186 188 0
-186 -188 0
-186 -118 124 0
-186 -30 33 0
-186 -61 66 0
-186 -142 143 0
-186 -192 195 0
-186 -158 161 0
-186 -93 97 0
-186 -172 178 0
170 0
-113 -12 24 0
-113 -45 60 0
-113 -108 137 0
-113 -128 179 0
-113 -109 153 0
-113 -76 88 0
-113 -123 177 0
-113 -119 174 0
-24 -14 113 0
-24 -3 60 0
-24 -15 137 0
-24 -36 179 0
-24 -19 153 0
-24 -8 88 0
-24 -31 177 0
-24 -28 174 0
-60 -46 113 0
-60 -5 24 0
-60 -49 137 0
-60 -69 179 0
-60 -53 153 0
-60 -43 88 0
-60 -65 177 0
-60 -63 174 0
-137 -107 113 0
-137 -18 24 0
-137 -51 60 0
-137 -148 179 0
-137 -134 153 0
-137 -79 88 0
-137 -146 177 0
-137 -140 174 0
-179 -126 113 0
-179 -38 24 0
-179 -71 60 0
-179 -149 137 0
-179 -166 153 0
-179 -101 88 0
-179 -198 177 0
-179 -190 174 0
-153 -110 113 0
-153 -22 24 0
-153 -55 60 0
-153 -132 137 0
-153 -165 179 0
-153 -84 88 0
-153 -163 177 0
-153 -157 174 0
-88 -77 113 0
-88 -10 24 0
-88 -44 60 0
-88 -81 137 0
-88 -100 179 0
-88 -83 153 0
-88 -95 177 0
-88 -92 174 0
-177 -124 113 0
-177 -33 24 0
-177 -66 60 0
-177 -143 137 0
-177 -195 179 0
-177 -161 153 0
-177 -97 88 0
-177 -186 174 0
174 172 0
-174 -172 0
-174 -118 113 0
-174 -30 24 0
-174 -61 60 0
-174 -142 137 0
-174 -192 179 0
-174 -158 153 0
-174 -93 88 0
-174 -188 177 0
183 0
-118 -12 30 0
-118 -45 61 0
-118 -108 142 0
-118 -128 192 0
-118 -109 158 0
-118 -76 93 0
-118 -123 188 0
-118 -115 172 0
-30 -14 118 0
-30 -3 61 0
-30 -15 142 0
-30 -36 192 0
-30 -19 158 0
-30 -8 93 0
-30 -31 188 0
-30 -23 172 0
-61 -46 118 0
-61 -5 30 0
-61 -49 142 0
-61 -69 192 0
-61 -53 158 0
-61 -43 93 0
-61 -65 188 0
-61 -58 172 0
-142 -107 118 0
-142 -18 30 0
-142 -51 61 0
-142 -148 192 0
-142 -134 158 0
-142 -79 93 0
-142 -146 188 0
-142 -135 172 0
-192 -126 118 0
-192 -38 30 0
-192 -71 61 0
-192 -149 142 0
-192 -166 158 0
-192 -101 93 0
-192 -198 188 0
-192 -181 172 0
-158 -110 118 0
-158 -22 30 0
-158 -55 61 0
-158 -132 142 0
-158 -165 192 0
-158 -84 93 0
-158 -163 188 0
-158 -155 172 0
-93 -77 118 0
-93 -10 30 0
-93 -44 61 0
-93 -81 142 0
-93 -100 192 0
-93 -83 158 0
-93 -95 188 0
-93 -90 172 0
-188 -124 118 0
-188 -33 30 0
-188 -66 61 0
-188 -143 142 0
-188 -195 192 0
-188 -161 158 0
-188 -97 93 0
-188 -178 172 0
-172 -113 118 0
-172 -24 30 0
-172 -60 61 0
-172 -137 142 0
-172 -179 192 0
-172 -153 158 0
-172 -88 93 0
-172 -177 188 0
