p cnf 5000 5000
2501 0
2502 0
2503 0
2504 0
2505 0
2506 0
2507 0
2508 0
2509 0
2510 0
2511 0
2512 0
2513 0
2514 0
2515 0
2516 0
2517 0
2518 0
2519 0
2520 0
2521 0
2522 0
2523 0
2524 0
2525 0
2526 0
2527 0
2528 0
2529 0
2530 0
2531 0
2532 0
2533 0
2534 0
2535 0
2536 0
2537 0
2538 0
2539 0
2540 0
2541 0
2542 0
2543 0
2544 0
2545 0
2546 0
2547 0
2548 0
2549 0
2550 0
-2551 0
2552 0
2553 0
2554 0
2555 0
2556 0
2557 0
2558 0
2559 0
2560 0
2561 0
2562 0
2563 0
2564 0
2565 0
2566 0
2567 0
2568 0
2569 0
2570 0
2571 0
2572 0
2573 0
2574 0
2575 0
2576 0
2577 0
2578 0
2579 0
2580 0
2581 0
2582 0
2583 0
2584 0
2585 0
2586 0
2587 0
2588 0
2589 0
2590 0
2591 0
2592 0
2593 0
2594 0
2595 0
2596 0
2597 0
2598 0
2599 0
2600 0
-2601 0
-2602 0
2603 0
2604 0
2605 0
2606 0
2607 0
2608 0
2609 0
2610 0
2611 0
2612 0
2613 0
2614 0
2615 0
2616 0
2617 0
2618 0
2619 0
2620 0
2621 0
2622 0
2623 0
2624 0
2625 0
2626 0
2627 0
2628 0
2629 0
2630 0
2631 0
2632 0
2633 0
2634 0
2635 0
2636 0
2637 0
2638 0
2639 0
2640 0
2641 0
2642 0
2643 0
2644 0
2645 0
2646 0
2647 0
2648 0
2649 0
2650 0
-2651 0
-2652 0
-2653 0
2654 0
2655 0
2656 0
2657 0
2658 0
2659 0
2660 0
2661 0
2662 0
2663 0
2664 0
2665 0
2666 0
2667 0
2668 0
2669 0
2670 0
2671 0
2672 0
2673 0
2674 0
2675 0
2676 0
2677 0
2678 0
2679 0
2680 0
2681 0
2682 0
2683 0
2684 0
2685 0
2686 0
2687 0
2688 0
2689 0
2690 0
2691 0
2692 0
2693 0
2694 0
2695 0
2696 0
2697 0
2698 0
2699 0
2700 0
-2701 0
-2702 0
-2703 0
-2704 0
2705 0
2706 0
2707 0
2708 0
2709 0
2710 0
2711 0
2712 0
2713 0
2714 0
2715 0
2716 0
2717 0
2718 0
2719 0
2720 0
2721 0
2722 0
2723 0
2724 0
2725 0
2726 0
2727 0
2728 0
2729 0
2730 0
2731 0
2732 0
2733 0
2734 0
2735 0
2736 0
2737 0
2738 0
2739 0
2740 0
2741 0
2742 0
2743 0
2744 0
2745 0
2746 0
2747 0
2748 0
2749 0
2750 0
-2751 0
-2752 0
-2753 0
-2754 0
-2755 0
2756 0
2757 0
2758 0
2759 0
2760 0
2761 0
2762 0
2763 0
2764 0
2765 0
2766 0
2767 0
2768 0
2769 0
2770 0
2771 0
2772 0
2773 0
2774 0
2775 0
2776 0
2777 0
2778 0
2779 0
2780 0
2781 0
2782 0
2783 0
2784 0
2785 0
2786 0
2787 0
2788 0
2789 0
2790 0
2791 0
2792 0
2793 0
2794 0
2795 0
2796 0
2797 0
2798 0
2799 0
2800 0
-2801 0
-2802 0
-2803 0
-2804 0
-2805 0
-2806 0
2807 0
2808 0
2809 0
2810 0
2811 0
2812 0
2813 0
2814 0
2815 0
2816 0
2817 0
2818 0
2819 0
2820 0
2821 0
2822 0
2823 0
2824 0
2825 0
2826 0
2827 0
2828 0
2829 0
2830 0
2831 0
2832 0
2833 0
2834 0
2835 0
2836 0
2837 0
2838 0
2839 0
2840 0
2841 0
2842 0
2843 0
2844 0
2845 0
2846 0
2847 0
2848 0
2849 0
2850 0
-2851 0
-2852 0
-2853 0
-2854 0
-2855 0
-2856 0
-2857 0
2858 0
2859 0
2860 0
2861 0
2862 0
2863 0
2864 0
2865 0
2866 0
2867 0
2868 0
2869 0
2870 0
2871 0
2872 0
2873 0
2874 0
2875 0
2876 0
2877 0
2878 0
2879 0
2880 0
2881 0
2882 0
2883 0
2884 0
2885 0
2886 0
2887 0
2888 0
2889 0
2890 0
2891 0
2892 0
2893 0
2894 0
2895 0
2896 0
2897 0
2898 0
2899 0
2900 0
-2901 0
-2902 0
-2903 0
-2904 0
-2905 0
-2906 0
-2907 0
-2908 0
2909 0
2910 0
2911 0
2912 0
2913 0
2914 0
2915 0
2916 0
2917 0
2918 0
2919 0
2920 0
2921 0
2922 0
2923 0
2924 0
2925 0
2926 0
2927 0
2928 0
2929 0
2930 0
2931 0
2932 0
2933 0
2934 0
2935 0
2936 0
2937 0
2938 0
2939 0
2940 0
2941 0
2942 0
2943 0
2944 0
2945 0
2946 0
2947 0
2948 0
2949 0
2950 0
-2951 0
-2952 0
-2953 0
-2954 0
-2955 0
-2956 0
-2957 0
-2958 0
-2959 0
2960 0
2961 0
2962 0
2963 0
2964 0
2965 0
2966 0
2967 0
2968 0
2969 0
2970 0
2971 0
2972 0
2973 0
2974 0
2975 0
2976 0
2977 0
2978 0
2979 0
2980 0
2981 0
2982 0
2983 0
2984 0
2985 0
2986 0
2987 0
2988 0
2989 0
2990 0
2991 0
2992 0
2993 0
2994 0
2995 0
2996 0
2997 0
2998 0
2999 0
3000 0
-3001 0
-3002 0
-3003 0
-3004 0
-3005 0
-3006 0
-3007 0
-3008 0
-3009 0
-3010 0
3011 0
3012 0
3013 0
3014 0
3015 0
3016 0
3017 0
3018 0
3019 0
3020 0
3021 0
3022 0
3023 0
3024 0
3025 0
3026 0
3027 0
3028 0
3029 0
3030 0
3031 0
3032 0
3033 0
3034 0
3035 0
3036 0
3037 0
3038 0
3039 0
3040 0
3041 0
3042 0
3043 0
3044 0
3045 0
3046 0
3047 0
3048 0
3049 0
3050 0
-3051 0
-3052 0
-3053 0
-3054 0
-3055 0
-3056 0
-3057 0
-3058 0
-3059 0
-3060 0
-3061 0
3062 0
3063 0
3064 0
3065 0
3066 0
3067 0
3068 0
3069 0
3070 0
3071 0
3072 0
3073 0
3074 0
3075 0
3076 0
3077 0
3078 0
3079 0
3080 0
3081 0
3082 0
3083 0
3084 0
3085 0
3086 0
3087 0
3088 0
3089 0
3090 0
3091 0
3092 0
3093 0
3094 0
3095 0
3096 0
3097 0
3098 0
3099 0
3100 0
-3101 0
-3102 0
-3103 0
-3104 0
-3105 0
-3106 0
-3107 0
-3108 0
-3109 0
-3110 0
-3111 0
-3112 0
3113 0
3114 0
3115 0
3116 0
3117 0
3118 0
3119 0
3120 0
3121 0
3122 0
3123 0
3124 0
3125 0
3126 0
3127 0
3128 0
3129 0
3130 0
3131 0
3132 0
3133 0
3134 0
3135 0
3136 0
3137 0
3138 0
3139 0
3140 0
3141 0
3142 0
3143 0
3144 0
3145 0
3146 0
3147 0
3148 0
3149 0
3150 0
-3151 0
-3152 0
-3153 0
-3154 0
-3155 0
-3156 0
-3157 0
-3158 0
-3159 0
-3160 0
-3161 0
-3162 0
-3163 0
3164 0
3165 0
3166 0
3167 0
3168 0
3169 0
3170 0
3171 0
3172 0
3173 0
3174 0
3175 0
3176 0
3177 0
3178 0
3179 0
3180 0
3181 0
3182 0
3183 0
3184 0
3185 0
3186 0
3187 0
3188 0
3189 0
3190 0
3191 0
3192 0
3193 0
3194 0
3195 0
3196 0
3197 0
3198 0
3199 0
3200 0
-3201 0
-3202 0
-3203 0
-3204 0
-3205 0
-3206 0
-3207 0
-3208 0
-3209 0
-3210 0
-3211 0
-3212 0
-3213 0
-3214 0
3215 0
3216 0
3217 0
3218 0
3219 0
3220 0
3221 0
3222 0
3223 0
3224 0
3225 0
3226 0
3227 0
3228 0
3229 0
3230 0
3231 0
3232 0
3233 0
3234 0
3235 0
3236 0
3237 0
3238 0
3239 0
3240 0
3241 0
3242 0
3243 0
3244 0
3245 0
3246 0
3247 0
3248 0
3249 0
3250 0
-3251 0
-3252 0
-3253 0
-3254 0
-3255 0
-3256 0
-3257 0
-3258 0
-3259 0
-3260 0
-3261 0
-3262 0
-3263 0
-3264 0
-3265 0
3266 0
3267 0
3268 0
3269 0
3270 0
3271 0
3272 0
3273 0
3274 0
3275 0
3276 0
3277 0
3278 0
3279 0
3280 0
3281 0
3282 0
3283 0
3284 0
3285 0
3286 0
3287 0
3288 0
3289 0
3290 0
3291 0
3292 0
3293 0
3294 0
3295 0
3296 0
3297 0
3298 0
3299 0
3300 0
-3301 0
-3302 0
-3303 0
-3304 0
-3305 0
-3306 0
-3307 0
-3308 0
-3309 0
-3310 0
-3311 0
-3312 0
-3313 0
-3314 0
-3315 0
-3316 0
3317 0
3318 0
3319 0
3320 0
3321 0
3322 0
3323 0
3324 0
3325 0
3326 0
3327 0
3328 0
3329 0
3330 0
3331 0
3332 0
3333 0
3334 0
3335 0
3336 0
3337 0
3338 0
3339 0
3340 0
3341 0
3342 0
3343 0
3344 0
3345 0
3346 0
3347 0
3348 0
3349 0
3350 0
-3351 0
-3352 0
-3353 0
-3354 0
-3355 0
-3356 0
-3357 0
-3358 0
-3359 0
-3360 0
-3361 0
-3362 0
-3363 0
-3364 0
-3365 0
-3366 0
-3367 0
3368 0
3369 0
3370 0
3371 0
3372 0
3373 0
3374 0
3375 0
3376 0
3377 0
3378 0
3379 0
3380 0
3381 0
3382 0
3383 0
3384 0
3385 0
3386 0
3387 0
3388 0
3389 0
3390 0
3391 0
3392 0
3393 0
3394 0
3395 0
3396 0
3397 0
3398 0
3399 0
3400 0
-3401 0
-3402 0
-3403 0
-3404 0
-3405 0
-3406 0
-3407 0
-3408 0
-3409 0
-3410 0
-3411 0
-3412 0
-3413 0
-3414 0
-3415 0
-3416 0
-3417 0
-3418 0
3419 0
3420 0
3421 0
3422 0
3423 0
3424 0
3425 0
3426 0
3427 0
3428 0
3429 0
3430 0
3431 0
3432 0
3433 0
3434 0
3435 0
3436 0
3437 0
3438 0
3439 0
3440 0
3441 0
3442 0
3443 0
3444 0
3445 0
3446 0
3447 0
3448 0
3449 0
3450 0
-3451 0
-3452 0
-3453 0
-3454 0
-3455 0
-3456 0
-3457 0
-3458 0
-3459 0
-3460 0
-3461 0
-3462 0
-3463 0
-3464 0
-3465 0
-3466 0
-3467 0
-3468 0
-3469 0
3470 0
3471 0
3472 0
3473 0
3474 0
3475 0
3476 0
3477 0
3478 0
3479 0
3480 0
3481 0
3482 0
3483 0
3484 0
3485 0
3486 0
3487 0
3488 0
3489 0
3490 0
3491 0
3492 0
3493 0
3494 0
3495 0
3496 0
3497 0
3498 0
3499 0
3500 0
-3501 0
-3502 0
-3503 0
-3504 0
-3505 0
-3506 0
-3507 0
-3508 0
-3509 0
-3510 0
-3511 0
-3512 0
-3513 0
-3514 0
-3515 0
-3516 0
-3517 0
-3518 0
-3519 0
-3520 0
3521 0
3522 0
3523 0
3524 0
3525 0
3526 0
3527 0
3528 0
3529 0
3530 0
3531 0
3532 0
3533 0
3534 0
3535 0
3536 0
3537 0
3538 0
3539 0
3540 0
3541 0
3542 0
3543 0
3544 0
3545 0
3546 0
3547 0
3548 0
3549 0
3550 0
-3551 0
-3552 0
-3553 0
-3554 0
-3555 0
-3556 0
-3557 0
-3558 0
-3559 0
-3560 0
-3561 0
-3562 0
-3563 0
-3564 0
-3565 0
-3566 0
-3567 0
-3568 0
-3569 0
-3570 0
-3571 0
3572 0
3573 0
3574 0
3575 0
3576 0
3577 0
3578 0
3579 0
3580 0
3581 0
3582 0
3583 0
3584 0
3585 0
3586 0
3587 0
3588 0
3589 0
3590 0
3591 0
3592 0
3593 0
3594 0
3595 0
3596 0
3597 0
3598 0
3599 0
3600 0
-3601 0
-3602 0
-3603 0
-3604 0
-3605 0
-3606 0
-3607 0
-3608 0
-3609 0
-3610 0
-3611 0
-3612 0
-3613 0
-3614 0
-3615 0
-3616 0
-3617 0
-3618 0
-3619 0
-3620 0
-3621 0
-3622 0
3623 0
3624 0
3625 0
3626 0
3627 0
3628 0
3629 0
3630 0
3631 0
3632 0
3633 0
3634 0
3635 0
3636 0
3637 0
3638 0
3639 0
3640 0
3641 0
3642 0
3643 0
3644 0
3645 0
3646 0
3647 0
3648 0
3649 0
3650 0
-3651 0
-3652 0
-3653 0
-3654 0
-3655 0
-3656 0
-3657 0
-3658 0
-3659 0
-3660 0
-3661 0
-3662 0
-3663 0
-3664 0
-3665 0
-3666 0
-3667 0
-3668 0
-3669 0
-3670 0
-3671 0
-3672 0
-3673 0
3674 0
3675 0
3676 0
3677 0
3678 0
3679 0
3680 0
3681 0
3682 0
3683 0
3684 0
3685 0
3686 0
3687 0
3688 0
3689 0
3690 0
3691 0
3692 0
3693 0
3694 0
3695 0
3696 0
3697 0
3698 0
3699 0
3700 0
-3701 0
-3702 0
-3703 0
-3704 0
-3705 0
-3706 0
-3707 0
-3708 0
-3709 0
-3710 0
-3711 0
-3712 0
-3713 0
-3714 0
-3715 0
-3716 0
-3717 0
-3718 0
-3719 0
-3720 0
-3721 0
-3722 0
-3723 0
-3724 0
3725 0
3726 0
3727 0
3728 0
3729 0
3730 0
3731 0
3732 0
3733 0
3734 0
3735 0
3736 0
3737 0
3738 0
3739 0
3740 0
3741 0
3742 0
3743 0
3744 0
3745 0
3746 0
3747 0
3748 0
3749 0
3750 0
-3751 0
-3752 0
-3753 0
-3754 0
-3755 0
-3756 0
-3757 0
-3758 0
-3759 0
-3760 0
-3761 0
-3762 0
-3763 0
-3764 0
-3765 0
-3766 0
-3767 0
-3768 0
-3769 0
-3770 0
-3771 0
-3772 0
-3773 0
-3774 0
-3775 0
3776 0
3777 0
3778 0
3779 0
3780 0
3781 0
3782 0
3783 0
3784 0
3785 0
3786 0
3787 0
3788 0
3789 0
3790 0
3791 0
3792 0
3793 0
3794 0
3795 0
3796 0
3797 0
3798 0
3799 0
3800 0
-3801 0
-3802 0
-3803 0
-3804 0
-3805 0
-3806 0
-3807 0
-3808 0
-3809 0
-3810 0
-3811 0
-3812 0
-3813 0
-3814 0
-3815 0
-3816 0
-3817 0
-3818 0
-3819 0
-3820 0
-3821 0
-3822 0
-3823 0
-3824 0
-3825 0
-3826 0
3827 0
3828 0
3829 0
3830 0
3831 0
3832 0
3833 0
3834 0
3835 0
3836 0
3837 0
3838 0
3839 0
3840 0
3841 0
3842 0
3843 0
3844 0
3845 0
3846 0
3847 0
3848 0
3849 0
3850 0
-3851 0
-3852 0
-3853 0
-3854 0
-3855 0
-3856 0
-3857 0
-3858 0
-3859 0
-3860 0
-3861 0
-3862 0
-3863 0
-3864 0
-3865 0
-3866 0
-3867 0
-3868 0
-3869 0
-3870 0
-3871 0
-3872 0
-3873 0
-3874 0
-3875 0
-3876 0
-3877 0
3878 0
3879 0
3880 0
3881 0
3882 0
3883 0
3884 0
3885 0
3886 0
3887 0
3888 0
3889 0
3890 0
3891 0
3892 0
3893 0
3894 0
3895 0
3896 0
3897 0
3898 0
3899 0
3900 0
-3901 0
-3902 0
-3903 0
-3904 0
-3905 0
-3906 0
-3907 0
-3908 0
-3909 0
-3910 0
-3911 0
-3912 0
-3913 0
-3914 0
-3915 0
-3916 0
-3917 0
-3918 0
-3919 0
-3920 0
-3921 0
-3922 0
-3923 0
-3924 0
-3925 0
-3926 0
-3927 0
-3928 0
3929 0
3930 0
3931 0
3932 0
3933 0
3934 0
3935 0
3936 0
3937 0
3938 0
3939 0
3940 0
3941 0
3942 0
3943 0
3944 0
3945 0
3946 0
3947 0
3948 0
3949 0
3950 0
-3951 0
-3952 0
-3953 0
-3954 0
-3955 0
-3956 0
-3957 0
-3958 0
-3959 0
-3960 0
-3961 0
-3962 0
-3963 0
-3964 0
-3965 0
-3966 0
-3967 0
-3968 0
-3969 0
-3970 0
-3971 0
-3972 0
-3973 0
-3974 0
-3975 0
-3976 0
-3977 0
-3978 0
-3979 0
3980 0
3981 0
3982 0
3983 0
3984 0
3985 0
3986 0
3987 0
3988 0
3989 0
3990 0
3991 0
3992 0
3993 0
3994 0
3995 0
3996 0
3997 0
3998 0
3999 0
4000 0
-4001 0
-4002 0
-4003 0
-4004 0
-4005 0
-4006 0
-4007 0
-4008 0
-4009 0
-4010 0
-4011 0
-4012 0
-4013 0
-4014 0
-4015 0
-4016 0
-4017 0
-4018 0
-4019 0
-4020 0
-4021 0
-4022 0
-4023 0
-4024 0
-4025 0
-4026 0
-4027 0
-4028 0
-4029 0
-4030 0
4031 0
4032 0
4033 0
4034 0
4035 0
4036 0
4037 0
4038 0
4039 0
4040 0
4041 0
4042 0
4043 0
4044 0
4045 0
4046 0
4047 0
4048 0
4049 0
4050 0
-4051 0
-4052 0
-4053 0
-4054 0
-4055 0
-4056 0
-4057 0
-4058 0
-4059 0
-4060 0
-4061 0
-4062 0
-4063 0
-4064 0
-4065 0
-4066 0
-4067 0
-4068 0
-4069 0
-4070 0
-4071 0
-4072 0
-4073 0
-4074 0
-4075 0
-4076 0
-4077 0
-4078 0
-4079 0
-4080 0
-4081 0
4082 0
4083 0
4084 0
4085 0
4086 0
4087 0
4088 0
4089 0
4090 0
4091 0
4092 0
4093 0
4094 0
4095 0
4096 0
4097 0
4098 0
4099 0
4100 0
-4101 0
-4102 0
-4103 0
-4104 0
-4105 0
-4106 0
-4107 0
-4108 0
-4109 0
-4110 0
-4111 0
-4112 0
-4113 0
-4114 0
-4115 0
-4116 0
-4117 0
-4118 0
-4119 0
-4120 0
-4121 0
-4122 0
-4123 0
-4124 0
-4125 0
-4126 0
-4127 0
-4128 0
-4129 0
-4130 0
-4131 0
-4132 0
4133 0
4134 0
4135 0
4136 0
4137 0
4138 0
4139 0
4140 0
4141 0
4142 0
4143 0
4144 0
4145 0
4146 0
4147 0
4148 0
4149 0
4150 0
-4151 0
-4152 0
-4153 0
-4154 0
-4155 0
-4156 0
-4157 0
-4158 0
-4159 0
-4160 0
-4161 0
-4162 0
-4163 0
-4164 0
-4165 0
-4166 0
-4167 0
-4168 0
-4169 0
-4170 0
-4171 0
-4172 0
-4173 0
-4174 0
-4175 0
-4176 0
-4177 0
-4178 0
-4179 0
-4180 0
-4181 0
-4182 0
-4183 0
4184 0
4185 0
4186 0
4187 0
4188 0
4189 0
4190 0
4191 0
4192 0
4193 0
4194 0
4195 0
4196 0
4197 0
4198 0
4199 0
4200 0
-4201 0
-4202 0
-4203 0
-4204 0
-4205 0
-4206 0
-4207 0
-4208 0
-4209 0
-4210 0
-4211 0
-4212 0
-4213 0
-4214 0
-4215 0
-4216 0
-4217 0
-4218 0
-4219 0
-4220 0
-4221 0
-4222 0
-4223 0
-4224 0
-4225 0
-4226 0
-4227 0
-4228 0
-4229 0
-4230 0
-4231 0
-4232 0
-4233 0
-4234 0
4235 0
4236 0
4237 0
4238 0
4239 0
4240 0
4241 0
4242 0
4243 0
4244 0
4245 0
4246 0
4247 0
4248 0
4249 0
4250 0
-4251 0
-4252 0
-4253 0
-4254 0
-4255 0
-4256 0
-4257 0
-4258 0
-4259 0
-4260 0
-4261 0
-4262 0
-4263 0
-4264 0
-4265 0
-4266 0
-4267 0
-4268 0
-4269 0
-4270 0
-4271 0
-4272 0
-4273 0
-4274 0
-4275 0
-4276 0
-4277 0
-4278 0
-4279 0
-4280 0
-4281 0
-4282 0
-4283 0
-4284 0
-4285 0
4286 0
4287 0
4288 0
4289 0
4290 0
4291 0
4292 0
4293 0
4294 0
4295 0
4296 0
4297 0
4298 0
4299 0
4300 0
-4301 0
-4302 0
-4303 0
-4304 0
-4305 0
-4306 0
-4307 0
-4308 0
-4309 0
-4310 0
-4311 0
-4312 0
-4313 0
-4314 0
-4315 0
-4316 0
-4317 0
-4318 0
-4319 0
-4320 0
-4321 0
-4322 0
-4323 0
-4324 0
-4325 0
-4326 0
-4327 0
-4328 0
-4329 0
-4330 0
-4331 0
-4332 0
-4333 0
-4334 0
-4335 0
-4336 0
4337 0
4338 0
4339 0
4340 0
4341 0
4342 0
4343 0
4344 0
4345 0
4346 0
4347 0
4348 0
4349 0
4350 0
-4351 0
-4352 0
-4353 0
-4354 0
-4355 0
-4356 0
-4357 0
-4358 0
-4359 0
-4360 0
-4361 0
-4362 0
-4363 0
-4364 0
-4365 0
-4366 0
-4367 0
-4368 0
-4369 0
-4370 0
-4371 0
-4372 0
-4373 0
-4374 0
-4375 0
-4376 0
-4377 0
-4378 0
-4379 0
-4380 0
-4381 0
-4382 0
-4383 0
-4384 0
-4385 0
-4386 0
-4387 0
4388 0
4389 0
4390 0
4391 0
4392 0
4393 0
4394 0
4395 0
4396 0
4397 0
4398 0
4399 0
4400 0
-4401 0
-4402 0
-4403 0
-4404 0
-4405 0
-4406 0
-4407 0
-4408 0
-4409 0
-4410 0
-4411 0
-4412 0
-4413 0
-4414 0
-4415 0
-4416 0
-4417 0
-4418 0
-4419 0
-4420 0
-4421 0
-4422 0
-4423 0
-4424 0
-4425 0
-4426 0
-4427 0
-4428 0
-4429 0
-4430 0
-4431 0
-4432 0
-4433 0
-4434 0
-4435 0
-4436 0
-4437 0
-4438 0
4439 0
4440 0
4441 0
4442 0
4443 0
4444 0
4445 0
4446 0
4447 0
4448 0
4449 0
4450 0
-4451 0
-4452 0
-4453 0
-4454 0
-4455 0
-4456 0
-4457 0
-4458 0
-4459 0
-4460 0
-4461 0
-4462 0
-4463 0
-4464 0
-4465 0
-4466 0
-4467 0
-4468 0
-4469 0
-4470 0
-4471 0
-4472 0
-4473 0
-4474 0
-4475 0
-4476 0
-4477 0
-4478 0
-4479 0
-4480 0
-4481 0
-4482 0
-4483 0
-4484 0
-4485 0
-4486 0
-4487 0
-4488 0
-4489 0
4490 0
4491 0
4492 0
4493 0
4494 0
4495 0
4496 0
4497 0
4498 0
4499 0
4500 0
-4501 0
-4502 0
-4503 0
-4504 0
-4505 0
-4506 0
-4507 0
-4508 0
-4509 0
-4510 0
-4511 0
-4512 0
-4513 0
-4514 0
-4515 0
-4516 0
-4517 0
-4518 0
-4519 0
-4520 0
-4521 0
-4522 0
-4523 0
-4524 0
-4525 0
-4526 0
-4527 0
-4528 0
-4529 0
-4530 0
-4531 0
-4532 0
-4533 0
-4534 0
-4535 0
-4536 0
-4537 0
-4538 0
-4539 0
-4540 0
4541 0
4542 0
4543 0
4544 0
4545 0
4546 0
4547 0
4548 0
4549 0
4550 0
-4551 0
-4552 0
-4553 0
-4554 0
-4555 0
-4556 0
-4557 0
-4558 0
-4559 0
-4560 0
-4561 0
-4562 0
-4563 0
-4564 0
-4565 0
-4566 0
-4567 0
-4568 0
-4569 0
-4570 0
-4571 0
-4572 0
-4573 0
-4574 0
-4575 0
-4576 0
-4577 0
-4578 0
-4579 0
-4580 0
-4581 0
-4582 0
-4583 0
-4584 0
-4585 0
-4586 0
-4587 0
-4588 0
-4589 0
-4590 0
-4591 0
4592 0
4593 0
4594 0
4595 0
4596 0
4597 0
4598 0
4599 0
4600 0
-4601 0
-4602 0
-4603 0
-4604 0
-4605 0
-4606 0
-4607 0
-4608 0
-4609 0
-4610 0
-4611 0
-4612 0
-4613 0
-4614 0
-4615 0
-4616 0
-4617 0
-4618 0
-4619 0
-4620 0
-4621 0
-4622 0
-4623 0
-4624 0
-4625 0
-4626 0
-4627 0
-4628 0
-4629 0
-4630 0
-4631 0
-4632 0
-4633 0
-4634 0
-4635 0
-4636 0
-4637 0
-4638 0
-4639 0
-4640 0
-4641 0
-4642 0
4643 0
4644 0
4645 0
4646 0
4647 0
4648 0
4649 0
4650 0
-4651 0
-4652 0
-4653 0
-4654 0
-4655 0
-4656 0
-4657 0
-4658 0
-4659 0
-4660 0
-4661 0
-4662 0
-4663 0
-4664 0
-4665 0
-4666 0
-4667 0
-4668 0
-4669 0
-4670 0
-4671 0
-4672 0
-4673 0
-4674 0
-4675 0
-4676 0
-4677 0
-4678 0
-4679 0
-4680 0
-4681 0
-4682 0
-4683 0
-4684 0
-4685 0
-4686 0
-4687 0
-4688 0
-4689 0
-4690 0
-4691 0
-4692 0
-4693 0
4694 0
4695 0
4696 0
4697 0
4698 0
4699 0
4700 0
-4701 0
-4702 0
-4703 0
-4704 0
-4705 0
-4706 0
-4707 0
-4708 0
-4709 0
-4710 0
-4711 0
-4712 0
-4713 0
-4714 0
-4715 0
-4716 0
-4717 0
-4718 0
-4719 0
-4720 0
-4721 0
-4722 0
-4723 0
-4724 0
-4725 0
-4726 0
-4727 0
-4728 0
-4729 0
-4730 0
-4731 0
-4732 0
-4733 0
-4734 0
-4735 0
-4736 0
-4737 0
-4738 0
-4739 0
-4740 0
-4741 0
-4742 0
-4743 0
-4744 0
4745 0
4746 0
4747 0
4748 0
4749 0
4750 0
-4751 0
-4752 0
-4753 0
-4754 0
-4755 0
-4756 0
-4757 0
-4758 0
-4759 0
-4760 0
-4761 0
-4762 0
-4763 0
-4764 0
-4765 0
-4766 0
-4767 0
-4768 0
-4769 0
-4770 0
-4771 0
-4772 0
-4773 0
-4774 0
-4775 0
-4776 0
-4777 0
-4778 0
-4779 0
-4780 0
-4781 0
-4782 0
-4783 0
-4784 0
-4785 0
-4786 0
-4787 0
-4788 0
-4789 0
-4790 0
-4791 0
-4792 0
-4793 0
-4794 0
-4795 0
4796 0
4797 0
4798 0
4799 0
4800 0
-4801 0
-4802 0
-4803 0
-4804 0
-4805 0
-4806 0
-4807 0
-4808 0
-4809 0
-4810 0
-4811 0
-4812 0
-4813 0
-4814 0
-4815 0
-4816 0
-4817 0
-4818 0
-4819 0
-4820 0
-4821 0
-4822 0
-4823 0
-4824 0
-4825 0
-4826 0
-4827 0
-4828 0
-4829 0
-4830 0
-4831 0
-4832 0
-4833 0
-4834 0
-4835 0
-4836 0
-4837 0
-4838 0
-4839 0
-4840 0
-4841 0
-4842 0
-4843 0
-4844 0
-4845 0
-4846 0
4847 0
4848 0
4849 0
4850 0
-4851 0
-4852 0
-4853 0
-4854 0
-4855 0
-4856 0
-4857 0
-4858 0
-4859 0
-4860 0
-4861 0
-4862 0
-4863 0
-4864 0
-4865 0
-4866 0
-4867 0
-4868 0
-4869 0
-4870 0
-4871 0
-4872 0
-4873 0
-4874 0
-4875 0
-4876 0
-4877 0
-4878 0
-4879 0
-4880 0
-4881 0
-4882 0
-4883 0
-4884 0
-4885 0
-4886 0
-4887 0
-4888 0
-4889 0
-4890 0
-4891 0
-4892 0
-4893 0
-4894 0
-4895 0
-4896 0
-4897 0
4898 0
4899 0
4900 0
-4901 0
-4902 0
-4903 0
-4904 0
-4905 0
-4906 0
-4907 0
-4908 0
-4909 0
-4910 0
-4911 0
-4912 0
-4913 0
-4914 0
-4915 0
-4916 0
-4917 0
-4918 0
-4919 0
-4920 0
-4921 0
-4922 0
-4923 0
-4924 0
-4925 0
-4926 0
-4927 0
-4928 0
-4929 0
-4930 0
-4931 0
-4932 0
-4933 0
-4934 0
-4935 0
-4936 0
-4937 0
-4938 0
-4939 0
-4940 0
-4941 0
-4942 0
-4943 0
-4944 0
-4945 0
-4946 0
-4947 0
-4948 0
4949 0
4950 0
-4951 0
-4952 0
-4953 0
-4954 0
-4955 0
-4956 0
-4957 0
-4958 0
-4959 0
-4960 0
-4961 0
-4962 0
-4963 0
-4964 0
-4965 0
-4966 0
-4967 0
-4968 0
-4969 0
-4970 0
-4971 0
-4972 0
-4973 0
-4974 0
-4975 0
-4976 0
-4977 0
-4978 0
-4979 0
-4980 0
-4981 0
-4982 0
-4983 0
-4984 0
-4985 0
-4986 0
-4987 0
-4988 0
-4989 0
-4990 0
-4991 0
-4992 0
-4993 0
-4994 0
-4995 0
-4996 0
-4997 0
-4998 0
-4999 0
5000 0
-1 2501 0
-2 2502 0
-3 2503 0
-4 2504 0
-5 2505 0
-6 2506 0
-7 2507 0
-8 2508 0
-9 2509 0
-10 2510 0
-11 2511 0
-12 2512 0
-13 2513 0
-14 2514 0
-15 2515 0
-16 2516 0
-17 2517 0
-18 2518 0
-19 2519 0
-20 2520 0
-21 2521 0
-22 2522 0
-23 2523 0
-24 2524 0
-25 2525 0
-26 2526 0
-27 2527 0
-28 2528 0
-29 2529 0
-30 2530 0
-31 2531 0
-32 2532 0
-33 2533 0
-34 2534 0
-35 2535 0
-36 2536 0
-37 2537 0
-38 2538 0
-39 2539 0
-40 2540 0
-41 2541 0
-42 2542 0
-43 2543 0
-44 2544 0
-45 2545 0
-46 2546 0
-47 2547 0
-48 2548 0
-49 2549 0
-50 2550 0
-51 2551 0
-52 2552 0
-53 2553 0
-54 2554 0
-55 2555 0
-56 2556 0
-57 2557 0
-58 2558 0
-59 2559 0
-60 2560 0
-61 2561 0
-62 2562 0
-63 2563 0
-64 2564 0
-65 2565 0
-66 2566 0
-67 2567 0
-68 2568 0
-69 2569 0
-70 2570 0
-71 2571 0
-72 2572 0
-73 2573 0
-74 2574 0
-75 2575 0
-76 2576 0
-77 2577 0
-78 2578 0
-79 2579 0
-80 2580 0
-81 2581 0
-82 2582 0
-83 2583 0
-84 2584 0
-85 2585 0
-86 2586 0
-87 2587 0
-88 2588 0
-89 2589 0
-90 2590 0
-91 2591 0
-92 2592 0
-93 2593 0
-94 2594 0
-95 2595 0
-96 2596 0
-97 2597 0
-98 2598 0
-99 2599 0
-100 2600 0
-101 2601 0
-102 2602 0
-103 2603 0
-104 2604 0
-105 2605 0
-106 2606 0
-107 2607 0
-108 2608 0
-109 2609 0
-110 2610 0
-111 2611 0
-112 2612 0
-113 2613 0
-114 2614 0
-115 2615 0
-116 2616 0
-117 2617 0
-118 2618 0
-119 2619 0
-120 2620 0
-121 2621 0
-122 2622 0
-123 2623 0
-124 2624 0
-125 2625 0
-126 2626 0
-127 2627 0
-128 2628 0
-129 2629 0
-130 2630 0
-131 2631 0
-132 2632 0
-133 2633 0
-134 2634 0
-135 2635 0
-136 2636 0
-137 2637 0
-138 2638 0
-139 2639 0
-140 2640 0
-141 2641 0
-142 2642 0
-143 2643 0
-144 2644 0
-145 2645 0
-146 2646 0
-147 2647 0
-148 2648 0
-149 2649 0
-150 2650 0
-151 2651 0
-152 2652 0
-153 2653 0
-154 2654 0
-155 2655 0
-156 2656 0
-157 2657 0
-158 2658 0
-159 2659 0
-160 2660 0
-161 2661 0
-162 2662 0
-163 2663 0
-164 2664 0
-165 2665 0
-166 2666 0
-167 2667 0
-168 2668 0
-169 2669 0
-170 2670 0
-171 2671 0
-172 2672 0
-173 2673 0
-174 2674 0
-175 2675 0
-176 2676 0
-177 2677 0
-178 2678 0
-179 2679 0
-180 2680 0
-181 2681 0
-182 2682 0
-183 2683 0
-184 2684 0
-185 2685 0
-186 2686 0
-187 2687 0
-188 2688 0
-189 2689 0
-190 2690 0
-191 2691 0
-192 2692 0
-193 2693 0
-194 2694 0
-195 2695 0
-196 2696 0
-197 2697 0
-198 2698 0
-199 2699 0
-200 2700 0
-201 2701 0
-202 2702 0
-203 2703 0
-204 2704 0
-205 2705 0
-206 2706 0
-207 2707 0
-208 2708 0
-209 2709 0
-210 2710 0
-211 2711 0
-212 2712 0
-213 2713 0
-214 2714 0
-215 2715 0
-216 2716 0
-217 2717 0
-218 2718 0
-219 2719 0
-220 2720 0
-221 2721 0
-222 2722 0
-223 2723 0
-224 2724 0
-225 2725 0
-226 2726 0
-227 2727 0
-228 2728 0
-229 2729 0
-230 2730 0
-231 2731 0
-232 2732 0
-233 2733 0
-234 2734 0
-235 2735 0
-236 2736 0
-237 2737 0
-238 2738 0
-239 2739 0
-240 2740 0
-241 2741 0
-242 2742 0
-243 2743 0
-244 2744 0
-245 2745 0
-246 2746 0
-247 2747 0
-248 2748 0
-249 2749 0
-250 2750 0
-251 2751 0
-252 2752 0
-253 2753 0
-254 2754 0
-255 2755 0
-256 2756 0
-257 2757 0
-258 2758 0
-259 2759 0
-260 2760 0
-261 2761 0
-262 2762 0
-263 2763 0
-264 2764 0
-265 2765 0
-266 2766 0
-267 2767 0
-268 2768 0
-269 2769 0
-270 2770 0
-271 2771 0
-272 2772 0
-273 2773 0
-274 2774 0
-275 2775 0
-276 2776 0
-277 2777 0
-278 2778 0
-279 2779 0
-280 2780 0
-281 2781 0
-282 2782 0
-283 2783 0
-284 2784 0
-285 2785 0
-286 2786 0
-287 2787 0
-288 2788 0
-289 2789 0
-290 2790 0
-291 2791 0
-292 2792 0
-293 2793 0
-294 2794 0
-295 2795 0
-296 2796 0
-297 2797 0
-298 2798 0
-299 2799 0
-300 2800 0
-301 2801 0
-302 2802 0
-303 2803 0
-304 2804 0
-305 2805 0
-306 2806 0
-307 2807 0
-308 2808 0
-309 2809 0
-310 2810 0
-311 2811 0
-312 2812 0
-313 2813 0
-314 2814 0
-315 2815 0
-316 2816 0
-317 2817 0
-318 2818 0
-319 2819 0
-320 2820 0
-321 2821 0
-322 2822 0
-323 2823 0
-324 2824 0
-325 2825 0
-326 2826 0
-327 2827 0
-328 2828 0
-329 2829 0
-330 2830 0
-331 2831 0
-332 2832 0
-333 2833 0
-334 2834 0
-335 2835 0
-336 2836 0
-337 2837 0
-338 2838 0
-339 2839 0
-340 2840 0
-341 2841 0
-342 2842 0
-343 2843 0
-344 2844 0
-345 2845 0
-346 2846 0
-347 2847 0
-348 2848 0
-349 2849 0
-350 2850 0
-351 2851 0
-352 2852 0
-353 2853 0
-354 2854 0
-355 2855 0
-356 2856 0
-357 2857 0
-358 2858 0
-359 2859 0
-360 2860 0
-361 2861 0
-362 2862 0
-363 2863 0
-364 2864 0
-365 2865 0
-366 2866 0
-367 2867 0
-368 2868 0
-369 2869 0
-370 2870 0
-371 2871 0
-372 2872 0
-373 2873 0
-374 2874 0
-375 2875 0
-376 2876 0
-377 2877 0
-378 2878 0
-379 2879 0
-380 2880 0
-381 2881 0
-382 2882 0
-383 2883 0
-384 2884 0
-385 2885 0
-386 2886 0
-387 2887 0
-388 2888 0
-389 2889 0
-390 2890 0
-391 2891 0
-392 2892 0
-393 2893 0
-394 2894 0
-395 2895 0
-396 2896 0
-397 2897 0
-398 2898 0
-399 2899 0
-400 2900 0
-401 2901 0
-402 2902 0
-403 2903 0
-404 2904 0
-405 2905 0
-406 2906 0
-407 2907 0
-408 2908 0
-409 2909 0
-410 2910 0
-411 2911 0
-412 2912 0
-413 2913 0
-414 2914 0
-415 2915 0
-416 2916 0
-417 2917 0
-418 2918 0
-419 2919 0
-420 2920 0
-421 2921 0
-422 2922 0
-423 2923 0
-424 2924 0
-425 2925 0
-426 2926 0
-427 2927 0
-428 2928 0
-429 2929 0
-430 2930 0
-431 2931 0
-432 2932 0
-433 2933 0
-434 2934 0
-435 2935 0
-436 2936 0
-437 2937 0
-438 2938 0
-439 2939 0
-440 2940 0
-441 2941 0
-442 2942 0
-443 2943 0
-444 2944 0
-445 2945 0
-446 2946 0
-447 2947 0
-448 2948 0
-449 2949 0
-450 2950 0
-451 2951 0
-452 2952 0
-453 2953 0
-454 2954 0
-455 2955 0
-456 2956 0
-457 2957 0
-458 2958 0
-459 2959 0
-460 2960 0
-461 2961 0
-462 2962 0
-463 2963 0
-464 2964 0
-465 2965 0
-466 2966 0
-467 2967 0
-468 2968 0
-469 2969 0
-470 2970 0
-471 2971 0
-472 2972 0
-473 2973 0
-474 2974 0
-475 2975 0
-476 2976 0
-477 2977 0
-478 2978 0
-479 2979 0
-480 2980 0
-481 2981 0
-482 2982 0
-483 2983 0
-484 2984 0
-485 2985 0
-486 2986 0
-487 2987 0
-488 2988 0
-489 2989 0
-490 2990 0
-491 2991 0
-492 2992 0
-493 2993 0
-494 2994 0
-495 2995 0
-496 2996 0
-497 2997 0
-498 2998 0
-499 2999 0
-500 3000 0
-501 3001 0
-502 3002 0
-503 3003 0
-504 3004 0
-505 3005 0
-506 3006 0
-507 3007 0
-508 3008 0
-509 3009 0
-510 3010 0
-511 3011 0
-512 3012 0
-513 3013 0
-514 3014 0
-515 3015 0
-516 3016 0
-517 3017 0
-518 3018 0
-519 3019 0
-520 3020 0
-521 3021 0
-522 3022 0
-523 3023 0
-524 3024 0
-525 3025 0
-526 3026 0
-527 3027 0
-528 3028 0
-529 3029 0
-530 3030 0
-531 3031 0
-532 3032 0
-533 3033 0
-534 3034 0
-535 3035 0
-536 3036 0
-537 3037 0
-538 3038 0
-539 3039 0
-540 3040 0
-541 3041 0
-542 3042 0
-543 3043 0
-544 3044 0
-545 3045 0
-546 3046 0
-547 3047 0
-548 3048 0
-549 3049 0
-550 3050 0
-551 3051 0
-552 3052 0
-553 3053 0
-554 3054 0
-555 3055 0
-556 3056 0
-557 3057 0
-558 3058 0
-559 3059 0
-560 3060 0
-561 3061 0
-562 3062 0
-563 3063 0
-564 3064 0
-565 3065 0
-566 3066 0
-567 3067 0
-568 3068 0
-569 3069 0
-570 3070 0
-571 3071 0
-572 3072 0
-573 3073 0
-574 3074 0
-575 3075 0
-576 3076 0
-577 3077 0
-578 3078 0
-579 3079 0
-580 3080 0
-581 3081 0
-582 3082 0
-583 3083 0
-584 3084 0
-585 3085 0
-586 3086 0
-587 3087 0
-588 3088 0
-589 3089 0
-590 3090 0
-591 3091 0
-592 3092 0
-593 3093 0
-594 3094 0
-595 3095 0
-596 3096 0
-597 3097 0
-598 3098 0
-599 3099 0
-600 3100 0
-601 3101 0
-602 3102 0
-603 3103 0
-604 3104 0
-605 3105 0
-606 3106 0
-607 3107 0
-608 3108 0
-609 3109 0
-610 3110 0
-611 3111 0
-612 3112 0
-613 3113 0
-614 3114 0
-615 3115 0
-616 3116 0
-617 3117 0
-618 3118 0
-619 3119 0
-620 3120 0
-621 3121 0
-622 3122 0
-623 3123 0
-624 3124 0
-625 3125 0
-626 3126 0
-627 3127 0
-628 3128 0
-629 3129 0
-630 3130 0
-631 3131 0
-632 3132 0
-633 3133 0
-634 3134 0
-635 3135 0
-636 3136 0
-637 3137 0
-638 3138 0
-639 3139 0
-640 3140 0
-641 3141 0
-642 3142 0
-643 3143 0
-644 3144 0
-645 3145 0
-646 3146 0
-647 3147 0
-648 3148 0
-649 3149 0
-650 3150 0
-651 3151 0
-652 3152 0
-653 3153 0
-654 3154 0
-655 3155 0
-656 3156 0
-657 3157 0
-658 3158 0
-659 3159 0
-660 3160 0
-661 3161 0
-662 3162 0
-663 3163 0
-664 3164 0
-665 3165 0
-666 3166 0
-667 3167 0
-668 3168 0
-669 3169 0
-670 3170 0
-671 3171 0
-672 3172 0
-673 3173 0
-674 3174 0
-675 3175 0
-676 3176 0
-677 3177 0
-678 3178 0
-679 3179 0
-680 3180 0
-681 3181 0
-682 3182 0
-683 3183 0
-684 3184 0
-685 3185 0
-686 3186 0
-687 3187 0
-688 3188 0
-689 3189 0
-690 3190 0
-691 3191 0
-692 3192 0
-693 3193 0
-694 3194 0
-695 3195 0
-696 3196 0
-697 3197 0
-698 3198 0
-699 3199 0
-700 3200 0
-701 3201 0
-702 3202 0
-703 3203 0
-704 3204 0
-705 3205 0
-706 3206 0
-707 3207 0
-708 3208 0
-709 3209 0
-710 3210 0
-711 3211 0
-712 3212 0
-713 3213 0
-714 3214 0
-715 3215 0
-716 3216 0
-717 3217 0
-718 3218 0
-719 3219 0
-720 3220 0
-721 3221 0
-722 3222 0
-723 3223 0
-724 3224 0
-725 3225 0
-726 3226 0
-727 3227 0
-728 3228 0
-729 3229 0
-730 3230 0
-731 3231 0
-732 3232 0
-733 3233 0
-734 3234 0
-735 3235 0
-736 3236 0
-737 3237 0
-738 3238 0
-739 3239 0
-740 3240 0
-741 3241 0
-742 3242 0
-743 3243 0
-744 3244 0
-745 3245 0
-746 3246 0
-747 3247 0
-748 3248 0
-749 3249 0
-750 3250 0
-751 3251 0
-752 3252 0
-753 3253 0
-754 3254 0
-755 3255 0
-756 3256 0
-757 3257 0
-758 3258 0
-759 3259 0
-760 3260 0
-761 3261 0
-762 3262 0
-763 3263 0
-764 3264 0
-765 3265 0
-766 3266 0
-767 3267 0
-768 3268 0
-769 3269 0
-770 3270 0
-771 3271 0
-772 3272 0
-773 3273 0
-774 3274 0
-775 3275 0
-776 3276 0
-777 3277 0
-778 3278 0
-779 3279 0
-780 3280 0
-781 3281 0
-782 3282 0
-783 3283 0
-784 3284 0
-785 3285 0
-786 3286 0
-787 3287 0
-788 3288 0
-789 3289 0
-790 3290 0
-791 3291 0
-792 3292 0
-793 3293 0
-794 3294 0
-795 3295 0
-796 3296 0
-797 3297 0
-798 3298 0
-799 3299 0
-800 3300 0
-801 3301 0
-802 3302 0
-803 3303 0
-804 3304 0
-805 3305 0
-806 3306 0
-807 3307 0
-808 3308 0
-809 3309 0
-810 3310 0
-811 3311 0
-812 3312 0
-813 3313 0
-814 3314 0
-815 3315 0
-816 3316 0
-817 3317 0
-818 3318 0
-819 3319 0
-820 3320 0
-821 3321 0
-822 3322 0
-823 3323 0
-824 3324 0
-825 3325 0
-826 3326 0
-827 3327 0
-828 3328 0
-829 3329 0
-830 3330 0
-831 3331 0
-832 3332 0
-833 3333 0
-834 3334 0
-835 3335 0
-836 3336 0
-837 3337 0
-838 3338 0
-839 3339 0
-840 3340 0
-841 3341 0
-842 3342 0
-843 3343 0
-844 3344 0
-845 3345 0
-846 3346 0
-847 3347 0
-848 3348 0
-849 3349 0
-850 3350 0
-851 3351 0
-852 3352 0
-853 3353 0
-854 3354 0
-855 3355 0
-856 3356 0
-857 3357 0
-858 3358 0
-859 3359 0
-860 3360 0
-861 3361 0
-862 3362 0
-863 3363 0
-864 3364 0
-865 3365 0
-866 3366 0
-867 3367 0
-868 3368 0
-869 3369 0
-870 3370 0
-871 3371 0
-872 3372 0
-873 3373 0
-874 3374 0
-875 3375 0
-876 3376 0
-877 3377 0
-878 3378 0
-879 3379 0
-880 3380 0
-881 3381 0
-882 3382 0
-883 3383 0
-884 3384 0
-885 3385 0
-886 3386 0
-887 3387 0
-888 3388 0
-889 3389 0
-890 3390 0
-891 3391 0
-892 3392 0
-893 3393 0
-894 3394 0
-895 3395 0
-896 3396 0
-897 3397 0
-898 3398 0
-899 3399 0
-900 3400 0
-901 3401 0
-902 3402 0
-903 3403 0
-904 3404 0
-905 3405 0
-906 3406 0
-907 3407 0
-908 3408 0
-909 3409 0
-910 3410 0
-911 3411 0
-912 3412 0
-913 3413 0
-914 3414 0
-915 3415 0
-916 3416 0
-917 3417 0
-918 3418 0
-919 3419 0
-920 3420 0
-921 3421 0
-922 3422 0
-923 3423 0
-924 3424 0
-925 3425 0
-926 3426 0
-927 3427 0
-928 3428 0
-929 3429 0
-930 3430 0
-931 3431 0
-932 3432 0
-933 3433 0
-934 3434 0
-935 3435 0
-936 3436 0
-937 3437 0
-938 3438 0
-939 3439 0
-940 3440 0
-941 3441 0
-942 3442 0
-943 3443 0
-944 3444 0
-945 3445 0
-946 3446 0
-947 3447 0
-948 3448 0
-949 3449 0
-950 3450 0
-951 3451 0
-952 3452 0
-953 3453 0
-954 3454 0
-955 3455 0
-956 3456 0
-957 3457 0
-958 3458 0
-959 3459 0
-960 3460 0
-961 3461 0
-962 3462 0
-963 3463 0
-964 3464 0
-965 3465 0
-966 3466 0
-967 3467 0
-968 3468 0
-969 3469 0
-970 3470 0
-971 3471 0
-972 3472 0
-973 3473 0
-974 3474 0
-975 3475 0
-976 3476 0
-977 3477 0
-978 3478 0
-979 3479 0
-980 3480 0
-981 3481 0
-982 3482 0
-983 3483 0
-984 3484 0
-985 3485 0
-986 3486 0
-987 3487 0
-988 3488 0
-989 3489 0
-990 3490 0
-991 3491 0
-992 3492 0
-993 3493 0
-994 3494 0
-995 3495 0
-996 3496 0
-997 3497 0
-998 3498 0
-999 3499 0
-1000 3500 0
-1001 3501 0
-1002 3502 0
-1003 3503 0
-1004 3504 0
-1005 3505 0
-1006 3506 0
-1007 3507 0
-1008 3508 0
-1009 3509 0
-1010 3510 0
-1011 3511 0
-1012 3512 0
-1013 3513 0
-1014 3514 0
-1015 3515 0
-1016 3516 0
-1017 3517 0
-1018 3518 0
-1019 3519 0
-1020 3520 0
-1021 3521 0
-1022 3522 0
-1023 3523 0
-1024 3524 0
-1025 3525 0
-1026 3526 0
-1027 3527 0
-1028 3528 0
-1029 3529 0
-1030 3530 0
-1031 3531 0
-1032 3532 0
-1033 3533 0
-1034 3534 0
-1035 3535 0
-1036 3536 0
-1037 3537 0
-1038 3538 0
-1039 3539 0
-1040 3540 0
-1041 3541 0
-1042 3542 0
-1043 3543 0
-1044 3544 0
-1045 3545 0
-1046 3546 0
-1047 3547 0
-1048 3548 0
-1049 3549 0
-1050 3550 0
-1051 3551 0
-1052 3552 0
-1053 3553 0
-1054 3554 0
-1055 3555 0
-1056 3556 0
-1057 3557 0
-1058 3558 0
-1059 3559 0
-1060 3560 0
-1061 3561 0
-1062 3562 0
-1063 3563 0
-1064 3564 0
-1065 3565 0
-1066 3566 0
-1067 3567 0
-1068 3568 0
-1069 3569 0
-1070 3570 0
-1071 3571 0
-1072 3572 0
-1073 3573 0
-1074 3574 0
-1075 3575 0
-1076 3576 0
-1077 3577 0
-1078 3578 0
-1079 3579 0
-1080 3580 0
-1081 3581 0
-1082 3582 0
-1083 3583 0
-1084 3584 0
-1085 3585 0
-1086 3586 0
-1087 3587 0
-1088 3588 0
-1089 3589 0
-1090 3590 0
-1091 3591 0
-1092 3592 0
-1093 3593 0
-1094 3594 0
-1095 3595 0
-1096 3596 0
-1097 3597 0
-1098 3598 0
-1099 3599 0
-1100 3600 0
-1101 3601 0
-1102 3602 0
-1103 3603 0
-1104 3604 0
-1105 3605 0
-1106 3606 0
-1107 3607 0
-1108 3608 0
-1109 3609 0
-1110 3610 0
-1111 3611 0
-1112 3612 0
-1113 3613 0
-1114 3614 0
-1115 3615 0
-1116 3616 0
-1117 3617 0
-1118 3618 0
-1119 3619 0
-1120 3620 0
-1121 3621 0
-1122 3622 0
-1123 3623 0
-1124 3624 0
-1125 3625 0
-1126 3626 0
-1127 3627 0
-1128 3628 0
-1129 3629 0
-1130 3630 0
-1131 3631 0
-1132 3632 0
-1133 3633 0
-1134 3634 0
-1135 3635 0
-1136 3636 0
-1137 3637 0
-1138 3638 0
-1139 3639 0
-1140 3640 0
-1141 3641 0
-1142 3642 0
-1143 3643 0
-1144 3644 0
-1145 3645 0
-1146 3646 0
-1147 3647 0
-1148 3648 0
-1149 3649 0
-1150 3650 0
-1151 3651 0
-1152 3652 0
-1153 3653 0
-1154 3654 0
-1155 3655 0
-1156 3656 0
-1157 3657 0
-1158 3658 0
-1159 3659 0
-1160 3660 0
-1161 3661 0
-1162 3662 0
-1163 3663 0
-1164 3664 0
-1165 3665 0
-1166 3666 0
-1167 3667 0
-1168 3668 0
-1169 3669 0
-1170 3670 0
-1171 3671 0
-1172 3672 0
-1173 3673 0
-1174 3674 0
-1175 3675 0
-1176 3676 0
-1177 3677 0
-1178 3678 0
-1179 3679 0
-1180 3680 0
-1181 3681 0
-1182 3682 0
-1183 3683 0
-1184 3684 0
-1185 3685 0
-1186 3686 0
-1187 3687 0
-1188 3688 0
-1189 3689 0
-1190 3690 0
-1191 3691 0
-1192 3692 0
-1193 3693 0
-1194 3694 0
-1195 3695 0
-1196 3696 0
-1197 3697 0
-1198 3698 0
-1199 3699 0
-1200 3700 0
-1201 3701 0
-1202 3702 0
-1203 3703 0
-1204 3704 0
-1205 3705 0
-1206 3706 0
-1207 3707 0
-1208 3708 0
-1209 3709 0
-1210 3710 0
-1211 3711 0
-1212 3712 0
-1213 3713 0
-1214 3714 0
-1215 3715 0
-1216 3716 0
-1217 3717 0
-1218 3718 0
-1219 3719 0
-1220 3720 0
-1221 3721 0
-1222 3722 0
-1223 3723 0
-1224 3724 0
-1225 3725 0
-1226 3726 0
-1227 3727 0
-1228 3728 0
-1229 3729 0
-1230 3730 0
-1231 3731 0
-1232 3732 0
-1233 3733 0
-1234 3734 0
-1235 3735 0
-1236 3736 0
-1237 3737 0
-1238 3738 0
-1239 3739 0
-1240 3740 0
-1241 3741 0
-1242 3742 0
-1243 3743 0
-1244 3744 0
-1245 3745 0
-1246 3746 0
-1247 3747 0
-1248 3748 0
-1249 3749 0
-1250 3750 0
-1251 3751 0
-1252 3752 0
-1253 3753 0
-1254 3754 0
-1255 3755 0
-1256 3756 0
-1257 3757 0
-1258 3758 0
-1259 3759 0
-1260 3760 0
-1261 3761 0
-1262 3762 0
-1263 3763 0
-1264 3764 0
-1265 3765 0
-1266 3766 0
-1267 3767 0
-1268 3768 0
-1269 3769 0
-1270 3770 0
-1271 3771 0
-1272 3772 0
-1273 3773 0
-1274 3774 0
-1275 3775 0
-1276 3776 0
-1277 3777 0
-1278 3778 0
-1279 3779 0
-1280 3780 0
-1281 3781 0
-1282 3782 0
-1283 3783 0
-1284 3784 0
-1285 3785 0
-1286 3786 0
-1287 3787 0
-1288 3788 0
-1289 3789 0
-1290 3790 0
-1291 3791 0
-1292 3792 0
-1293 3793 0
-1294 3794 0
-1295 3795 0
-1296 3796 0
-1297 3797 0
-1298 3798 0
-1299 3799 0
-1300 3800 0
-1301 3801 0
-1302 3802 0
-1303 3803 0
-1304 3804 0
-1305 3805 0
-1306 3806 0
-1307 3807 0
-1308 3808 0
-1309 3809 0
-1310 3810 0
-1311 3811 0
-1312 3812 0
-1313 3813 0
-1314 3814 0
-1315 3815 0
-1316 3816 0
-1317 3817 0
-1318 3818 0
-1319 3819 0
-1320 3820 0
-1321 3821 0
-1322 3822 0
-1323 3823 0
-1324 3824 0
-1325 3825 0
-1326 3826 0
-1327 3827 0
-1328 3828 0
-1329 3829 0
-1330 3830 0
-1331 3831 0
-1332 3832 0
-1333 3833 0
-1334 3834 0
-1335 3835 0
-1336 3836 0
-1337 3837 0
-1338 3838 0
-1339 3839 0
-1340 3840 0
-1341 3841 0
-1342 3842 0
-1343 3843 0
-1344 3844 0
-1345 3845 0
-1346 3846 0
-1347 3847 0
-1348 3848 0
-1349 3849 0
-1350 3850 0
-1351 3851 0
-1352 3852 0
-1353 3853 0
-1354 3854 0
-1355 3855 0
-1356 3856 0
-1357 3857 0
-1358 3858 0
-1359 3859 0
-1360 3860 0
-1361 3861 0
-1362 3862 0
-1363 3863 0
-1364 3864 0
-1365 3865 0
-1366 3866 0
-1367 3867 0
-1368 3868 0
-1369 3869 0
-1370 3870 0
-1371 3871 0
-1372 3872 0
-1373 3873 0
-1374 3874 0
-1375 3875 0
-1376 3876 0
-1377 3877 0
-1378 3878 0
-1379 3879 0
-1380 3880 0
-1381 3881 0
-1382 3882 0
-1383 3883 0
-1384 3884 0
-1385 3885 0
-1386 3886 0
-1387 3887 0
-1388 3888 0
-1389 3889 0
-1390 3890 0
-1391 3891 0
-1392 3892 0
-1393 3893 0
-1394 3894 0
-1395 3895 0
-1396 3896 0
-1397 3897 0
-1398 3898 0
-1399 3899 0
-1400 3900 0
-1401 3901 0
-1402 3902 0
-1403 3903 0
-1404 3904 0
-1405 3905 0
-1406 3906 0
-1407 3907 0
-1408 3908 0
-1409 3909 0
-1410 3910 0
-1411 3911 0
-1412 3912 0
-1413 3913 0
-1414 3914 0
-1415 3915 0
-1416 3916 0
-1417 3917 0
-1418 3918 0
-1419 3919 0
-1420 3920 0
-1421 3921 0
-1422 3922 0
-1423 3923 0
-1424 3924 0
-1425 3925 0
-1426 3926 0
-1427 3927 0
-1428 3928 0
-1429 3929 0
-1430 3930 0
-1431 3931 0
-1432 3932 0
-1433 3933 0
-1434 3934 0
-1435 3935 0
-1436 3936 0
-1437 3937 0
-1438 3938 0
-1439 3939 0
-1440 3940 0
-1441 3941 0
-1442 3942 0
-1443 3943 0
-1444 3944 0
-1445 3945 0
-1446 3946 0
-1447 3947 0
-1448 3948 0
-1449 3949 0
-1450 3950 0
-1451 3951 0
-1452 3952 0
-1453 3953 0
-1454 3954 0
-1455 3955 0
-1456 3956 0
-1457 3957 0
-1458 3958 0
-1459 3959 0
-1460 3960 0
-1461 3961 0
-1462 3962 0
-1463 3963 0
-1464 3964 0
-1465 3965 0
-1466 3966 0
-1467 3967 0
-1468 3968 0
-1469 3969 0
-1470 3970 0
-1471 3971 0
-1472 3972 0
-1473 3973 0
-1474 3974 0
-1475 3975 0
-1476 3976 0
-1477 3977 0
-1478 3978 0
-1479 3979 0
-1480 3980 0
-1481 3981 0
-1482 3982 0
-1483 3983 0
-1484 3984 0
-1485 3985 0
-1486 3986 0
-1487 3987 0
-1488 3988 0
-1489 3989 0
-1490 3990 0
-1491 3991 0
-1492 3992 0
-1493 3993 0
-1494 3994 0
-1495 3995 0
-1496 3996 0
-1497 3997 0
-1498 3998 0
-1499 3999 0
-1500 4000 0
-1501 4001 0
-1502 4002 0
-1503 4003 0
-1504 4004 0
-1505 4005 0
-1506 4006 0
-1507 4007 0
-1508 4008 0
-1509 4009 0
-1510 4010 0
-1511 4011 0
-1512 4012 0
-1513 4013 0
-1514 4014 0
-1515 4015 0
-1516 4016 0
-1517 4017 0
-1518 4018 0
-1519 4019 0
-1520 4020 0
-1521 4021 0
-1522 4022 0
-1523 4023 0
-1524 4024 0
-1525 4025 0
-1526 4026 0
-1527 4027 0
-1528 4028 0
-1529 4029 0
-1530 4030 0
-1531 4031 0
-1532 4032 0
-1533 4033 0
-1534 4034 0
-1535 4035 0
-1536 4036 0
-1537 4037 0
-1538 4038 0
-1539 4039 0
-1540 4040 0
-1541 4041 0
-1542 4042 0
-1543 4043 0
-1544 4044 0
-1545 4045 0
-1546 4046 0
-1547 4047 0
-1548 4048 0
-1549 4049 0
-1550 4050 0
-1551 4051 0
-1552 4052 0
-1553 4053 0
-1554 4054 0
-1555 4055 0
-1556 4056 0
-1557 4057 0
-1558 4058 0
-1559 4059 0
-1560 4060 0
-1561 4061 0
-1562 4062 0
-1563 4063 0
-1564 4064 0
-1565 4065 0
-1566 4066 0
-1567 4067 0
-1568 4068 0
-1569 4069 0
-1570 4070 0
-1571 4071 0
-1572 4072 0
-1573 4073 0
-1574 4074 0
-1575 4075 0
-1576 4076 0
-1577 4077 0
-1578 4078 0
-1579 4079 0
-1580 4080 0
-1581 4081 0
-1582 4082 0
-1583 4083 0
-1584 4084 0
-1585 4085 0
-1586 4086 0
-1587 4087 0
-1588 4088 0
-1589 4089 0
-1590 4090 0
-1591 4091 0
-1592 4092 0
-1593 4093 0
-1594 4094 0
-1595 4095 0
-1596 4096 0
-1597 4097 0
-1598 4098 0
-1599 4099 0
-1600 4100 0
-1601 4101 0
-1602 4102 0
-1603 4103 0
-1604 4104 0
-1605 4105 0
-1606 4106 0
-1607 4107 0
-1608 4108 0
-1609 4109 0
-1610 4110 0
-1611 4111 0
-1612 4112 0
-1613 4113 0
-1614 4114 0
-1615 4115 0
-1616 4116 0
-1617 4117 0
-1618 4118 0
-1619 4119 0
-1620 4120 0
-1621 4121 0
-1622 4122 0
-1623 4123 0
-1624 4124 0
-1625 4125 0
-1626 4126 0
-1627 4127 0
-1628 4128 0
-1629 4129 0
-1630 4130 0
-1631 4131 0
-1632 4132 0
-1633 4133 0
-1634 4134 0
-1635 4135 0
-1636 4136 0
-1637 4137 0
-1638 4138 0
-1639 4139 0
-1640 4140 0
-1641 4141 0
-1642 4142 0
-1643 4143 0
-1644 4144 0
-1645 4145 0
-1646 4146 0
-1647 4147 0
-1648 4148 0
-1649 4149 0
-1650 4150 0
-1651 4151 0
-1652 4152 0
-1653 4153 0
-1654 4154 0
-1655 4155 0
-1656 4156 0
-1657 4157 0
-1658 4158 0
-1659 4159 0
-1660 4160 0
-1661 4161 0
-1662 4162 0
-1663 4163 0
-1664 4164 0
-1665 4165 0
-1666 4166 0
-1667 4167 0
-1668 4168 0
-1669 4169 0
-1670 4170 0
-1671 4171 0
-1672 4172 0
-1673 4173 0
-1674 4174 0
-1675 4175 0
-1676 4176 0
-1677 4177 0
-1678 4178 0
-1679 4179 0
-1680 4180 0
-1681 4181 0
-1682 4182 0
-1683 4183 0
-1684 4184 0
-1685 4185 0
-1686 4186 0
-1687 4187 0
-1688 4188 0
-1689 4189 0
-1690 4190 0
-1691 4191 0
-1692 4192 0
-1693 4193 0
-1694 4194 0
-1695 4195 0
-1696 4196 0
-1697 4197 0
-1698 4198 0
-1699 4199 0
-1700 4200 0
-1701 4201 0
-1702 4202 0
-1703 4203 0
-1704 4204 0
-1705 4205 0
-1706 4206 0
-1707 4207 0
-1708 4208 0
-1709 4209 0
-1710 4210 0
-1711 4211 0
-1712 4212 0
-1713 4213 0
-1714 4214 0
-1715 4215 0
-1716 4216 0
-1717 4217 0
-1718 4218 0
-1719 4219 0
-1720 4220 0
-1721 4221 0
-1722 4222 0
-1723 4223 0
-1724 4224 0
-1725 4225 0
-1726 4226 0
-1727 4227 0
-1728 4228 0
-1729 4229 0
-1730 4230 0
-1731 4231 0
-1732 4232 0
-1733 4233 0
-1734 4234 0
-1735 4235 0
-1736 4236 0
-1737 4237 0
-1738 4238 0
-1739 4239 0
-1740 4240 0
-1741 4241 0
-1742 4242 0
-1743 4243 0
-1744 4244 0
-1745 4245 0
-1746 4246 0
-1747 4247 0
-1748 4248 0
-1749 4249 0
-1750 4250 0
-1751 4251 0
-1752 4252 0
-1753 4253 0
-1754 4254 0
-1755 4255 0
-1756 4256 0
-1757 4257 0
-1758 4258 0
-1759 4259 0
-1760 4260 0
-1761 4261 0
-1762 4262 0
-1763 4263 0
-1764 4264 0
-1765 4265 0
-1766 4266 0
-1767 4267 0
-1768 4268 0
-1769 4269 0
-1770 4270 0
-1771 4271 0
-1772 4272 0
-1773 4273 0
-1774 4274 0
-1775 4275 0
-1776 4276 0
-1777 4277 0
-1778 4278 0
-1779 4279 0
-1780 4280 0
-1781 4281 0
-1782 4282 0
-1783 4283 0
-1784 4284 0
-1785 4285 0
-1786 4286 0
-1787 4287 0
-1788 4288 0
-1789 4289 0
-1790 4290 0
-1791 4291 0
-1792 4292 0
-1793 4293 0
-1794 4294 0
-1795 4295 0
-1796 4296 0
-1797 4297 0
-1798 4298 0
-1799 4299 0
-1800 4300 0
-1801 4301 0
-1802 4302 0
-1803 4303 0
-1804 4304 0
-1805 4305 0
-1806 4306 0
-1807 4307 0
-1808 4308 0
-1809 4309 0
-1810 4310 0
-1811 4311 0
-1812 4312 0
-1813 4313 0
-1814 4314 0
-1815 4315 0
-1816 4316 0
-1817 4317 0
-1818 4318 0
-1819 4319 0
-1820 4320 0
-1821 4321 0
-1822 4322 0
-1823 4323 0
-1824 4324 0
-1825 4325 0
-1826 4326 0
-1827 4327 0
-1828 4328 0
-1829 4329 0
-1830 4330 0
-1831 4331 0
-1832 4332 0
-1833 4333 0
-1834 4334 0
-1835 4335 0
-1836 4336 0
-1837 4337 0
-1838 4338 0
-1839 4339 0
-1840 4340 0
-1841 4341 0
-1842 4342 0
-1843 4343 0
-1844 4344 0
-1845 4345 0
-1846 4346 0
-1847 4347 0
-1848 4348 0
-1849 4349 0
-1850 4350 0
-1851 4351 0
-1852 4352 0
-1853 4353 0
-1854 4354 0
-1855 4355 0
-1856 4356 0
-1857 4357 0
-1858 4358 0
-1859 4359 0
-1860 4360 0
-1861 4361 0
-1862 4362 0
-1863 4363 0
-1864 4364 0
-1865 4365 0
-1866 4366 0
-1867 4367 0
-1868 4368 0
-1869 4369 0
-1870 4370 0
-1871 4371 0
-1872 4372 0
-1873 4373 0
-1874 4374 0
-1875 4375 0
-1876 4376 0
-1877 4377 0
-1878 4378 0
-1879 4379 0
-1880 4380 0
-1881 4381 0
-1882 4382 0
-1883 4383 0
-1884 4384 0
-1885 4385 0
-1886 4386 0
-1887 4387 0
-1888 4388 0
-1889 4389 0
-1890 4390 0
-1891 4391 0
-1892 4392 0
-1893 4393 0
-1894 4394 0
-1895 4395 0
-1896 4396 0
-1897 4397 0
-1898 4398 0
-1899 4399 0
-1900 4400 0
-1901 4401 0
-1902 4402 0
-1903 4403 0
-1904 4404 0
-1905 4405 0
-1906 4406 0
-1907 4407 0
-1908 4408 0
-1909 4409 0
-1910 4410 0
-1911 4411 0
-1912 4412 0
-1913 4413 0
-1914 4414 0
-1915 4415 0
-1916 4416 0
-1917 4417 0
-1918 4418 0
-1919 4419 0
-1920 4420 0
-1921 4421 0
-1922 4422 0
-1923 4423 0
-1924 4424 0
-1925 4425 0
-1926 4426 0
-1927 4427 0
-1928 4428 0
-1929 4429 0
-1930 4430 0
-1931 4431 0
-1932 4432 0
-1933 4433 0
-1934 4434 0
-1935 4435 0
-1936 4436 0
-1937 4437 0
-1938 4438 0
-1939 4439 0
-1940 4440 0
-1941 4441 0
-1942 4442 0
-1943 4443 0
-1944 4444 0
-1945 4445 0
-1946 4446 0
-1947 4447 0
-1948 4448 0
-1949 4449 0
-1950 4450 0
-1951 4451 0
-1952 4452 0
-1953 4453 0
-1954 4454 0
-1955 4455 0
-1956 4456 0
-1957 4457 0
-1958 4458 0
-1959 4459 0
-1960 4460 0
-1961 4461 0
-1962 4462 0
-1963 4463 0
-1964 4464 0
-1965 4465 0
-1966 4466 0
-1967 4467 0
-1968 4468 0
-1969 4469 0
-1970 4470 0
-1971 4471 0
-1972 4472 0
-1973 4473 0
-1974 4474 0
-1975 4475 0
-1976 4476 0
-1977 4477 0
-1978 4478 0
-1979 4479 0
-1980 4480 0
-1981 4481 0
-1982 4482 0
-1983 4483 0
-1984 4484 0
-1985 4485 0
-1986 4486 0
-1987 4487 0
-1988 4488 0
-1989 4489 0
-1990 4490 0
-1991 4491 0
-1992 4492 0
-1993 4493 0
-1994 4494 0
-1995 4495 0
-1996 4496 0
-1997 4497 0
-1998 4498 0
-1999 4499 0
-2000 4500 0
-2001 4501 0
-2002 4502 0
-2003 4503 0
-2004 4504 0
-2005 4505 0
-2006 4506 0
-2007 4507 0
-2008 4508 0
-2009 4509 0
-2010 4510 0
-2011 4511 0
-2012 4512 0
-2013 4513 0
-2014 4514 0
-2015 4515 0
-2016 4516 0
-2017 4517 0
-2018 4518 0
-2019 4519 0
-2020 4520 0
-2021 4521 0
-2022 4522 0
-2023 4523 0
-2024 4524 0
-2025 4525 0
-2026 4526 0
-2027 4527 0
-2028 4528 0
-2029 4529 0
-2030 4530 0
-2031 4531 0
-2032 4532 0
-2033 4533 0
-2034 4534 0
-2035 4535 0
-2036 4536 0
-2037 4537 0
-2038 4538 0
-2039 4539 0
-2040 4540 0
-2041 4541 0
-2042 4542 0
-2043 4543 0
-2044 4544 0
-2045 4545 0
-2046 4546 0
-2047 4547 0
-2048 4548 0
-2049 4549 0
-2050 4550 0
-2051 4551 0
-2052 4552 0
-2053 4553 0
-2054 4554 0
-2055 4555 0
-2056 4556 0
-2057 4557 0
-2058 4558 0
-2059 4559 0
-2060 4560 0
-2061 4561 0
-2062 4562 0
-2063 4563 0
-2064 4564 0
-2065 4565 0
-2066 4566 0
-2067 4567 0
-2068 4568 0
-2069 4569 0
-2070 4570 0
-2071 4571 0
-2072 4572 0
-2073 4573 0
-2074 4574 0
-2075 4575 0
-2076 4576 0
-2077 4577 0
-2078 4578 0
-2079 4579 0
-2080 4580 0
-2081 4581 0
-2082 4582 0
-2083 4583 0
-2084 4584 0
-2085 4585 0
-2086 4586 0
-2087 4587 0
-2088 4588 0
-2089 4589 0
-2090 4590 0
-2091 4591 0
-2092 4592 0
-2093 4593 0
-2094 4594 0
-2095 4595 0
-2096 4596 0
-2097 4597 0
-2098 4598 0
-2099 4599 0
-2100 4600 0
-2101 4601 0
-2102 4602 0
-2103 4603 0
-2104 4604 0
-2105 4605 0
-2106 4606 0
-2107 4607 0
-2108 4608 0
-2109 4609 0
-2110 4610 0
-2111 4611 0
-2112 4612 0
-2113 4613 0
-2114 4614 0
-2115 4615 0
-2116 4616 0
-2117 4617 0
-2118 4618 0
-2119 4619 0
-2120 4620 0
-2121 4621 0
-2122 4622 0
-2123 4623 0
-2124 4624 0
-2125 4625 0
-2126 4626 0
-2127 4627 0
-2128 4628 0
-2129 4629 0
-2130 4630 0
-2131 4631 0
-2132 4632 0
-2133 4633 0
-2134 4634 0
-2135 4635 0
-2136 4636 0
-2137 4637 0
-2138 4638 0
-2139 4639 0
-2140 4640 0
-2141 4641 0
-2142 4642 0
-2143 4643 0
-2144 4644 0
-2145 4645 0
-2146 4646 0
-2147 4647 0
-2148 4648 0
-2149 4649 0
-2150 4650 0
-2151 4651 0
-2152 4652 0
-2153 4653 0
-2154 4654 0
-2155 4655 0
-2156 4656 0
-2157 4657 0
-2158 4658 0
-2159 4659 0
-2160 4660 0
-2161 4661 0
-2162 4662 0
-2163 4663 0
-2164 4664 0
-2165 4665 0
-2166 4666 0
-2167 4667 0
-2168 4668 0
-2169 4669 0
-2170 4670 0
-2171 4671 0
-2172 4672 0
-2173 4673 0
-2174 4674 0
-2175 4675 0
-2176 4676 0
-2177 4677 0
-2178 4678 0
-2179 4679 0
-2180 4680 0
-2181 4681 0
-2182 4682 0
-2183 4683 0
-2184 4684 0
-2185 4685 0
-2186 4686 0
-2187 4687 0
-2188 4688 0
-2189 4689 0
-2190 4690 0
-2191 4691 0
-2192 4692 0
-2193 4693 0
-2194 4694 0
-2195 4695 0
-2196 4696 0
-2197 4697 0
-2198 4698 0
-2199 4699 0
-2200 4700 0
-2201 4701 0
-2202 4702 0
-2203 4703 0
-2204 4704 0
-2205 4705 0
-2206 4706 0
-2207 4707 0
-2208 4708 0
-2209 4709 0
-2210 4710 0
-2211 4711 0
-2212 4712 0
-2213 4713 0
-2214 4714 0
-2215 4715 0
-2216 4716 0
-2217 4717 0
-2218 4718 0
-2219 4719 0
-2220 4720 0
-2221 4721 0
-2222 4722 0
-2223 4723 0
-2224 4724 0
-2225 4725 0
-2226 4726 0
-2227 4727 0
-2228 4728 0
-2229 4729 0
-2230 4730 0
-2231 4731 0
-2232 4732 0
-2233 4733 0
-2234 4734 0
-2235 4735 0
-2236 4736 0
-2237 4737 0
-2238 4738 0
-2239 4739 0
-2240 4740 0
-2241 4741 0
-2242 4742 0
-2243 4743 0
-2244 4744 0
-2245 4745 0
-2246 4746 0
-2247 4747 0
-2248 4748 0
-2249 4749 0
-2250 4750 0
-2251 4751 0
-2252 4752 0
-2253 4753 0
-2254 4754 0
-2255 4755 0
-2256 4756 0
-2257 4757 0
-2258 4758 0
-2259 4759 0
-2260 4760 0
-2261 4761 0
-2262 4762 0
-2263 4763 0
-2264 4764 0
-2265 4765 0
-2266 4766 0
-2267 4767 0
-2268 4768 0
-2269 4769 0
-2270 4770 0
-2271 4771 0
-2272 4772 0
-2273 4773 0
-2274 4774 0
-2275 4775 0
-2276 4776 0
-2277 4777 0
-2278 4778 0
-2279 4779 0
-2280 4780 0
-2281 4781 0
-2282 4782 0
-2283 4783 0
-2284 4784 0
-2285 4785 0
-2286 4786 0
-2287 4787 0
-2288 4788 0
-2289 4789 0
-2290 4790 0
-2291 4791 0
-2292 4792 0
-2293 4793 0
-2294 4794 0
-2295 4795 0
-2296 4796 0
-2297 4797 0
-2298 4798 0
-2299 4799 0
-2300 4800 0
-2301 4801 0
-2302 4802 0
-2303 4803 0
-2304 4804 0
-2305 4805 0
-2306 4806 0
-2307 4807 0
-2308 4808 0
-2309 4809 0
-2310 4810 0
-2311 4811 0
-2312 4812 0
-2313 4813 0
-2314 4814 0
-2315 4815 0
-2316 4816 0
-2317 4817 0
-2318 4818 0
-2319 4819 0
-2320 4820 0
-2321 4821 0
-2322 4822 0
-2323 4823 0
-2324 4824 0
-2325 4825 0
-2326 4826 0
-2327 4827 0
-2328 4828 0
-2329 4829 0
-2330 4830 0
-2331 4831 0
-2332 4832 0
-2333 4833 0
-2334 4834 0
-2335 4835 0
-2336 4836 0
-2337 4837 0
-2338 4838 0
-2339 4839 0
-2340 4840 0
-2341 4841 0
-2342 4842 0
-2343 4843 0
-2344 4844 0
-2345 4845 0
-2346 4846 0
-2347 4847 0
-2348 4848 0
-2349 4849 0
-2350 4850 0
-2351 4851 0
-2352 4852 0
-2353 4853 0
-2354 4854 0
-2355 4855 0
-2356 4856 0
-2357 4857 0
-2358 4858 0
-2359 4859 0
-2360 4860 0
-2361 4861 0
-2362 4862 0
-2363 4863 0
-2364 4864 0
-2365 4865 0
-2366 4866 0
-2367 4867 0
-2368 4868 0
-2369 4869 0
-2370 4870 0
-2371 4871 0
-2372 4872 0
-2373 4873 0
-2374 4874 0
-2375 4875 0
-2376 4876 0
-2377 4877 0
-2378 4878 0
-2379 4879 0
-2380 4880 0
-2381 4881 0
-2382 4882 0
-2383 4883 0
-2384 4884 0
-2385 4885 0
-2386 4886 0
-2387 4887 0
-2388 4888 0
-2389 4889 0
-2390 4890 0
-2391 4891 0
-2392 4892 0
-2393 4893 0
-2394 4894 0
-2395 4895 0
-2396 4896 0
-2397 4897 0
-2398 4898 0
-2399 4899 0
-2400 4900 0
-2401 4901 0
-2402 4902 0
-2403 4903 0
-2404 4904 0
-2405 4905 0
-2406 4906 0
-2407 4907 0
-2408 4908 0
-2409 4909 0
-2410 4910 0
-2411 4911 0
-2412 4912 0
-2413 4913 0
-2414 4914 0
-2415 4915 0
-2416 4916 0
-2417 4917 0
-2418 4918 0
-2419 4919 0
-2420 4920 0
-2421 4921 0
-2422 4922 0
-2423 4923 0
-2424 4924 0
-2425 4925 0
-2426 4926 0
-2427 4927 0
-2428 4928 0
-2429 4929 0
-2430 4930 0
-2431 4931 0
-2432 4932 0
-2433 4933 0
-2434 4934 0
-2435 4935 0
-2436 4936 0
-2437 4937 0
-2438 4938 0
-2439 4939 0
-2440 4940 0
-2441 4941 0
-2442 4942 0
-2443 4943 0
-2444 4944 0
-2445 4945 0
-2446 4946 0
-2447 4947 0
-2448 4948 0
-2449 4949 0
-2450 4950 0
-2451 4951 0
-2452 4952 0
-2453 4953 0
-2454 4954 0
-2455 4955 0
-2456 4956 0
-2457 4957 0
-2458 4958 0
-2459 4959 0
-2460 4960 0
-2461 4961 0
-2462 4962 0
-2463 4963 0
-2464 4964 0
-2465 4965 0
-2466 4966 0
-2467 4967 0
-2468 4968 0
-2469 4969 0
-2470 4970 0
-2471 4971 0
-2472 4972 0
-2473 4973 0
-2474 4974 0
-2475 4975 0
-2476 4976 0
-2477 4977 0
-2478 4978 0
-2479 4979 0
-2480 4980 0
-2481 4981 0
-2482 4982 0
-2483 4983 0
-2484 4984 0
-2485 4985 0
-2486 4986 0
-2487 4987 0
-2488 4988 0
-2489 4989 0
-2490 4990 0
-2491 4991 0
-2492 4992 0
-2493 4993 0
-2494 4994 0
-2495 4995 0
-2496 4996 0
-2497 4997 0
-2498 4998 0
-2499 4999 0
-2500 5000 0
