c LEQ(domain2,domain2) E(domain2,domain2) LEQ(domain2,domain3) E(domain2,domain3) E(domain3,domain2) LEQ(domain3,domain2) E(domain2,domain0) E(domain0,domain2) LEQ(domain2,domain0) LEQ(domain0,domain2) E(domain1,domain2) E(domain2,domain1) LEQ(domain1,domain2) LEQ(domain2,domain1) E(domain4,domain2) LEQ(domain2,domain4) LEQ(domain4,domain2) E(domain2,domain4) E(domain3,domain3) LEQ(domain3,domain3) LEQ(domain3,domain0) E(domain0,domain3) LEQ(domain0,domain3) E(domain3,domain0) E(domain1,domain3) E(domain3,domain1) LEQ(domain1,domain3) LEQ(domain3,domain1) E(domain4,domain3) LEQ(domain3,domain4) LEQ(domain4,domain3) E(domain3,domain4) E(domain0,domain0) LEQ(domain0,domain0) LEQ(domain0,domain1) E(domain1,domain0) LEQ(domain1,domain0) E(domain0,domain1) LEQ(domain0,domain4) E(domain4,domain0) E(domain0,domain4) LEQ(domain4,domain0) LEQ(domain1,domain1) E(domain1,domain1) LEQ(domain4,domain1) LEQ(domain1,domain4) E(domain4,domain1) E(domain1,domain4) LEQ(domain4,domain4) E(domain4,domain4)
c 1 2 3 4 5 6 7 8 9 10 11 12 13 14 15 16 17 18 19 20 21 22 23 24 25 26 27 28 29 30 31 32 33 34 35 36 37 38 39 40 41 42 43 44 45 46 47 48 49 50
p cnf 50 110
34 -33 0
35 -38 0
10 -8 0
23 -22 0
39 -41 0
37 -36 0
43 -44 0
13 -11 0
27 -25 0
46 -48 0
9 -7 0
14 -12 0
1 -2 0
3 -4 0
16 -18 0
21 -24 0
28 -26 0
6 -5 0
20 -19 0
30 -32 0
42 -40 0
45 -47 0
17 -15 0
31 -29 0
49 -50 0
34 0
35 37 0
-35 -37 0
-35 -13 10 0
-35 -27 23 0
-35 -46 39 0
10 9 0
-10 -9 0
-10 -14 35 0
-10 -3 23 0
-10 -16 39 0
23 21 0
-23 -21 0
-23 -28 35 0
-23 -6 10 0
-23 -30 39 0
39 42 0
-39 -42 0
-39 -45 35 0
-39 -17 10 0
-39 -31 23 0
43 0
-37 -10 13 0
-37 -23 27 0
-37 -39 46 0
13 14 0
-13 -14 0
-13 -9 37 0
-13 -3 27 0
-13 -16 46 0
27 28 0
-27 -28 0
-27 -21 37 0
-27 -6 13 0
-27 -30 46 0
46 45 0
-46 -45 0
-46 -42 37 0
-46 -17 13 0
-46 -31 27 0
1 0
-9 -35 14 0
-9 -23 3 0
-9 -39 16 0
-14 -37 9 0
-14 -27 3 0
-14 -46 16 0
3 6 0
-3 -6 0
-3 -21 9 0
-3 -28 14 0
-3 -30 16 0
16 17 0
-16 -17 0
-16 -42 9 0
-16 -45 14 0
-16 -31 3 0
20 0
-21 -35 28 0
-21 -10 6 0
-21 -39 30 0
-28 -37 21 0
-28 -13 6 0
-28 -46 30 0
-6 -9 21 0
-6 -14 28 0
-6 -16 30 0
30 31 0
-30 -31 0
-30 -42 21 0
-30 -45 28 0
-30 -17 6 0
49 0
-42 -35 45 0
-42 -10 17 0
-42 -23 31 0
-45 -37 42 0
-45 -13 17 0
-45 -27 31 0
-17 -9 42 0
-17 -14 45 0
-17 -3 31 0
-31 -21 42 0
-31 -28 45 0
-31 -6 17 0
