p cnf 1140 5090
1 -2 -3 0
1 -4 -5 0
1 -6 -7 0
1 -8 -9 0
1 -10 -11 0
1 -12 -13 0
1 -14 -15 0
1 -16 -17 0
1 -18 -19 0
1 -20 -21 0
22 -23 -24 0
22 -25 -26 0
22 -27 -28 0
22 -29 -30 0
22 -31 -32 0
22 -33 -34 0
22 -35 -36 0
22 -37 -38 0
22 -39 -40 0
22 -41 -42 0
43 -44 -45 0
43 -46 -47 0
43 -48 -49 0
43 -50 -51 0
43 -52 -53 0
43 -54 -55 0
43 -56 -57 0
43 -58 -59 0
43 -60 -61 0
43 -62 -63 0
64 -65 -66 0
64 -67 -68 0
64 -69 -70 0
64 -71 -72 0
64 -73 -74 0
64 -75 -76 0
64 -77 -78 0
64 -79 -80 0
64 -81 -82 0
64 -83 -84 0
85 -86 -87 0
85 -88 -89 0
85 -90 -91 0
85 -92 -93 0
85 -94 -95 0
85 -96 -97 0
85 -98 -99 0
85 -100 -101 0
85 -102 -103 0
85 -104 -105 0
106 -107 -108 0
106 -109 -110 0
106 -111 -112 0
106 -113 -114 0
106 -115 -116 0
106 -117 -118 0
106 -119 -120 0
106 -121 -122 0
106 -123 -124 0
106 -125 -126 0
127 -128 -129 0
127 -130 -131 0
127 -132 -133 0
127 -134 -135 0
127 -136 -137 0
127 -138 -139 0
127 -140 -141 0
127 -142 -143 0
127 -144 -145 0
127 -146 -147 0
148 -149 -150 0
148 -151 -152 0
148 -153 -154 0
148 -155 -156 0
148 -157 -158 0
148 -159 -160 0
148 -161 -162 0
148 -163 -164 0
148 -165 -166 0
148 -167 -168 0
169 -170 -171 0
169 -172 -173 0
169 -174 -175 0
169 -176 -177 0
169 -178 -179 0
169 -180 -181 0
169 -182 -183 0
169 -184 -185 0
169 -186 -187 0
169 -188 -189 0
190 -191 -192 0
190 -193 -194 0
190 -195 -196 0
190 -197 -198 0
190 -199 -200 0
190 -201 -202 0
190 -203 -204 0
190 -205 -206 0
190 -207 -208 0
190 -209 -210 0
211 -212 -1 0
211 -213 -22 0
211 -214 -43 0
211 -215 -64 0
211 -216 -85 0
211 -217 -106 0
211 -218 -127 0
211 -219 -148 0
211 -220 -169 0
211 -221 -190 0
222 -223 -1 0
222 -224 -22 0
222 -225 -43 0
222 -226 -64 0
222 -227 -85 0
222 -228 -106 0
222 -229 -127 0
222 -230 -148 0
222 -231 -169 0
222 -232 -190 0
233 -234 -1 0
233 -235 -22 0
233 -236 -43 0
233 -237 -64 0
233 -238 -85 0
233 -239 -106 0
233 -240 -127 0
233 -241 -148 0
233 -242 -169 0
233 -243 -190 0
244 -245 -1 0
244 -246 -22 0
244 -247 -43 0
244 -248 -64 0
244 -249 -85 0
244 -250 -106 0
244 -251 -127 0
244 -252 -148 0
244 -253 -169 0
244 -254 -190 0
255 -256 -1 0
255 -257 -22 0
255 -258 -43 0
255 -259 -64 0
255 -260 -85 0
255 -261 -106 0
255 -262 -127 0
255 -263 -148 0
255 -264 -169 0
255 -265 -190 0
266 -267 -1 0
266 -268 -22 0
266 -269 -43 0
266 -270 -64 0
266 -271 -85 0
266 -272 -106 0
266 -273 -127 0
266 -274 -148 0
266 -275 -169 0
266 -276 -190 0
277 -278 -1 0
277 -279 -22 0
277 -280 -43 0
277 -281 -64 0
277 -282 -85 0
277 -283 -106 0
277 -284 -127 0
277 -285 -148 0
277 -286 -169 0
277 -287 -190 0
288 -289 -1 0
288 -290 -22 0
288 -291 -43 0
288 -292 -64 0
288 -293 -85 0
288 -294 -106 0
288 -295 -127 0
288 -296 -148 0
288 -297 -169 0
288 -298 -190 0
299 -300 -1 0
299 -301 -22 0
299 -302 -43 0
299 -303 -64 0
299 -304 -85 0
299 -305 -106 0
299 -306 -127 0
299 -307 -148 0
299 -308 -169 0
299 -309 -190 0
310 -311 -1 0
310 -312 -22 0
310 -313 -43 0
310 -314 -64 0
310 -315 -85 0
310 -316 -106 0
310 -317 -127 0
310 -318 -148 0
310 -319 -169 0
310 -320 -190 0
2 0
23 4 0
-23 -4 0
-23 -46 44 0
-23 -67 65 0
-23 -88 86 0
-23 -109 107 0
-23 -130 128 0
-23 -151 149 0
-23 -172 170 0
-23 -193 191 0
44 6 0
-44 -6 0
-44 -27 23 0
-44 -69 65 0
-44 -90 86 0
-44 -111 107 0
-44 -132 128 0
-44 -153 149 0
-44 -174 170 0
-44 -195 191 0
65 8 0
-65 -8 0
-65 -29 23 0
-65 -50 44 0
-65 -92 86 0
-65 -113 107 0
-65 -134 128 0
-65 -155 149 0
-65 -176 170 0
-65 -197 191 0
86 10 0
-86 -10 0
-86 -31 23 0
-86 -52 44 0
-86 -73 65 0
-86 -115 107 0
-86 -136 128 0
-86 -157 149 0
-86 -178 170 0
-86 -199 191 0
107 12 0
-107 -12 0
-107 -33 23 0
-107 -54 44 0
-107 -75 65 0
-107 -96 86 0
-107 -138 128 0
-107 -159 149 0
-107 -180 170 0
-107 -201 191 0
128 14 0
-128 -14 0
-128 -35 23 0
-128 -56 44 0
-128 -77 65 0
-128 -98 86 0
-128 -119 107 0
-128 -161 149 0
-128 -182 170 0
-128 -203 191 0
149 16 0
-149 -16 0
-149 -37 23 0
-149 -58 44 0
-149 -79 65 0
-149 -100 86 0
-149 -121 107 0
-149 -142 128 0
-149 -184 170 0
-149 -205 191 0
170 18 0
-170 -18 0
-170 -39 23 0
-170 -60 44 0
-170 -81 65 0
-170 -102 86 0
-170 -123 107 0
-170 -144 128 0
-170 -165 149 0
-170 -207 191 0
191 20 0
-191 -20 0
-191 -41 23 0
-191 -62 44 0
-191 -83 65 0
-191 -104 86 0
-191 -125 107 0
-191 -146 128 0
-191 -167 149 0
-191 -188 170 0
25 0
4 23 0
-4 -23 0
-4 -44 46 0
-4 -65 67 0
-4 -86 88 0
-4 -107 109 0
-4 -128 130 0
-4 -149 151 0
-4 -170 172 0
-4 -191 193 0
46 27 0
-46 -27 0
-46 -6 4 0
-46 -69 67 0
-46 -90 88 0
-46 -111 109 0
-46 -132 130 0
-46 -153 151 0
-46 -174 172 0
-46 -195 193 0
67 29 0
-67 -29 0
-67 -8 4 0
-67 -50 46 0
-67 -92 88 0
-67 -113 109 0
-67 -134 130 0
-67 -155 151 0
-67 -176 172 0
-67 -197 193 0
88 31 0
-88 -31 0
-88 -10 4 0
-88 -52 46 0
-88 -73 67 0
-88 -115 109 0
-88 -136 130 0
-88 -157 151 0
-88 -178 172 0
-88 -199 193 0
109 33 0
-109 -33 0
-109 -12 4 0
-109 -54 46 0
-109 -75 67 0
-109 -96 88 0
-109 -138 130 0
-109 -159 151 0
-109 -180 172 0
-109 -201 193 0
130 35 0
-130 -35 0
-130 -14 4 0
-130 -56 46 0
-130 -77 67 0
-130 -98 88 0
-130 -119 109 0
-130 -161 151 0
-130 -182 172 0
-130 -203 193 0
151 37 0
-151 -37 0
-151 -16 4 0
-151 -58 46 0
-151 -79 67 0
-151 -100 88 0
-151 -121 109 0
-151 -142 130 0
-151 -184 172 0
-151 -205 193 0
172 39 0
-172 -39 0
-172 -18 4 0
-172 -60 46 0
-172 -81 67 0
-172 -102 88 0
-172 -123 109 0
-172 -144 130 0
-172 -165 151 0
-172 -207 193 0
193 41 0
-193 -41 0
-193 -20 4 0
-193 -62 46 0
-193 -83 67 0
-193 -104 88 0
-193 -125 109 0
-193 -146 130 0
-193 -167 151 0
-193 -188 172 0
48 0
6 44 0
-6 -44 0
-6 -23 27 0
-6 -65 69 0
-6 -86 90 0
-6 -107 111 0
-6 -128 132 0
-6 -149 153 0
-6 -170 174 0
-6 -191 195 0
27 46 0
-27 -46 0
-27 -4 6 0
-27 -67 69 0
-27 -88 90 0
-27 -109 111 0
-27 -130 132 0
-27 -151 153 0
-27 -172 174 0
-27 -193 195 0
69 50 0
-69 -50 0
-69 -8 6 0
-69 -29 27 0
-69 -92 90 0
-69 -113 111 0
-69 -134 132 0
-69 -155 153 0
-69 -176 174 0
-69 -197 195 0
90 52 0
-90 -52 0
-90 -10 6 0
-90 -31 27 0
-90 -73 69 0
-90 -115 111 0
-90 -136 132 0
-90 -157 153 0
-90 -178 174 0
-90 -199 195 0
111 54 0
-111 -54 0
-111 -12 6 0
-111 -33 27 0
-111 -75 69 0
-111 -96 90 0
-111 -138 132 0
-111 -159 153 0
-111 -180 174 0
-111 -201 195 0
132 56 0
-132 -56 0
-132 -14 6 0
-132 -35 27 0
-132 -77 69 0
-132 -98 90 0
-132 -119 111 0
-132 -161 153 0
-132 -182 174 0
-132 -203 195 0
153 58 0
-153 -58 0
-153 -16 6 0
-153 -37 27 0
-153 -79 69 0
-153 -100 90 0
-153 -121 111 0
-153 -142 132 0
-153 -184 174 0
-153 -205 195 0
174 60 0
-174 -60 0
-174 -18 6 0
-174 -39 27 0
-174 -81 69 0
-174 -102 90 0
-174 -123 111 0
-174 -144 132 0
-174 -165 153 0
-174 -207 195 0
195 62 0
-195 -62 0
-195 -20 6 0
-195 -41 27 0
-195 -83 69 0
-195 -104 90 0
-195 -125 111 0
-195 -146 132 0
-195 -167 153 0
-195 -188 174 0
71 0
8 65 0
-8 -65 0
-8 -23 29 0
-8 -44 50 0
-8 -86 92 0
-8 -107 113 0
-8 -128 134 0
-8 -149 155 0
-8 -170 176 0
-8 -191 197 0
29 67 0
-29 -67 0
-29 -4 8 0
-29 -46 50 0
-29 -88 92 0
-29 -109 113 0
-29 -130 134 0
-29 -151 155 0
-29 -172 176 0
-29 -193 197 0
50 69 0
-50 -69 0
-50 -6 8 0
-50 -27 29 0
-50 -90 92 0
-50 -111 113 0
-50 -132 134 0
-50 -153 155 0
-50 -174 176 0
-50 -195 197 0
92 73 0
-92 -73 0
-92 -10 8 0
-92 -31 29 0
-92 -52 50 0
-92 -115 113 0
-92 -136 134 0
-92 -157 155 0
-92 -178 176 0
-92 -199 197 0
113 75 0
-113 -75 0
-113 -12 8 0
-113 -33 29 0
-113 -54 50 0
-113 -96 92 0
-113 -138 134 0
-113 -159 155 0
-113 -180 176 0
-113 -201 197 0
134 77 0
-134 -77 0
-134 -14 8 0
-134 -35 29 0
-134 -56 50 0
-134 -98 92 0
-134 -119 113 0
-134 -161 155 0
-134 -182 176 0
-134 -203 197 0
155 79 0
-155 -79 0
-155 -16 8 0
-155 -37 29 0
-155 -58 50 0
-155 -100 92 0
-155 -121 113 0
-155 -142 134 0
-155 -184 176 0
-155 -205 197 0
176 81 0
-176 -81 0
-176 -18 8 0
-176 -39 29 0
-176 -60 50 0
-176 -102 92 0
-176 -123 113 0
-176 -144 134 0
-176 -165 155 0
-176 -207 197 0
197 83 0
-197 -83 0
-197 -20 8 0
-197 -41 29 0
-197 -62 50 0
-197 -104 92 0
-197 -125 113 0
-197 -146 134 0
-197 -167 155 0
-197 -188 176 0
94 0
10 86 0
-10 -86 0
-10 -23 31 0
-10 -44 52 0
-10 -65 73 0
-10 -107 115 0
-10 -128 136 0
-10 -149 157 0
-10 -170 178 0
-10 -191 199 0
31 88 0
-31 -88 0
-31 -4 10 0
-31 -46 52 0
-31 -67 73 0
-31 -109 115 0
-31 -130 136 0
-31 -151 157 0
-31 -172 178 0
-31 -193 199 0
52 90 0
-52 -90 0
-52 -6 10 0
-52 -27 31 0
-52 -69 73 0
-52 -111 115 0
-52 -132 136 0
-52 -153 157 0
-52 -174 178 0
-52 -195 199 0
73 92 0
-73 -92 0
-73 -8 10 0
-73 -29 31 0
-73 -50 52 0
-73 -113 115 0
-73 -134 136 0
-73 -155 157 0
-73 -176 178 0
-73 -197 199 0
115 96 0
-115 -96 0
-115 -12 10 0
-115 -33 31 0
-115 -54 52 0
-115 -75 73 0
-115 -138 136 0
-115 -159 157 0
-115 -180 178 0
-115 -201 199 0
136 98 0
-136 -98 0
-136 -14 10 0
-136 -35 31 0
-136 -56 52 0
-136 -77 73 0
-136 -119 115 0
-136 -161 157 0
-136 -182 178 0
-136 -203 199 0
157 100 0
-157 -100 0
-157 -16 10 0
-157 -37 31 0
-157 -58 52 0
-157 -79 73 0
-157 -121 115 0
-157 -142 136 0
-157 -184 178 0
-157 -205 199 0
178 102 0
-178 -102 0
-178 -18 10 0
-178 -39 31 0
-178 -60 52 0
-178 -81 73 0
-178 -123 115 0
-178 -144 136 0
-178 -165 157 0
-178 -207 199 0
199 104 0
-199 -104 0
-199 -20 10 0
-199 -41 31 0
-199 -62 52 0
-199 -83 73 0
-199 -125 115 0
-199 -146 136 0
-199 -167 157 0
-199 -188 178 0
117 0
12 107 0
-12 -107 0
-12 -23 33 0
-12 -44 54 0
-12 -65 75 0
-12 -86 96 0
-12 -128 138 0
-12 -149 159 0
-12 -170 180 0
-12 -191 201 0
33 109 0
-33 -109 0
-33 -4 12 0
-33 -46 54 0
-33 -67 75 0
-33 -88 96 0
-33 -130 138 0
-33 -151 159 0
-33 -172 180 0
-33 -193 201 0
54 111 0
-54 -111 0
-54 -6 12 0
-54 -27 33 0
-54 -69 75 0
-54 -90 96 0
-54 -132 138 0
-54 -153 159 0
-54 -174 180 0
-54 -195 201 0
75 113 0
-75 -113 0
-75 -8 12 0
-75 -29 33 0
-75 -50 54 0
-75 -92 96 0
-75 -134 138 0
-75 -155 159 0
-75 -176 180 0
-75 -197 201 0
96 115 0
-96 -115 0
-96 -10 12 0
-96 -31 33 0
-96 -52 54 0
-96 -73 75 0
-96 -136 138 0
-96 -157 159 0
-96 -178 180 0
-96 -199 201 0
138 119 0
-138 -119 0
-138 -14 12 0
-138 -35 33 0
-138 -56 54 0
-138 -77 75 0
-138 -98 96 0
-138 -161 159 0
-138 -182 180 0
-138 -203 201 0
159 121 0
-159 -121 0
-159 -16 12 0
-159 -37 33 0
-159 -58 54 0
-159 -79 75 0
-159 -100 96 0
-159 -142 138 0
-159 -184 180 0
-159 -205 201 0
180 123 0
-180 -123 0
-180 -18 12 0
-180 -39 33 0
-180 -60 54 0
-180 -81 75 0
-180 -102 96 0
-180 -144 138 0
-180 -165 159 0
-180 -207 201 0
201 125 0
-201 -125 0
-201 -20 12 0
-201 -41 33 0
-201 -62 54 0
-201 -83 75 0
-201 -104 96 0
-201 -146 138 0
-201 -167 159 0
-201 -188 180 0
140 0
14 128 0
-14 -128 0
-14 -23 35 0
-14 -44 56 0
-14 -65 77 0
-14 -86 98 0
-14 -107 119 0
-14 -149 161 0
-14 -170 182 0
-14 -191 203 0
35 130 0
-35 -130 0
-35 -4 14 0
-35 -46 56 0
-35 -67 77 0
-35 -88 98 0
-35 -109 119 0
-35 -151 161 0
-35 -172 182 0
-35 -193 203 0
56 132 0
-56 -132 0
-56 -6 14 0
-56 -27 35 0
-56 -69 77 0
-56 -90 98 0
-56 -111 119 0
-56 -153 161 0
-56 -174 182 0
-56 -195 203 0
77 134 0
-77 -134 0
-77 -8 14 0
-77 -29 35 0
-77 -50 56 0
-77 -92 98 0
-77 -113 119 0
-77 -155 161 0
-77 -176 182 0
-77 -197 203 0
98 136 0
-98 -136 0
-98 -10 14 0
-98 -31 35 0
-98 -52 56 0
-98 -73 77 0
-98 -115 119 0
-98 -157 161 0
-98 -178 182 0
-98 -199 203 0
119 138 0
-119 -138 0
-119 -12 14 0
-119 -33 35 0
-119 -54 56 0
-119 -75 77 0
-119 -96 98 0
-119 -159 161 0
-119 -180 182 0
-119 -201 203 0
161 142 0
-161 -142 0
-161 -16 14 0
-161 -37 35 0
-161 -58 56 0
-161 -79 77 0
-161 -100 98 0
-161 -121 119 0
-161 -184 182 0
-161 -205 203 0
182 144 0
-182 -144 0
-182 -18 14 0
-182 -39 35 0
-182 -60 56 0
-182 -81 77 0
-182 -102 98 0
-182 -123 119 0
-182 -165 161 0
-182 -207 203 0
203 146 0
-203 -146 0
-203 -20 14 0
-203 -41 35 0
-203 -62 56 0
-203 -83 77 0
-203 -104 98 0
-203 -125 119 0
-203 -167 161 0
-203 -188 182 0
163 0
16 149 0
-16 -149 0
-16 -23 37 0
-16 -44 58 0
-16 -65 79 0
-16 -86 100 0
-16 -107 121 0
-16 -128 142 0
-16 -170 184 0
-16 -191 205 0
37 151 0
-37 -151 0
-37 -4 16 0
-37 -46 58 0
-37 -67 79 0
-37 -88 100 0
-37 -109 121 0
-37 -130 142 0
-37 -172 184 0
-37 -193 205 0
58 153 0
-58 -153 0
-58 -6 16 0
-58 -27 37 0
-58 -69 79 0
-58 -90 100 0
-58 -111 121 0
-58 -132 142 0
-58 -174 184 0
-58 -195 205 0
79 155 0
-79 -155 0
-79 -8 16 0
-79 -29 37 0
-79 -50 58 0
-79 -92 100 0
-79 -113 121 0
-79 -134 142 0
-79 -176 184 0
-79 -197 205 0
100 157 0
-100 -157 0
-100 -10 16 0
-100 -31 37 0
-100 -52 58 0
-100 -73 79 0
-100 -115 121 0
-100 -136 142 0
-100 -178 184 0
-100 -199 205 0
121 159 0
-121 -159 0
-121 -12 16 0
-121 -33 37 0
-121 -54 58 0
-121 -75 79 0
-121 -96 100 0
-121 -138 142 0
-121 -180 184 0
-121 -201 205 0
142 161 0
-142 -161 0
-142 -14 16 0
-142 -35 37 0
-142 -56 58 0
-142 -77 79 0
-142 -98 100 0
-142 -119 121 0
-142 -182 184 0
-142 -203 205 0
184 165 0
-184 -165 0
-184 -18 16 0
-184 -39 37 0
-184 -60 58 0
-184 -81 79 0
-184 -102 100 0
-184 -123 121 0
-184 -144 142 0
-184 -207 205 0
205 167 0
-205 -167 0
-205 -20 16 0
-205 -41 37 0
-205 -62 58 0
-205 -83 79 0
-205 -104 100 0
-205 -125 121 0
-205 -146 142 0
-205 -188 184 0
186 0
18 170 0
-18 -170 0
-18 -23 39 0
-18 -44 60 0
-18 -65 81 0
-18 -86 102 0
-18 -107 123 0
-18 -128 144 0
-18 -149 165 0
-18 -191 207 0
39 172 0
-39 -172 0
-39 -4 18 0
-39 -46 60 0
-39 -67 81 0
-39 -88 102 0
-39 -109 123 0
-39 -130 144 0
-39 -151 165 0
-39 -193 207 0
60 174 0
-60 -174 0
-60 -6 18 0
-60 -27 39 0
-60 -69 81 0
-60 -90 102 0
-60 -111 123 0
-60 -132 144 0
-60 -153 165 0
-60 -195 207 0
81 176 0
-81 -176 0
-81 -8 18 0
-81 -29 39 0
-81 -50 60 0
-81 -92 102 0
-81 -113 123 0
-81 -134 144 0
-81 -155 165 0
-81 -197 207 0
102 178 0
-102 -178 0
-102 -10 18 0
-102 -31 39 0
-102 -52 60 0
-102 -73 81 0
-102 -115 123 0
-102 -136 144 0
-102 -157 165 0
-102 -199 207 0
123 180 0
-123 -180 0
-123 -12 18 0
-123 -33 39 0
-123 -54 60 0
-123 -75 81 0
-123 -96 102 0
-123 -138 144 0
-123 -159 165 0
-123 -201 207 0
144 182 0
-144 -182 0
-144 -14 18 0
-144 -35 39 0
-144 -56 60 0
-144 -77 81 0
-144 -98 102 0
-144 -119 123 0
-144 -161 165 0
-144 -203 207 0
165 184 0
-165 -184 0
-165 -16 18 0
-165 -37 39 0
-165 -58 60 0
-165 -79 81 0
-165 -100 102 0
-165 -121 123 0
-165 -142 144 0
-165 -205 207 0
207 188 0
-207 -188 0
-207 -20 18 0
-207 -41 39 0
-207 -62 60 0
-207 -83 81 0
-207 -104 102 0
-207 -125 123 0
-207 -146 144 0
-207 -167 165 0
209 0
20 191 0
-20 -191 0
-20 -23 41 0
-20 -44 62 0
-20 -65 83 0
-20 -86 104 0
-20 -107 125 0
-20 -128 146 0
-20 -149 167 0
-20 -170 188 0
41 193 0
-41 -193 0
-41 -4 20 0
-41 -46 62 0
-41 -67 83 0
-41 -88 104 0
-41 -109 125 0
-41 -130 146 0
-41 -151 167 0
-41 -172 188 0
62 195 0
-62 -195 0
-62 -6 20 0
-62 -27 41 0
-62 -69 83 0
-62 -90 104 0
-62 -111 125 0
-62 -132 146 0
-62 -153 167 0
-62 -174 188 0
83 197 0
-83 -197 0
-83 -8 20 0
-83 -29 41 0
-83 -50 62 0
-83 -92 104 0
-83 -113 125 0
-83 -134 146 0
-83 -155 167 0
-83 -176 188 0
104 199 0
-104 -199 0
-104 -10 20 0
-104 -31 41 0
-104 -52 62 0
-104 -73 83 0
-104 -115 125 0
-104 -136 146 0
-104 -157 167 0
-104 -178 188 0
125 201 0
-125 -201 0
-125 -12 20 0
-125 -33 41 0
-125 -54 62 0
-125 -75 83 0
-125 -96 104 0
-125 -138 146 0
-125 -159 167 0
-125 -180 188 0
146 203 0
-146 -203 0
-146 -14 20 0
-146 -35 41 0
-146 -56 62 0
-146 -77 83 0
-146 -98 104 0
-146 -119 125 0
-146 -161 167 0
-146 -182 188 0
167 205 0
-167 -205 0
-167 -16 20 0
-167 -37 41 0
-167 -58 62 0
-167 -79 83 0
-167 -100 104 0
-167 -121 125 0
-167 -142 146 0
-167 -184 188 0
188 207 0
-188 -207 0
-188 -18 20 0
-188 -39 41 0
-188 -60 62 0
-188 -81 83 0
-188 -102 104 0
-188 -123 125 0
-188 -144 146 0
-188 -165 167 0
321 0
322 323 0
-322 -323 0
-322 -324 325 0
-322 -326 327 0
-322 -328 329 0
-322 -330 331 0
-322 -332 333 0
-322 -334 335 0
-322 -336 337 0
-322 -338 339 0
325 340 0
-325 -340 0
-325 -341 322 0
-325 -342 327 0
-325 -343 329 0
-325 -344 331 0
-325 -345 333 0
-325 -346 335 0
-325 -347 337 0
-325 -348 339 0
327 349 0
-327 -349 0
-327 -350 322 0
-327 -351 325 0
-327 -352 329 0
-327 -353 331 0
-327 -354 333 0
-327 -355 335 0
-327 -356 337 0
-327 -357 339 0
329 358 0
-329 -358 0
-329 -359 322 0
-329 -360 325 0
-329 -361 327 0
-329 -362 331 0
-329 -363 333 0
-329 -364 335 0
-329 -365 337 0
-329 -366 339 0
331 367 0
-331 -367 0
-331 -368 322 0
-331 -369 325 0
-331 -370 327 0
-331 -371 329 0
-331 -372 333 0
-331 -373 335 0
-331 -374 337 0
-331 -375 339 0
333 376 0
-333 -376 0
-333 -377 322 0
-333 -378 325 0
-333 -379 327 0
-333 -380 329 0
-333 -381 331 0
-333 -382 335 0
-333 -383 337 0
-333 -384 339 0
335 385 0
-335 -385 0
-335 -386 322 0
-335 -387 325 0
-335 -388 327 0
-335 -389 329 0
-335 -390 331 0
-335 -391 333 0
-335 -392 337 0
-335 -393 339 0
337 394 0
-337 -394 0
-337 -395 322 0
-337 -396 325 0
-337 -397 327 0
-337 -398 329 0
-337 -399 331 0
-337 -400 333 0
-337 -401 335 0
-337 -402 339 0
339 403 0
-339 -403 0
-339 -404 322 0
-339 -405 325 0
-339 -406 327 0
-339 -407 329 0
-339 -408 331 0
-339 -409 333 0
-339 -410 335 0
-339 -411 337 0
412 0
323 322 0
-323 -322 0
-323 -325 324 0
-323 -327 326 0
-323 -329 328 0
-323 -331 330 0
-323 -333 332 0
-323 -335 334 0
-323 -337 336 0
-323 -339 338 0
324 341 0
-324 -341 0
-324 -340 323 0
-324 -342 326 0
-324 -343 328 0
-324 -344 330 0
-324 -345 332 0
-324 -346 334 0
-324 -347 336 0
-324 -348 338 0
326 350 0
-326 -350 0
-326 -349 323 0
-326 -351 324 0
-326 -352 328 0
-326 -353 330 0
-326 -354 332 0
-326 -355 334 0
-326 -356 336 0
-326 -357 338 0
328 359 0
-328 -359 0
-328 -358 323 0
-328 -360 324 0
-328 -361 326 0
-328 -362 330 0
-328 -363 332 0
-328 -364 334 0
-328 -365 336 0
-328 -366 338 0
330 368 0
-330 -368 0
-330 -367 323 0
-330 -369 324 0
-330 -370 326 0
-330 -371 328 0
-330 -372 332 0
-330 -373 334 0
-330 -374 336 0
-330 -375 338 0
332 377 0
-332 -377 0
-332 -376 323 0
-332 -378 324 0
-332 -379 326 0
-332 -380 328 0
-332 -381 330 0
-332 -382 334 0
-332 -383 336 0
-332 -384 338 0
334 386 0
-334 -386 0
-334 -385 323 0
-334 -387 324 0
-334 -388 326 0
-334 -389 328 0
-334 -390 330 0
-334 -391 332 0
-334 -392 336 0
-334 -393 338 0
336 395 0
-336 -395 0
-336 -394 323 0
-336 -396 324 0
-336 -397 326 0
-336 -398 328 0
-336 -399 330 0
-336 -400 332 0
-336 -401 334 0
-336 -402 338 0
338 404 0
-338 -404 0
-338 -403 323 0
-338 -405 324 0
-338 -406 326 0
-338 -407 328 0
-338 -408 330 0
-338 -409 332 0
-338 -410 334 0
-338 -411 336 0
413 0
340 325 0
-340 -325 0
-340 -322 341 0
-340 -327 342 0
-340 -329 343 0
-340 -331 344 0
-340 -333 345 0
-340 -335 346 0
-340 -337 347 0
-340 -339 348 0
341 324 0
-341 -324 0
-341 -323 340 0
-341 -326 342 0
-341 -328 343 0
-341 -330 344 0
-341 -332 345 0
-341 -334 346 0
-341 -336 347 0
-341 -338 348 0
342 351 0
-342 -351 0
-342 -349 340 0
-342 -350 341 0
-342 -352 343 0
-342 -353 344 0
-342 -354 345 0
-342 -355 346 0
-342 -356 347 0
-342 -357 348 0
343 360 0
-343 -360 0
-343 -358 340 0
-343 -359 341 0
-343 -361 342 0
-343 -362 344 0
-343 -363 345 0
-343 -364 346 0
-343 -365 347 0
-343 -366 348 0
344 369 0
-344 -369 0
-344 -367 340 0
-344 -368 341 0
-344 -370 342 0
-344 -371 343 0
-344 -372 345 0
-344 -373 346 0
-344 -374 347 0
-344 -375 348 0
345 378 0
-345 -378 0
-345 -376 340 0
-345 -377 341 0
-345 -379 342 0
-345 -380 343 0
-345 -381 344 0
-345 -382 346 0
-345 -383 347 0
-345 -384 348 0
346 387 0
-346 -387 0
-346 -385 340 0
-346 -386 341 0
-346 -388 342 0
-346 -389 343 0
-346 -390 344 0
-346 -391 345 0
-346 -392 347 0
-346 -393 348 0
347 396 0
-347 -396 0
-347 -394 340 0
-347 -395 341 0
-347 -397 342 0
-347 -398 343 0
-347 -399 344 0
-347 -400 345 0
-347 -401 346 0
-347 -402 348 0
348 405 0
-348 -405 0
-348 -403 340 0
-348 -404 341 0
-348 -406 342 0
-348 -407 343 0
-348 -408 344 0
-348 -409 345 0
-348 -410 346 0
-348 -411 347 0
414 0
349 327 0
-349 -327 0
-349 -322 350 0
-349 -325 351 0
-349 -329 352 0
-349 -331 353 0
-349 -333 354 0
-349 -335 355 0
-349 -337 356 0
-349 -339 357 0
350 326 0
-350 -326 0
-350 -323 349 0
-350 -324 351 0
-350 -328 352 0
-350 -330 353 0
-350 -332 354 0
-350 -334 355 0
-350 -336 356 0
-350 -338 357 0
351 342 0
-351 -342 0
-351 -340 349 0
-351 -341 350 0
-351 -343 352 0
-351 -344 353 0
-351 -345 354 0
-351 -346 355 0
-351 -347 356 0
-351 -348 357 0
352 361 0
-352 -361 0
-352 -358 349 0
-352 -359 350 0
-352 -360 351 0
-352 -362 353 0
-352 -363 354 0
-352 -364 355 0
-352 -365 356 0
-352 -366 357 0
353 370 0
-353 -370 0
-353 -367 349 0
-353 -368 350 0
-353 -369 351 0
-353 -371 352 0
-353 -372 354 0
-353 -373 355 0
-353 -374 356 0
-353 -375 357 0
354 379 0
-354 -379 0
-354 -376 349 0
-354 -377 350 0
-354 -378 351 0
-354 -380 352 0
-354 -381 353 0
-354 -382 355 0
-354 -383 356 0
-354 -384 357 0
355 388 0
-355 -388 0
-355 -385 349 0
-355 -386 350 0
-355 -387 351 0
-355 -389 352 0
-355 -390 353 0
-355 -391 354 0
-355 -392 356 0
-355 -393 357 0
356 397 0
-356 -397 0
-356 -394 349 0
-356 -395 350 0
-356 -396 351 0
-356 -398 352 0
-356 -399 353 0
-356 -400 354 0
-356 -401 355 0
-356 -402 357 0
357 406 0
-357 -406 0
-357 -403 349 0
-357 -404 350 0
-357 -405 351 0
-357 -407 352 0
-357 -408 353 0
-357 -409 354 0
-357 -410 355 0
-357 -411 356 0
415 0
358 329 0
-358 -329 0
-358 -322 359 0
-358 -325 360 0
-358 -327 361 0
-358 -331 362 0
-358 -333 363 0
-358 -335 364 0
-358 -337 365 0
-358 -339 366 0
359 328 0
-359 -328 0
-359 -323 358 0
-359 -324 360 0
-359 -326 361 0
-359 -330 362 0
-359 -332 363 0
-359 -334 364 0
-359 -336 365 0
-359 -338 366 0
360 343 0
-360 -343 0
-360 -340 358 0
-360 -341 359 0
-360 -342 361 0
-360 -344 362 0
-360 -345 363 0
-360 -346 364 0
-360 -347 365 0
-360 -348 366 0
361 352 0
-361 -352 0
-361 -349 358 0
-361 -350 359 0
-361 -351 360 0
-361 -353 362 0
-361 -354 363 0
-361 -355 364 0
-361 -356 365 0
-361 -357 366 0
362 371 0
-362 -371 0
-362 -367 358 0
-362 -368 359 0
-362 -369 360 0
-362 -370 361 0
-362 -372 363 0
-362 -373 364 0
-362 -374 365 0
-362 -375 366 0
363 380 0
-363 -380 0
-363 -376 358 0
-363 -377 359 0
-363 -378 360 0
-363 -379 361 0
-363 -381 362 0
-363 -382 364 0
-363 -383 365 0
-363 -384 366 0
364 389 0
-364 -389 0
-364 -385 358 0
-364 -386 359 0
-364 -387 360 0
-364 -388 361 0
-364 -390 362 0
-364 -391 363 0
-364 -392 365 0
-364 -393 366 0
365 398 0
-365 -398 0
-365 -394 358 0
-365 -395 359 0
-365 -396 360 0
-365 -397 361 0
-365 -399 362 0
-365 -400 363 0
-365 -401 364 0
-365 -402 366 0
366 407 0
-366 -407 0
-366 -403 358 0
-366 -404 359 0
-366 -405 360 0
-366 -406 361 0
-366 -408 362 0
-366 -409 363 0
-366 -410 364 0
-366 -411 365 0
416 0
367 331 0
-367 -331 0
-367 -322 368 0
-367 -325 369 0
-367 -327 370 0
-367 -329 371 0
-367 -333 372 0
-367 -335 373 0
-367 -337 374 0
-367 -339 375 0
368 330 0
-368 -330 0
-368 -323 367 0
-368 -324 369 0
-368 -326 370 0
-368 -328 371 0
-368 -332 372 0
-368 -334 373 0
-368 -336 374 0
-368 -338 375 0
369 344 0
-369 -344 0
-369 -340 367 0
-369 -341 368 0
-369 -342 370 0
-369 -343 371 0
-369 -345 372 0
-369 -346 373 0
-369 -347 374 0
-369 -348 375 0
370 353 0
-370 -353 0
-370 -349 367 0
-370 -350 368 0
-370 -351 369 0
-370 -352 371 0
-370 -354 372 0
-370 -355 373 0
-370 -356 374 0
-370 -357 375 0
371 362 0
-371 -362 0
-371 -358 367 0
-371 -359 368 0
-371 -360 369 0
-371 -361 370 0
-371 -363 372 0
-371 -364 373 0
-371 -365 374 0
-371 -366 375 0
372 381 0
-372 -381 0
-372 -376 367 0
-372 -377 368 0
-372 -378 369 0
-372 -379 370 0
-372 -380 371 0
-372 -382 373 0
-372 -383 374 0
-372 -384 375 0
373 390 0
-373 -390 0
-373 -385 367 0
-373 -386 368 0
-373 -387 369 0
-373 -388 370 0
-373 -389 371 0
-373 -391 372 0
-373 -392 374 0
-373 -393 375 0
374 399 0
-374 -399 0
-374 -394 367 0
-374 -395 368 0
-374 -396 369 0
-374 -397 370 0
-374 -398 371 0
-374 -400 372 0
-374 -401 373 0
-374 -402 375 0
375 408 0
-375 -408 0
-375 -403 367 0
-375 -404 368 0
-375 -405 369 0
-375 -406 370 0
-375 -407 371 0
-375 -409 372 0
-375 -410 373 0
-375 -411 374 0
417 0
376 333 0
-376 -333 0
-376 -322 377 0
-376 -325 378 0
-376 -327 379 0
-376 -329 380 0
-376 -331 381 0
-376 -335 382 0
-376 -337 383 0
-376 -339 384 0
377 332 0
-377 -332 0
-377 -323 376 0
-377 -324 378 0
-377 -326 379 0
-377 -328 380 0
-377 -330 381 0
-377 -334 382 0
-377 -336 383 0
-377 -338 384 0
378 345 0
-378 -345 0
-378 -340 376 0
-378 -341 377 0
-378 -342 379 0
-378 -343 380 0
-378 -344 381 0
-378 -346 382 0
-378 -347 383 0
-378 -348 384 0
379 354 0
-379 -354 0
-379 -349 376 0
-379 -350 377 0
-379 -351 378 0
-379 -352 380 0
-379 -353 381 0
-379 -355 382 0
-379 -356 383 0
-379 -357 384 0
380 363 0
-380 -363 0
-380 -358 376 0
-380 -359 377 0
-380 -360 378 0
-380 -361 379 0
-380 -362 381 0
-380 -364 382 0
-380 -365 383 0
-380 -366 384 0
381 372 0
-381 -372 0
-381 -367 376 0
-381 -368 377 0
-381 -369 378 0
-381 -370 379 0
-381 -371 380 0
-381 -373 382 0
-381 -374 383 0
-381 -375 384 0
382 391 0
-382 -391 0
-382 -385 376 0
-382 -386 377 0
-382 -387 378 0
-382 -388 379 0
-382 -389 380 0
-382 -390 381 0
-382 -392 383 0
-382 -393 384 0
383 400 0
-383 -400 0
-383 -394 376 0
-383 -395 377 0
-383 -396 378 0
-383 -397 379 0
-383 -398 380 0
-383 -399 381 0
-383 -401 382 0
-383 -402 384 0
384 409 0
-384 -409 0
-384 -403 376 0
-384 -404 377 0
-384 -405 378 0
-384 -406 379 0
-384 -407 380 0
-384 -408 381 0
-384 -410 382 0
-384 -411 383 0
418 0
385 335 0
-385 -335 0
-385 -322 386 0
-385 -325 387 0
-385 -327 388 0
-385 -329 389 0
-385 -331 390 0
-385 -333 391 0
-385 -337 392 0
-385 -339 393 0
386 334 0
-386 -334 0
-386 -323 385 0
-386 -324 387 0
-386 -326 388 0
-386 -328 389 0
-386 -330 390 0
-386 -332 391 0
-386 -336 392 0
-386 -338 393 0
387 346 0
-387 -346 0
-387 -340 385 0
-387 -341 386 0
-387 -342 388 0
-387 -343 389 0
-387 -344 390 0
-387 -345 391 0
-387 -347 392 0
-387 -348 393 0
388 355 0
-388 -355 0
-388 -349 385 0
-388 -350 386 0
-388 -351 387 0
-388 -352 389 0
-388 -353 390 0
-388 -354 391 0
-388 -356 392 0
-388 -357 393 0
389 364 0
-389 -364 0
-389 -358 385 0
-389 -359 386 0
-389 -360 387 0
-389 -361 388 0
-389 -362 390 0
-389 -363 391 0
-389 -365 392 0
-389 -366 393 0
390 373 0
-390 -373 0
-390 -367 385 0
-390 -368 386 0
-390 -369 387 0
-390 -370 388 0
-390 -371 389 0
-390 -372 391 0
-390 -374 392 0
-390 -375 393 0
391 382 0
-391 -382 0
-391 -376 385 0
-391 -377 386 0
-391 -378 387 0
-391 -379 388 0
-391 -380 389 0
-391 -381 390 0
-391 -383 392 0
-391 -384 393 0
392 401 0
-392 -401 0
-392 -394 385 0
-392 -395 386 0
-392 -396 387 0
-392 -397 388 0
-392 -398 389 0
-392 -399 390 0
-392 -400 391 0
-392 -402 393 0
393 410 0
-393 -410 0
-393 -403 385 0
-393 -404 386 0
-393 -405 387 0
-393 -406 388 0
-393 -407 389 0
-393 -408 390 0
-393 -409 391 0
-393 -411 392 0
419 0
394 337 0
-394 -337 0
-394 -322 395 0
-394 -325 396 0
-394 -327 397 0
-394 -329 398 0
-394 -331 399 0
-394 -333 400 0
-394 -335 401 0
-394 -339 402 0
395 336 0
-395 -336 0
-395 -323 394 0
-395 -324 396 0
-395 -326 397 0
-395 -328 398 0
-395 -330 399 0
-395 -332 400 0
-395 -334 401 0
-395 -338 402 0
396 347 0
-396 -347 0
-396 -340 394 0
-396 -341 395 0
-396 -342 397 0
-396 -343 398 0
-396 -344 399 0
-396 -345 400 0
-396 -346 401 0
-396 -348 402 0
397 356 0
-397 -356 0
-397 -349 394 0
-397 -350 395 0
-397 -351 396 0
-397 -352 398 0
-397 -353 399 0
-397 -354 400 0
-397 -355 401 0
-397 -357 402 0
398 365 0
-398 -365 0
-398 -358 394 0
-398 -359 395 0
-398 -360 396 0
-398 -361 397 0
-398 -362 399 0
-398 -363 400 0
-398 -364 401 0
-398 -366 402 0
399 374 0
-399 -374 0
-399 -367 394 0
-399 -368 395 0
-399 -369 396 0
-399 -370 397 0
-399 -371 398 0
-399 -372 400 0
-399 -373 401 0
-399 -375 402 0
400 383 0
-400 -383 0
-400 -376 394 0
-400 -377 395 0
-400 -378 396 0
-400 -379 397 0
-400 -380 398 0
-400 -381 399 0
-400 -382 401 0
-400 -384 402 0
401 392 0
-401 -392 0
-401 -385 394 0
-401 -386 395 0
-401 -387 396 0
-401 -388 397 0
-401 -389 398 0
-401 -390 399 0
-401 -391 400 0
-401 -393 402 0
402 411 0
-402 -411 0
-402 -403 394 0
-402 -404 395 0
-402 -405 396 0
-402 -406 397 0
-402 -407 398 0
-402 -408 399 0
-402 -409 400 0
-402 -410 401 0
420 0
403 339 0
-403 -339 0
-403 -322 404 0
-403 -325 405 0
-403 -327 406 0
-403 -329 407 0
-403 -331 408 0
-403 -333 409 0
-403 -335 410 0
-403 -337 411 0
404 338 0
-404 -338 0
-404 -323 403 0
-404 -324 405 0
-404 -326 406 0
-404 -328 407 0
-404 -330 408 0
-404 -332 409 0
-404 -334 410 0
-404 -336 411 0
405 348 0
-405 -348 0
-405 -340 403 0
-405 -341 404 0
-405 -342 406 0
-405 -343 407 0
-405 -344 408 0
-405 -345 409 0
-405 -346 410 0
-405 -347 411 0
406 357 0
-406 -357 0
-406 -349 403 0
-406 -350 404 0
-406 -351 405 0
-406 -352 407 0
-406 -353 408 0
-406 -354 409 0
-406 -355 410 0
-406 -356 411 0
407 366 0
-407 -366 0
-407 -358 403 0
-407 -359 404 0
-407 -360 405 0
-407 -361 406 0
-407 -362 408 0
-407 -363 409 0
-407 -364 410 0
-407 -365 411 0
408 375 0
-408 -375 0
-408 -367 403 0
-408 -368 404 0
-408 -369 405 0
-408 -370 406 0
-408 -371 407 0
-408 -372 409 0
-408 -373 410 0
-408 -374 411 0
409 384 0
-409 -384 0
-409 -376 403 0
-409 -377 404 0
-409 -378 405 0
-409 -379 406 0
-409 -380 407 0
-409 -381 408 0
-409 -382 410 0
-409 -383 411 0
410 393 0
-410 -393 0
-410 -385 403 0
-410 -386 404 0
-410 -387 405 0
-410 -388 406 0
-410 -389 407 0
-410 -390 408 0
-410 -391 409 0
-410 -392 411 0
411 402 0
-411 -402 0
-411 -394 403 0
-411 -395 404 0
-411 -396 405 0
-411 -397 406 0
-411 -398 407 0
-411 -399 408 0
-411 -400 409 0
-411 -401 410 0
-212 0
-223 322 0
-421 325 0
-421 341 0
-325 -341 421 0
-422 327 0
-422 350 0
-327 -350 422 0
-423 329 0
-423 359 0
-329 -359 423 0
-424 331 0
-424 368 0
-331 -368 424 0
-425 333 0
-425 377 0
-333 -377 425 0
-426 335 0
-426 386 0
-335 -386 426 0
-427 337 0
-427 395 0
-337 -395 427 0
-428 339 0
-428 404 0
-339 -404 428 0
-223 -421 0
-223 -422 0
-223 -423 0
-223 -424 0
-223 -425 0
-223 -426 0
-223 -427 0
-223 -428 0
-322 223 421 422 423 424 425 426 427 428 0
-234 325 0
-429 322 0
-429 324 0
-322 -324 429 0
-430 327 0
-430 351 0
-327 -351 430 0
-431 329 0
-431 360 0
-329 -360 431 0
-432 331 0
-432 369 0
-331 -369 432 0
-433 333 0
-433 378 0
-333 -378 433 0
-434 335 0
-434 387 0
-335 -387 434 0
-435 337 0
-435 396 0
-337 -396 435 0
-436 339 0
-436 405 0
-339 -405 436 0
-234 -429 0
-234 -430 0
-234 -431 0
-234 -432 0
-234 -433 0
-234 -434 0
-234 -435 0
-234 -436 0
-325 234 429 430 431 432 433 434 435 436 0
-245 327 0
-437 322 0
-437 326 0
-322 -326 437 0
-438 325 0
-438 342 0
-325 -342 438 0
-439 329 0
-439 361 0
-329 -361 439 0
-440 331 0
-440 370 0
-331 -370 440 0
-441 333 0
-441 379 0
-333 -379 441 0
-442 335 0
-442 388 0
-335 -388 442 0
-443 337 0
-443 397 0
-337 -397 443 0
-444 339 0
-444 406 0
-339 -406 444 0
-245 -437 0
-245 -438 0
-245 -439 0
-245 -440 0
-245 -441 0
-245 -442 0
-245 -443 0
-245 -444 0
-327 245 437 438 439 440 441 442 443 444 0
-256 329 0
-445 322 0
-445 328 0
-322 -328 445 0
-446 325 0
-446 343 0
-325 -343 446 0
-447 327 0
-447 352 0
-327 -352 447 0
-448 331 0
-448 371 0
-331 -371 448 0
-449 333 0
-449 380 0
-333 -380 449 0
-450 335 0
-450 389 0
-335 -389 450 0
-451 337 0
-451 398 0
-337 -398 451 0
-452 339 0
-452 407 0
-339 -407 452 0
-256 -445 0
-256 -446 0
-256 -447 0
-256 -448 0
-256 -449 0
-256 -450 0
-256 -451 0
-256 -452 0
-329 256 445 446 447 448 449 450 451 452 0
-267 331 0
-453 322 0
-453 330 0
-322 -330 453 0
-454 325 0
-454 344 0
-325 -344 454 0
-455 327 0
-455 353 0
-327 -353 455 0
-456 329 0
-456 362 0
-329 -362 456 0
-457 333 0
-457 381 0
-333 -381 457 0
-458 335 0
-458 390 0
-335 -390 458 0
-459 337 0
-459 399 0
-337 -399 459 0
-460 339 0
-460 408 0
-339 -408 460 0
-267 -453 0
-267 -454 0
-267 -455 0
-267 -456 0
-267 -457 0
-267 -458 0
-267 -459 0
-267 -460 0
-331 267 453 454 455 456 457 458 459 460 0
-278 333 0
-461 322 0
-461 332 0
-322 -332 461 0
-462 325 0
-462 345 0
-325 -345 462 0
-463 327 0
-463 354 0
-327 -354 463 0
-464 329 0
-464 363 0
-329 -363 464 0
-465 331 0
-465 372 0
-331 -372 465 0
-466 335 0
-466 391 0
-335 -391 466 0
-467 337 0
-467 400 0
-337 -400 467 0
-468 339 0
-468 409 0
-339 -409 468 0
-278 -461 0
-278 -462 0
-278 -463 0
-278 -464 0
-278 -465 0
-278 -466 0
-278 -467 0
-278 -468 0
-333 278 461 462 463 464 465 466 467 468 0
-289 335 0
-469 322 0
-469 334 0
-322 -334 469 0
-470 325 0
-470 346 0
-325 -346 470 0
-471 327 0
-471 355 0
-327 -355 471 0
-472 329 0
-472 364 0
-329 -364 472 0
-473 331 0
-473 373 0
-331 -373 473 0
-474 333 0
-474 382 0
-333 -382 474 0
-475 337 0
-475 401 0
-337 -401 475 0
-476 339 0
-476 410 0
-339 -410 476 0
-289 -469 0
-289 -470 0
-289 -471 0
-289 -472 0
-289 -473 0
-289 -474 0
-289 -475 0
-289 -476 0
-335 289 469 470 471 472 473 474 475 476 0
-300 337 0
-477 322 0
-477 336 0
-322 -336 477 0
-478 325 0
-478 347 0
-325 -347 478 0
-479 327 0
-479 356 0
-327 -356 479 0
-480 329 0
-480 365 0
-329 -365 480 0
-481 331 0
-481 374 0
-331 -374 481 0
-482 333 0
-482 383 0
-333 -383 482 0
-483 335 0
-483 392 0
-335 -392 483 0
-484 339 0
-484 411 0
-339 -411 484 0
-300 -477 0
-300 -478 0
-300 -479 0
-300 -480 0
-300 -481 0
-300 -482 0
-300 -483 0
-300 -484 0
-337 300 477 478 479 480 481 482 483 484 0
-311 339 0
-485 322 0
-485 338 0
-322 -338 485 0
-486 325 0
-486 348 0
-325 -348 486 0
-487 327 0
-487 357 0
-327 -357 487 0
-488 329 0
-488 366 0
-329 -366 488 0
-489 331 0
-489 375 0
-331 -375 489 0
-490 333 0
-490 384 0
-333 -384 490 0
-491 335 0
-491 393 0
-335 -393 491 0
-492 337 0
-492 402 0
-337 -402 492 0
-311 -485 0
-311 -486 0
-311 -487 0
-311 -488 0
-311 -489 0
-311 -490 0
-311 -491 0
-311 -492 0
-339 311 485 486 487 488 489 490 491 492 0
-213 323 0
-493 324 0
-493 340 0
-324 -340 493 0
-494 326 0
-494 349 0
-326 -349 494 0
-495 328 0
-495 358 0
-328 -358 495 0
-496 330 0
-496 367 0
-330 -367 496 0
-497 332 0
-497 376 0
-332 -376 497 0
-498 334 0
-498 385 0
-334 -385 498 0
-499 336 0
-499 394 0
-336 -394 499 0
-500 338 0
-500 403 0
-338 -403 500 0
-213 -493 0
-213 -494 0
-213 -495 0
-213 -496 0
-213 -497 0
-213 -498 0
-213 -499 0
-213 -500 0
-323 213 493 494 495 496 497 498 499 500 0
-224 0
-235 324 0
-501 323 0
-501 325 0
-323 -325 501 0
-502 326 0
-502 351 0
-326 -351 502 0
-503 328 0
-503 360 0
-328 -360 503 0
-504 330 0
-504 369 0
-330 -369 504 0
-505 332 0
-505 378 0
-332 -378 505 0
-506 334 0
-506 387 0
-334 -387 506 0
-507 336 0
-507 396 0
-336 -396 507 0
-508 338 0
-508 405 0
-338 -405 508 0
-235 -501 0
-235 -502 0
-235 -503 0
-235 -504 0
-235 -505 0
-235 -506 0
-235 -507 0
-235 -508 0
-324 235 501 502 503 504 505 506 507 508 0
-246 326 0
-509 323 0
-509 327 0
-323 -327 509 0
-510 324 0
-510 342 0
-324 -342 510 0
-511 328 0
-511 361 0
-328 -361 511 0
-512 330 0
-512 370 0
-330 -370 512 0
-513 332 0
-513 379 0
-332 -379 513 0
-514 334 0
-514 388 0
-334 -388 514 0
-515 336 0
-515 397 0
-336 -397 515 0
-516 338 0
-516 406 0
-338 -406 516 0
-246 -509 0
-246 -510 0
-246 -511 0
-246 -512 0
-246 -513 0
-246 -514 0
-246 -515 0
-246 -516 0
-326 246 509 510 511 512 513 514 515 516 0
-257 328 0
-517 323 0
-517 329 0
-323 -329 517 0
-518 324 0
-518 343 0
-324 -343 518 0
-519 326 0
-519 352 0
-326 -352 519 0
-520 330 0
-520 371 0
-330 -371 520 0
-521 332 0
-521 380 0
-332 -380 521 0
-522 334 0
-522 389 0
-334 -389 522 0
-523 336 0
-523 398 0
-336 -398 523 0
-524 338 0
-524 407 0
-338 -407 524 0
-257 -517 0
-257 -518 0
-257 -519 0
-257 -520 0
-257 -521 0
-257 -522 0
-257 -523 0
-257 -524 0
-328 257 517 518 519 520 521 522 523 524 0
-268 330 0
-525 323 0
-525 331 0
-323 -331 525 0
-526 324 0
-526 344 0
-324 -344 526 0
-527 326 0
-527 353 0
-326 -353 527 0
-528 328 0
-528 362 0
-328 -362 528 0
-529 332 0
-529 381 0
-332 -381 529 0
-530 334 0
-530 390 0
-334 -390 530 0
-531 336 0
-531 399 0
-336 -399 531 0
-532 338 0
-532 408 0
-338 -408 532 0
-268 -525 0
-268 -526 0
-268 -527 0
-268 -528 0
-268 -529 0
-268 -530 0
-268 -531 0
-268 -532 0
-330 268 525 526 527 528 529 530 531 532 0
-279 332 0
-533 323 0
-533 333 0
-323 -333 533 0
-534 324 0
-534 345 0
-324 -345 534 0
-535 326 0
-535 354 0
-326 -354 535 0
-536 328 0
-536 363 0
-328 -363 536 0
-537 330 0
-537 372 0
-330 -372 537 0
-538 334 0
-538 391 0
-334 -391 538 0
-539 336 0
-539 400 0
-336 -400 539 0
-540 338 0
-540 409 0
-338 -409 540 0
-279 -533 0
-279 -534 0
-279 -535 0
-279 -536 0
-279 -537 0
-279 -538 0
-279 -539 0
-279 -540 0
-332 279 533 534 535 536 537 538 539 540 0
-290 334 0
-541 323 0
-541 335 0
-323 -335 541 0
-542 324 0
-542 346 0
-324 -346 542 0
-543 326 0
-543 355 0
-326 -355 543 0
-544 328 0
-544 364 0
-328 -364 544 0
-545 330 0
-545 373 0
-330 -373 545 0
-546 332 0
-546 382 0
-332 -382 546 0
-547 336 0
-547 401 0
-336 -401 547 0
-548 338 0
-548 410 0
-338 -410 548 0
-290 -541 0
-290 -542 0
-290 -543 0
-290 -544 0
-290 -545 0
-290 -546 0
-290 -547 0
-290 -548 0
-334 290 541 542 543 544 545 546 547 548 0
-301 336 0
-549 323 0
-549 337 0
-323 -337 549 0
-550 324 0
-550 347 0
-324 -347 550 0
-551 326 0
-551 356 0
-326 -356 551 0
-552 328 0
-552 365 0
-328 -365 552 0
-553 330 0
-553 374 0
-330 -374 553 0
-554 332 0
-554 383 0
-332 -383 554 0
-555 334 0
-555 392 0
-334 -392 555 0
-556 338 0
-556 411 0
-338 -411 556 0
-301 -549 0
-301 -550 0
-301 -551 0
-301 -552 0
-301 -553 0
-301 -554 0
-301 -555 0
-301 -556 0
-336 301 549 550 551 552 553 554 555 556 0
-312 338 0
-557 323 0
-557 339 0
-323 -339 557 0
-558 324 0
-558 348 0
-324 -348 558 0
-559 326 0
-559 357 0
-326 -357 559 0
-560 328 0
-560 366 0
-328 -366 560 0
-561 330 0
-561 375 0
-330 -375 561 0
-562 332 0
-562 384 0
-332 -384 562 0
-563 334 0
-563 393 0
-334 -393 563 0
-564 336 0
-564 402 0
-336 -402 564 0
-312 -557 0
-312 -558 0
-312 -559 0
-312 -560 0
-312 -561 0
-312 -562 0
-312 -563 0
-312 -564 0
-338 312 557 558 559 560 561 562 563 564 0
-214 340 0
-565 341 0
-565 323 0
-341 -323 565 0
-566 342 0
-566 349 0
-342 -349 566 0
-567 343 0
-567 358 0
-343 -358 567 0
-568 344 0
-568 367 0
-344 -367 568 0
-569 345 0
-569 376 0
-345 -376 569 0
-570 346 0
-570 385 0
-346 -385 570 0
-571 347 0
-571 394 0
-347 -394 571 0
-572 348 0
-572 403 0
-348 -403 572 0
-214 -565 0
-214 -566 0
-214 -567 0
-214 -568 0
-214 -569 0
-214 -570 0
-214 -571 0
-214 -572 0
-340 214 565 566 567 568 569 570 571 572 0
-225 341 0
-573 340 0
-573 322 0
-340 -322 573 0
-574 342 0
-574 350 0
-342 -350 574 0
-575 343 0
-575 359 0
-343 -359 575 0
-576 344 0
-576 368 0
-344 -368 576 0
-577 345 0
-577 377 0
-345 -377 577 0
-578 346 0
-578 386 0
-346 -386 578 0
-579 347 0
-579 395 0
-347 -395 579 0
-580 348 0
-580 404 0
-348 -404 580 0
-225 -573 0
-225 -574 0
-225 -575 0
-225 -576 0
-225 -577 0
-225 -578 0
-225 -579 0
-225 -580 0
-341 225 573 574 575 576 577 578 579 580 0
-236 0
-247 342 0
-581 340 0
-581 327 0
-340 -327 581 0
-582 341 0
-582 326 0
-341 -326 582 0
-583 343 0
-583 361 0
-343 -361 583 0
-584 344 0
-584 370 0
-344 -370 584 0
-585 345 0
-585 379 0
-345 -379 585 0
-586 346 0
-586 388 0
-346 -388 586 0
-587 347 0
-587 397 0
-347 -397 587 0
-588 348 0
-588 406 0
-348 -406 588 0
-247 -581 0
-247 -582 0
-247 -583 0
-247 -584 0
-247 -585 0
-247 -586 0
-247 -587 0
-247 -588 0
-342 247 581 582 583 584 585 586 587 588 0
-258 343 0
-589 340 0
-589 329 0
-340 -329 589 0
-590 341 0
-590 328 0
-341 -328 590 0
-591 342 0
-591 352 0
-342 -352 591 0
-592 344 0
-592 371 0
-344 -371 592 0
-593 345 0
-593 380 0
-345 -380 593 0
-594 346 0
-594 389 0
-346 -389 594 0
-595 347 0
-595 398 0
-347 -398 595 0
-596 348 0
-596 407 0
-348 -407 596 0
-258 -589 0
-258 -590 0
-258 -591 0
-258 -592 0
-258 -593 0
-258 -594 0
-258 -595 0
-258 -596 0
-343 258 589 590 591 592 593 594 595 596 0
-269 344 0
-597 340 0
-597 331 0
-340 -331 597 0
-598 341 0
-598 330 0
-341 -330 598 0
-599 342 0
-599 353 0
-342 -353 599 0
-600 343 0
-600 362 0
-343 -362 600 0
-601 345 0
-601 381 0
-345 -381 601 0
-602 346 0
-602 390 0
-346 -390 602 0
-603 347 0
-603 399 0
-347 -399 603 0
-604 348 0
-604 408 0
-348 -408 604 0
-269 -597 0
-269 -598 0
-269 -599 0
-269 -600 0
-269 -601 0
-269 -602 0
-269 -603 0
-269 -604 0
-344 269 597 598 599 600 601 602 603 604 0
-280 345 0
-605 340 0
-605 333 0
-340 -333 605 0
-606 341 0
-606 332 0
-341 -332 606 0
-607 342 0
-607 354 0
-342 -354 607 0
-608 343 0
-608 363 0
-343 -363 608 0
-609 344 0
-609 372 0
-344 -372 609 0
-610 346 0
-610 391 0
-346 -391 610 0
-611 347 0
-611 400 0
-347 -400 611 0
-612 348 0
-612 409 0
-348 -409 612 0
-280 -605 0
-280 -606 0
-280 -607 0
-280 -608 0
-280 -609 0
-280 -610 0
-280 -611 0
-280 -612 0
-345 280 605 606 607 608 609 610 611 612 0
-291 346 0
-613 340 0
-613 335 0
-340 -335 613 0
-614 341 0
-614 334 0
-341 -334 614 0
-615 342 0
-615 355 0
-342 -355 615 0
-616 343 0
-616 364 0
-343 -364 616 0
-617 344 0
-617 373 0
-344 -373 617 0
-618 345 0
-618 382 0
-345 -382 618 0
-619 347 0
-619 401 0
-347 -401 619 0
-620 348 0
-620 410 0
-348 -410 620 0
-291 -613 0
-291 -614 0
-291 -615 0
-291 -616 0
-291 -617 0
-291 -618 0
-291 -619 0
-291 -620 0
-346 291 613 614 615 616 617 618 619 620 0
-302 347 0
-621 340 0
-621 337 0
-340 -337 621 0
-622 341 0
-622 336 0
-341 -336 622 0
-623 342 0
-623 356 0
-342 -356 623 0
-624 343 0
-624 365 0
-343 -365 624 0
-625 344 0
-625 374 0
-344 -374 625 0
-626 345 0
-626 383 0
-345 -383 626 0
-627 346 0
-627 392 0
-346 -392 627 0
-628 348 0
-628 411 0
-348 -411 628 0
-302 -621 0
-302 -622 0
-302 -623 0
-302 -624 0
-302 -625 0
-302 -626 0
-302 -627 0
-302 -628 0
-347 302 621 622 623 624 625 626 627 628 0
-313 348 0
-629 340 0
-629 339 0
-340 -339 629 0
-630 341 0
-630 338 0
-341 -338 630 0
-631 342 0
-631 357 0
-342 -357 631 0
-632 343 0
-632 366 0
-343 -366 632 0
-633 344 0
-633 375 0
-344 -375 633 0
-634 345 0
-634 384 0
-345 -384 634 0
-635 346 0
-635 393 0
-346 -393 635 0
-636 347 0
-636 402 0
-347 -402 636 0
-313 -629 0
-313 -630 0
-313 -631 0
-313 -632 0
-313 -633 0
-313 -634 0
-313 -635 0
-313 -636 0
-348 313 629 630 631 632 633 634 635 636 0
-215 349 0
-637 350 0
-637 323 0
-350 -323 637 0
-638 351 0
-638 340 0
-351 -340 638 0
-639 352 0
-639 358 0
-352 -358 639 0
-640 353 0
-640 367 0
-353 -367 640 0
-641 354 0
-641 376 0
-354 -376 641 0
-642 355 0
-642 385 0
-355 -385 642 0
-643 356 0
-643 394 0
-356 -394 643 0
-644 357 0
-644 403 0
-357 -403 644 0
-215 -637 0
-215 -638 0
-215 -639 0
-215 -640 0
-215 -641 0
-215 -642 0
-215 -643 0
-215 -644 0
-349 215 637 638 639 640 641 642 643 644 0
-226 350 0
-645 349 0
-645 322 0
-349 -322 645 0
-646 351 0
-646 341 0
-351 -341 646 0
-647 352 0
-647 359 0
-352 -359 647 0
-648 353 0
-648 368 0
-353 -368 648 0
-649 354 0
-649 377 0
-354 -377 649 0
-650 355 0
-650 386 0
-355 -386 650 0
-651 356 0
-651 395 0
-356 -395 651 0
-652 357 0
-652 404 0
-357 -404 652 0
-226 -645 0
-226 -646 0
-226 -647 0
-226 -648 0
-226 -649 0
-226 -650 0
-226 -651 0
-226 -652 0
-350 226 645 646 647 648 649 650 651 652 0
-237 351 0
-653 349 0
-653 325 0
-349 -325 653 0
-654 350 0
-654 324 0
-350 -324 654 0
-655 352 0
-655 360 0
-352 -360 655 0
-656 353 0
-656 369 0
-353 -369 656 0
-657 354 0
-657 378 0
-354 -378 657 0
-658 355 0
-658 387 0
-355 -387 658 0
-659 356 0
-659 396 0
-356 -396 659 0
-660 357 0
-660 405 0
-357 -405 660 0
-237 -653 0
-237 -654 0
-237 -655 0
-237 -656 0
-237 -657 0
-237 -658 0
-237 -659 0
-237 -660 0
-351 237 653 654 655 656 657 658 659 660 0
-248 0
-259 352 0
-661 349 0
-661 329 0
-349 -329 661 0
-662 350 0
-662 328 0
-350 -328 662 0
-663 351 0
-663 343 0
-351 -343 663 0
-664 353 0
-664 371 0
-353 -371 664 0
-665 354 0
-665 380 0
-354 -380 665 0
-666 355 0
-666 389 0
-355 -389 666 0
-667 356 0
-667 398 0
-356 -398 667 0
-668 357 0
-668 407 0
-357 -407 668 0
-259 -661 0
-259 -662 0
-259 -663 0
-259 -664 0
-259 -665 0
-259 -666 0
-259 -667 0
-259 -668 0
-352 259 661 662 663 664 665 666 667 668 0
-270 353 0
-669 349 0
-669 331 0
-349 -331 669 0
-670 350 0
-670 330 0
-350 -330 670 0
-671 351 0
-671 344 0
-351 -344 671 0
-672 352 0
-672 362 0
-352 -362 672 0
-673 354 0
-673 381 0
-354 -381 673 0
-674 355 0
-674 390 0
-355 -390 674 0
-675 356 0
-675 399 0
-356 -399 675 0
-676 357 0
-676 408 0
-357 -408 676 0
-270 -669 0
-270 -670 0
-270 -671 0
-270 -672 0
-270 -673 0
-270 -674 0
-270 -675 0
-270 -676 0
-353 270 669 670 671 672 673 674 675 676 0
-281 354 0
-677 349 0
-677 333 0
-349 -333 677 0
-678 350 0
-678 332 0
-350 -332 678 0
-679 351 0
-679 345 0
-351 -345 679 0
-680 352 0
-680 363 0
-352 -363 680 0
-681 353 0
-681 372 0
-353 -372 681 0
-682 355 0
-682 391 0
-355 -391 682 0
-683 356 0
-683 400 0
-356 -400 683 0
-684 357 0
-684 409 0
-357 -409 684 0
-281 -677 0
-281 -678 0
-281 -679 0
-281 -680 0
-281 -681 0
-281 -682 0
-281 -683 0
-281 -684 0
-354 281 677 678 679 680 681 682 683 684 0
-292 355 0
-685 349 0
-685 335 0
-349 -335 685 0
-686 350 0
-686 334 0
-350 -334 686 0
-687 351 0
-687 346 0
-351 -346 687 0
-688 352 0
-688 364 0
-352 -364 688 0
-689 353 0
-689 373 0
-353 -373 689 0
-690 354 0
-690 382 0
-354 -382 690 0
-691 356 0
-691 401 0
-356 -401 691 0
-692 357 0
-692 410 0
-357 -410 692 0
-292 -685 0
-292 -686 0
-292 -687 0
-292 -688 0
-292 -689 0
-292 -690 0
-292 -691 0
-292 -692 0
-355 292 685 686 687 688 689 690 691 692 0
-303 356 0
-693 349 0
-693 337 0
-349 -337 693 0
-694 350 0
-694 336 0
-350 -336 694 0
-695 351 0
-695 347 0
-351 -347 695 0
-696 352 0
-696 365 0
-352 -365 696 0
-697 353 0
-697 374 0
-353 -374 697 0
-698 354 0
-698 383 0
-354 -383 698 0
-699 355 0
-699 392 0
-355 -392 699 0
-700 357 0
-700 411 0
-357 -411 700 0
-303 -693 0
-303 -694 0
-303 -695 0
-303 -696 0
-303 -697 0
-303 -698 0
-303 -699 0
-303 -700 0
-356 303 693 694 695 696 697 698 699 700 0
-314 357 0
-701 349 0
-701 339 0
-349 -339 701 0
-702 350 0
-702 338 0
-350 -338 702 0
-703 351 0
-703 348 0
-351 -348 703 0
-704 352 0
-704 366 0
-352 -366 704 0
-705 353 0
-705 375 0
-353 -375 705 0
-706 354 0
-706 384 0
-354 -384 706 0
-707 355 0
-707 393 0
-355 -393 707 0
-708 356 0
-708 402 0
-356 -402 708 0
-314 -701 0
-314 -702 0
-314 -703 0
-314 -704 0
-314 -705 0
-314 -706 0
-314 -707 0
-314 -708 0
-357 314 701 702 703 704 705 706 707 708 0
-216 358 0
-709 359 0
-709 323 0
-359 -323 709 0
-710 360 0
-710 340 0
-360 -340 710 0
-711 361 0
-711 349 0
-361 -349 711 0
-712 362 0
-712 367 0
-362 -367 712 0
-713 363 0
-713 376 0
-363 -376 713 0
-714 364 0
-714 385 0
-364 -385 714 0
-715 365 0
-715 394 0
-365 -394 715 0
-716 366 0
-716 403 0
-366 -403 716 0
-216 -709 0
-216 -710 0
-216 -711 0
-216 -712 0
-216 -713 0
-216 -714 0
-216 -715 0
-216 -716 0
-358 216 709 710 711 712 713 714 715 716 0
-227 359 0
-717 358 0
-717 322 0
-358 -322 717 0
-718 360 0
-718 341 0
-360 -341 718 0
-719 361 0
-719 350 0
-361 -350 719 0
-720 362 0
-720 368 0
-362 -368 720 0
-721 363 0
-721 377 0
-363 -377 721 0
-722 364 0
-722 386 0
-364 -386 722 0
-723 365 0
-723 395 0
-365 -395 723 0
-724 366 0
-724 404 0
-366 -404 724 0
-227 -717 0
-227 -718 0
-227 -719 0
-227 -720 0
-227 -721 0
-227 -722 0
-227 -723 0
-227 -724 0
-359 227 717 718 719 720 721 722 723 724 0
-238 360 0
-725 358 0
-725 325 0
-358 -325 725 0
-726 359 0
-726 324 0
-359 -324 726 0
-727 361 0
-727 351 0
-361 -351 727 0
-728 362 0
-728 369 0
-362 -369 728 0
-729 363 0
-729 378 0
-363 -378 729 0
-730 364 0
-730 387 0
-364 -387 730 0
-731 365 0
-731 396 0
-365 -396 731 0
-732 366 0
-732 405 0
-366 -405 732 0
-238 -725 0
-238 -726 0
-238 -727 0
-238 -728 0
-238 -729 0
-238 -730 0
-238 -731 0
-238 -732 0
-360 238 725 726 727 728 729 730 731 732 0
-249 361 0
-733 358 0
-733 327 0
-358 -327 733 0
-734 359 0
-734 326 0
-359 -326 734 0
-735 360 0
-735 342 0
-360 -342 735 0
-736 362 0
-736 370 0
-362 -370 736 0
-737 363 0
-737 379 0
-363 -379 737 0
-738 364 0
-738 388 0
-364 -388 738 0
-739 365 0
-739 397 0
-365 -397 739 0
-740 366 0
-740 406 0
-366 -406 740 0
-249 -733 0
-249 -734 0
-249 -735 0
-249 -736 0
-249 -737 0
-249 -738 0
-249 -739 0
-249 -740 0
-361 249 733 734 735 736 737 738 739 740 0
-260 0
-271 362 0
-741 358 0
-741 331 0
-358 -331 741 0
-742 359 0
-742 330 0
-359 -330 742 0
-743 360 0
-743 344 0
-360 -344 743 0
-744 361 0
-744 353 0
-361 -353 744 0
-745 363 0
-745 381 0
-363 -381 745 0
-746 364 0
-746 390 0
-364 -390 746 0
-747 365 0
-747 399 0
-365 -399 747 0
-748 366 0
-748 408 0
-366 -408 748 0
-271 -741 0
-271 -742 0
-271 -743 0
-271 -744 0
-271 -745 0
-271 -746 0
-271 -747 0
-271 -748 0
-362 271 741 742 743 744 745 746 747 748 0
-282 363 0
-749 358 0
-749 333 0
-358 -333 749 0
-750 359 0
-750 332 0
-359 -332 750 0
-751 360 0
-751 345 0
-360 -345 751 0
-752 361 0
-752 354 0
-361 -354 752 0
-753 362 0
-753 372 0
-362 -372 753 0
-754 364 0
-754 391 0
-364 -391 754 0
-755 365 0
-755 400 0
-365 -400 755 0
-756 366 0
-756 409 0
-366 -409 756 0
-282 -749 0
-282 -750 0
-282 -751 0
-282 -752 0
-282 -753 0
-282 -754 0
-282 -755 0
-282 -756 0
-363 282 749 750 751 752 753 754 755 756 0
-293 364 0
-757 358 0
-757 335 0
-358 -335 757 0
-758 359 0
-758 334 0
-359 -334 758 0
-759 360 0
-759 346 0
-360 -346 759 0
-760 361 0
-760 355 0
-361 -355 760 0
-761 362 0
-761 373 0
-362 -373 761 0
-762 363 0
-762 382 0
-363 -382 762 0
-763 365 0
-763 401 0
-365 -401 763 0
-764 366 0
-764 410 0
-366 -410 764 0
-293 -757 0
-293 -758 0
-293 -759 0
-293 -760 0
-293 -761 0
-293 -762 0
-293 -763 0
-293 -764 0
-364 293 757 758 759 760 761 762 763 764 0
-304 365 0
-765 358 0
-765 337 0
-358 -337 765 0
-766 359 0
-766 336 0
-359 -336 766 0
-767 360 0
-767 347 0
-360 -347 767 0
-768 361 0
-768 356 0
-361 -356 768 0
-769 362 0
-769 374 0
-362 -374 769 0
-770 363 0
-770 383 0
-363 -383 770 0
-771 364 0
-771 392 0
-364 -392 771 0
-772 366 0
-772 411 0
-366 -411 772 0
-304 -765 0
-304 -766 0
-304 -767 0
-304 -768 0
-304 -769 0
-304 -770 0
-304 -771 0
-304 -772 0
-365 304 765 766 767 768 769 770 771 772 0
-315 366 0
-773 358 0
-773 339 0
-358 -339 773 0
-774 359 0
-774 338 0
-359 -338 774 0
-775 360 0
-775 348 0
-360 -348 775 0
-776 361 0
-776 357 0
-361 -357 776 0
-777 362 0
-777 375 0
-362 -375 777 0
-778 363 0
-778 384 0
-363 -384 778 0
-779 364 0
-779 393 0
-364 -393 779 0
-780 365 0
-780 402 0
-365 -402 780 0
-315 -773 0
-315 -774 0
-315 -775 0
-315 -776 0
-315 -777 0
-315 -778 0
-315 -779 0
-315 -780 0
-366 315 773 774 775 776 777 778 779 780 0
-217 367 0
-781 368 0
-781 323 0
-368 -323 781 0
-782 369 0
-782 340 0
-369 -340 782 0
-783 370 0
-783 349 0
-370 -349 783 0
-784 371 0
-784 358 0
-371 -358 784 0
-785 372 0
-785 376 0
-372 -376 785 0
-786 373 0
-786 385 0
-373 -385 786 0
-787 374 0
-787 394 0
-374 -394 787 0
-788 375 0
-788 403 0
-375 -403 788 0
-217 -781 0
-217 -782 0
-217 -783 0
-217 -784 0
-217 -785 0
-217 -786 0
-217 -787 0
-217 -788 0
-367 217 781 782 783 784 785 786 787 788 0
-228 368 0
-789 367 0
-789 322 0
-367 -322 789 0
-790 369 0
-790 341 0
-369 -341 790 0
-791 370 0
-791 350 0
-370 -350 791 0
-792 371 0
-792 359 0
-371 -359 792 0
-793 372 0
-793 377 0
-372 -377 793 0
-794 373 0
-794 386 0
-373 -386 794 0
-795 374 0
-795 395 0
-374 -395 795 0
-796 375 0
-796 404 0
-375 -404 796 0
-228 -789 0
-228 -790 0
-228 -791 0
-228 -792 0
-228 -793 0
-228 -794 0
-228 -795 0
-228 -796 0
-368 228 789 790 791 792 793 794 795 796 0
-239 369 0
-797 367 0
-797 325 0
-367 -325 797 0
-798 368 0
-798 324 0
-368 -324 798 0
-799 370 0
-799 351 0
-370 -351 799 0
-800 371 0
-800 360 0
-371 -360 800 0
-801 372 0
-801 378 0
-372 -378 801 0
-802 373 0
-802 387 0
-373 -387 802 0
-803 374 0
-803 396 0
-374 -396 803 0
-804 375 0
-804 405 0
-375 -405 804 0
-239 -797 0
-239 -798 0
-239 -799 0
-239 -800 0
-239 -801 0
-239 -802 0
-239 -803 0
-239 -804 0
-369 239 797 798 799 800 801 802 803 804 0
-250 370 0
-805 367 0
-805 327 0
-367 -327 805 0
-806 368 0
-806 326 0
-368 -326 806 0
-807 369 0
-807 342 0
-369 -342 807 0
-808 371 0
-808 361 0
-371 -361 808 0
-809 372 0
-809 379 0
-372 -379 809 0
-810 373 0
-810 388 0
-373 -388 810 0
-811 374 0
-811 397 0
-374 -397 811 0
-812 375 0
-812 406 0
-375 -406 812 0
-250 -805 0
-250 -806 0
-250 -807 0
-250 -808 0
-250 -809 0
-250 -810 0
-250 -811 0
-250 -812 0
-370 250 805 806 807 808 809 810 811 812 0
-261 371 0
-813 367 0
-813 329 0
-367 -329 813 0
-814 368 0
-814 328 0
-368 -328 814 0
-815 369 0
-815 343 0
-369 -343 815 0
-816 370 0
-816 352 0
-370 -352 816 0
-817 372 0
-817 380 0
-372 -380 817 0
-818 373 0
-818 389 0
-373 -389 818 0
-819 374 0
-819 398 0
-374 -398 819 0
-820 375 0
-820 407 0
-375 -407 820 0
-261 -813 0
-261 -814 0
-261 -815 0
-261 -816 0
-261 -817 0
-261 -818 0
-261 -819 0
-261 -820 0
-371 261 813 814 815 816 817 818 819 820 0
-272 0
-283 372 0
-821 367 0
-821 333 0
-367 -333 821 0
-822 368 0
-822 332 0
-368 -332 822 0
-823 369 0
-823 345 0
-369 -345 823 0
-824 370 0
-824 354 0
-370 -354 824 0
-825 371 0
-825 363 0
-371 -363 825 0
-826 373 0
-826 391 0
-373 -391 826 0
-827 374 0
-827 400 0
-374 -400 827 0
-828 375 0
-828 409 0
-375 -409 828 0
-283 -821 0
-283 -822 0
-283 -823 0
-283 -824 0
-283 -825 0
-283 -826 0
-283 -827 0
-283 -828 0
-372 283 821 822 823 824 825 826 827 828 0
-294 373 0
-829 367 0
-829 335 0
-367 -335 829 0
-830 368 0
-830 334 0
-368 -334 830 0
-831 369 0
-831 346 0
-369 -346 831 0
-832 370 0
-832 355 0
-370 -355 832 0
-833 371 0
-833 364 0
-371 -364 833 0
-834 372 0
-834 382 0
-372 -382 834 0
-835 374 0
-835 401 0
-374 -401 835 0
-836 375 0
-836 410 0
-375 -410 836 0
-294 -829 0
-294 -830 0
-294 -831 0
-294 -832 0
-294 -833 0
-294 -834 0
-294 -835 0
-294 -836 0
-373 294 829 830 831 832 833 834 835 836 0
-305 374 0
-837 367 0
-837 337 0
-367 -337 837 0
-838 368 0
-838 336 0
-368 -336 838 0
-839 369 0
-839 347 0
-369 -347 839 0
-840 370 0
-840 356 0
-370 -356 840 0
-841 371 0
-841 365 0
-371 -365 841 0
-842 372 0
-842 383 0
-372 -383 842 0
-843 373 0
-843 392 0
-373 -392 843 0
-844 375 0
-844 411 0
-375 -411 844 0
-305 -837 0
-305 -838 0
-305 -839 0
-305 -840 0
-305 -841 0
-305 -842 0
-305 -843 0
-305 -844 0
-374 305 837 838 839 840 841 842 843 844 0
-316 375 0
-845 367 0
-845 339 0
-367 -339 845 0
-846 368 0
-846 338 0
-368 -338 846 0
-847 369 0
-847 348 0
-369 -348 847 0
-848 370 0
-848 357 0
-370 -357 848 0
-849 371 0
-849 366 0
-371 -366 849 0
-850 372 0
-850 384 0
-372 -384 850 0
-851 373 0
-851 393 0
-373 -393 851 0
-852 374 0
-852 402 0
-374 -402 852 0
-316 -845 0
-316 -846 0
-316 -847 0
-316 -848 0
-316 -849 0
-316 -850 0
-316 -851 0
-316 -852 0
-375 316 845 846 847 848 849 850 851 852 0
-218 376 0
-853 377 0
-853 323 0
-377 -323 853 0
-854 378 0
-854 340 0
-378 -340 854 0
-855 379 0
-855 349 0
-379 -349 855 0
-856 380 0
-856 358 0
-380 -358 856 0
-857 381 0
-857 367 0
-381 -367 857 0
-858 382 0
-858 385 0
-382 -385 858 0
-859 383 0
-859 394 0
-383 -394 859 0
-860 384 0
-860 403 0
-384 -403 860 0
-218 -853 0
-218 -854 0
-218 -855 0
-218 -856 0
-218 -857 0
-218 -858 0
-218 -859 0
-218 -860 0
-376 218 853 854 855 856 857 858 859 860 0
-229 377 0
-861 376 0
-861 322 0
-376 -322 861 0
-862 378 0
-862 341 0
-378 -341 862 0
-863 379 0
-863 350 0
-379 -350 863 0
-864 380 0
-864 359 0
-380 -359 864 0
-865 381 0
-865 368 0
-381 -368 865 0
-866 382 0
-866 386 0
-382 -386 866 0
-867 383 0
-867 395 0
-383 -395 867 0
-868 384 0
-868 404 0
-384 -404 868 0
-229 -861 0
-229 -862 0
-229 -863 0
-229 -864 0
-229 -865 0
-229 -866 0
-229 -867 0
-229 -868 0
-377 229 861 862 863 864 865 866 867 868 0
-240 378 0
-869 376 0
-869 325 0
-376 -325 869 0
-870 377 0
-870 324 0
-377 -324 870 0
-871 379 0
-871 351 0
-379 -351 871 0
-872 380 0
-872 360 0
-380 -360 872 0
-873 381 0
-873 369 0
-381 -369 873 0
-874 382 0
-874 387 0
-382 -387 874 0
-875 383 0
-875 396 0
-383 -396 875 0
-876 384 0
-876 405 0
-384 -405 876 0
-240 -869 0
-240 -870 0
-240 -871 0
-240 -872 0
-240 -873 0
-240 -874 0
-240 -875 0
-240 -876 0
-378 240 869 870 871 872 873 874 875 876 0
-251 379 0
-877 376 0
-877 327 0
-376 -327 877 0
-878 377 0
-878 326 0
-377 -326 878 0
-879 378 0
-879 342 0
-378 -342 879 0
-880 380 0
-880 361 0
-380 -361 880 0
-881 381 0
-881 370 0
-381 -370 881 0
-882 382 0
-882 388 0
-382 -388 882 0
-883 383 0
-883 397 0
-383 -397 883 0
-884 384 0
-884 406 0
-384 -406 884 0
-251 -877 0
-251 -878 0
-251 -879 0
-251 -880 0
-251 -881 0
-251 -882 0
-251 -883 0
-251 -884 0
-379 251 877 878 879 880 881 882 883 884 0
-262 380 0
-885 376 0
-885 329 0
-376 -329 885 0
-886 377 0
-886 328 0
-377 -328 886 0
-887 378 0
-887 343 0
-378 -343 887 0
-888 379 0
-888 352 0
-379 -352 888 0
-889 381 0
-889 371 0
-381 -371 889 0
-890 382 0
-890 389 0
-382 -389 890 0
-891 383 0
-891 398 0
-383 -398 891 0
-892 384 0
-892 407 0
-384 -407 892 0
-262 -885 0
-262 -886 0
-262 -887 0
-262 -888 0
-262 -889 0
-262 -890 0
-262 -891 0
-262 -892 0
-380 262 885 886 887 888 889 890 891 892 0
-273 381 0
-893 376 0
-893 331 0
-376 -331 893 0
-894 377 0
-894 330 0
-377 -330 894 0
-895 378 0
-895 344 0
-378 -344 895 0
-896 379 0
-896 353 0
-379 -353 896 0
-897 380 0
-897 362 0
-380 -362 897 0
-898 382 0
-898 390 0
-382 -390 898 0
-899 383 0
-899 399 0
-383 -399 899 0
-900 384 0
-900 408 0
-384 -408 900 0
-273 -893 0
-273 -894 0
-273 -895 0
-273 -896 0
-273 -897 0
-273 -898 0
-273 -899 0
-273 -900 0
-381 273 893 894 895 896 897 898 899 900 0
-284 0
-295 382 0
-901 376 0
-901 335 0
-376 -335 901 0
-902 377 0
-902 334 0
-377 -334 902 0
-903 378 0
-903 346 0
-378 -346 903 0
-904 379 0
-904 355 0
-379 -355 904 0
-905 380 0
-905 364 0
-380 -364 905 0
-906 381 0
-906 373 0
-381 -373 906 0
-907 383 0
-907 401 0
-383 -401 907 0
-908 384 0
-908 410 0
-384 -410 908 0
-295 -901 0
-295 -902 0
-295 -903 0
-295 -904 0
-295 -905 0
-295 -906 0
-295 -907 0
-295 -908 0
-382 295 901 902 903 904 905 906 907 908 0
-306 383 0
-909 376 0
-909 337 0
-376 -337 909 0
-910 377 0
-910 336 0
-377 -336 910 0
-911 378 0
-911 347 0
-378 -347 911 0
-912 379 0
-912 356 0
-379 -356 912 0
-913 380 0
-913 365 0
-380 -365 913 0
-914 381 0
-914 374 0
-381 -374 914 0
-915 382 0
-915 392 0
-382 -392 915 0
-916 384 0
-916 411 0
-384 -411 916 0
-306 -909 0
-306 -910 0
-306 -911 0
-306 -912 0
-306 -913 0
-306 -914 0
-306 -915 0
-306 -916 0
-383 306 909 910 911 912 913 914 915 916 0
-317 384 0
-917 376 0
-917 339 0
-376 -339 917 0
-918 377 0
-918 338 0
-377 -338 918 0
-919 378 0
-919 348 0
-378 -348 919 0
-920 379 0
-920 357 0
-379 -357 920 0
-921 380 0
-921 366 0
-380 -366 921 0
-922 381 0
-922 375 0
-381 -375 922 0
-923 382 0
-923 393 0
-382 -393 923 0
-924 383 0
-924 402 0
-383 -402 924 0
-317 -917 0
-317 -918 0
-317 -919 0
-317 -920 0
-317 -921 0
-317 -922 0
-317 -923 0
-317 -924 0
-384 317 917 918 919 920 921 922 923 924 0
-219 385 0
-925 386 0
-925 323 0
-386 -323 925 0
-926 387 0
-926 340 0
-387 -340 926 0
-927 388 0
-927 349 0
-388 -349 927 0
-928 389 0
-928 358 0
-389 -358 928 0
-929 390 0
-929 367 0
-390 -367 929 0
-930 391 0
-930 376 0
-391 -376 930 0
-931 392 0
-931 394 0
-392 -394 931 0
-932 393 0
-932 403 0
-393 -403 932 0
-219 -925 0
-219 -926 0
-219 -927 0
-219 -928 0
-219 -929 0
-219 -930 0
-219 -931 0
-219 -932 0
-385 219 925 926 927 928 929 930 931 932 0
-230 386 0
-933 385 0
-933 322 0
-385 -322 933 0
-934 387 0
-934 341 0
-387 -341 934 0
-935 388 0
-935 350 0
-388 -350 935 0
-936 389 0
-936 359 0
-389 -359 936 0
-937 390 0
-937 368 0
-390 -368 937 0
-938 391 0
-938 377 0
-391 -377 938 0
-939 392 0
-939 395 0
-392 -395 939 0
-940 393 0
-940 404 0
-393 -404 940 0
-230 -933 0
-230 -934 0
-230 -935 0
-230 -936 0
-230 -937 0
-230 -938 0
-230 -939 0
-230 -940 0
-386 230 933 934 935 936 937 938 939 940 0
-241 387 0
-941 385 0
-941 325 0
-385 -325 941 0
-942 386 0
-942 324 0
-386 -324 942 0
-943 388 0
-943 351 0
-388 -351 943 0
-944 389 0
-944 360 0
-389 -360 944 0
-945 390 0
-945 369 0
-390 -369 945 0
-946 391 0
-946 378 0
-391 -378 946 0
-947 392 0
-947 396 0
-392 -396 947 0
-948 393 0
-948 405 0
-393 -405 948 0
-241 -941 0
-241 -942 0
-241 -943 0
-241 -944 0
-241 -945 0
-241 -946 0
-241 -947 0
-241 -948 0
-387 241 941 942 943 944 945 946 947 948 0
-252 388 0
-949 385 0
-949 327 0
-385 -327 949 0
-950 386 0
-950 326 0
-386 -326 950 0
-951 387 0
-951 342 0
-387 -342 951 0
-952 389 0
-952 361 0
-389 -361 952 0
-953 390 0
-953 370 0
-390 -370 953 0
-954 391 0
-954 379 0
-391 -379 954 0
-955 392 0
-955 397 0
-392 -397 955 0
-956 393 0
-956 406 0
-393 -406 956 0
-252 -949 0
-252 -950 0
-252 -951 0
-252 -952 0
-252 -953 0
-252 -954 0
-252 -955 0
-252 -956 0
-388 252 949 950 951 952 953 954 955 956 0
-263 389 0
-957 385 0
-957 329 0
-385 -329 957 0
-958 386 0
-958 328 0
-386 -328 958 0
-959 387 0
-959 343 0
-387 -343 959 0
-960 388 0
-960 352 0
-388 -352 960 0
-961 390 0
-961 371 0
-390 -371 961 0
-962 391 0
-962 380 0
-391 -380 962 0
-963 392 0
-963 398 0
-392 -398 963 0
-964 393 0
-964 407 0
-393 -407 964 0
-263 -957 0
-263 -958 0
-263 -959 0
-263 -960 0
-263 -961 0
-263 -962 0
-263 -963 0
-263 -964 0
-389 263 957 958 959 960 961 962 963 964 0
-274 390 0
-965 385 0
-965 331 0
-385 -331 965 0
-966 386 0
-966 330 0
-386 -330 966 0
-967 387 0
-967 344 0
-387 -344 967 0
-968 388 0
-968 353 0
-388 -353 968 0
-969 389 0
-969 362 0
-389 -362 969 0
-970 391 0
-970 381 0
-391 -381 970 0
-971 392 0
-971 399 0
-392 -399 971 0
-972 393 0
-972 408 0
-393 -408 972 0
-274 -965 0
-274 -966 0
-274 -967 0
-274 -968 0
-274 -969 0
-274 -970 0
-274 -971 0
-274 -972 0
-390 274 965 966 967 968 969 970 971 972 0
-285 391 0
-973 385 0
-973 333 0
-385 -333 973 0
-974 386 0
-974 332 0
-386 -332 974 0
-975 387 0
-975 345 0
-387 -345 975 0
-976 388 0
-976 354 0
-388 -354 976 0
-977 389 0
-977 363 0
-389 -363 977 0
-978 390 0
-978 372 0
-390 -372 978 0
-979 392 0
-979 400 0
-392 -400 979 0
-980 393 0
-980 409 0
-393 -409 980 0
-285 -973 0
-285 -974 0
-285 -975 0
-285 -976 0
-285 -977 0
-285 -978 0
-285 -979 0
-285 -980 0
-391 285 973 974 975 976 977 978 979 980 0
-296 0
-307 392 0
-981 385 0
-981 337 0
-385 -337 981 0
-982 386 0
-982 336 0
-386 -336 982 0
-983 387 0
-983 347 0
-387 -347 983 0
-984 388 0
-984 356 0
-388 -356 984 0
-985 389 0
-985 365 0
-389 -365 985 0
-986 390 0
-986 374 0
-390 -374 986 0
-987 391 0
-987 383 0
-391 -383 987 0
-988 393 0
-988 411 0
-393 -411 988 0
-307 -981 0
-307 -982 0
-307 -983 0
-307 -984 0
-307 -985 0
-307 -986 0
-307 -987 0
-307 -988 0
-392 307 981 982 983 984 985 986 987 988 0
-318 393 0
-989 385 0
-989 339 0
-385 -339 989 0
-990 386 0
-990 338 0
-386 -338 990 0
-991 387 0
-991 348 0
-387 -348 991 0
-992 388 0
-992 357 0
-388 -357 992 0
-993 389 0
-993 366 0
-389 -366 993 0
-994 390 0
-994 375 0
-390 -375 994 0
-995 391 0
-995 384 0
-391 -384 995 0
-996 392 0
-996 402 0
-392 -402 996 0
-318 -989 0
-318 -990 0
-318 -991 0
-318 -992 0
-318 -993 0
-318 -994 0
-318 -995 0
-318 -996 0
-393 318 989 990 991 992 993 994 995 996 0
-220 394 0
-997 395 0
-997 323 0
-395 -323 997 0
-998 396 0
-998 340 0
-396 -340 998 0
-999 397 0
-999 349 0
-397 -349 999 0
-1000 398 0
-1000 358 0
-398 -358 1000 0
-1001 399 0
-1001 367 0
-399 -367 1001 0
-1002 400 0
-1002 376 0
-400 -376 1002 0
-1003 401 0
-1003 385 0
-401 -385 1003 0
-1004 402 0
-1004 403 0
-402 -403 1004 0
-220 -997 0
-220 -998 0
-220 -999 0
-220 -1000 0
-220 -1001 0
-220 -1002 0
-220 -1003 0
-220 -1004 0
-394 220 997 998 999 1000 1001 1002 1003 1004 0
-231 395 0
-1005 394 0
-1005 322 0
-394 -322 1005 0
-1006 396 0
-1006 341 0
-396 -341 1006 0
-1007 397 0
-1007 350 0
-397 -350 1007 0
-1008 398 0
-1008 359 0
-398 -359 1008 0
-1009 399 0
-1009 368 0
-399 -368 1009 0
-1010 400 0
-1010 377 0
-400 -377 1010 0
-1011 401 0
-1011 386 0
-401 -386 1011 0
-1012 402 0
-1012 404 0
-402 -404 1012 0
-231 -1005 0
-231 -1006 0
-231 -1007 0
-231 -1008 0
-231 -1009 0
-231 -1010 0
-231 -1011 0
-231 -1012 0
-395 231 1005 1006 1007 1008 1009 1010 1011 1012 0
-242 396 0
-1013 394 0
-1013 325 0
-394 -325 1013 0
-1014 395 0
-1014 324 0
-395 -324 1014 0
-1015 397 0
-1015 351 0
-397 -351 1015 0
-1016 398 0
-1016 360 0
-398 -360 1016 0
-1017 399 0
-1017 369 0
-399 -369 1017 0
-1018 400 0
-1018 378 0
-400 -378 1018 0
-1019 401 0
-1019 387 0
-401 -387 1019 0
-1020 402 0
-1020 405 0
-402 -405 1020 0
-242 -1013 0
-242 -1014 0
-242 -1015 0
-242 -1016 0
-242 -1017 0
-242 -1018 0
-242 -1019 0
-242 -1020 0
-396 242 1013 1014 1015 1016 1017 1018 1019 1020 0
-253 397 0
-1021 394 0
-1021 327 0
-394 -327 1021 0
-1022 395 0
-1022 326 0
-395 -326 1022 0
-1023 396 0
-1023 342 0
-396 -342 1023 0
-1024 398 0
-1024 361 0
-398 -361 1024 0
-1025 399 0
-1025 370 0
-399 -370 1025 0
-1026 400 0
-1026 379 0
-400 -379 1026 0
-1027 401 0
-1027 388 0
-401 -388 1027 0
-1028 402 0
-1028 406 0
-402 -406 1028 0
-253 -1021 0
-253 -1022 0
-253 -1023 0
-253 -1024 0
-253 -1025 0
-253 -1026 0
-253 -1027 0
-253 -1028 0
-397 253 1021 1022 1023 1024 1025 1026 1027 1028 0
-264 398 0
-1029 394 0
-1029 329 0
-394 -329 1029 0
-1030 395 0
-1030 328 0
-395 -328 1030 0
-1031 396 0
-1031 343 0
-396 -343 1031 0
-1032 397 0
-1032 352 0
-397 -352 1032 0
-1033 399 0
-1033 371 0
-399 -371 1033 0
-1034 400 0
-1034 380 0
-400 -380 1034 0
-1035 401 0
-1035 389 0
-401 -389 1035 0
-1036 402 0
-1036 407 0
-402 -407 1036 0
-264 -1029 0
-264 -1030 0
-264 -1031 0
-264 -1032 0
-264 -1033 0
-264 -1034 0
-264 -1035 0
-264 -1036 0
-398 264 1029 1030 1031 1032 1033 1034 1035 1036 0
-275 399 0
-1037 394 0
-1037 331 0
-394 -331 1037 0
-1038 395 0
-1038 330 0
-395 -330 1038 0
-1039 396 0
-1039 344 0
-396 -344 1039 0
-1040 397 0
-1040 353 0
-397 -353 1040 0
-1041 398 0
-1041 362 0
-398 -362 1041 0
-1042 400 0
-1042 381 0
-400 -381 1042 0
-1043 401 0
-1043 390 0
-401 -390 1043 0
-1044 402 0
-1044 408 0
-402 -408 1044 0
-275 -1037 0
-275 -1038 0
-275 -1039 0
-275 -1040 0
-275 -1041 0
-275 -1042 0
-275 -1043 0
-275 -1044 0
-399 275 1037 1038 1039 1040 1041 1042 1043 1044 0
-286 400 0
-1045 394 0
-1045 333 0
-394 -333 1045 0
-1046 395 0
-1046 332 0
-395 -332 1046 0
-1047 396 0
-1047 345 0
-396 -345 1047 0
-1048 397 0
-1048 354 0
-397 -354 1048 0
-1049 398 0
-1049 363 0
-398 -363 1049 0
-1050 399 0
-1050 372 0
-399 -372 1050 0
-1051 401 0
-1051 391 0
-401 -391 1051 0
-1052 402 0
-1052 409 0
-402 -409 1052 0
-286 -1045 0
-286 -1046 0
-286 -1047 0
-286 -1048 0
-286 -1049 0
-286 -1050 0
-286 -1051 0
-286 -1052 0
-400 286 1045 1046 1047 1048 1049 1050 1051 1052 0
-297 401 0
-1053 394 0
-1053 335 0
-394 -335 1053 0
-1054 395 0
-1054 334 0
-395 -334 1054 0
-1055 396 0
-1055 346 0
-396 -346 1055 0
-1056 397 0
-1056 355 0
-397 -355 1056 0
-1057 398 0
-1057 364 0
-398 -364 1057 0
-1058 399 0
-1058 373 0
-399 -373 1058 0
-1059 400 0
-1059 382 0
-400 -382 1059 0
-1060 402 0
-1060 410 0
-402 -410 1060 0
-297 -1053 0
-297 -1054 0
-297 -1055 0
-297 -1056 0
-297 -1057 0
-297 -1058 0
-297 -1059 0
-297 -1060 0
-401 297 1053 1054 1055 1056 1057 1058 1059 1060 0
-308 0
-319 402 0
-1061 394 0
-1061 339 0
-394 -339 1061 0
-1062 395 0
-1062 338 0
-395 -338 1062 0
-1063 396 0
-1063 348 0
-396 -348 1063 0
-1064 397 0
-1064 357 0
-397 -357 1064 0
-1065 398 0
-1065 366 0
-398 -366 1065 0
-1066 399 0
-1066 375 0
-399 -375 1066 0
-1067 400 0
-1067 384 0
-400 -384 1067 0
-1068 401 0
-1068 393 0
-401 -393 1068 0
-319 -1061 0
-319 -1062 0
-319 -1063 0
-319 -1064 0
-319 -1065 0
-319 -1066 0
-319 -1067 0
-319 -1068 0
-402 319 1061 1062 1063 1064 1065 1066 1067 1068 0
-221 403 0
-1069 404 0
-1069 323 0
-404 -323 1069 0
-1070 405 0
-1070 340 0
-405 -340 1070 0
-1071 406 0
-1071 349 0
-406 -349 1071 0
-1072 407 0
-1072 358 0
-407 -358 1072 0
-1073 408 0
-1073 367 0
-408 -367 1073 0
-1074 409 0
-1074 376 0
-409 -376 1074 0
-1075 410 0
-1075 385 0
-410 -385 1075 0
-1076 411 0
-1076 394 0
-411 -394 1076 0
-221 -1069 0
-221 -1070 0
-221 -1071 0
-221 -1072 0
-221 -1073 0
-221 -1074 0
-221 -1075 0
-221 -1076 0
-403 221 1069 1070 1071 1072 1073 1074 1075 1076 0
-232 404 0
-1077 403 0
-1077 322 0
-403 -322 1077 0
-1078 405 0
-1078 341 0
-405 -341 1078 0
-1079 406 0
-1079 350 0
-406 -350 1079 0
-1080 407 0
-1080 359 0
-407 -359 1080 0
-1081 408 0
-1081 368 0
-408 -368 1081 0
-1082 409 0
-1082 377 0
-409 -377 1082 0
-1083 410 0
-1083 386 0
-410 -386 1083 0
-1084 411 0
-1084 395 0
-411 -395 1084 0
-232 -1077 0
-232 -1078 0
-232 -1079 0
-232 -1080 0
-232 -1081 0
-232 -1082 0
-232 -1083 0
-232 -1084 0
-404 232 1077 1078 1079 1080 1081 1082 1083 1084 0
-243 405 0
-1085 403 0
-1085 325 0
-403 -325 1085 0
-1086 404 0
-1086 324 0
-404 -324 1086 0
-1087 406 0
-1087 351 0
-406 -351 1087 0
-1088 407 0
-1088 360 0
-407 -360 1088 0
-1089 408 0
-1089 369 0
-408 -369 1089 0
-1090 409 0
-1090 378 0
-409 -378 1090 0
-1091 410 0
-1091 387 0
-410 -387 1091 0
-1092 411 0
-1092 396 0
-411 -396 1092 0
-243 -1085 0
-243 -1086 0
-243 -1087 0
-243 -1088 0
-243 -1089 0
-243 -1090 0
-243 -1091 0
-243 -1092 0
-405 243 1085 1086 1087 1088 1089 1090 1091 1092 0
-254 406 0
-1093 403 0
-1093 327 0
-403 -327 1093 0
-1094 404 0
-1094 326 0
-404 -326 1094 0
-1095 405 0
-1095 342 0
-405 -342 1095 0
-1096 407 0
-1096 361 0
-407 -361 1096 0
-1097 408 0
-1097 370 0
-408 -370 1097 0
-1098 409 0
-1098 379 0
-409 -379 1098 0
-1099 410 0
-1099 388 0
-410 -388 1099 0
-1100 411 0
-1100 397 0
-411 -397 1100 0
-254 -1093 0
-254 -1094 0
-254 -1095 0
-254 -1096 0
-254 -1097 0
-254 -1098 0
-254 -1099 0
-254 -1100 0
-406 254 1093 1094 1095 1096 1097 1098 1099 1100 0
-265 407 0
-1101 403 0
-1101 329 0
-403 -329 1101 0
-1102 404 0
-1102 328 0
-404 -328 1102 0
-1103 405 0
-1103 343 0
-405 -343 1103 0
-1104 406 0
-1104 352 0
-406 -352 1104 0
-1105 408 0
-1105 371 0
-408 -371 1105 0
-1106 409 0
-1106 380 0
-409 -380 1106 0
-1107 410 0
-1107 389 0
-410 -389 1107 0
-1108 411 0
-1108 398 0
-411 -398 1108 0
-265 -1101 0
-265 -1102 0
-265 -1103 0
-265 -1104 0
-265 -1105 0
-265 -1106 0
-265 -1107 0
-265 -1108 0
-407 265 1101 1102 1103 1104 1105 1106 1107 1108 0
-276 408 0
-1109 403 0
-1109 331 0
-403 -331 1109 0
-1110 404 0
-1110 330 0
-404 -330 1110 0
-1111 405 0
-1111 344 0
-405 -344 1111 0
-1112 406 0
-1112 353 0
-406 -353 1112 0
-1113 407 0
-1113 362 0
-407 -362 1113 0
-1114 409 0
-1114 381 0
-409 -381 1114 0
-1115 410 0
-1115 390 0
-410 -390 1115 0
-1116 411 0
-1116 399 0
-411 -399 1116 0
-276 -1109 0
-276 -1110 0
-276 -1111 0
-276 -1112 0
-276 -1113 0
-276 -1114 0
-276 -1115 0
-276 -1116 0
-408 276 1109 1110 1111 1112 1113 1114 1115 1116 0
-287 409 0
-1117 403 0
-1117 333 0
-403 -333 1117 0
-1118 404 0
-1118 332 0
-404 -332 1118 0
-1119 405 0
-1119 345 0
-405 -345 1119 0
-1120 406 0
-1120 354 0
-406 -354 1120 0
-1121 407 0
-1121 363 0
-407 -363 1121 0
-1122 408 0
-1122 372 0
-408 -372 1122 0
-1123 410 0
-1123 391 0
-410 -391 1123 0
-1124 411 0
-1124 400 0
-411 -400 1124 0
-287 -1117 0
-287 -1118 0
-287 -1119 0
-287 -1120 0
-287 -1121 0
-287 -1122 0
-287 -1123 0
-287 -1124 0
-409 287 1117 1118 1119 1120 1121 1122 1123 1124 0
-298 410 0
-1125 403 0
-1125 335 0
-403 -335 1125 0
-1126 404 0
-1126 334 0
-404 -334 1126 0
-1127 405 0
-1127 346 0
-405 -346 1127 0
-1128 406 0
-1128 355 0
-406 -355 1128 0
-1129 407 0
-1129 364 0
-407 -364 1129 0
-1130 408 0
-1130 373 0
-408 -373 1130 0
-1131 409 0
-1131 382 0
-409 -382 1131 0
-1132 411 0
-1132 401 0
-411 -401 1132 0
-298 -1125 0
-298 -1126 0
-298 -1127 0
-298 -1128 0
-298 -1129 0
-298 -1130 0
-298 -1131 0
-298 -1132 0
-410 298 1125 1126 1127 1128 1129 1130 1131 1132 0
-309 411 0
-1133 403 0
-1133 337 0
-403 -337 1133 0
-1134 404 0
-1134 336 0
-404 -336 1134 0
-1135 405 0
-1135 347 0
-405 -347 1135 0
-1136 406 0
-1136 356 0
-406 -356 1136 0
-1137 407 0
-1137 365 0
-407 -365 1137 0
-1138 408 0
-1138 374 0
-408 -374 1138 0
-1139 409 0
-1139 383 0
-409 -383 1139 0
-1140 410 0
-1140 392 0
-410 -392 1140 0
-309 -1133 0
-309 -1134 0
-309 -1135 0
-309 -1136 0
-309 -1137 0
-309 -1138 0
-309 -1139 0
-309 -1140 0
-411 309 1133 1134 1135 1136 1137 1138 1139 1140 0
-320 0
