p cnf 1375 6875
1 -2 -1 0
3 -4 -1 0
5 -6 -1 0
7 -8 -1 0
9 -10 -1 0
11 -12 -1 0
13 -14 -1 0
15 -16 -1 0
17 -18 -1 0
19 -20 -1 0
21 -22 -1 0
1 -23 -3 0
3 -24 -3 0
5 -25 -3 0
7 -26 -3 0
9 -27 -3 0
11 -28 -3 0
13 -29 -3 0
15 -30 -3 0
17 -31 -3 0
19 -32 -3 0
21 -33 -3 0
1 -34 -5 0
3 -35 -5 0
5 -36 -5 0
7 -37 -5 0
9 -38 -5 0
11 -39 -5 0
13 -40 -5 0
15 -41 -5 0
17 -42 -5 0
19 -43 -5 0
21 -44 -5 0
1 -45 -7 0
3 -46 -7 0
5 -47 -7 0
7 -48 -7 0
9 -49 -7 0
11 -50 -7 0
13 -51 -7 0
15 -52 -7 0
17 -53 -7 0
19 -54 -7 0
21 -55 -7 0
1 -56 -9 0
3 -57 -9 0
5 -58 -9 0
7 -59 -9 0
9 -60 -9 0
11 -61 -9 0
13 -62 -9 0
15 -63 -9 0
17 -64 -9 0
19 -65 -9 0
21 -66 -9 0
1 -67 -11 0
3 -68 -11 0
5 -69 -11 0
7 -70 -11 0
9 -71 -11 0
11 -72 -11 0
13 -73 -11 0
15 -74 -11 0
17 -75 -11 0
19 -76 -11 0
21 -77 -11 0
1 -78 -13 0
3 -79 -13 0
5 -80 -13 0
7 -81 -13 0
9 -82 -13 0
11 -83 -13 0
13 -84 -13 0
15 -85 -13 0
17 -86 -13 0
19 -87 -13 0
21 -88 -13 0
1 -89 -15 0
3 -90 -15 0
5 -91 -15 0
7 -92 -15 0
9 -93 -15 0
11 -94 -15 0
13 -95 -15 0
15 -96 -15 0
17 -97 -15 0
19 -98 -15 0
21 -99 -15 0
1 -100 -17 0
3 -101 -17 0
5 -102 -17 0
7 -103 -17 0
9 -104 -17 0
11 -105 -17 0
13 -106 -17 0
15 -107 -17 0
17 -108 -17 0
19 -109 -17 0
21 -110 -17 0
1 -111 -19 0
3 -112 -19 0
5 -113 -19 0
7 -114 -19 0
9 -115 -19 0
11 -116 -19 0
13 -117 -19 0
15 -118 -19 0
17 -119 -19 0
19 -120 -19 0
21 -121 -19 0
1 -122 -21 0
3 -123 -21 0
5 -124 -21 0
7 -125 -21 0
9 -126 -21 0
11 -127 -21 0
13 -128 -21 0
15 -129 -21 0
17 -130 -21 0
19 -131 -21 0
21 -132 -21 0
133 -134 -1 0
135 -136 -1 0
137 -138 -1 0
139 -140 -1 0
141 -142 -1 0
143 -144 -1 0
145 -146 -1 0
147 -148 -1 0
149 -150 -1 0
151 -152 -1 0
153 -154 -1 0
133 -155 -3 0
135 -156 -3 0
137 -157 -3 0
139 -158 -3 0
141 -159 -3 0
143 -160 -3 0
145 -161 -3 0
147 -162 -3 0
149 -163 -3 0
151 -164 -3 0
153 -165 -3 0
133 -166 -5 0
135 -167 -5 0
137 -168 -5 0
139 -169 -5 0
141 -170 -5 0
143 -171 -5 0
145 -172 -5 0
147 -173 -5 0
149 -174 -5 0
151 -175 -5 0
153 -176 -5 0
133 -177 -7 0
135 -178 -7 0
137 -179 -7 0
139 -180 -7 0
141 -181 -7 0
143 -182 -7 0
145 -183 -7 0
147 -184 -7 0
149 -185 -7 0
151 -186 -7 0
153 -187 -7 0
133 -188 -9 0
135 -189 -9 0
137 -190 -9 0
139 -191 -9 0
141 -192 -9 0
143 -193 -9 0
145 -194 -9 0
147 -195 -9 0
149 -196 -9 0
151 -197 -9 0
153 -198 -9 0
133 -199 -11 0
135 -200 -11 0
137 -201 -11 0
139 -202 -11 0
141 -203 -11 0
143 -204 -11 0
145 -205 -11 0
147 -206 -11 0
149 -207 -11 0
151 -208 -11 0
153 -209 -11 0
133 -210 -13 0
135 -211 -13 0
137 -212 -13 0
139 -213 -13 0
141 -214 -13 0
143 -215 -13 0
145 -216 -13 0
147 -217 -13 0
149 -218 -13 0
151 -219 -13 0
153 -220 -13 0
133 -221 -15 0
135 -222 -15 0
137 -223 -15 0
139 -224 -15 0
141 -225 -15 0
143 -226 -15 0
145 -227 -15 0
147 -228 -15 0
149 -229 -15 0
151 -230 -15 0
153 -231 -15 0
133 -232 -17 0
135 -233 -17 0
137 -234 -17 0
139 -235 -17 0
141 -236 -17 0
143 -237 -17 0
145 -238 -17 0
147 -239 -17 0
149 -240 -17 0
151 -241 -17 0
153 -242 -17 0
133 -243 -19 0
135 -244 -19 0
137 -245 -19 0
139 -246 -19 0
141 -247 -19 0
143 -248 -19 0
145 -249 -19 0
147 -250 -19 0
149 -251 -19 0
151 -252 -19 0
153 -253 -19 0
133 -254 -21 0
135 -255 -21 0
137 -256 -21 0
139 -257 -21 0
141 -258 -21 0
143 -259 -21 0
145 -260 -21 0
147 -261 -21 0
149 -262 -21 0
151 -263 -21 0
153 -264 -21 0
2 0
4 23 0
-4 -23 0
-4 -25 6 0
-4 -26 8 0
-4 -27 10 0
-4 -28 12 0
-4 -29 14 0
-4 -30 16 0
-4 -31 18 0
-4 -32 20 0
-4 -33 22 0
6 34 0
-6 -34 0
-6 -35 4 0
-6 -37 8 0
-6 -38 10 0
-6 -39 12 0
-6 -40 14 0
-6 -41 16 0
-6 -42 18 0
-6 -43 20 0
-6 -44 22 0
8 45 0
-8 -45 0
-8 -46 4 0
-8 -47 6 0
-8 -49 10 0
-8 -50 12 0
-8 -51 14 0
-8 -52 16 0
-8 -53 18 0
-8 -54 20 0
-8 -55 22 0
10 56 0
-10 -56 0
-10 -57 4 0
-10 -58 6 0
-10 -59 8 0
-10 -61 12 0
-10 -62 14 0
-10 -63 16 0
-10 -64 18 0
-10 -65 20 0
-10 -66 22 0
12 67 0
-12 -67 0
-12 -68 4 0
-12 -69 6 0
-12 -70 8 0
-12 -71 10 0
-12 -73 14 0
-12 -74 16 0
-12 -75 18 0
-12 -76 20 0
-12 -77 22 0
14 78 0
-14 -78 0
-14 -79 4 0
-14 -80 6 0
-14 -81 8 0
-14 -82 10 0
-14 -83 12 0
-14 -85 16 0
-14 -86 18 0
-14 -87 20 0
-14 -88 22 0
16 89 0
-16 -89 0
-16 -90 4 0
-16 -91 6 0
-16 -92 8 0
-16 -93 10 0
-16 -94 12 0
-16 -95 14 0
-16 -97 18 0
-16 -98 20 0
-16 -99 22 0
18 100 0
-18 -100 0
-18 -101 4 0
-18 -102 6 0
-18 -103 8 0
-18 -104 10 0
-18 -105 12 0
-18 -106 14 0
-18 -107 16 0
-18 -109 20 0
-18 -110 22 0
20 111 0
-20 -111 0
-20 -112 4 0
-20 -113 6 0
-20 -114 8 0
-20 -115 10 0
-20 -116 12 0
-20 -117 14 0
-20 -118 16 0
-20 -119 18 0
-20 -121 22 0
22 122 0
-22 -122 0
-22 -123 4 0
-22 -124 6 0
-22 -125 8 0
-22 -126 10 0
-22 -127 12 0
-22 -128 14 0
-22 -129 16 0
-22 -130 18 0
-22 -131 20 0
24 0
23 4 0
-23 -4 0
-23 -6 25 0
-23 -8 26 0
-23 -10 27 0
-23 -12 28 0
-23 -14 29 0
-23 -16 30 0
-23 -18 31 0
-23 -20 32 0
-23 -22 33 0
25 35 0
-25 -35 0
-25 -34 23 0
-25 -37 26 0
-25 -38 27 0
-25 -39 28 0
-25 -40 29 0
-25 -41 30 0
-25 -42 31 0
-25 -43 32 0
-25 -44 33 0
26 46 0
-26 -46 0
-26 -45 23 0
-26 -47 25 0
-26 -49 27 0
-26 -50 28 0
-26 -51 29 0
-26 -52 30 0
-26 -53 31 0
-26 -54 32 0
-26 -55 33 0
27 57 0
-27 -57 0
-27 -56 23 0
-27 -58 25 0
-27 -59 26 0
-27 -61 28 0
-27 -62 29 0
-27 -63 30 0
-27 -64 31 0
-27 -65 32 0
-27 -66 33 0
28 68 0
-28 -68 0
-28 -67 23 0
-28 -69 25 0
-28 -70 26 0
-28 -71 27 0
-28 -73 29 0
-28 -74 30 0
-28 -75 31 0
-28 -76 32 0
-28 -77 33 0
29 79 0
-29 -79 0
-29 -78 23 0
-29 -80 25 0
-29 -81 26 0
-29 -82 27 0
-29 -83 28 0
-29 -85 30 0
-29 -86 31 0
-29 -87 32 0
-29 -88 33 0
30 90 0
-30 -90 0
-30 -89 23 0
-30 -91 25 0
-30 -92 26 0
-30 -93 27 0
-30 -94 28 0
-30 -95 29 0
-30 -97 31 0
-30 -98 32 0
-30 -99 33 0
31 101 0
-31 -101 0
-31 -100 23 0
-31 -102 25 0
-31 -103 26 0
-31 -104 27 0
-31 -105 28 0
-31 -106 29 0
-31 -107 30 0
-31 -109 32 0
-31 -110 33 0
32 112 0
-32 -112 0
-32 -111 23 0
-32 -113 25 0
-32 -114 26 0
-32 -115 27 0
-32 -116 28 0
-32 -117 29 0
-32 -118 30 0
-32 -119 31 0
-32 -121 33 0
33 123 0
-33 -123 0
-33 -122 23 0
-33 -124 25 0
-33 -125 26 0
-33 -126 27 0
-33 -127 28 0
-33 -128 29 0
-33 -129 30 0
-33 -130 31 0
-33 -131 32 0
36 0
34 6 0
-34 -6 0
-34 -4 35 0
-34 -8 37 0
-34 -10 38 0
-34 -12 39 0
-34 -14 40 0
-34 -16 41 0
-34 -18 42 0
-34 -20 43 0
-34 -22 44 0
35 25 0
-35 -25 0
-35 -23 34 0
-35 -26 37 0
-35 -27 38 0
-35 -28 39 0
-35 -29 40 0
-35 -30 41 0
-35 -31 42 0
-35 -32 43 0
-35 -33 44 0
37 47 0
-37 -47 0
-37 -45 34 0
-37 -46 35 0
-37 -49 38 0
-37 -50 39 0
-37 -51 40 0
-37 -52 41 0
-37 -53 42 0
-37 -54 43 0
-37 -55 44 0
38 58 0
-38 -58 0
-38 -56 34 0
-38 -57 35 0
-38 -59 37 0
-38 -61 39 0
-38 -62 40 0
-38 -63 41 0
-38 -64 42 0
-38 -65 43 0
-38 -66 44 0
39 69 0
-39 -69 0
-39 -67 34 0
-39 -68 35 0
-39 -70 37 0
-39 -71 38 0
-39 -73 40 0
-39 -74 41 0
-39 -75 42 0
-39 -76 43 0
-39 -77 44 0
40 80 0
-40 -80 0
-40 -78 34 0
-40 -79 35 0
-40 -81 37 0
-40 -82 38 0
-40 -83 39 0
-40 -85 41 0
-40 -86 42 0
-40 -87 43 0
-40 -88 44 0
41 91 0
-41 -91 0
-41 -89 34 0
-41 -90 35 0
-41 -92 37 0
-41 -93 38 0
-41 -94 39 0
-41 -95 40 0
-41 -97 42 0
-41 -98 43 0
-41 -99 44 0
42 102 0
-42 -102 0
-42 -100 34 0
-42 -101 35 0
-42 -103 37 0
-42 -104 38 0
-42 -105 39 0
-42 -106 40 0
-42 -107 41 0
-42 -109 43 0
-42 -110 44 0
43 113 0
-43 -113 0
-43 -111 34 0
-43 -112 35 0
-43 -114 37 0
-43 -115 38 0
-43 -116 39 0
-43 -117 40 0
-43 -118 41 0
-43 -119 42 0
-43 -121 44 0
44 124 0
-44 -124 0
-44 -122 34 0
-44 -123 35 0
-44 -125 37 0
-44 -126 38 0
-44 -127 39 0
-44 -128 40 0
-44 -129 41 0
-44 -130 42 0
-44 -131 43 0
48 0
45 8 0
-45 -8 0
-45 -4 46 0
-45 -6 47 0
-45 -10 49 0
-45 -12 50 0
-45 -14 51 0
-45 -16 52 0
-45 -18 53 0
-45 -20 54 0
-45 -22 55 0
46 26 0
-46 -26 0
-46 -23 45 0
-46 -25 47 0
-46 -27 49 0
-46 -28 50 0
-46 -29 51 0
-46 -30 52 0
-46 -31 53 0
-46 -32 54 0
-46 -33 55 0
47 37 0
-47 -37 0
-47 -34 45 0
-47 -35 46 0
-47 -38 49 0
-47 -39 50 0
-47 -40 51 0
-47 -41 52 0
-47 -42 53 0
-47 -43 54 0
-47 -44 55 0
49 59 0
-49 -59 0
-49 -56 45 0
-49 -57 46 0
-49 -58 47 0
-49 -61 50 0
-49 -62 51 0
-49 -63 52 0
-49 -64 53 0
-49 -65 54 0
-49 -66 55 0
50 70 0
-50 -70 0
-50 -67 45 0
-50 -68 46 0
-50 -69 47 0
-50 -71 49 0
-50 -73 51 0
-50 -74 52 0
-50 -75 53 0
-50 -76 54 0
-50 -77 55 0
51 81 0
-51 -81 0
-51 -78 45 0
-51 -79 46 0
-51 -80 47 0
-51 -82 49 0
-51 -83 50 0
-51 -85 52 0
-51 -86 53 0
-51 -87 54 0
-51 -88 55 0
52 92 0
-52 -92 0
-52 -89 45 0
-52 -90 46 0
-52 -91 47 0
-52 -93 49 0
-52 -94 50 0
-52 -95 51 0
-52 -97 53 0
-52 -98 54 0
-52 -99 55 0
53 103 0
-53 -103 0
-53 -100 45 0
-53 -101 46 0
-53 -102 47 0
-53 -104 49 0
-53 -105 50 0
-53 -106 51 0
-53 -107 52 0
-53 -109 54 0
-53 -110 55 0
54 114 0
-54 -114 0
-54 -111 45 0
-54 -112 46 0
-54 -113 47 0
-54 -115 49 0
-54 -116 50 0
-54 -117 51 0
-54 -118 52 0
-54 -119 53 0
-54 -121 55 0
55 125 0
-55 -125 0
-55 -122 45 0
-55 -123 46 0
-55 -124 47 0
-55 -126 49 0
-55 -127 50 0
-55 -128 51 0
-55 -129 52 0
-55 -130 53 0
-55 -131 54 0
60 0
56 10 0
-56 -10 0
-56 -4 57 0
-56 -6 58 0
-56 -8 59 0
-56 -12 61 0
-56 -14 62 0
-56 -16 63 0
-56 -18 64 0
-56 -20 65 0
-56 -22 66 0
57 27 0
-57 -27 0
-57 -23 56 0
-57 -25 58 0
-57 -26 59 0
-57 -28 61 0
-57 -29 62 0
-57 -30 63 0
-57 -31 64 0
-57 -32 65 0
-57 -33 66 0
58 38 0
-58 -38 0
-58 -34 56 0
-58 -35 57 0
-58 -37 59 0
-58 -39 61 0
-58 -40 62 0
-58 -41 63 0
-58 -42 64 0
-58 -43 65 0
-58 -44 66 0
59 49 0
-59 -49 0
-59 -45 56 0
-59 -46 57 0
-59 -47 58 0
-59 -50 61 0
-59 -51 62 0
-59 -52 63 0
-59 -53 64 0
-59 -54 65 0
-59 -55 66 0
61 71 0
-61 -71 0
-61 -67 56 0
-61 -68 57 0
-61 -69 58 0
-61 -70 59 0
-61 -73 62 0
-61 -74 63 0
-61 -75 64 0
-61 -76 65 0
-61 -77 66 0
62 82 0
-62 -82 0
-62 -78 56 0
-62 -79 57 0
-62 -80 58 0
-62 -81 59 0
-62 -83 61 0
-62 -85 63 0
-62 -86 64 0
-62 -87 65 0
-62 -88 66 0
63 93 0
-63 -93 0
-63 -89 56 0
-63 -90 57 0
-63 -91 58 0
-63 -92 59 0
-63 -94 61 0
-63 -95 62 0
-63 -97 64 0
-63 -98 65 0
-63 -99 66 0
64 104 0
-64 -104 0
-64 -100 56 0
-64 -101 57 0
-64 -102 58 0
-64 -103 59 0
-64 -105 61 0
-64 -106 62 0
-64 -107 63 0
-64 -109 65 0
-64 -110 66 0
65 115 0
-65 -115 0
-65 -111 56 0
-65 -112 57 0
-65 -113 58 0
-65 -114 59 0
-65 -116 61 0
-65 -117 62 0
-65 -118 63 0
-65 -119 64 0
-65 -121 66 0
66 126 0
-66 -126 0
-66 -122 56 0
-66 -123 57 0
-66 -124 58 0
-66 -125 59 0
-66 -127 61 0
-66 -128 62 0
-66 -129 63 0
-66 -130 64 0
-66 -131 65 0
72 0
67 12 0
-67 -12 0
-67 -4 68 0
-67 -6 69 0
-67 -8 70 0
-67 -10 71 0
-67 -14 73 0
-67 -16 74 0
-67 -18 75 0
-67 -20 76 0
-67 -22 77 0
68 28 0
-68 -28 0
-68 -23 67 0
-68 -25 69 0
-68 -26 70 0
-68 -27 71 0
-68 -29 73 0
-68 -30 74 0
-68 -31 75 0
-68 -32 76 0
-68 -33 77 0
69 39 0
-69 -39 0
-69 -34 67 0
-69 -35 68 0
-69 -37 70 0
-69 -38 71 0
-69 -40 73 0
-69 -41 74 0
-69 -42 75 0
-69 -43 76 0
-69 -44 77 0
70 50 0
-70 -50 0
-70 -45 67 0
-70 -46 68 0
-70 -47 69 0
-70 -49 71 0
-70 -51 73 0
-70 -52 74 0
-70 -53 75 0
-70 -54 76 0
-70 -55 77 0
71 61 0
-71 -61 0
-71 -56 67 0
-71 -57 68 0
-71 -58 69 0
-71 -59 70 0
-71 -62 73 0
-71 -63 74 0
-71 -64 75 0
-71 -65 76 0
-71 -66 77 0
73 83 0
-73 -83 0
-73 -78 67 0
-73 -79 68 0
-73 -80 69 0
-73 -81 70 0
-73 -82 71 0
-73 -85 74 0
-73 -86 75 0
-73 -87 76 0
-73 -88 77 0
74 94 0
-74 -94 0
-74 -89 67 0
-74 -90 68 0
-74 -91 69 0
-74 -92 70 0
-74 -93 71 0
-74 -95 73 0
-74 -97 75 0
-74 -98 76 0
-74 -99 77 0
75 105 0
-75 -105 0
-75 -100 67 0
-75 -101 68 0
-75 -102 69 0
-75 -103 70 0
-75 -104 71 0
-75 -106 73 0
-75 -107 74 0
-75 -109 76 0
-75 -110 77 0
76 116 0
-76 -116 0
-76 -111 67 0
-76 -112 68 0
-76 -113 69 0
-76 -114 70 0
-76 -115 71 0
-76 -117 73 0
-76 -118 74 0
-76 -119 75 0
-76 -121 77 0
77 127 0
-77 -127 0
-77 -122 67 0
-77 -123 68 0
-77 -124 69 0
-77 -125 70 0
-77 -126 71 0
-77 -128 73 0
-77 -129 74 0
-77 -130 75 0
-77 -131 76 0
84 0
78 14 0
-78 -14 0
-78 -4 79 0
-78 -6 80 0
-78 -8 81 0
-78 -10 82 0
-78 -12 83 0
-78 -16 85 0
-78 -18 86 0
-78 -20 87 0
-78 -22 88 0
79 29 0
-79 -29 0
-79 -23 78 0
-79 -25 80 0
-79 -26 81 0
-79 -27 82 0
-79 -28 83 0
-79 -30 85 0
-79 -31 86 0
-79 -32 87 0
-79 -33 88 0
80 40 0
-80 -40 0
-80 -34 78 0
-80 -35 79 0
-80 -37 81 0
-80 -38 82 0
-80 -39 83 0
-80 -41 85 0
-80 -42 86 0
-80 -43 87 0
-80 -44 88 0
81 51 0
-81 -51 0
-81 -45 78 0
-81 -46 79 0
-81 -47 80 0
-81 -49 82 0
-81 -50 83 0
-81 -52 85 0
-81 -53 86 0
-81 -54 87 0
-81 -55 88 0
82 62 0
-82 -62 0
-82 -56 78 0
-82 -57 79 0
-82 -58 80 0
-82 -59 81 0
-82 -61 83 0
-82 -63 85 0
-82 -64 86 0
-82 -65 87 0
-82 -66 88 0
83 73 0
-83 -73 0
-83 -67 78 0
-83 -68 79 0
-83 -69 80 0
-83 -70 81 0
-83 -71 82 0
-83 -74 85 0
-83 -75 86 0
-83 -76 87 0
-83 -77 88 0
85 95 0
-85 -95 0
-85 -89 78 0
-85 -90 79 0
-85 -91 80 0
-85 -92 81 0
-85 -93 82 0
-85 -94 83 0
-85 -97 86 0
-85 -98 87 0
-85 -99 88 0
86 106 0
-86 -106 0
-86 -100 78 0
-86 -101 79 0
-86 -102 80 0
-86 -103 81 0
-86 -104 82 0
-86 -105 83 0
-86 -107 85 0
-86 -109 87 0
-86 -110 88 0
87 117 0
-87 -117 0
-87 -111 78 0
-87 -112 79 0
-87 -113 80 0
-87 -114 81 0
-87 -115 82 0
-87 -116 83 0
-87 -118 85 0
-87 -119 86 0
-87 -121 88 0
88 128 0
-88 -128 0
-88 -122 78 0
-88 -123 79 0
-88 -124 80 0
-88 -125 81 0
-88 -126 82 0
-88 -127 83 0
-88 -129 85 0
-88 -130 86 0
-88 -131 87 0
96 0
89 16 0
-89 -16 0
-89 -4 90 0
-89 -6 91 0
-89 -8 92 0
-89 -10 93 0
-89 -12 94 0
-89 -14 95 0
-89 -18 97 0
-89 -20 98 0
-89 -22 99 0
90 30 0
-90 -30 0
-90 -23 89 0
-90 -25 91 0
-90 -26 92 0
-90 -27 93 0
-90 -28 94 0
-90 -29 95 0
-90 -31 97 0
-90 -32 98 0
-90 -33 99 0
91 41 0
-91 -41 0
-91 -34 89 0
-91 -35 90 0
-91 -37 92 0
-91 -38 93 0
-91 -39 94 0
-91 -40 95 0
-91 -42 97 0
-91 -43 98 0
-91 -44 99 0
92 52 0
-92 -52 0
-92 -45 89 0
-92 -46 90 0
-92 -47 91 0
-92 -49 93 0
-92 -50 94 0
-92 -51 95 0
-92 -53 97 0
-92 -54 98 0
-92 -55 99 0
93 63 0
-93 -63 0
-93 -56 89 0
-93 -57 90 0
-93 -58 91 0
-93 -59 92 0
-93 -61 94 0
-93 -62 95 0
-93 -64 97 0
-93 -65 98 0
-93 -66 99 0
94 74 0
-94 -74 0
-94 -67 89 0
-94 -68 90 0
-94 -69 91 0
-94 -70 92 0
-94 -71 93 0
-94 -73 95 0
-94 -75 97 0
-94 -76 98 0
-94 -77 99 0
95 85 0
-95 -85 0
-95 -78 89 0
-95 -79 90 0
-95 -80 91 0
-95 -81 92 0
-95 -82 93 0
-95 -83 94 0
-95 -86 97 0
-95 -87 98 0
-95 -88 99 0
97 107 0
-97 -107 0
-97 -100 89 0
-97 -101 90 0
-97 -102 91 0
-97 -103 92 0
-97 -104 93 0
-97 -105 94 0
-97 -106 95 0
-97 -109 98 0
-97 -110 99 0
98 118 0
-98 -118 0
-98 -111 89 0
-98 -112 90 0
-98 -113 91 0
-98 -114 92 0
-98 -115 93 0
-98 -116 94 0
-98 -117 95 0
-98 -119 97 0
-98 -121 99 0
99 129 0
-99 -129 0
-99 -122 89 0
-99 -123 90 0
-99 -124 91 0
-99 -125 92 0
-99 -126 93 0
-99 -127 94 0
-99 -128 95 0
-99 -130 97 0
-99 -131 98 0
108 0
100 18 0
-100 -18 0
-100 -4 101 0
-100 -6 102 0
-100 -8 103 0
-100 -10 104 0
-100 -12 105 0
-100 -14 106 0
-100 -16 107 0
-100 -20 109 0
-100 -22 110 0
101 31 0
-101 -31 0
-101 -23 100 0
-101 -25 102 0
-101 -26 103 0
-101 -27 104 0
-101 -28 105 0
-101 -29 106 0
-101 -30 107 0
-101 -32 109 0
-101 -33 110 0
102 42 0
-102 -42 0
-102 -34 100 0
-102 -35 101 0
-102 -37 103 0
-102 -38 104 0
-102 -39 105 0
-102 -40 106 0
-102 -41 107 0
-102 -43 109 0
-102 -44 110 0
103 53 0
-103 -53 0
-103 -45 100 0
-103 -46 101 0
-103 -47 102 0
-103 -49 104 0
-103 -50 105 0
-103 -51 106 0
-103 -52 107 0
-103 -54 109 0
-103 -55 110 0
104 64 0
-104 -64 0
-104 -56 100 0
-104 -57 101 0
-104 -58 102 0
-104 -59 103 0
-104 -61 105 0
-104 -62 106 0
-104 -63 107 0
-104 -65 109 0
-104 -66 110 0
105 75 0
-105 -75 0
-105 -67 100 0
-105 -68 101 0
-105 -69 102 0
-105 -70 103 0
-105 -71 104 0
-105 -73 106 0
-105 -74 107 0
-105 -76 109 0
-105 -77 110 0
106 86 0
-106 -86 0
-106 -78 100 0
-106 -79 101 0
-106 -80 102 0
-106 -81 103 0
-106 -82 104 0
-106 -83 105 0
-106 -85 107 0
-106 -87 109 0
-106 -88 110 0
107 97 0
-107 -97 0
-107 -89 100 0
-107 -90 101 0
-107 -91 102 0
-107 -92 103 0
-107 -93 104 0
-107 -94 105 0
-107 -95 106 0
-107 -98 109 0
-107 -99 110 0
109 119 0
-109 -119 0
-109 -111 100 0
-109 -112 101 0
-109 -113 102 0
-109 -114 103 0
-109 -115 104 0
-109 -116 105 0
-109 -117 106 0
-109 -118 107 0
-109 -121 110 0
110 130 0
-110 -130 0
-110 -122 100 0
-110 -123 101 0
-110 -124 102 0
-110 -125 103 0
-110 -126 104 0
-110 -127 105 0
-110 -128 106 0
-110 -129 107 0
-110 -131 109 0
120 0
111 20 0
-111 -20 0
-111 -4 112 0
-111 -6 113 0
-111 -8 114 0
-111 -10 115 0
-111 -12 116 0
-111 -14 117 0
-111 -16 118 0
-111 -18 119 0
-111 -22 121 0
112 32 0
-112 -32 0
-112 -23 111 0
-112 -25 113 0
-112 -26 114 0
-112 -27 115 0
-112 -28 116 0
-112 -29 117 0
-112 -30 118 0
-112 -31 119 0
-112 -33 121 0
113 43 0
-113 -43 0
-113 -34 111 0
-113 -35 112 0
-113 -37 114 0
-113 -38 115 0
-113 -39 116 0
-113 -40 117 0
-113 -41 118 0
-113 -42 119 0
-113 -44 121 0
114 54 0
-114 -54 0
-114 -45 111 0
-114 -46 112 0
-114 -47 113 0
-114 -49 115 0
-114 -50 116 0
-114 -51 117 0
-114 -52 118 0
-114 -53 119 0
-114 -55 121 0
115 65 0
-115 -65 0
-115 -56 111 0
-115 -57 112 0
-115 -58 113 0
-115 -59 114 0
-115 -61 116 0
-115 -62 117 0
-115 -63 118 0
-115 -64 119 0
-115 -66 121 0
116 76 0
-116 -76 0
-116 -67 111 0
-116 -68 112 0
-116 -69 113 0
-116 -70 114 0
-116 -71 115 0
-116 -73 117 0
-116 -74 118 0
-116 -75 119 0
-116 -77 121 0
117 87 0
-117 -87 0
-117 -78 111 0
-117 -79 112 0
-117 -80 113 0
-117 -81 114 0
-117 -82 115 0
-117 -83 116 0
-117 -85 118 0
-117 -86 119 0
-117 -88 121 0
118 98 0
-118 -98 0
-118 -89 111 0
-118 -90 112 0
-118 -91 113 0
-118 -92 114 0
-118 -93 115 0
-118 -94 116 0
-118 -95 117 0
-118 -97 119 0
-118 -99 121 0
119 109 0
-119 -109 0
-119 -100 111 0
-119 -101 112 0
-119 -102 113 0
-119 -103 114 0
-119 -104 115 0
-119 -105 116 0
-119 -106 117 0
-119 -107 118 0
-119 -110 121 0
121 131 0
-121 -131 0
-121 -122 111 0
-121 -123 112 0
-121 -124 113 0
-121 -125 114 0
-121 -126 115 0
-121 -127 116 0
-121 -128 117 0
-121 -129 118 0
-121 -130 119 0
132 0
122 22 0
-122 -22 0
-122 -4 123 0
-122 -6 124 0
-122 -8 125 0
-122 -10 126 0
-122 -12 127 0
-122 -14 128 0
-122 -16 129 0
-122 -18 130 0
-122 -20 131 0
123 33 0
-123 -33 0
-123 -23 122 0
-123 -25 124 0
-123 -26 125 0
-123 -27 126 0
-123 -28 127 0
-123 -29 128 0
-123 -30 129 0
-123 -31 130 0
-123 -32 131 0
124 44 0
-124 -44 0
-124 -34 122 0
-124 -35 123 0
-124 -37 125 0
-124 -38 126 0
-124 -39 127 0
-124 -40 128 0
-124 -41 129 0
-124 -42 130 0
-124 -43 131 0
125 55 0
-125 -55 0
-125 -45 122 0
-125 -46 123 0
-125 -47 124 0
-125 -49 126 0
-125 -50 127 0
-125 -51 128 0
-125 -52 129 0
-125 -53 130 0
-125 -54 131 0
126 66 0
-126 -66 0
-126 -56 122 0
-126 -57 123 0
-126 -58 124 0
-126 -59 125 0
-126 -61 127 0
-126 -62 128 0
-126 -63 129 0
-126 -64 130 0
-126 -65 131 0
127 77 0
-127 -77 0
-127 -67 122 0
-127 -68 123 0
-127 -69 124 0
-127 -70 125 0
-127 -71 126 0
-127 -73 128 0
-127 -74 129 0
-127 -75 130 0
-127 -76 131 0
128 88 0
-128 -88 0
-128 -78 122 0
-128 -79 123 0
-128 -80 124 0
-128 -81 125 0
-128 -82 126 0
-128 -83 127 0
-128 -85 129 0
-128 -86 130 0
-128 -87 131 0
129 99 0
-129 -99 0
-129 -89 122 0
-129 -90 123 0
-129 -91 124 0
-129 -92 125 0
-129 -93 126 0
-129 -94 127 0
-129 -95 128 0
-129 -97 130 0
-129 -98 131 0
130 110 0
-130 -110 0
-130 -100 122 0
-130 -101 123 0
-130 -102 124 0
-130 -103 125 0
-130 -104 126 0
-130 -105 127 0
-130 -106 128 0
-130 -107 129 0
-130 -109 131 0
131 121 0
-131 -121 0
-131 -111 122 0
-131 -112 123 0
-131 -113 124 0
-131 -114 125 0
-131 -115 126 0
-131 -116 127 0
-131 -117 128 0
-131 -118 129 0
-131 -119 130 0
265 0
266 267 0
-266 -267 0
-266 -268 269 0
-266 -270 271 0
-266 -272 273 0
-266 -274 275 0
-266 -276 277 0
-266 -278 279 0
-266 -280 281 0
-266 -282 283 0
-266 -284 285 0
269 286 0
-269 -286 0
-269 -287 266 0
-269 -288 271 0
-269 -289 273 0
-269 -290 275 0
-269 -291 277 0
-269 -292 279 0
-269 -293 281 0
-269 -294 283 0
-269 -295 285 0
271 296 0
-271 -296 0
-271 -297 266 0
-271 -298 269 0
-271 -299 273 0
-271 -300 275 0
-271 -301 277 0
-271 -302 279 0
-271 -303 281 0
-271 -304 283 0
-271 -305 285 0
273 306 0
-273 -306 0
-273 -307 266 0
-273 -308 269 0
-273 -309 271 0
-273 -310 275 0
-273 -311 277 0
-273 -312 279 0
-273 -313 281 0
-273 -314 283 0
-273 -315 285 0
275 316 0
-275 -316 0
-275 -317 266 0
-275 -318 269 0
-275 -319 271 0
-275 -320 273 0
-275 -321 277 0
-275 -322 279 0
-275 -323 281 0
-275 -324 283 0
-275 -325 285 0
277 326 0
-277 -326 0
-277 -327 266 0
-277 -328 269 0
-277 -329 271 0
-277 -330 273 0
-277 -331 275 0
-277 -332 279 0
-277 -333 281 0
-277 -334 283 0
-277 -335 285 0
279 336 0
-279 -336 0
-279 -337 266 0
-279 -338 269 0
-279 -339 271 0
-279 -340 273 0
-279 -341 275 0
-279 -342 277 0
-279 -343 281 0
-279 -344 283 0
-279 -345 285 0
281 346 0
-281 -346 0
-281 -347 266 0
-281 -348 269 0
-281 -349 271 0
-281 -350 273 0
-281 -351 275 0
-281 -352 277 0
-281 -353 279 0
-281 -354 283 0
-281 -355 285 0
283 356 0
-283 -356 0
-283 -357 266 0
-283 -358 269 0
-283 -359 271 0
-283 -360 273 0
-283 -361 275 0
-283 -362 277 0
-283 -363 279 0
-283 -364 281 0
-283 -365 285 0
285 366 0
-285 -366 0
-285 -367 266 0
-285 -368 269 0
-285 -369 271 0
-285 -370 273 0
-285 -371 275 0
-285 -372 277 0
-285 -373 279 0
-285 -374 281 0
-285 -375 283 0
376 0
267 266 0
-267 -266 0
-267 -269 268 0
-267 -271 270 0
-267 -273 272 0
-267 -275 274 0
-267 -277 276 0
-267 -279 278 0
-267 -281 280 0
-267 -283 282 0
-267 -285 284 0
268 287 0
-268 -287 0
-268 -286 267 0
-268 -288 270 0
-268 -289 272 0
-268 -290 274 0
-268 -291 276 0
-268 -292 278 0
-268 -293 280 0
-268 -294 282 0
-268 -295 284 0
270 297 0
-270 -297 0
-270 -296 267 0
-270 -298 268 0
-270 -299 272 0
-270 -300 274 0
-270 -301 276 0
-270 -302 278 0
-270 -303 280 0
-270 -304 282 0
-270 -305 284 0
272 307 0
-272 -307 0
-272 -306 267 0
-272 -308 268 0
-272 -309 270 0
-272 -310 274 0
-272 -311 276 0
-272 -312 278 0
-272 -313 280 0
-272 -314 282 0
-272 -315 284 0
274 317 0
-274 -317 0
-274 -316 267 0
-274 -318 268 0
-274 -319 270 0
-274 -320 272 0
-274 -321 276 0
-274 -322 278 0
-274 -323 280 0
-274 -324 282 0
-274 -325 284 0
276 327 0
-276 -327 0
-276 -326 267 0
-276 -328 268 0
-276 -329 270 0
-276 -330 272 0
-276 -331 274 0
-276 -332 278 0
-276 -333 280 0
-276 -334 282 0
-276 -335 284 0
278 337 0
-278 -337 0
-278 -336 267 0
-278 -338 268 0
-278 -339 270 0
-278 -340 272 0
-278 -341 274 0
-278 -342 276 0
-278 -343 280 0
-278 -344 282 0
-278 -345 284 0
280 347 0
-280 -347 0
-280 -346 267 0
-280 -348 268 0
-280 -349 270 0
-280 -350 272 0
-280 -351 274 0
-280 -352 276 0
-280 -353 278 0
-280 -354 282 0
-280 -355 284 0
282 357 0
-282 -357 0
-282 -356 267 0
-282 -358 268 0
-282 -359 270 0
-282 -360 272 0
-282 -361 274 0
-282 -362 276 0
-282 -363 278 0
-282 -364 280 0
-282 -365 284 0
284 367 0
-284 -367 0
-284 -366 267 0
-284 -368 268 0
-284 -369 270 0
-284 -370 272 0
-284 -371 274 0
-284 -372 276 0
-284 -373 278 0
-284 -374 280 0
-284 -375 282 0
377 0
286 269 0
-286 -269 0
-286 -266 287 0
-286 -271 288 0
-286 -273 289 0
-286 -275 290 0
-286 -277 291 0
-286 -279 292 0
-286 -281 293 0
-286 -283 294 0
-286 -285 295 0
287 268 0
-287 -268 0
-287 -267 286 0
-287 -270 288 0
-287 -272 289 0
-287 -274 290 0
-287 -276 291 0
-287 -278 292 0
-287 -280 293 0
-287 -282 294 0
-287 -284 295 0
288 298 0
-288 -298 0
-288 -296 286 0
-288 -297 287 0
-288 -299 289 0
-288 -300 290 0
-288 -301 291 0
-288 -302 292 0
-288 -303 293 0
-288 -304 294 0
-288 -305 295 0
289 308 0
-289 -308 0
-289 -306 286 0
-289 -307 287 0
-289 -309 288 0
-289 -310 290 0
-289 -311 291 0
-289 -312 292 0
-289 -313 293 0
-289 -314 294 0
-289 -315 295 0
290 318 0
-290 -318 0
-290 -316 286 0
-290 -317 287 0
-290 -319 288 0
-290 -320 289 0
-290 -321 291 0
-290 -322 292 0
-290 -323 293 0
-290 -324 294 0
-290 -325 295 0
291 328 0
-291 -328 0
-291 -326 286 0
-291 -327 287 0
-291 -329 288 0
-291 -330 289 0
-291 -331 290 0
-291 -332 292 0
-291 -333 293 0
-291 -334 294 0
-291 -335 295 0
292 338 0
-292 -338 0
-292 -336 286 0
-292 -337 287 0
-292 -339 288 0
-292 -340 289 0
-292 -341 290 0
-292 -342 291 0
-292 -343 293 0
-292 -344 294 0
-292 -345 295 0
293 348 0
-293 -348 0
-293 -346 286 0
-293 -347 287 0
-293 -349 288 0
-293 -350 289 0
-293 -351 290 0
-293 -352 291 0
-293 -353 292 0
-293 -354 294 0
-293 -355 295 0
294 358 0
-294 -358 0
-294 -356 286 0
-294 -357 287 0
-294 -359 288 0
-294 -360 289 0
-294 -361 290 0
-294 -362 291 0
-294 -363 292 0
-294 -364 293 0
-294 -365 295 0
295 368 0
-295 -368 0
-295 -366 286 0
-295 -367 287 0
-295 -369 288 0
-295 -370 289 0
-295 -371 290 0
-295 -372 291 0
-295 -373 292 0
-295 -374 293 0
-295 -375 294 0
378 0
296 271 0
-296 -271 0
-296 -266 297 0
-296 -269 298 0
-296 -273 299 0
-296 -275 300 0
-296 -277 301 0
-296 -279 302 0
-296 -281 303 0
-296 -283 304 0
-296 -285 305 0
297 270 0
-297 -270 0
-297 -267 296 0
-297 -268 298 0
-297 -272 299 0
-297 -274 300 0
-297 -276 301 0
-297 -278 302 0
-297 -280 303 0
-297 -282 304 0
-297 -284 305 0
298 288 0
-298 -288 0
-298 -286 296 0
-298 -287 297 0
-298 -289 299 0
-298 -290 300 0
-298 -291 301 0
-298 -292 302 0
-298 -293 303 0
-298 -294 304 0
-298 -295 305 0
299 309 0
-299 -309 0
-299 -306 296 0
-299 -307 297 0
-299 -308 298 0
-299 -310 300 0
-299 -311 301 0
-299 -312 302 0
-299 -313 303 0
-299 -314 304 0
-299 -315 305 0
300 319 0
-300 -319 0
-300 -316 296 0
-300 -317 297 0
-300 -318 298 0
-300 -320 299 0
-300 -321 301 0
-300 -322 302 0
-300 -323 303 0
-300 -324 304 0
-300 -325 305 0
301 329 0
-301 -329 0
-301 -326 296 0
-301 -327 297 0
-301 -328 298 0
-301 -330 299 0
-301 -331 300 0
-301 -332 302 0
-301 -333 303 0
-301 -334 304 0
-301 -335 305 0
302 339 0
-302 -339 0
-302 -336 296 0
-302 -337 297 0
-302 -338 298 0
-302 -340 299 0
-302 -341 300 0
-302 -342 301 0
-302 -343 303 0
-302 -344 304 0
-302 -345 305 0
303 349 0
-303 -349 0
-303 -346 296 0
-303 -347 297 0
-303 -348 298 0
-303 -350 299 0
-303 -351 300 0
-303 -352 301 0
-303 -353 302 0
-303 -354 304 0
-303 -355 305 0
304 359 0
-304 -359 0
-304 -356 296 0
-304 -357 297 0
-304 -358 298 0
-304 -360 299 0
-304 -361 300 0
-304 -362 301 0
-304 -363 302 0
-304 -364 303 0
-304 -365 305 0
305 369 0
-305 -369 0
-305 -366 296 0
-305 -367 297 0
-305 -368 298 0
-305 -370 299 0
-305 -371 300 0
-305 -372 301 0
-305 -373 302 0
-305 -374 303 0
-305 -375 304 0
379 0
306 273 0
-306 -273 0
-306 -266 307 0
-306 -269 308 0
-306 -271 309 0
-306 -275 310 0
-306 -277 311 0
-306 -279 312 0
-306 -281 313 0
-306 -283 314 0
-306 -285 315 0
307 272 0
-307 -272 0
-307 -267 306 0
-307 -268 308 0
-307 -270 309 0
-307 -274 310 0
-307 -276 311 0
-307 -278 312 0
-307 -280 313 0
-307 -282 314 0
-307 -284 315 0
308 289 0
-308 -289 0
-308 -286 306 0
-308 -287 307 0
-308 -288 309 0
-308 -290 310 0
-308 -291 311 0
-308 -292 312 0
-308 -293 313 0
-308 -294 314 0
-308 -295 315 0
309 299 0
-309 -299 0
-309 -296 306 0
-309 -297 307 0
-309 -298 308 0
-309 -300 310 0
-309 -301 311 0
-309 -302 312 0
-309 -303 313 0
-309 -304 314 0
-309 -305 315 0
310 320 0
-310 -320 0
-310 -316 306 0
-310 -317 307 0
-310 -318 308 0
-310 -319 309 0
-310 -321 311 0
-310 -322 312 0
-310 -323 313 0
-310 -324 314 0
-310 -325 315 0
311 330 0
-311 -330 0
-311 -326 306 0
-311 -327 307 0
-311 -328 308 0
-311 -329 309 0
-311 -331 310 0
-311 -332 312 0
-311 -333 313 0
-311 -334 314 0
-311 -335 315 0
312 340 0
-312 -340 0
-312 -336 306 0
-312 -337 307 0
-312 -338 308 0
-312 -339 309 0
-312 -341 310 0
-312 -342 311 0
-312 -343 313 0
-312 -344 314 0
-312 -345 315 0
313 350 0
-313 -350 0
-313 -346 306 0
-313 -347 307 0
-313 -348 308 0
-313 -349 309 0
-313 -351 310 0
-313 -352 311 0
-313 -353 312 0
-313 -354 314 0
-313 -355 315 0
314 360 0
-314 -360 0
-314 -356 306 0
-314 -357 307 0
-314 -358 308 0
-314 -359 309 0
-314 -361 310 0
-314 -362 311 0
-314 -363 312 0
-314 -364 313 0
-314 -365 315 0
315 370 0
-315 -370 0
-315 -366 306 0
-315 -367 307 0
-315 -368 308 0
-315 -369 309 0
-315 -371 310 0
-315 -372 311 0
-315 -373 312 0
-315 -374 313 0
-315 -375 314 0
380 0
316 275 0
-316 -275 0
-316 -266 317 0
-316 -269 318 0
-316 -271 319 0
-316 -273 320 0
-316 -277 321 0
-316 -279 322 0
-316 -281 323 0
-316 -283 324 0
-316 -285 325 0
317 274 0
-317 -274 0
-317 -267 316 0
-317 -268 318 0
-317 -270 319 0
-317 -272 320 0
-317 -276 321 0
-317 -278 322 0
-317 -280 323 0
-317 -282 324 0
-317 -284 325 0
318 290 0
-318 -290 0
-318 -286 316 0
-318 -287 317 0
-318 -288 319 0
-318 -289 320 0
-318 -291 321 0
-318 -292 322 0
-318 -293 323 0
-318 -294 324 0
-318 -295 325 0
319 300 0
-319 -300 0
-319 -296 316 0
-319 -297 317 0
-319 -298 318 0
-319 -299 320 0
-319 -301 321 0
-319 -302 322 0
-319 -303 323 0
-319 -304 324 0
-319 -305 325 0
320 310 0
-320 -310 0
-320 -306 316 0
-320 -307 317 0
-320 -308 318 0
-320 -309 319 0
-320 -311 321 0
-320 -312 322 0
-320 -313 323 0
-320 -314 324 0
-320 -315 325 0
321 331 0
-321 -331 0
-321 -326 316 0
-321 -327 317 0
-321 -328 318 0
-321 -329 319 0
-321 -330 320 0
-321 -332 322 0
-321 -333 323 0
-321 -334 324 0
-321 -335 325 0
322 341 0
-322 -341 0
-322 -336 316 0
-322 -337 317 0
-322 -338 318 0
-322 -339 319 0
-322 -340 320 0
-322 -342 321 0
-322 -343 323 0
-322 -344 324 0
-322 -345 325 0
323 351 0
-323 -351 0
-323 -346 316 0
-323 -347 317 0
-323 -348 318 0
-323 -349 319 0
-323 -350 320 0
-323 -352 321 0
-323 -353 322 0
-323 -354 324 0
-323 -355 325 0
324 361 0
-324 -361 0
-324 -356 316 0
-324 -357 317 0
-324 -358 318 0
-324 -359 319 0
-324 -360 320 0
-324 -362 321 0
-324 -363 322 0
-324 -364 323 0
-324 -365 325 0
325 371 0
-325 -371 0
-325 -366 316 0
-325 -367 317 0
-325 -368 318 0
-325 -369 319 0
-325 -370 320 0
-325 -372 321 0
-325 -373 322 0
-325 -374 323 0
-325 -375 324 0
381 0
326 277 0
-326 -277 0
-326 -266 327 0
-326 -269 328 0
-326 -271 329 0
-326 -273 330 0
-326 -275 331 0
-326 -279 332 0
-326 -281 333 0
-326 -283 334 0
-326 -285 335 0
327 276 0
-327 -276 0
-327 -267 326 0
-327 -268 328 0
-327 -270 329 0
-327 -272 330 0
-327 -274 331 0
-327 -278 332 0
-327 -280 333 0
-327 -282 334 0
-327 -284 335 0
328 291 0
-328 -291 0
-328 -286 326 0
-328 -287 327 0
-328 -288 329 0
-328 -289 330 0
-328 -290 331 0
-328 -292 332 0
-328 -293 333 0
-328 -294 334 0
-328 -295 335 0
329 301 0
-329 -301 0
-329 -296 326 0
-329 -297 327 0
-329 -298 328 0
-329 -299 330 0
-329 -300 331 0
-329 -302 332 0
-329 -303 333 0
-329 -304 334 0
-329 -305 335 0
330 311 0
-330 -311 0
-330 -306 326 0
-330 -307 327 0
-330 -308 328 0
-330 -309 329 0
-330 -310 331 0
-330 -312 332 0
-330 -313 333 0
-330 -314 334 0
-330 -315 335 0
331 321 0
-331 -321 0
-331 -316 326 0
-331 -317 327 0
-331 -318 328 0
-331 -319 329 0
-331 -320 330 0
-331 -322 332 0
-331 -323 333 0
-331 -324 334 0
-331 -325 335 0
332 342 0
-332 -342 0
-332 -336 326 0
-332 -337 327 0
-332 -338 328 0
-332 -339 329 0
-332 -340 330 0
-332 -341 331 0
-332 -343 333 0
-332 -344 334 0
-332 -345 335 0
333 352 0
-333 -352 0
-333 -346 326 0
-333 -347 327 0
-333 -348 328 0
-333 -349 329 0
-333 -350 330 0
-333 -351 331 0
-333 -353 332 0
-333 -354 334 0
-333 -355 335 0
334 362 0
-334 -362 0
-334 -356 326 0
-334 -357 327 0
-334 -358 328 0
-334 -359 329 0
-334 -360 330 0
-334 -361 331 0
-334 -363 332 0
-334 -364 333 0
-334 -365 335 0
335 372 0
-335 -372 0
-335 -366 326 0
-335 -367 327 0
-335 -368 328 0
-335 -369 329 0
-335 -370 330 0
-335 -371 331 0
-335 -373 332 0
-335 -374 333 0
-335 -375 334 0
382 0
336 279 0
-336 -279 0
-336 -266 337 0
-336 -269 338 0
-336 -271 339 0
-336 -273 340 0
-336 -275 341 0
-336 -277 342 0
-336 -281 343 0
-336 -283 344 0
-336 -285 345 0
337 278 0
-337 -278 0
-337 -267 336 0
-337 -268 338 0
-337 -270 339 0
-337 -272 340 0
-337 -274 341 0
-337 -276 342 0
-337 -280 343 0
-337 -282 344 0
-337 -284 345 0
338 292 0
-338 -292 0
-338 -286 336 0
-338 -287 337 0
-338 -288 339 0
-338 -289 340 0
-338 -290 341 0
-338 -291 342 0
-338 -293 343 0
-338 -294 344 0
-338 -295 345 0
339 302 0
-339 -302 0
-339 -296 336 0
-339 -297 337 0
-339 -298 338 0
-339 -299 340 0
-339 -300 341 0
-339 -301 342 0
-339 -303 343 0
-339 -304 344 0
-339 -305 345 0
340 312 0
-340 -312 0
-340 -306 336 0
-340 -307 337 0
-340 -308 338 0
-340 -309 339 0
-340 -310 341 0
-340 -311 342 0
-340 -313 343 0
-340 -314 344 0
-340 -315 345 0
341 322 0
-341 -322 0
-341 -316 336 0
-341 -317 337 0
-341 -318 338 0
-341 -319 339 0
-341 -320 340 0
-341 -321 342 0
-341 -323 343 0
-341 -324 344 0
-341 -325 345 0
342 332 0
-342 -332 0
-342 -326 336 0
-342 -327 337 0
-342 -328 338 0
-342 -329 339 0
-342 -330 340 0
-342 -331 341 0
-342 -333 343 0
-342 -334 344 0
-342 -335 345 0
343 353 0
-343 -353 0
-343 -346 336 0
-343 -347 337 0
-343 -348 338 0
-343 -349 339 0
-343 -350 340 0
-343 -351 341 0
-343 -352 342 0
-343 -354 344 0
-343 -355 345 0
344 363 0
-344 -363 0
-344 -356 336 0
-344 -357 337 0
-344 -358 338 0
-344 -359 339 0
-344 -360 340 0
-344 -361 341 0
-344 -362 342 0
-344 -364 343 0
-344 -365 345 0
345 373 0
-345 -373 0
-345 -366 336 0
-345 -367 337 0
-345 -368 338 0
-345 -369 339 0
-345 -370 340 0
-345 -371 341 0
-345 -372 342 0
-345 -374 343 0
-345 -375 344 0
383 0
346 281 0
-346 -281 0
-346 -266 347 0
-346 -269 348 0
-346 -271 349 0
-346 -273 350 0
-346 -275 351 0
-346 -277 352 0
-346 -279 353 0
-346 -283 354 0
-346 -285 355 0
347 280 0
-347 -280 0
-347 -267 346 0
-347 -268 348 0
-347 -270 349 0
-347 -272 350 0
-347 -274 351 0
-347 -276 352 0
-347 -278 353 0
-347 -282 354 0
-347 -284 355 0
348 293 0
-348 -293 0
-348 -286 346 0
-348 -287 347 0
-348 -288 349 0
-348 -289 350 0
-348 -290 351 0
-348 -291 352 0
-348 -292 353 0
-348 -294 354 0
-348 -295 355 0
349 303 0
-349 -303 0
-349 -296 346 0
-349 -297 347 0
-349 -298 348 0
-349 -299 350 0
-349 -300 351 0
-349 -301 352 0
-349 -302 353 0
-349 -304 354 0
-349 -305 355 0
350 313 0
-350 -313 0
-350 -306 346 0
-350 -307 347 0
-350 -308 348 0
-350 -309 349 0
-350 -310 351 0
-350 -311 352 0
-350 -312 353 0
-350 -314 354 0
-350 -315 355 0
351 323 0
-351 -323 0
-351 -316 346 0
-351 -317 347 0
-351 -318 348 0
-351 -319 349 0
-351 -320 350 0
-351 -321 352 0
-351 -322 353 0
-351 -324 354 0
-351 -325 355 0
352 333 0
-352 -333 0
-352 -326 346 0
-352 -327 347 0
-352 -328 348 0
-352 -329 349 0
-352 -330 350 0
-352 -331 351 0
-352 -332 353 0
-352 -334 354 0
-352 -335 355 0
353 343 0
-353 -343 0
-353 -336 346 0
-353 -337 347 0
-353 -338 348 0
-353 -339 349 0
-353 -340 350 0
-353 -341 351 0
-353 -342 352 0
-353 -344 354 0
-353 -345 355 0
354 364 0
-354 -364 0
-354 -356 346 0
-354 -357 347 0
-354 -358 348 0
-354 -359 349 0
-354 -360 350 0
-354 -361 351 0
-354 -362 352 0
-354 -363 353 0
-354 -365 355 0
355 374 0
-355 -374 0
-355 -366 346 0
-355 -367 347 0
-355 -368 348 0
-355 -369 349 0
-355 -370 350 0
-355 -371 351 0
-355 -372 352 0
-355 -373 353 0
-355 -375 354 0
384 0
356 283 0
-356 -283 0
-356 -266 357 0
-356 -269 358 0
-356 -271 359 0
-356 -273 360 0
-356 -275 361 0
-356 -277 362 0
-356 -279 363 0
-356 -281 364 0
-356 -285 365 0
357 282 0
-357 -282 0
-357 -267 356 0
-357 -268 358 0
-357 -270 359 0
-357 -272 360 0
-357 -274 361 0
-357 -276 362 0
-357 -278 363 0
-357 -280 364 0
-357 -284 365 0
358 294 0
-358 -294 0
-358 -286 356 0
-358 -287 357 0
-358 -288 359 0
-358 -289 360 0
-358 -290 361 0
-358 -291 362 0
-358 -292 363 0
-358 -293 364 0
-358 -295 365 0
359 304 0
-359 -304 0
-359 -296 356 0
-359 -297 357 0
-359 -298 358 0
-359 -299 360 0
-359 -300 361 0
-359 -301 362 0
-359 -302 363 0
-359 -303 364 0
-359 -305 365 0
360 314 0
-360 -314 0
-360 -306 356 0
-360 -307 357 0
-360 -308 358 0
-360 -309 359 0
-360 -310 361 0
-360 -311 362 0
-360 -312 363 0
-360 -313 364 0
-360 -315 365 0
361 324 0
-361 -324 0
-361 -316 356 0
-361 -317 357 0
-361 -318 358 0
-361 -319 359 0
-361 -320 360 0
-361 -321 362 0
-361 -322 363 0
-361 -323 364 0
-361 -325 365 0
362 334 0
-362 -334 0
-362 -326 356 0
-362 -327 357 0
-362 -328 358 0
-362 -329 359 0
-362 -330 360 0
-362 -331 361 0
-362 -332 363 0
-362 -333 364 0
-362 -335 365 0
363 344 0
-363 -344 0
-363 -336 356 0
-363 -337 357 0
-363 -338 358 0
-363 -339 359 0
-363 -340 360 0
-363 -341 361 0
-363 -342 362 0
-363 -343 364 0
-363 -345 365 0
364 354 0
-364 -354 0
-364 -346 356 0
-364 -347 357 0
-364 -348 358 0
-364 -349 359 0
-364 -350 360 0
-364 -351 361 0
-364 -352 362 0
-364 -353 363 0
-364 -355 365 0
365 375 0
-365 -375 0
-365 -366 356 0
-365 -367 357 0
-365 -368 358 0
-365 -369 359 0
-365 -370 360 0
-365 -371 361 0
-365 -372 362 0
-365 -373 363 0
-365 -374 364 0
385 0
366 285 0
-366 -285 0
-366 -266 367 0
-366 -269 368 0
-366 -271 369 0
-366 -273 370 0
-366 -275 371 0
-366 -277 372 0
-366 -279 373 0
-366 -281 374 0
-366 -283 375 0
367 284 0
-367 -284 0
-367 -267 366 0
-367 -268 368 0
-367 -270 369 0
-367 -272 370 0
-367 -274 371 0
-367 -276 372 0
-367 -278 373 0
-367 -280 374 0
-367 -282 375 0
368 295 0
-368 -295 0
-368 -286 366 0
-368 -287 367 0
-368 -288 369 0
-368 -289 370 0
-368 -290 371 0
-368 -291 372 0
-368 -292 373 0
-368 -293 374 0
-368 -294 375 0
369 305 0
-369 -305 0
-369 -296 366 0
-369 -297 367 0
-369 -298 368 0
-369 -299 370 0
-369 -300 371 0
-369 -301 372 0
-369 -302 373 0
-369 -303 374 0
-369 -304 375 0
370 315 0
-370 -315 0
-370 -306 366 0
-370 -307 367 0
-370 -308 368 0
-370 -309 369 0
-370 -310 371 0
-370 -311 372 0
-370 -312 373 0
-370 -313 374 0
-370 -314 375 0
371 325 0
-371 -325 0
-371 -316 366 0
-371 -317 367 0
-371 -318 368 0
-371 -319 369 0
-371 -320 370 0
-371 -321 372 0
-371 -322 373 0
-371 -323 374 0
-371 -324 375 0
372 335 0
-372 -335 0
-372 -326 366 0
-372 -327 367 0
-372 -328 368 0
-372 -329 369 0
-372 -330 370 0
-372 -331 371 0
-372 -332 373 0
-372 -333 374 0
-372 -334 375 0
373 345 0
-373 -345 0
-373 -336 366 0
-373 -337 367 0
-373 -338 368 0
-373 -339 369 0
-373 -340 370 0
-373 -341 371 0
-373 -342 372 0
-373 -343 374 0
-373 -344 375 0
374 355 0
-374 -355 0
-374 -346 366 0
-374 -347 367 0
-374 -348 368 0
-374 -349 369 0
-374 -350 370 0
-374 -351 371 0
-374 -352 372 0
-374 -353 373 0
-374 -354 375 0
375 365 0
-375 -365 0
-375 -356 366 0
-375 -357 367 0
-375 -358 368 0
-375 -359 369 0
-375 -360 370 0
-375 -361 371 0
-375 -362 372 0
-375 -363 373 0
-375 -364 374 0
-134 0
-136 266 0
-386 269 0
-386 287 0
-269 -287 386 0
-387 271 0
-387 297 0
-271 -297 387 0
-388 273 0
-388 307 0
-273 -307 388 0
-389 275 0
-389 317 0
-275 -317 389 0
-390 277 0
-390 327 0
-277 -327 390 0
-391 279 0
-391 337 0
-279 -337 391 0
-392 281 0
-392 347 0
-281 -347 392 0
-393 283 0
-393 357 0
-283 -357 393 0
-394 285 0
-394 367 0
-285 -367 394 0
-136 -386 0
-136 -387 0
-136 -388 0
-136 -389 0
-136 -390 0
-136 -391 0
-136 -392 0
-136 -393 0
-136 -394 0
-266 136 386 387 388 389 390 391 392 393 394 0
-138 269 0
-395 266 0
-395 268 0
-266 -268 395 0
-396 271 0
-396 298 0
-271 -298 396 0
-397 273 0
-397 308 0
-273 -308 397 0
-398 275 0
-398 318 0
-275 -318 398 0
-399 277 0
-399 328 0
-277 -328 399 0
-400 279 0
-400 338 0
-279 -338 400 0
-401 281 0
-401 348 0
-281 -348 401 0
-402 283 0
-402 358 0
-283 -358 402 0
-403 285 0
-403 368 0
-285 -368 403 0
-138 -395 0
-138 -396 0
-138 -397 0
-138 -398 0
-138 -399 0
-138 -400 0
-138 -401 0
-138 -402 0
-138 -403 0
-269 138 395 396 397 398 399 400 401 402 403 0
-140 271 0
-404 266 0
-404 270 0
-266 -270 404 0
-405 269 0
-405 288 0
-269 -288 405 0
-406 273 0
-406 309 0
-273 -309 406 0
-407 275 0
-407 319 0
-275 -319 407 0
-408 277 0
-408 329 0
-277 -329 408 0
-409 279 0
-409 339 0
-279 -339 409 0
-410 281 0
-410 349 0
-281 -349 410 0
-411 283 0
-411 359 0
-283 -359 411 0
-412 285 0
-412 369 0
-285 -369 412 0
-140 -404 0
-140 -405 0
-140 -406 0
-140 -407 0
-140 -408 0
-140 -409 0
-140 -410 0
-140 -411 0
-140 -412 0
-271 140 404 405 406 407 408 409 410 411 412 0
-142 273 0
-413 266 0
-413 272 0
-266 -272 413 0
-414 269 0
-414 289 0
-269 -289 414 0
-415 271 0
-415 299 0
-271 -299 415 0
-416 275 0
-416 320 0
-275 -320 416 0
-417 277 0
-417 330 0
-277 -330 417 0
-418 279 0
-418 340 0
-279 -340 418 0
-419 281 0
-419 350 0
-281 -350 419 0
-420 283 0
-420 360 0
-283 -360 420 0
-421 285 0
-421 370 0
-285 -370 421 0
-142 -413 0
-142 -414 0
-142 -415 0
-142 -416 0
-142 -417 0
-142 -418 0
-142 -419 0
-142 -420 0
-142 -421 0
-273 142 413 414 415 416 417 418 419 420 421 0
-144 275 0
-422 266 0
-422 274 0
-266 -274 422 0
-423 269 0
-423 290 0
-269 -290 423 0
-424 271 0
-424 300 0
-271 -300 424 0
-425 273 0
-425 310 0
-273 -310 425 0
-426 277 0
-426 331 0
-277 -331 426 0
-427 279 0
-427 341 0
-279 -341 427 0
-428 281 0
-428 351 0
-281 -351 428 0
-429 283 0
-429 361 0
-283 -361 429 0
-430 285 0
-430 371 0
-285 -371 430 0
-144 -422 0
-144 -423 0
-144 -424 0
-144 -425 0
-144 -426 0
-144 -427 0
-144 -428 0
-144 -429 0
-144 -430 0
-275 144 422 423 424 425 426 427 428 429 430 0
-146 277 0
-431 266 0
-431 276 0
-266 -276 431 0
-432 269 0
-432 291 0
-269 -291 432 0
-433 271 0
-433 301 0
-271 -301 433 0
-434 273 0
-434 311 0
-273 -311 434 0
-435 275 0
-435 321 0
-275 -321 435 0
-436 279 0
-436 342 0
-279 -342 436 0
-437 281 0
-437 352 0
-281 -352 437 0
-438 283 0
-438 362 0
-283 -362 438 0
-439 285 0
-439 372 0
-285 -372 439 0
-146 -431 0
-146 -432 0
-146 -433 0
-146 -434 0
-146 -435 0
-146 -436 0
-146 -437 0
-146 -438 0
-146 -439 0
-277 146 431 432 433 434 435 436 437 438 439 0
-148 279 0
-440 266 0
-440 278 0
-266 -278 440 0
-441 269 0
-441 292 0
-269 -292 441 0
-442 271 0
-442 302 0
-271 -302 442 0
-443 273 0
-443 312 0
-273 -312 443 0
-444 275 0
-444 322 0
-275 -322 444 0
-445 277 0
-445 332 0
-277 -332 445 0
-446 281 0
-446 353 0
-281 -353 446 0
-447 283 0
-447 363 0
-283 -363 447 0
-448 285 0
-448 373 0
-285 -373 448 0
-148 -440 0
-148 -441 0
-148 -442 0
-148 -443 0
-148 -444 0
-148 -445 0
-148 -446 0
-148 -447 0
-148 -448 0
-279 148 440 441 442 443 444 445 446 447 448 0
-150 281 0
-449 266 0
-449 280 0
-266 -280 449 0
-450 269 0
-450 293 0
-269 -293 450 0
-451 271 0
-451 303 0
-271 -303 451 0
-452 273 0
-452 313 0
-273 -313 452 0
-453 275 0
-453 323 0
-275 -323 453 0
-454 277 0
-454 333 0
-277 -333 454 0
-455 279 0
-455 343 0
-279 -343 455 0
-456 283 0
-456 364 0
-283 -364 456 0
-457 285 0
-457 374 0
-285 -374 457 0
-150 -449 0
-150 -450 0
-150 -451 0
-150 -452 0
-150 -453 0
-150 -454 0
-150 -455 0
-150 -456 0
-150 -457 0
-281 150 449 450 451 452 453 454 455 456 457 0
-152 283 0
-458 266 0
-458 282 0
-266 -282 458 0
-459 269 0
-459 294 0
-269 -294 459 0
-460 271 0
-460 304 0
-271 -304 460 0
-461 273 0
-461 314 0
-273 -314 461 0
-462 275 0
-462 324 0
-275 -324 462 0
-463 277 0
-463 334 0
-277 -334 463 0
-464 279 0
-464 344 0
-279 -344 464 0
-465 281 0
-465 354 0
-281 -354 465 0
-466 285 0
-466 375 0
-285 -375 466 0
-152 -458 0
-152 -459 0
-152 -460 0
-152 -461 0
-152 -462 0
-152 -463 0
-152 -464 0
-152 -465 0
-152 -466 0
-283 152 458 459 460 461 462 463 464 465 466 0
-154 285 0
-467 266 0
-467 284 0
-266 -284 467 0
-468 269 0
-468 295 0
-269 -295 468 0
-469 271 0
-469 305 0
-271 -305 469 0
-470 273 0
-470 315 0
-273 -315 470 0
-471 275 0
-471 325 0
-275 -325 471 0
-472 277 0
-472 335 0
-277 -335 472 0
-473 279 0
-473 345 0
-279 -345 473 0
-474 281 0
-474 355 0
-281 -355 474 0
-475 283 0
-475 365 0
-283 -365 475 0
-154 -467 0
-154 -468 0
-154 -469 0
-154 -470 0
-154 -471 0
-154 -472 0
-154 -473 0
-154 -474 0
-154 -475 0
-285 154 467 468 469 470 471 472 473 474 475 0
-155 267 0
-476 268 0
-476 286 0
-268 -286 476 0
-477 270 0
-477 296 0
-270 -296 477 0
-478 272 0
-478 306 0
-272 -306 478 0
-479 274 0
-479 316 0
-274 -316 479 0
-480 276 0
-480 326 0
-276 -326 480 0
-481 278 0
-481 336 0
-278 -336 481 0
-482 280 0
-482 346 0
-280 -346 482 0
-483 282 0
-483 356 0
-282 -356 483 0
-484 284 0
-484 366 0
-284 -366 484 0
-155 -476 0
-155 -477 0
-155 -478 0
-155 -479 0
-155 -480 0
-155 -481 0
-155 -482 0
-155 -483 0
-155 -484 0
-267 155 476 477 478 479 480 481 482 483 484 0
-156 0
-157 268 0
-485 267 0
-485 269 0
-267 -269 485 0
-486 270 0
-486 298 0
-270 -298 486 0
-487 272 0
-487 308 0
-272 -308 487 0
-488 274 0
-488 318 0
-274 -318 488 0
-489 276 0
-489 328 0
-276 -328 489 0
-490 278 0
-490 338 0
-278 -338 490 0
-491 280 0
-491 348 0
-280 -348 491 0
-492 282 0
-492 358 0
-282 -358 492 0
-493 284 0
-493 368 0
-284 -368 493 0
-157 -485 0
-157 -486 0
-157 -487 0
-157 -488 0
-157 -489 0
-157 -490 0
-157 -491 0
-157 -492 0
-157 -493 0
-268 157 485 486 487 488 489 490 491 492 493 0
-158 270 0
-494 267 0
-494 271 0
-267 -271 494 0
-495 268 0
-495 288 0
-268 -288 495 0
-496 272 0
-496 309 0
-272 -309 496 0
-497 274 0
-497 319 0
-274 -319 497 0
-498 276 0
-498 329 0
-276 -329 498 0
-499 278 0
-499 339 0
-278 -339 499 0
-500 280 0
-500 349 0
-280 -349 500 0
-501 282 0
-501 359 0
-282 -359 501 0
-502 284 0
-502 369 0
-284 -369 502 0
-158 -494 0
-158 -495 0
-158 -496 0
-158 -497 0
-158 -498 0
-158 -499 0
-158 -500 0
-158 -501 0
-158 -502 0
-270 158 494 495 496 497 498 499 500 501 502 0
-159 272 0
-503 267 0
-503 273 0
-267 -273 503 0
-504 268 0
-504 289 0
-268 -289 504 0
-505 270 0
-505 299 0
-270 -299 505 0
-506 274 0
-506 320 0
-274 -320 506 0
-507 276 0
-507 330 0
-276 -330 507 0
-508 278 0
-508 340 0
-278 -340 508 0
-509 280 0
-509 350 0
-280 -350 509 0
-510 282 0
-510 360 0
-282 -360 510 0
-511 284 0
-511 370 0
-284 -370 511 0
-159 -503 0
-159 -504 0
-159 -505 0
-159 -506 0
-159 -507 0
-159 -508 0
-159 -509 0
-159 -510 0
-159 -511 0
-272 159 503 504 505 506 507 508 509 510 511 0
-160 274 0
-512 267 0
-512 275 0
-267 -275 512 0
-513 268 0
-513 290 0
-268 -290 513 0
-514 270 0
-514 300 0
-270 -300 514 0
-515 272 0
-515 310 0
-272 -310 515 0
-516 276 0
-516 331 0
-276 -331 516 0
-517 278 0
-517 341 0
-278 -341 517 0
-518 280 0
-518 351 0
-280 -351 518 0
-519 282 0
-519 361 0
-282 -361 519 0
-520 284 0
-520 371 0
-284 -371 520 0
-160 -512 0
-160 -513 0
-160 -514 0
-160 -515 0
-160 -516 0
-160 -517 0
-160 -518 0
-160 -519 0
-160 -520 0
-274 160 512 513 514 515 516 517 518 519 520 0
-161 276 0
-521 267 0
-521 277 0
-267 -277 521 0
-522 268 0
-522 291 0
-268 -291 522 0
-523 270 0
-523 301 0
-270 -301 523 0
-524 272 0
-524 311 0
-272 -311 524 0
-525 274 0
-525 321 0
-274 -321 525 0
-526 278 0
-526 342 0
-278 -342 526 0
-527 280 0
-527 352 0
-280 -352 527 0
-528 282 0
-528 362 0
-282 -362 528 0
-529 284 0
-529 372 0
-284 -372 529 0
-161 -521 0
-161 -522 0
-161 -523 0
-161 -524 0
-161 -525 0
-161 -526 0
-161 -527 0
-161 -528 0
-161 -529 0
-276 161 521 522 523 524 525 526 527 528 529 0
-162 278 0
-530 267 0
-530 279 0
-267 -279 530 0
-531 268 0
-531 292 0
-268 -292 531 0
-532 270 0
-532 302 0
-270 -302 532 0
-533 272 0
-533 312 0
-272 -312 533 0
-534 274 0
-534 322 0
-274 -322 534 0
-535 276 0
-535 332 0
-276 -332 535 0
-536 280 0
-536 353 0
-280 -353 536 0
-537 282 0
-537 363 0
-282 -363 537 0
-538 284 0
-538 373 0
-284 -373 538 0
-162 -530 0
-162 -531 0
-162 -532 0
-162 -533 0
-162 -534 0
-162 -535 0
-162 -536 0
-162 -537 0
-162 -538 0
-278 162 530 531 532 533 534 535 536 537 538 0
-163 280 0
-539 267 0
-539 281 0
-267 -281 539 0
-540 268 0
-540 293 0
-268 -293 540 0
-541 270 0
-541 303 0
-270 -303 541 0
-542 272 0
-542 313 0
-272 -313 542 0
-543 274 0
-543 323 0
-274 -323 543 0
-544 276 0
-544 333 0
-276 -333 544 0
-545 278 0
-545 343 0
-278 -343 545 0
-546 282 0
-546 364 0
-282 -364 546 0
-547 284 0
-547 374 0
-284 -374 547 0
-163 -539 0
-163 -540 0
-163 -541 0
-163 -542 0
-163 -543 0
-163 -544 0
-163 -545 0
-163 -546 0
-163 -547 0
-280 163 539 540 541 542 543 544 545 546 547 0
-164 282 0
-548 267 0
-548 283 0
-267 -283 548 0
-549 268 0
-549 294 0
-268 -294 549 0
-550 270 0
-550 304 0
-270 -304 550 0
-551 272 0
-551 314 0
-272 -314 551 0
-552 274 0
-552 324 0
-274 -324 552 0
-553 276 0
-553 334 0
-276 -334 553 0
-554 278 0
-554 344 0
-278 -344 554 0
-555 280 0
-555 354 0
-280 -354 555 0
-556 284 0
-556 375 0
-284 -375 556 0
-164 -548 0
-164 -549 0
-164 -550 0
-164 -551 0
-164 -552 0
-164 -553 0
-164 -554 0
-164 -555 0
-164 -556 0
-282 164 548 549 550 551 552 553 554 555 556 0
-165 284 0
-557 267 0
-557 285 0
-267 -285 557 0
-558 268 0
-558 295 0
-268 -295 558 0
-559 270 0
-559 305 0
-270 -305 559 0
-560 272 0
-560 315 0
-272 -315 560 0
-561 274 0
-561 325 0
-274 -325 561 0
-562 276 0
-562 335 0
-276 -335 562 0
-563 278 0
-563 345 0
-278 -345 563 0
-564 280 0
-564 355 0
-280 -355 564 0
-565 282 0
-565 365 0
-282 -365 565 0
-165 -557 0
-165 -558 0
-165 -559 0
-165 -560 0
-165 -561 0
-165 -562 0
-165 -563 0
-165 -564 0
-165 -565 0
-284 165 557 558 559 560 561 562 563 564 565 0
-166 286 0
-566 287 0
-566 267 0
-287 -267 566 0
-567 288 0
-567 296 0
-288 -296 567 0
-568 289 0
-568 306 0
-289 -306 568 0
-569 290 0
-569 316 0
-290 -316 569 0
-570 291 0
-570 326 0
-291 -326 570 0
-571 292 0
-571 336 0
-292 -336 571 0
-572 293 0
-572 346 0
-293 -346 572 0
-573 294 0
-573 356 0
-294 -356 573 0
-574 295 0
-574 366 0
-295 -366 574 0
-166 -566 0
-166 -567 0
-166 -568 0
-166 -569 0
-166 -570 0
-166 -571 0
-166 -572 0
-166 -573 0
-166 -574 0
-286 166 566 567 568 569 570 571 572 573 574 0
-167 287 0
-575 286 0
-575 266 0
-286 -266 575 0
-576 288 0
-576 297 0
-288 -297 576 0
-577 289 0
-577 307 0
-289 -307 577 0
-578 290 0
-578 317 0
-290 -317 578 0
-579 291 0
-579 327 0
-291 -327 579 0
-580 292 0
-580 337 0
-292 -337 580 0
-581 293 0
-581 347 0
-293 -347 581 0
-582 294 0
-582 357 0
-294 -357 582 0
-583 295 0
-583 367 0
-295 -367 583 0
-167 -575 0
-167 -576 0
-167 -577 0
-167 -578 0
-167 -579 0
-167 -580 0
-167 -581 0
-167 -582 0
-167 -583 0
-287 167 575 576 577 578 579 580 581 582 583 0
-168 0
-169 288 0
-584 286 0
-584 271 0
-286 -271 584 0
-585 287 0
-585 270 0
-287 -270 585 0
-586 289 0
-586 309 0
-289 -309 586 0
-587 290 0
-587 319 0
-290 -319 587 0
-588 291 0
-588 329 0
-291 -329 588 0
-589 292 0
-589 339 0
-292 -339 589 0
-590 293 0
-590 349 0
-293 -349 590 0
-591 294 0
-591 359 0
-294 -359 591 0
-592 295 0
-592 369 0
-295 -369 592 0
-169 -584 0
-169 -585 0
-169 -586 0
-169 -587 0
-169 -588 0
-169 -589 0
-169 -590 0
-169 -591 0
-169 -592 0
-288 169 584 585 586 587 588 589 590 591 592 0
-170 289 0
-593 286 0
-593 273 0
-286 -273 593 0
-594 287 0
-594 272 0
-287 -272 594 0
-595 288 0
-595 299 0
-288 -299 595 0
-596 290 0
-596 320 0
-290 -320 596 0
-597 291 0
-597 330 0
-291 -330 597 0
-598 292 0
-598 340 0
-292 -340 598 0
-599 293 0
-599 350 0
-293 -350 599 0
-600 294 0
-600 360 0
-294 -360 600 0
-601 295 0
-601 370 0
-295 -370 601 0
-170 -593 0
-170 -594 0
-170 -595 0
-170 -596 0
-170 -597 0
-170 -598 0
-170 -599 0
-170 -600 0
-170 -601 0
-289 170 593 594 595 596 597 598 599 600 601 0
-171 290 0
-602 286 0
-602 275 0
-286 -275 602 0
-603 287 0
-603 274 0
-287 -274 603 0
-604 288 0
-604 300 0
-288 -300 604 0
-605 289 0
-605 310 0
-289 -310 605 0
-606 291 0
-606 331 0
-291 -331 606 0
-607 292 0
-607 341 0
-292 -341 607 0
-608 293 0
-608 351 0
-293 -351 608 0
-609 294 0
-609 361 0
-294 -361 609 0
-610 295 0
-610 371 0
-295 -371 610 0
-171 -602 0
-171 -603 0
-171 -604 0
-171 -605 0
-171 -606 0
-171 -607 0
-171 -608 0
-171 -609 0
-171 -610 0
-290 171 602 603 604 605 606 607 608 609 610 0
-172 291 0
-611 286 0
-611 277 0
-286 -277 611 0
-612 287 0
-612 276 0
-287 -276 612 0
-613 288 0
-613 301 0
-288 -301 613 0
-614 289 0
-614 311 0
-289 -311 614 0
-615 290 0
-615 321 0
-290 -321 615 0
-616 292 0
-616 342 0
-292 -342 616 0
-617 293 0
-617 352 0
-293 -352 617 0
-618 294 0
-618 362 0
-294 -362 618 0
-619 295 0
-619 372 0
-295 -372 619 0
-172 -611 0
-172 -612 0
-172 -613 0
-172 -614 0
-172 -615 0
-172 -616 0
-172 -617 0
-172 -618 0
-172 -619 0
-291 172 611 612 613 614 615 616 617 618 619 0
-173 292 0
-620 286 0
-620 279 0
-286 -279 620 0
-621 287 0
-621 278 0
-287 -278 621 0
-622 288 0
-622 302 0
-288 -302 622 0
-623 289 0
-623 312 0
-289 -312 623 0
-624 290 0
-624 322 0
-290 -322 624 0
-625 291 0
-625 332 0
-291 -332 625 0
-626 293 0
-626 353 0
-293 -353 626 0
-627 294 0
-627 363 0
-294 -363 627 0
-628 295 0
-628 373 0
-295 -373 628 0
-173 -620 0
-173 -621 0
-173 -622 0
-173 -623 0
-173 -624 0
-173 -625 0
-173 -626 0
-173 -627 0
-173 -628 0
-292 173 620 621 622 623 624 625 626 627 628 0
-174 293 0
-629 286 0
-629 281 0
-286 -281 629 0
-630 287 0
-630 280 0
-287 -280 630 0
-631 288 0
-631 303 0
-288 -303 631 0
-632 289 0
-632 313 0
-289 -313 632 0
-633 290 0
-633 323 0
-290 -323 633 0
-634 291 0
-634 333 0
-291 -333 634 0
-635 292 0
-635 343 0
-292 -343 635 0
-636 294 0
-636 364 0
-294 -364 636 0
-637 295 0
-637 374 0
-295 -374 637 0
-174 -629 0
-174 -630 0
-174 -631 0
-174 -632 0
-174 -633 0
-174 -634 0
-174 -635 0
-174 -636 0
-174 -637 0
-293 174 629 630 631 632 633 634 635 636 637 0
-175 294 0
-638 286 0
-638 283 0
-286 -283 638 0
-639 287 0
-639 282 0
-287 -282 639 0
-640 288 0
-640 304 0
-288 -304 640 0
-641 289 0
-641 314 0
-289 -314 641 0
-642 290 0
-642 324 0
-290 -324 642 0
-643 291 0
-643 334 0
-291 -334 643 0
-644 292 0
-644 344 0
-292 -344 644 0
-645 293 0
-645 354 0
-293 -354 645 0
-646 295 0
-646 375 0
-295 -375 646 0
-175 -638 0
-175 -639 0
-175 -640 0
-175 -641 0
-175 -642 0
-175 -643 0
-175 -644 0
-175 -645 0
-175 -646 0
-294 175 638 639 640 641 642 643 644 645 646 0
-176 295 0
-647 286 0
-647 285 0
-286 -285 647 0
-648 287 0
-648 284 0
-287 -284 648 0
-649 288 0
-649 305 0
-288 -305 649 0
-650 289 0
-650 315 0
-289 -315 650 0
-651 290 0
-651 325 0
-290 -325 651 0
-652 291 0
-652 335 0
-291 -335 652 0
-653 292 0
-653 345 0
-292 -345 653 0
-654 293 0
-654 355 0
-293 -355 654 0
-655 294 0
-655 365 0
-294 -365 655 0
-176 -647 0
-176 -648 0
-176 -649 0
-176 -650 0
-176 -651 0
-176 -652 0
-176 -653 0
-176 -654 0
-176 -655 0
-295 176 647 648 649 650 651 652 653 654 655 0
-177 296 0
-656 297 0
-656 267 0
-297 -267 656 0
-657 298 0
-657 286 0
-298 -286 657 0
-658 299 0
-658 306 0
-299 -306 658 0
-659 300 0
-659 316 0
-300 -316 659 0
-660 301 0
-660 326 0
-301 -326 660 0
-661 302 0
-661 336 0
-302 -336 661 0
-662 303 0
-662 346 0
-303 -346 662 0
-663 304 0
-663 356 0
-304 -356 663 0
-664 305 0
-664 366 0
-305 -366 664 0
-177 -656 0
-177 -657 0
-177 -658 0
-177 -659 0
-177 -660 0
-177 -661 0
-177 -662 0
-177 -663 0
-177 -664 0
-296 177 656 657 658 659 660 661 662 663 664 0
-178 297 0
-665 296 0
-665 266 0
-296 -266 665 0
-666 298 0
-666 287 0
-298 -287 666 0
-667 299 0
-667 307 0
-299 -307 667 0
-668 300 0
-668 317 0
-300 -317 668 0
-669 301 0
-669 327 0
-301 -327 669 0
-670 302 0
-670 337 0
-302 -337 670 0
-671 303 0
-671 347 0
-303 -347 671 0
-672 304 0
-672 357 0
-304 -357 672 0
-673 305 0
-673 367 0
-305 -367 673 0
-178 -665 0
-178 -666 0
-178 -667 0
-178 -668 0
-178 -669 0
-178 -670 0
-178 -671 0
-178 -672 0
-178 -673 0
-297 178 665 666 667 668 669 670 671 672 673 0
-179 298 0
-674 296 0
-674 269 0
-296 -269 674 0
-675 297 0
-675 268 0
-297 -268 675 0
-676 299 0
-676 308 0
-299 -308 676 0
-677 300 0
-677 318 0
-300 -318 677 0
-678 301 0
-678 328 0
-301 -328 678 0
-679 302 0
-679 338 0
-302 -338 679 0
-680 303 0
-680 348 0
-303 -348 680 0
-681 304 0
-681 358 0
-304 -358 681 0
-682 305 0
-682 368 0
-305 -368 682 0
-179 -674 0
-179 -675 0
-179 -676 0
-179 -677 0
-179 -678 0
-179 -679 0
-179 -680 0
-179 -681 0
-179 -682 0
-298 179 674 675 676 677 678 679 680 681 682 0
-180 0
-181 299 0
-683 296 0
-683 273 0
-296 -273 683 0
-684 297 0
-684 272 0
-297 -272 684 0
-685 298 0
-685 289 0
-298 -289 685 0
-686 300 0
-686 320 0
-300 -320 686 0
-687 301 0
-687 330 0
-301 -330 687 0
-688 302 0
-688 340 0
-302 -340 688 0
-689 303 0
-689 350 0
-303 -350 689 0
-690 304 0
-690 360 0
-304 -360 690 0
-691 305 0
-691 370 0
-305 -370 691 0
-181 -683 0
-181 -684 0
-181 -685 0
-181 -686 0
-181 -687 0
-181 -688 0
-181 -689 0
-181 -690 0
-181 -691 0
-299 181 683 684 685 686 687 688 689 690 691 0
-182 300 0
-692 296 0
-692 275 0
-296 -275 692 0
-693 297 0
-693 274 0
-297 -274 693 0
-694 298 0
-694 290 0
-298 -290 694 0
-695 299 0
-695 310 0
-299 -310 695 0
-696 301 0
-696 331 0
-301 -331 696 0
-697 302 0
-697 341 0
-302 -341 697 0
-698 303 0
-698 351 0
-303 -351 698 0
-699 304 0
-699 361 0
-304 -361 699 0
-700 305 0
-700 371 0
-305 -371 700 0
-182 -692 0
-182 -693 0
-182 -694 0
-182 -695 0
-182 -696 0
-182 -697 0
-182 -698 0
-182 -699 0
-182 -700 0
-300 182 692 693 694 695 696 697 698 699 700 0
-183 301 0
-701 296 0
-701 277 0
-296 -277 701 0
-702 297 0
-702 276 0
-297 -276 702 0
-703 298 0
-703 291 0
-298 -291 703 0
-704 299 0
-704 311 0
-299 -311 704 0
-705 300 0
-705 321 0
-300 -321 705 0
-706 302 0
-706 342 0
-302 -342 706 0
-707 303 0
-707 352 0
-303 -352 707 0
-708 304 0
-708 362 0
-304 -362 708 0
-709 305 0
-709 372 0
-305 -372 709 0
-183 -701 0
-183 -702 0
-183 -703 0
-183 -704 0
-183 -705 0
-183 -706 0
-183 -707 0
-183 -708 0
-183 -709 0
-301 183 701 702 703 704 705 706 707 708 709 0
-184 302 0
-710 296 0
-710 279 0
-296 -279 710 0
-711 297 0
-711 278 0
-297 -278 711 0
-712 298 0
-712 292 0
-298 -292 712 0
-713 299 0
-713 312 0
-299 -312 713 0
-714 300 0
-714 322 0
-300 -322 714 0
-715 301 0
-715 332 0
-301 -332 715 0
-716 303 0
-716 353 0
-303 -353 716 0
-717 304 0
-717 363 0
-304 -363 717 0
-718 305 0
-718 373 0
-305 -373 718 0
-184 -710 0
-184 -711 0
-184 -712 0
-184 -713 0
-184 -714 0
-184 -715 0
-184 -716 0
-184 -717 0
-184 -718 0
-302 184 710 711 712 713 714 715 716 717 718 0
-185 303 0
-719 296 0
-719 281 0
-296 -281 719 0
-720 297 0
-720 280 0
-297 -280 720 0
-721 298 0
-721 293 0
-298 -293 721 0
-722 299 0
-722 313 0
-299 -313 722 0
-723 300 0
-723 323 0
-300 -323 723 0
-724 301 0
-724 333 0
-301 -333 724 0
-725 302 0
-725 343 0
-302 -343 725 0
-726 304 0
-726 364 0
-304 -364 726 0
-727 305 0
-727 374 0
-305 -374 727 0
-185 -719 0
-185 -720 0
-185 -721 0
-185 -722 0
-185 -723 0
-185 -724 0
-185 -725 0
-185 -726 0
-185 -727 0
-303 185 719 720 721 722 723 724 725 726 727 0
-186 304 0
-728 296 0
-728 283 0
-296 -283 728 0
-729 297 0
-729 282 0
-297 -282 729 0
-730 298 0
-730 294 0
-298 -294 730 0
-731 299 0
-731 314 0
-299 -314 731 0
-732 300 0
-732 324 0
-300 -324 732 0
-733 301 0
-733 334 0
-301 -334 733 0
-734 302 0
-734 344 0
-302 -344 734 0
-735 303 0
-735 354 0
-303 -354 735 0
-736 305 0
-736 375 0
-305 -375 736 0
-186 -728 0
-186 -729 0
-186 -730 0
-186 -731 0
-186 -732 0
-186 -733 0
-186 -734 0
-186 -735 0
-186 -736 0
-304 186 728 729 730 731 732 733 734 735 736 0
-187 305 0
-737 296 0
-737 285 0
-296 -285 737 0
-738 297 0
-738 284 0
-297 -284 738 0
-739 298 0
-739 295 0
-298 -295 739 0
-740 299 0
-740 315 0
-299 -315 740 0
-741 300 0
-741 325 0
-300 -325 741 0
-742 301 0
-742 335 0
-301 -335 742 0
-743 302 0
-743 345 0
-302 -345 743 0
-744 303 0
-744 355 0
-303 -355 744 0
-745 304 0
-745 365 0
-304 -365 745 0
-187 -737 0
-187 -738 0
-187 -739 0
-187 -740 0
-187 -741 0
-187 -742 0
-187 -743 0
-187 -744 0
-187 -745 0
-305 187 737 738 739 740 741 742 743 744 745 0
-188 306 0
-746 307 0
-746 267 0
-307 -267 746 0
-747 308 0
-747 286 0
-308 -286 747 0
-748 309 0
-748 296 0
-309 -296 748 0
-749 310 0
-749 316 0
-310 -316 749 0
-750 311 0
-750 326 0
-311 -326 750 0
-751 312 0
-751 336 0
-312 -336 751 0
-752 313 0
-752 346 0
-313 -346 752 0
-753 314 0
-753 356 0
-314 -356 753 0
-754 315 0
-754 366 0
-315 -366 754 0
-188 -746 0
-188 -747 0
-188 -748 0
-188 -749 0
-188 -750 0
-188 -751 0
-188 -752 0
-188 -753 0
-188 -754 0
-306 188 746 747 748 749 750 751 752 753 754 0
-189 307 0
-755 306 0
-755 266 0
-306 -266 755 0
-756 308 0
-756 287 0
-308 -287 756 0
-757 309 0
-757 297 0
-309 -297 757 0
-758 310 0
-758 317 0
-310 -317 758 0
-759 311 0
-759 327 0
-311 -327 759 0
-760 312 0
-760 337 0
-312 -337 760 0
-761 313 0
-761 347 0
-313 -347 761 0
-762 314 0
-762 357 0
-314 -357 762 0
-763 315 0
-763 367 0
-315 -367 763 0
-189 -755 0
-189 -756 0
-189 -757 0
-189 -758 0
-189 -759 0
-189 -760 0
-189 -761 0
-189 -762 0
-189 -763 0
-307 189 755 756 757 758 759 760 761 762 763 0
-190 308 0
-764 306 0
-764 269 0
-306 -269 764 0
-765 307 0
-765 268 0
-307 -268 765 0
-766 309 0
-766 298 0
-309 -298 766 0
-767 310 0
-767 318 0
-310 -318 767 0
-768 311 0
-768 328 0
-311 -328 768 0
-769 312 0
-769 338 0
-312 -338 769 0
-770 313 0
-770 348 0
-313 -348 770 0
-771 314 0
-771 358 0
-314 -358 771 0
-772 315 0
-772 368 0
-315 -368 772 0
-190 -764 0
-190 -765 0
-190 -766 0
-190 -767 0
-190 -768 0
-190 -769 0
-190 -770 0
-190 -771 0
-190 -772 0
-308 190 764 765 766 767 768 769 770 771 772 0
-191 309 0
-773 306 0
-773 271 0
-306 -271 773 0
-774 307 0
-774 270 0
-307 -270 774 0
-775 308 0
-775 288 0
-308 -288 775 0
-776 310 0
-776 319 0
-310 -319 776 0
-777 311 0
-777 329 0
-311 -329 777 0
-778 312 0
-778 339 0
-312 -339 778 0
-779 313 0
-779 349 0
-313 -349 779 0
-780 314 0
-780 359 0
-314 -359 780 0
-781 315 0
-781 369 0
-315 -369 781 0
-191 -773 0
-191 -774 0
-191 -775 0
-191 -776 0
-191 -777 0
-191 -778 0
-191 -779 0
-191 -780 0
-191 -781 0
-309 191 773 774 775 776 777 778 779 780 781 0
-192 0
-193 310 0
-782 306 0
-782 275 0
-306 -275 782 0
-783 307 0
-783 274 0
-307 -274 783 0
-784 308 0
-784 290 0
-308 -290 784 0
-785 309 0
-785 300 0
-309 -300 785 0
-786 311 0
-786 331 0
-311 -331 786 0
-787 312 0
-787 341 0
-312 -341 787 0
-788 313 0
-788 351 0
-313 -351 788 0
-789 314 0
-789 361 0
-314 -361 789 0
-790 315 0
-790 371 0
-315 -371 790 0
-193 -782 0
-193 -783 0
-193 -784 0
-193 -785 0
-193 -786 0
-193 -787 0
-193 -788 0
-193 -789 0
-193 -790 0
-310 193 782 783 784 785 786 787 788 789 790 0
-194 311 0
-791 306 0
-791 277 0
-306 -277 791 0
-792 307 0
-792 276 0
-307 -276 792 0
-793 308 0
-793 291 0
-308 -291 793 0
-794 309 0
-794 301 0
-309 -301 794 0
-795 310 0
-795 321 0
-310 -321 795 0
-796 312 0
-796 342 0
-312 -342 796 0
-797 313 0
-797 352 0
-313 -352 797 0
-798 314 0
-798 362 0
-314 -362 798 0
-799 315 0
-799 372 0
-315 -372 799 0
-194 -791 0
-194 -792 0
-194 -793 0
-194 -794 0
-194 -795 0
-194 -796 0
-194 -797 0
-194 -798 0
-194 -799 0
-311 194 791 792 793 794 795 796 797 798 799 0
-195 312 0
-800 306 0
-800 279 0
-306 -279 800 0
-801 307 0
-801 278 0
-307 -278 801 0
-802 308 0
-802 292 0
-308 -292 802 0
-803 309 0
-803 302 0
-309 -302 803 0
-804 310 0
-804 322 0
-310 -322 804 0
-805 311 0
-805 332 0
-311 -332 805 0
-806 313 0
-806 353 0
-313 -353 806 0
-807 314 0
-807 363 0
-314 -363 807 0
-808 315 0
-808 373 0
-315 -373 808 0
-195 -800 0
-195 -801 0
-195 -802 0
-195 -803 0
-195 -804 0
-195 -805 0
-195 -806 0
-195 -807 0
-195 -808 0
-312 195 800 801 802 803 804 805 806 807 808 0
-196 313 0
-809 306 0
-809 281 0
-306 -281 809 0
-810 307 0
-810 280 0
-307 -280 810 0
-811 308 0
-811 293 0
-308 -293 811 0
-812 309 0
-812 303 0
-309 -303 812 0
-813 310 0
-813 323 0
-310 -323 813 0
-814 311 0
-814 333 0
-311 -333 814 0
-815 312 0
-815 343 0
-312 -343 815 0
-816 314 0
-816 364 0
-314 -364 816 0
-817 315 0
-817 374 0
-315 -374 817 0
-196 -809 0
-196 -810 0
-196 -811 0
-196 -812 0
-196 -813 0
-196 -814 0
-196 -815 0
-196 -816 0
-196 -817 0
-313 196 809 810 811 812 813 814 815 816 817 0
-197 314 0
-818 306 0
-818 283 0
-306 -283 818 0
-819 307 0
-819 282 0
-307 -282 819 0
-820 308 0
-820 294 0
-308 -294 820 0
-821 309 0
-821 304 0
-309 -304 821 0
-822 310 0
-822 324 0
-310 -324 822 0
-823 311 0
-823 334 0
-311 -334 823 0
-824 312 0
-824 344 0
-312 -344 824 0
-825 313 0
-825 354 0
-313 -354 825 0
-826 315 0
-826 375 0
-315 -375 826 0
-197 -818 0
-197 -819 0
-197 -820 0
-197 -821 0
-197 -822 0
-197 -823 0
-197 -824 0
-197 -825 0
-197 -826 0
-314 197 818 819 820 821 822 823 824 825 826 0
-198 315 0
-827 306 0
-827 285 0
-306 -285 827 0
-828 307 0
-828 284 0
-307 -284 828 0
-829 308 0
-829 295 0
-308 -295 829 0
-830 309 0
-830 305 0
-309 -305 830 0
-831 310 0
-831 325 0
-310 -325 831 0
-832 311 0
-832 335 0
-311 -335 832 0
-833 312 0
-833 345 0
-312 -345 833 0
-834 313 0
-834 355 0
-313 -355 834 0
-835 314 0
-835 365 0
-314 -365 835 0
-198 -827 0
-198 -828 0
-198 -829 0
-198 -830 0
-198 -831 0
-198 -832 0
-198 -833 0
-198 -834 0
-198 -835 0
-315 198 827 828 829 830 831 832 833 834 835 0
-199 316 0
-836 317 0
-836 267 0
-317 -267 836 0
-837 318 0
-837 286 0
-318 -286 837 0
-838 319 0
-838 296 0
-319 -296 838 0
-839 320 0
-839 306 0
-320 -306 839 0
-840 321 0
-840 326 0
-321 -326 840 0
-841 322 0
-841 336 0
-322 -336 841 0
-842 323 0
-842 346 0
-323 -346 842 0
-843 324 0
-843 356 0
-324 -356 843 0
-844 325 0
-844 366 0
-325 -366 844 0
-199 -836 0
-199 -837 0
-199 -838 0
-199 -839 0
-199 -840 0
-199 -841 0
-199 -842 0
-199 -843 0
-199 -844 0
-316 199 836 837 838 839 840 841 842 843 844 0
-200 317 0
-845 316 0
-845 266 0
-316 -266 845 0
-846 318 0
-846 287 0
-318 -287 846 0
-847 319 0
-847 297 0
-319 -297 847 0
-848 320 0
-848 307 0
-320 -307 848 0
-849 321 0
-849 327 0
-321 -327 849 0
-850 322 0
-850 337 0
-322 -337 850 0
-851 323 0
-851 347 0
-323 -347 851 0
-852 324 0
-852 357 0
-324 -357 852 0
-853 325 0
-853 367 0
-325 -367 853 0
-200 -845 0
-200 -846 0
-200 -847 0
-200 -848 0
-200 -849 0
-200 -850 0
-200 -851 0
-200 -852 0
-200 -853 0
-317 200 845 846 847 848 849 850 851 852 853 0
-201 318 0
-854 316 0
-854 269 0
-316 -269 854 0
-855 317 0
-855 268 0
-317 -268 855 0
-856 319 0
-856 298 0
-319 -298 856 0
-857 320 0
-857 308 0
-320 -308 857 0
-858 321 0
-858 328 0
-321 -328 858 0
-859 322 0
-859 338 0
-322 -338 859 0
-860 323 0
-860 348 0
-323 -348 860 0
-861 324 0
-861 358 0
-324 -358 861 0
-862 325 0
-862 368 0
-325 -368 862 0
-201 -854 0
-201 -855 0
-201 -856 0
-201 -857 0
-201 -858 0
-201 -859 0
-201 -860 0
-201 -861 0
-201 -862 0
-318 201 854 855 856 857 858 859 860 861 862 0
-202 319 0
-863 316 0
-863 271 0
-316 -271 863 0
-864 317 0
-864 270 0
-317 -270 864 0
-865 318 0
-865 288 0
-318 -288 865 0
-866 320 0
-866 309 0
-320 -309 866 0
-867 321 0
-867 329 0
-321 -329 867 0
-868 322 0
-868 339 0
-322 -339 868 0
-869 323 0
-869 349 0
-323 -349 869 0
-870 324 0
-870 359 0
-324 -359 870 0
-871 325 0
-871 369 0
-325 -369 871 0
-202 -863 0
-202 -864 0
-202 -865 0
-202 -866 0
-202 -867 0
-202 -868 0
-202 -869 0
-202 -870 0
-202 -871 0
-319 202 863 864 865 866 867 868 869 870 871 0
-203 320 0
-872 316 0
-872 273 0
-316 -273 872 0
-873 317 0
-873 272 0
-317 -272 873 0
-874 318 0
-874 289 0
-318 -289 874 0
-875 319 0
-875 299 0
-319 -299 875 0
-876 321 0
-876 330 0
-321 -330 876 0
-877 322 0
-877 340 0
-322 -340 877 0
-878 323 0
-878 350 0
-323 -350 878 0
-879 324 0
-879 360 0
-324 -360 879 0
-880 325 0
-880 370 0
-325 -370 880 0
-203 -872 0
-203 -873 0
-203 -874 0
-203 -875 0
-203 -876 0
-203 -877 0
-203 -878 0
-203 -879 0
-203 -880 0
-320 203 872 873 874 875 876 877 878 879 880 0
-204 0
-205 321 0
-881 316 0
-881 277 0
-316 -277 881 0
-882 317 0
-882 276 0
-317 -276 882 0
-883 318 0
-883 291 0
-318 -291 883 0
-884 319 0
-884 301 0
-319 -301 884 0
-885 320 0
-885 311 0
-320 -311 885 0
-886 322 0
-886 342 0
-322 -342 886 0
-887 323 0
-887 352 0
-323 -352 887 0
-888 324 0
-888 362 0
-324 -362 888 0
-889 325 0
-889 372 0
-325 -372 889 0
-205 -881 0
-205 -882 0
-205 -883 0
-205 -884 0
-205 -885 0
-205 -886 0
-205 -887 0
-205 -888 0
-205 -889 0
-321 205 881 882 883 884 885 886 887 888 889 0
-206 322 0
-890 316 0
-890 279 0
-316 -279 890 0
-891 317 0
-891 278 0
-317 -278 891 0
-892 318 0
-892 292 0
-318 -292 892 0
-893 319 0
-893 302 0
-319 -302 893 0
-894 320 0
-894 312 0
-320 -312 894 0
-895 321 0
-895 332 0
-321 -332 895 0
-896 323 0
-896 353 0
-323 -353 896 0
-897 324 0
-897 363 0
-324 -363 897 0
-898 325 0
-898 373 0
-325 -373 898 0
-206 -890 0
-206 -891 0
-206 -892 0
-206 -893 0
-206 -894 0
-206 -895 0
-206 -896 0
-206 -897 0
-206 -898 0
-322 206 890 891 892 893 894 895 896 897 898 0
-207 323 0
-899 316 0
-899 281 0
-316 -281 899 0
-900 317 0
-900 280 0
-317 -280 900 0
-901 318 0
-901 293 0
-318 -293 901 0
-902 319 0
-902 303 0
-319 -303 902 0
-903 320 0
-903 313 0
-320 -313 903 0
-904 321 0
-904 333 0
-321 -333 904 0
-905 322 0
-905 343 0
-322 -343 905 0
-906 324 0
-906 364 0
-324 -364 906 0
-907 325 0
-907 374 0
-325 -374 907 0
-207 -899 0
-207 -900 0
-207 -901 0
-207 -902 0
-207 -903 0
-207 -904 0
-207 -905 0
-207 -906 0
-207 -907 0
-323 207 899 900 901 902 903 904 905 906 907 0
-208 324 0
-908 316 0
-908 283 0
-316 -283 908 0
-909 317 0
-909 282 0
-317 -282 909 0
-910 318 0
-910 294 0
-318 -294 910 0
-911 319 0
-911 304 0
-319 -304 911 0
-912 320 0
-912 314 0
-320 -314 912 0
-913 321 0
-913 334 0
-321 -334 913 0
-914 322 0
-914 344 0
-322 -344 914 0
-915 323 0
-915 354 0
-323 -354 915 0
-916 325 0
-916 375 0
-325 -375 916 0
-208 -908 0
-208 -909 0
-208 -910 0
-208 -911 0
-208 -912 0
-208 -913 0
-208 -914 0
-208 -915 0
-208 -916 0
-324 208 908 909 910 911 912 913 914 915 916 0
-209 325 0
-917 316 0
-917 285 0
-316 -285 917 0
-918 317 0
-918 284 0
-317 -284 918 0
-919 318 0
-919 295 0
-318 -295 919 0
-920 319 0
-920 305 0
-319 -305 920 0
-921 320 0
-921 315 0
-320 -315 921 0
-922 321 0
-922 335 0
-321 -335 922 0
-923 322 0
-923 345 0
-322 -345 923 0
-924 323 0
-924 355 0
-323 -355 924 0
-925 324 0
-925 365 0
-324 -365 925 0
-209 -917 0
-209 -918 0
-209 -919 0
-209 -920 0
-209 -921 0
-209 -922 0
-209 -923 0
-209 -924 0
-209 -925 0
-325 209 917 918 919 920 921 922 923 924 925 0
-210 326 0
-926 327 0
-926 267 0
-327 -267 926 0
-927 328 0
-927 286 0
-328 -286 927 0
-928 329 0
-928 296 0
-329 -296 928 0
-929 330 0
-929 306 0
-330 -306 929 0
-930 331 0
-930 316 0
-331 -316 930 0
-931 332 0
-931 336 0
-332 -336 931 0
-932 333 0
-932 346 0
-333 -346 932 0
-933 334 0
-933 356 0
-334 -356 933 0
-934 335 0
-934 366 0
-335 -366 934 0
-210 -926 0
-210 -927 0
-210 -928 0
-210 -929 0
-210 -930 0
-210 -931 0
-210 -932 0
-210 -933 0
-210 -934 0
-326 210 926 927 928 929 930 931 932 933 934 0
-211 327 0
-935 326 0
-935 266 0
-326 -266 935 0
-936 328 0
-936 287 0
-328 -287 936 0
-937 329 0
-937 297 0
-329 -297 937 0
-938 330 0
-938 307 0
-330 -307 938 0
-939 331 0
-939 317 0
-331 -317 939 0
-940 332 0
-940 337 0
-332 -337 940 0
-941 333 0
-941 347 0
-333 -347 941 0
-942 334 0
-942 357 0
-334 -357 942 0
-943 335 0
-943 367 0
-335 -367 943 0
-211 -935 0
-211 -936 0
-211 -937 0
-211 -938 0
-211 -939 0
-211 -940 0
-211 -941 0
-211 -942 0
-211 -943 0
-327 211 935 936 937 938 939 940 941 942 943 0
-212 328 0
-944 326 0
-944 269 0
-326 -269 944 0
-945 327 0
-945 268 0
-327 -268 945 0
-946 329 0
-946 298 0
-329 -298 946 0
-947 330 0
-947 308 0
-330 -308 947 0
-948 331 0
-948 318 0
-331 -318 948 0
-949 332 0
-949 338 0
-332 -338 949 0
-950 333 0
-950 348 0
-333 -348 950 0
-951 334 0
-951 358 0
-334 -358 951 0
-952 335 0
-952 368 0
-335 -368 952 0
-212 -944 0
-212 -945 0
-212 -946 0
-212 -947 0
-212 -948 0
-212 -949 0
-212 -950 0
-212 -951 0
-212 -952 0
-328 212 944 945 946 947 948 949 950 951 952 0
-213 329 0
-953 326 0
-953 271 0
-326 -271 953 0
-954 327 0
-954 270 0
-327 -270 954 0
-955 328 0
-955 288 0
-328 -288 955 0
-956 330 0
-956 309 0
-330 -309 956 0
-957 331 0
-957 319 0
-331 -319 957 0
-958 332 0
-958 339 0
-332 -339 958 0
-959 333 0
-959 349 0
-333 -349 959 0
-960 334 0
-960 359 0
-334 -359 960 0
-961 335 0
-961 369 0
-335 -369 961 0
-213 -953 0
-213 -954 0
-213 -955 0
-213 -956 0
-213 -957 0
-213 -958 0
-213 -959 0
-213 -960 0
-213 -961 0
-329 213 953 954 955 956 957 958 959 960 961 0
-214 330 0
-962 326 0
-962 273 0
-326 -273 962 0
-963 327 0
-963 272 0
-327 -272 963 0
-964 328 0
-964 289 0
-328 -289 964 0
-965 329 0
-965 299 0
-329 -299 965 0
-966 331 0
-966 320 0
-331 -320 966 0
-967 332 0
-967 340 0
-332 -340 967 0
-968 333 0
-968 350 0
-333 -350 968 0
-969 334 0
-969 360 0
-334 -360 969 0
-970 335 0
-970 370 0
-335 -370 970 0
-214 -962 0
-214 -963 0
-214 -964 0
-214 -965 0
-214 -966 0
-214 -967 0
-214 -968 0
-214 -969 0
-214 -970 0
-330 214 962 963 964 965 966 967 968 969 970 0
-215 331 0
-971 326 0
-971 275 0
-326 -275 971 0
-972 327 0
-972 274 0
-327 -274 972 0
-973 328 0
-973 290 0
-328 -290 973 0
-974 329 0
-974 300 0
-329 -300 974 0
-975 330 0
-975 310 0
-330 -310 975 0
-976 332 0
-976 341 0
-332 -341 976 0
-977 333 0
-977 351 0
-333 -351 977 0
-978 334 0
-978 361 0
-334 -361 978 0
-979 335 0
-979 371 0
-335 -371 979 0
-215 -971 0
-215 -972 0
-215 -973 0
-215 -974 0
-215 -975 0
-215 -976 0
-215 -977 0
-215 -978 0
-215 -979 0
-331 215 971 972 973 974 975 976 977 978 979 0
-216 0
-217 332 0
-980 326 0
-980 279 0
-326 -279 980 0
-981 327 0
-981 278 0
-327 -278 981 0
-982 328 0
-982 292 0
-328 -292 982 0
-983 329 0
-983 302 0
-329 -302 983 0
-984 330 0
-984 312 0
-330 -312 984 0
-985 331 0
-985 322 0
-331 -322 985 0
-986 333 0
-986 353 0
-333 -353 986 0
-987 334 0
-987 363 0
-334 -363 987 0
-988 335 0
-988 373 0
-335 -373 988 0
-217 -980 0
-217 -981 0
-217 -982 0
-217 -983 0
-217 -984 0
-217 -985 0
-217 -986 0
-217 -987 0
-217 -988 0
-332 217 980 981 982 983 984 985 986 987 988 0
-218 333 0
-989 326 0
-989 281 0
-326 -281 989 0
-990 327 0
-990 280 0
-327 -280 990 0
-991 328 0
-991 293 0
-328 -293 991 0
-992 329 0
-992 303 0
-329 -303 992 0
-993 330 0
-993 313 0
-330 -313 993 0
-994 331 0
-994 323 0
-331 -323 994 0
-995 332 0
-995 343 0
-332 -343 995 0
-996 334 0
-996 364 0
-334 -364 996 0
-997 335 0
-997 374 0
-335 -374 997 0
-218 -989 0
-218 -990 0
-218 -991 0
-218 -992 0
-218 -993 0
-218 -994 0
-218 -995 0
-218 -996 0
-218 -997 0
-333 218 989 990 991 992 993 994 995 996 997 0
-219 334 0
-998 326 0
-998 283 0
-326 -283 998 0
-999 327 0
-999 282 0
-327 -282 999 0
-1000 328 0
-1000 294 0
-328 -294 1000 0
-1001 329 0
-1001 304 0
-329 -304 1001 0
-1002 330 0
-1002 314 0
-330 -314 1002 0
-1003 331 0
-1003 324 0
-331 -324 1003 0
-1004 332 0
-1004 344 0
-332 -344 1004 0
-1005 333 0
-1005 354 0
-333 -354 1005 0
-1006 335 0
-1006 375 0
-335 -375 1006 0
-219 -998 0
-219 -999 0
-219 -1000 0
-219 -1001 0
-219 -1002 0
-219 -1003 0
-219 -1004 0
-219 -1005 0
-219 -1006 0
-334 219 998 999 1000 1001 1002 1003 1004 1005 1006 0
-220 335 0
-1007 326 0
-1007 285 0
-326 -285 1007 0
-1008 327 0
-1008 284 0
-327 -284 1008 0
-1009 328 0
-1009 295 0
-328 -295 1009 0
-1010 329 0
-1010 305 0
-329 -305 1010 0
-1011 330 0
-1011 315 0
-330 -315 1011 0
-1012 331 0
-1012 325 0
-331 -325 1012 0
-1013 332 0
-1013 345 0
-332 -345 1013 0
-1014 333 0
-1014 355 0
-333 -355 1014 0
-1015 334 0
-1015 365 0
-334 -365 1015 0
-220 -1007 0
-220 -1008 0
-220 -1009 0
-220 -1010 0
-220 -1011 0
-220 -1012 0
-220 -1013 0
-220 -1014 0
-220 -1015 0
-335 220 1007 1008 1009 1010 1011 1012 1013 1014 1015 0
-221 336 0
-1016 337 0
-1016 267 0
-337 -267 1016 0
-1017 338 0
-1017 286 0
-338 -286 1017 0
-1018 339 0
-1018 296 0
-339 -296 1018 0
-1019 340 0
-1019 306 0
-340 -306 1019 0
-1020 341 0
-1020 316 0
-341 -316 1020 0
-1021 342 0
-1021 326 0
-342 -326 1021 0
-1022 343 0
-1022 346 0
-343 -346 1022 0
-1023 344 0
-1023 356 0
-344 -356 1023 0
-1024 345 0
-1024 366 0
-345 -366 1024 0
-221 -1016 0
-221 -1017 0
-221 -1018 0
-221 -1019 0
-221 -1020 0
-221 -1021 0
-221 -1022 0
-221 -1023 0
-221 -1024 0
-336 221 1016 1017 1018 1019 1020 1021 1022 1023 1024 0
-222 337 0
-1025 336 0
-1025 266 0
-336 -266 1025 0
-1026 338 0
-1026 287 0
-338 -287 1026 0
-1027 339 0
-1027 297 0
-339 -297 1027 0
-1028 340 0
-1028 307 0
-340 -307 1028 0
-1029 341 0
-1029 317 0
-341 -317 1029 0
-1030 342 0
-1030 327 0
-342 -327 1030 0
-1031 343 0
-1031 347 0
-343 -347 1031 0
-1032 344 0
-1032 357 0
-344 -357 1032 0
-1033 345 0
-1033 367 0
-345 -367 1033 0
-222 -1025 0
-222 -1026 0
-222 -1027 0
-222 -1028 0
-222 -1029 0
-222 -1030 0
-222 -1031 0
-222 -1032 0
-222 -1033 0
-337 222 1025 1026 1027 1028 1029 1030 1031 1032 1033 0
-223 338 0
-1034 336 0
-1034 269 0
-336 -269 1034 0
-1035 337 0
-1035 268 0
-337 -268 1035 0
-1036 339 0
-1036 298 0
-339 -298 1036 0
-1037 340 0
-1037 308 0
-340 -308 1037 0
-1038 341 0
-1038 318 0
-341 -318 1038 0
-1039 342 0
-1039 328 0
-342 -328 1039 0
-1040 343 0
-1040 348 0
-343 -348 1040 0
-1041 344 0
-1041 358 0
-344 -358 1041 0
-1042 345 0
-1042 368 0
-345 -368 1042 0
-223 -1034 0
-223 -1035 0
-223 -1036 0
-223 -1037 0
-223 -1038 0
-223 -1039 0
-223 -1040 0
-223 -1041 0
-223 -1042 0
-338 223 1034 1035 1036 1037 1038 1039 1040 1041 1042 0
-224 339 0
-1043 336 0
-1043 271 0
-336 -271 1043 0
-1044 337 0
-1044 270 0
-337 -270 1044 0
-1045 338 0
-1045 288 0
-338 -288 1045 0
-1046 340 0
-1046 309 0
-340 -309 1046 0
-1047 341 0
-1047 319 0
-341 -319 1047 0
-1048 342 0
-1048 329 0
-342 -329 1048 0
-1049 343 0
-1049 349 0
-343 -349 1049 0
-1050 344 0
-1050 359 0
-344 -359 1050 0
-1051 345 0
-1051 369 0
-345 -369 1051 0
-224 -1043 0
-224 -1044 0
-224 -1045 0
-224 -1046 0
-224 -1047 0
-224 -1048 0
-224 -1049 0
-224 -1050 0
-224 -1051 0
-339 224 1043 1044 1045 1046 1047 1048 1049 1050 1051 0
-225 340 0
-1052 336 0
-1052 273 0
-336 -273 1052 0
-1053 337 0
-1053 272 0
-337 -272 1053 0
-1054 338 0
-1054 289 0
-338 -289 1054 0
-1055 339 0
-1055 299 0
-339 -299 1055 0
-1056 341 0
-1056 320 0
-341 -320 1056 0
-1057 342 0
-1057 330 0
-342 -330 1057 0
-1058 343 0
-1058 350 0
-343 -350 1058 0
-1059 344 0
-1059 360 0
-344 -360 1059 0
-1060 345 0
-1060 370 0
-345 -370 1060 0
-225 -1052 0
-225 -1053 0
-225 -1054 0
-225 -1055 0
-225 -1056 0
-225 -1057 0
-225 -1058 0
-225 -1059 0
-225 -1060 0
-340 225 1052 1053 1054 1055 1056 1057 1058 1059 1060 0
-226 341 0
-1061 336 0
-1061 275 0
-336 -275 1061 0
-1062 337 0
-1062 274 0
-337 -274 1062 0
-1063 338 0
-1063 290 0
-338 -290 1063 0
-1064 339 0
-1064 300 0
-339 -300 1064 0
-1065 340 0
-1065 310 0
-340 -310 1065 0
-1066 342 0
-1066 331 0
-342 -331 1066 0
-1067 343 0
-1067 351 0
-343 -351 1067 0
-1068 344 0
-1068 361 0
-344 -361 1068 0
-1069 345 0
-1069 371 0
-345 -371 1069 0
-226 -1061 0
-226 -1062 0
-226 -1063 0
-226 -1064 0
-226 -1065 0
-226 -1066 0
-226 -1067 0
-226 -1068 0
-226 -1069 0
-341 226 1061 1062 1063 1064 1065 1066 1067 1068 1069 0
-227 342 0
-1070 336 0
-1070 277 0
-336 -277 1070 0
-1071 337 0
-1071 276 0
-337 -276 1071 0
-1072 338 0
-1072 291 0
-338 -291 1072 0
-1073 339 0
-1073 301 0
-339 -301 1073 0
-1074 340 0
-1074 311 0
-340 -311 1074 0
-1075 341 0
-1075 321 0
-341 -321 1075 0
-1076 343 0
-1076 352 0
-343 -352 1076 0
-1077 344 0
-1077 362 0
-344 -362 1077 0
-1078 345 0
-1078 372 0
-345 -372 1078 0
-227 -1070 0
-227 -1071 0
-227 -1072 0
-227 -1073 0
-227 -1074 0
-227 -1075 0
-227 -1076 0
-227 -1077 0
-227 -1078 0
-342 227 1070 1071 1072 1073 1074 1075 1076 1077 1078 0
-228 0
-229 343 0
-1079 336 0
-1079 281 0
-336 -281 1079 0
-1080 337 0
-1080 280 0
-337 -280 1080 0
-1081 338 0
-1081 293 0
-338 -293 1081 0
-1082 339 0
-1082 303 0
-339 -303 1082 0
-1083 340 0
-1083 313 0
-340 -313 1083 0
-1084 341 0
-1084 323 0
-341 -323 1084 0
-1085 342 0
-1085 333 0
-342 -333 1085 0
-1086 344 0
-1086 364 0
-344 -364 1086 0
-1087 345 0
-1087 374 0
-345 -374 1087 0
-229 -1079 0
-229 -1080 0
-229 -1081 0
-229 -1082 0
-229 -1083 0
-229 -1084 0
-229 -1085 0
-229 -1086 0
-229 -1087 0
-343 229 1079 1080 1081 1082 1083 1084 1085 1086 1087 0
-230 344 0
-1088 336 0
-1088 283 0
-336 -283 1088 0
-1089 337 0
-1089 282 0
-337 -282 1089 0
-1090 338 0
-1090 294 0
-338 -294 1090 0
-1091 339 0
-1091 304 0
-339 -304 1091 0
-1092 340 0
-1092 314 0
-340 -314 1092 0
-1093 341 0
-1093 324 0
-341 -324 1093 0
-1094 342 0
-1094 334 0
-342 -334 1094 0
-1095 343 0
-1095 354 0
-343 -354 1095 0
-1096 345 0
-1096 375 0
-345 -375 1096 0
-230 -1088 0
-230 -1089 0
-230 -1090 0
-230 -1091 0
-230 -1092 0
-230 -1093 0
-230 -1094 0
-230 -1095 0
-230 -1096 0
-344 230 1088 1089 1090 1091 1092 1093 1094 1095 1096 0
-231 345 0
-1097 336 0
-1097 285 0
-336 -285 1097 0
-1098 337 0
-1098 284 0
-337 -284 1098 0
-1099 338 0
-1099 295 0
-338 -295 1099 0
-1100 339 0
-1100 305 0
-339 -305 1100 0
-1101 340 0
-1101 315 0
-340 -315 1101 0
-1102 341 0
-1102 325 0
-341 -325 1102 0
-1103 342 0
-1103 335 0
-342 -335 1103 0
-1104 343 0
-1104 355 0
-343 -355 1104 0
-1105 344 0
-1105 365 0
-344 -365 1105 0
-231 -1097 0
-231 -1098 0
-231 -1099 0
-231 -1100 0
-231 -1101 0
-231 -1102 0
-231 -1103 0
-231 -1104 0
-231 -1105 0
-345 231 1097 1098 1099 1100 1101 1102 1103 1104 1105 0
-232 346 0
-1106 347 0
-1106 267 0
-347 -267 1106 0
-1107 348 0
-1107 286 0
-348 -286 1107 0
-1108 349 0
-1108 296 0
-349 -296 1108 0
-1109 350 0
-1109 306 0
-350 -306 1109 0
-1110 351 0
-1110 316 0
-351 -316 1110 0
-1111 352 0
-1111 326 0
-352 -326 1111 0
-1112 353 0
-1112 336 0
-353 -336 1112 0
-1113 354 0
-1113 356 0
-354 -356 1113 0
-1114 355 0
-1114 366 0
-355 -366 1114 0
-232 -1106 0
-232 -1107 0
-232 -1108 0
-232 -1109 0
-232 -1110 0
-232 -1111 0
-232 -1112 0
-232 -1113 0
-232 -1114 0
-346 232 1106 1107 1108 1109 1110 1111 1112 1113 1114 0
-233 347 0
-1115 346 0
-1115 266 0
-346 -266 1115 0
-1116 348 0
-1116 287 0
-348 -287 1116 0
-1117 349 0
-1117 297 0
-349 -297 1117 0
-1118 350 0
-1118 307 0
-350 -307 1118 0
-1119 351 0
-1119 317 0
-351 -317 1119 0
-1120 352 0
-1120 327 0
-352 -327 1120 0
-1121 353 0
-1121 337 0
-353 -337 1121 0
-1122 354 0
-1122 357 0
-354 -357 1122 0
-1123 355 0
-1123 367 0
-355 -367 1123 0
-233 -1115 0
-233 -1116 0
-233 -1117 0
-233 -1118 0
-233 -1119 0
-233 -1120 0
-233 -1121 0
-233 -1122 0
-233 -1123 0
-347 233 1115 1116 1117 1118 1119 1120 1121 1122 1123 0
-234 348 0
-1124 346 0
-1124 269 0
-346 -269 1124 0
-1125 347 0
-1125 268 0
-347 -268 1125 0
-1126 349 0
-1126 298 0
-349 -298 1126 0
-1127 350 0
-1127 308 0
-350 -308 1127 0
-1128 351 0
-1128 318 0
-351 -318 1128 0
-1129 352 0
-1129 328 0
-352 -328 1129 0
-1130 353 0
-1130 338 0
-353 -338 1130 0
-1131 354 0
-1131 358 0
-354 -358 1131 0
-1132 355 0
-1132 368 0
-355 -368 1132 0
-234 -1124 0
-234 -1125 0
-234 -1126 0
-234 -1127 0
-234 -1128 0
-234 -1129 0
-234 -1130 0
-234 -1131 0
-234 -1132 0
-348 234 1124 1125 1126 1127 1128 1129 1130 1131 1132 0
-235 349 0
-1133 346 0
-1133 271 0
-346 -271 1133 0
-1134 347 0
-1134 270 0
-347 -270 1134 0
-1135 348 0
-1135 288 0
-348 -288 1135 0
-1136 350 0
-1136 309 0
-350 -309 1136 0
-1137 351 0
-1137 319 0
-351 -319 1137 0
-1138 352 0
-1138 329 0
-352 -329 1138 0
-1139 353 0
-1139 339 0
-353 -339 1139 0
-1140 354 0
-1140 359 0
-354 -359 1140 0
-1141 355 0
-1141 369 0
-355 -369 1141 0
-235 -1133 0
-235 -1134 0
-235 -1135 0
-235 -1136 0
-235 -1137 0
-235 -1138 0
-235 -1139 0
-235 -1140 0
-235 -1141 0
-349 235 1133 1134 1135 1136 1137 1138 1139 1140 1141 0
-236 350 0
-1142 346 0
-1142 273 0
-346 -273 1142 0
-1143 347 0
-1143 272 0
-347 -272 1143 0
-1144 348 0
-1144 289 0
-348 -289 1144 0
-1145 349 0
-1145 299 0
-349 -299 1145 0
-1146 351 0
-1146 320 0
-351 -320 1146 0
-1147 352 0
-1147 330 0
-352 -330 1147 0
-1148 353 0
-1148 340 0
-353 -340 1148 0
-1149 354 0
-1149 360 0
-354 -360 1149 0
-1150 355 0
-1150 370 0
-355 -370 1150 0
-236 -1142 0
-236 -1143 0
-236 -1144 0
-236 -1145 0
-236 -1146 0
-236 -1147 0
-236 -1148 0
-236 -1149 0
-236 -1150 0
-350 236 1142 1143 1144 1145 1146 1147 1148 1149 1150 0
-237 351 0
-1151 346 0
-1151 275 0
-346 -275 1151 0
-1152 347 0
-1152 274 0
-347 -274 1152 0
-1153 348 0
-1153 290 0
-348 -290 1153 0
-1154 349 0
-1154 300 0
-349 -300 1154 0
-1155 350 0
-1155 310 0
-350 -310 1155 0
-1156 352 0
-1156 331 0
-352 -331 1156 0
-1157 353 0
-1157 341 0
-353 -341 1157 0
-1158 354 0
-1158 361 0
-354 -361 1158 0
-1159 355 0
-1159 371 0
-355 -371 1159 0
-237 -1151 0
-237 -1152 0
-237 -1153 0
-237 -1154 0
-237 -1155 0
-237 -1156 0
-237 -1157 0
-237 -1158 0
-237 -1159 0
-351 237 1151 1152 1153 1154 1155 1156 1157 1158 1159 0
-238 352 0
-1160 346 0
-1160 277 0
-346 -277 1160 0
-1161 347 0
-1161 276 0
-347 -276 1161 0
-1162 348 0
-1162 291 0
-348 -291 1162 0
-1163 349 0
-1163 301 0
-349 -301 1163 0
-1164 350 0
-1164 311 0
-350 -311 1164 0
-1165 351 0
-1165 321 0
-351 -321 1165 0
-1166 353 0
-1166 342 0
-353 -342 1166 0
-1167 354 0
-1167 362 0
-354 -362 1167 0
-1168 355 0
-1168 372 0
-355 -372 1168 0
-238 -1160 0
-238 -1161 0
-238 -1162 0
-238 -1163 0
-238 -1164 0
-238 -1165 0
-238 -1166 0
-238 -1167 0
-238 -1168 0
-352 238 1160 1161 1162 1163 1164 1165 1166 1167 1168 0
-239 353 0
-1169 346 0
-1169 279 0
-346 -279 1169 0
-1170 347 0
-1170 278 0
-347 -278 1170 0
-1171 348 0
-1171 292 0
-348 -292 1171 0
-1172 349 0
-1172 302 0
-349 -302 1172 0
-1173 350 0
-1173 312 0
-350 -312 1173 0
-1174 351 0
-1174 322 0
-351 -322 1174 0
-1175 352 0
-1175 332 0
-352 -332 1175 0
-1176 354 0
-1176 363 0
-354 -363 1176 0
-1177 355 0
-1177 373 0
-355 -373 1177 0
-239 -1169 0
-239 -1170 0
-239 -1171 0
-239 -1172 0
-239 -1173 0
-239 -1174 0
-239 -1175 0
-239 -1176 0
-239 -1177 0
-353 239 1169 1170 1171 1172 1173 1174 1175 1176 1177 0
-240 0
-241 354 0
-1178 346 0
-1178 283 0
-346 -283 1178 0
-1179 347 0
-1179 282 0
-347 -282 1179 0
-1180 348 0
-1180 294 0
-348 -294 1180 0
-1181 349 0
-1181 304 0
-349 -304 1181 0
-1182 350 0
-1182 314 0
-350 -314 1182 0
-1183 351 0
-1183 324 0
-351 -324 1183 0
-1184 352 0
-1184 334 0
-352 -334 1184 0
-1185 353 0
-1185 344 0
-353 -344 1185 0
-1186 355 0
-1186 375 0
-355 -375 1186 0
-241 -1178 0
-241 -1179 0
-241 -1180 0
-241 -1181 0
-241 -1182 0
-241 -1183 0
-241 -1184 0
-241 -1185 0
-241 -1186 0
-354 241 1178 1179 1180 1181 1182 1183 1184 1185 1186 0
-242 355 0
-1187 346 0
-1187 285 0
-346 -285 1187 0
-1188 347 0
-1188 284 0
-347 -284 1188 0
-1189 348 0
-1189 295 0
-348 -295 1189 0
-1190 349 0
-1190 305 0
-349 -305 1190 0
-1191 350 0
-1191 315 0
-350 -315 1191 0
-1192 351 0
-1192 325 0
-351 -325 1192 0
-1193 352 0
-1193 335 0
-352 -335 1193 0
-1194 353 0
-1194 345 0
-353 -345 1194 0
-1195 354 0
-1195 365 0
-354 -365 1195 0
-242 -1187 0
-242 -1188 0
-242 -1189 0
-242 -1190 0
-242 -1191 0
-242 -1192 0
-242 -1193 0
-242 -1194 0
-242 -1195 0
-355 242 1187 1188 1189 1190 1191 1192 1193 1194 1195 0
-243 356 0
-1196 357 0
-1196 267 0
-357 -267 1196 0
-1197 358 0
-1197 286 0
-358 -286 1197 0
-1198 359 0
-1198 296 0
-359 -296 1198 0
-1199 360 0
-1199 306 0
-360 -306 1199 0
-1200 361 0
-1200 316 0
-361 -316 1200 0
-1201 362 0
-1201 326 0
-362 -326 1201 0
-1202 363 0
-1202 336 0
-363 -336 1202 0
-1203 364 0
-1203 346 0
-364 -346 1203 0
-1204 365 0
-1204 366 0
-365 -366 1204 0
-243 -1196 0
-243 -1197 0
-243 -1198 0
-243 -1199 0
-243 -1200 0
-243 -1201 0
-243 -1202 0
-243 -1203 0
-243 -1204 0
-356 243 1196 1197 1198 1199 1200 1201 1202 1203 1204 0
-244 357 0
-1205 356 0
-1205 266 0
-356 -266 1205 0
-1206 358 0
-1206 287 0
-358 -287 1206 0
-1207 359 0
-1207 297 0
-359 -297 1207 0
-1208 360 0
-1208 307 0
-360 -307 1208 0
-1209 361 0
-1209 317 0
-361 -317 1209 0
-1210 362 0
-1210 327 0
-362 -327 1210 0
-1211 363 0
-1211 337 0
-363 -337 1211 0
-1212 364 0
-1212 347 0
-364 -347 1212 0
-1213 365 0
-1213 367 0
-365 -367 1213 0
-244 -1205 0
-244 -1206 0
-244 -1207 0
-244 -1208 0
-244 -1209 0
-244 -1210 0
-244 -1211 0
-244 -1212 0
-244 -1213 0
-357 244 1205 1206 1207 1208 1209 1210 1211 1212 1213 0
-245 358 0
-1214 356 0
-1214 269 0
-356 -269 1214 0
-1215 357 0
-1215 268 0
-357 -268 1215 0
-1216 359 0
-1216 298 0
-359 -298 1216 0
-1217 360 0
-1217 308 0
-360 -308 1217 0
-1218 361 0
-1218 318 0
-361 -318 1218 0
-1219 362 0
-1219 328 0
-362 -328 1219 0
-1220 363 0
-1220 338 0
-363 -338 1220 0
-1221 364 0
-1221 348 0
-364 -348 1221 0
-1222 365 0
-1222 368 0
-365 -368 1222 0
-245 -1214 0
-245 -1215 0
-245 -1216 0
-245 -1217 0
-245 -1218 0
-245 -1219 0
-245 -1220 0
-245 -1221 0
-245 -1222 0
-358 245 1214 1215 1216 1217 1218 1219 1220 1221 1222 0
-246 359 0
-1223 356 0
-1223 271 0
-356 -271 1223 0
-1224 357 0
-1224 270 0
-357 -270 1224 0
-1225 358 0
-1225 288 0
-358 -288 1225 0
-1226 360 0
-1226 309 0
-360 -309 1226 0
-1227 361 0
-1227 319 0
-361 -319 1227 0
-1228 362 0
-1228 329 0
-362 -329 1228 0
-1229 363 0
-1229 339 0
-363 -339 1229 0
-1230 364 0
-1230 349 0
-364 -349 1230 0
-1231 365 0
-1231 369 0
-365 -369 1231 0
-246 -1223 0
-246 -1224 0
-246 -1225 0
-246 -1226 0
-246 -1227 0
-246 -1228 0
-246 -1229 0
-246 -1230 0
-246 -1231 0
-359 246 1223 1224 1225 1226 1227 1228 1229 1230 1231 0
-247 360 0
-1232 356 0
-1232 273 0
-356 -273 1232 0
-1233 357 0
-1233 272 0
-357 -272 1233 0
-1234 358 0
-1234 289 0
-358 -289 1234 0
-1235 359 0
-1235 299 0
-359 -299 1235 0
-1236 361 0
-1236 320 0
-361 -320 1236 0
-1237 362 0
-1237 330 0
-362 -330 1237 0
-1238 363 0
-1238 340 0
-363 -340 1238 0
-1239 364 0
-1239 350 0
-364 -350 1239 0
-1240 365 0
-1240 370 0
-365 -370 1240 0
-247 -1232 0
-247 -1233 0
-247 -1234 0
-247 -1235 0
-247 -1236 0
-247 -1237 0
-247 -1238 0
-247 -1239 0
-247 -1240 0
-360 247 1232 1233 1234 1235 1236 1237 1238 1239 1240 0
-248 361 0
-1241 356 0
-1241 275 0
-356 -275 1241 0
-1242 357 0
-1242 274 0
-357 -274 1242 0
-1243 358 0
-1243 290 0
-358 -290 1243 0
-1244 359 0
-1244 300 0
-359 -300 1244 0
-1245 360 0
-1245 310 0
-360 -310 1245 0
-1246 362 0
-1246 331 0
-362 -331 1246 0
-1247 363 0
-1247 341 0
-363 -341 1247 0
-1248 364 0
-1248 351 0
-364 -351 1248 0
-1249 365 0
-1249 371 0
-365 -371 1249 0
-248 -1241 0
-248 -1242 0
-248 -1243 0
-248 -1244 0
-248 -1245 0
-248 -1246 0
-248 -1247 0
-248 -1248 0
-248 -1249 0
-361 248 1241 1242 1243 1244 1245 1246 1247 1248 1249 0
-249 362 0
-1250 356 0
-1250 277 0
-356 -277 1250 0
-1251 357 0
-1251 276 0
-357 -276 1251 0
-1252 358 0
-1252 291 0
-358 -291 1252 0
-1253 359 0
-1253 301 0
-359 -301 1253 0
-1254 360 0
-1254 311 0
-360 -311 1254 0
-1255 361 0
-1255 321 0
-361 -321 1255 0
-1256 363 0
-1256 342 0
-363 -342 1256 0
-1257 364 0
-1257 352 0
-364 -352 1257 0
-1258 365 0
-1258 372 0
-365 -372 1258 0
-249 -1250 0
-249 -1251 0
-249 -1252 0
-249 -1253 0
-249 -1254 0
-249 -1255 0
-249 -1256 0
-249 -1257 0
-249 -1258 0
-362 249 1250 1251 1252 1253 1254 1255 1256 1257 1258 0
-250 363 0
-1259 356 0
-1259 279 0
-356 -279 1259 0
-1260 357 0
-1260 278 0
-357 -278 1260 0
-1261 358 0
-1261 292 0
-358 -292 1261 0
-1262 359 0
-1262 302 0
-359 -302 1262 0
-1263 360 0
-1263 312 0
-360 -312 1263 0
-1264 361 0
-1264 322 0
-361 -322 1264 0
-1265 362 0
-1265 332 0
-362 -332 1265 0
-1266 364 0
-1266 353 0
-364 -353 1266 0
-1267 365 0
-1267 373 0
-365 -373 1267 0
-250 -1259 0
-250 -1260 0
-250 -1261 0
-250 -1262 0
-250 -1263 0
-250 -1264 0
-250 -1265 0
-250 -1266 0
-250 -1267 0
-363 250 1259 1260 1261 1262 1263 1264 1265 1266 1267 0
-251 364 0
-1268 356 0
-1268 281 0
-356 -281 1268 0
-1269 357 0
-1269 280 0
-357 -280 1269 0
-1270 358 0
-1270 293 0
-358 -293 1270 0
-1271 359 0
-1271 303 0
-359 -303 1271 0
-1272 360 0
-1272 313 0
-360 -313 1272 0
-1273 361 0
-1273 323 0
-361 -323 1273 0
-1274 362 0
-1274 333 0
-362 -333 1274 0
-1275 363 0
-1275 343 0
-363 -343 1275 0
-1276 365 0
-1276 374 0
-365 -374 1276 0
-251 -1268 0
-251 -1269 0
-251 -1270 0
-251 -1271 0
-251 -1272 0
-251 -1273 0
-251 -1274 0
-251 -1275 0
-251 -1276 0
-364 251 1268 1269 1270 1271 1272 1273 1274 1275 1276 0
-252 0
-253 365 0
-1277 356 0
-1277 285 0
-356 -285 1277 0
-1278 357 0
-1278 284 0
-357 -284 1278 0
-1279 358 0
-1279 295 0
-358 -295 1279 0
-1280 359 0
-1280 305 0
-359 -305 1280 0
-1281 360 0
-1281 315 0
-360 -315 1281 0
-1282 361 0
-1282 325 0
-361 -325 1282 0
-1283 362 0
-1283 335 0
-362 -335 1283 0
-1284 363 0
-1284 345 0
-363 -345 1284 0
-1285 364 0
-1285 355 0
-364 -355 1285 0
-253 -1277 0
-253 -1278 0
-253 -1279 0
-253 -1280 0
-253 -1281 0
-253 -1282 0
-253 -1283 0
-253 -1284 0
-253 -1285 0
-365 253 1277 1278 1279 1280 1281 1282 1283 1284 1285 0
-254 366 0
-1286 367 0
-1286 267 0
-367 -267 1286 0
-1287 368 0
-1287 286 0
-368 -286 1287 0
-1288 369 0
-1288 296 0
-369 -296 1288 0
-1289 370 0
-1289 306 0
-370 -306 1289 0
-1290 371 0
-1290 316 0
-371 -316 1290 0
-1291 372 0
-1291 326 0
-372 -326 1291 0
-1292 373 0
-1292 336 0
-373 -336 1292 0
-1293 374 0
-1293 346 0
-374 -346 1293 0
-1294 375 0
-1294 356 0
-375 -356 1294 0
-254 -1286 0
-254 -1287 0
-254 -1288 0
-254 -1289 0
-254 -1290 0
-254 -1291 0
-254 -1292 0
-254 -1293 0
-254 -1294 0
-366 254 1286 1287 1288 1289 1290 1291 1292 1293 1294 0
-255 367 0
-1295 366 0
-1295 266 0
-366 -266 1295 0
-1296 368 0
-1296 287 0
-368 -287 1296 0
-1297 369 0
-1297 297 0
-369 -297 1297 0
-1298 370 0
-1298 307 0
-370 -307 1298 0
-1299 371 0
-1299 317 0
-371 -317 1299 0
-1300 372 0
-1300 327 0
-372 -327 1300 0
-1301 373 0
-1301 337 0
-373 -337 1301 0
-1302 374 0
-1302 347 0
-374 -347 1302 0
-1303 375 0
-1303 357 0
-375 -357 1303 0
-255 -1295 0
-255 -1296 0
-255 -1297 0
-255 -1298 0
-255 -1299 0
-255 -1300 0
-255 -1301 0
-255 -1302 0
-255 -1303 0
-367 255 1295 1296 1297 1298 1299 1300 1301 1302 1303 0
-256 368 0
-1304 366 0
-1304 269 0
-366 -269 1304 0
-1305 367 0
-1305 268 0
-367 -268 1305 0
-1306 369 0
-1306 298 0
-369 -298 1306 0
-1307 370 0
-1307 308 0
-370 -308 1307 0
-1308 371 0
-1308 318 0
-371 -318 1308 0
-1309 372 0
-1309 328 0
-372 -328 1309 0
-1310 373 0
-1310 338 0
-373 -338 1310 0
-1311 374 0
-1311 348 0
-374 -348 1311 0
-1312 375 0
-1312 358 0
-375 -358 1312 0
-256 -1304 0
-256 -1305 0
-256 -1306 0
-256 -1307 0
-256 -1308 0
-256 -1309 0
-256 -1310 0
-256 -1311 0
-256 -1312 0
-368 256 1304 1305 1306 1307 1308 1309 1310 1311 1312 0
-257 369 0
-1313 366 0
-1313 271 0
-366 -271 1313 0
-1314 367 0
-1314 270 0
-367 -270 1314 0
-1315 368 0
-1315 288 0
-368 -288 1315 0
-1316 370 0
-1316 309 0
-370 -309 1316 0
-1317 371 0
-1317 319 0
-371 -319 1317 0
-1318 372 0
-1318 329 0
-372 -329 1318 0
-1319 373 0
-1319 339 0
-373 -339 1319 0
-1320 374 0
-1320 349 0
-374 -349 1320 0
-1321 375 0
-1321 359 0
-375 -359 1321 0
-257 -1313 0
-257 -1314 0
-257 -1315 0
-257 -1316 0
-257 -1317 0
-257 -1318 0
-257 -1319 0
-257 -1320 0
-257 -1321 0
-369 257 1313 1314 1315 1316 1317 1318 1319 1320 1321 0
-258 370 0
-1322 366 0
-1322 273 0
-366 -273 1322 0
-1323 367 0
-1323 272 0
-367 -272 1323 0
-1324 368 0
-1324 289 0
-368 -289 1324 0
-1325 369 0
-1325 299 0
-369 -299 1325 0
-1326 371 0
-1326 320 0
-371 -320 1326 0
-1327 372 0
-1327 330 0
-372 -330 1327 0
-1328 373 0
-1328 340 0
-373 -340 1328 0
-1329 374 0
-1329 350 0
-374 -350 1329 0
-1330 375 0
-1330 360 0
-375 -360 1330 0
-258 -1322 0
-258 -1323 0
-258 -1324 0
-258 -1325 0
-258 -1326 0
-258 -1327 0
-258 -1328 0
-258 -1329 0
-258 -1330 0
-370 258 1322 1323 1324 1325 1326 1327 1328 1329 1330 0
-259 371 0
-1331 366 0
-1331 275 0
-366 -275 1331 0
-1332 367 0
-1332 274 0
-367 -274 1332 0
-1333 368 0
-1333 290 0
-368 -290 1333 0
-1334 369 0
-1334 300 0
-369 -300 1334 0
-1335 370 0
-1335 310 0
-370 -310 1335 0
-1336 372 0
-1336 331 0
-372 -331 1336 0
-1337 373 0
-1337 341 0
-373 -341 1337 0
-1338 374 0
-1338 351 0
-374 -351 1338 0
-1339 375 0
-1339 361 0
-375 -361 1339 0
-259 -1331 0
-259 -1332 0
-259 -1333 0
-259 -1334 0
-259 -1335 0
-259 -1336 0
-259 -1337 0
-259 -1338 0
-259 -1339 0
-371 259 1331 1332 1333 1334 1335 1336 1337 1338 1339 0
-260 372 0
-1340 366 0
-1340 277 0
-366 -277 1340 0
-1341 367 0
-1341 276 0
-367 -276 1341 0
-1342 368 0
-1342 291 0
-368 -291 1342 0
-1343 369 0
-1343 301 0
-369 -301 1343 0
-1344 370 0
-1344 311 0
-370 -311 1344 0
-1345 371 0
-1345 321 0
-371 -321 1345 0
-1346 373 0
-1346 342 0
-373 -342 1346 0
-1347 374 0
-1347 352 0
-374 -352 1347 0
-1348 375 0
-1348 362 0
-375 -362 1348 0
-260 -1340 0
-260 -1341 0
-260 -1342 0
-260 -1343 0
-260 -1344 0
-260 -1345 0
-260 -1346 0
-260 -1347 0
-260 -1348 0
-372 260 1340 1341 1342 1343 1344 1345 1346 1347 1348 0
-261 373 0
-1349 366 0
-1349 279 0
-366 -279 1349 0
-1350 367 0
-1350 278 0
-367 -278 1350 0
-1351 368 0
-1351 292 0
-368 -292 1351 0
-1352 369 0
-1352 302 0
-369 -302 1352 0
-1353 370 0
-1353 312 0
-370 -312 1353 0
-1354 371 0
-1354 322 0
-371 -322 1354 0
-1355 372 0
-1355 332 0
-372 -332 1355 0
-1356 374 0
-1356 353 0
-374 -353 1356 0
-1357 375 0
-1357 363 0
-375 -363 1357 0
-261 -1349 0
-261 -1350 0
-261 -1351 0
-261 -1352 0
-261 -1353 0
-261 -1354 0
-261 -1355 0
-261 -1356 0
-261 -1357 0
-373 261 1349 1350 1351 1352 1353 1354 1355 1356 1357 0
-262 374 0
-1358 366 0
-1358 281 0
-366 -281 1358 0
-1359 367 0
-1359 280 0
-367 -280 1359 0
-1360 368 0
-1360 293 0
-368 -293 1360 0
-1361 369 0
-1361 303 0
-369 -303 1361 0
-1362 370 0
-1362 313 0
-370 -313 1362 0
-1363 371 0
-1363 323 0
-371 -323 1363 0
-1364 372 0
-1364 333 0
-372 -333 1364 0
-1365 373 0
-1365 343 0
-373 -343 1365 0
-1366 375 0
-1366 364 0
-375 -364 1366 0
-262 -1358 0
-262 -1359 0
-262 -1360 0
-262 -1361 0
-262 -1362 0
-262 -1363 0
-262 -1364 0
-262 -1365 0
-262 -1366 0
-374 262 1358 1359 1360 1361 1362 1363 1364 1365 1366 0
-263 375 0
-1367 366 0
-1367 283 0
-366 -283 1367 0
-1368 367 0
-1368 282 0
-367 -282 1368 0
-1369 368 0
-1369 294 0
-368 -294 1369 0
-1370 369 0
-1370 304 0
-369 -304 1370 0
-1371 370 0
-1371 314 0
-370 -314 1371 0
-1372 371 0
-1372 324 0
-371 -324 1372 0
-1373 372 0
-1373 334 0
-372 -334 1373 0
-1374 373 0
-1374 344 0
-373 -344 1374 0
-1375 374 0
-1375 354 0
-374 -354 1375 0
-263 -1367 0
-263 -1368 0
-263 -1369 0
-263 -1370 0
-263 -1371 0
-263 -1372 0
-263 -1373 0
-263 -1374 0
-263 -1375 0
-375 263 1367 1368 1369 1370 1371 1372 1373 1374 1375 0
-264 0
