p cnf 48 99
1 -2 -3 0
1 -4 -5 0
1 -6 -7 0
8 -9 -10 0
8 -11 -12 0
8 -13 -14 0
15 -16 -17 0
15 -18 -19 0
15 -20 -21 0
22 -23 -1 0
22 -24 -8 0
22 -25 -15 0
26 -27 -1 0
26 -28 -8 0
26 -29 -15 0
30 -31 -1 0
30 -32 -8 0
30 -33 -15 0
2 0
9 4 0
-9 -4 0
-9 -18 16 0
16 6 0
-16 -6 0
-16 -13 9 0
11 0
4 9 0
-4 -9 0
-4 -16 18 0
18 13 0
-18 -13 0
-18 -6 4 0
20 0
6 16 0
-6 -16 0
-6 -9 13 0
13 18 0
-13 -18 0
-13 -4 6 0
34 0
35 36 0
-35 -36 0
-35 -37 38 0
38 39 0
-38 -39 0
-38 -40 35 0
41 0
36 35 0
-36 -35 0
-36 -38 37 0
37 40 0
-37 -40 0
-37 -39 36 0
42 0
39 38 0
-39 -38 0
-39 -35 40 0
40 37 0
-40 -37 0
-40 -36 39 0
-23 0
-27 35 0
-43 38 0
-43 40 0
-38 -40 43 0
-27 -43 0
-35 27 43 0
-31 38 0
-44 35 0
-44 37 0
-35 -37 44 0
-31 -44 0
-38 31 44 0
-24 36 0
-45 37 0
-45 39 0
-37 -39 45 0
-24 -45 0
-36 24 45 0
-28 0
-32 37 0
-46 36 0
-46 38 0
-36 -38 46 0
-32 -46 0
-37 32 46 0
-25 39 0
-47 40 0
-47 36 0
-40 -36 47 0
-25 -47 0
-39 25 47 0
-29 40 0
-48 39 0
-48 35 0
-39 -35 48 0
-29 -48 0
-40 29 48 0
-33 0
