p cnf 96 260
1 -2 -3 0
1 -4 -5 0
1 -6 -7 0
1 -8 -9 0
10 -11 -12 0
10 -13 -14 0
10 -15 -16 0
10 -17 -18 0
19 -20 -21 0
19 -22 -23 0
19 -24 -25 0
19 -26 -27 0
28 -29 -30 0
28 -31 -32 0
28 -33 -34 0
28 -35 -36 0
37 -38 -1 0
37 -39 -10 0
37 -40 -19 0
37 -41 -28 0
42 -43 -1 0
42 -44 -10 0
42 -45 -19 0
42 -46 -28 0
47 -48 -1 0
47 -49 -10 0
47 -50 -19 0
47 -51 -28 0
52 -53 -1 0
52 -54 -10 0
52 -55 -19 0
52 -56 -28 0
2 0
11 4 0
-11 -4 0
-11 -22 20 0
-11 -31 29 0
20 6 0
-20 -6 0
-20 -15 11 0
-20 -33 29 0
29 8 0
-29 -8 0
-29 -17 11 0
-29 -26 20 0
13 0
4 11 0
-4 -11 0
-4 -20 22 0
-4 -29 31 0
22 15 0
-22 -15 0
-22 -6 4 0
-22 -33 31 0
31 17 0
-31 -17 0
-31 -8 4 0
-31 -26 22 0
24 0
6 20 0
-6 -20 0
-6 -11 15 0
-6 -29 33 0
15 22 0
-15 -22 0
-15 -4 6 0
-15 -31 33 0
33 26 0
-33 -26 0
-33 -8 6 0
-33 -17 15 0
35 0
8 29 0
-8 -29 0
-8 -11 17 0
-8 -20 26 0
17 31 0
-17 -31 0
-17 -4 8 0
-17 -22 26 0
26 33 0
-26 -33 0
-26 -6 8 0
-26 -15 17 0
57 0
58 59 0
-58 -59 0
-58 -60 61 0
-58 -62 63 0
61 64 0
-61 -64 0
-61 -65 58 0
-61 -66 63 0
63 67 0
-63 -67 0
-63 -68 58 0
-63 -69 61 0
70 0
59 58 0
-59 -58 0
-59 -61 60 0
-59 -63 62 0
60 65 0
-60 -65 0
-60 -64 59 0
-60 -66 62 0
62 68 0
-62 -68 0
-62 -67 59 0
-62 -69 60 0
71 0
64 61 0
-64 -61 0
-64 -58 65 0
-64 -63 66 0
65 60 0
-65 -60 0
-65 -59 64 0
-65 -62 66 0
66 69 0
-66 -69 0
-66 -67 64 0
-66 -68 65 0
72 0
67 63 0
-67 -63 0
-67 -58 68 0
-67 -61 69 0
68 62 0
-68 -62 0
-68 -59 67 0
-68 -60 69 0
69 66 0
-69 -66 0
-69 -64 67 0
-69 -65 68 0
-38 0
-43 58 0
-73 61 0
-73 65 0
-61 -65 73 0
-74 63 0
-74 68 0
-63 -68 74 0
-43 -73 0
-43 -74 0
-58 43 73 74 0
-48 61 0
-75 58 0
-75 60 0
-58 -60 75 0
-76 63 0
-76 69 0
-63 -69 76 0
-48 -75 0
-48 -76 0
-61 48 75 76 0
-53 63 0
-77 58 0
-77 62 0
-58 -62 77 0
-78 61 0
-78 66 0
-61 -66 78 0
-53 -77 0
-53 -78 0
-63 53 77 78 0
-39 59 0
-79 60 0
-79 64 0
-60 -64 79 0
-80 62 0
-80 67 0
-62 -67 80 0
-39 -79 0
-39 -80 0
-59 39 79 80 0
-44 0
-49 60 0
-81 59 0
-81 61 0
-59 -61 81 0
-82 62 0
-82 69 0
-62 -69 82 0
-49 -81 0
-49 -82 0
-60 49 81 82 0
-54 62 0
-83 59 0
-83 63 0
-59 -63 83 0
-84 60 0
-84 66 0
-60 -66 84 0
-54 -83 0
-54 -84 0
-62 54 83 84 0
-40 64 0
-85 65 0
-85 59 0
-65 -59 85 0
-86 66 0
-86 67 0
-66 -67 86 0
-40 -85 0
-40 -86 0
-64 40 85 86 0
-45 65 0
-87 64 0
-87 58 0
-64 -58 87 0
-88 66 0
-88 68 0
-66 -68 88 0
-45 -87 0
-45 -88 0
-65 45 87 88 0
-50 0
-55 66 0
-89 64 0
-89 63 0
-64 -63 89 0
-90 65 0
-90 62 0
-65 -62 90 0
-55 -89 0
-55 -90 0
-66 55 89 90 0
-41 67 0
-91 68 0
-91 59 0
-68 -59 91 0
-92 69 0
-92 64 0
-69 -64 92 0
-41 -91 0
-41 -92 0
-67 41 91 92 0
-46 68 0
-93 67 0
-93 58 0
-67 -58 93 0
-94 69 0
-94 65 0
-69 -65 94 0
-46 -93 0
-46 -94 0
-68 46 93 94 0
-51 69 0
-95 67 0
-95 61 0
-67 -61 95 0
-96 68 0
-96 60 0
-68 -60 96 0
-51 -95 0
-51 -96 0
-69 51 95 96 0
-56 0
