p cnf 170 545
1 -2 -3 0
1 -4 -5 0
1 -6 -7 0
1 -8 -9 0
1 -10 -11 0
12 -13 -14 0
12 -15 -16 0
12 -17 -18 0
12 -19 -20 0
12 -21 -22 0
23 -24 -25 0
23 -26 -27 0
23 -28 -29 0
23 -30 -31 0
23 -32 -33 0
34 -35 -36 0
34 -37 -38 0
34 -39 -40 0
34 -41 -42 0
34 -43 -44 0
45 -46 -47 0
45 -48 -49 0
45 -50 -51 0
45 -52 -53 0
45 -54 -55 0
56 -57 -1 0
56 -58 -12 0
56 -59 -23 0
56 -60 -34 0
56 -61 -45 0
62 -63 -1 0
62 -64 -12 0
62 -65 -23 0
62 -66 -34 0
62 -67 -45 0
68 -69 -1 0
68 -70 -12 0
68 -71 -23 0
68 -72 -34 0
68 -73 -45 0
74 -75 -1 0
74 -76 -12 0
74 -77 -23 0
74 -78 -34 0
74 -79 -45 0
80 -81 -1 0
80 -82 -12 0
80 -83 -23 0
80 -84 -34 0
80 -85 -45 0
2 0
13 4 0
-13 -4 0
-13 -26 24 0
-13 -37 35 0
-13 -48 46 0
24 6 0
-24 -6 0
-24 -17 13 0
-24 -39 35 0
-24 -50 46 0
35 8 0
-35 -8 0
-35 -19 13 0
-35 -30 24 0
-35 -52 46 0
46 10 0
-46 -10 0
-46 -21 13 0
-46 -32 24 0
-46 -43 35 0
15 0
4 13 0
-4 -13 0
-4 -24 26 0
-4 -35 37 0
-4 -46 48 0
26 17 0
-26 -17 0
-26 -6 4 0
-26 -39 37 0
-26 -50 48 0
37 19 0
-37 -19 0
-37 -8 4 0
-37 -30 26 0
-37 -52 48 0
48 21 0
-48 -21 0
-48 -10 4 0
-48 -32 26 0
-48 -43 37 0
28 0
6 24 0
-6 -24 0
-6 -13 17 0
-6 -35 39 0
-6 -46 50 0
17 26 0
-17 -26 0
-17 -4 6 0
-17 -37 39 0
-17 -48 50 0
39 30 0
-39 -30 0
-39 -8 6 0
-39 -19 17 0
-39 -52 50 0
50 32 0
-50 -32 0
-50 -10 6 0
-50 -21 17 0
-50 -43 39 0
41 0
8 35 0
-8 -35 0
-8 -13 19 0
-8 -24 30 0
-8 -46 52 0
19 37 0
-19 -37 0
-19 -4 8 0
-19 -26 30 0
-19 -48 52 0
30 39 0
-30 -39 0
-30 -6 8 0
-30 -17 19 0
-30 -50 52 0
52 43 0
-52 -43 0
-52 -10 8 0
-52 -21 19 0
-52 -32 30 0
54 0
10 46 0
-10 -46 0
-10 -13 21 0
-10 -24 32 0
-10 -35 43 0
21 48 0
-21 -48 0
-21 -4 10 0
-21 -26 32 0
-21 -37 43 0
32 50 0
-32 -50 0
-32 -6 10 0
-32 -17 21 0
-32 -39 43 0
43 52 0
-43 -52 0
-43 -8 10 0
-43 -19 21 0
-43 -30 32 0
86 0
87 88 0
-87 -88 0
-87 -89 90 0
-87 -91 92 0
-87 -93 94 0
90 95 0
-90 -95 0
-90 -96 87 0
-90 -97 92 0
-90 -98 94 0
92 99 0
-92 -99 0
-92 -100 87 0
-92 -101 90 0
-92 -102 94 0
94 103 0
-94 -103 0
-94 -104 87 0
-94 -105 90 0
-94 -106 92 0
107 0
88 87 0
-88 -87 0
-88 -90 89 0
-88 -92 91 0
-88 -94 93 0
89 96 0
-89 -96 0
-89 -95 88 0
-89 -97 91 0
-89 -98 93 0
91 100 0
-91 -100 0
-91 -99 88 0
-91 -101 89 0
-91 -102 93 0
93 104 0
-93 -104 0
-93 -103 88 0
-93 -105 89 0
-93 -106 91 0
108 0
95 90 0
-95 -90 0
-95 -87 96 0
-95 -92 97 0
-95 -94 98 0
96 89 0
-96 -89 0
-96 -88 95 0
-96 -91 97 0
-96 -93 98 0
97 101 0
-97 -101 0
-97 -99 95 0
-97 -100 96 0
-97 -102 98 0
98 105 0
-98 -105 0
-98 -103 95 0
-98 -104 96 0
-98 -106 97 0
109 0
99 92 0
-99 -92 0
-99 -87 100 0
-99 -90 101 0
-99 -94 102 0
100 91 0
-100 -91 0
-100 -88 99 0
-100 -89 101 0
-100 -93 102 0
101 97 0
-101 -97 0
-101 -95 99 0
-101 -96 100 0
-101 -98 102 0
102 106 0
-102 -106 0
-102 -103 99 0
-102 -104 100 0
-102 -105 101 0
110 0
103 94 0
-103 -94 0
-103 -87 104 0
-103 -90 105 0
-103 -92 106 0
104 93 0
-104 -93 0
-104 -88 103 0
-104 -89 105 0
-104 -91 106 0
105 98 0
-105 -98 0
-105 -95 103 0
-105 -96 104 0
-105 -97 106 0
106 102 0
-106 -102 0
-106 -99 103 0
-106 -100 104 0
-106 -101 105 0
-57 0
-63 87 0
-111 90 0
-111 96 0
-90 -96 111 0
-112 92 0
-112 100 0
-92 -100 112 0
-113 94 0
-113 104 0
-94 -104 113 0
-63 -111 0
-63 -112 0
-63 -113 0
-87 63 111 112 113 0
-69 90 0
-114 87 0
-114 89 0
-87 -89 114 0
-115 92 0
-115 101 0
-92 -101 115 0
-116 94 0
-116 105 0
-94 -105 116 0
-69 -114 0
-69 -115 0
-69 -116 0
-90 69 114 115 116 0
-75 92 0
-117 87 0
-117 91 0
-87 -91 117 0
-118 90 0
-118 97 0
-90 -97 118 0
-119 94 0
-119 106 0
-94 -106 119 0
-75 -117 0
-75 -118 0
-75 -119 0
-92 75 117 118 119 0
-81 94 0
-120 87 0
-120 93 0
-87 -93 120 0
-121 90 0
-121 98 0
-90 -98 121 0
-122 92 0
-122 102 0
-92 -102 122 0
-81 -120 0
-81 -121 0
-81 -122 0
-94 81 120 121 122 0
-58 88 0
-123 89 0
-123 95 0
-89 -95 123 0
-124 91 0
-124 99 0
-91 -99 124 0
-125 93 0
-125 103 0
-93 -103 125 0
-58 -123 0
-58 -124 0
-58 -125 0
-88 58 123 124 125 0
-64 0
-70 89 0
-126 88 0
-126 90 0
-88 -90 126 0
-127 91 0
-127 101 0
-91 -101 127 0
-128 93 0
-128 105 0
-93 -105 128 0
-70 -126 0
-70 -127 0
-70 -128 0
-89 70 126 127 128 0
-76 91 0
-129 88 0
-129 92 0
-88 -92 129 0
-130 89 0
-130 97 0
-89 -97 130 0
-131 93 0
-131 106 0
-93 -106 131 0
-76 -129 0
-76 -130 0
-76 -131 0
-91 76 129 130 131 0
-82 93 0
-132 88 0
-132 94 0
-88 -94 132 0
-133 89 0
-133 98 0
-89 -98 133 0
-134 91 0
-134 102 0
-91 -102 134 0
-82 -132 0
-82 -133 0
-82 -134 0
-93 82 132 133 134 0
-59 95 0
-135 96 0
-135 88 0
-96 -88 135 0
-136 97 0
-136 99 0
-97 -99 136 0
-137 98 0
-137 103 0
-98 -103 137 0
-59 -135 0
-59 -136 0
-59 -137 0
-95 59 135 136 137 0
-65 96 0
-138 95 0
-138 87 0
-95 -87 138 0
-139 97 0
-139 100 0
-97 -100 139 0
-140 98 0
-140 104 0
-98 -104 140 0
-65 -138 0
-65 -139 0
-65 -140 0
-96 65 138 139 140 0
-71 0
-77 97 0
-141 95 0
-141 92 0
-95 -92 141 0
-142 96 0
-142 91 0
-96 -91 142 0
-143 98 0
-143 106 0
-98 -106 143 0
-77 -141 0
-77 -142 0
-77 -143 0
-97 77 141 142 143 0
-83 98 0
-144 95 0
-144 94 0
-95 -94 144 0
-145 96 0
-145 93 0
-96 -93 145 0
-146 97 0
-146 102 0
-97 -102 146 0
-83 -144 0
-83 -145 0
-83 -146 0
-98 83 144 145 146 0
-60 99 0
-147 100 0
-147 88 0
-100 -88 147 0
-148 101 0
-148 95 0
-101 -95 148 0
-149 102 0
-149 103 0
-102 -103 149 0
-60 -147 0
-60 -148 0
-60 -149 0
-99 60 147 148 149 0
-66 100 0
-150 99 0
-150 87 0
-99 -87 150 0
-151 101 0
-151 96 0
-101 -96 151 0
-152 102 0
-152 104 0
-102 -104 152 0
-66 -150 0
-66 -151 0
-66 -152 0
-100 66 150 151 152 0
-72 101 0
-153 99 0
-153 90 0
-99 -90 153 0
-154 100 0
-154 89 0
-100 -89 154 0
-155 102 0
-155 105 0
-102 -105 155 0
-72 -153 0
-72 -154 0
-72 -155 0
-101 72 153 154 155 0
-78 0
-84 102 0
-156 99 0
-156 94 0
-99 -94 156 0
-157 100 0
-157 93 0
-100 -93 157 0
-158 101 0
-158 98 0
-101 -98 158 0
-84 -156 0
-84 -157 0
-84 -158 0
-102 84 156 157 158 0
-61 103 0
-159 104 0
-159 88 0
-104 -88 159 0
-160 105 0
-160 95 0
-105 -95 160 0
-161 106 0
-161 99 0
-106 -99 161 0
-61 -159 0
-61 -160 0
-61 -161 0
-103 61 159 160 161 0
-67 104 0
-162 103 0
-162 87 0
-103 -87 162 0
-163 105 0
-163 96 0
-105 -96 163 0
-164 106 0
-164 100 0
-106 -100 164 0
-67 -162 0
-67 -163 0
-67 -164 0
-104 67 162 163 164 0
-73 105 0
-165 103 0
-165 90 0
-103 -90 165 0
-166 104 0
-166 89 0
-104 -89 166 0
-167 106 0
-167 101 0
-106 -101 167 0
-73 -165 0
-73 -166 0
-73 -167 0
-105 73 165 166 167 0
-79 106 0
-168 103 0
-168 92 0
-103 -92 168 0
-169 104 0
-169 91 0
-104 -91 169 0
-170 105 0
-170 97 0
-105 -97 170 0
-79 -168 0
-79 -169 0
-79 -170 0
-106 79 168 169 170 0
-85 0
