p cnf 240 990
1 -2 -1 0
3 -4 -1 0
5 -6 -1 0
7 -8 -1 0
9 -10 -1 0
11 -12 -1 0
1 -13 -3 0
3 -14 -3 0
5 -15 -3 0
7 -16 -3 0
9 -17 -3 0
11 -18 -3 0
1 -19 -5 0
3 -20 -5 0
5 -21 -5 0
7 -22 -5 0
9 -23 -5 0
11 -24 -5 0
1 -25 -7 0
3 -26 -7 0
5 -27 -7 0
7 -28 -7 0
9 -29 -7 0
11 -30 -7 0
1 -31 -9 0
3 -32 -9 0
5 -33 -9 0
7 -34 -9 0
9 -35 -9 0
11 -36 -9 0
1 -37 -11 0
3 -38 -11 0
5 -39 -11 0
7 -40 -11 0
9 -41 -11 0
11 -42 -11 0
43 -44 -1 0
45 -46 -1 0
47 -48 -1 0
49 -50 -1 0
51 -52 -1 0
53 -54 -1 0
43 -55 -3 0
45 -56 -3 0
47 -57 -3 0
49 -58 -3 0
51 -59 -3 0
53 -60 -3 0
43 -61 -5 0
45 -62 -5 0
47 -63 -5 0
49 -64 -5 0
51 -65 -5 0
53 -66 -5 0
43 -67 -7 0
45 -68 -7 0
47 -69 -7 0
49 -70 -7 0
51 -71 -7 0
53 -72 -7 0
43 -73 -9 0
45 -74 -9 0
47 -75 -9 0
49 -76 -9 0
51 -77 -9 0
53 -78 -9 0
43 -79 -11 0
45 -80 -11 0
47 -81 -11 0
49 -82 -11 0
51 -83 -11 0
53 -84 -11 0
2 0
4 13 0
-4 -13 0
-4 -15 6 0
-4 -16 8 0
-4 -17 10 0
-4 -18 12 0
6 19 0
-6 -19 0
-6 -20 4 0
-6 -22 8 0
-6 -23 10 0
-6 -24 12 0
8 25 0
-8 -25 0
-8 -26 4 0
-8 -27 6 0
-8 -29 10 0
-8 -30 12 0
10 31 0
-10 -31 0
-10 -32 4 0
-10 -33 6 0
-10 -34 8 0
-10 -36 12 0
12 37 0
-12 -37 0
-12 -38 4 0
-12 -39 6 0
-12 -40 8 0
-12 -41 10 0
14 0
13 4 0
-13 -4 0
-13 -6 15 0
-13 -8 16 0
-13 -10 17 0
-13 -12 18 0
15 20 0
-15 -20 0
-15 -19 13 0
-15 -22 16 0
-15 -23 17 0
-15 -24 18 0
16 26 0
-16 -26 0
-16 -25 13 0
-16 -27 15 0
-16 -29 17 0
-16 -30 18 0
17 32 0
-17 -32 0
-17 -31 13 0
-17 -33 15 0
-17 -34 16 0
-17 -36 18 0
18 38 0
-18 -38 0
-18 -37 13 0
-18 -39 15 0
-18 -40 16 0
-18 -41 17 0
21 0
19 6 0
-19 -6 0
-19 -4 20 0
-19 -8 22 0
-19 -10 23 0
-19 -12 24 0
20 15 0
-20 -15 0
-20 -13 19 0
-20 -16 22 0
-20 -17 23 0
-20 -18 24 0
22 27 0
-22 -27 0
-22 -25 19 0
-22 -26 20 0
-22 -29 23 0
-22 -30 24 0
23 33 0
-23 -33 0
-23 -31 19 0
-23 -32 20 0
-23 -34 22 0
-23 -36 24 0
24 39 0
-24 -39 0
-24 -37 19 0
-24 -38 20 0
-24 -40 22 0
-24 -41 23 0
28 0
25 8 0
-25 -8 0
-25 -4 26 0
-25 -6 27 0
-25 -10 29 0
-25 -12 30 0
26 16 0
-26 -16 0
-26 -13 25 0
-26 -15 27 0
-26 -17 29 0
-26 -18 30 0
27 22 0
-27 -22 0
-27 -19 25 0
-27 -20 26 0
-27 -23 29 0
-27 -24 30 0
29 34 0
-29 -34 0
-29 -31 25 0
-29 -32 26 0
-29 -33 27 0
-29 -36 30 0
30 40 0
-30 -40 0
-30 -37 25 0
-30 -38 26 0
-30 -39 27 0
-30 -41 29 0
35 0
31 10 0
-31 -10 0
-31 -4 32 0
-31 -6 33 0
-31 -8 34 0
-31 -12 36 0
32 17 0
-32 -17 0
-32 -13 31 0
-32 -15 33 0
-32 -16 34 0
-32 -18 36 0
33 23 0
-33 -23 0
-33 -19 31 0
-33 -20 32 0
-33 -22 34 0
-33 -24 36 0
34 29 0
-34 -29 0
-34 -25 31 0
-34 -26 32 0
-34 -27 33 0
-34 -30 36 0
36 41 0
-36 -41 0
-36 -37 31 0
-36 -38 32 0
-36 -39 33 0
-36 -40 34 0
42 0
37 12 0
-37 -12 0
-37 -4 38 0
-37 -6 39 0
-37 -8 40 0
-37 -10 41 0
38 18 0
-38 -18 0
-38 -13 37 0
-38 -15 39 0
-38 -16 40 0
-38 -17 41 0
39 24 0
-39 -24 0
-39 -19 37 0
-39 -20 38 0
-39 -22 40 0
-39 -23 41 0
40 30 0
-40 -30 0
-40 -25 37 0
-40 -26 38 0
-40 -27 39 0
-40 -29 41 0
41 36 0
-41 -36 0
-41 -31 37 0
-41 -32 38 0
-41 -33 39 0
-41 -34 40 0
85 0
86 87 0
-86 -87 0
-86 -88 89 0
-86 -90 91 0
-86 -92 93 0
-86 -94 95 0
89 96 0
-89 -96 0
-89 -97 86 0
-89 -98 91 0
-89 -99 93 0
-89 -100 95 0
91 101 0
-91 -101 0
-91 -102 86 0
-91 -103 89 0
-91 -104 93 0
-91 -105 95 0
93 106 0
-93 -106 0
-93 -107 86 0
-93 -108 89 0
-93 -109 91 0
-93 -110 95 0
95 111 0
-95 -111 0
-95 -112 86 0
-95 -113 89 0
-95 -114 91 0
-95 -115 93 0
116 0
87 86 0
-87 -86 0
-87 -89 88 0
-87 -91 90 0
-87 -93 92 0
-87 -95 94 0
88 97 0
-88 -97 0
-88 -96 87 0
-88 -98 90 0
-88 -99 92 0
-88 -100 94 0
90 102 0
-90 -102 0
-90 -101 87 0
-90 -103 88 0
-90 -104 92 0
-90 -105 94 0
92 107 0
-92 -107 0
-92 -106 87 0
-92 -108 88 0
-92 -109 90 0
-92 -110 94 0
94 112 0
-94 -112 0
-94 -111 87 0
-94 -113 88 0
-94 -114 90 0
-94 -115 92 0
117 0
96 89 0
-96 -89 0
-96 -86 97 0
-96 -91 98 0
-96 -93 99 0
-96 -95 100 0
97 88 0
-97 -88 0
-97 -87 96 0
-97 -90 98 0
-97 -92 99 0
-97 -94 100 0
98 103 0
-98 -103 0
-98 -101 96 0
-98 -102 97 0
-98 -104 99 0
-98 -105 100 0
99 108 0
-99 -108 0
-99 -106 96 0
-99 -107 97 0
-99 -109 98 0
-99 -110 100 0
100 113 0
-100 -113 0
-100 -111 96 0
-100 -112 97 0
-100 -114 98 0
-100 -115 99 0
118 0
101 91 0
-101 -91 0
-101 -86 102 0
-101 -89 103 0
-101 -93 104 0
-101 -95 105 0
102 90 0
-102 -90 0
-102 -87 101 0
-102 -88 103 0
-102 -92 104 0
-102 -94 105 0
103 98 0
-103 -98 0
-103 -96 101 0
-103 -97 102 0
-103 -99 104 0
-103 -100 105 0
104 109 0
-104 -109 0
-104 -106 101 0
-104 -107 102 0
-104 -108 103 0
-104 -110 105 0
105 114 0
-105 -114 0
-105 -111 101 0
-105 -112 102 0
-105 -113 103 0
-105 -115 104 0
119 0
106 93 0
-106 -93 0
-106 -86 107 0
-106 -89 108 0
-106 -91 109 0
-106 -95 110 0
107 92 0
-107 -92 0
-107 -87 106 0
-107 -88 108 0
-107 -90 109 0
-107 -94 110 0
108 99 0
-108 -99 0
-108 -96 106 0
-108 -97 107 0
-108 -98 109 0
-108 -100 110 0
109 104 0
-109 -104 0
-109 -101 106 0
-109 -102 107 0
-109 -103 108 0
-109 -105 110 0
110 115 0
-110 -115 0
-110 -111 106 0
-110 -112 107 0
-110 -113 108 0
-110 -114 109 0
120 0
111 95 0
-111 -95 0
-111 -86 112 0
-111 -89 113 0
-111 -91 114 0
-111 -93 115 0
112 94 0
-112 -94 0
-112 -87 111 0
-112 -88 113 0
-112 -90 114 0
-112 -92 115 0
113 100 0
-113 -100 0
-113 -96 111 0
-113 -97 112 0
-113 -98 114 0
-113 -99 115 0
114 105 0
-114 -105 0
-114 -101 111 0
-114 -102 112 0
-114 -103 113 0
-114 -104 115 0
115 110 0
-115 -110 0
-115 -106 111 0
-115 -107 112 0
-115 -108 113 0
-115 -109 114 0
-44 0
-46 86 0
-121 89 0
-121 97 0
-89 -97 121 0
-122 91 0
-122 102 0
-91 -102 122 0
-123 93 0
-123 107 0
-93 -107 123 0
-124 95 0
-124 112 0
-95 -112 124 0
-46 -121 0
-46 -122 0
-46 -123 0
-46 -124 0
-86 46 121 122 123 124 0
-48 89 0
-125 86 0
-125 88 0
-86 -88 125 0
-126 91 0
-126 103 0
-91 -103 126 0
-127 93 0
-127 108 0
-93 -108 127 0
-128 95 0
-128 113 0
-95 -113 128 0
-48 -125 0
-48 -126 0
-48 -127 0
-48 -128 0
-89 48 125 126 127 128 0
-50 91 0
-129 86 0
-129 90 0
-86 -90 129 0
-130 89 0
-130 98 0
-89 -98 130 0
-131 93 0
-131 109 0
-93 -109 131 0
-132 95 0
-132 114 0
-95 -114 132 0
-50 -129 0
-50 -130 0
-50 -131 0
-50 -132 0
-91 50 129 130 131 132 0
-52 93 0
-133 86 0
-133 92 0
-86 -92 133 0
-134 89 0
-134 99 0
-89 -99 134 0
-135 91 0
-135 104 0
-91 -104 135 0
-136 95 0
-136 115 0
-95 -115 136 0
-52 -133 0
-52 -134 0
-52 -135 0
-52 -136 0
-93 52 133 134 135 136 0
-54 95 0
-137 86 0
-137 94 0
-86 -94 137 0
-138 89 0
-138 100 0
-89 -100 138 0
-139 91 0
-139 105 0
-91 -105 139 0
-140 93 0
-140 110 0
-93 -110 140 0
-54 -137 0
-54 -138 0
-54 -139 0
-54 -140 0
-95 54 137 138 139 140 0
-55 87 0
-141 88 0
-141 96 0
-88 -96 141 0
-142 90 0
-142 101 0
-90 -101 142 0
-143 92 0
-143 106 0
-92 -106 143 0
-144 94 0
-144 111 0
-94 -111 144 0
-55 -141 0
-55 -142 0
-55 -143 0
-55 -144 0
-87 55 141 142 143 144 0
-56 0
-57 88 0
-145 87 0
-145 89 0
-87 -89 145 0
-146 90 0
-146 103 0
-90 -103 146 0
-147 92 0
-147 108 0
-92 -108 147 0
-148 94 0
-148 113 0
-94 -113 148 0
-57 -145 0
-57 -146 0
-57 -147 0
-57 -148 0
-88 57 145 146 147 148 0
-58 90 0
-149 87 0
-149 91 0
-87 -91 149 0
-150 88 0
-150 98 0
-88 -98 150 0
-151 92 0
-151 109 0
-92 -109 151 0
-152 94 0
-152 114 0
-94 -114 152 0
-58 -149 0
-58 -150 0
-58 -151 0
-58 -152 0
-90 58 149 150 151 152 0
-59 92 0
-153 87 0
-153 93 0
-87 -93 153 0
-154 88 0
-154 99 0
-88 -99 154 0
-155 90 0
-155 104 0
-90 -104 155 0
-156 94 0
-156 115 0
-94 -115 156 0
-59 -153 0
-59 -154 0
-59 -155 0
-59 -156 0
-92 59 153 154 155 156 0
-60 94 0
-157 87 0
-157 95 0
-87 -95 157 0
-158 88 0
-158 100 0
-88 -100 158 0
-159 90 0
-159 105 0
-90 -105 159 0
-160 92 0
-160 110 0
-92 -110 160 0
-60 -157 0
-60 -158 0
-60 -159 0
-60 -160 0
-94 60 157 158 159 160 0
-61 96 0
-161 97 0
-161 87 0
-97 -87 161 0
-162 98 0
-162 101 0
-98 -101 162 0
-163 99 0
-163 106 0
-99 -106 163 0
-164 100 0
-164 111 0
-100 -111 164 0
-61 -161 0
-61 -162 0
-61 -163 0
-61 -164 0
-96 61 161 162 163 164 0
-62 97 0
-165 96 0
-165 86 0
-96 -86 165 0
-166 98 0
-166 102 0
-98 -102 166 0
-167 99 0
-167 107 0
-99 -107 167 0
-168 100 0
-168 112 0
-100 -112 168 0
-62 -165 0
-62 -166 0
-62 -167 0
-62 -168 0
-97 62 165 166 167 168 0
-63 0
-64 98 0
-169 96 0
-169 91 0
-96 -91 169 0
-170 97 0
-170 90 0
-97 -90 170 0
-171 99 0
-171 109 0
-99 -109 171 0
-172 100 0
-172 114 0
-100 -114 172 0
-64 -169 0
-64 -170 0
-64 -171 0
-64 -172 0
-98 64 169 170 171 172 0
-65 99 0
-173 96 0
-173 93 0
-96 -93 173 0
-174 97 0
-174 92 0
-97 -92 174 0
-175 98 0
-175 104 0
-98 -104 175 0
-176 100 0
-176 115 0
-100 -115 176 0
-65 -173 0
-65 -174 0
-65 -175 0
-65 -176 0
-99 65 173 174 175 176 0
-66 100 0
-177 96 0
-177 95 0
-96 -95 177 0
-178 97 0
-178 94 0
-97 -94 178 0
-179 98 0
-179 105 0
-98 -105 179 0
-180 99 0
-180 110 0
-99 -110 180 0
-66 -177 0
-66 -178 0
-66 -179 0
-66 -180 0
-100 66 177 178 179 180 0
-67 101 0
-181 102 0
-181 87 0
-102 -87 181 0
-182 103 0
-182 96 0
-103 -96 182 0
-183 104 0
-183 106 0
-104 -106 183 0
-184 105 0
-184 111 0
-105 -111 184 0
-67 -181 0
-67 -182 0
-67 -183 0
-67 -184 0
-101 67 181 182 183 184 0
-68 102 0
-185 101 0
-185 86 0
-101 -86 185 0
-186 103 0
-186 97 0
-103 -97 186 0
-187 104 0
-187 107 0
-104 -107 187 0
-188 105 0
-188 112 0
-105 -112 188 0
-68 -185 0
-68 -186 0
-68 -187 0
-68 -188 0
-102 68 185 186 187 188 0
-69 103 0
-189 101 0
-189 89 0
-101 -89 189 0
-190 102 0
-190 88 0
-102 -88 190 0
-191 104 0
-191 108 0
-104 -108 191 0
-192 105 0
-192 113 0
-105 -113 192 0
-69 -189 0
-69 -190 0
-69 -191 0
-69 -192 0
-103 69 189 190 191 192 0
-70 0
-71 104 0
-193 101 0
-193 93 0
-101 -93 193 0
-194 102 0
-194 92 0
-102 -92 194 0
-195 103 0
-195 99 0
-103 -99 195 0
-196 105 0
-196 115 0
-105 -115 196 0
-71 -193 0
-71 -194 0
-71 -195 0
-71 -196 0
-104 71 193 194 195 196 0
-72 105 0
-197 101 0
-197 95 0
-101 -95 197 0
-198 102 0
-198 94 0
-102 -94 198 0
-199 103 0
-199 100 0
-103 -100 199 0
-200 104 0
-200 110 0
-104 -110 200 0
-72 -197 0
-72 -198 0
-72 -199 0
-72 -200 0
-105 72 197 198 199 200 0
-73 106 0
-201 107 0
-201 87 0
-107 -87 201 0
-202 108 0
-202 96 0
-108 -96 202 0
-203 109 0
-203 101 0
-109 -101 203 0
-204 110 0
-204 111 0
-110 -111 204 0
-73 -201 0
-73 -202 0
-73 -203 0
-73 -204 0
-106 73 201 202 203 204 0
-74 107 0
-205 106 0
-205 86 0
-106 -86 205 0
-206 108 0
-206 97 0
-108 -97 206 0
-207 109 0
-207 102 0
-109 -102 207 0
-208 110 0
-208 112 0
-110 -112 208 0
-74 -205 0
-74 -206 0
-74 -207 0
-74 -208 0
-107 74 205 206 207 208 0
-75 108 0
-209 106 0
-209 89 0
-106 -89 209 0
-210 107 0
-210 88 0
-107 -88 210 0
-211 109 0
-211 103 0
-109 -103 211 0
-212 110 0
-212 113 0
-110 -113 212 0
-75 -209 0
-75 -210 0
-75 -211 0
-75 -212 0
-108 75 209 210 211 212 0
-76 109 0
-213 106 0
-213 91 0
-106 -91 213 0
-214 107 0
-214 90 0
-107 -90 214 0
-215 108 0
-215 98 0
-108 -98 215 0
-216 110 0
-216 114 0
-110 -114 216 0
-76 -213 0
-76 -214 0
-76 -215 0
-76 -216 0
-109 76 213 214 215 216 0
-77 0
-78 110 0
-217 106 0
-217 95 0
-106 -95 217 0
-218 107 0
-218 94 0
-107 -94 218 0
-219 108 0
-219 100 0
-108 -100 219 0
-220 109 0
-220 105 0
-109 -105 220 0
-78 -217 0
-78 -218 0
-78 -219 0
-78 -220 0
-110 78 217 218 219 220 0
-79 111 0
-221 112 0
-221 87 0
-112 -87 221 0
-222 113 0
-222 96 0
-113 -96 222 0
-223 114 0
-223 101 0
-114 -101 223 0
-224 115 0
-224 106 0
-115 -106 224 0
-79 -221 0
-79 -222 0
-79 -223 0
-79 -224 0
-111 79 221 222 223 224 0
-80 112 0
-225 111 0
-225 86 0
-111 -86 225 0
-226 113 0
-226 97 0
-113 -97 226 0
-227 114 0
-227 102 0
-114 -102 227 0
-228 115 0
-228 107 0
-115 -107 228 0
-80 -225 0
-80 -226 0
-80 -227 0
-80 -228 0
-112 80 225 226 227 228 0
-81 113 0
-229 111 0
-229 89 0
-111 -89 229 0
-230 112 0
-230 88 0
-112 -88 230 0
-231 114 0
-231 103 0
-114 -103 231 0
-232 115 0
-232 108 0
-115 -108 232 0
-81 -229 0
-81 -230 0
-81 -231 0
-81 -232 0
-113 81 229 230 231 232 0
-82 114 0
-233 111 0
-233 91 0
-111 -91 233 0
-234 112 0
-234 90 0
-112 -90 234 0
-235 113 0
-235 98 0
-113 -98 235 0
-236 115 0
-236 109 0
-115 -109 236 0
-82 -233 0
-82 -234 0
-82 -235 0
-82 -236 0
-114 82 233 234 235 236 0
-83 115 0
-237 111 0
-237 93 0
-111 -93 237 0
-238 112 0
-238 92 0
-112 -92 238 0
-239 113 0
-239 99 0
-113 -99 239 0
-240 114 0
-240 104 0
-114 -104 240 0
-83 -237 0
-83 -238 0
-83 -239 0
-83 -240 0
-115 83 237 238 239 240 0
-84 0
