p cnf 371 1631
1 -2 -1 0
3 -4 -1 0
5 -6 -1 0
7 -8 -1 0
9 -10 -1 0
11 -12 -1 0
13 -14 -1 0
1 -15 -3 0
3 -16 -3 0
5 -17 -3 0
7 -18 -3 0
9 -19 -3 0
11 -20 -3 0
13 -21 -3 0
1 -22 -5 0
3 -23 -5 0
5 -24 -5 0
7 -25 -5 0
9 -26 -5 0
11 -27 -5 0
13 -28 -5 0
1 -29 -7 0
3 -30 -7 0
5 -31 -7 0
7 -32 -7 0
9 -33 -7 0
11 -34 -7 0
13 -35 -7 0
1 -36 -9 0
3 -37 -9 0
5 -38 -9 0
7 -39 -9 0
9 -40 -9 0
11 -41 -9 0
13 -42 -9 0
1 -43 -11 0
3 -44 -11 0
5 -45 -11 0
7 -46 -11 0
9 -47 -11 0
11 -48 -11 0
13 -49 -11 0
1 -50 -13 0
3 -51 -13 0
5 -52 -13 0
7 -53 -13 0
9 -54 -13 0
11 -55 -13 0
13 -56 -13 0
57 -58 -1 0
59 -60 -1 0
61 -62 -1 0
63 -64 -1 0
65 -66 -1 0
67 -68 -1 0
69 -70 -1 0
57 -71 -3 0
59 -72 -3 0
61 -73 -3 0
63 -74 -3 0
65 -75 -3 0
67 -76 -3 0
69 -77 -3 0
57 -78 -5 0
59 -79 -5 0
61 -80 -5 0
63 -81 -5 0
65 -82 -5 0
67 -83 -5 0
69 -84 -5 0
57 -85 -7 0
59 -86 -7 0
61 -87 -7 0
63 -88 -7 0
65 -89 -7 0
67 -90 -7 0
69 -91 -7 0
57 -92 -9 0
59 -93 -9 0
61 -94 -9 0
63 -95 -9 0
65 -96 -9 0
67 -97 -9 0
69 -98 -9 0
57 -99 -11 0
59 -100 -11 0
61 -101 -11 0
63 -102 -11 0
65 -103 -11 0
67 -104 -11 0
69 -105 -11 0
57 -106 -13 0
59 -107 -13 0
61 -108 -13 0
63 -109 -13 0
65 -110 -13 0
67 -111 -13 0
69 -112 -13 0
2 0
4 15 0
-4 -15 0
-4 -17 6 0
-4 -18 8 0
-4 -19 10 0
-4 -20 12 0
-4 -21 14 0
6 22 0
-6 -22 0
-6 -23 4 0
-6 -25 8 0
-6 -26 10 0
-6 -27 12 0
-6 -28 14 0
8 29 0
-8 -29 0
-8 -30 4 0
-8 -31 6 0
-8 -33 10 0
-8 -34 12 0
-8 -35 14 0
10 36 0
-10 -36 0
-10 -37 4 0
-10 -38 6 0
-10 -39 8 0
-10 -41 12 0
-10 -42 14 0
12 43 0
-12 -43 0
-12 -44 4 0
-12 -45 6 0
-12 -46 8 0
-12 -47 10 0
-12 -49 14 0
14 50 0
-14 -50 0
-14 -51 4 0
-14 -52 6 0
-14 -53 8 0
-14 -54 10 0
-14 -55 12 0
16 0
15 4 0
-15 -4 0
-15 -6 17 0
-15 -8 18 0
-15 -10 19 0
-15 -12 20 0
-15 -14 21 0
17 23 0
-17 -23 0
-17 -22 15 0
-17 -25 18 0
-17 -26 19 0
-17 -27 20 0
-17 -28 21 0
18 30 0
-18 -30 0
-18 -29 15 0
-18 -31 17 0
-18 -33 19 0
-18 -34 20 0
-18 -35 21 0
19 37 0
-19 -37 0
-19 -36 15 0
-19 -38 17 0
-19 -39 18 0
-19 -41 20 0
-19 -42 21 0
20 44 0
-20 -44 0
-20 -43 15 0
-20 -45 17 0
-20 -46 18 0
-20 -47 19 0
-20 -49 21 0
21 51 0
-21 -51 0
-21 -50 15 0
-21 -52 17 0
-21 -53 18 0
-21 -54 19 0
-21 -55 20 0
24 0
22 6 0
-22 -6 0
-22 -4 23 0
-22 -8 25 0
-22 -10 26 0
-22 -12 27 0
-22 -14 28 0
23 17 0
-23 -17 0
-23 -15 22 0
-23 -18 25 0
-23 -19 26 0
-23 -20 27 0
-23 -21 28 0
25 31 0
-25 -31 0
-25 -29 22 0
-25 -30 23 0
-25 -33 26 0
-25 -34 27 0
-25 -35 28 0
26 38 0
-26 -38 0
-26 -36 22 0
-26 -37 23 0
-26 -39 25 0
-26 -41 27 0
-26 -42 28 0
27 45 0
-27 -45 0
-27 -43 22 0
-27 -44 23 0
-27 -46 25 0
-27 -47 26 0
-27 -49 28 0
28 52 0
-28 -52 0
-28 -50 22 0
-28 -51 23 0
-28 -53 25 0
-28 -54 26 0
-28 -55 27 0
32 0
29 8 0
-29 -8 0
-29 -4 30 0
-29 -6 31 0
-29 -10 33 0
-29 -12 34 0
-29 -14 35 0
30 18 0
-30 -18 0
-30 -15 29 0
-30 -17 31 0
-30 -19 33 0
-30 -20 34 0
-30 -21 35 0
31 25 0
-31 -25 0
-31 -22 29 0
-31 -23 30 0
-31 -26 33 0
-31 -27 34 0
-31 -28 35 0
33 39 0
-33 -39 0
-33 -36 29 0
-33 -37 30 0
-33 -38 31 0
-33 -41 34 0
-33 -42 35 0
34 46 0
-34 -46 0
-34 -43 29 0
-34 -44 30 0
-34 -45 31 0
-34 -47 33 0
-34 -49 35 0
35 53 0
-35 -53 0
-35 -50 29 0
-35 -51 30 0
-35 -52 31 0
-35 -54 33 0
-35 -55 34 0
40 0
36 10 0
-36 -10 0
-36 -4 37 0
-36 -6 38 0
-36 -8 39 0
-36 -12 41 0
-36 -14 42 0
37 19 0
-37 -19 0
-37 -15 36 0
-37 -17 38 0
-37 -18 39 0
-37 -20 41 0
-37 -21 42 0
38 26 0
-38 -26 0
-38 -22 36 0
-38 -23 37 0
-38 -25 39 0
-38 -27 41 0
-38 -28 42 0
39 33 0
-39 -33 0
-39 -29 36 0
-39 -30 37 0
-39 -31 38 0
-39 -34 41 0
-39 -35 42 0
41 47 0
-41 -47 0
-41 -43 36 0
-41 -44 37 0
-41 -45 38 0
-41 -46 39 0
-41 -49 42 0
42 54 0
-42 -54 0
-42 -50 36 0
-42 -51 37 0
-42 -52 38 0
-42 -53 39 0
-42 -55 41 0
48 0
43 12 0
-43 -12 0
-43 -4 44 0
-43 -6 45 0
-43 -8 46 0
-43 -10 47 0
-43 -14 49 0
44 20 0
-44 -20 0
-44 -15 43 0
-44 -17 45 0
-44 -18 46 0
-44 -19 47 0
-44 -21 49 0
45 27 0
-45 -27 0
-45 -22 43 0
-45 -23 44 0
-45 -25 46 0
-45 -26 47 0
-45 -28 49 0
46 34 0
-46 -34 0
-46 -29 43 0
-46 -30 44 0
-46 -31 45 0
-46 -33 47 0
-46 -35 49 0
47 41 0
-47 -41 0
-47 -36 43 0
-47 -37 44 0
-47 -38 45 0
-47 -39 46 0
-47 -42 49 0
49 55 0
-49 -55 0
-49 -50 43 0
-49 -51 44 0
-49 -52 45 0
-49 -53 46 0
-49 -54 47 0
56 0
50 14 0
-50 -14 0
-50 -4 51 0
-50 -6 52 0
-50 -8 53 0
-50 -10 54 0
-50 -12 55 0
51 21 0
-51 -21 0
-51 -15 50 0
-51 -17 52 0
-51 -18 53 0
-51 -19 54 0
-51 -20 55 0
52 28 0
-52 -28 0
-52 -22 50 0
-52 -23 51 0
-52 -25 53 0
-52 -26 54 0
-52 -27 55 0
53 35 0
-53 -35 0
-53 -29 50 0
-53 -30 51 0
-53 -31 52 0
-53 -33 54 0
-53 -34 55 0
54 42 0
-54 -42 0
-54 -36 50 0
-54 -37 51 0
-54 -38 52 0
-54 -39 53 0
-54 -41 55 0
55 49 0
-55 -49 0
-55 -43 50 0
-55 -44 51 0
-55 -45 52 0
-55 -46 53 0
-55 -47 54 0
113 0
114 115 0
-114 -115 0
-114 -116 117 0
-114 -118 119 0
-114 -120 121 0
-114 -122 123 0
-114 -124 125 0
117 126 0
-117 -126 0
-117 -127 114 0
-117 -128 119 0
-117 -129 121 0
-117 -130 123 0
-117 -131 125 0
119 132 0
-119 -132 0
-119 -133 114 0
-119 -134 117 0
-119 -135 121 0
-119 -136 123 0
-119 -137 125 0
121 138 0
-121 -138 0
-121 -139 114 0
-121 -140 117 0
-121 -141 119 0
-121 -142 123 0
-121 -143 125 0
123 144 0
-123 -144 0
-123 -145 114 0
-123 -146 117 0
-123 -147 119 0
-123 -148 121 0
-123 -149 125 0
125 150 0
-125 -150 0
-125 -151 114 0
-125 -152 117 0
-125 -153 119 0
-125 -154 121 0
-125 -155 123 0
156 0
115 114 0
-115 -114 0
-115 -117 116 0
-115 -119 118 0
-115 -121 120 0
-115 -123 122 0
-115 -125 124 0
116 127 0
-116 -127 0
-116 -126 115 0
-116 -128 118 0
-116 -129 120 0
-116 -130 122 0
-116 -131 124 0
118 133 0
-118 -133 0
-118 -132 115 0
-118 -134 116 0
-118 -135 120 0
-118 -136 122 0
-118 -137 124 0
120 139 0
-120 -139 0
-120 -138 115 0
-120 -140 116 0
-120 -141 118 0
-120 -142 122 0
-120 -143 124 0
122 145 0
-122 -145 0
-122 -144 115 0
-122 -146 116 0
-122 -147 118 0
-122 -148 120 0
-122 -149 124 0
124 151 0
-124 -151 0
-124 -150 115 0
-124 -152 116 0
-124 -153 118 0
-124 -154 120 0
-124 -155 122 0
157 0
126 117 0
-126 -117 0
-126 -114 127 0
-126 -119 128 0
-126 -121 129 0
-126 -123 130 0
-126 -125 131 0
127 116 0
-127 -116 0
-127 -115 126 0
-127 -118 128 0
-127 -120 129 0
-127 -122 130 0
-127 -124 131 0
128 134 0
-128 -134 0
-128 -132 126 0
-128 -133 127 0
-128 -135 129 0
-128 -136 130 0
-128 -137 131 0
129 140 0
-129 -140 0
-129 -138 126 0
-129 -139 127 0
-129 -141 128 0
-129 -142 130 0
-129 -143 131 0
130 146 0
-130 -146 0
-130 -144 126 0
-130 -145 127 0
-130 -147 128 0
-130 -148 129 0
-130 -149 131 0
131 152 0
-131 -152 0
-131 -150 126 0
-131 -151 127 0
-131 -153 128 0
-131 -154 129 0
-131 -155 130 0
158 0
132 119 0
-132 -119 0
-132 -114 133 0
-132 -117 134 0
-132 -121 135 0
-132 -123 136 0
-132 -125 137 0
133 118 0
-133 -118 0
-133 -115 132 0
-133 -116 134 0
-133 -120 135 0
-133 -122 136 0
-133 -124 137 0
134 128 0
-134 -128 0
-134 -126 132 0
-134 -127 133 0
-134 -129 135 0
-134 -130 136 0
-134 -131 137 0
135 141 0
-135 -141 0
-135 -138 132 0
-135 -139 133 0
-135 -140 134 0
-135 -142 136 0
-135 -143 137 0
136 147 0
-136 -147 0
-136 -144 132 0
-136 -145 133 0
-136 -146 134 0
-136 -148 135 0
-136 -149 137 0
137 153 0
-137 -153 0
-137 -150 132 0
-137 -151 133 0
-137 -152 134 0
-137 -154 135 0
-137 -155 136 0
159 0
138 121 0
-138 -121 0
-138 -114 139 0
-138 -117 140 0
-138 -119 141 0
-138 -123 142 0
-138 -125 143 0
139 120 0
-139 -120 0
-139 -115 138 0
-139 -116 140 0
-139 -118 141 0
-139 -122 142 0
-139 -124 143 0
140 129 0
-140 -129 0
-140 -126 138 0
-140 -127 139 0
-140 -128 141 0
-140 -130 142 0
-140 -131 143 0
141 135 0
-141 -135 0
-141 -132 138 0
-141 -133 139 0
-141 -134 140 0
-141 -136 142 0
-141 -137 143 0
142 148 0
-142 -148 0
-142 -144 138 0
-142 -145 139 0
-142 -146 140 0
-142 -147 141 0
-142 -149 143 0
143 154 0
-143 -154 0
-143 -150 138 0
-143 -151 139 0
-143 -152 140 0
-143 -153 141 0
-143 -155 142 0
160 0
144 123 0
-144 -123 0
-144 -114 145 0
-144 -117 146 0
-144 -119 147 0
-144 -121 148 0
-144 -125 149 0
145 122 0
-145 -122 0
-145 -115 144 0
-145 -116 146 0
-145 -118 147 0
-145 -120 148 0
-145 -124 149 0
146 130 0
-146 -130 0
-146 -126 144 0
-146 -127 145 0
-146 -128 147 0
-146 -129 148 0
-146 -131 149 0
147 136 0
-147 -136 0
-147 -132 144 0
-147 -133 145 0
-147 -134 146 0
-147 -135 148 0
-147 -137 149 0
148 142 0
-148 -142 0
-148 -138 144 0
-148 -139 145 0
-148 -140 146 0
-148 -141 147 0
-148 -143 149 0
149 155 0
-149 -155 0
-149 -150 144 0
-149 -151 145 0
-149 -152 146 0
-149 -153 147 0
-149 -154 148 0
161 0
150 125 0
-150 -125 0
-150 -114 151 0
-150 -117 152 0
-150 -119 153 0
-150 -121 154 0
-150 -123 155 0
151 124 0
-151 -124 0
-151 -115 150 0
-151 -116 152 0
-151 -118 153 0
-151 -120 154 0
-151 -122 155 0
152 131 0
-152 -131 0
-152 -126 150 0
-152 -127 151 0
-152 -128 153 0
-152 -129 154 0
-152 -130 155 0
153 137 0
-153 -137 0
-153 -132 150 0
-153 -133 151 0
-153 -134 152 0
-153 -135 154 0
-153 -136 155 0
154 143 0
-154 -143 0
-154 -138 150 0
-154 -139 151 0
-154 -140 152 0
-154 -141 153 0
-154 -142 155 0
155 149 0
-155 -149 0
-155 -144 150 0
-155 -145 151 0
-155 -146 152 0
-155 -147 153 0
-155 -148 154 0
-58 0
-60 114 0
-162 117 0
-162 127 0
-117 -127 162 0
-163 119 0
-163 133 0
-119 -133 163 0
-164 121 0
-164 139 0
-121 -139 164 0
-165 123 0
-165 145 0
-123 -145 165 0
-166 125 0
-166 151 0
-125 -151 166 0
-60 -162 0
-60 -163 0
-60 -164 0
-60 -165 0
-60 -166 0
-114 60 162 163 164 165 166 0
-62 117 0
-167 114 0
-167 116 0
-114 -116 167 0
-168 119 0
-168 134 0
-119 -134 168 0
-169 121 0
-169 140 0
-121 -140 169 0
-170 123 0
-170 146 0
-123 -146 170 0
-171 125 0
-171 152 0
-125 -152 171 0
-62 -167 0
-62 -168 0
-62 -169 0
-62 -170 0
-62 -171 0
-117 62 167 168 169 170 171 0
-64 119 0
-172 114 0
-172 118 0
-114 -118 172 0
-173 117 0
-173 128 0
-117 -128 173 0
-174 121 0
-174 141 0
-121 -141 174 0
-175 123 0
-175 147 0
-123 -147 175 0
-176 125 0
-176 153 0
-125 -153 176 0
-64 -172 0
-64 -173 0
-64 -174 0
-64 -175 0
-64 -176 0
-119 64 172 173 174 175 176 0
-66 121 0
-177 114 0
-177 120 0
-114 -120 177 0
-178 117 0
-178 129 0
-117 -129 178 0
-179 119 0
-179 135 0
-119 -135 179 0
-180 123 0
-180 148 0
-123 -148 180 0
-181 125 0
-181 154 0
-125 -154 181 0
-66 -177 0
-66 -178 0
-66 -179 0
-66 -180 0
-66 -181 0
-121 66 177 178 179 180 181 0
-68 123 0
-182 114 0
-182 122 0
-114 -122 182 0
-183 117 0
-183 130 0
-117 -130 183 0
-184 119 0
-184 136 0
-119 -136 184 0
-185 121 0
-185 142 0
-121 -142 185 0
-186 125 0
-186 155 0
-125 -155 186 0
-68 -182 0
-68 -183 0
-68 -184 0
-68 -185 0
-68 -186 0
-123 68 182 183 184 185 186 0
-70 125 0
-187 114 0
-187 124 0
-114 -124 187 0
-188 117 0
-188 131 0
-117 -131 188 0
-189 119 0
-189 137 0
-119 -137 189 0
-190 121 0
-190 143 0
-121 -143 190 0
-191 123 0
-191 149 0
-123 -149 191 0
-70 -187 0
-70 -188 0
-70 -189 0
-70 -190 0
-70 -191 0
-125 70 187 188 189 190 191 0
-71 115 0
-192 116 0
-192 126 0
-116 -126 192 0
-193 118 0
-193 132 0
-118 -132 193 0
-194 120 0
-194 138 0
-120 -138 194 0
-195 122 0
-195 144 0
-122 -144 195 0
-196 124 0
-196 150 0
-124 -150 196 0
-71 -192 0
-71 -193 0
-71 -194 0
-71 -195 0
-71 -196 0
-115 71 192 193 194 195 196 0
-72 0
-73 116 0
-197 115 0
-197 117 0
-115 -117 197 0
-198 118 0
-198 134 0
-118 -134 198 0
-199 120 0
-199 140 0
-120 -140 199 0
-200 122 0
-200 146 0
-122 -146 200 0
-201 124 0
-201 152 0
-124 -152 201 0
-73 -197 0
-73 -198 0
-73 -199 0
-73 -200 0
-73 -201 0
-116 73 197 198 199 200 201 0
-74 118 0
-202 115 0
-202 119 0
-115 -119 202 0
-203 116 0
-203 128 0
-116 -128 203 0
-204 120 0
-204 141 0
-120 -141 204 0
-205 122 0
-205 147 0
-122 -147 205 0
-206 124 0
-206 153 0
-124 -153 206 0
-74 -202 0
-74 -203 0
-74 -204 0
-74 -205 0
-74 -206 0
-118 74 202 203 204 205 206 0
-75 120 0
-207 115 0
-207 121 0
-115 -121 207 0
-208 116 0
-208 129 0
-116 -129 208 0
-209 118 0
-209 135 0
-118 -135 209 0
-210 122 0
-210 148 0
-122 -148 210 0
-211 124 0
-211 154 0
-124 -154 211 0
-75 -207 0
-75 -208 0
-75 -209 0
-75 -210 0
-75 -211 0
-120 75 207 208 209 210 211 0
-76 122 0
-212 115 0
-212 123 0
-115 -123 212 0
-213 116 0
-213 130 0
-116 -130 213 0
-214 118 0
-214 136 0
-118 -136 214 0
-215 120 0
-215 142 0
-120 -142 215 0
-216 124 0
-216 155 0
-124 -155 216 0
-76 -212 0
-76 -213 0
-76 -214 0
-76 -215 0
-76 -216 0
-122 76 212 213 214 215 216 0
-77 124 0
-217 115 0
-217 125 0
-115 -125 217 0
-218 116 0
-218 131 0
-116 -131 218 0
-219 118 0
-219 137 0
-118 -137 219 0
-220 120 0
-220 143 0
-120 -143 220 0
-221 122 0
-221 149 0
-122 -149 221 0
-77 -217 0
-77 -218 0
-77 -219 0
-77 -220 0
-77 -221 0
-124 77 217 218 219 220 221 0
-78 126 0
-222 127 0
-222 115 0
-127 -115 222 0
-223 128 0
-223 132 0
-128 -132 223 0
-224 129 0
-224 138 0
-129 -138 224 0
-225 130 0
-225 144 0
-130 -144 225 0
-226 131 0
-226 150 0
-131 -150 226 0
-78 -222 0
-78 -223 0
-78 -224 0
-78 -225 0
-78 -226 0
-126 78 222 223 224 225 226 0
-79 127 0
-227 126 0
-227 114 0
-126 -114 227 0
-228 128 0
-228 133 0
-128 -133 228 0
-229 129 0
-229 139 0
-129 -139 229 0
-230 130 0
-230 145 0
-130 -145 230 0
-231 131 0
-231 151 0
-131 -151 231 0
-79 -227 0
-79 -228 0
-79 -229 0
-79 -230 0
-79 -231 0
-127 79 227 228 229 230 231 0
-80 0
-81 128 0
-232 126 0
-232 119 0
-126 -119 232 0
-233 127 0
-233 118 0
-127 -118 233 0
-234 129 0
-234 141 0
-129 -141 234 0
-235 130 0
-235 147 0
-130 -147 235 0
-236 131 0
-236 153 0
-131 -153 236 0
-81 -232 0
-81 -233 0
-81 -234 0
-81 -235 0
-81 -236 0
-128 81 232 233 234 235 236 0
-82 129 0
-237 126 0
-237 121 0
-126 -121 237 0
-238 127 0
-238 120 0
-127 -120 238 0
-239 128 0
-239 135 0
-128 -135 239 0
-240 130 0
-240 148 0
-130 -148 240 0
-241 131 0
-241 154 0
-131 -154 241 0
-82 -237 0
-82 -238 0
-82 -239 0
-82 -240 0
-82 -241 0
-129 82 237 238 239 240 241 0
-83 130 0
-242 126 0
-242 123 0
-126 -123 242 0
-243 127 0
-243 122 0
-127 -122 243 0
-244 128 0
-244 136 0
-128 -136 244 0
-245 129 0
-245 142 0
-129 -142 245 0
-246 131 0
-246 155 0
-131 -155 246 0
-83 -242 0
-83 -243 0
-83 -244 0
-83 -245 0
-83 -246 0
-130 83 242 243 244 245 246 0
-84 131 0
-247 126 0
-247 125 0
-126 -125 247 0
-248 127 0
-248 124 0
-127 -124 248 0
-249 128 0
-249 137 0
-128 -137 249 0
-250 129 0
-250 143 0
-129 -143 250 0
-251 130 0
-251 149 0
-130 -149 251 0
-84 -247 0
-84 -248 0
-84 -249 0
-84 -250 0
-84 -251 0
-131 84 247 248 249 250 251 0
-85 132 0
-252 133 0
-252 115 0
-133 -115 252 0
-253 134 0
-253 126 0
-134 -126 253 0
-254 135 0
-254 138 0
-135 -138 254 0
-255 136 0
-255 144 0
-136 -144 255 0
-256 137 0
-256 150 0
-137 -150 256 0
-85 -252 0
-85 -253 0
-85 -254 0
-85 -255 0
-85 -256 0
-132 85 252 253 254 255 256 0
-86 133 0
-257 132 0
-257 114 0
-132 -114 257 0
-258 134 0
-258 127 0
-134 -127 258 0
-259 135 0
-259 139 0
-135 -139 259 0
-260 136 0
-260 145 0
-136 -145 260 0
-261 137 0
-261 151 0
-137 -151 261 0
-86 -257 0
-86 -258 0
-86 -259 0
-86 -260 0
-86 -261 0
-133 86 257 258 259 260 261 0
-87 134 0
-262 132 0
-262 117 0
-132 -117 262 0
-263 133 0
-263 116 0
-133 -116 263 0
-264 135 0
-264 140 0
-135 -140 264 0
-265 136 0
-265 146 0
-136 -146 265 0
-266 137 0
-266 152 0
-137 -152 266 0
-87 -262 0
-87 -263 0
-87 -264 0
-87 -265 0
-87 -266 0
-134 87 262 263 264 265 266 0
-88 0
-89 135 0
-267 132 0
-267 121 0
-132 -121 267 0
-268 133 0
-268 120 0
-133 -120 268 0
-269 134 0
-269 129 0
-134 -129 269 0
-270 136 0
-270 148 0
-136 -148 270 0
-271 137 0
-271 154 0
-137 -154 271 0
-89 -267 0
-89 -268 0
-89 -269 0
-89 -270 0
-89 -271 0
-135 89 267 268 269 270 271 0
-90 136 0
-272 132 0
-272 123 0
-132 -123 272 0
-273 133 0
-273 122 0
-133 -122 273 0
-274 134 0
-274 130 0
-134 -130 274 0
-275 135 0
-275 142 0
-135 -142 275 0
-276 137 0
-276 155 0
-137 -155 276 0
-90 -272 0
-90 -273 0
-90 -274 0
-90 -275 0
-90 -276 0
-136 90 272 273 274 275 276 0
-91 137 0
-277 132 0
-277 125 0
-132 -125 277 0
-278 133 0
-278 124 0
-133 -124 278 0
-279 134 0
-279 131 0
-134 -131 279 0
-280 135 0
-280 143 0
-135 -143 280 0
-281 136 0
-281 149 0
-136 -149 281 0
-91 -277 0
-91 -278 0
-91 -279 0
-91 -280 0
-91 -281 0
-137 91 277 278 279 280 281 0
-92 138 0
-282 139 0
-282 115 0
-139 -115 282 0
-283 140 0
-283 126 0
-140 -126 283 0
-284 141 0
-284 132 0
-141 -132 284 0
-285 142 0
-285 144 0
-142 -144 285 0
-286 143 0
-286 150 0
-143 -150 286 0
-92 -282 0
-92 -283 0
-92 -284 0
-92 -285 0
-92 -286 0
-138 92 282 283 284 285 286 0
-93 139 0
-287 138 0
-287 114 0
-138 -114 287 0
-288 140 0
-288 127 0
-140 -127 288 0
-289 141 0
-289 133 0
-141 -133 289 0
-290 142 0
-290 145 0
-142 -145 290 0
-291 143 0
-291 151 0
-143 -151 291 0
-93 -287 0
-93 -288 0
-93 -289 0
-93 -290 0
-93 -291 0
-139 93 287 288 289 290 291 0
-94 140 0
-292 138 0
-292 117 0
-138 -117 292 0
-293 139 0
-293 116 0
-139 -116 293 0
-294 141 0
-294 134 0
-141 -134 294 0
-295 142 0
-295 146 0
-142 -146 295 0
-296 143 0
-296 152 0
-143 -152 296 0
-94 -292 0
-94 -293 0
-94 -294 0
-94 -295 0
-94 -296 0
-140 94 292 293 294 295 296 0
-95 141 0
-297 138 0
-297 119 0
-138 -119 297 0
-298 139 0
-298 118 0
-139 -118 298 0
-299 140 0
-299 128 0
-140 -128 299 0
-300 142 0
-300 147 0
-142 -147 300 0
-301 143 0
-301 153 0
-143 -153 301 0
-95 -297 0
-95 -298 0
-95 -299 0
-95 -300 0
-95 -301 0
-141 95 297 298 299 300 301 0
-96 0
-97 142 0
-302 138 0
-302 123 0
-138 -123 302 0
-303 139 0
-303 122 0
-139 -122 303 0
-304 140 0
-304 130 0
-140 -130 304 0
-305 141 0
-305 136 0
-141 -136 305 0
-306 143 0
-306 155 0
-143 -155 306 0
-97 -302 0
-97 -303 0
-97 -304 0
-97 -305 0
-97 -306 0
-142 97 302 303 304 305 306 0
-98 143 0
-307 138 0
-307 125 0
-138 -125 307 0
-308 139 0
-308 124 0
-139 -124 308 0
-309 140 0
-309 131 0
-140 -131 309 0
-310 141 0
-310 137 0
-141 -137 310 0
-311 142 0
-311 149 0
-142 -149 311 0
-98 -307 0
-98 -308 0
-98 -309 0
-98 -310 0
-98 -311 0
-143 98 307 308 309 310 311 0
-99 144 0
-312 145 0
-312 115 0
-145 -115 312 0
-313 146 0
-313 126 0
-146 -126 313 0
-314 147 0
-314 132 0
-147 -132 314 0
-315 148 0
-315 138 0
-148 -138 315 0
-316 149 0
-316 150 0
-149 -150 316 0
-99 -312 0
-99 -313 0
-99 -314 0
-99 -315 0
-99 -316 0
-144 99 312 313 314 315 316 0
-100 145 0
-317 144 0
-317 114 0
-144 -114 317 0
-318 146 0
-318 127 0
-146 -127 318 0
-319 147 0
-319 133 0
-147 -133 319 0
-320 148 0
-320 139 0
-148 -139 320 0
-321 149 0
-321 151 0
-149 -151 321 0
-100 -317 0
-100 -318 0
-100 -319 0
-100 -320 0
-100 -321 0
-145 100 317 318 319 320 321 0
-101 146 0
-322 144 0
-322 117 0
-144 -117 322 0
-323 145 0
-323 116 0
-145 -116 323 0
-324 147 0
-324 134 0
-147 -134 324 0
-325 148 0
-325 140 0
-148 -140 325 0
-326 149 0
-326 152 0
-149 -152 326 0
-101 -322 0
-101 -323 0
-101 -324 0
-101 -325 0
-101 -326 0
-146 101 322 323 324 325 326 0
-102 147 0
-327 144 0
-327 119 0
-144 -119 327 0
-328 145 0
-328 118 0
-145 -118 328 0
-329 146 0
-329 128 0
-146 -128 329 0
-330 148 0
-330 141 0
-148 -141 330 0
-331 149 0
-331 153 0
-149 -153 331 0
-102 -327 0
-102 -328 0
-102 -329 0
-102 -330 0
-102 -331 0
-147 102 327 328 329 330 331 0
-103 148 0
-332 144 0
-332 121 0
-144 -121 332 0
-333 145 0
-333 120 0
-145 -120 333 0
-334 146 0
-334 129 0
-146 -129 334 0
-335 147 0
-335 135 0
-147 -135 335 0
-336 149 0
-336 154 0
-149 -154 336 0
-103 -332 0
-103 -333 0
-103 -334 0
-103 -335 0
-103 -336 0
-148 103 332 333 334 335 336 0
-104 0
-105 149 0
-337 144 0
-337 125 0
-144 -125 337 0
-338 145 0
-338 124 0
-145 -124 338 0
-339 146 0
-339 131 0
-146 -131 339 0
-340 147 0
-340 137 0
-147 -137 340 0
-341 148 0
-341 143 0
-148 -143 341 0
-105 -337 0
-105 -338 0
-105 -339 0
-105 -340 0
-105 -341 0
-149 105 337 338 339 340 341 0
-106 150 0
-342 151 0
-342 115 0
-151 -115 342 0
-343 152 0
-343 126 0
-152 -126 343 0
-344 153 0
-344 132 0
-153 -132 344 0
-345 154 0
-345 138 0
-154 -138 345 0
-346 155 0
-346 144 0
-155 -144 346 0
-106 -342 0
-106 -343 0
-106 -344 0
-106 -345 0
-106 -346 0
-150 106 342 343 344 345 346 0
-107 151 0
-347 150 0
-347 114 0
-150 -114 347 0
-348 152 0
-348 127 0
-152 -127 348 0
-349 153 0
-349 133 0
-153 -133 349 0
-350 154 0
-350 139 0
-154 -139 350 0
-351 155 0
-351 145 0
-155 -145 351 0
-107 -347 0
-107 -348 0
-107 -349 0
-107 -350 0
-107 -351 0
-151 107 347 348 349 350 351 0
-108 152 0
-352 150 0
-352 117 0
-150 -117 352 0
-353 151 0
-353 116 0
-151 -116 353 0
-354 153 0
-354 134 0
-153 -134 354 0
-355 154 0
-355 140 0
-154 -140 355 0
-356 155 0
-356 146 0
-155 -146 356 0
-108 -352 0
-108 -353 0
-108 -354 0
-108 -355 0
-108 -356 0
-152 108 352 353 354 355 356 0
-109 153 0
-357 150 0
-357 119 0
-150 -119 357 0
-358 151 0
-358 118 0
-151 -118 358 0
-359 152 0
-359 128 0
-152 -128 359 0
-360 154 0
-360 141 0
-154 -141 360 0
-361 155 0
-361 147 0
-155 -147 361 0
-109 -357 0
-109 -358 0
-109 -359 0
-109 -360 0
-109 -361 0
-153 109 357 358 359 360 361 0
-110 154 0
-362 150 0
-362 121 0
-150 -121 362 0
-363 151 0
-363 120 0
-151 -120 363 0
-364 152 0
-364 129 0
-152 -129 364 0
-365 153 0
-365 135 0
-153 -135 365 0
-366 155 0
-366 148 0
-155 -148 366 0
-110 -362 0
-110 -363 0
-110 -364 0
-110 -365 0
-110 -366 0
-154 110 362 363 364 365 366 0
-111 155 0
-367 150 0
-367 123 0
-150 -123 367 0
-368 151 0
-368 122 0
-151 -122 368 0
-369 152 0
-369 130 0
-152 -130 369 0
-370 153 0
-370 136 0
-153 -136 370 0
-371 154 0
-371 142 0
-154 -142 371 0
-111 -367 0
-111 -368 0
-111 -369 0
-111 -370 0
-111 -371 0
-155 111 367 368 369 370 371 0
-112 0
