p cnf 544 2504
1 -2 -1 0
3 -4 -1 0
5 -6 -1 0
7 -8 -1 0
9 -10 -1 0
11 -12 -1 0
13 -14 -1 0
15 -16 -1 0
1 -17 -3 0
3 -18 -3 0
5 -19 -3 0
7 -20 -3 0
9 -21 -3 0
11 -22 -3 0
13 -23 -3 0
15 -24 -3 0
1 -25 -5 0
3 -26 -5 0
5 -27 -5 0
7 -28 -5 0
9 -29 -5 0
11 -30 -5 0
13 -31 -5 0
15 -32 -5 0
1 -33 -7 0
3 -34 -7 0
5 -35 -7 0
7 -36 -7 0
9 -37 -7 0
11 -38 -7 0
13 -39 -7 0
15 -40 -7 0
1 -41 -9 0
3 -42 -9 0
5 -43 -9 0
7 -44 -9 0
9 -45 -9 0
11 -46 -9 0
13 -47 -9 0
15 -48 -9 0
1 -49 -11 0
3 -50 -11 0
5 -51 -11 0
7 -52 -11 0
9 -53 -11 0
11 -54 -11 0
13 -55 -11 0
15 -56 -11 0
1 -57 -13 0
3 -58 -13 0
5 -59 -13 0
7 -60 -13 0
9 -61 -13 0
11 -62 -13 0
13 -63 -13 0
15 -64 -13 0
1 -65 -15 0
3 -66 -15 0
5 -67 -15 0
7 -68 -15 0
9 -69 -15 0
11 -70 -15 0
13 -71 -15 0
15 -72 -15 0
73 -74 -1 0
75 -76 -1 0
77 -78 -1 0
79 -80 -1 0
81 -82 -1 0
83 -84 -1 0
85 -86 -1 0
87 -88 -1 0
73 -89 -3 0
75 -90 -3 0
77 -91 -3 0
79 -92 -3 0
81 -93 -3 0
83 -94 -3 0
85 -95 -3 0
87 -96 -3 0
73 -97 -5 0
75 -98 -5 0
77 -99 -5 0
79 -100 -5 0
81 -101 -5 0
83 -102 -5 0
85 -103 -5 0
87 -104 -5 0
73 -105 -7 0
75 -106 -7 0
77 -107 -7 0
79 -108 -7 0
81 -109 -7 0
83 -110 -7 0
85 -111 -7 0
87 -112 -7 0
73 -113 -9 0
75 -114 -9 0
77 -115 -9 0
79 -116 -9 0
81 -117 -9 0
83 -118 -9 0
85 -119 -9 0
87 -120 -9 0
73 -121 -11 0
75 -122 -11 0
77 -123 -11 0
79 -124 -11 0
81 -125 -11 0
83 -126 -11 0
85 -127 -11 0
87 -128 -11 0
73 -129 -13 0
75 -130 -13 0
77 -131 -13 0
79 -132 -13 0
81 -133 -13 0
83 -134 -13 0
85 -135 -13 0
87 -136 -13 0
73 -137 -15 0
75 -138 -15 0
77 -139 -15 0
79 -140 -15 0
81 -141 -15 0
83 -142 -15 0
85 -143 -15 0
87 -144 -15 0
2 0
4 17 0
-4 -17 0
-4 -19 6 0
-4 -20 8 0
-4 -21 10 0
-4 -22 12 0
-4 -23 14 0
-4 -24 16 0
6 25 0
-6 -25 0
-6 -26 4 0
-6 -28 8 0
-6 -29 10 0
-6 -30 12 0
-6 -31 14 0
-6 -32 16 0
8 33 0
-8 -33 0
-8 -34 4 0
-8 -35 6 0
-8 -37 10 0
-8 -38 12 0
-8 -39 14 0
-8 -40 16 0
10 41 0
-10 -41 0
-10 -42 4 0
-10 -43 6 0
-10 -44 8 0
-10 -46 12 0
-10 -47 14 0
-10 -48 16 0
12 49 0
-12 -49 0
-12 -50 4 0
-12 -51 6 0
-12 -52 8 0
-12 -53 10 0
-12 -55 14 0
-12 -56 16 0
14 57 0
-14 -57 0
-14 -58 4 0
-14 -59 6 0
-14 -60 8 0
-14 -61 10 0
-14 -62 12 0
-14 -64 16 0
16 65 0
-16 -65 0
-16 -66 4 0
-16 -67 6 0
-16 -68 8 0
-16 -69 10 0
-16 -70 12 0
-16 -71 14 0
18 0
17 4 0
-17 -4 0
-17 -6 19 0
-17 -8 20 0
-17 -10 21 0
-17 -12 22 0
-17 -14 23 0
-17 -16 24 0
19 26 0
-19 -26 0
-19 -25 17 0
-19 -28 20 0
-19 -29 21 0
-19 -30 22 0
-19 -31 23 0
-19 -32 24 0
20 34 0
-20 -34 0
-20 -33 17 0
-20 -35 19 0
-20 -37 21 0
-20 -38 22 0
-20 -39 23 0
-20 -40 24 0
21 42 0
-21 -42 0
-21 -41 17 0
-21 -43 19 0
-21 -44 20 0
-21 -46 22 0
-21 -47 23 0
-21 -48 24 0
22 50 0
-22 -50 0
-22 -49 17 0
-22 -51 19 0
-22 -52 20 0
-22 -53 21 0
-22 -55 23 0
-22 -56 24 0
23 58 0
-23 -58 0
-23 -57 17 0
-23 -59 19 0
-23 -60 20 0
-23 -61 21 0
-23 -62 22 0
-23 -64 24 0
24 66 0
-24 -66 0
-24 -65 17 0
-24 -67 19 0
-24 -68 20 0
-24 -69 21 0
-24 -70 22 0
-24 -71 23 0
27 0
25 6 0
-25 -6 0
-25 -4 26 0
-25 -8 28 0
-25 -10 29 0
-25 -12 30 0
-25 -14 31 0
-25 -16 32 0
26 19 0
-26 -19 0
-26 -17 25 0
-26 -20 28 0
-26 -21 29 0
-26 -22 30 0
-26 -23 31 0
-26 -24 32 0
28 35 0
-28 -35 0
-28 -33 25 0
-28 -34 26 0
-28 -37 29 0
-28 -38 30 0
-28 -39 31 0
-28 -40 32 0
29 43 0
-29 -43 0
-29 -41 25 0
-29 -42 26 0
-29 -44 28 0
-29 -46 30 0
-29 -47 31 0
-29 -48 32 0
30 51 0
-30 -51 0
-30 -49 25 0
-30 -50 26 0
-30 -52 28 0
-30 -53 29 0
-30 -55 31 0
-30 -56 32 0
31 59 0
-31 -59 0
-31 -57 25 0
-31 -58 26 0
-31 -60 28 0
-31 -61 29 0
-31 -62 30 0
-31 -64 32 0
32 67 0
-32 -67 0
-32 -65 25 0
-32 -66 26 0
-32 -68 28 0
-32 -69 29 0
-32 -70 30 0
-32 -71 31 0
36 0
33 8 0
-33 -8 0
-33 -4 34 0
-33 -6 35 0
-33 -10 37 0
-33 -12 38 0
-33 -14 39 0
-33 -16 40 0
34 20 0
-34 -20 0
-34 -17 33 0
-34 -19 35 0
-34 -21 37 0
-34 -22 38 0
-34 -23 39 0
-34 -24 40 0
35 28 0
-35 -28 0
-35 -25 33 0
-35 -26 34 0
-35 -29 37 0
-35 -30 38 0
-35 -31 39 0
-35 -32 40 0
37 44 0
-37 -44 0
-37 -41 33 0
-37 -42 34 0
-37 -43 35 0
-37 -46 38 0
-37 -47 39 0
-37 -48 40 0
38 52 0
-38 -52 0
-38 -49 33 0
-38 -50 34 0
-38 -51 35 0
-38 -53 37 0
-38 -55 39 0
-38 -56 40 0
39 60 0
-39 -60 0
-39 -57 33 0
-39 -58 34 0
-39 -59 35 0
-39 -61 37 0
-39 -62 38 0
-39 -64 40 0
40 68 0
-40 -68 0
-40 -65 33 0
-40 -66 34 0
-40 -67 35 0
-40 -69 37 0
-40 -70 38 0
-40 -71 39 0
45 0
41 10 0
-41 -10 0
-41 -4 42 0
-41 -6 43 0
-41 -8 44 0
-41 -12 46 0
-41 -14 47 0
-41 -16 48 0
42 21 0
-42 -21 0
-42 -17 41 0
-42 -19 43 0
-42 -20 44 0
-42 -22 46 0
-42 -23 47 0
-42 -24 48 0
43 29 0
-43 -29 0
-43 -25 41 0
-43 -26 42 0
-43 -28 44 0
-43 -30 46 0
-43 -31 47 0
-43 -32 48 0
44 37 0
-44 -37 0
-44 -33 41 0
-44 -34 42 0
-44 -35 43 0
-44 -38 46 0
-44 -39 47 0
-44 -40 48 0
46 53 0
-46 -53 0
-46 -49 41 0
-46 -50 42 0
-46 -51 43 0
-46 -52 44 0
-46 -55 47 0
-46 -56 48 0
47 61 0
-47 -61 0
-47 -57 41 0
-47 -58 42 0
-47 -59 43 0
-47 -60 44 0
-47 -62 46 0
-47 -64 48 0
48 69 0
-48 -69 0
-48 -65 41 0
-48 -66 42 0
-48 -67 43 0
-48 -68 44 0
-48 -70 46 0
-48 -71 47 0
54 0
49 12 0
-49 -12 0
-49 -4 50 0
-49 -6 51 0
-49 -8 52 0
-49 -10 53 0
-49 -14 55 0
-49 -16 56 0
50 22 0
-50 -22 0
-50 -17 49 0
-50 -19 51 0
-50 -20 52 0
-50 -21 53 0
-50 -23 55 0
-50 -24 56 0
51 30 0
-51 -30 0
-51 -25 49 0
-51 -26 50 0
-51 -28 52 0
-51 -29 53 0
-51 -31 55 0
-51 -32 56 0
52 38 0
-52 -38 0
-52 -33 49 0
-52 -34 50 0
-52 -35 51 0
-52 -37 53 0
-52 -39 55 0
-52 -40 56 0
53 46 0
-53 -46 0
-53 -41 49 0
-53 -42 50 0
-53 -43 51 0
-53 -44 52 0
-53 -47 55 0
-53 -48 56 0
55 62 0
-55 -62 0
-55 -57 49 0
-55 -58 50 0
-55 -59 51 0
-55 -60 52 0
-55 -61 53 0
-55 -64 56 0
56 70 0
-56 -70 0
-56 -65 49 0
-56 -66 50 0
-56 -67 51 0
-56 -68 52 0
-56 -69 53 0
-56 -71 55 0
63 0
57 14 0
-57 -14 0
-57 -4 58 0
-57 -6 59 0
-57 -8 60 0
-57 -10 61 0
-57 -12 62 0
-57 -16 64 0
58 23 0
-58 -23 0
-58 -17 57 0
-58 -19 59 0
-58 -20 60 0
-58 -21 61 0
-58 -22 62 0
-58 -24 64 0
59 31 0
-59 -31 0
-59 -25 57 0
-59 -26 58 0
-59 -28 60 0
-59 -29 61 0
-59 -30 62 0
-59 -32 64 0
60 39 0
-60 -39 0
-60 -33 57 0
-60 -34 58 0
-60 -35 59 0
-60 -37 61 0
-60 -38 62 0
-60 -40 64 0
61 47 0
-61 -47 0
-61 -41 57 0
-61 -42 58 0
-61 -43 59 0
-61 -44 60 0
-61 -46 62 0
-61 -48 64 0
62 55 0
-62 -55 0
-62 -49 57 0
-62 -50 58 0
-62 -51 59 0
-62 -52 60 0
-62 -53 61 0
-62 -56 64 0
64 71 0
-64 -71 0
-64 -65 57 0
-64 -66 58 0
-64 -67 59 0
-64 -68 60 0
-64 -69 61 0
-64 -70 62 0
72 0
65 16 0
-65 -16 0
-65 -4 66 0
-65 -6 67 0
-65 -8 68 0
-65 -10 69 0
-65 -12 70 0
-65 -14 71 0
66 24 0
-66 -24 0
-66 -17 65 0
-66 -19 67 0
-66 -20 68 0
-66 -21 69 0
-66 -22 70 0
-66 -23 71 0
67 32 0
-67 -32 0
-67 -25 65 0
-67 -26 66 0
-67 -28 68 0
-67 -29 69 0
-67 -30 70 0
-67 -31 71 0
68 40 0
-68 -40 0
-68 -33 65 0
-68 -34 66 0
-68 -35 67 0
-68 -37 69 0
-68 -38 70 0
-68 -39 71 0
69 48 0
-69 -48 0
-69 -41 65 0
-69 -42 66 0
-69 -43 67 0
-69 -44 68 0
-69 -46 70 0
-69 -47 71 0
70 56 0
-70 -56 0
-70 -49 65 0
-70 -50 66 0
-70 -51 67 0
-70 -52 68 0
-70 -53 69 0
-70 -55 71 0
71 64 0
-71 -64 0
-71 -57 65 0
-71 -58 66 0
-71 -59 67 0
-71 -60 68 0
-71 -61 69 0
-71 -62 70 0
145 0
146 147 0
-146 -147 0
-146 -148 149 0
-146 -150 151 0
-146 -152 153 0
-146 -154 155 0
-146 -156 157 0
-146 -158 159 0
149 160 0
-149 -160 0
-149 -161 146 0
-149 -162 151 0
-149 -163 153 0
-149 -164 155 0
-149 -165 157 0
-149 -166 159 0
151 167 0
-151 -167 0
-151 -168 146 0
-151 -169 149 0
-151 -170 153 0
-151 -171 155 0
-151 -172 157 0
-151 -173 159 0
153 174 0
-153 -174 0
-153 -175 146 0
-153 -176 149 0
-153 -177 151 0
-153 -178 155 0
-153 -179 157 0
-153 -180 159 0
155 181 0
-155 -181 0
-155 -182 146 0
-155 -183 149 0
-155 -184 151 0
-155 -185 153 0
-155 -186 157 0
-155 -187 159 0
157 188 0
-157 -188 0
-157 -189 146 0
-157 -190 149 0
-157 -191 151 0
-157 -192 153 0
-157 -193 155 0
-157 -194 159 0
159 195 0
-159 -195 0
-159 -196 146 0
-159 -197 149 0
-159 -198 151 0
-159 -199 153 0
-159 -200 155 0
-159 -201 157 0
202 0
147 146 0
-147 -146 0
-147 -149 148 0
-147 -151 150 0
-147 -153 152 0
-147 -155 154 0
-147 -157 156 0
-147 -159 158 0
148 161 0
-148 -161 0
-148 -160 147 0
-148 -162 150 0
-148 -163 152 0
-148 -164 154 0
-148 -165 156 0
-148 -166 158 0
150 168 0
-150 -168 0
-150 -167 147 0
-150 -169 148 0
-150 -170 152 0
-150 -171 154 0
-150 -172 156 0
-150 -173 158 0
152 175 0
-152 -175 0
-152 -174 147 0
-152 -176 148 0
-152 -177 150 0
-152 -178 154 0
-152 -179 156 0
-152 -180 158 0
154 182 0
-154 -182 0
-154 -181 147 0
-154 -183 148 0
-154 -184 150 0
-154 -185 152 0
-154 -186 156 0
-154 -187 158 0
156 189 0
-156 -189 0
-156 -188 147 0
-156 -190 148 0
-156 -191 150 0
-156 -192 152 0
-156 -193 154 0
-156 -194 158 0
158 196 0
-158 -196 0
-158 -195 147 0
-158 -197 148 0
-158 -198 150 0
-158 -199 152 0
-158 -200 154 0
-158 -201 156 0
203 0
160 149 0
-160 -149 0
-160 -146 161 0
-160 -151 162 0
-160 -153 163 0
-160 -155 164 0
-160 -157 165 0
-160 -159 166 0
161 148 0
-161 -148 0
-161 -147 160 0
-161 -150 162 0
-161 -152 163 0
-161 -154 164 0
-161 -156 165 0
-161 -158 166 0
162 169 0
-162 -169 0
-162 -167 160 0
-162 -168 161 0
-162 -170 163 0
-162 -171 164 0
-162 -172 165 0
-162 -173 166 0
163 176 0
-163 -176 0
-163 -174 160 0
-163 -175 161 0
-163 -177 162 0
-163 -178 164 0
-163 -179 165 0
-163 -180 166 0
164 183 0
-164 -183 0
-164 -181 160 0
-164 -182 161 0
-164 -184 162 0
-164 -185 163 0
-164 -186 165 0
-164 -187 166 0
165 190 0
-165 -190 0
-165 -188 160 0
-165 -189 161 0
-165 -191 162 0
-165 -192 163 0
-165 -193 164 0
-165 -194 166 0
166 197 0
-166 -197 0
-166 -195 160 0
-166 -196 161 0
-166 -198 162 0
-166 -199 163 0
-166 -200 164 0
-166 -201 165 0
204 0
167 151 0
-167 -151 0
-167 -146 168 0
-167 -149 169 0
-167 -153 170 0
-167 -155 171 0
-167 -157 172 0
-167 -159 173 0
168 150 0
-168 -150 0
-168 -147 167 0
-168 -148 169 0
-168 -152 170 0
-168 -154 171 0
-168 -156 172 0
-168 -158 173 0
169 162 0
-169 -162 0
-169 -160 167 0
-169 -161 168 0
-169 -163 170 0
-169 -164 171 0
-169 -165 172 0
-169 -166 173 0
170 177 0
-170 -177 0
-170 -174 167 0
-170 -175 168 0
-170 -176 169 0
-170 -178 171 0
-170 -179 172 0
-170 -180 173 0
171 184 0
-171 -184 0
-171 -181 167 0
-171 -182 168 0
-171 -183 169 0
-171 -185 170 0
-171 -186 172 0
-171 -187 173 0
172 191 0
-172 -191 0
-172 -188 167 0
-172 -189 168 0
-172 -190 169 0
-172 -192 170 0
-172 -193 171 0
-172 -194 173 0
173 198 0
-173 -198 0
-173 -195 167 0
-173 -196 168 0
-173 -197 169 0
-173 -199 170 0
-173 -200 171 0
-173 -201 172 0
205 0
174 153 0
-174 -153 0
-174 -146 175 0
-174 -149 176 0
-174 -151 177 0
-174 -155 178 0
-174 -157 179 0
-174 -159 180 0
175 152 0
-175 -152 0
-175 -147 174 0
-175 -148 176 0
-175 -150 177 0
-175 -154 178 0
-175 -156 179 0
-175 -158 180 0
176 163 0
-176 -163 0
-176 -160 174 0
-176 -161 175 0
-176 -162 177 0
-176 -164 178 0
-176 -165 179 0
-176 -166 180 0
177 170 0
-177 -170 0
-177 -167 174 0
-177 -168 175 0
-177 -169 176 0
-177 -171 178 0
-177 -172 179 0
-177 -173 180 0
178 185 0
-178 -185 0
-178 -181 174 0
-178 -182 175 0
-178 -183 176 0
-178 -184 177 0
-178 -186 179 0
-178 -187 180 0
179 192 0
-179 -192 0
-179 -188 174 0
-179 -189 175 0
-179 -190 176 0
-179 -191 177 0
-179 -193 178 0
-179 -194 180 0
180 199 0
-180 -199 0
-180 -195 174 0
-180 -196 175 0
-180 -197 176 0
-180 -198 177 0
-180 -200 178 0
-180 -201 179 0
206 0
181 155 0
-181 -155 0
-181 -146 182 0
-181 -149 183 0
-181 -151 184 0
-181 -153 185 0
-181 -157 186 0
-181 -159 187 0
182 154 0
-182 -154 0
-182 -147 181 0
-182 -148 183 0
-182 -150 184 0
-182 -152 185 0
-182 -156 186 0
-182 -158 187 0
183 164 0
-183 -164 0
-183 -160 181 0
-183 -161 182 0
-183 -162 184 0
-183 -163 185 0
-183 -165 186 0
-183 -166 187 0
184 171 0
-184 -171 0
-184 -167 181 0
-184 -168 182 0
-184 -169 183 0
-184 -170 185 0
-184 -172 186 0
-184 -173 187 0
185 178 0
-185 -178 0
-185 -174 181 0
-185 -175 182 0
-185 -176 183 0
-185 -177 184 0
-185 -179 186 0
-185 -180 187 0
186 193 0
-186 -193 0
-186 -188 181 0
-186 -189 182 0
-186 -190 183 0
-186 -191 184 0
-186 -192 185 0
-186 -194 187 0
187 200 0
-187 -200 0
-187 -195 181 0
-187 -196 182 0
-187 -197 183 0
-187 -198 184 0
-187 -199 185 0
-187 -201 186 0
207 0
188 157 0
-188 -157 0
-188 -146 189 0
-188 -149 190 0
-188 -151 191 0
-188 -153 192 0
-188 -155 193 0
-188 -159 194 0
189 156 0
-189 -156 0
-189 -147 188 0
-189 -148 190 0
-189 -150 191 0
-189 -152 192 0
-189 -154 193 0
-189 -158 194 0
190 165 0
-190 -165 0
-190 -160 188 0
-190 -161 189 0
-190 -162 191 0
-190 -163 192 0
-190 -164 193 0
-190 -166 194 0
191 172 0
-191 -172 0
-191 -167 188 0
-191 -168 189 0
-191 -169 190 0
-191 -170 192 0
-191 -171 193 0
-191 -173 194 0
192 179 0
-192 -179 0
-192 -174 188 0
-192 -175 189 0
-192 -176 190 0
-192 -177 191 0
-192 -178 193 0
-192 -180 194 0
193 186 0
-193 -186 0
-193 -181 188 0
-193 -182 189 0
-193 -183 190 0
-193 -184 191 0
-193 -185 192 0
-193 -187 194 0
194 201 0
-194 -201 0
-194 -195 188 0
-194 -196 189 0
-194 -197 190 0
-194 -198 191 0
-194 -199 192 0
-194 -200 193 0
208 0
195 159 0
-195 -159 0
-195 -146 196 0
-195 -149 197 0
-195 -151 198 0
-195 -153 199 0
-195 -155 200 0
-195 -157 201 0
196 158 0
-196 -158 0
-196 -147 195 0
-196 -148 197 0
-196 -150 198 0
-196 -152 199 0
-196 -154 200 0
-196 -156 201 0
197 166 0
-197 -166 0
-197 -160 195 0
-197 -161 196 0
-197 -162 198 0
-197 -163 199 0
-197 -164 200 0
-197 -165 201 0
198 173 0
-198 -173 0
-198 -167 195 0
-198 -168 196 0
-198 -169 197 0
-198 -170 199 0
-198 -171 200 0
-198 -172 201 0
199 180 0
-199 -180 0
-199 -174 195 0
-199 -175 196 0
-199 -176 197 0
-199 -177 198 0
-199 -178 200 0
-199 -179 201 0
200 187 0
-200 -187 0
-200 -181 195 0
-200 -182 196 0
-200 -183 197 0
-200 -184 198 0
-200 -185 199 0
-200 -186 201 0
201 194 0
-201 -194 0
-201 -188 195 0
-201 -189 196 0
-201 -190 197 0
-201 -191 198 0
-201 -192 199 0
-201 -193 200 0
-74 0
-76 146 0
-209 149 0
-209 161 0
-149 -161 209 0
-210 151 0
-210 168 0
-151 -168 210 0
-211 153 0
-211 175 0
-153 -175 211 0
-212 155 0
-212 182 0
-155 -182 212 0
-213 157 0
-213 189 0
-157 -189 213 0
-214 159 0
-214 196 0
-159 -196 214 0
-76 -209 0
-76 -210 0
-76 -211 0
-76 -212 0
-76 -213 0
-76 -214 0
-146 76 209 210 211 212 213 214 0
-78 149 0
-215 146 0
-215 148 0
-146 -148 215 0
-216 151 0
-216 169 0
-151 -169 216 0
-217 153 0
-217 176 0
-153 -176 217 0
-218 155 0
-218 183 0
-155 -183 218 0
-219 157 0
-219 190 0
-157 -190 219 0
-220 159 0
-220 197 0
-159 -197 220 0
-78 -215 0
-78 -216 0
-78 -217 0
-78 -218 0
-78 -219 0
-78 -220 0
-149 78 215 216 217 218 219 220 0
-80 151 0
-221 146 0
-221 150 0
-146 -150 221 0
-222 149 0
-222 162 0
-149 -162 222 0
-223 153 0
-223 177 0
-153 -177 223 0
-224 155 0
-224 184 0
-155 -184 224 0
-225 157 0
-225 191 0
-157 -191 225 0
-226 159 0
-226 198 0
-159 -198 226 0
-80 -221 0
-80 -222 0
-80 -223 0
-80 -224 0
-80 -225 0
-80 -226 0
-151 80 221 222 223 224 225 226 0
-82 153 0
-227 146 0
-227 152 0
-146 -152 227 0
-228 149 0
-228 163 0
-149 -163 228 0
-229 151 0
-229 170 0
-151 -170 229 0
-230 155 0
-230 185 0
-155 -185 230 0
-231 157 0
-231 192 0
-157 -192 231 0
-232 159 0
-232 199 0
-159 -199 232 0
-82 -227 0
-82 -228 0
-82 -229 0
-82 -230 0
-82 -231 0
-82 -232 0
-153 82 227 228 229 230 231 232 0
-84 155 0
-233 146 0
-233 154 0
-146 -154 233 0
-234 149 0
-234 164 0
-149 -164 234 0
-235 151 0
-235 171 0
-151 -171 235 0
-236 153 0
-236 178 0
-153 -178 236 0
-237 157 0
-237 193 0
-157 -193 237 0
-238 159 0
-238 200 0
-159 -200 238 0
-84 -233 0
-84 -234 0
-84 -235 0
-84 -236 0
-84 -237 0
-84 -238 0
-155 84 233 234 235 236 237 238 0
-86 157 0
-239 146 0
-239 156 0
-146 -156 239 0
-240 149 0
-240 165 0
-149 -165 240 0
-241 151 0
-241 172 0
-151 -172 241 0
-242 153 0
-242 179 0
-153 -179 242 0
-243 155 0
-243 186 0
-155 -186 243 0
-244 159 0
-244 201 0
-159 -201 244 0
-86 -239 0
-86 -240 0
-86 -241 0
-86 -242 0
-86 -243 0
-86 -244 0
-157 86 239 240 241 242 243 244 0
-88 159 0
-245 146 0
-245 158 0
-146 -158 245 0
-246 149 0
-246 166 0
-149 -166 246 0
-247 151 0
-247 173 0
-151 -173 247 0
-248 153 0
-248 180 0
-153 -180 248 0
-249 155 0
-249 187 0
-155 -187 249 0
-250 157 0
-250 194 0
-157 -194 250 0
-88 -245 0
-88 -246 0
-88 -247 0
-88 -248 0
-88 -249 0
-88 -250 0
-159 88 245 246 247 248 249 250 0
-89 147 0
-251 148 0
-251 160 0
-148 -160 251 0
-252 150 0
-252 167 0
-150 -167 252 0
-253 152 0
-253 174 0
-152 -174 253 0
-254 154 0
-254 181 0
-154 -181 254 0
-255 156 0
-255 188 0
-156 -188 255 0
-256 158 0
-256 195 0
-158 -195 256 0
-89 -251 0
-89 -252 0
-89 -253 0
-89 -254 0
-89 -255 0
-89 -256 0
-147 89 251 252 253 254 255 256 0
-90 0
-91 148 0
-257 147 0
-257 149 0
-147 -149 257 0
-258 150 0
-258 169 0
-150 -169 258 0
-259 152 0
-259 176 0
-152 -176 259 0
-260 154 0
-260 183 0
-154 -183 260 0
-261 156 0
-261 190 0
-156 -190 261 0
-262 158 0
-262 197 0
-158 -197 262 0
-91 -257 0
-91 -258 0
-91 -259 0
-91 -260 0
-91 -261 0
-91 -262 0
-148 91 257 258 259 260 261 262 0
-92 150 0
-263 147 0
-263 151 0
-147 -151 263 0
-264 148 0
-264 162 0
-148 -162 264 0
-265 152 0
-265 177 0
-152 -177 265 0
-266 154 0
-266 184 0
-154 -184 266 0
-267 156 0
-267 191 0
-156 -191 267 0
-268 158 0
-268 198 0
-158 -198 268 0
-92 -263 0
-92 -264 0
-92 -265 0
-92 -266 0
-92 -267 0
-92 -268 0
-150 92 263 264 265 266 267 268 0
-93 152 0
-269 147 0
-269 153 0
-147 -153 269 0
-270 148 0
-270 163 0
-148 -163 270 0
-271 150 0
-271 170 0
-150 -170 271 0
-272 154 0
-272 185 0
-154 -185 272 0
-273 156 0
-273 192 0
-156 -192 273 0
-274 158 0
-274 199 0
-158 -199 274 0
-93 -269 0
-93 -270 0
-93 -271 0
-93 -272 0
-93 -273 0
-93 -274 0
-152 93 269 270 271 272 273 274 0
-94 154 0
-275 147 0
-275 155 0
-147 -155 275 0
-276 148 0
-276 164 0
-148 -164 276 0
-277 150 0
-277 171 0
-150 -171 277 0
-278 152 0
-278 178 0
-152 -178 278 0
-279 156 0
-279 193 0
-156 -193 279 0
-280 158 0
-280 200 0
-158 -200 280 0
-94 -275 0
-94 -276 0
-94 -277 0
-94 -278 0
-94 -279 0
-94 -280 0
-154 94 275 276 277 278 279 280 0
-95 156 0
-281 147 0
-281 157 0
-147 -157 281 0
-282 148 0
-282 165 0
-148 -165 282 0
-283 150 0
-283 172 0
-150 -172 283 0
-284 152 0
-284 179 0
-152 -179 284 0
-285 154 0
-285 186 0
-154 -186 285 0
-286 158 0
-286 201 0
-158 -201 286 0
-95 -281 0
-95 -282 0
-95 -283 0
-95 -284 0
-95 -285 0
-95 -286 0
-156 95 281 282 283 284 285 286 0
-96 158 0
-287 147 0
-287 159 0
-147 -159 287 0
-288 148 0
-288 166 0
-148 -166 288 0
-289 150 0
-289 173 0
-150 -173 289 0
-290 152 0
-290 180 0
-152 -180 290 0
-291 154 0
-291 187 0
-154 -187 291 0
-292 156 0
-292 194 0
-156 -194 292 0
-96 -287 0
-96 -288 0
-96 -289 0
-96 -290 0
-96 -291 0
-96 -292 0
-158 96 287 288 289 290 291 292 0
-97 160 0
-293 161 0
-293 147 0
-161 -147 293 0
-294 162 0
-294 167 0
-162 -167 294 0
-295 163 0
-295 174 0
-163 -174 295 0
-296 164 0
-296 181 0
-164 -181 296 0
-297 165 0
-297 188 0
-165 -188 297 0
-298 166 0
-298 195 0
-166 -195 298 0
-97 -293 0
-97 -294 0
-97 -295 0
-97 -296 0
-97 -297 0
-97 -298 0
-160 97 293 294 295 296 297 298 0
-98 161 0
-299 160 0
-299 146 0
-160 -146 299 0
-300 162 0
-300 168 0
-162 -168 300 0
-301 163 0
-301 175 0
-163 -175 301 0
-302 164 0
-302 182 0
-164 -182 302 0
-303 165 0
-303 189 0
-165 -189 303 0
-304 166 0
-304 196 0
-166 -196 304 0
-98 -299 0
-98 -300 0
-98 -301 0
-98 -302 0
-98 -303 0
-98 -304 0
-161 98 299 300 301 302 303 304 0
-99 0
-100 162 0
-305 160 0
-305 151 0
-160 -151 305 0
-306 161 0
-306 150 0
-161 -150 306 0
-307 163 0
-307 177 0
-163 -177 307 0
-308 164 0
-308 184 0
-164 -184 308 0
-309 165 0
-309 191 0
-165 -191 309 0
-310 166 0
-310 198 0
-166 -198 310 0
-100 -305 0
-100 -306 0
-100 -307 0
-100 -308 0
-100 -309 0
-100 -310 0
-162 100 305 306 307 308 309 310 0
-101 163 0
-311 160 0
-311 153 0
-160 -153 311 0
-312 161 0
-312 152 0
-161 -152 312 0
-313 162 0
-313 170 0
-162 -170 313 0
-314 164 0
-314 185 0
-164 -185 314 0
-315 165 0
-315 192 0
-165 -192 315 0
-316 166 0
-316 199 0
-166 -199 316 0
-101 -311 0
-101 -312 0
-101 -313 0
-101 -314 0
-101 -315 0
-101 -316 0
-163 101 311 312 313 314 315 316 0
-102 164 0
-317 160 0
-317 155 0
-160 -155 317 0
-318 161 0
-318 154 0
-161 -154 318 0
-319 162 0
-319 171 0
-162 -171 319 0
-320 163 0
-320 178 0
-163 -178 320 0
-321 165 0
-321 193 0
-165 -193 321 0
-322 166 0
-322 200 0
-166 -200 322 0
-102 -317 0
-102 -318 0
-102 -319 0
-102 -320 0
-102 -321 0
-102 -322 0
-164 102 317 318 319 320 321 322 0
-103 165 0
-323 160 0
-323 157 0
-160 -157 323 0
-324 161 0
-324 156 0
-161 -156 324 0
-325 162 0
-325 172 0
-162 -172 325 0
-326 163 0
-326 179 0
-163 -179 326 0
-327 164 0
-327 186 0
-164 -186 327 0
-328 166 0
-328 201 0
-166 -201 328 0
-103 -323 0
-103 -324 0
-103 -325 0
-103 -326 0
-103 -327 0
-103 -328 0
-165 103 323 324 325 326 327 328 0
-104 166 0
-329 160 0
-329 159 0
-160 -159 329 0
-330 161 0
-330 158 0
-161 -158 330 0
-331 162 0
-331 173 0
-162 -173 331 0
-332 163 0
-332 180 0
-163 -180 332 0
-333 164 0
-333 187 0
-164 -187 333 0
-334 165 0
-334 194 0
-165 -194 334 0
-104 -329 0
-104 -330 0
-104 -331 0
-104 -332 0
-104 -333 0
-104 -334 0
-166 104 329 330 331 332 333 334 0
-105 167 0
-335 168 0
-335 147 0
-168 -147 335 0
-336 169 0
-336 160 0
-169 -160 336 0
-337 170 0
-337 174 0
-170 -174 337 0
-338 171 0
-338 181 0
-171 -181 338 0
-339 172 0
-339 188 0
-172 -188 339 0
-340 173 0
-340 195 0
-173 -195 340 0
-105 -335 0
-105 -336 0
-105 -337 0
-105 -338 0
-105 -339 0
-105 -340 0
-167 105 335 336 337 338 339 340 0
-106 168 0
-341 167 0
-341 146 0
-167 -146 341 0
-342 169 0
-342 161 0
-169 -161 342 0
-343 170 0
-343 175 0
-170 -175 343 0
-344 171 0
-344 182 0
-171 -182 344 0
-345 172 0
-345 189 0
-172 -189 345 0
-346 173 0
-346 196 0
-173 -196 346 0
-106 -341 0
-106 -342 0
-106 -343 0
-106 -344 0
-106 -345 0
-106 -346 0
-168 106 341 342 343 344 345 346 0
-107 169 0
-347 167 0
-347 149 0
-167 -149 347 0
-348 168 0
-348 148 0
-168 -148 348 0
-349 170 0
-349 176 0
-170 -176 349 0
-350 171 0
-350 183 0
-171 -183 350 0
-351 172 0
-351 190 0
-172 -190 351 0
-352 173 0
-352 197 0
-173 -197 352 0
-107 -347 0
-107 -348 0
-107 -349 0
-107 -350 0
-107 -351 0
-107 -352 0
-169 107 347 348 349 350 351 352 0
-108 0
-109 170 0
-353 167 0
-353 153 0
-167 -153 353 0
-354 168 0
-354 152 0
-168 -152 354 0
-355 169 0
-355 163 0
-169 -163 355 0
-356 171 0
-356 185 0
-171 -185 356 0
-357 172 0
-357 192 0
-172 -192 357 0
-358 173 0
-358 199 0
-173 -199 358 0
-109 -353 0
-109 -354 0
-109 -355 0
-109 -356 0
-109 -357 0
-109 -358 0
-170 109 353 354 355 356 357 358 0
-110 171 0
-359 167 0
-359 155 0
-167 -155 359 0
-360 168 0
-360 154 0
-168 -154 360 0
-361 169 0
-361 164 0
-169 -164 361 0
-362 170 0
-362 178 0
-170 -178 362 0
-363 172 0
-363 193 0
-172 -193 363 0
-364 173 0
-364 200 0
-173 -200 364 0
-110 -359 0
-110 -360 0
-110 -361 0
-110 -362 0
-110 -363 0
-110 -364 0
-171 110 359 360 361 362 363 364 0
-111 172 0
-365 167 0
-365 157 0
-167 -157 365 0
-366 168 0
-366 156 0
-168 -156 366 0
-367 169 0
-367 165 0
-169 -165 367 0
-368 170 0
-368 179 0
-170 -179 368 0
-369 171 0
-369 186 0
-171 -186 369 0
-370 173 0
-370 201 0
-173 -201 370 0
-111 -365 0
-111 -366 0
-111 -367 0
-111 -368 0
-111 -369 0
-111 -370 0
-172 111 365 366 367 368 369 370 0
-112 173 0
-371 167 0
-371 159 0
-167 -159 371 0
-372 168 0
-372 158 0
-168 -158 372 0
-373 169 0
-373 166 0
-169 -166 373 0
-374 170 0
-374 180 0
-170 -180 374 0
-375 171 0
-375 187 0
-171 -187 375 0
-376 172 0
-376 194 0
-172 -194 376 0
-112 -371 0
-112 -372 0
-112 -373 0
-112 -374 0
-112 -375 0
-112 -376 0
-173 112 371 372 373 374 375 376 0
-113 174 0
-377 175 0
-377 147 0
-175 -147 377 0
-378 176 0
-378 160 0
-176 -160 378 0
-379 177 0
-379 167 0
-177 -167 379 0
-380 178 0
-380 181 0
-178 -181 380 0
-381 179 0
-381 188 0
-179 -188 381 0
-382 180 0
-382 195 0
-180 -195 382 0
-113 -377 0
-113 -378 0
-113 -379 0
-113 -380 0
-113 -381 0
-113 -382 0
-174 113 377 378 379 380 381 382 0
-114 175 0
-383 174 0
-383 146 0
-174 -146 383 0
-384 176 0
-384 161 0
-176 -161 384 0
-385 177 0
-385 168 0
-177 -168 385 0
-386 178 0
-386 182 0
-178 -182 386 0
-387 179 0
-387 189 0
-179 -189 387 0
-388 180 0
-388 196 0
-180 -196 388 0
-114 -383 0
-114 -384 0
-114 -385 0
-114 -386 0
-114 -387 0
-114 -388 0
-175 114 383 384 385 386 387 388 0
-115 176 0
-389 174 0
-389 149 0
-174 -149 389 0
-390 175 0
-390 148 0
-175 -148 390 0
-391 177 0
-391 169 0
-177 -169 391 0
-392 178 0
-392 183 0
-178 -183 392 0
-393 179 0
-393 190 0
-179 -190 393 0
-394 180 0
-394 197 0
-180 -197 394 0
-115 -389 0
-115 -390 0
-115 -391 0
-115 -392 0
-115 -393 0
-115 -394 0
-176 115 389 390 391 392 393 394 0
-116 177 0
-395 174 0
-395 151 0
-174 -151 395 0
-396 175 0
-396 150 0
-175 -150 396 0
-397 176 0
-397 162 0
-176 -162 397 0
-398 178 0
-398 184 0
-178 -184 398 0
-399 179 0
-399 191 0
-179 -191 399 0
-400 180 0
-400 198 0
-180 -198 400 0
-116 -395 0
-116 -396 0
-116 -397 0
-116 -398 0
-116 -399 0
-116 -400 0
-177 116 395 396 397 398 399 400 0
-117 0
-118 178 0
-401 174 0
-401 155 0
-174 -155 401 0
-402 175 0
-402 154 0
-175 -154 402 0
-403 176 0
-403 164 0
-176 -164 403 0
-404 177 0
-404 171 0
-177 -171 404 0
-405 179 0
-405 193 0
-179 -193 405 0
-406 180 0
-406 200 0
-180 -200 406 0
-118 -401 0
-118 -402 0
-118 -403 0
-118 -404 0
-118 -405 0
-118 -406 0
-178 118 401 402 403 404 405 406 0
-119 179 0
-407 174 0
-407 157 0
-174 -157 407 0
-408 175 0
-408 156 0
-175 -156 408 0
-409 176 0
-409 165 0
-176 -165 409 0
-410 177 0
-410 172 0
-177 -172 410 0
-411 178 0
-411 186 0
-178 -186 411 0
-412 180 0
-412 201 0
-180 -201 412 0
-119 -407 0
-119 -408 0
-119 -409 0
-119 -410 0
-119 -411 0
-119 -412 0
-179 119 407 408 409 410 411 412 0
-120 180 0
-413 174 0
-413 159 0
-174 -159 413 0
-414 175 0
-414 158 0
-175 -158 414 0
-415 176 0
-415 166 0
-176 -166 415 0
-416 177 0
-416 173 0
-177 -173 416 0
-417 178 0
-417 187 0
-178 -187 417 0
-418 179 0
-418 194 0
-179 -194 418 0
-120 -413 0
-120 -414 0
-120 -415 0
-120 -416 0
-120 -417 0
-120 -418 0
-180 120 413 414 415 416 417 418 0
-121 181 0
-419 182 0
-419 147 0
-182 -147 419 0
-420 183 0
-420 160 0
-183 -160 420 0
-421 184 0
-421 167 0
-184 -167 421 0
-422 185 0
-422 174 0
-185 -174 422 0
-423 186 0
-423 188 0
-186 -188 423 0
-424 187 0
-424 195 0
-187 -195 424 0
-121 -419 0
-121 -420 0
-121 -421 0
-121 -422 0
-121 -423 0
-121 -424 0
-181 121 419 420 421 422 423 424 0
-122 182 0
-425 181 0
-425 146 0
-181 -146 425 0
-426 183 0
-426 161 0
-183 -161 426 0
-427 184 0
-427 168 0
-184 -168 427 0
-428 185 0
-428 175 0
-185 -175 428 0
-429 186 0
-429 189 0
-186 -189 429 0
-430 187 0
-430 196 0
-187 -196 430 0
-122 -425 0
-122 -426 0
-122 -427 0
-122 -428 0
-122 -429 0
-122 -430 0
-182 122 425 426 427 428 429 430 0
-123 183 0
-431 181 0
-431 149 0
-181 -149 431 0
-432 182 0
-432 148 0
-182 -148 432 0
-433 184 0
-433 169 0
-184 -169 433 0
-434 185 0
-434 176 0
-185 -176 434 0
-435 186 0
-435 190 0
-186 -190 435 0
-436 187 0
-436 197 0
-187 -197 436 0
-123 -431 0
-123 -432 0
-123 -433 0
-123 -434 0
-123 -435 0
-123 -436 0
-183 123 431 432 433 434 435 436 0
-124 184 0
-437 181 0
-437 151 0
-181 -151 437 0
-438 182 0
-438 150 0
-182 -150 438 0
-439 183 0
-439 162 0
-183 -162 439 0
-440 185 0
-440 177 0
-185 -177 440 0
-441 186 0
-441 191 0
-186 -191 441 0
-442 187 0
-442 198 0
-187 -198 442 0
-124 -437 0
-124 -438 0
-124 -439 0
-124 -440 0
-124 -441 0
-124 -442 0
-184 124 437 438 439 440 441 442 0
-125 185 0
-443 181 0
-443 153 0
-181 -153 443 0
-444 182 0
-444 152 0
-182 -152 444 0
-445 183 0
-445 163 0
-183 -163 445 0
-446 184 0
-446 170 0
-184 -170 446 0
-447 186 0
-447 192 0
-186 -192 447 0
-448 187 0
-448 199 0
-187 -199 448 0
-125 -443 0
-125 -444 0
-125 -445 0
-125 -446 0
-125 -447 0
-125 -448 0
-185 125 443 444 445 446 447 448 0
-126 0
-127 186 0
-449 181 0
-449 157 0
-181 -157 449 0
-450 182 0
-450 156 0
-182 -156 450 0
-451 183 0
-451 165 0
-183 -165 451 0
-452 184 0
-452 172 0
-184 -172 452 0
-453 185 0
-453 179 0
-185 -179 453 0
-454 187 0
-454 201 0
-187 -201 454 0
-127 -449 0
-127 -450 0
-127 -451 0
-127 -452 0
-127 -453 0
-127 -454 0
-186 127 449 450 451 452 453 454 0
-128 187 0
-455 181 0
-455 159 0
-181 -159 455 0
-456 182 0
-456 158 0
-182 -158 456 0
-457 183 0
-457 166 0
-183 -166 457 0
-458 184 0
-458 173 0
-184 -173 458 0
-459 185 0
-459 180 0
-185 -180 459 0
-460 186 0
-460 194 0
-186 -194 460 0
-128 -455 0
-128 -456 0
-128 -457 0
-128 -458 0
-128 -459 0
-128 -460 0
-187 128 455 456 457 458 459 460 0
-129 188 0
-461 189 0
-461 147 0
-189 -147 461 0
-462 190 0
-462 160 0
-190 -160 462 0
-463 191 0
-463 167 0
-191 -167 463 0
-464 192 0
-464 174 0
-192 -174 464 0
-465 193 0
-465 181 0
-193 -181 465 0
-466 194 0
-466 195 0
-194 -195 466 0
-129 -461 0
-129 -462 0
-129 -463 0
-129 -464 0
-129 -465 0
-129 -466 0
-188 129 461 462 463 464 465 466 0
-130 189 0
-467 188 0
-467 146 0
-188 -146 467 0
-468 190 0
-468 161 0
-190 -161 468 0
-469 191 0
-469 168 0
-191 -168 469 0
-470 192 0
-470 175 0
-192 -175 470 0
-471 193 0
-471 182 0
-193 -182 471 0
-472 194 0
-472 196 0
-194 -196 472 0
-130 -467 0
-130 -468 0
-130 -469 0
-130 -470 0
-130 -471 0
-130 -472 0
-189 130 467 468 469 470 471 472 0
-131 190 0
-473 188 0
-473 149 0
-188 -149 473 0
-474 189 0
-474 148 0
-189 -148 474 0
-475 191 0
-475 169 0
-191 -169 475 0
-476 192 0
-476 176 0
-192 -176 476 0
-477 193 0
-477 183 0
-193 -183 477 0
-478 194 0
-478 197 0
-194 -197 478 0
-131 -473 0
-131 -474 0
-131 -475 0
-131 -476 0
-131 -477 0
-131 -478 0
-190 131 473 474 475 476 477 478 0
-132 191 0
-479 188 0
-479 151 0
-188 -151 479 0
-480 189 0
-480 150 0
-189 -150 480 0
-481 190 0
-481 162 0
-190 -162 481 0
-482 192 0
-482 177 0
-192 -177 482 0
-483 193 0
-483 184 0
-193 -184 483 0
-484 194 0
-484 198 0
-194 -198 484 0
-132 -479 0
-132 -480 0
-132 -481 0
-132 -482 0
-132 -483 0
-132 -484 0
-191 132 479 480 481 482 483 484 0
-133 192 0
-485 188 0
-485 153 0
-188 -153 485 0
-486 189 0
-486 152 0
-189 -152 486 0
-487 190 0
-487 163 0
-190 -163 487 0
-488 191 0
-488 170 0
-191 -170 488 0
-489 193 0
-489 185 0
-193 -185 489 0
-490 194 0
-490 199 0
-194 -199 490 0
-133 -485 0
-133 -486 0
-133 -487 0
-133 -488 0
-133 -489 0
-133 -490 0
-192 133 485 486 487 488 489 490 0
-134 193 0
-491 188 0
-491 155 0
-188 -155 491 0
-492 189 0
-492 154 0
-189 -154 492 0
-493 190 0
-493 164 0
-190 -164 493 0
-494 191 0
-494 171 0
-191 -171 494 0
-495 192 0
-495 178 0
-192 -178 495 0
-496 194 0
-496 200 0
-194 -200 496 0
-134 -491 0
-134 -492 0
-134 -493 0
-134 -494 0
-134 -495 0
-134 -496 0
-193 134 491 492 493 494 495 496 0
-135 0
-136 194 0
-497 188 0
-497 159 0
-188 -159 497 0
-498 189 0
-498 158 0
-189 -158 498 0
-499 190 0
-499 166 0
-190 -166 499 0
-500 191 0
-500 173 0
-191 -173 500 0
-501 192 0
-501 180 0
-192 -180 501 0
-502 193 0
-502 187 0
-193 -187 502 0
-136 -497 0
-136 -498 0
-136 -499 0
-136 -500 0
-136 -501 0
-136 -502 0
-194 136 497 498 499 500 501 502 0
-137 195 0
-503 196 0
-503 147 0
-196 -147 503 0
-504 197 0
-504 160 0
-197 -160 504 0
-505 198 0
-505 167 0
-198 -167 505 0
-506 199 0
-506 174 0
-199 -174 506 0
-507 200 0
-507 181 0
-200 -181 507 0
-508 201 0
-508 188 0
-201 -188 508 0
-137 -503 0
-137 -504 0
-137 -505 0
-137 -506 0
-137 -507 0
-137 -508 0
-195 137 503 504 505 506 507 508 0
-138 196 0
-509 195 0
-509 146 0
-195 -146 509 0
-510 197 0
-510 161 0
-197 -161 510 0
-511 198 0
-511 168 0
-198 -168 511 0
-512 199 0
-512 175 0
-199 -175 512 0
-513 200 0
-513 182 0
-200 -182 513 0
-514 201 0
-514 189 0
-201 -189 514 0
-138 -509 0
-138 -510 0
-138 -511 0
-138 -512 0
-138 -513 0
-138 -514 0
-196 138 509 510 511 512 513 514 0
-139 197 0
-515 195 0
-515 149 0
-195 -149 515 0
-516 196 0
-516 148 0
-196 -148 516 0
-517 198 0
-517 169 0
-198 -169 517 0
-518 199 0
-518 176 0
-199 -176 518 0
-519 200 0
-519 183 0
-200 -183 519 0
-520 201 0
-520 190 0
-201 -190 520 0
-139 -515 0
-139 -516 0
-139 -517 0
-139 -518 0
-139 -519 0
-139 -520 0
-197 139 515 516 517 518 519 520 0
-140 198 0
-521 195 0
-521 151 0
-195 -151 521 0
-522 196 0
-522 150 0
-196 -150 522 0
-523 197 0
-523 162 0
-197 -162 523 0
-524 199 0
-524 177 0
-199 -177 524 0
-525 200 0
-525 184 0
-200 -184 525 0
-526 201 0
-526 191 0
-201 -191 526 0
-140 -521 0
-140 -522 0
-140 -523 0
-140 -524 0
-140 -525 0
-140 -526 0
-198 140 521 522 523 524 525 526 0
-141 199 0
-527 195 0
-527 153 0
-195 -153 527 0
-528 196 0
-528 152 0
-196 -152 528 0
-529 197 0
-529 163 0
-197 -163 529 0
-530 198 0
-530 170 0
-198 -170 530 0
-531 200 0
-531 185 0
-200 -185 531 0
-532 201 0
-532 192 0
-201 -192 532 0
-141 -527 0
-141 -528 0
-141 -529 0
-141 -530 0
-141 -531 0
-141 -532 0
-199 141 527 528 529 530 531 532 0
-142 200 0
-533 195 0
-533 155 0
-195 -155 533 0
-534 196 0
-534 154 0
-196 -154 534 0
-535 197 0
-535 164 0
-197 -164 535 0
-536 198 0
-536 171 0
-198 -171 536 0
-537 199 0
-537 178 0
-199 -178 537 0
-538 201 0
-538 193 0
-201 -193 538 0
-142 -533 0
-142 -534 0
-142 -535 0
-142 -536 0
-142 -537 0
-142 -538 0
-200 142 533 534 535 536 537 538 0
-143 201 0
-539 195 0
-539 157 0
-195 -157 539 0
-540 196 0
-540 156 0
-196 -156 540 0
-541 197 0
-541 165 0
-197 -165 541 0
-542 198 0
-542 172 0
-198 -172 542 0
-543 199 0
-543 179 0
-199 -179 543 0
-544 200 0
-544 186 0
-200 -186 544 0
-143 -539 0
-143 -540 0
-143 -541 0
-143 -542 0
-143 -543 0
-143 -544 0
-201 143 539 540 541 542 543 544 0
-144 0
