p cnf 846 3645
1 -2 -3 0
1 -4 -5 0
1 -6 -7 0
1 -8 -9 0
1 -10 -11 0
1 -12 -13 0
1 -14 -15 0
1 -16 -17 0
1 -18 -19 0
20 -21 -22 0
20 -23 -24 0
20 -25 -26 0
20 -27 -28 0
20 -29 -30 0
20 -31 -32 0
20 -33 -34 0
20 -35 -36 0
20 -37 -38 0
39 -40 -41 0
39 -42 -43 0
39 -44 -45 0
39 -46 -47 0
39 -48 -49 0
39 -50 -51 0
39 -52 -53 0
39 -54 -55 0
39 -56 -57 0
58 -59 -60 0
58 -61 -62 0
58 -63 -64 0
58 -65 -66 0
58 -67 -68 0
58 -69 -70 0
58 -71 -72 0
58 -73 -74 0
58 -75 -76 0
77 -78 -79 0
77 -80 -81 0
77 -82 -83 0
77 -84 -85 0
77 -86 -87 0
77 -88 -89 0
77 -90 -91 0
77 -92 -93 0
77 -94 -95 0
96 -97 -98 0
96 -99 -100 0
96 -101 -102 0
96 -103 -104 0
96 -105 -106 0
96 -107 -108 0
96 -109 -110 0
96 -111 -112 0
96 -113 -114 0
115 -116 -117 0
115 -118 -119 0
115 -120 -121 0
115 -122 -123 0
115 -124 -125 0
115 -126 -127 0
115 -128 -129 0
115 -130 -131 0
115 -132 -133 0
134 -135 -136 0
134 -137 -138 0
134 -139 -140 0
134 -141 -142 0
134 -143 -144 0
134 -145 -146 0
134 -147 -148 0
134 -149 -150 0
134 -151 -152 0
153 -154 -155 0
153 -156 -157 0
153 -158 -159 0
153 -160 -161 0
153 -162 -163 0
153 -164 -165 0
153 -166 -167 0
153 -168 -169 0
153 -170 -171 0
172 -173 -1 0
172 -174 -20 0
172 -175 -39 0
172 -176 -58 0
172 -177 -77 0
172 -178 -96 0
172 -179 -115 0
172 -180 -134 0
172 -181 -153 0
182 -183 -1 0
182 -184 -20 0
182 -185 -39 0
182 -186 -58 0
182 -187 -77 0
182 -188 -96 0
182 -189 -115 0
182 -190 -134 0
182 -191 -153 0
192 -193 -1 0
192 -194 -20 0
192 -195 -39 0
192 -196 -58 0
192 -197 -77 0
192 -198 -96 0
192 -199 -115 0
192 -200 -134 0
192 -201 -153 0
202 -203 -1 0
202 -204 -20 0
202 -205 -39 0
202 -206 -58 0
202 -207 -77 0
202 -208 -96 0
202 -209 -115 0
202 -210 -134 0
202 -211 -153 0
212 -213 -1 0
212 -214 -20 0
212 -215 -39 0
212 -216 -58 0
212 -217 -77 0
212 -218 -96 0
212 -219 -115 0
212 -220 -134 0
212 -221 -153 0
222 -223 -1 0
222 -224 -20 0
222 -225 -39 0
222 -226 -58 0
222 -227 -77 0
222 -228 -96 0
222 -229 -115 0
222 -230 -134 0
222 -231 -153 0
232 -233 -1 0
232 -234 -20 0
232 -235 -39 0
232 -236 -58 0
232 -237 -77 0
232 -238 -96 0
232 -239 -115 0
232 -240 -134 0
232 -241 -153 0
242 -243 -1 0
242 -244 -20 0
242 -245 -39 0
242 -246 -58 0
242 -247 -77 0
242 -248 -96 0
242 -249 -115 0
242 -250 -134 0
242 -251 -153 0
252 -253 -1 0
252 -254 -20 0
252 -255 -39 0
252 -256 -58 0
252 -257 -77 0
252 -258 -96 0
252 -259 -115 0
252 -260 -134 0
252 -261 -153 0
2 0
21 4 0
-21 -4 0
-21 -42 40 0
-21 -61 59 0
-21 -80 78 0
-21 -99 97 0
-21 -118 116 0
-21 -137 135 0
-21 -156 154 0
40 6 0
-40 -6 0
-40 -25 21 0
-40 -63 59 0
-40 -82 78 0
-40 -101 97 0
-40 -120 116 0
-40 -139 135 0
-40 -158 154 0
59 8 0
-59 -8 0
-59 -27 21 0
-59 -46 40 0
-59 -84 78 0
-59 -103 97 0
-59 -122 116 0
-59 -141 135 0
-59 -160 154 0
78 10 0
-78 -10 0
-78 -29 21 0
-78 -48 40 0
-78 -67 59 0
-78 -105 97 0
-78 -124 116 0
-78 -143 135 0
-78 -162 154 0
97 12 0
-97 -12 0
-97 -31 21 0
-97 -50 40 0
-97 -69 59 0
-97 -88 78 0
-97 -126 116 0
-97 -145 135 0
-97 -164 154 0
116 14 0
-116 -14 0
-116 -33 21 0
-116 -52 40 0
-116 -71 59 0
-116 -90 78 0
-116 -109 97 0
-116 -147 135 0
-116 -166 154 0
135 16 0
-135 -16 0
-135 -35 21 0
-135 -54 40 0
-135 -73 59 0
-135 -92 78 0
-135 -111 97 0
-135 -130 116 0
-135 -168 154 0
154 18 0
-154 -18 0
-154 -37 21 0
-154 -56 40 0
-154 -75 59 0
-154 -94 78 0
-154 -113 97 0
-154 -132 116 0
-154 -151 135 0
23 0
4 21 0
-4 -21 0
-4 -40 42 0
-4 -59 61 0
-4 -78 80 0
-4 -97 99 0
-4 -116 118 0
-4 -135 137 0
-4 -154 156 0
42 25 0
-42 -25 0
-42 -6 4 0
-42 -63 61 0
-42 -82 80 0
-42 -101 99 0
-42 -120 118 0
-42 -139 137 0
-42 -158 156 0
61 27 0
-61 -27 0
-61 -8 4 0
-61 -46 42 0
-61 -84 80 0
-61 -103 99 0
-61 -122 118 0
-61 -141 137 0
-61 -160 156 0
80 29 0
-80 -29 0
-80 -10 4 0
-80 -48 42 0
-80 -67 61 0
-80 -105 99 0
-80 -124 118 0
-80 -143 137 0
-80 -162 156 0
99 31 0
-99 -31 0
-99 -12 4 0
-99 -50 42 0
-99 -69 61 0
-99 -88 80 0
-99 -126 118 0
-99 -145 137 0
-99 -164 156 0
118 33 0
-118 -33 0
-118 -14 4 0
-118 -52 42 0
-118 -71 61 0
-118 -90 80 0
-118 -109 99 0
-118 -147 137 0
-118 -166 156 0
137 35 0
-137 -35 0
-137 -16 4 0
-137 -54 42 0
-137 -73 61 0
-137 -92 80 0
-137 -111 99 0
-137 -130 118 0
-137 -168 156 0
156 37 0
-156 -37 0
-156 -18 4 0
-156 -56 42 0
-156 -75 61 0
-156 -94 80 0
-156 -113 99 0
-156 -132 118 0
-156 -151 137 0
44 0
6 40 0
-6 -40 0
-6 -21 25 0
-6 -59 63 0
-6 -78 82 0
-6 -97 101 0
-6 -116 120 0
-6 -135 139 0
-6 -154 158 0
25 42 0
-25 -42 0
-25 -4 6 0
-25 -61 63 0
-25 -80 82 0
-25 -99 101 0
-25 -118 120 0
-25 -137 139 0
-25 -156 158 0
63 46 0
-63 -46 0
-63 -8 6 0
-63 -27 25 0
-63 -84 82 0
-63 -103 101 0
-63 -122 120 0
-63 -141 139 0
-63 -160 158 0
82 48 0
-82 -48 0
-82 -10 6 0
-82 -29 25 0
-82 -67 63 0
-82 -105 101 0
-82 -124 120 0
-82 -143 139 0
-82 -162 158 0
101 50 0
-101 -50 0
-101 -12 6 0
-101 -31 25 0
-101 -69 63 0
-101 -88 82 0
-101 -126 120 0
-101 -145 139 0
-101 -164 158 0
120 52 0
-120 -52 0
-120 -14 6 0
-120 -33 25 0
-120 -71 63 0
-120 -90 82 0
-120 -109 101 0
-120 -147 139 0
-120 -166 158 0
139 54 0
-139 -54 0
-139 -16 6 0
-139 -35 25 0
-139 -73 63 0
-139 -92 82 0
-139 -111 101 0
-139 -130 120 0
-139 -168 158 0
158 56 0
-158 -56 0
-158 -18 6 0
-158 -37 25 0
-158 -75 63 0
-158 -94 82 0
-158 -113 101 0
-158 -132 120 0
-158 -151 139 0
65 0
8 59 0
-8 -59 0
-8 -21 27 0
-8 -40 46 0
-8 -78 84 0
-8 -97 103 0
-8 -116 122 0
-8 -135 141 0
-8 -154 160 0
27 61 0
-27 -61 0
-27 -4 8 0
-27 -42 46 0
-27 -80 84 0
-27 -99 103 0
-27 -118 122 0
-27 -137 141 0
-27 -156 160 0
46 63 0
-46 -63 0
-46 -6 8 0
-46 -25 27 0
-46 -82 84 0
-46 -101 103 0
-46 -120 122 0
-46 -139 141 0
-46 -158 160 0
84 67 0
-84 -67 0
-84 -10 8 0
-84 -29 27 0
-84 -48 46 0
-84 -105 103 0
-84 -124 122 0
-84 -143 141 0
-84 -162 160 0
103 69 0
-103 -69 0
-103 -12 8 0
-103 -31 27 0
-103 -50 46 0
-103 -88 84 0
-103 -126 122 0
-103 -145 141 0
-103 -164 160 0
122 71 0
-122 -71 0
-122 -14 8 0
-122 -33 27 0
-122 -52 46 0
-122 -90 84 0
-122 -109 103 0
-122 -147 141 0
-122 -166 160 0
141 73 0
-141 -73 0
-141 -16 8 0
-141 -35 27 0
-141 -54 46 0
-141 -92 84 0
-141 -111 103 0
-141 -130 122 0
-141 -168 160 0
160 75 0
-160 -75 0
-160 -18 8 0
-160 -37 27 0
-160 -56 46 0
-160 -94 84 0
-160 -113 103 0
-160 -132 122 0
-160 -151 141 0
86 0
10 78 0
-10 -78 0
-10 -21 29 0
-10 -40 48 0
-10 -59 67 0
-10 -97 105 0
-10 -116 124 0
-10 -135 143 0
-10 -154 162 0
29 80 0
-29 -80 0
-29 -4 10 0
-29 -42 48 0
-29 -61 67 0
-29 -99 105 0
-29 -118 124 0
-29 -137 143 0
-29 -156 162 0
48 82 0
-48 -82 0
-48 -6 10 0
-48 -25 29 0
-48 -63 67 0
-48 -101 105 0
-48 -120 124 0
-48 -139 143 0
-48 -158 162 0
67 84 0
-67 -84 0
-67 -8 10 0
-67 -27 29 0
-67 -46 48 0
-67 -103 105 0
-67 -122 124 0
-67 -141 143 0
-67 -160 162 0
105 88 0
-105 -88 0
-105 -12 10 0
-105 -31 29 0
-105 -50 48 0
-105 -69 67 0
-105 -126 124 0
-105 -145 143 0
-105 -164 162 0
124 90 0
-124 -90 0
-124 -14 10 0
-124 -33 29 0
-124 -52 48 0
-124 -71 67 0
-124 -109 105 0
-124 -147 143 0
-124 -166 162 0
143 92 0
-143 -92 0
-143 -16 10 0
-143 -35 29 0
-143 -54 48 0
-143 -73 67 0
-143 -111 105 0
-143 -130 124 0
-143 -168 162 0
162 94 0
-162 -94 0
-162 -18 10 0
-162 -37 29 0
-162 -56 48 0
-162 -75 67 0
-162 -113 105 0
-162 -132 124 0
-162 -151 143 0
107 0
12 97 0
-12 -97 0
-12 -21 31 0
-12 -40 50 0
-12 -59 69 0
-12 -78 88 0
-12 -116 126 0
-12 -135 145 0
-12 -154 164 0
31 99 0
-31 -99 0
-31 -4 12 0
-31 -42 50 0
-31 -61 69 0
-31 -80 88 0
-31 -118 126 0
-31 -137 145 0
-31 -156 164 0
50 101 0
-50 -101 0
-50 -6 12 0
-50 -25 31 0
-50 -63 69 0
-50 -82 88 0
-50 -120 126 0
-50 -139 145 0
-50 -158 164 0
69 103 0
-69 -103 0
-69 -8 12 0
-69 -27 31 0
-69 -46 50 0
-69 -84 88 0
-69 -122 126 0
-69 -141 145 0
-69 -160 164 0
88 105 0
-88 -105 0
-88 -10 12 0
-88 -29 31 0
-88 -48 50 0
-88 -67 69 0
-88 -124 126 0
-88 -143 145 0
-88 -162 164 0
126 109 0
-126 -109 0
-126 -14 12 0
-126 -33 31 0
-126 -52 50 0
-126 -71 69 0
-126 -90 88 0
-126 -147 145 0
-126 -166 164 0
145 111 0
-145 -111 0
-145 -16 12 0
-145 -35 31 0
-145 -54 50 0
-145 -73 69 0
-145 -92 88 0
-145 -130 126 0
-145 -168 164 0
164 113 0
-164 -113 0
-164 -18 12 0
-164 -37 31 0
-164 -56 50 0
-164 -75 69 0
-164 -94 88 0
-164 -132 126 0
-164 -151 145 0
128 0
14 116 0
-14 -116 0
-14 -21 33 0
-14 -40 52 0
-14 -59 71 0
-14 -78 90 0
-14 -97 109 0
-14 -135 147 0
-14 -154 166 0
33 118 0
-33 -118 0
-33 -4 14 0
-33 -42 52 0
-33 -61 71 0
-33 -80 90 0
-33 -99 109 0
-33 -137 147 0
-33 -156 166 0
52 120 0
-52 -120 0
-52 -6 14 0
-52 -25 33 0
-52 -63 71 0
-52 -82 90 0
-52 -101 109 0
-52 -139 147 0
-52 -158 166 0
71 122 0
-71 -122 0
-71 -8 14 0
-71 -27 33 0
-71 -46 52 0
-71 -84 90 0
-71 -103 109 0
-71 -141 147 0
-71 -160 166 0
90 124 0
-90 -124 0
-90 -10 14 0
-90 -29 33 0
-90 -48 52 0
-90 -67 71 0
-90 -105 109 0
-90 -143 147 0
-90 -162 166 0
109 126 0
-109 -126 0
-109 -12 14 0
-109 -31 33 0
-109 -50 52 0
-109 -69 71 0
-109 -88 90 0
-109 -145 147 0
-109 -164 166 0
147 130 0
-147 -130 0
-147 -16 14 0
-147 -35 33 0
-147 -54 52 0
-147 -73 71 0
-147 -92 90 0
-147 -111 109 0
-147 -168 166 0
166 132 0
-166 -132 0
-166 -18 14 0
-166 -37 33 0
-166 -56 52 0
-166 -75 71 0
-166 -94 90 0
-166 -113 109 0
-166 -151 147 0
149 0
16 135 0
-16 -135 0
-16 -21 35 0
-16 -40 54 0
-16 -59 73 0
-16 -78 92 0
-16 -97 111 0
-16 -116 130 0
-16 -154 168 0
35 137 0
-35 -137 0
-35 -4 16 0
-35 -42 54 0
-35 -61 73 0
-35 -80 92 0
-35 -99 111 0
-35 -118 130 0
-35 -156 168 0
54 139 0
-54 -139 0
-54 -6 16 0
-54 -25 35 0
-54 -63 73 0
-54 -82 92 0
-54 -101 111 0
-54 -120 130 0
-54 -158 168 0
73 141 0
-73 -141 0
-73 -8 16 0
-73 -27 35 0
-73 -46 54 0
-73 -84 92 0
-73 -103 111 0
-73 -122 130 0
-73 -160 168 0
92 143 0
-92 -143 0
-92 -10 16 0
-92 -29 35 0
-92 -48 54 0
-92 -67 73 0
-92 -105 111 0
-92 -124 130 0
-92 -162 168 0
111 145 0
-111 -145 0
-111 -12 16 0
-111 -31 35 0
-111 -50 54 0
-111 -69 73 0
-111 -88 92 0
-111 -126 130 0
-111 -164 168 0
130 147 0
-130 -147 0
-130 -14 16 0
-130 -33 35 0
-130 -52 54 0
-130 -71 73 0
-130 -90 92 0
-130 -109 111 0
-130 -166 168 0
168 151 0
-168 -151 0
-168 -18 16 0
-168 -37 35 0
-168 -56 54 0
-168 -75 73 0
-168 -94 92 0
-168 -113 111 0
-168 -132 130 0
170 0
18 154 0
-18 -154 0
-18 -21 37 0
-18 -40 56 0
-18 -59 75 0
-18 -78 94 0
-18 -97 113 0
-18 -116 132 0
-18 -135 151 0
37 156 0
-37 -156 0
-37 -4 18 0
-37 -42 56 0
-37 -61 75 0
-37 -80 94 0
-37 -99 113 0
-37 -118 132 0
-37 -137 151 0
56 158 0
-56 -158 0
-56 -6 18 0
-56 -25 37 0
-56 -63 75 0
-56 -82 94 0
-56 -101 113 0
-56 -120 132 0
-56 -139 151 0
75 160 0
-75 -160 0
-75 -8 18 0
-75 -27 37 0
-75 -46 56 0
-75 -84 94 0
-75 -103 113 0
-75 -122 132 0
-75 -141 151 0
94 162 0
-94 -162 0
-94 -10 18 0
-94 -29 37 0
-94 -48 56 0
-94 -67 75 0
-94 -105 113 0
-94 -124 132 0
-94 -143 151 0
113 164 0
-113 -164 0
-113 -12 18 0
-113 -31 37 0
-113 -50 56 0
-113 -69 75 0
-113 -88 94 0
-113 -126 132 0
-113 -145 151 0
132 166 0
-132 -166 0
-132 -14 18 0
-132 -33 37 0
-132 -52 56 0
-132 -71 75 0
-132 -90 94 0
-132 -109 113 0
-132 -147 151 0
151 168 0
-151 -168 0
-151 -16 18 0
-151 -35 37 0
-151 -54 56 0
-151 -73 75 0
-151 -92 94 0
-151 -111 113 0
-151 -130 132 0
262 0
263 264 0
-263 -264 0
-263 -265 266 0
-263 -267 268 0
-263 -269 270 0
-263 -271 272 0
-263 -273 274 0
-263 -275 276 0
-263 -277 278 0
266 279 0
-266 -279 0
-266 -280 263 0
-266 -281 268 0
-266 -282 270 0
-266 -283 272 0
-266 -284 274 0
-266 -285 276 0
-266 -286 278 0
268 287 0
-268 -287 0
-268 -288 263 0
-268 -289 266 0
-268 -290 270 0
-268 -291 272 0
-268 -292 274 0
-268 -293 276 0
-268 -294 278 0
270 295 0
-270 -295 0
-270 -296 263 0
-270 -297 266 0
-270 -298 268 0
-270 -299 272 0
-270 -300 274 0
-270 -301 276 0
-270 -302 278 0
272 303 0
-272 -303 0
-272 -304 263 0
-272 -305 266 0
-272 -306 268 0
-272 -307 270 0
-272 -308 274 0
-272 -309 276 0
-272 -310 278 0
274 311 0
-274 -311 0
-274 -312 263 0
-274 -313 266 0
-274 -314 268 0
-274 -315 270 0
-274 -316 272 0
-274 -317 276 0
-274 -318 278 0
276 319 0
-276 -319 0
-276 -320 263 0
-276 -321 266 0
-276 -322 268 0
-276 -323 270 0
-276 -324 272 0
-276 -325 274 0
-276 -326 278 0
278 327 0
-278 -327 0
-278 -328 263 0
-278 -329 266 0
-278 -330 268 0
-278 -331 270 0
-278 -332 272 0
-278 -333 274 0
-278 -334 276 0
335 0
264 263 0
-264 -263 0
-264 -266 265 0
-264 -268 267 0
-264 -270 269 0
-264 -272 271 0
-264 -274 273 0
-264 -276 275 0
-264 -278 277 0
265 280 0
-265 -280 0
-265 -279 264 0
-265 -281 267 0
-265 -282 269 0
-265 -283 271 0
-265 -284 273 0
-265 -285 275 0
-265 -286 277 0
267 288 0
-267 -288 0
-267 -287 264 0
-267 -289 265 0
-267 -290 269 0
-267 -291 271 0
-267 -292 273 0
-267 -293 275 0
-267 -294 277 0
269 296 0
-269 -296 0
-269 -295 264 0
-269 -297 265 0
-269 -298 267 0
-269 -299 271 0
-269 -300 273 0
-269 -301 275 0
-269 -302 277 0
271 304 0
-271 -304 0
-271 -303 264 0
-271 -305 265 0
-271 -306 267 0
-271 -307 269 0
-271 -308 273 0
-271 -309 275 0
-271 -310 277 0
273 312 0
-273 -312 0
-273 -311 264 0
-273 -313 265 0
-273 -314 267 0
-273 -315 269 0
-273 -316 271 0
-273 -317 275 0
-273 -318 277 0
275 320 0
-275 -320 0
-275 -319 264 0
-275 -321 265 0
-275 -322 267 0
-275 -323 269 0
-275 -324 271 0
-275 -325 273 0
-275 -326 277 0
277 328 0
-277 -328 0
-277 -327 264 0
-277 -329 265 0
-277 -330 267 0
-277 -331 269 0
-277 -332 271 0
-277 -333 273 0
-277 -334 275 0
336 0
279 266 0
-279 -266 0
-279 -263 280 0
-279 -268 281 0
-279 -270 282 0
-279 -272 283 0
-279 -274 284 0
-279 -276 285 0
-279 -278 286 0
280 265 0
-280 -265 0
-280 -264 279 0
-280 -267 281 0
-280 -269 282 0
-280 -271 283 0
-280 -273 284 0
-280 -275 285 0
-280 -277 286 0
281 289 0
-281 -289 0
-281 -287 279 0
-281 -288 280 0
-281 -290 282 0
-281 -291 283 0
-281 -292 284 0
-281 -293 285 0
-281 -294 286 0
282 297 0
-282 -297 0
-282 -295 279 0
-282 -296 280 0
-282 -298 281 0
-282 -299 283 0
-282 -300 284 0
-282 -301 285 0
-282 -302 286 0
283 305 0
-283 -305 0
-283 -303 279 0
-283 -304 280 0
-283 -306 281 0
-283 -307 282 0
-283 -308 284 0
-283 -309 285 0
-283 -310 286 0
284 313 0
-284 -313 0
-284 -311 279 0
-284 -312 280 0
-284 -314 281 0
-284 -315 282 0
-284 -316 283 0
-284 -317 285 0
-284 -318 286 0
285 321 0
-285 -321 0
-285 -319 279 0
-285 -320 280 0
-285 -322 281 0
-285 -323 282 0
-285 -324 283 0
-285 -325 284 0
-285 -326 286 0
286 329 0
-286 -329 0
-286 -327 279 0
-286 -328 280 0
-286 -330 281 0
-286 -331 282 0
-286 -332 283 0
-286 -333 284 0
-286 -334 285 0
337 0
287 268 0
-287 -268 0
-287 -263 288 0
-287 -266 289 0
-287 -270 290 0
-287 -272 291 0
-287 -274 292 0
-287 -276 293 0
-287 -278 294 0
288 267 0
-288 -267 0
-288 -264 287 0
-288 -265 289 0
-288 -269 290 0
-288 -271 291 0
-288 -273 292 0
-288 -275 293 0
-288 -277 294 0
289 281 0
-289 -281 0
-289 -279 287 0
-289 -280 288 0
-289 -282 290 0
-289 -283 291 0
-289 -284 292 0
-289 -285 293 0
-289 -286 294 0
290 298 0
-290 -298 0
-290 -295 287 0
-290 -296 288 0
-290 -297 289 0
-290 -299 291 0
-290 -300 292 0
-290 -301 293 0
-290 -302 294 0
291 306 0
-291 -306 0
-291 -303 287 0
-291 -304 288 0
-291 -305 289 0
-291 -307 290 0
-291 -308 292 0
-291 -309 293 0
-291 -310 294 0
292 314 0
-292 -314 0
-292 -311 287 0
-292 -312 288 0
-292 -313 289 0
-292 -315 290 0
-292 -316 291 0
-292 -317 293 0
-292 -318 294 0
293 322 0
-293 -322 0
-293 -319 287 0
-293 -320 288 0
-293 -321 289 0
-293 -323 290 0
-293 -324 291 0
-293 -325 292 0
-293 -326 294 0
294 330 0
-294 -330 0
-294 -327 287 0
-294 -328 288 0
-294 -329 289 0
-294 -331 290 0
-294 -332 291 0
-294 -333 292 0
-294 -334 293 0
338 0
295 270 0
-295 -270 0
-295 -263 296 0
-295 -266 297 0
-295 -268 298 0
-295 -272 299 0
-295 -274 300 0
-295 -276 301 0
-295 -278 302 0
296 269 0
-296 -269 0
-296 -264 295 0
-296 -265 297 0
-296 -267 298 0
-296 -271 299 0
-296 -273 300 0
-296 -275 301 0
-296 -277 302 0
297 282 0
-297 -282 0
-297 -279 295 0
-297 -280 296 0
-297 -281 298 0
-297 -283 299 0
-297 -284 300 0
-297 -285 301 0
-297 -286 302 0
298 290 0
-298 -290 0
-298 -287 295 0
-298 -288 296 0
-298 -289 297 0
-298 -291 299 0
-298 -292 300 0
-298 -293 301 0
-298 -294 302 0
299 307 0
-299 -307 0
-299 -303 295 0
-299 -304 296 0
-299 -305 297 0
-299 -306 298 0
-299 -308 300 0
-299 -309 301 0
-299 -310 302 0
300 315 0
-300 -315 0
-300 -311 295 0
-300 -312 296 0
-300 -313 297 0
-300 -314 298 0
-300 -316 299 0
-300 -317 301 0
-300 -318 302 0
301 323 0
-301 -323 0
-301 -319 295 0
-301 -320 296 0
-301 -321 297 0
-301 -322 298 0
-301 -324 299 0
-301 -325 300 0
-301 -326 302 0
302 331 0
-302 -331 0
-302 -327 295 0
-302 -328 296 0
-302 -329 297 0
-302 -330 298 0
-302 -332 299 0
-302 -333 300 0
-302 -334 301 0
339 0
303 272 0
-303 -272 0
-303 -263 304 0
-303 -266 305 0
-303 -268 306 0
-303 -270 307 0
-303 -274 308 0
-303 -276 309 0
-303 -278 310 0
304 271 0
-304 -271 0
-304 -264 303 0
-304 -265 305 0
-304 -267 306 0
-304 -269 307 0
-304 -273 308 0
-304 -275 309 0
-304 -277 310 0
305 283 0
-305 -283 0
-305 -279 303 0
-305 -280 304 0
-305 -281 306 0
-305 -282 307 0
-305 -284 308 0
-305 -285 309 0
-305 -286 310 0
306 291 0
-306 -291 0
-306 -287 303 0
-306 -288 304 0
-306 -289 305 0
-306 -290 307 0
-306 -292 308 0
-306 -293 309 0
-306 -294 310 0
307 299 0
-307 -299 0
-307 -295 303 0
-307 -296 304 0
-307 -297 305 0
-307 -298 306 0
-307 -300 308 0
-307 -301 309 0
-307 -302 310 0
308 316 0
-308 -316 0
-308 -311 303 0
-308 -312 304 0
-308 -313 305 0
-308 -314 306 0
-308 -315 307 0
-308 -317 309 0
-308 -318 310 0
309 324 0
-309 -324 0
-309 -319 303 0
-309 -320 304 0
-309 -321 305 0
-309 -322 306 0
-309 -323 307 0
-309 -325 308 0
-309 -326 310 0
310 332 0
-310 -332 0
-310 -327 303 0
-310 -328 304 0
-310 -329 305 0
-310 -330 306 0
-310 -331 307 0
-310 -333 308 0
-310 -334 309 0
340 0
311 274 0
-311 -274 0
-311 -263 312 0
-311 -266 313 0
-311 -268 314 0
-311 -270 315 0
-311 -272 316 0
-311 -276 317 0
-311 -278 318 0
312 273 0
-312 -273 0
-312 -264 311 0
-312 -265 313 0
-312 -267 314 0
-312 -269 315 0
-312 -271 316 0
-312 -275 317 0
-312 -277 318 0
313 284 0
-313 -284 0
-313 -279 311 0
-313 -280 312 0
-313 -281 314 0
-313 -282 315 0
-313 -283 316 0
-313 -285 317 0
-313 -286 318 0
314 292 0
-314 -292 0
-314 -287 311 0
-314 -288 312 0
-314 -289 313 0
-314 -290 315 0
-314 -291 316 0
-314 -293 317 0
-314 -294 318 0
315 300 0
-315 -300 0
-315 -295 311 0
-315 -296 312 0
-315 -297 313 0
-315 -298 314 0
-315 -299 316 0
-315 -301 317 0
-315 -302 318 0
316 308 0
-316 -308 0
-316 -303 311 0
-316 -304 312 0
-316 -305 313 0
-316 -306 314 0
-316 -307 315 0
-316 -309 317 0
-316 -310 318 0
317 325 0
-317 -325 0
-317 -319 311 0
-317 -320 312 0
-317 -321 313 0
-317 -322 314 0
-317 -323 315 0
-317 -324 316 0
-317 -326 318 0
318 333 0
-318 -333 0
-318 -327 311 0
-318 -328 312 0
-318 -329 313 0
-318 -330 314 0
-318 -331 315 0
-318 -332 316 0
-318 -334 317 0
341 0
319 276 0
-319 -276 0
-319 -263 320 0
-319 -266 321 0
-319 -268 322 0
-319 -270 323 0
-319 -272 324 0
-319 -274 325 0
-319 -278 326 0
320 275 0
-320 -275 0
-320 -264 319 0
-320 -265 321 0
-320 -267 322 0
-320 -269 323 0
-320 -271 324 0
-320 -273 325 0
-320 -277 326 0
321 285 0
-321 -285 0
-321 -279 319 0
-321 -280 320 0
-321 -281 322 0
-321 -282 323 0
-321 -283 324 0
-321 -284 325 0
-321 -286 326 0
322 293 0
-322 -293 0
-322 -287 319 0
-322 -288 320 0
-322 -289 321 0
-322 -290 323 0
-322 -291 324 0
-322 -292 325 0
-322 -294 326 0
323 301 0
-323 -301 0
-323 -295 319 0
-323 -296 320 0
-323 -297 321 0
-323 -298 322 0
-323 -299 324 0
-323 -300 325 0
-323 -302 326 0
324 309 0
-324 -309 0
-324 -303 319 0
-324 -304 320 0
-324 -305 321 0
-324 -306 322 0
-324 -307 323 0
-324 -308 325 0
-324 -310 326 0
325 317 0
-325 -317 0
-325 -311 319 0
-325 -312 320 0
-325 -313 321 0
-325 -314 322 0
-325 -315 323 0
-325 -316 324 0
-325 -318 326 0
326 334 0
-326 -334 0
-326 -327 319 0
-326 -328 320 0
-326 -329 321 0
-326 -330 322 0
-326 -331 323 0
-326 -332 324 0
-326 -333 325 0
342 0
327 278 0
-327 -278 0
-327 -263 328 0
-327 -266 329 0
-327 -268 330 0
-327 -270 331 0
-327 -272 332 0
-327 -274 333 0
-327 -276 334 0
328 277 0
-328 -277 0
-328 -264 327 0
-328 -265 329 0
-328 -267 330 0
-328 -269 331 0
-328 -271 332 0
-328 -273 333 0
-328 -275 334 0
329 286 0
-329 -286 0
-329 -279 327 0
-329 -280 328 0
-329 -281 330 0
-329 -282 331 0
-329 -283 332 0
-329 -284 333 0
-329 -285 334 0
330 294 0
-330 -294 0
-330 -287 327 0
-330 -288 328 0
-330 -289 329 0
-330 -290 331 0
-330 -291 332 0
-330 -292 333 0
-330 -293 334 0
331 302 0
-331 -302 0
-331 -295 327 0
-331 -296 328 0
-331 -297 329 0
-331 -298 330 0
-331 -299 332 0
-331 -300 333 0
-331 -301 334 0
332 310 0
-332 -310 0
-332 -303 327 0
-332 -304 328 0
-332 -305 329 0
-332 -306 330 0
-332 -307 331 0
-332 -308 333 0
-332 -309 334 0
333 318 0
-333 -318 0
-333 -311 327 0
-333 -312 328 0
-333 -313 329 0
-333 -314 330 0
-333 -315 331 0
-333 -316 332 0
-333 -317 334 0
334 326 0
-334 -326 0
-334 -319 327 0
-334 -320 328 0
-334 -321 329 0
-334 -322 330 0
-334 -323 331 0
-334 -324 332 0
-334 -325 333 0
-173 0
-183 263 0
-343 266 0
-343 280 0
-266 -280 343 0
-344 268 0
-344 288 0
-268 -288 344 0
-345 270 0
-345 296 0
-270 -296 345 0
-346 272 0
-346 304 0
-272 -304 346 0
-347 274 0
-347 312 0
-274 -312 347 0
-348 276 0
-348 320 0
-276 -320 348 0
-349 278 0
-349 328 0
-278 -328 349 0
-183 -343 0
-183 -344 0
-183 -345 0
-183 -346 0
-183 -347 0
-183 -348 0
-183 -349 0
-263 183 343 344 345 346 347 348 349 0
-193 266 0
-350 263 0
-350 265 0
-263 -265 350 0
-351 268 0
-351 289 0
-268 -289 351 0
-352 270 0
-352 297 0
-270 -297 352 0
-353 272 0
-353 305 0
-272 -305 353 0
-354 274 0
-354 313 0
-274 -313 354 0
-355 276 0
-355 321 0
-276 -321 355 0
-356 278 0
-356 329 0
-278 -329 356 0
-193 -350 0
-193 -351 0
-193 -352 0
-193 -353 0
-193 -354 0
-193 -355 0
-193 -356 0
-266 193 350 351 352 353 354 355 356 0
-203 268 0
-357 263 0
-357 267 0
-263 -267 357 0
-358 266 0
-358 281 0
-266 -281 358 0
-359 270 0
-359 298 0
-270 -298 359 0
-360 272 0
-360 306 0
-272 -306 360 0
-361 274 0
-361 314 0
-274 -314 361 0
-362 276 0
-362 322 0
-276 -322 362 0
-363 278 0
-363 330 0
-278 -330 363 0
-203 -357 0
-203 -358 0
-203 -359 0
-203 -360 0
-203 -361 0
-203 -362 0
-203 -363 0
-268 203 357 358 359 360 361 362 363 0
-213 270 0
-364 263 0
-364 269 0
-263 -269 364 0
-365 266 0
-365 282 0
-266 -282 365 0
-366 268 0
-366 290 0
-268 -290 366 0
-367 272 0
-367 307 0
-272 -307 367 0
-368 274 0
-368 315 0
-274 -315 368 0
-369 276 0
-369 323 0
-276 -323 369 0
-370 278 0
-370 331 0
-278 -331 370 0
-213 -364 0
-213 -365 0
-213 -366 0
-213 -367 0
-213 -368 0
-213 -369 0
-213 -370 0
-270 213 364 365 366 367 368 369 370 0
-223 272 0
-371 263 0
-371 271 0
-263 -271 371 0
-372 266 0
-372 283 0
-266 -283 372 0
-373 268 0
-373 291 0
-268 -291 373 0
-374 270 0
-374 299 0
-270 -299 374 0
-375 274 0
-375 316 0
-274 -316 375 0
-376 276 0
-376 324 0
-276 -324 376 0
-377 278 0
-377 332 0
-278 -332 377 0
-223 -371 0
-223 -372 0
-223 -373 0
-223 -374 0
-223 -375 0
-223 -376 0
-223 -377 0
-272 223 371 372 373 374 375 376 377 0
-233 274 0
-378 263 0
-378 273 0
-263 -273 378 0
-379 266 0
-379 284 0
-266 -284 379 0
-380 268 0
-380 292 0
-268 -292 380 0
-381 270 0
-381 300 0
-270 -300 381 0
-382 272 0
-382 308 0
-272 -308 382 0
-383 276 0
-383 325 0
-276 -325 383 0
-384 278 0
-384 333 0
-278 -333 384 0
-233 -378 0
-233 -379 0
-233 -380 0
-233 -381 0
-233 -382 0
-233 -383 0
-233 -384 0
-274 233 378 379 380 381 382 383 384 0
-243 276 0
-385 263 0
-385 275 0
-263 -275 385 0
-386 266 0
-386 285 0
-266 -285 386 0
-387 268 0
-387 293 0
-268 -293 387 0
-388 270 0
-388 301 0
-270 -301 388 0
-389 272 0
-389 309 0
-272 -309 389 0
-390 274 0
-390 317 0
-274 -317 390 0
-391 278 0
-391 334 0
-278 -334 391 0
-243 -385 0
-243 -386 0
-243 -387 0
-243 -388 0
-243 -389 0
-243 -390 0
-243 -391 0
-276 243 385 386 387 388 389 390 391 0
-253 278 0
-392 263 0
-392 277 0
-263 -277 392 0
-393 266 0
-393 286 0
-266 -286 393 0
-394 268 0
-394 294 0
-268 -294 394 0
-395 270 0
-395 302 0
-270 -302 395 0
-396 272 0
-396 310 0
-272 -310 396 0
-397 274 0
-397 318 0
-274 -318 397 0
-398 276 0
-398 326 0
-276 -326 398 0
-253 -392 0
-253 -393 0
-253 -394 0
-253 -395 0
-253 -396 0
-253 -397 0
-253 -398 0
-278 253 392 393 394 395 396 397 398 0
-174 264 0
-399 265 0
-399 279 0
-265 -279 399 0
-400 267 0
-400 287 0
-267 -287 400 0
-401 269 0
-401 295 0
-269 -295 401 0
-402 271 0
-402 303 0
-271 -303 402 0
-403 273 0
-403 311 0
-273 -311 403 0
-404 275 0
-404 319 0
-275 -319 404 0
-405 277 0
-405 327 0
-277 -327 405 0
-174 -399 0
-174 -400 0
-174 -401 0
-174 -402 0
-174 -403 0
-174 -404 0
-174 -405 0
-264 174 399 400 401 402 403 404 405 0
-184 0
-194 265 0
-406 264 0
-406 266 0
-264 -266 406 0
-407 267 0
-407 289 0
-267 -289 407 0
-408 269 0
-408 297 0
-269 -297 408 0
-409 271 0
-409 305 0
-271 -305 409 0
-410 273 0
-410 313 0
-273 -313 410 0
-411 275 0
-411 321 0
-275 -321 411 0
-412 277 0
-412 329 0
-277 -329 412 0
-194 -406 0
-194 -407 0
-194 -408 0
-194 -409 0
-194 -410 0
-194 -411 0
-194 -412 0
-265 194 406 407 408 409 410 411 412 0
-204 267 0
-413 264 0
-413 268 0
-264 -268 413 0
-414 265 0
-414 281 0
-265 -281 414 0
-415 269 0
-415 298 0
-269 -298 415 0
-416 271 0
-416 306 0
-271 -306 416 0
-417 273 0
-417 314 0
-273 -314 417 0
-418 275 0
-418 322 0
-275 -322 418 0
-419 277 0
-419 330 0
-277 -330 419 0
-204 -413 0
-204 -414 0
-204 -415 0
-204 -416 0
-204 -417 0
-204 -418 0
-204 -419 0
-267 204 413 414 415 416 417 418 419 0
-214 269 0
-420 264 0
-420 270 0
-264 -270 420 0
-421 265 0
-421 282 0
-265 -282 421 0
-422 267 0
-422 290 0
-267 -290 422 0
-423 271 0
-423 307 0
-271 -307 423 0
-424 273 0
-424 315 0
-273 -315 424 0
-425 275 0
-425 323 0
-275 -323 425 0
-426 277 0
-426 331 0
-277 -331 426 0
-214 -420 0
-214 -421 0
-214 -422 0
-214 -423 0
-214 -424 0
-214 -425 0
-214 -426 0
-269 214 420 421 422 423 424 425 426 0
-224 271 0
-427 264 0
-427 272 0
-264 -272 427 0
-428 265 0
-428 283 0
-265 -283 428 0
-429 267 0
-429 291 0
-267 -291 429 0
-430 269 0
-430 299 0
-269 -299 430 0
-431 273 0
-431 316 0
-273 -316 431 0
-432 275 0
-432 324 0
-275 -324 432 0
-433 277 0
-433 332 0
-277 -332 433 0
-224 -427 0
-224 -428 0
-224 -429 0
-224 -430 0
-224 -431 0
-224 -432 0
-224 -433 0
-271 224 427 428 429 430 431 432 433 0
-234 273 0
-434 264 0
-434 274 0
-264 -274 434 0
-435 265 0
-435 284 0
-265 -284 435 0
-436 267 0
-436 292 0
-267 -292 436 0
-437 269 0
-437 300 0
-269 -300 437 0
-438 271 0
-438 308 0
-271 -308 438 0
-439 275 0
-439 325 0
-275 -325 439 0
-440 277 0
-440 333 0
-277 -333 440 0
-234 -434 0
-234 -435 0
-234 -436 0
-234 -437 0
-234 -438 0
-234 -439 0
-234 -440 0
-273 234 434 435 436 437 438 439 440 0
-244 275 0
-441 264 0
-441 276 0
-264 -276 441 0
-442 265 0
-442 285 0
-265 -285 442 0
-443 267 0
-443 293 0
-267 -293 443 0
-444 269 0
-444 301 0
-269 -301 444 0
-445 271 0
-445 309 0
-271 -309 445 0
-446 273 0
-446 317 0
-273 -317 446 0
-447 277 0
-447 334 0
-277 -334 447 0
-244 -441 0
-244 -442 0
-244 -443 0
-244 -444 0
-244 -445 0
-244 -446 0
-244 -447 0
-275 244 441 442 443 444 445 446 447 0
-254 277 0
-448 264 0
-448 278 0
-264 -278 448 0
-449 265 0
-449 286 0
-265 -286 449 0
-450 267 0
-450 294 0
-267 -294 450 0
-451 269 0
-451 302 0
-269 -302 451 0
-452 271 0
-452 310 0
-271 -310 452 0
-453 273 0
-453 318 0
-273 -318 453 0
-454 275 0
-454 326 0
-275 -326 454 0
-254 -448 0
-254 -449 0
-254 -450 0
-254 -451 0
-254 -452 0
-254 -453 0
-254 -454 0
-277 254 448 449 450 451 452 453 454 0
-175 279 0
-455 280 0
-455 264 0
-280 -264 455 0
-456 281 0
-456 287 0
-281 -287 456 0
-457 282 0
-457 295 0
-282 -295 457 0
-458 283 0
-458 303 0
-283 -303 458 0
-459 284 0
-459 311 0
-284 -311 459 0
-460 285 0
-460 319 0
-285 -319 460 0
-461 286 0
-461 327 0
-286 -327 461 0
-175 -455 0
-175 -456 0
-175 -457 0
-175 -458 0
-175 -459 0
-175 -460 0
-175 -461 0
-279 175 455 456 457 458 459 460 461 0
-185 280 0
-462 279 0
-462 263 0
-279 -263 462 0
-463 281 0
-463 288 0
-281 -288 463 0
-464 282 0
-464 296 0
-282 -296 464 0
-465 283 0
-465 304 0
-283 -304 465 0
-466 284 0
-466 312 0
-284 -312 466 0
-467 285 0
-467 320 0
-285 -320 467 0
-468 286 0
-468 328 0
-286 -328 468 0
-185 -462 0
-185 -463 0
-185 -464 0
-185 -465 0
-185 -466 0
-185 -467 0
-185 -468 0
-280 185 462 463 464 465 466 467 468 0
-195 0
-205 281 0
-469 279 0
-469 268 0
-279 -268 469 0
-470 280 0
-470 267 0
-280 -267 470 0
-471 282 0
-471 298 0
-282 -298 471 0
-472 283 0
-472 306 0
-283 -306 472 0
-473 284 0
-473 314 0
-284 -314 473 0
-474 285 0
-474 322 0
-285 -322 474 0
-475 286 0
-475 330 0
-286 -330 475 0
-205 -469 0
-205 -470 0
-205 -471 0
-205 -472 0
-205 -473 0
-205 -474 0
-205 -475 0
-281 205 469 470 471 472 473 474 475 0
-215 282 0
-476 279 0
-476 270 0
-279 -270 476 0
-477 280 0
-477 269 0
-280 -269 477 0
-478 281 0
-478 290 0
-281 -290 478 0
-479 283 0
-479 307 0
-283 -307 479 0
-480 284 0
-480 315 0
-284 -315 480 0
-481 285 0
-481 323 0
-285 -323 481 0
-482 286 0
-482 331 0
-286 -331 482 0
-215 -476 0
-215 -477 0
-215 -478 0
-215 -479 0
-215 -480 0
-215 -481 0
-215 -482 0
-282 215 476 477 478 479 480 481 482 0
-225 283 0
-483 279 0
-483 272 0
-279 -272 483 0
-484 280 0
-484 271 0
-280 -271 484 0
-485 281 0
-485 291 0
-281 -291 485 0
-486 282 0
-486 299 0
-282 -299 486 0
-487 284 0
-487 316 0
-284 -316 487 0
-488 285 0
-488 324 0
-285 -324 488 0
-489 286 0
-489 332 0
-286 -332 489 0
-225 -483 0
-225 -484 0
-225 -485 0
-225 -486 0
-225 -487 0
-225 -488 0
-225 -489 0
-283 225 483 484 485 486 487 488 489 0
-235 284 0
-490 279 0
-490 274 0
-279 -274 490 0
-491 280 0
-491 273 0
-280 -273 491 0
-492 281 0
-492 292 0
-281 -292 492 0
-493 282 0
-493 300 0
-282 -300 493 0
-494 283 0
-494 308 0
-283 -308 494 0
-495 285 0
-495 325 0
-285 -325 495 0
-496 286 0
-496 333 0
-286 -333 496 0
-235 -490 0
-235 -491 0
-235 -492 0
-235 -493 0
-235 -494 0
-235 -495 0
-235 -496 0
-284 235 490 491 492 493 494 495 496 0
-245 285 0
-497 279 0
-497 276 0
-279 -276 497 0
-498 280 0
-498 275 0
-280 -275 498 0
-499 281 0
-499 293 0
-281 -293 499 0
-500 282 0
-500 301 0
-282 -301 500 0
-501 283 0
-501 309 0
-283 -309 501 0
-502 284 0
-502 317 0
-284 -317 502 0
-503 286 0
-503 334 0
-286 -334 503 0
-245 -497 0
-245 -498 0
-245 -499 0
-245 -500 0
-245 -501 0
-245 -502 0
-245 -503 0
-285 245 497 498 499 500 501 502 503 0
-255 286 0
-504 279 0
-504 278 0
-279 -278 504 0
-505 280 0
-505 277 0
-280 -277 505 0
-506 281 0
-506 294 0
-281 -294 506 0
-507 282 0
-507 302 0
-282 -302 507 0
-508 283 0
-508 310 0
-283 -310 508 0
-509 284 0
-509 318 0
-284 -318 509 0
-510 285 0
-510 326 0
-285 -326 510 0
-255 -504 0
-255 -505 0
-255 -506 0
-255 -507 0
-255 -508 0
-255 -509 0
-255 -510 0
-286 255 504 505 506 507 508 509 510 0
-176 287 0
-511 288 0
-511 264 0
-288 -264 511 0
-512 289 0
-512 279 0
-289 -279 512 0
-513 290 0
-513 295 0
-290 -295 513 0
-514 291 0
-514 303 0
-291 -303 514 0
-515 292 0
-515 311 0
-292 -311 515 0
-516 293 0
-516 319 0
-293 -319 516 0
-517 294 0
-517 327 0
-294 -327 517 0
-176 -511 0
-176 -512 0
-176 -513 0
-176 -514 0
-176 -515 0
-176 -516 0
-176 -517 0
-287 176 511 512 513 514 515 516 517 0
-186 288 0
-518 287 0
-518 263 0
-287 -263 518 0
-519 289 0
-519 280 0
-289 -280 519 0
-520 290 0
-520 296 0
-290 -296 520 0
-521 291 0
-521 304 0
-291 -304 521 0
-522 292 0
-522 312 0
-292 -312 522 0
-523 293 0
-523 320 0
-293 -320 523 0
-524 294 0
-524 328 0
-294 -328 524 0
-186 -518 0
-186 -519 0
-186 -520 0
-186 -521 0
-186 -522 0
-186 -523 0
-186 -524 0
-288 186 518 519 520 521 522 523 524 0
-196 289 0
-525 287 0
-525 266 0
-287 -266 525 0
-526 288 0
-526 265 0
-288 -265 526 0
-527 290 0
-527 297 0
-290 -297 527 0
-528 291 0
-528 305 0
-291 -305 528 0
-529 292 0
-529 313 0
-292 -313 529 0
-530 293 0
-530 321 0
-293 -321 530 0
-531 294 0
-531 329 0
-294 -329 531 0
-196 -525 0
-196 -526 0
-196 -527 0
-196 -528 0
-196 -529 0
-196 -530 0
-196 -531 0
-289 196 525 526 527 528 529 530 531 0
-206 0
-216 290 0
-532 287 0
-532 270 0
-287 -270 532 0
-533 288 0
-533 269 0
-288 -269 533 0
-534 289 0
-534 282 0
-289 -282 534 0
-535 291 0
-535 307 0
-291 -307 535 0
-536 292 0
-536 315 0
-292 -315 536 0
-537 293 0
-537 323 0
-293 -323 537 0
-538 294 0
-538 331 0
-294 -331 538 0
-216 -532 0
-216 -533 0
-216 -534 0
-216 -535 0
-216 -536 0
-216 -537 0
-216 -538 0
-290 216 532 533 534 535 536 537 538 0
-226 291 0
-539 287 0
-539 272 0
-287 -272 539 0
-540 288 0
-540 271 0
-288 -271 540 0
-541 289 0
-541 283 0
-289 -283 541 0
-542 290 0
-542 299 0
-290 -299 542 0
-543 292 0
-543 316 0
-292 -316 543 0
-544 293 0
-544 324 0
-293 -324 544 0
-545 294 0
-545 332 0
-294 -332 545 0
-226 -539 0
-226 -540 0
-226 -541 0
-226 -542 0
-226 -543 0
-226 -544 0
-226 -545 0
-291 226 539 540 541 542 543 544 545 0
-236 292 0
-546 287 0
-546 274 0
-287 -274 546 0
-547 288 0
-547 273 0
-288 -273 547 0
-548 289 0
-548 284 0
-289 -284 548 0
-549 290 0
-549 300 0
-290 -300 549 0
-550 291 0
-550 308 0
-291 -308 550 0
-551 293 0
-551 325 0
-293 -325 551 0
-552 294 0
-552 333 0
-294 -333 552 0
-236 -546 0
-236 -547 0
-236 -548 0
-236 -549 0
-236 -550 0
-236 -551 0
-236 -552 0
-292 236 546 547 548 549 550 551 552 0
-246 293 0
-553 287 0
-553 276 0
-287 -276 553 0
-554 288 0
-554 275 0
-288 -275 554 0
-555 289 0
-555 285 0
-289 -285 555 0
-556 290 0
-556 301 0
-290 -301 556 0
-557 291 0
-557 309 0
-291 -309 557 0
-558 292 0
-558 317 0
-292 -317 558 0
-559 294 0
-559 334 0
-294 -334 559 0
-246 -553 0
-246 -554 0
-246 -555 0
-246 -556 0
-246 -557 0
-246 -558 0
-246 -559 0
-293 246 553 554 555 556 557 558 559 0
-256 294 0
-560 287 0
-560 278 0
-287 -278 560 0
-561 288 0
-561 277 0
-288 -277 561 0
-562 289 0
-562 286 0
-289 -286 562 0
-563 290 0
-563 302 0
-290 -302 563 0
-564 291 0
-564 310 0
-291 -310 564 0
-565 292 0
-565 318 0
-292 -318 565 0
-566 293 0
-566 326 0
-293 -326 566 0
-256 -560 0
-256 -561 0
-256 -562 0
-256 -563 0
-256 -564 0
-256 -565 0
-256 -566 0
-294 256 560 561 562 563 564 565 566 0
-177 295 0
-567 296 0
-567 264 0
-296 -264 567 0
-568 297 0
-568 279 0
-297 -279 568 0
-569 298 0
-569 287 0
-298 -287 569 0
-570 299 0
-570 303 0
-299 -303 570 0
-571 300 0
-571 311 0
-300 -311 571 0
-572 301 0
-572 319 0
-301 -319 572 0
-573 302 0
-573 327 0
-302 -327 573 0
-177 -567 0
-177 -568 0
-177 -569 0
-177 -570 0
-177 -571 0
-177 -572 0
-177 -573 0
-295 177 567 568 569 570 571 572 573 0
-187 296 0
-574 295 0
-574 263 0
-295 -263 574 0
-575 297 0
-575 280 0
-297 -280 575 0
-576 298 0
-576 288 0
-298 -288 576 0
-577 299 0
-577 304 0
-299 -304 577 0
-578 300 0
-578 312 0
-300 -312 578 0
-579 301 0
-579 320 0
-301 -320 579 0
-580 302 0
-580 328 0
-302 -328 580 0
-187 -574 0
-187 -575 0
-187 -576 0
-187 -577 0
-187 -578 0
-187 -579 0
-187 -580 0
-296 187 574 575 576 577 578 579 580 0
-197 297 0
-581 295 0
-581 266 0
-295 -266 581 0
-582 296 0
-582 265 0
-296 -265 582 0
-583 298 0
-583 289 0
-298 -289 583 0
-584 299 0
-584 305 0
-299 -305 584 0
-585 300 0
-585 313 0
-300 -313 585 0
-586 301 0
-586 321 0
-301 -321 586 0
-587 302 0
-587 329 0
-302 -329 587 0
-197 -581 0
-197 -582 0
-197 -583 0
-197 -584 0
-197 -585 0
-197 -586 0
-197 -587 0
-297 197 581 582 583 584 585 586 587 0
-207 298 0
-588 295 0
-588 268 0
-295 -268 588 0
-589 296 0
-589 267 0
-296 -267 589 0
-590 297 0
-590 281 0
-297 -281 590 0
-591 299 0
-591 306 0
-299 -306 591 0
-592 300 0
-592 314 0
-300 -314 592 0
-593 301 0
-593 322 0
-301 -322 593 0
-594 302 0
-594 330 0
-302 -330 594 0
-207 -588 0
-207 -589 0
-207 -590 0
-207 -591 0
-207 -592 0
-207 -593 0
-207 -594 0
-298 207 588 589 590 591 592 593 594 0
-217 0
-227 299 0
-595 295 0
-595 272 0
-295 -272 595 0
-596 296 0
-596 271 0
-296 -271 596 0
-597 297 0
-597 283 0
-297 -283 597 0
-598 298 0
-598 291 0
-298 -291 598 0
-599 300 0
-599 316 0
-300 -316 599 0
-600 301 0
-600 324 0
-301 -324 600 0
-601 302 0
-601 332 0
-302 -332 601 0
-227 -595 0
-227 -596 0
-227 -597 0
-227 -598 0
-227 -599 0
-227 -600 0
-227 -601 0
-299 227 595 596 597 598 599 600 601 0
-237 300 0
-602 295 0
-602 274 0
-295 -274 602 0
-603 296 0
-603 273 0
-296 -273 603 0
-604 297 0
-604 284 0
-297 -284 604 0
-605 298 0
-605 292 0
-298 -292 605 0
-606 299 0
-606 308 0
-299 -308 606 0
-607 301 0
-607 325 0
-301 -325 607 0
-608 302 0
-608 333 0
-302 -333 608 0
-237 -602 0
-237 -603 0
-237 -604 0
-237 -605 0
-237 -606 0
-237 -607 0
-237 -608 0
-300 237 602 603 604 605 606 607 608 0
-247 301 0
-609 295 0
-609 276 0
-295 -276 609 0
-610 296 0
-610 275 0
-296 -275 610 0
-611 297 0
-611 285 0
-297 -285 611 0
-612 298 0
-612 293 0
-298 -293 612 0
-613 299 0
-613 309 0
-299 -309 613 0
-614 300 0
-614 317 0
-300 -317 614 0
-615 302 0
-615 334 0
-302 -334 615 0
-247 -609 0
-247 -610 0
-247 -611 0
-247 -612 0
-247 -613 0
-247 -614 0
-247 -615 0
-301 247 609 610 611 612 613 614 615 0
-257 302 0
-616 295 0
-616 278 0
-295 -278 616 0
-617 296 0
-617 277 0
-296 -277 617 0
-618 297 0
-618 286 0
-297 -286 618 0
-619 298 0
-619 294 0
-298 -294 619 0
-620 299 0
-620 310 0
-299 -310 620 0
-621 300 0
-621 318 0
-300 -318 621 0
-622 301 0
-622 326 0
-301 -326 622 0
-257 -616 0
-257 -617 0
-257 -618 0
-257 -619 0
-257 -620 0
-257 -621 0
-257 -622 0
-302 257 616 617 618 619 620 621 622 0
-178 303 0
-623 304 0
-623 264 0
-304 -264 623 0
-624 305 0
-624 279 0
-305 -279 624 0
-625 306 0
-625 287 0
-306 -287 625 0
-626 307 0
-626 295 0
-307 -295 626 0
-627 308 0
-627 311 0
-308 -311 627 0
-628 309 0
-628 319 0
-309 -319 628 0
-629 310 0
-629 327 0
-310 -327 629 0
-178 -623 0
-178 -624 0
-178 -625 0
-178 -626 0
-178 -627 0
-178 -628 0
-178 -629 0
-303 178 623 624 625 626 627 628 629 0
-188 304 0
-630 303 0
-630 263 0
-303 -263 630 0
-631 305 0
-631 280 0
-305 -280 631 0
-632 306 0
-632 288 0
-306 -288 632 0
-633 307 0
-633 296 0
-307 -296 633 0
-634 308 0
-634 312 0
-308 -312 634 0
-635 309 0
-635 320 0
-309 -320 635 0
-636 310 0
-636 328 0
-310 -328 636 0
-188 -630 0
-188 -631 0
-188 -632 0
-188 -633 0
-188 -634 0
-188 -635 0
-188 -636 0
-304 188 630 631 632 633 634 635 636 0
-198 305 0
-637 303 0
-637 266 0
-303 -266 637 0
-638 304 0
-638 265 0
-304 -265 638 0
-639 306 0
-639 289 0
-306 -289 639 0
-640 307 0
-640 297 0
-307 -297 640 0
-641 308 0
-641 313 0
-308 -313 641 0
-642 309 0
-642 321 0
-309 -321 642 0
-643 310 0
-643 329 0
-310 -329 643 0
-198 -637 0
-198 -638 0
-198 -639 0
-198 -640 0
-198 -641 0
-198 -642 0
-198 -643 0
-305 198 637 638 639 640 641 642 643 0
-208 306 0
-644 303 0
-644 268 0
-303 -268 644 0
-645 304 0
-645 267 0
-304 -267 645 0
-646 305 0
-646 281 0
-305 -281 646 0
-647 307 0
-647 298 0
-307 -298 647 0
-648 308 0
-648 314 0
-308 -314 648 0
-649 309 0
-649 322 0
-309 -322 649 0
-650 310 0
-650 330 0
-310 -330 650 0
-208 -644 0
-208 -645 0
-208 -646 0
-208 -647 0
-208 -648 0
-208 -649 0
-208 -650 0
-306 208 644 645 646 647 648 649 650 0
-218 307 0
-651 303 0
-651 270 0
-303 -270 651 0
-652 304 0
-652 269 0
-304 -269 652 0
-653 305 0
-653 282 0
-305 -282 653 0
-654 306 0
-654 290 0
-306 -290 654 0
-655 308 0
-655 315 0
-308 -315 655 0
-656 309 0
-656 323 0
-309 -323 656 0
-657 310 0
-657 331 0
-310 -331 657 0
-218 -651 0
-218 -652 0
-218 -653 0
-218 -654 0
-218 -655 0
-218 -656 0
-218 -657 0
-307 218 651 652 653 654 655 656 657 0
-228 0
-238 308 0
-658 303 0
-658 274 0
-303 -274 658 0
-659 304 0
-659 273 0
-304 -273 659 0
-660 305 0
-660 284 0
-305 -284 660 0
-661 306 0
-661 292 0
-306 -292 661 0
-662 307 0
-662 300 0
-307 -300 662 0
-663 309 0
-663 325 0
-309 -325 663 0
-664 310 0
-664 333 0
-310 -333 664 0
-238 -658 0
-238 -659 0
-238 -660 0
-238 -661 0
-238 -662 0
-238 -663 0
-238 -664 0
-308 238 658 659 660 661 662 663 664 0
-248 309 0
-665 303 0
-665 276 0
-303 -276 665 0
-666 304 0
-666 275 0
-304 -275 666 0
-667 305 0
-667 285 0
-305 -285 667 0
-668 306 0
-668 293 0
-306 -293 668 0
-669 307 0
-669 301 0
-307 -301 669 0
-670 308 0
-670 317 0
-308 -317 670 0
-671 310 0
-671 334 0
-310 -334 671 0
-248 -665 0
-248 -666 0
-248 -667 0
-248 -668 0
-248 -669 0
-248 -670 0
-248 -671 0
-309 248 665 666 667 668 669 670 671 0
-258 310 0
-672 303 0
-672 278 0
-303 -278 672 0
-673 304 0
-673 277 0
-304 -277 673 0
-674 305 0
-674 286 0
-305 -286 674 0
-675 306 0
-675 294 0
-306 -294 675 0
-676 307 0
-676 302 0
-307 -302 676 0
-677 308 0
-677 318 0
-308 -318 677 0
-678 309 0
-678 326 0
-309 -326 678 0
-258 -672 0
-258 -673 0
-258 -674 0
-258 -675 0
-258 -676 0
-258 -677 0
-258 -678 0
-310 258 672 673 674 675 676 677 678 0
-179 311 0
-679 312 0
-679 264 0
-312 -264 679 0
-680 313 0
-680 279 0
-313 -279 680 0
-681 314 0
-681 287 0
-314 -287 681 0
-682 315 0
-682 295 0
-315 -295 682 0
-683 316 0
-683 303 0
-316 -303 683 0
-684 317 0
-684 319 0
-317 -319 684 0
-685 318 0
-685 327 0
-318 -327 685 0
-179 -679 0
-179 -680 0
-179 -681 0
-179 -682 0
-179 -683 0
-179 -684 0
-179 -685 0
-311 179 679 680 681 682 683 684 685 0
-189 312 0
-686 311 0
-686 263 0
-311 -263 686 0
-687 313 0
-687 280 0
-313 -280 687 0
-688 314 0
-688 288 0
-314 -288 688 0
-689 315 0
-689 296 0
-315 -296 689 0
-690 316 0
-690 304 0
-316 -304 690 0
-691 317 0
-691 320 0
-317 -320 691 0
-692 318 0
-692 328 0
-318 -328 692 0
-189 -686 0
-189 -687 0
-189 -688 0
-189 -689 0
-189 -690 0
-189 -691 0
-189 -692 0
-312 189 686 687 688 689 690 691 692 0
-199 313 0
-693 311 0
-693 266 0
-311 -266 693 0
-694 312 0
-694 265 0
-312 -265 694 0
-695 314 0
-695 289 0
-314 -289 695 0
-696 315 0
-696 297 0
-315 -297 696 0
-697 316 0
-697 305 0
-316 -305 697 0
-698 317 0
-698 321 0
-317 -321 698 0
-699 318 0
-699 329 0
-318 -329 699 0
-199 -693 0
-199 -694 0
-199 -695 0
-199 -696 0
-199 -697 0
-199 -698 0
-199 -699 0
-313 199 693 694 695 696 697 698 699 0
-209 314 0
-700 311 0
-700 268 0
-311 -268 700 0
-701 312 0
-701 267 0
-312 -267 701 0
-702 313 0
-702 281 0
-313 -281 702 0
-703 315 0
-703 298 0
-315 -298 703 0
-704 316 0
-704 306 0
-316 -306 704 0
-705 317 0
-705 322 0
-317 -322 705 0
-706 318 0
-706 330 0
-318 -330 706 0
-209 -700 0
-209 -701 0
-209 -702 0
-209 -703 0
-209 -704 0
-209 -705 0
-209 -706 0
-314 209 700 701 702 703 704 705 706 0
-219 315 0
-707 311 0
-707 270 0
-311 -270 707 0
-708 312 0
-708 269 0
-312 -269 708 0
-709 313 0
-709 282 0
-313 -282 709 0
-710 314 0
-710 290 0
-314 -290 710 0
-711 316 0
-711 307 0
-316 -307 711 0
-712 317 0
-712 323 0
-317 -323 712 0
-713 318 0
-713 331 0
-318 -331 713 0
-219 -707 0
-219 -708 0
-219 -709 0
-219 -710 0
-219 -711 0
-219 -712 0
-219 -713 0
-315 219 707 708 709 710 711 712 713 0
-229 316 0
-714 311 0
-714 272 0
-311 -272 714 0
-715 312 0
-715 271 0
-312 -271 715 0
-716 313 0
-716 283 0
-313 -283 716 0
-717 314 0
-717 291 0
-314 -291 717 0
-718 315 0
-718 299 0
-315 -299 718 0
-719 317 0
-719 324 0
-317 -324 719 0
-720 318 0
-720 332 0
-318 -332 720 0
-229 -714 0
-229 -715 0
-229 -716 0
-229 -717 0
-229 -718 0
-229 -719 0
-229 -720 0
-316 229 714 715 716 717 718 719 720 0
-239 0
-249 317 0
-721 311 0
-721 276 0
-311 -276 721 0
-722 312 0
-722 275 0
-312 -275 722 0
-723 313 0
-723 285 0
-313 -285 723 0
-724 314 0
-724 293 0
-314 -293 724 0
-725 315 0
-725 301 0
-315 -301 725 0
-726 316 0
-726 309 0
-316 -309 726 0
-727 318 0
-727 334 0
-318 -334 727 0
-249 -721 0
-249 -722 0
-249 -723 0
-249 -724 0
-249 -725 0
-249 -726 0
-249 -727 0
-317 249 721 722 723 724 725 726 727 0
-259 318 0
-728 311 0
-728 278 0
-311 -278 728 0
-729 312 0
-729 277 0
-312 -277 729 0
-730 313 0
-730 286 0
-313 -286 730 0
-731 314 0
-731 294 0
-314 -294 731 0
-732 315 0
-732 302 0
-315 -302 732 0
-733 316 0
-733 310 0
-316 -310 733 0
-734 317 0
-734 326 0
-317 -326 734 0
-259 -728 0
-259 -729 0
-259 -730 0
-259 -731 0
-259 -732 0
-259 -733 0
-259 -734 0
-318 259 728 729 730 731 732 733 734 0
-180 319 0
-735 320 0
-735 264 0
-320 -264 735 0
-736 321 0
-736 279 0
-321 -279 736 0
-737 322 0
-737 287 0
-322 -287 737 0
-738 323 0
-738 295 0
-323 -295 738 0
-739 324 0
-739 303 0
-324 -303 739 0
-740 325 0
-740 311 0
-325 -311 740 0
-741 326 0
-741 327 0
-326 -327 741 0
-180 -735 0
-180 -736 0
-180 -737 0
-180 -738 0
-180 -739 0
-180 -740 0
-180 -741 0
-319 180 735 736 737 738 739 740 741 0
-190 320 0
-742 319 0
-742 263 0
-319 -263 742 0
-743 321 0
-743 280 0
-321 -280 743 0
-744 322 0
-744 288 0
-322 -288 744 0
-745 323 0
-745 296 0
-323 -296 745 0
-746 324 0
-746 304 0
-324 -304 746 0
-747 325 0
-747 312 0
-325 -312 747 0
-748 326 0
-748 328 0
-326 -328 748 0
-190 -742 0
-190 -743 0
-190 -744 0
-190 -745 0
-190 -746 0
-190 -747 0
-190 -748 0
-320 190 742 743 744 745 746 747 748 0
-200 321 0
-749 319 0
-749 266 0
-319 -266 749 0
-750 320 0
-750 265 0
-320 -265 750 0
-751 322 0
-751 289 0
-322 -289 751 0
-752 323 0
-752 297 0
-323 -297 752 0
-753 324 0
-753 305 0
-324 -305 753 0
-754 325 0
-754 313 0
-325 -313 754 0
-755 326 0
-755 329 0
-326 -329 755 0
-200 -749 0
-200 -750 0
-200 -751 0
-200 -752 0
-200 -753 0
-200 -754 0
-200 -755 0
-321 200 749 750 751 752 753 754 755 0
-210 322 0
-756 319 0
-756 268 0
-319 -268 756 0
-757 320 0
-757 267 0
-320 -267 757 0
-758 321 0
-758 281 0
-321 -281 758 0
-759 323 0
-759 298 0
-323 -298 759 0
-760 324 0
-760 306 0
-324 -306 760 0
-761 325 0
-761 314 0
-325 -314 761 0
-762 326 0
-762 330 0
-326 -330 762 0
-210 -756 0
-210 -757 0
-210 -758 0
-210 -759 0
-210 -760 0
-210 -761 0
-210 -762 0
-322 210 756 757 758 759 760 761 762 0
-220 323 0
-763 319 0
-763 270 0
-319 -270 763 0
-764 320 0
-764 269 0
-320 -269 764 0
-765 321 0
-765 282 0
-321 -282 765 0
-766 322 0
-766 290 0
-322 -290 766 0
-767 324 0
-767 307 0
-324 -307 767 0
-768 325 0
-768 315 0
-325 -315 768 0
-769 326 0
-769 331 0
-326 -331 769 0
-220 -763 0
-220 -764 0
-220 -765 0
-220 -766 0
-220 -767 0
-220 -768 0
-220 -769 0
-323 220 763 764 765 766 767 768 769 0
-230 324 0
-770 319 0
-770 272 0
-319 -272 770 0
-771 320 0
-771 271 0
-320 -271 771 0
-772 321 0
-772 283 0
-321 -283 772 0
-773 322 0
-773 291 0
-322 -291 773 0
-774 323 0
-774 299 0
-323 -299 774 0
-775 325 0
-775 316 0
-325 -316 775 0
-776 326 0
-776 332 0
-326 -332 776 0
-230 -770 0
-230 -771 0
-230 -772 0
-230 -773 0
-230 -774 0
-230 -775 0
-230 -776 0
-324 230 770 771 772 773 774 775 776 0
-240 325 0
-777 319 0
-777 274 0
-319 -274 777 0
-778 320 0
-778 273 0
-320 -273 778 0
-779 321 0
-779 284 0
-321 -284 779 0
-780 322 0
-780 292 0
-322 -292 780 0
-781 323 0
-781 300 0
-323 -300 781 0
-782 324 0
-782 308 0
-324 -308 782 0
-783 326 0
-783 333 0
-326 -333 783 0
-240 -777 0
-240 -778 0
-240 -779 0
-240 -780 0
-240 -781 0
-240 -782 0
-240 -783 0
-325 240 777 778 779 780 781 782 783 0
-250 0
-260 326 0
-784 319 0
-784 278 0
-319 -278 784 0
-785 320 0
-785 277 0
-320 -277 785 0
-786 321 0
-786 286 0
-321 -286 786 0
-787 322 0
-787 294 0
-322 -294 787 0
-788 323 0
-788 302 0
-323 -302 788 0
-789 324 0
-789 310 0
-324 -310 789 0
-790 325 0
-790 318 0
-325 -318 790 0
-260 -784 0
-260 -785 0
-260 -786 0
-260 -787 0
-260 -788 0
-260 -789 0
-260 -790 0
-326 260 784 785 786 787 788 789 790 0
-181 327 0
-791 328 0
-791 264 0
-328 -264 791 0
-792 329 0
-792 279 0
-329 -279 792 0
-793 330 0
-793 287 0
-330 -287 793 0
-794 331 0
-794 295 0
-331 -295 794 0
-795 332 0
-795 303 0
-332 -303 795 0
-796 333 0
-796 311 0
-333 -311 796 0
-797 334 0
-797 319 0
-334 -319 797 0
-181 -791 0
-181 -792 0
-181 -793 0
-181 -794 0
-181 -795 0
-181 -796 0
-181 -797 0
-327 181 791 792 793 794 795 796 797 0
-191 328 0
-798 327 0
-798 263 0
-327 -263 798 0
-799 329 0
-799 280 0
-329 -280 799 0
-800 330 0
-800 288 0
-330 -288 800 0
-801 331 0
-801 296 0
-331 -296 801 0
-802 332 0
-802 304 0
-332 -304 802 0
-803 333 0
-803 312 0
-333 -312 803 0
-804 334 0
-804 320 0
-334 -320 804 0
-191 -798 0
-191 -799 0
-191 -800 0
-191 -801 0
-191 -802 0
-191 -803 0
-191 -804 0
-328 191 798 799 800 801 802 803 804 0
-201 329 0
-805 327 0
-805 266 0
-327 -266 805 0
-806 328 0
-806 265 0
-328 -265 806 0
-807 330 0
-807 289 0
-330 -289 807 0
-808 331 0
-808 297 0
-331 -297 808 0
-809 332 0
-809 305 0
-332 -305 809 0
-810 333 0
-810 313 0
-333 -313 810 0
-811 334 0
-811 321 0
-334 -321 811 0
-201 -805 0
-201 -806 0
-201 -807 0
-201 -808 0
-201 -809 0
-201 -810 0
-201 -811 0
-329 201 805 806 807 808 809 810 811 0
-211 330 0
-812 327 0
-812 268 0
-327 -268 812 0
-813 328 0
-813 267 0
-328 -267 813 0
-814 329 0
-814 281 0
-329 -281 814 0
-815 331 0
-815 298 0
-331 -298 815 0
-816 332 0
-816 306 0
-332 -306 816 0
-817 333 0
-817 314 0
-333 -314 817 0
-818 334 0
-818 322 0
-334 -322 818 0
-211 -812 0
-211 -813 0
-211 -814 0
-211 -815 0
-211 -816 0
-211 -817 0
-211 -818 0
-330 211 812 813 814 815 816 817 818 0
-221 331 0
-819 327 0
-819 270 0
-327 -270 819 0
-820 328 0
-820 269 0
-328 -269 820 0
-821 329 0
-821 282 0
-329 -282 821 0
-822 330 0
-822 290 0
-330 -290 822 0
-823 332 0
-823 307 0
-332 -307 823 0
-824 333 0
-824 315 0
-333 -315 824 0
-825 334 0
-825 323 0
-334 -323 825 0
-221 -819 0
-221 -820 0
-221 -821 0
-221 -822 0
-221 -823 0
-221 -824 0
-221 -825 0
-331 221 819 820 821 822 823 824 825 0
-231 332 0
-826 327 0
-826 272 0
-327 -272 826 0
-827 328 0
-827 271 0
-328 -271 827 0
-828 329 0
-828 283 0
-329 -283 828 0
-829 330 0
-829 291 0
-330 -291 829 0
-830 331 0
-830 299 0
-331 -299 830 0
-831 333 0
-831 316 0
-333 -316 831 0
-832 334 0
-832 324 0
-334 -324 832 0
-231 -826 0
-231 -827 0
-231 -828 0
-231 -829 0
-231 -830 0
-231 -831 0
-231 -832 0
-332 231 826 827 828 829 830 831 832 0
-241 333 0
-833 327 0
-833 274 0
-327 -274 833 0
-834 328 0
-834 273 0
-328 -273 834 0
-835 329 0
-835 284 0
-329 -284 835 0
-836 330 0
-836 292 0
-330 -292 836 0
-837 331 0
-837 300 0
-331 -300 837 0
-838 332 0
-838 308 0
-332 -308 838 0
-839 334 0
-839 325 0
-334 -325 839 0
-241 -833 0
-241 -834 0
-241 -835 0
-241 -836 0
-241 -837 0
-241 -838 0
-241 -839 0
-333 241 833 834 835 836 837 838 839 0
-251 334 0
-840 327 0
-840 276 0
-327 -276 840 0
-841 328 0
-841 275 0
-328 -275 841 0
-842 329 0
-842 285 0
-329 -285 842 0
-843 330 0
-843 293 0
-330 -293 843 0
-844 331 0
-844 301 0
-331 -301 844 0
-845 332 0
-845 309 0
-332 -309 845 0
-846 333 0
-846 317 0
-333 -317 846 0
-251 -840 0
-251 -841 0
-251 -842 0
-251 -843 0
-251 -844 0
-251 -845 0
-251 -846 0
-334 251 840 841 842 843 844 845 846 0
-261 0
