p cnf 1740 6790
-1 -2 3 0
-4 -2 5 0
-6 -2 7 0
-8 -2 9 0
-10 -2 11 0
-12 -2 13 0
-14 -2 15 0
-16 -2 17 0
-18 -2 19 0
-20 -2 21 0
-1 -22 23 0
-4 -22 24 0
-6 -22 25 0
-8 -22 26 0
-10 -22 27 0
-12 -22 28 0
-14 -22 29 0
-16 -22 30 0
-18 -22 31 0
-20 -22 32 0
-1 -33 34 0
-4 -33 35 0
-6 -33 36 0
-8 -33 37 0
-10 -33 38 0
-12 -33 39 0
-14 -33 40 0
-16 -33 41 0
-18 -33 42 0
-20 -33 43 0
-1 -44 45 0
-4 -44 46 0
-6 -44 47 0
-8 -44 48 0
-10 -44 49 0
-12 -44 50 0
-14 -44 51 0
-16 -44 52 0
-18 -44 53 0
-20 -44 54 0
-1 -55 56 0
-4 -55 57 0
-6 -55 58 0
-8 -55 59 0
-10 -55 60 0
-12 -55 61 0
-14 -55 62 0
-16 -55 63 0
-18 -55 64 0
-20 -55 65 0
-1 -66 67 0
-4 -66 68 0
-6 -66 69 0
-8 -66 70 0
-10 -66 71 0
-12 -66 72 0
-14 -66 73 0
-16 -66 74 0
-18 -66 75 0
-20 -66 76 0
-1 -77 78 0
-4 -77 79 0
-6 -77 80 0
-8 -77 81 0
-10 -77 82 0
-12 -77 83 0
-14 -77 84 0
-16 -77 85 0
-18 -77 86 0
-20 -77 87 0
-1 -88 89 0
-4 -88 90 0
-6 -88 91 0
-8 -88 92 0
-10 -88 93 0
-12 -88 94 0
-14 -88 95 0
-16 -88 96 0
-18 -88 97 0
-20 -88 98 0
-1 -99 100 0
-4 -99 101 0
-6 -99 102 0
-8 -99 103 0
-10 -99 104 0
-12 -99 105 0
-14 -99 106 0
-16 -99 107 0
-18 -99 108 0
-20 -99 109 0
-1 -110 111 0
-4 -110 112 0
-6 -110 113 0
-8 -110 114 0
-10 -110 115 0
-12 -110 116 0
-14 -110 117 0
-16 -110 118 0
-18 -110 119 0
-20 -110 120 0
-3 1 0
-5 4 0
-7 6 0
-9 8 0
-11 10 0
-13 12 0
-15 14 0
-17 16 0
-19 18 0
-21 20 0
-23 1 0
-24 4 0
-25 6 0
-26 8 0
-27 10 0
-28 12 0
-29 14 0
-30 16 0
-31 18 0
-32 20 0
-34 1 0
-35 4 0
-36 6 0
-37 8 0
-38 10 0
-39 12 0
-40 14 0
-41 16 0
-42 18 0
-43 20 0
-45 1 0
-46 4 0
-47 6 0
-48 8 0
-49 10 0
-50 12 0
-51 14 0
-52 16 0
-53 18 0
-54 20 0
-56 1 0
-57 4 0
-58 6 0
-59 8 0
-60 10 0
-61 12 0
-62 14 0
-63 16 0
-64 18 0
-65 20 0
-67 1 0
-68 4 0
-69 6 0
-70 8 0
-71 10 0
-72 12 0
-73 14 0
-74 16 0
-75 18 0
-76 20 0
-78 1 0
-79 4 0
-80 6 0
-81 8 0
-82 10 0
-83 12 0
-84 14 0
-85 16 0
-86 18 0
-87 20 0
-89 1 0
-90 4 0
-91 6 0
-92 8 0
-93 10 0
-94 12 0
-95 14 0
-96 16 0
-97 18 0
-98 20 0
-100 1 0
-101 4 0
-102 6 0
-103 8 0
-104 10 0
-105 12 0
-106 14 0
-107 16 0
-108 18 0
-109 20 0
-111 1 0
-112 4 0
-113 6 0
-114 8 0
-115 10 0
-116 12 0
-117 14 0
-118 16 0
-119 18 0
-120 20 0
-3 2 0
-5 2 0
-7 2 0
-9 2 0
-11 2 0
-13 2 0
-15 2 0
-17 2 0
-19 2 0
-21 2 0
-23 22 0
-24 22 0
-25 22 0
-26 22 0
-27 22 0
-28 22 0
-29 22 0
-30 22 0
-31 22 0
-32 22 0
-34 33 0
-35 33 0
-36 33 0
-37 33 0
-38 33 0
-39 33 0
-40 33 0
-41 33 0
-42 33 0
-43 33 0
-45 44 0
-46 44 0
-47 44 0
-48 44 0
-49 44 0
-50 44 0
-51 44 0
-52 44 0
-53 44 0
-54 44 0
-56 55 0
-57 55 0
-58 55 0
-59 55 0
-60 55 0
-61 55 0
-62 55 0
-63 55 0
-64 55 0
-65 55 0
-67 66 0
-68 66 0
-69 66 0
-70 66 0
-71 66 0
-72 66 0
-73 66 0
-74 66 0
-75 66 0
-76 66 0
-78 77 0
-79 77 0
-80 77 0
-81 77 0
-82 77 0
-83 77 0
-84 77 0
-85 77 0
-86 77 0
-87 77 0
-89 88 0
-90 88 0
-91 88 0
-92 88 0
-93 88 0
-94 88 0
-95 88 0
-96 88 0
-97 88 0
-98 88 0
-100 99 0
-101 99 0
-102 99 0
-103 99 0
-104 99 0
-105 99 0
-106 99 0
-107 99 0
-108 99 0
-109 99 0
-111 110 0
-112 110 0
-113 110 0
-114 110 0
-115 110 0
-116 110 0
-117 110 0
-118 110 0
-119 110 0
-120 110 0
-121 3 -122 0
-123 5 -124 0
-125 7 -126 0
-127 9 -128 0
-129 11 -130 0
-131 13 -132 0
-133 15 -134 0
-135 17 -136 0
-137 19 -138 0
-139 21 -140 0
-141 23 -142 0
-143 24 -144 0
-145 25 -146 0
-147 26 -148 0
-149 27 -150 0
-151 28 -152 0
-153 29 -154 0
-155 30 -156 0
-157 31 -158 0
-159 32 -160 0
-161 34 -162 0
-163 35 -164 0
-165 36 -166 0
-167 37 -168 0
-169 38 -170 0
-171 39 -172 0
-173 40 -174 0
-175 41 -176 0
-177 42 -178 0
-179 43 -180 0
-181 45 -182 0
-183 46 -184 0
-185 47 -186 0
-187 48 -188 0
-189 49 -190 0
-191 50 -192 0
-193 51 -194 0
-195 52 -196 0
-197 53 -198 0
-199 54 -200 0
-201 56 -202 0
-203 57 -204 0
-205 58 -206 0
-207 59 -208 0
-209 60 -210 0
-211 61 -212 0
-213 62 -214 0
-215 63 -216 0
-217 64 -218 0
-219 65 -220 0
-221 67 -222 0
-223 68 -224 0
-225 69 -226 0
-227 70 -228 0
-229 71 -230 0
-231 72 -232 0
-233 73 -234 0
-235 74 -236 0
-237 75 -238 0
-239 76 -240 0
-241 78 -242 0
-243 79 -244 0
-245 80 -246 0
-247 81 -248 0
-249 82 -250 0
-251 83 -252 0
-253 84 -254 0
-255 85 -256 0
-257 86 -258 0
-259 87 -260 0
-261 89 -262 0
-263 90 -264 0
-265 91 -266 0
-267 92 -268 0
-269 93 -270 0
-271 94 -272 0
-273 95 -274 0
-275 96 -276 0
-277 97 -278 0
-279 98 -280 0
-281 100 -282 0
-283 101 -284 0
-285 102 -286 0
-287 103 -288 0
-289 104 -290 0
-291 105 -292 0
-293 106 -294 0
-295 107 -296 0
-297 108 -298 0
-299 109 -300 0
-301 111 -302 0
-303 112 -304 0
-305 113 -306 0
-307 114 -308 0
-309 115 -310 0
-311 116 -312 0
-313 117 -314 0
-315 118 -316 0
-317 119 -318 0
-319 120 -320 0
122 121 0
124 123 0
126 125 0
128 127 0
130 129 0
132 131 0
134 133 0
136 135 0
138 137 0
140 139 0
142 141 0
144 143 0
146 145 0
148 147 0
150 149 0
152 151 0
154 153 0
156 155 0
158 157 0
160 159 0
162 161 0
164 163 0
166 165 0
168 167 0
170 169 0
172 171 0
174 173 0
176 175 0
178 177 0
180 179 0
182 181 0
184 183 0
186 185 0
188 187 0
190 189 0
192 191 0
194 193 0
196 195 0
198 197 0
200 199 0
202 201 0
204 203 0
206 205 0
208 207 0
210 209 0
212 211 0
214 213 0
216 215 0
218 217 0
220 219 0
222 221 0
224 223 0
226 225 0
228 227 0
230 229 0
232 231 0
234 233 0
236 235 0
238 237 0
240 239 0
242 241 0
244 243 0
246 245 0
248 247 0
250 249 0
252 251 0
254 253 0
256 255 0
258 257 0
260 259 0
262 261 0
264 263 0
266 265 0
268 267 0
270 269 0
272 271 0
274 273 0
276 275 0
278 277 0
280 279 0
282 281 0
284 283 0
286 285 0
288 287 0
290 289 0
292 291 0
294 293 0
296 295 0
298 297 0
300 299 0
302 301 0
304 303 0
306 305 0
308 307 0
310 309 0
312 311 0
314 313 0
316 315 0
318 317 0
320 319 0
122 -3 0
124 -5 0
126 -7 0
128 -9 0
130 -11 0
132 -13 0
134 -15 0
136 -17 0
138 -19 0
140 -21 0
142 -23 0
144 -24 0
146 -25 0
148 -26 0
150 -27 0
152 -28 0
154 -29 0
156 -30 0
158 -31 0
160 -32 0
162 -34 0
164 -35 0
166 -36 0
168 -37 0
170 -38 0
172 -39 0
174 -40 0
176 -41 0
178 -42 0
180 -43 0
182 -45 0
184 -46 0
186 -47 0
188 -48 0
190 -49 0
192 -50 0
194 -51 0
196 -52 0
198 -53 0
200 -54 0
202 -56 0
204 -57 0
206 -58 0
208 -59 0
210 -60 0
212 -61 0
214 -62 0
216 -63 0
218 -64 0
220 -65 0
222 -67 0
224 -68 0
226 -69 0
228 -70 0
230 -71 0
232 -72 0
234 -73 0
236 -74 0
238 -75 0
240 -76 0
242 -78 0
244 -79 0
246 -80 0
248 -81 0
250 -82 0
252 -83 0
254 -84 0
256 -85 0
258 -86 0
260 -87 0
262 -89 0
264 -90 0
266 -91 0
268 -92 0
270 -93 0
272 -94 0
274 -95 0
276 -96 0
278 -97 0
280 -98 0
282 -100 0
284 -101 0
286 -102 0
288 -103 0
290 -104 0
292 -105 0
294 -106 0
296 -107 0
298 -108 0
300 -109 0
302 -111 0
304 -112 0
306 -113 0
308 -114 0
310 -115 0
312 -116 0
314 -117 0
316 -118 0
318 -119 0
320 -120 0
1 -321 -322 -323 0
1 -324 -325 -326 0
1 -327 -328 -329 0
1 -330 -331 -332 0
1 -333 -334 -335 0
1 -336 -337 -338 0
1 -339 -340 -341 0
1 -342 -343 -344 0
1 -345 -346 -347 0
1 -348 -349 -350 0
4 -351 -352 -353 0
4 -354 -355 -356 0
4 -357 -358 -359 0
4 -360 -361 -362 0
4 -363 -364 -365 0
4 -366 -367 -368 0
4 -369 -370 -371 0
4 -372 -373 -374 0
4 -375 -376 -377 0
4 -378 -379 -380 0
6 -381 -382 -383 0
6 -384 -385 -386 0
6 -387 -388 -389 0
6 -390 -391 -392 0
6 -393 -394 -395 0
6 -396 -397 -398 0
6 -399 -400 -401 0
6 -402 -403 -404 0
6 -405 -406 -407 0
6 -408 -409 -410 0
8 -411 -412 -413 0
8 -414 -415 -416 0
8 -417 -418 -419 0
8 -420 -421 -422 0
8 -423 -424 -425 0
8 -426 -427 -428 0
8 -429 -430 -431 0
8 -432 -433 -434 0
8 -435 -436 -437 0
8 -438 -439 -440 0
10 -441 -442 -443 0
10 -444 -445 -446 0
10 -447 -448 -449 0
10 -450 -451 -452 0
10 -453 -454 -455 0
10 -456 -457 -458 0
10 -459 -460 -461 0
10 -462 -463 -464 0
10 -465 -466 -467 0
10 -468 -469 -470 0
12 -471 -472 -473 0
12 -474 -475 -476 0
12 -477 -478 -479 0
12 -480 -481 -482 0
12 -483 -484 -485 0
12 -486 -487 -488 0
12 -489 -490 -491 0
12 -492 -493 -494 0
12 -495 -496 -497 0
12 -498 -499 -500 0
14 -501 -502 -503 0
14 -504 -505 -506 0
14 -507 -508 -509 0
14 -510 -511 -512 0
14 -513 -514 -515 0
14 -516 -517 -518 0
14 -519 -520 -521 0
14 -522 -523 -524 0
14 -525 -526 -527 0
14 -528 -529 -530 0
16 -531 -532 -533 0
16 -534 -535 -536 0
16 -537 -538 -539 0
16 -540 -541 -542 0
16 -543 -544 -545 0
16 -546 -547 -548 0
16 -549 -550 -551 0
16 -552 -553 -554 0
16 -555 -556 -557 0
16 -558 -559 -560 0
18 -561 -562 -563 0
18 -564 -565 -566 0
18 -567 -568 -569 0
18 -570 -571 -572 0
18 -573 -574 -575 0
18 -576 -577 -578 0
18 -579 -580 -581 0
18 -582 -583 -584 0
18 -585 -586 -587 0
18 -588 -589 -590 0
20 -591 -592 -593 0
20 -594 -595 -596 0
20 -597 -598 -599 0
20 -600 -601 -602 0
20 -603 -604 -605 0
20 -606 -607 -608 0
20 -609 -610 -611 0
20 -612 -613 -614 0
20 -615 -616 -617 0
20 -618 -619 -620 0
323 -1 0
326 -1 0
329 -1 0
332 -1 0
335 -1 0
338 -1 0
341 -1 0
344 -1 0
347 -1 0
350 -1 0
353 -4 0
356 -4 0
359 -4 0
362 -4 0
365 -4 0
368 -4 0
371 -4 0
374 -4 0
377 -4 0
380 -4 0
383 -6 0
386 -6 0
389 -6 0
392 -6 0
395 -6 0
398 -6 0
401 -6 0
404 -6 0
407 -6 0
410 -6 0
413 -8 0
416 -8 0
419 -8 0
422 -8 0
425 -8 0
428 -8 0
431 -8 0
434 -8 0
437 -8 0
440 -8 0
443 -10 0
446 -10 0
449 -10 0
452 -10 0
455 -10 0
458 -10 0
461 -10 0
464 -10 0
467 -10 0
470 -10 0
473 -12 0
476 -12 0
479 -12 0
482 -12 0
485 -12 0
488 -12 0
491 -12 0
494 -12 0
497 -12 0
500 -12 0
503 -14 0
506 -14 0
509 -14 0
512 -14 0
515 -14 0
518 -14 0
521 -14 0
524 -14 0
527 -14 0
530 -14 0
533 -16 0
536 -16 0
539 -16 0
542 -16 0
545 -16 0
548 -16 0
551 -16 0
554 -16 0
557 -16 0
560 -16 0
563 -18 0
566 -18 0
569 -18 0
572 -18 0
575 -18 0
578 -18 0
581 -18 0
584 -18 0
587 -18 0
590 -18 0
593 -20 0
596 -20 0
599 -20 0
602 -20 0
605 -20 0
608 -20 0
611 -20 0
614 -20 0
617 -20 0
620 -20 0
323 321 0
326 324 0
329 327 0
332 330 0
335 333 0
338 336 0
341 339 0
344 342 0
347 345 0
350 348 0
353 351 0
356 354 0
359 357 0
362 360 0
365 363 0
368 366 0
371 369 0
374 372 0
377 375 0
380 378 0
383 381 0
386 384 0
389 387 0
392 390 0
395 393 0
398 396 0
401 399 0
404 402 0
407 405 0
410 408 0
413 411 0
416 414 0
419 417 0
422 420 0
425 423 0
428 426 0
431 429 0
434 432 0
437 435 0
440 438 0
443 441 0
446 444 0
449 447 0
452 450 0
455 453 0
458 456 0
461 459 0
464 462 0
467 465 0
470 468 0
473 471 0
476 474 0
479 477 0
482 480 0
485 483 0
488 486 0
491 489 0
494 492 0
497 495 0
500 498 0
503 501 0
506 504 0
509 507 0
512 510 0
515 513 0
518 516 0
521 519 0
524 522 0
527 525 0
530 528 0
533 531 0
536 534 0
539 537 0
542 540 0
545 543 0
548 546 0
551 549 0
554 552 0
557 555 0
560 558 0
563 561 0
566 564 0
569 567 0
572 570 0
575 573 0
578 576 0
581 579 0
584 582 0
587 585 0
590 588 0
593 591 0
596 594 0
599 597 0
602 600 0
605 603 0
608 606 0
611 609 0
614 612 0
617 615 0
620 618 0
323 322 0
326 325 0
329 328 0
332 331 0
335 334 0
338 337 0
341 340 0
344 343 0
347 346 0
350 349 0
353 352 0
356 355 0
359 358 0
362 361 0
365 364 0
368 367 0
371 370 0
374 373 0
377 376 0
380 379 0
383 382 0
386 385 0
389 388 0
392 391 0
395 394 0
398 397 0
401 400 0
404 403 0
407 406 0
410 409 0
413 412 0
416 415 0
419 418 0
422 421 0
425 424 0
428 427 0
431 430 0
434 433 0
437 436 0
440 439 0
443 442 0
446 445 0
449 448 0
452 451 0
455 454 0
458 457 0
461 460 0
464 463 0
467 466 0
470 469 0
473 472 0
476 475 0
479 478 0
482 481 0
485 484 0
488 487 0
491 490 0
494 493 0
497 496 0
500 499 0
503 502 0
506 505 0
509 508 0
512 511 0
515 514 0
518 517 0
521 520 0
524 523 0
527 526 0
530 529 0
533 532 0
536 535 0
539 538 0
542 541 0
545 544 0
548 547 0
551 550 0
554 553 0
557 556 0
560 559 0
563 562 0
566 565 0
569 568 0
572 571 0
575 574 0
578 577 0
581 580 0
584 583 0
587 586 0
590 589 0
593 592 0
596 595 0
599 598 0
602 601 0
605 604 0
608 607 0
611 610 0
614 613 0
617 616 0
620 619 0
2 -621 -1 -622 0
2 -623 -4 -624 0
2 -625 -6 -626 0
2 -627 -8 -628 0
2 -629 -10 -630 0
2 -631 -12 -632 0
2 -633 -14 -634 0
2 -635 -16 -636 0
2 -637 -18 -638 0
2 -639 -20 -640 0
22 -641 -1 -642 0
22 -643 -4 -644 0
22 -645 -6 -646 0
22 -647 -8 -648 0
22 -649 -10 -650 0
22 -651 -12 -652 0
22 -653 -14 -654 0
22 -655 -16 -656 0
22 -657 -18 -658 0
22 -659 -20 -660 0
33 -661 -1 -662 0
33 -663 -4 -664 0
33 -665 -6 -666 0
33 -667 -8 -668 0
33 -669 -10 -670 0
33 -671 -12 -672 0
33 -673 -14 -674 0
33 -675 -16 -676 0
33 -677 -18 -678 0
33 -679 -20 -680 0
44 -681 -1 -682 0
44 -683 -4 -684 0
44 -685 -6 -686 0
44 -687 -8 -688 0
44 -689 -10 -690 0
44 -691 -12 -692 0
44 -693 -14 -694 0
44 -695 -16 -696 0
44 -697 -18 -698 0
44 -699 -20 -700 0
55 -701 -1 -702 0
55 -703 -4 -704 0
55 -705 -6 -706 0
55 -707 -8 -708 0
55 -709 -10 -710 0
55 -711 -12 -712 0
55 -713 -14 -714 0
55 -715 -16 -716 0
55 -717 -18 -718 0
55 -719 -20 -720 0
66 -721 -1 -722 0
66 -723 -4 -724 0
66 -725 -6 -726 0
66 -727 -8 -728 0
66 -729 -10 -730 0
66 -731 -12 -732 0
66 -733 -14 -734 0
66 -735 -16 -736 0
66 -737 -18 -738 0
66 -739 -20 -740 0
77 -741 -1 -742 0
77 -743 -4 -744 0
77 -745 -6 -746 0
77 -747 -8 -748 0
77 -749 -10 -750 0
77 -751 -12 -752 0
77 -753 -14 -754 0
77 -755 -16 -756 0
77 -757 -18 -758 0
77 -759 -20 -760 0
88 -761 -1 -762 0
88 -763 -4 -764 0
88 -765 -6 -766 0
88 -767 -8 -768 0
88 -769 -10 -770 0
88 -771 -12 -772 0
88 -773 -14 -774 0
88 -775 -16 -776 0
88 -777 -18 -778 0
88 -779 -20 -780 0
99 -781 -1 -782 0
99 -783 -4 -784 0
99 -785 -6 -786 0
99 -787 -8 -788 0
99 -789 -10 -790 0
99 -791 -12 -792 0
99 -793 -14 -794 0
99 -795 -16 -796 0
99 -797 -18 -798 0
99 -799 -20 -800 0
110 -801 -1 -802 0
110 -803 -4 -804 0
110 -805 -6 -806 0
110 -807 -8 -808 0
110 -809 -10 -810 0
110 -811 -12 -812 0
110 -813 -14 -814 0
110 -815 -16 -816 0
110 -817 -18 -818 0
110 -819 -20 -820 0
622 -2 0
624 -2 0
626 -2 0
628 -2 0
630 -2 0
632 -2 0
634 -2 0
636 -2 0
638 -2 0
640 -2 0
642 -22 0
644 -22 0
646 -22 0
648 -22 0
650 -22 0
652 -22 0
654 -22 0
656 -22 0
658 -22 0
660 -22 0
662 -33 0
664 -33 0
666 -33 0
668 -33 0
670 -33 0
672 -33 0
674 -33 0
676 -33 0
678 -33 0
680 -33 0
682 -44 0
684 -44 0
686 -44 0
688 -44 0
690 -44 0
692 -44 0
694 -44 0
696 -44 0
698 -44 0
700 -44 0
702 -55 0
704 -55 0
706 -55 0
708 -55 0
710 -55 0
712 -55 0
714 -55 0
716 -55 0
718 -55 0
720 -55 0
722 -66 0
724 -66 0
726 -66 0
728 -66 0
730 -66 0
732 -66 0
734 -66 0
736 -66 0
738 -66 0
740 -66 0
742 -77 0
744 -77 0
746 -77 0
748 -77 0
750 -77 0
752 -77 0
754 -77 0
756 -77 0
758 -77 0
760 -77 0
762 -88 0
764 -88 0
766 -88 0
768 -88 0
770 -88 0
772 -88 0
774 -88 0
776 -88 0
778 -88 0
780 -88 0
782 -99 0
784 -99 0
786 -99 0
788 -99 0
790 -99 0
792 -99 0
794 -99 0
796 -99 0
798 -99 0
800 -99 0
802 -110 0
804 -110 0
806 -110 0
808 -110 0
810 -110 0
812 -110 0
814 -110 0
816 -110 0
818 -110 0
820 -110 0
622 621 0
624 623 0
626 625 0
628 627 0
630 629 0
632 631 0
634 633 0
636 635 0
638 637 0
640 639 0
642 641 0
644 643 0
646 645 0
648 647 0
650 649 0
652 651 0
654 653 0
656 655 0
658 657 0
660 659 0
662 661 0
664 663 0
666 665 0
668 667 0
670 669 0
672 671 0
674 673 0
676 675 0
678 677 0
680 679 0
682 681 0
684 683 0
686 685 0
688 687 0
690 689 0
692 691 0
694 693 0
696 695 0
698 697 0
700 699 0
702 701 0
704 703 0
706 705 0
708 707 0
710 709 0
712 711 0
714 713 0
716 715 0
718 717 0
720 719 0
722 721 0
724 723 0
726 725 0
728 727 0
730 729 0
732 731 0
734 733 0
736 735 0
738 737 0
740 739 0
742 741 0
744 743 0
746 745 0
748 747 0
750 749 0
752 751 0
754 753 0
756 755 0
758 757 0
760 759 0
762 761 0
764 763 0
766 765 0
768 767 0
770 769 0
772 771 0
774 773 0
776 775 0
778 777 0
780 779 0
782 781 0
784 783 0
786 785 0
788 787 0
790 789 0
792 791 0
794 793 0
796 795 0
798 797 0
800 799 0
802 801 0
804 803 0
806 805 0
808 807 0
810 809 0
812 811 0
814 813 0
816 815 0
818 817 0
820 819 0
622 1 0
624 4 0
626 6 0
628 8 0
630 10 0
632 12 0
634 14 0
636 16 0
638 18 0
640 20 0
642 1 0
644 4 0
646 6 0
648 8 0
650 10 0
652 12 0
654 14 0
656 16 0
658 18 0
660 20 0
662 1 0
664 4 0
666 6 0
668 8 0
670 10 0
672 12 0
674 14 0
676 16 0
678 18 0
680 20 0
682 1 0
684 4 0
686 6 0
688 8 0
690 10 0
692 12 0
694 14 0
696 16 0
698 18 0
700 20 0
702 1 0
704 4 0
706 6 0
708 8 0
710 10 0
712 12 0
714 14 0
716 16 0
718 18 0
720 20 0
722 1 0
724 4 0
726 6 0
728 8 0
730 10 0
732 12 0
734 14 0
736 16 0
738 18 0
740 20 0
742 1 0
744 4 0
746 6 0
748 8 0
750 10 0
752 12 0
754 14 0
756 16 0
758 18 0
760 20 0
762 1 0
764 4 0
766 6 0
768 8 0
770 10 0
772 12 0
774 14 0
776 16 0
778 18 0
780 20 0
782 1 0
784 4 0
786 6 0
788 8 0
790 10 0
792 12 0
794 14 0
796 16 0
798 18 0
800 20 0
802 1 0
804 4 0
806 6 0
808 8 0
810 10 0
812 12 0
814 14 0
816 16 0
818 18 0
820 20 0
-122 -323 -622 821 0
-124 -326 -624 822 0
-126 -329 -626 823 0
-128 -332 -628 824 0
-130 -335 -630 825 0
-132 -338 -632 826 0
-134 -341 -634 827 0
-136 -344 -636 828 0
-138 -347 -638 829 0
-140 -350 -640 830 0
-142 -353 -642 831 0
-144 -356 -644 832 0
-146 -359 -646 833 0
-148 -362 -648 834 0
-150 -365 -650 835 0
-152 -368 -652 836 0
-154 -371 -654 837 0
-156 -374 -656 838 0
-158 -377 -658 839 0
-160 -380 -660 840 0
-162 -383 -662 841 0
-164 -386 -664 842 0
-166 -389 -666 843 0
-168 -392 -668 844 0
-170 -395 -670 845 0
-172 -398 -672 846 0
-174 -401 -674 847 0
-176 -404 -676 848 0
-178 -407 -678 849 0
-180 -410 -680 850 0
-182 -413 -682 851 0
-184 -416 -684 852 0
-186 -419 -686 853 0
-188 -422 -688 854 0
-190 -425 -690 855 0
-192 -428 -692 856 0
-194 -431 -694 857 0
-196 -434 -696 858 0
-198 -437 -698 859 0
-200 -440 -700 860 0
-202 -443 -702 861 0
-204 -446 -704 862 0
-206 -449 -706 863 0
-208 -452 -708 864 0
-210 -455 -710 865 0
-212 -458 -712 866 0
-214 -461 -714 867 0
-216 -464 -716 868 0
-218 -467 -718 869 0
-220 -470 -720 870 0
-222 -473 -722 871 0
-224 -476 -724 872 0
-226 -479 -726 873 0
-228 -482 -728 874 0
-230 -485 -730 875 0
-232 -488 -732 876 0
-234 -491 -734 877 0
-236 -494 -736 878 0
-238 -497 -738 879 0
-240 -500 -740 880 0
-242 -503 -742 881 0
-244 -506 -744 882 0
-246 -509 -746 883 0
-248 -512 -748 884 0
-250 -515 -750 885 0
-252 -518 -752 886 0
-254 -521 -754 887 0
-256 -524 -756 888 0
-258 -527 -758 889 0
-260 -530 -760 890 0
-262 -533 -762 891 0
-264 -536 -764 892 0
-266 -539 -766 893 0
-268 -542 -768 894 0
-270 -545 -770 895 0
-272 -548 -772 896 0
-274 -551 -774 897 0
-276 -554 -776 898 0
-278 -557 -778 899 0
-280 -560 -780 900 0
-282 -563 -782 901 0
-284 -566 -784 902 0
-286 -569 -786 903 0
-288 -572 -788 904 0
-290 -575 -790 905 0
-292 -578 -792 906 0
-294 -581 -794 907 0
-296 -584 -796 908 0
-298 -587 -798 909 0
-300 -590 -800 910 0
-302 -593 -802 911 0
-304 -596 -804 912 0
-306 -599 -806 913 0
-308 -602 -808 914 0
-310 -605 -810 915 0
-312 -608 -812 916 0
-314 -611 -814 917 0
-316 -614 -816 918 0
-318 -617 -818 919 0
-320 -620 -820 920 0
-821 122 0
-822 124 0
-823 126 0
-824 128 0
-825 130 0
-826 132 0
-827 134 0
-828 136 0
-829 138 0
-830 140 0
-831 142 0
-832 144 0
-833 146 0
-834 148 0
-835 150 0
-836 152 0
-837 154 0
-838 156 0
-839 158 0
-840 160 0
-841 162 0
-842 164 0
-843 166 0
-844 168 0
-845 170 0
-846 172 0
-847 174 0
-848 176 0
-849 178 0
-850 180 0
-851 182 0
-852 184 0
-853 186 0
-854 188 0
-855 190 0
-856 192 0
-857 194 0
-858 196 0
-859 198 0
-860 200 0
-861 202 0
-862 204 0
-863 206 0
-864 208 0
-865 210 0
-866 212 0
-867 214 0
-868 216 0
-869 218 0
-870 220 0
-871 222 0
-872 224 0
-873 226 0
-874 228 0
-875 230 0
-876 232 0
-877 234 0
-878 236 0
-879 238 0
-880 240 0
-881 242 0
-882 244 0
-883 246 0
-884 248 0
-885 250 0
-886 252 0
-887 254 0
-888 256 0
-889 258 0
-890 260 0
-891 262 0
-892 264 0
-893 266 0
-894 268 0
-895 270 0
-896 272 0
-897 274 0
-898 276 0
-899 278 0
-900 280 0
-901 282 0
-902 284 0
-903 286 0
-904 288 0
-905 290 0
-906 292 0
-907 294 0
-908 296 0
-909 298 0
-910 300 0
-911 302 0
-912 304 0
-913 306 0
-914 308 0
-915 310 0
-916 312 0
-917 314 0
-918 316 0
-919 318 0
-920 320 0
-821 323 0
-822 326 0
-823 329 0
-824 332 0
-825 335 0
-826 338 0
-827 341 0
-828 344 0
-829 347 0
-830 350 0
-831 353 0
-832 356 0
-833 359 0
-834 362 0
-835 365 0
-836 368 0
-837 371 0
-838 374 0
-839 377 0
-840 380 0
-841 383 0
-842 386 0
-843 389 0
-844 392 0
-845 395 0
-846 398 0
-847 401 0
-848 404 0
-849 407 0
-850 410 0
-851 413 0
-852 416 0
-853 419 0
-854 422 0
-855 425 0
-856 428 0
-857 431 0
-858 434 0
-859 437 0
-860 440 0
-861 443 0
-862 446 0
-863 449 0
-864 452 0
-865 455 0
-866 458 0
-867 461 0
-868 464 0
-869 467 0
-870 470 0
-871 473 0
-872 476 0
-873 479 0
-874 482 0
-875 485 0
-876 488 0
-877 491 0
-878 494 0
-879 497 0
-880 500 0
-881 503 0
-882 506 0
-883 509 0
-884 512 0
-885 515 0
-886 518 0
-887 521 0
-888 524 0
-889 527 0
-890 530 0
-891 533 0
-892 536 0
-893 539 0
-894 542 0
-895 545 0
-896 548 0
-897 551 0
-898 554 0
-899 557 0
-900 560 0
-901 563 0
-902 566 0
-903 569 0
-904 572 0
-905 575 0
-906 578 0
-907 581 0
-908 584 0
-909 587 0
-910 590 0
-911 593 0
-912 596 0
-913 599 0
-914 602 0
-915 605 0
-916 608 0
-917 611 0
-918 614 0
-919 617 0
-920 620 0
-821 622 0
-822 624 0
-823 626 0
-824 628 0
-825 630 0
-826 632 0
-827 634 0
-828 636 0
-829 638 0
-830 640 0
-831 642 0
-832 644 0
-833 646 0
-834 648 0
-835 650 0
-836 652 0
-837 654 0
-838 656 0
-839 658 0
-840 660 0
-841 662 0
-842 664 0
-843 666 0
-844 668 0
-845 670 0
-846 672 0
-847 674 0
-848 676 0
-849 678 0
-850 680 0
-851 682 0
-852 684 0
-853 686 0
-854 688 0
-855 690 0
-856 692 0
-857 694 0
-858 696 0
-859 698 0
-860 700 0
-861 702 0
-862 704 0
-863 706 0
-864 708 0
-865 710 0
-866 712 0
-867 714 0
-868 716 0
-869 718 0
-870 720 0
-871 722 0
-872 724 0
-873 726 0
-874 728 0
-875 730 0
-876 732 0
-877 734 0
-878 736 0
-879 738 0
-880 740 0
-881 742 0
-882 744 0
-883 746 0
-884 748 0
-885 750 0
-886 752 0
-887 754 0
-888 756 0
-889 758 0
-890 760 0
-891 762 0
-892 764 0
-893 766 0
-894 768 0
-895 770 0
-896 772 0
-897 774 0
-898 776 0
-899 778 0
-900 780 0
-901 782 0
-902 784 0
-903 786 0
-904 788 0
-905 790 0
-906 792 0
-907 794 0
-908 796 0
-909 798 0
-910 800 0
-911 802 0
-912 804 0
-913 806 0
-914 808 0
-915 810 0
-916 812 0
-917 814 0
-918 816 0
-919 818 0
-920 820 0
821 0
822 0
823 0
824 0
825 0
826 0
827 0
828 0
829 0
830 0
831 0
832 0
833 0
834 0
835 0
836 0
837 0
838 0
839 0
840 0
841 0
842 0
843 0
844 0
845 0
846 0
847 0
848 0
849 0
850 0
851 0
852 0
853 0
854 0
855 0
856 0
857 0
858 0
859 0
860 0
861 0
862 0
863 0
864 0
865 0
866 0
867 0
868 0
869 0
870 0
871 0
872 0
873 0
874 0
875 0
876 0
877 0
878 0
879 0
880 0
881 0
882 0
883 0
884 0
885 0
886 0
887 0
888 0
889 0
890 0
891 0
892 0
893 0
894 0
895 0
896 0
897 0
898 0
899 0
900 0
901 0
902 0
903 0
904 0
905 0
906 0
907 0
908 0
909 0
910 0
911 0
912 0
913 0
914 0
915 0
916 0
917 0
918 0
919 0
920 0
321 0
351 324 0
-351 -324 0
-351 -384 381 0
-351 -414 411 0
-351 -444 441 0
-351 -474 471 0
-351 -504 501 0
-351 -534 531 0
-351 -564 561 0
-351 -594 591 0
381 327 0
-381 -327 0
-381 -357 351 0
-381 -417 411 0
-381 -447 441 0
-381 -477 471 0
-381 -507 501 0
-381 -537 531 0
-381 -567 561 0
-381 -597 591 0
411 330 0
-411 -330 0
-411 -360 351 0
-411 -390 381 0
-411 -450 441 0
-411 -480 471 0
-411 -510 501 0
-411 -540 531 0
-411 -570 561 0
-411 -600 591 0
441 333 0
-441 -333 0
-441 -363 351 0
-441 -393 381 0
-441 -423 411 0
-441 -483 471 0
-441 -513 501 0
-441 -543 531 0
-441 -573 561 0
-441 -603 591 0
471 336 0
-471 -336 0
-471 -366 351 0
-471 -396 381 0
-471 -426 411 0
-471 -456 441 0
-471 -516 501 0
-471 -546 531 0
-471 -576 561 0
-471 -606 591 0
501 339 0
-501 -339 0
-501 -369 351 0
-501 -399 381 0
-501 -429 411 0
-501 -459 441 0
-501 -489 471 0
-501 -549 531 0
-501 -579 561 0
-501 -609 591 0
531 342 0
-531 -342 0
-531 -372 351 0
-531 -402 381 0
-531 -432 411 0
-531 -462 441 0
-531 -492 471 0
-531 -522 501 0
-531 -582 561 0
-531 -612 591 0
561 345 0
-561 -345 0
-561 -375 351 0
-561 -405 381 0
-561 -435 411 0
-561 -465 441 0
-561 -495 471 0
-561 -525 501 0
-561 -555 531 0
-561 -615 591 0
591 348 0
-591 -348 0
-591 -378 351 0
-591 -408 381 0
-591 -438 411 0
-591 -468 441 0
-591 -498 471 0
-591 -528 501 0
-591 -558 531 0
-591 -588 561 0
354 0
324 351 0
-324 -351 0
-324 -381 384 0
-324 -411 414 0
-324 -441 444 0
-324 -471 474 0
-324 -501 504 0
-324 -531 534 0
-324 -561 564 0
-324 -591 594 0
384 357 0
-384 -357 0
-384 -327 324 0
-384 -417 414 0
-384 -447 444 0
-384 -477 474 0
-384 -507 504 0
-384 -537 534 0
-384 -567 564 0
-384 -597 594 0
414 360 0
-414 -360 0
-414 -330 324 0
-414 -390 384 0
-414 -450 444 0
-414 -480 474 0
-414 -510 504 0
-414 -540 534 0
-414 -570 564 0
-414 -600 594 0
444 363 0
-444 -363 0
-444 -333 324 0
-444 -393 384 0
-444 -423 414 0
-444 -483 474 0
-444 -513 504 0
-444 -543 534 0
-444 -573 564 0
-444 -603 594 0
474 366 0
-474 -366 0
-474 -336 324 0
-474 -396 384 0
-474 -426 414 0
-474 -456 444 0
-474 -516 504 0
-474 -546 534 0
-474 -576 564 0
-474 -606 594 0
504 369 0
-504 -369 0
-504 -339 324 0
-504 -399 384 0
-504 -429 414 0
-504 -459 444 0
-504 -489 474 0
-504 -549 534 0
-504 -579 564 0
-504 -609 594 0
534 372 0
-534 -372 0
-534 -342 324 0
-534 -402 384 0
-534 -432 414 0
-534 -462 444 0
-534 -492 474 0
-534 -522 504 0
-534 -582 564 0
-534 -612 594 0
564 375 0
-564 -375 0
-564 -345 324 0
-564 -405 384 0
-564 -435 414 0
-564 -465 444 0
-564 -495 474 0
-564 -525 504 0
-564 -555 534 0
-564 -615 594 0
594 378 0
-594 -378 0
-594 -348 324 0
-594 -408 384 0
-594 -438 414 0
-594 -468 444 0
-594 -498 474 0
-594 -528 504 0
-594 -558 534 0
-594 -588 564 0
387 0
327 381 0
-327 -381 0
-327 -351 357 0
-327 -411 417 0
-327 -441 447 0
-327 -471 477 0
-327 -501 507 0
-327 -531 537 0
-327 -561 567 0
-327 -591 597 0
357 384 0
-357 -384 0
-357 -324 327 0
-357 -414 417 0
-357 -444 447 0
-357 -474 477 0
-357 -504 507 0
-357 -534 537 0
-357 -564 567 0
-357 -594 597 0
417 390 0
-417 -390 0
-417 -330 327 0
-417 -360 357 0
-417 -450 447 0
-417 -480 477 0
-417 -510 507 0
-417 -540 537 0
-417 -570 567 0
-417 -600 597 0
447 393 0
-447 -393 0
-447 -333 327 0
-447 -363 357 0
-447 -423 417 0
-447 -483 477 0
-447 -513 507 0
-447 -543 537 0
-447 -573 567 0
-447 -603 597 0
477 396 0
-477 -396 0
-477 -336 327 0
-477 -366 357 0
-477 -426 417 0
-477 -456 447 0
-477 -516 507 0
-477 -546 537 0
-477 -576 567 0
-477 -606 597 0
507 399 0
-507 -399 0
-507 -339 327 0
-507 -369 357 0
-507 -429 417 0
-507 -459 447 0
-507 -489 477 0
-507 -549 537 0
-507 -579 567 0
-507 -609 597 0
537 402 0
-537 -402 0
-537 -342 327 0
-537 -372 357 0
-537 -432 417 0
-537 -462 447 0
-537 -492 477 0
-537 -522 507 0
-537 -582 567 0
-537 -612 597 0
567 405 0
-567 -405 0
-567 -345 327 0
-567 -375 357 0
-567 -435 417 0
-567 -465 447 0
-567 -495 477 0
-567 -525 507 0
-567 -555 537 0
-567 -615 597 0
597 408 0
-597 -408 0
-597 -348 327 0
-597 -378 357 0
-597 -438 417 0
-597 -468 447 0
-597 -498 477 0
-597 -528 507 0
-597 -558 537 0
-597 -588 567 0
420 0
330 411 0
-330 -411 0
-330 -351 360 0
-330 -381 390 0
-330 -441 450 0
-330 -471 480 0
-330 -501 510 0
-330 -531 540 0
-330 -561 570 0
-330 -591 600 0
360 414 0
-360 -414 0
-360 -324 330 0
-360 -384 390 0
-360 -444 450 0
-360 -474 480 0
-360 -504 510 0
-360 -534 540 0
-360 -564 570 0
-360 -594 600 0
390 417 0
-390 -417 0
-390 -327 330 0
-390 -357 360 0
-390 -447 450 0
-390 -477 480 0
-390 -507 510 0
-390 -537 540 0
-390 -567 570 0
-390 -597 600 0
450 423 0
-450 -423 0
-450 -333 330 0
-450 -363 360 0
-450 -393 390 0
-450 -483 480 0
-450 -513 510 0
-450 -543 540 0
-450 -573 570 0
-450 -603 600 0
480 426 0
-480 -426 0
-480 -336 330 0
-480 -366 360 0
-480 -396 390 0
-480 -456 450 0
-480 -516 510 0
-480 -546 540 0
-480 -576 570 0
-480 -606 600 0
510 429 0
-510 -429 0
-510 -339 330 0
-510 -369 360 0
-510 -399 390 0
-510 -459 450 0
-510 -489 480 0
-510 -549 540 0
-510 -579 570 0
-510 -609 600 0
540 432 0
-540 -432 0
-540 -342 330 0
-540 -372 360 0
-540 -402 390 0
-540 -462 450 0
-540 -492 480 0
-540 -522 510 0
-540 -582 570 0
-540 -612 600 0
570 435 0
-570 -435 0
-570 -345 330 0
-570 -375 360 0
-570 -405 390 0
-570 -465 450 0
-570 -495 480 0
-570 -525 510 0
-570 -555 540 0
-570 -615 600 0
600 438 0
-600 -438 0
-600 -348 330 0
-600 -378 360 0
-600 -408 390 0
-600 -468 450 0
-600 -498 480 0
-600 -528 510 0
-600 -558 540 0
-600 -588 570 0
453 0
333 441 0
-333 -441 0
-333 -351 363 0
-333 -381 393 0
-333 -411 423 0
-333 -471 483 0
-333 -501 513 0
-333 -531 543 0
-333 -561 573 0
-333 -591 603 0
363 444 0
-363 -444 0
-363 -324 333 0
-363 -384 393 0
-363 -414 423 0
-363 -474 483 0
-363 -504 513 0
-363 -534 543 0
-363 -564 573 0
-363 -594 603 0
393 447 0
-393 -447 0
-393 -327 333 0
-393 -357 363 0
-393 -417 423 0
-393 -477 483 0
-393 -507 513 0
-393 -537 543 0
-393 -567 573 0
-393 -597 603 0
423 450 0
-423 -450 0
-423 -330 333 0
-423 -360 363 0
-423 -390 393 0
-423 -480 483 0
-423 -510 513 0
-423 -540 543 0
-423 -570 573 0
-423 -600 603 0
483 456 0
-483 -456 0
-483 -336 333 0
-483 -366 363 0
-483 -396 393 0
-483 -426 423 0
-483 -516 513 0
-483 -546 543 0
-483 -576 573 0
-483 -606 603 0
513 459 0
-513 -459 0
-513 -339 333 0
-513 -369 363 0
-513 -399 393 0
-513 -429 423 0
-513 -489 483 0
-513 -549 543 0
-513 -579 573 0
-513 -609 603 0
543 462 0
-543 -462 0
-543 -342 333 0
-543 -372 363 0
-543 -402 393 0
-543 -432 423 0
-543 -492 483 0
-543 -522 513 0
-543 -582 573 0
-543 -612 603 0
573 465 0
-573 -465 0
-573 -345 333 0
-573 -375 363 0
-573 -405 393 0
-573 -435 423 0
-573 -495 483 0
-573 -525 513 0
-573 -555 543 0
-573 -615 603 0
603 468 0
-603 -468 0
-603 -348 333 0
-603 -378 363 0
-603 -408 393 0
-603 -438 423 0
-603 -498 483 0
-603 -528 513 0
-603 -558 543 0
-603 -588 573 0
486 0
336 471 0
-336 -471 0
-336 -351 366 0
-336 -381 396 0
-336 -411 426 0
-336 -441 456 0
-336 -501 516 0
-336 -531 546 0
-336 -561 576 0
-336 -591 606 0
366 474 0
-366 -474 0
-366 -324 336 0
-366 -384 396 0
-366 -414 426 0
-366 -444 456 0
-366 -504 516 0
-366 -534 546 0
-366 -564 576 0
-366 -594 606 0
396 477 0
-396 -477 0
-396 -327 336 0
-396 -357 366 0
-396 -417 426 0
-396 -447 456 0
-396 -507 516 0
-396 -537 546 0
-396 -567 576 0
-396 -597 606 0
426 480 0
-426 -480 0
-426 -330 336 0
-426 -360 366 0
-426 -390 396 0
-426 -450 456 0
-426 -510 516 0
-426 -540 546 0
-426 -570 576 0
-426 -600 606 0
456 483 0
-456 -483 0
-456 -333 336 0
-456 -363 366 0
-456 -393 396 0
-456 -423 426 0
-456 -513 516 0
-456 -543 546 0
-456 -573 576 0
-456 -603 606 0
516 489 0
-516 -489 0
-516 -339 336 0
-516 -369 366 0
-516 -399 396 0
-516 -429 426 0
-516 -459 456 0
-516 -549 546 0
-516 -579 576 0
-516 -609 606 0
546 492 0
-546 -492 0
-546 -342 336 0
-546 -372 366 0
-546 -402 396 0
-546 -432 426 0
-546 -462 456 0
-546 -522 516 0
-546 -582 576 0
-546 -612 606 0
576 495 0
-576 -495 0
-576 -345 336 0
-576 -375 366 0
-576 -405 396 0
-576 -435 426 0
-576 -465 456 0
-576 -525 516 0
-576 -555 546 0
-576 -615 606 0
606 498 0
-606 -498 0
-606 -348 336 0
-606 -378 366 0
-606 -408 396 0
-606 -438 426 0
-606 -468 456 0
-606 -528 516 0
-606 -558 546 0
-606 -588 576 0
519 0
339 501 0
-339 -501 0
-339 -351 369 0
-339 -381 399 0
-339 -411 429 0
-339 -441 459 0
-339 -471 489 0
-339 -531 549 0
-339 -561 579 0
-339 -591 609 0
369 504 0
-369 -504 0
-369 -324 339 0
-369 -384 399 0
-369 -414 429 0
-369 -444 459 0
-369 -474 489 0
-369 -534 549 0
-369 -564 579 0
-369 -594 609 0
399 507 0
-399 -507 0
-399 -327 339 0
-399 -357 369 0
-399 -417 429 0
-399 -447 459 0
-399 -477 489 0
-399 -537 549 0
-399 -567 579 0
-399 -597 609 0
429 510 0
-429 -510 0
-429 -330 339 0
-429 -360 369 0
-429 -390 399 0
-429 -450 459 0
-429 -480 489 0
-429 -540 549 0
-429 -570 579 0
-429 -600 609 0
459 513 0
-459 -513 0
-459 -333 339 0
-459 -363 369 0
-459 -393 399 0
-459 -423 429 0
-459 -483 489 0
-459 -543 549 0
-459 -573 579 0
-459 -603 609 0
489 516 0
-489 -516 0
-489 -336 339 0
-489 -366 369 0
-489 -396 399 0
-489 -426 429 0
-489 -456 459 0
-489 -546 549 0
-489 -576 579 0
-489 -606 609 0
549 522 0
-549 -522 0
-549 -342 339 0
-549 -372 369 0
-549 -402 399 0
-549 -432 429 0
-549 -462 459 0
-549 -492 489 0
-549 -582 579 0
-549 -612 609 0
579 525 0
-579 -525 0
-579 -345 339 0
-579 -375 369 0
-579 -405 399 0
-579 -435 429 0
-579 -465 459 0
-579 -495 489 0
-579 -555 549 0
-579 -615 609 0
609 528 0
-609 -528 0
-609 -348 339 0
-609 -378 369 0
-609 -408 399 0
-609 -438 429 0
-609 -468 459 0
-609 -498 489 0
-609 -558 549 0
-609 -588 579 0
552 0
342 531 0
-342 -531 0
-342 -351 372 0
-342 -381 402 0
-342 -411 432 0
-342 -441 462 0
-342 -471 492 0
-342 -501 522 0
-342 -561 582 0
-342 -591 612 0
372 534 0
-372 -534 0
-372 -324 342 0
-372 -384 402 0
-372 -414 432 0
-372 -444 462 0
-372 -474 492 0
-372 -504 522 0
-372 -564 582 0
-372 -594 612 0
402 537 0
-402 -537 0
-402 -327 342 0
-402 -357 372 0
-402 -417 432 0
-402 -447 462 0
-402 -477 492 0
-402 -507 522 0
-402 -567 582 0
-402 -597 612 0
432 540 0
-432 -540 0
-432 -330 342 0
-432 -360 372 0
-432 -390 402 0
-432 -450 462 0
-432 -480 492 0
-432 -510 522 0
-432 -570 582 0
-432 -600 612 0
462 543 0
-462 -543 0
-462 -333 342 0
-462 -363 372 0
-462 -393 402 0
-462 -423 432 0
-462 -483 492 0
-462 -513 522 0
-462 -573 582 0
-462 -603 612 0
492 546 0
-492 -546 0
-492 -336 342 0
-492 -366 372 0
-492 -396 402 0
-492 -426 432 0
-492 -456 462 0
-492 -516 522 0
-492 -576 582 0
-492 -606 612 0
522 549 0
-522 -549 0
-522 -339 342 0
-522 -369 372 0
-522 -399 402 0
-522 -429 432 0
-522 -459 462 0
-522 -489 492 0
-522 -579 582 0
-522 -609 612 0
582 555 0
-582 -555 0
-582 -345 342 0
-582 -375 372 0
-582 -405 402 0
-582 -435 432 0
-582 -465 462 0
-582 -495 492 0
-582 -525 522 0
-582 -615 612 0
612 558 0
-612 -558 0
-612 -348 342 0
-612 -378 372 0
-612 -408 402 0
-612 -438 432 0
-612 -468 462 0
-612 -498 492 0
-612 -528 522 0
-612 -588 582 0
585 0
345 561 0
-345 -561 0
-345 -351 375 0
-345 -381 405 0
-345 -411 435 0
-345 -441 465 0
-345 -471 495 0
-345 -501 525 0
-345 -531 555 0
-345 -591 615 0
375 564 0
-375 -564 0
-375 -324 345 0
-375 -384 405 0
-375 -414 435 0
-375 -444 465 0
-375 -474 495 0
-375 -504 525 0
-375 -534 555 0
-375 -594 615 0
405 567 0
-405 -567 0
-405 -327 345 0
-405 -357 375 0
-405 -417 435 0
-405 -447 465 0
-405 -477 495 0
-405 -507 525 0
-405 -537 555 0
-405 -597 615 0
435 570 0
-435 -570 0
-435 -330 345 0
-435 -360 375 0
-435 -390 405 0
-435 -450 465 0
-435 -480 495 0
-435 -510 525 0
-435 -540 555 0
-435 -600 615 0
465 573 0
-465 -573 0
-465 -333 345 0
-465 -363 375 0
-465 -393 405 0
-465 -423 435 0
-465 -483 495 0
-465 -513 525 0
-465 -543 555 0
-465 -603 615 0
495 576 0
-495 -576 0
-495 -336 345 0
-495 -366 375 0
-495 -396 405 0
-495 -426 435 0
-495 -456 465 0
-495 -516 525 0
-495 -546 555 0
-495 -606 615 0
525 579 0
-525 -579 0
-525 -339 345 0
-525 -369 375 0
-525 -399 405 0
-525 -429 435 0
-525 -459 465 0
-525 -489 495 0
-525 -549 555 0
-525 -609 615 0
555 582 0
-555 -582 0
-555 -342 345 0
-555 -372 375 0
-555 -402 405 0
-555 -432 435 0
-555 -462 465 0
-555 -492 495 0
-555 -522 525 0
-555 -612 615 0
615 588 0
-615 -588 0
-615 -348 345 0
-615 -378 375 0
-615 -408 405 0
-615 -438 435 0
-615 -468 465 0
-615 -498 495 0
-615 -528 525 0
-615 -558 555 0
618 0
348 591 0
-348 -591 0
-348 -351 378 0
-348 -381 408 0
-348 -411 438 0
-348 -441 468 0
-348 -471 498 0
-348 -501 528 0
-348 -531 558 0
-348 -561 588 0
378 594 0
-378 -594 0
-378 -324 348 0
-378 -384 408 0
-378 -414 438 0
-378 -444 468 0
-378 -474 498 0
-378 -504 528 0
-378 -534 558 0
-378 -564 588 0
408 597 0
-408 -597 0
-408 -327 348 0
-408 -357 378 0
-408 -417 438 0
-408 -447 468 0
-408 -477 498 0
-408 -507 528 0
-408 -537 558 0
-408 -567 588 0
438 600 0
-438 -600 0
-438 -330 348 0
-438 -360 378 0
-438 -390 408 0
-438 -450 468 0
-438 -480 498 0
-438 -510 528 0
-438 -540 558 0
-438 -570 588 0
468 603 0
-468 -603 0
-468 -333 348 0
-468 -363 378 0
-468 -393 408 0
-468 -423 438 0
-468 -483 498 0
-468 -513 528 0
-468 -543 558 0
-468 -573 588 0
498 606 0
-498 -606 0
-498 -336 348 0
-498 -366 378 0
-498 -396 408 0
-498 -426 438 0
-498 -456 468 0
-498 -516 528 0
-498 -546 558 0
-498 -576 588 0
528 609 0
-528 -609 0
-528 -339 348 0
-528 -369 378 0
-528 -399 408 0
-528 -429 438 0
-528 -459 468 0
-528 -489 498 0
-528 -549 558 0
-528 -579 588 0
558 612 0
-558 -612 0
-558 -342 348 0
-558 -372 378 0
-558 -402 408 0
-558 -432 438 0
-558 -462 468 0
-558 -492 498 0
-558 -522 528 0
-558 -582 588 0
588 615 0
-588 -615 0
-588 -345 348 0
-588 -375 378 0
-588 -405 408 0
-588 -435 438 0
-588 -465 468 0
-588 -495 498 0
-588 -525 528 0
-588 -555 558 0
921 0
922 923 0
-922 -923 0
-922 -924 925 0
-922 -926 927 0
-922 -928 929 0
-922 -930 931 0
-922 -932 933 0
-922 -934 935 0
-922 -936 937 0
-922 -938 939 0
925 940 0
-925 -940 0
-925 -941 922 0
-925 -942 927 0
-925 -943 929 0
-925 -944 931 0
-925 -945 933 0
-925 -946 935 0
-925 -947 937 0
-925 -948 939 0
927 949 0
-927 -949 0
-927 -950 922 0
-927 -951 925 0
-927 -952 929 0
-927 -953 931 0
-927 -954 933 0
-927 -955 935 0
-927 -956 937 0
-927 -957 939 0
929 958 0
-929 -958 0
-929 -959 922 0
-929 -960 925 0
-929 -961 927 0
-929 -962 931 0
-929 -963 933 0
-929 -964 935 0
-929 -965 937 0
-929 -966 939 0
931 967 0
-931 -967 0
-931 -968 922 0
-931 -969 925 0
-931 -970 927 0
-931 -971 929 0
-931 -972 933 0
-931 -973 935 0
-931 -974 937 0
-931 -975 939 0
933 976 0
-933 -976 0
-933 -977 922 0
-933 -978 925 0
-933 -979 927 0
-933 -980 929 0
-933 -981 931 0
-933 -982 935 0
-933 -983 937 0
-933 -984 939 0
935 985 0
-935 -985 0
-935 -986 922 0
-935 -987 925 0
-935 -988 927 0
-935 -989 929 0
-935 -990 931 0
-935 -991 933 0
-935 -992 937 0
-935 -993 939 0
937 994 0
-937 -994 0
-937 -995 922 0
-937 -996 925 0
-937 -997 927 0
-937 -998 929 0
-937 -999 931 0
-937 -1000 933 0
-937 -1001 935 0
-937 -1002 939 0
939 1003 0
-939 -1003 0
-939 -1004 922 0
-939 -1005 925 0
-939 -1006 927 0
-939 -1007 929 0
-939 -1008 931 0
-939 -1009 933 0
-939 -1010 935 0
-939 -1011 937 0
1012 0
923 922 0
-923 -922 0
-923 -925 924 0
-923 -927 926 0
-923 -929 928 0
-923 -931 930 0
-923 -933 932 0
-923 -935 934 0
-923 -937 936 0
-923 -939 938 0
924 941 0
-924 -941 0
-924 -940 923 0
-924 -942 926 0
-924 -943 928 0
-924 -944 930 0
-924 -945 932 0
-924 -946 934 0
-924 -947 936 0
-924 -948 938 0
926 950 0
-926 -950 0
-926 -949 923 0
-926 -951 924 0
-926 -952 928 0
-926 -953 930 0
-926 -954 932 0
-926 -955 934 0
-926 -956 936 0
-926 -957 938 0
928 959 0
-928 -959 0
-928 -958 923 0
-928 -960 924 0
-928 -961 926 0
-928 -962 930 0
-928 -963 932 0
-928 -964 934 0
-928 -965 936 0
-928 -966 938 0
930 968 0
-930 -968 0
-930 -967 923 0
-930 -969 924 0
-930 -970 926 0
-930 -971 928 0
-930 -972 932 0
-930 -973 934 0
-930 -974 936 0
-930 -975 938 0
932 977 0
-932 -977 0
-932 -976 923 0
-932 -978 924 0
-932 -979 926 0
-932 -980 928 0
-932 -981 930 0
-932 -982 934 0
-932 -983 936 0
-932 -984 938 0
934 986 0
-934 -986 0
-934 -985 923 0
-934 -987 924 0
-934 -988 926 0
-934 -989 928 0
-934 -990 930 0
-934 -991 932 0
-934 -992 936 0
-934 -993 938 0
936 995 0
-936 -995 0
-936 -994 923 0
-936 -996 924 0
-936 -997 926 0
-936 -998 928 0
-936 -999 930 0
-936 -1000 932 0
-936 -1001 934 0
-936 -1002 938 0
938 1004 0
-938 -1004 0
-938 -1003 923 0
-938 -1005 924 0
-938 -1006 926 0
-938 -1007 928 0
-938 -1008 930 0
-938 -1009 932 0
-938 -1010 934 0
-938 -1011 936 0
1013 0
940 925 0
-940 -925 0
-940 -922 941 0
-940 -927 942 0
-940 -929 943 0
-940 -931 944 0
-940 -933 945 0
-940 -935 946 0
-940 -937 947 0
-940 -939 948 0
941 924 0
-941 -924 0
-941 -923 940 0
-941 -926 942 0
-941 -928 943 0
-941 -930 944 0
-941 -932 945 0
-941 -934 946 0
-941 -936 947 0
-941 -938 948 0
942 951 0
-942 -951 0
-942 -949 940 0
-942 -950 941 0
-942 -952 943 0
-942 -953 944 0
-942 -954 945 0
-942 -955 946 0
-942 -956 947 0
-942 -957 948 0
943 960 0
-943 -960 0
-943 -958 940 0
-943 -959 941 0
-943 -961 942 0
-943 -962 944 0
-943 -963 945 0
-943 -964 946 0
-943 -965 947 0
-943 -966 948 0
944 969 0
-944 -969 0
-944 -967 940 0
-944 -968 941 0
-944 -970 942 0
-944 -971 943 0
-944 -972 945 0
-944 -973 946 0
-944 -974 947 0
-944 -975 948 0
945 978 0
-945 -978 0
-945 -976 940 0
-945 -977 941 0
-945 -979 942 0
-945 -980 943 0
-945 -981 944 0
-945 -982 946 0
-945 -983 947 0
-945 -984 948 0
946 987 0
-946 -987 0
-946 -985 940 0
-946 -986 941 0
-946 -988 942 0
-946 -989 943 0
-946 -990 944 0
-946 -991 945 0
-946 -992 947 0
-946 -993 948 0
947 996 0
-947 -996 0
-947 -994 940 0
-947 -995 941 0
-947 -997 942 0
-947 -998 943 0
-947 -999 944 0
-947 -1000 945 0
-947 -1001 946 0
-947 -1002 948 0
948 1005 0
-948 -1005 0
-948 -1003 940 0
-948 -1004 941 0
-948 -1006 942 0
-948 -1007 943 0
-948 -1008 944 0
-948 -1009 945 0
-948 -1010 946 0
-948 -1011 947 0
1014 0
949 927 0
-949 -927 0
-949 -922 950 0
-949 -925 951 0
-949 -929 952 0
-949 -931 953 0
-949 -933 954 0
-949 -935 955 0
-949 -937 956 0
-949 -939 957 0
950 926 0
-950 -926 0
-950 -923 949 0
-950 -924 951 0
-950 -928 952 0
-950 -930 953 0
-950 -932 954 0
-950 -934 955 0
-950 -936 956 0
-950 -938 957 0
951 942 0
-951 -942 0
-951 -940 949 0
-951 -941 950 0
-951 -943 952 0
-951 -944 953 0
-951 -945 954 0
-951 -946 955 0
-951 -947 956 0
-951 -948 957 0
952 961 0
-952 -961 0
-952 -958 949 0
-952 -959 950 0
-952 -960 951 0
-952 -962 953 0
-952 -963 954 0
-952 -964 955 0
-952 -965 956 0
-952 -966 957 0
953 970 0
-953 -970 0
-953 -967 949 0
-953 -968 950 0
-953 -969 951 0
-953 -971 952 0
-953 -972 954 0
-953 -973 955 0
-953 -974 956 0
-953 -975 957 0
954 979 0
-954 -979 0
-954 -976 949 0
-954 -977 950 0
-954 -978 951 0
-954 -980 952 0
-954 -981 953 0
-954 -982 955 0
-954 -983 956 0
-954 -984 957 0
955 988 0
-955 -988 0
-955 -985 949 0
-955 -986 950 0
-955 -987 951 0
-955 -989 952 0
-955 -990 953 0
-955 -991 954 0
-955 -992 956 0
-955 -993 957 0
956 997 0
-956 -997 0
-956 -994 949 0
-956 -995 950 0
-956 -996 951 0
-956 -998 952 0
-956 -999 953 0
-956 -1000 954 0
-956 -1001 955 0
-956 -1002 957 0
957 1006 0
-957 -1006 0
-957 -1003 949 0
-957 -1004 950 0
-957 -1005 951 0
-957 -1007 952 0
-957 -1008 953 0
-957 -1009 954 0
-957 -1010 955 0
-957 -1011 956 0
1015 0
958 929 0
-958 -929 0
-958 -922 959 0
-958 -925 960 0
-958 -927 961 0
-958 -931 962 0
-958 -933 963 0
-958 -935 964 0
-958 -937 965 0
-958 -939 966 0
959 928 0
-959 -928 0
-959 -923 958 0
-959 -924 960 0
-959 -926 961 0
-959 -930 962 0
-959 -932 963 0
-959 -934 964 0
-959 -936 965 0
-959 -938 966 0
960 943 0
-960 -943 0
-960 -940 958 0
-960 -941 959 0
-960 -942 961 0
-960 -944 962 0
-960 -945 963 0
-960 -946 964 0
-960 -947 965 0
-960 -948 966 0
961 952 0
-961 -952 0
-961 -949 958 0
-961 -950 959 0
-961 -951 960 0
-961 -953 962 0
-961 -954 963 0
-961 -955 964 0
-961 -956 965 0
-961 -957 966 0
962 971 0
-962 -971 0
-962 -967 958 0
-962 -968 959 0
-962 -969 960 0
-962 -970 961 0
-962 -972 963 0
-962 -973 964 0
-962 -974 965 0
-962 -975 966 0
963 980 0
-963 -980 0
-963 -976 958 0
-963 -977 959 0
-963 -978 960 0
-963 -979 961 0
-963 -981 962 0
-963 -982 964 0
-963 -983 965 0
-963 -984 966 0
964 989 0
-964 -989 0
-964 -985 958 0
-964 -986 959 0
-964 -987 960 0
-964 -988 961 0
-964 -990 962 0
-964 -991 963 0
-964 -992 965 0
-964 -993 966 0
965 998 0
-965 -998 0
-965 -994 958 0
-965 -995 959 0
-965 -996 960 0
-965 -997 961 0
-965 -999 962 0
-965 -1000 963 0
-965 -1001 964 0
-965 -1002 966 0
966 1007 0
-966 -1007 0
-966 -1003 958 0
-966 -1004 959 0
-966 -1005 960 0
-966 -1006 961 0
-966 -1008 962 0
-966 -1009 963 0
-966 -1010 964 0
-966 -1011 965 0
1016 0
967 931 0
-967 -931 0
-967 -922 968 0
-967 -925 969 0
-967 -927 970 0
-967 -929 971 0
-967 -933 972 0
-967 -935 973 0
-967 -937 974 0
-967 -939 975 0
968 930 0
-968 -930 0
-968 -923 967 0
-968 -924 969 0
-968 -926 970 0
-968 -928 971 0
-968 -932 972 0
-968 -934 973 0
-968 -936 974 0
-968 -938 975 0
969 944 0
-969 -944 0
-969 -940 967 0
-969 -941 968 0
-969 -942 970 0
-969 -943 971 0
-969 -945 972 0
-969 -946 973 0
-969 -947 974 0
-969 -948 975 0
970 953 0
-970 -953 0
-970 -949 967 0
-970 -950 968 0
-970 -951 969 0
-970 -952 971 0
-970 -954 972 0
-970 -955 973 0
-970 -956 974 0
-970 -957 975 0
971 962 0
-971 -962 0
-971 -958 967 0
-971 -959 968 0
-971 -960 969 0
-971 -961 970 0
-971 -963 972 0
-971 -964 973 0
-971 -965 974 0
-971 -966 975 0
972 981 0
-972 -981 0
-972 -976 967 0
-972 -977 968 0
-972 -978 969 0
-972 -979 970 0
-972 -980 971 0
-972 -982 973 0
-972 -983 974 0
-972 -984 975 0
973 990 0
-973 -990 0
-973 -985 967 0
-973 -986 968 0
-973 -987 969 0
-973 -988 970 0
-973 -989 971 0
-973 -991 972 0
-973 -992 974 0
-973 -993 975 0
974 999 0
-974 -999 0
-974 -994 967 0
-974 -995 968 0
-974 -996 969 0
-974 -997 970 0
-974 -998 971 0
-974 -1000 972 0
-974 -1001 973 0
-974 -1002 975 0
975 1008 0
-975 -1008 0
-975 -1003 967 0
-975 -1004 968 0
-975 -1005 969 0
-975 -1006 970 0
-975 -1007 971 0
-975 -1009 972 0
-975 -1010 973 0
-975 -1011 974 0
1017 0
976 933 0
-976 -933 0
-976 -922 977 0
-976 -925 978 0
-976 -927 979 0
-976 -929 980 0
-976 -931 981 0
-976 -935 982 0
-976 -937 983 0
-976 -939 984 0
977 932 0
-977 -932 0
-977 -923 976 0
-977 -924 978 0
-977 -926 979 0
-977 -928 980 0
-977 -930 981 0
-977 -934 982 0
-977 -936 983 0
-977 -938 984 0
978 945 0
-978 -945 0
-978 -940 976 0
-978 -941 977 0
-978 -942 979 0
-978 -943 980 0
-978 -944 981 0
-978 -946 982 0
-978 -947 983 0
-978 -948 984 0
979 954 0
-979 -954 0
-979 -949 976 0
-979 -950 977 0
-979 -951 978 0
-979 -952 980 0
-979 -953 981 0
-979 -955 982 0
-979 -956 983 0
-979 -957 984 0
980 963 0
-980 -963 0
-980 -958 976 0
-980 -959 977 0
-980 -960 978 0
-980 -961 979 0
-980 -962 981 0
-980 -964 982 0
-980 -965 983 0
-980 -966 984 0
981 972 0
-981 -972 0
-981 -967 976 0
-981 -968 977 0
-981 -969 978 0
-981 -970 979 0
-981 -971 980 0
-981 -973 982 0
-981 -974 983 0
-981 -975 984 0
982 991 0
-982 -991 0
-982 -985 976 0
-982 -986 977 0
-982 -987 978 0
-982 -988 979 0
-982 -989 980 0
-982 -990 981 0
-982 -992 983 0
-982 -993 984 0
983 1000 0
-983 -1000 0
-983 -994 976 0
-983 -995 977 0
-983 -996 978 0
-983 -997 979 0
-983 -998 980 0
-983 -999 981 0
-983 -1001 982 0
-983 -1002 984 0
984 1009 0
-984 -1009 0
-984 -1003 976 0
-984 -1004 977 0
-984 -1005 978 0
-984 -1006 979 0
-984 -1007 980 0
-984 -1008 981 0
-984 -1010 982 0
-984 -1011 983 0
1018 0
985 935 0
-985 -935 0
-985 -922 986 0
-985 -925 987 0
-985 -927 988 0
-985 -929 989 0
-985 -931 990 0
-985 -933 991 0
-985 -937 992 0
-985 -939 993 0
986 934 0
-986 -934 0
-986 -923 985 0
-986 -924 987 0
-986 -926 988 0
-986 -928 989 0
-986 -930 990 0
-986 -932 991 0
-986 -936 992 0
-986 -938 993 0
987 946 0
-987 -946 0
-987 -940 985 0
-987 -941 986 0
-987 -942 988 0
-987 -943 989 0
-987 -944 990 0
-987 -945 991 0
-987 -947 992 0
-987 -948 993 0
988 955 0
-988 -955 0
-988 -949 985 0
-988 -950 986 0
-988 -951 987 0
-988 -952 989 0
-988 -953 990 0
-988 -954 991 0
-988 -956 992 0
-988 -957 993 0
989 964 0
-989 -964 0
-989 -958 985 0
-989 -959 986 0
-989 -960 987 0
-989 -961 988 0
-989 -962 990 0
-989 -963 991 0
-989 -965 992 0
-989 -966 993 0
990 973 0
-990 -973 0
-990 -967 985 0
-990 -968 986 0
-990 -969 987 0
-990 -970 988 0
-990 -971 989 0
-990 -972 991 0
-990 -974 992 0
-990 -975 993 0
991 982 0
-991 -982 0
-991 -976 985 0
-991 -977 986 0
-991 -978 987 0
-991 -979 988 0
-991 -980 989 0
-991 -981 990 0
-991 -983 992 0
-991 -984 993 0
992 1001 0
-992 -1001 0
-992 -994 985 0
-992 -995 986 0
-992 -996 987 0
-992 -997 988 0
-992 -998 989 0
-992 -999 990 0
-992 -1000 991 0
-992 -1002 993 0
993 1010 0
-993 -1010 0
-993 -1003 985 0
-993 -1004 986 0
-993 -1005 987 0
-993 -1006 988 0
-993 -1007 989 0
-993 -1008 990 0
-993 -1009 991 0
-993 -1011 992 0
1019 0
994 937 0
-994 -937 0
-994 -922 995 0
-994 -925 996 0
-994 -927 997 0
-994 -929 998 0
-994 -931 999 0
-994 -933 1000 0
-994 -935 1001 0
-994 -939 1002 0
995 936 0
-995 -936 0
-995 -923 994 0
-995 -924 996 0
-995 -926 997 0
-995 -928 998 0
-995 -930 999 0
-995 -932 1000 0
-995 -934 1001 0
-995 -938 1002 0
996 947 0
-996 -947 0
-996 -940 994 0
-996 -941 995 0
-996 -942 997 0
-996 -943 998 0
-996 -944 999 0
-996 -945 1000 0
-996 -946 1001 0
-996 -948 1002 0
997 956 0
-997 -956 0
-997 -949 994 0
-997 -950 995 0
-997 -951 996 0
-997 -952 998 0
-997 -953 999 0
-997 -954 1000 0
-997 -955 1001 0
-997 -957 1002 0
998 965 0
-998 -965 0
-998 -958 994 0
-998 -959 995 0
-998 -960 996 0
-998 -961 997 0
-998 -962 999 0
-998 -963 1000 0
-998 -964 1001 0
-998 -966 1002 0
999 974 0
-999 -974 0
-999 -967 994 0
-999 -968 995 0
-999 -969 996 0
-999 -970 997 0
-999 -971 998 0
-999 -972 1000 0
-999 -973 1001 0
-999 -975 1002 0
1000 983 0
-1000 -983 0
-1000 -976 994 0
-1000 -977 995 0
-1000 -978 996 0
-1000 -979 997 0
-1000 -980 998 0
-1000 -981 999 0
-1000 -982 1001 0
-1000 -984 1002 0
1001 992 0
-1001 -992 0
-1001 -985 994 0
-1001 -986 995 0
-1001 -987 996 0
-1001 -988 997 0
-1001 -989 998 0
-1001 -990 999 0
-1001 -991 1000 0
-1001 -993 1002 0
1002 1011 0
-1002 -1011 0
-1002 -1003 994 0
-1002 -1004 995 0
-1002 -1005 996 0
-1002 -1006 997 0
-1002 -1007 998 0
-1002 -1008 999 0
-1002 -1009 1000 0
-1002 -1010 1001 0
1020 0
1003 939 0
-1003 -939 0
-1003 -922 1004 0
-1003 -925 1005 0
-1003 -927 1006 0
-1003 -929 1007 0
-1003 -931 1008 0
-1003 -933 1009 0
-1003 -935 1010 0
-1003 -937 1011 0
1004 938 0
-1004 -938 0
-1004 -923 1003 0
-1004 -924 1005 0
-1004 -926 1006 0
-1004 -928 1007 0
-1004 -930 1008 0
-1004 -932 1009 0
-1004 -934 1010 0
-1004 -936 1011 0
1005 948 0
-1005 -948 0
-1005 -940 1003 0
-1005 -941 1004 0
-1005 -942 1006 0
-1005 -943 1007 0
-1005 -944 1008 0
-1005 -945 1009 0
-1005 -946 1010 0
-1005 -947 1011 0
1006 957 0
-1006 -957 0
-1006 -949 1003 0
-1006 -950 1004 0
-1006 -951 1005 0
-1006 -952 1007 0
-1006 -953 1008 0
-1006 -954 1009 0
-1006 -955 1010 0
-1006 -956 1011 0
1007 966 0
-1007 -966 0
-1007 -958 1003 0
-1007 -959 1004 0
-1007 -960 1005 0
-1007 -961 1006 0
-1007 -962 1008 0
-1007 -963 1009 0
-1007 -964 1010 0
-1007 -965 1011 0
1008 975 0
-1008 -975 0
-1008 -967 1003 0
-1008 -968 1004 0
-1008 -969 1005 0
-1008 -970 1006 0
-1008 -971 1007 0
-1008 -972 1009 0
-1008 -973 1010 0
-1008 -974 1011 0
1009 984 0
-1009 -984 0
-1009 -976 1003 0
-1009 -977 1004 0
-1009 -978 1005 0
-1009 -979 1006 0
-1009 -980 1007 0
-1009 -981 1008 0
-1009 -982 1010 0
-1009 -983 1011 0
1010 993 0
-1010 -993 0
-1010 -985 1003 0
-1010 -986 1004 0
-1010 -987 1005 0
-1010 -988 1006 0
-1010 -989 1007 0
-1010 -990 1008 0
-1010 -991 1009 0
-1010 -992 1011 0
1011 1002 0
-1011 -1002 0
-1011 -994 1003 0
-1011 -995 1004 0
-1011 -996 1005 0
-1011 -997 1006 0
-1011 -998 1007 0
-1011 -999 1008 0
-1011 -1000 1009 0
-1011 -1001 1010 0
-621 0
-641 922 0
-1021 925 0
-1021 941 0
-925 -941 1021 0
-1022 927 0
-1022 950 0
-927 -950 1022 0
-1023 929 0
-1023 959 0
-929 -959 1023 0
-1024 931 0
-1024 968 0
-931 -968 1024 0
-1025 933 0
-1025 977 0
-933 -977 1025 0
-1026 935 0
-1026 986 0
-935 -986 1026 0
-1027 937 0
-1027 995 0
-937 -995 1027 0
-1028 939 0
-1028 1004 0
-939 -1004 1028 0
-641 -1021 0
-641 -1022 0
-641 -1023 0
-641 -1024 0
-641 -1025 0
-641 -1026 0
-641 -1027 0
-641 -1028 0
-922 641 1021 1022 1023 1024 1025 1026 1027 1028 0
-661 925 0
-1029 922 0
-1029 924 0
-922 -924 1029 0
-1030 927 0
-1030 951 0
-927 -951 1030 0
-1031 929 0
-1031 960 0
-929 -960 1031 0
-1032 931 0
-1032 969 0
-931 -969 1032 0
-1033 933 0
-1033 978 0
-933 -978 1033 0
-1034 935 0
-1034 987 0
-935 -987 1034 0
-1035 937 0
-1035 996 0
-937 -996 1035 0
-1036 939 0
-1036 1005 0
-939 -1005 1036 0
-661 -1029 0
-661 -1030 0
-661 -1031 0
-661 -1032 0
-661 -1033 0
-661 -1034 0
-661 -1035 0
-661 -1036 0
-925 661 1029 1030 1031 1032 1033 1034 1035 1036 0
-681 927 0
-1037 922 0
-1037 926 0
-922 -926 1037 0
-1038 925 0
-1038 942 0
-925 -942 1038 0
-1039 929 0
-1039 961 0
-929 -961 1039 0
-1040 931 0
-1040 970 0
-931 -970 1040 0
-1041 933 0
-1041 979 0
-933 -979 1041 0
-1042 935 0
-1042 988 0
-935 -988 1042 0
-1043 937 0
-1043 997 0
-937 -997 1043 0
-1044 939 0
-1044 1006 0
-939 -1006 1044 0
-681 -1037 0
-681 -1038 0
-681 -1039 0
-681 -1040 0
-681 -1041 0
-681 -1042 0
-681 -1043 0
-681 -1044 0
-927 681 1037 1038 1039 1040 1041 1042 1043 1044 0
-701 929 0
-1045 922 0
-1045 928 0
-922 -928 1045 0
-1046 925 0
-1046 943 0
-925 -943 1046 0
-1047 927 0
-1047 952 0
-927 -952 1047 0
-1048 931 0
-1048 971 0
-931 -971 1048 0
-1049 933 0
-1049 980 0
-933 -980 1049 0
-1050 935 0
-1050 989 0
-935 -989 1050 0
-1051 937 0
-1051 998 0
-937 -998 1051 0
-1052 939 0
-1052 1007 0
-939 -1007 1052 0
-701 -1045 0
-701 -1046 0
-701 -1047 0
-701 -1048 0
-701 -1049 0
-701 -1050 0
-701 -1051 0
-701 -1052 0
-929 701 1045 1046 1047 1048 1049 1050 1051 1052 0
-721 931 0
-1053 922 0
-1053 930 0
-922 -930 1053 0
-1054 925 0
-1054 944 0
-925 -944 1054 0
-1055 927 0
-1055 953 0
-927 -953 1055 0
-1056 929 0
-1056 962 0
-929 -962 1056 0
-1057 933 0
-1057 981 0
-933 -981 1057 0
-1058 935 0
-1058 990 0
-935 -990 1058 0
-1059 937 0
-1059 999 0
-937 -999 1059 0
-1060 939 0
-1060 1008 0
-939 -1008 1060 0
-721 -1053 0
-721 -1054 0
-721 -1055 0
-721 -1056 0
-721 -1057 0
-721 -1058 0
-721 -1059 0
-721 -1060 0
-931 721 1053 1054 1055 1056 1057 1058 1059 1060 0
-741 933 0
-1061 922 0
-1061 932 0
-922 -932 1061 0
-1062 925 0
-1062 945 0
-925 -945 1062 0
-1063 927 0
-1063 954 0
-927 -954 1063 0
-1064 929 0
-1064 963 0
-929 -963 1064 0
-1065 931 0
-1065 972 0
-931 -972 1065 0
-1066 935 0
-1066 991 0
-935 -991 1066 0
-1067 937 0
-1067 1000 0
-937 -1000 1067 0
-1068 939 0
-1068 1009 0
-939 -1009 1068 0
-741 -1061 0
-741 -1062 0
-741 -1063 0
-741 -1064 0
-741 -1065 0
-741 -1066 0
-741 -1067 0
-741 -1068 0
-933 741 1061 1062 1063 1064 1065 1066 1067 1068 0
-761 935 0
-1069 922 0
-1069 934 0
-922 -934 1069 0
-1070 925 0
-1070 946 0
-925 -946 1070 0
-1071 927 0
-1071 955 0
-927 -955 1071 0
-1072 929 0
-1072 964 0
-929 -964 1072 0
-1073 931 0
-1073 973 0
-931 -973 1073 0
-1074 933 0
-1074 982 0
-933 -982 1074 0
-1075 937 0
-1075 1001 0
-937 -1001 1075 0
-1076 939 0
-1076 1010 0
-939 -1010 1076 0
-761 -1069 0
-761 -1070 0
-761 -1071 0
-761 -1072 0
-761 -1073 0
-761 -1074 0
-761 -1075 0
-761 -1076 0
-935 761 1069 1070 1071 1072 1073 1074 1075 1076 0
-781 937 0
-1077 922 0
-1077 936 0
-922 -936 1077 0
-1078 925 0
-1078 947 0
-925 -947 1078 0
-1079 927 0
-1079 956 0
-927 -956 1079 0
-1080 929 0
-1080 965 0
-929 -965 1080 0
-1081 931 0
-1081 974 0
-931 -974 1081 0
-1082 933 0
-1082 983 0
-933 -983 1082 0
-1083 935 0
-1083 992 0
-935 -992 1083 0
-1084 939 0
-1084 1011 0
-939 -1011 1084 0
-781 -1077 0
-781 -1078 0
-781 -1079 0
-781 -1080 0
-781 -1081 0
-781 -1082 0
-781 -1083 0
-781 -1084 0
-937 781 1077 1078 1079 1080 1081 1082 1083 1084 0
-801 939 0
-1085 922 0
-1085 938 0
-922 -938 1085 0
-1086 925 0
-1086 948 0
-925 -948 1086 0
-1087 927 0
-1087 957 0
-927 -957 1087 0
-1088 929 0
-1088 966 0
-929 -966 1088 0
-1089 931 0
-1089 975 0
-931 -975 1089 0
-1090 933 0
-1090 984 0
-933 -984 1090 0
-1091 935 0
-1091 993 0
-935 -993 1091 0
-1092 937 0
-1092 1002 0
-937 -1002 1092 0
-801 -1085 0
-801 -1086 0
-801 -1087 0
-801 -1088 0
-801 -1089 0
-801 -1090 0
-801 -1091 0
-801 -1092 0
-939 801 1085 1086 1087 1088 1089 1090 1091 1092 0
-623 923 0
-1093 924 0
-1093 940 0
-924 -940 1093 0
-1094 926 0
-1094 949 0
-926 -949 1094 0
-1095 928 0
-1095 958 0
-928 -958 1095 0
-1096 930 0
-1096 967 0
-930 -967 1096 0
-1097 932 0
-1097 976 0
-932 -976 1097 0
-1098 934 0
-1098 985 0
-934 -985 1098 0
-1099 936 0
-1099 994 0
-936 -994 1099 0
-1100 938 0
-1100 1003 0
-938 -1003 1100 0
-623 -1093 0
-623 -1094 0
-623 -1095 0
-623 -1096 0
-623 -1097 0
-623 -1098 0
-623 -1099 0
-623 -1100 0
-923 623 1093 1094 1095 1096 1097 1098 1099 1100 0
-643 0
-663 924 0
-1101 923 0
-1101 925 0
-923 -925 1101 0
-1102 926 0
-1102 951 0
-926 -951 1102 0
-1103 928 0
-1103 960 0
-928 -960 1103 0
-1104 930 0
-1104 969 0
-930 -969 1104 0
-1105 932 0
-1105 978 0
-932 -978 1105 0
-1106 934 0
-1106 987 0
-934 -987 1106 0
-1107 936 0
-1107 996 0
-936 -996 1107 0
-1108 938 0
-1108 1005 0
-938 -1005 1108 0
-663 -1101 0
-663 -1102 0
-663 -1103 0
-663 -1104 0
-663 -1105 0
-663 -1106 0
-663 -1107 0
-663 -1108 0
-924 663 1101 1102 1103 1104 1105 1106 1107 1108 0
-683 926 0
-1109 923 0
-1109 927 0
-923 -927 1109 0
-1110 924 0
-1110 942 0
-924 -942 1110 0
-1111 928 0
-1111 961 0
-928 -961 1111 0
-1112 930 0
-1112 970 0
-930 -970 1112 0
-1113 932 0
-1113 979 0
-932 -979 1113 0
-1114 934 0
-1114 988 0
-934 -988 1114 0
-1115 936 0
-1115 997 0
-936 -997 1115 0
-1116 938 0
-1116 1006 0
-938 -1006 1116 0
-683 -1109 0
-683 -1110 0
-683 -1111 0
-683 -1112 0
-683 -1113 0
-683 -1114 0
-683 -1115 0
-683 -1116 0
-926 683 1109 1110 1111 1112 1113 1114 1115 1116 0
-703 928 0
-1117 923 0
-1117 929 0
-923 -929 1117 0
-1118 924 0
-1118 943 0
-924 -943 1118 0
-1119 926 0
-1119 952 0
-926 -952 1119 0
-1120 930 0
-1120 971 0
-930 -971 1120 0
-1121 932 0
-1121 980 0
-932 -980 1121 0
-1122 934 0
-1122 989 0
-934 -989 1122 0
-1123 936 0
-1123 998 0
-936 -998 1123 0
-1124 938 0
-1124 1007 0
-938 -1007 1124 0
-703 -1117 0
-703 -1118 0
-703 -1119 0
-703 -1120 0
-703 -1121 0
-703 -1122 0
-703 -1123 0
-703 -1124 0
-928 703 1117 1118 1119 1120 1121 1122 1123 1124 0
-723 930 0
-1125 923 0
-1125 931 0
-923 -931 1125 0
-1126 924 0
-1126 944 0
-924 -944 1126 0
-1127 926 0
-1127 953 0
-926 -953 1127 0
-1128 928 0
-1128 962 0
-928 -962 1128 0
-1129 932 0
-1129 981 0
-932 -981 1129 0
-1130 934 0
-1130 990 0
-934 -990 1130 0
-1131 936 0
-1131 999 0
-936 -999 1131 0
-1132 938 0
-1132 1008 0
-938 -1008 1132 0
-723 -1125 0
-723 -1126 0
-723 -1127 0
-723 -1128 0
-723 -1129 0
-723 -1130 0
-723 -1131 0
-723 -1132 0
-930 723 1125 1126 1127 1128 1129 1130 1131 1132 0
-743 932 0
-1133 923 0
-1133 933 0
-923 -933 1133 0
-1134 924 0
-1134 945 0
-924 -945 1134 0
-1135 926 0
-1135 954 0
-926 -954 1135 0
-1136 928 0
-1136 963 0
-928 -963 1136 0
-1137 930 0
-1137 972 0
-930 -972 1137 0
-1138 934 0
-1138 991 0
-934 -991 1138 0
-1139 936 0
-1139 1000 0
-936 -1000 1139 0
-1140 938 0
-1140 1009 0
-938 -1009 1140 0
-743 -1133 0
-743 -1134 0
-743 -1135 0
-743 -1136 0
-743 -1137 0
-743 -1138 0
-743 -1139 0
-743 -1140 0
-932 743 1133 1134 1135 1136 1137 1138 1139 1140 0
-763 934 0
-1141 923 0
-1141 935 0
-923 -935 1141 0
-1142 924 0
-1142 946 0
-924 -946 1142 0
-1143 926 0
-1143 955 0
-926 -955 1143 0
-1144 928 0
-1144 964 0
-928 -964 1144 0
-1145 930 0
-1145 973 0
-930 -973 1145 0
-1146 932 0
-1146 982 0
-932 -982 1146 0
-1147 936 0
-1147 1001 0
-936 -1001 1147 0
-1148 938 0
-1148 1010 0
-938 -1010 1148 0
-763 -1141 0
-763 -1142 0
-763 -1143 0
-763 -1144 0
-763 -1145 0
-763 -1146 0
-763 -1147 0
-763 -1148 0
-934 763 1141 1142 1143 1144 1145 1146 1147 1148 0
-783 936 0
-1149 923 0
-1149 937 0
-923 -937 1149 0
-1150 924 0
-1150 947 0
-924 -947 1150 0
-1151 926 0
-1151 956 0
-926 -956 1151 0
-1152 928 0
-1152 965 0
-928 -965 1152 0
-1153 930 0
-1153 974 0
-930 -974 1153 0
-1154 932 0
-1154 983 0
-932 -983 1154 0
-1155 934 0
-1155 992 0
-934 -992 1155 0
-1156 938 0
-1156 1011 0
-938 -1011 1156 0
-783 -1149 0
-783 -1150 0
-783 -1151 0
-783 -1152 0
-783 -1153 0
-783 -1154 0
-783 -1155 0
-783 -1156 0
-936 783 1149 1150 1151 1152 1153 1154 1155 1156 0
-803 938 0
-1157 923 0
-1157 939 0
-923 -939 1157 0
-1158 924 0
-1158 948 0
-924 -948 1158 0
-1159 926 0
-1159 957 0
-926 -957 1159 0
-1160 928 0
-1160 966 0
-928 -966 1160 0
-1161 930 0
-1161 975 0
-930 -975 1161 0
-1162 932 0
-1162 984 0
-932 -984 1162 0
-1163 934 0
-1163 993 0
-934 -993 1163 0
-1164 936 0
-1164 1002 0
-936 -1002 1164 0
-803 -1157 0
-803 -1158 0
-803 -1159 0
-803 -1160 0
-803 -1161 0
-803 -1162 0
-803 -1163 0
-803 -1164 0
-938 803 1157 1158 1159 1160 1161 1162 1163 1164 0
-625 940 0
-1165 941 0
-1165 923 0
-941 -923 1165 0
-1166 942 0
-1166 949 0
-942 -949 1166 0
-1167 943 0
-1167 958 0
-943 -958 1167 0
-1168 944 0
-1168 967 0
-944 -967 1168 0
-1169 945 0
-1169 976 0
-945 -976 1169 0
-1170 946 0
-1170 985 0
-946 -985 1170 0
-1171 947 0
-1171 994 0
-947 -994 1171 0
-1172 948 0
-1172 1003 0
-948 -1003 1172 0
-625 -1165 0
-625 -1166 0
-625 -1167 0
-625 -1168 0
-625 -1169 0
-625 -1170 0
-625 -1171 0
-625 -1172 0
-940 625 1165 1166 1167 1168 1169 1170 1171 1172 0
-645 941 0
-1173 940 0
-1173 922 0
-940 -922 1173 0
-1174 942 0
-1174 950 0
-942 -950 1174 0
-1175 943 0
-1175 959 0
-943 -959 1175 0
-1176 944 0
-1176 968 0
-944 -968 1176 0
-1177 945 0
-1177 977 0
-945 -977 1177 0
-1178 946 0
-1178 986 0
-946 -986 1178 0
-1179 947 0
-1179 995 0
-947 -995 1179 0
-1180 948 0
-1180 1004 0
-948 -1004 1180 0
-645 -1173 0
-645 -1174 0
-645 -1175 0
-645 -1176 0
-645 -1177 0
-645 -1178 0
-645 -1179 0
-645 -1180 0
-941 645 1173 1174 1175 1176 1177 1178 1179 1180 0
-665 0
-685 942 0
-1181 940 0
-1181 927 0
-940 -927 1181 0
-1182 941 0
-1182 926 0
-941 -926 1182 0
-1183 943 0
-1183 961 0
-943 -961 1183 0
-1184 944 0
-1184 970 0
-944 -970 1184 0
-1185 945 0
-1185 979 0
-945 -979 1185 0
-1186 946 0
-1186 988 0
-946 -988 1186 0
-1187 947 0
-1187 997 0
-947 -997 1187 0
-1188 948 0
-1188 1006 0
-948 -1006 1188 0
-685 -1181 0
-685 -1182 0
-685 -1183 0
-685 -1184 0
-685 -1185 0
-685 -1186 0
-685 -1187 0
-685 -1188 0
-942 685 1181 1182 1183 1184 1185 1186 1187 1188 0
-705 943 0
-1189 940 0
-1189 929 0
-940 -929 1189 0
-1190 941 0
-1190 928 0
-941 -928 1190 0
-1191 942 0
-1191 952 0
-942 -952 1191 0
-1192 944 0
-1192 971 0
-944 -971 1192 0
-1193 945 0
-1193 980 0
-945 -980 1193 0
-1194 946 0
-1194 989 0
-946 -989 1194 0
-1195 947 0
-1195 998 0
-947 -998 1195 0
-1196 948 0
-1196 1007 0
-948 -1007 1196 0
-705 -1189 0
-705 -1190 0
-705 -1191 0
-705 -1192 0
-705 -1193 0
-705 -1194 0
-705 -1195 0
-705 -1196 0
-943 705 1189 1190 1191 1192 1193 1194 1195 1196 0
-725 944 0
-1197 940 0
-1197 931 0
-940 -931 1197 0
-1198 941 0
-1198 930 0
-941 -930 1198 0
-1199 942 0
-1199 953 0
-942 -953 1199 0
-1200 943 0
-1200 962 0
-943 -962 1200 0
-1201 945 0
-1201 981 0
-945 -981 1201 0
-1202 946 0
-1202 990 0
-946 -990 1202 0
-1203 947 0
-1203 999 0
-947 -999 1203 0
-1204 948 0
-1204 1008 0
-948 -1008 1204 0
-725 -1197 0
-725 -1198 0
-725 -1199 0
-725 -1200 0
-725 -1201 0
-725 -1202 0
-725 -1203 0
-725 -1204 0
-944 725 1197 1198 1199 1200 1201 1202 1203 1204 0
-745 945 0
-1205 940 0
-1205 933 0
-940 -933 1205 0
-1206 941 0
-1206 932 0
-941 -932 1206 0
-1207 942 0
-1207 954 0
-942 -954 1207 0
-1208 943 0
-1208 963 0
-943 -963 1208 0
-1209 944 0
-1209 972 0
-944 -972 1209 0
-1210 946 0
-1210 991 0
-946 -991 1210 0
-1211 947 0
-1211 1000 0
-947 -1000 1211 0
-1212 948 0
-1212 1009 0
-948 -1009 1212 0
-745 -1205 0
-745 -1206 0
-745 -1207 0
-745 -1208 0
-745 -1209 0
-745 -1210 0
-745 -1211 0
-745 -1212 0
-945 745 1205 1206 1207 1208 1209 1210 1211 1212 0
-765 946 0
-1213 940 0
-1213 935 0
-940 -935 1213 0
-1214 941 0
-1214 934 0
-941 -934 1214 0
-1215 942 0
-1215 955 0
-942 -955 1215 0
-1216 943 0
-1216 964 0
-943 -964 1216 0
-1217 944 0
-1217 973 0
-944 -973 1217 0
-1218 945 0
-1218 982 0
-945 -982 1218 0
-1219 947 0
-1219 1001 0
-947 -1001 1219 0
-1220 948 0
-1220 1010 0
-948 -1010 1220 0
-765 -1213 0
-765 -1214 0
-765 -1215 0
-765 -1216 0
-765 -1217 0
-765 -1218 0
-765 -1219 0
-765 -1220 0
-946 765 1213 1214 1215 1216 1217 1218 1219 1220 0
-785 947 0
-1221 940 0
-1221 937 0
-940 -937 1221 0
-1222 941 0
-1222 936 0
-941 -936 1222 0
-1223 942 0
-1223 956 0
-942 -956 1223 0
-1224 943 0
-1224 965 0
-943 -965 1224 0
-1225 944 0
-1225 974 0
-944 -974 1225 0
-1226 945 0
-1226 983 0
-945 -983 1226 0
-1227 946 0
-1227 992 0
-946 -992 1227 0
-1228 948 0
-1228 1011 0
-948 -1011 1228 0
-785 -1221 0
-785 -1222 0
-785 -1223 0
-785 -1224 0
-785 -1225 0
-785 -1226 0
-785 -1227 0
-785 -1228 0
-947 785 1221 1222 1223 1224 1225 1226 1227 1228 0
-805 948 0
-1229 940 0
-1229 939 0
-940 -939 1229 0
-1230 941 0
-1230 938 0
-941 -938 1230 0
-1231 942 0
-1231 957 0
-942 -957 1231 0
-1232 943 0
-1232 966 0
-943 -966 1232 0
-1233 944 0
-1233 975 0
-944 -975 1233 0
-1234 945 0
-1234 984 0
-945 -984 1234 0
-1235 946 0
-1235 993 0
-946 -993 1235 0
-1236 947 0
-1236 1002 0
-947 -1002 1236 0
-805 -1229 0
-805 -1230 0
-805 -1231 0
-805 -1232 0
-805 -1233 0
-805 -1234 0
-805 -1235 0
-805 -1236 0
-948 805 1229 1230 1231 1232 1233 1234 1235 1236 0
-627 949 0
-1237 950 0
-1237 923 0
-950 -923 1237 0
-1238 951 0
-1238 940 0
-951 -940 1238 0
-1239 952 0
-1239 958 0
-952 -958 1239 0
-1240 953 0
-1240 967 0
-953 -967 1240 0
-1241 954 0
-1241 976 0
-954 -976 1241 0
-1242 955 0
-1242 985 0
-955 -985 1242 0
-1243 956 0
-1243 994 0
-956 -994 1243 0
-1244 957 0
-1244 1003 0
-957 -1003 1244 0
-627 -1237 0
-627 -1238 0
-627 -1239 0
-627 -1240 0
-627 -1241 0
-627 -1242 0
-627 -1243 0
-627 -1244 0
-949 627 1237 1238 1239 1240 1241 1242 1243 1244 0
-647 950 0
-1245 949 0
-1245 922 0
-949 -922 1245 0
-1246 951 0
-1246 941 0
-951 -941 1246 0
-1247 952 0
-1247 959 0
-952 -959 1247 0
-1248 953 0
-1248 968 0
-953 -968 1248 0
-1249 954 0
-1249 977 0
-954 -977 1249 0
-1250 955 0
-1250 986 0
-955 -986 1250 0
-1251 956 0
-1251 995 0
-956 -995 1251 0
-1252 957 0
-1252 1004 0
-957 -1004 1252 0
-647 -1245 0
-647 -1246 0
-647 -1247 0
-647 -1248 0
-647 -1249 0
-647 -1250 0
-647 -1251 0
-647 -1252 0
-950 647 1245 1246 1247 1248 1249 1250 1251 1252 0
-667 951 0
-1253 949 0
-1253 925 0
-949 -925 1253 0
-1254 950 0
-1254 924 0
-950 -924 1254 0
-1255 952 0
-1255 960 0
-952 -960 1255 0
-1256 953 0
-1256 969 0
-953 -969 1256 0
-1257 954 0
-1257 978 0
-954 -978 1257 0
-1258 955 0
-1258 987 0
-955 -987 1258 0
-1259 956 0
-1259 996 0
-956 -996 1259 0
-1260 957 0
-1260 1005 0
-957 -1005 1260 0
-667 -1253 0
-667 -1254 0
-667 -1255 0
-667 -1256 0
-667 -1257 0
-667 -1258 0
-667 -1259 0
-667 -1260 0
-951 667 1253 1254 1255 1256 1257 1258 1259 1260 0
-687 0
-707 952 0
-1261 949 0
-1261 929 0
-949 -929 1261 0
-1262 950 0
-1262 928 0
-950 -928 1262 0
-1263 951 0
-1263 943 0
-951 -943 1263 0
-1264 953 0
-1264 971 0
-953 -971 1264 0
-1265 954 0
-1265 980 0
-954 -980 1265 0
-1266 955 0
-1266 989 0
-955 -989 1266 0
-1267 956 0
-1267 998 0
-956 -998 1267 0
-1268 957 0
-1268 1007 0
-957 -1007 1268 0
-707 -1261 0
-707 -1262 0
-707 -1263 0
-707 -1264 0
-707 -1265 0
-707 -1266 0
-707 -1267 0
-707 -1268 0
-952 707 1261 1262 1263 1264 1265 1266 1267 1268 0
-727 953 0
-1269 949 0
-1269 931 0
-949 -931 1269 0
-1270 950 0
-1270 930 0
-950 -930 1270 0
-1271 951 0
-1271 944 0
-951 -944 1271 0
-1272 952 0
-1272 962 0
-952 -962 1272 0
-1273 954 0
-1273 981 0
-954 -981 1273 0
-1274 955 0
-1274 990 0
-955 -990 1274 0
-1275 956 0
-1275 999 0
-956 -999 1275 0
-1276 957 0
-1276 1008 0
-957 -1008 1276 0
-727 -1269 0
-727 -1270 0
-727 -1271 0
-727 -1272 0
-727 -1273 0
-727 -1274 0
-727 -1275 0
-727 -1276 0
-953 727 1269 1270 1271 1272 1273 1274 1275 1276 0
-747 954 0
-1277 949 0
-1277 933 0
-949 -933 1277 0
-1278 950 0
-1278 932 0
-950 -932 1278 0
-1279 951 0
-1279 945 0
-951 -945 1279 0
-1280 952 0
-1280 963 0
-952 -963 1280 0
-1281 953 0
-1281 972 0
-953 -972 1281 0
-1282 955 0
-1282 991 0
-955 -991 1282 0
-1283 956 0
-1283 1000 0
-956 -1000 1283 0
-1284 957 0
-1284 1009 0
-957 -1009 1284 0
-747 -1277 0
-747 -1278 0
-747 -1279 0
-747 -1280 0
-747 -1281 0
-747 -1282 0
-747 -1283 0
-747 -1284 0
-954 747 1277 1278 1279 1280 1281 1282 1283 1284 0
-767 955 0
-1285 949 0
-1285 935 0
-949 -935 1285 0
-1286 950 0
-1286 934 0
-950 -934 1286 0
-1287 951 0
-1287 946 0
-951 -946 1287 0
-1288 952 0
-1288 964 0
-952 -964 1288 0
-1289 953 0
-1289 973 0
-953 -973 1289 0
-1290 954 0
-1290 982 0
-954 -982 1290 0
-1291 956 0
-1291 1001 0
-956 -1001 1291 0
-1292 957 0
-1292 1010 0
-957 -1010 1292 0
-767 -1285 0
-767 -1286 0
-767 -1287 0
-767 -1288 0
-767 -1289 0
-767 -1290 0
-767 -1291 0
-767 -1292 0
-955 767 1285 1286 1287 1288 1289 1290 1291 1292 0
-787 956 0
-1293 949 0
-1293 937 0
-949 -937 1293 0
-1294 950 0
-1294 936 0
-950 -936 1294 0
-1295 951 0
-1295 947 0
-951 -947 1295 0
-1296 952 0
-1296 965 0
-952 -965 1296 0
-1297 953 0
-1297 974 0
-953 -974 1297 0
-1298 954 0
-1298 983 0
-954 -983 1298 0
-1299 955 0
-1299 992 0
-955 -992 1299 0
-1300 957 0
-1300 1011 0
-957 -1011 1300 0
-787 -1293 0
-787 -1294 0
-787 -1295 0
-787 -1296 0
-787 -1297 0
-787 -1298 0
-787 -1299 0
-787 -1300 0
-956 787 1293 1294 1295 1296 1297 1298 1299 1300 0
-807 957 0
-1301 949 0
-1301 939 0
-949 -939 1301 0
-1302 950 0
-1302 938 0
-950 -938 1302 0
-1303 951 0
-1303 948 0
-951 -948 1303 0
-1304 952 0
-1304 966 0
-952 -966 1304 0
-1305 953 0
-1305 975 0
-953 -975 1305 0
-1306 954 0
-1306 984 0
-954 -984 1306 0
-1307 955 0
-1307 993 0
-955 -993 1307 0
-1308 956 0
-1308 1002 0
-956 -1002 1308 0
-807 -1301 0
-807 -1302 0
-807 -1303 0
-807 -1304 0
-807 -1305 0
-807 -1306 0
-807 -1307 0
-807 -1308 0
-957 807 1301 1302 1303 1304 1305 1306 1307 1308 0
-629 958 0
-1309 959 0
-1309 923 0
-959 -923 1309 0
-1310 960 0
-1310 940 0
-960 -940 1310 0
-1311 961 0
-1311 949 0
-961 -949 1311 0
-1312 962 0
-1312 967 0
-962 -967 1312 0
-1313 963 0
-1313 976 0
-963 -976 1313 0
-1314 964 0
-1314 985 0
-964 -985 1314 0
-1315 965 0
-1315 994 0
-965 -994 1315 0
-1316 966 0
-1316 1003 0
-966 -1003 1316 0
-629 -1309 0
-629 -1310 0
-629 -1311 0
-629 -1312 0
-629 -1313 0
-629 -1314 0
-629 -1315 0
-629 -1316 0
-958 629 1309 1310 1311 1312 1313 1314 1315 1316 0
-649 959 0
-1317 958 0
-1317 922 0
-958 -922 1317 0
-1318 960 0
-1318 941 0
-960 -941 1318 0
-1319 961 0
-1319 950 0
-961 -950 1319 0
-1320 962 0
-1320 968 0
-962 -968 1320 0
-1321 963 0
-1321 977 0
-963 -977 1321 0
-1322 964 0
-1322 986 0
-964 -986 1322 0
-1323 965 0
-1323 995 0
-965 -995 1323 0
-1324 966 0
-1324 1004 0
-966 -1004 1324 0
-649 -1317 0
-649 -1318 0
-649 -1319 0
-649 -1320 0
-649 -1321 0
-649 -1322 0
-649 -1323 0
-649 -1324 0
-959 649 1317 1318 1319 1320 1321 1322 1323 1324 0
-669 960 0
-1325 958 0
-1325 925 0
-958 -925 1325 0
-1326 959 0
-1326 924 0
-959 -924 1326 0
-1327 961 0
-1327 951 0
-961 -951 1327 0
-1328 962 0
-1328 969 0
-962 -969 1328 0
-1329 963 0
-1329 978 0
-963 -978 1329 0
-1330 964 0
-1330 987 0
-964 -987 1330 0
-1331 965 0
-1331 996 0
-965 -996 1331 0
-1332 966 0
-1332 1005 0
-966 -1005 1332 0
-669 -1325 0
-669 -1326 0
-669 -1327 0
-669 -1328 0
-669 -1329 0
-669 -1330 0
-669 -1331 0
-669 -1332 0
-960 669 1325 1326 1327 1328 1329 1330 1331 1332 0
-689 961 0
-1333 958 0
-1333 927 0
-958 -927 1333 0
-1334 959 0
-1334 926 0
-959 -926 1334 0
-1335 960 0
-1335 942 0
-960 -942 1335 0
-1336 962 0
-1336 970 0
-962 -970 1336 0
-1337 963 0
-1337 979 0
-963 -979 1337 0
-1338 964 0
-1338 988 0
-964 -988 1338 0
-1339 965 0
-1339 997 0
-965 -997 1339 0
-1340 966 0
-1340 1006 0
-966 -1006 1340 0
-689 -1333 0
-689 -1334 0
-689 -1335 0
-689 -1336 0
-689 -1337 0
-689 -1338 0
-689 -1339 0
-689 -1340 0
-961 689 1333 1334 1335 1336 1337 1338 1339 1340 0
-709 0
-729 962 0
-1341 958 0
-1341 931 0
-958 -931 1341 0
-1342 959 0
-1342 930 0
-959 -930 1342 0
-1343 960 0
-1343 944 0
-960 -944 1343 0
-1344 961 0
-1344 953 0
-961 -953 1344 0
-1345 963 0
-1345 981 0
-963 -981 1345 0
-1346 964 0
-1346 990 0
-964 -990 1346 0
-1347 965 0
-1347 999 0
-965 -999 1347 0
-1348 966 0
-1348 1008 0
-966 -1008 1348 0
-729 -1341 0
-729 -1342 0
-729 -1343 0
-729 -1344 0
-729 -1345 0
-729 -1346 0
-729 -1347 0
-729 -1348 0
-962 729 1341 1342 1343 1344 1345 1346 1347 1348 0
-749 963 0
-1349 958 0
-1349 933 0
-958 -933 1349 0
-1350 959 0
-1350 932 0
-959 -932 1350 0
-1351 960 0
-1351 945 0
-960 -945 1351 0
-1352 961 0
-1352 954 0
-961 -954 1352 0
-1353 962 0
-1353 972 0
-962 -972 1353 0
-1354 964 0
-1354 991 0
-964 -991 1354 0
-1355 965 0
-1355 1000 0
-965 -1000 1355 0
-1356 966 0
-1356 1009 0
-966 -1009 1356 0
-749 -1349 0
-749 -1350 0
-749 -1351 0
-749 -1352 0
-749 -1353 0
-749 -1354 0
-749 -1355 0
-749 -1356 0
-963 749 1349 1350 1351 1352 1353 1354 1355 1356 0
-769 964 0
-1357 958 0
-1357 935 0
-958 -935 1357 0
-1358 959 0
-1358 934 0
-959 -934 1358 0
-1359 960 0
-1359 946 0
-960 -946 1359 0
-1360 961 0
-1360 955 0
-961 -955 1360 0
-1361 962 0
-1361 973 0
-962 -973 1361 0
-1362 963 0
-1362 982 0
-963 -982 1362 0
-1363 965 0
-1363 1001 0
-965 -1001 1363 0
-1364 966 0
-1364 1010 0
-966 -1010 1364 0
-769 -1357 0
-769 -1358 0
-769 -1359 0
-769 -1360 0
-769 -1361 0
-769 -1362 0
-769 -1363 0
-769 -1364 0
-964 769 1357 1358 1359 1360 1361 1362 1363 1364 0
-789 965 0
-1365 958 0
-1365 937 0
-958 -937 1365 0
-1366 959 0
-1366 936 0
-959 -936 1366 0
-1367 960 0
-1367 947 0
-960 -947 1367 0
-1368 961 0
-1368 956 0
-961 -956 1368 0
-1369 962 0
-1369 974 0
-962 -974 1369 0
-1370 963 0
-1370 983 0
-963 -983 1370 0
-1371 964 0
-1371 992 0
-964 -992 1371 0
-1372 966 0
-1372 1011 0
-966 -1011 1372 0
-789 -1365 0
-789 -1366 0
-789 -1367 0
-789 -1368 0
-789 -1369 0
-789 -1370 0
-789 -1371 0
-789 -1372 0
-965 789 1365 1366 1367 1368 1369 1370 1371 1372 0
-809 966 0
-1373 958 0
-1373 939 0
-958 -939 1373 0
-1374 959 0
-1374 938 0
-959 -938 1374 0
-1375 960 0
-1375 948 0
-960 -948 1375 0
-1376 961 0
-1376 957 0
-961 -957 1376 0
-1377 962 0
-1377 975 0
-962 -975 1377 0
-1378 963 0
-1378 984 0
-963 -984 1378 0
-1379 964 0
-1379 993 0
-964 -993 1379 0
-1380 965 0
-1380 1002 0
-965 -1002 1380 0
-809 -1373 0
-809 -1374 0
-809 -1375 0
-809 -1376 0
-809 -1377 0
-809 -1378 0
-809 -1379 0
-809 -1380 0
-966 809 1373 1374 1375 1376 1377 1378 1379 1380 0
-631 967 0
-1381 968 0
-1381 923 0
-968 -923 1381 0
-1382 969 0
-1382 940 0
-969 -940 1382 0
-1383 970 0
-1383 949 0
-970 -949 1383 0
-1384 971 0
-1384 958 0
-971 -958 1384 0
-1385 972 0
-1385 976 0
-972 -976 1385 0
-1386 973 0
-1386 985 0
-973 -985 1386 0
-1387 974 0
-1387 994 0
-974 -994 1387 0
-1388 975 0
-1388 1003 0
-975 -1003 1388 0
-631 -1381 0
-631 -1382 0
-631 -1383 0
-631 -1384 0
-631 -1385 0
-631 -1386 0
-631 -1387 0
-631 -1388 0
-967 631 1381 1382 1383 1384 1385 1386 1387 1388 0
-651 968 0
-1389 967 0
-1389 922 0
-967 -922 1389 0
-1390 969 0
-1390 941 0
-969 -941 1390 0
-1391 970 0
-1391 950 0
-970 -950 1391 0
-1392 971 0
-1392 959 0
-971 -959 1392 0
-1393 972 0
-1393 977 0
-972 -977 1393 0
-1394 973 0
-1394 986 0
-973 -986 1394 0
-1395 974 0
-1395 995 0
-974 -995 1395 0
-1396 975 0
-1396 1004 0
-975 -1004 1396 0
-651 -1389 0
-651 -1390 0
-651 -1391 0
-651 -1392 0
-651 -1393 0
-651 -1394 0
-651 -1395 0
-651 -1396 0
-968 651 1389 1390 1391 1392 1393 1394 1395 1396 0
-671 969 0
-1397 967 0
-1397 925 0
-967 -925 1397 0
-1398 968 0
-1398 924 0
-968 -924 1398 0
-1399 970 0
-1399 951 0
-970 -951 1399 0
-1400 971 0
-1400 960 0
-971 -960 1400 0
-1401 972 0
-1401 978 0
-972 -978 1401 0
-1402 973 0
-1402 987 0
-973 -987 1402 0
-1403 974 0
-1403 996 0
-974 -996 1403 0
-1404 975 0
-1404 1005 0
-975 -1005 1404 0
-671 -1397 0
-671 -1398 0
-671 -1399 0
-671 -1400 0
-671 -1401 0
-671 -1402 0
-671 -1403 0
-671 -1404 0
-969 671 1397 1398 1399 1400 1401 1402 1403 1404 0
-691 970 0
-1405 967 0
-1405 927 0
-967 -927 1405 0
-1406 968 0
-1406 926 0
-968 -926 1406 0
-1407 969 0
-1407 942 0
-969 -942 1407 0
-1408 971 0
-1408 961 0
-971 -961 1408 0
-1409 972 0
-1409 979 0
-972 -979 1409 0
-1410 973 0
-1410 988 0
-973 -988 1410 0
-1411 974 0
-1411 997 0
-974 -997 1411 0
-1412 975 0
-1412 1006 0
-975 -1006 1412 0
-691 -1405 0
-691 -1406 0
-691 -1407 0
-691 -1408 0
-691 -1409 0
-691 -1410 0
-691 -1411 0
-691 -1412 0
-970 691 1405 1406 1407 1408 1409 1410 1411 1412 0
-711 971 0
-1413 967 0
-1413 929 0
-967 -929 1413 0
-1414 968 0
-1414 928 0
-968 -928 1414 0
-1415 969 0
-1415 943 0
-969 -943 1415 0
-1416 970 0
-1416 952 0
-970 -952 1416 0
-1417 972 0
-1417 980 0
-972 -980 1417 0
-1418 973 0
-1418 989 0
-973 -989 1418 0
-1419 974 0
-1419 998 0
-974 -998 1419 0
-1420 975 0
-1420 1007 0
-975 -1007 1420 0
-711 -1413 0
-711 -1414 0
-711 -1415 0
-711 -1416 0
-711 -1417 0
-711 -1418 0
-711 -1419 0
-711 -1420 0
-971 711 1413 1414 1415 1416 1417 1418 1419 1420 0
-731 0
-751 972 0
-1421 967 0
-1421 933 0
-967 -933 1421 0
-1422 968 0
-1422 932 0
-968 -932 1422 0
-1423 969 0
-1423 945 0
-969 -945 1423 0
-1424 970 0
-1424 954 0
-970 -954 1424 0
-1425 971 0
-1425 963 0
-971 -963 1425 0
-1426 973 0
-1426 991 0
-973 -991 1426 0
-1427 974 0
-1427 1000 0
-974 -1000 1427 0
-1428 975 0
-1428 1009 0
-975 -1009 1428 0
-751 -1421 0
-751 -1422 0
-751 -1423 0
-751 -1424 0
-751 -1425 0
-751 -1426 0
-751 -1427 0
-751 -1428 0
-972 751 1421 1422 1423 1424 1425 1426 1427 1428 0
-771 973 0
-1429 967 0
-1429 935 0
-967 -935 1429 0
-1430 968 0
-1430 934 0
-968 -934 1430 0
-1431 969 0
-1431 946 0
-969 -946 1431 0
-1432 970 0
-1432 955 0
-970 -955 1432 0
-1433 971 0
-1433 964 0
-971 -964 1433 0
-1434 972 0
-1434 982 0
-972 -982 1434 0
-1435 974 0
-1435 1001 0
-974 -1001 1435 0
-1436 975 0
-1436 1010 0
-975 -1010 1436 0
-771 -1429 0
-771 -1430 0
-771 -1431 0
-771 -1432 0
-771 -1433 0
-771 -1434 0
-771 -1435 0
-771 -1436 0
-973 771 1429 1430 1431 1432 1433 1434 1435 1436 0
-791 974 0
-1437 967 0
-1437 937 0
-967 -937 1437 0
-1438 968 0
-1438 936 0
-968 -936 1438 0
-1439 969 0
-1439 947 0
-969 -947 1439 0
-1440 970 0
-1440 956 0
-970 -956 1440 0
-1441 971 0
-1441 965 0
-971 -965 1441 0
-1442 972 0
-1442 983 0
-972 -983 1442 0
-1443 973 0
-1443 992 0
-973 -992 1443 0
-1444 975 0
-1444 1011 0
-975 -1011 1444 0
-791 -1437 0
-791 -1438 0
-791 -1439 0
-791 -1440 0
-791 -1441 0
-791 -1442 0
-791 -1443 0
-791 -1444 0
-974 791 1437 1438 1439 1440 1441 1442 1443 1444 0
-811 975 0
-1445 967 0
-1445 939 0
-967 -939 1445 0
-1446 968 0
-1446 938 0
-968 -938 1446 0
-1447 969 0
-1447 948 0
-969 -948 1447 0
-1448 970 0
-1448 957 0
-970 -957 1448 0
-1449 971 0
-1449 966 0
-971 -966 1449 0
-1450 972 0
-1450 984 0
-972 -984 1450 0
-1451 973 0
-1451 993 0
-973 -993 1451 0
-1452 974 0
-1452 1002 0
-974 -1002 1452 0
-811 -1445 0
-811 -1446 0
-811 -1447 0
-811 -1448 0
-811 -1449 0
-811 -1450 0
-811 -1451 0
-811 -1452 0
-975 811 1445 1446 1447 1448 1449 1450 1451 1452 0
-633 976 0
-1453 977 0
-1453 923 0
-977 -923 1453 0
-1454 978 0
-1454 940 0
-978 -940 1454 0
-1455 979 0
-1455 949 0
-979 -949 1455 0
-1456 980 0
-1456 958 0
-980 -958 1456 0
-1457 981 0
-1457 967 0
-981 -967 1457 0
-1458 982 0
-1458 985 0
-982 -985 1458 0
-1459 983 0
-1459 994 0
-983 -994 1459 0
-1460 984 0
-1460 1003 0
-984 -1003 1460 0
-633 -1453 0
-633 -1454 0
-633 -1455 0
-633 -1456 0
-633 -1457 0
-633 -1458 0
-633 -1459 0
-633 -1460 0
-976 633 1453 1454 1455 1456 1457 1458 1459 1460 0
-653 977 0
-1461 976 0
-1461 922 0
-976 -922 1461 0
-1462 978 0
-1462 941 0
-978 -941 1462 0
-1463 979 0
-1463 950 0
-979 -950 1463 0
-1464 980 0
-1464 959 0
-980 -959 1464 0
-1465 981 0
-1465 968 0
-981 -968 1465 0
-1466 982 0
-1466 986 0
-982 -986 1466 0
-1467 983 0
-1467 995 0
-983 -995 1467 0
-1468 984 0
-1468 1004 0
-984 -1004 1468 0
-653 -1461 0
-653 -1462 0
-653 -1463 0
-653 -1464 0
-653 -1465 0
-653 -1466 0
-653 -1467 0
-653 -1468 0
-977 653 1461 1462 1463 1464 1465 1466 1467 1468 0
-673 978 0
-1469 976 0
-1469 925 0
-976 -925 1469 0
-1470 977 0
-1470 924 0
-977 -924 1470 0
-1471 979 0
-1471 951 0
-979 -951 1471 0
-1472 980 0
-1472 960 0
-980 -960 1472 0
-1473 981 0
-1473 969 0
-981 -969 1473 0
-1474 982 0
-1474 987 0
-982 -987 1474 0
-1475 983 0
-1475 996 0
-983 -996 1475 0
-1476 984 0
-1476 1005 0
-984 -1005 1476 0
-673 -1469 0
-673 -1470 0
-673 -1471 0
-673 -1472 0
-673 -1473 0
-673 -1474 0
-673 -1475 0
-673 -1476 0
-978 673 1469 1470 1471 1472 1473 1474 1475 1476 0
-693 979 0
-1477 976 0
-1477 927 0
-976 -927 1477 0
-1478 977 0
-1478 926 0
-977 -926 1478 0
-1479 978 0
-1479 942 0
-978 -942 1479 0
-1480 980 0
-1480 961 0
-980 -961 1480 0
-1481 981 0
-1481 970 0
-981 -970 1481 0
-1482 982 0
-1482 988 0
-982 -988 1482 0
-1483 983 0
-1483 997 0
-983 -997 1483 0
-1484 984 0
-1484 1006 0
-984 -1006 1484 0
-693 -1477 0
-693 -1478 0
-693 -1479 0
-693 -1480 0
-693 -1481 0
-693 -1482 0
-693 -1483 0
-693 -1484 0
-979 693 1477 1478 1479 1480 1481 1482 1483 1484 0
-713 980 0
-1485 976 0
-1485 929 0
-976 -929 1485 0
-1486 977 0
-1486 928 0
-977 -928 1486 0
-1487 978 0
-1487 943 0
-978 -943 1487 0
-1488 979 0
-1488 952 0
-979 -952 1488 0
-1489 981 0
-1489 971 0
-981 -971 1489 0
-1490 982 0
-1490 989 0
-982 -989 1490 0
-1491 983 0
-1491 998 0
-983 -998 1491 0
-1492 984 0
-1492 1007 0
-984 -1007 1492 0
-713 -1485 0
-713 -1486 0
-713 -1487 0
-713 -1488 0
-713 -1489 0
-713 -1490 0
-713 -1491 0
-713 -1492 0
-980 713 1485 1486 1487 1488 1489 1490 1491 1492 0
-733 981 0
-1493 976 0
-1493 931 0
-976 -931 1493 0
-1494 977 0
-1494 930 0
-977 -930 1494 0
-1495 978 0
-1495 944 0
-978 -944 1495 0
-1496 979 0
-1496 953 0
-979 -953 1496 0
-1497 980 0
-1497 962 0
-980 -962 1497 0
-1498 982 0
-1498 990 0
-982 -990 1498 0
-1499 983 0
-1499 999 0
-983 -999 1499 0
-1500 984 0
-1500 1008 0
-984 -1008 1500 0
-733 -1493 0
-733 -1494 0
-733 -1495 0
-733 -1496 0
-733 -1497 0
-733 -1498 0
-733 -1499 0
-733 -1500 0
-981 733 1493 1494 1495 1496 1497 1498 1499 1500 0
-753 0
-773 982 0
-1501 976 0
-1501 935 0
-976 -935 1501 0
-1502 977 0
-1502 934 0
-977 -934 1502 0
-1503 978 0
-1503 946 0
-978 -946 1503 0
-1504 979 0
-1504 955 0
-979 -955 1504 0
-1505 980 0
-1505 964 0
-980 -964 1505 0
-1506 981 0
-1506 973 0
-981 -973 1506 0
-1507 983 0
-1507 1001 0
-983 -1001 1507 0
-1508 984 0
-1508 1010 0
-984 -1010 1508 0
-773 -1501 0
-773 -1502 0
-773 -1503 0
-773 -1504 0
-773 -1505 0
-773 -1506 0
-773 -1507 0
-773 -1508 0
-982 773 1501 1502 1503 1504 1505 1506 1507 1508 0
-793 983 0
-1509 976 0
-1509 937 0
-976 -937 1509 0
-1510 977 0
-1510 936 0
-977 -936 1510 0
-1511 978 0
-1511 947 0
-978 -947 1511 0
-1512 979 0
-1512 956 0
-979 -956 1512 0
-1513 980 0
-1513 965 0
-980 -965 1513 0
-1514 981 0
-1514 974 0
-981 -974 1514 0
-1515 982 0
-1515 992 0
-982 -992 1515 0
-1516 984 0
-1516 1011 0
-984 -1011 1516 0
-793 -1509 0
-793 -1510 0
-793 -1511 0
-793 -1512 0
-793 -1513 0
-793 -1514 0
-793 -1515 0
-793 -1516 0
-983 793 1509 1510 1511 1512 1513 1514 1515 1516 0
-813 984 0
-1517 976 0
-1517 939 0
-976 -939 1517 0
-1518 977 0
-1518 938 0
-977 -938 1518 0
-1519 978 0
-1519 948 0
-978 -948 1519 0
-1520 979 0
-1520 957 0
-979 -957 1520 0
-1521 980 0
-1521 966 0
-980 -966 1521 0
-1522 981 0
-1522 975 0
-981 -975 1522 0
-1523 982 0
-1523 993 0
-982 -993 1523 0
-1524 983 0
-1524 1002 0
-983 -1002 1524 0
-813 -1517 0
-813 -1518 0
-813 -1519 0
-813 -1520 0
-813 -1521 0
-813 -1522 0
-813 -1523 0
-813 -1524 0
-984 813 1517 1518 1519 1520 1521 1522 1523 1524 0
-635 985 0
-1525 986 0
-1525 923 0
-986 -923 1525 0
-1526 987 0
-1526 940 0
-987 -940 1526 0
-1527 988 0
-1527 949 0
-988 -949 1527 0
-1528 989 0
-1528 958 0
-989 -958 1528 0
-1529 990 0
-1529 967 0
-990 -967 1529 0
-1530 991 0
-1530 976 0
-991 -976 1530 0
-1531 992 0
-1531 994 0
-992 -994 1531 0
-1532 993 0
-1532 1003 0
-993 -1003 1532 0
-635 -1525 0
-635 -1526 0
-635 -1527 0
-635 -1528 0
-635 -1529 0
-635 -1530 0
-635 -1531 0
-635 -1532 0
-985 635 1525 1526 1527 1528 1529 1530 1531 1532 0
-655 986 0
-1533 985 0
-1533 922 0
-985 -922 1533 0
-1534 987 0
-1534 941 0
-987 -941 1534 0
-1535 988 0
-1535 950 0
-988 -950 1535 0
-1536 989 0
-1536 959 0
-989 -959 1536 0
-1537 990 0
-1537 968 0
-990 -968 1537 0
-1538 991 0
-1538 977 0
-991 -977 1538 0
-1539 992 0
-1539 995 0
-992 -995 1539 0
-1540 993 0
-1540 1004 0
-993 -1004 1540 0
-655 -1533 0
-655 -1534 0
-655 -1535 0
-655 -1536 0
-655 -1537 0
-655 -1538 0
-655 -1539 0
-655 -1540 0
-986 655 1533 1534 1535 1536 1537 1538 1539 1540 0
-675 987 0
-1541 985 0
-1541 925 0
-985 -925 1541 0
-1542 986 0
-1542 924 0
-986 -924 1542 0
-1543 988 0
-1543 951 0
-988 -951 1543 0
-1544 989 0
-1544 960 0
-989 -960 1544 0
-1545 990 0
-1545 969 0
-990 -969 1545 0
-1546 991 0
-1546 978 0
-991 -978 1546 0
-1547 992 0
-1547 996 0
-992 -996 1547 0
-1548 993 0
-1548 1005 0
-993 -1005 1548 0
-675 -1541 0
-675 -1542 0
-675 -1543 0
-675 -1544 0
-675 -1545 0
-675 -1546 0
-675 -1547 0
-675 -1548 0
-987 675 1541 1542 1543 1544 1545 1546 1547 1548 0
-695 988 0
-1549 985 0
-1549 927 0
-985 -927 1549 0
-1550 986 0
-1550 926 0
-986 -926 1550 0
-1551 987 0
-1551 942 0
-987 -942 1551 0
-1552 989 0
-1552 961 0
-989 -961 1552 0
-1553 990 0
-1553 970 0
-990 -970 1553 0
-1554 991 0
-1554 979 0
-991 -979 1554 0
-1555 992 0
-1555 997 0
-992 -997 1555 0
-1556 993 0
-1556 1006 0
-993 -1006 1556 0
-695 -1549 0
-695 -1550 0
-695 -1551 0
-695 -1552 0
-695 -1553 0
-695 -1554 0
-695 -1555 0
-695 -1556 0
-988 695 1549 1550 1551 1552 1553 1554 1555 1556 0
-715 989 0
-1557 985 0
-1557 929 0
-985 -929 1557 0
-1558 986 0
-1558 928 0
-986 -928 1558 0
-1559 987 0
-1559 943 0
-987 -943 1559 0
-1560 988 0
-1560 952 0
-988 -952 1560 0
-1561 990 0
-1561 971 0
-990 -971 1561 0
-1562 991 0
-1562 980 0
-991 -980 1562 0
-1563 992 0
-1563 998 0
-992 -998 1563 0
-1564 993 0
-1564 1007 0
-993 -1007 1564 0
-715 -1557 0
-715 -1558 0
-715 -1559 0
-715 -1560 0
-715 -1561 0
-715 -1562 0
-715 -1563 0
-715 -1564 0
-989 715 1557 1558 1559 1560 1561 1562 1563 1564 0
-735 990 0
-1565 985 0
-1565 931 0
-985 -931 1565 0
-1566 986 0
-1566 930 0
-986 -930 1566 0
-1567 987 0
-1567 944 0
-987 -944 1567 0
-1568 988 0
-1568 953 0
-988 -953 1568 0
-1569 989 0
-1569 962 0
-989 -962 1569 0
-1570 991 0
-1570 981 0
-991 -981 1570 0
-1571 992 0
-1571 999 0
-992 -999 1571 0
-1572 993 0
-1572 1008 0
-993 -1008 1572 0
-735 -1565 0
-735 -1566 0
-735 -1567 0
-735 -1568 0
-735 -1569 0
-735 -1570 0
-735 -1571 0
-735 -1572 0
-990 735 1565 1566 1567 1568 1569 1570 1571 1572 0
-755 991 0
-1573 985 0
-1573 933 0
-985 -933 1573 0
-1574 986 0
-1574 932 0
-986 -932 1574 0
-1575 987 0
-1575 945 0
-987 -945 1575 0
-1576 988 0
-1576 954 0
-988 -954 1576 0
-1577 989 0
-1577 963 0
-989 -963 1577 0
-1578 990 0
-1578 972 0
-990 -972 1578 0
-1579 992 0
-1579 1000 0
-992 -1000 1579 0
-1580 993 0
-1580 1009 0
-993 -1009 1580 0
-755 -1573 0
-755 -1574 0
-755 -1575 0
-755 -1576 0
-755 -1577 0
-755 -1578 0
-755 -1579 0
-755 -1580 0
-991 755 1573 1574 1575 1576 1577 1578 1579 1580 0
-775 0
-795 992 0
-1581 985 0
-1581 937 0
-985 -937 1581 0
-1582 986 0
-1582 936 0
-986 -936 1582 0
-1583 987 0
-1583 947 0
-987 -947 1583 0
-1584 988 0
-1584 956 0
-988 -956 1584 0
-1585 989 0
-1585 965 0
-989 -965 1585 0
-1586 990 0
-1586 974 0
-990 -974 1586 0
-1587 991 0
-1587 983 0
-991 -983 1587 0
-1588 993 0
-1588 1011 0
-993 -1011 1588 0
-795 -1581 0
-795 -1582 0
-795 -1583 0
-795 -1584 0
-795 -1585 0
-795 -1586 0
-795 -1587 0
-795 -1588 0
-992 795 1581 1582 1583 1584 1585 1586 1587 1588 0
-815 993 0
-1589 985 0
-1589 939 0
-985 -939 1589 0
-1590 986 0
-1590 938 0
-986 -938 1590 0
-1591 987 0
-1591 948 0
-987 -948 1591 0
-1592 988 0
-1592 957 0
-988 -957 1592 0
-1593 989 0
-1593 966 0
-989 -966 1593 0
-1594 990 0
-1594 975 0
-990 -975 1594 0
-1595 991 0
-1595 984 0
-991 -984 1595 0
-1596 992 0
-1596 1002 0
-992 -1002 1596 0
-815 -1589 0
-815 -1590 0
-815 -1591 0
-815 -1592 0
-815 -1593 0
-815 -1594 0
-815 -1595 0
-815 -1596 0
-993 815 1589 1590 1591 1592 1593 1594 1595 1596 0
-637 994 0
-1597 995 0
-1597 923 0
-995 -923 1597 0
-1598 996 0
-1598 940 0
-996 -940 1598 0
-1599 997 0
-1599 949 0
-997 -949 1599 0
-1600 998 0
-1600 958 0
-998 -958 1600 0
-1601 999 0
-1601 967 0
-999 -967 1601 0
-1602 1000 0
-1602 976 0
-1000 -976 1602 0
-1603 1001 0
-1603 985 0
-1001 -985 1603 0
-1604 1002 0
-1604 1003 0
-1002 -1003 1604 0
-637 -1597 0
-637 -1598 0
-637 -1599 0
-637 -1600 0
-637 -1601 0
-637 -1602 0
-637 -1603 0
-637 -1604 0
-994 637 1597 1598 1599 1600 1601 1602 1603 1604 0
-657 995 0
-1605 994 0
-1605 922 0
-994 -922 1605 0
-1606 996 0
-1606 941 0
-996 -941 1606 0
-1607 997 0
-1607 950 0
-997 -950 1607 0
-1608 998 0
-1608 959 0
-998 -959 1608 0
-1609 999 0
-1609 968 0
-999 -968 1609 0
-1610 1000 0
-1610 977 0
-1000 -977 1610 0
-1611 1001 0
-1611 986 0
-1001 -986 1611 0
-1612 1002 0
-1612 1004 0
-1002 -1004 1612 0
-657 -1605 0
-657 -1606 0
-657 -1607 0
-657 -1608 0
-657 -1609 0
-657 -1610 0
-657 -1611 0
-657 -1612 0
-995 657 1605 1606 1607 1608 1609 1610 1611 1612 0
-677 996 0
-1613 994 0
-1613 925 0
-994 -925 1613 0
-1614 995 0
-1614 924 0
-995 -924 1614 0
-1615 997 0
-1615 951 0
-997 -951 1615 0
-1616 998 0
-1616 960 0
-998 -960 1616 0
-1617 999 0
-1617 969 0
-999 -969 1617 0
-1618 1000 0
-1618 978 0
-1000 -978 1618 0
-1619 1001 0
-1619 987 0
-1001 -987 1619 0
-1620 1002 0
-1620 1005 0
-1002 -1005 1620 0
-677 -1613 0
-677 -1614 0
-677 -1615 0
-677 -1616 0
-677 -1617 0
-677 -1618 0
-677 -1619 0
-677 -1620 0
-996 677 1613 1614 1615 1616 1617 1618 1619 1620 0
-697 997 0
-1621 994 0
-1621 927 0
-994 -927 1621 0
-1622 995 0
-1622 926 0
-995 -926 1622 0
-1623 996 0
-1623 942 0
-996 -942 1623 0
-1624 998 0
-1624 961 0
-998 -961 1624 0
-1625 999 0
-1625 970 0
-999 -970 1625 0
-1626 1000 0
-1626 979 0
-1000 -979 1626 0
-1627 1001 0
-1627 988 0
-1001 -988 1627 0
-1628 1002 0
-1628 1006 0
-1002 -1006 1628 0
-697 -1621 0
-697 -1622 0
-697 -1623 0
-697 -1624 0
-697 -1625 0
-697 -1626 0
-697 -1627 0
-697 -1628 0
-997 697 1621 1622 1623 1624 1625 1626 1627 1628 0
-717 998 0
-1629 994 0
-1629 929 0
-994 -929 1629 0
-1630 995 0
-1630 928 0
-995 -928 1630 0
-1631 996 0
-1631 943 0
-996 -943 1631 0
-1632 997 0
-1632 952 0
-997 -952 1632 0
-1633 999 0
-1633 971 0
-999 -971 1633 0
-1634 1000 0
-1634 980 0
-1000 -980 1634 0
-1635 1001 0
-1635 989 0
-1001 -989 1635 0
-1636 1002 0
-1636 1007 0
-1002 -1007 1636 0
-717 -1629 0
-717 -1630 0
-717 -1631 0
-717 -1632 0
-717 -1633 0
-717 -1634 0
-717 -1635 0
-717 -1636 0
-998 717 1629 1630 1631 1632 1633 1634 1635 1636 0
-737 999 0
-1637 994 0
-1637 931 0
-994 -931 1637 0
-1638 995 0
-1638 930 0
-995 -930 1638 0
-1639 996 0
-1639 944 0
-996 -944 1639 0
-1640 997 0
-1640 953 0
-997 -953 1640 0
-1641 998 0
-1641 962 0
-998 -962 1641 0
-1642 1000 0
-1642 981 0
-1000 -981 1642 0
-1643 1001 0
-1643 990 0
-1001 -990 1643 0
-1644 1002 0
-1644 1008 0
-1002 -1008 1644 0
-737 -1637 0
-737 -1638 0
-737 -1639 0
-737 -1640 0
-737 -1641 0
-737 -1642 0
-737 -1643 0
-737 -1644 0
-999 737 1637 1638 1639 1640 1641 1642 1643 1644 0
-757 1000 0
-1645 994 0
-1645 933 0
-994 -933 1645 0
-1646 995 0
-1646 932 0
-995 -932 1646 0
-1647 996 0
-1647 945 0
-996 -945 1647 0
-1648 997 0
-1648 954 0
-997 -954 1648 0
-1649 998 0
-1649 963 0
-998 -963 1649 0
-1650 999 0
-1650 972 0
-999 -972 1650 0
-1651 1001 0
-1651 991 0
-1001 -991 1651 0
-1652 1002 0
-1652 1009 0
-1002 -1009 1652 0
-757 -1645 0
-757 -1646 0
-757 -1647 0
-757 -1648 0
-757 -1649 0
-757 -1650 0
-757 -1651 0
-757 -1652 0
-1000 757 1645 1646 1647 1648 1649 1650 1651 1652 0
-777 1001 0
-1653 994 0
-1653 935 0
-994 -935 1653 0
-1654 995 0
-1654 934 0
-995 -934 1654 0
-1655 996 0
-1655 946 0
-996 -946 1655 0
-1656 997 0
-1656 955 0
-997 -955 1656 0
-1657 998 0
-1657 964 0
-998 -964 1657 0
-1658 999 0
-1658 973 0
-999 -973 1658 0
-1659 1000 0
-1659 982 0
-1000 -982 1659 0
-1660 1002 0
-1660 1010 0
-1002 -1010 1660 0
-777 -1653 0
-777 -1654 0
-777 -1655 0
-777 -1656 0
-777 -1657 0
-777 -1658 0
-777 -1659 0
-777 -1660 0
-1001 777 1653 1654 1655 1656 1657 1658 1659 1660 0
-797 0
-817 1002 0
-1661 994 0
-1661 939 0
-994 -939 1661 0
-1662 995 0
-1662 938 0
-995 -938 1662 0
-1663 996 0
-1663 948 0
-996 -948 1663 0
-1664 997 0
-1664 957 0
-997 -957 1664 0
-1665 998 0
-1665 966 0
-998 -966 1665 0
-1666 999 0
-1666 975 0
-999 -975 1666 0
-1667 1000 0
-1667 984 0
-1000 -984 1667 0
-1668 1001 0
-1668 993 0
-1001 -993 1668 0
-817 -1661 0
-817 -1662 0
-817 -1663 0
-817 -1664 0
-817 -1665 0
-817 -1666 0
-817 -1667 0
-817 -1668 0
-1002 817 1661 1662 1663 1664 1665 1666 1667 1668 0
-639 1003 0
-1669 1004 0
-1669 923 0
-1004 -923 1669 0
-1670 1005 0
-1670 940 0
-1005 -940 1670 0
-1671 1006 0
-1671 949 0
-1006 -949 1671 0
-1672 1007 0
-1672 958 0
-1007 -958 1672 0
-1673 1008 0
-1673 967 0
-1008 -967 1673 0
-1674 1009 0
-1674 976 0
-1009 -976 1674 0
-1675 1010 0
-1675 985 0
-1010 -985 1675 0
-1676 1011 0
-1676 994 0
-1011 -994 1676 0
-639 -1669 0
-639 -1670 0
-639 -1671 0
-639 -1672 0
-639 -1673 0
-639 -1674 0
-639 -1675 0
-639 -1676 0
-1003 639 1669 1670 1671 1672 1673 1674 1675 1676 0
-659 1004 0
-1677 1003 0
-1677 922 0
-1003 -922 1677 0
-1678 1005 0
-1678 941 0
-1005 -941 1678 0
-1679 1006 0
-1679 950 0
-1006 -950 1679 0
-1680 1007 0
-1680 959 0
-1007 -959 1680 0
-1681 1008 0
-1681 968 0
-1008 -968 1681 0
-1682 1009 0
-1682 977 0
-1009 -977 1682 0
-1683 1010 0
-1683 986 0
-1010 -986 1683 0
-1684 1011 0
-1684 995 0
-1011 -995 1684 0
-659 -1677 0
-659 -1678 0
-659 -1679 0
-659 -1680 0
-659 -1681 0
-659 -1682 0
-659 -1683 0
-659 -1684 0
-1004 659 1677 1678 1679 1680 1681 1682 1683 1684 0
-679 1005 0
-1685 1003 0
-1685 925 0
-1003 -925 1685 0
-1686 1004 0
-1686 924 0
-1004 -924 1686 0
-1687 1006 0
-1687 951 0
-1006 -951 1687 0
-1688 1007 0
-1688 960 0
-1007 -960 1688 0
-1689 1008 0
-1689 969 0
-1008 -969 1689 0
-1690 1009 0
-1690 978 0
-1009 -978 1690 0
-1691 1010 0
-1691 987 0
-1010 -987 1691 0
-1692 1011 0
-1692 996 0
-1011 -996 1692 0
-679 -1685 0
-679 -1686 0
-679 -1687 0
-679 -1688 0
-679 -1689 0
-679 -1690 0
-679 -1691 0
-679 -1692 0
-1005 679 1685 1686 1687 1688 1689 1690 1691 1692 0
-699 1006 0
-1693 1003 0
-1693 927 0
-1003 -927 1693 0
-1694 1004 0
-1694 926 0
-1004 -926 1694 0
-1695 1005 0
-1695 942 0
-1005 -942 1695 0
-1696 1007 0
-1696 961 0
-1007 -961 1696 0
-1697 1008 0
-1697 970 0
-1008 -970 1697 0
-1698 1009 0
-1698 979 0
-1009 -979 1698 0
-1699 1010 0
-1699 988 0
-1010 -988 1699 0
-1700 1011 0
-1700 997 0
-1011 -997 1700 0
-699 -1693 0
-699 -1694 0
-699 -1695 0
-699 -1696 0
-699 -1697 0
-699 -1698 0
-699 -1699 0
-699 -1700 0
-1006 699 1693 1694 1695 1696 1697 1698 1699 1700 0
-719 1007 0
-1701 1003 0
-1701 929 0
-1003 -929 1701 0
-1702 1004 0
-1702 928 0
-1004 -928 1702 0
-1703 1005 0
-1703 943 0
-1005 -943 1703 0
-1704 1006 0
-1704 952 0
-1006 -952 1704 0
-1705 1008 0
-1705 971 0
-1008 -971 1705 0
-1706 1009 0
-1706 980 0
-1009 -980 1706 0
-1707 1010 0
-1707 989 0
-1010 -989 1707 0
-1708 1011 0
-1708 998 0
-1011 -998 1708 0
-719 -1701 0
-719 -1702 0
-719 -1703 0
-719 -1704 0
-719 -1705 0
-719 -1706 0
-719 -1707 0
-719 -1708 0
-1007 719 1701 1702 1703 1704 1705 1706 1707 1708 0
-739 1008 0
-1709 1003 0
-1709 931 0
-1003 -931 1709 0
-1710 1004 0
-1710 930 0
-1004 -930 1710 0
-1711 1005 0
-1711 944 0
-1005 -944 1711 0
-1712 1006 0
-1712 953 0
-1006 -953 1712 0
-1713 1007 0
-1713 962 0
-1007 -962 1713 0
-1714 1009 0
-1714 981 0
-1009 -981 1714 0
-1715 1010 0
-1715 990 0
-1010 -990 1715 0
-1716 1011 0
-1716 999 0
-1011 -999 1716 0
-739 -1709 0
-739 -1710 0
-739 -1711 0
-739 -1712 0
-739 -1713 0
-739 -1714 0
-739 -1715 0
-739 -1716 0
-1008 739 1709 1710 1711 1712 1713 1714 1715 1716 0
-759 1009 0
-1717 1003 0
-1717 933 0
-1003 -933 1717 0
-1718 1004 0
-1718 932 0
-1004 -932 1718 0
-1719 1005 0
-1719 945 0
-1005 -945 1719 0
-1720 1006 0
-1720 954 0
-1006 -954 1720 0
-1721 1007 0
-1721 963 0
-1007 -963 1721 0
-1722 1008 0
-1722 972 0
-1008 -972 1722 0
-1723 1010 0
-1723 991 0
-1010 -991 1723 0
-1724 1011 0
-1724 1000 0
-1011 -1000 1724 0
-759 -1717 0
-759 -1718 0
-759 -1719 0
-759 -1720 0
-759 -1721 0
-759 -1722 0
-759 -1723 0
-759 -1724 0
-1009 759 1717 1718 1719 1720 1721 1722 1723 1724 0
-779 1010 0
-1725 1003 0
-1725 935 0
-1003 -935 1725 0
-1726 1004 0
-1726 934 0
-1004 -934 1726 0
-1727 1005 0
-1727 946 0
-1005 -946 1727 0
-1728 1006 0
-1728 955 0
-1006 -955 1728 0
-1729 1007 0
-1729 964 0
-1007 -964 1729 0
-1730 1008 0
-1730 973 0
-1008 -973 1730 0
-1731 1009 0
-1731 982 0
-1009 -982 1731 0
-1732 1011 0
-1732 1001 0
-1011 -1001 1732 0
-779 -1725 0
-779 -1726 0
-779 -1727 0
-779 -1728 0
-779 -1729 0
-779 -1730 0
-779 -1731 0
-779 -1732 0
-1010 779 1725 1726 1727 1728 1729 1730 1731 1732 0
-799 1011 0
-1733 1003 0
-1733 937 0
-1003 -937 1733 0
-1734 1004 0
-1734 936 0
-1004 -936 1734 0
-1735 1005 0
-1735 947 0
-1005 -947 1735 0
-1736 1006 0
-1736 956 0
-1006 -956 1736 0
-1737 1007 0
-1737 965 0
-1007 -965 1737 0
-1738 1008 0
-1738 974 0
-1008 -974 1738 0
-1739 1009 0
-1739 983 0
-1009 -983 1739 0
-1740 1010 0
-1740 992 0
-1010 -992 1740 0
-799 -1733 0
-799 -1734 0
-799 -1735 0
-799 -1736 0
-799 -1737 0
-799 -1738 0
-799 -1739 0
-799 -1740 0
-1011 799 1733 1734 1735 1736 1737 1738 1739 1740 0
-819 0
