p cnf 44 94
-1 -2 3 0
-4 -2 5 0
-1 -6 7 0
-4 -6 8 0
-3 1 0
-5 4 0
-7 1 0
-8 4 0
-3 2 0
-5 2 0
-7 6 0
-8 6 0
-9 3 -10 0
-11 5 -12 0
-13 7 -14 0
-15 8 -16 0
10 9 0
12 11 0
14 13 0
16 15 0
10 -3 0
12 -5 0
14 -7 0
16 -8 0
1 -17 -18 -19 0
1 -20 -21 -22 0
4 -23 -24 -25 0
4 -26 -27 -28 0
19 -1 0
22 -1 0
25 -4 0
28 -4 0
19 17 0
22 20 0
25 23 0
28 26 0
19 18 0
22 21 0
25 24 0
28 27 0
2 -29 -1 -30 0
2 -31 -4 -32 0
6 -33 -1 -34 0
6 -35 -4 -36 0
30 -2 0
32 -2 0
34 -6 0
36 -6 0
30 29 0
32 31 0
34 33 0
36 35 0
30 1 0
32 4 0
34 1 0
36 4 0
-10 -19 -30 37 0
-12 -22 -32 38 0
-14 -25 -34 39 0
-16 -28 -36 40 0
-37 10 0
-38 12 0
-39 14 0
-40 16 0
-37 19 0
-38 22 0
-39 25 0
-40 28 0
-37 30 0
-38 32 0
-39 34 0
-40 36 0
37 0
38 0
39 0
40 0
17 0
23 20 0
-23 -20 0
26 0
20 23 0
-20 -23 0
41 0
42 43 0
-42 -43 0
44 0
43 42 0
-43 -42 0
-29 0
-33 42 0
-42 33 0
-31 43 0
-43 31 0
-35 0
