p cnf 102 252
-1 -2 3 0
-4 -2 5 0
-6 -2 7 0
-1 -8 9 0
-4 -8 10 0
-6 -8 11 0
-1 -12 13 0
-4 -12 14 0
-6 -12 15 0
-3 1 0
-5 4 0
-7 6 0
-9 1 0
-10 4 0
-11 6 0
-13 1 0
-14 4 0
-15 6 0
-3 2 0
-5 2 0
-7 2 0
-9 8 0
-10 8 0
-11 8 0
-13 12 0
-14 12 0
-15 12 0
-16 3 -17 0
-18 5 -19 0
-20 7 -21 0
-22 9 -23 0
-24 10 -25 0
-26 11 -27 0
-28 13 -29 0
-30 14 -31 0
-32 15 -33 0
17 16 0
19 18 0
21 20 0
23 22 0
25 24 0
27 26 0
29 28 0
31 30 0
33 32 0
17 -3 0
19 -5 0
21 -7 0
23 -9 0
25 -10 0
27 -11 0
29 -13 0
31 -14 0
33 -15 0
1 -34 -35 -36 0
1 -37 -38 -39 0
1 -40 -41 -42 0
4 -43 -44 -45 0
4 -46 -47 -48 0
4 -49 -50 -51 0
6 -52 -53 -54 0
6 -55 -56 -57 0
6 -58 -59 -60 0
36 -1 0
39 -1 0
42 -1 0
45 -4 0
48 -4 0
51 -4 0
54 -6 0
57 -6 0
60 -6 0
36 34 0
39 37 0
42 40 0
45 43 0
48 46 0
51 49 0
54 52 0
57 55 0
60 58 0
36 35 0
39 38 0
42 41 0
45 44 0
48 47 0
51 50 0
54 53 0
57 56 0
60 59 0
2 -61 -1 -62 0
2 -63 -4 -64 0
2 -65 -6 -66 0
8 -67 -1 -68 0
8 -69 -4 -70 0
8 -71 -6 -72 0
12 -73 -1 -74 0
12 -75 -4 -76 0
12 -77 -6 -78 0
62 -2 0
64 -2 0
66 -2 0
68 -8 0
70 -8 0
72 -8 0
74 -12 0
76 -12 0
78 -12 0
62 61 0
64 63 0
66 65 0
68 67 0
70 69 0
72 71 0
74 73 0
76 75 0
78 77 0
62 1 0
64 4 0
66 6 0
68 1 0
70 4 0
72 6 0
74 1 0
76 4 0
78 6 0
-17 -36 -62 79 0
-19 -39 -64 80 0
-21 -42 -66 81 0
-23 -45 -68 82 0
-25 -48 -70 83 0
-27 -51 -72 84 0
-29 -54 -74 85 0
-31 -57 -76 86 0
-33 -60 -78 87 0
-79 17 0
-80 19 0
-81 21 0
-82 23 0
-83 25 0
-84 27 0
-85 29 0
-86 31 0
-87 33 0
-79 36 0
-80 39 0
-81 42 0
-82 45 0
-83 48 0
-84 51 0
-85 54 0
-86 57 0
-87 60 0
-79 62 0
-80 64 0
-81 66 0
-82 68 0
-83 70 0
-84 72 0
-85 74 0
-86 76 0
-87 78 0
79 0
80 0
81 0
82 0
83 0
84 0
85 0
86 0
87 0
34 0
43 37 0
-43 -37 0
-43 -55 52 0
52 40 0
-52 -40 0
-52 -49 43 0
46 0
37 43 0
-37 -43 0
-37 -52 55 0
55 49 0
-55 -49 0
-55 -40 37 0
58 0
40 52 0
-40 -52 0
-40 -43 49 0
49 55 0
-49 -55 0
-49 -37 40 0
88 0
89 90 0
-89 -90 0
-89 -91 92 0
92 93 0
-92 -93 0
-92 -94 89 0
95 0
90 89 0
-90 -89 0
-90 -92 91 0
91 94 0
-91 -94 0
-91 -93 90 0
96 0
93 92 0
-93 -92 0
-93 -89 94 0
94 91 0
-94 -91 0
-94 -90 93 0
-61 0
-67 89 0
-97 92 0
-97 94 0
-92 -94 97 0
-67 -97 0
-89 67 97 0
-73 92 0
-98 89 0
-98 91 0
-89 -91 98 0
-73 -98 0
-92 73 98 0
-63 90 0
-99 91 0
-99 93 0
-91 -93 99 0
-63 -99 0
-90 63 99 0
-69 0
-75 91 0
-100 90 0
-100 92 0
-90 -92 100 0
-75 -100 0
-91 75 100 0
-65 93 0
-101 94 0
-101 90 0
-94 -90 101 0
-65 -101 0
-93 65 101 0
-71 94 0
-102 93 0
-102 89 0
-93 -89 102 0
-71 -102 0
-94 71 102 0
-77 0
