p cnf 176 532
-1 -2 3 0
-4 -2 5 0
-6 -2 7 0
-8 -2 9 0
-1 -10 11 0
-4 -10 12 0
-6 -10 13 0
-8 -10 14 0
-1 -15 16 0
-4 -15 17 0
-6 -15 18 0
-8 -15 19 0
-1 -20 21 0
-4 -20 22 0
-6 -20 23 0
-8 -20 24 0
-3 1 0
-5 4 0
-7 6 0
-9 8 0
-11 1 0
-12 4 0
-13 6 0
-14 8 0
-16 1 0
-17 4 0
-18 6 0
-19 8 0
-21 1 0
-22 4 0
-23 6 0
-24 8 0
-3 2 0
-5 2 0
-7 2 0
-9 2 0
-11 10 0
-12 10 0
-13 10 0
-14 10 0
-16 15 0
-17 15 0
-18 15 0
-19 15 0
-21 20 0
-22 20 0
-23 20 0
-24 20 0
-25 3 -26 0
-27 5 -28 0
-29 7 -30 0
-31 9 -32 0
-33 11 -34 0
-35 12 -36 0
-37 13 -38 0
-39 14 -40 0
-41 16 -42 0
-43 17 -44 0
-45 18 -46 0
-47 19 -48 0
-49 21 -50 0
-51 22 -52 0
-53 23 -54 0
-55 24 -56 0
26 25 0
28 27 0
30 29 0
32 31 0
34 33 0
36 35 0
38 37 0
40 39 0
42 41 0
44 43 0
46 45 0
48 47 0
50 49 0
52 51 0
54 53 0
56 55 0
26 -3 0
28 -5 0
30 -7 0
32 -9 0
34 -11 0
36 -12 0
38 -13 0
40 -14 0
42 -16 0
44 -17 0
46 -18 0
48 -19 0
50 -21 0
52 -22 0
54 -23 0
56 -24 0
1 -57 -1 -58 0
1 -59 -4 -60 0
1 -61 -6 -62 0
1 -63 -8 -64 0
4 -65 -1 -66 0
4 -67 -4 -68 0
4 -69 -6 -70 0
4 -71 -8 -72 0
6 -73 -1 -74 0
6 -75 -4 -76 0
6 -77 -6 -78 0
6 -79 -8 -80 0
8 -81 -1 -82 0
8 -83 -4 -84 0
8 -85 -6 -86 0
8 -87 -8 -88 0
58 -1 0
60 -1 0
62 -1 0
64 -1 0
66 -4 0
68 -4 0
70 -4 0
72 -4 0
74 -6 0
76 -6 0
78 -6 0
80 -6 0
82 -8 0
84 -8 0
86 -8 0
88 -8 0
58 57 0
60 59 0
62 61 0
64 63 0
66 65 0
68 67 0
70 69 0
72 71 0
74 73 0
76 75 0
78 77 0
80 79 0
82 81 0
84 83 0
86 85 0
88 87 0
58 1 0
60 4 0
62 6 0
64 8 0
66 1 0
68 4 0
70 6 0
72 8 0
74 1 0
76 4 0
78 6 0
80 8 0
82 1 0
84 4 0
86 6 0
88 8 0
2 -89 -1 -90 0
2 -91 -4 -92 0
2 -93 -6 -94 0
2 -95 -8 -96 0
10 -97 -1 -98 0
10 -99 -4 -100 0
10 -101 -6 -102 0
10 -103 -8 -104 0
15 -105 -1 -106 0
15 -107 -4 -108 0
15 -109 -6 -110 0
15 -111 -8 -112 0
20 -113 -1 -114 0
20 -115 -4 -116 0
20 -117 -6 -118 0
20 -119 -8 -120 0
90 -2 0
92 -2 0
94 -2 0
96 -2 0
98 -10 0
100 -10 0
102 -10 0
104 -10 0
106 -15 0
108 -15 0
110 -15 0
112 -15 0
114 -20 0
116 -20 0
118 -20 0
120 -20 0
90 89 0
92 91 0
94 93 0
96 95 0
98 97 0
100 99 0
102 101 0
104 103 0
106 105 0
108 107 0
110 109 0
112 111 0
114 113 0
116 115 0
118 117 0
120 119 0
90 1 0
92 4 0
94 6 0
96 8 0
98 1 0
100 4 0
102 6 0
104 8 0
106 1 0
108 4 0
110 6 0
112 8 0
114 1 0
116 4 0
118 6 0
120 8 0
-26 -58 -90 121 0
-28 -60 -92 122 0
-30 -62 -94 123 0
-32 -64 -96 124 0
-34 -66 -98 125 0
-36 -68 -100 126 0
-38 -70 -102 127 0
-40 -72 -104 128 0
-42 -74 -106 129 0
-44 -76 -108 130 0
-46 -78 -110 131 0
-48 -80 -112 132 0
-50 -82 -114 133 0
-52 -84 -116 134 0
-54 -86 -118 135 0
-56 -88 -120 136 0
-121 26 0
-122 28 0
-123 30 0
-124 32 0
-125 34 0
-126 36 0
-127 38 0
-128 40 0
-129 42 0
-130 44 0
-131 46 0
-132 48 0
-133 50 0
-134 52 0
-135 54 0
-136 56 0
-121 58 0
-122 60 0
-123 62 0
-124 64 0
-125 66 0
-126 68 0
-127 70 0
-128 72 0
-129 74 0
-130 76 0
-131 78 0
-132 80 0
-133 82 0
-134 84 0
-135 86 0
-136 88 0
-121 90 0
-122 92 0
-123 94 0
-124 96 0
-125 98 0
-126 100 0
-127 102 0
-128 104 0
-129 106 0
-130 108 0
-131 110 0
-132 112 0
-133 114 0
-134 116 0
-135 118 0
-136 120 0
121 0
122 0
123 0
124 0
125 0
126 0
127 0
128 0
129 0
130 0
131 0
132 0
133 0
134 0
135 0
136 0
57 0
65 59 0
-65 -59 0
-65 -75 73 0
-65 -83 81 0
73 61 0
-73 -61 0
-73 -69 65 0
-73 -85 81 0
81 63 0
-81 -63 0
-81 -71 65 0
-81 -79 73 0
67 0
59 65 0
-59 -65 0
-59 -73 75 0
-59 -81 83 0
75 69 0
-75 -69 0
-75 -61 59 0
-75 -85 83 0
83 71 0
-83 -71 0
-83 -63 59 0
-83 -79 75 0
77 0
61 73 0
-61 -73 0
-61 -65 69 0
-61 -81 85 0
69 75 0
-69 -75 0
-69 -59 61 0
-69 -83 85 0
85 79 0
-85 -79 0
-85 -63 61 0
-85 -71 69 0
87 0
63 81 0
-63 -81 0
-63 -65 71 0
-63 -73 79 0
71 83 0
-71 -83 0
-71 -59 63 0
-71 -75 79 0
79 85 0
-79 -85 0
-79 -61 63 0
-79 -69 71 0
137 0
138 139 0
-138 -139 0
-138 -140 141 0
-138 -142 143 0
141 144 0
-141 -144 0
-141 -145 138 0
-141 -146 143 0
143 147 0
-143 -147 0
-143 -148 138 0
-143 -149 141 0
150 0
139 138 0
-139 -138 0
-139 -141 140 0
-139 -143 142 0
140 145 0
-140 -145 0
-140 -144 139 0
-140 -146 142 0
142 148 0
-142 -148 0
-142 -147 139 0
-142 -149 140 0
151 0
144 141 0
-144 -141 0
-144 -138 145 0
-144 -143 146 0
145 140 0
-145 -140 0
-145 -139 144 0
-145 -142 146 0
146 149 0
-146 -149 0
-146 -147 144 0
-146 -148 145 0
152 0
147 143 0
-147 -143 0
-147 -138 148 0
-147 -141 149 0
148 142 0
-148 -142 0
-148 -139 147 0
-148 -140 149 0
149 146 0
-149 -146 0
-149 -144 147 0
-149 -145 148 0
-89 0
-97 138 0
-153 141 0
-153 145 0
-141 -145 153 0
-154 143 0
-154 148 0
-143 -148 154 0
-97 -153 0
-97 -154 0
-138 97 153 154 0
-105 141 0
-155 138 0
-155 140 0
-138 -140 155 0
-156 143 0
-156 149 0
-143 -149 156 0
-105 -155 0
-105 -156 0
-141 105 155 156 0
-113 143 0
-157 138 0
-157 142 0
-138 -142 157 0
-158 141 0
-158 146 0
-141 -146 158 0
-113 -157 0
-113 -158 0
-143 113 157 158 0
-91 139 0
-159 140 0
-159 144 0
-140 -144 159 0
-160 142 0
-160 147 0
-142 -147 160 0
-91 -159 0
-91 -160 0
-139 91 159 160 0
-99 0
-107 140 0
-161 139 0
-161 141 0
-139 -141 161 0
-162 142 0
-162 149 0
-142 -149 162 0
-107 -161 0
-107 -162 0
-140 107 161 162 0
-115 142 0
-163 139 0
-163 143 0
-139 -143 163 0
-164 140 0
-164 146 0
-140 -146 164 0
-115 -163 0
-115 -164 0
-142 115 163 164 0
-93 144 0
-165 145 0
-165 139 0
-145 -139 165 0
-166 146 0
-166 147 0
-146 -147 166 0
-93 -165 0
-93 -166 0
-144 93 165 166 0
-101 145 0
-167 144 0
-167 138 0
-144 -138 167 0
-168 146 0
-168 148 0
-146 -148 168 0
-101 -167 0
-101 -168 0
-145 101 167 168 0
-109 0
-117 146 0
-169 144 0
-169 143 0
-144 -143 169 0
-170 145 0
-170 142 0
-145 -142 170 0
-117 -169 0
-117 -170 0
-146 117 169 170 0
-95 147 0
-171 148 0
-171 139 0
-148 -139 171 0
-172 149 0
-172 144 0
-149 -144 172 0
-95 -171 0
-95 -172 0
-147 95 171 172 0
-103 148 0
-173 147 0
-173 138 0
-147 -138 173 0
-174 149 0
-174 145 0
-149 -145 174 0
-103 -173 0
-103 -174 0
-148 103 173 174 0
-111 149 0
-175 147 0
-175 141 0
-147 -141 175 0
-176 148 0
-176 140 0
-148 -140 176 0
-111 -175 0
-111 -176 0
-149 111 175 176 0
-119 0
