p cnf 295 970
-1 -2 3 0
-4 -2 5 0
-6 -2 7 0
-8 -2 9 0
-10 -2 11 0
-1 -12 13 0
-4 -12 14 0
-6 -12 15 0
-8 -12 16 0
-10 -12 17 0
-1 -18 19 0
-4 -18 20 0
-6 -18 21 0
-8 -18 22 0
-10 -18 23 0
-1 -24 25 0
-4 -24 26 0
-6 -24 27 0
-8 -24 28 0
-10 -24 29 0
-1 -30 31 0
-4 -30 32 0
-6 -30 33 0
-8 -30 34 0
-10 -30 35 0
-3 1 0
-5 4 0
-7 6 0
-9 8 0
-11 10 0
-13 1 0
-14 4 0
-15 6 0
-16 8 0
-17 10 0
-19 1 0
-20 4 0
-21 6 0
-22 8 0
-23 10 0
-25 1 0
-26 4 0
-27 6 0
-28 8 0
-29 10 0
-31 1 0
-32 4 0
-33 6 0
-34 8 0
-35 10 0
-3 2 0
-5 2 0
-7 2 0
-9 2 0
-11 2 0
-13 12 0
-14 12 0
-15 12 0
-16 12 0
-17 12 0
-19 18 0
-20 18 0
-21 18 0
-22 18 0
-23 18 0
-25 24 0
-26 24 0
-27 24 0
-28 24 0
-29 24 0
-31 30 0
-32 30 0
-33 30 0
-34 30 0
-35 30 0
-36 3 -37 0
-38 5 -39 0
-40 7 -41 0
-42 9 -43 0
-44 11 -45 0
-46 13 -47 0
-48 14 -49 0
-50 15 -51 0
-52 16 -53 0
-54 17 -55 0
-56 19 -57 0
-58 20 -59 0
-60 21 -61 0
-62 22 -63 0
-64 23 -65 0
-66 25 -67 0
-68 26 -69 0
-70 27 -71 0
-72 28 -73 0
-74 29 -75 0
-76 31 -77 0
-78 32 -79 0
-80 33 -81 0
-82 34 -83 0
-84 35 -85 0
37 36 0
39 38 0
41 40 0
43 42 0
45 44 0
47 46 0
49 48 0
51 50 0
53 52 0
55 54 0
57 56 0
59 58 0
61 60 0
63 62 0
65 64 0
67 66 0
69 68 0
71 70 0
73 72 0
75 74 0
77 76 0
79 78 0
81 80 0
83 82 0
85 84 0
37 -3 0
39 -5 0
41 -7 0
43 -9 0
45 -11 0
47 -13 0
49 -14 0
51 -15 0
53 -16 0
55 -17 0
57 -19 0
59 -20 0
61 -21 0
63 -22 0
65 -23 0
67 -25 0
69 -26 0
71 -27 0
73 -28 0
75 -29 0
77 -31 0
79 -32 0
81 -33 0
83 -34 0
85 -35 0
1 -86 -1 -87 0
1 -88 -4 -89 0
1 -90 -6 -91 0
1 -92 -8 -93 0
1 -94 -10 -95 0
4 -96 -1 -97 0
4 -98 -4 -99 0
4 -100 -6 -101 0
4 -102 -8 -103 0
4 -104 -10 -105 0
6 -106 -1 -107 0
6 -108 -4 -109 0
6 -110 -6 -111 0
6 -112 -8 -113 0
6 -114 -10 -115 0
8 -116 -1 -117 0
8 -118 -4 -119 0
8 -120 -6 -121 0
8 -122 -8 -123 0
8 -124 -10 -125 0
10 -126 -1 -127 0
10 -128 -4 -129 0
10 -130 -6 -131 0
10 -132 -8 -133 0
10 -134 -10 -135 0
87 -1 0
89 -1 0
91 -1 0
93 -1 0
95 -1 0
97 -4 0
99 -4 0
101 -4 0
103 -4 0
105 -4 0
107 -6 0
109 -6 0
111 -6 0
113 -6 0
115 -6 0
117 -8 0
119 -8 0
121 -8 0
123 -8 0
125 -8 0
127 -10 0
129 -10 0
131 -10 0
133 -10 0
135 -10 0
87 86 0
89 88 0
91 90 0
93 92 0
95 94 0
97 96 0
99 98 0
101 100 0
103 102 0
105 104 0
107 106 0
109 108 0
111 110 0
113 112 0
115 114 0
117 116 0
119 118 0
121 120 0
123 122 0
125 124 0
127 126 0
129 128 0
131 130 0
133 132 0
135 134 0
87 1 0
89 4 0
91 6 0
93 8 0
95 10 0
97 1 0
99 4 0
101 6 0
103 8 0
105 10 0
107 1 0
109 4 0
111 6 0
113 8 0
115 10 0
117 1 0
119 4 0
121 6 0
123 8 0
125 10 0
127 1 0
129 4 0
131 6 0
133 8 0
135 10 0
2 -136 -1 -137 0
2 -138 -4 -139 0
2 -140 -6 -141 0
2 -142 -8 -143 0
2 -144 -10 -145 0
12 -146 -1 -147 0
12 -148 -4 -149 0
12 -150 -6 -151 0
12 -152 -8 -153 0
12 -154 -10 -155 0
18 -156 -1 -157 0
18 -158 -4 -159 0
18 -160 -6 -161 0
18 -162 -8 -163 0
18 -164 -10 -165 0
24 -166 -1 -167 0
24 -168 -4 -169 0
24 -170 -6 -171 0
24 -172 -8 -173 0
24 -174 -10 -175 0
30 -176 -1 -177 0
30 -178 -4 -179 0
30 -180 -6 -181 0
30 -182 -8 -183 0
30 -184 -10 -185 0
137 -2 0
139 -2 0
141 -2 0
143 -2 0
145 -2 0
147 -12 0
149 -12 0
151 -12 0
153 -12 0
155 -12 0
157 -18 0
159 -18 0
161 -18 0
163 -18 0
165 -18 0
167 -24 0
169 -24 0
171 -24 0
173 -24 0
175 -24 0
177 -30 0
179 -30 0
181 -30 0
183 -30 0
185 -30 0
137 136 0
139 138 0
141 140 0
143 142 0
145 144 0
147 146 0
149 148 0
151 150 0
153 152 0
155 154 0
157 156 0
159 158 0
161 160 0
163 162 0
165 164 0
167 166 0
169 168 0
171 170 0
173 172 0
175 174 0
177 176 0
179 178 0
181 180 0
183 182 0
185 184 0
137 1 0
139 4 0
141 6 0
143 8 0
145 10 0
147 1 0
149 4 0
151 6 0
153 8 0
155 10 0
157 1 0
159 4 0
161 6 0
163 8 0
165 10 0
167 1 0
169 4 0
171 6 0
173 8 0
175 10 0
177 1 0
179 4 0
181 6 0
183 8 0
185 10 0
-37 -87 -137 186 0
-39 -89 -139 187 0
-41 -91 -141 188 0
-43 -93 -143 189 0
-45 -95 -145 190 0
-47 -97 -147 191 0
-49 -99 -149 192 0
-51 -101 -151 193 0
-53 -103 -153 194 0
-55 -105 -155 195 0
-57 -107 -157 196 0
-59 -109 -159 197 0
-61 -111 -161 198 0
-63 -113 -163 199 0
-65 -115 -165 200 0
-67 -117 -167 201 0
-69 -119 -169 202 0
-71 -121 -171 203 0
-73 -123 -173 204 0
-75 -125 -175 205 0
-77 -127 -177 206 0
-79 -129 -179 207 0
-81 -131 -181 208 0
-83 -133 -183 209 0
-85 -135 -185 210 0
-186 37 0
-187 39 0
-188 41 0
-189 43 0
-190 45 0
-191 47 0
-192 49 0
-193 51 0
-194 53 0
-195 55 0
-196 57 0
-197 59 0
-198 61 0
-199 63 0
-200 65 0
-201 67 0
-202 69 0
-203 71 0
-204 73 0
-205 75 0
-206 77 0
-207 79 0
-208 81 0
-209 83 0
-210 85 0
-186 87 0
-187 89 0
-188 91 0
-189 93 0
-190 95 0
-191 97 0
-192 99 0
-193 101 0
-194 103 0
-195 105 0
-196 107 0
-197 109 0
-198 111 0
-199 113 0
-200 115 0
-201 117 0
-202 119 0
-203 121 0
-204 123 0
-205 125 0
-206 127 0
-207 129 0
-208 131 0
-209 133 0
-210 135 0
-186 137 0
-187 139 0
-188 141 0
-189 143 0
-190 145 0
-191 147 0
-192 149 0
-193 151 0
-194 153 0
-195 155 0
-196 157 0
-197 159 0
-198 161 0
-199 163 0
-200 165 0
-201 167 0
-202 169 0
-203 171 0
-204 173 0
-205 175 0
-206 177 0
-207 179 0
-208 181 0
-209 183 0
-210 185 0
186 0
187 0
188 0
189 0
190 0
191 0
192 0
193 0
194 0
195 0
196 0
197 0
198 0
199 0
200 0
201 0
202 0
203 0
204 0
205 0
206 0
207 0
208 0
209 0
210 0
86 0
96 88 0
-96 -88 0
-96 -108 106 0
-96 -118 116 0
-96 -128 126 0
106 90 0
-106 -90 0
-106 -100 96 0
-106 -120 116 0
-106 -130 126 0
116 92 0
-116 -92 0
-116 -102 96 0
-116 -112 106 0
-116 -132 126 0
126 94 0
-126 -94 0
-126 -104 96 0
-126 -114 106 0
-126 -124 116 0
98 0
88 96 0
-88 -96 0
-88 -106 108 0
-88 -116 118 0
-88 -126 128 0
108 100 0
-108 -100 0
-108 -90 88 0
-108 -120 118 0
-108 -130 128 0
118 102 0
-118 -102 0
-118 -92 88 0
-118 -112 108 0
-118 -132 128 0
128 104 0
-128 -104 0
-128 -94 88 0
-128 -114 108 0
-128 -124 118 0
110 0
90 106 0
-90 -106 0
-90 -96 100 0
-90 -116 120 0
-90 -126 130 0
100 108 0
-100 -108 0
-100 -88 90 0
-100 -118 120 0
-100 -128 130 0
120 112 0
-120 -112 0
-120 -92 90 0
-120 -102 100 0
-120 -132 130 0
130 114 0
-130 -114 0
-130 -94 90 0
-130 -104 100 0
-130 -124 120 0
122 0
92 116 0
-92 -116 0
-92 -96 102 0
-92 -106 112 0
-92 -126 132 0
102 118 0
-102 -118 0
-102 -88 92 0
-102 -108 112 0
-102 -128 132 0
112 120 0
-112 -120 0
-112 -90 92 0
-112 -100 102 0
-112 -130 132 0
132 124 0
-132 -124 0
-132 -94 92 0
-132 -104 102 0
-132 -114 112 0
134 0
94 126 0
-94 -126 0
-94 -96 104 0
-94 -106 114 0
-94 -116 124 0
104 128 0
-104 -128 0
-104 -88 94 0
-104 -108 114 0
-104 -118 124 0
114 130 0
-114 -130 0
-114 -90 94 0
-114 -100 104 0
-114 -120 124 0
124 132 0
-124 -132 0
-124 -92 94 0
-124 -102 104 0
-124 -112 114 0
211 0
212 213 0
-212 -213 0
-212 -214 215 0
-212 -216 217 0
-212 -218 219 0
215 220 0
-215 -220 0
-215 -221 212 0
-215 -222 217 0
-215 -223 219 0
217 224 0
-217 -224 0
-217 -225 212 0
-217 -226 215 0
-217 -227 219 0
219 228 0
-219 -228 0
-219 -229 212 0
-219 -230 215 0
-219 -231 217 0
232 0
213 212 0
-213 -212 0
-213 -215 214 0
-213 -217 216 0
-213 -219 218 0
214 221 0
-214 -221 0
-214 -220 213 0
-214 -222 216 0
-214 -223 218 0
216 225 0
-216 -225 0
-216 -224 213 0
-216 -226 214 0
-216 -227 218 0
218 229 0
-218 -229 0
-218 -228 213 0
-218 -230 214 0
-218 -231 216 0
233 0
220 215 0
-220 -215 0
-220 -212 221 0
-220 -217 222 0
-220 -219 223 0
221 214 0
-221 -214 0
-221 -213 220 0
-221 -216 222 0
-221 -218 223 0
222 226 0
-222 -226 0
-222 -224 220 0
-222 -225 221 0
-222 -227 223 0
223 230 0
-223 -230 0
-223 -228 220 0
-223 -229 221 0
-223 -231 222 0
234 0
224 217 0
-224 -217 0
-224 -212 225 0
-224 -215 226 0
-224 -219 227 0
225 216 0
-225 -216 0
-225 -213 224 0
-225 -214 226 0
-225 -218 227 0
226 222 0
-226 -222 0
-226 -220 224 0
-226 -221 225 0
-226 -223 227 0
227 231 0
-227 -231 0
-227 -228 224 0
-227 -229 225 0
-227 -230 226 0
235 0
228 219 0
-228 -219 0
-228 -212 229 0
-228 -215 230 0
-228 -217 231 0
229 218 0
-229 -218 0
-229 -213 228 0
-229 -214 230 0
-229 -216 231 0
230 223 0
-230 -223 0
-230 -220 228 0
-230 -221 229 0
-230 -222 231 0
231 227 0
-231 -227 0
-231 -224 228 0
-231 -225 229 0
-231 -226 230 0
-136 0
-146 212 0
-236 215 0
-236 221 0
-215 -221 236 0
-237 217 0
-237 225 0
-217 -225 237 0
-238 219 0
-238 229 0
-219 -229 238 0
-146 -236 0
-146 -237 0
-146 -238 0
-212 146 236 237 238 0
-156 215 0
-239 212 0
-239 214 0
-212 -214 239 0
-240 217 0
-240 226 0
-217 -226 240 0
-241 219 0
-241 230 0
-219 -230 241 0
-156 -239 0
-156 -240 0
-156 -241 0
-215 156 239 240 241 0
-166 217 0
-242 212 0
-242 216 0
-212 -216 242 0
-243 215 0
-243 222 0
-215 -222 243 0
-244 219 0
-244 231 0
-219 -231 244 0
-166 -242 0
-166 -243 0
-166 -244 0
-217 166 242 243 244 0
-176 219 0
-245 212 0
-245 218 0
-212 -218 245 0
-246 215 0
-246 223 0
-215 -223 246 0
-247 217 0
-247 227 0
-217 -227 247 0
-176 -245 0
-176 -246 0
-176 -247 0
-219 176 245 246 247 0
-138 213 0
-248 214 0
-248 220 0
-214 -220 248 0
-249 216 0
-249 224 0
-216 -224 249 0
-250 218 0
-250 228 0
-218 -228 250 0
-138 -248 0
-138 -249 0
-138 -250 0
-213 138 248 249 250 0
-148 0
-158 214 0
-251 213 0
-251 215 0
-213 -215 251 0
-252 216 0
-252 226 0
-216 -226 252 0
-253 218 0
-253 230 0
-218 -230 253 0
-158 -251 0
-158 -252 0
-158 -253 0
-214 158 251 252 253 0
-168 216 0
-254 213 0
-254 217 0
-213 -217 254 0
-255 214 0
-255 222 0
-214 -222 255 0
-256 218 0
-256 231 0
-218 -231 256 0
-168 -254 0
-168 -255 0
-168 -256 0
-216 168 254 255 256 0
-178 218 0
-257 213 0
-257 219 0
-213 -219 257 0
-258 214 0
-258 223 0
-214 -223 258 0
-259 216 0
-259 227 0
-216 -227 259 0
-178 -257 0
-178 -258 0
-178 -259 0
-218 178 257 258 259 0
-140 220 0
-260 221 0
-260 213 0
-221 -213 260 0
-261 222 0
-261 224 0
-222 -224 261 0
-262 223 0
-262 228 0
-223 -228 262 0
-140 -260 0
-140 -261 0
-140 -262 0
-220 140 260 261 262 0
-150 221 0
-263 220 0
-263 212 0
-220 -212 263 0
-264 222 0
-264 225 0
-222 -225 264 0
-265 223 0
-265 229 0
-223 -229 265 0
-150 -263 0
-150 -264 0
-150 -265 0
-221 150 263 264 265 0
-160 0
-170 222 0
-266 220 0
-266 217 0
-220 -217 266 0
-267 221 0
-267 216 0
-221 -216 267 0
-268 223 0
-268 231 0
-223 -231 268 0
-170 -266 0
-170 -267 0
-170 -268 0
-222 170 266 267 268 0
-180 223 0
-269 220 0
-269 219 0
-220 -219 269 0
-270 221 0
-270 218 0
-221 -218 270 0
-271 222 0
-271 227 0
-222 -227 271 0
-180 -269 0
-180 -270 0
-180 -271 0
-223 180 269 270 271 0
-142 224 0
-272 225 0
-272 213 0
-225 -213 272 0
-273 226 0
-273 220 0
-226 -220 273 0
-274 227 0
-274 228 0
-227 -228 274 0
-142 -272 0
-142 -273 0
-142 -274 0
-224 142 272 273 274 0
-152 225 0
-275 224 0
-275 212 0
-224 -212 275 0
-276 226 0
-276 221 0
-226 -221 276 0
-277 227 0
-277 229 0
-227 -229 277 0
-152 -275 0
-152 -276 0
-152 -277 0
-225 152 275 276 277 0
-162 226 0
-278 224 0
-278 215 0
-224 -215 278 0
-279 225 0
-279 214 0
-225 -214 279 0
-280 227 0
-280 230 0
-227 -230 280 0
-162 -278 0
-162 -279 0
-162 -280 0
-226 162 278 279 280 0
-172 0
-182 227 0
-281 224 0
-281 219 0
-224 -219 281 0
-282 225 0
-282 218 0
-225 -218 282 0
-283 226 0
-283 223 0
-226 -223 283 0
-182 -281 0
-182 -282 0
-182 -283 0
-227 182 281 282 283 0
-144 228 0
-284 229 0
-284 213 0
-229 -213 284 0
-285 230 0
-285 220 0
-230 -220 285 0
-286 231 0
-286 224 0
-231 -224 286 0
-144 -284 0
-144 -285 0
-144 -286 0
-228 144 284 285 286 0
-154 229 0
-287 228 0
-287 212 0
-228 -212 287 0
-288 230 0
-288 221 0
-230 -221 288 0
-289 231 0
-289 225 0
-231 -225 289 0
-154 -287 0
-154 -288 0
-154 -289 0
-229 154 287 288 289 0
-164 230 0
-290 228 0
-290 215 0
-228 -215 290 0
-291 229 0
-291 214 0
-229 -214 291 0
-292 231 0
-292 226 0
-231 -226 292 0
-164 -290 0
-164 -291 0
-164 -292 0
-230 164 290 291 292 0
-174 231 0
-293 228 0
-293 217 0
-228 -217 293 0
-294 229 0
-294 216 0
-229 -216 294 0
-295 230 0
-295 222 0
-230 -222 295 0
-174 -293 0
-174 -294 0
-174 -295 0
-231 174 293 294 295 0
-184 0
