p cnf 456 1602
-1 -2 3 0
-4 -2 5 0
-6 -2 7 0
-8 -2 9 0
-10 -2 11 0
-12 -2 13 0
-1 -14 15 0
-4 -14 16 0
-6 -14 17 0
-8 -14 18 0
-10 -14 19 0
-12 -14 20 0
-1 -21 22 0
-4 -21 23 0
-6 -21 24 0
-8 -21 25 0
-10 -21 26 0
-12 -21 27 0
-1 -28 29 0
-4 -28 30 0
-6 -28 31 0
-8 -28 32 0
-10 -28 33 0
-12 -28 34 0
-1 -35 36 0
-4 -35 37 0
-6 -35 38 0
-8 -35 39 0
-10 -35 40 0
-12 -35 41 0
-1 -42 43 0
-4 -42 44 0
-6 -42 45 0
-8 -42 46 0
-10 -42 47 0
-12 -42 48 0
-3 1 0
-5 4 0
-7 6 0
-9 8 0
-11 10 0
-13 12 0
-15 1 0
-16 4 0
-17 6 0
-18 8 0
-19 10 0
-20 12 0
-22 1 0
-23 4 0
-24 6 0
-25 8 0
-26 10 0
-27 12 0
-29 1 0
-30 4 0
-31 6 0
-32 8 0
-33 10 0
-34 12 0
-36 1 0
-37 4 0
-38 6 0
-39 8 0
-40 10 0
-41 12 0
-43 1 0
-44 4 0
-45 6 0
-46 8 0
-47 10 0
-48 12 0
-3 2 0
-5 2 0
-7 2 0
-9 2 0
-11 2 0
-13 2 0
-15 14 0
-16 14 0
-17 14 0
-18 14 0
-19 14 0
-20 14 0
-22 21 0
-23 21 0
-24 21 0
-25 21 0
-26 21 0
-27 21 0
-29 28 0
-30 28 0
-31 28 0
-32 28 0
-33 28 0
-34 28 0
-36 35 0
-37 35 0
-38 35 0
-39 35 0
-40 35 0
-41 35 0
-43 42 0
-44 42 0
-45 42 0
-46 42 0
-47 42 0
-48 42 0
-49 3 -50 0
-51 5 -52 0
-53 7 -54 0
-55 9 -56 0
-57 11 -58 0
-59 13 -60 0
-61 15 -62 0
-63 16 -64 0
-65 17 -66 0
-67 18 -68 0
-69 19 -70 0
-71 20 -72 0
-73 22 -74 0
-75 23 -76 0
-77 24 -78 0
-79 25 -80 0
-81 26 -82 0
-83 27 -84 0
-85 29 -86 0
-87 30 -88 0
-89 31 -90 0
-91 32 -92 0
-93 33 -94 0
-95 34 -96 0
-97 36 -98 0
-99 37 -100 0
-101 38 -102 0
-103 39 -104 0
-105 40 -106 0
-107 41 -108 0
-109 43 -110 0
-111 44 -112 0
-113 45 -114 0
-115 46 -116 0
-117 47 -118 0
-119 48 -120 0
50 49 0
52 51 0
54 53 0
56 55 0
58 57 0
60 59 0
62 61 0
64 63 0
66 65 0
68 67 0
70 69 0
72 71 0
74 73 0
76 75 0
78 77 0
80 79 0
82 81 0
84 83 0
86 85 0
88 87 0
90 89 0
92 91 0
94 93 0
96 95 0
98 97 0
100 99 0
102 101 0
104 103 0
106 105 0
108 107 0
110 109 0
112 111 0
114 113 0
116 115 0
118 117 0
120 119 0
50 -3 0
52 -5 0
54 -7 0
56 -9 0
58 -11 0
60 -13 0
62 -15 0
64 -16 0
66 -17 0
68 -18 0
70 -19 0
72 -20 0
74 -22 0
76 -23 0
78 -24 0
80 -25 0
82 -26 0
84 -27 0
86 -29 0
88 -30 0
90 -31 0
92 -32 0
94 -33 0
96 -34 0
98 -36 0
100 -37 0
102 -38 0
104 -39 0
106 -40 0
108 -41 0
110 -43 0
112 -44 0
114 -45 0
116 -46 0
118 -47 0
120 -48 0
1 -121 -1 -122 0
1 -123 -4 -124 0
1 -125 -6 -126 0
1 -127 -8 -128 0
1 -129 -10 -130 0
1 -131 -12 -132 0
4 -133 -1 -134 0
4 -135 -4 -136 0
4 -137 -6 -138 0
4 -139 -8 -140 0
4 -141 -10 -142 0
4 -143 -12 -144 0
6 -145 -1 -146 0
6 -147 -4 -148 0
6 -149 -6 -150 0
6 -151 -8 -152 0
6 -153 -10 -154 0
6 -155 -12 -156 0
8 -157 -1 -158 0
8 -159 -4 -160 0
8 -161 -6 -162 0
8 -163 -8 -164 0
8 -165 -10 -166 0
8 -167 -12 -168 0
10 -169 -1 -170 0
10 -171 -4 -172 0
10 -173 -6 -174 0
10 -175 -8 -176 0
10 -177 -10 -178 0
10 -179 -12 -180 0
12 -181 -1 -182 0
12 -183 -4 -184 0
12 -185 -6 -186 0
12 -187 -8 -188 0
12 -189 -10 -190 0
12 -191 -12 -192 0
122 -1 0
124 -1 0
126 -1 0
128 -1 0
130 -1 0
132 -1 0
134 -4 0
136 -4 0
138 -4 0
140 -4 0
142 -4 0
144 -4 0
146 -6 0
148 -6 0
150 -6 0
152 -6 0
154 -6 0
156 -6 0
158 -8 0
160 -8 0
162 -8 0
164 -8 0
166 -8 0
168 -8 0
170 -10 0
172 -10 0
174 -10 0
176 -10 0
178 -10 0
180 -10 0
182 -12 0
184 -12 0
186 -12 0
188 -12 0
190 -12 0
192 -12 0
122 121 0
124 123 0
126 125 0
128 127 0
130 129 0
132 131 0
134 133 0
136 135 0
138 137 0
140 139 0
142 141 0
144 143 0
146 145 0
148 147 0
150 149 0
152 151 0
154 153 0
156 155 0
158 157 0
160 159 0
162 161 0
164 163 0
166 165 0
168 167 0
170 169 0
172 171 0
174 173 0
176 175 0
178 177 0
180 179 0
182 181 0
184 183 0
186 185 0
188 187 0
190 189 0
192 191 0
122 1 0
124 4 0
126 6 0
128 8 0
130 10 0
132 12 0
134 1 0
136 4 0
138 6 0
140 8 0
142 10 0
144 12 0
146 1 0
148 4 0
150 6 0
152 8 0
154 10 0
156 12 0
158 1 0
160 4 0
162 6 0
164 8 0
166 10 0
168 12 0
170 1 0
172 4 0
174 6 0
176 8 0
178 10 0
180 12 0
182 1 0
184 4 0
186 6 0
188 8 0
190 10 0
192 12 0
2 -193 -1 -194 0
2 -195 -4 -196 0
2 -197 -6 -198 0
2 -199 -8 -200 0
2 -201 -10 -202 0
2 -203 -12 -204 0
14 -205 -1 -206 0
14 -207 -4 -208 0
14 -209 -6 -210 0
14 -211 -8 -212 0
14 -213 -10 -214 0
14 -215 -12 -216 0
21 -217 -1 -218 0
21 -219 -4 -220 0
21 -221 -6 -222 0
21 -223 -8 -224 0
21 -225 -10 -226 0
21 -227 -12 -228 0
28 -229 -1 -230 0
28 -231 -4 -232 0
28 -233 -6 -234 0
28 -235 -8 -236 0
28 -237 -10 -238 0
28 -239 -12 -240 0
35 -241 -1 -242 0
35 -243 -4 -244 0
35 -245 -6 -246 0
35 -247 -8 -248 0
35 -249 -10 -250 0
35 -251 -12 -252 0
42 -253 -1 -254 0
42 -255 -4 -256 0
42 -257 -6 -258 0
42 -259 -8 -260 0
42 -261 -10 -262 0
42 -263 -12 -264 0
194 -2 0
196 -2 0
198 -2 0
200 -2 0
202 -2 0
204 -2 0
206 -14 0
208 -14 0
210 -14 0
212 -14 0
214 -14 0
216 -14 0
218 -21 0
220 -21 0
222 -21 0
224 -21 0
226 -21 0
228 -21 0
230 -28 0
232 -28 0
234 -28 0
236 -28 0
238 -28 0
240 -28 0
242 -35 0
244 -35 0
246 -35 0
248 -35 0
250 -35 0
252 -35 0
254 -42 0
256 -42 0
258 -42 0
260 -42 0
262 -42 0
264 -42 0
194 193 0
196 195 0
198 197 0
200 199 0
202 201 0
204 203 0
206 205 0
208 207 0
210 209 0
212 211 0
214 213 0
216 215 0
218 217 0
220 219 0
222 221 0
224 223 0
226 225 0
228 227 0
230 229 0
232 231 0
234 233 0
236 235 0
238 237 0
240 239 0
242 241 0
244 243 0
246 245 0
248 247 0
250 249 0
252 251 0
254 253 0
256 255 0
258 257 0
260 259 0
262 261 0
264 263 0
194 1 0
196 4 0
198 6 0
200 8 0
202 10 0
204 12 0
206 1 0
208 4 0
210 6 0
212 8 0
214 10 0
216 12 0
218 1 0
220 4 0
222 6 0
224 8 0
226 10 0
228 12 0
230 1 0
232 4 0
234 6 0
236 8 0
238 10 0
240 12 0
242 1 0
244 4 0
246 6 0
248 8 0
250 10 0
252 12 0
254 1 0
256 4 0
258 6 0
260 8 0
262 10 0
264 12 0
-50 -122 -194 265 0
-52 -124 -196 266 0
-54 -126 -198 267 0
-56 -128 -200 268 0
-58 -130 -202 269 0
-60 -132 -204 270 0
-62 -134 -206 271 0
-64 -136 -208 272 0
-66 -138 -210 273 0
-68 -140 -212 274 0
-70 -142 -214 275 0
-72 -144 -216 276 0
-74 -146 -218 277 0
-76 -148 -220 278 0
-78 -150 -222 279 0
-80 -152 -224 280 0
-82 -154 -226 281 0
-84 -156 -228 282 0
-86 -158 -230 283 0
-88 -160 -232 284 0
-90 -162 -234 285 0
-92 -164 -236 286 0
-94 -166 -238 287 0
-96 -168 -240 288 0
-98 -170 -242 289 0
-100 -172 -244 290 0
-102 -174 -246 291 0
-104 -176 -248 292 0
-106 -178 -250 293 0
-108 -180 -252 294 0
-110 -182 -254 295 0
-112 -184 -256 296 0
-114 -186 -258 297 0
-116 -188 -260 298 0
-118 -190 -262 299 0
-120 -192 -264 300 0
-265 50 0
-266 52 0
-267 54 0
-268 56 0
-269 58 0
-270 60 0
-271 62 0
-272 64 0
-273 66 0
-274 68 0
-275 70 0
-276 72 0
-277 74 0
-278 76 0
-279 78 0
-280 80 0
-281 82 0
-282 84 0
-283 86 0
-284 88 0
-285 90 0
-286 92 0
-287 94 0
-288 96 0
-289 98 0
-290 100 0
-291 102 0
-292 104 0
-293 106 0
-294 108 0
-295 110 0
-296 112 0
-297 114 0
-298 116 0
-299 118 0
-300 120 0
-265 122 0
-266 124 0
-267 126 0
-268 128 0
-269 130 0
-270 132 0
-271 134 0
-272 136 0
-273 138 0
-274 140 0
-275 142 0
-276 144 0
-277 146 0
-278 148 0
-279 150 0
-280 152 0
-281 154 0
-282 156 0
-283 158 0
-284 160 0
-285 162 0
-286 164 0
-287 166 0
-288 168 0
-289 170 0
-290 172 0
-291 174 0
-292 176 0
-293 178 0
-294 180 0
-295 182 0
-296 184 0
-297 186 0
-298 188 0
-299 190 0
-300 192 0
-265 194 0
-266 196 0
-267 198 0
-268 200 0
-269 202 0
-270 204 0
-271 206 0
-272 208 0
-273 210 0
-274 212 0
-275 214 0
-276 216 0
-277 218 0
-278 220 0
-279 222 0
-280 224 0
-281 226 0
-282 228 0
-283 230 0
-284 232 0
-285 234 0
-286 236 0
-287 238 0
-288 240 0
-289 242 0
-290 244 0
-291 246 0
-292 248 0
-293 250 0
-294 252 0
-295 254 0
-296 256 0
-297 258 0
-298 260 0
-299 262 0
-300 264 0
265 0
266 0
267 0
268 0
269 0
270 0
271 0
272 0
273 0
274 0
275 0
276 0
277 0
278 0
279 0
280 0
281 0
282 0
283 0
284 0
285 0
286 0
287 0
288 0
289 0
290 0
291 0
292 0
293 0
294 0
295 0
296 0
297 0
298 0
299 0
300 0
121 0
133 123 0
-133 -123 0
-133 -147 145 0
-133 -159 157 0
-133 -171 169 0
-133 -183 181 0
145 125 0
-145 -125 0
-145 -137 133 0
-145 -161 157 0
-145 -173 169 0
-145 -185 181 0
157 127 0
-157 -127 0
-157 -139 133 0
-157 -151 145 0
-157 -175 169 0
-157 -187 181 0
169 129 0
-169 -129 0
-169 -141 133 0
-169 -153 145 0
-169 -165 157 0
-169 -189 181 0
181 131 0
-181 -131 0
-181 -143 133 0
-181 -155 145 0
-181 -167 157 0
-181 -179 169 0
135 0
123 133 0
-123 -133 0
-123 -145 147 0
-123 -157 159 0
-123 -169 171 0
-123 -181 183 0
147 137 0
-147 -137 0
-147 -125 123 0
-147 -161 159 0
-147 -173 171 0
-147 -185 183 0
159 139 0
-159 -139 0
-159 -127 123 0
-159 -151 147 0
-159 -175 171 0
-159 -187 183 0
171 141 0
-171 -141 0
-171 -129 123 0
-171 -153 147 0
-171 -165 159 0
-171 -189 183 0
183 143 0
-183 -143 0
-183 -131 123 0
-183 -155 147 0
-183 -167 159 0
-183 -179 171 0
149 0
125 145 0
-125 -145 0
-125 -133 137 0
-125 -157 161 0
-125 -169 173 0
-125 -181 185 0
137 147 0
-137 -147 0
-137 -123 125 0
-137 -159 161 0
-137 -171 173 0
-137 -183 185 0
161 151 0
-161 -151 0
-161 -127 125 0
-161 -139 137 0
-161 -175 173 0
-161 -187 185 0
173 153 0
-173 -153 0
-173 -129 125 0
-173 -141 137 0
-173 -165 161 0
-173 -189 185 0
185 155 0
-185 -155 0
-185 -131 125 0
-185 -143 137 0
-185 -167 161 0
-185 -179 173 0
163 0
127 157 0
-127 -157 0
-127 -133 139 0
-127 -145 151 0
-127 -169 175 0
-127 -181 187 0
139 159 0
-139 -159 0
-139 -123 127 0
-139 -147 151 0
-139 -171 175 0
-139 -183 187 0
151 161 0
-151 -161 0
-151 -125 127 0
-151 -137 139 0
-151 -173 175 0
-151 -185 187 0
175 165 0
-175 -165 0
-175 -129 127 0
-175 -141 139 0
-175 -153 151 0
-175 -189 187 0
187 167 0
-187 -167 0
-187 -131 127 0
-187 -143 139 0
-187 -155 151 0
-187 -179 175 0
177 0
129 169 0
-129 -169 0
-129 -133 141 0
-129 -145 153 0
-129 -157 165 0
-129 -181 189 0
141 171 0
-141 -171 0
-141 -123 129 0
-141 -147 153 0
-141 -159 165 0
-141 -183 189 0
153 173 0
-153 -173 0
-153 -125 129 0
-153 -137 141 0
-153 -161 165 0
-153 -185 189 0
165 175 0
-165 -175 0
-165 -127 129 0
-165 -139 141 0
-165 -151 153 0
-165 -187 189 0
189 179 0
-189 -179 0
-189 -131 129 0
-189 -143 141 0
-189 -155 153 0
-189 -167 165 0
191 0
131 181 0
-131 -181 0
-131 -133 143 0
-131 -145 155 0
-131 -157 167 0
-131 -169 179 0
143 183 0
-143 -183 0
-143 -123 131 0
-143 -147 155 0
-143 -159 167 0
-143 -171 179 0
155 185 0
-155 -185 0
-155 -125 131 0
-155 -137 143 0
-155 -161 167 0
-155 -173 179 0
167 187 0
-167 -187 0
-167 -127 131 0
-167 -139 143 0
-167 -151 155 0
-167 -175 179 0
179 189 0
-179 -189 0
-179 -129 131 0
-179 -141 143 0
-179 -153 155 0
-179 -165 167 0
301 0
302 303 0
-302 -303 0
-302 -304 305 0
-302 -306 307 0
-302 -308 309 0
-302 -310 311 0
305 312 0
-305 -312 0
-305 -313 302 0
-305 -314 307 0
-305 -315 309 0
-305 -316 311 0
307 317 0
-307 -317 0
-307 -318 302 0
-307 -319 305 0
-307 -320 309 0
-307 -321 311 0
309 322 0
-309 -322 0
-309 -323 302 0
-309 -324 305 0
-309 -325 307 0
-309 -326 311 0
311 327 0
-311 -327 0
-311 -328 302 0
-311 -329 305 0
-311 -330 307 0
-311 -331 309 0
332 0
303 302 0
-303 -302 0
-303 -305 304 0
-303 -307 306 0
-303 -309 308 0
-303 -311 310 0
304 313 0
-304 -313 0
-304 -312 303 0
-304 -314 306 0
-304 -315 308 0
-304 -316 310 0
306 318 0
-306 -318 0
-306 -317 303 0
-306 -319 304 0
-306 -320 308 0
-306 -321 310 0
308 323 0
-308 -323 0
-308 -322 303 0
-308 -324 304 0
-308 -325 306 0
-308 -326 310 0
310 328 0
-310 -328 0
-310 -327 303 0
-310 -329 304 0
-310 -330 306 0
-310 -331 308 0
333 0
312 305 0
-312 -305 0
-312 -302 313 0
-312 -307 314 0
-312 -309 315 0
-312 -311 316 0
313 304 0
-313 -304 0
-313 -303 312 0
-313 -306 314 0
-313 -308 315 0
-313 -310 316 0
314 319 0
-314 -319 0
-314 -317 312 0
-314 -318 313 0
-314 -320 315 0
-314 -321 316 0
315 324 0
-315 -324 0
-315 -322 312 0
-315 -323 313 0
-315 -325 314 0
-315 -326 316 0
316 329 0
-316 -329 0
-316 -327 312 0
-316 -328 313 0
-316 -330 314 0
-316 -331 315 0
334 0
317 307 0
-317 -307 0
-317 -302 318 0
-317 -305 319 0
-317 -309 320 0
-317 -311 321 0
318 306 0
-318 -306 0
-318 -303 317 0
-318 -304 319 0
-318 -308 320 0
-318 -310 321 0
319 314 0
-319 -314 0
-319 -312 317 0
-319 -313 318 0
-319 -315 320 0
-319 -316 321 0
320 325 0
-320 -325 0
-320 -322 317 0
-320 -323 318 0
-320 -324 319 0
-320 -326 321 0
321 330 0
-321 -330 0
-321 -327 317 0
-321 -328 318 0
-321 -329 319 0
-321 -331 320 0
335 0
322 309 0
-322 -309 0
-322 -302 323 0
-322 -305 324 0
-322 -307 325 0
-322 -311 326 0
323 308 0
-323 -308 0
-323 -303 322 0
-323 -304 324 0
-323 -306 325 0
-323 -310 326 0
324 315 0
-324 -315 0
-324 -312 322 0
-324 -313 323 0
-324 -314 325 0
-324 -316 326 0
325 320 0
-325 -320 0
-325 -317 322 0
-325 -318 323 0
-325 -319 324 0
-325 -321 326 0
326 331 0
-326 -331 0
-326 -327 322 0
-326 -328 323 0
-326 -329 324 0
-326 -330 325 0
336 0
327 311 0
-327 -311 0
-327 -302 328 0
-327 -305 329 0
-327 -307 330 0
-327 -309 331 0
328 310 0
-328 -310 0
-328 -303 327 0
-328 -304 329 0
-328 -306 330 0
-328 -308 331 0
329 316 0
-329 -316 0
-329 -312 327 0
-329 -313 328 0
-329 -314 330 0
-329 -315 331 0
330 321 0
-330 -321 0
-330 -317 327 0
-330 -318 328 0
-330 -319 329 0
-330 -320 331 0
331 326 0
-331 -326 0
-331 -322 327 0
-331 -323 328 0
-331 -324 329 0
-331 -325 330 0
-193 0
-205 302 0
-337 305 0
-337 313 0
-305 -313 337 0
-338 307 0
-338 318 0
-307 -318 338 0
-339 309 0
-339 323 0
-309 -323 339 0
-340 311 0
-340 328 0
-311 -328 340 0
-205 -337 0
-205 -338 0
-205 -339 0
-205 -340 0
-302 205 337 338 339 340 0
-217 305 0
-341 302 0
-341 304 0
-302 -304 341 0
-342 307 0
-342 319 0
-307 -319 342 0
-343 309 0
-343 324 0
-309 -324 343 0
-344 311 0
-344 329 0
-311 -329 344 0
-217 -341 0
-217 -342 0
-217 -343 0
-217 -344 0
-305 217 341 342 343 344 0
-229 307 0
-345 302 0
-345 306 0
-302 -306 345 0
-346 305 0
-346 314 0
-305 -314 346 0
-347 309 0
-347 325 0
-309 -325 347 0
-348 311 0
-348 330 0
-311 -330 348 0
-229 -345 0
-229 -346 0
-229 -347 0
-229 -348 0
-307 229 345 346 347 348 0
-241 309 0
-349 302 0
-349 308 0
-302 -308 349 0
-350 305 0
-350 315 0
-305 -315 350 0
-351 307 0
-351 320 0
-307 -320 351 0
-352 311 0
-352 331 0
-311 -331 352 0
-241 -349 0
-241 -350 0
-241 -351 0
-241 -352 0
-309 241 349 350 351 352 0
-253 311 0
-353 302 0
-353 310 0
-302 -310 353 0
-354 305 0
-354 316 0
-305 -316 354 0
-355 307 0
-355 321 0
-307 -321 355 0
-356 309 0
-356 326 0
-309 -326 356 0
-253 -353 0
-253 -354 0
-253 -355 0
-253 -356 0
-311 253 353 354 355 356 0
-195 303 0
-357 304 0
-357 312 0
-304 -312 357 0
-358 306 0
-358 317 0
-306 -317 358 0
-359 308 0
-359 322 0
-308 -322 359 0
-360 310 0
-360 327 0
-310 -327 360 0
-195 -357 0
-195 -358 0
-195 -359 0
-195 -360 0
-303 195 357 358 359 360 0
-207 0
-219 304 0
-361 303 0
-361 305 0
-303 -305 361 0
-362 306 0
-362 319 0
-306 -319 362 0
-363 308 0
-363 324 0
-308 -324 363 0
-364 310 0
-364 329 0
-310 -329 364 0
-219 -361 0
-219 -362 0
-219 -363 0
-219 -364 0
-304 219 361 362 363 364 0
-231 306 0
-365 303 0
-365 307 0
-303 -307 365 0
-366 304 0
-366 314 0
-304 -314 366 0
-367 308 0
-367 325 0
-308 -325 367 0
-368 310 0
-368 330 0
-310 -330 368 0
-231 -365 0
-231 -366 0
-231 -367 0
-231 -368 0
-306 231 365 366 367 368 0
-243 308 0
-369 303 0
-369 309 0
-303 -309 369 0
-370 304 0
-370 315 0
-304 -315 370 0
-371 306 0
-371 320 0
-306 -320 371 0
-372 310 0
-372 331 0
-310 -331 372 0
-243 -369 0
-243 -370 0
-243 -371 0
-243 -372 0
-308 243 369 370 371 372 0
-255 310 0
-373 303 0
-373 311 0
-303 -311 373 0
-374 304 0
-374 316 0
-304 -316 374 0
-375 306 0
-375 321 0
-306 -321 375 0
-376 308 0
-376 326 0
-308 -326 376 0
-255 -373 0
-255 -374 0
-255 -375 0
-255 -376 0
-310 255 373 374 375 376 0
-197 312 0
-377 313 0
-377 303 0
-313 -303 377 0
-378 314 0
-378 317 0
-314 -317 378 0
-379 315 0
-379 322 0
-315 -322 379 0
-380 316 0
-380 327 0
-316 -327 380 0
-197 -377 0
-197 -378 0
-197 -379 0
-197 -380 0
-312 197 377 378 379 380 0
-209 313 0
-381 312 0
-381 302 0
-312 -302 381 0
-382 314 0
-382 318 0
-314 -318 382 0
-383 315 0
-383 323 0
-315 -323 383 0
-384 316 0
-384 328 0
-316 -328 384 0
-209 -381 0
-209 -382 0
-209 -383 0
-209 -384 0
-313 209 381 382 383 384 0
-221 0
-233 314 0
-385 312 0
-385 307 0
-312 -307 385 0
-386 313 0
-386 306 0
-313 -306 386 0
-387 315 0
-387 325 0
-315 -325 387 0
-388 316 0
-388 330 0
-316 -330 388 0
-233 -385 0
-233 -386 0
-233 -387 0
-233 -388 0
-314 233 385 386 387 388 0
-245 315 0
-389 312 0
-389 309 0
-312 -309 389 0
-390 313 0
-390 308 0
-313 -308 390 0
-391 314 0
-391 320 0
-314 -320 391 0
-392 316 0
-392 331 0
-316 -331 392 0
-245 -389 0
-245 -390 0
-245 -391 0
-245 -392 0
-315 245 389 390 391 392 0
-257 316 0
-393 312 0
-393 311 0
-312 -311 393 0
-394 313 0
-394 310 0
-313 -310 394 0
-395 314 0
-395 321 0
-314 -321 395 0
-396 315 0
-396 326 0
-315 -326 396 0
-257 -393 0
-257 -394 0
-257 -395 0
-257 -396 0
-316 257 393 394 395 396 0
-199 317 0
-397 318 0
-397 303 0
-318 -303 397 0
-398 319 0
-398 312 0
-319 -312 398 0
-399 320 0
-399 322 0
-320 -322 399 0
-400 321 0
-400 327 0
-321 -327 400 0
-199 -397 0
-199 -398 0
-199 -399 0
-199 -400 0
-317 199 397 398 399 400 0
-211 318 0
-401 317 0
-401 302 0
-317 -302 401 0
-402 319 0
-402 313 0
-319 -313 402 0
-403 320 0
-403 323 0
-320 -323 403 0
-404 321 0
-404 328 0
-321 -328 404 0
-211 -401 0
-211 -402 0
-211 -403 0
-211 -404 0
-318 211 401 402 403 404 0
-223 319 0
-405 317 0
-405 305 0
-317 -305 405 0
-406 318 0
-406 304 0
-318 -304 406 0
-407 320 0
-407 324 0
-320 -324 407 0
-408 321 0
-408 329 0
-321 -329 408 0
-223 -405 0
-223 -406 0
-223 -407 0
-223 -408 0
-319 223 405 406 407 408 0
-235 0
-247 320 0
-409 317 0
-409 309 0
-317 -309 409 0
-410 318 0
-410 308 0
-318 -308 410 0
-411 319 0
-411 315 0
-319 -315 411 0
-412 321 0
-412 331 0
-321 -331 412 0
-247 -409 0
-247 -410 0
-247 -411 0
-247 -412 0
-320 247 409 410 411 412 0
-259 321 0
-413 317 0
-413 311 0
-317 -311 413 0
-414 318 0
-414 310 0
-318 -310 414 0
-415 319 0
-415 316 0
-319 -316 415 0
-416 320 0
-416 326 0
-320 -326 416 0
-259 -413 0
-259 -414 0
-259 -415 0
-259 -416 0
-321 259 413 414 415 416 0
-201 322 0
-417 323 0
-417 303 0
-323 -303 417 0
-418 324 0
-418 312 0
-324 -312 418 0
-419 325 0
-419 317 0
-325 -317 419 0
-420 326 0
-420 327 0
-326 -327 420 0
-201 -417 0
-201 -418 0
-201 -419 0
-201 -420 0
-322 201 417 418 419 420 0
-213 323 0
-421 322 0
-421 302 0
-322 -302 421 0
-422 324 0
-422 313 0
-324 -313 422 0
-423 325 0
-423 318 0
-325 -318 423 0
-424 326 0
-424 328 0
-326 -328 424 0
-213 -421 0
-213 -422 0
-213 -423 0
-213 -424 0
-323 213 421 422 423 424 0
-225 324 0
-425 322 0
-425 305 0
-322 -305 425 0
-426 323 0
-426 304 0
-323 -304 426 0
-427 325 0
-427 319 0
-325 -319 427 0
-428 326 0
-428 329 0
-326 -329 428 0
-225 -425 0
-225 -426 0
-225 -427 0
-225 -428 0
-324 225 425 426 427 428 0
-237 325 0
-429 322 0
-429 307 0
-322 -307 429 0
-430 323 0
-430 306 0
-323 -306 430 0
-431 324 0
-431 314 0
-324 -314 431 0
-432 326 0
-432 330 0
-326 -330 432 0
-237 -429 0
-237 -430 0
-237 -431 0
-237 -432 0
-325 237 429 430 431 432 0
-249 0
-261 326 0
-433 322 0
-433 311 0
-322 -311 433 0
-434 323 0
-434 310 0
-323 -310 434 0
-435 324 0
-435 316 0
-324 -316 435 0
-436 325 0
-436 321 0
-325 -321 436 0
-261 -433 0
-261 -434 0
-261 -435 0
-261 -436 0
-326 261 433 434 435 436 0
-203 327 0
-437 328 0
-437 303 0
-328 -303 437 0
-438 329 0
-438 312 0
-329 -312 438 0
-439 330 0
-439 317 0
-330 -317 439 0
-440 331 0
-440 322 0
-331 -322 440 0
-203 -437 0
-203 -438 0
-203 -439 0
-203 -440 0
-327 203 437 438 439 440 0
-215 328 0
-441 327 0
-441 302 0
-327 -302 441 0
-442 329 0
-442 313 0
-329 -313 442 0
-443 330 0
-443 318 0
-330 -318 443 0
-444 331 0
-444 323 0
-331 -323 444 0
-215 -441 0
-215 -442 0
-215 -443 0
-215 -444 0
-328 215 441 442 443 444 0
-227 329 0
-445 327 0
-445 305 0
-327 -305 445 0
-446 328 0
-446 304 0
-328 -304 446 0
-447 330 0
-447 319 0
-330 -319 447 0
-448 331 0
-448 324 0
-331 -324 448 0
-227 -445 0
-227 -446 0
-227 -447 0
-227 -448 0
-329 227 445 446 447 448 0
-239 330 0
-449 327 0
-449 307 0
-327 -307 449 0
-450 328 0
-450 306 0
-328 -306 450 0
-451 329 0
-451 314 0
-329 -314 451 0
-452 331 0
-452 325 0
-331 -325 452 0
-239 -449 0
-239 -450 0
-239 -451 0
-239 -452 0
-330 239 449 450 451 452 0
-251 331 0
-453 327 0
-453 309 0
-327 -309 453 0
-454 328 0
-454 308 0
-328 -308 454 0
-455 329 0
-455 315 0
-329 -315 455 0
-456 330 0
-456 320 0
-330 -320 456 0
-251 -453 0
-251 -454 0
-251 -455 0
-251 -456 0
-331 251 453 454 455 456 0
-263 0
