p cnf 665 2464
-1 -2 3 0
-4 -2 5 0
-6 -2 7 0
-8 -2 9 0
-10 -2 11 0
-12 -2 13 0
-14 -2 15 0
-1 -16 17 0
-4 -16 18 0
-6 -16 19 0
-8 -16 20 0
-10 -16 21 0
-12 -16 22 0
-14 -16 23 0
-1 -24 25 0
-4 -24 26 0
-6 -24 27 0
-8 -24 28 0
-10 -24 29 0
-12 -24 30 0
-14 -24 31 0
-1 -32 33 0
-4 -32 34 0
-6 -32 35 0
-8 -32 36 0
-10 -32 37 0
-12 -32 38 0
-14 -32 39 0
-1 -40 41 0
-4 -40 42 0
-6 -40 43 0
-8 -40 44 0
-10 -40 45 0
-12 -40 46 0
-14 -40 47 0
-1 -48 49 0
-4 -48 50 0
-6 -48 51 0
-8 -48 52 0
-10 -48 53 0
-12 -48 54 0
-14 -48 55 0
-1 -56 57 0
-4 -56 58 0
-6 -56 59 0
-8 -56 60 0
-10 -56 61 0
-12 -56 62 0
-14 -56 63 0
-3 1 0
-5 4 0
-7 6 0
-9 8 0
-11 10 0
-13 12 0
-15 14 0
-17 1 0
-18 4 0
-19 6 0
-20 8 0
-21 10 0
-22 12 0
-23 14 0
-25 1 0
-26 4 0
-27 6 0
-28 8 0
-29 10 0
-30 12 0
-31 14 0
-33 1 0
-34 4 0
-35 6 0
-36 8 0
-37 10 0
-38 12 0
-39 14 0
-41 1 0
-42 4 0
-43 6 0
-44 8 0
-45 10 0
-46 12 0
-47 14 0
-49 1 0
-50 4 0
-51 6 0
-52 8 0
-53 10 0
-54 12 0
-55 14 0
-57 1 0
-58 4 0
-59 6 0
-60 8 0
-61 10 0
-62 12 0
-63 14 0
-3 2 0
-5 2 0
-7 2 0
-9 2 0
-11 2 0
-13 2 0
-15 2 0
-17 16 0
-18 16 0
-19 16 0
-20 16 0
-21 16 0
-22 16 0
-23 16 0
-25 24 0
-26 24 0
-27 24 0
-28 24 0
-29 24 0
-30 24 0
-31 24 0
-33 32 0
-34 32 0
-35 32 0
-36 32 0
-37 32 0
-38 32 0
-39 32 0
-41 40 0
-42 40 0
-43 40 0
-44 40 0
-45 40 0
-46 40 0
-47 40 0
-49 48 0
-50 48 0
-51 48 0
-52 48 0
-53 48 0
-54 48 0
-55 48 0
-57 56 0
-58 56 0
-59 56 0
-60 56 0
-61 56 0
-62 56 0
-63 56 0
-64 3 -65 0
-66 5 -67 0
-68 7 -69 0
-70 9 -71 0
-72 11 -73 0
-74 13 -75 0
-76 15 -77 0
-78 17 -79 0
-80 18 -81 0
-82 19 -83 0
-84 20 -85 0
-86 21 -87 0
-88 22 -89 0
-90 23 -91 0
-92 25 -93 0
-94 26 -95 0
-96 27 -97 0
-98 28 -99 0
-100 29 -101 0
-102 30 -103 0
-104 31 -105 0
-106 33 -107 0
-108 34 -109 0
-110 35 -111 0
-112 36 -113 0
-114 37 -115 0
-116 38 -117 0
-118 39 -119 0
-120 41 -121 0
-122 42 -123 0
-124 43 -125 0
-126 44 -127 0
-128 45 -129 0
-130 46 -131 0
-132 47 -133 0
-134 49 -135 0
-136 50 -137 0
-138 51 -139 0
-140 52 -141 0
-142 53 -143 0
-144 54 -145 0
-146 55 -147 0
-148 57 -149 0
-150 58 -151 0
-152 59 -153 0
-154 60 -155 0
-156 61 -157 0
-158 62 -159 0
-160 63 -161 0
65 64 0
67 66 0
69 68 0
71 70 0
73 72 0
75 74 0
77 76 0
79 78 0
81 80 0
83 82 0
85 84 0
87 86 0
89 88 0
91 90 0
93 92 0
95 94 0
97 96 0
99 98 0
101 100 0
103 102 0
105 104 0
107 106 0
109 108 0
111 110 0
113 112 0
115 114 0
117 116 0
119 118 0
121 120 0
123 122 0
125 124 0
127 126 0
129 128 0
131 130 0
133 132 0
135 134 0
137 136 0
139 138 0
141 140 0
143 142 0
145 144 0
147 146 0
149 148 0
151 150 0
153 152 0
155 154 0
157 156 0
159 158 0
161 160 0
65 -3 0
67 -5 0
69 -7 0
71 -9 0
73 -11 0
75 -13 0
77 -15 0
79 -17 0
81 -18 0
83 -19 0
85 -20 0
87 -21 0
89 -22 0
91 -23 0
93 -25 0
95 -26 0
97 -27 0
99 -28 0
101 -29 0
103 -30 0
105 -31 0
107 -33 0
109 -34 0
111 -35 0
113 -36 0
115 -37 0
117 -38 0
119 -39 0
121 -41 0
123 -42 0
125 -43 0
127 -44 0
129 -45 0
131 -46 0
133 -47 0
135 -49 0
137 -50 0
139 -51 0
141 -52 0
143 -53 0
145 -54 0
147 -55 0
149 -57 0
151 -58 0
153 -59 0
155 -60 0
157 -61 0
159 -62 0
161 -63 0
1 -162 -1 -163 0
1 -164 -4 -165 0
1 -166 -6 -167 0
1 -168 -8 -169 0
1 -170 -10 -171 0
1 -172 -12 -173 0
1 -174 -14 -175 0
4 -176 -1 -177 0
4 -178 -4 -179 0
4 -180 -6 -181 0
4 -182 -8 -183 0
4 -184 -10 -185 0
4 -186 -12 -187 0
4 -188 -14 -189 0
6 -190 -1 -191 0
6 -192 -4 -193 0
6 -194 -6 -195 0
6 -196 -8 -197 0
6 -198 -10 -199 0
6 -200 -12 -201 0
6 -202 -14 -203 0
8 -204 -1 -205 0
8 -206 -4 -207 0
8 -208 -6 -209 0
8 -210 -8 -211 0
8 -212 -10 -213 0
8 -214 -12 -215 0
8 -216 -14 -217 0
10 -218 -1 -219 0
10 -220 -4 -221 0
10 -222 -6 -223 0
10 -224 -8 -225 0
10 -226 -10 -227 0
10 -228 -12 -229 0
10 -230 -14 -231 0
12 -232 -1 -233 0
12 -234 -4 -235 0
12 -236 -6 -237 0
12 -238 -8 -239 0
12 -240 -10 -241 0
12 -242 -12 -243 0
12 -244 -14 -245 0
14 -246 -1 -247 0
14 -248 -4 -249 0
14 -250 -6 -251 0
14 -252 -8 -253 0
14 -254 -10 -255 0
14 -256 -12 -257 0
14 -258 -14 -259 0
163 -1 0
165 -1 0
167 -1 0
169 -1 0
171 -1 0
173 -1 0
175 -1 0
177 -4 0
179 -4 0
181 -4 0
183 -4 0
185 -4 0
187 -4 0
189 -4 0
191 -6 0
193 -6 0
195 -6 0
197 -6 0
199 -6 0
201 -6 0
203 -6 0
205 -8 0
207 -8 0
209 -8 0
211 -8 0
213 -8 0
215 -8 0
217 -8 0
219 -10 0
221 -10 0
223 -10 0
225 -10 0
227 -10 0
229 -10 0
231 -10 0
233 -12 0
235 -12 0
237 -12 0
239 -12 0
241 -12 0
243 -12 0
245 -12 0
247 -14 0
249 -14 0
251 -14 0
253 -14 0
255 -14 0
257 -14 0
259 -14 0
163 162 0
165 164 0
167 166 0
169 168 0
171 170 0
173 172 0
175 174 0
177 176 0
179 178 0
181 180 0
183 182 0
185 184 0
187 186 0
189 188 0
191 190 0
193 192 0
195 194 0
197 196 0
199 198 0
201 200 0
203 202 0
205 204 0
207 206 0
209 208 0
211 210 0
213 212 0
215 214 0
217 216 0
219 218 0
221 220 0
223 222 0
225 224 0
227 226 0
229 228 0
231 230 0
233 232 0
235 234 0
237 236 0
239 238 0
241 240 0
243 242 0
245 244 0
247 246 0
249 248 0
251 250 0
253 252 0
255 254 0
257 256 0
259 258 0
163 1 0
165 4 0
167 6 0
169 8 0
171 10 0
173 12 0
175 14 0
177 1 0
179 4 0
181 6 0
183 8 0
185 10 0
187 12 0
189 14 0
191 1 0
193 4 0
195 6 0
197 8 0
199 10 0
201 12 0
203 14 0
205 1 0
207 4 0
209 6 0
211 8 0
213 10 0
215 12 0
217 14 0
219 1 0
221 4 0
223 6 0
225 8 0
227 10 0
229 12 0
231 14 0
233 1 0
235 4 0
237 6 0
239 8 0
241 10 0
243 12 0
245 14 0
247 1 0
249 4 0
251 6 0
253 8 0
255 10 0
257 12 0
259 14 0
2 -260 -1 -261 0
2 -262 -4 -263 0
2 -264 -6 -265 0
2 -266 -8 -267 0
2 -268 -10 -269 0
2 -270 -12 -271 0
2 -272 -14 -273 0
16 -274 -1 -275 0
16 -276 -4 -277 0
16 -278 -6 -279 0
16 -280 -8 -281 0
16 -282 -10 -283 0
16 -284 -12 -285 0
16 -286 -14 -287 0
24 -288 -1 -289 0
24 -290 -4 -291 0
24 -292 -6 -293 0
24 -294 -8 -295 0
24 -296 -10 -297 0
24 -298 -12 -299 0
24 -300 -14 -301 0
32 -302 -1 -303 0
32 -304 -4 -305 0
32 -306 -6 -307 0
32 -308 -8 -309 0
32 -310 -10 -311 0
32 -312 -12 -313 0
32 -314 -14 -315 0
40 -316 -1 -317 0
40 -318 -4 -319 0
40 -320 -6 -321 0
40 -322 -8 -323 0
40 -324 -10 -325 0
40 -326 -12 -327 0
40 -328 -14 -329 0
48 -330 -1 -331 0
48 -332 -4 -333 0
48 -334 -6 -335 0
48 -336 -8 -337 0
48 -338 -10 -339 0
48 -340 -12 -341 0
48 -342 -14 -343 0
56 -344 -1 -345 0
56 -346 -4 -347 0
56 -348 -6 -349 0
56 -350 -8 -351 0
56 -352 -10 -353 0
56 -354 -12 -355 0
56 -356 -14 -357 0
261 -2 0
263 -2 0
265 -2 0
267 -2 0
269 -2 0
271 -2 0
273 -2 0
275 -16 0
277 -16 0
279 -16 0
281 -16 0
283 -16 0
285 -16 0
287 -16 0
289 -24 0
291 -24 0
293 -24 0
295 -24 0
297 -24 0
299 -24 0
301 -24 0
303 -32 0
305 -32 0
307 -32 0
309 -32 0
311 -32 0
313 -32 0
315 -32 0
317 -40 0
319 -40 0
321 -40 0
323 -40 0
325 -40 0
327 -40 0
329 -40 0
331 -48 0
333 -48 0
335 -48 0
337 -48 0
339 -48 0
341 -48 0
343 -48 0
345 -56 0
347 -56 0
349 -56 0
351 -56 0
353 -56 0
355 -56 0
357 -56 0
261 260 0
263 262 0
265 264 0
267 266 0
269 268 0
271 270 0
273 272 0
275 274 0
277 276 0
279 278 0
281 280 0
283 282 0
285 284 0
287 286 0
289 288 0
291 290 0
293 292 0
295 294 0
297 296 0
299 298 0
301 300 0
303 302 0
305 304 0
307 306 0
309 308 0
311 310 0
313 312 0
315 314 0
317 316 0
319 318 0
321 320 0
323 322 0
325 324 0
327 326 0
329 328 0
331 330 0
333 332 0
335 334 0
337 336 0
339 338 0
341 340 0
343 342 0
345 344 0
347 346 0
349 348 0
351 350 0
353 352 0
355 354 0
357 356 0
261 1 0
263 4 0
265 6 0
267 8 0
269 10 0
271 12 0
273 14 0
275 1 0
277 4 0
279 6 0
281 8 0
283 10 0
285 12 0
287 14 0
289 1 0
291 4 0
293 6 0
295 8 0
297 10 0
299 12 0
301 14 0
303 1 0
305 4 0
307 6 0
309 8 0
311 10 0
313 12 0
315 14 0
317 1 0
319 4 0
321 6 0
323 8 0
325 10 0
327 12 0
329 14 0
331 1 0
333 4 0
335 6 0
337 8 0
339 10 0
341 12 0
343 14 0
345 1 0
347 4 0
349 6 0
351 8 0
353 10 0
355 12 0
357 14 0
-65 -163 -261 358 0
-67 -165 -263 359 0
-69 -167 -265 360 0
-71 -169 -267 361 0
-73 -171 -269 362 0
-75 -173 -271 363 0
-77 -175 -273 364 0
-79 -177 -275 365 0
-81 -179 -277 366 0
-83 -181 -279 367 0
-85 -183 -281 368 0
-87 -185 -283 369 0
-89 -187 -285 370 0
-91 -189 -287 371 0
-93 -191 -289 372 0
-95 -193 -291 373 0
-97 -195 -293 374 0
-99 -197 -295 375 0
-101 -199 -297 376 0
-103 -201 -299 377 0
-105 -203 -301 378 0
-107 -205 -303 379 0
-109 -207 -305 380 0
-111 -209 -307 381 0
-113 -211 -309 382 0
-115 -213 -311 383 0
-117 -215 -313 384 0
-119 -217 -315 385 0
-121 -219 -317 386 0
-123 -221 -319 387 0
-125 -223 -321 388 0
-127 -225 -323 389 0
-129 -227 -325 390 0
-131 -229 -327 391 0
-133 -231 -329 392 0
-135 -233 -331 393 0
-137 -235 -333 394 0
-139 -237 -335 395 0
-141 -239 -337 396 0
-143 -241 -339 397 0
-145 -243 -341 398 0
-147 -245 -343 399 0
-149 -247 -345 400 0
-151 -249 -347 401 0
-153 -251 -349 402 0
-155 -253 -351 403 0
-157 -255 -353 404 0
-159 -257 -355 405 0
-161 -259 -357 406 0
-358 65 0
-359 67 0
-360 69 0
-361 71 0
-362 73 0
-363 75 0
-364 77 0
-365 79 0
-366 81 0
-367 83 0
-368 85 0
-369 87 0
-370 89 0
-371 91 0
-372 93 0
-373 95 0
-374 97 0
-375 99 0
-376 101 0
-377 103 0
-378 105 0
-379 107 0
-380 109 0
-381 111 0
-382 113 0
-383 115 0
-384 117 0
-385 119 0
-386 121 0
-387 123 0
-388 125 0
-389 127 0
-390 129 0
-391 131 0
-392 133 0
-393 135 0
-394 137 0
-395 139 0
-396 141 0
-397 143 0
-398 145 0
-399 147 0
-400 149 0
-401 151 0
-402 153 0
-403 155 0
-404 157 0
-405 159 0
-406 161 0
-358 163 0
-359 165 0
-360 167 0
-361 169 0
-362 171 0
-363 173 0
-364 175 0
-365 177 0
-366 179 0
-367 181 0
-368 183 0
-369 185 0
-370 187 0
-371 189 0
-372 191 0
-373 193 0
-374 195 0
-375 197 0
-376 199 0
-377 201 0
-378 203 0
-379 205 0
-380 207 0
-381 209 0
-382 211 0
-383 213 0
-384 215 0
-385 217 0
-386 219 0
-387 221 0
-388 223 0
-389 225 0
-390 227 0
-391 229 0
-392 231 0
-393 233 0
-394 235 0
-395 237 0
-396 239 0
-397 241 0
-398 243 0
-399 245 0
-400 247 0
-401 249 0
-402 251 0
-403 253 0
-404 255 0
-405 257 0
-406 259 0
-358 261 0
-359 263 0
-360 265 0
-361 267 0
-362 269 0
-363 271 0
-364 273 0
-365 275 0
-366 277 0
-367 279 0
-368 281 0
-369 283 0
-370 285 0
-371 287 0
-372 289 0
-373 291 0
-374 293 0
-375 295 0
-376 297 0
-377 299 0
-378 301 0
-379 303 0
-380 305 0
-381 307 0
-382 309 0
-383 311 0
-384 313 0
-385 315 0
-386 317 0
-387 319 0
-388 321 0
-389 323 0
-390 325 0
-391 327 0
-392 329 0
-393 331 0
-394 333 0
-395 335 0
-396 337 0
-397 339 0
-398 341 0
-399 343 0
-400 345 0
-401 347 0
-402 349 0
-403 351 0
-404 353 0
-405 355 0
-406 357 0
358 0
359 0
360 0
361 0
362 0
363 0
364 0
365 0
366 0
367 0
368 0
369 0
370 0
371 0
372 0
373 0
374 0
375 0
376 0
377 0
378 0
379 0
380 0
381 0
382 0
383 0
384 0
385 0
386 0
387 0
388 0
389 0
390 0
391 0
392 0
393 0
394 0
395 0
396 0
397 0
398 0
399 0
400 0
401 0
402 0
403 0
404 0
405 0
406 0
162 0
176 164 0
-176 -164 0
-176 -192 190 0
-176 -206 204 0
-176 -220 218 0
-176 -234 232 0
-176 -248 246 0
190 166 0
-190 -166 0
-190 -180 176 0
-190 -208 204 0
-190 -222 218 0
-190 -236 232 0
-190 -250 246 0
204 168 0
-204 -168 0
-204 -182 176 0
-204 -196 190 0
-204 -224 218 0
-204 -238 232 0
-204 -252 246 0
218 170 0
-218 -170 0
-218 -184 176 0
-218 -198 190 0
-218 -212 204 0
-218 -240 232 0
-218 -254 246 0
232 172 0
-232 -172 0
-232 -186 176 0
-232 -200 190 0
-232 -214 204 0
-232 -228 218 0
-232 -256 246 0
246 174 0
-246 -174 0
-246 -188 176 0
-246 -202 190 0
-246 -216 204 0
-246 -230 218 0
-246 -244 232 0
178 0
164 176 0
-164 -176 0
-164 -190 192 0
-164 -204 206 0
-164 -218 220 0
-164 -232 234 0
-164 -246 248 0
192 180 0
-192 -180 0
-192 -166 164 0
-192 -208 206 0
-192 -222 220 0
-192 -236 234 0
-192 -250 248 0
206 182 0
-206 -182 0
-206 -168 164 0
-206 -196 192 0
-206 -224 220 0
-206 -238 234 0
-206 -252 248 0
220 184 0
-220 -184 0
-220 -170 164 0
-220 -198 192 0
-220 -212 206 0
-220 -240 234 0
-220 -254 248 0
234 186 0
-234 -186 0
-234 -172 164 0
-234 -200 192 0
-234 -214 206 0
-234 -228 220 0
-234 -256 248 0
248 188 0
-248 -188 0
-248 -174 164 0
-248 -202 192 0
-248 -216 206 0
-248 -230 220 0
-248 -244 234 0
194 0
166 190 0
-166 -190 0
-166 -176 180 0
-166 -204 208 0
-166 -218 222 0
-166 -232 236 0
-166 -246 250 0
180 192 0
-180 -192 0
-180 -164 166 0
-180 -206 208 0
-180 -220 222 0
-180 -234 236 0
-180 -248 250 0
208 196 0
-208 -196 0
-208 -168 166 0
-208 -182 180 0
-208 -224 222 0
-208 -238 236 0
-208 -252 250 0
222 198 0
-222 -198 0
-222 -170 166 0
-222 -184 180 0
-222 -212 208 0
-222 -240 236 0
-222 -254 250 0
236 200 0
-236 -200 0
-236 -172 166 0
-236 -186 180 0
-236 -214 208 0
-236 -228 222 0
-236 -256 250 0
250 202 0
-250 -202 0
-250 -174 166 0
-250 -188 180 0
-250 -216 208 0
-250 -230 222 0
-250 -244 236 0
210 0
168 204 0
-168 -204 0
-168 -176 182 0
-168 -190 196 0
-168 -218 224 0
-168 -232 238 0
-168 -246 252 0
182 206 0
-182 -206 0
-182 -164 168 0
-182 -192 196 0
-182 -220 224 0
-182 -234 238 0
-182 -248 252 0
196 208 0
-196 -208 0
-196 -166 168 0
-196 -180 182 0
-196 -222 224 0
-196 -236 238 0
-196 -250 252 0
224 212 0
-224 -212 0
-224 -170 168 0
-224 -184 182 0
-224 -198 196 0
-224 -240 238 0
-224 -254 252 0
238 214 0
-238 -214 0
-238 -172 168 0
-238 -186 182 0
-238 -200 196 0
-238 -228 224 0
-238 -256 252 0
252 216 0
-252 -216 0
-252 -174 168 0
-252 -188 182 0
-252 -202 196 0
-252 -230 224 0
-252 -244 238 0
226 0
170 218 0
-170 -218 0
-170 -176 184 0
-170 -190 198 0
-170 -204 212 0
-170 -232 240 0
-170 -246 254 0
184 220 0
-184 -220 0
-184 -164 170 0
-184 -192 198 0
-184 -206 212 0
-184 -234 240 0
-184 -248 254 0
198 222 0
-198 -222 0
-198 -166 170 0
-198 -180 184 0
-198 -208 212 0
-198 -236 240 0
-198 -250 254 0
212 224 0
-212 -224 0
-212 -168 170 0
-212 -182 184 0
-212 -196 198 0
-212 -238 240 0
-212 -252 254 0
240 228 0
-240 -228 0
-240 -172 170 0
-240 -186 184 0
-240 -200 198 0
-240 -214 212 0
-240 -256 254 0
254 230 0
-254 -230 0
-254 -174 170 0
-254 -188 184 0
-254 -202 198 0
-254 -216 212 0
-254 -244 240 0
242 0
172 232 0
-172 -232 0
-172 -176 186 0
-172 -190 200 0
-172 -204 214 0
-172 -218 228 0
-172 -246 256 0
186 234 0
-186 -234 0
-186 -164 172 0
-186 -192 200 0
-186 -206 214 0
-186 -220 228 0
-186 -248 256 0
200 236 0
-200 -236 0
-200 -166 172 0
-200 -180 186 0
-200 -208 214 0
-200 -222 228 0
-200 -250 256 0
214 238 0
-214 -238 0
-214 -168 172 0
-214 -182 186 0
-214 -196 200 0
-214 -224 228 0
-214 -252 256 0
228 240 0
-228 -240 0
-228 -170 172 0
-228 -184 186 0
-228 -198 200 0
-228 -212 214 0
-228 -254 256 0
256 244 0
-256 -244 0
-256 -174 172 0
-256 -188 186 0
-256 -202 200 0
-256 -216 214 0
-256 -230 228 0
258 0
174 246 0
-174 -246 0
-174 -176 188 0
-174 -190 202 0
-174 -204 216 0
-174 -218 230 0
-174 -232 244 0
188 248 0
-188 -248 0
-188 -164 174 0
-188 -192 202 0
-188 -206 216 0
-188 -220 230 0
-188 -234 244 0
202 250 0
-202 -250 0
-202 -166 174 0
-202 -180 188 0
-202 -208 216 0
-202 -222 230 0
-202 -236 244 0
216 252 0
-216 -252 0
-216 -168 174 0
-216 -182 188 0
-216 -196 202 0
-216 -224 230 0
-216 -238 244 0
230 254 0
-230 -254 0
-230 -170 174 0
-230 -184 188 0
-230 -198 202 0
-230 -212 216 0
-230 -240 244 0
244 256 0
-244 -256 0
-244 -172 174 0
-244 -186 188 0
-244 -200 202 0
-244 -214 216 0
-244 -228 230 0
407 0
408 409 0
-408 -409 0
-408 -410 411 0
-408 -412 413 0
-408 -414 415 0
-408 -416 417 0
-408 -418 419 0
411 420 0
-411 -420 0
-411 -421 408 0
-411 -422 413 0
-411 -423 415 0
-411 -424 417 0
-411 -425 419 0
413 426 0
-413 -426 0
-413 -427 408 0
-413 -428 411 0
-413 -429 415 0
-413 -430 417 0
-413 -431 419 0
415 432 0
-415 -432 0
-415 -433 408 0
-415 -434 411 0
-415 -435 413 0
-415 -436 417 0
-415 -437 419 0
417 438 0
-417 -438 0
-417 -439 408 0
-417 -440 411 0
-417 -441 413 0
-417 -442 415 0
-417 -443 419 0
419 444 0
-419 -444 0
-419 -445 408 0
-419 -446 411 0
-419 -447 413 0
-419 -448 415 0
-419 -449 417 0
450 0
409 408 0
-409 -408 0
-409 -411 410 0
-409 -413 412 0
-409 -415 414 0
-409 -417 416 0
-409 -419 418 0
410 421 0
-410 -421 0
-410 -420 409 0
-410 -422 412 0
-410 -423 414 0
-410 -424 416 0
-410 -425 418 0
412 427 0
-412 -427 0
-412 -426 409 0
-412 -428 410 0
-412 -429 414 0
-412 -430 416 0
-412 -431 418 0
414 433 0
-414 -433 0
-414 -432 409 0
-414 -434 410 0
-414 -435 412 0
-414 -436 416 0
-414 -437 418 0
416 439 0
-416 -439 0
-416 -438 409 0
-416 -440 410 0
-416 -441 412 0
-416 -442 414 0
-416 -443 418 0
418 445 0
-418 -445 0
-418 -444 409 0
-418 -446 410 0
-418 -447 412 0
-418 -448 414 0
-418 -449 416 0
451 0
420 411 0
-420 -411 0
-420 -408 421 0
-420 -413 422 0
-420 -415 423 0
-420 -417 424 0
-420 -419 425 0
421 410 0
-421 -410 0
-421 -409 420 0
-421 -412 422 0
-421 -414 423 0
-421 -416 424 0
-421 -418 425 0
422 428 0
-422 -428 0
-422 -426 420 0
-422 -427 421 0
-422 -429 423 0
-422 -430 424 0
-422 -431 425 0
423 434 0
-423 -434 0
-423 -432 420 0
-423 -433 421 0
-423 -435 422 0
-423 -436 424 0
-423 -437 425 0
424 440 0
-424 -440 0
-424 -438 420 0
-424 -439 421 0
-424 -441 422 0
-424 -442 423 0
-424 -443 425 0
425 446 0
-425 -446 0
-425 -444 420 0
-425 -445 421 0
-425 -447 422 0
-425 -448 423 0
-425 -449 424 0
452 0
426 413 0
-426 -413 0
-426 -408 427 0
-426 -411 428 0
-426 -415 429 0
-426 -417 430 0
-426 -419 431 0
427 412 0
-427 -412 0
-427 -409 426 0
-427 -410 428 0
-427 -414 429 0
-427 -416 430 0
-427 -418 431 0
428 422 0
-428 -422 0
-428 -420 426 0
-428 -421 427 0
-428 -423 429 0
-428 -424 430 0
-428 -425 431 0
429 435 0
-429 -435 0
-429 -432 426 0
-429 -433 427 0
-429 -434 428 0
-429 -436 430 0
-429 -437 431 0
430 441 0
-430 -441 0
-430 -438 426 0
-430 -439 427 0
-430 -440 428 0
-430 -442 429 0
-430 -443 431 0
431 447 0
-431 -447 0
-431 -444 426 0
-431 -445 427 0
-431 -446 428 0
-431 -448 429 0
-431 -449 430 0
453 0
432 415 0
-432 -415 0
-432 -408 433 0
-432 -411 434 0
-432 -413 435 0
-432 -417 436 0
-432 -419 437 0
433 414 0
-433 -414 0
-433 -409 432 0
-433 -410 434 0
-433 -412 435 0
-433 -416 436 0
-433 -418 437 0
434 423 0
-434 -423 0
-434 -420 432 0
-434 -421 433 0
-434 -422 435 0
-434 -424 436 0
-434 -425 437 0
435 429 0
-435 -429 0
-435 -426 432 0
-435 -427 433 0
-435 -428 434 0
-435 -430 436 0
-435 -431 437 0
436 442 0
-436 -442 0
-436 -438 432 0
-436 -439 433 0
-436 -440 434 0
-436 -441 435 0
-436 -443 437 0
437 448 0
-437 -448 0
-437 -444 432 0
-437 -445 433 0
-437 -446 434 0
-437 -447 435 0
-437 -449 436 0
454 0
438 417 0
-438 -417 0
-438 -408 439 0
-438 -411 440 0
-438 -413 441 0
-438 -415 442 0
-438 -419 443 0
439 416 0
-439 -416 0
-439 -409 438 0
-439 -410 440 0
-439 -412 441 0
-439 -414 442 0
-439 -418 443 0
440 424 0
-440 -424 0
-440 -420 438 0
-440 -421 439 0
-440 -422 441 0
-440 -423 442 0
-440 -425 443 0
441 430 0
-441 -430 0
-441 -426 438 0
-441 -427 439 0
-441 -428 440 0
-441 -429 442 0
-441 -431 443 0
442 436 0
-442 -436 0
-442 -432 438 0
-442 -433 439 0
-442 -434 440 0
-442 -435 441 0
-442 -437 443 0
443 449 0
-443 -449 0
-443 -444 438 0
-443 -445 439 0
-443 -446 440 0
-443 -447 441 0
-443 -448 442 0
455 0
444 419 0
-444 -419 0
-444 -408 445 0
-444 -411 446 0
-444 -413 447 0
-444 -415 448 0
-444 -417 449 0
445 418 0
-445 -418 0
-445 -409 444 0
-445 -410 446 0
-445 -412 447 0
-445 -414 448 0
-445 -416 449 0
446 425 0
-446 -425 0
-446 -420 444 0
-446 -421 445 0
-446 -422 447 0
-446 -423 448 0
-446 -424 449 0
447 431 0
-447 -431 0
-447 -426 444 0
-447 -427 445 0
-447 -428 446 0
-447 -429 448 0
-447 -430 449 0
448 437 0
-448 -437 0
-448 -432 444 0
-448 -433 445 0
-448 -434 446 0
-448 -435 447 0
-448 -436 449 0
449 443 0
-449 -443 0
-449 -438 444 0
-449 -439 445 0
-449 -440 446 0
-449 -441 447 0
-449 -442 448 0
-260 0
-274 408 0
-456 411 0
-456 421 0
-411 -421 456 0
-457 413 0
-457 427 0
-413 -427 457 0
-458 415 0
-458 433 0
-415 -433 458 0
-459 417 0
-459 439 0
-417 -439 459 0
-460 419 0
-460 445 0
-419 -445 460 0
-274 -456 0
-274 -457 0
-274 -458 0
-274 -459 0
-274 -460 0
-408 274 456 457 458 459 460 0
-288 411 0
-461 408 0
-461 410 0
-408 -410 461 0
-462 413 0
-462 428 0
-413 -428 462 0
-463 415 0
-463 434 0
-415 -434 463 0
-464 417 0
-464 440 0
-417 -440 464 0
-465 419 0
-465 446 0
-419 -446 465 0
-288 -461 0
-288 -462 0
-288 -463 0
-288 -464 0
-288 -465 0
-411 288 461 462 463 464 465 0
-302 413 0
-466 408 0
-466 412 0
-408 -412 466 0
-467 411 0
-467 422 0
-411 -422 467 0
-468 415 0
-468 435 0
-415 -435 468 0
-469 417 0
-469 441 0
-417 -441 469 0
-470 419 0
-470 447 0
-419 -447 470 0
-302 -466 0
-302 -467 0
-302 -468 0
-302 -469 0
-302 -470 0
-413 302 466 467 468 469 470 0
-316 415 0
-471 408 0
-471 414 0
-408 -414 471 0
-472 411 0
-472 423 0
-411 -423 472 0
-473 413 0
-473 429 0
-413 -429 473 0
-474 417 0
-474 442 0
-417 -442 474 0
-475 419 0
-475 448 0
-419 -448 475 0
-316 -471 0
-316 -472 0
-316 -473 0
-316 -474 0
-316 -475 0
-415 316 471 472 473 474 475 0
-330 417 0
-476 408 0
-476 416 0
-408 -416 476 0
-477 411 0
-477 424 0
-411 -424 477 0
-478 413 0
-478 430 0
-413 -430 478 0
-479 415 0
-479 436 0
-415 -436 479 0
-480 419 0
-480 449 0
-419 -449 480 0
-330 -476 0
-330 -477 0
-330 -478 0
-330 -479 0
-330 -480 0
-417 330 476 477 478 479 480 0
-344 419 0
-481 408 0
-481 418 0
-408 -418 481 0
-482 411 0
-482 425 0
-411 -425 482 0
-483 413 0
-483 431 0
-413 -431 483 0
-484 415 0
-484 437 0
-415 -437 484 0
-485 417 0
-485 443 0
-417 -443 485 0
-344 -481 0
-344 -482 0
-344 -483 0
-344 -484 0
-344 -485 0
-419 344 481 482 483 484 485 0
-262 409 0
-486 410 0
-486 420 0
-410 -420 486 0
-487 412 0
-487 426 0
-412 -426 487 0
-488 414 0
-488 432 0
-414 -432 488 0
-489 416 0
-489 438 0
-416 -438 489 0
-490 418 0
-490 444 0
-418 -444 490 0
-262 -486 0
-262 -487 0
-262 -488 0
-262 -489 0
-262 -490 0
-409 262 486 487 488 489 490 0
-276 0
-290 410 0
-491 409 0
-491 411 0
-409 -411 491 0
-492 412 0
-492 428 0
-412 -428 492 0
-493 414 0
-493 434 0
-414 -434 493 0
-494 416 0
-494 440 0
-416 -440 494 0
-495 418 0
-495 446 0
-418 -446 495 0
-290 -491 0
-290 -492 0
-290 -493 0
-290 -494 0
-290 -495 0
-410 290 491 492 493 494 495 0
-304 412 0
-496 409 0
-496 413 0
-409 -413 496 0
-497 410 0
-497 422 0
-410 -422 497 0
-498 414 0
-498 435 0
-414 -435 498 0
-499 416 0
-499 441 0
-416 -441 499 0
-500 418 0
-500 447 0
-418 -447 500 0
-304 -496 0
-304 -497 0
-304 -498 0
-304 -499 0
-304 -500 0
-412 304 496 497 498 499 500 0
-318 414 0
-501 409 0
-501 415 0
-409 -415 501 0
-502 410 0
-502 423 0
-410 -423 502 0
-503 412 0
-503 429 0
-412 -429 503 0
-504 416 0
-504 442 0
-416 -442 504 0
-505 418 0
-505 448 0
-418 -448 505 0
-318 -501 0
-318 -502 0
-318 -503 0
-318 -504 0
-318 -505 0
-414 318 501 502 503 504 505 0
-332 416 0
-506 409 0
-506 417 0
-409 -417 506 0
-507 410 0
-507 424 0
-410 -424 507 0
-508 412 0
-508 430 0
-412 -430 508 0
-509 414 0
-509 436 0
-414 -436 509 0
-510 418 0
-510 449 0
-418 -449 510 0
-332 -506 0
-332 -507 0
-332 -508 0
-332 -509 0
-332 -510 0
-416 332 506 507 508 509 510 0
-346 418 0
-511 409 0
-511 419 0
-409 -419 511 0
-512 410 0
-512 425 0
-410 -425 512 0
-513 412 0
-513 431 0
-412 -431 513 0
-514 414 0
-514 437 0
-414 -437 514 0
-515 416 0
-515 443 0
-416 -443 515 0
-346 -511 0
-346 -512 0
-346 -513 0
-346 -514 0
-346 -515 0
-418 346 511 512 513 514 515 0
-264 420 0
-516 421 0
-516 409 0
-421 -409 516 0
-517 422 0
-517 426 0
-422 -426 517 0
-518 423 0
-518 432 0
-423 -432 518 0
-519 424 0
-519 438 0
-424 -438 519 0
-520 425 0
-520 444 0
-425 -444 520 0
-264 -516 0
-264 -517 0
-264 -518 0
-264 -519 0
-264 -520 0
-420 264 516 517 518 519 520 0
-278 421 0
-521 420 0
-521 408 0
-420 -408 521 0
-522 422 0
-522 427 0
-422 -427 522 0
-523 423 0
-523 433 0
-423 -433 523 0
-524 424 0
-524 439 0
-424 -439 524 0
-525 425 0
-525 445 0
-425 -445 525 0
-278 -521 0
-278 -522 0
-278 -523 0
-278 -524 0
-278 -525 0
-421 278 521 522 523 524 525 0
-292 0
-306 422 0
-526 420 0
-526 413 0
-420 -413 526 0
-527 421 0
-527 412 0
-421 -412 527 0
-528 423 0
-528 435 0
-423 -435 528 0
-529 424 0
-529 441 0
-424 -441 529 0
-530 425 0
-530 447 0
-425 -447 530 0
-306 -526 0
-306 -527 0
-306 -528 0
-306 -529 0
-306 -530 0
-422 306 526 527 528 529 530 0
-320 423 0
-531 420 0
-531 415 0
-420 -415 531 0
-532 421 0
-532 414 0
-421 -414 532 0
-533 422 0
-533 429 0
-422 -429 533 0
-534 424 0
-534 442 0
-424 -442 534 0
-535 425 0
-535 448 0
-425 -448 535 0
-320 -531 0
-320 -532 0
-320 -533 0
-320 -534 0
-320 -535 0
-423 320 531 532 533 534 535 0
-334 424 0
-536 420 0
-536 417 0
-420 -417 536 0
-537 421 0
-537 416 0
-421 -416 537 0
-538 422 0
-538 430 0
-422 -430 538 0
-539 423 0
-539 436 0
-423 -436 539 0
-540 425 0
-540 449 0
-425 -449 540 0
-334 -536 0
-334 -537 0
-334 -538 0
-334 -539 0
-334 -540 0
-424 334 536 537 538 539 540 0
-348 425 0
-541 420 0
-541 419 0
-420 -419 541 0
-542 421 0
-542 418 0
-421 -418 542 0
-543 422 0
-543 431 0
-422 -431 543 0
-544 423 0
-544 437 0
-423 -437 544 0
-545 424 0
-545 443 0
-424 -443 545 0
-348 -541 0
-348 -542 0
-348 -543 0
-348 -544 0
-348 -545 0
-425 348 541 542 543 544 545 0
-266 426 0
-546 427 0
-546 409 0
-427 -409 546 0
-547 428 0
-547 420 0
-428 -420 547 0
-548 429 0
-548 432 0
-429 -432 548 0
-549 430 0
-549 438 0
-430 -438 549 0
-550 431 0
-550 444 0
-431 -444 550 0
-266 -546 0
-266 -547 0
-266 -548 0
-266 -549 0
-266 -550 0
-426 266 546 547 548 549 550 0
-280 427 0
-551 426 0
-551 408 0
-426 -408 551 0
-552 428 0
-552 421 0
-428 -421 552 0
-553 429 0
-553 433 0
-429 -433 553 0
-554 430 0
-554 439 0
-430 -439 554 0
-555 431 0
-555 445 0
-431 -445 555 0
-280 -551 0
-280 -552 0
-280 -553 0
-280 -554 0
-280 -555 0
-427 280 551 552 553 554 555 0
-294 428 0
-556 426 0
-556 411 0
-426 -411 556 0
-557 427 0
-557 410 0
-427 -410 557 0
-558 429 0
-558 434 0
-429 -434 558 0
-559 430 0
-559 440 0
-430 -440 559 0
-560 431 0
-560 446 0
-431 -446 560 0
-294 -556 0
-294 -557 0
-294 -558 0
-294 -559 0
-294 -560 0
-428 294 556 557 558 559 560 0
-308 0
-322 429 0
-561 426 0
-561 415 0
-426 -415 561 0
-562 427 0
-562 414 0
-427 -414 562 0
-563 428 0
-563 423 0
-428 -423 563 0
-564 430 0
-564 442 0
-430 -442 564 0
-565 431 0
-565 448 0
-431 -448 565 0
-322 -561 0
-322 -562 0
-322 -563 0
-322 -564 0
-322 -565 0
-429 322 561 562 563 564 565 0
-336 430 0
-566 426 0
-566 417 0
-426 -417 566 0
-567 427 0
-567 416 0
-427 -416 567 0
-568 428 0
-568 424 0
-428 -424 568 0
-569 429 0
-569 436 0
-429 -436 569 0
-570 431 0
-570 449 0
-431 -449 570 0
-336 -566 0
-336 -567 0
-336 -568 0
-336 -569 0
-336 -570 0
-430 336 566 567 568 569 570 0
-350 431 0
-571 426 0
-571 419 0
-426 -419 571 0
-572 427 0
-572 418 0
-427 -418 572 0
-573 428 0
-573 425 0
-428 -425 573 0
-574 429 0
-574 437 0
-429 -437 574 0
-575 430 0
-575 443 0
-430 -443 575 0
-350 -571 0
-350 -572 0
-350 -573 0
-350 -574 0
-350 -575 0
-431 350 571 572 573 574 575 0
-268 432 0
-576 433 0
-576 409 0
-433 -409 576 0
-577 434 0
-577 420 0
-434 -420 577 0
-578 435 0
-578 426 0
-435 -426 578 0
-579 436 0
-579 438 0
-436 -438 579 0
-580 437 0
-580 444 0
-437 -444 580 0
-268 -576 0
-268 -577 0
-268 -578 0
-268 -579 0
-268 -580 0
-432 268 576 577 578 579 580 0
-282 433 0
-581 432 0
-581 408 0
-432 -408 581 0
-582 434 0
-582 421 0
-434 -421 582 0
-583 435 0
-583 427 0
-435 -427 583 0
-584 436 0
-584 439 0
-436 -439 584 0
-585 437 0
-585 445 0
-437 -445 585 0
-282 -581 0
-282 -582 0
-282 -583 0
-282 -584 0
-282 -585 0
-433 282 581 582 583 584 585 0
-296 434 0
-586 432 0
-586 411 0
-432 -411 586 0
-587 433 0
-587 410 0
-433 -410 587 0
-588 435 0
-588 428 0
-435 -428 588 0
-589 436 0
-589 440 0
-436 -440 589 0
-590 437 0
-590 446 0
-437 -446 590 0
-296 -586 0
-296 -587 0
-296 -588 0
-296 -589 0
-296 -590 0
-434 296 586 587 588 589 590 0
-310 435 0
-591 432 0
-591 413 0
-432 -413 591 0
-592 433 0
-592 412 0
-433 -412 592 0
-593 434 0
-593 422 0
-434 -422 593 0
-594 436 0
-594 441 0
-436 -441 594 0
-595 437 0
-595 447 0
-437 -447 595 0
-310 -591 0
-310 -592 0
-310 -593 0
-310 -594 0
-310 -595 0
-435 310 591 592 593 594 595 0
-324 0
-338 436 0
-596 432 0
-596 417 0
-432 -417 596 0
-597 433 0
-597 416 0
-433 -416 597 0
-598 434 0
-598 424 0
-434 -424 598 0
-599 435 0
-599 430 0
-435 -430 599 0
-600 437 0
-600 449 0
-437 -449 600 0
-338 -596 0
-338 -597 0
-338 -598 0
-338 -599 0
-338 -600 0
-436 338 596 597 598 599 600 0
-352 437 0
-601 432 0
-601 419 0
-432 -419 601 0
-602 433 0
-602 418 0
-433 -418 602 0
-603 434 0
-603 425 0
-434 -425 603 0
-604 435 0
-604 431 0
-435 -431 604 0
-605 436 0
-605 443 0
-436 -443 605 0
-352 -601 0
-352 -602 0
-352 -603 0
-352 -604 0
-352 -605 0
-437 352 601 602 603 604 605 0
-270 438 0
-606 439 0
-606 409 0
-439 -409 606 0
-607 440 0
-607 420 0
-440 -420 607 0
-608 441 0
-608 426 0
-441 -426 608 0
-609 442 0
-609 432 0
-442 -432 609 0
-610 443 0
-610 444 0
-443 -444 610 0
-270 -606 0
-270 -607 0
-270 -608 0
-270 -609 0
-270 -610 0
-438 270 606 607 608 609 610 0
-284 439 0
-611 438 0
-611 408 0
-438 -408 611 0
-612 440 0
-612 421 0
-440 -421 612 0
-613 441 0
-613 427 0
-441 -427 613 0
-614 442 0
-614 433 0
-442 -433 614 0
-615 443 0
-615 445 0
-443 -445 615 0
-284 -611 0
-284 -612 0
-284 -613 0
-284 -614 0
-284 -615 0
-439 284 611 612 613 614 615 0
-298 440 0
-616 438 0
-616 411 0
-438 -411 616 0
-617 439 0
-617 410 0
-439 -410 617 0
-618 441 0
-618 428 0
-441 -428 618 0
-619 442 0
-619 434 0
-442 -434 619 0
-620 443 0
-620 446 0
-443 -446 620 0
-298 -616 0
-298 -617 0
-298 -618 0
-298 -619 0
-298 -620 0
-440 298 616 617 618 619 620 0
-312 441 0
-621 438 0
-621 413 0
-438 -413 621 0
-622 439 0
-622 412 0
-439 -412 622 0
-623 440 0
-623 422 0
-440 -422 623 0
-624 442 0
-624 435 0
-442 -435 624 0
-625 443 0
-625 447 0
-443 -447 625 0
-312 -621 0
-312 -622 0
-312 -623 0
-312 -624 0
-312 -625 0
-441 312 621 622 623 624 625 0
-326 442 0
-626 438 0
-626 415 0
-438 -415 626 0
-627 439 0
-627 414 0
-439 -414 627 0
-628 440 0
-628 423 0
-440 -423 628 0
-629 441 0
-629 429 0
-441 -429 629 0
-630 443 0
-630 448 0
-443 -448 630 0
-326 -626 0
-326 -627 0
-326 -628 0
-326 -629 0
-326 -630 0
-442 326 626 627 628 629 630 0
-340 0
-354 443 0
-631 438 0
-631 419 0
-438 -419 631 0
-632 439 0
-632 418 0
-439 -418 632 0
-633 440 0
-633 425 0
-440 -425 633 0
-634 441 0
-634 431 0
-441 -431 634 0
-635 442 0
-635 437 0
-442 -437 635 0
-354 -631 0
-354 -632 0
-354 -633 0
-354 -634 0
-354 -635 0
-443 354 631 632 633 634 635 0
-272 444 0
-636 445 0
-636 409 0
-445 -409 636 0
-637 446 0
-637 420 0
-446 -420 637 0
-638 447 0
-638 426 0
-447 -426 638 0
-639 448 0
-639 432 0
-448 -432 639 0
-640 449 0
-640 438 0
-449 -438 640 0
-272 -636 0
-272 -637 0
-272 -638 0
-272 -639 0
-272 -640 0
-444 272 636 637 638 639 640 0
-286 445 0
-641 444 0
-641 408 0
-444 -408 641 0
-642 446 0
-642 421 0
-446 -421 642 0
-643 447 0
-643 427 0
-447 -427 643 0
-644 448 0
-644 433 0
-448 -433 644 0
-645 449 0
-645 439 0
-449 -439 645 0
-286 -641 0
-286 -642 0
-286 -643 0
-286 -644 0
-286 -645 0
-445 286 641 642 643 644 645 0
-300 446 0
-646 444 0
-646 411 0
-444 -411 646 0
-647 445 0
-647 410 0
-445 -410 647 0
-648 447 0
-648 428 0
-447 -428 648 0
-649 448 0
-649 434 0
-448 -434 649 0
-650 449 0
-650 440 0
-449 -440 650 0
-300 -646 0
-300 -647 0
-300 -648 0
-300 -649 0
-300 -650 0
-446 300 646 647 648 649 650 0
-314 447 0
-651 444 0
-651 413 0
-444 -413 651 0
-652 445 0
-652 412 0
-445 -412 652 0
-653 446 0
-653 422 0
-446 -422 653 0
-654 448 0
-654 435 0
-448 -435 654 0
-655 449 0
-655 441 0
-449 -441 655 0
-314 -651 0
-314 -652 0
-314 -653 0
-314 -654 0
-314 -655 0
-447 314 651 652 653 654 655 0
-328 448 0
-656 444 0
-656 415 0
-444 -415 656 0
-657 445 0
-657 414 0
-445 -414 657 0
-658 446 0
-658 423 0
-446 -423 658 0
-659 447 0
-659 429 0
-447 -429 659 0
-660 449 0
-660 442 0
-449 -442 660 0
-328 -656 0
-328 -657 0
-328 -658 0
-328 -659 0
-328 -660 0
-448 328 656 657 658 659 660 0
-342 449 0
-661 444 0
-661 417 0
-444 -417 661 0
-662 445 0
-662 416 0
-445 -416 662 0
-663 446 0
-663 424 0
-446 -424 663 0
-664 447 0
-664 430 0
-447 -430 664 0
-665 448 0
-665 436 0
-448 -436 665 0
-342 -661 0
-342 -662 0
-342 -663 0
-342 -664 0
-342 -665 0
-449 342 661 662 663 664 665 0
-356 0
