p cnf 928 3592
-1 -2 3 0
-4 -2 5 0
-6 -2 7 0
-8 -2 9 0
-10 -2 11 0
-12 -2 13 0
-14 -2 15 0
-16 -2 17 0
-1 -18 19 0
-4 -18 20 0
-6 -18 21 0
-8 -18 22 0
-10 -18 23 0
-12 -18 24 0
-14 -18 25 0
-16 -18 26 0
-1 -27 28 0
-4 -27 29 0
-6 -27 30 0
-8 -27 31 0
-10 -27 32 0
-12 -27 33 0
-14 -27 34 0
-16 -27 35 0
-1 -36 37 0
-4 -36 38 0
-6 -36 39 0
-8 -36 40 0
-10 -36 41 0
-12 -36 42 0
-14 -36 43 0
-16 -36 44 0
-1 -45 46 0
-4 -45 47 0
-6 -45 48 0
-8 -45 49 0
-10 -45 50 0
-12 -45 51 0
-14 -45 52 0
-16 -45 53 0
-1 -54 55 0
-4 -54 56 0
-6 -54 57 0
-8 -54 58 0
-10 -54 59 0
-12 -54 60 0
-14 -54 61 0
-16 -54 62 0
-1 -63 64 0
-4 -63 65 0
-6 -63 66 0
-8 -63 67 0
-10 -63 68 0
-12 -63 69 0
-14 -63 70 0
-16 -63 71 0
-1 -72 73 0
-4 -72 74 0
-6 -72 75 0
-8 -72 76 0
-10 -72 77 0
-12 -72 78 0
-14 -72 79 0
-16 -72 80 0
-3 1 0
-5 4 0
-7 6 0
-9 8 0
-11 10 0
-13 12 0
-15 14 0
-17 16 0
-19 1 0
-20 4 0
-21 6 0
-22 8 0
-23 10 0
-24 12 0
-25 14 0
-26 16 0
-28 1 0
-29 4 0
-30 6 0
-31 8 0
-32 10 0
-33 12 0
-34 14 0
-35 16 0
-37 1 0
-38 4 0
-39 6 0
-40 8 0
-41 10 0
-42 12 0
-43 14 0
-44 16 0
-46 1 0
-47 4 0
-48 6 0
-49 8 0
-50 10 0
-51 12 0
-52 14 0
-53 16 0
-55 1 0
-56 4 0
-57 6 0
-58 8 0
-59 10 0
-60 12 0
-61 14 0
-62 16 0
-64 1 0
-65 4 0
-66 6 0
-67 8 0
-68 10 0
-69 12 0
-70 14 0
-71 16 0
-73 1 0
-74 4 0
-75 6 0
-76 8 0
-77 10 0
-78 12 0
-79 14 0
-80 16 0
-3 2 0
-5 2 0
-7 2 0
-9 2 0
-11 2 0
-13 2 0
-15 2 0
-17 2 0
-19 18 0
-20 18 0
-21 18 0
-22 18 0
-23 18 0
-24 18 0
-25 18 0
-26 18 0
-28 27 0
-29 27 0
-30 27 0
-31 27 0
-32 27 0
-33 27 0
-34 27 0
-35 27 0
-37 36 0
-38 36 0
-39 36 0
-40 36 0
-41 36 0
-42 36 0
-43 36 0
-44 36 0
-46 45 0
-47 45 0
-48 45 0
-49 45 0
-50 45 0
-51 45 0
-52 45 0
-53 45 0
-55 54 0
-56 54 0
-57 54 0
-58 54 0
-59 54 0
-60 54 0
-61 54 0
-62 54 0
-64 63 0
-65 63 0
-66 63 0
-67 63 0
-68 63 0
-69 63 0
-70 63 0
-71 63 0
-73 72 0
-74 72 0
-75 72 0
-76 72 0
-77 72 0
-78 72 0
-79 72 0
-80 72 0
-81 3 -82 0
-83 5 -84 0
-85 7 -86 0
-87 9 -88 0
-89 11 -90 0
-91 13 -92 0
-93 15 -94 0
-95 17 -96 0
-97 19 -98 0
-99 20 -100 0
-101 21 -102 0
-103 22 -104 0
-105 23 -106 0
-107 24 -108 0
-109 25 -110 0
-111 26 -112 0
-113 28 -114 0
-115 29 -116 0
-117 30 -118 0
-119 31 -120 0
-121 32 -122 0
-123 33 -124 0
-125 34 -126 0
-127 35 -128 0
-129 37 -130 0
-131 38 -132 0
-133 39 -134 0
-135 40 -136 0
-137 41 -138 0
-139 42 -140 0
-141 43 -142 0
-143 44 -144 0
-145 46 -146 0
-147 47 -148 0
-149 48 -150 0
-151 49 -152 0
-153 50 -154 0
-155 51 -156 0
-157 52 -158 0
-159 53 -160 0
-161 55 -162 0
-163 56 -164 0
-165 57 -166 0
-167 58 -168 0
-169 59 -170 0
-171 60 -172 0
-173 61 -174 0
-175 62 -176 0
-177 64 -178 0
-179 65 -180 0
-181 66 -182 0
-183 67 -184 0
-185 68 -186 0
-187 69 -188 0
-189 70 -190 0
-191 71 -192 0
-193 73 -194 0
-195 74 -196 0
-197 75 -198 0
-199 76 -200 0
-201 77 -202 0
-203 78 -204 0
-205 79 -206 0
-207 80 -208 0
82 81 0
84 83 0
86 85 0
88 87 0
90 89 0
92 91 0
94 93 0
96 95 0
98 97 0
100 99 0
102 101 0
104 103 0
106 105 0
108 107 0
110 109 0
112 111 0
114 113 0
116 115 0
118 117 0
120 119 0
122 121 0
124 123 0
126 125 0
128 127 0
130 129 0
132 131 0
134 133 0
136 135 0
138 137 0
140 139 0
142 141 0
144 143 0
146 145 0
148 147 0
150 149 0
152 151 0
154 153 0
156 155 0
158 157 0
160 159 0
162 161 0
164 163 0
166 165 0
168 167 0
170 169 0
172 171 0
174 173 0
176 175 0
178 177 0
180 179 0
182 181 0
184 183 0
186 185 0
188 187 0
190 189 0
192 191 0
194 193 0
196 195 0
198 197 0
200 199 0
202 201 0
204 203 0
206 205 0
208 207 0
82 -3 0
84 -5 0
86 -7 0
88 -9 0
90 -11 0
92 -13 0
94 -15 0
96 -17 0
98 -19 0
100 -20 0
102 -21 0
104 -22 0
106 -23 0
108 -24 0
110 -25 0
112 -26 0
114 -28 0
116 -29 0
118 -30 0
120 -31 0
122 -32 0
124 -33 0
126 -34 0
128 -35 0
130 -37 0
132 -38 0
134 -39 0
136 -40 0
138 -41 0
140 -42 0
142 -43 0
144 -44 0
146 -46 0
148 -47 0
150 -48 0
152 -49 0
154 -50 0
156 -51 0
158 -52 0
160 -53 0
162 -55 0
164 -56 0
166 -57 0
168 -58 0
170 -59 0
172 -60 0
174 -61 0
176 -62 0
178 -64 0
180 -65 0
182 -66 0
184 -67 0
186 -68 0
188 -69 0
190 -70 0
192 -71 0
194 -73 0
196 -74 0
198 -75 0
200 -76 0
202 -77 0
204 -78 0
206 -79 0
208 -80 0
1 -209 -1 -210 0
1 -211 -4 -212 0
1 -213 -6 -214 0
1 -215 -8 -216 0
1 -217 -10 -218 0
1 -219 -12 -220 0
1 -221 -14 -222 0
1 -223 -16 -224 0
4 -225 -1 -226 0
4 -227 -4 -228 0
4 -229 -6 -230 0
4 -231 -8 -232 0
4 -233 -10 -234 0
4 -235 -12 -236 0
4 -237 -14 -238 0
4 -239 -16 -240 0
6 -241 -1 -242 0
6 -243 -4 -244 0
6 -245 -6 -246 0
6 -247 -8 -248 0
6 -249 -10 -250 0
6 -251 -12 -252 0
6 -253 -14 -254 0
6 -255 -16 -256 0
8 -257 -1 -258 0
8 -259 -4 -260 0
8 -261 -6 -262 0
8 -263 -8 -264 0
8 -265 -10 -266 0
8 -267 -12 -268 0
8 -269 -14 -270 0
8 -271 -16 -272 0
10 -273 -1 -274 0
10 -275 -4 -276 0
10 -277 -6 -278 0
10 -279 -8 -280 0
10 -281 -10 -282 0
10 -283 -12 -284 0
10 -285 -14 -286 0
10 -287 -16 -288 0
12 -289 -1 -290 0
12 -291 -4 -292 0
12 -293 -6 -294 0
12 -295 -8 -296 0
12 -297 -10 -298 0
12 -299 -12 -300 0
12 -301 -14 -302 0
12 -303 -16 -304 0
14 -305 -1 -306 0
14 -307 -4 -308 0
14 -309 -6 -310 0
14 -311 -8 -312 0
14 -313 -10 -314 0
14 -315 -12 -316 0
14 -317 -14 -318 0
14 -319 -16 -320 0
16 -321 -1 -322 0
16 -323 -4 -324 0
16 -325 -6 -326 0
16 -327 -8 -328 0
16 -329 -10 -330 0
16 -331 -12 -332 0
16 -333 -14 -334 0
16 -335 -16 -336 0
210 -1 0
212 -1 0
214 -1 0
216 -1 0
218 -1 0
220 -1 0
222 -1 0
224 -1 0
226 -4 0
228 -4 0
230 -4 0
232 -4 0
234 -4 0
236 -4 0
238 -4 0
240 -4 0
242 -6 0
244 -6 0
246 -6 0
248 -6 0
250 -6 0
252 -6 0
254 -6 0
256 -6 0
258 -8 0
260 -8 0
262 -8 0
264 -8 0
266 -8 0
268 -8 0
270 -8 0
272 -8 0
274 -10 0
276 -10 0
278 -10 0
280 -10 0
282 -10 0
284 -10 0
286 -10 0
288 -10 0
290 -12 0
292 -12 0
294 -12 0
296 -12 0
298 -12 0
300 -12 0
302 -12 0
304 -12 0
306 -14 0
308 -14 0
310 -14 0
312 -14 0
314 -14 0
316 -14 0
318 -14 0
320 -14 0
322 -16 0
324 -16 0
326 -16 0
328 -16 0
330 -16 0
332 -16 0
334 -16 0
336 -16 0
210 209 0
212 211 0
214 213 0
216 215 0
218 217 0
220 219 0
222 221 0
224 223 0
226 225 0
228 227 0
230 229 0
232 231 0
234 233 0
236 235 0
238 237 0
240 239 0
242 241 0
244 243 0
246 245 0
248 247 0
250 249 0
252 251 0
254 253 0
256 255 0
258 257 0
260 259 0
262 261 0
264 263 0
266 265 0
268 267 0
270 269 0
272 271 0
274 273 0
276 275 0
278 277 0
280 279 0
282 281 0
284 283 0
286 285 0
288 287 0
290 289 0
292 291 0
294 293 0
296 295 0
298 297 0
300 299 0
302 301 0
304 303 0
306 305 0
308 307 0
310 309 0
312 311 0
314 313 0
316 315 0
318 317 0
320 319 0
322 321 0
324 323 0
326 325 0
328 327 0
330 329 0
332 331 0
334 333 0
336 335 0
210 1 0
212 4 0
214 6 0
216 8 0
218 10 0
220 12 0
222 14 0
224 16 0
226 1 0
228 4 0
230 6 0
232 8 0
234 10 0
236 12 0
238 14 0
240 16 0
242 1 0
244 4 0
246 6 0
248 8 0
250 10 0
252 12 0
254 14 0
256 16 0
258 1 0
260 4 0
262 6 0
264 8 0
266 10 0
268 12 0
270 14 0
272 16 0
274 1 0
276 4 0
278 6 0
280 8 0
282 10 0
284 12 0
286 14 0
288 16 0
290 1 0
292 4 0
294 6 0
296 8 0
298 10 0
300 12 0
302 14 0
304 16 0
306 1 0
308 4 0
310 6 0
312 8 0
314 10 0
316 12 0
318 14 0
320 16 0
322 1 0
324 4 0
326 6 0
328 8 0
330 10 0
332 12 0
334 14 0
336 16 0
2 -337 -1 -338 0
2 -339 -4 -340 0
2 -341 -6 -342 0
2 -343 -8 -344 0
2 -345 -10 -346 0
2 -347 -12 -348 0
2 -349 -14 -350 0
2 -351 -16 -352 0
18 -353 -1 -354 0
18 -355 -4 -356 0
18 -357 -6 -358 0
18 -359 -8 -360 0
18 -361 -10 -362 0
18 -363 -12 -364 0
18 -365 -14 -366 0
18 -367 -16 -368 0
27 -369 -1 -370 0
27 -371 -4 -372 0
27 -373 -6 -374 0
27 -375 -8 -376 0
27 -377 -10 -378 0
27 -379 -12 -380 0
27 -381 -14 -382 0
27 -383 -16 -384 0
36 -385 -1 -386 0
36 -387 -4 -388 0
36 -389 -6 -390 0
36 -391 -8 -392 0
36 -393 -10 -394 0
36 -395 -12 -396 0
36 -397 -14 -398 0
36 -399 -16 -400 0
45 -401 -1 -402 0
45 -403 -4 -404 0
45 -405 -6 -406 0
45 -407 -8 -408 0
45 -409 -10 -410 0
45 -411 -12 -412 0
45 -413 -14 -414 0
45 -415 -16 -416 0
54 -417 -1 -418 0
54 -419 -4 -420 0
54 -421 -6 -422 0
54 -423 -8 -424 0
54 -425 -10 -426 0
54 -427 -12 -428 0
54 -429 -14 -430 0
54 -431 -16 -432 0
63 -433 -1 -434 0
63 -435 -4 -436 0
63 -437 -6 -438 0
63 -439 -8 -440 0
63 -441 -10 -442 0
63 -443 -12 -444 0
63 -445 -14 -446 0
63 -447 -16 -448 0
72 -449 -1 -450 0
72 -451 -4 -452 0
72 -453 -6 -454 0
72 -455 -8 -456 0
72 -457 -10 -458 0
72 -459 -12 -460 0
72 -461 -14 -462 0
72 -463 -16 -464 0
338 -2 0
340 -2 0
342 -2 0
344 -2 0
346 -2 0
348 -2 0
350 -2 0
352 -2 0
354 -18 0
356 -18 0
358 -18 0
360 -18 0
362 -18 0
364 -18 0
366 -18 0
368 -18 0
370 -27 0
372 -27 0
374 -27 0
376 -27 0
378 -27 0
380 -27 0
382 -27 0
384 -27 0
386 -36 0
388 -36 0
390 -36 0
392 -36 0
394 -36 0
396 -36 0
398 -36 0
400 -36 0
402 -45 0
404 -45 0
406 -45 0
408 -45 0
410 -45 0
412 -45 0
414 -45 0
416 -45 0
418 -54 0
420 -54 0
422 -54 0
424 -54 0
426 -54 0
428 -54 0
430 -54 0
432 -54 0
434 -63 0
436 -63 0
438 -63 0
440 -63 0
442 -63 0
444 -63 0
446 -63 0
448 -63 0
450 -72 0
452 -72 0
454 -72 0
456 -72 0
458 -72 0
460 -72 0
462 -72 0
464 -72 0
338 337 0
340 339 0
342 341 0
344 343 0
346 345 0
348 347 0
350 349 0
352 351 0
354 353 0
356 355 0
358 357 0
360 359 0
362 361 0
364 363 0
366 365 0
368 367 0
370 369 0
372 371 0
374 373 0
376 375 0
378 377 0
380 379 0
382 381 0
384 383 0
386 385 0
388 387 0
390 389 0
392 391 0
394 393 0
396 395 0
398 397 0
400 399 0
402 401 0
404 403 0
406 405 0
408 407 0
410 409 0
412 411 0
414 413 0
416 415 0
418 417 0
420 419 0
422 421 0
424 423 0
426 425 0
428 427 0
430 429 0
432 431 0
434 433 0
436 435 0
438 437 0
440 439 0
442 441 0
444 443 0
446 445 0
448 447 0
450 449 0
452 451 0
454 453 0
456 455 0
458 457 0
460 459 0
462 461 0
464 463 0
338 1 0
340 4 0
342 6 0
344 8 0
346 10 0
348 12 0
350 14 0
352 16 0
354 1 0
356 4 0
358 6 0
360 8 0
362 10 0
364 12 0
366 14 0
368 16 0
370 1 0
372 4 0
374 6 0
376 8 0
378 10 0
380 12 0
382 14 0
384 16 0
386 1 0
388 4 0
390 6 0
392 8 0
394 10 0
396 12 0
398 14 0
400 16 0
402 1 0
404 4 0
406 6 0
408 8 0
410 10 0
412 12 0
414 14 0
416 16 0
418 1 0
420 4 0
422 6 0
424 8 0
426 10 0
428 12 0
430 14 0
432 16 0
434 1 0
436 4 0
438 6 0
440 8 0
442 10 0
444 12 0
446 14 0
448 16 0
450 1 0
452 4 0
454 6 0
456 8 0
458 10 0
460 12 0
462 14 0
464 16 0
-82 -210 -338 465 0
-84 -212 -340 466 0
-86 -214 -342 467 0
-88 -216 -344 468 0
-90 -218 -346 469 0
-92 -220 -348 470 0
-94 -222 -350 471 0
-96 -224 -352 472 0
-98 -226 -354 473 0
-100 -228 -356 474 0
-102 -230 -358 475 0
-104 -232 -360 476 0
-106 -234 -362 477 0
-108 -236 -364 478 0
-110 -238 -366 479 0
-112 -240 -368 480 0
-114 -242 -370 481 0
-116 -244 -372 482 0
-118 -246 -374 483 0
-120 -248 -376 484 0
-122 -250 -378 485 0
-124 -252 -380 486 0
-126 -254 -382 487 0
-128 -256 -384 488 0
-130 -258 -386 489 0
-132 -260 -388 490 0
-134 -262 -390 491 0
-136 -264 -392 492 0
-138 -266 -394 493 0
-140 -268 -396 494 0
-142 -270 -398 495 0
-144 -272 -400 496 0
-146 -274 -402 497 0
-148 -276 -404 498 0
-150 -278 -406 499 0
-152 -280 -408 500 0
-154 -282 -410 501 0
-156 -284 -412 502 0
-158 -286 -414 503 0
-160 -288 -416 504 0
-162 -290 -418 505 0
-164 -292 -420 506 0
-166 -294 -422 507 0
-168 -296 -424 508 0
-170 -298 -426 509 0
-172 -300 -428 510 0
-174 -302 -430 511 0
-176 -304 -432 512 0
-178 -306 -434 513 0
-180 -308 -436 514 0
-182 -310 -438 515 0
-184 -312 -440 516 0
-186 -314 -442 517 0
-188 -316 -444 518 0
-190 -318 -446 519 0
-192 -320 -448 520 0
-194 -322 -450 521 0
-196 -324 -452 522 0
-198 -326 -454 523 0
-200 -328 -456 524 0
-202 -330 -458 525 0
-204 -332 -460 526 0
-206 -334 -462 527 0
-208 -336 -464 528 0
-465 82 0
-466 84 0
-467 86 0
-468 88 0
-469 90 0
-470 92 0
-471 94 0
-472 96 0
-473 98 0
-474 100 0
-475 102 0
-476 104 0
-477 106 0
-478 108 0
-479 110 0
-480 112 0
-481 114 0
-482 116 0
-483 118 0
-484 120 0
-485 122 0
-486 124 0
-487 126 0
-488 128 0
-489 130 0
-490 132 0
-491 134 0
-492 136 0
-493 138 0
-494 140 0
-495 142 0
-496 144 0
-497 146 0
-498 148 0
-499 150 0
-500 152 0
-501 154 0
-502 156 0
-503 158 0
-504 160 0
-505 162 0
-506 164 0
-507 166 0
-508 168 0
-509 170 0
-510 172 0
-511 174 0
-512 176 0
-513 178 0
-514 180 0
-515 182 0
-516 184 0
-517 186 0
-518 188 0
-519 190 0
-520 192 0
-521 194 0
-522 196 0
-523 198 0
-524 200 0
-525 202 0
-526 204 0
-527 206 0
-528 208 0
-465 210 0
-466 212 0
-467 214 0
-468 216 0
-469 218 0
-470 220 0
-471 222 0
-472 224 0
-473 226 0
-474 228 0
-475 230 0
-476 232 0
-477 234 0
-478 236 0
-479 238 0
-480 240 0
-481 242 0
-482 244 0
-483 246 0
-484 248 0
-485 250 0
-486 252 0
-487 254 0
-488 256 0
-489 258 0
-490 260 0
-491 262 0
-492 264 0
-493 266 0
-494 268 0
-495 270 0
-496 272 0
-497 274 0
-498 276 0
-499 278 0
-500 280 0
-501 282 0
-502 284 0
-503 286 0
-504 288 0
-505 290 0
-506 292 0
-507 294 0
-508 296 0
-509 298 0
-510 300 0
-511 302 0
-512 304 0
-513 306 0
-514 308 0
-515 310 0
-516 312 0
-517 314 0
-518 316 0
-519 318 0
-520 320 0
-521 322 0
-522 324 0
-523 326 0
-524 328 0
-525 330 0
-526 332 0
-527 334 0
-528 336 0
-465 338 0
-466 340 0
-467 342 0
-468 344 0
-469 346 0
-470 348 0
-471 350 0
-472 352 0
-473 354 0
-474 356 0
-475 358 0
-476 360 0
-477 362 0
-478 364 0
-479 366 0
-480 368 0
-481 370 0
-482 372 0
-483 374 0
-484 376 0
-485 378 0
-486 380 0
-487 382 0
-488 384 0
-489 386 0
-490 388 0
-491 390 0
-492 392 0
-493 394 0
-494 396 0
-495 398 0
-496 400 0
-497 402 0
-498 404 0
-499 406 0
-500 408 0
-501 410 0
-502 412 0
-503 414 0
-504 416 0
-505 418 0
-506 420 0
-507 422 0
-508 424 0
-509 426 0
-510 428 0
-511 430 0
-512 432 0
-513 434 0
-514 436 0
-515 438 0
-516 440 0
-517 442 0
-518 444 0
-519 446 0
-520 448 0
-521 450 0
-522 452 0
-523 454 0
-524 456 0
-525 458 0
-526 460 0
-527 462 0
-528 464 0
465 0
466 0
467 0
468 0
469 0
470 0
471 0
472 0
473 0
474 0
475 0
476 0
477 0
478 0
479 0
480 0
481 0
482 0
483 0
484 0
485 0
486 0
487 0
488 0
489 0
490 0
491 0
492 0
493 0
494 0
495 0
496 0
497 0
498 0
499 0
500 0
501 0
502 0
503 0
504 0
505 0
506 0
507 0
508 0
509 0
510 0
511 0
512 0
513 0
514 0
515 0
516 0
517 0
518 0
519 0
520 0
521 0
522 0
523 0
524 0
525 0
526 0
527 0
528 0
209 0
225 211 0
-225 -211 0
-225 -243 241 0
-225 -259 257 0
-225 -275 273 0
-225 -291 289 0
-225 -307 305 0
-225 -323 321 0
241 213 0
-241 -213 0
-241 -229 225 0
-241 -261 257 0
-241 -277 273 0
-241 -293 289 0
-241 -309 305 0
-241 -325 321 0
257 215 0
-257 -215 0
-257 -231 225 0
-257 -247 241 0
-257 -279 273 0
-257 -295 289 0
-257 -311 305 0
-257 -327 321 0
273 217 0
-273 -217 0
-273 -233 225 0
-273 -249 241 0
-273 -265 257 0
-273 -297 289 0
-273 -313 305 0
-273 -329 321 0
289 219 0
-289 -219 0
-289 -235 225 0
-289 -251 241 0
-289 -267 257 0
-289 -283 273 0
-289 -315 305 0
-289 -331 321 0
305 221 0
-305 -221 0
-305 -237 225 0
-305 -253 241 0
-305 -269 257 0
-305 -285 273 0
-305 -301 289 0
-305 -333 321 0
321 223 0
-321 -223 0
-321 -239 225 0
-321 -255 241 0
-321 -271 257 0
-321 -287 273 0
-321 -303 289 0
-321 -319 305 0
227 0
211 225 0
-211 -225 0
-211 -241 243 0
-211 -257 259 0
-211 -273 275 0
-211 -289 291 0
-211 -305 307 0
-211 -321 323 0
243 229 0
-243 -229 0
-243 -213 211 0
-243 -261 259 0
-243 -277 275 0
-243 -293 291 0
-243 -309 307 0
-243 -325 323 0
259 231 0
-259 -231 0
-259 -215 211 0
-259 -247 243 0
-259 -279 275 0
-259 -295 291 0
-259 -311 307 0
-259 -327 323 0
275 233 0
-275 -233 0
-275 -217 211 0
-275 -249 243 0
-275 -265 259 0
-275 -297 291 0
-275 -313 307 0
-275 -329 323 0
291 235 0
-291 -235 0
-291 -219 211 0
-291 -251 243 0
-291 -267 259 0
-291 -283 275 0
-291 -315 307 0
-291 -331 323 0
307 237 0
-307 -237 0
-307 -221 211 0
-307 -253 243 0
-307 -269 259 0
-307 -285 275 0
-307 -301 291 0
-307 -333 323 0
323 239 0
-323 -239 0
-323 -223 211 0
-323 -255 243 0
-323 -271 259 0
-323 -287 275 0
-323 -303 291 0
-323 -319 307 0
245 0
213 241 0
-213 -241 0
-213 -225 229 0
-213 -257 261 0
-213 -273 277 0
-213 -289 293 0
-213 -305 309 0
-213 -321 325 0
229 243 0
-229 -243 0
-229 -211 213 0
-229 -259 261 0
-229 -275 277 0
-229 -291 293 0
-229 -307 309 0
-229 -323 325 0
261 247 0
-261 -247 0
-261 -215 213 0
-261 -231 229 0
-261 -279 277 0
-261 -295 293 0
-261 -311 309 0
-261 -327 325 0
277 249 0
-277 -249 0
-277 -217 213 0
-277 -233 229 0
-277 -265 261 0
-277 -297 293 0
-277 -313 309 0
-277 -329 325 0
293 251 0
-293 -251 0
-293 -219 213 0
-293 -235 229 0
-293 -267 261 0
-293 -283 277 0
-293 -315 309 0
-293 -331 325 0
309 253 0
-309 -253 0
-309 -221 213 0
-309 -237 229 0
-309 -269 261 0
-309 -285 277 0
-309 -301 293 0
-309 -333 325 0
325 255 0
-325 -255 0
-325 -223 213 0
-325 -239 229 0
-325 -271 261 0
-325 -287 277 0
-325 -303 293 0
-325 -319 309 0
263 0
215 257 0
-215 -257 0
-215 -225 231 0
-215 -241 247 0
-215 -273 279 0
-215 -289 295 0
-215 -305 311 0
-215 -321 327 0
231 259 0
-231 -259 0
-231 -211 215 0
-231 -243 247 0
-231 -275 279 0
-231 -291 295 0
-231 -307 311 0
-231 -323 327 0
247 261 0
-247 -261 0
-247 -213 215 0
-247 -229 231 0
-247 -277 279 0
-247 -293 295 0
-247 -309 311 0
-247 -325 327 0
279 265 0
-279 -265 0
-279 -217 215 0
-279 -233 231 0
-279 -249 247 0
-279 -297 295 0
-279 -313 311 0
-279 -329 327 0
295 267 0
-295 -267 0
-295 -219 215 0
-295 -235 231 0
-295 -251 247 0
-295 -283 279 0
-295 -315 311 0
-295 -331 327 0
311 269 0
-311 -269 0
-311 -221 215 0
-311 -237 231 0
-311 -253 247 0
-311 -285 279 0
-311 -301 295 0
-311 -333 327 0
327 271 0
-327 -271 0
-327 -223 215 0
-327 -239 231 0
-327 -255 247 0
-327 -287 279 0
-327 -303 295 0
-327 -319 311 0
281 0
217 273 0
-217 -273 0
-217 -225 233 0
-217 -241 249 0
-217 -257 265 0
-217 -289 297 0
-217 -305 313 0
-217 -321 329 0
233 275 0
-233 -275 0
-233 -211 217 0
-233 -243 249 0
-233 -259 265 0
-233 -291 297 0
-233 -307 313 0
-233 -323 329 0
249 277 0
-249 -277 0
-249 -213 217 0
-249 -229 233 0
-249 -261 265 0
-249 -293 297 0
-249 -309 313 0
-249 -325 329 0
265 279 0
-265 -279 0
-265 -215 217 0
-265 -231 233 0
-265 -247 249 0
-265 -295 297 0
-265 -311 313 0
-265 -327 329 0
297 283 0
-297 -283 0
-297 -219 217 0
-297 -235 233 0
-297 -251 249 0
-297 -267 265 0
-297 -315 313 0
-297 -331 329 0
313 285 0
-313 -285 0
-313 -221 217 0
-313 -237 233 0
-313 -253 249 0
-313 -269 265 0
-313 -301 297 0
-313 -333 329 0
329 287 0
-329 -287 0
-329 -223 217 0
-329 -239 233 0
-329 -255 249 0
-329 -271 265 0
-329 -303 297 0
-329 -319 313 0
299 0
219 289 0
-219 -289 0
-219 -225 235 0
-219 -241 251 0
-219 -257 267 0
-219 -273 283 0
-219 -305 315 0
-219 -321 331 0
235 291 0
-235 -291 0
-235 -211 219 0
-235 -243 251 0
-235 -259 267 0
-235 -275 283 0
-235 -307 315 0
-235 -323 331 0
251 293 0
-251 -293 0
-251 -213 219 0
-251 -229 235 0
-251 -261 267 0
-251 -277 283 0
-251 -309 315 0
-251 -325 331 0
267 295 0
-267 -295 0
-267 -215 219 0
-267 -231 235 0
-267 -247 251 0
-267 -279 283 0
-267 -311 315 0
-267 -327 331 0
283 297 0
-283 -297 0
-283 -217 219 0
-283 -233 235 0
-283 -249 251 0
-283 -265 267 0
-283 -313 315 0
-283 -329 331 0
315 301 0
-315 -301 0
-315 -221 219 0
-315 -237 235 0
-315 -253 251 0
-315 -269 267 0
-315 -285 283 0
-315 -333 331 0
331 303 0
-331 -303 0
-331 -223 219 0
-331 -239 235 0
-331 -255 251 0
-331 -271 267 0
-331 -287 283 0
-331 -319 315 0
317 0
221 305 0
-221 -305 0
-221 -225 237 0
-221 -241 253 0
-221 -257 269 0
-221 -273 285 0
-221 -289 301 0
-221 -321 333 0
237 307 0
-237 -307 0
-237 -211 221 0
-237 -243 253 0
-237 -259 269 0
-237 -275 285 0
-237 -291 301 0
-237 -323 333 0
253 309 0
-253 -309 0
-253 -213 221 0
-253 -229 237 0
-253 -261 269 0
-253 -277 285 0
-253 -293 301 0
-253 -325 333 0
269 311 0
-269 -311 0
-269 -215 221 0
-269 -231 237 0
-269 -247 253 0
-269 -279 285 0
-269 -295 301 0
-269 -327 333 0
285 313 0
-285 -313 0
-285 -217 221 0
-285 -233 237 0
-285 -249 253 0
-285 -265 269 0
-285 -297 301 0
-285 -329 333 0
301 315 0
-301 -315 0
-301 -219 221 0
-301 -235 237 0
-301 -251 253 0
-301 -267 269 0
-301 -283 285 0
-301 -331 333 0
333 319 0
-333 -319 0
-333 -223 221 0
-333 -239 237 0
-333 -255 253 0
-333 -271 269 0
-333 -287 285 0
-333 -303 301 0
335 0
223 321 0
-223 -321 0
-223 -225 239 0
-223 -241 255 0
-223 -257 271 0
-223 -273 287 0
-223 -289 303 0
-223 -305 319 0
239 323 0
-239 -323 0
-239 -211 223 0
-239 -243 255 0
-239 -259 271 0
-239 -275 287 0
-239 -291 303 0
-239 -307 319 0
255 325 0
-255 -325 0
-255 -213 223 0
-255 -229 239 0
-255 -261 271 0
-255 -277 287 0
-255 -293 303 0
-255 -309 319 0
271 327 0
-271 -327 0
-271 -215 223 0
-271 -231 239 0
-271 -247 255 0
-271 -279 287 0
-271 -295 303 0
-271 -311 319 0
287 329 0
-287 -329 0
-287 -217 223 0
-287 -233 239 0
-287 -249 255 0
-287 -265 271 0
-287 -297 303 0
-287 -313 319 0
303 331 0
-303 -331 0
-303 -219 223 0
-303 -235 239 0
-303 -251 255 0
-303 -267 271 0
-303 -283 287 0
-303 -315 319 0
319 333 0
-319 -333 0
-319 -221 223 0
-319 -237 239 0
-319 -253 255 0
-319 -269 271 0
-319 -285 287 0
-319 -301 303 0
529 0
530 531 0
-530 -531 0
-530 -532 533 0
-530 -534 535 0
-530 -536 537 0
-530 -538 539 0
-530 -540 541 0
-530 -542 543 0
533 544 0
-533 -544 0
-533 -545 530 0
-533 -546 535 0
-533 -547 537 0
-533 -548 539 0
-533 -549 541 0
-533 -550 543 0
535 551 0
-535 -551 0
-535 -552 530 0
-535 -553 533 0
-535 -554 537 0
-535 -555 539 0
-535 -556 541 0
-535 -557 543 0
537 558 0
-537 -558 0
-537 -559 530 0
-537 -560 533 0
-537 -561 535 0
-537 -562 539 0
-537 -563 541 0
-537 -564 543 0
539 565 0
-539 -565 0
-539 -566 530 0
-539 -567 533 0
-539 -568 535 0
-539 -569 537 0
-539 -570 541 0
-539 -571 543 0
541 572 0
-541 -572 0
-541 -573 530 0
-541 -574 533 0
-541 -575 535 0
-541 -576 537 0
-541 -577 539 0
-541 -578 543 0
543 579 0
-543 -579 0
-543 -580 530 0
-543 -581 533 0
-543 -582 535 0
-543 -583 537 0
-543 -584 539 0
-543 -585 541 0
586 0
531 530 0
-531 -530 0
-531 -533 532 0
-531 -535 534 0
-531 -537 536 0
-531 -539 538 0
-531 -541 540 0
-531 -543 542 0
532 545 0
-532 -545 0
-532 -544 531 0
-532 -546 534 0
-532 -547 536 0
-532 -548 538 0
-532 -549 540 0
-532 -550 542 0
534 552 0
-534 -552 0
-534 -551 531 0
-534 -553 532 0
-534 -554 536 0
-534 -555 538 0
-534 -556 540 0
-534 -557 542 0
536 559 0
-536 -559 0
-536 -558 531 0
-536 -560 532 0
-536 -561 534 0
-536 -562 538 0
-536 -563 540 0
-536 -564 542 0
538 566 0
-538 -566 0
-538 -565 531 0
-538 -567 532 0
-538 -568 534 0
-538 -569 536 0
-538 -570 540 0
-538 -571 542 0
540 573 0
-540 -573 0
-540 -572 531 0
-540 -574 532 0
-540 -575 534 0
-540 -576 536 0
-540 -577 538 0
-540 -578 542 0
542 580 0
-542 -580 0
-542 -579 531 0
-542 -581 532 0
-542 -582 534 0
-542 -583 536 0
-542 -584 538 0
-542 -585 540 0
587 0
544 533 0
-544 -533 0
-544 -530 545 0
-544 -535 546 0
-544 -537 547 0
-544 -539 548 0
-544 -541 549 0
-544 -543 550 0
545 532 0
-545 -532 0
-545 -531 544 0
-545 -534 546 0
-545 -536 547 0
-545 -538 548 0
-545 -540 549 0
-545 -542 550 0
546 553 0
-546 -553 0
-546 -551 544 0
-546 -552 545 0
-546 -554 547 0
-546 -555 548 0
-546 -556 549 0
-546 -557 550 0
547 560 0
-547 -560 0
-547 -558 544 0
-547 -559 545 0
-547 -561 546 0
-547 -562 548 0
-547 -563 549 0
-547 -564 550 0
548 567 0
-548 -567 0
-548 -565 544 0
-548 -566 545 0
-548 -568 546 0
-548 -569 547 0
-548 -570 549 0
-548 -571 550 0
549 574 0
-549 -574 0
-549 -572 544 0
-549 -573 545 0
-549 -575 546 0
-549 -576 547 0
-549 -577 548 0
-549 -578 550 0
550 581 0
-550 -581 0
-550 -579 544 0
-550 -580 545 0
-550 -582 546 0
-550 -583 547 0
-550 -584 548 0
-550 -585 549 0
588 0
551 535 0
-551 -535 0
-551 -530 552 0
-551 -533 553 0
-551 -537 554 0
-551 -539 555 0
-551 -541 556 0
-551 -543 557 0
552 534 0
-552 -534 0
-552 -531 551 0
-552 -532 553 0
-552 -536 554 0
-552 -538 555 0
-552 -540 556 0
-552 -542 557 0
553 546 0
-553 -546 0
-553 -544 551 0
-553 -545 552 0
-553 -547 554 0
-553 -548 555 0
-553 -549 556 0
-553 -550 557 0
554 561 0
-554 -561 0
-554 -558 551 0
-554 -559 552 0
-554 -560 553 0
-554 -562 555 0
-554 -563 556 0
-554 -564 557 0
555 568 0
-555 -568 0
-555 -565 551 0
-555 -566 552 0
-555 -567 553 0
-555 -569 554 0
-555 -570 556 0
-555 -571 557 0
556 575 0
-556 -575 0
-556 -572 551 0
-556 -573 552 0
-556 -574 553 0
-556 -576 554 0
-556 -577 555 0
-556 -578 557 0
557 582 0
-557 -582 0
-557 -579 551 0
-557 -580 552 0
-557 -581 553 0
-557 -583 554 0
-557 -584 555 0
-557 -585 556 0
589 0
558 537 0
-558 -537 0
-558 -530 559 0
-558 -533 560 0
-558 -535 561 0
-558 -539 562 0
-558 -541 563 0
-558 -543 564 0
559 536 0
-559 -536 0
-559 -531 558 0
-559 -532 560 0
-559 -534 561 0
-559 -538 562 0
-559 -540 563 0
-559 -542 564 0
560 547 0
-560 -547 0
-560 -544 558 0
-560 -545 559 0
-560 -546 561 0
-560 -548 562 0
-560 -549 563 0
-560 -550 564 0
561 554 0
-561 -554 0
-561 -551 558 0
-561 -552 559 0
-561 -553 560 0
-561 -555 562 0
-561 -556 563 0
-561 -557 564 0
562 569 0
-562 -569 0
-562 -565 558 0
-562 -566 559 0
-562 -567 560 0
-562 -568 561 0
-562 -570 563 0
-562 -571 564 0
563 576 0
-563 -576 0
-563 -572 558 0
-563 -573 559 0
-563 -574 560 0
-563 -575 561 0
-563 -577 562 0
-563 -578 564 0
564 583 0
-564 -583 0
-564 -579 558 0
-564 -580 559 0
-564 -581 560 0
-564 -582 561 0
-564 -584 562 0
-564 -585 563 0
590 0
565 539 0
-565 -539 0
-565 -530 566 0
-565 -533 567 0
-565 -535 568 0
-565 -537 569 0
-565 -541 570 0
-565 -543 571 0
566 538 0
-566 -538 0
-566 -531 565 0
-566 -532 567 0
-566 -534 568 0
-566 -536 569 0
-566 -540 570 0
-566 -542 571 0
567 548 0
-567 -548 0
-567 -544 565 0
-567 -545 566 0
-567 -546 568 0
-567 -547 569 0
-567 -549 570 0
-567 -550 571 0
568 555 0
-568 -555 0
-568 -551 565 0
-568 -552 566 0
-568 -553 567 0
-568 -554 569 0
-568 -556 570 0
-568 -557 571 0
569 562 0
-569 -562 0
-569 -558 565 0
-569 -559 566 0
-569 -560 567 0
-569 -561 568 0
-569 -563 570 0
-569 -564 571 0
570 577 0
-570 -577 0
-570 -572 565 0
-570 -573 566 0
-570 -574 567 0
-570 -575 568 0
-570 -576 569 0
-570 -578 571 0
571 584 0
-571 -584 0
-571 -579 565 0
-571 -580 566 0
-571 -581 567 0
-571 -582 568 0
-571 -583 569 0
-571 -585 570 0
591 0
572 541 0
-572 -541 0
-572 -530 573 0
-572 -533 574 0
-572 -535 575 0
-572 -537 576 0
-572 -539 577 0
-572 -543 578 0
573 540 0
-573 -540 0
-573 -531 572 0
-573 -532 574 0
-573 -534 575 0
-573 -536 576 0
-573 -538 577 0
-573 -542 578 0
574 549 0
-574 -549 0
-574 -544 572 0
-574 -545 573 0
-574 -546 575 0
-574 -547 576 0
-574 -548 577 0
-574 -550 578 0
575 556 0
-575 -556 0
-575 -551 572 0
-575 -552 573 0
-575 -553 574 0
-575 -554 576 0
-575 -555 577 0
-575 -557 578 0
576 563 0
-576 -563 0
-576 -558 572 0
-576 -559 573 0
-576 -560 574 0
-576 -561 575 0
-576 -562 577 0
-576 -564 578 0
577 570 0
-577 -570 0
-577 -565 572 0
-577 -566 573 0
-577 -567 574 0
-577 -568 575 0
-577 -569 576 0
-577 -571 578 0
578 585 0
-578 -585 0
-578 -579 572 0
-578 -580 573 0
-578 -581 574 0
-578 -582 575 0
-578 -583 576 0
-578 -584 577 0
592 0
579 543 0
-579 -543 0
-579 -530 580 0
-579 -533 581 0
-579 -535 582 0
-579 -537 583 0
-579 -539 584 0
-579 -541 585 0
580 542 0
-580 -542 0
-580 -531 579 0
-580 -532 581 0
-580 -534 582 0
-580 -536 583 0
-580 -538 584 0
-580 -540 585 0
581 550 0
-581 -550 0
-581 -544 579 0
-581 -545 580 0
-581 -546 582 0
-581 -547 583 0
-581 -548 584 0
-581 -549 585 0
582 557 0
-582 -557 0
-582 -551 579 0
-582 -552 580 0
-582 -553 581 0
-582 -554 583 0
-582 -555 584 0
-582 -556 585 0
583 564 0
-583 -564 0
-583 -558 579 0
-583 -559 580 0
-583 -560 581 0
-583 -561 582 0
-583 -562 584 0
-583 -563 585 0
584 571 0
-584 -571 0
-584 -565 579 0
-584 -566 580 0
-584 -567 581 0
-584 -568 582 0
-584 -569 583 0
-584 -570 585 0
585 578 0
-585 -578 0
-585 -572 579 0
-585 -573 580 0
-585 -574 581 0
-585 -575 582 0
-585 -576 583 0
-585 -577 584 0
-337 0
-353 530 0
-593 533 0
-593 545 0
-533 -545 593 0
-594 535 0
-594 552 0
-535 -552 594 0
-595 537 0
-595 559 0
-537 -559 595 0
-596 539 0
-596 566 0
-539 -566 596 0
-597 541 0
-597 573 0
-541 -573 597 0
-598 543 0
-598 580 0
-543 -580 598 0
-353 -593 0
-353 -594 0
-353 -595 0
-353 -596 0
-353 -597 0
-353 -598 0
-530 353 593 594 595 596 597 598 0
-369 533 0
-599 530 0
-599 532 0
-530 -532 599 0
-600 535 0
-600 553 0
-535 -553 600 0
-601 537 0
-601 560 0
-537 -560 601 0
-602 539 0
-602 567 0
-539 -567 602 0
-603 541 0
-603 574 0
-541 -574 603 0
-604 543 0
-604 581 0
-543 -581 604 0
-369 -599 0
-369 -600 0
-369 -601 0
-369 -602 0
-369 -603 0
-369 -604 0
-533 369 599 600 601 602 603 604 0
-385 535 0
-605 530 0
-605 534 0
-530 -534 605 0
-606 533 0
-606 546 0
-533 -546 606 0
-607 537 0
-607 561 0
-537 -561 607 0
-608 539 0
-608 568 0
-539 -568 608 0
-609 541 0
-609 575 0
-541 -575 609 0
-610 543 0
-610 582 0
-543 -582 610 0
-385 -605 0
-385 -606 0
-385 -607 0
-385 -608 0
-385 -609 0
-385 -610 0
-535 385 605 606 607 608 609 610 0
-401 537 0
-611 530 0
-611 536 0
-530 -536 611 0
-612 533 0
-612 547 0
-533 -547 612 0
-613 535 0
-613 554 0
-535 -554 613 0
-614 539 0
-614 569 0
-539 -569 614 0
-615 541 0
-615 576 0
-541 -576 615 0
-616 543 0
-616 583 0
-543 -583 616 0
-401 -611 0
-401 -612 0
-401 -613 0
-401 -614 0
-401 -615 0
-401 -616 0
-537 401 611 612 613 614 615 616 0
-417 539 0
-617 530 0
-617 538 0
-530 -538 617 0
-618 533 0
-618 548 0
-533 -548 618 0
-619 535 0
-619 555 0
-535 -555 619 0
-620 537 0
-620 562 0
-537 -562 620 0
-621 541 0
-621 577 0
-541 -577 621 0
-622 543 0
-622 584 0
-543 -584 622 0
-417 -617 0
-417 -618 0
-417 -619 0
-417 -620 0
-417 -621 0
-417 -622 0
-539 417 617 618 619 620 621 622 0
-433 541 0
-623 530 0
-623 540 0
-530 -540 623 0
-624 533 0
-624 549 0
-533 -549 624 0
-625 535 0
-625 556 0
-535 -556 625 0
-626 537 0
-626 563 0
-537 -563 626 0
-627 539 0
-627 570 0
-539 -570 627 0
-628 543 0
-628 585 0
-543 -585 628 0
-433 -623 0
-433 -624 0
-433 -625 0
-433 -626 0
-433 -627 0
-433 -628 0
-541 433 623 624 625 626 627 628 0
-449 543 0
-629 530 0
-629 542 0
-530 -542 629 0
-630 533 0
-630 550 0
-533 -550 630 0
-631 535 0
-631 557 0
-535 -557 631 0
-632 537 0
-632 564 0
-537 -564 632 0
-633 539 0
-633 571 0
-539 -571 633 0
-634 541 0
-634 578 0
-541 -578 634 0
-449 -629 0
-449 -630 0
-449 -631 0
-449 -632 0
-449 -633 0
-449 -634 0
-543 449 629 630 631 632 633 634 0
-339 531 0
-635 532 0
-635 544 0
-532 -544 635 0
-636 534 0
-636 551 0
-534 -551 636 0
-637 536 0
-637 558 0
-536 -558 637 0
-638 538 0
-638 565 0
-538 -565 638 0
-639 540 0
-639 572 0
-540 -572 639 0
-640 542 0
-640 579 0
-542 -579 640 0
-339 -635 0
-339 -636 0
-339 -637 0
-339 -638 0
-339 -639 0
-339 -640 0
-531 339 635 636 637 638 639 640 0
-355 0
-371 532 0
-641 531 0
-641 533 0
-531 -533 641 0
-642 534 0
-642 553 0
-534 -553 642 0
-643 536 0
-643 560 0
-536 -560 643 0
-644 538 0
-644 567 0
-538 -567 644 0
-645 540 0
-645 574 0
-540 -574 645 0
-646 542 0
-646 581 0
-542 -581 646 0
-371 -641 0
-371 -642 0
-371 -643 0
-371 -644 0
-371 -645 0
-371 -646 0
-532 371 641 642 643 644 645 646 0
-387 534 0
-647 531 0
-647 535 0
-531 -535 647 0
-648 532 0
-648 546 0
-532 -546 648 0
-649 536 0
-649 561 0
-536 -561 649 0
-650 538 0
-650 568 0
-538 -568 650 0
-651 540 0
-651 575 0
-540 -575 651 0
-652 542 0
-652 582 0
-542 -582 652 0
-387 -647 0
-387 -648 0
-387 -649 0
-387 -650 0
-387 -651 0
-387 -652 0
-534 387 647 648 649 650 651 652 0
-403 536 0
-653 531 0
-653 537 0
-531 -537 653 0
-654 532 0
-654 547 0
-532 -547 654 0
-655 534 0
-655 554 0
-534 -554 655 0
-656 538 0
-656 569 0
-538 -569 656 0
-657 540 0
-657 576 0
-540 -576 657 0
-658 542 0
-658 583 0
-542 -583 658 0
-403 -653 0
-403 -654 0
-403 -655 0
-403 -656 0
-403 -657 0
-403 -658 0
-536 403 653 654 655 656 657 658 0
-419 538 0
-659 531 0
-659 539 0
-531 -539 659 0
-660 532 0
-660 548 0
-532 -548 660 0
-661 534 0
-661 555 0
-534 -555 661 0
-662 536 0
-662 562 0
-536 -562 662 0
-663 540 0
-663 577 0
-540 -577 663 0
-664 542 0
-664 584 0
-542 -584 664 0
-419 -659 0
-419 -660 0
-419 -661 0
-419 -662 0
-419 -663 0
-419 -664 0
-538 419 659 660 661 662 663 664 0
-435 540 0
-665 531 0
-665 541 0
-531 -541 665 0
-666 532 0
-666 549 0
-532 -549 666 0
-667 534 0
-667 556 0
-534 -556 667 0
-668 536 0
-668 563 0
-536 -563 668 0
-669 538 0
-669 570 0
-538 -570 669 0
-670 542 0
-670 585 0
-542 -585 670 0
-435 -665 0
-435 -666 0
-435 -667 0
-435 -668 0
-435 -669 0
-435 -670 0
-540 435 665 666 667 668 669 670 0
-451 542 0
-671 531 0
-671 543 0
-531 -543 671 0
-672 532 0
-672 550 0
-532 -550 672 0
-673 534 0
-673 557 0
-534 -557 673 0
-674 536 0
-674 564 0
-536 -564 674 0
-675 538 0
-675 571 0
-538 -571 675 0
-676 540 0
-676 578 0
-540 -578 676 0
-451 -671 0
-451 -672 0
-451 -673 0
-451 -674 0
-451 -675 0
-451 -676 0
-542 451 671 672 673 674 675 676 0
-341 544 0
-677 545 0
-677 531 0
-545 -531 677 0
-678 546 0
-678 551 0
-546 -551 678 0
-679 547 0
-679 558 0
-547 -558 679 0
-680 548 0
-680 565 0
-548 -565 680 0
-681 549 0
-681 572 0
-549 -572 681 0
-682 550 0
-682 579 0
-550 -579 682 0
-341 -677 0
-341 -678 0
-341 -679 0
-341 -680 0
-341 -681 0
-341 -682 0
-544 341 677 678 679 680 681 682 0
-357 545 0
-683 544 0
-683 530 0
-544 -530 683 0
-684 546 0
-684 552 0
-546 -552 684 0
-685 547 0
-685 559 0
-547 -559 685 0
-686 548 0
-686 566 0
-548 -566 686 0
-687 549 0
-687 573 0
-549 -573 687 0
-688 550 0
-688 580 0
-550 -580 688 0
-357 -683 0
-357 -684 0
-357 -685 0
-357 -686 0
-357 -687 0
-357 -688 0
-545 357 683 684 685 686 687 688 0
-373 0
-389 546 0
-689 544 0
-689 535 0
-544 -535 689 0
-690 545 0
-690 534 0
-545 -534 690 0
-691 547 0
-691 561 0
-547 -561 691 0
-692 548 0
-692 568 0
-548 -568 692 0
-693 549 0
-693 575 0
-549 -575 693 0
-694 550 0
-694 582 0
-550 -582 694 0
-389 -689 0
-389 -690 0
-389 -691 0
-389 -692 0
-389 -693 0
-389 -694 0
-546 389 689 690 691 692 693 694 0
-405 547 0
-695 544 0
-695 537 0
-544 -537 695 0
-696 545 0
-696 536 0
-545 -536 696 0
-697 546 0
-697 554 0
-546 -554 697 0
-698 548 0
-698 569 0
-548 -569 698 0
-699 549 0
-699 576 0
-549 -576 699 0
-700 550 0
-700 583 0
-550 -583 700 0
-405 -695 0
-405 -696 0
-405 -697 0
-405 -698 0
-405 -699 0
-405 -700 0
-547 405 695 696 697 698 699 700 0
-421 548 0
-701 544 0
-701 539 0
-544 -539 701 0
-702 545 0
-702 538 0
-545 -538 702 0
-703 546 0
-703 555 0
-546 -555 703 0
-704 547 0
-704 562 0
-547 -562 704 0
-705 549 0
-705 577 0
-549 -577 705 0
-706 550 0
-706 584 0
-550 -584 706 0
-421 -701 0
-421 -702 0
-421 -703 0
-421 -704 0
-421 -705 0
-421 -706 0
-548 421 701 702 703 704 705 706 0
-437 549 0
-707 544 0
-707 541 0
-544 -541 707 0
-708 545 0
-708 540 0
-545 -540 708 0
-709 546 0
-709 556 0
-546 -556 709 0
-710 547 0
-710 563 0
-547 -563 710 0
-711 548 0
-711 570 0
-548 -570 711 0
-712 550 0
-712 585 0
-550 -585 712 0
-437 -707 0
-437 -708 0
-437 -709 0
-437 -710 0
-437 -711 0
-437 -712 0
-549 437 707 708 709 710 711 712 0
-453 550 0
-713 544 0
-713 543 0
-544 -543 713 0
-714 545 0
-714 542 0
-545 -542 714 0
-715 546 0
-715 557 0
-546 -557 715 0
-716 547 0
-716 564 0
-547 -564 716 0
-717 548 0
-717 571 0
-548 -571 717 0
-718 549 0
-718 578 0
-549 -578 718 0
-453 -713 0
-453 -714 0
-453 -715 0
-453 -716 0
-453 -717 0
-453 -718 0
-550 453 713 714 715 716 717 718 0
-343 551 0
-719 552 0
-719 531 0
-552 -531 719 0
-720 553 0
-720 544 0
-553 -544 720 0
-721 554 0
-721 558 0
-554 -558 721 0
-722 555 0
-722 565 0
-555 -565 722 0
-723 556 0
-723 572 0
-556 -572 723 0
-724 557 0
-724 579 0
-557 -579 724 0
-343 -719 0
-343 -720 0
-343 -721 0
-343 -722 0
-343 -723 0
-343 -724 0
-551 343 719 720 721 722 723 724 0
-359 552 0
-725 551 0
-725 530 0
-551 -530 725 0
-726 553 0
-726 545 0
-553 -545 726 0
-727 554 0
-727 559 0
-554 -559 727 0
-728 555 0
-728 566 0
-555 -566 728 0
-729 556 0
-729 573 0
-556 -573 729 0
-730 557 0
-730 580 0
-557 -580 730 0
-359 -725 0
-359 -726 0
-359 -727 0
-359 -728 0
-359 -729 0
-359 -730 0
-552 359 725 726 727 728 729 730 0
-375 553 0
-731 551 0
-731 533 0
-551 -533 731 0
-732 552 0
-732 532 0
-552 -532 732 0
-733 554 0
-733 560 0
-554 -560 733 0
-734 555 0
-734 567 0
-555 -567 734 0
-735 556 0
-735 574 0
-556 -574 735 0
-736 557 0
-736 581 0
-557 -581 736 0
-375 -731 0
-375 -732 0
-375 -733 0
-375 -734 0
-375 -735 0
-375 -736 0
-553 375 731 732 733 734 735 736 0
-391 0
-407 554 0
-737 551 0
-737 537 0
-551 -537 737 0
-738 552 0
-738 536 0
-552 -536 738 0
-739 553 0
-739 547 0
-553 -547 739 0
-740 555 0
-740 569 0
-555 -569 740 0
-741 556 0
-741 576 0
-556 -576 741 0
-742 557 0
-742 583 0
-557 -583 742 0
-407 -737 0
-407 -738 0
-407 -739 0
-407 -740 0
-407 -741 0
-407 -742 0
-554 407 737 738 739 740 741 742 0
-423 555 0
-743 551 0
-743 539 0
-551 -539 743 0
-744 552 0
-744 538 0
-552 -538 744 0
-745 553 0
-745 548 0
-553 -548 745 0
-746 554 0
-746 562 0
-554 -562 746 0
-747 556 0
-747 577 0
-556 -577 747 0
-748 557 0
-748 584 0
-557 -584 748 0
-423 -743 0
-423 -744 0
-423 -745 0
-423 -746 0
-423 -747 0
-423 -748 0
-555 423 743 744 745 746 747 748 0
-439 556 0
-749 551 0
-749 541 0
-551 -541 749 0
-750 552 0
-750 540 0
-552 -540 750 0
-751 553 0
-751 549 0
-553 -549 751 0
-752 554 0
-752 563 0
-554 -563 752 0
-753 555 0
-753 570 0
-555 -570 753 0
-754 557 0
-754 585 0
-557 -585 754 0
-439 -749 0
-439 -750 0
-439 -751 0
-439 -752 0
-439 -753 0
-439 -754 0
-556 439 749 750 751 752 753 754 0
-455 557 0
-755 551 0
-755 543 0
-551 -543 755 0
-756 552 0
-756 542 0
-552 -542 756 0
-757 553 0
-757 550 0
-553 -550 757 0
-758 554 0
-758 564 0
-554 -564 758 0
-759 555 0
-759 571 0
-555 -571 759 0
-760 556 0
-760 578 0
-556 -578 760 0
-455 -755 0
-455 -756 0
-455 -757 0
-455 -758 0
-455 -759 0
-455 -760 0
-557 455 755 756 757 758 759 760 0
-345 558 0
-761 559 0
-761 531 0
-559 -531 761 0
-762 560 0
-762 544 0
-560 -544 762 0
-763 561 0
-763 551 0
-561 -551 763 0
-764 562 0
-764 565 0
-562 -565 764 0
-765 563 0
-765 572 0
-563 -572 765 0
-766 564 0
-766 579 0
-564 -579 766 0
-345 -761 0
-345 -762 0
-345 -763 0
-345 -764 0
-345 -765 0
-345 -766 0
-558 345 761 762 763 764 765 766 0
-361 559 0
-767 558 0
-767 530 0
-558 -530 767 0
-768 560 0
-768 545 0
-560 -545 768 0
-769 561 0
-769 552 0
-561 -552 769 0
-770 562 0
-770 566 0
-562 -566 770 0
-771 563 0
-771 573 0
-563 -573 771 0
-772 564 0
-772 580 0
-564 -580 772 0
-361 -767 0
-361 -768 0
-361 -769 0
-361 -770 0
-361 -771 0
-361 -772 0
-559 361 767 768 769 770 771 772 0
-377 560 0
-773 558 0
-773 533 0
-558 -533 773 0
-774 559 0
-774 532 0
-559 -532 774 0
-775 561 0
-775 553 0
-561 -553 775 0
-776 562 0
-776 567 0
-562 -567 776 0
-777 563 0
-777 574 0
-563 -574 777 0
-778 564 0
-778 581 0
-564 -581 778 0
-377 -773 0
-377 -774 0
-377 -775 0
-377 -776 0
-377 -777 0
-377 -778 0
-560 377 773 774 775 776 777 778 0
-393 561 0
-779 558 0
-779 535 0
-558 -535 779 0
-780 559 0
-780 534 0
-559 -534 780 0
-781 560 0
-781 546 0
-560 -546 781 0
-782 562 0
-782 568 0
-562 -568 782 0
-783 563 0
-783 575 0
-563 -575 783 0
-784 564 0
-784 582 0
-564 -582 784 0
-393 -779 0
-393 -780 0
-393 -781 0
-393 -782 0
-393 -783 0
-393 -784 0
-561 393 779 780 781 782 783 784 0
-409 0
-425 562 0
-785 558 0
-785 539 0
-558 -539 785 0
-786 559 0
-786 538 0
-559 -538 786 0
-787 560 0
-787 548 0
-560 -548 787 0
-788 561 0
-788 555 0
-561 -555 788 0
-789 563 0
-789 577 0
-563 -577 789 0
-790 564 0
-790 584 0
-564 -584 790 0
-425 -785 0
-425 -786 0
-425 -787 0
-425 -788 0
-425 -789 0
-425 -790 0
-562 425 785 786 787 788 789 790 0
-441 563 0
-791 558 0
-791 541 0
-558 -541 791 0
-792 559 0
-792 540 0
-559 -540 792 0
-793 560 0
-793 549 0
-560 -549 793 0
-794 561 0
-794 556 0
-561 -556 794 0
-795 562 0
-795 570 0
-562 -570 795 0
-796 564 0
-796 585 0
-564 -585 796 0
-441 -791 0
-441 -792 0
-441 -793 0
-441 -794 0
-441 -795 0
-441 -796 0
-563 441 791 792 793 794 795 796 0
-457 564 0
-797 558 0
-797 543 0
-558 -543 797 0
-798 559 0
-798 542 0
-559 -542 798 0
-799 560 0
-799 550 0
-560 -550 799 0
-800 561 0
-800 557 0
-561 -557 800 0
-801 562 0
-801 571 0
-562 -571 801 0
-802 563 0
-802 578 0
-563 -578 802 0
-457 -797 0
-457 -798 0
-457 -799 0
-457 -800 0
-457 -801 0
-457 -802 0
-564 457 797 798 799 800 801 802 0
-347 565 0
-803 566 0
-803 531 0
-566 -531 803 0
-804 567 0
-804 544 0
-567 -544 804 0
-805 568 0
-805 551 0
-568 -551 805 0
-806 569 0
-806 558 0
-569 -558 806 0
-807 570 0
-807 572 0
-570 -572 807 0
-808 571 0
-808 579 0
-571 -579 808 0
-347 -803 0
-347 -804 0
-347 -805 0
-347 -806 0
-347 -807 0
-347 -808 0
-565 347 803 804 805 806 807 808 0
-363 566 0
-809 565 0
-809 530 0
-565 -530 809 0
-810 567 0
-810 545 0
-567 -545 810 0
-811 568 0
-811 552 0
-568 -552 811 0
-812 569 0
-812 559 0
-569 -559 812 0
-813 570 0
-813 573 0
-570 -573 813 0
-814 571 0
-814 580 0
-571 -580 814 0
-363 -809 0
-363 -810 0
-363 -811 0
-363 -812 0
-363 -813 0
-363 -814 0
-566 363 809 810 811 812 813 814 0
-379 567 0
-815 565 0
-815 533 0
-565 -533 815 0
-816 566 0
-816 532 0
-566 -532 816 0
-817 568 0
-817 553 0
-568 -553 817 0
-818 569 0
-818 560 0
-569 -560 818 0
-819 570 0
-819 574 0
-570 -574 819 0
-820 571 0
-820 581 0
-571 -581 820 0
-379 -815 0
-379 -816 0
-379 -817 0
-379 -818 0
-379 -819 0
-379 -820 0
-567 379 815 816 817 818 819 820 0
-395 568 0
-821 565 0
-821 535 0
-565 -535 821 0
-822 566 0
-822 534 0
-566 -534 822 0
-823 567 0
-823 546 0
-567 -546 823 0
-824 569 0
-824 561 0
-569 -561 824 0
-825 570 0
-825 575 0
-570 -575 825 0
-826 571 0
-826 582 0
-571 -582 826 0
-395 -821 0
-395 -822 0
-395 -823 0
-395 -824 0
-395 -825 0
-395 -826 0
-568 395 821 822 823 824 825 826 0
-411 569 0
-827 565 0
-827 537 0
-565 -537 827 0
-828 566 0
-828 536 0
-566 -536 828 0
-829 567 0
-829 547 0
-567 -547 829 0
-830 568 0
-830 554 0
-568 -554 830 0
-831 570 0
-831 576 0
-570 -576 831 0
-832 571 0
-832 583 0
-571 -583 832 0
-411 -827 0
-411 -828 0
-411 -829 0
-411 -830 0
-411 -831 0
-411 -832 0
-569 411 827 828 829 830 831 832 0
-427 0
-443 570 0
-833 565 0
-833 541 0
-565 -541 833 0
-834 566 0
-834 540 0
-566 -540 834 0
-835 567 0
-835 549 0
-567 -549 835 0
-836 568 0
-836 556 0
-568 -556 836 0
-837 569 0
-837 563 0
-569 -563 837 0
-838 571 0
-838 585 0
-571 -585 838 0
-443 -833 0
-443 -834 0
-443 -835 0
-443 -836 0
-443 -837 0
-443 -838 0
-570 443 833 834 835 836 837 838 0
-459 571 0
-839 565 0
-839 543 0
-565 -543 839 0
-840 566 0
-840 542 0
-566 -542 840 0
-841 567 0
-841 550 0
-567 -550 841 0
-842 568 0
-842 557 0
-568 -557 842 0
-843 569 0
-843 564 0
-569 -564 843 0
-844 570 0
-844 578 0
-570 -578 844 0
-459 -839 0
-459 -840 0
-459 -841 0
-459 -842 0
-459 -843 0
-459 -844 0
-571 459 839 840 841 842 843 844 0
-349 572 0
-845 573 0
-845 531 0
-573 -531 845 0
-846 574 0
-846 544 0
-574 -544 846 0
-847 575 0
-847 551 0
-575 -551 847 0
-848 576 0
-848 558 0
-576 -558 848 0
-849 577 0
-849 565 0
-577 -565 849 0
-850 578 0
-850 579 0
-578 -579 850 0
-349 -845 0
-349 -846 0
-349 -847 0
-349 -848 0
-349 -849 0
-349 -850 0
-572 349 845 846 847 848 849 850 0
-365 573 0
-851 572 0
-851 530 0
-572 -530 851 0
-852 574 0
-852 545 0
-574 -545 852 0
-853 575 0
-853 552 0
-575 -552 853 0
-854 576 0
-854 559 0
-576 -559 854 0
-855 577 0
-855 566 0
-577 -566 855 0
-856 578 0
-856 580 0
-578 -580 856 0
-365 -851 0
-365 -852 0
-365 -853 0
-365 -854 0
-365 -855 0
-365 -856 0
-573 365 851 852 853 854 855 856 0
-381 574 0
-857 572 0
-857 533 0
-572 -533 857 0
-858 573 0
-858 532 0
-573 -532 858 0
-859 575 0
-859 553 0
-575 -553 859 0
-860 576 0
-860 560 0
-576 -560 860 0
-861 577 0
-861 567 0
-577 -567 861 0
-862 578 0
-862 581 0
-578 -581 862 0
-381 -857 0
-381 -858 0
-381 -859 0
-381 -860 0
-381 -861 0
-381 -862 0
-574 381 857 858 859 860 861 862 0
-397 575 0
-863 572 0
-863 535 0
-572 -535 863 0
-864 573 0
-864 534 0
-573 -534 864 0
-865 574 0
-865 546 0
-574 -546 865 0
-866 576 0
-866 561 0
-576 -561 866 0
-867 577 0
-867 568 0
-577 -568 867 0
-868 578 0
-868 582 0
-578 -582 868 0
-397 -863 0
-397 -864 0
-397 -865 0
-397 -866 0
-397 -867 0
-397 -868 0
-575 397 863 864 865 866 867 868 0
-413 576 0
-869 572 0
-869 537 0
-572 -537 869 0
-870 573 0
-870 536 0
-573 -536 870 0
-871 574 0
-871 547 0
-574 -547 871 0
-872 575 0
-872 554 0
-575 -554 872 0
-873 577 0
-873 569 0
-577 -569 873 0
-874 578 0
-874 583 0
-578 -583 874 0
-413 -869 0
-413 -870 0
-413 -871 0
-413 -872 0
-413 -873 0
-413 -874 0
-576 413 869 870 871 872 873 874 0
-429 577 0
-875 572 0
-875 539 0
-572 -539 875 0
-876 573 0
-876 538 0
-573 -538 876 0
-877 574 0
-877 548 0
-574 -548 877 0
-878 575 0
-878 555 0
-575 -555 878 0
-879 576 0
-879 562 0
-576 -562 879 0
-880 578 0
-880 584 0
-578 -584 880 0
-429 -875 0
-429 -876 0
-429 -877 0
-429 -878 0
-429 -879 0
-429 -880 0
-577 429 875 876 877 878 879 880 0
-445 0
-461 578 0
-881 572 0
-881 543 0
-572 -543 881 0
-882 573 0
-882 542 0
-573 -542 882 0
-883 574 0
-883 550 0
-574 -550 883 0
-884 575 0
-884 557 0
-575 -557 884 0
-885 576 0
-885 564 0
-576 -564 885 0
-886 577 0
-886 571 0
-577 -571 886 0
-461 -881 0
-461 -882 0
-461 -883 0
-461 -884 0
-461 -885 0
-461 -886 0
-578 461 881 882 883 884 885 886 0
-351 579 0
-887 580 0
-887 531 0
-580 -531 887 0
-888 581 0
-888 544 0
-581 -544 888 0
-889 582 0
-889 551 0
-582 -551 889 0
-890 583 0
-890 558 0
-583 -558 890 0
-891 584 0
-891 565 0
-584 -565 891 0
-892 585 0
-892 572 0
-585 -572 892 0
-351 -887 0
-351 -888 0
-351 -889 0
-351 -890 0
-351 -891 0
-351 -892 0
-579 351 887 888 889 890 891 892 0
-367 580 0
-893 579 0
-893 530 0
-579 -530 893 0
-894 581 0
-894 545 0
-581 -545 894 0
-895 582 0
-895 552 0
-582 -552 895 0
-896 583 0
-896 559 0
-583 -559 896 0
-897 584 0
-897 566 0
-584 -566 897 0
-898 585 0
-898 573 0
-585 -573 898 0
-367 -893 0
-367 -894 0
-367 -895 0
-367 -896 0
-367 -897 0
-367 -898 0
-580 367 893 894 895 896 897 898 0
-383 581 0
-899 579 0
-899 533 0
-579 -533 899 0
-900 580 0
-900 532 0
-580 -532 900 0
-901 582 0
-901 553 0
-582 -553 901 0
-902 583 0
-902 560 0
-583 -560 902 0
-903 584 0
-903 567 0
-584 -567 903 0
-904 585 0
-904 574 0
-585 -574 904 0
-383 -899 0
-383 -900 0
-383 -901 0
-383 -902 0
-383 -903 0
-383 -904 0
-581 383 899 900 901 902 903 904 0
-399 582 0
-905 579 0
-905 535 0
-579 -535 905 0
-906 580 0
-906 534 0
-580 -534 906 0
-907 581 0
-907 546 0
-581 -546 907 0
-908 583 0
-908 561 0
-583 -561 908 0
-909 584 0
-909 568 0
-584 -568 909 0
-910 585 0
-910 575 0
-585 -575 910 0
-399 -905 0
-399 -906 0
-399 -907 0
-399 -908 0
-399 -909 0
-399 -910 0
-582 399 905 906 907 908 909 910 0
-415 583 0
-911 579 0
-911 537 0
-579 -537 911 0
-912 580 0
-912 536 0
-580 -536 912 0
-913 581 0
-913 547 0
-581 -547 913 0
-914 582 0
-914 554 0
-582 -554 914 0
-915 584 0
-915 569 0
-584 -569 915 0
-916 585 0
-916 576 0
-585 -576 916 0
-415 -911 0
-415 -912 0
-415 -913 0
-415 -914 0
-415 -915 0
-415 -916 0
-583 415 911 912 913 914 915 916 0
-431 584 0
-917 579 0
-917 539 0
-579 -539 917 0
-918 580 0
-918 538 0
-580 -538 918 0
-919 581 0
-919 548 0
-581 -548 919 0
-920 582 0
-920 555 0
-582 -555 920 0
-921 583 0
-921 562 0
-583 -562 921 0
-922 585 0
-922 577 0
-585 -577 922 0
-431 -917 0
-431 -918 0
-431 -919 0
-431 -920 0
-431 -921 0
-431 -922 0
-584 431 917 918 919 920 921 922 0
-447 585 0
-923 579 0
-923 541 0
-579 -541 923 0
-924 580 0
-924 540 0
-580 -540 924 0
-925 581 0
-925 549 0
-581 -549 925 0
-926 582 0
-926 556 0
-582 -556 926 0
-927 583 0
-927 563 0
-583 -563 927 0
-928 584 0
-928 570 0
-584 -570 928 0
-447 -923 0
-447 -924 0
-447 -925 0
-447 -926 0
-447 -927 0
-447 -928 0
-585 447 923 924 925 926 927 928 0
-463 0
