p cnf 1332 5022
-1 -2 3 0
-4 -2 5 0
-6 -2 7 0
-8 -2 9 0
-10 -2 11 0
-12 -2 13 0
-14 -2 15 0
-16 -2 17 0
-18 -2 19 0
-1 -20 21 0
-4 -20 22 0
-6 -20 23 0
-8 -20 24 0
-10 -20 25 0
-12 -20 26 0
-14 -20 27 0
-16 -20 28 0
-18 -20 29 0
-1 -30 31 0
-4 -30 32 0
-6 -30 33 0
-8 -30 34 0
-10 -30 35 0
-12 -30 36 0
-14 -30 37 0
-16 -30 38 0
-18 -30 39 0
-1 -40 41 0
-4 -40 42 0
-6 -40 43 0
-8 -40 44 0
-10 -40 45 0
-12 -40 46 0
-14 -40 47 0
-16 -40 48 0
-18 -40 49 0
-1 -50 51 0
-4 -50 52 0
-6 -50 53 0
-8 -50 54 0
-10 -50 55 0
-12 -50 56 0
-14 -50 57 0
-16 -50 58 0
-18 -50 59 0
-1 -60 61 0
-4 -60 62 0
-6 -60 63 0
-8 -60 64 0
-10 -60 65 0
-12 -60 66 0
-14 -60 67 0
-16 -60 68 0
-18 -60 69 0
-1 -70 71 0
-4 -70 72 0
-6 -70 73 0
-8 -70 74 0
-10 -70 75 0
-12 -70 76 0
-14 -70 77 0
-16 -70 78 0
-18 -70 79 0
-1 -80 81 0
-4 -80 82 0
-6 -80 83 0
-8 -80 84 0
-10 -80 85 0
-12 -80 86 0
-14 -80 87 0
-16 -80 88 0
-18 -80 89 0
-1 -90 91 0
-4 -90 92 0
-6 -90 93 0
-8 -90 94 0
-10 -90 95 0
-12 -90 96 0
-14 -90 97 0
-16 -90 98 0
-18 -90 99 0
-3 1 0
-5 4 0
-7 6 0
-9 8 0
-11 10 0
-13 12 0
-15 14 0
-17 16 0
-19 18 0
-21 1 0
-22 4 0
-23 6 0
-24 8 0
-25 10 0
-26 12 0
-27 14 0
-28 16 0
-29 18 0
-31 1 0
-32 4 0
-33 6 0
-34 8 0
-35 10 0
-36 12 0
-37 14 0
-38 16 0
-39 18 0
-41 1 0
-42 4 0
-43 6 0
-44 8 0
-45 10 0
-46 12 0
-47 14 0
-48 16 0
-49 18 0
-51 1 0
-52 4 0
-53 6 0
-54 8 0
-55 10 0
-56 12 0
-57 14 0
-58 16 0
-59 18 0
-61 1 0
-62 4 0
-63 6 0
-64 8 0
-65 10 0
-66 12 0
-67 14 0
-68 16 0
-69 18 0
-71 1 0
-72 4 0
-73 6 0
-74 8 0
-75 10 0
-76 12 0
-77 14 0
-78 16 0
-79 18 0
-81 1 0
-82 4 0
-83 6 0
-84 8 0
-85 10 0
-86 12 0
-87 14 0
-88 16 0
-89 18 0
-91 1 0
-92 4 0
-93 6 0
-94 8 0
-95 10 0
-96 12 0
-97 14 0
-98 16 0
-99 18 0
-3 2 0
-5 2 0
-7 2 0
-9 2 0
-11 2 0
-13 2 0
-15 2 0
-17 2 0
-19 2 0
-21 20 0
-22 20 0
-23 20 0
-24 20 0
-25 20 0
-26 20 0
-27 20 0
-28 20 0
-29 20 0
-31 30 0
-32 30 0
-33 30 0
-34 30 0
-35 30 0
-36 30 0
-37 30 0
-38 30 0
-39 30 0
-41 40 0
-42 40 0
-43 40 0
-44 40 0
-45 40 0
-46 40 0
-47 40 0
-48 40 0
-49 40 0
-51 50 0
-52 50 0
-53 50 0
-54 50 0
-55 50 0
-56 50 0
-57 50 0
-58 50 0
-59 50 0
-61 60 0
-62 60 0
-63 60 0
-64 60 0
-65 60 0
-66 60 0
-67 60 0
-68 60 0
-69 60 0
-71 70 0
-72 70 0
-73 70 0
-74 70 0
-75 70 0
-76 70 0
-77 70 0
-78 70 0
-79 70 0
-81 80 0
-82 80 0
-83 80 0
-84 80 0
-85 80 0
-86 80 0
-87 80 0
-88 80 0
-89 80 0
-91 90 0
-92 90 0
-93 90 0
-94 90 0
-95 90 0
-96 90 0
-97 90 0
-98 90 0
-99 90 0
-100 3 -101 0
-102 5 -103 0
-104 7 -105 0
-106 9 -107 0
-108 11 -109 0
-110 13 -111 0
-112 15 -113 0
-114 17 -115 0
-116 19 -117 0
-118 21 -119 0
-120 22 -121 0
-122 23 -123 0
-124 24 -125 0
-126 25 -127 0
-128 26 -129 0
-130 27 -131 0
-132 28 -133 0
-134 29 -135 0
-136 31 -137 0
-138 32 -139 0
-140 33 -141 0
-142 34 -143 0
-144 35 -145 0
-146 36 -147 0
-148 37 -149 0
-150 38 -151 0
-152 39 -153 0
-154 41 -155 0
-156 42 -157 0
-158 43 -159 0
-160 44 -161 0
-162 45 -163 0
-164 46 -165 0
-166 47 -167 0
-168 48 -169 0
-170 49 -171 0
-172 51 -173 0
-174 52 -175 0
-176 53 -177 0
-178 54 -179 0
-180 55 -181 0
-182 56 -183 0
-184 57 -185 0
-186 58 -187 0
-188 59 -189 0
-190 61 -191 0
-192 62 -193 0
-194 63 -195 0
-196 64 -197 0
-198 65 -199 0
-200 66 -201 0
-202 67 -203 0
-204 68 -205 0
-206 69 -207 0
-208 71 -209 0
-210 72 -211 0
-212 73 -213 0
-214 74 -215 0
-216 75 -217 0
-218 76 -219 0
-220 77 -221 0
-222 78 -223 0
-224 79 -225 0
-226 81 -227 0
-228 82 -229 0
-230 83 -231 0
-232 84 -233 0
-234 85 -235 0
-236 86 -237 0
-238 87 -239 0
-240 88 -241 0
-242 89 -243 0
-244 91 -245 0
-246 92 -247 0
-248 93 -249 0
-250 94 -251 0
-252 95 -253 0
-254 96 -255 0
-256 97 -257 0
-258 98 -259 0
-260 99 -261 0
101 100 0
103 102 0
105 104 0
107 106 0
109 108 0
111 110 0
113 112 0
115 114 0
117 116 0
119 118 0
121 120 0
123 122 0
125 124 0
127 126 0
129 128 0
131 130 0
133 132 0
135 134 0
137 136 0
139 138 0
141 140 0
143 142 0
145 144 0
147 146 0
149 148 0
151 150 0
153 152 0
155 154 0
157 156 0
159 158 0
161 160 0
163 162 0
165 164 0
167 166 0
169 168 0
171 170 0
173 172 0
175 174 0
177 176 0
179 178 0
181 180 0
183 182 0
185 184 0
187 186 0
189 188 0
191 190 0
193 192 0
195 194 0
197 196 0
199 198 0
201 200 0
203 202 0
205 204 0
207 206 0
209 208 0
211 210 0
213 212 0
215 214 0
217 216 0
219 218 0
221 220 0
223 222 0
225 224 0
227 226 0
229 228 0
231 230 0
233 232 0
235 234 0
237 236 0
239 238 0
241 240 0
243 242 0
245 244 0
247 246 0
249 248 0
251 250 0
253 252 0
255 254 0
257 256 0
259 258 0
261 260 0
101 -3 0
103 -5 0
105 -7 0
107 -9 0
109 -11 0
111 -13 0
113 -15 0
115 -17 0
117 -19 0
119 -21 0
121 -22 0
123 -23 0
125 -24 0
127 -25 0
129 -26 0
131 -27 0
133 -28 0
135 -29 0
137 -31 0
139 -32 0
141 -33 0
143 -34 0
145 -35 0
147 -36 0
149 -37 0
151 -38 0
153 -39 0
155 -41 0
157 -42 0
159 -43 0
161 -44 0
163 -45 0
165 -46 0
167 -47 0
169 -48 0
171 -49 0
173 -51 0
175 -52 0
177 -53 0
179 -54 0
181 -55 0
183 -56 0
185 -57 0
187 -58 0
189 -59 0
191 -61 0
193 -62 0
195 -63 0
197 -64 0
199 -65 0
201 -66 0
203 -67 0
205 -68 0
207 -69 0
209 -71 0
211 -72 0
213 -73 0
215 -74 0
217 -75 0
219 -76 0
221 -77 0
223 -78 0
225 -79 0
227 -81 0
229 -82 0
231 -83 0
233 -84 0
235 -85 0
237 -86 0
239 -87 0
241 -88 0
243 -89 0
245 -91 0
247 -92 0
249 -93 0
251 -94 0
253 -95 0
255 -96 0
257 -97 0
259 -98 0
261 -99 0
1 -262 -263 -264 0
1 -265 -266 -267 0
1 -268 -269 -270 0
1 -271 -272 -273 0
1 -274 -275 -276 0
1 -277 -278 -279 0
1 -280 -281 -282 0
1 -283 -284 -285 0
1 -286 -287 -288 0
4 -289 -290 -291 0
4 -292 -293 -294 0
4 -295 -296 -297 0
4 -298 -299 -300 0
4 -301 -302 -303 0
4 -304 -305 -306 0
4 -307 -308 -309 0
4 -310 -311 -312 0
4 -313 -314 -315 0
6 -316 -317 -318 0
6 -319 -320 -321 0
6 -322 -323 -324 0
6 -325 -326 -327 0
6 -328 -329 -330 0
6 -331 -332 -333 0
6 -334 -335 -336 0
6 -337 -338 -339 0
6 -340 -341 -342 0
8 -343 -344 -345 0
8 -346 -347 -348 0
8 -349 -350 -351 0
8 -352 -353 -354 0
8 -355 -356 -357 0
8 -358 -359 -360 0
8 -361 -362 -363 0
8 -364 -365 -366 0
8 -367 -368 -369 0
10 -370 -371 -372 0
10 -373 -374 -375 0
10 -376 -377 -378 0
10 -379 -380 -381 0
10 -382 -383 -384 0
10 -385 -386 -387 0
10 -388 -389 -390 0
10 -391 -392 -393 0
10 -394 -395 -396 0
12 -397 -398 -399 0
12 -400 -401 -402 0
12 -403 -404 -405 0
12 -406 -407 -408 0
12 -409 -410 -411 0
12 -412 -413 -414 0
12 -415 -416 -417 0
12 -418 -419 -420 0
12 -421 -422 -423 0
14 -424 -425 -426 0
14 -427 -428 -429 0
14 -430 -431 -432 0
14 -433 -434 -435 0
14 -436 -437 -438 0
14 -439 -440 -441 0
14 -442 -443 -444 0
14 -445 -446 -447 0
14 -448 -449 -450 0
16 -451 -452 -453 0
16 -454 -455 -456 0
16 -457 -458 -459 0
16 -460 -461 -462 0
16 -463 -464 -465 0
16 -466 -467 -468 0
16 -469 -470 -471 0
16 -472 -473 -474 0
16 -475 -476 -477 0
18 -478 -479 -480 0
18 -481 -482 -483 0
18 -484 -485 -486 0
18 -487 -488 -489 0
18 -490 -491 -492 0
18 -493 -494 -495 0
18 -496 -497 -498 0
18 -499 -500 -501 0
18 -502 -503 -504 0
264 -1 0
267 -1 0
270 -1 0
273 -1 0
276 -1 0
279 -1 0
282 -1 0
285 -1 0
288 -1 0
291 -4 0
294 -4 0
297 -4 0
300 -4 0
303 -4 0
306 -4 0
309 -4 0
312 -4 0
315 -4 0
318 -6 0
321 -6 0
324 -6 0
327 -6 0
330 -6 0
333 -6 0
336 -6 0
339 -6 0
342 -6 0
345 -8 0
348 -8 0
351 -8 0
354 -8 0
357 -8 0
360 -8 0
363 -8 0
366 -8 0
369 -8 0
372 -10 0
375 -10 0
378 -10 0
381 -10 0
384 -10 0
387 -10 0
390 -10 0
393 -10 0
396 -10 0
399 -12 0
402 -12 0
405 -12 0
408 -12 0
411 -12 0
414 -12 0
417 -12 0
420 -12 0
423 -12 0
426 -14 0
429 -14 0
432 -14 0
435 -14 0
438 -14 0
441 -14 0
444 -14 0
447 -14 0
450 -14 0
453 -16 0
456 -16 0
459 -16 0
462 -16 0
465 -16 0
468 -16 0
471 -16 0
474 -16 0
477 -16 0
480 -18 0
483 -18 0
486 -18 0
489 -18 0
492 -18 0
495 -18 0
498 -18 0
501 -18 0
504 -18 0
264 262 0
267 265 0
270 268 0
273 271 0
276 274 0
279 277 0
282 280 0
285 283 0
288 286 0
291 289 0
294 292 0
297 295 0
300 298 0
303 301 0
306 304 0
309 307 0
312 310 0
315 313 0
318 316 0
321 319 0
324 322 0
327 325 0
330 328 0
333 331 0
336 334 0
339 337 0
342 340 0
345 343 0
348 346 0
351 349 0
354 352 0
357 355 0
360 358 0
363 361 0
366 364 0
369 367 0
372 370 0
375 373 0
378 376 0
381 379 0
384 382 0
387 385 0
390 388 0
393 391 0
396 394 0
399 397 0
402 400 0
405 403 0
408 406 0
411 409 0
414 412 0
417 415 0
420 418 0
423 421 0
426 424 0
429 427 0
432 430 0
435 433 0
438 436 0
441 439 0
444 442 0
447 445 0
450 448 0
453 451 0
456 454 0
459 457 0
462 460 0
465 463 0
468 466 0
471 469 0
474 472 0
477 475 0
480 478 0
483 481 0
486 484 0
489 487 0
492 490 0
495 493 0
498 496 0
501 499 0
504 502 0
264 263 0
267 266 0
270 269 0
273 272 0
276 275 0
279 278 0
282 281 0
285 284 0
288 287 0
291 290 0
294 293 0
297 296 0
300 299 0
303 302 0
306 305 0
309 308 0
312 311 0
315 314 0
318 317 0
321 320 0
324 323 0
327 326 0
330 329 0
333 332 0
336 335 0
339 338 0
342 341 0
345 344 0
348 347 0
351 350 0
354 353 0
357 356 0
360 359 0
363 362 0
366 365 0
369 368 0
372 371 0
375 374 0
378 377 0
381 380 0
384 383 0
387 386 0
390 389 0
393 392 0
396 395 0
399 398 0
402 401 0
405 404 0
408 407 0
411 410 0
414 413 0
417 416 0
420 419 0
423 422 0
426 425 0
429 428 0
432 431 0
435 434 0
438 437 0
441 440 0
444 443 0
447 446 0
450 449 0
453 452 0
456 455 0
459 458 0
462 461 0
465 464 0
468 467 0
471 470 0
474 473 0
477 476 0
480 479 0
483 482 0
486 485 0
489 488 0
492 491 0
495 494 0
498 497 0
501 500 0
504 503 0
2 -505 -1 -506 0
2 -507 -4 -508 0
2 -509 -6 -510 0
2 -511 -8 -512 0
2 -513 -10 -514 0
2 -515 -12 -516 0
2 -517 -14 -518 0
2 -519 -16 -520 0
2 -521 -18 -522 0
20 -523 -1 -524 0
20 -525 -4 -526 0
20 -527 -6 -528 0
20 -529 -8 -530 0
20 -531 -10 -532 0
20 -533 -12 -534 0
20 -535 -14 -536 0
20 -537 -16 -538 0
20 -539 -18 -540 0
30 -541 -1 -542 0
30 -543 -4 -544 0
30 -545 -6 -546 0
30 -547 -8 -548 0
30 -549 -10 -550 0
30 -551 -12 -552 0
30 -553 -14 -554 0
30 -555 -16 -556 0
30 -557 -18 -558 0
40 -559 -1 -560 0
40 -561 -4 -562 0
40 -563 -6 -564 0
40 -565 -8 -566 0
40 -567 -10 -568 0
40 -569 -12 -570 0
40 -571 -14 -572 0
40 -573 -16 -574 0
40 -575 -18 -576 0
50 -577 -1 -578 0
50 -579 -4 -580 0
50 -581 -6 -582 0
50 -583 -8 -584 0
50 -585 -10 -586 0
50 -587 -12 -588 0
50 -589 -14 -590 0
50 -591 -16 -592 0
50 -593 -18 -594 0
60 -595 -1 -596 0
60 -597 -4 -598 0
60 -599 -6 -600 0
60 -601 -8 -602 0
60 -603 -10 -604 0
60 -605 -12 -606 0
60 -607 -14 -608 0
60 -609 -16 -610 0
60 -611 -18 -612 0
70 -613 -1 -614 0
70 -615 -4 -616 0
70 -617 -6 -618 0
70 -619 -8 -620 0
70 -621 -10 -622 0
70 -623 -12 -624 0
70 -625 -14 -626 0
70 -627 -16 -628 0
70 -629 -18 -630 0
80 -631 -1 -632 0
80 -633 -4 -634 0
80 -635 -6 -636 0
80 -637 -8 -638 0
80 -639 -10 -640 0
80 -641 -12 -642 0
80 -643 -14 -644 0
80 -645 -16 -646 0
80 -647 -18 -648 0
90 -649 -1 -650 0
90 -651 -4 -652 0
90 -653 -6 -654 0
90 -655 -8 -656 0
90 -657 -10 -658 0
90 -659 -12 -660 0
90 -661 -14 -662 0
90 -663 -16 -664 0
90 -665 -18 -666 0
506 -2 0
508 -2 0
510 -2 0
512 -2 0
514 -2 0
516 -2 0
518 -2 0
520 -2 0
522 -2 0
524 -20 0
526 -20 0
528 -20 0
530 -20 0
532 -20 0
534 -20 0
536 -20 0
538 -20 0
540 -20 0
542 -30 0
544 -30 0
546 -30 0
548 -30 0
550 -30 0
552 -30 0
554 -30 0
556 -30 0
558 -30 0
560 -40 0
562 -40 0
564 -40 0
566 -40 0
568 -40 0
570 -40 0
572 -40 0
574 -40 0
576 -40 0
578 -50 0
580 -50 0
582 -50 0
584 -50 0
586 -50 0
588 -50 0
590 -50 0
592 -50 0
594 -50 0
596 -60 0
598 -60 0
600 -60 0
602 -60 0
604 -60 0
606 -60 0
608 -60 0
610 -60 0
612 -60 0
614 -70 0
616 -70 0
618 -70 0
620 -70 0
622 -70 0
624 -70 0
626 -70 0
628 -70 0
630 -70 0
632 -80 0
634 -80 0
636 -80 0
638 -80 0
640 -80 0
642 -80 0
644 -80 0
646 -80 0
648 -80 0
650 -90 0
652 -90 0
654 -90 0
656 -90 0
658 -90 0
660 -90 0
662 -90 0
664 -90 0
666 -90 0
506 505 0
508 507 0
510 509 0
512 511 0
514 513 0
516 515 0
518 517 0
520 519 0
522 521 0
524 523 0
526 525 0
528 527 0
530 529 0
532 531 0
534 533 0
536 535 0
538 537 0
540 539 0
542 541 0
544 543 0
546 545 0
548 547 0
550 549 0
552 551 0
554 553 0
556 555 0
558 557 0
560 559 0
562 561 0
564 563 0
566 565 0
568 567 0
570 569 0
572 571 0
574 573 0
576 575 0
578 577 0
580 579 0
582 581 0
584 583 0
586 585 0
588 587 0
590 589 0
592 591 0
594 593 0
596 595 0
598 597 0
600 599 0
602 601 0
604 603 0
606 605 0
608 607 0
610 609 0
612 611 0
614 613 0
616 615 0
618 617 0
620 619 0
622 621 0
624 623 0
626 625 0
628 627 0
630 629 0
632 631 0
634 633 0
636 635 0
638 637 0
640 639 0
642 641 0
644 643 0
646 645 0
648 647 0
650 649 0
652 651 0
654 653 0
656 655 0
658 657 0
660 659 0
662 661 0
664 663 0
666 665 0
506 1 0
508 4 0
510 6 0
512 8 0
514 10 0
516 12 0
518 14 0
520 16 0
522 18 0
524 1 0
526 4 0
528 6 0
530 8 0
532 10 0
534 12 0
536 14 0
538 16 0
540 18 0
542 1 0
544 4 0
546 6 0
548 8 0
550 10 0
552 12 0
554 14 0
556 16 0
558 18 0
560 1 0
562 4 0
564 6 0
566 8 0
568 10 0
570 12 0
572 14 0
574 16 0
576 18 0
578 1 0
580 4 0
582 6 0
584 8 0
586 10 0
588 12 0
590 14 0
592 16 0
594 18 0
596 1 0
598 4 0
600 6 0
602 8 0
604 10 0
606 12 0
608 14 0
610 16 0
612 18 0
614 1 0
616 4 0
618 6 0
620 8 0
622 10 0
624 12 0
626 14 0
628 16 0
630 18 0
632 1 0
634 4 0
636 6 0
638 8 0
640 10 0
642 12 0
644 14 0
646 16 0
648 18 0
650 1 0
652 4 0
654 6 0
656 8 0
658 10 0
660 12 0
662 14 0
664 16 0
666 18 0
-101 -264 -506 667 0
-103 -267 -508 668 0
-105 -270 -510 669 0
-107 -273 -512 670 0
-109 -276 -514 671 0
-111 -279 -516 672 0
-113 -282 -518 673 0
-115 -285 -520 674 0
-117 -288 -522 675 0
-119 -291 -524 676 0
-121 -294 -526 677 0
-123 -297 -528 678 0
-125 -300 -530 679 0
-127 -303 -532 680 0
-129 -306 -534 681 0
-131 -309 -536 682 0
-133 -312 -538 683 0
-135 -315 -540 684 0
-137 -318 -542 685 0
-139 -321 -544 686 0
-141 -324 -546 687 0
-143 -327 -548 688 0
-145 -330 -550 689 0
-147 -333 -552 690 0
-149 -336 -554 691 0
-151 -339 -556 692 0
-153 -342 -558 693 0
-155 -345 -560 694 0
-157 -348 -562 695 0
-159 -351 -564 696 0
-161 -354 -566 697 0
-163 -357 -568 698 0
-165 -360 -570 699 0
-167 -363 -572 700 0
-169 -366 -574 701 0
-171 -369 -576 702 0
-173 -372 -578 703 0
-175 -375 -580 704 0
-177 -378 -582 705 0
-179 -381 -584 706 0
-181 -384 -586 707 0
-183 -387 -588 708 0
-185 -390 -590 709 0
-187 -393 -592 710 0
-189 -396 -594 711 0
-191 -399 -596 712 0
-193 -402 -598 713 0
-195 -405 -600 714 0
-197 -408 -602 715 0
-199 -411 -604 716 0
-201 -414 -606 717 0
-203 -417 -608 718 0
-205 -420 -610 719 0
-207 -423 -612 720 0
-209 -426 -614 721 0
-211 -429 -616 722 0
-213 -432 -618 723 0
-215 -435 -620 724 0
-217 -438 -622 725 0
-219 -441 -624 726 0
-221 -444 -626 727 0
-223 -447 -628 728 0
-225 -450 -630 729 0
-227 -453 -632 730 0
-229 -456 -634 731 0
-231 -459 -636 732 0
-233 -462 -638 733 0
-235 -465 -640 734 0
-237 -468 -642 735 0
-239 -471 -644 736 0
-241 -474 -646 737 0
-243 -477 -648 738 0
-245 -480 -650 739 0
-247 -483 -652 740 0
-249 -486 -654 741 0
-251 -489 -656 742 0
-253 -492 -658 743 0
-255 -495 -660 744 0
-257 -498 -662 745 0
-259 -501 -664 746 0
-261 -504 -666 747 0
-667 101 0
-668 103 0
-669 105 0
-670 107 0
-671 109 0
-672 111 0
-673 113 0
-674 115 0
-675 117 0
-676 119 0
-677 121 0
-678 123 0
-679 125 0
-680 127 0
-681 129 0
-682 131 0
-683 133 0
-684 135 0
-685 137 0
-686 139 0
-687 141 0
-688 143 0
-689 145 0
-690 147 0
-691 149 0
-692 151 0
-693 153 0
-694 155 0
-695 157 0
-696 159 0
-697 161 0
-698 163 0
-699 165 0
-700 167 0
-701 169 0
-702 171 0
-703 173 0
-704 175 0
-705 177 0
-706 179 0
-707 181 0
-708 183 0
-709 185 0
-710 187 0
-711 189 0
-712 191 0
-713 193 0
-714 195 0
-715 197 0
-716 199 0
-717 201 0
-718 203 0
-719 205 0
-720 207 0
-721 209 0
-722 211 0
-723 213 0
-724 215 0
-725 217 0
-726 219 0
-727 221 0
-728 223 0
-729 225 0
-730 227 0
-731 229 0
-732 231 0
-733 233 0
-734 235 0
-735 237 0
-736 239 0
-737 241 0
-738 243 0
-739 245 0
-740 247 0
-741 249 0
-742 251 0
-743 253 0
-744 255 0
-745 257 0
-746 259 0
-747 261 0
-667 264 0
-668 267 0
-669 270 0
-670 273 0
-671 276 0
-672 279 0
-673 282 0
-674 285 0
-675 288 0
-676 291 0
-677 294 0
-678 297 0
-679 300 0
-680 303 0
-681 306 0
-682 309 0
-683 312 0
-684 315 0
-685 318 0
-686 321 0
-687 324 0
-688 327 0
-689 330 0
-690 333 0
-691 336 0
-692 339 0
-693 342 0
-694 345 0
-695 348 0
-696 351 0
-697 354 0
-698 357 0
-699 360 0
-700 363 0
-701 366 0
-702 369 0
-703 372 0
-704 375 0
-705 378 0
-706 381 0
-707 384 0
-708 387 0
-709 390 0
-710 393 0
-711 396 0
-712 399 0
-713 402 0
-714 405 0
-715 408 0
-716 411 0
-717 414 0
-718 417 0
-719 420 0
-720 423 0
-721 426 0
-722 429 0
-723 432 0
-724 435 0
-725 438 0
-726 441 0
-727 444 0
-728 447 0
-729 450 0
-730 453 0
-731 456 0
-732 459 0
-733 462 0
-734 465 0
-735 468 0
-736 471 0
-737 474 0
-738 477 0
-739 480 0
-740 483 0
-741 486 0
-742 489 0
-743 492 0
-744 495 0
-745 498 0
-746 501 0
-747 504 0
-667 506 0
-668 508 0
-669 510 0
-670 512 0
-671 514 0
-672 516 0
-673 518 0
-674 520 0
-675 522 0
-676 524 0
-677 526 0
-678 528 0
-679 530 0
-680 532 0
-681 534 0
-682 536 0
-683 538 0
-684 540 0
-685 542 0
-686 544 0
-687 546 0
-688 548 0
-689 550 0
-690 552 0
-691 554 0
-692 556 0
-693 558 0
-694 560 0
-695 562 0
-696 564 0
-697 566 0
-698 568 0
-699 570 0
-700 572 0
-701 574 0
-702 576 0
-703 578 0
-704 580 0
-705 582 0
-706 584 0
-707 586 0
-708 588 0
-709 590 0
-710 592 0
-711 594 0
-712 596 0
-713 598 0
-714 600 0
-715 602 0
-716 604 0
-717 606 0
-718 608 0
-719 610 0
-720 612 0
-721 614 0
-722 616 0
-723 618 0
-724 620 0
-725 622 0
-726 624 0
-727 626 0
-728 628 0
-729 630 0
-730 632 0
-731 634 0
-732 636 0
-733 638 0
-734 640 0
-735 642 0
-736 644 0
-737 646 0
-738 648 0
-739 650 0
-740 652 0
-741 654 0
-742 656 0
-743 658 0
-744 660 0
-745 662 0
-746 664 0
-747 666 0
667 0
668 0
669 0
670 0
671 0
672 0
673 0
674 0
675 0
676 0
677 0
678 0
679 0
680 0
681 0
682 0
683 0
684 0
685 0
686 0
687 0
688 0
689 0
690 0
691 0
692 0
693 0
694 0
695 0
696 0
697 0
698 0
699 0
700 0
701 0
702 0
703 0
704 0
705 0
706 0
707 0
708 0
709 0
710 0
711 0
712 0
713 0
714 0
715 0
716 0
717 0
718 0
719 0
720 0
721 0
722 0
723 0
724 0
725 0
726 0
727 0
728 0
729 0
730 0
731 0
732 0
733 0
734 0
735 0
736 0
737 0
738 0
739 0
740 0
741 0
742 0
743 0
744 0
745 0
746 0
747 0
262 0
289 265 0
-289 -265 0
-289 -319 316 0
-289 -346 343 0
-289 -373 370 0
-289 -400 397 0
-289 -427 424 0
-289 -454 451 0
-289 -481 478 0
316 268 0
-316 -268 0
-316 -295 289 0
-316 -349 343 0
-316 -376 370 0
-316 -403 397 0
-316 -430 424 0
-316 -457 451 0
-316 -484 478 0
343 271 0
-343 -271 0
-343 -298 289 0
-343 -325 316 0
-343 -379 370 0
-343 -406 397 0
-343 -433 424 0
-343 -460 451 0
-343 -487 478 0
370 274 0
-370 -274 0
-370 -301 289 0
-370 -328 316 0
-370 -355 343 0
-370 -409 397 0
-370 -436 424 0
-370 -463 451 0
-370 -490 478 0
397 277 0
-397 -277 0
-397 -304 289 0
-397 -331 316 0
-397 -358 343 0
-397 -385 370 0
-397 -439 424 0
-397 -466 451 0
-397 -493 478 0
424 280 0
-424 -280 0
-424 -307 289 0
-424 -334 316 0
-424 -361 343 0
-424 -388 370 0
-424 -415 397 0
-424 -469 451 0
-424 -496 478 0
451 283 0
-451 -283 0
-451 -310 289 0
-451 -337 316 0
-451 -364 343 0
-451 -391 370 0
-451 -418 397 0
-451 -445 424 0
-451 -499 478 0
478 286 0
-478 -286 0
-478 -313 289 0
-478 -340 316 0
-478 -367 343 0
-478 -394 370 0
-478 -421 397 0
-478 -448 424 0
-478 -475 451 0
292 0
265 289 0
-265 -289 0
-265 -316 319 0
-265 -343 346 0
-265 -370 373 0
-265 -397 400 0
-265 -424 427 0
-265 -451 454 0
-265 -478 481 0
319 295 0
-319 -295 0
-319 -268 265 0
-319 -349 346 0
-319 -376 373 0
-319 -403 400 0
-319 -430 427 0
-319 -457 454 0
-319 -484 481 0
346 298 0
-346 -298 0
-346 -271 265 0
-346 -325 319 0
-346 -379 373 0
-346 -406 400 0
-346 -433 427 0
-346 -460 454 0
-346 -487 481 0
373 301 0
-373 -301 0
-373 -274 265 0
-373 -328 319 0
-373 -355 346 0
-373 -409 400 0
-373 -436 427 0
-373 -463 454 0
-373 -490 481 0
400 304 0
-400 -304 0
-400 -277 265 0
-400 -331 319 0
-400 -358 346 0
-400 -385 373 0
-400 -439 427 0
-400 -466 454 0
-400 -493 481 0
427 307 0
-427 -307 0
-427 -280 265 0
-427 -334 319 0
-427 -361 346 0
-427 -388 373 0
-427 -415 400 0
-427 -469 454 0
-427 -496 481 0
454 310 0
-454 -310 0
-454 -283 265 0
-454 -337 319 0
-454 -364 346 0
-454 -391 373 0
-454 -418 400 0
-454 -445 427 0
-454 -499 481 0
481 313 0
-481 -313 0
-481 -286 265 0
-481 -340 319 0
-481 -367 346 0
-481 -394 373 0
-481 -421 400 0
-481 -448 427 0
-481 -475 454 0
322 0
268 316 0
-268 -316 0
-268 -289 295 0
-268 -343 349 0
-268 -370 376 0
-268 -397 403 0
-268 -424 430 0
-268 -451 457 0
-268 -478 484 0
295 319 0
-295 -319 0
-295 -265 268 0
-295 -346 349 0
-295 -373 376 0
-295 -400 403 0
-295 -427 430 0
-295 -454 457 0
-295 -481 484 0
349 325 0
-349 -325 0
-349 -271 268 0
-349 -298 295 0
-349 -379 376 0
-349 -406 403 0
-349 -433 430 0
-349 -460 457 0
-349 -487 484 0
376 328 0
-376 -328 0
-376 -274 268 0
-376 -301 295 0
-376 -355 349 0
-376 -409 403 0
-376 -436 430 0
-376 -463 457 0
-376 -490 484 0
403 331 0
-403 -331 0
-403 -277 268 0
-403 -304 295 0
-403 -358 349 0
-403 -385 376 0
-403 -439 430 0
-403 -466 457 0
-403 -493 484 0
430 334 0
-430 -334 0
-430 -280 268 0
-430 -307 295 0
-430 -361 349 0
-430 -388 376 0
-430 -415 403 0
-430 -469 457 0
-430 -496 484 0
457 337 0
-457 -337 0
-457 -283 268 0
-457 -310 295 0
-457 -364 349 0
-457 -391 376 0
-457 -418 403 0
-457 -445 430 0
-457 -499 484 0
484 340 0
-484 -340 0
-484 -286 268 0
-484 -313 295 0
-484 -367 349 0
-484 -394 376 0
-484 -421 403 0
-484 -448 430 0
-484 -475 457 0
352 0
271 343 0
-271 -343 0
-271 -289 298 0
-271 -316 325 0
-271 -370 379 0
-271 -397 406 0
-271 -424 433 0
-271 -451 460 0
-271 -478 487 0
298 346 0
-298 -346 0
-298 -265 271 0
-298 -319 325 0
-298 -373 379 0
-298 -400 406 0
-298 -427 433 0
-298 -454 460 0
-298 -481 487 0
325 349 0
-325 -349 0
-325 -268 271 0
-325 -295 298 0
-325 -376 379 0
-325 -403 406 0
-325 -430 433 0
-325 -457 460 0
-325 -484 487 0
379 355 0
-379 -355 0
-379 -274 271 0
-379 -301 298 0
-379 -328 325 0
-379 -409 406 0
-379 -436 433 0
-379 -463 460 0
-379 -490 487 0
406 358 0
-406 -358 0
-406 -277 271 0
-406 -304 298 0
-406 -331 325 0
-406 -385 379 0
-406 -439 433 0
-406 -466 460 0
-406 -493 487 0
433 361 0
-433 -361 0
-433 -280 271 0
-433 -307 298 0
-433 -334 325 0
-433 -388 379 0
-433 -415 406 0
-433 -469 460 0
-433 -496 487 0
460 364 0
-460 -364 0
-460 -283 271 0
-460 -310 298 0
-460 -337 325 0
-460 -391 379 0
-460 -418 406 0
-460 -445 433 0
-460 -499 487 0
487 367 0
-487 -367 0
-487 -286 271 0
-487 -313 298 0
-487 -340 325 0
-487 -394 379 0
-487 -421 406 0
-487 -448 433 0
-487 -475 460 0
382 0
274 370 0
-274 -370 0
-274 -289 301 0
-274 -316 328 0
-274 -343 355 0
-274 -397 409 0
-274 -424 436 0
-274 -451 463 0
-274 -478 490 0
301 373 0
-301 -373 0
-301 -265 274 0
-301 -319 328 0
-301 -346 355 0
-301 -400 409 0
-301 -427 436 0
-301 -454 463 0
-301 -481 490 0
328 376 0
-328 -376 0
-328 -268 274 0
-328 -295 301 0
-328 -349 355 0
-328 -403 409 0
-328 -430 436 0
-328 -457 463 0
-328 -484 490 0
355 379 0
-355 -379 0
-355 -271 274 0
-355 -298 301 0
-355 -325 328 0
-355 -406 409 0
-355 -433 436 0
-355 -460 463 0
-355 -487 490 0
409 385 0
-409 -385 0
-409 -277 274 0
-409 -304 301 0
-409 -331 328 0
-409 -358 355 0
-409 -439 436 0
-409 -466 463 0
-409 -493 490 0
436 388 0
-436 -388 0
-436 -280 274 0
-436 -307 301 0
-436 -334 328 0
-436 -361 355 0
-436 -415 409 0
-436 -469 463 0
-436 -496 490 0
463 391 0
-463 -391 0
-463 -283 274 0
-463 -310 301 0
-463 -337 328 0
-463 -364 355 0
-463 -418 409 0
-463 -445 436 0
-463 -499 490 0
490 394 0
-490 -394 0
-490 -286 274 0
-490 -313 301 0
-490 -340 328 0
-490 -367 355 0
-490 -421 409 0
-490 -448 436 0
-490 -475 463 0
412 0
277 397 0
-277 -397 0
-277 -289 304 0
-277 -316 331 0
-277 -343 358 0
-277 -370 385 0
-277 -424 439 0
-277 -451 466 0
-277 -478 493 0
304 400 0
-304 -400 0
-304 -265 277 0
-304 -319 331 0
-304 -346 358 0
-304 -373 385 0
-304 -427 439 0
-304 -454 466 0
-304 -481 493 0
331 403 0
-331 -403 0
-331 -268 277 0
-331 -295 304 0
-331 -349 358 0
-331 -376 385 0
-331 -430 439 0
-331 -457 466 0
-331 -484 493 0
358 406 0
-358 -406 0
-358 -271 277 0
-358 -298 304 0
-358 -325 331 0
-358 -379 385 0
-358 -433 439 0
-358 -460 466 0
-358 -487 493 0
385 409 0
-385 -409 0
-385 -274 277 0
-385 -301 304 0
-385 -328 331 0
-385 -355 358 0
-385 -436 439 0
-385 -463 466 0
-385 -490 493 0
439 415 0
-439 -415 0
-439 -280 277 0
-439 -307 304 0
-439 -334 331 0
-439 -361 358 0
-439 -388 385 0
-439 -469 466 0
-439 -496 493 0
466 418 0
-466 -418 0
-466 -283 277 0
-466 -310 304 0
-466 -337 331 0
-466 -364 358 0
-466 -391 385 0
-466 -445 439 0
-466 -499 493 0
493 421 0
-493 -421 0
-493 -286 277 0
-493 -313 304 0
-493 -340 331 0
-493 -367 358 0
-493 -394 385 0
-493 -448 439 0
-493 -475 466 0
442 0
280 424 0
-280 -424 0
-280 -289 307 0
-280 -316 334 0
-280 -343 361 0
-280 -370 388 0
-280 -397 415 0
-280 -451 469 0
-280 -478 496 0
307 427 0
-307 -427 0
-307 -265 280 0
-307 -319 334 0
-307 -346 361 0
-307 -373 388 0
-307 -400 415 0
-307 -454 469 0
-307 -481 496 0
334 430 0
-334 -430 0
-334 -268 280 0
-334 -295 307 0
-334 -349 361 0
-334 -376 388 0
-334 -403 415 0
-334 -457 469 0
-334 -484 496 0
361 433 0
-361 -433 0
-361 -271 280 0
-361 -298 307 0
-361 -325 334 0
-361 -379 388 0
-361 -406 415 0
-361 -460 469 0
-361 -487 496 0
388 436 0
-388 -436 0
-388 -274 280 0
-388 -301 307 0
-388 -328 334 0
-388 -355 361 0
-388 -409 415 0
-388 -463 469 0
-388 -490 496 0
415 439 0
-415 -439 0
-415 -277 280 0
-415 -304 307 0
-415 -331 334 0
-415 -358 361 0
-415 -385 388 0
-415 -466 469 0
-415 -493 496 0
469 445 0
-469 -445 0
-469 -283 280 0
-469 -310 307 0
-469 -337 334 0
-469 -364 361 0
-469 -391 388 0
-469 -418 415 0
-469 -499 496 0
496 448 0
-496 -448 0
-496 -286 280 0
-496 -313 307 0
-496 -340 334 0
-496 -367 361 0
-496 -394 388 0
-496 -421 415 0
-496 -475 469 0
472 0
283 451 0
-283 -451 0
-283 -289 310 0
-283 -316 337 0
-283 -343 364 0
-283 -370 391 0
-283 -397 418 0
-283 -424 445 0
-283 -478 499 0
310 454 0
-310 -454 0
-310 -265 283 0
-310 -319 337 0
-310 -346 364 0
-310 -373 391 0
-310 -400 418 0
-310 -427 445 0
-310 -481 499 0
337 457 0
-337 -457 0
-337 -268 283 0
-337 -295 310 0
-337 -349 364 0
-337 -376 391 0
-337 -403 418 0
-337 -430 445 0
-337 -484 499 0
364 460 0
-364 -460 0
-364 -271 283 0
-364 -298 310 0
-364 -325 337 0
-364 -379 391 0
-364 -406 418 0
-364 -433 445 0
-364 -487 499 0
391 463 0
-391 -463 0
-391 -274 283 0
-391 -301 310 0
-391 -328 337 0
-391 -355 364 0
-391 -409 418 0
-391 -436 445 0
-391 -490 499 0
418 466 0
-418 -466 0
-418 -277 283 0
-418 -304 310 0
-418 -331 337 0
-418 -358 364 0
-418 -385 391 0
-418 -439 445 0
-418 -493 499 0
445 469 0
-445 -469 0
-445 -280 283 0
-445 -307 310 0
-445 -334 337 0
-445 -361 364 0
-445 -388 391 0
-445 -415 418 0
-445 -496 499 0
499 475 0
-499 -475 0
-499 -286 283 0
-499 -313 310 0
-499 -340 337 0
-499 -367 364 0
-499 -394 391 0
-499 -421 418 0
-499 -448 445 0
502 0
286 478 0
-286 -478 0
-286 -289 313 0
-286 -316 340 0
-286 -343 367 0
-286 -370 394 0
-286 -397 421 0
-286 -424 448 0
-286 -451 475 0
313 481 0
-313 -481 0
-313 -265 286 0
-313 -319 340 0
-313 -346 367 0
-313 -373 394 0
-313 -400 421 0
-313 -427 448 0
-313 -454 475 0
340 484 0
-340 -484 0
-340 -268 286 0
-340 -295 313 0
-340 -349 367 0
-340 -376 394 0
-340 -403 421 0
-340 -430 448 0
-340 -457 475 0
367 487 0
-367 -487 0
-367 -271 286 0
-367 -298 313 0
-367 -325 340 0
-367 -379 394 0
-367 -406 421 0
-367 -433 448 0
-367 -460 475 0
394 490 0
-394 -490 0
-394 -274 286 0
-394 -301 313 0
-394 -328 340 0
-394 -355 367 0
-394 -409 421 0
-394 -436 448 0
-394 -463 475 0
421 493 0
-421 -493 0
-421 -277 286 0
-421 -304 313 0
-421 -331 340 0
-421 -358 367 0
-421 -385 394 0
-421 -439 448 0
-421 -466 475 0
448 496 0
-448 -496 0
-448 -280 286 0
-448 -307 313 0
-448 -334 340 0
-448 -361 367 0
-448 -388 394 0
-448 -415 421 0
-448 -469 475 0
475 499 0
-475 -499 0
-475 -283 286 0
-475 -310 313 0
-475 -337 340 0
-475 -364 367 0
-475 -391 394 0
-475 -418 421 0
-475 -445 448 0
748 0
749 750 0
-749 -750 0
-749 -751 752 0
-749 -753 754 0
-749 -755 756 0
-749 -757 758 0
-749 -759 760 0
-749 -761 762 0
-749 -763 764 0
752 765 0
-752 -765 0
-752 -766 749 0
-752 -767 754 0
-752 -768 756 0
-752 -769 758 0
-752 -770 760 0
-752 -771 762 0
-752 -772 764 0
754 773 0
-754 -773 0
-754 -774 749 0
-754 -775 752 0
-754 -776 756 0
-754 -777 758 0
-754 -778 760 0
-754 -779 762 0
-754 -780 764 0
756 781 0
-756 -781 0
-756 -782 749 0
-756 -783 752 0
-756 -784 754 0
-756 -785 758 0
-756 -786 760 0
-756 -787 762 0
-756 -788 764 0
758 789 0
-758 -789 0
-758 -790 749 0
-758 -791 752 0
-758 -792 754 0
-758 -793 756 0
-758 -794 760 0
-758 -795 762 0
-758 -796 764 0
760 797 0
-760 -797 0
-760 -798 749 0
-760 -799 752 0
-760 -800 754 0
-760 -801 756 0
-760 -802 758 0
-760 -803 762 0
-760 -804 764 0
762 805 0
-762 -805 0
-762 -806 749 0
-762 -807 752 0
-762 -808 754 0
-762 -809 756 0
-762 -810 758 0
-762 -811 760 0
-762 -812 764 0
764 813 0
-764 -813 0
-764 -814 749 0
-764 -815 752 0
-764 -816 754 0
-764 -817 756 0
-764 -818 758 0
-764 -819 760 0
-764 -820 762 0
821 0
750 749 0
-750 -749 0
-750 -752 751 0
-750 -754 753 0
-750 -756 755 0
-750 -758 757 0
-750 -760 759 0
-750 -762 761 0
-750 -764 763 0
751 766 0
-751 -766 0
-751 -765 750 0
-751 -767 753 0
-751 -768 755 0
-751 -769 757 0
-751 -770 759 0
-751 -771 761 0
-751 -772 763 0
753 774 0
-753 -774 0
-753 -773 750 0
-753 -775 751 0
-753 -776 755 0
-753 -777 757 0
-753 -778 759 0
-753 -779 761 0
-753 -780 763 0
755 782 0
-755 -782 0
-755 -781 750 0
-755 -783 751 0
-755 -784 753 0
-755 -785 757 0
-755 -786 759 0
-755 -787 761 0
-755 -788 763 0
757 790 0
-757 -790 0
-757 -789 750 0
-757 -791 751 0
-757 -792 753 0
-757 -793 755 0
-757 -794 759 0
-757 -795 761 0
-757 -796 763 0
759 798 0
-759 -798 0
-759 -797 750 0
-759 -799 751 0
-759 -800 753 0
-759 -801 755 0
-759 -802 757 0
-759 -803 761 0
-759 -804 763 0
761 806 0
-761 -806 0
-761 -805 750 0
-761 -807 751 0
-761 -808 753 0
-761 -809 755 0
-761 -810 757 0
-761 -811 759 0
-761 -812 763 0
763 814 0
-763 -814 0
-763 -813 750 0
-763 -815 751 0
-763 -816 753 0
-763 -817 755 0
-763 -818 757 0
-763 -819 759 0
-763 -820 761 0
822 0
765 752 0
-765 -752 0
-765 -749 766 0
-765 -754 767 0
-765 -756 768 0
-765 -758 769 0
-765 -760 770 0
-765 -762 771 0
-765 -764 772 0
766 751 0
-766 -751 0
-766 -750 765 0
-766 -753 767 0
-766 -755 768 0
-766 -757 769 0
-766 -759 770 0
-766 -761 771 0
-766 -763 772 0
767 775 0
-767 -775 0
-767 -773 765 0
-767 -774 766 0
-767 -776 768 0
-767 -777 769 0
-767 -778 770 0
-767 -779 771 0
-767 -780 772 0
768 783 0
-768 -783 0
-768 -781 765 0
-768 -782 766 0
-768 -784 767 0
-768 -785 769 0
-768 -786 770 0
-768 -787 771 0
-768 -788 772 0
769 791 0
-769 -791 0
-769 -789 765 0
-769 -790 766 0
-769 -792 767 0
-769 -793 768 0
-769 -794 770 0
-769 -795 771 0
-769 -796 772 0
770 799 0
-770 -799 0
-770 -797 765 0
-770 -798 766 0
-770 -800 767 0
-770 -801 768 0
-770 -802 769 0
-770 -803 771 0
-770 -804 772 0
771 807 0
-771 -807 0
-771 -805 765 0
-771 -806 766 0
-771 -808 767 0
-771 -809 768 0
-771 -810 769 0
-771 -811 770 0
-771 -812 772 0
772 815 0
-772 -815 0
-772 -813 765 0
-772 -814 766 0
-772 -816 767 0
-772 -817 768 0
-772 -818 769 0
-772 -819 770 0
-772 -820 771 0
823 0
773 754 0
-773 -754 0
-773 -749 774 0
-773 -752 775 0
-773 -756 776 0
-773 -758 777 0
-773 -760 778 0
-773 -762 779 0
-773 -764 780 0
774 753 0
-774 -753 0
-774 -750 773 0
-774 -751 775 0
-774 -755 776 0
-774 -757 777 0
-774 -759 778 0
-774 -761 779 0
-774 -763 780 0
775 767 0
-775 -767 0
-775 -765 773 0
-775 -766 774 0
-775 -768 776 0
-775 -769 777 0
-775 -770 778 0
-775 -771 779 0
-775 -772 780 0
776 784 0
-776 -784 0
-776 -781 773 0
-776 -782 774 0
-776 -783 775 0
-776 -785 777 0
-776 -786 778 0
-776 -787 779 0
-776 -788 780 0
777 792 0
-777 -792 0
-777 -789 773 0
-777 -790 774 0
-777 -791 775 0
-777 -793 776 0
-777 -794 778 0
-777 -795 779 0
-777 -796 780 0
778 800 0
-778 -800 0
-778 -797 773 0
-778 -798 774 0
-778 -799 775 0
-778 -801 776 0
-778 -802 777 0
-778 -803 779 0
-778 -804 780 0
779 808 0
-779 -808 0
-779 -805 773 0
-779 -806 774 0
-779 -807 775 0
-779 -809 776 0
-779 -810 777 0
-779 -811 778 0
-779 -812 780 0
780 816 0
-780 -816 0
-780 -813 773 0
-780 -814 774 0
-780 -815 775 0
-780 -817 776 0
-780 -818 777 0
-780 -819 778 0
-780 -820 779 0
824 0
781 756 0
-781 -756 0
-781 -749 782 0
-781 -752 783 0
-781 -754 784 0
-781 -758 785 0
-781 -760 786 0
-781 -762 787 0
-781 -764 788 0
782 755 0
-782 -755 0
-782 -750 781 0
-782 -751 783 0
-782 -753 784 0
-782 -757 785 0
-782 -759 786 0
-782 -761 787 0
-782 -763 788 0
783 768 0
-783 -768 0
-783 -765 781 0
-783 -766 782 0
-783 -767 784 0
-783 -769 785 0
-783 -770 786 0
-783 -771 787 0
-783 -772 788 0
784 776 0
-784 -776 0
-784 -773 781 0
-784 -774 782 0
-784 -775 783 0
-784 -777 785 0
-784 -778 786 0
-784 -779 787 0
-784 -780 788 0
785 793 0
-785 -793 0
-785 -789 781 0
-785 -790 782 0
-785 -791 783 0
-785 -792 784 0
-785 -794 786 0
-785 -795 787 0
-785 -796 788 0
786 801 0
-786 -801 0
-786 -797 781 0
-786 -798 782 0
-786 -799 783 0
-786 -800 784 0
-786 -802 785 0
-786 -803 787 0
-786 -804 788 0
787 809 0
-787 -809 0
-787 -805 781 0
-787 -806 782 0
-787 -807 783 0
-787 -808 784 0
-787 -810 785 0
-787 -811 786 0
-787 -812 788 0
788 817 0
-788 -817 0
-788 -813 781 0
-788 -814 782 0
-788 -815 783 0
-788 -816 784 0
-788 -818 785 0
-788 -819 786 0
-788 -820 787 0
825 0
789 758 0
-789 -758 0
-789 -749 790 0
-789 -752 791 0
-789 -754 792 0
-789 -756 793 0
-789 -760 794 0
-789 -762 795 0
-789 -764 796 0
790 757 0
-790 -757 0
-790 -750 789 0
-790 -751 791 0
-790 -753 792 0
-790 -755 793 0
-790 -759 794 0
-790 -761 795 0
-790 -763 796 0
791 769 0
-791 -769 0
-791 -765 789 0
-791 -766 790 0
-791 -767 792 0
-791 -768 793 0
-791 -770 794 0
-791 -771 795 0
-791 -772 796 0
792 777 0
-792 -777 0
-792 -773 789 0
-792 -774 790 0
-792 -775 791 0
-792 -776 793 0
-792 -778 794 0
-792 -779 795 0
-792 -780 796 0
793 785 0
-793 -785 0
-793 -781 789 0
-793 -782 790 0
-793 -783 791 0
-793 -784 792 0
-793 -786 794 0
-793 -787 795 0
-793 -788 796 0
794 802 0
-794 -802 0
-794 -797 789 0
-794 -798 790 0
-794 -799 791 0
-794 -800 792 0
-794 -801 793 0
-794 -803 795 0
-794 -804 796 0
795 810 0
-795 -810 0
-795 -805 789 0
-795 -806 790 0
-795 -807 791 0
-795 -808 792 0
-795 -809 793 0
-795 -811 794 0
-795 -812 796 0
796 818 0
-796 -818 0
-796 -813 789 0
-796 -814 790 0
-796 -815 791 0
-796 -816 792 0
-796 -817 793 0
-796 -819 794 0
-796 -820 795 0
826 0
797 760 0
-797 -760 0
-797 -749 798 0
-797 -752 799 0
-797 -754 800 0
-797 -756 801 0
-797 -758 802 0
-797 -762 803 0
-797 -764 804 0
798 759 0
-798 -759 0
-798 -750 797 0
-798 -751 799 0
-798 -753 800 0
-798 -755 801 0
-798 -757 802 0
-798 -761 803 0
-798 -763 804 0
799 770 0
-799 -770 0
-799 -765 797 0
-799 -766 798 0
-799 -767 800 0
-799 -768 801 0
-799 -769 802 0
-799 -771 803 0
-799 -772 804 0
800 778 0
-800 -778 0
-800 -773 797 0
-800 -774 798 0
-800 -775 799 0
-800 -776 801 0
-800 -777 802 0
-800 -779 803 0
-800 -780 804 0
801 786 0
-801 -786 0
-801 -781 797 0
-801 -782 798 0
-801 -783 799 0
-801 -784 800 0
-801 -785 802 0
-801 -787 803 0
-801 -788 804 0
802 794 0
-802 -794 0
-802 -789 797 0
-802 -790 798 0
-802 -791 799 0
-802 -792 800 0
-802 -793 801 0
-802 -795 803 0
-802 -796 804 0
803 811 0
-803 -811 0
-803 -805 797 0
-803 -806 798 0
-803 -807 799 0
-803 -808 800 0
-803 -809 801 0
-803 -810 802 0
-803 -812 804 0
804 819 0
-804 -819 0
-804 -813 797 0
-804 -814 798 0
-804 -815 799 0
-804 -816 800 0
-804 -817 801 0
-804 -818 802 0
-804 -820 803 0
827 0
805 762 0
-805 -762 0
-805 -749 806 0
-805 -752 807 0
-805 -754 808 0
-805 -756 809 0
-805 -758 810 0
-805 -760 811 0
-805 -764 812 0
806 761 0
-806 -761 0
-806 -750 805 0
-806 -751 807 0
-806 -753 808 0
-806 -755 809 0
-806 -757 810 0
-806 -759 811 0
-806 -763 812 0
807 771 0
-807 -771 0
-807 -765 805 0
-807 -766 806 0
-807 -767 808 0
-807 -768 809 0
-807 -769 810 0
-807 -770 811 0
-807 -772 812 0
808 779 0
-808 -779 0
-808 -773 805 0
-808 -774 806 0
-808 -775 807 0
-808 -776 809 0
-808 -777 810 0
-808 -778 811 0
-808 -780 812 0
809 787 0
-809 -787 0
-809 -781 805 0
-809 -782 806 0
-809 -783 807 0
-809 -784 808 0
-809 -785 810 0
-809 -786 811 0
-809 -788 812 0
810 795 0
-810 -795 0
-810 -789 805 0
-810 -790 806 0
-810 -791 807 0
-810 -792 808 0
-810 -793 809 0
-810 -794 811 0
-810 -796 812 0
811 803 0
-811 -803 0
-811 -797 805 0
-811 -798 806 0
-811 -799 807 0
-811 -800 808 0
-811 -801 809 0
-811 -802 810 0
-811 -804 812 0
812 820 0
-812 -820 0
-812 -813 805 0
-812 -814 806 0
-812 -815 807 0
-812 -816 808 0
-812 -817 809 0
-812 -818 810 0
-812 -819 811 0
828 0
813 764 0
-813 -764 0
-813 -749 814 0
-813 -752 815 0
-813 -754 816 0
-813 -756 817 0
-813 -758 818 0
-813 -760 819 0
-813 -762 820 0
814 763 0
-814 -763 0
-814 -750 813 0
-814 -751 815 0
-814 -753 816 0
-814 -755 817 0
-814 -757 818 0
-814 -759 819 0
-814 -761 820 0
815 772 0
-815 -772 0
-815 -765 813 0
-815 -766 814 0
-815 -767 816 0
-815 -768 817 0
-815 -769 818 0
-815 -770 819 0
-815 -771 820 0
816 780 0
-816 -780 0
-816 -773 813 0
-816 -774 814 0
-816 -775 815 0
-816 -776 817 0
-816 -777 818 0
-816 -778 819 0
-816 -779 820 0
817 788 0
-817 -788 0
-817 -781 813 0
-817 -782 814 0
-817 -783 815 0
-817 -784 816 0
-817 -785 818 0
-817 -786 819 0
-817 -787 820 0
818 796 0
-818 -796 0
-818 -789 813 0
-818 -790 814 0
-818 -791 815 0
-818 -792 816 0
-818 -793 817 0
-818 -794 819 0
-818 -795 820 0
819 804 0
-819 -804 0
-819 -797 813 0
-819 -798 814 0
-819 -799 815 0
-819 -800 816 0
-819 -801 817 0
-819 -802 818 0
-819 -803 820 0
820 812 0
-820 -812 0
-820 -805 813 0
-820 -806 814 0
-820 -807 815 0
-820 -808 816 0
-820 -809 817 0
-820 -810 818 0
-820 -811 819 0
-505 0
-523 749 0
-829 752 0
-829 766 0
-752 -766 829 0
-830 754 0
-830 774 0
-754 -774 830 0
-831 756 0
-831 782 0
-756 -782 831 0
-832 758 0
-832 790 0
-758 -790 832 0
-833 760 0
-833 798 0
-760 -798 833 0
-834 762 0
-834 806 0
-762 -806 834 0
-835 764 0
-835 814 0
-764 -814 835 0
-523 -829 0
-523 -830 0
-523 -831 0
-523 -832 0
-523 -833 0
-523 -834 0
-523 -835 0
-749 523 829 830 831 832 833 834 835 0
-541 752 0
-836 749 0
-836 751 0
-749 -751 836 0
-837 754 0
-837 775 0
-754 -775 837 0
-838 756 0
-838 783 0
-756 -783 838 0
-839 758 0
-839 791 0
-758 -791 839 0
-840 760 0
-840 799 0
-760 -799 840 0
-841 762 0
-841 807 0
-762 -807 841 0
-842 764 0
-842 815 0
-764 -815 842 0
-541 -836 0
-541 -837 0
-541 -838 0
-541 -839 0
-541 -840 0
-541 -841 0
-541 -842 0
-752 541 836 837 838 839 840 841 842 0
-559 754 0
-843 749 0
-843 753 0
-749 -753 843 0
-844 752 0
-844 767 0
-752 -767 844 0
-845 756 0
-845 784 0
-756 -784 845 0
-846 758 0
-846 792 0
-758 -792 846 0
-847 760 0
-847 800 0
-760 -800 847 0
-848 762 0
-848 808 0
-762 -808 848 0
-849 764 0
-849 816 0
-764 -816 849 0
-559 -843 0
-559 -844 0
-559 -845 0
-559 -846 0
-559 -847 0
-559 -848 0
-559 -849 0
-754 559 843 844 845 846 847 848 849 0
-577 756 0
-850 749 0
-850 755 0
-749 -755 850 0
-851 752 0
-851 768 0
-752 -768 851 0
-852 754 0
-852 776 0
-754 -776 852 0
-853 758 0
-853 793 0
-758 -793 853 0
-854 760 0
-854 801 0
-760 -801 854 0
-855 762 0
-855 809 0
-762 -809 855 0
-856 764 0
-856 817 0
-764 -817 856 0
-577 -850 0
-577 -851 0
-577 -852 0
-577 -853 0
-577 -854 0
-577 -855 0
-577 -856 0
-756 577 850 851 852 853 854 855 856 0
-595 758 0
-857 749 0
-857 757 0
-749 -757 857 0
-858 752 0
-858 769 0
-752 -769 858 0
-859 754 0
-859 777 0
-754 -777 859 0
-860 756 0
-860 785 0
-756 -785 860 0
-861 760 0
-861 802 0
-760 -802 861 0
-862 762 0
-862 810 0
-762 -810 862 0
-863 764 0
-863 818 0
-764 -818 863 0
-595 -857 0
-595 -858 0
-595 -859 0
-595 -860 0
-595 -861 0
-595 -862 0
-595 -863 0
-758 595 857 858 859 860 861 862 863 0
-613 760 0
-864 749 0
-864 759 0
-749 -759 864 0
-865 752 0
-865 770 0
-752 -770 865 0
-866 754 0
-866 778 0
-754 -778 866 0
-867 756 0
-867 786 0
-756 -786 867 0
-868 758 0
-868 794 0
-758 -794 868 0
-869 762 0
-869 811 0
-762 -811 869 0
-870 764 0
-870 819 0
-764 -819 870 0
-613 -864 0
-613 -865 0
-613 -866 0
-613 -867 0
-613 -868 0
-613 -869 0
-613 -870 0
-760 613 864 865 866 867 868 869 870 0
-631 762 0
-871 749 0
-871 761 0
-749 -761 871 0
-872 752 0
-872 771 0
-752 -771 872 0
-873 754 0
-873 779 0
-754 -779 873 0
-874 756 0
-874 787 0
-756 -787 874 0
-875 758 0
-875 795 0
-758 -795 875 0
-876 760 0
-876 803 0
-760 -803 876 0
-877 764 0
-877 820 0
-764 -820 877 0
-631 -871 0
-631 -872 0
-631 -873 0
-631 -874 0
-631 -875 0
-631 -876 0
-631 -877 0
-762 631 871 872 873 874 875 876 877 0
-649 764 0
-878 749 0
-878 763 0
-749 -763 878 0
-879 752 0
-879 772 0
-752 -772 879 0
-880 754 0
-880 780 0
-754 -780 880 0
-881 756 0
-881 788 0
-756 -788 881 0
-882 758 0
-882 796 0
-758 -796 882 0
-883 760 0
-883 804 0
-760 -804 883 0
-884 762 0
-884 812 0
-762 -812 884 0
-649 -878 0
-649 -879 0
-649 -880 0
-649 -881 0
-649 -882 0
-649 -883 0
-649 -884 0
-764 649 878 879 880 881 882 883 884 0
-507 750 0
-885 751 0
-885 765 0
-751 -765 885 0
-886 753 0
-886 773 0
-753 -773 886 0
-887 755 0
-887 781 0
-755 -781 887 0
-888 757 0
-888 789 0
-757 -789 888 0
-889 759 0
-889 797 0
-759 -797 889 0
-890 761 0
-890 805 0
-761 -805 890 0
-891 763 0
-891 813 0
-763 -813 891 0
-507 -885 0
-507 -886 0
-507 -887 0
-507 -888 0
-507 -889 0
-507 -890 0
-507 -891 0
-750 507 885 886 887 888 889 890 891 0
-525 0
-543 751 0
-892 750 0
-892 752 0
-750 -752 892 0
-893 753 0
-893 775 0
-753 -775 893 0
-894 755 0
-894 783 0
-755 -783 894 0
-895 757 0
-895 791 0
-757 -791 895 0
-896 759 0
-896 799 0
-759 -799 896 0
-897 761 0
-897 807 0
-761 -807 897 0
-898 763 0
-898 815 0
-763 -815 898 0
-543 -892 0
-543 -893 0
-543 -894 0
-543 -895 0
-543 -896 0
-543 -897 0
-543 -898 0
-751 543 892 893 894 895 896 897 898 0
-561 753 0
-899 750 0
-899 754 0
-750 -754 899 0
-900 751 0
-900 767 0
-751 -767 900 0
-901 755 0
-901 784 0
-755 -784 901 0
-902 757 0
-902 792 0
-757 -792 902 0
-903 759 0
-903 800 0
-759 -800 903 0
-904 761 0
-904 808 0
-761 -808 904 0
-905 763 0
-905 816 0
-763 -816 905 0
-561 -899 0
-561 -900 0
-561 -901 0
-561 -902 0
-561 -903 0
-561 -904 0
-561 -905 0
-753 561 899 900 901 902 903 904 905 0
-579 755 0
-906 750 0
-906 756 0
-750 -756 906 0
-907 751 0
-907 768 0
-751 -768 907 0
-908 753 0
-908 776 0
-753 -776 908 0
-909 757 0
-909 793 0
-757 -793 909 0
-910 759 0
-910 801 0
-759 -801 910 0
-911 761 0
-911 809 0
-761 -809 911 0
-912 763 0
-912 817 0
-763 -817 912 0
-579 -906 0
-579 -907 0
-579 -908 0
-579 -909 0
-579 -910 0
-579 -911 0
-579 -912 0
-755 579 906 907 908 909 910 911 912 0
-597 757 0
-913 750 0
-913 758 0
-750 -758 913 0
-914 751 0
-914 769 0
-751 -769 914 0
-915 753 0
-915 777 0
-753 -777 915 0
-916 755 0
-916 785 0
-755 -785 916 0
-917 759 0
-917 802 0
-759 -802 917 0
-918 761 0
-918 810 0
-761 -810 918 0
-919 763 0
-919 818 0
-763 -818 919 0
-597 -913 0
-597 -914 0
-597 -915 0
-597 -916 0
-597 -917 0
-597 -918 0
-597 -919 0
-757 597 913 914 915 916 917 918 919 0
-615 759 0
-920 750 0
-920 760 0
-750 -760 920 0
-921 751 0
-921 770 0
-751 -770 921 0
-922 753 0
-922 778 0
-753 -778 922 0
-923 755 0
-923 786 0
-755 -786 923 0
-924 757 0
-924 794 0
-757 -794 924 0
-925 761 0
-925 811 0
-761 -811 925 0
-926 763 0
-926 819 0
-763 -819 926 0
-615 -920 0
-615 -921 0
-615 -922 0
-615 -923 0
-615 -924 0
-615 -925 0
-615 -926 0
-759 615 920 921 922 923 924 925 926 0
-633 761 0
-927 750 0
-927 762 0
-750 -762 927 0
-928 751 0
-928 771 0
-751 -771 928 0
-929 753 0
-929 779 0
-753 -779 929 0
-930 755 0
-930 787 0
-755 -787 930 0
-931 757 0
-931 795 0
-757 -795 931 0
-932 759 0
-932 803 0
-759 -803 932 0
-933 763 0
-933 820 0
-763 -820 933 0
-633 -927 0
-633 -928 0
-633 -929 0
-633 -930 0
-633 -931 0
-633 -932 0
-633 -933 0
-761 633 927 928 929 930 931 932 933 0
-651 763 0
-934 750 0
-934 764 0
-750 -764 934 0
-935 751 0
-935 772 0
-751 -772 935 0
-936 753 0
-936 780 0
-753 -780 936 0
-937 755 0
-937 788 0
-755 -788 937 0
-938 757 0
-938 796 0
-757 -796 938 0
-939 759 0
-939 804 0
-759 -804 939 0
-940 761 0
-940 812 0
-761 -812 940 0
-651 -934 0
-651 -935 0
-651 -936 0
-651 -937 0
-651 -938 0
-651 -939 0
-651 -940 0
-763 651 934 935 936 937 938 939 940 0
-509 765 0
-941 766 0
-941 750 0
-766 -750 941 0
-942 767 0
-942 773 0
-767 -773 942 0
-943 768 0
-943 781 0
-768 -781 943 0
-944 769 0
-944 789 0
-769 -789 944 0
-945 770 0
-945 797 0
-770 -797 945 0
-946 771 0
-946 805 0
-771 -805 946 0
-947 772 0
-947 813 0
-772 -813 947 0
-509 -941 0
-509 -942 0
-509 -943 0
-509 -944 0
-509 -945 0
-509 -946 0
-509 -947 0
-765 509 941 942 943 944 945 946 947 0
-527 766 0
-948 765 0
-948 749 0
-765 -749 948 0
-949 767 0
-949 774 0
-767 -774 949 0
-950 768 0
-950 782 0
-768 -782 950 0
-951 769 0
-951 790 0
-769 -790 951 0
-952 770 0
-952 798 0
-770 -798 952 0
-953 771 0
-953 806 0
-771 -806 953 0
-954 772 0
-954 814 0
-772 -814 954 0
-527 -948 0
-527 -949 0
-527 -950 0
-527 -951 0
-527 -952 0
-527 -953 0
-527 -954 0
-766 527 948 949 950 951 952 953 954 0
-545 0
-563 767 0
-955 765 0
-955 754 0
-765 -754 955 0
-956 766 0
-956 753 0
-766 -753 956 0
-957 768 0
-957 784 0
-768 -784 957 0
-958 769 0
-958 792 0
-769 -792 958 0
-959 770 0
-959 800 0
-770 -800 959 0
-960 771 0
-960 808 0
-771 -808 960 0
-961 772 0
-961 816 0
-772 -816 961 0
-563 -955 0
-563 -956 0
-563 -957 0
-563 -958 0
-563 -959 0
-563 -960 0
-563 -961 0
-767 563 955 956 957 958 959 960 961 0
-581 768 0
-962 765 0
-962 756 0
-765 -756 962 0
-963 766 0
-963 755 0
-766 -755 963 0
-964 767 0
-964 776 0
-767 -776 964 0
-965 769 0
-965 793 0
-769 -793 965 0
-966 770 0
-966 801 0
-770 -801 966 0
-967 771 0
-967 809 0
-771 -809 967 0
-968 772 0
-968 817 0
-772 -817 968 0
-581 -962 0
-581 -963 0
-581 -964 0
-581 -965 0
-581 -966 0
-581 -967 0
-581 -968 0
-768 581 962 963 964 965 966 967 968 0
-599 769 0
-969 765 0
-969 758 0
-765 -758 969 0
-970 766 0
-970 757 0
-766 -757 970 0
-971 767 0
-971 777 0
-767 -777 971 0
-972 768 0
-972 785 0
-768 -785 972 0
-973 770 0
-973 802 0
-770 -802 973 0
-974 771 0
-974 810 0
-771 -810 974 0
-975 772 0
-975 818 0
-772 -818 975 0
-599 -969 0
-599 -970 0
-599 -971 0
-599 -972 0
-599 -973 0
-599 -974 0
-599 -975 0
-769 599 969 970 971 972 973 974 975 0
-617 770 0
-976 765 0
-976 760 0
-765 -760 976 0
-977 766 0
-977 759 0
-766 -759 977 0
-978 767 0
-978 778 0
-767 -778 978 0
-979 768 0
-979 786 0
-768 -786 979 0
-980 769 0
-980 794 0
-769 -794 980 0
-981 771 0
-981 811 0
-771 -811 981 0
-982 772 0
-982 819 0
-772 -819 982 0
-617 -976 0
-617 -977 0
-617 -978 0
-617 -979 0
-617 -980 0
-617 -981 0
-617 -982 0
-770 617 976 977 978 979 980 981 982 0
-635 771 0
-983 765 0
-983 762 0
-765 -762 983 0
-984 766 0
-984 761 0
-766 -761 984 0
-985 767 0
-985 779 0
-767 -779 985 0
-986 768 0
-986 787 0
-768 -787 986 0
-987 769 0
-987 795 0
-769 -795 987 0
-988 770 0
-988 803 0
-770 -803 988 0
-989 772 0
-989 820 0
-772 -820 989 0
-635 -983 0
-635 -984 0
-635 -985 0
-635 -986 0
-635 -987 0
-635 -988 0
-635 -989 0
-771 635 983 984 985 986 987 988 989 0
-653 772 0
-990 765 0
-990 764 0
-765 -764 990 0
-991 766 0
-991 763 0
-766 -763 991 0
-992 767 0
-992 780 0
-767 -780 992 0
-993 768 0
-993 788 0
-768 -788 993 0
-994 769 0
-994 796 0
-769 -796 994 0
-995 770 0
-995 804 0
-770 -804 995 0
-996 771 0
-996 812 0
-771 -812 996 0
-653 -990 0
-653 -991 0
-653 -992 0
-653 -993 0
-653 -994 0
-653 -995 0
-653 -996 0
-772 653 990 991 992 993 994 995 996 0
-511 773 0
-997 774 0
-997 750 0
-774 -750 997 0
-998 775 0
-998 765 0
-775 -765 998 0
-999 776 0
-999 781 0
-776 -781 999 0
-1000 777 0
-1000 789 0
-777 -789 1000 0
-1001 778 0
-1001 797 0
-778 -797 1001 0
-1002 779 0
-1002 805 0
-779 -805 1002 0
-1003 780 0
-1003 813 0
-780 -813 1003 0
-511 -997 0
-511 -998 0
-511 -999 0
-511 -1000 0
-511 -1001 0
-511 -1002 0
-511 -1003 0
-773 511 997 998 999 1000 1001 1002 1003 0
-529 774 0
-1004 773 0
-1004 749 0
-773 -749 1004 0
-1005 775 0
-1005 766 0
-775 -766 1005 0
-1006 776 0
-1006 782 0
-776 -782 1006 0
-1007 777 0
-1007 790 0
-777 -790 1007 0
-1008 778 0
-1008 798 0
-778 -798 1008 0
-1009 779 0
-1009 806 0
-779 -806 1009 0
-1010 780 0
-1010 814 0
-780 -814 1010 0
-529 -1004 0
-529 -1005 0
-529 -1006 0
-529 -1007 0
-529 -1008 0
-529 -1009 0
-529 -1010 0
-774 529 1004 1005 1006 1007 1008 1009 1010 0
-547 775 0
-1011 773 0
-1011 752 0
-773 -752 1011 0
-1012 774 0
-1012 751 0
-774 -751 1012 0
-1013 776 0
-1013 783 0
-776 -783 1013 0
-1014 777 0
-1014 791 0
-777 -791 1014 0
-1015 778 0
-1015 799 0
-778 -799 1015 0
-1016 779 0
-1016 807 0
-779 -807 1016 0
-1017 780 0
-1017 815 0
-780 -815 1017 0
-547 -1011 0
-547 -1012 0
-547 -1013 0
-547 -1014 0
-547 -1015 0
-547 -1016 0
-547 -1017 0
-775 547 1011 1012 1013 1014 1015 1016 1017 0
-565 0
-583 776 0
-1018 773 0
-1018 756 0
-773 -756 1018 0
-1019 774 0
-1019 755 0
-774 -755 1019 0
-1020 775 0
-1020 768 0
-775 -768 1020 0
-1021 777 0
-1021 793 0
-777 -793 1021 0
-1022 778 0
-1022 801 0
-778 -801 1022 0
-1023 779 0
-1023 809 0
-779 -809 1023 0
-1024 780 0
-1024 817 0
-780 -817 1024 0
-583 -1018 0
-583 -1019 0
-583 -1020 0
-583 -1021 0
-583 -1022 0
-583 -1023 0
-583 -1024 0
-776 583 1018 1019 1020 1021 1022 1023 1024 0
-601 777 0
-1025 773 0
-1025 758 0
-773 -758 1025 0
-1026 774 0
-1026 757 0
-774 -757 1026 0
-1027 775 0
-1027 769 0
-775 -769 1027 0
-1028 776 0
-1028 785 0
-776 -785 1028 0
-1029 778 0
-1029 802 0
-778 -802 1029 0
-1030 779 0
-1030 810 0
-779 -810 1030 0
-1031 780 0
-1031 818 0
-780 -818 1031 0
-601 -1025 0
-601 -1026 0
-601 -1027 0
-601 -1028 0
-601 -1029 0
-601 -1030 0
-601 -1031 0
-777 601 1025 1026 1027 1028 1029 1030 1031 0
-619 778 0
-1032 773 0
-1032 760 0
-773 -760 1032 0
-1033 774 0
-1033 759 0
-774 -759 1033 0
-1034 775 0
-1034 770 0
-775 -770 1034 0
-1035 776 0
-1035 786 0
-776 -786 1035 0
-1036 777 0
-1036 794 0
-777 -794 1036 0
-1037 779 0
-1037 811 0
-779 -811 1037 0
-1038 780 0
-1038 819 0
-780 -819 1038 0
-619 -1032 0
-619 -1033 0
-619 -1034 0
-619 -1035 0
-619 -1036 0
-619 -1037 0
-619 -1038 0
-778 619 1032 1033 1034 1035 1036 1037 1038 0
-637 779 0
-1039 773 0
-1039 762 0
-773 -762 1039 0
-1040 774 0
-1040 761 0
-774 -761 1040 0
-1041 775 0
-1041 771 0
-775 -771 1041 0
-1042 776 0
-1042 787 0
-776 -787 1042 0
-1043 777 0
-1043 795 0
-777 -795 1043 0
-1044 778 0
-1044 803 0
-778 -803 1044 0
-1045 780 0
-1045 820 0
-780 -820 1045 0
-637 -1039 0
-637 -1040 0
-637 -1041 0
-637 -1042 0
-637 -1043 0
-637 -1044 0
-637 -1045 0
-779 637 1039 1040 1041 1042 1043 1044 1045 0
-655 780 0
-1046 773 0
-1046 764 0
-773 -764 1046 0
-1047 774 0
-1047 763 0
-774 -763 1047 0
-1048 775 0
-1048 772 0
-775 -772 1048 0
-1049 776 0
-1049 788 0
-776 -788 1049 0
-1050 777 0
-1050 796 0
-777 -796 1050 0
-1051 778 0
-1051 804 0
-778 -804 1051 0
-1052 779 0
-1052 812 0
-779 -812 1052 0
-655 -1046 0
-655 -1047 0
-655 -1048 0
-655 -1049 0
-655 -1050 0
-655 -1051 0
-655 -1052 0
-780 655 1046 1047 1048 1049 1050 1051 1052 0
-513 781 0
-1053 782 0
-1053 750 0
-782 -750 1053 0
-1054 783 0
-1054 765 0
-783 -765 1054 0
-1055 784 0
-1055 773 0
-784 -773 1055 0
-1056 785 0
-1056 789 0
-785 -789 1056 0
-1057 786 0
-1057 797 0
-786 -797 1057 0
-1058 787 0
-1058 805 0
-787 -805 1058 0
-1059 788 0
-1059 813 0
-788 -813 1059 0
-513 -1053 0
-513 -1054 0
-513 -1055 0
-513 -1056 0
-513 -1057 0
-513 -1058 0
-513 -1059 0
-781 513 1053 1054 1055 1056 1057 1058 1059 0
-531 782 0
-1060 781 0
-1060 749 0
-781 -749 1060 0
-1061 783 0
-1061 766 0
-783 -766 1061 0
-1062 784 0
-1062 774 0
-784 -774 1062 0
-1063 785 0
-1063 790 0
-785 -790 1063 0
-1064 786 0
-1064 798 0
-786 -798 1064 0
-1065 787 0
-1065 806 0
-787 -806 1065 0
-1066 788 0
-1066 814 0
-788 -814 1066 0
-531 -1060 0
-531 -1061 0
-531 -1062 0
-531 -1063 0
-531 -1064 0
-531 -1065 0
-531 -1066 0
-782 531 1060 1061 1062 1063 1064 1065 1066 0
-549 783 0
-1067 781 0
-1067 752 0
-781 -752 1067 0
-1068 782 0
-1068 751 0
-782 -751 1068 0
-1069 784 0
-1069 775 0
-784 -775 1069 0
-1070 785 0
-1070 791 0
-785 -791 1070 0
-1071 786 0
-1071 799 0
-786 -799 1071 0
-1072 787 0
-1072 807 0
-787 -807 1072 0
-1073 788 0
-1073 815 0
-788 -815 1073 0
-549 -1067 0
-549 -1068 0
-549 -1069 0
-549 -1070 0
-549 -1071 0
-549 -1072 0
-549 -1073 0
-783 549 1067 1068 1069 1070 1071 1072 1073 0
-567 784 0
-1074 781 0
-1074 754 0
-781 -754 1074 0
-1075 782 0
-1075 753 0
-782 -753 1075 0
-1076 783 0
-1076 767 0
-783 -767 1076 0
-1077 785 0
-1077 792 0
-785 -792 1077 0
-1078 786 0
-1078 800 0
-786 -800 1078 0
-1079 787 0
-1079 808 0
-787 -808 1079 0
-1080 788 0
-1080 816 0
-788 -816 1080 0
-567 -1074 0
-567 -1075 0
-567 -1076 0
-567 -1077 0
-567 -1078 0
-567 -1079 0
-567 -1080 0
-784 567 1074 1075 1076 1077 1078 1079 1080 0
-585 0
-603 785 0
-1081 781 0
-1081 758 0
-781 -758 1081 0
-1082 782 0
-1082 757 0
-782 -757 1082 0
-1083 783 0
-1083 769 0
-783 -769 1083 0
-1084 784 0
-1084 777 0
-784 -777 1084 0
-1085 786 0
-1085 802 0
-786 -802 1085 0
-1086 787 0
-1086 810 0
-787 -810 1086 0
-1087 788 0
-1087 818 0
-788 -818 1087 0
-603 -1081 0
-603 -1082 0
-603 -1083 0
-603 -1084 0
-603 -1085 0
-603 -1086 0
-603 -1087 0
-785 603 1081 1082 1083 1084 1085 1086 1087 0
-621 786 0
-1088 781 0
-1088 760 0
-781 -760 1088 0
-1089 782 0
-1089 759 0
-782 -759 1089 0
-1090 783 0
-1090 770 0
-783 -770 1090 0
-1091 784 0
-1091 778 0
-784 -778 1091 0
-1092 785 0
-1092 794 0
-785 -794 1092 0
-1093 787 0
-1093 811 0
-787 -811 1093 0
-1094 788 0
-1094 819 0
-788 -819 1094 0
-621 -1088 0
-621 -1089 0
-621 -1090 0
-621 -1091 0
-621 -1092 0
-621 -1093 0
-621 -1094 0
-786 621 1088 1089 1090 1091 1092 1093 1094 0
-639 787 0
-1095 781 0
-1095 762 0
-781 -762 1095 0
-1096 782 0
-1096 761 0
-782 -761 1096 0
-1097 783 0
-1097 771 0
-783 -771 1097 0
-1098 784 0
-1098 779 0
-784 -779 1098 0
-1099 785 0
-1099 795 0
-785 -795 1099 0
-1100 786 0
-1100 803 0
-786 -803 1100 0
-1101 788 0
-1101 820 0
-788 -820 1101 0
-639 -1095 0
-639 -1096 0
-639 -1097 0
-639 -1098 0
-639 -1099 0
-639 -1100 0
-639 -1101 0
-787 639 1095 1096 1097 1098 1099 1100 1101 0
-657 788 0
-1102 781 0
-1102 764 0
-781 -764 1102 0
-1103 782 0
-1103 763 0
-782 -763 1103 0
-1104 783 0
-1104 772 0
-783 -772 1104 0
-1105 784 0
-1105 780 0
-784 -780 1105 0
-1106 785 0
-1106 796 0
-785 -796 1106 0
-1107 786 0
-1107 804 0
-786 -804 1107 0
-1108 787 0
-1108 812 0
-787 -812 1108 0
-657 -1102 0
-657 -1103 0
-657 -1104 0
-657 -1105 0
-657 -1106 0
-657 -1107 0
-657 -1108 0
-788 657 1102 1103 1104 1105 1106 1107 1108 0
-515 789 0
-1109 790 0
-1109 750 0
-790 -750 1109 0
-1110 791 0
-1110 765 0
-791 -765 1110 0
-1111 792 0
-1111 773 0
-792 -773 1111 0
-1112 793 0
-1112 781 0
-793 -781 1112 0
-1113 794 0
-1113 797 0
-794 -797 1113 0
-1114 795 0
-1114 805 0
-795 -805 1114 0
-1115 796 0
-1115 813 0
-796 -813 1115 0
-515 -1109 0
-515 -1110 0
-515 -1111 0
-515 -1112 0
-515 -1113 0
-515 -1114 0
-515 -1115 0
-789 515 1109 1110 1111 1112 1113 1114 1115 0
-533 790 0
-1116 789 0
-1116 749 0
-789 -749 1116 0
-1117 791 0
-1117 766 0
-791 -766 1117 0
-1118 792 0
-1118 774 0
-792 -774 1118 0
-1119 793 0
-1119 782 0
-793 -782 1119 0
-1120 794 0
-1120 798 0
-794 -798 1120 0
-1121 795 0
-1121 806 0
-795 -806 1121 0
-1122 796 0
-1122 814 0
-796 -814 1122 0
-533 -1116 0
-533 -1117 0
-533 -1118 0
-533 -1119 0
-533 -1120 0
-533 -1121 0
-533 -1122 0
-790 533 1116 1117 1118 1119 1120 1121 1122 0
-551 791 0
-1123 789 0
-1123 752 0
-789 -752 1123 0
-1124 790 0
-1124 751 0
-790 -751 1124 0
-1125 792 0
-1125 775 0
-792 -775 1125 0
-1126 793 0
-1126 783 0
-793 -783 1126 0
-1127 794 0
-1127 799 0
-794 -799 1127 0
-1128 795 0
-1128 807 0
-795 -807 1128 0
-1129 796 0
-1129 815 0
-796 -815 1129 0
-551 -1123 0
-551 -1124 0
-551 -1125 0
-551 -1126 0
-551 -1127 0
-551 -1128 0
-551 -1129 0
-791 551 1123 1124 1125 1126 1127 1128 1129 0
-569 792 0
-1130 789 0
-1130 754 0
-789 -754 1130 0
-1131 790 0
-1131 753 0
-790 -753 1131 0
-1132 791 0
-1132 767 0
-791 -767 1132 0
-1133 793 0
-1133 784 0
-793 -784 1133 0
-1134 794 0
-1134 800 0
-794 -800 1134 0
-1135 795 0
-1135 808 0
-795 -808 1135 0
-1136 796 0
-1136 816 0
-796 -816 1136 0
-569 -1130 0
-569 -1131 0
-569 -1132 0
-569 -1133 0
-569 -1134 0
-569 -1135 0
-569 -1136 0
-792 569 1130 1131 1132 1133 1134 1135 1136 0
-587 793 0
-1137 789 0
-1137 756 0
-789 -756 1137 0
-1138 790 0
-1138 755 0
-790 -755 1138 0
-1139 791 0
-1139 768 0
-791 -768 1139 0
-1140 792 0
-1140 776 0
-792 -776 1140 0
-1141 794 0
-1141 801 0
-794 -801 1141 0
-1142 795 0
-1142 809 0
-795 -809 1142 0
-1143 796 0
-1143 817 0
-796 -817 1143 0
-587 -1137 0
-587 -1138 0
-587 -1139 0
-587 -1140 0
-587 -1141 0
-587 -1142 0
-587 -1143 0
-793 587 1137 1138 1139 1140 1141 1142 1143 0
-605 0
-623 794 0
-1144 789 0
-1144 760 0
-789 -760 1144 0
-1145 790 0
-1145 759 0
-790 -759 1145 0
-1146 791 0
-1146 770 0
-791 -770 1146 0
-1147 792 0
-1147 778 0
-792 -778 1147 0
-1148 793 0
-1148 786 0
-793 -786 1148 0
-1149 795 0
-1149 811 0
-795 -811 1149 0
-1150 796 0
-1150 819 0
-796 -819 1150 0
-623 -1144 0
-623 -1145 0
-623 -1146 0
-623 -1147 0
-623 -1148 0
-623 -1149 0
-623 -1150 0
-794 623 1144 1145 1146 1147 1148 1149 1150 0
-641 795 0
-1151 789 0
-1151 762 0
-789 -762 1151 0
-1152 790 0
-1152 761 0
-790 -761 1152 0
-1153 791 0
-1153 771 0
-791 -771 1153 0
-1154 792 0
-1154 779 0
-792 -779 1154 0
-1155 793 0
-1155 787 0
-793 -787 1155 0
-1156 794 0
-1156 803 0
-794 -803 1156 0
-1157 796 0
-1157 820 0
-796 -820 1157 0
-641 -1151 0
-641 -1152 0
-641 -1153 0
-641 -1154 0
-641 -1155 0
-641 -1156 0
-641 -1157 0
-795 641 1151 1152 1153 1154 1155 1156 1157 0
-659 796 0
-1158 789 0
-1158 764 0
-789 -764 1158 0
-1159 790 0
-1159 763 0
-790 -763 1159 0
-1160 791 0
-1160 772 0
-791 -772 1160 0
-1161 792 0
-1161 780 0
-792 -780 1161 0
-1162 793 0
-1162 788 0
-793 -788 1162 0
-1163 794 0
-1163 804 0
-794 -804 1163 0
-1164 795 0
-1164 812 0
-795 -812 1164 0
-659 -1158 0
-659 -1159 0
-659 -1160 0
-659 -1161 0
-659 -1162 0
-659 -1163 0
-659 -1164 0
-796 659 1158 1159 1160 1161 1162 1163 1164 0
-517 797 0
-1165 798 0
-1165 750 0
-798 -750 1165 0
-1166 799 0
-1166 765 0
-799 -765 1166 0
-1167 800 0
-1167 773 0
-800 -773 1167 0
-1168 801 0
-1168 781 0
-801 -781 1168 0
-1169 802 0
-1169 789 0
-802 -789 1169 0
-1170 803 0
-1170 805 0
-803 -805 1170 0
-1171 804 0
-1171 813 0
-804 -813 1171 0
-517 -1165 0
-517 -1166 0
-517 -1167 0
-517 -1168 0
-517 -1169 0
-517 -1170 0
-517 -1171 0
-797 517 1165 1166 1167 1168 1169 1170 1171 0
-535 798 0
-1172 797 0
-1172 749 0
-797 -749 1172 0
-1173 799 0
-1173 766 0
-799 -766 1173 0
-1174 800 0
-1174 774 0
-800 -774 1174 0
-1175 801 0
-1175 782 0
-801 -782 1175 0
-1176 802 0
-1176 790 0
-802 -790 1176 0
-1177 803 0
-1177 806 0
-803 -806 1177 0
-1178 804 0
-1178 814 0
-804 -814 1178 0
-535 -1172 0
-535 -1173 0
-535 -1174 0
-535 -1175 0
-535 -1176 0
-535 -1177 0
-535 -1178 0
-798 535 1172 1173 1174 1175 1176 1177 1178 0
-553 799 0
-1179 797 0
-1179 752 0
-797 -752 1179 0
-1180 798 0
-1180 751 0
-798 -751 1180 0
-1181 800 0
-1181 775 0
-800 -775 1181 0
-1182 801 0
-1182 783 0
-801 -783 1182 0
-1183 802 0
-1183 791 0
-802 -791 1183 0
-1184 803 0
-1184 807 0
-803 -807 1184 0
-1185 804 0
-1185 815 0
-804 -815 1185 0
-553 -1179 0
-553 -1180 0
-553 -1181 0
-553 -1182 0
-553 -1183 0
-553 -1184 0
-553 -1185 0
-799 553 1179 1180 1181 1182 1183 1184 1185 0
-571 800 0
-1186 797 0
-1186 754 0
-797 -754 1186 0
-1187 798 0
-1187 753 0
-798 -753 1187 0
-1188 799 0
-1188 767 0
-799 -767 1188 0
-1189 801 0
-1189 784 0
-801 -784 1189 0
-1190 802 0
-1190 792 0
-802 -792 1190 0
-1191 803 0
-1191 808 0
-803 -808 1191 0
-1192 804 0
-1192 816 0
-804 -816 1192 0
-571 -1186 0
-571 -1187 0
-571 -1188 0
-571 -1189 0
-571 -1190 0
-571 -1191 0
-571 -1192 0
-800 571 1186 1187 1188 1189 1190 1191 1192 0
-589 801 0
-1193 797 0
-1193 756 0
-797 -756 1193 0
-1194 798 0
-1194 755 0
-798 -755 1194 0
-1195 799 0
-1195 768 0
-799 -768 1195 0
-1196 800 0
-1196 776 0
-800 -776 1196 0
-1197 802 0
-1197 793 0
-802 -793 1197 0
-1198 803 0
-1198 809 0
-803 -809 1198 0
-1199 804 0
-1199 817 0
-804 -817 1199 0
-589 -1193 0
-589 -1194 0
-589 -1195 0
-589 -1196 0
-589 -1197 0
-589 -1198 0
-589 -1199 0
-801 589 1193 1194 1195 1196 1197 1198 1199 0
-607 802 0
-1200 797 0
-1200 758 0
-797 -758 1200 0
-1201 798 0
-1201 757 0
-798 -757 1201 0
-1202 799 0
-1202 769 0
-799 -769 1202 0
-1203 800 0
-1203 777 0
-800 -777 1203 0
-1204 801 0
-1204 785 0
-801 -785 1204 0
-1205 803 0
-1205 810 0
-803 -810 1205 0
-1206 804 0
-1206 818 0
-804 -818 1206 0
-607 -1200 0
-607 -1201 0
-607 -1202 0
-607 -1203 0
-607 -1204 0
-607 -1205 0
-607 -1206 0
-802 607 1200 1201 1202 1203 1204 1205 1206 0
-625 0
-643 803 0
-1207 797 0
-1207 762 0
-797 -762 1207 0
-1208 798 0
-1208 761 0
-798 -761 1208 0
-1209 799 0
-1209 771 0
-799 -771 1209 0
-1210 800 0
-1210 779 0
-800 -779 1210 0
-1211 801 0
-1211 787 0
-801 -787 1211 0
-1212 802 0
-1212 795 0
-802 -795 1212 0
-1213 804 0
-1213 820 0
-804 -820 1213 0
-643 -1207 0
-643 -1208 0
-643 -1209 0
-643 -1210 0
-643 -1211 0
-643 -1212 0
-643 -1213 0
-803 643 1207 1208 1209 1210 1211 1212 1213 0
-661 804 0
-1214 797 0
-1214 764 0
-797 -764 1214 0
-1215 798 0
-1215 763 0
-798 -763 1215 0
-1216 799 0
-1216 772 0
-799 -772 1216 0
-1217 800 0
-1217 780 0
-800 -780 1217 0
-1218 801 0
-1218 788 0
-801 -788 1218 0
-1219 802 0
-1219 796 0
-802 -796 1219 0
-1220 803 0
-1220 812 0
-803 -812 1220 0
-661 -1214 0
-661 -1215 0
-661 -1216 0
-661 -1217 0
-661 -1218 0
-661 -1219 0
-661 -1220 0
-804 661 1214 1215 1216 1217 1218 1219 1220 0
-519 805 0
-1221 806 0
-1221 750 0
-806 -750 1221 0
-1222 807 0
-1222 765 0
-807 -765 1222 0
-1223 808 0
-1223 773 0
-808 -773 1223 0
-1224 809 0
-1224 781 0
-809 -781 1224 0
-1225 810 0
-1225 789 0
-810 -789 1225 0
-1226 811 0
-1226 797 0
-811 -797 1226 0
-1227 812 0
-1227 813 0
-812 -813 1227 0
-519 -1221 0
-519 -1222 0
-519 -1223 0
-519 -1224 0
-519 -1225 0
-519 -1226 0
-519 -1227 0
-805 519 1221 1222 1223 1224 1225 1226 1227 0
-537 806 0
-1228 805 0
-1228 749 0
-805 -749 1228 0
-1229 807 0
-1229 766 0
-807 -766 1229 0
-1230 808 0
-1230 774 0
-808 -774 1230 0
-1231 809 0
-1231 782 0
-809 -782 1231 0
-1232 810 0
-1232 790 0
-810 -790 1232 0
-1233 811 0
-1233 798 0
-811 -798 1233 0
-1234 812 0
-1234 814 0
-812 -814 1234 0
-537 -1228 0
-537 -1229 0
-537 -1230 0
-537 -1231 0
-537 -1232 0
-537 -1233 0
-537 -1234 0
-806 537 1228 1229 1230 1231 1232 1233 1234 0
-555 807 0
-1235 805 0
-1235 752 0
-805 -752 1235 0
-1236 806 0
-1236 751 0
-806 -751 1236 0
-1237 808 0
-1237 775 0
-808 -775 1237 0
-1238 809 0
-1238 783 0
-809 -783 1238 0
-1239 810 0
-1239 791 0
-810 -791 1239 0
-1240 811 0
-1240 799 0
-811 -799 1240 0
-1241 812 0
-1241 815 0
-812 -815 1241 0
-555 -1235 0
-555 -1236 0
-555 -1237 0
-555 -1238 0
-555 -1239 0
-555 -1240 0
-555 -1241 0
-807 555 1235 1236 1237 1238 1239 1240 1241 0
-573 808 0
-1242 805 0
-1242 754 0
-805 -754 1242 0
-1243 806 0
-1243 753 0
-806 -753 1243 0
-1244 807 0
-1244 767 0
-807 -767 1244 0
-1245 809 0
-1245 784 0
-809 -784 1245 0
-1246 810 0
-1246 792 0
-810 -792 1246 0
-1247 811 0
-1247 800 0
-811 -800 1247 0
-1248 812 0
-1248 816 0
-812 -816 1248 0
-573 -1242 0
-573 -1243 0
-573 -1244 0
-573 -1245 0
-573 -1246 0
-573 -1247 0
-573 -1248 0
-808 573 1242 1243 1244 1245 1246 1247 1248 0
-591 809 0
-1249 805 0
-1249 756 0
-805 -756 1249 0
-1250 806 0
-1250 755 0
-806 -755 1250 0
-1251 807 0
-1251 768 0
-807 -768 1251 0
-1252 808 0
-1252 776 0
-808 -776 1252 0
-1253 810 0
-1253 793 0
-810 -793 1253 0
-1254 811 0
-1254 801 0
-811 -801 1254 0
-1255 812 0
-1255 817 0
-812 -817 1255 0
-591 -1249 0
-591 -1250 0
-591 -1251 0
-591 -1252 0
-591 -1253 0
-591 -1254 0
-591 -1255 0
-809 591 1249 1250 1251 1252 1253 1254 1255 0
-609 810 0
-1256 805 0
-1256 758 0
-805 -758 1256 0
-1257 806 0
-1257 757 0
-806 -757 1257 0
-1258 807 0
-1258 769 0
-807 -769 1258 0
-1259 808 0
-1259 777 0
-808 -777 1259 0
-1260 809 0
-1260 785 0
-809 -785 1260 0
-1261 811 0
-1261 802 0
-811 -802 1261 0
-1262 812 0
-1262 818 0
-812 -818 1262 0
-609 -1256 0
-609 -1257 0
-609 -1258 0
-609 -1259 0
-609 -1260 0
-609 -1261 0
-609 -1262 0
-810 609 1256 1257 1258 1259 1260 1261 1262 0
-627 811 0
-1263 805 0
-1263 760 0
-805 -760 1263 0
-1264 806 0
-1264 759 0
-806 -759 1264 0
-1265 807 0
-1265 770 0
-807 -770 1265 0
-1266 808 0
-1266 778 0
-808 -778 1266 0
-1267 809 0
-1267 786 0
-809 -786 1267 0
-1268 810 0
-1268 794 0
-810 -794 1268 0
-1269 812 0
-1269 819 0
-812 -819 1269 0
-627 -1263 0
-627 -1264 0
-627 -1265 0
-627 -1266 0
-627 -1267 0
-627 -1268 0
-627 -1269 0
-811 627 1263 1264 1265 1266 1267 1268 1269 0
-645 0
-663 812 0
-1270 805 0
-1270 764 0
-805 -764 1270 0
-1271 806 0
-1271 763 0
-806 -763 1271 0
-1272 807 0
-1272 772 0
-807 -772 1272 0
-1273 808 0
-1273 780 0
-808 -780 1273 0
-1274 809 0
-1274 788 0
-809 -788 1274 0
-1275 810 0
-1275 796 0
-810 -796 1275 0
-1276 811 0
-1276 804 0
-811 -804 1276 0
-663 -1270 0
-663 -1271 0
-663 -1272 0
-663 -1273 0
-663 -1274 0
-663 -1275 0
-663 -1276 0
-812 663 1270 1271 1272 1273 1274 1275 1276 0
-521 813 0
-1277 814 0
-1277 750 0
-814 -750 1277 0
-1278 815 0
-1278 765 0
-815 -765 1278 0
-1279 816 0
-1279 773 0
-816 -773 1279 0
-1280 817 0
-1280 781 0
-817 -781 1280 0
-1281 818 0
-1281 789 0
-818 -789 1281 0
-1282 819 0
-1282 797 0
-819 -797 1282 0
-1283 820 0
-1283 805 0
-820 -805 1283 0
-521 -1277 0
-521 -1278 0
-521 -1279 0
-521 -1280 0
-521 -1281 0
-521 -1282 0
-521 -1283 0
-813 521 1277 1278 1279 1280 1281 1282 1283 0
-539 814 0
-1284 813 0
-1284 749 0
-813 -749 1284 0
-1285 815 0
-1285 766 0
-815 -766 1285 0
-1286 816 0
-1286 774 0
-816 -774 1286 0
-1287 817 0
-1287 782 0
-817 -782 1287 0
-1288 818 0
-1288 790 0
-818 -790 1288 0
-1289 819 0
-1289 798 0
-819 -798 1289 0
-1290 820 0
-1290 806 0
-820 -806 1290 0
-539 -1284 0
-539 -1285 0
-539 -1286 0
-539 -1287 0
-539 -1288 0
-539 -1289 0
-539 -1290 0
-814 539 1284 1285 1286 1287 1288 1289 1290 0
-557 815 0
-1291 813 0
-1291 752 0
-813 -752 1291 0
-1292 814 0
-1292 751 0
-814 -751 1292 0
-1293 816 0
-1293 775 0
-816 -775 1293 0
-1294 817 0
-1294 783 0
-817 -783 1294 0
-1295 818 0
-1295 791 0
-818 -791 1295 0
-1296 819 0
-1296 799 0
-819 -799 1296 0
-1297 820 0
-1297 807 0
-820 -807 1297 0
-557 -1291 0
-557 -1292 0
-557 -1293 0
-557 -1294 0
-557 -1295 0
-557 -1296 0
-557 -1297 0
-815 557 1291 1292 1293 1294 1295 1296 1297 0
-575 816 0
-1298 813 0
-1298 754 0
-813 -754 1298 0
-1299 814 0
-1299 753 0
-814 -753 1299 0
-1300 815 0
-1300 767 0
-815 -767 1300 0
-1301 817 0
-1301 784 0
-817 -784 1301 0
-1302 818 0
-1302 792 0
-818 -792 1302 0
-1303 819 0
-1303 800 0
-819 -800 1303 0
-1304 820 0
-1304 808 0
-820 -808 1304 0
-575 -1298 0
-575 -1299 0
-575 -1300 0
-575 -1301 0
-575 -1302 0
-575 -1303 0
-575 -1304 0
-816 575 1298 1299 1300 1301 1302 1303 1304 0
-593 817 0
-1305 813 0
-1305 756 0
-813 -756 1305 0
-1306 814 0
-1306 755 0
-814 -755 1306 0
-1307 815 0
-1307 768 0
-815 -768 1307 0
-1308 816 0
-1308 776 0
-816 -776 1308 0
-1309 818 0
-1309 793 0
-818 -793 1309 0
-1310 819 0
-1310 801 0
-819 -801 1310 0
-1311 820 0
-1311 809 0
-820 -809 1311 0
-593 -1305 0
-593 -1306 0
-593 -1307 0
-593 -1308 0
-593 -1309 0
-593 -1310 0
-593 -1311 0
-817 593 1305 1306 1307 1308 1309 1310 1311 0
-611 818 0
-1312 813 0
-1312 758 0
-813 -758 1312 0
-1313 814 0
-1313 757 0
-814 -757 1313 0
-1314 815 0
-1314 769 0
-815 -769 1314 0
-1315 816 0
-1315 777 0
-816 -777 1315 0
-1316 817 0
-1316 785 0
-817 -785 1316 0
-1317 819 0
-1317 802 0
-819 -802 1317 0
-1318 820 0
-1318 810 0
-820 -810 1318 0
-611 -1312 0
-611 -1313 0
-611 -1314 0
-611 -1315 0
-611 -1316 0
-611 -1317 0
-611 -1318 0
-818 611 1312 1313 1314 1315 1316 1317 1318 0
-629 819 0
-1319 813 0
-1319 760 0
-813 -760 1319 0
-1320 814 0
-1320 759 0
-814 -759 1320 0
-1321 815 0
-1321 770 0
-815 -770 1321 0
-1322 816 0
-1322 778 0
-816 -778 1322 0
-1323 817 0
-1323 786 0
-817 -786 1323 0
-1324 818 0
-1324 794 0
-818 -794 1324 0
-1325 820 0
-1325 811 0
-820 -811 1325 0
-629 -1319 0
-629 -1320 0
-629 -1321 0
-629 -1322 0
-629 -1323 0
-629 -1324 0
-629 -1325 0
-819 629 1319 1320 1321 1322 1323 1324 1325 0
-647 820 0
-1326 813 0
-1326 762 0
-813 -762 1326 0
-1327 814 0
-1327 761 0
-814 -761 1327 0
-1328 815 0
-1328 771 0
-815 -771 1328 0
-1329 816 0
-1329 779 0
-816 -779 1329 0
-1330 817 0
-1330 787 0
-817 -787 1330 0
-1331 818 0
-1331 795 0
-818 -795 1331 0
-1332 819 0
-1332 803 0
-819 -803 1332 0
-647 -1326 0
-647 -1327 0
-647 -1328 0
-647 -1329 0
-647 -1330 0
-647 -1331 0
-647 -1332 0
-820 647 1326 1327 1328 1329 1330 1331 1332 0
-665 0
