p cnf 82 244
1 2 0
3 4 0
5 6 0
7 8 0
9 10 -10 -11 0
12 10 -13 -14 0
15 13 -10 -16 0
17 13 -13 -18 0
11 -9 0
14 -12 0
16 -15 0
18 -17 0
11 -10 0
14 -10 0
16 -13 0
18 -13 0
11 10 0
14 13 0
16 10 0
18 13 0
-19 -10 -10 20 0
-21 -13 -10 22 0
-23 -10 -13 24 0
-25 -13 -13 26 0
-20 19 0
-22 21 0
-24 23 0
-26 25 0
-20 10 0
-22 13 0
-24 10 0
-26 13 0
-20 10 0
-22 10 0
-24 13 0
-26 13 0
-27 20 -28 0
-29 22 -30 0
-31 24 -32 0
-33 26 -34 0
28 27 0
30 29 0
32 31 0
34 33 0
28 -20 0
30 -22 0
32 -24 0
34 -26 0
27 -19 -10 -10 -35 0
29 -21 -13 -10 -36 0
31 -23 -10 -13 -37 0
33 -25 -13 -13 -38 0
35 -27 0
36 -29 0
37 -31 0
38 -33 0
35 19 0
36 21 0
37 23 0
38 25 0
35 10 0
36 13 0
37 10 0
38 13 0
35 10 0
36 10 0
37 13 0
38 13 0
-39 -27 -40 0
-39 -31 -41 0
-42 -29 -43 0
-42 -33 -44 0
40 39 0
41 39 0
43 42 0
44 42 0
40 27 0
41 31 0
43 29 0
44 33 0
-39 -40 45 0
-42 -41 46 0
-39 -43 47 0
-42 -44 48 0
-45 39 0
-46 42 0
-47 39 0
-48 42 0
-45 40 0
-46 41 0
-47 43 0
-48 44 0
-49 45 -50 0
-51 46 -52 0
-49 47 -53 0
-51 48 -54 0
50 49 0
52 51 0
53 49 0
54 51 0
50 -45 0
52 -46 0
53 -47 0
54 -48 0
-55 -27 -56 0
-55 -31 -57 0
-58 -29 -59 0
-58 -33 -60 0
56 55 0
57 55 0
59 58 0
60 58 0
56 27 0
57 31 0
59 29 0
60 33 0
-55 -56 61 0
-58 -57 62 0
-55 -59 63 0
-58 -60 64 0
-61 55 0
-62 58 0
-63 55 0
-64 58 0
-61 56 0
-62 57 0
-63 59 0
-64 60 0
-65 61 -66 0
-67 62 -68 0
-65 63 -69 0
-67 64 -70 0
66 65 0
68 67 0
69 65 0
70 67 0
66 -61 0
68 -62 0
69 -63 0
70 -64 0
-11 -28 -35 -50 -66 71 0
-14 -30 -36 -52 -68 72 0
-16 -32 -37 -53 -69 73 0
-18 -34 -38 -54 -70 74 0
-71 11 0
-72 14 0
-73 16 0
-74 18 0
-71 28 0
-72 30 0
-73 32 0
-74 34 0
-71 35 0
-72 36 0
-73 37 0
-74 38 0
-71 50 0
-72 52 0
-73 53 0
-74 54 0
-71 66 0
-72 68 0
-73 69 0
-74 70 0
71 0
72 0
73 0
74 0
-39 -27 75 0
-39 -31 76 0
-42 -29 77 0
-42 -33 78 0
-75 39 0
-76 39 0
-77 42 0
-78 42 0
-75 27 0
-76 31 0
-77 29 0
-78 33 0
49 -39 75 -1 0
51 -42 76 -3 0
49 -39 77 -2 0
51 -42 78 -4 0
1 -49 0
3 -51 0
2 -49 0
4 -51 0
1 39 0
3 42 0
2 39 0
4 42 0
1 -75 0
3 -76 0
2 -77 0
4 -78 0
-55 -27 79 0
-55 -31 80 0
-58 -29 81 0
-58 -33 82 0
-79 55 0
-80 55 0
-81 58 0
-82 58 0
-79 27 0
-80 31 0
-81 29 0
-82 33 0
65 -55 79 -5 0
67 -58 80 -7 0
65 -55 81 -6 0
67 -58 82 -8 0
5 -65 0
7 -67 0
6 -65 0
8 -67 0
5 55 0
7 58 0
6 55 0
8 58 0
5 -79 0
7 -80 0
6 -81 0
8 -82 0
-42 0
58 0
13 0
-55 0
39 0
10 0
-49 -51 0
-65 -67 0
9 0
15 12 0
-15 -12 0
17 0
12 15 0
-12 -15 0
-19 0
-23 15 0
-15 23 0
-21 12 0
-12 21 0
-25 0
