p cnf 187 580
c ind 1 2 3 4 5 6 7 8 9 10 11 12 13 14 15 16 17 18 19 20 21 22 23 24 25 26 27 28 29 30 31 32 33 34 35 36 37 38 39 40 41 42 43 44 45 46 47 48 49 50 0
c ind 51 52 53 54 55 56 57 58 59 60 61 62 63 64 65 66 67 68 69 70 71 72 73 74 75 76 77 78 79 80 81 82 83 84 85 86 87 88 89 90 91 92 93 94 95 96 97 98 99 100 0
c ind 101 102 103 104 105 106 107 108 109 110 111 112 113 114 115 116 117 118 119 120 121 122 123 124 125 126 127 128 129 130 131 132 133 134 135 136 137 138 139 140 141 142 143 144 145 146 147 148 149 150 0
c ind 151 152 153 154 155 156 157 158 159 160 161 162 163 164 165 166 167 168 169 170 171 172 173 174 175 176 177 182 183 184 185 186 187 0
1 2 3 0
4 5 6 0
7 8 9 0
10 11 12 0
13 14 15 0
16 17 18 0
19 20 -20 -21 0
22 20 -23 -24 0
25 20 -26 -27 0
28 23 -20 -29 0
30 23 -23 -31 0
32 23 -26 -33 0
34 26 -20 -35 0
36 26 -23 -37 0
38 26 -26 -39 0
21 -19 0
24 -22 0
27 -25 0
29 -28 0
31 -30 0
33 -32 0
35 -34 0
37 -36 0
39 -38 0
21 -20 0
24 -20 0
27 -20 0
29 -23 0
31 -23 0
33 -23 0
35 -26 0
37 -26 0
39 -26 0
21 20 0
24 23 0
27 26 0
29 20 0
31 23 0
33 26 0
35 20 0
37 23 0
39 26 0
-40 -20 -20 41 0
-42 -23 -20 43 0
-44 -26 -20 45 0
-46 -20 -23 47 0
-48 -23 -23 49 0
-50 -26 -23 51 0
-52 -20 -26 53 0
-54 -23 -26 55 0
-56 -26 -26 57 0
-41 40 0
-43 42 0
-45 44 0
-47 46 0
-49 48 0
-51 50 0
-53 52 0
-55 54 0
-57 56 0
-41 20 0
-43 23 0
-45 26 0
-47 20 0
-49 23 0
-51 26 0
-53 20 0
-55 23 0
-57 26 0
-41 20 0
-43 20 0
-45 20 0
-47 23 0
-49 23 0
-51 23 0
-53 26 0
-55 26 0
-57 26 0
-58 41 -59 0
-60 43 -61 0
-62 45 -63 0
-64 47 -65 0
-66 49 -67 0
-68 51 -69 0
-70 53 -71 0
-72 55 -73 0
-74 57 -75 0
59 58 0
61 60 0
63 62 0
65 64 0
67 66 0
69 68 0
71 70 0
73 72 0
75 74 0
59 -41 0
61 -43 0
63 -45 0
65 -47 0
67 -49 0
69 -51 0
71 -53 0
73 -55 0
75 -57 0
58 -40 -20 -20 -76 0
60 -42 -23 -20 -77 0
62 -44 -26 -20 -78 0
64 -46 -20 -23 -79 0
66 -48 -23 -23 -80 0
68 -50 -26 -23 -81 0
70 -52 -20 -26 -82 0
72 -54 -23 -26 -83 0
74 -56 -26 -26 -84 0
76 -58 0
77 -60 0
78 -62 0
79 -64 0
80 -66 0
81 -68 0
82 -70 0
83 -72 0
84 -74 0
76 40 0
77 42 0
78 44 0
79 46 0
80 48 0
81 50 0
82 52 0
83 54 0
84 56 0
76 20 0
77 23 0
78 26 0
79 20 0
80 23 0
81 26 0
82 20 0
83 23 0
84 26 0
76 20 0
77 20 0
78 20 0
79 23 0
80 23 0
81 23 0
82 26 0
83 26 0
84 26 0
-85 -58 -86 0
-85 -64 -87 0
-85 -70 -88 0
-89 -60 -90 0
-89 -66 -91 0
-89 -72 -92 0
-93 -62 -94 0
-93 -68 -95 0
-93 -74 -96 0
86 85 0
87 85 0
88 85 0
90 89 0
91 89 0
92 89 0
94 93 0
95 93 0
96 93 0
86 58 0
87 64 0
88 70 0
90 60 0
91 66 0
92 72 0
94 62 0
95 68 0
96 74 0
-85 -86 97 0
-89 -87 98 0
-93 -88 99 0
-85 -90 100 0
-89 -91 101 0
-93 -92 102 0
-85 -94 103 0
-89 -95 104 0
-93 -96 105 0
-97 85 0
-98 89 0
-99 93 0
-100 85 0
-101 89 0
-102 93 0
-103 85 0
-104 89 0
-105 93 0
-97 86 0
-98 87 0
-99 88 0
-100 90 0
-101 91 0
-102 92 0
-103 94 0
-104 95 0
-105 96 0
-106 97 -107 0
-108 98 -109 0
-110 99 -111 0
-106 100 -112 0
-108 101 -113 0
-110 102 -114 0
-106 103 -115 0
-108 104 -116 0
-110 105 -117 0
107 106 0
109 108 0
111 110 0
112 106 0
113 108 0
114 110 0
115 106 0
116 108 0
117 110 0
107 -97 0
109 -98 0
111 -99 0
112 -100 0
113 -101 0
114 -102 0
115 -103 0
116 -104 0
117 -105 0
-118 -58 -119 0
-118 -64 -120 0
-118 -70 -121 0
-122 -60 -123 0
-122 -66 -124 0
-122 -72 -125 0
-126 -62 -127 0
-126 -68 -128 0
-126 -74 -129 0
119 118 0
120 118 0
121 118 0
123 122 0
124 122 0
125 122 0
127 126 0
128 126 0
129 126 0
119 58 0
120 64 0
121 70 0
123 60 0
124 66 0
125 72 0
127 62 0
128 68 0
129 74 0
-118 -119 130 0
-122 -120 131 0
-126 -121 132 0
-118 -123 133 0
-122 -124 134 0
-126 -125 135 0
-118 -127 136 0
-122 -128 137 0
-126 -129 138 0
-130 118 0
-131 122 0
-132 126 0
-133 118 0
-134 122 0
-135 126 0
-136 118 0
-137 122 0
-138 126 0
-130 119 0
-131 120 0
-132 121 0
-133 123 0
-134 124 0
-135 125 0
-136 127 0
-137 128 0
-138 129 0
-139 130 -140 0
-141 131 -142 0
-143 132 -144 0
-139 133 -145 0
-141 134 -146 0
-143 135 -147 0
-139 136 -148 0
-141 137 -149 0
-143 138 -150 0
140 139 0
142 141 0
144 143 0
145 139 0
146 141 0
147 143 0
148 139 0
149 141 0
150 143 0
140 -130 0
142 -131 0
144 -132 0
145 -133 0
146 -134 0
147 -135 0
148 -136 0
149 -137 0
150 -138 0
-21 -59 -76 -107 -140 151 0
-24 -61 -77 -109 -142 152 0
-27 -63 -78 -111 -144 153 0
-29 -65 -79 -112 -145 154 0
-31 -67 -80 -113 -146 155 0
-33 -69 -81 -114 -147 156 0
-35 -71 -82 -115 -148 157 0
-37 -73 -83 -116 -149 158 0
-39 -75 -84 -117 -150 159 0
-151 21 0
-152 24 0
-153 27 0
-154 29 0
-155 31 0
-156 33 0
-157 35 0
-158 37 0
-159 39 0
-151 59 0
-152 61 0
-153 63 0
-154 65 0
-155 67 0
-156 69 0
-157 71 0
-158 73 0
-159 75 0
-151 76 0
-152 77 0
-153 78 0
-154 79 0
-155 80 0
-156 81 0
-157 82 0
-158 83 0
-159 84 0
-151 107 0
-152 109 0
-153 111 0
-154 112 0
-155 113 0
-156 114 0
-157 115 0
-158 116 0
-159 117 0
-151 140 0
-152 142 0
-153 144 0
-154 145 0
-155 146 0
-156 147 0
-157 148 0
-158 149 0
-159 150 0
151 0
152 0
153 0
154 0
155 0
156 0
157 0
158 0
159 0
-118 -58 160 0
-118 -64 161 0
-118 -70 162 0
-122 -60 163 0
-122 -66 164 0
-122 -72 165 0
-126 -62 166 0
-126 -68 167 0
-126 -74 168 0
-160 118 0
-161 118 0
-162 118 0
-163 122 0
-164 122 0
-165 122 0
-166 126 0
-167 126 0
-168 126 0
-160 58 0
-161 64 0
-162 70 0
-163 60 0
-164 66 0
-165 72 0
-166 62 0
-167 68 0
-168 74 0
139 -118 160 -1 0
141 -122 161 -4 0
143 -126 162 -7 0
139 -118 163 -2 0
141 -122 164 -5 0
143 -126 165 -8 0
139 -118 166 -3 0
141 -122 167 -6 0
143 -126 168 -9 0
1 -139 0
4 -141 0
7 -143 0
2 -139 0
5 -141 0
8 -143 0
3 -139 0
6 -141 0
9 -143 0
1 118 0
4 122 0
7 126 0
2 118 0
5 122 0
8 126 0
3 118 0
6 122 0
9 126 0
1 -160 0
4 -161 0
7 -162 0
2 -163 0
5 -164 0
8 -165 0
3 -166 0
6 -167 0
9 -168 0
-85 -58 169 0
-85 -64 170 0
-85 -70 171 0
-89 -60 172 0
-89 -66 173 0
-89 -72 174 0
-93 -62 175 0
-93 -68 176 0
-93 -74 177 0
-169 85 0
-170 85 0
-171 85 0
-172 89 0
-173 89 0
-174 89 0
-175 93 0
-176 93 0
-177 93 0
-169 58 0
-170 64 0
-171 70 0
-172 60 0
-173 66 0
-174 72 0
-175 62 0
-176 68 0
-177 74 0
106 -85 169 -10 0
108 -89 170 -13 0
110 -93 171 -16 0
106 -85 172 -11 0
108 -89 173 -14 0
110 -93 174 -17 0
106 -85 175 -12 0
108 -89 176 -15 0
110 -93 177 -18 0
10 -106 0
13 -108 0
16 -110 0
11 -106 0
14 -108 0
17 -110 0
12 -106 0
15 -108 0
18 -110 0
10 85 0
13 89 0
16 93 0
11 85 0
14 89 0
17 93 0
12 85 0
15 89 0
18 93 0
10 -169 0
13 -170 0
16 -171 0
11 -172 0
14 -173 0
17 -174 0
12 -175 0
15 -176 0
18 -177 0
-122 0
89 0
-93 0
126 0
23 0
26 0
-118 0
85 0
20 0
-139 178 0
-178 179 0
-141 -178 0
-141 179 0
-143 -179 0
-106 180 0
-180 181 0
-108 -180 0
-108 181 0
-110 -181 0
19 0
28 22 0
-28 -22 0
-28 -36 34 0
34 25 0
-34 -25 0
-34 -32 28 0
30 0
22 28 0
-22 -28 0
-22 -34 36 0
36 32 0
-36 -32 0
-36 -25 22 0
38 0
25 34 0
-25 -34 0
-25 -28 32 0
32 36 0
-32 -36 0
-32 -22 25 0
-40 0
-46 28 0
-182 34 0
-182 32 0
-34 -32 182 0
-46 -182 0
-28 46 182 0
-52 34 0
-183 28 0
-183 36 0
-28 -36 183 0
-52 -183 0
-34 52 183 0
-42 22 0
-184 36 0
-184 25 0
-36 -25 184 0
-42 -184 0
-22 42 184 0
-48 0
-54 36 0
-185 22 0
-185 34 0
-22 -34 185 0
-54 -185 0
-36 54 185 0
-44 25 0
-186 32 0
-186 22 0
-32 -22 186 0
-44 -186 0
-25 44 186 0
-50 32 0
-187 25 0
-187 28 0
-25 -28 187 0
-50 -187 0
-32 50 187 0
-56 0
