p cnf 338 1092
c ind 1 2 3 4 5 6 7 8 9 10 11 12 13 14 15 16 17 18 19 20 21 22 23 24 25 26 27 28 29 30 31 32 33 34 35 36 37 38 39 40 41 42 43 44 45 46 47 48 49 50 0
c ind 51 52 53 54 55 56 57 58 59 60 61 62 63 64 65 66 67 68 69 70 71 72 73 74 75 76 77 78 79 80 81 82 83 84 85 86 87 88 89 90 91 92 93 94 95 96 97 98 99 100 0
c ind 101 102 103 104 105 106 107 108 109 110 111 112 113 114 115 116 117 118 119 120 121 122 123 124 125 126 127 128 129 130 131 132 133 134 135 136 137 138 139 140 141 142 143 144 145 146 147 148 149 150 0
c ind 151 152 153 154 155 156 157 158 159 160 161 162 163 164 165 166 167 168 169 170 171 172 173 174 175 176 177 178 179 180 181 182 183 184 185 186 187 188 189 190 191 192 193 194 195 196 197 198 199 200 0
c ind 201 202 203 204 205 206 207 208 209 210 211 212 213 214 215 216 217 218 219 220 221 222 223 224 225 226 227 228 229 230 231 232 233 234 235 236 237 238 239 240 241 242 243 244 245 246 247 248 249 250 0
c ind 251 252 253 254 255 256 257 258 259 260 261 262 263 264 265 266 267 268 269 270 271 272 273 274 275 276 277 278 279 280 281 282 283 284 285 286 287 288 289 290 291 292 293 294 295 296 297 298 299 300 0
c ind 301 302 303 304 305 306 307 308 315 316 317 318 319 320 321 322 323 324 325 326 327 328 329 330 331 332 333 334 335 336 337 338 0
1 2 3 4 0
5 6 7 8 0
9 10 11 12 0
13 14 15 16 0
17 18 19 20 0
21 22 23 24 0
25 26 27 28 0
29 30 31 32 0
33 34 -34 -35 0
36 34 -37 -38 0
39 34 -40 -41 0
42 34 -43 -44 0
45 37 -34 -46 0
47 37 -37 -48 0
49 37 -40 -50 0
51 37 -43 -52 0
53 40 -34 -54 0
55 40 -37 -56 0
57 40 -40 -58 0
59 40 -43 -60 0
61 43 -34 -62 0
63 43 -37 -64 0
65 43 -40 -66 0
67 43 -43 -68 0
35 -33 0
38 -36 0
41 -39 0
44 -42 0
46 -45 0
48 -47 0
50 -49 0
52 -51 0
54 -53 0
56 -55 0
58 -57 0
60 -59 0
62 -61 0
64 -63 0
66 -65 0
68 -67 0
35 -34 0
38 -34 0
41 -34 0
44 -34 0
46 -37 0
48 -37 0
50 -37 0
52 -37 0
54 -40 0
56 -40 0
58 -40 0
60 -40 0
62 -43 0
64 -43 0
66 -43 0
68 -43 0
35 34 0
38 37 0
41 40 0
44 43 0
46 34 0
48 37 0
50 40 0
52 43 0
54 34 0
56 37 0
58 40 0
60 43 0
62 34 0
64 37 0
66 40 0
68 43 0
-69 -34 -34 70 0
-71 -37 -34 72 0
-73 -40 -34 74 0
-75 -43 -34 76 0
-77 -34 -37 78 0
-79 -37 -37 80 0
-81 -40 -37 82 0
-83 -43 -37 84 0
-85 -34 -40 86 0
-87 -37 -40 88 0
-89 -40 -40 90 0
-91 -43 -40 92 0
-93 -34 -43 94 0
-95 -37 -43 96 0
-97 -40 -43 98 0
-99 -43 -43 100 0
-70 69 0
-72 71 0
-74 73 0
-76 75 0
-78 77 0
-80 79 0
-82 81 0
-84 83 0
-86 85 0
-88 87 0
-90 89 0
-92 91 0
-94 93 0
-96 95 0
-98 97 0
-100 99 0
-70 34 0
-72 37 0
-74 40 0
-76 43 0
-78 34 0
-80 37 0
-82 40 0
-84 43 0
-86 34 0
-88 37 0
-90 40 0
-92 43 0
-94 34 0
-96 37 0
-98 40 0
-100 43 0
-70 34 0
-72 34 0
-74 34 0
-76 34 0
-78 37 0
-80 37 0
-82 37 0
-84 37 0
-86 40 0
-88 40 0
-90 40 0
-92 40 0
-94 43 0
-96 43 0
-98 43 0
-100 43 0
-101 70 -102 0
-103 72 -104 0
-105 74 -106 0
-107 76 -108 0
-109 78 -110 0
-111 80 -112 0
-113 82 -114 0
-115 84 -116 0
-117 86 -118 0
-119 88 -120 0
-121 90 -122 0
-123 92 -124 0
-125 94 -126 0
-127 96 -128 0
-129 98 -130 0
-131 100 -132 0
102 101 0
104 103 0
106 105 0
108 107 0
110 109 0
112 111 0
114 113 0
116 115 0
118 117 0
120 119 0
122 121 0
124 123 0
126 125 0
128 127 0
130 129 0
132 131 0
102 -70 0
104 -72 0
106 -74 0
108 -76 0
110 -78 0
112 -80 0
114 -82 0
116 -84 0
118 -86 0
120 -88 0
122 -90 0
124 -92 0
126 -94 0
128 -96 0
130 -98 0
132 -100 0
101 -69 -34 -34 -133 0
103 -71 -37 -34 -134 0
105 -73 -40 -34 -135 0
107 -75 -43 -34 -136 0
109 -77 -34 -37 -137 0
111 -79 -37 -37 -138 0
113 -81 -40 -37 -139 0
115 -83 -43 -37 -140 0
117 -85 -34 -40 -141 0
119 -87 -37 -40 -142 0
121 -89 -40 -40 -143 0
123 -91 -43 -40 -144 0
125 -93 -34 -43 -145 0
127 -95 -37 -43 -146 0
129 -97 -40 -43 -147 0
131 -99 -43 -43 -148 0
133 -101 0
134 -103 0
135 -105 0
136 -107 0
137 -109 0
138 -111 0
139 -113 0
140 -115 0
141 -117 0
142 -119 0
143 -121 0
144 -123 0
145 -125 0
146 -127 0
147 -129 0
148 -131 0
133 69 0
134 71 0
135 73 0
136 75 0
137 77 0
138 79 0
139 81 0
140 83 0
141 85 0
142 87 0
143 89 0
144 91 0
145 93 0
146 95 0
147 97 0
148 99 0
133 34 0
134 37 0
135 40 0
136 43 0
137 34 0
138 37 0
139 40 0
140 43 0
141 34 0
142 37 0
143 40 0
144 43 0
145 34 0
146 37 0
147 40 0
148 43 0
133 34 0
134 34 0
135 34 0
136 34 0
137 37 0
138 37 0
139 37 0
140 37 0
141 40 0
142 40 0
143 40 0
144 40 0
145 43 0
146 43 0
147 43 0
148 43 0
-149 -101 -150 0
-149 -109 -151 0
-149 -117 -152 0
-149 -125 -153 0
-154 -103 -155 0
-154 -111 -156 0
-154 -119 -157 0
-154 -127 -158 0
-159 -105 -160 0
-159 -113 -161 0
-159 -121 -162 0
-159 -129 -163 0
-164 -107 -165 0
-164 -115 -166 0
-164 -123 -167 0
-164 -131 -168 0
150 149 0
151 149 0
152 149 0
153 149 0
155 154 0
156 154 0
157 154 0
158 154 0
160 159 0
161 159 0
162 159 0
163 159 0
165 164 0
166 164 0
167 164 0
168 164 0
150 101 0
151 109 0
152 117 0
153 125 0
155 103 0
156 111 0
157 119 0
158 127 0
160 105 0
161 113 0
162 121 0
163 129 0
165 107 0
166 115 0
167 123 0
168 131 0
-149 -150 169 0
-154 -151 170 0
-159 -152 171 0
-164 -153 172 0
-149 -155 173 0
-154 -156 174 0
-159 -157 175 0
-164 -158 176 0
-149 -160 177 0
-154 -161 178 0
-159 -162 179 0
-164 -163 180 0
-149 -165 181 0
-154 -166 182 0
-159 -167 183 0
-164 -168 184 0
-169 149 0
-170 154 0
-171 159 0
-172 164 0
-173 149 0
-174 154 0
-175 159 0
-176 164 0
-177 149 0
-178 154 0
-179 159 0
-180 164 0
-181 149 0
-182 154 0
-183 159 0
-184 164 0
-169 150 0
-170 151 0
-171 152 0
-172 153 0
-173 155 0
-174 156 0
-175 157 0
-176 158 0
-177 160 0
-178 161 0
-179 162 0
-180 163 0
-181 165 0
-182 166 0
-183 167 0
-184 168 0
-185 169 -186 0
-187 170 -188 0
-189 171 -190 0
-191 172 -192 0
-185 173 -193 0
-187 174 -194 0
-189 175 -195 0
-191 176 -196 0
-185 177 -197 0
-187 178 -198 0
-189 179 -199 0
-191 180 -200 0
-185 181 -201 0
-187 182 -202 0
-189 183 -203 0
-191 184 -204 0
186 185 0
188 187 0
190 189 0
192 191 0
193 185 0
194 187 0
195 189 0
196 191 0
197 185 0
198 187 0
199 189 0
200 191 0
201 185 0
202 187 0
203 189 0
204 191 0
186 -169 0
188 -170 0
190 -171 0
192 -172 0
193 -173 0
194 -174 0
195 -175 0
196 -176 0
197 -177 0
198 -178 0
199 -179 0
200 -180 0
201 -181 0
202 -182 0
203 -183 0
204 -184 0
-205 -101 -206 0
-205 -109 -207 0
-205 -117 -208 0
-205 -125 -209 0
-210 -103 -211 0
-210 -111 -212 0
-210 -119 -213 0
-210 -127 -214 0
-215 -105 -216 0
-215 -113 -217 0
-215 -121 -218 0
-215 -129 -219 0
-220 -107 -221 0
-220 -115 -222 0
-220 -123 -223 0
-220 -131 -224 0
206 205 0
207 205 0
208 205 0
209 205 0
211 210 0
212 210 0
213 210 0
214 210 0
216 215 0
217 215 0
218 215 0
219 215 0
221 220 0
222 220 0
223 220 0
224 220 0
206 101 0
207 109 0
208 117 0
209 125 0
211 103 0
212 111 0
213 119 0
214 127 0
216 105 0
217 113 0
218 121 0
219 129 0
221 107 0
222 115 0
223 123 0
224 131 0
-205 -206 225 0
-210 -207 226 0
-215 -208 227 0
-220 -209 228 0
-205 -211 229 0
-210 -212 230 0
-215 -213 231 0
-220 -214 232 0
-205 -216 233 0
-210 -217 234 0
-215 -218 235 0
-220 -219 236 0
-205 -221 237 0
-210 -222 238 0
-215 -223 239 0
-220 -224 240 0
-225 205 0
-226 210 0
-227 215 0
-228 220 0
-229 205 0
-230 210 0
-231 215 0
-232 220 0
-233 205 0
-234 210 0
-235 215 0
-236 220 0
-237 205 0
-238 210 0
-239 215 0
-240 220 0
-225 206 0
-226 207 0
-227 208 0
-228 209 0
-229 211 0
-230 212 0
-231 213 0
-232 214 0
-233 216 0
-234 217 0
-235 218 0
-236 219 0
-237 221 0
-238 222 0
-239 223 0
-240 224 0
-241 225 -242 0
-243 226 -244 0
-245 227 -246 0
-247 228 -248 0
-241 229 -249 0
-243 230 -250 0
-245 231 -251 0
-247 232 -252 0
-241 233 -253 0
-243 234 -254 0
-245 235 -255 0
-247 236 -256 0
-241 237 -257 0
-243 238 -258 0
-245 239 -259 0
-247 240 -260 0
242 241 0
244 243 0
246 245 0
248 247 0
249 241 0
250 243 0
251 245 0
252 247 0
253 241 0
254 243 0
255 245 0
256 247 0
257 241 0
258 243 0
259 245 0
260 247 0
242 -225 0
244 -226 0
246 -227 0
248 -228 0
249 -229 0
250 -230 0
251 -231 0
252 -232 0
253 -233 0
254 -234 0
255 -235 0
256 -236 0
257 -237 0
258 -238 0
259 -239 0
260 -240 0
-35 -102 -133 -186 -242 261 0
-38 -104 -134 -188 -244 262 0
-41 -106 -135 -190 -246 263 0
-44 -108 -136 -192 -248 264 0
-46 -110 -137 -193 -249 265 0
-48 -112 -138 -194 -250 266 0
-50 -114 -139 -195 -251 267 0
-52 -116 -140 -196 -252 268 0
-54 -118 -141 -197 -253 269 0
-56 -120 -142 -198 -254 270 0
-58 -122 -143 -199 -255 271 0
-60 -124 -144 -200 -256 272 0
-62 -126 -145 -201 -257 273 0
-64 -128 -146 -202 -258 274 0
-66 -130 -147 -203 -259 275 0
-68 -132 -148 -204 -260 276 0
-261 35 0
-262 38 0
-263 41 0
-264 44 0
-265 46 0
-266 48 0
-267 50 0
-268 52 0
-269 54 0
-270 56 0
-271 58 0
-272 60 0
-273 62 0
-274 64 0
-275 66 0
-276 68 0
-261 102 0
-262 104 0
-263 106 0
-264 108 0
-265 110 0
-266 112 0
-267 114 0
-268 116 0
-269 118 0
-270 120 0
-271 122 0
-272 124 0
-273 126 0
-274 128 0
-275 130 0
-276 132 0
-261 133 0
-262 134 0
-263 135 0
-264 136 0
-265 137 0
-266 138 0
-267 139 0
-268 140 0
-269 141 0
-270 142 0
-271 143 0
-272 144 0
-273 145 0
-274 146 0
-275 147 0
-276 148 0
-261 186 0
-262 188 0
-263 190 0
-264 192 0
-265 193 0
-266 194 0
-267 195 0
-268 196 0
-269 197 0
-270 198 0
-271 199 0
-272 200 0
-273 201 0
-274 202 0
-275 203 0
-276 204 0
-261 242 0
-262 244 0
-263 246 0
-264 248 0
-265 249 0
-266 250 0
-267 251 0
-268 252 0
-269 253 0
-270 254 0
-271 255 0
-272 256 0
-273 257 0
-274 258 0
-275 259 0
-276 260 0
261 0
262 0
263 0
264 0
265 0
266 0
267 0
268 0
269 0
270 0
271 0
272 0
273 0
274 0
275 0
276 0
-205 -101 277 0
-205 -109 278 0
-205 -117 279 0
-205 -125 280 0
-210 -103 281 0
-210 -111 282 0
-210 -119 283 0
-210 -127 284 0
-215 -105 285 0
-215 -113 286 0
-215 -121 287 0
-215 -129 288 0
-220 -107 289 0
-220 -115 290 0
-220 -123 291 0
-220 -131 292 0
-277 205 0
-278 205 0
-279 205 0
-280 205 0
-281 210 0
-282 210 0
-283 210 0
-284 210 0
-285 215 0
-286 215 0
-287 215 0
-288 215 0
-289 220 0
-290 220 0
-291 220 0
-292 220 0
-277 101 0
-278 109 0
-279 117 0
-280 125 0
-281 103 0
-282 111 0
-283 119 0
-284 127 0
-285 105 0
-286 113 0
-287 121 0
-288 129 0
-289 107 0
-290 115 0
-291 123 0
-292 131 0
241 -205 277 -1 0
243 -210 278 -5 0
245 -215 279 -9 0
247 -220 280 -13 0
241 -205 281 -2 0
243 -210 282 -6 0
245 -215 283 -10 0
247 -220 284 -14 0
241 -205 285 -3 0
243 -210 286 -7 0
245 -215 287 -11 0
247 -220 288 -15 0
241 -205 289 -4 0
243 -210 290 -8 0
245 -215 291 -12 0
247 -220 292 -16 0
1 -241 0
5 -243 0
9 -245 0
13 -247 0
2 -241 0
6 -243 0
10 -245 0
14 -247 0
3 -241 0
7 -243 0
11 -245 0
15 -247 0
4 -241 0
8 -243 0
12 -245 0
16 -247 0
1 205 0
5 210 0
9 215 0
13 220 0
2 205 0
6 210 0
10 215 0
14 220 0
3 205 0
7 210 0
11 215 0
15 220 0
4 205 0
8 210 0
12 215 0
16 220 0
1 -277 0
5 -278 0
9 -279 0
13 -280 0
2 -281 0
6 -282 0
10 -283 0
14 -284 0
3 -285 0
7 -286 0
11 -287 0
15 -288 0
4 -289 0
8 -290 0
12 -291 0
16 -292 0
-149 -101 293 0
-149 -109 294 0
-149 -117 295 0
-149 -125 296 0
-154 -103 297 0
-154 -111 298 0
-154 -119 299 0
-154 -127 300 0
-159 -105 301 0
-159 -113 302 0
-159 -121 303 0
-159 -129 304 0
-164 -107 305 0
-164 -115 306 0
-164 -123 307 0
-164 -131 308 0
-293 149 0
-294 149 0
-295 149 0
-296 149 0
-297 154 0
-298 154 0
-299 154 0
-300 154 0
-301 159 0
-302 159 0
-303 159 0
-304 159 0
-305 164 0
-306 164 0
-307 164 0
-308 164 0
-293 101 0
-294 109 0
-295 117 0
-296 125 0
-297 103 0
-298 111 0
-299 119 0
-300 127 0
-301 105 0
-302 113 0
-303 121 0
-304 129 0
-305 107 0
-306 115 0
-307 123 0
-308 131 0
185 -149 293 -17 0
187 -154 294 -21 0
189 -159 295 -25 0
191 -164 296 -29 0
185 -149 297 -18 0
187 -154 298 -22 0
189 -159 299 -26 0
191 -164 300 -30 0
185 -149 301 -19 0
187 -154 302 -23 0
189 -159 303 -27 0
191 -164 304 -31 0
185 -149 305 -20 0
187 -154 306 -24 0
189 -159 307 -28 0
191 -164 308 -32 0
17 -185 0
21 -187 0
25 -189 0
29 -191 0
18 -185 0
22 -187 0
26 -189 0
30 -191 0
19 -185 0
23 -187 0
27 -189 0
31 -191 0
20 -185 0
24 -187 0
28 -189 0
32 -191 0
17 149 0
21 154 0
25 159 0
29 164 0
18 149 0
22 154 0
26 159 0
30 164 0
19 149 0
23 154 0
27 159 0
31 164 0
20 149 0
24 154 0
28 159 0
32 164 0
17 -293 0
21 -294 0
25 -295 0
29 -296 0
18 -297 0
22 -298 0
26 -299 0
30 -300 0
19 -301 0
23 -302 0
27 -303 0
31 -304 0
20 -305 0
24 -306 0
28 -307 0
32 -308 0
40 0
-210 0
-164 0
154 0
220 0
37 0
159 0
43 0
-205 0
149 0
-215 0
34 0
-241 309 0
-309 310 0
-243 -309 0
-243 310 0
-310 311 0
-245 -310 0
-245 311 0
-247 -311 0
-185 312 0
-312 313 0
-187 -312 0
-187 313 0
-313 314 0
-189 -313 0
-189 314 0
-191 -314 0
33 0
45 36 0
-45 -36 0
-45 -55 53 0
-45 -63 61 0
53 39 0
-53 -39 0
-53 -49 45 0
-53 -65 61 0
61 42 0
-61 -42 0
-61 -51 45 0
-61 -59 53 0
47 0
36 45 0
-36 -45 0
-36 -53 55 0
-36 -61 63 0
55 49 0
-55 -49 0
-55 -39 36 0
-55 -65 63 0
63 51 0
-63 -51 0
-63 -42 36 0
-63 -59 55 0
57 0
39 53 0
-39 -53 0
-39 -45 49 0
-39 -61 65 0
49 55 0
-49 -55 0
-49 -36 39 0
-49 -63 65 0
65 59 0
-65 -59 0
-65 -42 39 0
-65 -51 49 0
67 0
42 61 0
-42 -61 0
-42 -45 51 0
-42 -53 59 0
51 63 0
-51 -63 0
-51 -36 42 0
-51 -55 59 0
59 65 0
-59 -65 0
-59 -39 42 0
-59 -49 51 0
-69 0
-77 45 0
-315 53 0
-315 49 0
-53 -49 315 0
-316 61 0
-316 51 0
-61 -51 316 0
-77 -315 0
-77 -316 0
-45 77 315 316 0
-85 53 0
-317 45 0
-317 55 0
-45 -55 317 0
-318 61 0
-318 59 0
-61 -59 318 0
-85 -317 0
-85 -318 0
-53 85 317 318 0
-93 61 0
-319 45 0
-319 63 0
-45 -63 319 0
-320 53 0
-320 65 0
-53 -65 320 0
-93 -319 0
-93 -320 0
-61 93 319 320 0
-71 36 0
-321 55 0
-321 39 0
-55 -39 321 0
-322 63 0
-322 42 0
-63 -42 322 0
-71 -321 0
-71 -322 0
-36 71 321 322 0
-79 0
-87 55 0
-323 36 0
-323 53 0
-36 -53 323 0
-324 63 0
-324 59 0
-63 -59 324 0
-87 -323 0
-87 -324 0
-55 87 323 324 0
-95 63 0
-325 36 0
-325 61 0
-36 -61 325 0
-326 55 0
-326 65 0
-55 -65 326 0
-95 -325 0
-95 -326 0
-63 95 325 326 0
-73 39 0
-327 49 0
-327 36 0
-49 -36 327 0
-328 65 0
-328 42 0
-65 -42 328 0
-73 -327 0
-73 -328 0
-39 73 327 328 0
-81 49 0
-329 39 0
-329 45 0
-39 -45 329 0
-330 65 0
-330 51 0
-65 -51 330 0
-81 -329 0
-81 -330 0
-49 81 329 330 0
-89 0
-97 65 0
-331 39 0
-331 61 0
-39 -61 331 0
-332 49 0
-332 63 0
-49 -63 332 0
-97 -331 0
-97 -332 0
-65 97 331 332 0
-75 42 0
-333 51 0
-333 36 0
-51 -36 333 0
-334 59 0
-334 39 0
-59 -39 334 0
-75 -333 0
-75 -334 0
-42 75 333 334 0
-83 51 0
-335 42 0
-335 45 0
-42 -45 335 0
-336 59 0
-336 49 0
-59 -49 336 0
-83 -335 0
-83 -336 0
-51 83 335 336 0
-91 59 0
-337 42 0
-337 53 0
-42 -53 337 0
-338 51 0
-338 55 0
-51 -55 338 0
-91 -337 0
-91 -338 0
-59 91 337 338 0
-99 0
