p cnf 543 1812
c ind 1 2 3 4 5 6 7 8 9 10 11 12 13 14 15 16 17 18 19 20 21 22 23 24 25 26 27 28 29 30 31 32 33 34 35 36 37 38 39 40 41 42 43 44 45 46 47 48 49 50 0
c ind 51 52 53 54 55 56 57 58 59 60 61 62 63 64 65 66 67 68 69 70 71 72 73 74 75 76 77 78 79 80 81 82 83 84 85 86 87 88 89 90 91 92 93 94 95 96 97 98 99 100 0
c ind 101 102 103 104 105 106 107 108 109 110 111 112 113 114 115 116 117 118 119 120 121 122 123 124 125 126 127 128 129 130 131 132 133 134 135 136 137 138 139 140 141 142 143 144 145 146 147 148 149 150 0
c ind 151 152 153 154 155 156 157 158 159 160 161 162 163 164 165 166 167 168 169 170 171 172 173 174 175 176 177 178 179 180 181 182 183 184 185 186 187 188 189 190 191 192 193 194 195 196 197 198 199 200 0
c ind 201 202 203 204 205 206 207 208 209 210 211 212 213 214 215 216 217 218 219 220 221 222 223 224 225 226 227 228 229 230 231 232 233 234 235 236 237 238 239 240 241 242 243 244 245 246 247 248 249 250 0
c ind 251 252 253 254 255 256 257 258 259 260 261 262 263 264 265 266 267 268 269 270 271 272 273 274 275 276 277 278 279 280 281 282 283 284 285 286 287 288 289 290 291 292 293 294 295 296 297 298 299 300 0
c ind 301 302 303 304 305 306 307 308 309 310 311 312 313 314 315 316 317 318 319 320 321 322 323 324 325 326 327 328 329 330 331 332 333 334 335 336 337 338 339 340 341 342 343 344 345 346 347 348 349 350 0
c ind 351 352 353 354 355 356 357 358 359 360 361 362 363 364 365 366 367 368 369 370 371 372 373 374 375 376 377 378 379 380 381 382 383 384 385 386 387 388 389 390 391 392 393 394 395 396 397 398 399 400 0
c ind 401 402 403 404 405 406 407 408 409 410 411 412 413 414 415 416 417 418 419 420 421 422 423 424 425 426 427 428 429 430 431 432 433 434 435 436 437 438 439 440 441 442 443 444 445 446 447 448 449 450 0
c ind 451 452 453 454 455 456 457 458 459 460 461 462 463 464 465 466 467 468 469 470 471 472 473 474 475 484 485 486 487 488 489 490 491 492 493 494 495 496 497 498 499 500 501 502 503 504 505 506 507 508 0
c ind 509 510 511 512 513 514 515 516 517 518 519 520 521 522 523 524 525 526 527 528 529 530 531 532 533 534 535 536 537 538 539 540 541 542 543 0
1 2 3 4 5 0
6 7 8 9 10 0
11 12 13 14 15 0
16 17 18 19 20 0
21 22 23 24 25 0
26 27 28 29 30 0
31 32 33 34 35 0
36 37 38 39 40 0
41 42 43 44 45 0
46 47 48 49 50 0
51 52 -52 -53 0
54 52 -55 -56 0
57 52 -58 -59 0
60 52 -61 -62 0
63 52 -64 -65 0
66 55 -52 -67 0
68 55 -55 -69 0
70 55 -58 -71 0
72 55 -61 -73 0
74 55 -64 -75 0
76 58 -52 -77 0
78 58 -55 -79 0
80 58 -58 -81 0
82 58 -61 -83 0
84 58 -64 -85 0
86 61 -52 -87 0
88 61 -55 -89 0
90 61 -58 -91 0
92 61 -61 -93 0
94 61 -64 -95 0
96 64 -52 -97 0
98 64 -55 -99 0
100 64 -58 -101 0
102 64 -61 -103 0
104 64 -64 -105 0
53 -51 0
56 -54 0
59 -57 0
62 -60 0
65 -63 0
67 -66 0
69 -68 0
71 -70 0
73 -72 0
75 -74 0
77 -76 0
79 -78 0
81 -80 0
83 -82 0
85 -84 0
87 -86 0
89 -88 0
91 -90 0
93 -92 0
95 -94 0
97 -96 0
99 -98 0
101 -100 0
103 -102 0
105 -104 0
53 -52 0
56 -52 0
59 -52 0
62 -52 0
65 -52 0
67 -55 0
69 -55 0
71 -55 0
73 -55 0
75 -55 0
77 -58 0
79 -58 0
81 -58 0
83 -58 0
85 -58 0
87 -61 0
89 -61 0
91 -61 0
93 -61 0
95 -61 0
97 -64 0
99 -64 0
101 -64 0
103 -64 0
105 -64 0
53 52 0
56 55 0
59 58 0
62 61 0
65 64 0
67 52 0
69 55 0
71 58 0
73 61 0
75 64 0
77 52 0
79 55 0
81 58 0
83 61 0
85 64 0
87 52 0
89 55 0
91 58 0
93 61 0
95 64 0
97 52 0
99 55 0
101 58 0
103 61 0
105 64 0
-106 -52 -52 107 0
-108 -55 -52 109 0
-110 -58 -52 111 0
-112 -61 -52 113 0
-114 -64 -52 115 0
-116 -52 -55 117 0
-118 -55 -55 119 0
-120 -58 -55 121 0
-122 -61 -55 123 0
-124 -64 -55 125 0
-126 -52 -58 127 0
-128 -55 -58 129 0
-130 -58 -58 131 0
-132 -61 -58 133 0
-134 -64 -58 135 0
-136 -52 -61 137 0
-138 -55 -61 139 0
-140 -58 -61 141 0
-142 -61 -61 143 0
-144 -64 -61 145 0
-146 -52 -64 147 0
-148 -55 -64 149 0
-150 -58 -64 151 0
-152 -61 -64 153 0
-154 -64 -64 155 0
-107 106 0
-109 108 0
-111 110 0
-113 112 0
-115 114 0
-117 116 0
-119 118 0
-121 120 0
-123 122 0
-125 124 0
-127 126 0
-129 128 0
-131 130 0
-133 132 0
-135 134 0
-137 136 0
-139 138 0
-141 140 0
-143 142 0
-145 144 0
-147 146 0
-149 148 0
-151 150 0
-153 152 0
-155 154 0
-107 52 0
-109 55 0
-111 58 0
-113 61 0
-115 64 0
-117 52 0
-119 55 0
-121 58 0
-123 61 0
-125 64 0
-127 52 0
-129 55 0
-131 58 0
-133 61 0
-135 64 0
-137 52 0
-139 55 0
-141 58 0
-143 61 0
-145 64 0
-147 52 0
-149 55 0
-151 58 0
-153 61 0
-155 64 0
-107 52 0
-109 52 0
-111 52 0
-113 52 0
-115 52 0
-117 55 0
-119 55 0
-121 55 0
-123 55 0
-125 55 0
-127 58 0
-129 58 0
-131 58 0
-133 58 0
-135 58 0
-137 61 0
-139 61 0
-141 61 0
-143 61 0
-145 61 0
-147 64 0
-149 64 0
-151 64 0
-153 64 0
-155 64 0
-156 107 -157 0
-158 109 -159 0
-160 111 -161 0
-162 113 -163 0
-164 115 -165 0
-166 117 -167 0
-168 119 -169 0
-170 121 -171 0
-172 123 -173 0
-174 125 -175 0
-176 127 -177 0
-178 129 -179 0
-180 131 -181 0
-182 133 -183 0
-184 135 -185 0
-186 137 -187 0
-188 139 -189 0
-190 141 -191 0
-192 143 -193 0
-194 145 -195 0
-196 147 -197 0
-198 149 -199 0
-200 151 -201 0
-202 153 -203 0
-204 155 -205 0
157 156 0
159 158 0
161 160 0
163 162 0
165 164 0
167 166 0
169 168 0
171 170 0
173 172 0
175 174 0
177 176 0
179 178 0
181 180 0
183 182 0
185 184 0
187 186 0
189 188 0
191 190 0
193 192 0
195 194 0
197 196 0
199 198 0
201 200 0
203 202 0
205 204 0
157 -107 0
159 -109 0
161 -111 0
163 -113 0
165 -115 0
167 -117 0
169 -119 0
171 -121 0
173 -123 0
175 -125 0
177 -127 0
179 -129 0
181 -131 0
183 -133 0
185 -135 0
187 -137 0
189 -139 0
191 -141 0
193 -143 0
195 -145 0
197 -147 0
199 -149 0
201 -151 0
203 -153 0
205 -155 0
156 -106 -52 -52 -206 0
158 -108 -55 -52 -207 0
160 -110 -58 -52 -208 0
162 -112 -61 -52 -209 0
164 -114 -64 -52 -210 0
166 -116 -52 -55 -211 0
168 -118 -55 -55 -212 0
170 -120 -58 -55 -213 0
172 -122 -61 -55 -214 0
174 -124 -64 -55 -215 0
176 -126 -52 -58 -216 0
178 -128 -55 -58 -217 0
180 -130 -58 -58 -218 0
182 -132 -61 -58 -219 0
184 -134 -64 -58 -220 0
186 -136 -52 -61 -221 0
188 -138 -55 -61 -222 0
190 -140 -58 -61 -223 0
192 -142 -61 -61 -224 0
194 -144 -64 -61 -225 0
196 -146 -52 -64 -226 0
198 -148 -55 -64 -227 0
200 -150 -58 -64 -228 0
202 -152 -61 -64 -229 0
204 -154 -64 -64 -230 0
206 -156 0
207 -158 0
208 -160 0
209 -162 0
210 -164 0
211 -166 0
212 -168 0
213 -170 0
214 -172 0
215 -174 0
216 -176 0
217 -178 0
218 -180 0
219 -182 0
220 -184 0
221 -186 0
222 -188 0
223 -190 0
224 -192 0
225 -194 0
226 -196 0
227 -198 0
228 -200 0
229 -202 0
230 -204 0
206 106 0
207 108 0
208 110 0
209 112 0
210 114 0
211 116 0
212 118 0
213 120 0
214 122 0
215 124 0
216 126 0
217 128 0
218 130 0
219 132 0
220 134 0
221 136 0
222 138 0
223 140 0
224 142 0
225 144 0
226 146 0
227 148 0
228 150 0
229 152 0
230 154 0
206 52 0
207 55 0
208 58 0
209 61 0
210 64 0
211 52 0
212 55 0
213 58 0
214 61 0
215 64 0
216 52 0
217 55 0
218 58 0
219 61 0
220 64 0
221 52 0
222 55 0
223 58 0
224 61 0
225 64 0
226 52 0
227 55 0
228 58 0
229 61 0
230 64 0
206 52 0
207 52 0
208 52 0
209 52 0
210 52 0
211 55 0
212 55 0
213 55 0
214 55 0
215 55 0
216 58 0
217 58 0
218 58 0
219 58 0
220 58 0
221 61 0
222 61 0
223 61 0
224 61 0
225 61 0
226 64 0
227 64 0
228 64 0
229 64 0
230 64 0
-231 -156 -232 0
-231 -166 -233 0
-231 -176 -234 0
-231 -186 -235 0
-231 -196 -236 0
-237 -158 -238 0
-237 -168 -239 0
-237 -178 -240 0
-237 -188 -241 0
-237 -198 -242 0
-243 -160 -244 0
-243 -170 -245 0
-243 -180 -246 0
-243 -190 -247 0
-243 -200 -248 0
-249 -162 -250 0
-249 -172 -251 0
-249 -182 -252 0
-249 -192 -253 0
-249 -202 -254 0
-255 -164 -256 0
-255 -174 -257 0
-255 -184 -258 0
-255 -194 -259 0
-255 -204 -260 0
232 231 0
233 231 0
234 231 0
235 231 0
236 231 0
238 237 0
239 237 0
240 237 0
241 237 0
242 237 0
244 243 0
245 243 0
246 243 0
247 243 0
248 243 0
250 249 0
251 249 0
252 249 0
253 249 0
254 249 0
256 255 0
257 255 0
258 255 0
259 255 0
260 255 0
232 156 0
233 166 0
234 176 0
235 186 0
236 196 0
238 158 0
239 168 0
240 178 0
241 188 0
242 198 0
244 160 0
245 170 0
246 180 0
247 190 0
248 200 0
250 162 0
251 172 0
252 182 0
253 192 0
254 202 0
256 164 0
257 174 0
258 184 0
259 194 0
260 204 0
-231 -232 261 0
-237 -233 262 0
-243 -234 263 0
-249 -235 264 0
-255 -236 265 0
-231 -238 266 0
-237 -239 267 0
-243 -240 268 0
-249 -241 269 0
-255 -242 270 0
-231 -244 271 0
-237 -245 272 0
-243 -246 273 0
-249 -247 274 0
-255 -248 275 0
-231 -250 276 0
-237 -251 277 0
-243 -252 278 0
-249 -253 279 0
-255 -254 280 0
-231 -256 281 0
-237 -257 282 0
-243 -258 283 0
-249 -259 284 0
-255 -260 285 0
-261 231 0
-262 237 0
-263 243 0
-264 249 0
-265 255 0
-266 231 0
-267 237 0
-268 243 0
-269 249 0
-270 255 0
-271 231 0
-272 237 0
-273 243 0
-274 249 0
-275 255 0
-276 231 0
-277 237 0
-278 243 0
-279 249 0
-280 255 0
-281 231 0
-282 237 0
-283 243 0
-284 249 0
-285 255 0
-261 232 0
-262 233 0
-263 234 0
-264 235 0
-265 236 0
-266 238 0
-267 239 0
-268 240 0
-269 241 0
-270 242 0
-271 244 0
-272 245 0
-273 246 0
-274 247 0
-275 248 0
-276 250 0
-277 251 0
-278 252 0
-279 253 0
-280 254 0
-281 256 0
-282 257 0
-283 258 0
-284 259 0
-285 260 0
-286 261 -287 0
-288 262 -289 0
-290 263 -291 0
-292 264 -293 0
-294 265 -295 0
-286 266 -296 0
-288 267 -297 0
-290 268 -298 0
-292 269 -299 0
-294 270 -300 0
-286 271 -301 0
-288 272 -302 0
-290 273 -303 0
-292 274 -304 0
-294 275 -305 0
-286 276 -306 0
-288 277 -307 0
-290 278 -308 0
-292 279 -309 0
-294 280 -310 0
-286 281 -311 0
-288 282 -312 0
-290 283 -313 0
-292 284 -314 0
-294 285 -315 0
287 286 0
289 288 0
291 290 0
293 292 0
295 294 0
296 286 0
297 288 0
298 290 0
299 292 0
300 294 0
301 286 0
302 288 0
303 290 0
304 292 0
305 294 0
306 286 0
307 288 0
308 290 0
309 292 0
310 294 0
311 286 0
312 288 0
313 290 0
314 292 0
315 294 0
287 -261 0
289 -262 0
291 -263 0
293 -264 0
295 -265 0
296 -266 0
297 -267 0
298 -268 0
299 -269 0
300 -270 0
301 -271 0
302 -272 0
303 -273 0
304 -274 0
305 -275 0
306 -276 0
307 -277 0
308 -278 0
309 -279 0
310 -280 0
311 -281 0
312 -282 0
313 -283 0
314 -284 0
315 -285 0
-316 -156 -317 0
-316 -166 -318 0
-316 -176 -319 0
-316 -186 -320 0
-316 -196 -321 0
-322 -158 -323 0
-322 -168 -324 0
-322 -178 -325 0
-322 -188 -326 0
-322 -198 -327 0
-328 -160 -329 0
-328 -170 -330 0
-328 -180 -331 0
-328 -190 -332 0
-328 -200 -333 0
-334 -162 -335 0
-334 -172 -336 0
-334 -182 -337 0
-334 -192 -338 0
-334 -202 -339 0
-340 -164 -341 0
-340 -174 -342 0
-340 -184 -343 0
-340 -194 -344 0
-340 -204 -345 0
317 316 0
318 316 0
319 316 0
320 316 0
321 316 0
323 322 0
324 322 0
325 322 0
326 322 0
327 322 0
329 328 0
330 328 0
331 328 0
332 328 0
333 328 0
335 334 0
336 334 0
337 334 0
338 334 0
339 334 0
341 340 0
342 340 0
343 340 0
344 340 0
345 340 0
317 156 0
318 166 0
319 176 0
320 186 0
321 196 0
323 158 0
324 168 0
325 178 0
326 188 0
327 198 0
329 160 0
330 170 0
331 180 0
332 190 0
333 200 0
335 162 0
336 172 0
337 182 0
338 192 0
339 202 0
341 164 0
342 174 0
343 184 0
344 194 0
345 204 0
-316 -317 346 0
-322 -318 347 0
-328 -319 348 0
-334 -320 349 0
-340 -321 350 0
-316 -323 351 0
-322 -324 352 0
-328 -325 353 0
-334 -326 354 0
-340 -327 355 0
-316 -329 356 0
-322 -330 357 0
-328 -331 358 0
-334 -332 359 0
-340 -333 360 0
-316 -335 361 0
-322 -336 362 0
-328 -337 363 0
-334 -338 364 0
-340 -339 365 0
-316 -341 366 0
-322 -342 367 0
-328 -343 368 0
-334 -344 369 0
-340 -345 370 0
-346 316 0
-347 322 0
-348 328 0
-349 334 0
-350 340 0
-351 316 0
-352 322 0
-353 328 0
-354 334 0
-355 340 0
-356 316 0
-357 322 0
-358 328 0
-359 334 0
-360 340 0
-361 316 0
-362 322 0
-363 328 0
-364 334 0
-365 340 0
-366 316 0
-367 322 0
-368 328 0
-369 334 0
-370 340 0
-346 317 0
-347 318 0
-348 319 0
-349 320 0
-350 321 0
-351 323 0
-352 324 0
-353 325 0
-354 326 0
-355 327 0
-356 329 0
-357 330 0
-358 331 0
-359 332 0
-360 333 0
-361 335 0
-362 336 0
-363 337 0
-364 338 0
-365 339 0
-366 341 0
-367 342 0
-368 343 0
-369 344 0
-370 345 0
-371 346 -372 0
-373 347 -374 0
-375 348 -376 0
-377 349 -378 0
-379 350 -380 0
-371 351 -381 0
-373 352 -382 0
-375 353 -383 0
-377 354 -384 0
-379 355 -385 0
-371 356 -386 0
-373 357 -387 0
-375 358 -388 0
-377 359 -389 0
-379 360 -390 0
-371 361 -391 0
-373 362 -392 0
-375 363 -393 0
-377 364 -394 0
-379 365 -395 0
-371 366 -396 0
-373 367 -397 0
-375 368 -398 0
-377 369 -399 0
-379 370 -400 0
372 371 0
374 373 0
376 375 0
378 377 0
380 379 0
381 371 0
382 373 0
383 375 0
384 377 0
385 379 0
386 371 0
387 373 0
388 375 0
389 377 0
390 379 0
391 371 0
392 373 0
393 375 0
394 377 0
395 379 0
396 371 0
397 373 0
398 375 0
399 377 0
400 379 0
372 -346 0
374 -347 0
376 -348 0
378 -349 0
380 -350 0
381 -351 0
382 -352 0
383 -353 0
384 -354 0
385 -355 0
386 -356 0
387 -357 0
388 -358 0
389 -359 0
390 -360 0
391 -361 0
392 -362 0
393 -363 0
394 -364 0
395 -365 0
396 -366 0
397 -367 0
398 -368 0
399 -369 0
400 -370 0
-53 -157 -206 -287 -372 401 0
-56 -159 -207 -289 -374 402 0
-59 -161 -208 -291 -376 403 0
-62 -163 -209 -293 -378 404 0
-65 -165 -210 -295 -380 405 0
-67 -167 -211 -296 -381 406 0
-69 -169 -212 -297 -382 407 0
-71 -171 -213 -298 -383 408 0
-73 -173 -214 -299 -384 409 0
-75 -175 -215 -300 -385 410 0
-77 -177 -216 -301 -386 411 0
-79 -179 -217 -302 -387 412 0
-81 -181 -218 -303 -388 413 0
-83 -183 -219 -304 -389 414 0
-85 -185 -220 -305 -390 415 0
-87 -187 -221 -306 -391 416 0
-89 -189 -222 -307 -392 417 0
-91 -191 -223 -308 -393 418 0
-93 -193 -224 -309 -394 419 0
-95 -195 -225 -310 -395 420 0
-97 -197 -226 -311 -396 421 0
-99 -199 -227 -312 -397 422 0
-101 -201 -228 -313 -398 423 0
-103 -203 -229 -314 -399 424 0
-105 -205 -230 -315 -400 425 0
-401 53 0
-402 56 0
-403 59 0
-404 62 0
-405 65 0
-406 67 0
-407 69 0
-408 71 0
-409 73 0
-410 75 0
-411 77 0
-412 79 0
-413 81 0
-414 83 0
-415 85 0
-416 87 0
-417 89 0
-418 91 0
-419 93 0
-420 95 0
-421 97 0
-422 99 0
-423 101 0
-424 103 0
-425 105 0
-401 157 0
-402 159 0
-403 161 0
-404 163 0
-405 165 0
-406 167 0
-407 169 0
-408 171 0
-409 173 0
-410 175 0
-411 177 0
-412 179 0
-413 181 0
-414 183 0
-415 185 0
-416 187 0
-417 189 0
-418 191 0
-419 193 0
-420 195 0
-421 197 0
-422 199 0
-423 201 0
-424 203 0
-425 205 0
-401 206 0
-402 207 0
-403 208 0
-404 209 0
-405 210 0
-406 211 0
-407 212 0
-408 213 0
-409 214 0
-410 215 0
-411 216 0
-412 217 0
-413 218 0
-414 219 0
-415 220 0
-416 221 0
-417 222 0
-418 223 0
-419 224 0
-420 225 0
-421 226 0
-422 227 0
-423 228 0
-424 229 0
-425 230 0
-401 287 0
-402 289 0
-403 291 0
-404 293 0
-405 295 0
-406 296 0
-407 297 0
-408 298 0
-409 299 0
-410 300 0
-411 301 0
-412 302 0
-413 303 0
-414 304 0
-415 305 0
-416 306 0
-417 307 0
-418 308 0
-419 309 0
-420 310 0
-421 311 0
-422 312 0
-423 313 0
-424 314 0
-425 315 0
-401 372 0
-402 374 0
-403 376 0
-404 378 0
-405 380 0
-406 381 0
-407 382 0
-408 383 0
-409 384 0
-410 385 0
-411 386 0
-412 387 0
-413 388 0
-414 389 0
-415 390 0
-416 391 0
-417 392 0
-418 393 0
-419 394 0
-420 395 0
-421 396 0
-422 397 0
-423 398 0
-424 399 0
-425 400 0
401 0
402 0
403 0
404 0
405 0
406 0
407 0
408 0
409 0
410 0
411 0
412 0
413 0
414 0
415 0
416 0
417 0
418 0
419 0
420 0
421 0
422 0
423 0
424 0
425 0
-231 -156 426 0
-231 -166 427 0
-231 -176 428 0
-231 -186 429 0
-231 -196 430 0
-237 -158 431 0
-237 -168 432 0
-237 -178 433 0
-237 -188 434 0
-237 -198 435 0
-243 -160 436 0
-243 -170 437 0
-243 -180 438 0
-243 -190 439 0
-243 -200 440 0
-249 -162 441 0
-249 -172 442 0
-249 -182 443 0
-249 -192 444 0
-249 -202 445 0
-255 -164 446 0
-255 -174 447 0
-255 -184 448 0
-255 -194 449 0
-255 -204 450 0
-426 231 0
-427 231 0
-428 231 0
-429 231 0
-430 231 0
-431 237 0
-432 237 0
-433 237 0
-434 237 0
-435 237 0
-436 243 0
-437 243 0
-438 243 0
-439 243 0
-440 243 0
-441 249 0
-442 249 0
-443 249 0
-444 249 0
-445 249 0
-446 255 0
-447 255 0
-448 255 0
-449 255 0
-450 255 0
-426 156 0
-427 166 0
-428 176 0
-429 186 0
-430 196 0
-431 158 0
-432 168 0
-433 178 0
-434 188 0
-435 198 0
-436 160 0
-437 170 0
-438 180 0
-439 190 0
-440 200 0
-441 162 0
-442 172 0
-443 182 0
-444 192 0
-445 202 0
-446 164 0
-447 174 0
-448 184 0
-449 194 0
-450 204 0
286 -231 426 -1 0
288 -237 427 -6 0
290 -243 428 -11 0
292 -249 429 -16 0
294 -255 430 -21 0
286 -231 431 -2 0
288 -237 432 -7 0
290 -243 433 -12 0
292 -249 434 -17 0
294 -255 435 -22 0
286 -231 436 -3 0
288 -237 437 -8 0
290 -243 438 -13 0
292 -249 439 -18 0
294 -255 440 -23 0
286 -231 441 -4 0
288 -237 442 -9 0
290 -243 443 -14 0
292 -249 444 -19 0
294 -255 445 -24 0
286 -231 446 -5 0
288 -237 447 -10 0
290 -243 448 -15 0
292 -249 449 -20 0
294 -255 450 -25 0
1 -286 0
6 -288 0
11 -290 0
16 -292 0
21 -294 0
2 -286 0
7 -288 0
12 -290 0
17 -292 0
22 -294 0
3 -286 0
8 -288 0
13 -290 0
18 -292 0
23 -294 0
4 -286 0
9 -288 0
14 -290 0
19 -292 0
24 -294 0
5 -286 0
10 -288 0
15 -290 0
20 -292 0
25 -294 0
1 231 0
6 237 0
11 243 0
16 249 0
21 255 0
2 231 0
7 237 0
12 243 0
17 249 0
22 255 0
3 231 0
8 237 0
13 243 0
18 249 0
23 255 0
4 231 0
9 237 0
14 243 0
19 249 0
24 255 0
5 231 0
10 237 0
15 243 0
20 249 0
25 255 0
1 -426 0
6 -427 0
11 -428 0
16 -429 0
21 -430 0
2 -431 0
7 -432 0
12 -433 0
17 -434 0
22 -435 0
3 -436 0
8 -437 0
13 -438 0
18 -439 0
23 -440 0
4 -441 0
9 -442 0
14 -443 0
19 -444 0
24 -445 0
5 -446 0
10 -447 0
15 -448 0
20 -449 0
25 -450 0
-316 -156 451 0
-316 -166 452 0
-316 -176 453 0
-316 -186 454 0
-316 -196 455 0
-322 -158 456 0
-322 -168 457 0
-322 -178 458 0
-322 -188 459 0
-322 -198 460 0
-328 -160 461 0
-328 -170 462 0
-328 -180 463 0
-328 -190 464 0
-328 -200 465 0
-334 -162 466 0
-334 -172 467 0
-334 -182 468 0
-334 -192 469 0
-334 -202 470 0
-340 -164 471 0
-340 -174 472 0
-340 -184 473 0
-340 -194 474 0
-340 -204 475 0
-451 316 0
-452 316 0
-453 316 0
-454 316 0
-455 316 0
-456 322 0
-457 322 0
-458 322 0
-459 322 0
-460 322 0
-461 328 0
-462 328 0
-463 328 0
-464 328 0
-465 328 0
-466 334 0
-467 334 0
-468 334 0
-469 334 0
-470 334 0
-471 340 0
-472 340 0
-473 340 0
-474 340 0
-475 340 0
-451 156 0
-452 166 0
-453 176 0
-454 186 0
-455 196 0
-456 158 0
-457 168 0
-458 178 0
-459 188 0
-460 198 0
-461 160 0
-462 170 0
-463 180 0
-464 190 0
-465 200 0
-466 162 0
-467 172 0
-468 182 0
-469 192 0
-470 202 0
-471 164 0
-472 174 0
-473 184 0
-474 194 0
-475 204 0
371 -316 451 -26 0
373 -322 452 -31 0
375 -328 453 -36 0
377 -334 454 -41 0
379 -340 455 -46 0
371 -316 456 -27 0
373 -322 457 -32 0
375 -328 458 -37 0
377 -334 459 -42 0
379 -340 460 -47 0
371 -316 461 -28 0
373 -322 462 -33 0
375 -328 463 -38 0
377 -334 464 -43 0
379 -340 465 -48 0
371 -316 466 -29 0
373 -322 467 -34 0
375 -328 468 -39 0
377 -334 469 -44 0
379 -340 470 -49 0
371 -316 471 -30 0
373 -322 472 -35 0
375 -328 473 -40 0
377 -334 474 -45 0
379 -340 475 -50 0
26 -371 0
31 -373 0
36 -375 0
41 -377 0
46 -379 0
27 -371 0
32 -373 0
37 -375 0
42 -377 0
47 -379 0
28 -371 0
33 -373 0
38 -375 0
43 -377 0
48 -379 0
29 -371 0
34 -373 0
39 -375 0
44 -377 0
49 -379 0
30 -371 0
35 -373 0
40 -375 0
45 -377 0
50 -379 0
26 316 0
31 322 0
36 328 0
41 334 0
46 340 0
27 316 0
32 322 0
37 328 0
42 334 0
47 340 0
28 316 0
33 322 0
38 328 0
43 334 0
48 340 0
29 316 0
34 322 0
39 328 0
44 334 0
49 340 0
30 316 0
35 322 0
40 328 0
45 334 0
50 340 0
26 -451 0
31 -452 0
36 -453 0
41 -454 0
46 -455 0
27 -456 0
32 -457 0
37 -458 0
42 -459 0
47 -460 0
28 -461 0
33 -462 0
38 -463 0
43 -464 0
48 -465 0
29 -466 0
34 -467 0
39 -468 0
44 -469 0
49 -470 0
30 -471 0
35 -472 0
40 -473 0
45 -474 0
50 -475 0
58 0
-322 0
64 0
237 0
-249 0
334 0
55 0
340 0
243 0
61 0
-316 0
-255 0
231 0
-328 0
52 0
-286 476 0
-476 477 0
-288 -476 0
-288 477 0
-477 478 0
-290 -477 0
-290 478 0
-478 479 0
-292 -478 0
-292 479 0
-294 -479 0
-371 480 0
-480 481 0
-373 -480 0
-373 481 0
-481 482 0
-375 -481 0
-375 482 0
-482 483 0
-377 -482 0
-377 483 0
-379 -483 0
51 0
66 54 0
-66 -54 0
-66 -78 76 0
-66 -88 86 0
-66 -98 96 0
76 57 0
-76 -57 0
-76 -70 66 0
-76 -90 86 0
-76 -100 96 0
86 60 0
-86 -60 0
-86 -72 66 0
-86 -82 76 0
-86 -102 96 0
96 63 0
-96 -63 0
-96 -74 66 0
-96 -84 76 0
-96 -94 86 0
68 0
54 66 0
-54 -66 0
-54 -76 78 0
-54 -86 88 0
-54 -96 98 0
78 70 0
-78 -70 0
-78 -57 54 0
-78 -90 88 0
-78 -100 98 0
88 72 0
-88 -72 0
-88 -60 54 0
-88 -82 78 0
-88 -102 98 0
98 74 0
-98 -74 0
-98 -63 54 0
-98 -84 78 0
-98 -94 88 0
80 0
57 76 0
-57 -76 0
-57 -66 70 0
-57 -86 90 0
-57 -96 100 0
70 78 0
-70 -78 0
-70 -54 57 0
-70 -88 90 0
-70 -98 100 0
90 82 0
-90 -82 0
-90 -60 57 0
-90 -72 70 0
-90 -102 100 0
100 84 0
-100 -84 0
-100 -63 57 0
-100 -74 70 0
-100 -94 90 0
92 0
60 86 0
-60 -86 0
-60 -66 72 0
-60 -76 82 0
-60 -96 102 0
72 88 0
-72 -88 0
-72 -54 60 0
-72 -78 82 0
-72 -98 102 0
82 90 0
-82 -90 0
-82 -57 60 0
-82 -70 72 0
-82 -100 102 0
102 94 0
-102 -94 0
-102 -63 60 0
-102 -74 72 0
-102 -84 82 0
104 0
63 96 0
-63 -96 0
-63 -66 74 0
-63 -76 84 0
-63 -86 94 0
74 98 0
-74 -98 0
-74 -54 63 0
-74 -78 84 0
-74 -88 94 0
84 100 0
-84 -100 0
-84 -57 63 0
-84 -70 74 0
-84 -90 94 0
94 102 0
-94 -102 0
-94 -60 63 0
-94 -72 74 0
-94 -82 84 0
-106 0
-116 66 0
-484 76 0
-484 70 0
-76 -70 484 0
-485 86 0
-485 72 0
-86 -72 485 0
-486 96 0
-486 74 0
-96 -74 486 0
-116 -484 0
-116 -485 0
-116 -486 0
-66 116 484 485 486 0
-126 76 0
-487 66 0
-487 78 0
-66 -78 487 0
-488 86 0
-488 82 0
-86 -82 488 0
-489 96 0
-489 84 0
-96 -84 489 0
-126 -487 0
-126 -488 0
-126 -489 0
-76 126 487 488 489 0
-136 86 0
-490 66 0
-490 88 0
-66 -88 490 0
-491 76 0
-491 90 0
-76 -90 491 0
-492 96 0
-492 94 0
-96 -94 492 0
-136 -490 0
-136 -491 0
-136 -492 0
-86 136 490 491 492 0
-146 96 0
-493 66 0
-493 98 0
-66 -98 493 0
-494 76 0
-494 100 0
-76 -100 494 0
-495 86 0
-495 102 0
-86 -102 495 0
-146 -493 0
-146 -494 0
-146 -495 0
-96 146 493 494 495 0
-108 54 0
-496 78 0
-496 57 0
-78 -57 496 0
-497 88 0
-497 60 0
-88 -60 497 0
-498 98 0
-498 63 0
-98 -63 498 0
-108 -496 0
-108 -497 0
-108 -498 0
-54 108 496 497 498 0
-118 0
-128 78 0
-499 54 0
-499 76 0
-54 -76 499 0
-500 88 0
-500 82 0
-88 -82 500 0
-501 98 0
-501 84 0
-98 -84 501 0
-128 -499 0
-128 -500 0
-128 -501 0
-78 128 499 500 501 0
-138 88 0
-502 54 0
-502 86 0
-54 -86 502 0
-503 78 0
-503 90 0
-78 -90 503 0
-504 98 0
-504 94 0
-98 -94 504 0
-138 -502 0
-138 -503 0
-138 -504 0
-88 138 502 503 504 0
-148 98 0
-505 54 0
-505 96 0
-54 -96 505 0
-506 78 0
-506 100 0
-78 -100 506 0
-507 88 0
-507 102 0
-88 -102 507 0
-148 -505 0
-148 -506 0
-148 -507 0
-98 148 505 506 507 0
-110 57 0
-508 70 0
-508 54 0
-70 -54 508 0
-509 90 0
-509 60 0
-90 -60 509 0
-510 100 0
-510 63 0
-100 -63 510 0
-110 -508 0
-110 -509 0
-110 -510 0
-57 110 508 509 510 0
-120 70 0
-511 57 0
-511 66 0
-57 -66 511 0
-512 90 0
-512 72 0
-90 -72 512 0
-513 100 0
-513 74 0
-100 -74 513 0
-120 -511 0
-120 -512 0
-120 -513 0
-70 120 511 512 513 0
-130 0
-140 90 0
-514 57 0
-514 86 0
-57 -86 514 0
-515 70 0
-515 88 0
-70 -88 515 0
-516 100 0
-516 94 0
-100 -94 516 0
-140 -514 0
-140 -515 0
-140 -516 0
-90 140 514 515 516 0
-150 100 0
-517 57 0
-517 96 0
-57 -96 517 0
-518 70 0
-518 98 0
-70 -98 518 0
-519 90 0
-519 102 0
-90 -102 519 0
-150 -517 0
-150 -518 0
-150 -519 0
-100 150 517 518 519 0
-112 60 0
-520 72 0
-520 54 0
-72 -54 520 0
-521 82 0
-521 57 0
-82 -57 521 0
-522 102 0
-522 63 0
-102 -63 522 0
-112 -520 0
-112 -521 0
-112 -522 0
-60 112 520 521 522 0
-122 72 0
-523 60 0
-523 66 0
-60 -66 523 0
-524 82 0
-524 70 0
-82 -70 524 0
-525 102 0
-525 74 0
-102 -74 525 0
-122 -523 0
-122 -524 0
-122 -525 0
-72 122 523 524 525 0
-132 82 0
-526 60 0
-526 76 0
-60 -76 526 0
-527 72 0
-527 78 0
-72 -78 527 0
-528 102 0
-528 84 0
-102 -84 528 0
-132 -526 0
-132 -527 0
-132 -528 0
-82 132 526 527 528 0
-142 0
-152 102 0
-529 60 0
-529 96 0
-60 -96 529 0
-530 72 0
-530 98 0
-72 -98 530 0
-531 82 0
-531 100 0
-82 -100 531 0
-152 -529 0
-152 -530 0
-152 -531 0
-102 152 529 530 531 0
-114 63 0
-532 74 0
-532 54 0
-74 -54 532 0
-533 84 0
-533 57 0
-84 -57 533 0
-534 94 0
-534 60 0
-94 -60 534 0
-114 -532 0
-114 -533 0
-114 -534 0
-63 114 532 533 534 0
-124 74 0
-535 63 0
-535 66 0
-63 -66 535 0
-536 84 0
-536 70 0
-84 -70 536 0
-537 94 0
-537 72 0
-94 -72 537 0
-124 -535 0
-124 -536 0
-124 -537 0
-74 124 535 536 537 0
-134 84 0
-538 63 0
-538 76 0
-63 -76 538 0
-539 74 0
-539 78 0
-74 -78 539 0
-540 94 0
-540 82 0
-94 -82 540 0
-134 -538 0
-134 -539 0
-134 -540 0
-84 134 538 539 540 0
-144 94 0
-541 63 0
-541 86 0
-63 -86 541 0
-542 74 0
-542 88 0
-74 -88 542 0
-543 84 0
-543 90 0
-84 -90 543 0
-144 -541 0
-144 -542 0
-144 -543 0
-94 144 541 542 543 0
-154 0
