p cnf 808 2770
c ind 1 2 3 4 5 6 7 8 9 10 11 12 13 14 15 16 17 18 19 20 21 22 23 24 25 26 27 28 29 30 31 32 33 34 35 36 37 38 39 40 41 42 43 44 45 46 47 48 49 50 0
c ind 51 52 53 54 55 56 57 58 59 60 61 62 63 64 65 66 67 68 69 70 71 72 73 74 75 76 77 78 79 80 81 82 83 84 85 86 87 88 89 90 91 92 93 94 95 96 97 98 99 100 0
c ind 101 102 103 104 105 106 107 108 109 110 111 112 113 114 115 116 117 118 119 120 121 122 123 124 125 126 127 128 129 130 131 132 133 134 135 136 137 138 139 140 141 142 143 144 145 146 147 148 149 150 0
c ind 151 152 153 154 155 156 157 158 159 160 161 162 163 164 165 166 167 168 169 170 171 172 173 174 175 176 177 178 179 180 181 182 183 184 185 186 187 188 189 190 191 192 193 194 195 196 197 198 199 200 0
c ind 201 202 203 204 205 206 207 208 209 210 211 212 213 214 215 216 217 218 219 220 221 222 223 224 225 226 227 228 229 230 231 232 233 234 235 236 237 238 239 240 241 242 243 244 245 246 247 248 249 250 0
c ind 251 252 253 254 255 256 257 258 259 260 261 262 263 264 265 266 267 268 269 270 271 272 273 274 275 276 277 278 279 280 281 282 283 284 285 286 287 288 289 290 291 292 293 294 295 296 297 298 299 300 0
c ind 301 302 303 304 305 306 307 308 309 310 311 312 313 314 315 316 317 318 319 320 321 322 323 324 325 326 327 328 329 330 331 332 333 334 335 336 337 338 339 340 341 342 343 344 345 346 347 348 349 350 0
c ind 351 352 353 354 355 356 357 358 359 360 361 362 363 364 365 366 367 368 369 370 371 372 373 374 375 376 377 378 379 380 381 382 383 384 385 386 387 388 389 390 391 392 393 394 395 396 397 398 399 400 0
c ind 401 402 403 404 405 406 407 408 409 410 411 412 413 414 415 416 417 418 419 420 421 422 423 424 425 426 427 428 429 430 431 432 433 434 435 436 437 438 439 440 441 442 443 444 445 446 447 448 449 450 0
c ind 451 452 453 454 455 456 457 458 459 460 461 462 463 464 465 466 467 468 469 470 471 472 473 474 475 476 477 478 479 480 481 482 483 484 485 486 487 488 489 490 491 492 493 494 495 496 497 498 499 500 0
c ind 501 502 503 504 505 506 507 508 509 510 511 512 513 514 515 516 517 518 519 520 521 522 523 524 525 526 527 528 529 530 531 532 533 534 535 536 537 538 539 540 541 542 543 544 545 546 547 548 549 550 0
c ind 551 552 553 554 555 556 557 558 559 560 561 562 563 564 565 566 567 568 569 570 571 572 573 574 575 576 577 578 579 580 581 582 583 584 585 586 587 588 589 590 591 592 593 594 595 596 597 598 599 600 0
c ind 601 602 603 604 605 606 607 608 609 610 611 612 613 614 615 616 617 618 619 620 621 622 623 624 625 626 627 628 629 630 631 632 633 634 635 636 637 638 639 640 641 642 643 644 645 646 647 648 649 650 0
c ind 651 652 653 654 655 656 657 658 659 660 661 662 663 664 665 666 667 668 669 670 671 672 673 674 675 676 677 678 689 690 691 692 693 694 695 696 697 698 699 700 701 702 703 704 705 706 707 708 709 710 0
c ind 711 712 713 714 715 716 717 718 719 720 721 722 723 724 725 726 727 728 729 730 731 732 733 734 735 736 737 738 739 740 741 742 743 744 745 746 747 748 749 750 751 752 753 754 755 756 757 758 759 760 0
c ind 761 762 763 764 765 766 767 768 769 770 771 772 773 774 775 776 777 778 779 780 781 782 783 784 785 786 787 788 789 790 791 792 793 794 795 796 797 798 799 800 801 802 803 804 805 806 807 808 0
1 2 3 4 5 6 0
7 8 9 10 11 12 0
13 14 15 16 17 18 0
19 20 21 22 23 24 0
25 26 27 28 29 30 0
31 32 33 34 35 36 0
37 38 39 40 41 42 0
43 44 45 46 47 48 0
49 50 51 52 53 54 0
55 56 57 58 59 60 0
61 62 63 64 65 66 0
67 68 69 70 71 72 0
73 74 -74 -75 0
76 74 -77 -78 0
79 74 -80 -81 0
82 74 -83 -84 0
85 74 -86 -87 0
88 74 -89 -90 0
91 77 -74 -92 0
93 77 -77 -94 0
95 77 -80 -96 0
97 77 -83 -98 0
99 77 -86 -100 0
101 77 -89 -102 0
103 80 -74 -104 0
105 80 -77 -106 0
107 80 -80 -108 0
109 80 -83 -110 0
111 80 -86 -112 0
113 80 -89 -114 0
115 83 -74 -116 0
117 83 -77 -118 0
119 83 -80 -120 0
121 83 -83 -122 0
123 83 -86 -124 0
125 83 -89 -126 0
127 86 -74 -128 0
129 86 -77 -130 0
131 86 -80 -132 0
133 86 -83 -134 0
135 86 -86 -136 0
137 86 -89 -138 0
139 89 -74 -140 0
141 89 -77 -142 0
143 89 -80 -144 0
145 89 -83 -146 0
147 89 -86 -148 0
149 89 -89 -150 0
75 -73 0
78 -76 0
81 -79 0
84 -82 0
87 -85 0
90 -88 0
92 -91 0
94 -93 0
96 -95 0
98 -97 0
100 -99 0
102 -101 0
104 -103 0
106 -105 0
108 -107 0
110 -109 0
112 -111 0
114 -113 0
116 -115 0
118 -117 0
120 -119 0
122 -121 0
124 -123 0
126 -125 0
128 -127 0
130 -129 0
132 -131 0
134 -133 0
136 -135 0
138 -137 0
140 -139 0
142 -141 0
144 -143 0
146 -145 0
148 -147 0
150 -149 0
75 -74 0
78 -74 0
81 -74 0
84 -74 0
87 -74 0
90 -74 0
92 -77 0
94 -77 0
96 -77 0
98 -77 0
100 -77 0
102 -77 0
104 -80 0
106 -80 0
108 -80 0
110 -80 0
112 -80 0
114 -80 0
116 -83 0
118 -83 0
120 -83 0
122 -83 0
124 -83 0
126 -83 0
128 -86 0
130 -86 0
132 -86 0
134 -86 0
136 -86 0
138 -86 0
140 -89 0
142 -89 0
144 -89 0
146 -89 0
148 -89 0
150 -89 0
75 74 0
78 77 0
81 80 0
84 83 0
87 86 0
90 89 0
92 74 0
94 77 0
96 80 0
98 83 0
100 86 0
102 89 0
104 74 0
106 77 0
108 80 0
110 83 0
112 86 0
114 89 0
116 74 0
118 77 0
120 80 0
122 83 0
124 86 0
126 89 0
128 74 0
130 77 0
132 80 0
134 83 0
136 86 0
138 89 0
140 74 0
142 77 0
144 80 0
146 83 0
148 86 0
150 89 0
-151 -74 -74 152 0
-153 -77 -74 154 0
-155 -80 -74 156 0
-157 -83 -74 158 0
-159 -86 -74 160 0
-161 -89 -74 162 0
-163 -74 -77 164 0
-165 -77 -77 166 0
-167 -80 -77 168 0
-169 -83 -77 170 0
-171 -86 -77 172 0
-173 -89 -77 174 0
-175 -74 -80 176 0
-177 -77 -80 178 0
-179 -80 -80 180 0
-181 -83 -80 182 0
-183 -86 -80 184 0
-185 -89 -80 186 0
-187 -74 -83 188 0
-189 -77 -83 190 0
-191 -80 -83 192 0
-193 -83 -83 194 0
-195 -86 -83 196 0
-197 -89 -83 198 0
-199 -74 -86 200 0
-201 -77 -86 202 0
-203 -80 -86 204 0
-205 -83 -86 206 0
-207 -86 -86 208 0
-209 -89 -86 210 0
-211 -74 -89 212 0
-213 -77 -89 214 0
-215 -80 -89 216 0
-217 -83 -89 218 0
-219 -86 -89 220 0
-221 -89 -89 222 0
-152 151 0
-154 153 0
-156 155 0
-158 157 0
-160 159 0
-162 161 0
-164 163 0
-166 165 0
-168 167 0
-170 169 0
-172 171 0
-174 173 0
-176 175 0
-178 177 0
-180 179 0
-182 181 0
-184 183 0
-186 185 0
-188 187 0
-190 189 0
-192 191 0
-194 193 0
-196 195 0
-198 197 0
-200 199 0
-202 201 0
-204 203 0
-206 205 0
-208 207 0
-210 209 0
-212 211 0
-214 213 0
-216 215 0
-218 217 0
-220 219 0
-222 221 0
-152 74 0
-154 77 0
-156 80 0
-158 83 0
-160 86 0
-162 89 0
-164 74 0
-166 77 0
-168 80 0
-170 83 0
-172 86 0
-174 89 0
-176 74 0
-178 77 0
-180 80 0
-182 83 0
-184 86 0
-186 89 0
-188 74 0
-190 77 0
-192 80 0
-194 83 0
-196 86 0
-198 89 0
-200 74 0
-202 77 0
-204 80 0
-206 83 0
-208 86 0
-210 89 0
-212 74 0
-214 77 0
-216 80 0
-218 83 0
-220 86 0
-222 89 0
-152 74 0
-154 74 0
-156 74 0
-158 74 0
-160 74 0
-162 74 0
-164 77 0
-166 77 0
-168 77 0
-170 77 0
-172 77 0
-174 77 0
-176 80 0
-178 80 0
-180 80 0
-182 80 0
-184 80 0
-186 80 0
-188 83 0
-190 83 0
-192 83 0
-194 83 0
-196 83 0
-198 83 0
-200 86 0
-202 86 0
-204 86 0
-206 86 0
-208 86 0
-210 86 0
-212 89 0
-214 89 0
-216 89 0
-218 89 0
-220 89 0
-222 89 0
-223 152 -224 0
-225 154 -226 0
-227 156 -228 0
-229 158 -230 0
-231 160 -232 0
-233 162 -234 0
-235 164 -236 0
-237 166 -238 0
-239 168 -240 0
-241 170 -242 0
-243 172 -244 0
-245 174 -246 0
-247 176 -248 0
-249 178 -250 0
-251 180 -252 0
-253 182 -254 0
-255 184 -256 0
-257 186 -258 0
-259 188 -260 0
-261 190 -262 0
-263 192 -264 0
-265 194 -266 0
-267 196 -268 0
-269 198 -270 0
-271 200 -272 0
-273 202 -274 0
-275 204 -276 0
-277 206 -278 0
-279 208 -280 0
-281 210 -282 0
-283 212 -284 0
-285 214 -286 0
-287 216 -288 0
-289 218 -290 0
-291 220 -292 0
-293 222 -294 0
224 223 0
226 225 0
228 227 0
230 229 0
232 231 0
234 233 0
236 235 0
238 237 0
240 239 0
242 241 0
244 243 0
246 245 0
248 247 0
250 249 0
252 251 0
254 253 0
256 255 0
258 257 0
260 259 0
262 261 0
264 263 0
266 265 0
268 267 0
270 269 0
272 271 0
274 273 0
276 275 0
278 277 0
280 279 0
282 281 0
284 283 0
286 285 0
288 287 0
290 289 0
292 291 0
294 293 0
224 -152 0
226 -154 0
228 -156 0
230 -158 0
232 -160 0
234 -162 0
236 -164 0
238 -166 0
240 -168 0
242 -170 0
244 -172 0
246 -174 0
248 -176 0
250 -178 0
252 -180 0
254 -182 0
256 -184 0
258 -186 0
260 -188 0
262 -190 0
264 -192 0
266 -194 0
268 -196 0
270 -198 0
272 -200 0
274 -202 0
276 -204 0
278 -206 0
280 -208 0
282 -210 0
284 -212 0
286 -214 0
288 -216 0
290 -218 0
292 -220 0
294 -222 0
223 -151 -74 -74 -295 0
225 -153 -77 -74 -296 0
227 -155 -80 -74 -297 0
229 -157 -83 -74 -298 0
231 -159 -86 -74 -299 0
233 -161 -89 -74 -300 0
235 -163 -74 -77 -301 0
237 -165 -77 -77 -302 0
239 -167 -80 -77 -303 0
241 -169 -83 -77 -304 0
243 -171 -86 -77 -305 0
245 -173 -89 -77 -306 0
247 -175 -74 -80 -307 0
249 -177 -77 -80 -308 0
251 -179 -80 -80 -309 0
253 -181 -83 -80 -310 0
255 -183 -86 -80 -311 0
257 -185 -89 -80 -312 0
259 -187 -74 -83 -313 0
261 -189 -77 -83 -314 0
263 -191 -80 -83 -315 0
265 -193 -83 -83 -316 0
267 -195 -86 -83 -317 0
269 -197 -89 -83 -318 0
271 -199 -74 -86 -319 0
273 -201 -77 -86 -320 0
275 -203 -80 -86 -321 0
277 -205 -83 -86 -322 0
279 -207 -86 -86 -323 0
281 -209 -89 -86 -324 0
283 -211 -74 -89 -325 0
285 -213 -77 -89 -326 0
287 -215 -80 -89 -327 0
289 -217 -83 -89 -328 0
291 -219 -86 -89 -329 0
293 -221 -89 -89 -330 0
295 -223 0
296 -225 0
297 -227 0
298 -229 0
299 -231 0
300 -233 0
301 -235 0
302 -237 0
303 -239 0
304 -241 0
305 -243 0
306 -245 0
307 -247 0
308 -249 0
309 -251 0
310 -253 0
311 -255 0
312 -257 0
313 -259 0
314 -261 0
315 -263 0
316 -265 0
317 -267 0
318 -269 0
319 -271 0
320 -273 0
321 -275 0
322 -277 0
323 -279 0
324 -281 0
325 -283 0
326 -285 0
327 -287 0
328 -289 0
329 -291 0
330 -293 0
295 151 0
296 153 0
297 155 0
298 157 0
299 159 0
300 161 0
301 163 0
302 165 0
303 167 0
304 169 0
305 171 0
306 173 0
307 175 0
308 177 0
309 179 0
310 181 0
311 183 0
312 185 0
313 187 0
314 189 0
315 191 0
316 193 0
317 195 0
318 197 0
319 199 0
320 201 0
321 203 0
322 205 0
323 207 0
324 209 0
325 211 0
326 213 0
327 215 0
328 217 0
329 219 0
330 221 0
295 74 0
296 77 0
297 80 0
298 83 0
299 86 0
300 89 0
301 74 0
302 77 0
303 80 0
304 83 0
305 86 0
306 89 0
307 74 0
308 77 0
309 80 0
310 83 0
311 86 0
312 89 0
313 74 0
314 77 0
315 80 0
316 83 0
317 86 0
318 89 0
319 74 0
320 77 0
321 80 0
322 83 0
323 86 0
324 89 0
325 74 0
326 77 0
327 80 0
328 83 0
329 86 0
330 89 0
295 74 0
296 74 0
297 74 0
298 74 0
299 74 0
300 74 0
301 77 0
302 77 0
303 77 0
304 77 0
305 77 0
306 77 0
307 80 0
308 80 0
309 80 0
310 80 0
311 80 0
312 80 0
313 83 0
314 83 0
315 83 0
316 83 0
317 83 0
318 83 0
319 86 0
320 86 0
321 86 0
322 86 0
323 86 0
324 86 0
325 89 0
326 89 0
327 89 0
328 89 0
329 89 0
330 89 0
-331 -223 -332 0
-331 -235 -333 0
-331 -247 -334 0
-331 -259 -335 0
-331 -271 -336 0
-331 -283 -337 0
-338 -225 -339 0
-338 -237 -340 0
-338 -249 -341 0
-338 -261 -342 0
-338 -273 -343 0
-338 -285 -344 0
-345 -227 -346 0
-345 -239 -347 0
-345 -251 -348 0
-345 -263 -349 0
-345 -275 -350 0
-345 -287 -351 0
-352 -229 -353 0
-352 -241 -354 0
-352 -253 -355 0
-352 -265 -356 0
-352 -277 -357 0
-352 -289 -358 0
-359 -231 -360 0
-359 -243 -361 0
-359 -255 -362 0
-359 -267 -363 0
-359 -279 -364 0
-359 -291 -365 0
-366 -233 -367 0
-366 -245 -368 0
-366 -257 -369 0
-366 -269 -370 0
-366 -281 -371 0
-366 -293 -372 0
332 331 0
333 331 0
334 331 0
335 331 0
336 331 0
337 331 0
339 338 0
340 338 0
341 338 0
342 338 0
343 338 0
344 338 0
346 345 0
347 345 0
348 345 0
349 345 0
350 345 0
351 345 0
353 352 0
354 352 0
355 352 0
356 352 0
357 352 0
358 352 0
360 359 0
361 359 0
362 359 0
363 359 0
364 359 0
365 359 0
367 366 0
368 366 0
369 366 0
370 366 0
371 366 0
372 366 0
332 223 0
333 235 0
334 247 0
335 259 0
336 271 0
337 283 0
339 225 0
340 237 0
341 249 0
342 261 0
343 273 0
344 285 0
346 227 0
347 239 0
348 251 0
349 263 0
350 275 0
351 287 0
353 229 0
354 241 0
355 253 0
356 265 0
357 277 0
358 289 0
360 231 0
361 243 0
362 255 0
363 267 0
364 279 0
365 291 0
367 233 0
368 245 0
369 257 0
370 269 0
371 281 0
372 293 0
-331 -332 373 0
-338 -333 374 0
-345 -334 375 0
-352 -335 376 0
-359 -336 377 0
-366 -337 378 0
-331 -339 379 0
-338 -340 380 0
-345 -341 381 0
-352 -342 382 0
-359 -343 383 0
-366 -344 384 0
-331 -346 385 0
-338 -347 386 0
-345 -348 387 0
-352 -349 388 0
-359 -350 389 0
-366 -351 390 0
-331 -353 391 0
-338 -354 392 0
-345 -355 393 0
-352 -356 394 0
-359 -357 395 0
-366 -358 396 0
-331 -360 397 0
-338 -361 398 0
-345 -362 399 0
-352 -363 400 0
-359 -364 401 0
-366 -365 402 0
-331 -367 403 0
-338 -368 404 0
-345 -369 405 0
-352 -370 406 0
-359 -371 407 0
-366 -372 408 0
-373 331 0
-374 338 0
-375 345 0
-376 352 0
-377 359 0
-378 366 0
-379 331 0
-380 338 0
-381 345 0
-382 352 0
-383 359 0
-384 366 0
-385 331 0
-386 338 0
-387 345 0
-388 352 0
-389 359 0
-390 366 0
-391 331 0
-392 338 0
-393 345 0
-394 352 0
-395 359 0
-396 366 0
-397 331 0
-398 338 0
-399 345 0
-400 352 0
-401 359 0
-402 366 0
-403 331 0
-404 338 0
-405 345 0
-406 352 0
-407 359 0
-408 366 0
-373 332 0
-374 333 0
-375 334 0
-376 335 0
-377 336 0
-378 337 0
-379 339 0
-380 340 0
-381 341 0
-382 342 0
-383 343 0
-384 344 0
-385 346 0
-386 347 0
-387 348 0
-388 349 0
-389 350 0
-390 351 0
-391 353 0
-392 354 0
-393 355 0
-394 356 0
-395 357 0
-396 358 0
-397 360 0
-398 361 0
-399 362 0
-400 363 0
-401 364 0
-402 365 0
-403 367 0
-404 368 0
-405 369 0
-406 370 0
-407 371 0
-408 372 0
-409 373 -410 0
-411 374 -412 0
-413 375 -414 0
-415 376 -416 0
-417 377 -418 0
-419 378 -420 0
-409 379 -421 0
-411 380 -422 0
-413 381 -423 0
-415 382 -424 0
-417 383 -425 0
-419 384 -426 0
-409 385 -427 0
-411 386 -428 0
-413 387 -429 0
-415 388 -430 0
-417 389 -431 0
-419 390 -432 0
-409 391 -433 0
-411 392 -434 0
-413 393 -435 0
-415 394 -436 0
-417 395 -437 0
-419 396 -438 0
-409 397 -439 0
-411 398 -440 0
-413 399 -441 0
-415 400 -442 0
-417 401 -443 0
-419 402 -444 0
-409 403 -445 0
-411 404 -446 0
-413 405 -447 0
-415 406 -448 0
-417 407 -449 0
-419 408 -450 0
410 409 0
412 411 0
414 413 0
416 415 0
418 417 0
420 419 0
421 409 0
422 411 0
423 413 0
424 415 0
425 417 0
426 419 0
427 409 0
428 411 0
429 413 0
430 415 0
431 417 0
432 419 0
433 409 0
434 411 0
435 413 0
436 415 0
437 417 0
438 419 0
439 409 0
440 411 0
441 413 0
442 415 0
443 417 0
444 419 0
445 409 0
446 411 0
447 413 0
448 415 0
449 417 0
450 419 0
410 -373 0
412 -374 0
414 -375 0
416 -376 0
418 -377 0
420 -378 0
421 -379 0
422 -380 0
423 -381 0
424 -382 0
425 -383 0
426 -384 0
427 -385 0
428 -386 0
429 -387 0
430 -388 0
431 -389 0
432 -390 0
433 -391 0
434 -392 0
435 -393 0
436 -394 0
437 -395 0
438 -396 0
439 -397 0
440 -398 0
441 -399 0
442 -400 0
443 -401 0
444 -402 0
445 -403 0
446 -404 0
447 -405 0
448 -406 0
449 -407 0
450 -408 0
-451 -223 -452 0
-451 -235 -453 0
-451 -247 -454 0
-451 -259 -455 0
-451 -271 -456 0
-451 -283 -457 0
-458 -225 -459 0
-458 -237 -460 0
-458 -249 -461 0
-458 -261 -462 0
-458 -273 -463 0
-458 -285 -464 0
-465 -227 -466 0
-465 -239 -467 0
-465 -251 -468 0
-465 -263 -469 0
-465 -275 -470 0
-465 -287 -471 0
-472 -229 -473 0
-472 -241 -474 0
-472 -253 -475 0
-472 -265 -476 0
-472 -277 -477 0
-472 -289 -478 0
-479 -231 -480 0
-479 -243 -481 0
-479 -255 -482 0
-479 -267 -483 0
-479 -279 -484 0
-479 -291 -485 0
-486 -233 -487 0
-486 -245 -488 0
-486 -257 -489 0
-486 -269 -490 0
-486 -281 -491 0
-486 -293 -492 0
452 451 0
453 451 0
454 451 0
455 451 0
456 451 0
457 451 0
459 458 0
460 458 0
461 458 0
462 458 0
463 458 0
464 458 0
466 465 0
467 465 0
468 465 0
469 465 0
470 465 0
471 465 0
473 472 0
474 472 0
475 472 0
476 472 0
477 472 0
478 472 0
480 479 0
481 479 0
482 479 0
483 479 0
484 479 0
485 479 0
487 486 0
488 486 0
489 486 0
490 486 0
491 486 0
492 486 0
452 223 0
453 235 0
454 247 0
455 259 0
456 271 0
457 283 0
459 225 0
460 237 0
461 249 0
462 261 0
463 273 0
464 285 0
466 227 0
467 239 0
468 251 0
469 263 0
470 275 0
471 287 0
473 229 0
474 241 0
475 253 0
476 265 0
477 277 0
478 289 0
480 231 0
481 243 0
482 255 0
483 267 0
484 279 0
485 291 0
487 233 0
488 245 0
489 257 0
490 269 0
491 281 0
492 293 0
-451 -452 493 0
-458 -453 494 0
-465 -454 495 0
-472 -455 496 0
-479 -456 497 0
-486 -457 498 0
-451 -459 499 0
-458 -460 500 0
-465 -461 501 0
-472 -462 502 0
-479 -463 503 0
-486 -464 504 0
-451 -466 505 0
-458 -467 506 0
-465 -468 507 0
-472 -469 508 0
-479 -470 509 0
-486 -471 510 0
-451 -473 511 0
-458 -474 512 0
-465 -475 513 0
-472 -476 514 0
-479 -477 515 0
-486 -478 516 0
-451 -480 517 0
-458 -481 518 0
-465 -482 519 0
-472 -483 520 0
-479 -484 521 0
-486 -485 522 0
-451 -487 523 0
-458 -488 524 0
-465 -489 525 0
-472 -490 526 0
-479 -491 527 0
-486 -492 528 0
-493 451 0
-494 458 0
-495 465 0
-496 472 0
-497 479 0
-498 486 0
-499 451 0
-500 458 0
-501 465 0
-502 472 0
-503 479 0
-504 486 0
-505 451 0
-506 458 0
-507 465 0
-508 472 0
-509 479 0
-510 486 0
-511 451 0
-512 458 0
-513 465 0
-514 472 0
-515 479 0
-516 486 0
-517 451 0
-518 458 0
-519 465 0
-520 472 0
-521 479 0
-522 486 0
-523 451 0
-524 458 0
-525 465 0
-526 472 0
-527 479 0
-528 486 0
-493 452 0
-494 453 0
-495 454 0
-496 455 0
-497 456 0
-498 457 0
-499 459 0
-500 460 0
-501 461 0
-502 462 0
-503 463 0
-504 464 0
-505 466 0
-506 467 0
-507 468 0
-508 469 0
-509 470 0
-510 471 0
-511 473 0
-512 474 0
-513 475 0
-514 476 0
-515 477 0
-516 478 0
-517 480 0
-518 481 0
-519 482 0
-520 483 0
-521 484 0
-522 485 0
-523 487 0
-524 488 0
-525 489 0
-526 490 0
-527 491 0
-528 492 0
-529 493 -530 0
-531 494 -532 0
-533 495 -534 0
-535 496 -536 0
-537 497 -538 0
-539 498 -540 0
-529 499 -541 0
-531 500 -542 0
-533 501 -543 0
-535 502 -544 0
-537 503 -545 0
-539 504 -546 0
-529 505 -547 0
-531 506 -548 0
-533 507 -549 0
-535 508 -550 0
-537 509 -551 0
-539 510 -552 0
-529 511 -553 0
-531 512 -554 0
-533 513 -555 0
-535 514 -556 0
-537 515 -557 0
-539 516 -558 0
-529 517 -559 0
-531 518 -560 0
-533 519 -561 0
-535 520 -562 0
-537 521 -563 0
-539 522 -564 0
-529 523 -565 0
-531 524 -566 0
-533 525 -567 0
-535 526 -568 0
-537 527 -569 0
-539 528 -570 0
530 529 0
532 531 0
534 533 0
536 535 0
538 537 0
540 539 0
541 529 0
542 531 0
543 533 0
544 535 0
545 537 0
546 539 0
547 529 0
548 531 0
549 533 0
550 535 0
551 537 0
552 539 0
553 529 0
554 531 0
555 533 0
556 535 0
557 537 0
558 539 0
559 529 0
560 531 0
561 533 0
562 535 0
563 537 0
564 539 0
565 529 0
566 531 0
567 533 0
568 535 0
569 537 0
570 539 0
530 -493 0
532 -494 0
534 -495 0
536 -496 0
538 -497 0
540 -498 0
541 -499 0
542 -500 0
543 -501 0
544 -502 0
545 -503 0
546 -504 0
547 -505 0
548 -506 0
549 -507 0
550 -508 0
551 -509 0
552 -510 0
553 -511 0
554 -512 0
555 -513 0
556 -514 0
557 -515 0
558 -516 0
559 -517 0
560 -518 0
561 -519 0
562 -520 0
563 -521 0
564 -522 0
565 -523 0
566 -524 0
567 -525 0
568 -526 0
569 -527 0
570 -528 0
-75 -224 -295 -410 -530 571 0
-78 -226 -296 -412 -532 572 0
-81 -228 -297 -414 -534 573 0
-84 -230 -298 -416 -536 574 0
-87 -232 -299 -418 -538 575 0
-90 -234 -300 -420 -540 576 0
-92 -236 -301 -421 -541 577 0
-94 -238 -302 -422 -542 578 0
-96 -240 -303 -423 -543 579 0
-98 -242 -304 -424 -544 580 0
-100 -244 -305 -425 -545 581 0
-102 -246 -306 -426 -546 582 0
-104 -248 -307 -427 -547 583 0
-106 -250 -308 -428 -548 584 0
-108 -252 -309 -429 -549 585 0
-110 -254 -310 -430 -550 586 0
-112 -256 -311 -431 -551 587 0
-114 -258 -312 -432 -552 588 0
-116 -260 -313 -433 -553 589 0
-118 -262 -314 -434 -554 590 0
-120 -264 -315 -435 -555 591 0
-122 -266 -316 -436 -556 592 0
-124 -268 -317 -437 -557 593 0
-126 -270 -318 -438 -558 594 0
-128 -272 -319 -439 -559 595 0
-130 -274 -320 -440 -560 596 0
-132 -276 -321 -441 -561 597 0
-134 -278 -322 -442 -562 598 0
-136 -280 -323 -443 -563 599 0
-138 -282 -324 -444 -564 600 0
-140 -284 -325 -445 -565 601 0
-142 -286 -326 -446 -566 602 0
-144 -288 -327 -447 -567 603 0
-146 -290 -328 -448 -568 604 0
-148 -292 -329 -449 -569 605 0
-150 -294 -330 -450 -570 606 0
-571 75 0
-572 78 0
-573 81 0
-574 84 0
-575 87 0
-576 90 0
-577 92 0
-578 94 0
-579 96 0
-580 98 0
-581 100 0
-582 102 0
-583 104 0
-584 106 0
-585 108 0
-586 110 0
-587 112 0
-588 114 0
-589 116 0
-590 118 0
-591 120 0
-592 122 0
-593 124 0
-594 126 0
-595 128 0
-596 130 0
-597 132 0
-598 134 0
-599 136 0
-600 138 0
-601 140 0
-602 142 0
-603 144 0
-604 146 0
-605 148 0
-606 150 0
-571 224 0
-572 226 0
-573 228 0
-574 230 0
-575 232 0
-576 234 0
-577 236 0
-578 238 0
-579 240 0
-580 242 0
-581 244 0
-582 246 0
-583 248 0
-584 250 0
-585 252 0
-586 254 0
-587 256 0
-588 258 0
-589 260 0
-590 262 0
-591 264 0
-592 266 0
-593 268 0
-594 270 0
-595 272 0
-596 274 0
-597 276 0
-598 278 0
-599 280 0
-600 282 0
-601 284 0
-602 286 0
-603 288 0
-604 290 0
-605 292 0
-606 294 0
-571 295 0
-572 296 0
-573 297 0
-574 298 0
-575 299 0
-576 300 0
-577 301 0
-578 302 0
-579 303 0
-580 304 0
-581 305 0
-582 306 0
-583 307 0
-584 308 0
-585 309 0
-586 310 0
-587 311 0
-588 312 0
-589 313 0
-590 314 0
-591 315 0
-592 316 0
-593 317 0
-594 318 0
-595 319 0
-596 320 0
-597 321 0
-598 322 0
-599 323 0
-600 324 0
-601 325 0
-602 326 0
-603 327 0
-604 328 0
-605 329 0
-606 330 0
-571 410 0
-572 412 0
-573 414 0
-574 416 0
-575 418 0
-576 420 0
-577 421 0
-578 422 0
-579 423 0
-580 424 0
-581 425 0
-582 426 0
-583 427 0
-584 428 0
-585 429 0
-586 430 0
-587 431 0
-588 432 0
-589 433 0
-590 434 0
-591 435 0
-592 436 0
-593 437 0
-594 438 0
-595 439 0
-596 440 0
-597 441 0
-598 442 0
-599 443 0
-600 444 0
-601 445 0
-602 446 0
-603 447 0
-604 448 0
-605 449 0
-606 450 0
-571 530 0
-572 532 0
-573 534 0
-574 536 0
-575 538 0
-576 540 0
-577 541 0
-578 542 0
-579 543 0
-580 544 0
-581 545 0
-582 546 0
-583 547 0
-584 548 0
-585 549 0
-586 550 0
-587 551 0
-588 552 0
-589 553 0
-590 554 0
-591 555 0
-592 556 0
-593 557 0
-594 558 0
-595 559 0
-596 560 0
-597 561 0
-598 562 0
-599 563 0
-600 564 0
-601 565 0
-602 566 0
-603 567 0
-604 568 0
-605 569 0
-606 570 0
571 0
572 0
573 0
574 0
575 0
576 0
577 0
578 0
579 0
580 0
581 0
582 0
583 0
584 0
585 0
586 0
587 0
588 0
589 0
590 0
591 0
592 0
593 0
594 0
595 0
596 0
597 0
598 0
599 0
600 0
601 0
602 0
603 0
604 0
605 0
606 0
-451 -223 607 0
-451 -235 608 0
-451 -247 609 0
-451 -259 610 0
-451 -271 611 0
-451 -283 612 0
-458 -225 613 0
-458 -237 614 0
-458 -249 615 0
-458 -261 616 0
-458 -273 617 0
-458 -285 618 0
-465 -227 619 0
-465 -239 620 0
-465 -251 621 0
-465 -263 622 0
-465 -275 623 0
-465 -287 624 0
-472 -229 625 0
-472 -241 626 0
-472 -253 627 0
-472 -265 628 0
-472 -277 629 0
-472 -289 630 0
-479 -231 631 0
-479 -243 632 0
-479 -255 633 0
-479 -267 634 0
-479 -279 635 0
-479 -291 636 0
-486 -233 637 0
-486 -245 638 0
-486 -257 639 0
-486 -269 640 0
-486 -281 641 0
-486 -293 642 0
-607 451 0
-608 451 0
-609 451 0
-610 451 0
-611 451 0
-612 451 0
-613 458 0
-614 458 0
-615 458 0
-616 458 0
-617 458 0
-618 458 0
-619 465 0
-620 465 0
-621 465 0
-622 465 0
-623 465 0
-624 465 0
-625 472 0
-626 472 0
-627 472 0
-628 472 0
-629 472 0
-630 472 0
-631 479 0
-632 479 0
-633 479 0
-634 479 0
-635 479 0
-636 479 0
-637 486 0
-638 486 0
-639 486 0
-640 486 0
-641 486 0
-642 486 0
-607 223 0
-608 235 0
-609 247 0
-610 259 0
-611 271 0
-612 283 0
-613 225 0
-614 237 0
-615 249 0
-616 261 0
-617 273 0
-618 285 0
-619 227 0
-620 239 0
-621 251 0
-622 263 0
-623 275 0
-624 287 0
-625 229 0
-626 241 0
-627 253 0
-628 265 0
-629 277 0
-630 289 0
-631 231 0
-632 243 0
-633 255 0
-634 267 0
-635 279 0
-636 291 0
-637 233 0
-638 245 0
-639 257 0
-640 269 0
-641 281 0
-642 293 0
529 -451 607 -1 0
531 -458 608 -7 0
533 -465 609 -13 0
535 -472 610 -19 0
537 -479 611 -25 0
539 -486 612 -31 0
529 -451 613 -2 0
531 -458 614 -8 0
533 -465 615 -14 0
535 -472 616 -20 0
537 -479 617 -26 0
539 -486 618 -32 0
529 -451 619 -3 0
531 -458 620 -9 0
533 -465 621 -15 0
535 -472 622 -21 0
537 -479 623 -27 0
539 -486 624 -33 0
529 -451 625 -4 0
531 -458 626 -10 0
533 -465 627 -16 0
535 -472 628 -22 0
537 -479 629 -28 0
539 -486 630 -34 0
529 -451 631 -5 0
531 -458 632 -11 0
533 -465 633 -17 0
535 -472 634 -23 0
537 -479 635 -29 0
539 -486 636 -35 0
529 -451 637 -6 0
531 -458 638 -12 0
533 -465 639 -18 0
535 -472 640 -24 0
537 -479 641 -30 0
539 -486 642 -36 0
1 -529 0
7 -531 0
13 -533 0
19 -535 0
25 -537 0
31 -539 0
2 -529 0
8 -531 0
14 -533 0
20 -535 0
26 -537 0
32 -539 0
3 -529 0
9 -531 0
15 -533 0
21 -535 0
27 -537 0
33 -539 0
4 -529 0
10 -531 0
16 -533 0
22 -535 0
28 -537 0
34 -539 0
5 -529 0
11 -531 0
17 -533 0
23 -535 0
29 -537 0
35 -539 0
6 -529 0
12 -531 0
18 -533 0
24 -535 0
30 -537 0
36 -539 0
1 451 0
7 458 0
13 465 0
19 472 0
25 479 0
31 486 0
2 451 0
8 458 0
14 465 0
20 472 0
26 479 0
32 486 0
3 451 0
9 458 0
15 465 0
21 472 0
27 479 0
33 486 0
4 451 0
10 458 0
16 465 0
22 472 0
28 479 0
34 486 0
5 451 0
11 458 0
17 465 0
23 472 0
29 479 0
35 486 0
6 451 0
12 458 0
18 465 0
24 472 0
30 479 0
36 486 0
1 -607 0
7 -608 0
13 -609 0
19 -610 0
25 -611 0
31 -612 0
2 -613 0
8 -614 0
14 -615 0
20 -616 0
26 -617 0
32 -618 0
3 -619 0
9 -620 0
15 -621 0
21 -622 0
27 -623 0
33 -624 0
4 -625 0
10 -626 0
16 -627 0
22 -628 0
28 -629 0
34 -630 0
5 -631 0
11 -632 0
17 -633 0
23 -634 0
29 -635 0
35 -636 0
6 -637 0
12 -638 0
18 -639 0
24 -640 0
30 -641 0
36 -642 0
-331 -223 643 0
-331 -235 644 0
-331 -247 645 0
-331 -259 646 0
-331 -271 647 0
-331 -283 648 0
-338 -225 649 0
-338 -237 650 0
-338 -249 651 0
-338 -261 652 0
-338 -273 653 0
-338 -285 654 0
-345 -227 655 0
-345 -239 656 0
-345 -251 657 0
-345 -263 658 0
-345 -275 659 0
-345 -287 660 0
-352 -229 661 0
-352 -241 662 0
-352 -253 663 0
-352 -265 664 0
-352 -277 665 0
-352 -289 666 0
-359 -231 667 0
-359 -243 668 0
-359 -255 669 0
-359 -267 670 0
-359 -279 671 0
-359 -291 672 0
-366 -233 673 0
-366 -245 674 0
-366 -257 675 0
-366 -269 676 0
-366 -281 677 0
-366 -293 678 0
-643 331 0
-644 331 0
-645 331 0
-646 331 0
-647 331 0
-648 331 0
-649 338 0
-650 338 0
-651 338 0
-652 338 0
-653 338 0
-654 338 0
-655 345 0
-656 345 0
-657 345 0
-658 345 0
-659 345 0
-660 345 0
-661 352 0
-662 352 0
-663 352 0
-664 352 0
-665 352 0
-666 352 0
-667 359 0
-668 359 0
-669 359 0
-670 359 0
-671 359 0
-672 359 0
-673 366 0
-674 366 0
-675 366 0
-676 366 0
-677 366 0
-678 366 0
-643 223 0
-644 235 0
-645 247 0
-646 259 0
-647 271 0
-648 283 0
-649 225 0
-650 237 0
-651 249 0
-652 261 0
-653 273 0
-654 285 0
-655 227 0
-656 239 0
-657 251 0
-658 263 0
-659 275 0
-660 287 0
-661 229 0
-662 241 0
-663 253 0
-664 265 0
-665 277 0
-666 289 0
-667 231 0
-668 243 0
-669 255 0
-670 267 0
-671 279 0
-672 291 0
-673 233 0
-674 245 0
-675 257 0
-676 269 0
-677 281 0
-678 293 0
409 -331 643 -37 0
411 -338 644 -43 0
413 -345 645 -49 0
415 -352 646 -55 0
417 -359 647 -61 0
419 -366 648 -67 0
409 -331 649 -38 0
411 -338 650 -44 0
413 -345 651 -50 0
415 -352 652 -56 0
417 -359 653 -62 0
419 -366 654 -68 0
409 -331 655 -39 0
411 -338 656 -45 0
413 -345 657 -51 0
415 -352 658 -57 0
417 -359 659 -63 0
419 -366 660 -69 0
409 -331 661 -40 0
411 -338 662 -46 0
413 -345 663 -52 0
415 -352 664 -58 0
417 -359 665 -64 0
419 -366 666 -70 0
409 -331 667 -41 0
411 -338 668 -47 0
413 -345 669 -53 0
415 -352 670 -59 0
417 -359 671 -65 0
419 -366 672 -71 0
409 -331 673 -42 0
411 -338 674 -48 0
413 -345 675 -54 0
415 -352 676 -60 0
417 -359 677 -66 0
419 -366 678 -72 0
37 -409 0
43 -411 0
49 -413 0
55 -415 0
61 -417 0
67 -419 0
38 -409 0
44 -411 0
50 -413 0
56 -415 0
62 -417 0
68 -419 0
39 -409 0
45 -411 0
51 -413 0
57 -415 0
63 -417 0
69 -419 0
40 -409 0
46 -411 0
52 -413 0
58 -415 0
64 -417 0
70 -419 0
41 -409 0
47 -411 0
53 -413 0
59 -415 0
65 -417 0
71 -419 0
42 -409 0
48 -411 0
54 -413 0
60 -415 0
66 -417 0
72 -419 0
37 331 0
43 338 0
49 345 0
55 352 0
61 359 0
67 366 0
38 331 0
44 338 0
50 345 0
56 352 0
62 359 0
68 366 0
39 331 0
45 338 0
51 345 0
57 352 0
63 359 0
69 366 0
40 331 0
46 338 0
52 345 0
58 352 0
64 359 0
70 366 0
41 331 0
47 338 0
53 345 0
59 352 0
65 359 0
71 366 0
42 331 0
48 338 0
54 345 0
60 352 0
66 359 0
72 366 0
37 -643 0
43 -644 0
49 -645 0
55 -646 0
61 -647 0
67 -648 0
38 -649 0
44 -650 0
50 -651 0
56 -652 0
62 -653 0
68 -654 0
39 -655 0
45 -656 0
51 -657 0
57 -658 0
63 -659 0
69 -660 0
40 -661 0
46 -662 0
52 -663 0
58 -664 0
64 -665 0
70 -666 0
41 -667 0
47 -668 0
53 -669 0
59 -670 0
65 -671 0
71 -672 0
42 -673 0
48 -674 0
54 -675 0
60 -676 0
66 -677 0
72 -678 0
80 0
-458 0
89 0
-359 0
-472 0
479 0
352 0
338 0
77 0
486 0
345 0
86 0
-451 0
83 0
-366 0
331 0
-465 0
74 0
-529 679 0
-679 680 0
-531 -679 0
-531 680 0
-680 681 0
-533 -680 0
-533 681 0
-681 682 0
-535 -681 0
-535 682 0
-682 683 0
-537 -682 0
-537 683 0
-539 -683 0
-409 684 0
-684 685 0
-411 -684 0
-411 685 0
-685 686 0
-413 -685 0
-413 686 0
-686 687 0
-415 -686 0
-415 687 0
-687 688 0
-417 -687 0
-417 688 0
-419 -688 0
73 0
91 76 0
-91 -76 0
-91 -105 103 0
-91 -117 115 0
-91 -129 127 0
-91 -141 139 0
103 79 0
-103 -79 0
-103 -95 91 0
-103 -119 115 0
-103 -131 127 0
-103 -143 139 0
115 82 0
-115 -82 0
-115 -97 91 0
-115 -109 103 0
-115 -133 127 0
-115 -145 139 0
127 85 0
-127 -85 0
-127 -99 91 0
-127 -111 103 0
-127 -123 115 0
-127 -147 139 0
139 88 0
-139 -88 0
-139 -101 91 0
-139 -113 103 0
-139 -125 115 0
-139 -137 127 0
93 0
76 91 0
-76 -91 0
-76 -103 105 0
-76 -115 117 0
-76 -127 129 0
-76 -139 141 0
105 95 0
-105 -95 0
-105 -79 76 0
-105 -119 117 0
-105 -131 129 0
-105 -143 141 0
117 97 0
-117 -97 0
-117 -82 76 0
-117 -109 105 0
-117 -133 129 0
-117 -145 141 0
129 99 0
-129 -99 0
-129 -85 76 0
-129 -111 105 0
-129 -123 117 0
-129 -147 141 0
141 101 0
-141 -101 0
-141 -88 76 0
-141 -113 105 0
-141 -125 117 0
-141 -137 129 0
107 0
79 103 0
-79 -103 0
-79 -91 95 0
-79 -115 119 0
-79 -127 131 0
-79 -139 143 0
95 105 0
-95 -105 0
-95 -76 79 0
-95 -117 119 0
-95 -129 131 0
-95 -141 143 0
119 109 0
-119 -109 0
-119 -82 79 0
-119 -97 95 0
-119 -133 131 0
-119 -145 143 0
131 111 0
-131 -111 0
-131 -85 79 0
-131 -99 95 0
-131 -123 119 0
-131 -147 143 0
143 113 0
-143 -113 0
-143 -88 79 0
-143 -101 95 0
-143 -125 119 0
-143 -137 131 0
121 0
82 115 0
-82 -115 0
-82 -91 97 0
-82 -103 109 0
-82 -127 133 0
-82 -139 145 0
97 117 0
-97 -117 0
-97 -76 82 0
-97 -105 109 0
-97 -129 133 0
-97 -141 145 0
109 119 0
-109 -119 0
-109 -79 82 0
-109 -95 97 0
-109 -131 133 0
-109 -143 145 0
133 123 0
-133 -123 0
-133 -85 82 0
-133 -99 97 0
-133 -111 109 0
-133 -147 145 0
145 125 0
-145 -125 0
-145 -88 82 0
-145 -101 97 0
-145 -113 109 0
-145 -137 133 0
135 0
85 127 0
-85 -127 0
-85 -91 99 0
-85 -103 111 0
-85 -115 123 0
-85 -139 147 0
99 129 0
-99 -129 0
-99 -76 85 0
-99 -105 111 0
-99 -117 123 0
-99 -141 147 0
111 131 0
-111 -131 0
-111 -79 85 0
-111 -95 99 0
-111 -119 123 0
-111 -143 147 0
123 133 0
-123 -133 0
-123 -82 85 0
-123 -97 99 0
-123 -109 111 0
-123 -145 147 0
147 137 0
-147 -137 0
-147 -88 85 0
-147 -101 99 0
-147 -113 111 0
-147 -125 123 0
149 0
88 139 0
-88 -139 0
-88 -91 101 0
-88 -103 113 0
-88 -115 125 0
-88 -127 137 0
101 141 0
-101 -141 0
-101 -76 88 0
-101 -105 113 0
-101 -117 125 0
-101 -129 137 0
113 143 0
-113 -143 0
-113 -79 88 0
-113 -95 101 0
-113 -119 125 0
-113 -131 137 0
125 145 0
-125 -145 0
-125 -82 88 0
-125 -97 101 0
-125 -109 113 0
-125 -133 137 0
137 147 0
-137 -147 0
-137 -85 88 0
-137 -99 101 0
-137 -111 113 0
-137 -123 125 0
-151 0
-163 91 0
-689 103 0
-689 95 0
-103 -95 689 0
-690 115 0
-690 97 0
-115 -97 690 0
-691 127 0
-691 99 0
-127 -99 691 0
-692 139 0
-692 101 0
-139 -101 692 0
-163 -689 0
-163 -690 0
-163 -691 0
-163 -692 0
-91 163 689 690 691 692 0
-175 103 0
-693 91 0
-693 105 0
-91 -105 693 0
-694 115 0
-694 109 0
-115 -109 694 0
-695 127 0
-695 111 0
-127 -111 695 0
-696 139 0
-696 113 0
-139 -113 696 0
-175 -693 0
-175 -694 0
-175 -695 0
-175 -696 0
-103 175 693 694 695 696 0
-187 115 0
-697 91 0
-697 117 0
-91 -117 697 0
-698 103 0
-698 119 0
-103 -119 698 0
-699 127 0
-699 123 0
-127 -123 699 0
-700 139 0
-700 125 0
-139 -125 700 0
-187 -697 0
-187 -698 0
-187 -699 0
-187 -700 0
-115 187 697 698 699 700 0
-199 127 0
-701 91 0
-701 129 0
-91 -129 701 0
-702 103 0
-702 131 0
-103 -131 702 0
-703 115 0
-703 133 0
-115 -133 703 0
-704 139 0
-704 137 0
-139 -137 704 0
-199 -701 0
-199 -702 0
-199 -703 0
-199 -704 0
-127 199 701 702 703 704 0
-211 139 0
-705 91 0
-705 141 0
-91 -141 705 0
-706 103 0
-706 143 0
-103 -143 706 0
-707 115 0
-707 145 0
-115 -145 707 0
-708 127 0
-708 147 0
-127 -147 708 0
-211 -705 0
-211 -706 0
-211 -707 0
-211 -708 0
-139 211 705 706 707 708 0
-153 76 0
-709 105 0
-709 79 0
-105 -79 709 0
-710 117 0
-710 82 0
-117 -82 710 0
-711 129 0
-711 85 0
-129 -85 711 0
-712 141 0
-712 88 0
-141 -88 712 0
-153 -709 0
-153 -710 0
-153 -711 0
-153 -712 0
-76 153 709 710 711 712 0
-165 0
-177 105 0
-713 76 0
-713 103 0
-76 -103 713 0
-714 117 0
-714 109 0
-117 -109 714 0
-715 129 0
-715 111 0
-129 -111 715 0
-716 141 0
-716 113 0
-141 -113 716 0
-177 -713 0
-177 -714 0
-177 -715 0
-177 -716 0
-105 177 713 714 715 716 0
-189 117 0
-717 76 0
-717 115 0
-76 -115 717 0
-718 105 0
-718 119 0
-105 -119 718 0
-719 129 0
-719 123 0
-129 -123 719 0
-720 141 0
-720 125 0
-141 -125 720 0
-189 -717 0
-189 -718 0
-189 -719 0
-189 -720 0
-117 189 717 718 719 720 0
-201 129 0
-721 76 0
-721 127 0
-76 -127 721 0
-722 105 0
-722 131 0
-105 -131 722 0
-723 117 0
-723 133 0
-117 -133 723 0
-724 141 0
-724 137 0
-141 -137 724 0
-201 -721 0
-201 -722 0
-201 -723 0
-201 -724 0
-129 201 721 722 723 724 0
-213 141 0
-725 76 0
-725 139 0
-76 -139 725 0
-726 105 0
-726 143 0
-105 -143 726 0
-727 117 0
-727 145 0
-117 -145 727 0
-728 129 0
-728 147 0
-129 -147 728 0
-213 -725 0
-213 -726 0
-213 -727 0
-213 -728 0
-141 213 725 726 727 728 0
-155 79 0
-729 95 0
-729 76 0
-95 -76 729 0
-730 119 0
-730 82 0
-119 -82 730 0
-731 131 0
-731 85 0
-131 -85 731 0
-732 143 0
-732 88 0
-143 -88 732 0
-155 -729 0
-155 -730 0
-155 -731 0
-155 -732 0
-79 155 729 730 731 732 0
-167 95 0
-733 79 0
-733 91 0
-79 -91 733 0
-734 119 0
-734 97 0
-119 -97 734 0
-735 131 0
-735 99 0
-131 -99 735 0
-736 143 0
-736 101 0
-143 -101 736 0
-167 -733 0
-167 -734 0
-167 -735 0
-167 -736 0
-95 167 733 734 735 736 0
-179 0
-191 119 0
-737 79 0
-737 115 0
-79 -115 737 0
-738 95 0
-738 117 0
-95 -117 738 0
-739 131 0
-739 123 0
-131 -123 739 0
-740 143 0
-740 125 0
-143 -125 740 0
-191 -737 0
-191 -738 0
-191 -739 0
-191 -740 0
-119 191 737 738 739 740 0
-203 131 0
-741 79 0
-741 127 0
-79 -127 741 0
-742 95 0
-742 129 0
-95 -129 742 0
-743 119 0
-743 133 0
-119 -133 743 0
-744 143 0
-744 137 0
-143 -137 744 0
-203 -741 0
-203 -742 0
-203 -743 0
-203 -744 0
-131 203 741 742 743 744 0
-215 143 0
-745 79 0
-745 139 0
-79 -139 745 0
-746 95 0
-746 141 0
-95 -141 746 0
-747 119 0
-747 145 0
-119 -145 747 0
-748 131 0
-748 147 0
-131 -147 748 0
-215 -745 0
-215 -746 0
-215 -747 0
-215 -748 0
-143 215 745 746 747 748 0
-157 82 0
-749 97 0
-749 76 0
-97 -76 749 0
-750 109 0
-750 79 0
-109 -79 750 0
-751 133 0
-751 85 0
-133 -85 751 0
-752 145 0
-752 88 0
-145 -88 752 0
-157 -749 0
-157 -750 0
-157 -751 0
-157 -752 0
-82 157 749 750 751 752 0
-169 97 0
-753 82 0
-753 91 0
-82 -91 753 0
-754 109 0
-754 95 0
-109 -95 754 0
-755 133 0
-755 99 0
-133 -99 755 0
-756 145 0
-756 101 0
-145 -101 756 0
-169 -753 0
-169 -754 0
-169 -755 0
-169 -756 0
-97 169 753 754 755 756 0
-181 109 0
-757 82 0
-757 103 0
-82 -103 757 0
-758 97 0
-758 105 0
-97 -105 758 0
-759 133 0
-759 111 0
-133 -111 759 0
-760 145 0
-760 113 0
-145 -113 760 0
-181 -757 0
-181 -758 0
-181 -759 0
-181 -760 0
-109 181 757 758 759 760 0
-193 0
-205 133 0
-761 82 0
-761 127 0
-82 -127 761 0
-762 97 0
-762 129 0
-97 -129 762 0
-763 109 0
-763 131 0
-109 -131 763 0
-764 145 0
-764 137 0
-145 -137 764 0
-205 -761 0
-205 -762 0
-205 -763 0
-205 -764 0
-133 205 761 762 763 764 0
-217 145 0
-765 82 0
-765 139 0
-82 -139 765 0
-766 97 0
-766 141 0
-97 -141 766 0
-767 109 0
-767 143 0
-109 -143 767 0
-768 133 0
-768 147 0
-133 -147 768 0
-217 -765 0
-217 -766 0
-217 -767 0
-217 -768 0
-145 217 765 766 767 768 0
-159 85 0
-769 99 0
-769 76 0
-99 -76 769 0
-770 111 0
-770 79 0
-111 -79 770 0
-771 123 0
-771 82 0
-123 -82 771 0
-772 147 0
-772 88 0
-147 -88 772 0
-159 -769 0
-159 -770 0
-159 -771 0
-159 -772 0
-85 159 769 770 771 772 0
-171 99 0
-773 85 0
-773 91 0
-85 -91 773 0
-774 111 0
-774 95 0
-111 -95 774 0
-775 123 0
-775 97 0
-123 -97 775 0
-776 147 0
-776 101 0
-147 -101 776 0
-171 -773 0
-171 -774 0
-171 -775 0
-171 -776 0
-99 171 773 774 775 776 0
-183 111 0
-777 85 0
-777 103 0
-85 -103 777 0
-778 99 0
-778 105 0
-99 -105 778 0
-779 123 0
-779 109 0
-123 -109 779 0
-780 147 0
-780 113 0
-147 -113 780 0
-183 -777 0
-183 -778 0
-183 -779 0
-183 -780 0
-111 183 777 778 779 780 0
-195 123 0
-781 85 0
-781 115 0
-85 -115 781 0
-782 99 0
-782 117 0
-99 -117 782 0
-783 111 0
-783 119 0
-111 -119 783 0
-784 147 0
-784 125 0
-147 -125 784 0
-195 -781 0
-195 -782 0
-195 -783 0
-195 -784 0
-123 195 781 782 783 784 0
-207 0
-219 147 0
-785 85 0
-785 139 0
-85 -139 785 0
-786 99 0
-786 141 0
-99 -141 786 0
-787 111 0
-787 143 0
-111 -143 787 0
-788 123 0
-788 145 0
-123 -145 788 0
-219 -785 0
-219 -786 0
-219 -787 0
-219 -788 0
-147 219 785 786 787 788 0
-161 88 0
-789 101 0
-789 76 0
-101 -76 789 0
-790 113 0
-790 79 0
-113 -79 790 0
-791 125 0
-791 82 0
-125 -82 791 0
-792 137 0
-792 85 0
-137 -85 792 0
-161 -789 0
-161 -790 0
-161 -791 0
-161 -792 0
-88 161 789 790 791 792 0
-173 101 0
-793 88 0
-793 91 0
-88 -91 793 0
-794 113 0
-794 95 0
-113 -95 794 0
-795 125 0
-795 97 0
-125 -97 795 0
-796 137 0
-796 99 0
-137 -99 796 0
-173 -793 0
-173 -794 0
-173 -795 0
-173 -796 0
-101 173 793 794 795 796 0
-185 113 0
-797 88 0
-797 103 0
-88 -103 797 0
-798 101 0
-798 105 0
-101 -105 798 0
-799 125 0
-799 109 0
-125 -109 799 0
-800 137 0
-800 111 0
-137 -111 800 0
-185 -797 0
-185 -798 0
-185 -799 0
-185 -800 0
-113 185 797 798 799 800 0
-197 125 0
-801 88 0
-801 115 0
-88 -115 801 0
-802 101 0
-802 117 0
-101 -117 802 0
-803 113 0
-803 119 0
-113 -119 803 0
-804 137 0
-804 123 0
-137 -123 804 0
-197 -801 0
-197 -802 0
-197 -803 0
-197 -804 0
-125 197 801 802 803 804 0
-209 137 0
-805 88 0
-805 127 0
-88 -127 805 0
-806 101 0
-806 129 0
-101 -129 806 0
-807 113 0
-807 131 0
-113 -131 807 0
-808 125 0
-808 133 0
-125 -133 808 0
-209 -805 0
-209 -806 0
-209 -807 0
-209 -808 0
-137 209 805 806 807 808 0
-221 0
