p cnf 1139 3996
c ind 1 2 3 4 5 6 7 8 9 10 11 12 13 14 15 16 17 18 19 20 21 22 23 24 25 26 27 28 29 30 31 32 33 34 35 36 37 38 39 40 41 42 43 44 45 46 47 48 49 50 0
c ind 51 52 53 54 55 56 57 58 59 60 61 62 63 64 65 66 67 68 69 70 71 72 73 74 75 76 77 78 79 80 81 82 83 84 85 86 87 88 89 90 91 92 93 94 95 96 97 98 99 100 0
c ind 101 102 103 104 105 106 107 108 109 110 111 112 113 114 115 116 117 118 119 120 121 122 123 124 125 126 127 128 129 130 131 132 133 134 135 136 137 138 139 140 141 142 143 144 145 146 147 148 149 150 0
c ind 151 152 153 154 155 156 157 158 159 160 161 162 163 164 165 166 167 168 169 170 171 172 173 174 175 176 177 178 179 180 181 182 183 184 185 186 187 188 189 190 191 192 193 194 195 196 197 198 199 200 0
c ind 201 202 203 204 205 206 207 208 209 210 211 212 213 214 215 216 217 218 219 220 221 222 223 224 225 226 227 228 229 230 231 232 233 234 235 236 237 238 239 240 241 242 243 244 245 246 247 248 249 250 0
c ind 251 252 253 254 255 256 257 258 259 260 261 262 263 264 265 266 267 268 269 270 271 272 273 274 275 276 277 278 279 280 281 282 283 284 285 286 287 288 289 290 291 292 293 294 295 296 297 298 299 300 0
c ind 301 302 303 304 305 306 307 308 309 310 311 312 313 314 315 316 317 318 319 320 321 322 323 324 325 326 327 328 329 330 331 332 333 334 335 336 337 338 339 340 341 342 343 344 345 346 347 348 349 350 0
c ind 351 352 353 354 355 356 357 358 359 360 361 362 363 364 365 366 367 368 369 370 371 372 373 374 375 376 377 378 379 380 381 382 383 384 385 386 387 388 389 390 391 392 393 394 395 396 397 398 399 400 0
c ind 401 402 403 404 405 406 407 408 409 410 411 412 413 414 415 416 417 418 419 420 421 422 423 424 425 426 427 428 429 430 431 432 433 434 435 436 437 438 439 440 441 442 443 444 445 446 447 448 449 450 0
c ind 451 452 453 454 455 456 457 458 459 460 461 462 463 464 465 466 467 468 469 470 471 472 473 474 475 476 477 478 479 480 481 482 483 484 485 486 487 488 489 490 491 492 493 494 495 496 497 498 499 500 0
c ind 501 502 503 504 505 506 507 508 509 510 511 512 513 514 515 516 517 518 519 520 521 522 523 524 525 526 527 528 529 530 531 532 533 534 535 536 537 538 539 540 541 542 543 544 545 546 547 548 549 550 0
c ind 551 552 553 554 555 556 557 558 559 560 561 562 563 564 565 566 567 568 569 570 571 572 573 574 575 576 577 578 579 580 581 582 583 584 585 586 587 588 589 590 591 592 593 594 595 596 597 598 599 600 0
c ind 601 602 603 604 605 606 607 608 609 610 611 612 613 614 615 616 617 618 619 620 621 622 623 624 625 626 627 628 629 630 631 632 633 634 635 636 637 638 639 640 641 642 643 644 645 646 647 648 649 650 0
c ind 651 652 653 654 655 656 657 658 659 660 661 662 663 664 665 666 667 668 669 670 671 672 673 674 675 676 677 678 679 680 681 682 683 684 685 686 687 688 689 690 691 692 693 694 695 696 697 698 699 700 0
c ind 701 702 703 704 705 706 707 708 709 710 711 712 713 714 715 716 717 718 719 720 721 722 723 724 725 726 727 728 729 730 731 732 733 734 735 736 737 738 739 740 741 742 743 744 745 746 747 748 749 750 0
c ind 751 752 753 754 755 756 757 758 759 760 761 762 763 764 765 766 767 768 769 770 771 772 773 774 775 776 777 778 779 780 781 782 783 784 785 786 787 788 789 790 791 792 793 794 795 796 797 798 799 800 0
c ind 801 802 803 804 805 806 807 808 809 810 811 812 813 814 815 816 817 818 819 820 821 822 823 824 825 826 827 828 829 830 831 832 833 834 835 836 837 838 839 840 841 842 843 844 845 846 847 848 849 850 0
c ind 851 852 853 854 855 856 857 858 859 860 861 862 863 864 865 866 867 868 869 870 871 872 873 874 875 876 877 878 879 880 881 882 883 884 885 886 887 888 889 890 891 892 893 894 895 896 897 898 899 900 0
c ind 901 902 903 904 905 906 907 908 909 910 911 912 913 914 915 916 917 930 931 932 933 934 935 936 937 938 939 940 941 942 943 944 945 946 947 948 949 950 951 952 953 954 955 956 957 958 959 960 961 962 0
c ind 963 964 965 966 967 968 969 970 971 972 973 974 975 976 977 978 979 980 981 982 983 984 985 986 987 988 989 990 991 992 993 994 995 996 997 998 999 1000 1001 1002 1003 1004 1005 1006 1007 1008 1009 1010 1011 1012 0
c ind 1013 1014 1015 1016 1017 1018 1019 1020 1021 1022 1023 1024 1025 1026 1027 1028 1029 1030 1031 1032 1033 1034 1035 1036 1037 1038 1039 1040 1041 1042 1043 1044 1045 1046 1047 1048 1049 1050 1051 1052 1053 1054 1055 1056 1057 1058 1059 1060 1061 1062 0
c ind 1063 1064 1065 1066 1067 1068 1069 1070 1071 1072 1073 1074 1075 1076 1077 1078 1079 1080 1081 1082 1083 1084 1085 1086 1087 1088 1089 1090 1091 1092 1093 1094 1095 1096 1097 1098 1099 1100 1101 1102 1103 1104 1105 1106 1107 1108 1109 1110 1111 1112 0
c ind 1113 1114 1115 1116 1117 1118 1119 1120 1121 1122 1123 1124 1125 1126 1127 1128 1129 1130 1131 1132 1133 1134 1135 1136 1137 1138 1139 0
1 2 3 4 5 6 7 0
8 9 10 11 12 13 14 0
15 16 17 18 19 20 21 0
22 23 24 25 26 27 28 0
29 30 31 32 33 34 35 0
36 37 38 39 40 41 42 0
43 44 45 46 47 48 49 0
50 51 52 53 54 55 56 0
57 58 59 60 61 62 63 0
64 65 66 67 68 69 70 0
71 72 73 74 75 76 77 0
78 79 80 81 82 83 84 0
85 86 87 88 89 90 91 0
92 93 94 95 96 97 98 0
99 100 -100 -101 0
102 100 -103 -104 0
105 100 -106 -107 0
108 100 -109 -110 0
111 100 -112 -113 0
114 100 -115 -116 0
117 100 -118 -119 0
120 103 -100 -121 0
122 103 -103 -123 0
124 103 -106 -125 0
126 103 -109 -127 0
128 103 -112 -129 0
130 103 -115 -131 0
132 103 -118 -133 0
134 106 -100 -135 0
136 106 -103 -137 0
138 106 -106 -139 0
140 106 -109 -141 0
142 106 -112 -143 0
144 106 -115 -145 0
146 106 -118 -147 0
148 109 -100 -149 0
150 109 -103 -151 0
152 109 -106 -153 0
154 109 -109 -155 0
156 109 -112 -157 0
158 109 -115 -159 0
160 109 -118 -161 0
162 112 -100 -163 0
164 112 -103 -165 0
166 112 -106 -167 0
168 112 -109 -169 0
170 112 -112 -171 0
172 112 -115 -173 0
174 112 -118 -175 0
176 115 -100 -177 0
178 115 -103 -179 0
180 115 -106 -181 0
182 115 -109 -183 0
184 115 -112 -185 0
186 115 -115 -187 0
188 115 -118 -189 0
190 118 -100 -191 0
192 118 -103 -193 0
194 118 -106 -195 0
196 118 -109 -197 0
198 118 -112 -199 0
200 118 -115 -201 0
202 118 -118 -203 0
101 -99 0
104 -102 0
107 -105 0
110 -108 0
113 -111 0
116 -114 0
119 -117 0
121 -120 0
123 -122 0
125 -124 0
127 -126 0
129 -128 0
131 -130 0
133 -132 0
135 -134 0
137 -136 0
139 -138 0
141 -140 0
143 -142 0
145 -144 0
147 -146 0
149 -148 0
151 -150 0
153 -152 0
155 -154 0
157 -156 0
159 -158 0
161 -160 0
163 -162 0
165 -164 0
167 -166 0
169 -168 0
171 -170 0
173 -172 0
175 -174 0
177 -176 0
179 -178 0
181 -180 0
183 -182 0
185 -184 0
187 -186 0
189 -188 0
191 -190 0
193 -192 0
195 -194 0
197 -196 0
199 -198 0
201 -200 0
203 -202 0
101 -100 0
104 -100 0
107 -100 0
110 -100 0
113 -100 0
116 -100 0
119 -100 0
121 -103 0
123 -103 0
125 -103 0
127 -103 0
129 -103 0
131 -103 0
133 -103 0
135 -106 0
137 -106 0
139 -106 0
141 -106 0
143 -106 0
145 -106 0
147 -106 0
149 -109 0
151 -109 0
153 -109 0
155 -109 0
157 -109 0
159 -109 0
161 -109 0
163 -112 0
165 -112 0
167 -112 0
169 -112 0
171 -112 0
173 -112 0
175 -112 0
177 -115 0
179 -115 0
181 -115 0
183 -115 0
185 -115 0
187 -115 0
189 -115 0
191 -118 0
193 -118 0
195 -118 0
197 -118 0
199 -118 0
201 -118 0
203 -118 0
101 100 0
104 103 0
107 106 0
110 109 0
113 112 0
116 115 0
119 118 0
121 100 0
123 103 0
125 106 0
127 109 0
129 112 0
131 115 0
133 118 0
135 100 0
137 103 0
139 106 0
141 109 0
143 112 0
145 115 0
147 118 0
149 100 0
151 103 0
153 106 0
155 109 0
157 112 0
159 115 0
161 118 0
163 100 0
165 103 0
167 106 0
169 109 0
171 112 0
173 115 0
175 118 0
177 100 0
179 103 0
181 106 0
183 109 0
185 112 0
187 115 0
189 118 0
191 100 0
193 103 0
195 106 0
197 109 0
199 112 0
201 115 0
203 118 0
-204 -100 -100 205 0
-206 -103 -100 207 0
-208 -106 -100 209 0
-210 -109 -100 211 0
-212 -112 -100 213 0
-214 -115 -100 215 0
-216 -118 -100 217 0
-218 -100 -103 219 0
-220 -103 -103 221 0
-222 -106 -103 223 0
-224 -109 -103 225 0
-226 -112 -103 227 0
-228 -115 -103 229 0
-230 -118 -103 231 0
-232 -100 -106 233 0
-234 -103 -106 235 0
-236 -106 -106 237 0
-238 -109 -106 239 0
-240 -112 -106 241 0
-242 -115 -106 243 0
-244 -118 -106 245 0
-246 -100 -109 247 0
-248 -103 -109 249 0
-250 -106 -109 251 0
-252 -109 -109 253 0
-254 -112 -109 255 0
-256 -115 -109 257 0
-258 -118 -109 259 0
-260 -100 -112 261 0
-262 -103 -112 263 0
-264 -106 -112 265 0
-266 -109 -112 267 0
-268 -112 -112 269 0
-270 -115 -112 271 0
-272 -118 -112 273 0
-274 -100 -115 275 0
-276 -103 -115 277 0
-278 -106 -115 279 0
-280 -109 -115 281 0
-282 -112 -115 283 0
-284 -115 -115 285 0
-286 -118 -115 287 0
-288 -100 -118 289 0
-290 -103 -118 291 0
-292 -106 -118 293 0
-294 -109 -118 295 0
-296 -112 -118 297 0
-298 -115 -118 299 0
-300 -118 -118 301 0
-205 204 0
-207 206 0
-209 208 0
-211 210 0
-213 212 0
-215 214 0
-217 216 0
-219 218 0
-221 220 0
-223 222 0
-225 224 0
-227 226 0
-229 228 0
-231 230 0
-233 232 0
-235 234 0
-237 236 0
-239 238 0
-241 240 0
-243 242 0
-245 244 0
-247 246 0
-249 248 0
-251 250 0
-253 252 0
-255 254 0
-257 256 0
-259 258 0
-261 260 0
-263 262 0
-265 264 0
-267 266 0
-269 268 0
-271 270 0
-273 272 0
-275 274 0
-277 276 0
-279 278 0
-281 280 0
-283 282 0
-285 284 0
-287 286 0
-289 288 0
-291 290 0
-293 292 0
-295 294 0
-297 296 0
-299 298 0
-301 300 0
-205 100 0
-207 103 0
-209 106 0
-211 109 0
-213 112 0
-215 115 0
-217 118 0
-219 100 0
-221 103 0
-223 106 0
-225 109 0
-227 112 0
-229 115 0
-231 118 0
-233 100 0
-235 103 0
-237 106 0
-239 109 0
-241 112 0
-243 115 0
-245 118 0
-247 100 0
-249 103 0
-251 106 0
-253 109 0
-255 112 0
-257 115 0
-259 118 0
-261 100 0
-263 103 0
-265 106 0
-267 109 0
-269 112 0
-271 115 0
-273 118 0
-275 100 0
-277 103 0
-279 106 0
-281 109 0
-283 112 0
-285 115 0
-287 118 0
-289 100 0
-291 103 0
-293 106 0
-295 109 0
-297 112 0
-299 115 0
-301 118 0
-205 100 0
-207 100 0
-209 100 0
-211 100 0
-213 100 0
-215 100 0
-217 100 0
-219 103 0
-221 103 0
-223 103 0
-225 103 0
-227 103 0
-229 103 0
-231 103 0
-233 106 0
-235 106 0
-237 106 0
-239 106 0
-241 106 0
-243 106 0
-245 106 0
-247 109 0
-249 109 0
-251 109 0
-253 109 0
-255 109 0
-257 109 0
-259 109 0
-261 112 0
-263 112 0
-265 112 0
-267 112 0
-269 112 0
-271 112 0
-273 112 0
-275 115 0
-277 115 0
-279 115 0
-281 115 0
-283 115 0
-285 115 0
-287 115 0
-289 118 0
-291 118 0
-293 118 0
-295 118 0
-297 118 0
-299 118 0
-301 118 0
-302 205 -303 0
-304 207 -305 0
-306 209 -307 0
-308 211 -309 0
-310 213 -311 0
-312 215 -313 0
-314 217 -315 0
-316 219 -317 0
-318 221 -319 0
-320 223 -321 0
-322 225 -323 0
-324 227 -325 0
-326 229 -327 0
-328 231 -329 0
-330 233 -331 0
-332 235 -333 0
-334 237 -335 0
-336 239 -337 0
-338 241 -339 0
-340 243 -341 0
-342 245 -343 0
-344 247 -345 0
-346 249 -347 0
-348 251 -349 0
-350 253 -351 0
-352 255 -353 0
-354 257 -355 0
-356 259 -357 0
-358 261 -359 0
-360 263 -361 0
-362 265 -363 0
-364 267 -365 0
-366 269 -367 0
-368 271 -369 0
-370 273 -371 0
-372 275 -373 0
-374 277 -375 0
-376 279 -377 0
-378 281 -379 0
-380 283 -381 0
-382 285 -383 0
-384 287 -385 0
-386 289 -387 0
-388 291 -389 0
-390 293 -391 0
-392 295 -393 0
-394 297 -395 0
-396 299 -397 0
-398 301 -399 0
303 302 0
305 304 0
307 306 0
309 308 0
311 310 0
313 312 0
315 314 0
317 316 0
319 318 0
321 320 0
323 322 0
325 324 0
327 326 0
329 328 0
331 330 0
333 332 0
335 334 0
337 336 0
339 338 0
341 340 0
343 342 0
345 344 0
347 346 0
349 348 0
351 350 0
353 352 0
355 354 0
357 356 0
359 358 0
361 360 0
363 362 0
365 364 0
367 366 0
369 368 0
371 370 0
373 372 0
375 374 0
377 376 0
379 378 0
381 380 0
383 382 0
385 384 0
387 386 0
389 388 0
391 390 0
393 392 0
395 394 0
397 396 0
399 398 0
303 -205 0
305 -207 0
307 -209 0
309 -211 0
311 -213 0
313 -215 0
315 -217 0
317 -219 0
319 -221 0
321 -223 0
323 -225 0
325 -227 0
327 -229 0
329 -231 0
331 -233 0
333 -235 0
335 -237 0
337 -239 0
339 -241 0
341 -243 0
343 -245 0
345 -247 0
347 -249 0
349 -251 0
351 -253 0
353 -255 0
355 -257 0
357 -259 0
359 -261 0
361 -263 0
363 -265 0
365 -267 0
367 -269 0
369 -271 0
371 -273 0
373 -275 0
375 -277 0
377 -279 0
379 -281 0
381 -283 0
383 -285 0
385 -287 0
387 -289 0
389 -291 0
391 -293 0
393 -295 0
395 -297 0
397 -299 0
399 -301 0
302 -204 -100 -100 -400 0
304 -206 -103 -100 -401 0
306 -208 -106 -100 -402 0
308 -210 -109 -100 -403 0
310 -212 -112 -100 -404 0
312 -214 -115 -100 -405 0
314 -216 -118 -100 -406 0
316 -218 -100 -103 -407 0
318 -220 -103 -103 -408 0
320 -222 -106 -103 -409 0
322 -224 -109 -103 -410 0
324 -226 -112 -103 -411 0
326 -228 -115 -103 -412 0
328 -230 -118 -103 -413 0
330 -232 -100 -106 -414 0
332 -234 -103 -106 -415 0
334 -236 -106 -106 -416 0
336 -238 -109 -106 -417 0
338 -240 -112 -106 -418 0
340 -242 -115 -106 -419 0
342 -244 -118 -106 -420 0
344 -246 -100 -109 -421 0
346 -248 -103 -109 -422 0
348 -250 -106 -109 -423 0
350 -252 -109 -109 -424 0
352 -254 -112 -109 -425 0
354 -256 -115 -109 -426 0
356 -258 -118 -109 -427 0
358 -260 -100 -112 -428 0
360 -262 -103 -112 -429 0
362 -264 -106 -112 -430 0
364 -266 -109 -112 -431 0
366 -268 -112 -112 -432 0
368 -270 -115 -112 -433 0
370 -272 -118 -112 -434 0
372 -274 -100 -115 -435 0
374 -276 -103 -115 -436 0
376 -278 -106 -115 -437 0
378 -280 -109 -115 -438 0
380 -282 -112 -115 -439 0
382 -284 -115 -115 -440 0
384 -286 -118 -115 -441 0
386 -288 -100 -118 -442 0
388 -290 -103 -118 -443 0
390 -292 -106 -118 -444 0
392 -294 -109 -118 -445 0
394 -296 -112 -118 -446 0
396 -298 -115 -118 -447 0
398 -300 -118 -118 -448 0
400 -302 0
401 -304 0
402 -306 0
403 -308 0
404 -310 0
405 -312 0
406 -314 0
407 -316 0
408 -318 0
409 -320 0
410 -322 0
411 -324 0
412 -326 0
413 -328 0
414 -330 0
415 -332 0
416 -334 0
417 -336 0
418 -338 0
419 -340 0
420 -342 0
421 -344 0
422 -346 0
423 -348 0
424 -350 0
425 -352 0
426 -354 0
427 -356 0
428 -358 0
429 -360 0
430 -362 0
431 -364 0
432 -366 0
433 -368 0
434 -370 0
435 -372 0
436 -374 0
437 -376 0
438 -378 0
439 -380 0
440 -382 0
441 -384 0
442 -386 0
443 -388 0
444 -390 0
445 -392 0
446 -394 0
447 -396 0
448 -398 0
400 204 0
401 206 0
402 208 0
403 210 0
404 212 0
405 214 0
406 216 0
407 218 0
408 220 0
409 222 0
410 224 0
411 226 0
412 228 0
413 230 0
414 232 0
415 234 0
416 236 0
417 238 0
418 240 0
419 242 0
420 244 0
421 246 0
422 248 0
423 250 0
424 252 0
425 254 0
426 256 0
427 258 0
428 260 0
429 262 0
430 264 0
431 266 0
432 268 0
433 270 0
434 272 0
435 274 0
436 276 0
437 278 0
438 280 0
439 282 0
440 284 0
441 286 0
442 288 0
443 290 0
444 292 0
445 294 0
446 296 0
447 298 0
448 300 0
400 100 0
401 103 0
402 106 0
403 109 0
404 112 0
405 115 0
406 118 0
407 100 0
408 103 0
409 106 0
410 109 0
411 112 0
412 115 0
413 118 0
414 100 0
415 103 0
416 106 0
417 109 0
418 112 0
419 115 0
420 118 0
421 100 0
422 103 0
423 106 0
424 109 0
425 112 0
426 115 0
427 118 0
428 100 0
429 103 0
430 106 0
431 109 0
432 112 0
433 115 0
434 118 0
435 100 0
436 103 0
437 106 0
438 109 0
439 112 0
440 115 0
441 118 0
442 100 0
443 103 0
444 106 0
445 109 0
446 112 0
447 115 0
448 118 0
400 100 0
401 100 0
402 100 0
403 100 0
404 100 0
405 100 0
406 100 0
407 103 0
408 103 0
409 103 0
410 103 0
411 103 0
412 103 0
413 103 0
414 106 0
415 106 0
416 106 0
417 106 0
418 106 0
419 106 0
420 106 0
421 109 0
422 109 0
423 109 0
424 109 0
425 109 0
426 109 0
427 109 0
428 112 0
429 112 0
430 112 0
431 112 0
432 112 0
433 112 0
434 112 0
435 115 0
436 115 0
437 115 0
438 115 0
439 115 0
440 115 0
441 115 0
442 118 0
443 118 0
444 118 0
445 118 0
446 118 0
447 118 0
448 118 0
-449 -302 -450 0
-449 -316 -451 0
-449 -330 -452 0
-449 -344 -453 0
-449 -358 -454 0
-449 -372 -455 0
-449 -386 -456 0
-457 -304 -458 0
-457 -318 -459 0
-457 -332 -460 0
-457 -346 -461 0
-457 -360 -462 0
-457 -374 -463 0
-457 -388 -464 0
-465 -306 -466 0
-465 -320 -467 0
-465 -334 -468 0
-465 -348 -469 0
-465 -362 -470 0
-465 -376 -471 0
-465 -390 -472 0
-473 -308 -474 0
-473 -322 -475 0
-473 -336 -476 0
-473 -350 -477 0
-473 -364 -478 0
-473 -378 -479 0
-473 -392 -480 0
-481 -310 -482 0
-481 -324 -483 0
-481 -338 -484 0
-481 -352 -485 0
-481 -366 -486 0
-481 -380 -487 0
-481 -394 -488 0
-489 -312 -490 0
-489 -326 -491 0
-489 -340 -492 0
-489 -354 -493 0
-489 -368 -494 0
-489 -382 -495 0
-489 -396 -496 0
-497 -314 -498 0
-497 -328 -499 0
-497 -342 -500 0
-497 -356 -501 0
-497 -370 -502 0
-497 -384 -503 0
-497 -398 -504 0
450 449 0
451 449 0
452 449 0
453 449 0
454 449 0
455 449 0
456 449 0
458 457 0
459 457 0
460 457 0
461 457 0
462 457 0
463 457 0
464 457 0
466 465 0
467 465 0
468 465 0
469 465 0
470 465 0
471 465 0
472 465 0
474 473 0
475 473 0
476 473 0
477 473 0
478 473 0
479 473 0
480 473 0
482 481 0
483 481 0
484 481 0
485 481 0
486 481 0
487 481 0
488 481 0
490 489 0
491 489 0
492 489 0
493 489 0
494 489 0
495 489 0
496 489 0
498 497 0
499 497 0
500 497 0
501 497 0
502 497 0
503 497 0
504 497 0
450 302 0
451 316 0
452 330 0
453 344 0
454 358 0
455 372 0
456 386 0
458 304 0
459 318 0
460 332 0
461 346 0
462 360 0
463 374 0
464 388 0
466 306 0
467 320 0
468 334 0
469 348 0
470 362 0
471 376 0
472 390 0
474 308 0
475 322 0
476 336 0
477 350 0
478 364 0
479 378 0
480 392 0
482 310 0
483 324 0
484 338 0
485 352 0
486 366 0
487 380 0
488 394 0
490 312 0
491 326 0
492 340 0
493 354 0
494 368 0
495 382 0
496 396 0
498 314 0
499 328 0
500 342 0
501 356 0
502 370 0
503 384 0
504 398 0
-449 -450 505 0
-457 -451 506 0
-465 -452 507 0
-473 -453 508 0
-481 -454 509 0
-489 -455 510 0
-497 -456 511 0
-449 -458 512 0
-457 -459 513 0
-465 -460 514 0
-473 -461 515 0
-481 -462 516 0
-489 -463 517 0
-497 -464 518 0
-449 -466 519 0
-457 -467 520 0
-465 -468 521 0
-473 -469 522 0
-481 -470 523 0
-489 -471 524 0
-497 -472 525 0
-449 -474 526 0
-457 -475 527 0
-465 -476 528 0
-473 -477 529 0
-481 -478 530 0
-489 -479 531 0
-497 -480 532 0
-449 -482 533 0
-457 -483 534 0
-465 -484 535 0
-473 -485 536 0
-481 -486 537 0
-489 -487 538 0
-497 -488 539 0
-449 -490 540 0
-457 -491 541 0
-465 -492 542 0
-473 -493 543 0
-481 -494 544 0
-489 -495 545 0
-497 -496 546 0
-449 -498 547 0
-457 -499 548 0
-465 -500 549 0
-473 -501 550 0
-481 -502 551 0
-489 -503 552 0
-497 -504 553 0
-505 449 0
-506 457 0
-507 465 0
-508 473 0
-509 481 0
-510 489 0
-511 497 0
-512 449 0
-513 457 0
-514 465 0
-515 473 0
-516 481 0
-517 489 0
-518 497 0
-519 449 0
-520 457 0
-521 465 0
-522 473 0
-523 481 0
-524 489 0
-525 497 0
-526 449 0
-527 457 0
-528 465 0
-529 473 0
-530 481 0
-531 489 0
-532 497 0
-533 449 0
-534 457 0
-535 465 0
-536 473 0
-537 481 0
-538 489 0
-539 497 0
-540 449 0
-541 457 0
-542 465 0
-543 473 0
-544 481 0
-545 489 0
-546 497 0
-547 449 0
-548 457 0
-549 465 0
-550 473 0
-551 481 0
-552 489 0
-553 497 0
-505 450 0
-506 451 0
-507 452 0
-508 453 0
-509 454 0
-510 455 0
-511 456 0
-512 458 0
-513 459 0
-514 460 0
-515 461 0
-516 462 0
-517 463 0
-518 464 0
-519 466 0
-520 467 0
-521 468 0
-522 469 0
-523 470 0
-524 471 0
-525 472 0
-526 474 0
-527 475 0
-528 476 0
-529 477 0
-530 478 0
-531 479 0
-532 480 0
-533 482 0
-534 483 0
-535 484 0
-536 485 0
-537 486 0
-538 487 0
-539 488 0
-540 490 0
-541 491 0
-542 492 0
-543 493 0
-544 494 0
-545 495 0
-546 496 0
-547 498 0
-548 499 0
-549 500 0
-550 501 0
-551 502 0
-552 503 0
-553 504 0
-554 505 -555 0
-556 506 -557 0
-558 507 -559 0
-560 508 -561 0
-562 509 -563 0
-564 510 -565 0
-566 511 -567 0
-554 512 -568 0
-556 513 -569 0
-558 514 -570 0
-560 515 -571 0
-562 516 -572 0
-564 517 -573 0
-566 518 -574 0
-554 519 -575 0
-556 520 -576 0
-558 521 -577 0
-560 522 -578 0
-562 523 -579 0
-564 524 -580 0
-566 525 -581 0
-554 526 -582 0
-556 527 -583 0
-558 528 -584 0
-560 529 -585 0
-562 530 -586 0
-564 531 -587 0
-566 532 -588 0
-554 533 -589 0
-556 534 -590 0
-558 535 -591 0
-560 536 -592 0
-562 537 -593 0
-564 538 -594 0
-566 539 -595 0
-554 540 -596 0
-556 541 -597 0
-558 542 -598 0
-560 543 -599 0
-562 544 -600 0
-564 545 -601 0
-566 546 -602 0
-554 547 -603 0
-556 548 -604 0
-558 549 -605 0
-560 550 -606 0
-562 551 -607 0
-564 552 -608 0
-566 553 -609 0
555 554 0
557 556 0
559 558 0
561 560 0
563 562 0
565 564 0
567 566 0
568 554 0
569 556 0
570 558 0
571 560 0
572 562 0
573 564 0
574 566 0
575 554 0
576 556 0
577 558 0
578 560 0
579 562 0
580 564 0
581 566 0
582 554 0
583 556 0
584 558 0
585 560 0
586 562 0
587 564 0
588 566 0
589 554 0
590 556 0
591 558 0
592 560 0
593 562 0
594 564 0
595 566 0
596 554 0
597 556 0
598 558 0
599 560 0
600 562 0
601 564 0
602 566 0
603 554 0
604 556 0
605 558 0
606 560 0
607 562 0
608 564 0
609 566 0
555 -505 0
557 -506 0
559 -507 0
561 -508 0
563 -509 0
565 -510 0
567 -511 0
568 -512 0
569 -513 0
570 -514 0
571 -515 0
572 -516 0
573 -517 0
574 -518 0
575 -519 0
576 -520 0
577 -521 0
578 -522 0
579 -523 0
580 -524 0
581 -525 0
582 -526 0
583 -527 0
584 -528 0
585 -529 0
586 -530 0
587 -531 0
588 -532 0
589 -533 0
590 -534 0
591 -535 0
592 -536 0
593 -537 0
594 -538 0
595 -539 0
596 -540 0
597 -541 0
598 -542 0
599 -543 0
600 -544 0
601 -545 0
602 -546 0
603 -547 0
604 -548 0
605 -549 0
606 -550 0
607 -551 0
608 -552 0
609 -553 0
-610 -302 -611 0
-610 -316 -612 0
-610 -330 -613 0
-610 -344 -614 0
-610 -358 -615 0
-610 -372 -616 0
-610 -386 -617 0
-618 -304 -619 0
-618 -318 -620 0
-618 -332 -621 0
-618 -346 -622 0
-618 -360 -623 0
-618 -374 -624 0
-618 -388 -625 0
-626 -306 -627 0
-626 -320 -628 0
-626 -334 -629 0
-626 -348 -630 0
-626 -362 -631 0
-626 -376 -632 0
-626 -390 -633 0
-634 -308 -635 0
-634 -322 -636 0
-634 -336 -637 0
-634 -350 -638 0
-634 -364 -639 0
-634 -378 -640 0
-634 -392 -641 0
-642 -310 -643 0
-642 -324 -644 0
-642 -338 -645 0
-642 -352 -646 0
-642 -366 -647 0
-642 -380 -648 0
-642 -394 -649 0
-650 -312 -651 0
-650 -326 -652 0
-650 -340 -653 0
-650 -354 -654 0
-650 -368 -655 0
-650 -382 -656 0
-650 -396 -657 0
-658 -314 -659 0
-658 -328 -660 0
-658 -342 -661 0
-658 -356 -662 0
-658 -370 -663 0
-658 -384 -664 0
-658 -398 -665 0
611 610 0
612 610 0
613 610 0
614 610 0
615 610 0
616 610 0
617 610 0
619 618 0
620 618 0
621 618 0
622 618 0
623 618 0
624 618 0
625 618 0
627 626 0
628 626 0
629 626 0
630 626 0
631 626 0
632 626 0
633 626 0
635 634 0
636 634 0
637 634 0
638 634 0
639 634 0
640 634 0
641 634 0
643 642 0
644 642 0
645 642 0
646 642 0
647 642 0
648 642 0
649 642 0
651 650 0
652 650 0
653 650 0
654 650 0
655 650 0
656 650 0
657 650 0
659 658 0
660 658 0
661 658 0
662 658 0
663 658 0
664 658 0
665 658 0
611 302 0
612 316 0
613 330 0
614 344 0
615 358 0
616 372 0
617 386 0
619 304 0
620 318 0
621 332 0
622 346 0
623 360 0
624 374 0
625 388 0
627 306 0
628 320 0
629 334 0
630 348 0
631 362 0
632 376 0
633 390 0
635 308 0
636 322 0
637 336 0
638 350 0
639 364 0
640 378 0
641 392 0
643 310 0
644 324 0
645 338 0
646 352 0
647 366 0
648 380 0
649 394 0
651 312 0
652 326 0
653 340 0
654 354 0
655 368 0
656 382 0
657 396 0
659 314 0
660 328 0
661 342 0
662 356 0
663 370 0
664 384 0
665 398 0
-610 -611 666 0
-618 -612 667 0
-626 -613 668 0
-634 -614 669 0
-642 -615 670 0
-650 -616 671 0
-658 -617 672 0
-610 -619 673 0
-618 -620 674 0
-626 -621 675 0
-634 -622 676 0
-642 -623 677 0
-650 -624 678 0
-658 -625 679 0
-610 -627 680 0
-618 -628 681 0
-626 -629 682 0
-634 -630 683 0
-642 -631 684 0
-650 -632 685 0
-658 -633 686 0
-610 -635 687 0
-618 -636 688 0
-626 -637 689 0
-634 -638 690 0
-642 -639 691 0
-650 -640 692 0
-658 -641 693 0
-610 -643 694 0
-618 -644 695 0
-626 -645 696 0
-634 -646 697 0
-642 -647 698 0
-650 -648 699 0
-658 -649 700 0
-610 -651 701 0
-618 -652 702 0
-626 -653 703 0
-634 -654 704 0
-642 -655 705 0
-650 -656 706 0
-658 -657 707 0
-610 -659 708 0
-618 -660 709 0
-626 -661 710 0
-634 -662 711 0
-642 -663 712 0
-650 -664 713 0
-658 -665 714 0
-666 610 0
-667 618 0
-668 626 0
-669 634 0
-670 642 0
-671 650 0
-672 658 0
-673 610 0
-674 618 0
-675 626 0
-676 634 0
-677 642 0
-678 650 0
-679 658 0
-680 610 0
-681 618 0
-682 626 0
-683 634 0
-684 642 0
-685 650 0
-686 658 0
-687 610 0
-688 618 0
-689 626 0
-690 634 0
-691 642 0
-692 650 0
-693 658 0
-694 610 0
-695 618 0
-696 626 0
-697 634 0
-698 642 0
-699 650 0
-700 658 0
-701 610 0
-702 618 0
-703 626 0
-704 634 0
-705 642 0
-706 650 0
-707 658 0
-708 610 0
-709 618 0
-710 626 0
-711 634 0
-712 642 0
-713 650 0
-714 658 0
-666 611 0
-667 612 0
-668 613 0
-669 614 0
-670 615 0
-671 616 0
-672 617 0
-673 619 0
-674 620 0
-675 621 0
-676 622 0
-677 623 0
-678 624 0
-679 625 0
-680 627 0
-681 628 0
-682 629 0
-683 630 0
-684 631 0
-685 632 0
-686 633 0
-687 635 0
-688 636 0
-689 637 0
-690 638 0
-691 639 0
-692 640 0
-693 641 0
-694 643 0
-695 644 0
-696 645 0
-697 646 0
-698 647 0
-699 648 0
-700 649 0
-701 651 0
-702 652 0
-703 653 0
-704 654 0
-705 655 0
-706 656 0
-707 657 0
-708 659 0
-709 660 0
-710 661 0
-711 662 0
-712 663 0
-713 664 0
-714 665 0
-715 666 -716 0
-717 667 -718 0
-719 668 -720 0
-721 669 -722 0
-723 670 -724 0
-725 671 -726 0
-727 672 -728 0
-715 673 -729 0
-717 674 -730 0
-719 675 -731 0
-721 676 -732 0
-723 677 -733 0
-725 678 -734 0
-727 679 -735 0
-715 680 -736 0
-717 681 -737 0
-719 682 -738 0
-721 683 -739 0
-723 684 -740 0
-725 685 -741 0
-727 686 -742 0
-715 687 -743 0
-717 688 -744 0
-719 689 -745 0
-721 690 -746 0
-723 691 -747 0
-725 692 -748 0
-727 693 -749 0
-715 694 -750 0
-717 695 -751 0
-719 696 -752 0
-721 697 -753 0
-723 698 -754 0
-725 699 -755 0
-727 700 -756 0
-715 701 -757 0
-717 702 -758 0
-719 703 -759 0
-721 704 -760 0
-723 705 -761 0
-725 706 -762 0
-727 707 -763 0
-715 708 -764 0
-717 709 -765 0
-719 710 -766 0
-721 711 -767 0
-723 712 -768 0
-725 713 -769 0
-727 714 -770 0
716 715 0
718 717 0
720 719 0
722 721 0
724 723 0
726 725 0
728 727 0
729 715 0
730 717 0
731 719 0
732 721 0
733 723 0
734 725 0
735 727 0
736 715 0
737 717 0
738 719 0
739 721 0
740 723 0
741 725 0
742 727 0
743 715 0
744 717 0
745 719 0
746 721 0
747 723 0
748 725 0
749 727 0
750 715 0
751 717 0
752 719 0
753 721 0
754 723 0
755 725 0
756 727 0
757 715 0
758 717 0
759 719 0
760 721 0
761 723 0
762 725 0
763 727 0
764 715 0
765 717 0
766 719 0
767 721 0
768 723 0
769 725 0
770 727 0
716 -666 0
718 -667 0
720 -668 0
722 -669 0
724 -670 0
726 -671 0
728 -672 0
729 -673 0
730 -674 0
731 -675 0
732 -676 0
733 -677 0
734 -678 0
735 -679 0
736 -680 0
737 -681 0
738 -682 0
739 -683 0
740 -684 0
741 -685 0
742 -686 0
743 -687 0
744 -688 0
745 -689 0
746 -690 0
747 -691 0
748 -692 0
749 -693 0
750 -694 0
751 -695 0
752 -696 0
753 -697 0
754 -698 0
755 -699 0
756 -700 0
757 -701 0
758 -702 0
759 -703 0
760 -704 0
761 -705 0
762 -706 0
763 -707 0
764 -708 0
765 -709 0
766 -710 0
767 -711 0
768 -712 0
769 -713 0
770 -714 0
-101 -303 -400 -555 -716 771 0
-104 -305 -401 -557 -718 772 0
-107 -307 -402 -559 -720 773 0
-110 -309 -403 -561 -722 774 0
-113 -311 -404 -563 -724 775 0
-116 -313 -405 -565 -726 776 0
-119 -315 -406 -567 -728 777 0
-121 -317 -407 -568 -729 778 0
-123 -319 -408 -569 -730 779 0
-125 -321 -409 -570 -731 780 0
-127 -323 -410 -571 -732 781 0
-129 -325 -411 -572 -733 782 0
-131 -327 -412 -573 -734 783 0
-133 -329 -413 -574 -735 784 0
-135 -331 -414 -575 -736 785 0
-137 -333 -415 -576 -737 786 0
-139 -335 -416 -577 -738 787 0
-141 -337 -417 -578 -739 788 0
-143 -339 -418 -579 -740 789 0
-145 -341 -419 -580 -741 790 0
-147 -343 -420 -581 -742 791 0
-149 -345 -421 -582 -743 792 0
-151 -347 -422 -583 -744 793 0
-153 -349 -423 -584 -745 794 0
-155 -351 -424 -585 -746 795 0
-157 -353 -425 -586 -747 796 0
-159 -355 -426 -587 -748 797 0
-161 -357 -427 -588 -749 798 0
-163 -359 -428 -589 -750 799 0
-165 -361 -429 -590 -751 800 0
-167 -363 -430 -591 -752 801 0
-169 -365 -431 -592 -753 802 0
-171 -367 -432 -593 -754 803 0
-173 -369 -433 -594 -755 804 0
-175 -371 -434 -595 -756 805 0
-177 -373 -435 -596 -757 806 0
-179 -375 -436 -597 -758 807 0
-181 -377 -437 -598 -759 808 0
-183 -379 -438 -599 -760 809 0
-185 -381 -439 -600 -761 810 0
-187 -383 -440 -601 -762 811 0
-189 -385 -441 -602 -763 812 0
-191 -387 -442 -603 -764 813 0
-193 -389 -443 -604 -765 814 0
-195 -391 -444 -605 -766 815 0
-197 -393 -445 -606 -767 816 0
-199 -395 -446 -607 -768 817 0
-201 -397 -447 -608 -769 818 0
-203 -399 -448 -609 -770 819 0
-771 101 0
-772 104 0
-773 107 0
-774 110 0
-775 113 0
-776 116 0
-777 119 0
-778 121 0
-779 123 0
-780 125 0
-781 127 0
-782 129 0
-783 131 0
-784 133 0
-785 135 0
-786 137 0
-787 139 0
-788 141 0
-789 143 0
-790 145 0
-791 147 0
-792 149 0
-793 151 0
-794 153 0
-795 155 0
-796 157 0
-797 159 0
-798 161 0
-799 163 0
-800 165 0
-801 167 0
-802 169 0
-803 171 0
-804 173 0
-805 175 0
-806 177 0
-807 179 0
-808 181 0
-809 183 0
-810 185 0
-811 187 0
-812 189 0
-813 191 0
-814 193 0
-815 195 0
-816 197 0
-817 199 0
-818 201 0
-819 203 0
-771 303 0
-772 305 0
-773 307 0
-774 309 0
-775 311 0
-776 313 0
-777 315 0
-778 317 0
-779 319 0
-780 321 0
-781 323 0
-782 325 0
-783 327 0
-784 329 0
-785 331 0
-786 333 0
-787 335 0
-788 337 0
-789 339 0
-790 341 0
-791 343 0
-792 345 0
-793 347 0
-794 349 0
-795 351 0
-796 353 0
-797 355 0
-798 357 0
-799 359 0
-800 361 0
-801 363 0
-802 365 0
-803 367 0
-804 369 0
-805 371 0
-806 373 0
-807 375 0
-808 377 0
-809 379 0
-810 381 0
-811 383 0
-812 385 0
-813 387 0
-814 389 0
-815 391 0
-816 393 0
-817 395 0
-818 397 0
-819 399 0
-771 400 0
-772 401 0
-773 402 0
-774 403 0
-775 404 0
-776 405 0
-777 406 0
-778 407 0
-779 408 0
-780 409 0
-781 410 0
-782 411 0
-783 412 0
-784 413 0
-785 414 0
-786 415 0
-787 416 0
-788 417 0
-789 418 0
-790 419 0
-791 420 0
-792 421 0
-793 422 0
-794 423 0
-795 424 0
-796 425 0
-797 426 0
-798 427 0
-799 428 0
-800 429 0
-801 430 0
-802 431 0
-803 432 0
-804 433 0
-805 434 0
-806 435 0
-807 436 0
-808 437 0
-809 438 0
-810 439 0
-811 440 0
-812 441 0
-813 442 0
-814 443 0
-815 444 0
-816 445 0
-817 446 0
-818 447 0
-819 448 0
-771 555 0
-772 557 0
-773 559 0
-774 561 0
-775 563 0
-776 565 0
-777 567 0
-778 568 0
-779 569 0
-780 570 0
-781 571 0
-782 572 0
-783 573 0
-784 574 0
-785 575 0
-786 576 0
-787 577 0
-788 578 0
-789 579 0
-790 580 0
-791 581 0
-792 582 0
-793 583 0
-794 584 0
-795 585 0
-796 586 0
-797 587 0
-798 588 0
-799 589 0
-800 590 0
-801 591 0
-802 592 0
-803 593 0
-804 594 0
-805 595 0
-806 596 0
-807 597 0
-808 598 0
-809 599 0
-810 600 0
-811 601 0
-812 602 0
-813 603 0
-814 604 0
-815 605 0
-816 606 0
-817 607 0
-818 608 0
-819 609 0
-771 716 0
-772 718 0
-773 720 0
-774 722 0
-775 724 0
-776 726 0
-777 728 0
-778 729 0
-779 730 0
-780 731 0
-781 732 0
-782 733 0
-783 734 0
-784 735 0
-785 736 0
-786 737 0
-787 738 0
-788 739 0
-789 740 0
-790 741 0
-791 742 0
-792 743 0
-793 744 0
-794 745 0
-795 746 0
-796 747 0
-797 748 0
-798 749 0
-799 750 0
-800 751 0
-801 752 0
-802 753 0
-803 754 0
-804 755 0
-805 756 0
-806 757 0
-807 758 0
-808 759 0
-809 760 0
-810 761 0
-811 762 0
-812 763 0
-813 764 0
-814 765 0
-815 766 0
-816 767 0
-817 768 0
-818 769 0
-819 770 0
771 0
772 0
773 0
774 0
775 0
776 0
777 0
778 0
779 0
780 0
781 0
782 0
783 0
784 0
785 0
786 0
787 0
788 0
789 0
790 0
791 0
792 0
793 0
794 0
795 0
796 0
797 0
798 0
799 0
800 0
801 0
802 0
803 0
804 0
805 0
806 0
807 0
808 0
809 0
810 0
811 0
812 0
813 0
814 0
815 0
816 0
817 0
818 0
819 0
-610 -302 820 0
-610 -316 821 0
-610 -330 822 0
-610 -344 823 0
-610 -358 824 0
-610 -372 825 0
-610 -386 826 0
-618 -304 827 0
-618 -318 828 0
-618 -332 829 0
-618 -346 830 0
-618 -360 831 0
-618 -374 832 0
-618 -388 833 0
-626 -306 834 0
-626 -320 835 0
-626 -334 836 0
-626 -348 837 0
-626 -362 838 0
-626 -376 839 0
-626 -390 840 0
-634 -308 841 0
-634 -322 842 0
-634 -336 843 0
-634 -350 844 0
-634 -364 845 0
-634 -378 846 0
-634 -392 847 0
-642 -310 848 0
-642 -324 849 0
-642 -338 850 0
-642 -352 851 0
-642 -366 852 0
-642 -380 853 0
-642 -394 854 0
-650 -312 855 0
-650 -326 856 0
-650 -340 857 0
-650 -354 858 0
-650 -368 859 0
-650 -382 860 0
-650 -396 861 0
-658 -314 862 0
-658 -328 863 0
-658 -342 864 0
-658 -356 865 0
-658 -370 866 0
-658 -384 867 0
-658 -398 868 0
-820 610 0
-821 610 0
-822 610 0
-823 610 0
-824 610 0
-825 610 0
-826 610 0
-827 618 0
-828 618 0
-829 618 0
-830 618 0
-831 618 0
-832 618 0
-833 618 0
-834 626 0
-835 626 0
-836 626 0
-837 626 0
-838 626 0
-839 626 0
-840 626 0
-841 634 0
-842 634 0
-843 634 0
-844 634 0
-845 634 0
-846 634 0
-847 634 0
-848 642 0
-849 642 0
-850 642 0
-851 642 0
-852 642 0
-853 642 0
-854 642 0
-855 650 0
-856 650 0
-857 650 0
-858 650 0
-859 650 0
-860 650 0
-861 650 0
-862 658 0
-863 658 0
-864 658 0
-865 658 0
-866 658 0
-867 658 0
-868 658 0
-820 302 0
-821 316 0
-822 330 0
-823 344 0
-824 358 0
-825 372 0
-826 386 0
-827 304 0
-828 318 0
-829 332 0
-830 346 0
-831 360 0
-832 374 0
-833 388 0
-834 306 0
-835 320 0
-836 334 0
-837 348 0
-838 362 0
-839 376 0
-840 390 0
-841 308 0
-842 322 0
-843 336 0
-844 350 0
-845 364 0
-846 378 0
-847 392 0
-848 310 0
-849 324 0
-850 338 0
-851 352 0
-852 366 0
-853 380 0
-854 394 0
-855 312 0
-856 326 0
-857 340 0
-858 354 0
-859 368 0
-860 382 0
-861 396 0
-862 314 0
-863 328 0
-864 342 0
-865 356 0
-866 370 0
-867 384 0
-868 398 0
715 -610 820 -1 0
717 -618 821 -8 0
719 -626 822 -15 0
721 -634 823 -22 0
723 -642 824 -29 0
725 -650 825 -36 0
727 -658 826 -43 0
715 -610 827 -2 0
717 -618 828 -9 0
719 -626 829 -16 0
721 -634 830 -23 0
723 -642 831 -30 0
725 -650 832 -37 0
727 -658 833 -44 0
715 -610 834 -3 0
717 -618 835 -10 0
719 -626 836 -17 0
721 -634 837 -24 0
723 -642 838 -31 0
725 -650 839 -38 0
727 -658 840 -45 0
715 -610 841 -4 0
717 -618 842 -11 0
719 -626 843 -18 0
721 -634 844 -25 0
723 -642 845 -32 0
725 -650 846 -39 0
727 -658 847 -46 0
715 -610 848 -5 0
717 -618 849 -12 0
719 -626 850 -19 0
721 -634 851 -26 0
723 -642 852 -33 0
725 -650 853 -40 0
727 -658 854 -47 0
715 -610 855 -6 0
717 -618 856 -13 0
719 -626 857 -20 0
721 -634 858 -27 0
723 -642 859 -34 0
725 -650 860 -41 0
727 -658 861 -48 0
715 -610 862 -7 0
717 -618 863 -14 0
719 -626 864 -21 0
721 -634 865 -28 0
723 -642 866 -35 0
725 -650 867 -42 0
727 -658 868 -49 0
1 -715 0
8 -717 0
15 -719 0
22 -721 0
29 -723 0
36 -725 0
43 -727 0
2 -715 0
9 -717 0
16 -719 0
23 -721 0
30 -723 0
37 -725 0
44 -727 0
3 -715 0
10 -717 0
17 -719 0
24 -721 0
31 -723 0
38 -725 0
45 -727 0
4 -715 0
11 -717 0
18 -719 0
25 -721 0
32 -723 0
39 -725 0
46 -727 0
5 -715 0
12 -717 0
19 -719 0
26 -721 0
33 -723 0
40 -725 0
47 -727 0
6 -715 0
13 -717 0
20 -719 0
27 -721 0
34 -723 0
41 -725 0
48 -727 0
7 -715 0
14 -717 0
21 -719 0
28 -721 0
35 -723 0
42 -725 0
49 -727 0
1 610 0
8 618 0
15 626 0
22 634 0
29 642 0
36 650 0
43 658 0
2 610 0
9 618 0
16 626 0
23 634 0
30 642 0
37 650 0
44 658 0
3 610 0
10 618 0
17 626 0
24 634 0
31 642 0
38 650 0
45 658 0
4 610 0
11 618 0
18 626 0
25 634 0
32 642 0
39 650 0
46 658 0
5 610 0
12 618 0
19 626 0
26 634 0
33 642 0
40 650 0
47 658 0
6 610 0
13 618 0
20 626 0
27 634 0
34 642 0
41 650 0
48 658 0
7 610 0
14 618 0
21 626 0
28 634 0
35 642 0
42 650 0
49 658 0
1 -820 0
8 -821 0
15 -822 0
22 -823 0
29 -824 0
36 -825 0
43 -826 0
2 -827 0
9 -828 0
16 -829 0
23 -830 0
30 -831 0
37 -832 0
44 -833 0
3 -834 0
10 -835 0
17 -836 0
24 -837 0
31 -838 0
38 -839 0
45 -840 0
4 -841 0
11 -842 0
18 -843 0
25 -844 0
32 -845 0
39 -846 0
46 -847 0
5 -848 0
12 -849 0
19 -850 0
26 -851 0
33 -852 0
40 -853 0
47 -854 0
6 -855 0
13 -856 0
20 -857 0
27 -858 0
34 -859 0
41 -860 0
48 -861 0
7 -862 0
14 -863 0
21 -864 0
28 -865 0
35 -866 0
42 -867 0
49 -868 0
-449 -302 869 0
-449 -316 870 0
-449 -330 871 0
-449 -344 872 0
-449 -358 873 0
-449 -372 874 0
-449 -386 875 0
-457 -304 876 0
-457 -318 877 0
-457 -332 878 0
-457 -346 879 0
-457 -360 880 0
-457 -374 881 0
-457 -388 882 0
-465 -306 883 0
-465 -320 884 0
-465 -334 885 0
-465 -348 886 0
-465 -362 887 0
-465 -376 888 0
-465 -390 889 0
-473 -308 890 0
-473 -322 891 0
-473 -336 892 0
-473 -350 893 0
-473 -364 894 0
-473 -378 895 0
-473 -392 896 0
-481 -310 897 0
-481 -324 898 0
-481 -338 899 0
-481 -352 900 0
-481 -366 901 0
-481 -380 902 0
-481 -394 903 0
-489 -312 904 0
-489 -326 905 0
-489 -340 906 0
-489 -354 907 0
-489 -368 908 0
-489 -382 909 0
-489 -396 910 0
-497 -314 911 0
-497 -328 912 0
-497 -342 913 0
-497 -356 914 0
-497 -370 915 0
-497 -384 916 0
-497 -398 917 0
-869 449 0
-870 449 0
-871 449 0
-872 449 0
-873 449 0
-874 449 0
-875 449 0
-876 457 0
-877 457 0
-878 457 0
-879 457 0
-880 457 0
-881 457 0
-882 457 0
-883 465 0
-884 465 0
-885 465 0
-886 465 0
-887 465 0
-888 465 0
-889 465 0
-890 473 0
-891 473 0
-892 473 0
-893 473 0
-894 473 0
-895 473 0
-896 473 0
-897 481 0
-898 481 0
-899 481 0
-900 481 0
-901 481 0
-902 481 0
-903 481 0
-904 489 0
-905 489 0
-906 489 0
-907 489 0
-908 489 0
-909 489 0
-910 489 0
-911 497 0
-912 497 0
-913 497 0
-914 497 0
-915 497 0
-916 497 0
-917 497 0
-869 302 0
-870 316 0
-871 330 0
-872 344 0
-873 358 0
-874 372 0
-875 386 0
-876 304 0
-877 318 0
-878 332 0
-879 346 0
-880 360 0
-881 374 0
-882 388 0
-883 306 0
-884 320 0
-885 334 0
-886 348 0
-887 362 0
-888 376 0
-889 390 0
-890 308 0
-891 322 0
-892 336 0
-893 350 0
-894 364 0
-895 378 0
-896 392 0
-897 310 0
-898 324 0
-899 338 0
-900 352 0
-901 366 0
-902 380 0
-903 394 0
-904 312 0
-905 326 0
-906 340 0
-907 354 0
-908 368 0
-909 382 0
-910 396 0
-911 314 0
-912 328 0
-913 342 0
-914 356 0
-915 370 0
-916 384 0
-917 398 0
554 -449 869 -50 0
556 -457 870 -57 0
558 -465 871 -64 0
560 -473 872 -71 0
562 -481 873 -78 0
564 -489 874 -85 0
566 -497 875 -92 0
554 -449 876 -51 0
556 -457 877 -58 0
558 -465 878 -65 0
560 -473 879 -72 0
562 -481 880 -79 0
564 -489 881 -86 0
566 -497 882 -93 0
554 -449 883 -52 0
556 -457 884 -59 0
558 -465 885 -66 0
560 -473 886 -73 0
562 -481 887 -80 0
564 -489 888 -87 0
566 -497 889 -94 0
554 -449 890 -53 0
556 -457 891 -60 0
558 -465 892 -67 0
560 -473 893 -74 0
562 -481 894 -81 0
564 -489 895 -88 0
566 -497 896 -95 0
554 -449 897 -54 0
556 -457 898 -61 0
558 -465 899 -68 0
560 -473 900 -75 0
562 -481 901 -82 0
564 -489 902 -89 0
566 -497 903 -96 0
554 -449 904 -55 0
556 -457 905 -62 0
558 -465 906 -69 0
560 -473 907 -76 0
562 -481 908 -83 0
564 -489 909 -90 0
566 -497 910 -97 0
554 -449 911 -56 0
556 -457 912 -63 0
558 -465 913 -70 0
560 -473 914 -77 0
562 -481 915 -84 0
564 -489 916 -91 0
566 -497 917 -98 0
50 -554 0
57 -556 0
64 -558 0
71 -560 0
78 -562 0
85 -564 0
92 -566 0
51 -554 0
58 -556 0
65 -558 0
72 -560 0
79 -562 0
86 -564 0
93 -566 0
52 -554 0
59 -556 0
66 -558 0
73 -560 0
80 -562 0
87 -564 0
94 -566 0
53 -554 0
60 -556 0
67 -558 0
74 -560 0
81 -562 0
88 -564 0
95 -566 0
54 -554 0
61 -556 0
68 -558 0
75 -560 0
82 -562 0
89 -564 0
96 -566 0
55 -554 0
62 -556 0
69 -558 0
76 -560 0
83 -562 0
90 -564 0
97 -566 0
56 -554 0
63 -556 0
70 -558 0
77 -560 0
84 -562 0
91 -564 0
98 -566 0
50 449 0
57 457 0
64 465 0
71 473 0
78 481 0
85 489 0
92 497 0
51 449 0
58 457 0
65 465 0
72 473 0
79 481 0
86 489 0
93 497 0
52 449 0
59 457 0
66 465 0
73 473 0
80 481 0
87 489 0
94 497 0
53 449 0
60 457 0
67 465 0
74 473 0
81 481 0
88 489 0
95 497 0
54 449 0
61 457 0
68 465 0
75 473 0
82 481 0
89 489 0
96 497 0
55 449 0
62 457 0
69 465 0
76 473 0
83 481 0
90 489 0
97 497 0
56 449 0
63 457 0
70 465 0
77 473 0
84 481 0
91 489 0
98 497 0
50 -869 0
57 -870 0
64 -871 0
71 -872 0
78 -873 0
85 -874 0
92 -875 0
51 -876 0
58 -877 0
65 -878 0
72 -879 0
79 -880 0
86 -881 0
93 -882 0
52 -883 0
59 -884 0
66 -885 0
73 -886 0
80 -887 0
87 -888 0
94 -889 0
53 -890 0
60 -891 0
67 -892 0
74 -893 0
81 -894 0
88 -895 0
95 -896 0
54 -897 0
61 -898 0
68 -899 0
75 -900 0
82 -901 0
89 -902 0
96 -903 0
55 -904 0
62 -905 0
69 -906 0
76 -907 0
83 -908 0
90 -909 0
97 -910 0
56 -911 0
63 -912 0
70 -913 0
77 -914 0
84 -915 0
91 -916 0
98 -917 0
118 0
112 0
109 0
481 0
-642 0
-489 0
-634 0
473 0
-497 0
650 0
103 0
658 0
100 0
106 0
-618 0
457 0
465 0
115 0
-610 0
449 0
-626 0
-715 918 0
-918 919 0
-717 -918 0
-717 919 0
-919 920 0
-719 -919 0
-719 920 0
-920 921 0
-721 -920 0
-721 921 0
-921 922 0
-723 -921 0
-723 922 0
-922 923 0
-725 -922 0
-725 923 0
-727 -923 0
-554 924 0
-924 925 0
-556 -924 0
-556 925 0
-925 926 0
-558 -925 0
-558 926 0
-926 927 0
-560 -926 0
-560 927 0
-927 928 0
-562 -927 0
-562 928 0
-928 929 0
-564 -928 0
-564 929 0
-566 -929 0
99 0
120 102 0
-120 -102 0
-120 -136 134 0
-120 -150 148 0
-120 -164 162 0
-120 -178 176 0
-120 -192 190 0
134 105 0
-134 -105 0
-134 -124 120 0
-134 -152 148 0
-134 -166 162 0
-134 -180 176 0
-134 -194 190 0
148 108 0
-148 -108 0
-148 -126 120 0
-148 -140 134 0
-148 -168 162 0
-148 -182 176 0
-148 -196 190 0
162 111 0
-162 -111 0
-162 -128 120 0
-162 -142 134 0
-162 -156 148 0
-162 -184 176 0
-162 -198 190 0
176 114 0
-176 -114 0
-176 -130 120 0
-176 -144 134 0
-176 -158 148 0
-176 -172 162 0
-176 -200 190 0
190 117 0
-190 -117 0
-190 -132 120 0
-190 -146 134 0
-190 -160 148 0
-190 -174 162 0
-190 -188 176 0
122 0
102 120 0
-102 -120 0
-102 -134 136 0
-102 -148 150 0
-102 -162 164 0
-102 -176 178 0
-102 -190 192 0
136 124 0
-136 -124 0
-136 -105 102 0
-136 -152 150 0
-136 -166 164 0
-136 -180 178 0
-136 -194 192 0
150 126 0
-150 -126 0
-150 -108 102 0
-150 -140 136 0
-150 -168 164 0
-150 -182 178 0
-150 -196 192 0
164 128 0
-164 -128 0
-164 -111 102 0
-164 -142 136 0
-164 -156 150 0
-164 -184 178 0
-164 -198 192 0
178 130 0
-178 -130 0
-178 -114 102 0
-178 -144 136 0
-178 -158 150 0
-178 -172 164 0
-178 -200 192 0
192 132 0
-192 -132 0
-192 -117 102 0
-192 -146 136 0
-192 -160 150 0
-192 -174 164 0
-192 -188 178 0
138 0
105 134 0
-105 -134 0
-105 -120 124 0
-105 -148 152 0
-105 -162 166 0
-105 -176 180 0
-105 -190 194 0
124 136 0
-124 -136 0
-124 -102 105 0
-124 -150 152 0
-124 -164 166 0
-124 -178 180 0
-124 -192 194 0
152 140 0
-152 -140 0
-152 -108 105 0
-152 -126 124 0
-152 -168 166 0
-152 -182 180 0
-152 -196 194 0
166 142 0
-166 -142 0
-166 -111 105 0
-166 -128 124 0
-166 -156 152 0
-166 -184 180 0
-166 -198 194 0
180 144 0
-180 -144 0
-180 -114 105 0
-180 -130 124 0
-180 -158 152 0
-180 -172 166 0
-180 -200 194 0
194 146 0
-194 -146 0
-194 -117 105 0
-194 -132 124 0
-194 -160 152 0
-194 -174 166 0
-194 -188 180 0
154 0
108 148 0
-108 -148 0
-108 -120 126 0
-108 -134 140 0
-108 -162 168 0
-108 -176 182 0
-108 -190 196 0
126 150 0
-126 -150 0
-126 -102 108 0
-126 -136 140 0
-126 -164 168 0
-126 -178 182 0
-126 -192 196 0
140 152 0
-140 -152 0
-140 -105 108 0
-140 -124 126 0
-140 -166 168 0
-140 -180 182 0
-140 -194 196 0
168 156 0
-168 -156 0
-168 -111 108 0
-168 -128 126 0
-168 -142 140 0
-168 -184 182 0
-168 -198 196 0
182 158 0
-182 -158 0
-182 -114 108 0
-182 -130 126 0
-182 -144 140 0
-182 -172 168 0
-182 -200 196 0
196 160 0
-196 -160 0
-196 -117 108 0
-196 -132 126 0
-196 -146 140 0
-196 -174 168 0
-196 -188 182 0
170 0
111 162 0
-111 -162 0
-111 -120 128 0
-111 -134 142 0
-111 -148 156 0
-111 -176 184 0
-111 -190 198 0
128 164 0
-128 -164 0
-128 -102 111 0
-128 -136 142 0
-128 -150 156 0
-128 -178 184 0
-128 -192 198 0
142 166 0
-142 -166 0
-142 -105 111 0
-142 -124 128 0
-142 -152 156 0
-142 -180 184 0
-142 -194 198 0
156 168 0
-156 -168 0
-156 -108 111 0
-156 -126 128 0
-156 -140 142 0
-156 -182 184 0
-156 -196 198 0
184 172 0
-184 -172 0
-184 -114 111 0
-184 -130 128 0
-184 -144 142 0
-184 -158 156 0
-184 -200 198 0
198 174 0
-198 -174 0
-198 -117 111 0
-198 -132 128 0
-198 -146 142 0
-198 -160 156 0
-198 -188 184 0
186 0
114 176 0
-114 -176 0
-114 -120 130 0
-114 -134 144 0
-114 -148 158 0
-114 -162 172 0
-114 -190 200 0
130 178 0
-130 -178 0
-130 -102 114 0
-130 -136 144 0
-130 -150 158 0
-130 -164 172 0
-130 -192 200 0
144 180 0
-144 -180 0
-144 -105 114 0
-144 -124 130 0
-144 -152 158 0
-144 -166 172 0
-144 -194 200 0
158 182 0
-158 -182 0
-158 -108 114 0
-158 -126 130 0
-158 -140 144 0
-158 -168 172 0
-158 -196 200 0
172 184 0
-172 -184 0
-172 -111 114 0
-172 -128 130 0
-172 -142 144 0
-172 -156 158 0
-172 -198 200 0
200 188 0
-200 -188 0
-200 -117 114 0
-200 -132 130 0
-200 -146 144 0
-200 -160 158 0
-200 -174 172 0
202 0
117 190 0
-117 -190 0
-117 -120 132 0
-117 -134 146 0
-117 -148 160 0
-117 -162 174 0
-117 -176 188 0
132 192 0
-132 -192 0
-132 -102 117 0
-132 -136 146 0
-132 -150 160 0
-132 -164 174 0
-132 -178 188 0
146 194 0
-146 -194 0
-146 -105 117 0
-146 -124 132 0
-146 -152 160 0
-146 -166 174 0
-146 -180 188 0
160 196 0
-160 -196 0
-160 -108 117 0
-160 -126 132 0
-160 -140 146 0
-160 -168 174 0
-160 -182 188 0
174 198 0
-174 -198 0
-174 -111 117 0
-174 -128 132 0
-174 -142 146 0
-174 -156 160 0
-174 -184 188 0
188 200 0
-188 -200 0
-188 -114 117 0
-188 -130 132 0
-188 -144 146 0
-188 -158 160 0
-188 -172 174 0
-204 0
-218 120 0
-930 134 0
-930 124 0
-134 -124 930 0
-931 148 0
-931 126 0
-148 -126 931 0
-932 162 0
-932 128 0
-162 -128 932 0
-933 176 0
-933 130 0
-176 -130 933 0
-934 190 0
-934 132 0
-190 -132 934 0
-218 -930 0
-218 -931 0
-218 -932 0
-218 -933 0
-218 -934 0
-120 218 930 931 932 933 934 0
-232 134 0
-935 120 0
-935 136 0
-120 -136 935 0
-936 148 0
-936 140 0
-148 -140 936 0
-937 162 0
-937 142 0
-162 -142 937 0
-938 176 0
-938 144 0
-176 -144 938 0
-939 190 0
-939 146 0
-190 -146 939 0
-232 -935 0
-232 -936 0
-232 -937 0
-232 -938 0
-232 -939 0
-134 232 935 936 937 938 939 0
-246 148 0
-940 120 0
-940 150 0
-120 -150 940 0
-941 134 0
-941 152 0
-134 -152 941 0
-942 162 0
-942 156 0
-162 -156 942 0
-943 176 0
-943 158 0
-176 -158 943 0
-944 190 0
-944 160 0
-190 -160 944 0
-246 -940 0
-246 -941 0
-246 -942 0
-246 -943 0
-246 -944 0
-148 246 940 941 942 943 944 0
-260 162 0
-945 120 0
-945 164 0
-120 -164 945 0
-946 134 0
-946 166 0
-134 -166 946 0
-947 148 0
-947 168 0
-148 -168 947 0
-948 176 0
-948 172 0
-176 -172 948 0
-949 190 0
-949 174 0
-190 -174 949 0
-260 -945 0
-260 -946 0
-260 -947 0
-260 -948 0
-260 -949 0
-162 260 945 946 947 948 949 0
-274 176 0
-950 120 0
-950 178 0
-120 -178 950 0
-951 134 0
-951 180 0
-134 -180 951 0
-952 148 0
-952 182 0
-148 -182 952 0
-953 162 0
-953 184 0
-162 -184 953 0
-954 190 0
-954 188 0
-190 -188 954 0
-274 -950 0
-274 -951 0
-274 -952 0
-274 -953 0
-274 -954 0
-176 274 950 951 952 953 954 0
-288 190 0
-955 120 0
-955 192 0
-120 -192 955 0
-956 134 0
-956 194 0
-134 -194 956 0
-957 148 0
-957 196 0
-148 -196 957 0
-958 162 0
-958 198 0
-162 -198 958 0
-959 176 0
-959 200 0
-176 -200 959 0
-288 -955 0
-288 -956 0
-288 -957 0
-288 -958 0
-288 -959 0
-190 288 955 956 957 958 959 0
-206 102 0
-960 136 0
-960 105 0
-136 -105 960 0
-961 150 0
-961 108 0
-150 -108 961 0
-962 164 0
-962 111 0
-164 -111 962 0
-963 178 0
-963 114 0
-178 -114 963 0
-964 192 0
-964 117 0
-192 -117 964 0
-206 -960 0
-206 -961 0
-206 -962 0
-206 -963 0
-206 -964 0
-102 206 960 961 962 963 964 0
-220 0
-234 136 0
-965 102 0
-965 134 0
-102 -134 965 0
-966 150 0
-966 140 0
-150 -140 966 0
-967 164 0
-967 142 0
-164 -142 967 0
-968 178 0
-968 144 0
-178 -144 968 0
-969 192 0
-969 146 0
-192 -146 969 0
-234 -965 0
-234 -966 0
-234 -967 0
-234 -968 0
-234 -969 0
-136 234 965 966 967 968 969 0
-248 150 0
-970 102 0
-970 148 0
-102 -148 970 0
-971 136 0
-971 152 0
-136 -152 971 0
-972 164 0
-972 156 0
-164 -156 972 0
-973 178 0
-973 158 0
-178 -158 973 0
-974 192 0
-974 160 0
-192 -160 974 0
-248 -970 0
-248 -971 0
-248 -972 0
-248 -973 0
-248 -974 0
-150 248 970 971 972 973 974 0
-262 164 0
-975 102 0
-975 162 0
-102 -162 975 0
-976 136 0
-976 166 0
-136 -166 976 0
-977 150 0
-977 168 0
-150 -168 977 0
-978 178 0
-978 172 0
-178 -172 978 0
-979 192 0
-979 174 0
-192 -174 979 0
-262 -975 0
-262 -976 0
-262 -977 0
-262 -978 0
-262 -979 0
-164 262 975 976 977 978 979 0
-276 178 0
-980 102 0
-980 176 0
-102 -176 980 0
-981 136 0
-981 180 0
-136 -180 981 0
-982 150 0
-982 182 0
-150 -182 982 0
-983 164 0
-983 184 0
-164 -184 983 0
-984 192 0
-984 188 0
-192 -188 984 0
-276 -980 0
-276 -981 0
-276 -982 0
-276 -983 0
-276 -984 0
-178 276 980 981 982 983 984 0
-290 192 0
-985 102 0
-985 190 0
-102 -190 985 0
-986 136 0
-986 194 0
-136 -194 986 0
-987 150 0
-987 196 0
-150 -196 987 0
-988 164 0
-988 198 0
-164 -198 988 0
-989 178 0
-989 200 0
-178 -200 989 0
-290 -985 0
-290 -986 0
-290 -987 0
-290 -988 0
-290 -989 0
-192 290 985 986 987 988 989 0
-208 105 0
-990 124 0
-990 102 0
-124 -102 990 0
-991 152 0
-991 108 0
-152 -108 991 0
-992 166 0
-992 111 0
-166 -111 992 0
-993 180 0
-993 114 0
-180 -114 993 0
-994 194 0
-994 117 0
-194 -117 994 0
-208 -990 0
-208 -991 0
-208 -992 0
-208 -993 0
-208 -994 0
-105 208 990 991 992 993 994 0
-222 124 0
-995 105 0
-995 120 0
-105 -120 995 0
-996 152 0
-996 126 0
-152 -126 996 0
-997 166 0
-997 128 0
-166 -128 997 0
-998 180 0
-998 130 0
-180 -130 998 0
-999 194 0
-999 132 0
-194 -132 999 0
-222 -995 0
-222 -996 0
-222 -997 0
-222 -998 0
-222 -999 0
-124 222 995 996 997 998 999 0
-236 0
-250 152 0
-1000 105 0
-1000 148 0
-105 -148 1000 0
-1001 124 0
-1001 150 0
-124 -150 1001 0
-1002 166 0
-1002 156 0
-166 -156 1002 0
-1003 180 0
-1003 158 0
-180 -158 1003 0
-1004 194 0
-1004 160 0
-194 -160 1004 0
-250 -1000 0
-250 -1001 0
-250 -1002 0
-250 -1003 0
-250 -1004 0
-152 250 1000 1001 1002 1003 1004 0
-264 166 0
-1005 105 0
-1005 162 0
-105 -162 1005 0
-1006 124 0
-1006 164 0
-124 -164 1006 0
-1007 152 0
-1007 168 0
-152 -168 1007 0
-1008 180 0
-1008 172 0
-180 -172 1008 0
-1009 194 0
-1009 174 0
-194 -174 1009 0
-264 -1005 0
-264 -1006 0
-264 -1007 0
-264 -1008 0
-264 -1009 0
-166 264 1005 1006 1007 1008 1009 0
-278 180 0
-1010 105 0
-1010 176 0
-105 -176 1010 0
-1011 124 0
-1011 178 0
-124 -178 1011 0
-1012 152 0
-1012 182 0
-152 -182 1012 0
-1013 166 0
-1013 184 0
-166 -184 1013 0
-1014 194 0
-1014 188 0
-194 -188 1014 0
-278 -1010 0
-278 -1011 0
-278 -1012 0
-278 -1013 0
-278 -1014 0
-180 278 1010 1011 1012 1013 1014 0
-292 194 0
-1015 105 0
-1015 190 0
-105 -190 1015 0
-1016 124 0
-1016 192 0
-124 -192 1016 0
-1017 152 0
-1017 196 0
-152 -196 1017 0
-1018 166 0
-1018 198 0
-166 -198 1018 0
-1019 180 0
-1019 200 0
-180 -200 1019 0
-292 -1015 0
-292 -1016 0
-292 -1017 0
-292 -1018 0
-292 -1019 0
-194 292 1015 1016 1017 1018 1019 0
-210 108 0
-1020 126 0
-1020 102 0
-126 -102 1020 0
-1021 140 0
-1021 105 0
-140 -105 1021 0
-1022 168 0
-1022 111 0
-168 -111 1022 0
-1023 182 0
-1023 114 0
-182 -114 1023 0
-1024 196 0
-1024 117 0
-196 -117 1024 0
-210 -1020 0
-210 -1021 0
-210 -1022 0
-210 -1023 0
-210 -1024 0
-108 210 1020 1021 1022 1023 1024 0
-224 126 0
-1025 108 0
-1025 120 0
-108 -120 1025 0
-1026 140 0
-1026 124 0
-140 -124 1026 0
-1027 168 0
-1027 128 0
-168 -128 1027 0
-1028 182 0
-1028 130 0
-182 -130 1028 0
-1029 196 0
-1029 132 0
-196 -132 1029 0
-224 -1025 0
-224 -1026 0
-224 -1027 0
-224 -1028 0
-224 -1029 0
-126 224 1025 1026 1027 1028 1029 0
-238 140 0
-1030 108 0
-1030 134 0
-108 -134 1030 0
-1031 126 0
-1031 136 0
-126 -136 1031 0
-1032 168 0
-1032 142 0
-168 -142 1032 0
-1033 182 0
-1033 144 0
-182 -144 1033 0
-1034 196 0
-1034 146 0
-196 -146 1034 0
-238 -1030 0
-238 -1031 0
-238 -1032 0
-238 -1033 0
-238 -1034 0
-140 238 1030 1031 1032 1033 1034 0
-252 0
-266 168 0
-1035 108 0
-1035 162 0
-108 -162 1035 0
-1036 126 0
-1036 164 0
-126 -164 1036 0
-1037 140 0
-1037 166 0
-140 -166 1037 0
-1038 182 0
-1038 172 0
-182 -172 1038 0
-1039 196 0
-1039 174 0
-196 -174 1039 0
-266 -1035 0
-266 -1036 0
-266 -1037 0
-266 -1038 0
-266 -1039 0
-168 266 1035 1036 1037 1038 1039 0
-280 182 0
-1040 108 0
-1040 176 0
-108 -176 1040 0
-1041 126 0
-1041 178 0
-126 -178 1041 0
-1042 140 0
-1042 180 0
-140 -180 1042 0
-1043 168 0
-1043 184 0
-168 -184 1043 0
-1044 196 0
-1044 188 0
-196 -188 1044 0
-280 -1040 0
-280 -1041 0
-280 -1042 0
-280 -1043 0
-280 -1044 0
-182 280 1040 1041 1042 1043 1044 0
-294 196 0
-1045 108 0
-1045 190 0
-108 -190 1045 0
-1046 126 0
-1046 192 0
-126 -192 1046 0
-1047 140 0
-1047 194 0
-140 -194 1047 0
-1048 168 0
-1048 198 0
-168 -198 1048 0
-1049 182 0
-1049 200 0
-182 -200 1049 0
-294 -1045 0
-294 -1046 0
-294 -1047 0
-294 -1048 0
-294 -1049 0
-196 294 1045 1046 1047 1048 1049 0
-212 111 0
-1050 128 0
-1050 102 0
-128 -102 1050 0
-1051 142 0
-1051 105 0
-142 -105 1051 0
-1052 156 0
-1052 108 0
-156 -108 1052 0
-1053 184 0
-1053 114 0
-184 -114 1053 0
-1054 198 0
-1054 117 0
-198 -117 1054 0
-212 -1050 0
-212 -1051 0
-212 -1052 0
-212 -1053 0
-212 -1054 0
-111 212 1050 1051 1052 1053 1054 0
-226 128 0
-1055 111 0
-1055 120 0
-111 -120 1055 0
-1056 142 0
-1056 124 0
-142 -124 1056 0
-1057 156 0
-1057 126 0
-156 -126 1057 0
-1058 184 0
-1058 130 0
-184 -130 1058 0
-1059 198 0
-1059 132 0
-198 -132 1059 0
-226 -1055 0
-226 -1056 0
-226 -1057 0
-226 -1058 0
-226 -1059 0
-128 226 1055 1056 1057 1058 1059 0
-240 142 0
-1060 111 0
-1060 134 0
-111 -134 1060 0
-1061 128 0
-1061 136 0
-128 -136 1061 0
-1062 156 0
-1062 140 0
-156 -140 1062 0
-1063 184 0
-1063 144 0
-184 -144 1063 0
-1064 198 0
-1064 146 0
-198 -146 1064 0
-240 -1060 0
-240 -1061 0
-240 -1062 0
-240 -1063 0
-240 -1064 0
-142 240 1060 1061 1062 1063 1064 0
-254 156 0
-1065 111 0
-1065 148 0
-111 -148 1065 0
-1066 128 0
-1066 150 0
-128 -150 1066 0
-1067 142 0
-1067 152 0
-142 -152 1067 0
-1068 184 0
-1068 158 0
-184 -158 1068 0
-1069 198 0
-1069 160 0
-198 -160 1069 0
-254 -1065 0
-254 -1066 0
-254 -1067 0
-254 -1068 0
-254 -1069 0
-156 254 1065 1066 1067 1068 1069 0
-268 0
-282 184 0
-1070 111 0
-1070 176 0
-111 -176 1070 0
-1071 128 0
-1071 178 0
-128 -178 1071 0
-1072 142 0
-1072 180 0
-142 -180 1072 0
-1073 156 0
-1073 182 0
-156 -182 1073 0
-1074 198 0
-1074 188 0
-198 -188 1074 0
-282 -1070 0
-282 -1071 0
-282 -1072 0
-282 -1073 0
-282 -1074 0
-184 282 1070 1071 1072 1073 1074 0
-296 198 0
-1075 111 0
-1075 190 0
-111 -190 1075 0
-1076 128 0
-1076 192 0
-128 -192 1076 0
-1077 142 0
-1077 194 0
-142 -194 1077 0
-1078 156 0
-1078 196 0
-156 -196 1078 0
-1079 184 0
-1079 200 0
-184 -200 1079 0
-296 -1075 0
-296 -1076 0
-296 -1077 0
-296 -1078 0
-296 -1079 0
-198 296 1075 1076 1077 1078 1079 0
-214 114 0
-1080 130 0
-1080 102 0
-130 -102 1080 0
-1081 144 0
-1081 105 0
-144 -105 1081 0
-1082 158 0
-1082 108 0
-158 -108 1082 0
-1083 172 0
-1083 111 0
-172 -111 1083 0
-1084 200 0
-1084 117 0
-200 -117 1084 0
-214 -1080 0
-214 -1081 0
-214 -1082 0
-214 -1083 0
-214 -1084 0
-114 214 1080 1081 1082 1083 1084 0
-228 130 0
-1085 114 0
-1085 120 0
-114 -120 1085 0
-1086 144 0
-1086 124 0
-144 -124 1086 0
-1087 158 0
-1087 126 0
-158 -126 1087 0
-1088 172 0
-1088 128 0
-172 -128 1088 0
-1089 200 0
-1089 132 0
-200 -132 1089 0
-228 -1085 0
-228 -1086 0
-228 -1087 0
-228 -1088 0
-228 -1089 0
-130 228 1085 1086 1087 1088 1089 0
-242 144 0
-1090 114 0
-1090 134 0
-114 -134 1090 0
-1091 130 0
-1091 136 0
-130 -136 1091 0
-1092 158 0
-1092 140 0
-158 -140 1092 0
-1093 172 0
-1093 142 0
-172 -142 1093 0
-1094 200 0
-1094 146 0
-200 -146 1094 0
-242 -1090 0
-242 -1091 0
-242 -1092 0
-242 -1093 0
-242 -1094 0
-144 242 1090 1091 1092 1093 1094 0
-256 158 0
-1095 114 0
-1095 148 0
-114 -148 1095 0
-1096 130 0
-1096 150 0
-130 -150 1096 0
-1097 144 0
-1097 152 0
-144 -152 1097 0
-1098 172 0
-1098 156 0
-172 -156 1098 0
-1099 200 0
-1099 160 0
-200 -160 1099 0
-256 -1095 0
-256 -1096 0
-256 -1097 0
-256 -1098 0
-256 -1099 0
-158 256 1095 1096 1097 1098 1099 0
-270 172 0
-1100 114 0
-1100 162 0
-114 -162 1100 0
-1101 130 0
-1101 164 0
-130 -164 1101 0
-1102 144 0
-1102 166 0
-144 -166 1102 0
-1103 158 0
-1103 168 0
-158 -168 1103 0
-1104 200 0
-1104 174 0
-200 -174 1104 0
-270 -1100 0
-270 -1101 0
-270 -1102 0
-270 -1103 0
-270 -1104 0
-172 270 1100 1101 1102 1103 1104 0
-284 0
-298 200 0
-1105 114 0
-1105 190 0
-114 -190 1105 0
-1106 130 0
-1106 192 0
-130 -192 1106 0
-1107 144 0
-1107 194 0
-144 -194 1107 0
-1108 158 0
-1108 196 0
-158 -196 1108 0
-1109 172 0
-1109 198 0
-172 -198 1109 0
-298 -1105 0
-298 -1106 0
-298 -1107 0
-298 -1108 0
-298 -1109 0
-200 298 1105 1106 1107 1108 1109 0
-216 117 0
-1110 132 0
-1110 102 0
-132 -102 1110 0
-1111 146 0
-1111 105 0
-146 -105 1111 0
-1112 160 0
-1112 108 0
-160 -108 1112 0
-1113 174 0
-1113 111 0
-174 -111 1113 0
-1114 188 0
-1114 114 0
-188 -114 1114 0
-216 -1110 0
-216 -1111 0
-216 -1112 0
-216 -1113 0
-216 -1114 0
-117 216 1110 1111 1112 1113 1114 0
-230 132 0
-1115 117 0
-1115 120 0
-117 -120 1115 0
-1116 146 0
-1116 124 0
-146 -124 1116 0
-1117 160 0
-1117 126 0
-160 -126 1117 0
-1118 174 0
-1118 128 0
-174 -128 1118 0
-1119 188 0
-1119 130 0
-188 -130 1119 0
-230 -1115 0
-230 -1116 0
-230 -1117 0
-230 -1118 0
-230 -1119 0
-132 230 1115 1116 1117 1118 1119 0
-244 146 0
-1120 117 0
-1120 134 0
-117 -134 1120 0
-1121 132 0
-1121 136 0
-132 -136 1121 0
-1122 160 0
-1122 140 0
-160 -140 1122 0
-1123 174 0
-1123 142 0
-174 -142 1123 0
-1124 188 0
-1124 144 0
-188 -144 1124 0
-244 -1120 0
-244 -1121 0
-244 -1122 0
-244 -1123 0
-244 -1124 0
-146 244 1120 1121 1122 1123 1124 0
-258 160 0
-1125 117 0
-1125 148 0
-117 -148 1125 0
-1126 132 0
-1126 150 0
-132 -150 1126 0
-1127 146 0
-1127 152 0
-146 -152 1127 0
-1128 174 0
-1128 156 0
-174 -156 1128 0
-1129 188 0
-1129 158 0
-188 -158 1129 0
-258 -1125 0
-258 -1126 0
-258 -1127 0
-258 -1128 0
-258 -1129 0
-160 258 1125 1126 1127 1128 1129 0
-272 174 0
-1130 117 0
-1130 162 0
-117 -162 1130 0
-1131 132 0
-1131 164 0
-132 -164 1131 0
-1132 146 0
-1132 166 0
-146 -166 1132 0
-1133 160 0
-1133 168 0
-160 -168 1133 0
-1134 188 0
-1134 172 0
-188 -172 1134 0
-272 -1130 0
-272 -1131 0
-272 -1132 0
-272 -1133 0
-272 -1134 0
-174 272 1130 1131 1132 1133 1134 0
-286 188 0
-1135 117 0
-1135 176 0
-117 -176 1135 0
-1136 132 0
-1136 178 0
-132 -178 1136 0
-1137 146 0
-1137 180 0
-146 -180 1137 0
-1138 160 0
-1138 182 0
-160 -182 1138 0
-1139 174 0
-1139 184 0
-174 -184 1139 0
-286 -1135 0
-286 -1136 0
-286 -1137 0
-286 -1138 0
-286 -1139 0
-188 286 1135 1136 1137 1138 1139 0
-300 0
