p cnf 1120 5090
1 -2 0
3 -4 0
5 -6 0
7 -8 0
9 -10 0
11 -12 0
13 -14 0
15 -16 0
17 -18 0
19 -20 0
21 -22 0
23 -24 0
25 -26 0
27 -28 0
29 -30 0
31 -32 0
33 -34 0
35 -36 0
37 -38 0
39 -40 0
41 -42 0
43 -44 0
45 -46 0
47 -48 0
49 -50 0
51 -52 0
53 -54 0
55 -56 0
57 -58 0
59 -60 0
61 -62 0
63 -64 0
65 -66 0
67 -68 0
69 -70 0
71 -72 0
73 -74 0
75 -76 0
77 -78 0
79 -80 0
81 -82 0
83 -84 0
85 -86 0
87 -88 0
89 -90 0
91 -92 0
93 -94 0
95 -96 0
97 -98 0
99 -100 0
101 -102 0
103 -104 0
105 -106 0
107 -108 0
109 -110 0
111 -112 0
113 -114 0
115 -116 0
117 -118 0
119 -120 0
121 -122 0
123 -124 0
125 -126 0
127 -128 0
129 -130 0
131 -132 0
133 -134 0
135 -136 0
137 -138 0
139 -140 0
141 -142 0
143 -144 0
145 -146 0
147 -148 0
149 -150 0
151 -152 0
153 -154 0
155 -156 0
157 -158 0
159 -160 0
161 -162 0
163 -164 0
165 -166 0
167 -168 0
169 -170 0
171 -172 0
173 -174 0
175 -176 0
177 -178 0
179 -180 0
181 -182 0
183 -184 0
185 -186 0
187 -188 0
189 -190 0
191 -192 0
193 -194 0
195 -196 0
197 -198 0
199 -200 0
2 -201 -1 0
4 -202 -3 0
6 -203 -5 0
8 -204 -7 0
10 -205 -9 0
12 -206 -11 0
14 -207 -13 0
16 -208 -15 0
18 -209 -17 0
20 -210 -19 0
22 -211 -21 0
24 -212 -23 0
26 -213 -25 0
28 -214 -27 0
30 -215 -29 0
32 -216 -31 0
34 -217 -33 0
36 -218 -35 0
38 -219 -37 0
40 -220 -39 0
42 -221 -41 0
44 -222 -43 0
46 -223 -45 0
48 -224 -47 0
50 -225 -49 0
52 -226 -51 0
54 -227 -53 0
56 -228 -55 0
58 -229 -57 0
60 -230 -59 0
62 -231 -61 0
64 -232 -63 0
66 -233 -65 0
68 -234 -67 0
70 -235 -69 0
72 -236 -71 0
74 -237 -73 0
76 -238 -75 0
78 -239 -77 0
80 -240 -79 0
82 -241 -81 0
84 -242 -83 0
86 -243 -85 0
88 -244 -87 0
90 -245 -89 0
92 -246 -91 0
94 -247 -93 0
96 -248 -95 0
98 -249 -97 0
100 -250 -99 0
102 -251 -101 0
104 -252 -103 0
106 -253 -105 0
108 -254 -107 0
110 -255 -109 0
112 -256 -111 0
114 -257 -113 0
116 -258 -115 0
118 -259 -117 0
120 -260 -119 0
122 -261 -121 0
124 -262 -123 0
126 -263 -125 0
128 -264 -127 0
130 -265 -129 0
132 -266 -131 0
134 -267 -133 0
136 -268 -135 0
138 -269 -137 0
140 -270 -139 0
142 -271 -141 0
144 -272 -143 0
146 -273 -145 0
148 -274 -147 0
150 -275 -149 0
152 -276 -151 0
154 -277 -153 0
156 -278 -155 0
158 -279 -157 0
160 -280 -159 0
162 -281 -161 0
164 -282 -163 0
166 -283 -165 0
168 -284 -167 0
170 -285 -169 0
172 -286 -171 0
174 -287 -173 0
176 -288 -175 0
178 -289 -177 0
180 -290 -179 0
182 -291 -181 0
184 -292 -183 0
186 -293 -185 0
188 -294 -187 0
190 -295 -189 0
192 -296 -191 0
194 -297 -193 0
196 -298 -195 0
198 -299 -197 0
200 -300 -199 0
201 0
211 202 0
-211 -202 0
-211 -222 221 0
-211 -232 231 0
-211 -242 241 0
-211 -252 251 0
-211 -262 261 0
-211 -272 271 0
-211 -282 281 0
-211 -292 291 0
221 203 0
-221 -203 0
-221 -213 211 0
-221 -233 231 0
-221 -243 241 0
-221 -253 251 0
-221 -263 261 0
-221 -273 271 0
-221 -283 281 0
-221 -293 291 0
231 204 0
-231 -204 0
-231 -214 211 0
-231 -224 221 0
-231 -244 241 0
-231 -254 251 0
-231 -264 261 0
-231 -274 271 0
-231 -284 281 0
-231 -294 291 0
241 205 0
-241 -205 0
-241 -215 211 0
-241 -225 221 0
-241 -235 231 0
-241 -255 251 0
-241 -265 261 0
-241 -275 271 0
-241 -285 281 0
-241 -295 291 0
251 206 0
-251 -206 0
-251 -216 211 0
-251 -226 221 0
-251 -236 231 0
-251 -246 241 0
-251 -266 261 0
-251 -276 271 0
-251 -286 281 0
-251 -296 291 0
261 207 0
-261 -207 0
-261 -217 211 0
-261 -227 221 0
-261 -237 231 0
-261 -247 241 0
-261 -257 251 0
-261 -277 271 0
-261 -287 281 0
-261 -297 291 0
271 208 0
-271 -208 0
-271 -218 211 0
-271 -228 221 0
-271 -238 231 0
-271 -248 241 0
-271 -258 251 0
-271 -268 261 0
-271 -288 281 0
-271 -298 291 0
281 209 0
-281 -209 0
-281 -219 211 0
-281 -229 221 0
-281 -239 231 0
-281 -249 241 0
-281 -259 251 0
-281 -269 261 0
-281 -279 271 0
-281 -299 291 0
291 210 0
-291 -210 0
-291 -220 211 0
-291 -230 221 0
-291 -240 231 0
-291 -250 241 0
-291 -260 251 0
-291 -270 261 0
-291 -280 271 0
-291 -290 281 0
212 0
202 211 0
-202 -211 0
-202 -221 222 0
-202 -231 232 0
-202 -241 242 0
-202 -251 252 0
-202 -261 262 0
-202 -271 272 0
-202 -281 282 0
-202 -291 292 0
222 213 0
-222 -213 0
-222 -203 202 0
-222 -233 232 0
-222 -243 242 0
-222 -253 252 0
-222 -263 262 0
-222 -273 272 0
-222 -283 282 0
-222 -293 292 0
232 214 0
-232 -214 0
-232 -204 202 0
-232 -224 222 0
-232 -244 242 0
-232 -254 252 0
-232 -264 262 0
-232 -274 272 0
-232 -284 282 0
-232 -294 292 0
242 215 0
-242 -215 0
-242 -205 202 0
-242 -225 222 0
-242 -235 232 0
-242 -255 252 0
-242 -265 262 0
-242 -275 272 0
-242 -285 282 0
-242 -295 292 0
252 216 0
-252 -216 0
-252 -206 202 0
-252 -226 222 0
-252 -236 232 0
-252 -246 242 0
-252 -266 262 0
-252 -276 272 0
-252 -286 282 0
-252 -296 292 0
262 217 0
-262 -217 0
-262 -207 202 0
-262 -227 222 0
-262 -237 232 0
-262 -247 242 0
-262 -257 252 0
-262 -277 272 0
-262 -287 282 0
-262 -297 292 0
272 218 0
-272 -218 0
-272 -208 202 0
-272 -228 222 0
-272 -238 232 0
-272 -248 242 0
-272 -258 252 0
-272 -268 262 0
-272 -288 282 0
-272 -298 292 0
282 219 0
-282 -219 0
-282 -209 202 0
-282 -229 222 0
-282 -239 232 0
-282 -249 242 0
-282 -259 252 0
-282 -269 262 0
-282 -279 272 0
-282 -299 292 0
292 220 0
-292 -220 0
-292 -210 202 0
-292 -230 222 0
-292 -240 232 0
-292 -250 242 0
-292 -260 252 0
-292 -270 262 0
-292 -280 272 0
-292 -290 282 0
223 0
203 221 0
-203 -221 0
-203 -211 213 0
-203 -231 233 0
-203 -241 243 0
-203 -251 253 0
-203 -261 263 0
-203 -271 273 0
-203 -281 283 0
-203 -291 293 0
213 222 0
-213 -222 0
-213 -202 203 0
-213 -232 233 0
-213 -242 243 0
-213 -252 253 0
-213 -262 263 0
-213 -272 273 0
-213 -282 283 0
-213 -292 293 0
233 224 0
-233 -224 0
-233 -204 203 0
-233 -214 213 0
-233 -244 243 0
-233 -254 253 0
-233 -264 263 0
-233 -274 273 0
-233 -284 283 0
-233 -294 293 0
243 225 0
-243 -225 0
-243 -205 203 0
-243 -215 213 0
-243 -235 233 0
-243 -255 253 0
-243 -265 263 0
-243 -275 273 0
-243 -285 283 0
-243 -295 293 0
253 226 0
-253 -226 0
-253 -206 203 0
-253 -216 213 0
-253 -236 233 0
-253 -246 243 0
-253 -266 263 0
-253 -276 273 0
-253 -286 283 0
-253 -296 293 0
263 227 0
-263 -227 0
-263 -207 203 0
-263 -217 213 0
-263 -237 233 0
-263 -247 243 0
-263 -257 253 0
-263 -277 273 0
-263 -287 283 0
-263 -297 293 0
273 228 0
-273 -228 0
-273 -208 203 0
-273 -218 213 0
-273 -238 233 0
-273 -248 243 0
-273 -258 253 0
-273 -268 263 0
-273 -288 283 0
-273 -298 293 0
283 229 0
-283 -229 0
-283 -209 203 0
-283 -219 213 0
-283 -239 233 0
-283 -249 243 0
-283 -259 253 0
-283 -269 263 0
-283 -279 273 0
-283 -299 293 0
293 230 0
-293 -230 0
-293 -210 203 0
-293 -220 213 0
-293 -240 233 0
-293 -250 243 0
-293 -260 253 0
-293 -270 263 0
-293 -280 273 0
-293 -290 283 0
234 0
204 231 0
-204 -231 0
-204 -211 214 0
-204 -221 224 0
-204 -241 244 0
-204 -251 254 0
-204 -261 264 0
-204 -271 274 0
-204 -281 284 0
-204 -291 294 0
214 232 0
-214 -232 0
-214 -202 204 0
-214 -222 224 0
-214 -242 244 0
-214 -252 254 0
-214 -262 264 0
-214 -272 274 0
-214 -282 284 0
-214 -292 294 0
224 233 0
-224 -233 0
-224 -203 204 0
-224 -213 214 0
-224 -243 244 0
-224 -253 254 0
-224 -263 264 0
-224 -273 274 0
-224 -283 284 0
-224 -293 294 0
244 235 0
-244 -235 0
-244 -205 204 0
-244 -215 214 0
-244 -225 224 0
-244 -255 254 0
-244 -265 264 0
-244 -275 274 0
-244 -285 284 0
-244 -295 294 0
254 236 0
-254 -236 0
-254 -206 204 0
-254 -216 214 0
-254 -226 224 0
-254 -246 244 0
-254 -266 264 0
-254 -276 274 0
-254 -286 284 0
-254 -296 294 0
264 237 0
-264 -237 0
-264 -207 204 0
-264 -217 214 0
-264 -227 224 0
-264 -247 244 0
-264 -257 254 0
-264 -277 274 0
-264 -287 284 0
-264 -297 294 0
274 238 0
-274 -238 0
-274 -208 204 0
-274 -218 214 0
-274 -228 224 0
-274 -248 244 0
-274 -258 254 0
-274 -268 264 0
-274 -288 284 0
-274 -298 294 0
284 239 0
-284 -239 0
-284 -209 204 0
-284 -219 214 0
-284 -229 224 0
-284 -249 244 0
-284 -259 254 0
-284 -269 264 0
-284 -279 274 0
-284 -299 294 0
294 240 0
-294 -240 0
-294 -210 204 0
-294 -220 214 0
-294 -230 224 0
-294 -250 244 0
-294 -260 254 0
-294 -270 264 0
-294 -280 274 0
-294 -290 284 0
245 0
205 241 0
-205 -241 0
-205 -211 215 0
-205 -221 225 0
-205 -231 235 0
-205 -251 255 0
-205 -261 265 0
-205 -271 275 0
-205 -281 285 0
-205 -291 295 0
215 242 0
-215 -242 0
-215 -202 205 0
-215 -222 225 0
-215 -232 235 0
-215 -252 255 0
-215 -262 265 0
-215 -272 275 0
-215 -282 285 0
-215 -292 295 0
225 243 0
-225 -243 0
-225 -203 205 0
-225 -213 215 0
-225 -233 235 0
-225 -253 255 0
-225 -263 265 0
-225 -273 275 0
-225 -283 285 0
-225 -293 295 0
235 244 0
-235 -244 0
-235 -204 205 0
-235 -214 215 0
-235 -224 225 0
-235 -254 255 0
-235 -264 265 0
-235 -274 275 0
-235 -284 285 0
-235 -294 295 0
255 246 0
-255 -246 0
-255 -206 205 0
-255 -216 215 0
-255 -226 225 0
-255 -236 235 0
-255 -266 265 0
-255 -276 275 0
-255 -286 285 0
-255 -296 295 0
265 247 0
-265 -247 0
-265 -207 205 0
-265 -217 215 0
-265 -227 225 0
-265 -237 235 0
-265 -257 255 0
-265 -277 275 0
-265 -287 285 0
-265 -297 295 0
275 248 0
-275 -248 0
-275 -208 205 0
-275 -218 215 0
-275 -228 225 0
-275 -238 235 0
-275 -258 255 0
-275 -268 265 0
-275 -288 285 0
-275 -298 295 0
285 249 0
-285 -249 0
-285 -209 205 0
-285 -219 215 0
-285 -229 225 0
-285 -239 235 0
-285 -259 255 0
-285 -269 265 0
-285 -279 275 0
-285 -299 295 0
295 250 0
-295 -250 0
-295 -210 205 0
-295 -220 215 0
-295 -230 225 0
-295 -240 235 0
-295 -260 255 0
-295 -270 265 0
-295 -280 275 0
-295 -290 285 0
256 0
206 251 0
-206 -251 0
-206 -211 216 0
-206 -221 226 0
-206 -231 236 0
-206 -241 246 0
-206 -261 266 0
-206 -271 276 0
-206 -281 286 0
-206 -291 296 0
216 252 0
-216 -252 0
-216 -202 206 0
-216 -222 226 0
-216 -232 236 0
-216 -242 246 0
-216 -262 266 0
-216 -272 276 0
-216 -282 286 0
-216 -292 296 0
226 253 0
-226 -253 0
-226 -203 206 0
-226 -213 216 0
-226 -233 236 0
-226 -243 246 0
-226 -263 266 0
-226 -273 276 0
-226 -283 286 0
-226 -293 296 0
236 254 0
-236 -254 0
-236 -204 206 0
-236 -214 216 0
-236 -224 226 0
-236 -244 246 0
-236 -264 266 0
-236 -274 276 0
-236 -284 286 0
-236 -294 296 0
246 255 0
-246 -255 0
-246 -205 206 0
-246 -215 216 0
-246 -225 226 0
-246 -235 236 0
-246 -265 266 0
-246 -275 276 0
-246 -285 286 0
-246 -295 296 0
266 257 0
-266 -257 0
-266 -207 206 0
-266 -217 216 0
-266 -227 226 0
-266 -237 236 0
-266 -247 246 0
-266 -277 276 0
-266 -287 286 0
-266 -297 296 0
276 258 0
-276 -258 0
-276 -208 206 0
-276 -218 216 0
-276 -228 226 0
-276 -238 236 0
-276 -248 246 0
-276 -268 266 0
-276 -288 286 0
-276 -298 296 0
286 259 0
-286 -259 0
-286 -209 206 0
-286 -219 216 0
-286 -229 226 0
-286 -239 236 0
-286 -249 246 0
-286 -269 266 0
-286 -279 276 0
-286 -299 296 0
296 260 0
-296 -260 0
-296 -210 206 0
-296 -220 216 0
-296 -230 226 0
-296 -240 236 0
-296 -250 246 0
-296 -270 266 0
-296 -280 276 0
-296 -290 286 0
267 0
207 261 0
-207 -261 0
-207 -211 217 0
-207 -221 227 0
-207 -231 237 0
-207 -241 247 0
-207 -251 257 0
-207 -271 277 0
-207 -281 287 0
-207 -291 297 0
217 262 0
-217 -262 0
-217 -202 207 0
-217 -222 227 0
-217 -232 237 0
-217 -242 247 0
-217 -252 257 0
-217 -272 277 0
-217 -282 287 0
-217 -292 297 0
227 263 0
-227 -263 0
-227 -203 207 0
-227 -213 217 0
-227 -233 237 0
-227 -243 247 0
-227 -253 257 0
-227 -273 277 0
-227 -283 287 0
-227 -293 297 0
237 264 0
-237 -264 0
-237 -204 207 0
-237 -214 217 0
-237 -224 227 0
-237 -244 247 0
-237 -254 257 0
-237 -274 277 0
-237 -284 287 0
-237 -294 297 0
247 265 0
-247 -265 0
-247 -205 207 0
-247 -215 217 0
-247 -225 227 0
-247 -235 237 0
-247 -255 257 0
-247 -275 277 0
-247 -285 287 0
-247 -295 297 0
257 266 0
-257 -266 0
-257 -206 207 0
-257 -216 217 0
-257 -226 227 0
-257 -236 237 0
-257 -246 247 0
-257 -276 277 0
-257 -286 287 0
-257 -296 297 0
277 268 0
-277 -268 0
-277 -208 207 0
-277 -218 217 0
-277 -228 227 0
-277 -238 237 0
-277 -248 247 0
-277 -258 257 0
-277 -288 287 0
-277 -298 297 0
287 269 0
-287 -269 0
-287 -209 207 0
-287 -219 217 0
-287 -229 227 0
-287 -239 237 0
-287 -249 247 0
-287 -259 257 0
-287 -279 277 0
-287 -299 297 0
297 270 0
-297 -270 0
-297 -210 207 0
-297 -220 217 0
-297 -230 227 0
-297 -240 237 0
-297 -250 247 0
-297 -260 257 0
-297 -280 277 0
-297 -290 287 0
278 0
208 271 0
-208 -271 0
-208 -211 218 0
-208 -221 228 0
-208 -231 238 0
-208 -241 248 0
-208 -251 258 0
-208 -261 268 0
-208 -281 288 0
-208 -291 298 0
218 272 0
-218 -272 0
-218 -202 208 0
-218 -222 228 0
-218 -232 238 0
-218 -242 248 0
-218 -252 258 0
-218 -262 268 0
-218 -282 288 0
-218 -292 298 0
228 273 0
-228 -273 0
-228 -203 208 0
-228 -213 218 0
-228 -233 238 0
-228 -243 248 0
-228 -253 258 0
-228 -263 268 0
-228 -283 288 0
-228 -293 298 0
238 274 0
-238 -274 0
-238 -204 208 0
-238 -214 218 0
-238 -224 228 0
-238 -244 248 0
-238 -254 258 0
-238 -264 268 0
-238 -284 288 0
-238 -294 298 0
248 275 0
-248 -275 0
-248 -205 208 0
-248 -215 218 0
-248 -225 228 0
-248 -235 238 0
-248 -255 258 0
-248 -265 268 0
-248 -285 288 0
-248 -295 298 0
258 276 0
-258 -276 0
-258 -206 208 0
-258 -216 218 0
-258 -226 228 0
-258 -236 238 0
-258 -246 248 0
-258 -266 268 0
-258 -286 288 0
-258 -296 298 0
268 277 0
-268 -277 0
-268 -207 208 0
-268 -217 218 0
-268 -227 228 0
-268 -237 238 0
-268 -247 248 0
-268 -257 258 0
-268 -287 288 0
-268 -297 298 0
288 279 0
-288 -279 0
-288 -209 208 0
-288 -219 218 0
-288 -229 228 0
-288 -239 238 0
-288 -249 248 0
-288 -259 258 0
-288 -269 268 0
-288 -299 298 0
298 280 0
-298 -280 0
-298 -210 208 0
-298 -220 218 0
-298 -230 228 0
-298 -240 238 0
-298 -250 248 0
-298 -260 258 0
-298 -270 268 0
-298 -290 288 0
289 0
209 281 0
-209 -281 0
-209 -211 219 0
-209 -221 229 0
-209 -231 239 0
-209 -241 249 0
-209 -251 259 0
-209 -261 269 0
-209 -271 279 0
-209 -291 299 0
219 282 0
-219 -282 0
-219 -202 209 0
-219 -222 229 0
-219 -232 239 0
-219 -242 249 0
-219 -252 259 0
-219 -262 269 0
-219 -272 279 0
-219 -292 299 0
229 283 0
-229 -283 0
-229 -203 209 0
-229 -213 219 0
-229 -233 239 0
-229 -243 249 0
-229 -253 259 0
-229 -263 269 0
-229 -273 279 0
-229 -293 299 0
239 284 0
-239 -284 0
-239 -204 209 0
-239 -214 219 0
-239 -224 229 0
-239 -244 249 0
-239 -254 259 0
-239 -264 269 0
-239 -274 279 0
-239 -294 299 0
249 285 0
-249 -285 0
-249 -205 209 0
-249 -215 219 0
-249 -225 229 0
-249 -235 239 0
-249 -255 259 0
-249 -265 269 0
-249 -275 279 0
-249 -295 299 0
259 286 0
-259 -286 0
-259 -206 209 0
-259 -216 219 0
-259 -226 229 0
-259 -236 239 0
-259 -246 249 0
-259 -266 269 0
-259 -276 279 0
-259 -296 299 0
269 287 0
-269 -287 0
-269 -207 209 0
-269 -217 219 0
-269 -227 229 0
-269 -237 239 0
-269 -247 249 0
-269 -257 259 0
-269 -277 279 0
-269 -297 299 0
279 288 0
-279 -288 0
-279 -208 209 0
-279 -218 219 0
-279 -228 229 0
-279 -238 239 0
-279 -248 249 0
-279 -258 259 0
-279 -268 269 0
-279 -298 299 0
299 290 0
-299 -290 0
-299 -210 209 0
-299 -220 219 0
-299 -230 229 0
-299 -240 239 0
-299 -250 249 0
-299 -260 259 0
-299 -270 269 0
-299 -280 279 0
300 0
210 291 0
-210 -291 0
-210 -211 220 0
-210 -221 230 0
-210 -231 240 0
-210 -241 250 0
-210 -251 260 0
-210 -261 270 0
-210 -271 280 0
-210 -281 290 0
220 292 0
-220 -292 0
-220 -202 210 0
-220 -222 230 0
-220 -232 240 0
-220 -242 250 0
-220 -252 260 0
-220 -262 270 0
-220 -272 280 0
-220 -282 290 0
230 293 0
-230 -293 0
-230 -203 210 0
-230 -213 220 0
-230 -233 240 0
-230 -243 250 0
-230 -253 260 0
-230 -263 270 0
-230 -273 280 0
-230 -283 290 0
240 294 0
-240 -294 0
-240 -204 210 0
-240 -214 220 0
-240 -224 230 0
-240 -244 250 0
-240 -254 260 0
-240 -264 270 0
-240 -274 280 0
-240 -284 290 0
250 295 0
-250 -295 0
-250 -205 210 0
-250 -215 220 0
-250 -225 230 0
-250 -235 240 0
-250 -255 260 0
-250 -265 270 0
-250 -275 280 0
-250 -285 290 0
260 296 0
-260 -296 0
-260 -206 210 0
-260 -216 220 0
-260 -226 230 0
-260 -236 240 0
-260 -246 250 0
-260 -266 270 0
-260 -276 280 0
-260 -286 290 0
270 297 0
-270 -297 0
-270 -207 210 0
-270 -217 220 0
-270 -227 230 0
-270 -237 240 0
-270 -247 250 0
-270 -257 260 0
-270 -277 280 0
-270 -287 290 0
280 298 0
-280 -298 0
-280 -208 210 0
-280 -218 220 0
-280 -228 230 0
-280 -238 240 0
-280 -248 250 0
-280 -258 260 0
-280 -268 270 0
-280 -288 290 0
290 299 0
-290 -299 0
-290 -209 210 0
-290 -219 220 0
-290 -229 230 0
-290 -239 240 0
-290 -249 250 0
-290 -259 260 0
-290 -269 270 0
-290 -279 280 0
301 0
302 303 0
-302 -303 0
-302 -304 305 0
-302 -306 307 0
-302 -308 309 0
-302 -310 311 0
-302 -312 313 0
-302 -314 315 0
-302 -316 317 0
-302 -318 319 0
305 320 0
-305 -320 0
-305 -321 302 0
-305 -322 307 0
-305 -323 309 0
-305 -324 311 0
-305 -325 313 0
-305 -326 315 0
-305 -327 317 0
-305 -328 319 0
307 329 0
-307 -329 0
-307 -330 302 0
-307 -331 305 0
-307 -332 309 0
-307 -333 311 0
-307 -334 313 0
-307 -335 315 0
-307 -336 317 0
-307 -337 319 0
309 338 0
-309 -338 0
-309 -339 302 0
-309 -340 305 0
-309 -341 307 0
-309 -342 311 0
-309 -343 313 0
-309 -344 315 0
-309 -345 317 0
-309 -346 319 0
311 347 0
-311 -347 0
-311 -348 302 0
-311 -349 305 0
-311 -350 307 0
-311 -351 309 0
-311 -352 313 0
-311 -353 315 0
-311 -354 317 0
-311 -355 319 0
313 356 0
-313 -356 0
-313 -357 302 0
-313 -358 305 0
-313 -359 307 0
-313 -360 309 0
-313 -361 311 0
-313 -362 315 0
-313 -363 317 0
-313 -364 319 0
315 365 0
-315 -365 0
-315 -366 302 0
-315 -367 305 0
-315 -368 307 0
-315 -369 309 0
-315 -370 311 0
-315 -371 313 0
-315 -372 317 0
-315 -373 319 0
317 374 0
-317 -374 0
-317 -375 302 0
-317 -376 305 0
-317 -377 307 0
-317 -378 309 0
-317 -379 311 0
-317 -380 313 0
-317 -381 315 0
-317 -382 319 0
319 383 0
-319 -383 0
-319 -384 302 0
-319 -385 305 0
-319 -386 307 0
-319 -387 309 0
-319 -388 311 0
-319 -389 313 0
-319 -390 315 0
-319 -391 317 0
392 0
303 302 0
-303 -302 0
-303 -305 304 0
-303 -307 306 0
-303 -309 308 0
-303 -311 310 0
-303 -313 312 0
-303 -315 314 0
-303 -317 316 0
-303 -319 318 0
304 321 0
-304 -321 0
-304 -320 303 0
-304 -322 306 0
-304 -323 308 0
-304 -324 310 0
-304 -325 312 0
-304 -326 314 0
-304 -327 316 0
-304 -328 318 0
306 330 0
-306 -330 0
-306 -329 303 0
-306 -331 304 0
-306 -332 308 0
-306 -333 310 0
-306 -334 312 0
-306 -335 314 0
-306 -336 316 0
-306 -337 318 0
308 339 0
-308 -339 0
-308 -338 303 0
-308 -340 304 0
-308 -341 306 0
-308 -342 310 0
-308 -343 312 0
-308 -344 314 0
-308 -345 316 0
-308 -346 318 0
310 348 0
-310 -348 0
-310 -347 303 0
-310 -349 304 0
-310 -350 306 0
-310 -351 308 0
-310 -352 312 0
-310 -353 314 0
-310 -354 316 0
-310 -355 318 0
312 357 0
-312 -357 0
-312 -356 303 0
-312 -358 304 0
-312 -359 306 0
-312 -360 308 0
-312 -361 310 0
-312 -362 314 0
-312 -363 316 0
-312 -364 318 0
314 366 0
-314 -366 0
-314 -365 303 0
-314 -367 304 0
-314 -368 306 0
-314 -369 308 0
-314 -370 310 0
-314 -371 312 0
-314 -372 316 0
-314 -373 318 0
316 375 0
-316 -375 0
-316 -374 303 0
-316 -376 304 0
-316 -377 306 0
-316 -378 308 0
-316 -379 310 0
-316 -380 312 0
-316 -381 314 0
-316 -382 318 0
318 384 0
-318 -384 0
-318 -383 303 0
-318 -385 304 0
-318 -386 306 0
-318 -387 308 0
-318 -388 310 0
-318 -389 312 0
-318 -390 314 0
-318 -391 316 0
393 0
320 305 0
-320 -305 0
-320 -302 321 0
-320 -307 322 0
-320 -309 323 0
-320 -311 324 0
-320 -313 325 0
-320 -315 326 0
-320 -317 327 0
-320 -319 328 0
321 304 0
-321 -304 0
-321 -303 320 0
-321 -306 322 0
-321 -308 323 0
-321 -310 324 0
-321 -312 325 0
-321 -314 326 0
-321 -316 327 0
-321 -318 328 0
322 331 0
-322 -331 0
-322 -329 320 0
-322 -330 321 0
-322 -332 323 0
-322 -333 324 0
-322 -334 325 0
-322 -335 326 0
-322 -336 327 0
-322 -337 328 0
323 340 0
-323 -340 0
-323 -338 320 0
-323 -339 321 0
-323 -341 322 0
-323 -342 324 0
-323 -343 325 0
-323 -344 326 0
-323 -345 327 0
-323 -346 328 0
324 349 0
-324 -349 0
-324 -347 320 0
-324 -348 321 0
-324 -350 322 0
-324 -351 323 0
-324 -352 325 0
-324 -353 326 0
-324 -354 327 0
-324 -355 328 0
325 358 0
-325 -358 0
-325 -356 320 0
-325 -357 321 0
-325 -359 322 0
-325 -360 323 0
-325 -361 324 0
-325 -362 326 0
-325 -363 327 0
-325 -364 328 0
326 367 0
-326 -367 0
-326 -365 320 0
-326 -366 321 0
-326 -368 322 0
-326 -369 323 0
-326 -370 324 0
-326 -371 325 0
-326 -372 327 0
-326 -373 328 0
327 376 0
-327 -376 0
-327 -374 320 0
-327 -375 321 0
-327 -377 322 0
-327 -378 323 0
-327 -379 324 0
-327 -380 325 0
-327 -381 326 0
-327 -382 328 0
328 385 0
-328 -385 0
-328 -383 320 0
-328 -384 321 0
-328 -386 322 0
-328 -387 323 0
-328 -388 324 0
-328 -389 325 0
-328 -390 326 0
-328 -391 327 0
394 0
329 307 0
-329 -307 0
-329 -302 330 0
-329 -305 331 0
-329 -309 332 0
-329 -311 333 0
-329 -313 334 0
-329 -315 335 0
-329 -317 336 0
-329 -319 337 0
330 306 0
-330 -306 0
-330 -303 329 0
-330 -304 331 0
-330 -308 332 0
-330 -310 333 0
-330 -312 334 0
-330 -314 335 0
-330 -316 336 0
-330 -318 337 0
331 322 0
-331 -322 0
-331 -320 329 0
-331 -321 330 0
-331 -323 332 0
-331 -324 333 0
-331 -325 334 0
-331 -326 335 0
-331 -327 336 0
-331 -328 337 0
332 341 0
-332 -341 0
-332 -338 329 0
-332 -339 330 0
-332 -340 331 0
-332 -342 333 0
-332 -343 334 0
-332 -344 335 0
-332 -345 336 0
-332 -346 337 0
333 350 0
-333 -350 0
-333 -347 329 0
-333 -348 330 0
-333 -349 331 0
-333 -351 332 0
-333 -352 334 0
-333 -353 335 0
-333 -354 336 0
-333 -355 337 0
334 359 0
-334 -359 0
-334 -356 329 0
-334 -357 330 0
-334 -358 331 0
-334 -360 332 0
-334 -361 333 0
-334 -362 335 0
-334 -363 336 0
-334 -364 337 0
335 368 0
-335 -368 0
-335 -365 329 0
-335 -366 330 0
-335 -367 331 0
-335 -369 332 0
-335 -370 333 0
-335 -371 334 0
-335 -372 336 0
-335 -373 337 0
336 377 0
-336 -377 0
-336 -374 329 0
-336 -375 330 0
-336 -376 331 0
-336 -378 332 0
-336 -379 333 0
-336 -380 334 0
-336 -381 335 0
-336 -382 337 0
337 386 0
-337 -386 0
-337 -383 329 0
-337 -384 330 0
-337 -385 331 0
-337 -387 332 0
-337 -388 333 0
-337 -389 334 0
-337 -390 335 0
-337 -391 336 0
395 0
338 309 0
-338 -309 0
-338 -302 339 0
-338 -305 340 0
-338 -307 341 0
-338 -311 342 0
-338 -313 343 0
-338 -315 344 0
-338 -317 345 0
-338 -319 346 0
339 308 0
-339 -308 0
-339 -303 338 0
-339 -304 340 0
-339 -306 341 0
-339 -310 342 0
-339 -312 343 0
-339 -314 344 0
-339 -316 345 0
-339 -318 346 0
340 323 0
-340 -323 0
-340 -320 338 0
-340 -321 339 0
-340 -322 341 0
-340 -324 342 0
-340 -325 343 0
-340 -326 344 0
-340 -327 345 0
-340 -328 346 0
341 332 0
-341 -332 0
-341 -329 338 0
-341 -330 339 0
-341 -331 340 0
-341 -333 342 0
-341 -334 343 0
-341 -335 344 0
-341 -336 345 0
-341 -337 346 0
342 351 0
-342 -351 0
-342 -347 338 0
-342 -348 339 0
-342 -349 340 0
-342 -350 341 0
-342 -352 343 0
-342 -353 344 0
-342 -354 345 0
-342 -355 346 0
343 360 0
-343 -360 0
-343 -356 338 0
-343 -357 339 0
-343 -358 340 0
-343 -359 341 0
-343 -361 342 0
-343 -362 344 0
-343 -363 345 0
-343 -364 346 0
344 369 0
-344 -369 0
-344 -365 338 0
-344 -366 339 0
-344 -367 340 0
-344 -368 341 0
-344 -370 342 0
-344 -371 343 0
-344 -372 345 0
-344 -373 346 0
345 378 0
-345 -378 0
-345 -374 338 0
-345 -375 339 0
-345 -376 340 0
-345 -377 341 0
-345 -379 342 0
-345 -380 343 0
-345 -381 344 0
-345 -382 346 0
346 387 0
-346 -387 0
-346 -383 338 0
-346 -384 339 0
-346 -385 340 0
-346 -386 341 0
-346 -388 342 0
-346 -389 343 0
-346 -390 344 0
-346 -391 345 0
396 0
347 311 0
-347 -311 0
-347 -302 348 0
-347 -305 349 0
-347 -307 350 0
-347 -309 351 0
-347 -313 352 0
-347 -315 353 0
-347 -317 354 0
-347 -319 355 0
348 310 0
-348 -310 0
-348 -303 347 0
-348 -304 349 0
-348 -306 350 0
-348 -308 351 0
-348 -312 352 0
-348 -314 353 0
-348 -316 354 0
-348 -318 355 0
349 324 0
-349 -324 0
-349 -320 347 0
-349 -321 348 0
-349 -322 350 0
-349 -323 351 0
-349 -325 352 0
-349 -326 353 0
-349 -327 354 0
-349 -328 355 0
350 333 0
-350 -333 0
-350 -329 347 0
-350 -330 348 0
-350 -331 349 0
-350 -332 351 0
-350 -334 352 0
-350 -335 353 0
-350 -336 354 0
-350 -337 355 0
351 342 0
-351 -342 0
-351 -338 347 0
-351 -339 348 0
-351 -340 349 0
-351 -341 350 0
-351 -343 352 0
-351 -344 353 0
-351 -345 354 0
-351 -346 355 0
352 361 0
-352 -361 0
-352 -356 347 0
-352 -357 348 0
-352 -358 349 0
-352 -359 350 0
-352 -360 351 0
-352 -362 353 0
-352 -363 354 0
-352 -364 355 0
353 370 0
-353 -370 0
-353 -365 347 0
-353 -366 348 0
-353 -367 349 0
-353 -368 350 0
-353 -369 351 0
-353 -371 352 0
-353 -372 354 0
-353 -373 355 0
354 379 0
-354 -379 0
-354 -374 347 0
-354 -375 348 0
-354 -376 349 0
-354 -377 350 0
-354 -378 351 0
-354 -380 352 0
-354 -381 353 0
-354 -382 355 0
355 388 0
-355 -388 0
-355 -383 347 0
-355 -384 348 0
-355 -385 349 0
-355 -386 350 0
-355 -387 351 0
-355 -389 352 0
-355 -390 353 0
-355 -391 354 0
397 0
356 313 0
-356 -313 0
-356 -302 357 0
-356 -305 358 0
-356 -307 359 0
-356 -309 360 0
-356 -311 361 0
-356 -315 362 0
-356 -317 363 0
-356 -319 364 0
357 312 0
-357 -312 0
-357 -303 356 0
-357 -304 358 0
-357 -306 359 0
-357 -308 360 0
-357 -310 361 0
-357 -314 362 0
-357 -316 363 0
-357 -318 364 0
358 325 0
-358 -325 0
-358 -320 356 0
-358 -321 357 0
-358 -322 359 0
-358 -323 360 0
-358 -324 361 0
-358 -326 362 0
-358 -327 363 0
-358 -328 364 0
359 334 0
-359 -334 0
-359 -329 356 0
-359 -330 357 0
-359 -331 358 0
-359 -332 360 0
-359 -333 361 0
-359 -335 362 0
-359 -336 363 0
-359 -337 364 0
360 343 0
-360 -343 0
-360 -338 356 0
-360 -339 357 0
-360 -340 358 0
-360 -341 359 0
-360 -342 361 0
-360 -344 362 0
-360 -345 363 0
-360 -346 364 0
361 352 0
-361 -352 0
-361 -347 356 0
-361 -348 357 0
-361 -349 358 0
-361 -350 359 0
-361 -351 360 0
-361 -353 362 0
-361 -354 363 0
-361 -355 364 0
362 371 0
-362 -371 0
-362 -365 356 0
-362 -366 357 0
-362 -367 358 0
-362 -368 359 0
-362 -369 360 0
-362 -370 361 0
-362 -372 363 0
-362 -373 364 0
363 380 0
-363 -380 0
-363 -374 356 0
-363 -375 357 0
-363 -376 358 0
-363 -377 359 0
-363 -378 360 0
-363 -379 361 0
-363 -381 362 0
-363 -382 364 0
364 389 0
-364 -389 0
-364 -383 356 0
-364 -384 357 0
-364 -385 358 0
-364 -386 359 0
-364 -387 360 0
-364 -388 361 0
-364 -390 362 0
-364 -391 363 0
398 0
365 315 0
-365 -315 0
-365 -302 366 0
-365 -305 367 0
-365 -307 368 0
-365 -309 369 0
-365 -311 370 0
-365 -313 371 0
-365 -317 372 0
-365 -319 373 0
366 314 0
-366 -314 0
-366 -303 365 0
-366 -304 367 0
-366 -306 368 0
-366 -308 369 0
-366 -310 370 0
-366 -312 371 0
-366 -316 372 0
-366 -318 373 0
367 326 0
-367 -326 0
-367 -320 365 0
-367 -321 366 0
-367 -322 368 0
-367 -323 369 0
-367 -324 370 0
-367 -325 371 0
-367 -327 372 0
-367 -328 373 0
368 335 0
-368 -335 0
-368 -329 365 0
-368 -330 366 0
-368 -331 367 0
-368 -332 369 0
-368 -333 370 0
-368 -334 371 0
-368 -336 372 0
-368 -337 373 0
369 344 0
-369 -344 0
-369 -338 365 0
-369 -339 366 0
-369 -340 367 0
-369 -341 368 0
-369 -342 370 0
-369 -343 371 0
-369 -345 372 0
-369 -346 373 0
370 353 0
-370 -353 0
-370 -347 365 0
-370 -348 366 0
-370 -349 367 0
-370 -350 368 0
-370 -351 369 0
-370 -352 371 0
-370 -354 372 0
-370 -355 373 0
371 362 0
-371 -362 0
-371 -356 365 0
-371 -357 366 0
-371 -358 367 0
-371 -359 368 0
-371 -360 369 0
-371 -361 370 0
-371 -363 372 0
-371 -364 373 0
372 381 0
-372 -381 0
-372 -374 365 0
-372 -375 366 0
-372 -376 367 0
-372 -377 368 0
-372 -378 369 0
-372 -379 370 0
-372 -380 371 0
-372 -382 373 0
373 390 0
-373 -390 0
-373 -383 365 0
-373 -384 366 0
-373 -385 367 0
-373 -386 368 0
-373 -387 369 0
-373 -388 370 0
-373 -389 371 0
-373 -391 372 0
399 0
374 317 0
-374 -317 0
-374 -302 375 0
-374 -305 376 0
-374 -307 377 0
-374 -309 378 0
-374 -311 379 0
-374 -313 380 0
-374 -315 381 0
-374 -319 382 0
375 316 0
-375 -316 0
-375 -303 374 0
-375 -304 376 0
-375 -306 377 0
-375 -308 378 0
-375 -310 379 0
-375 -312 380 0
-375 -314 381 0
-375 -318 382 0
376 327 0
-376 -327 0
-376 -320 374 0
-376 -321 375 0
-376 -322 377 0
-376 -323 378 0
-376 -324 379 0
-376 -325 380 0
-376 -326 381 0
-376 -328 382 0
377 336 0
-377 -336 0
-377 -329 374 0
-377 -330 375 0
-377 -331 376 0
-377 -332 378 0
-377 -333 379 0
-377 -334 380 0
-377 -335 381 0
-377 -337 382 0
378 345 0
-378 -345 0
-378 -338 374 0
-378 -339 375 0
-378 -340 376 0
-378 -341 377 0
-378 -342 379 0
-378 -343 380 0
-378 -344 381 0
-378 -346 382 0
379 354 0
-379 -354 0
-379 -347 374 0
-379 -348 375 0
-379 -349 376 0
-379 -350 377 0
-379 -351 378 0
-379 -352 380 0
-379 -353 381 0
-379 -355 382 0
380 363 0
-380 -363 0
-380 -356 374 0
-380 -357 375 0
-380 -358 376 0
-380 -359 377 0
-380 -360 378 0
-380 -361 379 0
-380 -362 381 0
-380 -364 382 0
381 372 0
-381 -372 0
-381 -365 374 0
-381 -366 375 0
-381 -367 376 0
-381 -368 377 0
-381 -369 378 0
-381 -370 379 0
-381 -371 380 0
-381 -373 382 0
382 391 0
-382 -391 0
-382 -383 374 0
-382 -384 375 0
-382 -385 376 0
-382 -386 377 0
-382 -387 378 0
-382 -388 379 0
-382 -389 380 0
-382 -390 381 0
400 0
383 319 0
-383 -319 0
-383 -302 384 0
-383 -305 385 0
-383 -307 386 0
-383 -309 387 0
-383 -311 388 0
-383 -313 389 0
-383 -315 390 0
-383 -317 391 0
384 318 0
-384 -318 0
-384 -303 383 0
-384 -304 385 0
-384 -306 386 0
-384 -308 387 0
-384 -310 388 0
-384 -312 389 0
-384 -314 390 0
-384 -316 391 0
385 328 0
-385 -328 0
-385 -320 383 0
-385 -321 384 0
-385 -322 386 0
-385 -323 387 0
-385 -324 388 0
-385 -325 389 0
-385 -326 390 0
-385 -327 391 0
386 337 0
-386 -337 0
-386 -329 383 0
-386 -330 384 0
-386 -331 385 0
-386 -332 387 0
-386 -333 388 0
-386 -334 389 0
-386 -335 390 0
-386 -336 391 0
387 346 0
-387 -346 0
-387 -338 383 0
-387 -339 384 0
-387 -340 385 0
-387 -341 386 0
-387 -342 388 0
-387 -343 389 0
-387 -344 390 0
-387 -345 391 0
388 355 0
-388 -355 0
-388 -347 383 0
-388 -348 384 0
-388 -349 385 0
-388 -350 386 0
-388 -351 387 0
-388 -352 389 0
-388 -353 390 0
-388 -354 391 0
389 364 0
-389 -364 0
-389 -356 383 0
-389 -357 384 0
-389 -358 385 0
-389 -359 386 0
-389 -360 387 0
-389 -361 388 0
-389 -362 390 0
-389 -363 391 0
390 373 0
-390 -373 0
-390 -365 383 0
-390 -366 384 0
-390 -367 385 0
-390 -368 386 0
-390 -369 387 0
-390 -370 388 0
-390 -371 389 0
-390 -372 391 0
391 382 0
-391 -382 0
-391 -374 383 0
-391 -375 384 0
-391 -376 385 0
-391 -377 386 0
-391 -378 387 0
-391 -379 388 0
-391 -380 389 0
-391 -381 390 0
-1 0
-21 302 0
-401 305 0
-401 321 0
-305 -321 401 0
-402 307 0
-402 330 0
-307 -330 402 0
-403 309 0
-403 339 0
-309 -339 403 0
-404 311 0
-404 348 0
-311 -348 404 0
-405 313 0
-405 357 0
-313 -357 405 0
-406 315 0
-406 366 0
-315 -366 406 0
-407 317 0
-407 375 0
-317 -375 407 0
-408 319 0
-408 384 0
-319 -384 408 0
-21 -401 0
-21 -402 0
-21 -403 0
-21 -404 0
-21 -405 0
-21 -406 0
-21 -407 0
-21 -408 0
-302 21 401 402 403 404 405 406 407 408 0
-41 305 0
-409 302 0
-409 304 0
-302 -304 409 0
-410 307 0
-410 331 0
-307 -331 410 0
-411 309 0
-411 340 0
-309 -340 411 0
-412 311 0
-412 349 0
-311 -349 412 0
-413 313 0
-413 358 0
-313 -358 413 0
-414 315 0
-414 367 0
-315 -367 414 0
-415 317 0
-415 376 0
-317 -376 415 0
-416 319 0
-416 385 0
-319 -385 416 0
-41 -409 0
-41 -410 0
-41 -411 0
-41 -412 0
-41 -413 0
-41 -414 0
-41 -415 0
-41 -416 0
-305 41 409 410 411 412 413 414 415 416 0
-61 307 0
-417 302 0
-417 306 0
-302 -306 417 0
-418 305 0
-418 322 0
-305 -322 418 0
-419 309 0
-419 341 0
-309 -341 419 0
-420 311 0
-420 350 0
-311 -350 420 0
-421 313 0
-421 359 0
-313 -359 421 0
-422 315 0
-422 368 0
-315 -368 422 0
-423 317 0
-423 377 0
-317 -377 423 0
-424 319 0
-424 386 0
-319 -386 424 0
-61 -417 0
-61 -418 0
-61 -419 0
-61 -420 0
-61 -421 0
-61 -422 0
-61 -423 0
-61 -424 0
-307 61 417 418 419 420 421 422 423 424 0
-81 309 0
-425 302 0
-425 308 0
-302 -308 425 0
-426 305 0
-426 323 0
-305 -323 426 0
-427 307 0
-427 332 0
-307 -332 427 0
-428 311 0
-428 351 0
-311 -351 428 0
-429 313 0
-429 360 0
-313 -360 429 0
-430 315 0
-430 369 0
-315 -369 430 0
-431 317 0
-431 378 0
-317 -378 431 0
-432 319 0
-432 387 0
-319 -387 432 0
-81 -425 0
-81 -426 0
-81 -427 0
-81 -428 0
-81 -429 0
-81 -430 0
-81 -431 0
-81 -432 0
-309 81 425 426 427 428 429 430 431 432 0
-101 311 0
-433 302 0
-433 310 0
-302 -310 433 0
-434 305 0
-434 324 0
-305 -324 434 0
-435 307 0
-435 333 0
-307 -333 435 0
-436 309 0
-436 342 0
-309 -342 436 0
-437 313 0
-437 361 0
-313 -361 437 0
-438 315 0
-438 370 0
-315 -370 438 0
-439 317 0
-439 379 0
-317 -379 439 0
-440 319 0
-440 388 0
-319 -388 440 0
-101 -433 0
-101 -434 0
-101 -435 0
-101 -436 0
-101 -437 0
-101 -438 0
-101 -439 0
-101 -440 0
-311 101 433 434 435 436 437 438 439 440 0
-121 313 0
-441 302 0
-441 312 0
-302 -312 441 0
-442 305 0
-442 325 0
-305 -325 442 0
-443 307 0
-443 334 0
-307 -334 443 0
-444 309 0
-444 343 0
-309 -343 444 0
-445 311 0
-445 352 0
-311 -352 445 0
-446 315 0
-446 371 0
-315 -371 446 0
-447 317 0
-447 380 0
-317 -380 447 0
-448 319 0
-448 389 0
-319 -389 448 0
-121 -441 0
-121 -442 0
-121 -443 0
-121 -444 0
-121 -445 0
-121 -446 0
-121 -447 0
-121 -448 0
-313 121 441 442 443 444 445 446 447 448 0
-141 315 0
-449 302 0
-449 314 0
-302 -314 449 0
-450 305 0
-450 326 0
-305 -326 450 0
-451 307 0
-451 335 0
-307 -335 451 0
-452 309 0
-452 344 0
-309 -344 452 0
-453 311 0
-453 353 0
-311 -353 453 0
-454 313 0
-454 362 0
-313 -362 454 0
-455 317 0
-455 381 0
-317 -381 455 0
-456 319 0
-456 390 0
-319 -390 456 0
-141 -449 0
-141 -450 0
-141 -451 0
-141 -452 0
-141 -453 0
-141 -454 0
-141 -455 0
-141 -456 0
-315 141 449 450 451 452 453 454 455 456 0
-161 317 0
-457 302 0
-457 316 0
-302 -316 457 0
-458 305 0
-458 327 0
-305 -327 458 0
-459 307 0
-459 336 0
-307 -336 459 0
-460 309 0
-460 345 0
-309 -345 460 0
-461 311 0
-461 354 0
-311 -354 461 0
-462 313 0
-462 363 0
-313 -363 462 0
-463 315 0
-463 372 0
-315 -372 463 0
-464 319 0
-464 391 0
-319 -391 464 0
-161 -457 0
-161 -458 0
-161 -459 0
-161 -460 0
-161 -461 0
-161 -462 0
-161 -463 0
-161 -464 0
-317 161 457 458 459 460 461 462 463 464 0
-181 319 0
-465 302 0
-465 318 0
-302 -318 465 0
-466 305 0
-466 328 0
-305 -328 466 0
-467 307 0
-467 337 0
-307 -337 467 0
-468 309 0
-468 346 0
-309 -346 468 0
-469 311 0
-469 355 0
-311 -355 469 0
-470 313 0
-470 364 0
-313 -364 470 0
-471 315 0
-471 373 0
-315 -373 471 0
-472 317 0
-472 382 0
-317 -382 472 0
-181 -465 0
-181 -466 0
-181 -467 0
-181 -468 0
-181 -469 0
-181 -470 0
-181 -471 0
-181 -472 0
-319 181 465 466 467 468 469 470 471 472 0
-3 303 0
-473 304 0
-473 320 0
-304 -320 473 0
-474 306 0
-474 329 0
-306 -329 474 0
-475 308 0
-475 338 0
-308 -338 475 0
-476 310 0
-476 347 0
-310 -347 476 0
-477 312 0
-477 356 0
-312 -356 477 0
-478 314 0
-478 365 0
-314 -365 478 0
-479 316 0
-479 374 0
-316 -374 479 0
-480 318 0
-480 383 0
-318 -383 480 0
-3 -473 0
-3 -474 0
-3 -475 0
-3 -476 0
-3 -477 0
-3 -478 0
-3 -479 0
-3 -480 0
-303 3 473 474 475 476 477 478 479 480 0
-23 0
-43 304 0
-481 303 0
-481 305 0
-303 -305 481 0
-482 306 0
-482 331 0
-306 -331 482 0
-483 308 0
-483 340 0
-308 -340 483 0
-484 310 0
-484 349 0
-310 -349 484 0
-485 312 0
-485 358 0
-312 -358 485 0
-486 314 0
-486 367 0
-314 -367 486 0
-487 316 0
-487 376 0
-316 -376 487 0
-488 318 0
-488 385 0
-318 -385 488 0
-43 -481 0
-43 -482 0
-43 -483 0
-43 -484 0
-43 -485 0
-43 -486 0
-43 -487 0
-43 -488 0
-304 43 481 482 483 484 485 486 487 488 0
-63 306 0
-489 303 0
-489 307 0
-303 -307 489 0
-490 304 0
-490 322 0
-304 -322 490 0
-491 308 0
-491 341 0
-308 -341 491 0
-492 310 0
-492 350 0
-310 -350 492 0
-493 312 0
-493 359 0
-312 -359 493 0
-494 314 0
-494 368 0
-314 -368 494 0
-495 316 0
-495 377 0
-316 -377 495 0
-496 318 0
-496 386 0
-318 -386 496 0
-63 -489 0
-63 -490 0
-63 -491 0
-63 -492 0
-63 -493 0
-63 -494 0
-63 -495 0
-63 -496 0
-306 63 489 490 491 492 493 494 495 496 0
-83 308 0
-497 303 0
-497 309 0
-303 -309 497 0
-498 304 0
-498 323 0
-304 -323 498 0
-499 306 0
-499 332 0
-306 -332 499 0
-500 310 0
-500 351 0
-310 -351 500 0
-501 312 0
-501 360 0
-312 -360 501 0
-502 314 0
-502 369 0
-314 -369 502 0
-503 316 0
-503 378 0
-316 -378 503 0
-504 318 0
-504 387 0
-318 -387 504 0
-83 -497 0
-83 -498 0
-83 -499 0
-83 -500 0
-83 -501 0
-83 -502 0
-83 -503 0
-83 -504 0
-308 83 497 498 499 500 501 502 503 504 0
-103 310 0
-505 303 0
-505 311 0
-303 -311 505 0
-506 304 0
-506 324 0
-304 -324 506 0
-507 306 0
-507 333 0
-306 -333 507 0
-508 308 0
-508 342 0
-308 -342 508 0
-509 312 0
-509 361 0
-312 -361 509 0
-510 314 0
-510 370 0
-314 -370 510 0
-511 316 0
-511 379 0
-316 -379 511 0
-512 318 0
-512 388 0
-318 -388 512 0
-103 -505 0
-103 -506 0
-103 -507 0
-103 -508 0
-103 -509 0
-103 -510 0
-103 -511 0
-103 -512 0
-310 103 505 506 507 508 509 510 511 512 0
-123 312 0
-513 303 0
-513 313 0
-303 -313 513 0
-514 304 0
-514 325 0
-304 -325 514 0
-515 306 0
-515 334 0
-306 -334 515 0
-516 308 0
-516 343 0
-308 -343 516 0
-517 310 0
-517 352 0
-310 -352 517 0
-518 314 0
-518 371 0
-314 -371 518 0
-519 316 0
-519 380 0
-316 -380 519 0
-520 318 0
-520 389 0
-318 -389 520 0
-123 -513 0
-123 -514 0
-123 -515 0
-123 -516 0
-123 -517 0
-123 -518 0
-123 -519 0
-123 -520 0
-312 123 513 514 515 516 517 518 519 520 0
-143 314 0
-521 303 0
-521 315 0
-303 -315 521 0
-522 304 0
-522 326 0
-304 -326 522 0
-523 306 0
-523 335 0
-306 -335 523 0
-524 308 0
-524 344 0
-308 -344 524 0
-525 310 0
-525 353 0
-310 -353 525 0
-526 312 0
-526 362 0
-312 -362 526 0
-527 316 0
-527 381 0
-316 -381 527 0
-528 318 0
-528 390 0
-318 -390 528 0
-143 -521 0
-143 -522 0
-143 -523 0
-143 -524 0
-143 -525 0
-143 -526 0
-143 -527 0
-143 -528 0
-314 143 521 522 523 524 525 526 527 528 0
-163 316 0
-529 303 0
-529 317 0
-303 -317 529 0
-530 304 0
-530 327 0
-304 -327 530 0
-531 306 0
-531 336 0
-306 -336 531 0
-532 308 0
-532 345 0
-308 -345 532 0
-533 310 0
-533 354 0
-310 -354 533 0
-534 312 0
-534 363 0
-312 -363 534 0
-535 314 0
-535 372 0
-314 -372 535 0
-536 318 0
-536 391 0
-318 -391 536 0
-163 -529 0
-163 -530 0
-163 -531 0
-163 -532 0
-163 -533 0
-163 -534 0
-163 -535 0
-163 -536 0
-316 163 529 530 531 532 533 534 535 536 0
-183 318 0
-537 303 0
-537 319 0
-303 -319 537 0
-538 304 0
-538 328 0
-304 -328 538 0
-539 306 0
-539 337 0
-306 -337 539 0
-540 308 0
-540 346 0
-308 -346 540 0
-541 310 0
-541 355 0
-310 -355 541 0
-542 312 0
-542 364 0
-312 -364 542 0
-543 314 0
-543 373 0
-314 -373 543 0
-544 316 0
-544 382 0
-316 -382 544 0
-183 -537 0
-183 -538 0
-183 -539 0
-183 -540 0
-183 -541 0
-183 -542 0
-183 -543 0
-183 -544 0
-318 183 537 538 539 540 541 542 543 544 0
-5 320 0
-545 321 0
-545 303 0
-321 -303 545 0
-546 322 0
-546 329 0
-322 -329 546 0
-547 323 0
-547 338 0
-323 -338 547 0
-548 324 0
-548 347 0
-324 -347 548 0
-549 325 0
-549 356 0
-325 -356 549 0
-550 326 0
-550 365 0
-326 -365 550 0
-551 327 0
-551 374 0
-327 -374 551 0
-552 328 0
-552 383 0
-328 -383 552 0
-5 -545 0
-5 -546 0
-5 -547 0
-5 -548 0
-5 -549 0
-5 -550 0
-5 -551 0
-5 -552 0
-320 5 545 546 547 548 549 550 551 552 0
-25 321 0
-553 320 0
-553 302 0
-320 -302 553 0
-554 322 0
-554 330 0
-322 -330 554 0
-555 323 0
-555 339 0
-323 -339 555 0
-556 324 0
-556 348 0
-324 -348 556 0
-557 325 0
-557 357 0
-325 -357 557 0
-558 326 0
-558 366 0
-326 -366 558 0
-559 327 0
-559 375 0
-327 -375 559 0
-560 328 0
-560 384 0
-328 -384 560 0
-25 -553 0
-25 -554 0
-25 -555 0
-25 -556 0
-25 -557 0
-25 -558 0
-25 -559 0
-25 -560 0
-321 25 553 554 555 556 557 558 559 560 0
-45 0
-65 322 0
-561 320 0
-561 307 0
-320 -307 561 0
-562 321 0
-562 306 0
-321 -306 562 0
-563 323 0
-563 341 0
-323 -341 563 0
-564 324 0
-564 350 0
-324 -350 564 0
-565 325 0
-565 359 0
-325 -359 565 0
-566 326 0
-566 368 0
-326 -368 566 0
-567 327 0
-567 377 0
-327 -377 567 0
-568 328 0
-568 386 0
-328 -386 568 0
-65 -561 0
-65 -562 0
-65 -563 0
-65 -564 0
-65 -565 0
-65 -566 0
-65 -567 0
-65 -568 0
-322 65 561 562 563 564 565 566 567 568 0
-85 323 0
-569 320 0
-569 309 0
-320 -309 569 0
-570 321 0
-570 308 0
-321 -308 570 0
-571 322 0
-571 332 0
-322 -332 571 0
-572 324 0
-572 351 0
-324 -351 572 0
-573 325 0
-573 360 0
-325 -360 573 0
-574 326 0
-574 369 0
-326 -369 574 0
-575 327 0
-575 378 0
-327 -378 575 0
-576 328 0
-576 387 0
-328 -387 576 0
-85 -569 0
-85 -570 0
-85 -571 0
-85 -572 0
-85 -573 0
-85 -574 0
-85 -575 0
-85 -576 0
-323 85 569 570 571 572 573 574 575 576 0
-105 324 0
-577 320 0
-577 311 0
-320 -311 577 0
-578 321 0
-578 310 0
-321 -310 578 0
-579 322 0
-579 333 0
-322 -333 579 0
-580 323 0
-580 342 0
-323 -342 580 0
-581 325 0
-581 361 0
-325 -361 581 0
-582 326 0
-582 370 0
-326 -370 582 0
-583 327 0
-583 379 0
-327 -379 583 0
-584 328 0
-584 388 0
-328 -388 584 0
-105 -577 0
-105 -578 0
-105 -579 0
-105 -580 0
-105 -581 0
-105 -582 0
-105 -583 0
-105 -584 0
-324 105 577 578 579 580 581 582 583 584 0
-125 325 0
-585 320 0
-585 313 0
-320 -313 585 0
-586 321 0
-586 312 0
-321 -312 586 0
-587 322 0
-587 334 0
-322 -334 587 0
-588 323 0
-588 343 0
-323 -343 588 0
-589 324 0
-589 352 0
-324 -352 589 0
-590 326 0
-590 371 0
-326 -371 590 0
-591 327 0
-591 380 0
-327 -380 591 0
-592 328 0
-592 389 0
-328 -389 592 0
-125 -585 0
-125 -586 0
-125 -587 0
-125 -588 0
-125 -589 0
-125 -590 0
-125 -591 0
-125 -592 0
-325 125 585 586 587 588 589 590 591 592 0
-145 326 0
-593 320 0
-593 315 0
-320 -315 593 0
-594 321 0
-594 314 0
-321 -314 594 0
-595 322 0
-595 335 0
-322 -335 595 0
-596 323 0
-596 344 0
-323 -344 596 0
-597 324 0
-597 353 0
-324 -353 597 0
-598 325 0
-598 362 0
-325 -362 598 0
-599 327 0
-599 381 0
-327 -381 599 0
-600 328 0
-600 390 0
-328 -390 600 0
-145 -593 0
-145 -594 0
-145 -595 0
-145 -596 0
-145 -597 0
-145 -598 0
-145 -599 0
-145 -600 0
-326 145 593 594 595 596 597 598 599 600 0
-165 327 0
-601 320 0
-601 317 0
-320 -317 601 0
-602 321 0
-602 316 0
-321 -316 602 0
-603 322 0
-603 336 0
-322 -336 603 0
-604 323 0
-604 345 0
-323 -345 604 0
-605 324 0
-605 354 0
-324 -354 605 0
-606 325 0
-606 363 0
-325 -363 606 0
-607 326 0
-607 372 0
-326 -372 607 0
-608 328 0
-608 391 0
-328 -391 608 0
-165 -601 0
-165 -602 0
-165 -603 0
-165 -604 0
-165 -605 0
-165 -606 0
-165 -607 0
-165 -608 0
-327 165 601 602 603 604 605 606 607 608 0
-185 328 0
-609 320 0
-609 319 0
-320 -319 609 0
-610 321 0
-610 318 0
-321 -318 610 0
-611 322 0
-611 337 0
-322 -337 611 0
-612 323 0
-612 346 0
-323 -346 612 0
-613 324 0
-613 355 0
-324 -355 613 0
-614 325 0
-614 364 0
-325 -364 614 0
-615 326 0
-615 373 0
-326 -373 615 0
-616 327 0
-616 382 0
-327 -382 616 0
-185 -609 0
-185 -610 0
-185 -611 0
-185 -612 0
-185 -613 0
-185 -614 0
-185 -615 0
-185 -616 0
-328 185 609 610 611 612 613 614 615 616 0
-7 329 0
-617 330 0
-617 303 0
-330 -303 617 0
-618 331 0
-618 320 0
-331 -320 618 0
-619 332 0
-619 338 0
-332 -338 619 0
-620 333 0
-620 347 0
-333 -347 620 0
-621 334 0
-621 356 0
-334 -356 621 0
-622 335 0
-622 365 0
-335 -365 622 0
-623 336 0
-623 374 0
-336 -374 623 0
-624 337 0
-624 383 0
-337 -383 624 0
-7 -617 0
-7 -618 0
-7 -619 0
-7 -620 0
-7 -621 0
-7 -622 0
-7 -623 0
-7 -624 0
-329 7 617 618 619 620 621 622 623 624 0
-27 330 0
-625 329 0
-625 302 0
-329 -302 625 0
-626 331 0
-626 321 0
-331 -321 626 0
-627 332 0
-627 339 0
-332 -339 627 0
-628 333 0
-628 348 0
-333 -348 628 0
-629 334 0
-629 357 0
-334 -357 629 0
-630 335 0
-630 366 0
-335 -366 630 0
-631 336 0
-631 375 0
-336 -375 631 0
-632 337 0
-632 384 0
-337 -384 632 0
-27 -625 0
-27 -626 0
-27 -627 0
-27 -628 0
-27 -629 0
-27 -630 0
-27 -631 0
-27 -632 0
-330 27 625 626 627 628 629 630 631 632 0
-47 331 0
-633 329 0
-633 305 0
-329 -305 633 0
-634 330 0
-634 304 0
-330 -304 634 0
-635 332 0
-635 340 0
-332 -340 635 0
-636 333 0
-636 349 0
-333 -349 636 0
-637 334 0
-637 358 0
-334 -358 637 0
-638 335 0
-638 367 0
-335 -367 638 0
-639 336 0
-639 376 0
-336 -376 639 0
-640 337 0
-640 385 0
-337 -385 640 0
-47 -633 0
-47 -634 0
-47 -635 0
-47 -636 0
-47 -637 0
-47 -638 0
-47 -639 0
-47 -640 0
-331 47 633 634 635 636 637 638 639 640 0
-67 0
-87 332 0
-641 329 0
-641 309 0
-329 -309 641 0
-642 330 0
-642 308 0
-330 -308 642 0
-643 331 0
-643 323 0
-331 -323 643 0
-644 333 0
-644 351 0
-333 -351 644 0
-645 334 0
-645 360 0
-334 -360 645 0
-646 335 0
-646 369 0
-335 -369 646 0
-647 336 0
-647 378 0
-336 -378 647 0
-648 337 0
-648 387 0
-337 -387 648 0
-87 -641 0
-87 -642 0
-87 -643 0
-87 -644 0
-87 -645 0
-87 -646 0
-87 -647 0
-87 -648 0
-332 87 641 642 643 644 645 646 647 648 0
-107 333 0
-649 329 0
-649 311 0
-329 -311 649 0
-650 330 0
-650 310 0
-330 -310 650 0
-651 331 0
-651 324 0
-331 -324 651 0
-652 332 0
-652 342 0
-332 -342 652 0
-653 334 0
-653 361 0
-334 -361 653 0
-654 335 0
-654 370 0
-335 -370 654 0
-655 336 0
-655 379 0
-336 -379 655 0
-656 337 0
-656 388 0
-337 -388 656 0
-107 -649 0
-107 -650 0
-107 -651 0
-107 -652 0
-107 -653 0
-107 -654 0
-107 -655 0
-107 -656 0
-333 107 649 650 651 652 653 654 655 656 0
-127 334 0
-657 329 0
-657 313 0
-329 -313 657 0
-658 330 0
-658 312 0
-330 -312 658 0
-659 331 0
-659 325 0
-331 -325 659 0
-660 332 0
-660 343 0
-332 -343 660 0
-661 333 0
-661 352 0
-333 -352 661 0
-662 335 0
-662 371 0
-335 -371 662 0
-663 336 0
-663 380 0
-336 -380 663 0
-664 337 0
-664 389 0
-337 -389 664 0
-127 -657 0
-127 -658 0
-127 -659 0
-127 -660 0
-127 -661 0
-127 -662 0
-127 -663 0
-127 -664 0
-334 127 657 658 659 660 661 662 663 664 0
-147 335 0
-665 329 0
-665 315 0
-329 -315 665 0
-666 330 0
-666 314 0
-330 -314 666 0
-667 331 0
-667 326 0
-331 -326 667 0
-668 332 0
-668 344 0
-332 -344 668 0
-669 333 0
-669 353 0
-333 -353 669 0
-670 334 0
-670 362 0
-334 -362 670 0
-671 336 0
-671 381 0
-336 -381 671 0
-672 337 0
-672 390 0
-337 -390 672 0
-147 -665 0
-147 -666 0
-147 -667 0
-147 -668 0
-147 -669 0
-147 -670 0
-147 -671 0
-147 -672 0
-335 147 665 666 667 668 669 670 671 672 0
-167 336 0
-673 329 0
-673 317 0
-329 -317 673 0
-674 330 0
-674 316 0
-330 -316 674 0
-675 331 0
-675 327 0
-331 -327 675 0
-676 332 0
-676 345 0
-332 -345 676 0
-677 333 0
-677 354 0
-333 -354 677 0
-678 334 0
-678 363 0
-334 -363 678 0
-679 335 0
-679 372 0
-335 -372 679 0
-680 337 0
-680 391 0
-337 -391 680 0
-167 -673 0
-167 -674 0
-167 -675 0
-167 -676 0
-167 -677 0
-167 -678 0
-167 -679 0
-167 -680 0
-336 167 673 674 675 676 677 678 679 680 0
-187 337 0
-681 329 0
-681 319 0
-329 -319 681 0
-682 330 0
-682 318 0
-330 -318 682 0
-683 331 0
-683 328 0
-331 -328 683 0
-684 332 0
-684 346 0
-332 -346 684 0
-685 333 0
-685 355 0
-333 -355 685 0
-686 334 0
-686 364 0
-334 -364 686 0
-687 335 0
-687 373 0
-335 -373 687 0
-688 336 0
-688 382 0
-336 -382 688 0
-187 -681 0
-187 -682 0
-187 -683 0
-187 -684 0
-187 -685 0
-187 -686 0
-187 -687 0
-187 -688 0
-337 187 681 682 683 684 685 686 687 688 0
-9 338 0
-689 339 0
-689 303 0
-339 -303 689 0
-690 340 0
-690 320 0
-340 -320 690 0
-691 341 0
-691 329 0
-341 -329 691 0
-692 342 0
-692 347 0
-342 -347 692 0
-693 343 0
-693 356 0
-343 -356 693 0
-694 344 0
-694 365 0
-344 -365 694 0
-695 345 0
-695 374 0
-345 -374 695 0
-696 346 0
-696 383 0
-346 -383 696 0
-9 -689 0
-9 -690 0
-9 -691 0
-9 -692 0
-9 -693 0
-9 -694 0
-9 -695 0
-9 -696 0
-338 9 689 690 691 692 693 694 695 696 0
-29 339 0
-697 338 0
-697 302 0
-338 -302 697 0
-698 340 0
-698 321 0
-340 -321 698 0
-699 341 0
-699 330 0
-341 -330 699 0
-700 342 0
-700 348 0
-342 -348 700 0
-701 343 0
-701 357 0
-343 -357 701 0
-702 344 0
-702 366 0
-344 -366 702 0
-703 345 0
-703 375 0
-345 -375 703 0
-704 346 0
-704 384 0
-346 -384 704 0
-29 -697 0
-29 -698 0
-29 -699 0
-29 -700 0
-29 -701 0
-29 -702 0
-29 -703 0
-29 -704 0
-339 29 697 698 699 700 701 702 703 704 0
-49 340 0
-705 338 0
-705 305 0
-338 -305 705 0
-706 339 0
-706 304 0
-339 -304 706 0
-707 341 0
-707 331 0
-341 -331 707 0
-708 342 0
-708 349 0
-342 -349 708 0
-709 343 0
-709 358 0
-343 -358 709 0
-710 344 0
-710 367 0
-344 -367 710 0
-711 345 0
-711 376 0
-345 -376 711 0
-712 346 0
-712 385 0
-346 -385 712 0
-49 -705 0
-49 -706 0
-49 -707 0
-49 -708 0
-49 -709 0
-49 -710 0
-49 -711 0
-49 -712 0
-340 49 705 706 707 708 709 710 711 712 0
-69 341 0
-713 338 0
-713 307 0
-338 -307 713 0
-714 339 0
-714 306 0
-339 -306 714 0
-715 340 0
-715 322 0
-340 -322 715 0
-716 342 0
-716 350 0
-342 -350 716 0
-717 343 0
-717 359 0
-343 -359 717 0
-718 344 0
-718 368 0
-344 -368 718 0
-719 345 0
-719 377 0
-345 -377 719 0
-720 346 0
-720 386 0
-346 -386 720 0
-69 -713 0
-69 -714 0
-69 -715 0
-69 -716 0
-69 -717 0
-69 -718 0
-69 -719 0
-69 -720 0
-341 69 713 714 715 716 717 718 719 720 0
-89 0
-109 342 0
-721 338 0
-721 311 0
-338 -311 721 0
-722 339 0
-722 310 0
-339 -310 722 0
-723 340 0
-723 324 0
-340 -324 723 0
-724 341 0
-724 333 0
-341 -333 724 0
-725 343 0
-725 361 0
-343 -361 725 0
-726 344 0
-726 370 0
-344 -370 726 0
-727 345 0
-727 379 0
-345 -379 727 0
-728 346 0
-728 388 0
-346 -388 728 0
-109 -721 0
-109 -722 0
-109 -723 0
-109 -724 0
-109 -725 0
-109 -726 0
-109 -727 0
-109 -728 0
-342 109 721 722 723 724 725 726 727 728 0
-129 343 0
-729 338 0
-729 313 0
-338 -313 729 0
-730 339 0
-730 312 0
-339 -312 730 0
-731 340 0
-731 325 0
-340 -325 731 0
-732 341 0
-732 334 0
-341 -334 732 0
-733 342 0
-733 352 0
-342 -352 733 0
-734 344 0
-734 371 0
-344 -371 734 0
-735 345 0
-735 380 0
-345 -380 735 0
-736 346 0
-736 389 0
-346 -389 736 0
-129 -729 0
-129 -730 0
-129 -731 0
-129 -732 0
-129 -733 0
-129 -734 0
-129 -735 0
-129 -736 0
-343 129 729 730 731 732 733 734 735 736 0
-149 344 0
-737 338 0
-737 315 0
-338 -315 737 0
-738 339 0
-738 314 0
-339 -314 738 0
-739 340 0
-739 326 0
-340 -326 739 0
-740 341 0
-740 335 0
-341 -335 740 0
-741 342 0
-741 353 0
-342 -353 741 0
-742 343 0
-742 362 0
-343 -362 742 0
-743 345 0
-743 381 0
-345 -381 743 0
-744 346 0
-744 390 0
-346 -390 744 0
-149 -737 0
-149 -738 0
-149 -739 0
-149 -740 0
-149 -741 0
-149 -742 0
-149 -743 0
-149 -744 0
-344 149 737 738 739 740 741 742 743 744 0
-169 345 0
-745 338 0
-745 317 0
-338 -317 745 0
-746 339 0
-746 316 0
-339 -316 746 0
-747 340 0
-747 327 0
-340 -327 747 0
-748 341 0
-748 336 0
-341 -336 748 0
-749 342 0
-749 354 0
-342 -354 749 0
-750 343 0
-750 363 0
-343 -363 750 0
-751 344 0
-751 372 0
-344 -372 751 0
-752 346 0
-752 391 0
-346 -391 752 0
-169 -745 0
-169 -746 0
-169 -747 0
-169 -748 0
-169 -749 0
-169 -750 0
-169 -751 0
-169 -752 0
-345 169 745 746 747 748 749 750 751 752 0
-189 346 0
-753 338 0
-753 319 0
-338 -319 753 0
-754 339 0
-754 318 0
-339 -318 754 0
-755 340 0
-755 328 0
-340 -328 755 0
-756 341 0
-756 337 0
-341 -337 756 0
-757 342 0
-757 355 0
-342 -355 757 0
-758 343 0
-758 364 0
-343 -364 758 0
-759 344 0
-759 373 0
-344 -373 759 0
-760 345 0
-760 382 0
-345 -382 760 0
-189 -753 0
-189 -754 0
-189 -755 0
-189 -756 0
-189 -757 0
-189 -758 0
-189 -759 0
-189 -760 0
-346 189 753 754 755 756 757 758 759 760 0
-11 347 0
-761 348 0
-761 303 0
-348 -303 761 0
-762 349 0
-762 320 0
-349 -320 762 0
-763 350 0
-763 329 0
-350 -329 763 0
-764 351 0
-764 338 0
-351 -338 764 0
-765 352 0
-765 356 0
-352 -356 765 0
-766 353 0
-766 365 0
-353 -365 766 0
-767 354 0
-767 374 0
-354 -374 767 0
-768 355 0
-768 383 0
-355 -383 768 0
-11 -761 0
-11 -762 0
-11 -763 0
-11 -764 0
-11 -765 0
-11 -766 0
-11 -767 0
-11 -768 0
-347 11 761 762 763 764 765 766 767 768 0
-31 348 0
-769 347 0
-769 302 0
-347 -302 769 0
-770 349 0
-770 321 0
-349 -321 770 0
-771 350 0
-771 330 0
-350 -330 771 0
-772 351 0
-772 339 0
-351 -339 772 0
-773 352 0
-773 357 0
-352 -357 773 0
-774 353 0
-774 366 0
-353 -366 774 0
-775 354 0
-775 375 0
-354 -375 775 0
-776 355 0
-776 384 0
-355 -384 776 0
-31 -769 0
-31 -770 0
-31 -771 0
-31 -772 0
-31 -773 0
-31 -774 0
-31 -775 0
-31 -776 0
-348 31 769 770 771 772 773 774 775 776 0
-51 349 0
-777 347 0
-777 305 0
-347 -305 777 0
-778 348 0
-778 304 0
-348 -304 778 0
-779 350 0
-779 331 0
-350 -331 779 0
-780 351 0
-780 340 0
-351 -340 780 0
-781 352 0
-781 358 0
-352 -358 781 0
-782 353 0
-782 367 0
-353 -367 782 0
-783 354 0
-783 376 0
-354 -376 783 0
-784 355 0
-784 385 0
-355 -385 784 0
-51 -777 0
-51 -778 0
-51 -779 0
-51 -780 0
-51 -781 0
-51 -782 0
-51 -783 0
-51 -784 0
-349 51 777 778 779 780 781 782 783 784 0
-71 350 0
-785 347 0
-785 307 0
-347 -307 785 0
-786 348 0
-786 306 0
-348 -306 786 0
-787 349 0
-787 322 0
-349 -322 787 0
-788 351 0
-788 341 0
-351 -341 788 0
-789 352 0
-789 359 0
-352 -359 789 0
-790 353 0
-790 368 0
-353 -368 790 0
-791 354 0
-791 377 0
-354 -377 791 0
-792 355 0
-792 386 0
-355 -386 792 0
-71 -785 0
-71 -786 0
-71 -787 0
-71 -788 0
-71 -789 0
-71 -790 0
-71 -791 0
-71 -792 0
-350 71 785 786 787 788 789 790 791 792 0
-91 351 0
-793 347 0
-793 309 0
-347 -309 793 0
-794 348 0
-794 308 0
-348 -308 794 0
-795 349 0
-795 323 0
-349 -323 795 0
-796 350 0
-796 332 0
-350 -332 796 0
-797 352 0
-797 360 0
-352 -360 797 0
-798 353 0
-798 369 0
-353 -369 798 0
-799 354 0
-799 378 0
-354 -378 799 0
-800 355 0
-800 387 0
-355 -387 800 0
-91 -793 0
-91 -794 0
-91 -795 0
-91 -796 0
-91 -797 0
-91 -798 0
-91 -799 0
-91 -800 0
-351 91 793 794 795 796 797 798 799 800 0
-111 0
-131 352 0
-801 347 0
-801 313 0
-347 -313 801 0
-802 348 0
-802 312 0
-348 -312 802 0
-803 349 0
-803 325 0
-349 -325 803 0
-804 350 0
-804 334 0
-350 -334 804 0
-805 351 0
-805 343 0
-351 -343 805 0
-806 353 0
-806 371 0
-353 -371 806 0
-807 354 0
-807 380 0
-354 -380 807 0
-808 355 0
-808 389 0
-355 -389 808 0
-131 -801 0
-131 -802 0
-131 -803 0
-131 -804 0
-131 -805 0
-131 -806 0
-131 -807 0
-131 -808 0
-352 131 801 802 803 804 805 806 807 808 0
-151 353 0
-809 347 0
-809 315 0
-347 -315 809 0
-810 348 0
-810 314 0
-348 -314 810 0
-811 349 0
-811 326 0
-349 -326 811 0
-812 350 0
-812 335 0
-350 -335 812 0
-813 351 0
-813 344 0
-351 -344 813 0
-814 352 0
-814 362 0
-352 -362 814 0
-815 354 0
-815 381 0
-354 -381 815 0
-816 355 0
-816 390 0
-355 -390 816 0
-151 -809 0
-151 -810 0
-151 -811 0
-151 -812 0
-151 -813 0
-151 -814 0
-151 -815 0
-151 -816 0
-353 151 809 810 811 812 813 814 815 816 0
-171 354 0
-817 347 0
-817 317 0
-347 -317 817 0
-818 348 0
-818 316 0
-348 -316 818 0
-819 349 0
-819 327 0
-349 -327 819 0
-820 350 0
-820 336 0
-350 -336 820 0
-821 351 0
-821 345 0
-351 -345 821 0
-822 352 0
-822 363 0
-352 -363 822 0
-823 353 0
-823 372 0
-353 -372 823 0
-824 355 0
-824 391 0
-355 -391 824 0
-171 -817 0
-171 -818 0
-171 -819 0
-171 -820 0
-171 -821 0
-171 -822 0
-171 -823 0
-171 -824 0
-354 171 817 818 819 820 821 822 823 824 0
-191 355 0
-825 347 0
-825 319 0
-347 -319 825 0
-826 348 0
-826 318 0
-348 -318 826 0
-827 349 0
-827 328 0
-349 -328 827 0
-828 350 0
-828 337 0
-350 -337 828 0
-829 351 0
-829 346 0
-351 -346 829 0
-830 352 0
-830 364 0
-352 -364 830 0
-831 353 0
-831 373 0
-353 -373 831 0
-832 354 0
-832 382 0
-354 -382 832 0
-191 -825 0
-191 -826 0
-191 -827 0
-191 -828 0
-191 -829 0
-191 -830 0
-191 -831 0
-191 -832 0
-355 191 825 826 827 828 829 830 831 832 0
-13 356 0
-833 357 0
-833 303 0
-357 -303 833 0
-834 358 0
-834 320 0
-358 -320 834 0
-835 359 0
-835 329 0
-359 -329 835 0
-836 360 0
-836 338 0
-360 -338 836 0
-837 361 0
-837 347 0
-361 -347 837 0
-838 362 0
-838 365 0
-362 -365 838 0
-839 363 0
-839 374 0
-363 -374 839 0
-840 364 0
-840 383 0
-364 -383 840 0
-13 -833 0
-13 -834 0
-13 -835 0
-13 -836 0
-13 -837 0
-13 -838 0
-13 -839 0
-13 -840 0
-356 13 833 834 835 836 837 838 839 840 0
-33 357 0
-841 356 0
-841 302 0
-356 -302 841 0
-842 358 0
-842 321 0
-358 -321 842 0
-843 359 0
-843 330 0
-359 -330 843 0
-844 360 0
-844 339 0
-360 -339 844 0
-845 361 0
-845 348 0
-361 -348 845 0
-846 362 0
-846 366 0
-362 -366 846 0
-847 363 0
-847 375 0
-363 -375 847 0
-848 364 0
-848 384 0
-364 -384 848 0
-33 -841 0
-33 -842 0
-33 -843 0
-33 -844 0
-33 -845 0
-33 -846 0
-33 -847 0
-33 -848 0
-357 33 841 842 843 844 845 846 847 848 0
-53 358 0
-849 356 0
-849 305 0
-356 -305 849 0
-850 357 0
-850 304 0
-357 -304 850 0
-851 359 0
-851 331 0
-359 -331 851 0
-852 360 0
-852 340 0
-360 -340 852 0
-853 361 0
-853 349 0
-361 -349 853 0
-854 362 0
-854 367 0
-362 -367 854 0
-855 363 0
-855 376 0
-363 -376 855 0
-856 364 0
-856 385 0
-364 -385 856 0
-53 -849 0
-53 -850 0
-53 -851 0
-53 -852 0
-53 -853 0
-53 -854 0
-53 -855 0
-53 -856 0
-358 53 849 850 851 852 853 854 855 856 0
-73 359 0
-857 356 0
-857 307 0
-356 -307 857 0
-858 357 0
-858 306 0
-357 -306 858 0
-859 358 0
-859 322 0
-358 -322 859 0
-860 360 0
-860 341 0
-360 -341 860 0
-861 361 0
-861 350 0
-361 -350 861 0
-862 362 0
-862 368 0
-362 -368 862 0
-863 363 0
-863 377 0
-363 -377 863 0
-864 364 0
-864 386 0
-364 -386 864 0
-73 -857 0
-73 -858 0
-73 -859 0
-73 -860 0
-73 -861 0
-73 -862 0
-73 -863 0
-73 -864 0
-359 73 857 858 859 860 861 862 863 864 0
-93 360 0
-865 356 0
-865 309 0
-356 -309 865 0
-866 357 0
-866 308 0
-357 -308 866 0
-867 358 0
-867 323 0
-358 -323 867 0
-868 359 0
-868 332 0
-359 -332 868 0
-869 361 0
-869 351 0
-361 -351 869 0
-870 362 0
-870 369 0
-362 -369 870 0
-871 363 0
-871 378 0
-363 -378 871 0
-872 364 0
-872 387 0
-364 -387 872 0
-93 -865 0
-93 -866 0
-93 -867 0
-93 -868 0
-93 -869 0
-93 -870 0
-93 -871 0
-93 -872 0
-360 93 865 866 867 868 869 870 871 872 0
-113 361 0
-873 356 0
-873 311 0
-356 -311 873 0
-874 357 0
-874 310 0
-357 -310 874 0
-875 358 0
-875 324 0
-358 -324 875 0
-876 359 0
-876 333 0
-359 -333 876 0
-877 360 0
-877 342 0
-360 -342 877 0
-878 362 0
-878 370 0
-362 -370 878 0
-879 363 0
-879 379 0
-363 -379 879 0
-880 364 0
-880 388 0
-364 -388 880 0
-113 -873 0
-113 -874 0
-113 -875 0
-113 -876 0
-113 -877 0
-113 -878 0
-113 -879 0
-113 -880 0
-361 113 873 874 875 876 877 878 879 880 0
-133 0
-153 362 0
-881 356 0
-881 315 0
-356 -315 881 0
-882 357 0
-882 314 0
-357 -314 882 0
-883 358 0
-883 326 0
-358 -326 883 0
-884 359 0
-884 335 0
-359 -335 884 0
-885 360 0
-885 344 0
-360 -344 885 0
-886 361 0
-886 353 0
-361 -353 886 0
-887 363 0
-887 381 0
-363 -381 887 0
-888 364 0
-888 390 0
-364 -390 888 0
-153 -881 0
-153 -882 0
-153 -883 0
-153 -884 0
-153 -885 0
-153 -886 0
-153 -887 0
-153 -888 0
-362 153 881 882 883 884 885 886 887 888 0
-173 363 0
-889 356 0
-889 317 0
-356 -317 889 0
-890 357 0
-890 316 0
-357 -316 890 0
-891 358 0
-891 327 0
-358 -327 891 0
-892 359 0
-892 336 0
-359 -336 892 0
-893 360 0
-893 345 0
-360 -345 893 0
-894 361 0
-894 354 0
-361 -354 894 0
-895 362 0
-895 372 0
-362 -372 895 0
-896 364 0
-896 391 0
-364 -391 896 0
-173 -889 0
-173 -890 0
-173 -891 0
-173 -892 0
-173 -893 0
-173 -894 0
-173 -895 0
-173 -896 0
-363 173 889 890 891 892 893 894 895 896 0
-193 364 0
-897 356 0
-897 319 0
-356 -319 897 0
-898 357 0
-898 318 0
-357 -318 898 0
-899 358 0
-899 328 0
-358 -328 899 0
-900 359 0
-900 337 0
-359 -337 900 0
-901 360 0
-901 346 0
-360 -346 901 0
-902 361 0
-902 355 0
-361 -355 902 0
-903 362 0
-903 373 0
-362 -373 903 0
-904 363 0
-904 382 0
-363 -382 904 0
-193 -897 0
-193 -898 0
-193 -899 0
-193 -900 0
-193 -901 0
-193 -902 0
-193 -903 0
-193 -904 0
-364 193 897 898 899 900 901 902 903 904 0
-15 365 0
-905 366 0
-905 303 0
-366 -303 905 0
-906 367 0
-906 320 0
-367 -320 906 0
-907 368 0
-907 329 0
-368 -329 907 0
-908 369 0
-908 338 0
-369 -338 908 0
-909 370 0
-909 347 0
-370 -347 909 0
-910 371 0
-910 356 0
-371 -356 910 0
-911 372 0
-911 374 0
-372 -374 911 0
-912 373 0
-912 383 0
-373 -383 912 0
-15 -905 0
-15 -906 0
-15 -907 0
-15 -908 0
-15 -909 0
-15 -910 0
-15 -911 0
-15 -912 0
-365 15 905 906 907 908 909 910 911 912 0
-35 366 0
-913 365 0
-913 302 0
-365 -302 913 0
-914 367 0
-914 321 0
-367 -321 914 0
-915 368 0
-915 330 0
-368 -330 915 0
-916 369 0
-916 339 0
-369 -339 916 0
-917 370 0
-917 348 0
-370 -348 917 0
-918 371 0
-918 357 0
-371 -357 918 0
-919 372 0
-919 375 0
-372 -375 919 0
-920 373 0
-920 384 0
-373 -384 920 0
-35 -913 0
-35 -914 0
-35 -915 0
-35 -916 0
-35 -917 0
-35 -918 0
-35 -919 0
-35 -920 0
-366 35 913 914 915 916 917 918 919 920 0
-55 367 0
-921 365 0
-921 305 0
-365 -305 921 0
-922 366 0
-922 304 0
-366 -304 922 0
-923 368 0
-923 331 0
-368 -331 923 0
-924 369 0
-924 340 0
-369 -340 924 0
-925 370 0
-925 349 0
-370 -349 925 0
-926 371 0
-926 358 0
-371 -358 926 0
-927 372 0
-927 376 0
-372 -376 927 0
-928 373 0
-928 385 0
-373 -385 928 0
-55 -921 0
-55 -922 0
-55 -923 0
-55 -924 0
-55 -925 0
-55 -926 0
-55 -927 0
-55 -928 0
-367 55 921 922 923 924 925 926 927 928 0
-75 368 0
-929 365 0
-929 307 0
-365 -307 929 0
-930 366 0
-930 306 0
-366 -306 930 0
-931 367 0
-931 322 0
-367 -322 931 0
-932 369 0
-932 341 0
-369 -341 932 0
-933 370 0
-933 350 0
-370 -350 933 0
-934 371 0
-934 359 0
-371 -359 934 0
-935 372 0
-935 377 0
-372 -377 935 0
-936 373 0
-936 386 0
-373 -386 936 0
-75 -929 0
-75 -930 0
-75 -931 0
-75 -932 0
-75 -933 0
-75 -934 0
-75 -935 0
-75 -936 0
-368 75 929 930 931 932 933 934 935 936 0
-95 369 0
-937 365 0
-937 309 0
-365 -309 937 0
-938 366 0
-938 308 0
-366 -308 938 0
-939 367 0
-939 323 0
-367 -323 939 0
-940 368 0
-940 332 0
-368 -332 940 0
-941 370 0
-941 351 0
-370 -351 941 0
-942 371 0
-942 360 0
-371 -360 942 0
-943 372 0
-943 378 0
-372 -378 943 0
-944 373 0
-944 387 0
-373 -387 944 0
-95 -937 0
-95 -938 0
-95 -939 0
-95 -940 0
-95 -941 0
-95 -942 0
-95 -943 0
-95 -944 0
-369 95 937 938 939 940 941 942 943 944 0
-115 370 0
-945 365 0
-945 311 0
-365 -311 945 0
-946 366 0
-946 310 0
-366 -310 946 0
-947 367 0
-947 324 0
-367 -324 947 0
-948 368 0
-948 333 0
-368 -333 948 0
-949 369 0
-949 342 0
-369 -342 949 0
-950 371 0
-950 361 0
-371 -361 950 0
-951 372 0
-951 379 0
-372 -379 951 0
-952 373 0
-952 388 0
-373 -388 952 0
-115 -945 0
-115 -946 0
-115 -947 0
-115 -948 0
-115 -949 0
-115 -950 0
-115 -951 0
-115 -952 0
-370 115 945 946 947 948 949 950 951 952 0
-135 371 0
-953 365 0
-953 313 0
-365 -313 953 0
-954 366 0
-954 312 0
-366 -312 954 0
-955 367 0
-955 325 0
-367 -325 955 0
-956 368 0
-956 334 0
-368 -334 956 0
-957 369 0
-957 343 0
-369 -343 957 0
-958 370 0
-958 352 0
-370 -352 958 0
-959 372 0
-959 380 0
-372 -380 959 0
-960 373 0
-960 389 0
-373 -389 960 0
-135 -953 0
-135 -954 0
-135 -955 0
-135 -956 0
-135 -957 0
-135 -958 0
-135 -959 0
-135 -960 0
-371 135 953 954 955 956 957 958 959 960 0
-155 0
-175 372 0
-961 365 0
-961 317 0
-365 -317 961 0
-962 366 0
-962 316 0
-366 -316 962 0
-963 367 0
-963 327 0
-367 -327 963 0
-964 368 0
-964 336 0
-368 -336 964 0
-965 369 0
-965 345 0
-369 -345 965 0
-966 370 0
-966 354 0
-370 -354 966 0
-967 371 0
-967 363 0
-371 -363 967 0
-968 373 0
-968 391 0
-373 -391 968 0
-175 -961 0
-175 -962 0
-175 -963 0
-175 -964 0
-175 -965 0
-175 -966 0
-175 -967 0
-175 -968 0
-372 175 961 962 963 964 965 966 967 968 0
-195 373 0
-969 365 0
-969 319 0
-365 -319 969 0
-970 366 0
-970 318 0
-366 -318 970 0
-971 367 0
-971 328 0
-367 -328 971 0
-972 368 0
-972 337 0
-368 -337 972 0
-973 369 0
-973 346 0
-369 -346 973 0
-974 370 0
-974 355 0
-370 -355 974 0
-975 371 0
-975 364 0
-371 -364 975 0
-976 372 0
-976 382 0
-372 -382 976 0
-195 -969 0
-195 -970 0
-195 -971 0
-195 -972 0
-195 -973 0
-195 -974 0
-195 -975 0
-195 -976 0
-373 195 969 970 971 972 973 974 975 976 0
-17 374 0
-977 375 0
-977 303 0
-375 -303 977 0
-978 376 0
-978 320 0
-376 -320 978 0
-979 377 0
-979 329 0
-377 -329 979 0
-980 378 0
-980 338 0
-378 -338 980 0
-981 379 0
-981 347 0
-379 -347 981 0
-982 380 0
-982 356 0
-380 -356 982 0
-983 381 0
-983 365 0
-381 -365 983 0
-984 382 0
-984 383 0
-382 -383 984 0
-17 -977 0
-17 -978 0
-17 -979 0
-17 -980 0
-17 -981 0
-17 -982 0
-17 -983 0
-17 -984 0
-374 17 977 978 979 980 981 982 983 984 0
-37 375 0
-985 374 0
-985 302 0
-374 -302 985 0
-986 376 0
-986 321 0
-376 -321 986 0
-987 377 0
-987 330 0
-377 -330 987 0
-988 378 0
-988 339 0
-378 -339 988 0
-989 379 0
-989 348 0
-379 -348 989 0
-990 380 0
-990 357 0
-380 -357 990 0
-991 381 0
-991 366 0
-381 -366 991 0
-992 382 0
-992 384 0
-382 -384 992 0
-37 -985 0
-37 -986 0
-37 -987 0
-37 -988 0
-37 -989 0
-37 -990 0
-37 -991 0
-37 -992 0
-375 37 985 986 987 988 989 990 991 992 0
-57 376 0
-993 374 0
-993 305 0
-374 -305 993 0
-994 375 0
-994 304 0
-375 -304 994 0
-995 377 0
-995 331 0
-377 -331 995 0
-996 378 0
-996 340 0
-378 -340 996 0
-997 379 0
-997 349 0
-379 -349 997 0
-998 380 0
-998 358 0
-380 -358 998 0
-999 381 0
-999 367 0
-381 -367 999 0
-1000 382 0
-1000 385 0
-382 -385 1000 0
-57 -993 0
-57 -994 0
-57 -995 0
-57 -996 0
-57 -997 0
-57 -998 0
-57 -999 0
-57 -1000 0
-376 57 993 994 995 996 997 998 999 1000 0
-77 377 0
-1001 374 0
-1001 307 0
-374 -307 1001 0
-1002 375 0
-1002 306 0
-375 -306 1002 0
-1003 376 0
-1003 322 0
-376 -322 1003 0
-1004 378 0
-1004 341 0
-378 -341 1004 0
-1005 379 0
-1005 350 0
-379 -350 1005 0
-1006 380 0
-1006 359 0
-380 -359 1006 0
-1007 381 0
-1007 368 0
-381 -368 1007 0
-1008 382 0
-1008 386 0
-382 -386 1008 0
-77 -1001 0
-77 -1002 0
-77 -1003 0
-77 -1004 0
-77 -1005 0
-77 -1006 0
-77 -1007 0
-77 -1008 0
-377 77 1001 1002 1003 1004 1005 1006 1007 1008 0
-97 378 0
-1009 374 0
-1009 309 0
-374 -309 1009 0
-1010 375 0
-1010 308 0
-375 -308 1010 0
-1011 376 0
-1011 323 0
-376 -323 1011 0
-1012 377 0
-1012 332 0
-377 -332 1012 0
-1013 379 0
-1013 351 0
-379 -351 1013 0
-1014 380 0
-1014 360 0
-380 -360 1014 0
-1015 381 0
-1015 369 0
-381 -369 1015 0
-1016 382 0
-1016 387 0
-382 -387 1016 0
-97 -1009 0
-97 -1010 0
-97 -1011 0
-97 -1012 0
-97 -1013 0
-97 -1014 0
-97 -1015 0
-97 -1016 0
-378 97 1009 1010 1011 1012 1013 1014 1015 1016 0
-117 379 0
-1017 374 0
-1017 311 0
-374 -311 1017 0
-1018 375 0
-1018 310 0
-375 -310 1018 0
-1019 376 0
-1019 324 0
-376 -324 1019 0
-1020 377 0
-1020 333 0
-377 -333 1020 0
-1021 378 0
-1021 342 0
-378 -342 1021 0
-1022 380 0
-1022 361 0
-380 -361 1022 0
-1023 381 0
-1023 370 0
-381 -370 1023 0
-1024 382 0
-1024 388 0
-382 -388 1024 0
-117 -1017 0
-117 -1018 0
-117 -1019 0
-117 -1020 0
-117 -1021 0
-117 -1022 0
-117 -1023 0
-117 -1024 0
-379 117 1017 1018 1019 1020 1021 1022 1023 1024 0
-137 380 0
-1025 374 0
-1025 313 0
-374 -313 1025 0
-1026 375 0
-1026 312 0
-375 -312 1026 0
-1027 376 0
-1027 325 0
-376 -325 1027 0
-1028 377 0
-1028 334 0
-377 -334 1028 0
-1029 378 0
-1029 343 0
-378 -343 1029 0
-1030 379 0
-1030 352 0
-379 -352 1030 0
-1031 381 0
-1031 371 0
-381 -371 1031 0
-1032 382 0
-1032 389 0
-382 -389 1032 0
-137 -1025 0
-137 -1026 0
-137 -1027 0
-137 -1028 0
-137 -1029 0
-137 -1030 0
-137 -1031 0
-137 -1032 0
-380 137 1025 1026 1027 1028 1029 1030 1031 1032 0
-157 381 0
-1033 374 0
-1033 315 0
-374 -315 1033 0
-1034 375 0
-1034 314 0
-375 -314 1034 0
-1035 376 0
-1035 326 0
-376 -326 1035 0
-1036 377 0
-1036 335 0
-377 -335 1036 0
-1037 378 0
-1037 344 0
-378 -344 1037 0
-1038 379 0
-1038 353 0
-379 -353 1038 0
-1039 380 0
-1039 362 0
-380 -362 1039 0
-1040 382 0
-1040 390 0
-382 -390 1040 0
-157 -1033 0
-157 -1034 0
-157 -1035 0
-157 -1036 0
-157 -1037 0
-157 -1038 0
-157 -1039 0
-157 -1040 0
-381 157 1033 1034 1035 1036 1037 1038 1039 1040 0
-177 0
-197 382 0
-1041 374 0
-1041 319 0
-374 -319 1041 0
-1042 375 0
-1042 318 0
-375 -318 1042 0
-1043 376 0
-1043 328 0
-376 -328 1043 0
-1044 377 0
-1044 337 0
-377 -337 1044 0
-1045 378 0
-1045 346 0
-378 -346 1045 0
-1046 379 0
-1046 355 0
-379 -355 1046 0
-1047 380 0
-1047 364 0
-380 -364 1047 0
-1048 381 0
-1048 373 0
-381 -373 1048 0
-197 -1041 0
-197 -1042 0
-197 -1043 0
-197 -1044 0
-197 -1045 0
-197 -1046 0
-197 -1047 0
-197 -1048 0
-382 197 1041 1042 1043 1044 1045 1046 1047 1048 0
-19 383 0
-1049 384 0
-1049 303 0
-384 -303 1049 0
-1050 385 0
-1050 320 0
-385 -320 1050 0
-1051 386 0
-1051 329 0
-386 -329 1051 0
-1052 387 0
-1052 338 0
-387 -338 1052 0
-1053 388 0
-1053 347 0
-388 -347 1053 0
-1054 389 0
-1054 356 0
-389 -356 1054 0
-1055 390 0
-1055 365 0
-390 -365 1055 0
-1056 391 0
-1056 374 0
-391 -374 1056 0
-19 -1049 0
-19 -1050 0
-19 -1051 0
-19 -1052 0
-19 -1053 0
-19 -1054 0
-19 -1055 0
-19 -1056 0
-383 19 1049 1050 1051 1052 1053 1054 1055 1056 0
-39 384 0
-1057 383 0
-1057 302 0
-383 -302 1057 0
-1058 385 0
-1058 321 0
-385 -321 1058 0
-1059 386 0
-1059 330 0
-386 -330 1059 0
-1060 387 0
-1060 339 0
-387 -339 1060 0
-1061 388 0
-1061 348 0
-388 -348 1061 0
-1062 389 0
-1062 357 0
-389 -357 1062 0
-1063 390 0
-1063 366 0
-390 -366 1063 0
-1064 391 0
-1064 375 0
-391 -375 1064 0
-39 -1057 0
-39 -1058 0
-39 -1059 0
-39 -1060 0
-39 -1061 0
-39 -1062 0
-39 -1063 0
-39 -1064 0
-384 39 1057 1058 1059 1060 1061 1062 1063 1064 0
-59 385 0
-1065 383 0
-1065 305 0
-383 -305 1065 0
-1066 384 0
-1066 304 0
-384 -304 1066 0
-1067 386 0
-1067 331 0
-386 -331 1067 0
-1068 387 0
-1068 340 0
-387 -340 1068 0
-1069 388 0
-1069 349 0
-388 -349 1069 0
-1070 389 0
-1070 358 0
-389 -358 1070 0
-1071 390 0
-1071 367 0
-390 -367 1071 0
-1072 391 0
-1072 376 0
-391 -376 1072 0
-59 -1065 0
-59 -1066 0
-59 -1067 0
-59 -1068 0
-59 -1069 0
-59 -1070 0
-59 -1071 0
-59 -1072 0
-385 59 1065 1066 1067 1068 1069 1070 1071 1072 0
-79 386 0
-1073 383 0
-1073 307 0
-383 -307 1073 0
-1074 384 0
-1074 306 0
-384 -306 1074 0
-1075 385 0
-1075 322 0
-385 -322 1075 0
-1076 387 0
-1076 341 0
-387 -341 1076 0
-1077 388 0
-1077 350 0
-388 -350 1077 0
-1078 389 0
-1078 359 0
-389 -359 1078 0
-1079 390 0
-1079 368 0
-390 -368 1079 0
-1080 391 0
-1080 377 0
-391 -377 1080 0
-79 -1073 0
-79 -1074 0
-79 -1075 0
-79 -1076 0
-79 -1077 0
-79 -1078 0
-79 -1079 0
-79 -1080 0
-386 79 1073 1074 1075 1076 1077 1078 1079 1080 0
-99 387 0
-1081 383 0
-1081 309 0
-383 -309 1081 0
-1082 384 0
-1082 308 0
-384 -308 1082 0
-1083 385 0
-1083 323 0
-385 -323 1083 0
-1084 386 0
-1084 332 0
-386 -332 1084 0
-1085 388 0
-1085 351 0
-388 -351 1085 0
-1086 389 0
-1086 360 0
-389 -360 1086 0
-1087 390 0
-1087 369 0
-390 -369 1087 0
-1088 391 0
-1088 378 0
-391 -378 1088 0
-99 -1081 0
-99 -1082 0
-99 -1083 0
-99 -1084 0
-99 -1085 0
-99 -1086 0
-99 -1087 0
-99 -1088 0
-387 99 1081 1082 1083 1084 1085 1086 1087 1088 0
-119 388 0
-1089 383 0
-1089 311 0
-383 -311 1089 0
-1090 384 0
-1090 310 0
-384 -310 1090 0
-1091 385 0
-1091 324 0
-385 -324 1091 0
-1092 386 0
-1092 333 0
-386 -333 1092 0
-1093 387 0
-1093 342 0
-387 -342 1093 0
-1094 389 0
-1094 361 0
-389 -361 1094 0
-1095 390 0
-1095 370 0
-390 -370 1095 0
-1096 391 0
-1096 379 0
-391 -379 1096 0
-119 -1089 0
-119 -1090 0
-119 -1091 0
-119 -1092 0
-119 -1093 0
-119 -1094 0
-119 -1095 0
-119 -1096 0
-388 119 1089 1090 1091 1092 1093 1094 1095 1096 0
-139 389 0
-1097 383 0
-1097 313 0
-383 -313 1097 0
-1098 384 0
-1098 312 0
-384 -312 1098 0
-1099 385 0
-1099 325 0
-385 -325 1099 0
-1100 386 0
-1100 334 0
-386 -334 1100 0
-1101 387 0
-1101 343 0
-387 -343 1101 0
-1102 388 0
-1102 352 0
-388 -352 1102 0
-1103 390 0
-1103 371 0
-390 -371 1103 0
-1104 391 0
-1104 380 0
-391 -380 1104 0
-139 -1097 0
-139 -1098 0
-139 -1099 0
-139 -1100 0
-139 -1101 0
-139 -1102 0
-139 -1103 0
-139 -1104 0
-389 139 1097 1098 1099 1100 1101 1102 1103 1104 0
-159 390 0
-1105 383 0
-1105 315 0
-383 -315 1105 0
-1106 384 0
-1106 314 0
-384 -314 1106 0
-1107 385 0
-1107 326 0
-385 -326 1107 0
-1108 386 0
-1108 335 0
-386 -335 1108 0
-1109 387 0
-1109 344 0
-387 -344 1109 0
-1110 388 0
-1110 353 0
-388 -353 1110 0
-1111 389 0
-1111 362 0
-389 -362 1111 0
-1112 391 0
-1112 381 0
-391 -381 1112 0
-159 -1105 0
-159 -1106 0
-159 -1107 0
-159 -1108 0
-159 -1109 0
-159 -1110 0
-159 -1111 0
-159 -1112 0
-390 159 1105 1106 1107 1108 1109 1110 1111 1112 0
-179 391 0
-1113 383 0
-1113 317 0
-383 -317 1113 0
-1114 384 0
-1114 316 0
-384 -316 1114 0
-1115 385 0
-1115 327 0
-385 -327 1115 0
-1116 386 0
-1116 336 0
-386 -336 1116 0
-1117 387 0
-1117 345 0
-387 -345 1117 0
-1118 388 0
-1118 354 0
-388 -354 1118 0
-1119 389 0
-1119 363 0
-389 -363 1119 0
-1120 390 0
-1120 372 0
-390 -372 1120 0
-179 -1113 0
-179 -1114 0
-179 -1115 0
-179 -1116 0
-179 -1117 0
-179 -1118 0
-179 -1119 0
-179 -1120 0
-391 179 1113 1114 1115 1116 1117 1118 1119 1120 0
-199 0
