p cnf 2968 14630
1 -2 0
3 -4 0
5 -6 0
7 -8 0
9 -10 0
11 -12 0
13 -14 0
15 -16 0
17 -18 0
19 -20 0
21 -22 0
23 -24 0
25 -26 0
27 -28 0
29 -30 0
31 -32 0
33 -34 0
35 -36 0
37 -38 0
39 -40 0
41 -42 0
43 -44 0
45 -46 0
47 -48 0
49 -50 0
51 -52 0
53 -54 0
55 -56 0
57 -58 0
59 -60 0
61 -62 0
63 -64 0
65 -66 0
67 -68 0
69 -70 0
71 -72 0
73 -74 0
75 -76 0
77 -78 0
79 -80 0
81 -82 0
83 -84 0
85 -86 0
87 -88 0
89 -90 0
91 -92 0
93 -94 0
95 -96 0
97 -98 0
99 -100 0
101 -102 0
103 -104 0
105 -106 0
107 -108 0
109 -110 0
111 -112 0
113 -114 0
115 -116 0
117 -118 0
119 -120 0
121 -122 0
123 -124 0
125 -126 0
127 -128 0
129 -130 0
131 -132 0
133 -134 0
135 -136 0
137 -138 0
139 -140 0
141 -142 0
143 -144 0
145 -146 0
147 -148 0
149 -150 0
151 -152 0
153 -154 0
155 -156 0
157 -158 0
159 -160 0
161 -162 0
163 -164 0
165 -166 0
167 -168 0
169 -170 0
171 -172 0
173 -174 0
175 -176 0
177 -178 0
179 -180 0
181 -182 0
183 -184 0
185 -186 0
187 -188 0
189 -190 0
191 -192 0
193 -194 0
195 -196 0
197 -198 0
199 -200 0
201 -202 0
203 -204 0
205 -206 0
207 -208 0
209 -210 0
211 -212 0
213 -214 0
215 -216 0
217 -218 0
219 -220 0
221 -222 0
223 -224 0
225 -226 0
227 -228 0
229 -230 0
231 -232 0
233 -234 0
235 -236 0
237 -238 0
239 -240 0
241 -242 0
243 -244 0
245 -246 0
247 -248 0
249 -250 0
251 -252 0
253 -254 0
255 -256 0
257 -258 0
259 -260 0
261 -262 0
263 -264 0
265 -266 0
267 -268 0
269 -270 0
271 -272 0
273 -274 0
275 -276 0
277 -278 0
279 -280 0
281 -282 0
283 -284 0
285 -286 0
287 -288 0
289 -290 0
291 -292 0
293 -294 0
295 -296 0
297 -298 0
299 -300 0
301 -302 0
303 -304 0
305 -306 0
307 -308 0
309 -310 0
311 -312 0
313 -314 0
315 -316 0
317 -318 0
319 -320 0
321 -322 0
323 -324 0
325 -326 0
327 -328 0
329 -330 0
331 -332 0
333 -334 0
335 -336 0
337 -338 0
339 -340 0
341 -342 0
343 -344 0
345 -346 0
347 -348 0
349 -350 0
351 -352 0
353 -354 0
355 -356 0
357 -358 0
359 -360 0
361 -362 0
363 -364 0
365 -366 0
367 -368 0
369 -370 0
371 -372 0
373 -374 0
375 -376 0
377 -378 0
379 -380 0
381 -382 0
383 -384 0
385 -386 0
387 -388 0
389 -390 0
391 -392 0
2 -393 -1 0
4 -394 -3 0
6 -395 -5 0
8 -396 -7 0
10 -397 -9 0
12 -398 -11 0
14 -399 -13 0
16 -400 -15 0
18 -401 -17 0
20 -402 -19 0
22 -403 -21 0
24 -404 -23 0
26 -405 -25 0
28 -406 -27 0
30 -407 -29 0
32 -408 -31 0
34 -409 -33 0
36 -410 -35 0
38 -411 -37 0
40 -412 -39 0
42 -413 -41 0
44 -414 -43 0
46 -415 -45 0
48 -416 -47 0
50 -417 -49 0
52 -418 -51 0
54 -419 -53 0
56 -420 -55 0
58 -421 -57 0
60 -422 -59 0
62 -423 -61 0
64 -424 -63 0
66 -425 -65 0
68 -426 -67 0
70 -427 -69 0
72 -428 -71 0
74 -429 -73 0
76 -430 -75 0
78 -431 -77 0
80 -432 -79 0
82 -433 -81 0
84 -434 -83 0
86 -435 -85 0
88 -436 -87 0
90 -437 -89 0
92 -438 -91 0
94 -439 -93 0
96 -440 -95 0
98 -441 -97 0
100 -442 -99 0
102 -443 -101 0
104 -444 -103 0
106 -445 -105 0
108 -446 -107 0
110 -447 -109 0
112 -448 -111 0
114 -449 -113 0
116 -450 -115 0
118 -451 -117 0
120 -452 -119 0
122 -453 -121 0
124 -454 -123 0
126 -455 -125 0
128 -456 -127 0
130 -457 -129 0
132 -458 -131 0
134 -459 -133 0
136 -460 -135 0
138 -461 -137 0
140 -462 -139 0
142 -463 -141 0
144 -464 -143 0
146 -465 -145 0
148 -466 -147 0
150 -467 -149 0
152 -468 -151 0
154 -469 -153 0
156 -470 -155 0
158 -471 -157 0
160 -472 -159 0
162 -473 -161 0
164 -474 -163 0
166 -475 -165 0
168 -476 -167 0
170 -477 -169 0
172 -478 -171 0
174 -479 -173 0
176 -480 -175 0
178 -481 -177 0
180 -482 -179 0
182 -483 -181 0
184 -484 -183 0
186 -485 -185 0
188 -486 -187 0
190 -487 -189 0
192 -488 -191 0
194 -489 -193 0
196 -490 -195 0
198 -491 -197 0
200 -492 -199 0
202 -493 -201 0
204 -494 -203 0
206 -495 -205 0
208 -496 -207 0
210 -497 -209 0
212 -498 -211 0
214 -499 -213 0
216 -500 -215 0
218 -501 -217 0
220 -502 -219 0
222 -503 -221 0
224 -504 -223 0
226 -505 -225 0
228 -506 -227 0
230 -507 -229 0
232 -508 -231 0
234 -509 -233 0
236 -510 -235 0
238 -511 -237 0
240 -512 -239 0
242 -513 -241 0
244 -514 -243 0
246 -515 -245 0
248 -516 -247 0
250 -517 -249 0
252 -518 -251 0
254 -519 -253 0
256 -520 -255 0
258 -521 -257 0
260 -522 -259 0
262 -523 -261 0
264 -524 -263 0
266 -525 -265 0
268 -526 -267 0
270 -527 -269 0
272 -528 -271 0
274 -529 -273 0
276 -530 -275 0
278 -531 -277 0
280 -532 -279 0
282 -533 -281 0
284 -534 -283 0
286 -535 -285 0
288 -536 -287 0
290 -537 -289 0
292 -538 -291 0
294 -539 -293 0
296 -540 -295 0
298 -541 -297 0
300 -542 -299 0
302 -543 -301 0
304 -544 -303 0
306 -545 -305 0
308 -546 -307 0
310 -547 -309 0
312 -548 -311 0
314 -549 -313 0
316 -550 -315 0
318 -551 -317 0
320 -552 -319 0
322 -553 -321 0
324 -554 -323 0
326 -555 -325 0
328 -556 -327 0
330 -557 -329 0
332 -558 -331 0
334 -559 -333 0
336 -560 -335 0
338 -561 -337 0
340 -562 -339 0
342 -563 -341 0
344 -564 -343 0
346 -565 -345 0
348 -566 -347 0
350 -567 -349 0
352 -568 -351 0
354 -569 -353 0
356 -570 -355 0
358 -571 -357 0
360 -572 -359 0
362 -573 -361 0
364 -574 -363 0
366 -575 -365 0
368 -576 -367 0
370 -577 -369 0
372 -578 -371 0
374 -579 -373 0
376 -580 -375 0
378 -581 -377 0
380 -582 -379 0
382 -583 -381 0
384 -584 -383 0
386 -585 -385 0
388 -586 -387 0
390 -587 -389 0
392 -588 -391 0
393 0
407 394 0
-407 -394 0
-407 -422 421 0
-407 -436 435 0
-407 -450 449 0
-407 -464 463 0
-407 -478 477 0
-407 -492 491 0
-407 -506 505 0
-407 -520 519 0
-407 -534 533 0
-407 -548 547 0
-407 -562 561 0
-407 -576 575 0
421 395 0
-421 -395 0
-421 -409 407 0
-421 -437 435 0
-421 -451 449 0
-421 -465 463 0
-421 -479 477 0
-421 -493 491 0
-421 -507 505 0
-421 -521 519 0
-421 -535 533 0
-421 -549 547 0
-421 -563 561 0
-421 -577 575 0
435 396 0
-435 -396 0
-435 -410 407 0
-435 -424 421 0
-435 -452 449 0
-435 -466 463 0
-435 -480 477 0
-435 -494 491 0
-435 -508 505 0
-435 -522 519 0
-435 -536 533 0
-435 -550 547 0
-435 -564 561 0
-435 -578 575 0
449 397 0
-449 -397 0
-449 -411 407 0
-449 -425 421 0
-449 -439 435 0
-449 -467 463 0
-449 -481 477 0
-449 -495 491 0
-449 -509 505 0
-449 -523 519 0
-449 -537 533 0
-449 -551 547 0
-449 -565 561 0
-449 -579 575 0
463 398 0
-463 -398 0
-463 -412 407 0
-463 -426 421 0
-463 -440 435 0
-463 -454 449 0
-463 -482 477 0
-463 -496 491 0
-463 -510 505 0
-463 -524 519 0
-463 -538 533 0
-463 -552 547 0
-463 -566 561 0
-463 -580 575 0
477 399 0
-477 -399 0
-477 -413 407 0
-477 -427 421 0
-477 -441 435 0
-477 -455 449 0
-477 -469 463 0
-477 -497 491 0
-477 -511 505 0
-477 -525 519 0
-477 -539 533 0
-477 -553 547 0
-477 -567 561 0
-477 -581 575 0
491 400 0
-491 -400 0
-491 -414 407 0
-491 -428 421 0
-491 -442 435 0
-491 -456 449 0
-491 -470 463 0
-491 -484 477 0
-491 -512 505 0
-491 -526 519 0
-491 -540 533 0
-491 -554 547 0
-491 -568 561 0
-491 -582 575 0
505 401 0
-505 -401 0
-505 -415 407 0
-505 -429 421 0
-505 -443 435 0
-505 -457 449 0
-505 -471 463 0
-505 -485 477 0
-505 -499 491 0
-505 -527 519 0
-505 -541 533 0
-505 -555 547 0
-505 -569 561 0
-505 -583 575 0
519 402 0
-519 -402 0
-519 -416 407 0
-519 -430 421 0
-519 -444 435 0
-519 -458 449 0
-519 -472 463 0
-519 -486 477 0
-519 -500 491 0
-519 -514 505 0
-519 -542 533 0
-519 -556 547 0
-519 -570 561 0
-519 -584 575 0
533 403 0
-533 -403 0
-533 -417 407 0
-533 -431 421 0
-533 -445 435 0
-533 -459 449 0
-533 -473 463 0
-533 -487 477 0
-533 -501 491 0
-533 -515 505 0
-533 -529 519 0
-533 -557 547 0
-533 -571 561 0
-533 -585 575 0
547 404 0
-547 -404 0
-547 -418 407 0
-547 -432 421 0
-547 -446 435 0
-547 -460 449 0
-547 -474 463 0
-547 -488 477 0
-547 -502 491 0
-547 -516 505 0
-547 -530 519 0
-547 -544 533 0
-547 -572 561 0
-547 -586 575 0
561 405 0
-561 -405 0
-561 -419 407 0
-561 -433 421 0
-561 -447 435 0
-561 -461 449 0
-561 -475 463 0
-561 -489 477 0
-561 -503 491 0
-561 -517 505 0
-561 -531 519 0
-561 -545 533 0
-561 -559 547 0
-561 -587 575 0
575 406 0
-575 -406 0
-575 -420 407 0
-575 -434 421 0
-575 -448 435 0
-575 -462 449 0
-575 -476 463 0
-575 -490 477 0
-575 -504 491 0
-575 -518 505 0
-575 -532 519 0
-575 -546 533 0
-575 -560 547 0
-575 -574 561 0
408 0
394 407 0
-394 -407 0
-394 -421 422 0
-394 -435 436 0
-394 -449 450 0
-394 -463 464 0
-394 -477 478 0
-394 -491 492 0
-394 -505 506 0
-394 -519 520 0
-394 -533 534 0
-394 -547 548 0
-394 -561 562 0
-394 -575 576 0
422 409 0
-422 -409 0
-422 -395 394 0
-422 -437 436 0
-422 -451 450 0
-422 -465 464 0
-422 -479 478 0
-422 -493 492 0
-422 -507 506 0
-422 -521 520 0
-422 -535 534 0
-422 -549 548 0
-422 -563 562 0
-422 -577 576 0
436 410 0
-436 -410 0
-436 -396 394 0
-436 -424 422 0
-436 -452 450 0
-436 -466 464 0
-436 -480 478 0
-436 -494 492 0
-436 -508 506 0
-436 -522 520 0
-436 -536 534 0
-436 -550 548 0
-436 -564 562 0
-436 -578 576 0
450 411 0
-450 -411 0
-450 -397 394 0
-450 -425 422 0
-450 -439 436 0
-450 -467 464 0
-450 -481 478 0
-450 -495 492 0
-450 -509 506 0
-450 -523 520 0
-450 -537 534 0
-450 -551 548 0
-450 -565 562 0
-450 -579 576 0
464 412 0
-464 -412 0
-464 -398 394 0
-464 -426 422 0
-464 -440 436 0
-464 -454 450 0
-464 -482 478 0
-464 -496 492 0
-464 -510 506 0
-464 -524 520 0
-464 -538 534 0
-464 -552 548 0
-464 -566 562 0
-464 -580 576 0
478 413 0
-478 -413 0
-478 -399 394 0
-478 -427 422 0
-478 -441 436 0
-478 -455 450 0
-478 -469 464 0
-478 -497 492 0
-478 -511 506 0
-478 -525 520 0
-478 -539 534 0
-478 -553 548 0
-478 -567 562 0
-478 -581 576 0
492 414 0
-492 -414 0
-492 -400 394 0
-492 -428 422 0
-492 -442 436 0
-492 -456 450 0
-492 -470 464 0
-492 -484 478 0
-492 -512 506 0
-492 -526 520 0
-492 -540 534 0
-492 -554 548 0
-492 -568 562 0
-492 -582 576 0
506 415 0
-506 -415 0
-506 -401 394 0
-506 -429 422 0
-506 -443 436 0
-506 -457 450 0
-506 -471 464 0
-506 -485 478 0
-506 -499 492 0
-506 -527 520 0
-506 -541 534 0
-506 -555 548 0
-506 -569 562 0
-506 -583 576 0
520 416 0
-520 -416 0
-520 -402 394 0
-520 -430 422 0
-520 -444 436 0
-520 -458 450 0
-520 -472 464 0
-520 -486 478 0
-520 -500 492 0
-520 -514 506 0
-520 -542 534 0
-520 -556 548 0
-520 -570 562 0
-520 -584 576 0
534 417 0
-534 -417 0
-534 -403 394 0
-534 -431 422 0
-534 -445 436 0
-534 -459 450 0
-534 -473 464 0
-534 -487 478 0
-534 -501 492 0
-534 -515 506 0
-534 -529 520 0
-534 -557 548 0
-534 -571 562 0
-534 -585 576 0
548 418 0
-548 -418 0
-548 -404 394 0
-548 -432 422 0
-548 -446 436 0
-548 -460 450 0
-548 -474 464 0
-548 -488 478 0
-548 -502 492 0
-548 -516 506 0
-548 -530 520 0
-548 -544 534 0
-548 -572 562 0
-548 -586 576 0
562 419 0
-562 -419 0
-562 -405 394 0
-562 -433 422 0
-562 -447 436 0
-562 -461 450 0
-562 -475 464 0
-562 -489 478 0
-562 -503 492 0
-562 -517 506 0
-562 -531 520 0
-562 -545 534 0
-562 -559 548 0
-562 -587 576 0
576 420 0
-576 -420 0
-576 -406 394 0
-576 -434 422 0
-576 -448 436 0
-576 -462 450 0
-576 -476 464 0
-576 -490 478 0
-576 -504 492 0
-576 -518 506 0
-576 -532 520 0
-576 -546 534 0
-576 -560 548 0
-576 -574 562 0
423 0
395 421 0
-395 -421 0
-395 -407 409 0
-395 -435 437 0
-395 -449 451 0
-395 -463 465 0
-395 -477 479 0
-395 -491 493 0
-395 -505 507 0
-395 -519 521 0
-395 -533 535 0
-395 -547 549 0
-395 -561 563 0
-395 -575 577 0
409 422 0
-409 -422 0
-409 -394 395 0
-409 -436 437 0
-409 -450 451 0
-409 -464 465 0
-409 -478 479 0
-409 -492 493 0
-409 -506 507 0
-409 -520 521 0
-409 -534 535 0
-409 -548 549 0
-409 -562 563 0
-409 -576 577 0
437 424 0
-437 -424 0
-437 -396 395 0
-437 -410 409 0
-437 -452 451 0
-437 -466 465 0
-437 -480 479 0
-437 -494 493 0
-437 -508 507 0
-437 -522 521 0
-437 -536 535 0
-437 -550 549 0
-437 -564 563 0
-437 -578 577 0
451 425 0
-451 -425 0
-451 -397 395 0
-451 -411 409 0
-451 -439 437 0
-451 -467 465 0
-451 -481 479 0
-451 -495 493 0
-451 -509 507 0
-451 -523 521 0
-451 -537 535 0
-451 -551 549 0
-451 -565 563 0
-451 -579 577 0
465 426 0
-465 -426 0
-465 -398 395 0
-465 -412 409 0
-465 -440 437 0
-465 -454 451 0
-465 -482 479 0
-465 -496 493 0
-465 -510 507 0
-465 -524 521 0
-465 -538 535 0
-465 -552 549 0
-465 -566 563 0
-465 -580 577 0
479 427 0
-479 -427 0
-479 -399 395 0
-479 -413 409 0
-479 -441 437 0
-479 -455 451 0
-479 -469 465 0
-479 -497 493 0
-479 -511 507 0
-479 -525 521 0
-479 -539 535 0
-479 -553 549 0
-479 -567 563 0
-479 -581 577 0
493 428 0
-493 -428 0
-493 -400 395 0
-493 -414 409 0
-493 -442 437 0
-493 -456 451 0
-493 -470 465 0
-493 -484 479 0
-493 -512 507 0
-493 -526 521 0
-493 -540 535 0
-493 -554 549 0
-493 -568 563 0
-493 -582 577 0
507 429 0
-507 -429 0
-507 -401 395 0
-507 -415 409 0
-507 -443 437 0
-507 -457 451 0
-507 -471 465 0
-507 -485 479 0
-507 -499 493 0
-507 -527 521 0
-507 -541 535 0
-507 -555 549 0
-507 -569 563 0
-507 -583 577 0
521 430 0
-521 -430 0
-521 -402 395 0
-521 -416 409 0
-521 -444 437 0
-521 -458 451 0
-521 -472 465 0
-521 -486 479 0
-521 -500 493 0
-521 -514 507 0
-521 -542 535 0
-521 -556 549 0
-521 -570 563 0
-521 -584 577 0
535 431 0
-535 -431 0
-535 -403 395 0
-535 -417 409 0
-535 -445 437 0
-535 -459 451 0
-535 -473 465 0
-535 -487 479 0
-535 -501 493 0
-535 -515 507 0
-535 -529 521 0
-535 -557 549 0
-535 -571 563 0
-535 -585 577 0
549 432 0
-549 -432 0
-549 -404 395 0
-549 -418 409 0
-549 -446 437 0
-549 -460 451 0
-549 -474 465 0
-549 -488 479 0
-549 -502 493 0
-549 -516 507 0
-549 -530 521 0
-549 -544 535 0
-549 -572 563 0
-549 -586 577 0
563 433 0
-563 -433 0
-563 -405 395 0
-563 -419 409 0
-563 -447 437 0
-563 -461 451 0
-563 -475 465 0
-563 -489 479 0
-563 -503 493 0
-563 -517 507 0
-563 -531 521 0
-563 -545 535 0
-563 -559 549 0
-563 -587 577 0
577 434 0
-577 -434 0
-577 -406 395 0
-577 -420 409 0
-577 -448 437 0
-577 -462 451 0
-577 -476 465 0
-577 -490 479 0
-577 -504 493 0
-577 -518 507 0
-577 -532 521 0
-577 -546 535 0
-577 -560 549 0
-577 -574 563 0
438 0
396 435 0
-396 -435 0
-396 -407 410 0
-396 -421 424 0
-396 -449 452 0
-396 -463 466 0
-396 -477 480 0
-396 -491 494 0
-396 -505 508 0
-396 -519 522 0
-396 -533 536 0
-396 -547 550 0
-396 -561 564 0
-396 -575 578 0
410 436 0
-410 -436 0
-410 -394 396 0
-410 -422 424 0
-410 -450 452 0
-410 -464 466 0
-410 -478 480 0
-410 -492 494 0
-410 -506 508 0
-410 -520 522 0
-410 -534 536 0
-410 -548 550 0
-410 -562 564 0
-410 -576 578 0
424 437 0
-424 -437 0
-424 -395 396 0
-424 -409 410 0
-424 -451 452 0
-424 -465 466 0
-424 -479 480 0
-424 -493 494 0
-424 -507 508 0
-424 -521 522 0
-424 -535 536 0
-424 -549 550 0
-424 -563 564 0
-424 -577 578 0
452 439 0
-452 -439 0
-452 -397 396 0
-452 -411 410 0
-452 -425 424 0
-452 -467 466 0
-452 -481 480 0
-452 -495 494 0
-452 -509 508 0
-452 -523 522 0
-452 -537 536 0
-452 -551 550 0
-452 -565 564 0
-452 -579 578 0
466 440 0
-466 -440 0
-466 -398 396 0
-466 -412 410 0
-466 -426 424 0
-466 -454 452 0
-466 -482 480 0
-466 -496 494 0
-466 -510 508 0
-466 -524 522 0
-466 -538 536 0
-466 -552 550 0
-466 -566 564 0
-466 -580 578 0
480 441 0
-480 -441 0
-480 -399 396 0
-480 -413 410 0
-480 -427 424 0
-480 -455 452 0
-480 -469 466 0
-480 -497 494 0
-480 -511 508 0
-480 -525 522 0
-480 -539 536 0
-480 -553 550 0
-480 -567 564 0
-480 -581 578 0
494 442 0
-494 -442 0
-494 -400 396 0
-494 -414 410 0
-494 -428 424 0
-494 -456 452 0
-494 -470 466 0
-494 -484 480 0
-494 -512 508 0
-494 -526 522 0
-494 -540 536 0
-494 -554 550 0
-494 -568 564 0
-494 -582 578 0
508 443 0
-508 -443 0
-508 -401 396 0
-508 -415 410 0
-508 -429 424 0
-508 -457 452 0
-508 -471 466 0
-508 -485 480 0
-508 -499 494 0
-508 -527 522 0
-508 -541 536 0
-508 -555 550 0
-508 -569 564 0
-508 -583 578 0
522 444 0
-522 -444 0
-522 -402 396 0
-522 -416 410 0
-522 -430 424 0
-522 -458 452 0
-522 -472 466 0
-522 -486 480 0
-522 -500 494 0
-522 -514 508 0
-522 -542 536 0
-522 -556 550 0
-522 -570 564 0
-522 -584 578 0
536 445 0
-536 -445 0
-536 -403 396 0
-536 -417 410 0
-536 -431 424 0
-536 -459 452 0
-536 -473 466 0
-536 -487 480 0
-536 -501 494 0
-536 -515 508 0
-536 -529 522 0
-536 -557 550 0
-536 -571 564 0
-536 -585 578 0
550 446 0
-550 -446 0
-550 -404 396 0
-550 -418 410 0
-550 -432 424 0
-550 -460 452 0
-550 -474 466 0
-550 -488 480 0
-550 -502 494 0
-550 -516 508 0
-550 -530 522 0
-550 -544 536 0
-550 -572 564 0
-550 -586 578 0
564 447 0
-564 -447 0
-564 -405 396 0
-564 -419 410 0
-564 -433 424 0
-564 -461 452 0
-564 -475 466 0
-564 -489 480 0
-564 -503 494 0
-564 -517 508 0
-564 -531 522 0
-564 -545 536 0
-564 -559 550 0
-564 -587 578 0
578 448 0
-578 -448 0
-578 -406 396 0
-578 -420 410 0
-578 -434 424 0
-578 -462 452 0
-578 -476 466 0
-578 -490 480 0
-578 -504 494 0
-578 -518 508 0
-578 -532 522 0
-578 -546 536 0
-578 -560 550 0
-578 -574 564 0
453 0
397 449 0
-397 -449 0
-397 -407 411 0
-397 -421 425 0
-397 -435 439 0
-397 -463 467 0
-397 -477 481 0
-397 -491 495 0
-397 -505 509 0
-397 -519 523 0
-397 -533 537 0
-397 -547 551 0
-397 -561 565 0
-397 -575 579 0
411 450 0
-411 -450 0
-411 -394 397 0
-411 -422 425 0
-411 -436 439 0
-411 -464 467 0
-411 -478 481 0
-411 -492 495 0
-411 -506 509 0
-411 -520 523 0
-411 -534 537 0
-411 -548 551 0
-411 -562 565 0
-411 -576 579 0
425 451 0
-425 -451 0
-425 -395 397 0
-425 -409 411 0
-425 -437 439 0
-425 -465 467 0
-425 -479 481 0
-425 -493 495 0
-425 -507 509 0
-425 -521 523 0
-425 -535 537 0
-425 -549 551 0
-425 -563 565 0
-425 -577 579 0
439 452 0
-439 -452 0
-439 -396 397 0
-439 -410 411 0
-439 -424 425 0
-439 -466 467 0
-439 -480 481 0
-439 -494 495 0
-439 -508 509 0
-439 -522 523 0
-439 -536 537 0
-439 -550 551 0
-439 -564 565 0
-439 -578 579 0
467 454 0
-467 -454 0
-467 -398 397 0
-467 -412 411 0
-467 -426 425 0
-467 -440 439 0
-467 -482 481 0
-467 -496 495 0
-467 -510 509 0
-467 -524 523 0
-467 -538 537 0
-467 -552 551 0
-467 -566 565 0
-467 -580 579 0
481 455 0
-481 -455 0
-481 -399 397 0
-481 -413 411 0
-481 -427 425 0
-481 -441 439 0
-481 -469 467 0
-481 -497 495 0
-481 -511 509 0
-481 -525 523 0
-481 -539 537 0
-481 -553 551 0
-481 -567 565 0
-481 -581 579 0
495 456 0
-495 -456 0
-495 -400 397 0
-495 -414 411 0
-495 -428 425 0
-495 -442 439 0
-495 -470 467 0
-495 -484 481 0
-495 -512 509 0
-495 -526 523 0
-495 -540 537 0
-495 -554 551 0
-495 -568 565 0
-495 -582 579 0
509 457 0
-509 -457 0
-509 -401 397 0
-509 -415 411 0
-509 -429 425 0
-509 -443 439 0
-509 -471 467 0
-509 -485 481 0
-509 -499 495 0
-509 -527 523 0
-509 -541 537 0
-509 -555 551 0
-509 -569 565 0
-509 -583 579 0
523 458 0
-523 -458 0
-523 -402 397 0
-523 -416 411 0
-523 -430 425 0
-523 -444 439 0
-523 -472 467 0
-523 -486 481 0
-523 -500 495 0
-523 -514 509 0
-523 -542 537 0
-523 -556 551 0
-523 -570 565 0
-523 -584 579 0
537 459 0
-537 -459 0
-537 -403 397 0
-537 -417 411 0
-537 -431 425 0
-537 -445 439 0
-537 -473 467 0
-537 -487 481 0
-537 -501 495 0
-537 -515 509 0
-537 -529 523 0
-537 -557 551 0
-537 -571 565 0
-537 -585 579 0
551 460 0
-551 -460 0
-551 -404 397 0
-551 -418 411 0
-551 -432 425 0
-551 -446 439 0
-551 -474 467 0
-551 -488 481 0
-551 -502 495 0
-551 -516 509 0
-551 -530 523 0
-551 -544 537 0
-551 -572 565 0
-551 -586 579 0
565 461 0
-565 -461 0
-565 -405 397 0
-565 -419 411 0
-565 -433 425 0
-565 -447 439 0
-565 -475 467 0
-565 -489 481 0
-565 -503 495 0
-565 -517 509 0
-565 -531 523 0
-565 -545 537 0
-565 -559 551 0
-565 -587 579 0
579 462 0
-579 -462 0
-579 -406 397 0
-579 -420 411 0
-579 -434 425 0
-579 -448 439 0
-579 -476 467 0
-579 -490 481 0
-579 -504 495 0
-579 -518 509 0
-579 -532 523 0
-579 -546 537 0
-579 -560 551 0
-579 -574 565 0
468 0
398 463 0
-398 -463 0
-398 -407 412 0
-398 -421 426 0
-398 -435 440 0
-398 -449 454 0
-398 -477 482 0
-398 -491 496 0
-398 -505 510 0
-398 -519 524 0
-398 -533 538 0
-398 -547 552 0
-398 -561 566 0
-398 -575 580 0
412 464 0
-412 -464 0
-412 -394 398 0
-412 -422 426 0
-412 -436 440 0
-412 -450 454 0
-412 -478 482 0
-412 -492 496 0
-412 -506 510 0
-412 -520 524 0
-412 -534 538 0
-412 -548 552 0
-412 -562 566 0
-412 -576 580 0
426 465 0
-426 -465 0
-426 -395 398 0
-426 -409 412 0
-426 -437 440 0
-426 -451 454 0
-426 -479 482 0
-426 -493 496 0
-426 -507 510 0
-426 -521 524 0
-426 -535 538 0
-426 -549 552 0
-426 -563 566 0
-426 -577 580 0
440 466 0
-440 -466 0
-440 -396 398 0
-440 -410 412 0
-440 -424 426 0
-440 -452 454 0
-440 -480 482 0
-440 -494 496 0
-440 -508 510 0
-440 -522 524 0
-440 -536 538 0
-440 -550 552 0
-440 -564 566 0
-440 -578 580 0
454 467 0
-454 -467 0
-454 -397 398 0
-454 -411 412 0
-454 -425 426 0
-454 -439 440 0
-454 -481 482 0
-454 -495 496 0
-454 -509 510 0
-454 -523 524 0
-454 -537 538 0
-454 -551 552 0
-454 -565 566 0
-454 -579 580 0
482 469 0
-482 -469 0
-482 -399 398 0
-482 -413 412 0
-482 -427 426 0
-482 -441 440 0
-482 -455 454 0
-482 -497 496 0
-482 -511 510 0
-482 -525 524 0
-482 -539 538 0
-482 -553 552 0
-482 -567 566 0
-482 -581 580 0
496 470 0
-496 -470 0
-496 -400 398 0
-496 -414 412 0
-496 -428 426 0
-496 -442 440 0
-496 -456 454 0
-496 -484 482 0
-496 -512 510 0
-496 -526 524 0
-496 -540 538 0
-496 -554 552 0
-496 -568 566 0
-496 -582 580 0
510 471 0
-510 -471 0
-510 -401 398 0
-510 -415 412 0
-510 -429 426 0
-510 -443 440 0
-510 -457 454 0
-510 -485 482 0
-510 -499 496 0
-510 -527 524 0
-510 -541 538 0
-510 -555 552 0
-510 -569 566 0
-510 -583 580 0
524 472 0
-524 -472 0
-524 -402 398 0
-524 -416 412 0
-524 -430 426 0
-524 -444 440 0
-524 -458 454 0
-524 -486 482 0
-524 -500 496 0
-524 -514 510 0
-524 -542 538 0
-524 -556 552 0
-524 -570 566 0
-524 -584 580 0
538 473 0
-538 -473 0
-538 -403 398 0
-538 -417 412 0
-538 -431 426 0
-538 -445 440 0
-538 -459 454 0
-538 -487 482 0
-538 -501 496 0
-538 -515 510 0
-538 -529 524 0
-538 -557 552 0
-538 -571 566 0
-538 -585 580 0
552 474 0
-552 -474 0
-552 -404 398 0
-552 -418 412 0
-552 -432 426 0
-552 -446 440 0
-552 -460 454 0
-552 -488 482 0
-552 -502 496 0
-552 -516 510 0
-552 -530 524 0
-552 -544 538 0
-552 -572 566 0
-552 -586 580 0
566 475 0
-566 -475 0
-566 -405 398 0
-566 -419 412 0
-566 -433 426 0
-566 -447 440 0
-566 -461 454 0
-566 -489 482 0
-566 -503 496 0
-566 -517 510 0
-566 -531 524 0
-566 -545 538 0
-566 -559 552 0
-566 -587 580 0
580 476 0
-580 -476 0
-580 -406 398 0
-580 -420 412 0
-580 -434 426 0
-580 -448 440 0
-580 -462 454 0
-580 -490 482 0
-580 -504 496 0
-580 -518 510 0
-580 -532 524 0
-580 -546 538 0
-580 -560 552 0
-580 -574 566 0
483 0
399 477 0
-399 -477 0
-399 -407 413 0
-399 -421 427 0
-399 -435 441 0
-399 -449 455 0
-399 -463 469 0
-399 -491 497 0
-399 -505 511 0
-399 -519 525 0
-399 -533 539 0
-399 -547 553 0
-399 -561 567 0
-399 -575 581 0
413 478 0
-413 -478 0
-413 -394 399 0
-413 -422 427 0
-413 -436 441 0
-413 -450 455 0
-413 -464 469 0
-413 -492 497 0
-413 -506 511 0
-413 -520 525 0
-413 -534 539 0
-413 -548 553 0
-413 -562 567 0
-413 -576 581 0
427 479 0
-427 -479 0
-427 -395 399 0
-427 -409 413 0
-427 -437 441 0
-427 -451 455 0
-427 -465 469 0
-427 -493 497 0
-427 -507 511 0
-427 -521 525 0
-427 -535 539 0
-427 -549 553 0
-427 -563 567 0
-427 -577 581 0
441 480 0
-441 -480 0
-441 -396 399 0
-441 -410 413 0
-441 -424 427 0
-441 -452 455 0
-441 -466 469 0
-441 -494 497 0
-441 -508 511 0
-441 -522 525 0
-441 -536 539 0
-441 -550 553 0
-441 -564 567 0
-441 -578 581 0
455 481 0
-455 -481 0
-455 -397 399 0
-455 -411 413 0
-455 -425 427 0
-455 -439 441 0
-455 -467 469 0
-455 -495 497 0
-455 -509 511 0
-455 -523 525 0
-455 -537 539 0
-455 -551 553 0
-455 -565 567 0
-455 -579 581 0
469 482 0
-469 -482 0
-469 -398 399 0
-469 -412 413 0
-469 -426 427 0
-469 -440 441 0
-469 -454 455 0
-469 -496 497 0
-469 -510 511 0
-469 -524 525 0
-469 -538 539 0
-469 -552 553 0
-469 -566 567 0
-469 -580 581 0
497 484 0
-497 -484 0
-497 -400 399 0
-497 -414 413 0
-497 -428 427 0
-497 -442 441 0
-497 -456 455 0
-497 -470 469 0
-497 -512 511 0
-497 -526 525 0
-497 -540 539 0
-497 -554 553 0
-497 -568 567 0
-497 -582 581 0
511 485 0
-511 -485 0
-511 -401 399 0
-511 -415 413 0
-511 -429 427 0
-511 -443 441 0
-511 -457 455 0
-511 -471 469 0
-511 -499 497 0
-511 -527 525 0
-511 -541 539 0
-511 -555 553 0
-511 -569 567 0
-511 -583 581 0
525 486 0
-525 -486 0
-525 -402 399 0
-525 -416 413 0
-525 -430 427 0
-525 -444 441 0
-525 -458 455 0
-525 -472 469 0
-525 -500 497 0
-525 -514 511 0
-525 -542 539 0
-525 -556 553 0
-525 -570 567 0
-525 -584 581 0
539 487 0
-539 -487 0
-539 -403 399 0
-539 -417 413 0
-539 -431 427 0
-539 -445 441 0
-539 -459 455 0
-539 -473 469 0
-539 -501 497 0
-539 -515 511 0
-539 -529 525 0
-539 -557 553 0
-539 -571 567 0
-539 -585 581 0
553 488 0
-553 -488 0
-553 -404 399 0
-553 -418 413 0
-553 -432 427 0
-553 -446 441 0
-553 -460 455 0
-553 -474 469 0
-553 -502 497 0
-553 -516 511 0
-553 -530 525 0
-553 -544 539 0
-553 -572 567 0
-553 -586 581 0
567 489 0
-567 -489 0
-567 -405 399 0
-567 -419 413 0
-567 -433 427 0
-567 -447 441 0
-567 -461 455 0
-567 -475 469 0
-567 -503 497 0
-567 -517 511 0
-567 -531 525 0
-567 -545 539 0
-567 -559 553 0
-567 -587 581 0
581 490 0
-581 -490 0
-581 -406 399 0
-581 -420 413 0
-581 -434 427 0
-581 -448 441 0
-581 -462 455 0
-581 -476 469 0
-581 -504 497 0
-581 -518 511 0
-581 -532 525 0
-581 -546 539 0
-581 -560 553 0
-581 -574 567 0
498 0
400 491 0
-400 -491 0
-400 -407 414 0
-400 -421 428 0
-400 -435 442 0
-400 -449 456 0
-400 -463 470 0
-400 -477 484 0
-400 -505 512 0
-400 -519 526 0
-400 -533 540 0
-400 -547 554 0
-400 -561 568 0
-400 -575 582 0
414 492 0
-414 -492 0
-414 -394 400 0
-414 -422 428 0
-414 -436 442 0
-414 -450 456 0
-414 -464 470 0
-414 -478 484 0
-414 -506 512 0
-414 -520 526 0
-414 -534 540 0
-414 -548 554 0
-414 -562 568 0
-414 -576 582 0
428 493 0
-428 -493 0
-428 -395 400 0
-428 -409 414 0
-428 -437 442 0
-428 -451 456 0
-428 -465 470 0
-428 -479 484 0
-428 -507 512 0
-428 -521 526 0
-428 -535 540 0
-428 -549 554 0
-428 -563 568 0
-428 -577 582 0
442 494 0
-442 -494 0
-442 -396 400 0
-442 -410 414 0
-442 -424 428 0
-442 -452 456 0
-442 -466 470 0
-442 -480 484 0
-442 -508 512 0
-442 -522 526 0
-442 -536 540 0
-442 -550 554 0
-442 -564 568 0
-442 -578 582 0
456 495 0
-456 -495 0
-456 -397 400 0
-456 -411 414 0
-456 -425 428 0
-456 -439 442 0
-456 -467 470 0
-456 -481 484 0
-456 -509 512 0
-456 -523 526 0
-456 -537 540 0
-456 -551 554 0
-456 -565 568 0
-456 -579 582 0
470 496 0
-470 -496 0
-470 -398 400 0
-470 -412 414 0
-470 -426 428 0
-470 -440 442 0
-470 -454 456 0
-470 -482 484 0
-470 -510 512 0
-470 -524 526 0
-470 -538 540 0
-470 -552 554 0
-470 -566 568 0
-470 -580 582 0
484 497 0
-484 -497 0
-484 -399 400 0
-484 -413 414 0
-484 -427 428 0
-484 -441 442 0
-484 -455 456 0
-484 -469 470 0
-484 -511 512 0
-484 -525 526 0
-484 -539 540 0
-484 -553 554 0
-484 -567 568 0
-484 -581 582 0
512 499 0
-512 -499 0
-512 -401 400 0
-512 -415 414 0
-512 -429 428 0
-512 -443 442 0
-512 -457 456 0
-512 -471 470 0
-512 -485 484 0
-512 -527 526 0
-512 -541 540 0
-512 -555 554 0
-512 -569 568 0
-512 -583 582 0
526 500 0
-526 -500 0
-526 -402 400 0
-526 -416 414 0
-526 -430 428 0
-526 -444 442 0
-526 -458 456 0
-526 -472 470 0
-526 -486 484 0
-526 -514 512 0
-526 -542 540 0
-526 -556 554 0
-526 -570 568 0
-526 -584 582 0
540 501 0
-540 -501 0
-540 -403 400 0
-540 -417 414 0
-540 -431 428 0
-540 -445 442 0
-540 -459 456 0
-540 -473 470 0
-540 -487 484 0
-540 -515 512 0
-540 -529 526 0
-540 -557 554 0
-540 -571 568 0
-540 -585 582 0
554 502 0
-554 -502 0
-554 -404 400 0
-554 -418 414 0
-554 -432 428 0
-554 -446 442 0
-554 -460 456 0
-554 -474 470 0
-554 -488 484 0
-554 -516 512 0
-554 -530 526 0
-554 -544 540 0
-554 -572 568 0
-554 -586 582 0
568 503 0
-568 -503 0
-568 -405 400 0
-568 -419 414 0
-568 -433 428 0
-568 -447 442 0
-568 -461 456 0
-568 -475 470 0
-568 -489 484 0
-568 -517 512 0
-568 -531 526 0
-568 -545 540 0
-568 -559 554 0
-568 -587 582 0
582 504 0
-582 -504 0
-582 -406 400 0
-582 -420 414 0
-582 -434 428 0
-582 -448 442 0
-582 -462 456 0
-582 -476 470 0
-582 -490 484 0
-582 -518 512 0
-582 -532 526 0
-582 -546 540 0
-582 -560 554 0
-582 -574 568 0
513 0
401 505 0
-401 -505 0
-401 -407 415 0
-401 -421 429 0
-401 -435 443 0
-401 -449 457 0
-401 -463 471 0
-401 -477 485 0
-401 -491 499 0
-401 -519 527 0
-401 -533 541 0
-401 -547 555 0
-401 -561 569 0
-401 -575 583 0
415 506 0
-415 -506 0
-415 -394 401 0
-415 -422 429 0
-415 -436 443 0
-415 -450 457 0
-415 -464 471 0
-415 -478 485 0
-415 -492 499 0
-415 -520 527 0
-415 -534 541 0
-415 -548 555 0
-415 -562 569 0
-415 -576 583 0
429 507 0
-429 -507 0
-429 -395 401 0
-429 -409 415 0
-429 -437 443 0
-429 -451 457 0
-429 -465 471 0
-429 -479 485 0
-429 -493 499 0
-429 -521 527 0
-429 -535 541 0
-429 -549 555 0
-429 -563 569 0
-429 -577 583 0
443 508 0
-443 -508 0
-443 -396 401 0
-443 -410 415 0
-443 -424 429 0
-443 -452 457 0
-443 -466 471 0
-443 -480 485 0
-443 -494 499 0
-443 -522 527 0
-443 -536 541 0
-443 -550 555 0
-443 -564 569 0
-443 -578 583 0
457 509 0
-457 -509 0
-457 -397 401 0
-457 -411 415 0
-457 -425 429 0
-457 -439 443 0
-457 -467 471 0
-457 -481 485 0
-457 -495 499 0
-457 -523 527 0
-457 -537 541 0
-457 -551 555 0
-457 -565 569 0
-457 -579 583 0
471 510 0
-471 -510 0
-471 -398 401 0
-471 -412 415 0
-471 -426 429 0
-471 -440 443 0
-471 -454 457 0
-471 -482 485 0
-471 -496 499 0
-471 -524 527 0
-471 -538 541 0
-471 -552 555 0
-471 -566 569 0
-471 -580 583 0
485 511 0
-485 -511 0
-485 -399 401 0
-485 -413 415 0
-485 -427 429 0
-485 -441 443 0
-485 -455 457 0
-485 -469 471 0
-485 -497 499 0
-485 -525 527 0
-485 -539 541 0
-485 -553 555 0
-485 -567 569 0
-485 -581 583 0
499 512 0
-499 -512 0
-499 -400 401 0
-499 -414 415 0
-499 -428 429 0
-499 -442 443 0
-499 -456 457 0
-499 -470 471 0
-499 -484 485 0
-499 -526 527 0
-499 -540 541 0
-499 -554 555 0
-499 -568 569 0
-499 -582 583 0
527 514 0
-527 -514 0
-527 -402 401 0
-527 -416 415 0
-527 -430 429 0
-527 -444 443 0
-527 -458 457 0
-527 -472 471 0
-527 -486 485 0
-527 -500 499 0
-527 -542 541 0
-527 -556 555 0
-527 -570 569 0
-527 -584 583 0
541 515 0
-541 -515 0
-541 -403 401 0
-541 -417 415 0
-541 -431 429 0
-541 -445 443 0
-541 -459 457 0
-541 -473 471 0
-541 -487 485 0
-541 -501 499 0
-541 -529 527 0
-541 -557 555 0
-541 -571 569 0
-541 -585 583 0
555 516 0
-555 -516 0
-555 -404 401 0
-555 -418 415 0
-555 -432 429 0
-555 -446 443 0
-555 -460 457 0
-555 -474 471 0
-555 -488 485 0
-555 -502 499 0
-555 -530 527 0
-555 -544 541 0
-555 -572 569 0
-555 -586 583 0
569 517 0
-569 -517 0
-569 -405 401 0
-569 -419 415 0
-569 -433 429 0
-569 -447 443 0
-569 -461 457 0
-569 -475 471 0
-569 -489 485 0
-569 -503 499 0
-569 -531 527 0
-569 -545 541 0
-569 -559 555 0
-569 -587 583 0
583 518 0
-583 -518 0
-583 -406 401 0
-583 -420 415 0
-583 -434 429 0
-583 -448 443 0
-583 -462 457 0
-583 -476 471 0
-583 -490 485 0
-583 -504 499 0
-583 -532 527 0
-583 -546 541 0
-583 -560 555 0
-583 -574 569 0
528 0
402 519 0
-402 -519 0
-402 -407 416 0
-402 -421 430 0
-402 -435 444 0
-402 -449 458 0
-402 -463 472 0
-402 -477 486 0
-402 -491 500 0
-402 -505 514 0
-402 -533 542 0
-402 -547 556 0
-402 -561 570 0
-402 -575 584 0
416 520 0
-416 -520 0
-416 -394 402 0
-416 -422 430 0
-416 -436 444 0
-416 -450 458 0
-416 -464 472 0
-416 -478 486 0
-416 -492 500 0
-416 -506 514 0
-416 -534 542 0
-416 -548 556 0
-416 -562 570 0
-416 -576 584 0
430 521 0
-430 -521 0
-430 -395 402 0
-430 -409 416 0
-430 -437 444 0
-430 -451 458 0
-430 -465 472 0
-430 -479 486 0
-430 -493 500 0
-430 -507 514 0
-430 -535 542 0
-430 -549 556 0
-430 -563 570 0
-430 -577 584 0
444 522 0
-444 -522 0
-444 -396 402 0
-444 -410 416 0
-444 -424 430 0
-444 -452 458 0
-444 -466 472 0
-444 -480 486 0
-444 -494 500 0
-444 -508 514 0
-444 -536 542 0
-444 -550 556 0
-444 -564 570 0
-444 -578 584 0
458 523 0
-458 -523 0
-458 -397 402 0
-458 -411 416 0
-458 -425 430 0
-458 -439 444 0
-458 -467 472 0
-458 -481 486 0
-458 -495 500 0
-458 -509 514 0
-458 -537 542 0
-458 -551 556 0
-458 -565 570 0
-458 -579 584 0
472 524 0
-472 -524 0
-472 -398 402 0
-472 -412 416 0
-472 -426 430 0
-472 -440 444 0
-472 -454 458 0
-472 -482 486 0
-472 -496 500 0
-472 -510 514 0
-472 -538 542 0
-472 -552 556 0
-472 -566 570 0
-472 -580 584 0
486 525 0
-486 -525 0
-486 -399 402 0
-486 -413 416 0
-486 -427 430 0
-486 -441 444 0
-486 -455 458 0
-486 -469 472 0
-486 -497 500 0
-486 -511 514 0
-486 -539 542 0
-486 -553 556 0
-486 -567 570 0
-486 -581 584 0
500 526 0
-500 -526 0
-500 -400 402 0
-500 -414 416 0
-500 -428 430 0
-500 -442 444 0
-500 -456 458 0
-500 -470 472 0
-500 -484 486 0
-500 -512 514 0
-500 -540 542 0
-500 -554 556 0
-500 -568 570 0
-500 -582 584 0
514 527 0
-514 -527 0
-514 -401 402 0
-514 -415 416 0
-514 -429 430 0
-514 -443 444 0
-514 -457 458 0
-514 -471 472 0
-514 -485 486 0
-514 -499 500 0
-514 -541 542 0
-514 -555 556 0
-514 -569 570 0
-514 -583 584 0
542 529 0
-542 -529 0
-542 -403 402 0
-542 -417 416 0
-542 -431 430 0
-542 -445 444 0
-542 -459 458 0
-542 -473 472 0
-542 -487 486 0
-542 -501 500 0
-542 -515 514 0
-542 -557 556 0
-542 -571 570 0
-542 -585 584 0
556 530 0
-556 -530 0
-556 -404 402 0
-556 -418 416 0
-556 -432 430 0
-556 -446 444 0
-556 -460 458 0
-556 -474 472 0
-556 -488 486 0
-556 -502 500 0
-556 -516 514 0
-556 -544 542 0
-556 -572 570 0
-556 -586 584 0
570 531 0
-570 -531 0
-570 -405 402 0
-570 -419 416 0
-570 -433 430 0
-570 -447 444 0
-570 -461 458 0
-570 -475 472 0
-570 -489 486 0
-570 -503 500 0
-570 -517 514 0
-570 -545 542 0
-570 -559 556 0
-570 -587 584 0
584 532 0
-584 -532 0
-584 -406 402 0
-584 -420 416 0
-584 -434 430 0
-584 -448 444 0
-584 -462 458 0
-584 -476 472 0
-584 -490 486 0
-584 -504 500 0
-584 -518 514 0
-584 -546 542 0
-584 -560 556 0
-584 -574 570 0
543 0
403 533 0
-403 -533 0
-403 -407 417 0
-403 -421 431 0
-403 -435 445 0
-403 -449 459 0
-403 -463 473 0
-403 -477 487 0
-403 -491 501 0
-403 -505 515 0
-403 -519 529 0
-403 -547 557 0
-403 -561 571 0
-403 -575 585 0
417 534 0
-417 -534 0
-417 -394 403 0
-417 -422 431 0
-417 -436 445 0
-417 -450 459 0
-417 -464 473 0
-417 -478 487 0
-417 -492 501 0
-417 -506 515 0
-417 -520 529 0
-417 -548 557 0
-417 -562 571 0
-417 -576 585 0
431 535 0
-431 -535 0
-431 -395 403 0
-431 -409 417 0
-431 -437 445 0
-431 -451 459 0
-431 -465 473 0
-431 -479 487 0
-431 -493 501 0
-431 -507 515 0
-431 -521 529 0
-431 -549 557 0
-431 -563 571 0
-431 -577 585 0
445 536 0
-445 -536 0
-445 -396 403 0
-445 -410 417 0
-445 -424 431 0
-445 -452 459 0
-445 -466 473 0
-445 -480 487 0
-445 -494 501 0
-445 -508 515 0
-445 -522 529 0
-445 -550 557 0
-445 -564 571 0
-445 -578 585 0
459 537 0
-459 -537 0
-459 -397 403 0
-459 -411 417 0
-459 -425 431 0
-459 -439 445 0
-459 -467 473 0
-459 -481 487 0
-459 -495 501 0
-459 -509 515 0
-459 -523 529 0
-459 -551 557 0
-459 -565 571 0
-459 -579 585 0
473 538 0
-473 -538 0
-473 -398 403 0
-473 -412 417 0
-473 -426 431 0
-473 -440 445 0
-473 -454 459 0
-473 -482 487 0
-473 -496 501 0
-473 -510 515 0
-473 -524 529 0
-473 -552 557 0
-473 -566 571 0
-473 -580 585 0
487 539 0
-487 -539 0
-487 -399 403 0
-487 -413 417 0
-487 -427 431 0
-487 -441 445 0
-487 -455 459 0
-487 -469 473 0
-487 -497 501 0
-487 -511 515 0
-487 -525 529 0
-487 -553 557 0
-487 -567 571 0
-487 -581 585 0
501 540 0
-501 -540 0
-501 -400 403 0
-501 -414 417 0
-501 -428 431 0
-501 -442 445 0
-501 -456 459 0
-501 -470 473 0
-501 -484 487 0
-501 -512 515 0
-501 -526 529 0
-501 -554 557 0
-501 -568 571 0
-501 -582 585 0
515 541 0
-515 -541 0
-515 -401 403 0
-515 -415 417 0
-515 -429 431 0
-515 -443 445 0
-515 -457 459 0
-515 -471 473 0
-515 -485 487 0
-515 -499 501 0
-515 -527 529 0
-515 -555 557 0
-515 -569 571 0
-515 -583 585 0
529 542 0
-529 -542 0
-529 -402 403 0
-529 -416 417 0
-529 -430 431 0
-529 -444 445 0
-529 -458 459 0
-529 -472 473 0
-529 -486 487 0
-529 -500 501 0
-529 -514 515 0
-529 -556 557 0
-529 -570 571 0
-529 -584 585 0
557 544 0
-557 -544 0
-557 -404 403 0
-557 -418 417 0
-557 -432 431 0
-557 -446 445 0
-557 -460 459 0
-557 -474 473 0
-557 -488 487 0
-557 -502 501 0
-557 -516 515 0
-557 -530 529 0
-557 -572 571 0
-557 -586 585 0
571 545 0
-571 -545 0
-571 -405 403 0
-571 -419 417 0
-571 -433 431 0
-571 -447 445 0
-571 -461 459 0
-571 -475 473 0
-571 -489 487 0
-571 -503 501 0
-571 -517 515 0
-571 -531 529 0
-571 -559 557 0
-571 -587 585 0
585 546 0
-585 -546 0
-585 -406 403 0
-585 -420 417 0
-585 -434 431 0
-585 -448 445 0
-585 -462 459 0
-585 -476 473 0
-585 -490 487 0
-585 -504 501 0
-585 -518 515 0
-585 -532 529 0
-585 -560 557 0
-585 -574 571 0
558 0
404 547 0
-404 -547 0
-404 -407 418 0
-404 -421 432 0
-404 -435 446 0
-404 -449 460 0
-404 -463 474 0
-404 -477 488 0
-404 -491 502 0
-404 -505 516 0
-404 -519 530 0
-404 -533 544 0
-404 -561 572 0
-404 -575 586 0
418 548 0
-418 -548 0
-418 -394 404 0
-418 -422 432 0
-418 -436 446 0
-418 -450 460 0
-418 -464 474 0
-418 -478 488 0
-418 -492 502 0
-418 -506 516 0
-418 -520 530 0
-418 -534 544 0
-418 -562 572 0
-418 -576 586 0
432 549 0
-432 -549 0
-432 -395 404 0
-432 -409 418 0
-432 -437 446 0
-432 -451 460 0
-432 -465 474 0
-432 -479 488 0
-432 -493 502 0
-432 -507 516 0
-432 -521 530 0
-432 -535 544 0
-432 -563 572 0
-432 -577 586 0
446 550 0
-446 -550 0
-446 -396 404 0
-446 -410 418 0
-446 -424 432 0
-446 -452 460 0
-446 -466 474 0
-446 -480 488 0
-446 -494 502 0
-446 -508 516 0
-446 -522 530 0
-446 -536 544 0
-446 -564 572 0
-446 -578 586 0
460 551 0
-460 -551 0
-460 -397 404 0
-460 -411 418 0
-460 -425 432 0
-460 -439 446 0
-460 -467 474 0
-460 -481 488 0
-460 -495 502 0
-460 -509 516 0
-460 -523 530 0
-460 -537 544 0
-460 -565 572 0
-460 -579 586 0
474 552 0
-474 -552 0
-474 -398 404 0
-474 -412 418 0
-474 -426 432 0
-474 -440 446 0
-474 -454 460 0
-474 -482 488 0
-474 -496 502 0
-474 -510 516 0
-474 -524 530 0
-474 -538 544 0
-474 -566 572 0
-474 -580 586 0
488 553 0
-488 -553 0
-488 -399 404 0
-488 -413 418 0
-488 -427 432 0
-488 -441 446 0
-488 -455 460 0
-488 -469 474 0
-488 -497 502 0
-488 -511 516 0
-488 -525 530 0
-488 -539 544 0
-488 -567 572 0
-488 -581 586 0
502 554 0
-502 -554 0
-502 -400 404 0
-502 -414 418 0
-502 -428 432 0
-502 -442 446 0
-502 -456 460 0
-502 -470 474 0
-502 -484 488 0
-502 -512 516 0
-502 -526 530 0
-502 -540 544 0
-502 -568 572 0
-502 -582 586 0
516 555 0
-516 -555 0
-516 -401 404 0
-516 -415 418 0
-516 -429 432 0
-516 -443 446 0
-516 -457 460 0
-516 -471 474 0
-516 -485 488 0
-516 -499 502 0
-516 -527 530 0
-516 -541 544 0
-516 -569 572 0
-516 -583 586 0
530 556 0
-530 -556 0
-530 -402 404 0
-530 -416 418 0
-530 -430 432 0
-530 -444 446 0
-530 -458 460 0
-530 -472 474 0
-530 -486 488 0
-530 -500 502 0
-530 -514 516 0
-530 -542 544 0
-530 -570 572 0
-530 -584 586 0
544 557 0
-544 -557 0
-544 -403 404 0
-544 -417 418 0
-544 -431 432 0
-544 -445 446 0
-544 -459 460 0
-544 -473 474 0
-544 -487 488 0
-544 -501 502 0
-544 -515 516 0
-544 -529 530 0
-544 -571 572 0
-544 -585 586 0
572 559 0
-572 -559 0
-572 -405 404 0
-572 -419 418 0
-572 -433 432 0
-572 -447 446 0
-572 -461 460 0
-572 -475 474 0
-572 -489 488 0
-572 -503 502 0
-572 -517 516 0
-572 -531 530 0
-572 -545 544 0
-572 -587 586 0
586 560 0
-586 -560 0
-586 -406 404 0
-586 -420 418 0
-586 -434 432 0
-586 -448 446 0
-586 -462 460 0
-586 -476 474 0
-586 -490 488 0
-586 -504 502 0
-586 -518 516 0
-586 -532 530 0
-586 -546 544 0
-586 -574 572 0
573 0
405 561 0
-405 -561 0
-405 -407 419 0
-405 -421 433 0
-405 -435 447 0
-405 -449 461 0
-405 -463 475 0
-405 -477 489 0
-405 -491 503 0
-405 -505 517 0
-405 -519 531 0
-405 -533 545 0
-405 -547 559 0
-405 -575 587 0
419 562 0
-419 -562 0
-419 -394 405 0
-419 -422 433 0
-419 -436 447 0
-419 -450 461 0
-419 -464 475 0
-419 -478 489 0
-419 -492 503 0
-419 -506 517 0
-419 -520 531 0
-419 -534 545 0
-419 -548 559 0
-419 -576 587 0
433 563 0
-433 -563 0
-433 -395 405 0
-433 -409 419 0
-433 -437 447 0
-433 -451 461 0
-433 -465 475 0
-433 -479 489 0
-433 -493 503 0
-433 -507 517 0
-433 -521 531 0
-433 -535 545 0
-433 -549 559 0
-433 -577 587 0
447 564 0
-447 -564 0
-447 -396 405 0
-447 -410 419 0
-447 -424 433 0
-447 -452 461 0
-447 -466 475 0
-447 -480 489 0
-447 -494 503 0
-447 -508 517 0
-447 -522 531 0
-447 -536 545 0
-447 -550 559 0
-447 -578 587 0
461 565 0
-461 -565 0
-461 -397 405 0
-461 -411 419 0
-461 -425 433 0
-461 -439 447 0
-461 -467 475 0
-461 -481 489 0
-461 -495 503 0
-461 -509 517 0
-461 -523 531 0
-461 -537 545 0
-461 -551 559 0
-461 -579 587 0
475 566 0
-475 -566 0
-475 -398 405 0
-475 -412 419 0
-475 -426 433 0
-475 -440 447 0
-475 -454 461 0
-475 -482 489 0
-475 -496 503 0
-475 -510 517 0
-475 -524 531 0
-475 -538 545 0
-475 -552 559 0
-475 -580 587 0
489 567 0
-489 -567 0
-489 -399 405 0
-489 -413 419 0
-489 -427 433 0
-489 -441 447 0
-489 -455 461 0
-489 -469 475 0
-489 -497 503 0
-489 -511 517 0
-489 -525 531 0
-489 -539 545 0
-489 -553 559 0
-489 -581 587 0
503 568 0
-503 -568 0
-503 -400 405 0
-503 -414 419 0
-503 -428 433 0
-503 -442 447 0
-503 -456 461 0
-503 -470 475 0
-503 -484 489 0
-503 -512 517 0
-503 -526 531 0
-503 -540 545 0
-503 -554 559 0
-503 -582 587 0
517 569 0
-517 -569 0
-517 -401 405 0
-517 -415 419 0
-517 -429 433 0
-517 -443 447 0
-517 -457 461 0
-517 -471 475 0
-517 -485 489 0
-517 -499 503 0
-517 -527 531 0
-517 -541 545 0
-517 -555 559 0
-517 -583 587 0
531 570 0
-531 -570 0
-531 -402 405 0
-531 -416 419 0
-531 -430 433 0
-531 -444 447 0
-531 -458 461 0
-531 -472 475 0
-531 -486 489 0
-531 -500 503 0
-531 -514 517 0
-531 -542 545 0
-531 -556 559 0
-531 -584 587 0
545 571 0
-545 -571 0
-545 -403 405 0
-545 -417 419 0
-545 -431 433 0
-545 -445 447 0
-545 -459 461 0
-545 -473 475 0
-545 -487 489 0
-545 -501 503 0
-545 -515 517 0
-545 -529 531 0
-545 -557 559 0
-545 -585 587 0
559 572 0
-559 -572 0
-559 -404 405 0
-559 -418 419 0
-559 -432 433 0
-559 -446 447 0
-559 -460 461 0
-559 -474 475 0
-559 -488 489 0
-559 -502 503 0
-559 -516 517 0
-559 -530 531 0
-559 -544 545 0
-559 -586 587 0
587 574 0
-587 -574 0
-587 -406 405 0
-587 -420 419 0
-587 -434 433 0
-587 -448 447 0
-587 -462 461 0
-587 -476 475 0
-587 -490 489 0
-587 -504 503 0
-587 -518 517 0
-587 -532 531 0
-587 -546 545 0
-587 -560 559 0
588 0
406 575 0
-406 -575 0
-406 -407 420 0
-406 -421 434 0
-406 -435 448 0
-406 -449 462 0
-406 -463 476 0
-406 -477 490 0
-406 -491 504 0
-406 -505 518 0
-406 -519 532 0
-406 -533 546 0
-406 -547 560 0
-406 -561 574 0
420 576 0
-420 -576 0
-420 -394 406 0
-420 -422 434 0
-420 -436 448 0
-420 -450 462 0
-420 -464 476 0
-420 -478 490 0
-420 -492 504 0
-420 -506 518 0
-420 -520 532 0
-420 -534 546 0
-420 -548 560 0
-420 -562 574 0
434 577 0
-434 -577 0
-434 -395 406 0
-434 -409 420 0
-434 -437 448 0
-434 -451 462 0
-434 -465 476 0
-434 -479 490 0
-434 -493 504 0
-434 -507 518 0
-434 -521 532 0
-434 -535 546 0
-434 -549 560 0
-434 -563 574 0
448 578 0
-448 -578 0
-448 -396 406 0
-448 -410 420 0
-448 -424 434 0
-448 -452 462 0
-448 -466 476 0
-448 -480 490 0
-448 -494 504 0
-448 -508 518 0
-448 -522 532 0
-448 -536 546 0
-448 -550 560 0
-448 -564 574 0
462 579 0
-462 -579 0
-462 -397 406 0
-462 -411 420 0
-462 -425 434 0
-462 -439 448 0
-462 -467 476 0
-462 -481 490 0
-462 -495 504 0
-462 -509 518 0
-462 -523 532 0
-462 -537 546 0
-462 -551 560 0
-462 -565 574 0
476 580 0
-476 -580 0
-476 -398 406 0
-476 -412 420 0
-476 -426 434 0
-476 -440 448 0
-476 -454 462 0
-476 -482 490 0
-476 -496 504 0
-476 -510 518 0
-476 -524 532 0
-476 -538 546 0
-476 -552 560 0
-476 -566 574 0
490 581 0
-490 -581 0
-490 -399 406 0
-490 -413 420 0
-490 -427 434 0
-490 -441 448 0
-490 -455 462 0
-490 -469 476 0
-490 -497 504 0
-490 -511 518 0
-490 -525 532 0
-490 -539 546 0
-490 -553 560 0
-490 -567 574 0
504 582 0
-504 -582 0
-504 -400 406 0
-504 -414 420 0
-504 -428 434 0
-504 -442 448 0
-504 -456 462 0
-504 -470 476 0
-504 -484 490 0
-504 -512 518 0
-504 -526 532 0
-504 -540 546 0
-504 -554 560 0
-504 -568 574 0
518 583 0
-518 -583 0
-518 -401 406 0
-518 -415 420 0
-518 -429 434 0
-518 -443 448 0
-518 -457 462 0
-518 -471 476 0
-518 -485 490 0
-518 -499 504 0
-518 -527 532 0
-518 -541 546 0
-518 -555 560 0
-518 -569 574 0
532 584 0
-532 -584 0
-532 -402 406 0
-532 -416 420 0
-532 -430 434 0
-532 -444 448 0
-532 -458 462 0
-532 -472 476 0
-532 -486 490 0
-532 -500 504 0
-532 -514 518 0
-532 -542 546 0
-532 -556 560 0
-532 -570 574 0
546 585 0
-546 -585 0
-546 -403 406 0
-546 -417 420 0
-546 -431 434 0
-546 -445 448 0
-546 -459 462 0
-546 -473 476 0
-546 -487 490 0
-546 -501 504 0
-546 -515 518 0
-546 -529 532 0
-546 -557 560 0
-546 -571 574 0
560 586 0
-560 -586 0
-560 -404 406 0
-560 -418 420 0
-560 -432 434 0
-560 -446 448 0
-560 -460 462 0
-560 -474 476 0
-560 -488 490 0
-560 -502 504 0
-560 -516 518 0
-560 -530 532 0
-560 -544 546 0
-560 -572 574 0
574 587 0
-574 -587 0
-574 -405 406 0
-574 -419 420 0
-574 -433 434 0
-574 -447 448 0
-574 -461 462 0
-574 -475 476 0
-574 -489 490 0
-574 -503 504 0
-574 -517 518 0
-574 -531 532 0
-574 -545 546 0
-574 -559 560 0
589 0
590 591 0
-590 -591 0
-590 -592 593 0
-590 -594 595 0
-590 -596 597 0
-590 -598 599 0
-590 -600 601 0
-590 -602 603 0
-590 -604 605 0
-590 -606 607 0
-590 -608 609 0
-590 -610 611 0
-590 -612 613 0
-590 -614 615 0
593 616 0
-593 -616 0
-593 -617 590 0
-593 -618 595 0
-593 -619 597 0
-593 -620 599 0
-593 -621 601 0
-593 -622 603 0
-593 -623 605 0
-593 -624 607 0
-593 -625 609 0
-593 -626 611 0
-593 -627 613 0
-593 -628 615 0
595 629 0
-595 -629 0
-595 -630 590 0
-595 -631 593 0
-595 -632 597 0
-595 -633 599 0
-595 -634 601 0
-595 -635 603 0
-595 -636 605 0
-595 -637 607 0
-595 -638 609 0
-595 -639 611 0
-595 -640 613 0
-595 -641 615 0
597 642 0
-597 -642 0
-597 -643 590 0
-597 -644 593 0
-597 -645 595 0
-597 -646 599 0
-597 -647 601 0
-597 -648 603 0
-597 -649 605 0
-597 -650 607 0
-597 -651 609 0
-597 -652 611 0
-597 -653 613 0
-597 -654 615 0
599 655 0
-599 -655 0
-599 -656 590 0
-599 -657 593 0
-599 -658 595 0
-599 -659 597 0
-599 -660 601 0
-599 -661 603 0
-599 -662 605 0
-599 -663 607 0
-599 -664 609 0
-599 -665 611 0
-599 -666 613 0
-599 -667 615 0
601 668 0
-601 -668 0
-601 -669 590 0
-601 -670 593 0
-601 -671 595 0
-601 -672 597 0
-601 -673 599 0
-601 -674 603 0
-601 -675 605 0
-601 -676 607 0
-601 -677 609 0
-601 -678 611 0
-601 -679 613 0
-601 -680 615 0
603 681 0
-603 -681 0
-603 -682 590 0
-603 -683 593 0
-603 -684 595 0
-603 -685 597 0
-603 -686 599 0
-603 -687 601 0
-603 -688 605 0
-603 -689 607 0
-603 -690 609 0
-603 -691 611 0
-603 -692 613 0
-603 -693 615 0
605 694 0
-605 -694 0
-605 -695 590 0
-605 -696 593 0
-605 -697 595 0
-605 -698 597 0
-605 -699 599 0
-605 -700 601 0
-605 -701 603 0
-605 -702 607 0
-605 -703 609 0
-605 -704 611 0
-605 -705 613 0
-605 -706 615 0
607 707 0
-607 -707 0
-607 -708 590 0
-607 -709 593 0
-607 -710 595 0
-607 -711 597 0
-607 -712 599 0
-607 -713 601 0
-607 -714 603 0
-607 -715 605 0
-607 -716 609 0
-607 -717 611 0
-607 -718 613 0
-607 -719 615 0
609 720 0
-609 -720 0
-609 -721 590 0
-609 -722 593 0
-609 -723 595 0
-609 -724 597 0
-609 -725 599 0
-609 -726 601 0
-609 -727 603 0
-609 -728 605 0
-609 -729 607 0
-609 -730 611 0
-609 -731 613 0
-609 -732 615 0
611 733 0
-611 -733 0
-611 -734 590 0
-611 -735 593 0
-611 -736 595 0
-611 -737 597 0
-611 -738 599 0
-611 -739 601 0
-611 -740 603 0
-611 -741 605 0
-611 -742 607 0
-611 -743 609 0
-611 -744 613 0
-611 -745 615 0
613 746 0
-613 -746 0
-613 -747 590 0
-613 -748 593 0
-613 -749 595 0
-613 -750 597 0
-613 -751 599 0
-613 -752 601 0
-613 -753 603 0
-613 -754 605 0
-613 -755 607 0
-613 -756 609 0
-613 -757 611 0
-613 -758 615 0
615 759 0
-615 -759 0
-615 -760 590 0
-615 -761 593 0
-615 -762 595 0
-615 -763 597 0
-615 -764 599 0
-615 -765 601 0
-615 -766 603 0
-615 -767 605 0
-615 -768 607 0
-615 -769 609 0
-615 -770 611 0
-615 -771 613 0
772 0
591 590 0
-591 -590 0
-591 -593 592 0
-591 -595 594 0
-591 -597 596 0
-591 -599 598 0
-591 -601 600 0
-591 -603 602 0
-591 -605 604 0
-591 -607 606 0
-591 -609 608 0
-591 -611 610 0
-591 -613 612 0
-591 -615 614 0
592 617 0
-592 -617 0
-592 -616 591 0
-592 -618 594 0
-592 -619 596 0
-592 -620 598 0
-592 -621 600 0
-592 -622 602 0
-592 -623 604 0
-592 -624 606 0
-592 -625 608 0
-592 -626 610 0
-592 -627 612 0
-592 -628 614 0
594 630 0
-594 -630 0
-594 -629 591 0
-594 -631 592 0
-594 -632 596 0
-594 -633 598 0
-594 -634 600 0
-594 -635 602 0
-594 -636 604 0
-594 -637 606 0
-594 -638 608 0
-594 -639 610 0
-594 -640 612 0
-594 -641 614 0
596 643 0
-596 -643 0
-596 -642 591 0
-596 -644 592 0
-596 -645 594 0
-596 -646 598 0
-596 -647 600 0
-596 -648 602 0
-596 -649 604 0
-596 -650 606 0
-596 -651 608 0
-596 -652 610 0
-596 -653 612 0
-596 -654 614 0
598 656 0
-598 -656 0
-598 -655 591 0
-598 -657 592 0
-598 -658 594 0
-598 -659 596 0
-598 -660 600 0
-598 -661 602 0
-598 -662 604 0
-598 -663 606 0
-598 -664 608 0
-598 -665 610 0
-598 -666 612 0
-598 -667 614 0
600 669 0
-600 -669 0
-600 -668 591 0
-600 -670 592 0
-600 -671 594 0
-600 -672 596 0
-600 -673 598 0
-600 -674 602 0
-600 -675 604 0
-600 -676 606 0
-600 -677 608 0
-600 -678 610 0
-600 -679 612 0
-600 -680 614 0
602 682 0
-602 -682 0
-602 -681 591 0
-602 -683 592 0
-602 -684 594 0
-602 -685 596 0
-602 -686 598 0
-602 -687 600 0
-602 -688 604 0
-602 -689 606 0
-602 -690 608 0
-602 -691 610 0
-602 -692 612 0
-602 -693 614 0
604 695 0
-604 -695 0
-604 -694 591 0
-604 -696 592 0
-604 -697 594 0
-604 -698 596 0
-604 -699 598 0
-604 -700 600 0
-604 -701 602 0
-604 -702 606 0
-604 -703 608 0
-604 -704 610 0
-604 -705 612 0
-604 -706 614 0
606 708 0
-606 -708 0
-606 -707 591 0
-606 -709 592 0
-606 -710 594 0
-606 -711 596 0
-606 -712 598 0
-606 -713 600 0
-606 -714 602 0
-606 -715 604 0
-606 -716 608 0
-606 -717 610 0
-606 -718 612 0
-606 -719 614 0
608 721 0
-608 -721 0
-608 -720 591 0
-608 -722 592 0
-608 -723 594 0
-608 -724 596 0
-608 -725 598 0
-608 -726 600 0
-608 -727 602 0
-608 -728 604 0
-608 -729 606 0
-608 -730 610 0
-608 -731 612 0
-608 -732 614 0
610 734 0
-610 -734 0
-610 -733 591 0
-610 -735 592 0
-610 -736 594 0
-610 -737 596 0
-610 -738 598 0
-610 -739 600 0
-610 -740 602 0
-610 -741 604 0
-610 -742 606 0
-610 -743 608 0
-610 -744 612 0
-610 -745 614 0
612 747 0
-612 -747 0
-612 -746 591 0
-612 -748 592 0
-612 -749 594 0
-612 -750 596 0
-612 -751 598 0
-612 -752 600 0
-612 -753 602 0
-612 -754 604 0
-612 -755 606 0
-612 -756 608 0
-612 -757 610 0
-612 -758 614 0
614 760 0
-614 -760 0
-614 -759 591 0
-614 -761 592 0
-614 -762 594 0
-614 -763 596 0
-614 -764 598 0
-614 -765 600 0
-614 -766 602 0
-614 -767 604 0
-614 -768 606 0
-614 -769 608 0
-614 -770 610 0
-614 -771 612 0
773 0
616 593 0
-616 -593 0
-616 -590 617 0
-616 -595 618 0
-616 -597 619 0
-616 -599 620 0
-616 -601 621 0
-616 -603 622 0
-616 -605 623 0
-616 -607 624 0
-616 -609 625 0
-616 -611 626 0
-616 -613 627 0
-616 -615 628 0
617 592 0
-617 -592 0
-617 -591 616 0
-617 -594 618 0
-617 -596 619 0
-617 -598 620 0
-617 -600 621 0
-617 -602 622 0
-617 -604 623 0
-617 -606 624 0
-617 -608 625 0
-617 -610 626 0
-617 -612 627 0
-617 -614 628 0
618 631 0
-618 -631 0
-618 -629 616 0
-618 -630 617 0
-618 -632 619 0
-618 -633 620 0
-618 -634 621 0
-618 -635 622 0
-618 -636 623 0
-618 -637 624 0
-618 -638 625 0
-618 -639 626 0
-618 -640 627 0
-618 -641 628 0
619 644 0
-619 -644 0
-619 -642 616 0
-619 -643 617 0
-619 -645 618 0
-619 -646 620 0
-619 -647 621 0
-619 -648 622 0
-619 -649 623 0
-619 -650 624 0
-619 -651 625 0
-619 -652 626 0
-619 -653 627 0
-619 -654 628 0
620 657 0
-620 -657 0
-620 -655 616 0
-620 -656 617 0
-620 -658 618 0
-620 -659 619 0
-620 -660 621 0
-620 -661 622 0
-620 -662 623 0
-620 -663 624 0
-620 -664 625 0
-620 -665 626 0
-620 -666 627 0
-620 -667 628 0
621 670 0
-621 -670 0
-621 -668 616 0
-621 -669 617 0
-621 -671 618 0
-621 -672 619 0
-621 -673 620 0
-621 -674 622 0
-621 -675 623 0
-621 -676 624 0
-621 -677 625 0
-621 -678 626 0
-621 -679 627 0
-621 -680 628 0
622 683 0
-622 -683 0
-622 -681 616 0
-622 -682 617 0
-622 -684 618 0
-622 -685 619 0
-622 -686 620 0
-622 -687 621 0
-622 -688 623 0
-622 -689 624 0
-622 -690 625 0
-622 -691 626 0
-622 -692 627 0
-622 -693 628 0
623 696 0
-623 -696 0
-623 -694 616 0
-623 -695 617 0
-623 -697 618 0
-623 -698 619 0
-623 -699 620 0
-623 -700 621 0
-623 -701 622 0
-623 -702 624 0
-623 -703 625 0
-623 -704 626 0
-623 -705 627 0
-623 -706 628 0
624 709 0
-624 -709 0
-624 -707 616 0
-624 -708 617 0
-624 -710 618 0
-624 -711 619 0
-624 -712 620 0
-624 -713 621 0
-624 -714 622 0
-624 -715 623 0
-624 -716 625 0
-624 -717 626 0
-624 -718 627 0
-624 -719 628 0
625 722 0
-625 -722 0
-625 -720 616 0
-625 -721 617 0
-625 -723 618 0
-625 -724 619 0
-625 -725 620 0
-625 -726 621 0
-625 -727 622 0
-625 -728 623 0
-625 -729 624 0
-625 -730 626 0
-625 -731 627 0
-625 -732 628 0
626 735 0
-626 -735 0
-626 -733 616 0
-626 -734 617 0
-626 -736 618 0
-626 -737 619 0
-626 -738 620 0
-626 -739 621 0
-626 -740 622 0
-626 -741 623 0
-626 -742 624 0
-626 -743 625 0
-626 -744 627 0
-626 -745 628 0
627 748 0
-627 -748 0
-627 -746 616 0
-627 -747 617 0
-627 -749 618 0
-627 -750 619 0
-627 -751 620 0
-627 -752 621 0
-627 -753 622 0
-627 -754 623 0
-627 -755 624 0
-627 -756 625 0
-627 -757 626 0
-627 -758 628 0
628 761 0
-628 -761 0
-628 -759 616 0
-628 -760 617 0
-628 -762 618 0
-628 -763 619 0
-628 -764 620 0
-628 -765 621 0
-628 -766 622 0
-628 -767 623 0
-628 -768 624 0
-628 -769 625 0
-628 -770 626 0
-628 -771 627 0
774 0
629 595 0
-629 -595 0
-629 -590 630 0
-629 -593 631 0
-629 -597 632 0
-629 -599 633 0
-629 -601 634 0
-629 -603 635 0
-629 -605 636 0
-629 -607 637 0
-629 -609 638 0
-629 -611 639 0
-629 -613 640 0
-629 -615 641 0
630 594 0
-630 -594 0
-630 -591 629 0
-630 -592 631 0
-630 -596 632 0
-630 -598 633 0
-630 -600 634 0
-630 -602 635 0
-630 -604 636 0
-630 -606 637 0
-630 -608 638 0
-630 -610 639 0
-630 -612 640 0
-630 -614 641 0
631 618 0
-631 -618 0
-631 -616 629 0
-631 -617 630 0
-631 -619 632 0
-631 -620 633 0
-631 -621 634 0
-631 -622 635 0
-631 -623 636 0
-631 -624 637 0
-631 -625 638 0
-631 -626 639 0
-631 -627 640 0
-631 -628 641 0
632 645 0
-632 -645 0
-632 -642 629 0
-632 -643 630 0
-632 -644 631 0
-632 -646 633 0
-632 -647 634 0
-632 -648 635 0
-632 -649 636 0
-632 -650 637 0
-632 -651 638 0
-632 -652 639 0
-632 -653 640 0
-632 -654 641 0
633 658 0
-633 -658 0
-633 -655 629 0
-633 -656 630 0
-633 -657 631 0
-633 -659 632 0
-633 -660 634 0
-633 -661 635 0
-633 -662 636 0
-633 -663 637 0
-633 -664 638 0
-633 -665 639 0
-633 -666 640 0
-633 -667 641 0
634 671 0
-634 -671 0
-634 -668 629 0
-634 -669 630 0
-634 -670 631 0
-634 -672 632 0
-634 -673 633 0
-634 -674 635 0
-634 -675 636 0
-634 -676 637 0
-634 -677 638 0
-634 -678 639 0
-634 -679 640 0
-634 -680 641 0
635 684 0
-635 -684 0
-635 -681 629 0
-635 -682 630 0
-635 -683 631 0
-635 -685 632 0
-635 -686 633 0
-635 -687 634 0
-635 -688 636 0
-635 -689 637 0
-635 -690 638 0
-635 -691 639 0
-635 -692 640 0
-635 -693 641 0
636 697 0
-636 -697 0
-636 -694 629 0
-636 -695 630 0
-636 -696 631 0
-636 -698 632 0
-636 -699 633 0
-636 -700 634 0
-636 -701 635 0
-636 -702 637 0
-636 -703 638 0
-636 -704 639 0
-636 -705 640 0
-636 -706 641 0
637 710 0
-637 -710 0
-637 -707 629 0
-637 -708 630 0
-637 -709 631 0
-637 -711 632 0
-637 -712 633 0
-637 -713 634 0
-637 -714 635 0
-637 -715 636 0
-637 -716 638 0
-637 -717 639 0
-637 -718 640 0
-637 -719 641 0
638 723 0
-638 -723 0
-638 -720 629 0
-638 -721 630 0
-638 -722 631 0
-638 -724 632 0
-638 -725 633 0
-638 -726 634 0
-638 -727 635 0
-638 -728 636 0
-638 -729 637 0
-638 -730 639 0
-638 -731 640 0
-638 -732 641 0
639 736 0
-639 -736 0
-639 -733 629 0
-639 -734 630 0
-639 -735 631 0
-639 -737 632 0
-639 -738 633 0
-639 -739 634 0
-639 -740 635 0
-639 -741 636 0
-639 -742 637 0
-639 -743 638 0
-639 -744 640 0
-639 -745 641 0
640 749 0
-640 -749 0
-640 -746 629 0
-640 -747 630 0
-640 -748 631 0
-640 -750 632 0
-640 -751 633 0
-640 -752 634 0
-640 -753 635 0
-640 -754 636 0
-640 -755 637 0
-640 -756 638 0
-640 -757 639 0
-640 -758 641 0
641 762 0
-641 -762 0
-641 -759 629 0
-641 -760 630 0
-641 -761 631 0
-641 -763 632 0
-641 -764 633 0
-641 -765 634 0
-641 -766 635 0
-641 -767 636 0
-641 -768 637 0
-641 -769 638 0
-641 -770 639 0
-641 -771 640 0
775 0
642 597 0
-642 -597 0
-642 -590 643 0
-642 -593 644 0
-642 -595 645 0
-642 -599 646 0
-642 -601 647 0
-642 -603 648 0
-642 -605 649 0
-642 -607 650 0
-642 -609 651 0
-642 -611 652 0
-642 -613 653 0
-642 -615 654 0
643 596 0
-643 -596 0
-643 -591 642 0
-643 -592 644 0
-643 -594 645 0
-643 -598 646 0
-643 -600 647 0
-643 -602 648 0
-643 -604 649 0
-643 -606 650 0
-643 -608 651 0
-643 -610 652 0
-643 -612 653 0
-643 -614 654 0
644 619 0
-644 -619 0
-644 -616 642 0
-644 -617 643 0
-644 -618 645 0
-644 -620 646 0
-644 -621 647 0
-644 -622 648 0
-644 -623 649 0
-644 -624 650 0
-644 -625 651 0
-644 -626 652 0
-644 -627 653 0
-644 -628 654 0
645 632 0
-645 -632 0
-645 -629 642 0
-645 -630 643 0
-645 -631 644 0
-645 -633 646 0
-645 -634 647 0
-645 -635 648 0
-645 -636 649 0
-645 -637 650 0
-645 -638 651 0
-645 -639 652 0
-645 -640 653 0
-645 -641 654 0
646 659 0
-646 -659 0
-646 -655 642 0
-646 -656 643 0
-646 -657 644 0
-646 -658 645 0
-646 -660 647 0
-646 -661 648 0
-646 -662 649 0
-646 -663 650 0
-646 -664 651 0
-646 -665 652 0
-646 -666 653 0
-646 -667 654 0
647 672 0
-647 -672 0
-647 -668 642 0
-647 -669 643 0
-647 -670 644 0
-647 -671 645 0
-647 -673 646 0
-647 -674 648 0
-647 -675 649 0
-647 -676 650 0
-647 -677 651 0
-647 -678 652 0
-647 -679 653 0
-647 -680 654 0
648 685 0
-648 -685 0
-648 -681 642 0
-648 -682 643 0
-648 -683 644 0
-648 -684 645 0
-648 -686 646 0
-648 -687 647 0
-648 -688 649 0
-648 -689 650 0
-648 -690 651 0
-648 -691 652 0
-648 -692 653 0
-648 -693 654 0
649 698 0
-649 -698 0
-649 -694 642 0
-649 -695 643 0
-649 -696 644 0
-649 -697 645 0
-649 -699 646 0
-649 -700 647 0
-649 -701 648 0
-649 -702 650 0
-649 -703 651 0
-649 -704 652 0
-649 -705 653 0
-649 -706 654 0
650 711 0
-650 -711 0
-650 -707 642 0
-650 -708 643 0
-650 -709 644 0
-650 -710 645 0
-650 -712 646 0
-650 -713 647 0
-650 -714 648 0
-650 -715 649 0
-650 -716 651 0
-650 -717 652 0
-650 -718 653 0
-650 -719 654 0
651 724 0
-651 -724 0
-651 -720 642 0
-651 -721 643 0
-651 -722 644 0
-651 -723 645 0
-651 -725 646 0
-651 -726 647 0
-651 -727 648 0
-651 -728 649 0
-651 -729 650 0
-651 -730 652 0
-651 -731 653 0
-651 -732 654 0
652 737 0
-652 -737 0
-652 -733 642 0
-652 -734 643 0
-652 -735 644 0
-652 -736 645 0
-652 -738 646 0
-652 -739 647 0
-652 -740 648 0
-652 -741 649 0
-652 -742 650 0
-652 -743 651 0
-652 -744 653 0
-652 -745 654 0
653 750 0
-653 -750 0
-653 -746 642 0
-653 -747 643 0
-653 -748 644 0
-653 -749 645 0
-653 -751 646 0
-653 -752 647 0
-653 -753 648 0
-653 -754 649 0
-653 -755 650 0
-653 -756 651 0
-653 -757 652 0
-653 -758 654 0
654 763 0
-654 -763 0
-654 -759 642 0
-654 -760 643 0
-654 -761 644 0
-654 -762 645 0
-654 -764 646 0
-654 -765 647 0
-654 -766 648 0
-654 -767 649 0
-654 -768 650 0
-654 -769 651 0
-654 -770 652 0
-654 -771 653 0
776 0
655 599 0
-655 -599 0
-655 -590 656 0
-655 -593 657 0
-655 -595 658 0
-655 -597 659 0
-655 -601 660 0
-655 -603 661 0
-655 -605 662 0
-655 -607 663 0
-655 -609 664 0
-655 -611 665 0
-655 -613 666 0
-655 -615 667 0
656 598 0
-656 -598 0
-656 -591 655 0
-656 -592 657 0
-656 -594 658 0
-656 -596 659 0
-656 -600 660 0
-656 -602 661 0
-656 -604 662 0
-656 -606 663 0
-656 -608 664 0
-656 -610 665 0
-656 -612 666 0
-656 -614 667 0
657 620 0
-657 -620 0
-657 -616 655 0
-657 -617 656 0
-657 -618 658 0
-657 -619 659 0
-657 -621 660 0
-657 -622 661 0
-657 -623 662 0
-657 -624 663 0
-657 -625 664 0
-657 -626 665 0
-657 -627 666 0
-657 -628 667 0
658 633 0
-658 -633 0
-658 -629 655 0
-658 -630 656 0
-658 -631 657 0
-658 -632 659 0
-658 -634 660 0
-658 -635 661 0
-658 -636 662 0
-658 -637 663 0
-658 -638 664 0
-658 -639 665 0
-658 -640 666 0
-658 -641 667 0
659 646 0
-659 -646 0
-659 -642 655 0
-659 -643 656 0
-659 -644 657 0
-659 -645 658 0
-659 -647 660 0
-659 -648 661 0
-659 -649 662 0
-659 -650 663 0
-659 -651 664 0
-659 -652 665 0
-659 -653 666 0
-659 -654 667 0
660 673 0
-660 -673 0
-660 -668 655 0
-660 -669 656 0
-660 -670 657 0
-660 -671 658 0
-660 -672 659 0
-660 -674 661 0
-660 -675 662 0
-660 -676 663 0
-660 -677 664 0
-660 -678 665 0
-660 -679 666 0
-660 -680 667 0
661 686 0
-661 -686 0
-661 -681 655 0
-661 -682 656 0
-661 -683 657 0
-661 -684 658 0
-661 -685 659 0
-661 -687 660 0
-661 -688 662 0
-661 -689 663 0
-661 -690 664 0
-661 -691 665 0
-661 -692 666 0
-661 -693 667 0
662 699 0
-662 -699 0
-662 -694 655 0
-662 -695 656 0
-662 -696 657 0
-662 -697 658 0
-662 -698 659 0
-662 -700 660 0
-662 -701 661 0
-662 -702 663 0
-662 -703 664 0
-662 -704 665 0
-662 -705 666 0
-662 -706 667 0
663 712 0
-663 -712 0
-663 -707 655 0
-663 -708 656 0
-663 -709 657 0
-663 -710 658 0
-663 -711 659 0
-663 -713 660 0
-663 -714 661 0
-663 -715 662 0
-663 -716 664 0
-663 -717 665 0
-663 -718 666 0
-663 -719 667 0
664 725 0
-664 -725 0
-664 -720 655 0
-664 -721 656 0
-664 -722 657 0
-664 -723 658 0
-664 -724 659 0
-664 -726 660 0
-664 -727 661 0
-664 -728 662 0
-664 -729 663 0
-664 -730 665 0
-664 -731 666 0
-664 -732 667 0
665 738 0
-665 -738 0
-665 -733 655 0
-665 -734 656 0
-665 -735 657 0
-665 -736 658 0
-665 -737 659 0
-665 -739 660 0
-665 -740 661 0
-665 -741 662 0
-665 -742 663 0
-665 -743 664 0
-665 -744 666 0
-665 -745 667 0
666 751 0
-666 -751 0
-666 -746 655 0
-666 -747 656 0
-666 -748 657 0
-666 -749 658 0
-666 -750 659 0
-666 -752 660 0
-666 -753 661 0
-666 -754 662 0
-666 -755 663 0
-666 -756 664 0
-666 -757 665 0
-666 -758 667 0
667 764 0
-667 -764 0
-667 -759 655 0
-667 -760 656 0
-667 -761 657 0
-667 -762 658 0
-667 -763 659 0
-667 -765 660 0
-667 -766 661 0
-667 -767 662 0
-667 -768 663 0
-667 -769 664 0
-667 -770 665 0
-667 -771 666 0
777 0
668 601 0
-668 -601 0
-668 -590 669 0
-668 -593 670 0
-668 -595 671 0
-668 -597 672 0
-668 -599 673 0
-668 -603 674 0
-668 -605 675 0
-668 -607 676 0
-668 -609 677 0
-668 -611 678 0
-668 -613 679 0
-668 -615 680 0
669 600 0
-669 -600 0
-669 -591 668 0
-669 -592 670 0
-669 -594 671 0
-669 -596 672 0
-669 -598 673 0
-669 -602 674 0
-669 -604 675 0
-669 -606 676 0
-669 -608 677 0
-669 -610 678 0
-669 -612 679 0
-669 -614 680 0
670 621 0
-670 -621 0
-670 -616 668 0
-670 -617 669 0
-670 -618 671 0
-670 -619 672 0
-670 -620 673 0
-670 -622 674 0
-670 -623 675 0
-670 -624 676 0
-670 -625 677 0
-670 -626 678 0
-670 -627 679 0
-670 -628 680 0
671 634 0
-671 -634 0
-671 -629 668 0
-671 -630 669 0
-671 -631 670 0
-671 -632 672 0
-671 -633 673 0
-671 -635 674 0
-671 -636 675 0
-671 -637 676 0
-671 -638 677 0
-671 -639 678 0
-671 -640 679 0
-671 -641 680 0
672 647 0
-672 -647 0
-672 -642 668 0
-672 -643 669 0
-672 -644 670 0
-672 -645 671 0
-672 -646 673 0
-672 -648 674 0
-672 -649 675 0
-672 -650 676 0
-672 -651 677 0
-672 -652 678 0
-672 -653 679 0
-672 -654 680 0
673 660 0
-673 -660 0
-673 -655 668 0
-673 -656 669 0
-673 -657 670 0
-673 -658 671 0
-673 -659 672 0
-673 -661 674 0
-673 -662 675 0
-673 -663 676 0
-673 -664 677 0
-673 -665 678 0
-673 -666 679 0
-673 -667 680 0
674 687 0
-674 -687 0
-674 -681 668 0
-674 -682 669 0
-674 -683 670 0
-674 -684 671 0
-674 -685 672 0
-674 -686 673 0
-674 -688 675 0
-674 -689 676 0
-674 -690 677 0
-674 -691 678 0
-674 -692 679 0
-674 -693 680 0
675 700 0
-675 -700 0
-675 -694 668 0
-675 -695 669 0
-675 -696 670 0
-675 -697 671 0
-675 -698 672 0
-675 -699 673 0
-675 -701 674 0
-675 -702 676 0
-675 -703 677 0
-675 -704 678 0
-675 -705 679 0
-675 -706 680 0
676 713 0
-676 -713 0
-676 -707 668 0
-676 -708 669 0
-676 -709 670 0
-676 -710 671 0
-676 -711 672 0
-676 -712 673 0
-676 -714 674 0
-676 -715 675 0
-676 -716 677 0
-676 -717 678 0
-676 -718 679 0
-676 -719 680 0
677 726 0
-677 -726 0
-677 -720 668 0
-677 -721 669 0
-677 -722 670 0
-677 -723 671 0
-677 -724 672 0
-677 -725 673 0
-677 -727 674 0
-677 -728 675 0
-677 -729 676 0
-677 -730 678 0
-677 -731 679 0
-677 -732 680 0
678 739 0
-678 -739 0
-678 -733 668 0
-678 -734 669 0
-678 -735 670 0
-678 -736 671 0
-678 -737 672 0
-678 -738 673 0
-678 -740 674 0
-678 -741 675 0
-678 -742 676 0
-678 -743 677 0
-678 -744 679 0
-678 -745 680 0
679 752 0
-679 -752 0
-679 -746 668 0
-679 -747 669 0
-679 -748 670 0
-679 -749 671 0
-679 -750 672 0
-679 -751 673 0
-679 -753 674 0
-679 -754 675 0
-679 -755 676 0
-679 -756 677 0
-679 -757 678 0
-679 -758 680 0
680 765 0
-680 -765 0
-680 -759 668 0
-680 -760 669 0
-680 -761 670 0
-680 -762 671 0
-680 -763 672 0
-680 -764 673 0
-680 -766 674 0
-680 -767 675 0
-680 -768 676 0
-680 -769 677 0
-680 -770 678 0
-680 -771 679 0
778 0
681 603 0
-681 -603 0
-681 -590 682 0
-681 -593 683 0
-681 -595 684 0
-681 -597 685 0
-681 -599 686 0
-681 -601 687 0
-681 -605 688 0
-681 -607 689 0
-681 -609 690 0
-681 -611 691 0
-681 -613 692 0
-681 -615 693 0
682 602 0
-682 -602 0
-682 -591 681 0
-682 -592 683 0
-682 -594 684 0
-682 -596 685 0
-682 -598 686 0
-682 -600 687 0
-682 -604 688 0
-682 -606 689 0
-682 -608 690 0
-682 -610 691 0
-682 -612 692 0
-682 -614 693 0
683 622 0
-683 -622 0
-683 -616 681 0
-683 -617 682 0
-683 -618 684 0
-683 -619 685 0
-683 -620 686 0
-683 -621 687 0
-683 -623 688 0
-683 -624 689 0
-683 -625 690 0
-683 -626 691 0
-683 -627 692 0
-683 -628 693 0
684 635 0
-684 -635 0
-684 -629 681 0
-684 -630 682 0
-684 -631 683 0
-684 -632 685 0
-684 -633 686 0
-684 -634 687 0
-684 -636 688 0
-684 -637 689 0
-684 -638 690 0
-684 -639 691 0
-684 -640 692 0
-684 -641 693 0
685 648 0
-685 -648 0
-685 -642 681 0
-685 -643 682 0
-685 -644 683 0
-685 -645 684 0
-685 -646 686 0
-685 -647 687 0
-685 -649 688 0
-685 -650 689 0
-685 -651 690 0
-685 -652 691 0
-685 -653 692 0
-685 -654 693 0
686 661 0
-686 -661 0
-686 -655 681 0
-686 -656 682 0
-686 -657 683 0
-686 -658 684 0
-686 -659 685 0
-686 -660 687 0
-686 -662 688 0
-686 -663 689 0
-686 -664 690 0
-686 -665 691 0
-686 -666 692 0
-686 -667 693 0
687 674 0
-687 -674 0
-687 -668 681 0
-687 -669 682 0
-687 -670 683 0
-687 -671 684 0
-687 -672 685 0
-687 -673 686 0
-687 -675 688 0
-687 -676 689 0
-687 -677 690 0
-687 -678 691 0
-687 -679 692 0
-687 -680 693 0
688 701 0
-688 -701 0
-688 -694 681 0
-688 -695 682 0
-688 -696 683 0
-688 -697 684 0
-688 -698 685 0
-688 -699 686 0
-688 -700 687 0
-688 -702 689 0
-688 -703 690 0
-688 -704 691 0
-688 -705 692 0
-688 -706 693 0
689 714 0
-689 -714 0
-689 -707 681 0
-689 -708 682 0
-689 -709 683 0
-689 -710 684 0
-689 -711 685 0
-689 -712 686 0
-689 -713 687 0
-689 -715 688 0
-689 -716 690 0
-689 -717 691 0
-689 -718 692 0
-689 -719 693 0
690 727 0
-690 -727 0
-690 -720 681 0
-690 -721 682 0
-690 -722 683 0
-690 -723 684 0
-690 -724 685 0
-690 -725 686 0
-690 -726 687 0
-690 -728 688 0
-690 -729 689 0
-690 -730 691 0
-690 -731 692 0
-690 -732 693 0
691 740 0
-691 -740 0
-691 -733 681 0
-691 -734 682 0
-691 -735 683 0
-691 -736 684 0
-691 -737 685 0
-691 -738 686 0
-691 -739 687 0
-691 -741 688 0
-691 -742 689 0
-691 -743 690 0
-691 -744 692 0
-691 -745 693 0
692 753 0
-692 -753 0
-692 -746 681 0
-692 -747 682 0
-692 -748 683 0
-692 -749 684 0
-692 -750 685 0
-692 -751 686 0
-692 -752 687 0
-692 -754 688 0
-692 -755 689 0
-692 -756 690 0
-692 -757 691 0
-692 -758 693 0
693 766 0
-693 -766 0
-693 -759 681 0
-693 -760 682 0
-693 -761 683 0
-693 -762 684 0
-693 -763 685 0
-693 -764 686 0
-693 -765 687 0
-693 -767 688 0
-693 -768 689 0
-693 -769 690 0
-693 -770 691 0
-693 -771 692 0
779 0
694 605 0
-694 -605 0
-694 -590 695 0
-694 -593 696 0
-694 -595 697 0
-694 -597 698 0
-694 -599 699 0
-694 -601 700 0
-694 -603 701 0
-694 -607 702 0
-694 -609 703 0
-694 -611 704 0
-694 -613 705 0
-694 -615 706 0
695 604 0
-695 -604 0
-695 -591 694 0
-695 -592 696 0
-695 -594 697 0
-695 -596 698 0
-695 -598 699 0
-695 -600 700 0
-695 -602 701 0
-695 -606 702 0
-695 -608 703 0
-695 -610 704 0
-695 -612 705 0
-695 -614 706 0
696 623 0
-696 -623 0
-696 -616 694 0
-696 -617 695 0
-696 -618 697 0
-696 -619 698 0
-696 -620 699 0
-696 -621 700 0
-696 -622 701 0
-696 -624 702 0
-696 -625 703 0
-696 -626 704 0
-696 -627 705 0
-696 -628 706 0
697 636 0
-697 -636 0
-697 -629 694 0
-697 -630 695 0
-697 -631 696 0
-697 -632 698 0
-697 -633 699 0
-697 -634 700 0
-697 -635 701 0
-697 -637 702 0
-697 -638 703 0
-697 -639 704 0
-697 -640 705 0
-697 -641 706 0
698 649 0
-698 -649 0
-698 -642 694 0
-698 -643 695 0
-698 -644 696 0
-698 -645 697 0
-698 -646 699 0
-698 -647 700 0
-698 -648 701 0
-698 -650 702 0
-698 -651 703 0
-698 -652 704 0
-698 -653 705 0
-698 -654 706 0
699 662 0
-699 -662 0
-699 -655 694 0
-699 -656 695 0
-699 -657 696 0
-699 -658 697 0
-699 -659 698 0
-699 -660 700 0
-699 -661 701 0
-699 -663 702 0
-699 -664 703 0
-699 -665 704 0
-699 -666 705 0
-699 -667 706 0
700 675 0
-700 -675 0
-700 -668 694 0
-700 -669 695 0
-700 -670 696 0
-700 -671 697 0
-700 -672 698 0
-700 -673 699 0
-700 -674 701 0
-700 -676 702 0
-700 -677 703 0
-700 -678 704 0
-700 -679 705 0
-700 -680 706 0
701 688 0
-701 -688 0
-701 -681 694 0
-701 -682 695 0
-701 -683 696 0
-701 -684 697 0
-701 -685 698 0
-701 -686 699 0
-701 -687 700 0
-701 -689 702 0
-701 -690 703 0
-701 -691 704 0
-701 -692 705 0
-701 -693 706 0
702 715 0
-702 -715 0
-702 -707 694 0
-702 -708 695 0
-702 -709 696 0
-702 -710 697 0
-702 -711 698 0
-702 -712 699 0
-702 -713 700 0
-702 -714 701 0
-702 -716 703 0
-702 -717 704 0
-702 -718 705 0
-702 -719 706 0
703 728 0
-703 -728 0
-703 -720 694 0
-703 -721 695 0
-703 -722 696 0
-703 -723 697 0
-703 -724 698 0
-703 -725 699 0
-703 -726 700 0
-703 -727 701 0
-703 -729 702 0
-703 -730 704 0
-703 -731 705 0
-703 -732 706 0
704 741 0
-704 -741 0
-704 -733 694 0
-704 -734 695 0
-704 -735 696 0
-704 -736 697 0
-704 -737 698 0
-704 -738 699 0
-704 -739 700 0
-704 -740 701 0
-704 -742 702 0
-704 -743 703 0
-704 -744 705 0
-704 -745 706 0
705 754 0
-705 -754 0
-705 -746 694 0
-705 -747 695 0
-705 -748 696 0
-705 -749 697 0
-705 -750 698 0
-705 -751 699 0
-705 -752 700 0
-705 -753 701 0
-705 -755 702 0
-705 -756 703 0
-705 -757 704 0
-705 -758 706 0
706 767 0
-706 -767 0
-706 -759 694 0
-706 -760 695 0
-706 -761 696 0
-706 -762 697 0
-706 -763 698 0
-706 -764 699 0
-706 -765 700 0
-706 -766 701 0
-706 -768 702 0
-706 -769 703 0
-706 -770 704 0
-706 -771 705 0
780 0
707 607 0
-707 -607 0
-707 -590 708 0
-707 -593 709 0
-707 -595 710 0
-707 -597 711 0
-707 -599 712 0
-707 -601 713 0
-707 -603 714 0
-707 -605 715 0
-707 -609 716 0
-707 -611 717 0
-707 -613 718 0
-707 -615 719 0
708 606 0
-708 -606 0
-708 -591 707 0
-708 -592 709 0
-708 -594 710 0
-708 -596 711 0
-708 -598 712 0
-708 -600 713 0
-708 -602 714 0
-708 -604 715 0
-708 -608 716 0
-708 -610 717 0
-708 -612 718 0
-708 -614 719 0
709 624 0
-709 -624 0
-709 -616 707 0
-709 -617 708 0
-709 -618 710 0
-709 -619 711 0
-709 -620 712 0
-709 -621 713 0
-709 -622 714 0
-709 -623 715 0
-709 -625 716 0
-709 -626 717 0
-709 -627 718 0
-709 -628 719 0
710 637 0
-710 -637 0
-710 -629 707 0
-710 -630 708 0
-710 -631 709 0
-710 -632 711 0
-710 -633 712 0
-710 -634 713 0
-710 -635 714 0
-710 -636 715 0
-710 -638 716 0
-710 -639 717 0
-710 -640 718 0
-710 -641 719 0
711 650 0
-711 -650 0
-711 -642 707 0
-711 -643 708 0
-711 -644 709 0
-711 -645 710 0
-711 -646 712 0
-711 -647 713 0
-711 -648 714 0
-711 -649 715 0
-711 -651 716 0
-711 -652 717 0
-711 -653 718 0
-711 -654 719 0
712 663 0
-712 -663 0
-712 -655 707 0
-712 -656 708 0
-712 -657 709 0
-712 -658 710 0
-712 -659 711 0
-712 -660 713 0
-712 -661 714 0
-712 -662 715 0
-712 -664 716 0
-712 -665 717 0
-712 -666 718 0
-712 -667 719 0
713 676 0
-713 -676 0
-713 -668 707 0
-713 -669 708 0
-713 -670 709 0
-713 -671 710 0
-713 -672 711 0
-713 -673 712 0
-713 -674 714 0
-713 -675 715 0
-713 -677 716 0
-713 -678 717 0
-713 -679 718 0
-713 -680 719 0
714 689 0
-714 -689 0
-714 -681 707 0
-714 -682 708 0
-714 -683 709 0
-714 -684 710 0
-714 -685 711 0
-714 -686 712 0
-714 -687 713 0
-714 -688 715 0
-714 -690 716 0
-714 -691 717 0
-714 -692 718 0
-714 -693 719 0
715 702 0
-715 -702 0
-715 -694 707 0
-715 -695 708 0
-715 -696 709 0
-715 -697 710 0
-715 -698 711 0
-715 -699 712 0
-715 -700 713 0
-715 -701 714 0
-715 -703 716 0
-715 -704 717 0
-715 -705 718 0
-715 -706 719 0
716 729 0
-716 -729 0
-716 -720 707 0
-716 -721 708 0
-716 -722 709 0
-716 -723 710 0
-716 -724 711 0
-716 -725 712 0
-716 -726 713 0
-716 -727 714 0
-716 -728 715 0
-716 -730 717 0
-716 -731 718 0
-716 -732 719 0
717 742 0
-717 -742 0
-717 -733 707 0
-717 -734 708 0
-717 -735 709 0
-717 -736 710 0
-717 -737 711 0
-717 -738 712 0
-717 -739 713 0
-717 -740 714 0
-717 -741 715 0
-717 -743 716 0
-717 -744 718 0
-717 -745 719 0
718 755 0
-718 -755 0
-718 -746 707 0
-718 -747 708 0
-718 -748 709 0
-718 -749 710 0
-718 -750 711 0
-718 -751 712 0
-718 -752 713 0
-718 -753 714 0
-718 -754 715 0
-718 -756 716 0
-718 -757 717 0
-718 -758 719 0
719 768 0
-719 -768 0
-719 -759 707 0
-719 -760 708 0
-719 -761 709 0
-719 -762 710 0
-719 -763 711 0
-719 -764 712 0
-719 -765 713 0
-719 -766 714 0
-719 -767 715 0
-719 -769 716 0
-719 -770 717 0
-719 -771 718 0
781 0
720 609 0
-720 -609 0
-720 -590 721 0
-720 -593 722 0
-720 -595 723 0
-720 -597 724 0
-720 -599 725 0
-720 -601 726 0
-720 -603 727 0
-720 -605 728 0
-720 -607 729 0
-720 -611 730 0
-720 -613 731 0
-720 -615 732 0
721 608 0
-721 -608 0
-721 -591 720 0
-721 -592 722 0
-721 -594 723 0
-721 -596 724 0
-721 -598 725 0
-721 -600 726 0
-721 -602 727 0
-721 -604 728 0
-721 -606 729 0
-721 -610 730 0
-721 -612 731 0
-721 -614 732 0
722 625 0
-722 -625 0
-722 -616 720 0
-722 -617 721 0
-722 -618 723 0
-722 -619 724 0
-722 -620 725 0
-722 -621 726 0
-722 -622 727 0
-722 -623 728 0
-722 -624 729 0
-722 -626 730 0
-722 -627 731 0
-722 -628 732 0
723 638 0
-723 -638 0
-723 -629 720 0
-723 -630 721 0
-723 -631 722 0
-723 -632 724 0
-723 -633 725 0
-723 -634 726 0
-723 -635 727 0
-723 -636 728 0
-723 -637 729 0
-723 -639 730 0
-723 -640 731 0
-723 -641 732 0
724 651 0
-724 -651 0
-724 -642 720 0
-724 -643 721 0
-724 -644 722 0
-724 -645 723 0
-724 -646 725 0
-724 -647 726 0
-724 -648 727 0
-724 -649 728 0
-724 -650 729 0
-724 -652 730 0
-724 -653 731 0
-724 -654 732 0
725 664 0
-725 -664 0
-725 -655 720 0
-725 -656 721 0
-725 -657 722 0
-725 -658 723 0
-725 -659 724 0
-725 -660 726 0
-725 -661 727 0
-725 -662 728 0
-725 -663 729 0
-725 -665 730 0
-725 -666 731 0
-725 -667 732 0
726 677 0
-726 -677 0
-726 -668 720 0
-726 -669 721 0
-726 -670 722 0
-726 -671 723 0
-726 -672 724 0
-726 -673 725 0
-726 -674 727 0
-726 -675 728 0
-726 -676 729 0
-726 -678 730 0
-726 -679 731 0
-726 -680 732 0
727 690 0
-727 -690 0
-727 -681 720 0
-727 -682 721 0
-727 -683 722 0
-727 -684 723 0
-727 -685 724 0
-727 -686 725 0
-727 -687 726 0
-727 -688 728 0
-727 -689 729 0
-727 -691 730 0
-727 -692 731 0
-727 -693 732 0
728 703 0
-728 -703 0
-728 -694 720 0
-728 -695 721 0
-728 -696 722 0
-728 -697 723 0
-728 -698 724 0
-728 -699 725 0
-728 -700 726 0
-728 -701 727 0
-728 -702 729 0
-728 -704 730 0
-728 -705 731 0
-728 -706 732 0
729 716 0
-729 -716 0
-729 -707 720 0
-729 -708 721 0
-729 -709 722 0
-729 -710 723 0
-729 -711 724 0
-729 -712 725 0
-729 -713 726 0
-729 -714 727 0
-729 -715 728 0
-729 -717 730 0
-729 -718 731 0
-729 -719 732 0
730 743 0
-730 -743 0
-730 -733 720 0
-730 -734 721 0
-730 -735 722 0
-730 -736 723 0
-730 -737 724 0
-730 -738 725 0
-730 -739 726 0
-730 -740 727 0
-730 -741 728 0
-730 -742 729 0
-730 -744 731 0
-730 -745 732 0
731 756 0
-731 -756 0
-731 -746 720 0
-731 -747 721 0
-731 -748 722 0
-731 -749 723 0
-731 -750 724 0
-731 -751 725 0
-731 -752 726 0
-731 -753 727 0
-731 -754 728 0
-731 -755 729 0
-731 -757 730 0
-731 -758 732 0
732 769 0
-732 -769 0
-732 -759 720 0
-732 -760 721 0
-732 -761 722 0
-732 -762 723 0
-732 -763 724 0
-732 -764 725 0
-732 -765 726 0
-732 -766 727 0
-732 -767 728 0
-732 -768 729 0
-732 -770 730 0
-732 -771 731 0
782 0
733 611 0
-733 -611 0
-733 -590 734 0
-733 -593 735 0
-733 -595 736 0
-733 -597 737 0
-733 -599 738 0
-733 -601 739 0
-733 -603 740 0
-733 -605 741 0
-733 -607 742 0
-733 -609 743 0
-733 -613 744 0
-733 -615 745 0
734 610 0
-734 -610 0
-734 -591 733 0
-734 -592 735 0
-734 -594 736 0
-734 -596 737 0
-734 -598 738 0
-734 -600 739 0
-734 -602 740 0
-734 -604 741 0
-734 -606 742 0
-734 -608 743 0
-734 -612 744 0
-734 -614 745 0
735 626 0
-735 -626 0
-735 -616 733 0
-735 -617 734 0
-735 -618 736 0
-735 -619 737 0
-735 -620 738 0
-735 -621 739 0
-735 -622 740 0
-735 -623 741 0
-735 -624 742 0
-735 -625 743 0
-735 -627 744 0
-735 -628 745 0
736 639 0
-736 -639 0
-736 -629 733 0
-736 -630 734 0
-736 -631 735 0
-736 -632 737 0
-736 -633 738 0
-736 -634 739 0
-736 -635 740 0
-736 -636 741 0
-736 -637 742 0
-736 -638 743 0
-736 -640 744 0
-736 -641 745 0
737 652 0
-737 -652 0
-737 -642 733 0
-737 -643 734 0
-737 -644 735 0
-737 -645 736 0
-737 -646 738 0
-737 -647 739 0
-737 -648 740 0
-737 -649 741 0
-737 -650 742 0
-737 -651 743 0
-737 -653 744 0
-737 -654 745 0
738 665 0
-738 -665 0
-738 -655 733 0
-738 -656 734 0
-738 -657 735 0
-738 -658 736 0
-738 -659 737 0
-738 -660 739 0
-738 -661 740 0
-738 -662 741 0
-738 -663 742 0
-738 -664 743 0
-738 -666 744 0
-738 -667 745 0
739 678 0
-739 -678 0
-739 -668 733 0
-739 -669 734 0
-739 -670 735 0
-739 -671 736 0
-739 -672 737 0
-739 -673 738 0
-739 -674 740 0
-739 -675 741 0
-739 -676 742 0
-739 -677 743 0
-739 -679 744 0
-739 -680 745 0
740 691 0
-740 -691 0
-740 -681 733 0
-740 -682 734 0
-740 -683 735 0
-740 -684 736 0
-740 -685 737 0
-740 -686 738 0
-740 -687 739 0
-740 -688 741 0
-740 -689 742 0
-740 -690 743 0
-740 -692 744 0
-740 -693 745 0
741 704 0
-741 -704 0
-741 -694 733 0
-741 -695 734 0
-741 -696 735 0
-741 -697 736 0
-741 -698 737 0
-741 -699 738 0
-741 -700 739 0
-741 -701 740 0
-741 -702 742 0
-741 -703 743 0
-741 -705 744 0
-741 -706 745 0
742 717 0
-742 -717 0
-742 -707 733 0
-742 -708 734 0
-742 -709 735 0
-742 -710 736 0
-742 -711 737 0
-742 -712 738 0
-742 -713 739 0
-742 -714 740 0
-742 -715 741 0
-742 -716 743 0
-742 -718 744 0
-742 -719 745 0
743 730 0
-743 -730 0
-743 -720 733 0
-743 -721 734 0
-743 -722 735 0
-743 -723 736 0
-743 -724 737 0
-743 -725 738 0
-743 -726 739 0
-743 -727 740 0
-743 -728 741 0
-743 -729 742 0
-743 -731 744 0
-743 -732 745 0
744 757 0
-744 -757 0
-744 -746 733 0
-744 -747 734 0
-744 -748 735 0
-744 -749 736 0
-744 -750 737 0
-744 -751 738 0
-744 -752 739 0
-744 -753 740 0
-744 -754 741 0
-744 -755 742 0
-744 -756 743 0
-744 -758 745 0
745 770 0
-745 -770 0
-745 -759 733 0
-745 -760 734 0
-745 -761 735 0
-745 -762 736 0
-745 -763 737 0
-745 -764 738 0
-745 -765 739 0
-745 -766 740 0
-745 -767 741 0
-745 -768 742 0
-745 -769 743 0
-745 -771 744 0
783 0
746 613 0
-746 -613 0
-746 -590 747 0
-746 -593 748 0
-746 -595 749 0
-746 -597 750 0
-746 -599 751 0
-746 -601 752 0
-746 -603 753 0
-746 -605 754 0
-746 -607 755 0
-746 -609 756 0
-746 -611 757 0
-746 -615 758 0
747 612 0
-747 -612 0
-747 -591 746 0
-747 -592 748 0
-747 -594 749 0
-747 -596 750 0
-747 -598 751 0
-747 -600 752 0
-747 -602 753 0
-747 -604 754 0
-747 -606 755 0
-747 -608 756 0
-747 -610 757 0
-747 -614 758 0
748 627 0
-748 -627 0
-748 -616 746 0
-748 -617 747 0
-748 -618 749 0
-748 -619 750 0
-748 -620 751 0
-748 -621 752 0
-748 -622 753 0
-748 -623 754 0
-748 -624 755 0
-748 -625 756 0
-748 -626 757 0
-748 -628 758 0
749 640 0
-749 -640 0
-749 -629 746 0
-749 -630 747 0
-749 -631 748 0
-749 -632 750 0
-749 -633 751 0
-749 -634 752 0
-749 -635 753 0
-749 -636 754 0
-749 -637 755 0
-749 -638 756 0
-749 -639 757 0
-749 -641 758 0
750 653 0
-750 -653 0
-750 -642 746 0
-750 -643 747 0
-750 -644 748 0
-750 -645 749 0
-750 -646 751 0
-750 -647 752 0
-750 -648 753 0
-750 -649 754 0
-750 -650 755 0
-750 -651 756 0
-750 -652 757 0
-750 -654 758 0
751 666 0
-751 -666 0
-751 -655 746 0
-751 -656 747 0
-751 -657 748 0
-751 -658 749 0
-751 -659 750 0
-751 -660 752 0
-751 -661 753 0
-751 -662 754 0
-751 -663 755 0
-751 -664 756 0
-751 -665 757 0
-751 -667 758 0
752 679 0
-752 -679 0
-752 -668 746 0
-752 -669 747 0
-752 -670 748 0
-752 -671 749 0
-752 -672 750 0
-752 -673 751 0
-752 -674 753 0
-752 -675 754 0
-752 -676 755 0
-752 -677 756 0
-752 -678 757 0
-752 -680 758 0
753 692 0
-753 -692 0
-753 -681 746 0
-753 -682 747 0
-753 -683 748 0
-753 -684 749 0
-753 -685 750 0
-753 -686 751 0
-753 -687 752 0
-753 -688 754 0
-753 -689 755 0
-753 -690 756 0
-753 -691 757 0
-753 -693 758 0
754 705 0
-754 -705 0
-754 -694 746 0
-754 -695 747 0
-754 -696 748 0
-754 -697 749 0
-754 -698 750 0
-754 -699 751 0
-754 -700 752 0
-754 -701 753 0
-754 -702 755 0
-754 -703 756 0
-754 -704 757 0
-754 -706 758 0
755 718 0
-755 -718 0
-755 -707 746 0
-755 -708 747 0
-755 -709 748 0
-755 -710 749 0
-755 -711 750 0
-755 -712 751 0
-755 -713 752 0
-755 -714 753 0
-755 -715 754 0
-755 -716 756 0
-755 -717 757 0
-755 -719 758 0
756 731 0
-756 -731 0
-756 -720 746 0
-756 -721 747 0
-756 -722 748 0
-756 -723 749 0
-756 -724 750 0
-756 -725 751 0
-756 -726 752 0
-756 -727 753 0
-756 -728 754 0
-756 -729 755 0
-756 -730 757 0
-756 -732 758 0
757 744 0
-757 -744 0
-757 -733 746 0
-757 -734 747 0
-757 -735 748 0
-757 -736 749 0
-757 -737 750 0
-757 -738 751 0
-757 -739 752 0
-757 -740 753 0
-757 -741 754 0
-757 -742 755 0
-757 -743 756 0
-757 -745 758 0
758 771 0
-758 -771 0
-758 -759 746 0
-758 -760 747 0
-758 -761 748 0
-758 -762 749 0
-758 -763 750 0
-758 -764 751 0
-758 -765 752 0
-758 -766 753 0
-758 -767 754 0
-758 -768 755 0
-758 -769 756 0
-758 -770 757 0
784 0
759 615 0
-759 -615 0
-759 -590 760 0
-759 -593 761 0
-759 -595 762 0
-759 -597 763 0
-759 -599 764 0
-759 -601 765 0
-759 -603 766 0
-759 -605 767 0
-759 -607 768 0
-759 -609 769 0
-759 -611 770 0
-759 -613 771 0
760 614 0
-760 -614 0
-760 -591 759 0
-760 -592 761 0
-760 -594 762 0
-760 -596 763 0
-760 -598 764 0
-760 -600 765 0
-760 -602 766 0
-760 -604 767 0
-760 -606 768 0
-760 -608 769 0
-760 -610 770 0
-760 -612 771 0
761 628 0
-761 -628 0
-761 -616 759 0
-761 -617 760 0
-761 -618 762 0
-761 -619 763 0
-761 -620 764 0
-761 -621 765 0
-761 -622 766 0
-761 -623 767 0
-761 -624 768 0
-761 -625 769 0
-761 -626 770 0
-761 -627 771 0
762 641 0
-762 -641 0
-762 -629 759 0
-762 -630 760 0
-762 -631 761 0
-762 -632 763 0
-762 -633 764 0
-762 -634 765 0
-762 -635 766 0
-762 -636 767 0
-762 -637 768 0
-762 -638 769 0
-762 -639 770 0
-762 -640 771 0
763 654 0
-763 -654 0
-763 -642 759 0
-763 -643 760 0
-763 -644 761 0
-763 -645 762 0
-763 -646 764 0
-763 -647 765 0
-763 -648 766 0
-763 -649 767 0
-763 -650 768 0
-763 -651 769 0
-763 -652 770 0
-763 -653 771 0
764 667 0
-764 -667 0
-764 -655 759 0
-764 -656 760 0
-764 -657 761 0
-764 -658 762 0
-764 -659 763 0
-764 -660 765 0
-764 -661 766 0
-764 -662 767 0
-764 -663 768 0
-764 -664 769 0
-764 -665 770 0
-764 -666 771 0
765 680 0
-765 -680 0
-765 -668 759 0
-765 -669 760 0
-765 -670 761 0
-765 -671 762 0
-765 -672 763 0
-765 -673 764 0
-765 -674 766 0
-765 -675 767 0
-765 -676 768 0
-765 -677 769 0
-765 -678 770 0
-765 -679 771 0
766 693 0
-766 -693 0
-766 -681 759 0
-766 -682 760 0
-766 -683 761 0
-766 -684 762 0
-766 -685 763 0
-766 -686 764 0
-766 -687 765 0
-766 -688 767 0
-766 -689 768 0
-766 -690 769 0
-766 -691 770 0
-766 -692 771 0
767 706 0
-767 -706 0
-767 -694 759 0
-767 -695 760 0
-767 -696 761 0
-767 -697 762 0
-767 -698 763 0
-767 -699 764 0
-767 -700 765 0
-767 -701 766 0
-767 -702 768 0
-767 -703 769 0
-767 -704 770 0
-767 -705 771 0
768 719 0
-768 -719 0
-768 -707 759 0
-768 -708 760 0
-768 -709 761 0
-768 -710 762 0
-768 -711 763 0
-768 -712 764 0
-768 -713 765 0
-768 -714 766 0
-768 -715 767 0
-768 -716 769 0
-768 -717 770 0
-768 -718 771 0
769 732 0
-769 -732 0
-769 -720 759 0
-769 -721 760 0
-769 -722 761 0
-769 -723 762 0
-769 -724 763 0
-769 -725 764 0
-769 -726 765 0
-769 -727 766 0
-769 -728 767 0
-769 -729 768 0
-769 -730 770 0
-769 -731 771 0
770 745 0
-770 -745 0
-770 -733 759 0
-770 -734 760 0
-770 -735 761 0
-770 -736 762 0
-770 -737 763 0
-770 -738 764 0
-770 -739 765 0
-770 -740 766 0
-770 -741 767 0
-770 -742 768 0
-770 -743 769 0
-770 -744 771 0
771 758 0
-771 -758 0
-771 -746 759 0
-771 -747 760 0
-771 -748 761 0
-771 -749 762 0
-771 -750 763 0
-771 -751 764 0
-771 -752 765 0
-771 -753 766 0
-771 -754 767 0
-771 -755 768 0
-771 -756 769 0
-771 -757 770 0
-1 0
-29 590 0
-785 593 0
-785 617 0
-593 -617 785 0
-786 595 0
-786 630 0
-595 -630 786 0
-787 597 0
-787 643 0
-597 -643 787 0
-788 599 0
-788 656 0
-599 -656 788 0
-789 601 0
-789 669 0
-601 -669 789 0
-790 603 0
-790 682 0
-603 -682 790 0
-791 605 0
-791 695 0
-605 -695 791 0
-792 607 0
-792 708 0
-607 -708 792 0
-793 609 0
-793 721 0
-609 -721 793 0
-794 611 0
-794 734 0
-611 -734 794 0
-795 613 0
-795 747 0
-613 -747 795 0
-796 615 0
-796 760 0
-615 -760 796 0
-29 -785 0
-29 -786 0
-29 -787 0
-29 -788 0
-29 -789 0
-29 -790 0
-29 -791 0
-29 -792 0
-29 -793 0
-29 -794 0
-29 -795 0
-29 -796 0
-590 29 785 786 787 788 789 790 791 792 793 794 795 796 0
-57 593 0
-797 590 0
-797 592 0
-590 -592 797 0
-798 595 0
-798 631 0
-595 -631 798 0
-799 597 0
-799 644 0
-597 -644 799 0
-800 599 0
-800 657 0
-599 -657 800 0
-801 601 0
-801 670 0
-601 -670 801 0
-802 603 0
-802 683 0
-603 -683 802 0
-803 605 0
-803 696 0
-605 -696 803 0
-804 607 0
-804 709 0
-607 -709 804 0
-805 609 0
-805 722 0
-609 -722 805 0
-806 611 0
-806 735 0
-611 -735 806 0
-807 613 0
-807 748 0
-613 -748 807 0
-808 615 0
-808 761 0
-615 -761 808 0
-57 -797 0
-57 -798 0
-57 -799 0
-57 -800 0
-57 -801 0
-57 -802 0
-57 -803 0
-57 -804 0
-57 -805 0
-57 -806 0
-57 -807 0
-57 -808 0
-593 57 797 798 799 800 801 802 803 804 805 806 807 808 0
-85 595 0
-809 590 0
-809 594 0
-590 -594 809 0
-810 593 0
-810 618 0
-593 -618 810 0
-811 597 0
-811 645 0
-597 -645 811 0
-812 599 0
-812 658 0
-599 -658 812 0
-813 601 0
-813 671 0
-601 -671 813 0
-814 603 0
-814 684 0
-603 -684 814 0
-815 605 0
-815 697 0
-605 -697 815 0
-816 607 0
-816 710 0
-607 -710 816 0
-817 609 0
-817 723 0
-609 -723 817 0
-818 611 0
-818 736 0
-611 -736 818 0
-819 613 0
-819 749 0
-613 -749 819 0
-820 615 0
-820 762 0
-615 -762 820 0
-85 -809 0
-85 -810 0
-85 -811 0
-85 -812 0
-85 -813 0
-85 -814 0
-85 -815 0
-85 -816 0
-85 -817 0
-85 -818 0
-85 -819 0
-85 -820 0
-595 85 809 810 811 812 813 814 815 816 817 818 819 820 0
-113 597 0
-821 590 0
-821 596 0
-590 -596 821 0
-822 593 0
-822 619 0
-593 -619 822 0
-823 595 0
-823 632 0
-595 -632 823 0
-824 599 0
-824 659 0
-599 -659 824 0
-825 601 0
-825 672 0
-601 -672 825 0
-826 603 0
-826 685 0
-603 -685 826 0
-827 605 0
-827 698 0
-605 -698 827 0
-828 607 0
-828 711 0
-607 -711 828 0
-829 609 0
-829 724 0
-609 -724 829 0
-830 611 0
-830 737 0
-611 -737 830 0
-831 613 0
-831 750 0
-613 -750 831 0
-832 615 0
-832 763 0
-615 -763 832 0
-113 -821 0
-113 -822 0
-113 -823 0
-113 -824 0
-113 -825 0
-113 -826 0
-113 -827 0
-113 -828 0
-113 -829 0
-113 -830 0
-113 -831 0
-113 -832 0
-597 113 821 822 823 824 825 826 827 828 829 830 831 832 0
-141 599 0
-833 590 0
-833 598 0
-590 -598 833 0
-834 593 0
-834 620 0
-593 -620 834 0
-835 595 0
-835 633 0
-595 -633 835 0
-836 597 0
-836 646 0
-597 -646 836 0
-837 601 0
-837 673 0
-601 -673 837 0
-838 603 0
-838 686 0
-603 -686 838 0
-839 605 0
-839 699 0
-605 -699 839 0
-840 607 0
-840 712 0
-607 -712 840 0
-841 609 0
-841 725 0
-609 -725 841 0
-842 611 0
-842 738 0
-611 -738 842 0
-843 613 0
-843 751 0
-613 -751 843 0
-844 615 0
-844 764 0
-615 -764 844 0
-141 -833 0
-141 -834 0
-141 -835 0
-141 -836 0
-141 -837 0
-141 -838 0
-141 -839 0
-141 -840 0
-141 -841 0
-141 -842 0
-141 -843 0
-141 -844 0
-599 141 833 834 835 836 837 838 839 840 841 842 843 844 0
-169 601 0
-845 590 0
-845 600 0
-590 -600 845 0
-846 593 0
-846 621 0
-593 -621 846 0
-847 595 0
-847 634 0
-595 -634 847 0
-848 597 0
-848 647 0
-597 -647 848 0
-849 599 0
-849 660 0
-599 -660 849 0
-850 603 0
-850 687 0
-603 -687 850 0
-851 605 0
-851 700 0
-605 -700 851 0
-852 607 0
-852 713 0
-607 -713 852 0
-853 609 0
-853 726 0
-609 -726 853 0
-854 611 0
-854 739 0
-611 -739 854 0
-855 613 0
-855 752 0
-613 -752 855 0
-856 615 0
-856 765 0
-615 -765 856 0
-169 -845 0
-169 -846 0
-169 -847 0
-169 -848 0
-169 -849 0
-169 -850 0
-169 -851 0
-169 -852 0
-169 -853 0
-169 -854 0
-169 -855 0
-169 -856 0
-601 169 845 846 847 848 849 850 851 852 853 854 855 856 0
-197 603 0
-857 590 0
-857 602 0
-590 -602 857 0
-858 593 0
-858 622 0
-593 -622 858 0
-859 595 0
-859 635 0
-595 -635 859 0
-860 597 0
-860 648 0
-597 -648 860 0
-861 599 0
-861 661 0
-599 -661 861 0
-862 601 0
-862 674 0
-601 -674 862 0
-863 605 0
-863 701 0
-605 -701 863 0
-864 607 0
-864 714 0
-607 -714 864 0
-865 609 0
-865 727 0
-609 -727 865 0
-866 611 0
-866 740 0
-611 -740 866 0
-867 613 0
-867 753 0
-613 -753 867 0
-868 615 0
-868 766 0
-615 -766 868 0
-197 -857 0
-197 -858 0
-197 -859 0
-197 -860 0
-197 -861 0
-197 -862 0
-197 -863 0
-197 -864 0
-197 -865 0
-197 -866 0
-197 -867 0
-197 -868 0
-603 197 857 858 859 860 861 862 863 864 865 866 867 868 0
-225 605 0
-869 590 0
-869 604 0
-590 -604 869 0
-870 593 0
-870 623 0
-593 -623 870 0
-871 595 0
-871 636 0
-595 -636 871 0
-872 597 0
-872 649 0
-597 -649 872 0
-873 599 0
-873 662 0
-599 -662 873 0
-874 601 0
-874 675 0
-601 -675 874 0
-875 603 0
-875 688 0
-603 -688 875 0
-876 607 0
-876 715 0
-607 -715 876 0
-877 609 0
-877 728 0
-609 -728 877 0
-878 611 0
-878 741 0
-611 -741 878 0
-879 613 0
-879 754 0
-613 -754 879 0
-880 615 0
-880 767 0
-615 -767 880 0
-225 -869 0
-225 -870 0
-225 -871 0
-225 -872 0
-225 -873 0
-225 -874 0
-225 -875 0
-225 -876 0
-225 -877 0
-225 -878 0
-225 -879 0
-225 -880 0
-605 225 869 870 871 872 873 874 875 876 877 878 879 880 0
-253 607 0
-881 590 0
-881 606 0
-590 -606 881 0
-882 593 0
-882 624 0
-593 -624 882 0
-883 595 0
-883 637 0
-595 -637 883 0
-884 597 0
-884 650 0
-597 -650 884 0
-885 599 0
-885 663 0
-599 -663 885 0
-886 601 0
-886 676 0
-601 -676 886 0
-887 603 0
-887 689 0
-603 -689 887 0
-888 605 0
-888 702 0
-605 -702 888 0
-889 609 0
-889 729 0
-609 -729 889 0
-890 611 0
-890 742 0
-611 -742 890 0
-891 613 0
-891 755 0
-613 -755 891 0
-892 615 0
-892 768 0
-615 -768 892 0
-253 -881 0
-253 -882 0
-253 -883 0
-253 -884 0
-253 -885 0
-253 -886 0
-253 -887 0
-253 -888 0
-253 -889 0
-253 -890 0
-253 -891 0
-253 -892 0
-607 253 881 882 883 884 885 886 887 888 889 890 891 892 0
-281 609 0
-893 590 0
-893 608 0
-590 -608 893 0
-894 593 0
-894 625 0
-593 -625 894 0
-895 595 0
-895 638 0
-595 -638 895 0
-896 597 0
-896 651 0
-597 -651 896 0
-897 599 0
-897 664 0
-599 -664 897 0
-898 601 0
-898 677 0
-601 -677 898 0
-899 603 0
-899 690 0
-603 -690 899 0
-900 605 0
-900 703 0
-605 -703 900 0
-901 607 0
-901 716 0
-607 -716 901 0
-902 611 0
-902 743 0
-611 -743 902 0
-903 613 0
-903 756 0
-613 -756 903 0
-904 615 0
-904 769 0
-615 -769 904 0
-281 -893 0
-281 -894 0
-281 -895 0
-281 -896 0
-281 -897 0
-281 -898 0
-281 -899 0
-281 -900 0
-281 -901 0
-281 -902 0
-281 -903 0
-281 -904 0
-609 281 893 894 895 896 897 898 899 900 901 902 903 904 0
-309 611 0
-905 590 0
-905 610 0
-590 -610 905 0
-906 593 0
-906 626 0
-593 -626 906 0
-907 595 0
-907 639 0
-595 -639 907 0
-908 597 0
-908 652 0
-597 -652 908 0
-909 599 0
-909 665 0
-599 -665 909 0
-910 601 0
-910 678 0
-601 -678 910 0
-911 603 0
-911 691 0
-603 -691 911 0
-912 605 0
-912 704 0
-605 -704 912 0
-913 607 0
-913 717 0
-607 -717 913 0
-914 609 0
-914 730 0
-609 -730 914 0
-915 613 0
-915 757 0
-613 -757 915 0
-916 615 0
-916 770 0
-615 -770 916 0
-309 -905 0
-309 -906 0
-309 -907 0
-309 -908 0
-309 -909 0
-309 -910 0
-309 -911 0
-309 -912 0
-309 -913 0
-309 -914 0
-309 -915 0
-309 -916 0
-611 309 905 906 907 908 909 910 911 912 913 914 915 916 0
-337 613 0
-917 590 0
-917 612 0
-590 -612 917 0
-918 593 0
-918 627 0
-593 -627 918 0
-919 595 0
-919 640 0
-595 -640 919 0
-920 597 0
-920 653 0
-597 -653 920 0
-921 599 0
-921 666 0
-599 -666 921 0
-922 601 0
-922 679 0
-601 -679 922 0
-923 603 0
-923 692 0
-603 -692 923 0
-924 605 0
-924 705 0
-605 -705 924 0
-925 607 0
-925 718 0
-607 -718 925 0
-926 609 0
-926 731 0
-609 -731 926 0
-927 611 0
-927 744 0
-611 -744 927 0
-928 615 0
-928 771 0
-615 -771 928 0
-337 -917 0
-337 -918 0
-337 -919 0
-337 -920 0
-337 -921 0
-337 -922 0
-337 -923 0
-337 -924 0
-337 -925 0
-337 -926 0
-337 -927 0
-337 -928 0
-613 337 917 918 919 920 921 922 923 924 925 926 927 928 0
-365 615 0
-929 590 0
-929 614 0
-590 -614 929 0
-930 593 0
-930 628 0
-593 -628 930 0
-931 595 0
-931 641 0
-595 -641 931 0
-932 597 0
-932 654 0
-597 -654 932 0
-933 599 0
-933 667 0
-599 -667 933 0
-934 601 0
-934 680 0
-601 -680 934 0
-935 603 0
-935 693 0
-603 -693 935 0
-936 605 0
-936 706 0
-605 -706 936 0
-937 607 0
-937 719 0
-607 -719 937 0
-938 609 0
-938 732 0
-609 -732 938 0
-939 611 0
-939 745 0
-611 -745 939 0
-940 613 0
-940 758 0
-613 -758 940 0
-365 -929 0
-365 -930 0
-365 -931 0
-365 -932 0
-365 -933 0
-365 -934 0
-365 -935 0
-365 -936 0
-365 -937 0
-365 -938 0
-365 -939 0
-365 -940 0
-615 365 929 930 931 932 933 934 935 936 937 938 939 940 0
-3 591 0
-941 592 0
-941 616 0
-592 -616 941 0
-942 594 0
-942 629 0
-594 -629 942 0
-943 596 0
-943 642 0
-596 -642 943 0
-944 598 0
-944 655 0
-598 -655 944 0
-945 600 0
-945 668 0
-600 -668 945 0
-946 602 0
-946 681 0
-602 -681 946 0
-947 604 0
-947 694 0
-604 -694 947 0
-948 606 0
-948 707 0
-606 -707 948 0
-949 608 0
-949 720 0
-608 -720 949 0
-950 610 0
-950 733 0
-610 -733 950 0
-951 612 0
-951 746 0
-612 -746 951 0
-952 614 0
-952 759 0
-614 -759 952 0
-3 -941 0
-3 -942 0
-3 -943 0
-3 -944 0
-3 -945 0
-3 -946 0
-3 -947 0
-3 -948 0
-3 -949 0
-3 -950 0
-3 -951 0
-3 -952 0
-591 3 941 942 943 944 945 946 947 948 949 950 951 952 0
-31 0
-59 592 0
-953 591 0
-953 593 0
-591 -593 953 0
-954 594 0
-954 631 0
-594 -631 954 0
-955 596 0
-955 644 0
-596 -644 955 0
-956 598 0
-956 657 0
-598 -657 956 0
-957 600 0
-957 670 0
-600 -670 957 0
-958 602 0
-958 683 0
-602 -683 958 0
-959 604 0
-959 696 0
-604 -696 959 0
-960 606 0
-960 709 0
-606 -709 960 0
-961 608 0
-961 722 0
-608 -722 961 0
-962 610 0
-962 735 0
-610 -735 962 0
-963 612 0
-963 748 0
-612 -748 963 0
-964 614 0
-964 761 0
-614 -761 964 0
-59 -953 0
-59 -954 0
-59 -955 0
-59 -956 0
-59 -957 0
-59 -958 0
-59 -959 0
-59 -960 0
-59 -961 0
-59 -962 0
-59 -963 0
-59 -964 0
-592 59 953 954 955 956 957 958 959 960 961 962 963 964 0
-87 594 0
-965 591 0
-965 595 0
-591 -595 965 0
-966 592 0
-966 618 0
-592 -618 966 0
-967 596 0
-967 645 0
-596 -645 967 0
-968 598 0
-968 658 0
-598 -658 968 0
-969 600 0
-969 671 0
-600 -671 969 0
-970 602 0
-970 684 0
-602 -684 970 0
-971 604 0
-971 697 0
-604 -697 971 0
-972 606 0
-972 710 0
-606 -710 972 0
-973 608 0
-973 723 0
-608 -723 973 0
-974 610 0
-974 736 0
-610 -736 974 0
-975 612 0
-975 749 0
-612 -749 975 0
-976 614 0
-976 762 0
-614 -762 976 0
-87 -965 0
-87 -966 0
-87 -967 0
-87 -968 0
-87 -969 0
-87 -970 0
-87 -971 0
-87 -972 0
-87 -973 0
-87 -974 0
-87 -975 0
-87 -976 0
-594 87 965 966 967 968 969 970 971 972 973 974 975 976 0
-115 596 0
-977 591 0
-977 597 0
-591 -597 977 0
-978 592 0
-978 619 0
-592 -619 978 0
-979 594 0
-979 632 0
-594 -632 979 0
-980 598 0
-980 659 0
-598 -659 980 0
-981 600 0
-981 672 0
-600 -672 981 0
-982 602 0
-982 685 0
-602 -685 982 0
-983 604 0
-983 698 0
-604 -698 983 0
-984 606 0
-984 711 0
-606 -711 984 0
-985 608 0
-985 724 0
-608 -724 985 0
-986 610 0
-986 737 0
-610 -737 986 0
-987 612 0
-987 750 0
-612 -750 987 0
-988 614 0
-988 763 0
-614 -763 988 0
-115 -977 0
-115 -978 0
-115 -979 0
-115 -980 0
-115 -981 0
-115 -982 0
-115 -983 0
-115 -984 0
-115 -985 0
-115 -986 0
-115 -987 0
-115 -988 0
-596 115 977 978 979 980 981 982 983 984 985 986 987 988 0
-143 598 0
-989 591 0
-989 599 0
-591 -599 989 0
-990 592 0
-990 620 0
-592 -620 990 0
-991 594 0
-991 633 0
-594 -633 991 0
-992 596 0
-992 646 0
-596 -646 992 0
-993 600 0
-993 673 0
-600 -673 993 0
-994 602 0
-994 686 0
-602 -686 994 0
-995 604 0
-995 699 0
-604 -699 995 0
-996 606 0
-996 712 0
-606 -712 996 0
-997 608 0
-997 725 0
-608 -725 997 0
-998 610 0
-998 738 0
-610 -738 998 0
-999 612 0
-999 751 0
-612 -751 999 0
-1000 614 0
-1000 764 0
-614 -764 1000 0
-143 -989 0
-143 -990 0
-143 -991 0
-143 -992 0
-143 -993 0
-143 -994 0
-143 -995 0
-143 -996 0
-143 -997 0
-143 -998 0
-143 -999 0
-143 -1000 0
-598 143 989 990 991 992 993 994 995 996 997 998 999 1000 0
-171 600 0
-1001 591 0
-1001 601 0
-591 -601 1001 0
-1002 592 0
-1002 621 0
-592 -621 1002 0
-1003 594 0
-1003 634 0
-594 -634 1003 0
-1004 596 0
-1004 647 0
-596 -647 1004 0
-1005 598 0
-1005 660 0
-598 -660 1005 0
-1006 602 0
-1006 687 0
-602 -687 1006 0
-1007 604 0
-1007 700 0
-604 -700 1007 0
-1008 606 0
-1008 713 0
-606 -713 1008 0
-1009 608 0
-1009 726 0
-608 -726 1009 0
-1010 610 0
-1010 739 0
-610 -739 1010 0
-1011 612 0
-1011 752 0
-612 -752 1011 0
-1012 614 0
-1012 765 0
-614 -765 1012 0
-171 -1001 0
-171 -1002 0
-171 -1003 0
-171 -1004 0
-171 -1005 0
-171 -1006 0
-171 -1007 0
-171 -1008 0
-171 -1009 0
-171 -1010 0
-171 -1011 0
-171 -1012 0
-600 171 1001 1002 1003 1004 1005 1006 1007 1008 1009 1010 1011 1012 0
-199 602 0
-1013 591 0
-1013 603 0
-591 -603 1013 0
-1014 592 0
-1014 622 0
-592 -622 1014 0
-1015 594 0
-1015 635 0
-594 -635 1015 0
-1016 596 0
-1016 648 0
-596 -648 1016 0
-1017 598 0
-1017 661 0
-598 -661 1017 0
-1018 600 0
-1018 674 0
-600 -674 1018 0
-1019 604 0
-1019 701 0
-604 -701 1019 0
-1020 606 0
-1020 714 0
-606 -714 1020 0
-1021 608 0
-1021 727 0
-608 -727 1021 0
-1022 610 0
-1022 740 0
-610 -740 1022 0
-1023 612 0
-1023 753 0
-612 -753 1023 0
-1024 614 0
-1024 766 0
-614 -766 1024 0
-199 -1013 0
-199 -1014 0
-199 -1015 0
-199 -1016 0
-199 -1017 0
-199 -1018 0
-199 -1019 0
-199 -1020 0
-199 -1021 0
-199 -1022 0
-199 -1023 0
-199 -1024 0
-602 199 1013 1014 1015 1016 1017 1018 1019 1020 1021 1022 1023 1024 0
-227 604 0
-1025 591 0
-1025 605 0
-591 -605 1025 0
-1026 592 0
-1026 623 0
-592 -623 1026 0
-1027 594 0
-1027 636 0
-594 -636 1027 0
-1028 596 0
-1028 649 0
-596 -649 1028 0
-1029 598 0
-1029 662 0
-598 -662 1029 0
-1030 600 0
-1030 675 0
-600 -675 1030 0
-1031 602 0
-1031 688 0
-602 -688 1031 0
-1032 606 0
-1032 715 0
-606 -715 1032 0
-1033 608 0
-1033 728 0
-608 -728 1033 0
-1034 610 0
-1034 741 0
-610 -741 1034 0
-1035 612 0
-1035 754 0
-612 -754 1035 0
-1036 614 0
-1036 767 0
-614 -767 1036 0
-227 -1025 0
-227 -1026 0
-227 -1027 0
-227 -1028 0
-227 -1029 0
-227 -1030 0
-227 -1031 0
-227 -1032 0
-227 -1033 0
-227 -1034 0
-227 -1035 0
-227 -1036 0
-604 227 1025 1026 1027 1028 1029 1030 1031 1032 1033 1034 1035 1036 0
-255 606 0
-1037 591 0
-1037 607 0
-591 -607 1037 0
-1038 592 0
-1038 624 0
-592 -624 1038 0
-1039 594 0
-1039 637 0
-594 -637 1039 0
-1040 596 0
-1040 650 0
-596 -650 1040 0
-1041 598 0
-1041 663 0
-598 -663 1041 0
-1042 600 0
-1042 676 0
-600 -676 1042 0
-1043 602 0
-1043 689 0
-602 -689 1043 0
-1044 604 0
-1044 702 0
-604 -702 1044 0
-1045 608 0
-1045 729 0
-608 -729 1045 0
-1046 610 0
-1046 742 0
-610 -742 1046 0
-1047 612 0
-1047 755 0
-612 -755 1047 0
-1048 614 0
-1048 768 0
-614 -768 1048 0
-255 -1037 0
-255 -1038 0
-255 -1039 0
-255 -1040 0
-255 -1041 0
-255 -1042 0
-255 -1043 0
-255 -1044 0
-255 -1045 0
-255 -1046 0
-255 -1047 0
-255 -1048 0
-606 255 1037 1038 1039 1040 1041 1042 1043 1044 1045 1046 1047 1048 0
-283 608 0
-1049 591 0
-1049 609 0
-591 -609 1049 0
-1050 592 0
-1050 625 0
-592 -625 1050 0
-1051 594 0
-1051 638 0
-594 -638 1051 0
-1052 596 0
-1052 651 0
-596 -651 1052 0
-1053 598 0
-1053 664 0
-598 -664 1053 0
-1054 600 0
-1054 677 0
-600 -677 1054 0
-1055 602 0
-1055 690 0
-602 -690 1055 0
-1056 604 0
-1056 703 0
-604 -703 1056 0
-1057 606 0
-1057 716 0
-606 -716 1057 0
-1058 610 0
-1058 743 0
-610 -743 1058 0
-1059 612 0
-1059 756 0
-612 -756 1059 0
-1060 614 0
-1060 769 0
-614 -769 1060 0
-283 -1049 0
-283 -1050 0
-283 -1051 0
-283 -1052 0
-283 -1053 0
-283 -1054 0
-283 -1055 0
-283 -1056 0
-283 -1057 0
-283 -1058 0
-283 -1059 0
-283 -1060 0
-608 283 1049 1050 1051 1052 1053 1054 1055 1056 1057 1058 1059 1060 0
-311 610 0
-1061 591 0
-1061 611 0
-591 -611 1061 0
-1062 592 0
-1062 626 0
-592 -626 1062 0
-1063 594 0
-1063 639 0
-594 -639 1063 0
-1064 596 0
-1064 652 0
-596 -652 1064 0
-1065 598 0
-1065 665 0
-598 -665 1065 0
-1066 600 0
-1066 678 0
-600 -678 1066 0
-1067 602 0
-1067 691 0
-602 -691 1067 0
-1068 604 0
-1068 704 0
-604 -704 1068 0
-1069 606 0
-1069 717 0
-606 -717 1069 0
-1070 608 0
-1070 730 0
-608 -730 1070 0
-1071 612 0
-1071 757 0
-612 -757 1071 0
-1072 614 0
-1072 770 0
-614 -770 1072 0
-311 -1061 0
-311 -1062 0
-311 -1063 0
-311 -1064 0
-311 -1065 0
-311 -1066 0
-311 -1067 0
-311 -1068 0
-311 -1069 0
-311 -1070 0
-311 -1071 0
-311 -1072 0
-610 311 1061 1062 1063 1064 1065 1066 1067 1068 1069 1070 1071 1072 0
-339 612 0
-1073 591 0
-1073 613 0
-591 -613 1073 0
-1074 592 0
-1074 627 0
-592 -627 1074 0
-1075 594 0
-1075 640 0
-594 -640 1075 0
-1076 596 0
-1076 653 0
-596 -653 1076 0
-1077 598 0
-1077 666 0
-598 -666 1077 0
-1078 600 0
-1078 679 0
-600 -679 1078 0
-1079 602 0
-1079 692 0
-602 -692 1079 0
-1080 604 0
-1080 705 0
-604 -705 1080 0
-1081 606 0
-1081 718 0
-606 -718 1081 0
-1082 608 0
-1082 731 0
-608 -731 1082 0
-1083 610 0
-1083 744 0
-610 -744 1083 0
-1084 614 0
-1084 771 0
-614 -771 1084 0
-339 -1073 0
-339 -1074 0
-339 -1075 0
-339 -1076 0
-339 -1077 0
-339 -1078 0
-339 -1079 0
-339 -1080 0
-339 -1081 0
-339 -1082 0
-339 -1083 0
-339 -1084 0
-612 339 1073 1074 1075 1076 1077 1078 1079 1080 1081 1082 1083 1084 0
-367 614 0
-1085 591 0
-1085 615 0
-591 -615 1085 0
-1086 592 0
-1086 628 0
-592 -628 1086 0
-1087 594 0
-1087 641 0
-594 -641 1087 0
-1088 596 0
-1088 654 0
-596 -654 1088 0
-1089 598 0
-1089 667 0
-598 -667 1089 0
-1090 600 0
-1090 680 0
-600 -680 1090 0
-1091 602 0
-1091 693 0
-602 -693 1091 0
-1092 604 0
-1092 706 0
-604 -706 1092 0
-1093 606 0
-1093 719 0
-606 -719 1093 0
-1094 608 0
-1094 732 0
-608 -732 1094 0
-1095 610 0
-1095 745 0
-610 -745 1095 0
-1096 612 0
-1096 758 0
-612 -758 1096 0
-367 -1085 0
-367 -1086 0
-367 -1087 0
-367 -1088 0
-367 -1089 0
-367 -1090 0
-367 -1091 0
-367 -1092 0
-367 -1093 0
-367 -1094 0
-367 -1095 0
-367 -1096 0
-614 367 1085 1086 1087 1088 1089 1090 1091 1092 1093 1094 1095 1096 0
-5 616 0
-1097 617 0
-1097 591 0
-617 -591 1097 0
-1098 618 0
-1098 629 0
-618 -629 1098 0
-1099 619 0
-1099 642 0
-619 -642 1099 0
-1100 620 0
-1100 655 0
-620 -655 1100 0
-1101 621 0
-1101 668 0
-621 -668 1101 0
-1102 622 0
-1102 681 0
-622 -681 1102 0
-1103 623 0
-1103 694 0
-623 -694 1103 0
-1104 624 0
-1104 707 0
-624 -707 1104 0
-1105 625 0
-1105 720 0
-625 -720 1105 0
-1106 626 0
-1106 733 0
-626 -733 1106 0
-1107 627 0
-1107 746 0
-627 -746 1107 0
-1108 628 0
-1108 759 0
-628 -759 1108 0
-5 -1097 0
-5 -1098 0
-5 -1099 0
-5 -1100 0
-5 -1101 0
-5 -1102 0
-5 -1103 0
-5 -1104 0
-5 -1105 0
-5 -1106 0
-5 -1107 0
-5 -1108 0
-616 5 1097 1098 1099 1100 1101 1102 1103 1104 1105 1106 1107 1108 0
-33 617 0
-1109 616 0
-1109 590 0
-616 -590 1109 0
-1110 618 0
-1110 630 0
-618 -630 1110 0
-1111 619 0
-1111 643 0
-619 -643 1111 0
-1112 620 0
-1112 656 0
-620 -656 1112 0
-1113 621 0
-1113 669 0
-621 -669 1113 0
-1114 622 0
-1114 682 0
-622 -682 1114 0
-1115 623 0
-1115 695 0
-623 -695 1115 0
-1116 624 0
-1116 708 0
-624 -708 1116 0
-1117 625 0
-1117 721 0
-625 -721 1117 0
-1118 626 0
-1118 734 0
-626 -734 1118 0
-1119 627 0
-1119 747 0
-627 -747 1119 0
-1120 628 0
-1120 760 0
-628 -760 1120 0
-33 -1109 0
-33 -1110 0
-33 -1111 0
-33 -1112 0
-33 -1113 0
-33 -1114 0
-33 -1115 0
-33 -1116 0
-33 -1117 0
-33 -1118 0
-33 -1119 0
-33 -1120 0
-617 33 1109 1110 1111 1112 1113 1114 1115 1116 1117 1118 1119 1120 0
-61 0
-89 618 0
-1121 616 0
-1121 595 0
-616 -595 1121 0
-1122 617 0
-1122 594 0
-617 -594 1122 0
-1123 619 0
-1123 645 0
-619 -645 1123 0
-1124 620 0
-1124 658 0
-620 -658 1124 0
-1125 621 0
-1125 671 0
-621 -671 1125 0
-1126 622 0
-1126 684 0
-622 -684 1126 0
-1127 623 0
-1127 697 0
-623 -697 1127 0
-1128 624 0
-1128 710 0
-624 -710 1128 0
-1129 625 0
-1129 723 0
-625 -723 1129 0
-1130 626 0
-1130 736 0
-626 -736 1130 0
-1131 627 0
-1131 749 0
-627 -749 1131 0
-1132 628 0
-1132 762 0
-628 -762 1132 0
-89 -1121 0
-89 -1122 0
-89 -1123 0
-89 -1124 0
-89 -1125 0
-89 -1126 0
-89 -1127 0
-89 -1128 0
-89 -1129 0
-89 -1130 0
-89 -1131 0
-89 -1132 0
-618 89 1121 1122 1123 1124 1125 1126 1127 1128 1129 1130 1131 1132 0
-117 619 0
-1133 616 0
-1133 597 0
-616 -597 1133 0
-1134 617 0
-1134 596 0
-617 -596 1134 0
-1135 618 0
-1135 632 0
-618 -632 1135 0
-1136 620 0
-1136 659 0
-620 -659 1136 0
-1137 621 0
-1137 672 0
-621 -672 1137 0
-1138 622 0
-1138 685 0
-622 -685 1138 0
-1139 623 0
-1139 698 0
-623 -698 1139 0
-1140 624 0
-1140 711 0
-624 -711 1140 0
-1141 625 0
-1141 724 0
-625 -724 1141 0
-1142 626 0
-1142 737 0
-626 -737 1142 0
-1143 627 0
-1143 750 0
-627 -750 1143 0
-1144 628 0
-1144 763 0
-628 -763 1144 0
-117 -1133 0
-117 -1134 0
-117 -1135 0
-117 -1136 0
-117 -1137 0
-117 -1138 0
-117 -1139 0
-117 -1140 0
-117 -1141 0
-117 -1142 0
-117 -1143 0
-117 -1144 0
-619 117 1133 1134 1135 1136 1137 1138 1139 1140 1141 1142 1143 1144 0
-145 620 0
-1145 616 0
-1145 599 0
-616 -599 1145 0
-1146 617 0
-1146 598 0
-617 -598 1146 0
-1147 618 0
-1147 633 0
-618 -633 1147 0
-1148 619 0
-1148 646 0
-619 -646 1148 0
-1149 621 0
-1149 673 0
-621 -673 1149 0
-1150 622 0
-1150 686 0
-622 -686 1150 0
-1151 623 0
-1151 699 0
-623 -699 1151 0
-1152 624 0
-1152 712 0
-624 -712 1152 0
-1153 625 0
-1153 725 0
-625 -725 1153 0
-1154 626 0
-1154 738 0
-626 -738 1154 0
-1155 627 0
-1155 751 0
-627 -751 1155 0
-1156 628 0
-1156 764 0
-628 -764 1156 0
-145 -1145 0
-145 -1146 0
-145 -1147 0
-145 -1148 0
-145 -1149 0
-145 -1150 0
-145 -1151 0
-145 -1152 0
-145 -1153 0
-145 -1154 0
-145 -1155 0
-145 -1156 0
-620 145 1145 1146 1147 1148 1149 1150 1151 1152 1153 1154 1155 1156 0
-173 621 0
-1157 616 0
-1157 601 0
-616 -601 1157 0
-1158 617 0
-1158 600 0
-617 -600 1158 0
-1159 618 0
-1159 634 0
-618 -634 1159 0
-1160 619 0
-1160 647 0
-619 -647 1160 0
-1161 620 0
-1161 660 0
-620 -660 1161 0
-1162 622 0
-1162 687 0
-622 -687 1162 0
-1163 623 0
-1163 700 0
-623 -700 1163 0
-1164 624 0
-1164 713 0
-624 -713 1164 0
-1165 625 0
-1165 726 0
-625 -726 1165 0
-1166 626 0
-1166 739 0
-626 -739 1166 0
-1167 627 0
-1167 752 0
-627 -752 1167 0
-1168 628 0
-1168 765 0
-628 -765 1168 0
-173 -1157 0
-173 -1158 0
-173 -1159 0
-173 -1160 0
-173 -1161 0
-173 -1162 0
-173 -1163 0
-173 -1164 0
-173 -1165 0
-173 -1166 0
-173 -1167 0
-173 -1168 0
-621 173 1157 1158 1159 1160 1161 1162 1163 1164 1165 1166 1167 1168 0
-201 622 0
-1169 616 0
-1169 603 0
-616 -603 1169 0
-1170 617 0
-1170 602 0
-617 -602 1170 0
-1171 618 0
-1171 635 0
-618 -635 1171 0
-1172 619 0
-1172 648 0
-619 -648 1172 0
-1173 620 0
-1173 661 0
-620 -661 1173 0
-1174 621 0
-1174 674 0
-621 -674 1174 0
-1175 623 0
-1175 701 0
-623 -701 1175 0
-1176 624 0
-1176 714 0
-624 -714 1176 0
-1177 625 0
-1177 727 0
-625 -727 1177 0
-1178 626 0
-1178 740 0
-626 -740 1178 0
-1179 627 0
-1179 753 0
-627 -753 1179 0
-1180 628 0
-1180 766 0
-628 -766 1180 0
-201 -1169 0
-201 -1170 0
-201 -1171 0
-201 -1172 0
-201 -1173 0
-201 -1174 0
-201 -1175 0
-201 -1176 0
-201 -1177 0
-201 -1178 0
-201 -1179 0
-201 -1180 0
-622 201 1169 1170 1171 1172 1173 1174 1175 1176 1177 1178 1179 1180 0
-229 623 0
-1181 616 0
-1181 605 0
-616 -605 1181 0
-1182 617 0
-1182 604 0
-617 -604 1182 0
-1183 618 0
-1183 636 0
-618 -636 1183 0
-1184 619 0
-1184 649 0
-619 -649 1184 0
-1185 620 0
-1185 662 0
-620 -662 1185 0
-1186 621 0
-1186 675 0
-621 -675 1186 0
-1187 622 0
-1187 688 0
-622 -688 1187 0
-1188 624 0
-1188 715 0
-624 -715 1188 0
-1189 625 0
-1189 728 0
-625 -728 1189 0
-1190 626 0
-1190 741 0
-626 -741 1190 0
-1191 627 0
-1191 754 0
-627 -754 1191 0
-1192 628 0
-1192 767 0
-628 -767 1192 0
-229 -1181 0
-229 -1182 0
-229 -1183 0
-229 -1184 0
-229 -1185 0
-229 -1186 0
-229 -1187 0
-229 -1188 0
-229 -1189 0
-229 -1190 0
-229 -1191 0
-229 -1192 0
-623 229 1181 1182 1183 1184 1185 1186 1187 1188 1189 1190 1191 1192 0
-257 624 0
-1193 616 0
-1193 607 0
-616 -607 1193 0
-1194 617 0
-1194 606 0
-617 -606 1194 0
-1195 618 0
-1195 637 0
-618 -637 1195 0
-1196 619 0
-1196 650 0
-619 -650 1196 0
-1197 620 0
-1197 663 0
-620 -663 1197 0
-1198 621 0
-1198 676 0
-621 -676 1198 0
-1199 622 0
-1199 689 0
-622 -689 1199 0
-1200 623 0
-1200 702 0
-623 -702 1200 0
-1201 625 0
-1201 729 0
-625 -729 1201 0
-1202 626 0
-1202 742 0
-626 -742 1202 0
-1203 627 0
-1203 755 0
-627 -755 1203 0
-1204 628 0
-1204 768 0
-628 -768 1204 0
-257 -1193 0
-257 -1194 0
-257 -1195 0
-257 -1196 0
-257 -1197 0
-257 -1198 0
-257 -1199 0
-257 -1200 0
-257 -1201 0
-257 -1202 0
-257 -1203 0
-257 -1204 0
-624 257 1193 1194 1195 1196 1197 1198 1199 1200 1201 1202 1203 1204 0
-285 625 0
-1205 616 0
-1205 609 0
-616 -609 1205 0
-1206 617 0
-1206 608 0
-617 -608 1206 0
-1207 618 0
-1207 638 0
-618 -638 1207 0
-1208 619 0
-1208 651 0
-619 -651 1208 0
-1209 620 0
-1209 664 0
-620 -664 1209 0
-1210 621 0
-1210 677 0
-621 -677 1210 0
-1211 622 0
-1211 690 0
-622 -690 1211 0
-1212 623 0
-1212 703 0
-623 -703 1212 0
-1213 624 0
-1213 716 0
-624 -716 1213 0
-1214 626 0
-1214 743 0
-626 -743 1214 0
-1215 627 0
-1215 756 0
-627 -756 1215 0
-1216 628 0
-1216 769 0
-628 -769 1216 0
-285 -1205 0
-285 -1206 0
-285 -1207 0
-285 -1208 0
-285 -1209 0
-285 -1210 0
-285 -1211 0
-285 -1212 0
-285 -1213 0
-285 -1214 0
-285 -1215 0
-285 -1216 0
-625 285 1205 1206 1207 1208 1209 1210 1211 1212 1213 1214 1215 1216 0
-313 626 0
-1217 616 0
-1217 611 0
-616 -611 1217 0
-1218 617 0
-1218 610 0
-617 -610 1218 0
-1219 618 0
-1219 639 0
-618 -639 1219 0
-1220 619 0
-1220 652 0
-619 -652 1220 0
-1221 620 0
-1221 665 0
-620 -665 1221 0
-1222 621 0
-1222 678 0
-621 -678 1222 0
-1223 622 0
-1223 691 0
-622 -691 1223 0
-1224 623 0
-1224 704 0
-623 -704 1224 0
-1225 624 0
-1225 717 0
-624 -717 1225 0
-1226 625 0
-1226 730 0
-625 -730 1226 0
-1227 627 0
-1227 757 0
-627 -757 1227 0
-1228 628 0
-1228 770 0
-628 -770 1228 0
-313 -1217 0
-313 -1218 0
-313 -1219 0
-313 -1220 0
-313 -1221 0
-313 -1222 0
-313 -1223 0
-313 -1224 0
-313 -1225 0
-313 -1226 0
-313 -1227 0
-313 -1228 0
-626 313 1217 1218 1219 1220 1221 1222 1223 1224 1225 1226 1227 1228 0
-341 627 0
-1229 616 0
-1229 613 0
-616 -613 1229 0
-1230 617 0
-1230 612 0
-617 -612 1230 0
-1231 618 0
-1231 640 0
-618 -640 1231 0
-1232 619 0
-1232 653 0
-619 -653 1232 0
-1233 620 0
-1233 666 0
-620 -666 1233 0
-1234 621 0
-1234 679 0
-621 -679 1234 0
-1235 622 0
-1235 692 0
-622 -692 1235 0
-1236 623 0
-1236 705 0
-623 -705 1236 0
-1237 624 0
-1237 718 0
-624 -718 1237 0
-1238 625 0
-1238 731 0
-625 -731 1238 0
-1239 626 0
-1239 744 0
-626 -744 1239 0
-1240 628 0
-1240 771 0
-628 -771 1240 0
-341 -1229 0
-341 -1230 0
-341 -1231 0
-341 -1232 0
-341 -1233 0
-341 -1234 0
-341 -1235 0
-341 -1236 0
-341 -1237 0
-341 -1238 0
-341 -1239 0
-341 -1240 0
-627 341 1229 1230 1231 1232 1233 1234 1235 1236 1237 1238 1239 1240 0
-369 628 0
-1241 616 0
-1241 615 0
-616 -615 1241 0
-1242 617 0
-1242 614 0
-617 -614 1242 0
-1243 618 0
-1243 641 0
-618 -641 1243 0
-1244 619 0
-1244 654 0
-619 -654 1244 0
-1245 620 0
-1245 667 0
-620 -667 1245 0
-1246 621 0
-1246 680 0
-621 -680 1246 0
-1247 622 0
-1247 693 0
-622 -693 1247 0
-1248 623 0
-1248 706 0
-623 -706 1248 0
-1249 624 0
-1249 719 0
-624 -719 1249 0
-1250 625 0
-1250 732 0
-625 -732 1250 0
-1251 626 0
-1251 745 0
-626 -745 1251 0
-1252 627 0
-1252 758 0
-627 -758 1252 0
-369 -1241 0
-369 -1242 0
-369 -1243 0
-369 -1244 0
-369 -1245 0
-369 -1246 0
-369 -1247 0
-369 -1248 0
-369 -1249 0
-369 -1250 0
-369 -1251 0
-369 -1252 0
-628 369 1241 1242 1243 1244 1245 1246 1247 1248 1249 1250 1251 1252 0
-7 629 0
-1253 630 0
-1253 591 0
-630 -591 1253 0
-1254 631 0
-1254 616 0
-631 -616 1254 0
-1255 632 0
-1255 642 0
-632 -642 1255 0
-1256 633 0
-1256 655 0
-633 -655 1256 0
-1257 634 0
-1257 668 0
-634 -668 1257 0
-1258 635 0
-1258 681 0
-635 -681 1258 0
-1259 636 0
-1259 694 0
-636 -694 1259 0
-1260 637 0
-1260 707 0
-637 -707 1260 0
-1261 638 0
-1261 720 0
-638 -720 1261 0
-1262 639 0
-1262 733 0
-639 -733 1262 0
-1263 640 0
-1263 746 0
-640 -746 1263 0
-1264 641 0
-1264 759 0
-641 -759 1264 0
-7 -1253 0
-7 -1254 0
-7 -1255 0
-7 -1256 0
-7 -1257 0
-7 -1258 0
-7 -1259 0
-7 -1260 0
-7 -1261 0
-7 -1262 0
-7 -1263 0
-7 -1264 0
-629 7 1253 1254 1255 1256 1257 1258 1259 1260 1261 1262 1263 1264 0
-35 630 0
-1265 629 0
-1265 590 0
-629 -590 1265 0
-1266 631 0
-1266 617 0
-631 -617 1266 0
-1267 632 0
-1267 643 0
-632 -643 1267 0
-1268 633 0
-1268 656 0
-633 -656 1268 0
-1269 634 0
-1269 669 0
-634 -669 1269 0
-1270 635 0
-1270 682 0
-635 -682 1270 0
-1271 636 0
-1271 695 0
-636 -695 1271 0
-1272 637 0
-1272 708 0
-637 -708 1272 0
-1273 638 0
-1273 721 0
-638 -721 1273 0
-1274 639 0
-1274 734 0
-639 -734 1274 0
-1275 640 0
-1275 747 0
-640 -747 1275 0
-1276 641 0
-1276 760 0
-641 -760 1276 0
-35 -1265 0
-35 -1266 0
-35 -1267 0
-35 -1268 0
-35 -1269 0
-35 -1270 0
-35 -1271 0
-35 -1272 0
-35 -1273 0
-35 -1274 0
-35 -1275 0
-35 -1276 0
-630 35 1265 1266 1267 1268 1269 1270 1271 1272 1273 1274 1275 1276 0
-63 631 0
-1277 629 0
-1277 593 0
-629 -593 1277 0
-1278 630 0
-1278 592 0
-630 -592 1278 0
-1279 632 0
-1279 644 0
-632 -644 1279 0
-1280 633 0
-1280 657 0
-633 -657 1280 0
-1281 634 0
-1281 670 0
-634 -670 1281 0
-1282 635 0
-1282 683 0
-635 -683 1282 0
-1283 636 0
-1283 696 0
-636 -696 1283 0
-1284 637 0
-1284 709 0
-637 -709 1284 0
-1285 638 0
-1285 722 0
-638 -722 1285 0
-1286 639 0
-1286 735 0
-639 -735 1286 0
-1287 640 0
-1287 748 0
-640 -748 1287 0
-1288 641 0
-1288 761 0
-641 -761 1288 0
-63 -1277 0
-63 -1278 0
-63 -1279 0
-63 -1280 0
-63 -1281 0
-63 -1282 0
-63 -1283 0
-63 -1284 0
-63 -1285 0
-63 -1286 0
-63 -1287 0
-63 -1288 0
-631 63 1277 1278 1279 1280 1281 1282 1283 1284 1285 1286 1287 1288 0
-91 0
-119 632 0
-1289 629 0
-1289 597 0
-629 -597 1289 0
-1290 630 0
-1290 596 0
-630 -596 1290 0
-1291 631 0
-1291 619 0
-631 -619 1291 0
-1292 633 0
-1292 659 0
-633 -659 1292 0
-1293 634 0
-1293 672 0
-634 -672 1293 0
-1294 635 0
-1294 685 0
-635 -685 1294 0
-1295 636 0
-1295 698 0
-636 -698 1295 0
-1296 637 0
-1296 711 0
-637 -711 1296 0
-1297 638 0
-1297 724 0
-638 -724 1297 0
-1298 639 0
-1298 737 0
-639 -737 1298 0
-1299 640 0
-1299 750 0
-640 -750 1299 0
-1300 641 0
-1300 763 0
-641 -763 1300 0
-119 -1289 0
-119 -1290 0
-119 -1291 0
-119 -1292 0
-119 -1293 0
-119 -1294 0
-119 -1295 0
-119 -1296 0
-119 -1297 0
-119 -1298 0
-119 -1299 0
-119 -1300 0
-632 119 1289 1290 1291 1292 1293 1294 1295 1296 1297 1298 1299 1300 0
-147 633 0
-1301 629 0
-1301 599 0
-629 -599 1301 0
-1302 630 0
-1302 598 0
-630 -598 1302 0
-1303 631 0
-1303 620 0
-631 -620 1303 0
-1304 632 0
-1304 646 0
-632 -646 1304 0
-1305 634 0
-1305 673 0
-634 -673 1305 0
-1306 635 0
-1306 686 0
-635 -686 1306 0
-1307 636 0
-1307 699 0
-636 -699 1307 0
-1308 637 0
-1308 712 0
-637 -712 1308 0
-1309 638 0
-1309 725 0
-638 -725 1309 0
-1310 639 0
-1310 738 0
-639 -738 1310 0
-1311 640 0
-1311 751 0
-640 -751 1311 0
-1312 641 0
-1312 764 0
-641 -764 1312 0
-147 -1301 0
-147 -1302 0
-147 -1303 0
-147 -1304 0
-147 -1305 0
-147 -1306 0
-147 -1307 0
-147 -1308 0
-147 -1309 0
-147 -1310 0
-147 -1311 0
-147 -1312 0
-633 147 1301 1302 1303 1304 1305 1306 1307 1308 1309 1310 1311 1312 0
-175 634 0
-1313 629 0
-1313 601 0
-629 -601 1313 0
-1314 630 0
-1314 600 0
-630 -600 1314 0
-1315 631 0
-1315 621 0
-631 -621 1315 0
-1316 632 0
-1316 647 0
-632 -647 1316 0
-1317 633 0
-1317 660 0
-633 -660 1317 0
-1318 635 0
-1318 687 0
-635 -687 1318 0
-1319 636 0
-1319 700 0
-636 -700 1319 0
-1320 637 0
-1320 713 0
-637 -713 1320 0
-1321 638 0
-1321 726 0
-638 -726 1321 0
-1322 639 0
-1322 739 0
-639 -739 1322 0
-1323 640 0
-1323 752 0
-640 -752 1323 0
-1324 641 0
-1324 765 0
-641 -765 1324 0
-175 -1313 0
-175 -1314 0
-175 -1315 0
-175 -1316 0
-175 -1317 0
-175 -1318 0
-175 -1319 0
-175 -1320 0
-175 -1321 0
-175 -1322 0
-175 -1323 0
-175 -1324 0
-634 175 1313 1314 1315 1316 1317 1318 1319 1320 1321 1322 1323 1324 0
-203 635 0
-1325 629 0
-1325 603 0
-629 -603 1325 0
-1326 630 0
-1326 602 0
-630 -602 1326 0
-1327 631 0
-1327 622 0
-631 -622 1327 0
-1328 632 0
-1328 648 0
-632 -648 1328 0
-1329 633 0
-1329 661 0
-633 -661 1329 0
-1330 634 0
-1330 674 0
-634 -674 1330 0
-1331 636 0
-1331 701 0
-636 -701 1331 0
-1332 637 0
-1332 714 0
-637 -714 1332 0
-1333 638 0
-1333 727 0
-638 -727 1333 0
-1334 639 0
-1334 740 0
-639 -740 1334 0
-1335 640 0
-1335 753 0
-640 -753 1335 0
-1336 641 0
-1336 766 0
-641 -766 1336 0
-203 -1325 0
-203 -1326 0
-203 -1327 0
-203 -1328 0
-203 -1329 0
-203 -1330 0
-203 -1331 0
-203 -1332 0
-203 -1333 0
-203 -1334 0
-203 -1335 0
-203 -1336 0
-635 203 1325 1326 1327 1328 1329 1330 1331 1332 1333 1334 1335 1336 0
-231 636 0
-1337 629 0
-1337 605 0
-629 -605 1337 0
-1338 630 0
-1338 604 0
-630 -604 1338 0
-1339 631 0
-1339 623 0
-631 -623 1339 0
-1340 632 0
-1340 649 0
-632 -649 1340 0
-1341 633 0
-1341 662 0
-633 -662 1341 0
-1342 634 0
-1342 675 0
-634 -675 1342 0
-1343 635 0
-1343 688 0
-635 -688 1343 0
-1344 637 0
-1344 715 0
-637 -715 1344 0
-1345 638 0
-1345 728 0
-638 -728 1345 0
-1346 639 0
-1346 741 0
-639 -741 1346 0
-1347 640 0
-1347 754 0
-640 -754 1347 0
-1348 641 0
-1348 767 0
-641 -767 1348 0
-231 -1337 0
-231 -1338 0
-231 -1339 0
-231 -1340 0
-231 -1341 0
-231 -1342 0
-231 -1343 0
-231 -1344 0
-231 -1345 0
-231 -1346 0
-231 -1347 0
-231 -1348 0
-636 231 1337 1338 1339 1340 1341 1342 1343 1344 1345 1346 1347 1348 0
-259 637 0
-1349 629 0
-1349 607 0
-629 -607 1349 0
-1350 630 0
-1350 606 0
-630 -606 1350 0
-1351 631 0
-1351 624 0
-631 -624 1351 0
-1352 632 0
-1352 650 0
-632 -650 1352 0
-1353 633 0
-1353 663 0
-633 -663 1353 0
-1354 634 0
-1354 676 0
-634 -676 1354 0
-1355 635 0
-1355 689 0
-635 -689 1355 0
-1356 636 0
-1356 702 0
-636 -702 1356 0
-1357 638 0
-1357 729 0
-638 -729 1357 0
-1358 639 0
-1358 742 0
-639 -742 1358 0
-1359 640 0
-1359 755 0
-640 -755 1359 0
-1360 641 0
-1360 768 0
-641 -768 1360 0
-259 -1349 0
-259 -1350 0
-259 -1351 0
-259 -1352 0
-259 -1353 0
-259 -1354 0
-259 -1355 0
-259 -1356 0
-259 -1357 0
-259 -1358 0
-259 -1359 0
-259 -1360 0
-637 259 1349 1350 1351 1352 1353 1354 1355 1356 1357 1358 1359 1360 0
-287 638 0
-1361 629 0
-1361 609 0
-629 -609 1361 0
-1362 630 0
-1362 608 0
-630 -608 1362 0
-1363 631 0
-1363 625 0
-631 -625 1363 0
-1364 632 0
-1364 651 0
-632 -651 1364 0
-1365 633 0
-1365 664 0
-633 -664 1365 0
-1366 634 0
-1366 677 0
-634 -677 1366 0
-1367 635 0
-1367 690 0
-635 -690 1367 0
-1368 636 0
-1368 703 0
-636 -703 1368 0
-1369 637 0
-1369 716 0
-637 -716 1369 0
-1370 639 0
-1370 743 0
-639 -743 1370 0
-1371 640 0
-1371 756 0
-640 -756 1371 0
-1372 641 0
-1372 769 0
-641 -769 1372 0
-287 -1361 0
-287 -1362 0
-287 -1363 0
-287 -1364 0
-287 -1365 0
-287 -1366 0
-287 -1367 0
-287 -1368 0
-287 -1369 0
-287 -1370 0
-287 -1371 0
-287 -1372 0
-638 287 1361 1362 1363 1364 1365 1366 1367 1368 1369 1370 1371 1372 0
-315 639 0
-1373 629 0
-1373 611 0
-629 -611 1373 0
-1374 630 0
-1374 610 0
-630 -610 1374 0
-1375 631 0
-1375 626 0
-631 -626 1375 0
-1376 632 0
-1376 652 0
-632 -652 1376 0
-1377 633 0
-1377 665 0
-633 -665 1377 0
-1378 634 0
-1378 678 0
-634 -678 1378 0
-1379 635 0
-1379 691 0
-635 -691 1379 0
-1380 636 0
-1380 704 0
-636 -704 1380 0
-1381 637 0
-1381 717 0
-637 -717 1381 0
-1382 638 0
-1382 730 0
-638 -730 1382 0
-1383 640 0
-1383 757 0
-640 -757 1383 0
-1384 641 0
-1384 770 0
-641 -770 1384 0
-315 -1373 0
-315 -1374 0
-315 -1375 0
-315 -1376 0
-315 -1377 0
-315 -1378 0
-315 -1379 0
-315 -1380 0
-315 -1381 0
-315 -1382 0
-315 -1383 0
-315 -1384 0
-639 315 1373 1374 1375 1376 1377 1378 1379 1380 1381 1382 1383 1384 0
-343 640 0
-1385 629 0
-1385 613 0
-629 -613 1385 0
-1386 630 0
-1386 612 0
-630 -612 1386 0
-1387 631 0
-1387 627 0
-631 -627 1387 0
-1388 632 0
-1388 653 0
-632 -653 1388 0
-1389 633 0
-1389 666 0
-633 -666 1389 0
-1390 634 0
-1390 679 0
-634 -679 1390 0
-1391 635 0
-1391 692 0
-635 -692 1391 0
-1392 636 0
-1392 705 0
-636 -705 1392 0
-1393 637 0
-1393 718 0
-637 -718 1393 0
-1394 638 0
-1394 731 0
-638 -731 1394 0
-1395 639 0
-1395 744 0
-639 -744 1395 0
-1396 641 0
-1396 771 0
-641 -771 1396 0
-343 -1385 0
-343 -1386 0
-343 -1387 0
-343 -1388 0
-343 -1389 0
-343 -1390 0
-343 -1391 0
-343 -1392 0
-343 -1393 0
-343 -1394 0
-343 -1395 0
-343 -1396 0
-640 343 1385 1386 1387 1388 1389 1390 1391 1392 1393 1394 1395 1396 0
-371 641 0
-1397 629 0
-1397 615 0
-629 -615 1397 0
-1398 630 0
-1398 614 0
-630 -614 1398 0
-1399 631 0
-1399 628 0
-631 -628 1399 0
-1400 632 0
-1400 654 0
-632 -654 1400 0
-1401 633 0
-1401 667 0
-633 -667 1401 0
-1402 634 0
-1402 680 0
-634 -680 1402 0
-1403 635 0
-1403 693 0
-635 -693 1403 0
-1404 636 0
-1404 706 0
-636 -706 1404 0
-1405 637 0
-1405 719 0
-637 -719 1405 0
-1406 638 0
-1406 732 0
-638 -732 1406 0
-1407 639 0
-1407 745 0
-639 -745 1407 0
-1408 640 0
-1408 758 0
-640 -758 1408 0
-371 -1397 0
-371 -1398 0
-371 -1399 0
-371 -1400 0
-371 -1401 0
-371 -1402 0
-371 -1403 0
-371 -1404 0
-371 -1405 0
-371 -1406 0
-371 -1407 0
-371 -1408 0
-641 371 1397 1398 1399 1400 1401 1402 1403 1404 1405 1406 1407 1408 0
-9 642 0
-1409 643 0
-1409 591 0
-643 -591 1409 0
-1410 644 0
-1410 616 0
-644 -616 1410 0
-1411 645 0
-1411 629 0
-645 -629 1411 0
-1412 646 0
-1412 655 0
-646 -655 1412 0
-1413 647 0
-1413 668 0
-647 -668 1413 0
-1414 648 0
-1414 681 0
-648 -681 1414 0
-1415 649 0
-1415 694 0
-649 -694 1415 0
-1416 650 0
-1416 707 0
-650 -707 1416 0
-1417 651 0
-1417 720 0
-651 -720 1417 0
-1418 652 0
-1418 733 0
-652 -733 1418 0
-1419 653 0
-1419 746 0
-653 -746 1419 0
-1420 654 0
-1420 759 0
-654 -759 1420 0
-9 -1409 0
-9 -1410 0
-9 -1411 0
-9 -1412 0
-9 -1413 0
-9 -1414 0
-9 -1415 0
-9 -1416 0
-9 -1417 0
-9 -1418 0
-9 -1419 0
-9 -1420 0
-642 9 1409 1410 1411 1412 1413 1414 1415 1416 1417 1418 1419 1420 0
-37 643 0
-1421 642 0
-1421 590 0
-642 -590 1421 0
-1422 644 0
-1422 617 0
-644 -617 1422 0
-1423 645 0
-1423 630 0
-645 -630 1423 0
-1424 646 0
-1424 656 0
-646 -656 1424 0
-1425 647 0
-1425 669 0
-647 -669 1425 0
-1426 648 0
-1426 682 0
-648 -682 1426 0
-1427 649 0
-1427 695 0
-649 -695 1427 0
-1428 650 0
-1428 708 0
-650 -708 1428 0
-1429 651 0
-1429 721 0
-651 -721 1429 0
-1430 652 0
-1430 734 0
-652 -734 1430 0
-1431 653 0
-1431 747 0
-653 -747 1431 0
-1432 654 0
-1432 760 0
-654 -760 1432 0
-37 -1421 0
-37 -1422 0
-37 -1423 0
-37 -1424 0
-37 -1425 0
-37 -1426 0
-37 -1427 0
-37 -1428 0
-37 -1429 0
-37 -1430 0
-37 -1431 0
-37 -1432 0
-643 37 1421 1422 1423 1424 1425 1426 1427 1428 1429 1430 1431 1432 0
-65 644 0
-1433 642 0
-1433 593 0
-642 -593 1433 0
-1434 643 0
-1434 592 0
-643 -592 1434 0
-1435 645 0
-1435 631 0
-645 -631 1435 0
-1436 646 0
-1436 657 0
-646 -657 1436 0
-1437 647 0
-1437 670 0
-647 -670 1437 0
-1438 648 0
-1438 683 0
-648 -683 1438 0
-1439 649 0
-1439 696 0
-649 -696 1439 0
-1440 650 0
-1440 709 0
-650 -709 1440 0
-1441 651 0
-1441 722 0
-651 -722 1441 0
-1442 652 0
-1442 735 0
-652 -735 1442 0
-1443 653 0
-1443 748 0
-653 -748 1443 0
-1444 654 0
-1444 761 0
-654 -761 1444 0
-65 -1433 0
-65 -1434 0
-65 -1435 0
-65 -1436 0
-65 -1437 0
-65 -1438 0
-65 -1439 0
-65 -1440 0
-65 -1441 0
-65 -1442 0
-65 -1443 0
-65 -1444 0
-644 65 1433 1434 1435 1436 1437 1438 1439 1440 1441 1442 1443 1444 0
-93 645 0
-1445 642 0
-1445 595 0
-642 -595 1445 0
-1446 643 0
-1446 594 0
-643 -594 1446 0
-1447 644 0
-1447 618 0
-644 -618 1447 0
-1448 646 0
-1448 658 0
-646 -658 1448 0
-1449 647 0
-1449 671 0
-647 -671 1449 0
-1450 648 0
-1450 684 0
-648 -684 1450 0
-1451 649 0
-1451 697 0
-649 -697 1451 0
-1452 650 0
-1452 710 0
-650 -710 1452 0
-1453 651 0
-1453 723 0
-651 -723 1453 0
-1454 652 0
-1454 736 0
-652 -736 1454 0
-1455 653 0
-1455 749 0
-653 -749 1455 0
-1456 654 0
-1456 762 0
-654 -762 1456 0
-93 -1445 0
-93 -1446 0
-93 -1447 0
-93 -1448 0
-93 -1449 0
-93 -1450 0
-93 -1451 0
-93 -1452 0
-93 -1453 0
-93 -1454 0
-93 -1455 0
-93 -1456 0
-645 93 1445 1446 1447 1448 1449 1450 1451 1452 1453 1454 1455 1456 0
-121 0
-149 646 0
-1457 642 0
-1457 599 0
-642 -599 1457 0
-1458 643 0
-1458 598 0
-643 -598 1458 0
-1459 644 0
-1459 620 0
-644 -620 1459 0
-1460 645 0
-1460 633 0
-645 -633 1460 0
-1461 647 0
-1461 673 0
-647 -673 1461 0
-1462 648 0
-1462 686 0
-648 -686 1462 0
-1463 649 0
-1463 699 0
-649 -699 1463 0
-1464 650 0
-1464 712 0
-650 -712 1464 0
-1465 651 0
-1465 725 0
-651 -725 1465 0
-1466 652 0
-1466 738 0
-652 -738 1466 0
-1467 653 0
-1467 751 0
-653 -751 1467 0
-1468 654 0
-1468 764 0
-654 -764 1468 0
-149 -1457 0
-149 -1458 0
-149 -1459 0
-149 -1460 0
-149 -1461 0
-149 -1462 0
-149 -1463 0
-149 -1464 0
-149 -1465 0
-149 -1466 0
-149 -1467 0
-149 -1468 0
-646 149 1457 1458 1459 1460 1461 1462 1463 1464 1465 1466 1467 1468 0
-177 647 0
-1469 642 0
-1469 601 0
-642 -601 1469 0
-1470 643 0
-1470 600 0
-643 -600 1470 0
-1471 644 0
-1471 621 0
-644 -621 1471 0
-1472 645 0
-1472 634 0
-645 -634 1472 0
-1473 646 0
-1473 660 0
-646 -660 1473 0
-1474 648 0
-1474 687 0
-648 -687 1474 0
-1475 649 0
-1475 700 0
-649 -700 1475 0
-1476 650 0
-1476 713 0
-650 -713 1476 0
-1477 651 0
-1477 726 0
-651 -726 1477 0
-1478 652 0
-1478 739 0
-652 -739 1478 0
-1479 653 0
-1479 752 0
-653 -752 1479 0
-1480 654 0
-1480 765 0
-654 -765 1480 0
-177 -1469 0
-177 -1470 0
-177 -1471 0
-177 -1472 0
-177 -1473 0
-177 -1474 0
-177 -1475 0
-177 -1476 0
-177 -1477 0
-177 -1478 0
-177 -1479 0
-177 -1480 0
-647 177 1469 1470 1471 1472 1473 1474 1475 1476 1477 1478 1479 1480 0
-205 648 0
-1481 642 0
-1481 603 0
-642 -603 1481 0
-1482 643 0
-1482 602 0
-643 -602 1482 0
-1483 644 0
-1483 622 0
-644 -622 1483 0
-1484 645 0
-1484 635 0
-645 -635 1484 0
-1485 646 0
-1485 661 0
-646 -661 1485 0
-1486 647 0
-1486 674 0
-647 -674 1486 0
-1487 649 0
-1487 701 0
-649 -701 1487 0
-1488 650 0
-1488 714 0
-650 -714 1488 0
-1489 651 0
-1489 727 0
-651 -727 1489 0
-1490 652 0
-1490 740 0
-652 -740 1490 0
-1491 653 0
-1491 753 0
-653 -753 1491 0
-1492 654 0
-1492 766 0
-654 -766 1492 0
-205 -1481 0
-205 -1482 0
-205 -1483 0
-205 -1484 0
-205 -1485 0
-205 -1486 0
-205 -1487 0
-205 -1488 0
-205 -1489 0
-205 -1490 0
-205 -1491 0
-205 -1492 0
-648 205 1481 1482 1483 1484 1485 1486 1487 1488 1489 1490 1491 1492 0
-233 649 0
-1493 642 0
-1493 605 0
-642 -605 1493 0
-1494 643 0
-1494 604 0
-643 -604 1494 0
-1495 644 0
-1495 623 0
-644 -623 1495 0
-1496 645 0
-1496 636 0
-645 -636 1496 0
-1497 646 0
-1497 662 0
-646 -662 1497 0
-1498 647 0
-1498 675 0
-647 -675 1498 0
-1499 648 0
-1499 688 0
-648 -688 1499 0
-1500 650 0
-1500 715 0
-650 -715 1500 0
-1501 651 0
-1501 728 0
-651 -728 1501 0
-1502 652 0
-1502 741 0
-652 -741 1502 0
-1503 653 0
-1503 754 0
-653 -754 1503 0
-1504 654 0
-1504 767 0
-654 -767 1504 0
-233 -1493 0
-233 -1494 0
-233 -1495 0
-233 -1496 0
-233 -1497 0
-233 -1498 0
-233 -1499 0
-233 -1500 0
-233 -1501 0
-233 -1502 0
-233 -1503 0
-233 -1504 0
-649 233 1493 1494 1495 1496 1497 1498 1499 1500 1501 1502 1503 1504 0
-261 650 0
-1505 642 0
-1505 607 0
-642 -607 1505 0
-1506 643 0
-1506 606 0
-643 -606 1506 0
-1507 644 0
-1507 624 0
-644 -624 1507 0
-1508 645 0
-1508 637 0
-645 -637 1508 0
-1509 646 0
-1509 663 0
-646 -663 1509 0
-1510 647 0
-1510 676 0
-647 -676 1510 0
-1511 648 0
-1511 689 0
-648 -689 1511 0
-1512 649 0
-1512 702 0
-649 -702 1512 0
-1513 651 0
-1513 729 0
-651 -729 1513 0
-1514 652 0
-1514 742 0
-652 -742 1514 0
-1515 653 0
-1515 755 0
-653 -755 1515 0
-1516 654 0
-1516 768 0
-654 -768 1516 0
-261 -1505 0
-261 -1506 0
-261 -1507 0
-261 -1508 0
-261 -1509 0
-261 -1510 0
-261 -1511 0
-261 -1512 0
-261 -1513 0
-261 -1514 0
-261 -1515 0
-261 -1516 0
-650 261 1505 1506 1507 1508 1509 1510 1511 1512 1513 1514 1515 1516 0
-289 651 0
-1517 642 0
-1517 609 0
-642 -609 1517 0
-1518 643 0
-1518 608 0
-643 -608 1518 0
-1519 644 0
-1519 625 0
-644 -625 1519 0
-1520 645 0
-1520 638 0
-645 -638 1520 0
-1521 646 0
-1521 664 0
-646 -664 1521 0
-1522 647 0
-1522 677 0
-647 -677 1522 0
-1523 648 0
-1523 690 0
-648 -690 1523 0
-1524 649 0
-1524 703 0
-649 -703 1524 0
-1525 650 0
-1525 716 0
-650 -716 1525 0
-1526 652 0
-1526 743 0
-652 -743 1526 0
-1527 653 0
-1527 756 0
-653 -756 1527 0
-1528 654 0
-1528 769 0
-654 -769 1528 0
-289 -1517 0
-289 -1518 0
-289 -1519 0
-289 -1520 0
-289 -1521 0
-289 -1522 0
-289 -1523 0
-289 -1524 0
-289 -1525 0
-289 -1526 0
-289 -1527 0
-289 -1528 0
-651 289 1517 1518 1519 1520 1521 1522 1523 1524 1525 1526 1527 1528 0
-317 652 0
-1529 642 0
-1529 611 0
-642 -611 1529 0
-1530 643 0
-1530 610 0
-643 -610 1530 0
-1531 644 0
-1531 626 0
-644 -626 1531 0
-1532 645 0
-1532 639 0
-645 -639 1532 0
-1533 646 0
-1533 665 0
-646 -665 1533 0
-1534 647 0
-1534 678 0
-647 -678 1534 0
-1535 648 0
-1535 691 0
-648 -691 1535 0
-1536 649 0
-1536 704 0
-649 -704 1536 0
-1537 650 0
-1537 717 0
-650 -717 1537 0
-1538 651 0
-1538 730 0
-651 -730 1538 0
-1539 653 0
-1539 757 0
-653 -757 1539 0
-1540 654 0
-1540 770 0
-654 -770 1540 0
-317 -1529 0
-317 -1530 0
-317 -1531 0
-317 -1532 0
-317 -1533 0
-317 -1534 0
-317 -1535 0
-317 -1536 0
-317 -1537 0
-317 -1538 0
-317 -1539 0
-317 -1540 0
-652 317 1529 1530 1531 1532 1533 1534 1535 1536 1537 1538 1539 1540 0
-345 653 0
-1541 642 0
-1541 613 0
-642 -613 1541 0
-1542 643 0
-1542 612 0
-643 -612 1542 0
-1543 644 0
-1543 627 0
-644 -627 1543 0
-1544 645 0
-1544 640 0
-645 -640 1544 0
-1545 646 0
-1545 666 0
-646 -666 1545 0
-1546 647 0
-1546 679 0
-647 -679 1546 0
-1547 648 0
-1547 692 0
-648 -692 1547 0
-1548 649 0
-1548 705 0
-649 -705 1548 0
-1549 650 0
-1549 718 0
-650 -718 1549 0
-1550 651 0
-1550 731 0
-651 -731 1550 0
-1551 652 0
-1551 744 0
-652 -744 1551 0
-1552 654 0
-1552 771 0
-654 -771 1552 0
-345 -1541 0
-345 -1542 0
-345 -1543 0
-345 -1544 0
-345 -1545 0
-345 -1546 0
-345 -1547 0
-345 -1548 0
-345 -1549 0
-345 -1550 0
-345 -1551 0
-345 -1552 0
-653 345 1541 1542 1543 1544 1545 1546 1547 1548 1549 1550 1551 1552 0
-373 654 0
-1553 642 0
-1553 615 0
-642 -615 1553 0
-1554 643 0
-1554 614 0
-643 -614 1554 0
-1555 644 0
-1555 628 0
-644 -628 1555 0
-1556 645 0
-1556 641 0
-645 -641 1556 0
-1557 646 0
-1557 667 0
-646 -667 1557 0
-1558 647 0
-1558 680 0
-647 -680 1558 0
-1559 648 0
-1559 693 0
-648 -693 1559 0
-1560 649 0
-1560 706 0
-649 -706 1560 0
-1561 650 0
-1561 719 0
-650 -719 1561 0
-1562 651 0
-1562 732 0
-651 -732 1562 0
-1563 652 0
-1563 745 0
-652 -745 1563 0
-1564 653 0
-1564 758 0
-653 -758 1564 0
-373 -1553 0
-373 -1554 0
-373 -1555 0
-373 -1556 0
-373 -1557 0
-373 -1558 0
-373 -1559 0
-373 -1560 0
-373 -1561 0
-373 -1562 0
-373 -1563 0
-373 -1564 0
-654 373 1553 1554 1555 1556 1557 1558 1559 1560 1561 1562 1563 1564 0
-11 655 0
-1565 656 0
-1565 591 0
-656 -591 1565 0
-1566 657 0
-1566 616 0
-657 -616 1566 0
-1567 658 0
-1567 629 0
-658 -629 1567 0
-1568 659 0
-1568 642 0
-659 -642 1568 0
-1569 660 0
-1569 668 0
-660 -668 1569 0
-1570 661 0
-1570 681 0
-661 -681 1570 0
-1571 662 0
-1571 694 0
-662 -694 1571 0
-1572 663 0
-1572 707 0
-663 -707 1572 0
-1573 664 0
-1573 720 0
-664 -720 1573 0
-1574 665 0
-1574 733 0
-665 -733 1574 0
-1575 666 0
-1575 746 0
-666 -746 1575 0
-1576 667 0
-1576 759 0
-667 -759 1576 0
-11 -1565 0
-11 -1566 0
-11 -1567 0
-11 -1568 0
-11 -1569 0
-11 -1570 0
-11 -1571 0
-11 -1572 0
-11 -1573 0
-11 -1574 0
-11 -1575 0
-11 -1576 0
-655 11 1565 1566 1567 1568 1569 1570 1571 1572 1573 1574 1575 1576 0
-39 656 0
-1577 655 0
-1577 590 0
-655 -590 1577 0
-1578 657 0
-1578 617 0
-657 -617 1578 0
-1579 658 0
-1579 630 0
-658 -630 1579 0
-1580 659 0
-1580 643 0
-659 -643 1580 0
-1581 660 0
-1581 669 0
-660 -669 1581 0
-1582 661 0
-1582 682 0
-661 -682 1582 0
-1583 662 0
-1583 695 0
-662 -695 1583 0
-1584 663 0
-1584 708 0
-663 -708 1584 0
-1585 664 0
-1585 721 0
-664 -721 1585 0
-1586 665 0
-1586 734 0
-665 -734 1586 0
-1587 666 0
-1587 747 0
-666 -747 1587 0
-1588 667 0
-1588 760 0
-667 -760 1588 0
-39 -1577 0
-39 -1578 0
-39 -1579 0
-39 -1580 0
-39 -1581 0
-39 -1582 0
-39 -1583 0
-39 -1584 0
-39 -1585 0
-39 -1586 0
-39 -1587 0
-39 -1588 0
-656 39 1577 1578 1579 1580 1581 1582 1583 1584 1585 1586 1587 1588 0
-67 657 0
-1589 655 0
-1589 593 0
-655 -593 1589 0
-1590 656 0
-1590 592 0
-656 -592 1590 0
-1591 658 0
-1591 631 0
-658 -631 1591 0
-1592 659 0
-1592 644 0
-659 -644 1592 0
-1593 660 0
-1593 670 0
-660 -670 1593 0
-1594 661 0
-1594 683 0
-661 -683 1594 0
-1595 662 0
-1595 696 0
-662 -696 1595 0
-1596 663 0
-1596 709 0
-663 -709 1596 0
-1597 664 0
-1597 722 0
-664 -722 1597 0
-1598 665 0
-1598 735 0
-665 -735 1598 0
-1599 666 0
-1599 748 0
-666 -748 1599 0
-1600 667 0
-1600 761 0
-667 -761 1600 0
-67 -1589 0
-67 -1590 0
-67 -1591 0
-67 -1592 0
-67 -1593 0
-67 -1594 0
-67 -1595 0
-67 -1596 0
-67 -1597 0
-67 -1598 0
-67 -1599 0
-67 -1600 0
-657 67 1589 1590 1591 1592 1593 1594 1595 1596 1597 1598 1599 1600 0
-95 658 0
-1601 655 0
-1601 595 0
-655 -595 1601 0
-1602 656 0
-1602 594 0
-656 -594 1602 0
-1603 657 0
-1603 618 0
-657 -618 1603 0
-1604 659 0
-1604 645 0
-659 -645 1604 0
-1605 660 0
-1605 671 0
-660 -671 1605 0
-1606 661 0
-1606 684 0
-661 -684 1606 0
-1607 662 0
-1607 697 0
-662 -697 1607 0
-1608 663 0
-1608 710 0
-663 -710 1608 0
-1609 664 0
-1609 723 0
-664 -723 1609 0
-1610 665 0
-1610 736 0
-665 -736 1610 0
-1611 666 0
-1611 749 0
-666 -749 1611 0
-1612 667 0
-1612 762 0
-667 -762 1612 0
-95 -1601 0
-95 -1602 0
-95 -1603 0
-95 -1604 0
-95 -1605 0
-95 -1606 0
-95 -1607 0
-95 -1608 0
-95 -1609 0
-95 -1610 0
-95 -1611 0
-95 -1612 0
-658 95 1601 1602 1603 1604 1605 1606 1607 1608 1609 1610 1611 1612 0
-123 659 0
-1613 655 0
-1613 597 0
-655 -597 1613 0
-1614 656 0
-1614 596 0
-656 -596 1614 0
-1615 657 0
-1615 619 0
-657 -619 1615 0
-1616 658 0
-1616 632 0
-658 -632 1616 0
-1617 660 0
-1617 672 0
-660 -672 1617 0
-1618 661 0
-1618 685 0
-661 -685 1618 0
-1619 662 0
-1619 698 0
-662 -698 1619 0
-1620 663 0
-1620 711 0
-663 -711 1620 0
-1621 664 0
-1621 724 0
-664 -724 1621 0
-1622 665 0
-1622 737 0
-665 -737 1622 0
-1623 666 0
-1623 750 0
-666 -750 1623 0
-1624 667 0
-1624 763 0
-667 -763 1624 0
-123 -1613 0
-123 -1614 0
-123 -1615 0
-123 -1616 0
-123 -1617 0
-123 -1618 0
-123 -1619 0
-123 -1620 0
-123 -1621 0
-123 -1622 0
-123 -1623 0
-123 -1624 0
-659 123 1613 1614 1615 1616 1617 1618 1619 1620 1621 1622 1623 1624 0
-151 0
-179 660 0
-1625 655 0
-1625 601 0
-655 -601 1625 0
-1626 656 0
-1626 600 0
-656 -600 1626 0
-1627 657 0
-1627 621 0
-657 -621 1627 0
-1628 658 0
-1628 634 0
-658 -634 1628 0
-1629 659 0
-1629 647 0
-659 -647 1629 0
-1630 661 0
-1630 687 0
-661 -687 1630 0
-1631 662 0
-1631 700 0
-662 -700 1631 0
-1632 663 0
-1632 713 0
-663 -713 1632 0
-1633 664 0
-1633 726 0
-664 -726 1633 0
-1634 665 0
-1634 739 0
-665 -739 1634 0
-1635 666 0
-1635 752 0
-666 -752 1635 0
-1636 667 0
-1636 765 0
-667 -765 1636 0
-179 -1625 0
-179 -1626 0
-179 -1627 0
-179 -1628 0
-179 -1629 0
-179 -1630 0
-179 -1631 0
-179 -1632 0
-179 -1633 0
-179 -1634 0
-179 -1635 0
-179 -1636 0
-660 179 1625 1626 1627 1628 1629 1630 1631 1632 1633 1634 1635 1636 0
-207 661 0
-1637 655 0
-1637 603 0
-655 -603 1637 0
-1638 656 0
-1638 602 0
-656 -602 1638 0
-1639 657 0
-1639 622 0
-657 -622 1639 0
-1640 658 0
-1640 635 0
-658 -635 1640 0
-1641 659 0
-1641 648 0
-659 -648 1641 0
-1642 660 0
-1642 674 0
-660 -674 1642 0
-1643 662 0
-1643 701 0
-662 -701 1643 0
-1644 663 0
-1644 714 0
-663 -714 1644 0
-1645 664 0
-1645 727 0
-664 -727 1645 0
-1646 665 0
-1646 740 0
-665 -740 1646 0
-1647 666 0
-1647 753 0
-666 -753 1647 0
-1648 667 0
-1648 766 0
-667 -766 1648 0
-207 -1637 0
-207 -1638 0
-207 -1639 0
-207 -1640 0
-207 -1641 0
-207 -1642 0
-207 -1643 0
-207 -1644 0
-207 -1645 0
-207 -1646 0
-207 -1647 0
-207 -1648 0
-661 207 1637 1638 1639 1640 1641 1642 1643 1644 1645 1646 1647 1648 0
-235 662 0
-1649 655 0
-1649 605 0
-655 -605 1649 0
-1650 656 0
-1650 604 0
-656 -604 1650 0
-1651 657 0
-1651 623 0
-657 -623 1651 0
-1652 658 0
-1652 636 0
-658 -636 1652 0
-1653 659 0
-1653 649 0
-659 -649 1653 0
-1654 660 0
-1654 675 0
-660 -675 1654 0
-1655 661 0
-1655 688 0
-661 -688 1655 0
-1656 663 0
-1656 715 0
-663 -715 1656 0
-1657 664 0
-1657 728 0
-664 -728 1657 0
-1658 665 0
-1658 741 0
-665 -741 1658 0
-1659 666 0
-1659 754 0
-666 -754 1659 0
-1660 667 0
-1660 767 0
-667 -767 1660 0
-235 -1649 0
-235 -1650 0
-235 -1651 0
-235 -1652 0
-235 -1653 0
-235 -1654 0
-235 -1655 0
-235 -1656 0
-235 -1657 0
-235 -1658 0
-235 -1659 0
-235 -1660 0
-662 235 1649 1650 1651 1652 1653 1654 1655 1656 1657 1658 1659 1660 0
-263 663 0
-1661 655 0
-1661 607 0
-655 -607 1661 0
-1662 656 0
-1662 606 0
-656 -606 1662 0
-1663 657 0
-1663 624 0
-657 -624 1663 0
-1664 658 0
-1664 637 0
-658 -637 1664 0
-1665 659 0
-1665 650 0
-659 -650 1665 0
-1666 660 0
-1666 676 0
-660 -676 1666 0
-1667 661 0
-1667 689 0
-661 -689 1667 0
-1668 662 0
-1668 702 0
-662 -702 1668 0
-1669 664 0
-1669 729 0
-664 -729 1669 0
-1670 665 0
-1670 742 0
-665 -742 1670 0
-1671 666 0
-1671 755 0
-666 -755 1671 0
-1672 667 0
-1672 768 0
-667 -768 1672 0
-263 -1661 0
-263 -1662 0
-263 -1663 0
-263 -1664 0
-263 -1665 0
-263 -1666 0
-263 -1667 0
-263 -1668 0
-263 -1669 0
-263 -1670 0
-263 -1671 0
-263 -1672 0
-663 263 1661 1662 1663 1664 1665 1666 1667 1668 1669 1670 1671 1672 0
-291 664 0
-1673 655 0
-1673 609 0
-655 -609 1673 0
-1674 656 0
-1674 608 0
-656 -608 1674 0
-1675 657 0
-1675 625 0
-657 -625 1675 0
-1676 658 0
-1676 638 0
-658 -638 1676 0
-1677 659 0
-1677 651 0
-659 -651 1677 0
-1678 660 0
-1678 677 0
-660 -677 1678 0
-1679 661 0
-1679 690 0
-661 -690 1679 0
-1680 662 0
-1680 703 0
-662 -703 1680 0
-1681 663 0
-1681 716 0
-663 -716 1681 0
-1682 665 0
-1682 743 0
-665 -743 1682 0
-1683 666 0
-1683 756 0
-666 -756 1683 0
-1684 667 0
-1684 769 0
-667 -769 1684 0
-291 -1673 0
-291 -1674 0
-291 -1675 0
-291 -1676 0
-291 -1677 0
-291 -1678 0
-291 -1679 0
-291 -1680 0
-291 -1681 0
-291 -1682 0
-291 -1683 0
-291 -1684 0
-664 291 1673 1674 1675 1676 1677 1678 1679 1680 1681 1682 1683 1684 0
-319 665 0
-1685 655 0
-1685 611 0
-655 -611 1685 0
-1686 656 0
-1686 610 0
-656 -610 1686 0
-1687 657 0
-1687 626 0
-657 -626 1687 0
-1688 658 0
-1688 639 0
-658 -639 1688 0
-1689 659 0
-1689 652 0
-659 -652 1689 0
-1690 660 0
-1690 678 0
-660 -678 1690 0
-1691 661 0
-1691 691 0
-661 -691 1691 0
-1692 662 0
-1692 704 0
-662 -704 1692 0
-1693 663 0
-1693 717 0
-663 -717 1693 0
-1694 664 0
-1694 730 0
-664 -730 1694 0
-1695 666 0
-1695 757 0
-666 -757 1695 0
-1696 667 0
-1696 770 0
-667 -770 1696 0
-319 -1685 0
-319 -1686 0
-319 -1687 0
-319 -1688 0
-319 -1689 0
-319 -1690 0
-319 -1691 0
-319 -1692 0
-319 -1693 0
-319 -1694 0
-319 -1695 0
-319 -1696 0
-665 319 1685 1686 1687 1688 1689 1690 1691 1692 1693 1694 1695 1696 0
-347 666 0
-1697 655 0
-1697 613 0
-655 -613 1697 0
-1698 656 0
-1698 612 0
-656 -612 1698 0
-1699 657 0
-1699 627 0
-657 -627 1699 0
-1700 658 0
-1700 640 0
-658 -640 1700 0
-1701 659 0
-1701 653 0
-659 -653 1701 0
-1702 660 0
-1702 679 0
-660 -679 1702 0
-1703 661 0
-1703 692 0
-661 -692 1703 0
-1704 662 0
-1704 705 0
-662 -705 1704 0
-1705 663 0
-1705 718 0
-663 -718 1705 0
-1706 664 0
-1706 731 0
-664 -731 1706 0
-1707 665 0
-1707 744 0
-665 -744 1707 0
-1708 667 0
-1708 771 0
-667 -771 1708 0
-347 -1697 0
-347 -1698 0
-347 -1699 0
-347 -1700 0
-347 -1701 0
-347 -1702 0
-347 -1703 0
-347 -1704 0
-347 -1705 0
-347 -1706 0
-347 -1707 0
-347 -1708 0
-666 347 1697 1698 1699 1700 1701 1702 1703 1704 1705 1706 1707 1708 0
-375 667 0
-1709 655 0
-1709 615 0
-655 -615 1709 0
-1710 656 0
-1710 614 0
-656 -614 1710 0
-1711 657 0
-1711 628 0
-657 -628 1711 0
-1712 658 0
-1712 641 0
-658 -641 1712 0
-1713 659 0
-1713 654 0
-659 -654 1713 0
-1714 660 0
-1714 680 0
-660 -680 1714 0
-1715 661 0
-1715 693 0
-661 -693 1715 0
-1716 662 0
-1716 706 0
-662 -706 1716 0
-1717 663 0
-1717 719 0
-663 -719 1717 0
-1718 664 0
-1718 732 0
-664 -732 1718 0
-1719 665 0
-1719 745 0
-665 -745 1719 0
-1720 666 0
-1720 758 0
-666 -758 1720 0
-375 -1709 0
-375 -1710 0
-375 -1711 0
-375 -1712 0
-375 -1713 0
-375 -1714 0
-375 -1715 0
-375 -1716 0
-375 -1717 0
-375 -1718 0
-375 -1719 0
-375 -1720 0
-667 375 1709 1710 1711 1712 1713 1714 1715 1716 1717 1718 1719 1720 0
-13 668 0
-1721 669 0
-1721 591 0
-669 -591 1721 0
-1722 670 0
-1722 616 0
-670 -616 1722 0
-1723 671 0
-1723 629 0
-671 -629 1723 0
-1724 672 0
-1724 642 0
-672 -642 1724 0
-1725 673 0
-1725 655 0
-673 -655 1725 0
-1726 674 0
-1726 681 0
-674 -681 1726 0
-1727 675 0
-1727 694 0
-675 -694 1727 0
-1728 676 0
-1728 707 0
-676 -707 1728 0
-1729 677 0
-1729 720 0
-677 -720 1729 0
-1730 678 0
-1730 733 0
-678 -733 1730 0
-1731 679 0
-1731 746 0
-679 -746 1731 0
-1732 680 0
-1732 759 0
-680 -759 1732 0
-13 -1721 0
-13 -1722 0
-13 -1723 0
-13 -1724 0
-13 -1725 0
-13 -1726 0
-13 -1727 0
-13 -1728 0
-13 -1729 0
-13 -1730 0
-13 -1731 0
-13 -1732 0
-668 13 1721 1722 1723 1724 1725 1726 1727 1728 1729 1730 1731 1732 0
-41 669 0
-1733 668 0
-1733 590 0
-668 -590 1733 0
-1734 670 0
-1734 617 0
-670 -617 1734 0
-1735 671 0
-1735 630 0
-671 -630 1735 0
-1736 672 0
-1736 643 0
-672 -643 1736 0
-1737 673 0
-1737 656 0
-673 -656 1737 0
-1738 674 0
-1738 682 0
-674 -682 1738 0
-1739 675 0
-1739 695 0
-675 -695 1739 0
-1740 676 0
-1740 708 0
-676 -708 1740 0
-1741 677 0
-1741 721 0
-677 -721 1741 0
-1742 678 0
-1742 734 0
-678 -734 1742 0
-1743 679 0
-1743 747 0
-679 -747 1743 0
-1744 680 0
-1744 760 0
-680 -760 1744 0
-41 -1733 0
-41 -1734 0
-41 -1735 0
-41 -1736 0
-41 -1737 0
-41 -1738 0
-41 -1739 0
-41 -1740 0
-41 -1741 0
-41 -1742 0
-41 -1743 0
-41 -1744 0
-669 41 1733 1734 1735 1736 1737 1738 1739 1740 1741 1742 1743 1744 0
-69 670 0
-1745 668 0
-1745 593 0
-668 -593 1745 0
-1746 669 0
-1746 592 0
-669 -592 1746 0
-1747 671 0
-1747 631 0
-671 -631 1747 0
-1748 672 0
-1748 644 0
-672 -644 1748 0
-1749 673 0
-1749 657 0
-673 -657 1749 0
-1750 674 0
-1750 683 0
-674 -683 1750 0
-1751 675 0
-1751 696 0
-675 -696 1751 0
-1752 676 0
-1752 709 0
-676 -709 1752 0
-1753 677 0
-1753 722 0
-677 -722 1753 0
-1754 678 0
-1754 735 0
-678 -735 1754 0
-1755 679 0
-1755 748 0
-679 -748 1755 0
-1756 680 0
-1756 761 0
-680 -761 1756 0
-69 -1745 0
-69 -1746 0
-69 -1747 0
-69 -1748 0
-69 -1749 0
-69 -1750 0
-69 -1751 0
-69 -1752 0
-69 -1753 0
-69 -1754 0
-69 -1755 0
-69 -1756 0
-670 69 1745 1746 1747 1748 1749 1750 1751 1752 1753 1754 1755 1756 0
-97 671 0
-1757 668 0
-1757 595 0
-668 -595 1757 0
-1758 669 0
-1758 594 0
-669 -594 1758 0
-1759 670 0
-1759 618 0
-670 -618 1759 0
-1760 672 0
-1760 645 0
-672 -645 1760 0
-1761 673 0
-1761 658 0
-673 -658 1761 0
-1762 674 0
-1762 684 0
-674 -684 1762 0
-1763 675 0
-1763 697 0
-675 -697 1763 0
-1764 676 0
-1764 710 0
-676 -710 1764 0
-1765 677 0
-1765 723 0
-677 -723 1765 0
-1766 678 0
-1766 736 0
-678 -736 1766 0
-1767 679 0
-1767 749 0
-679 -749 1767 0
-1768 680 0
-1768 762 0
-680 -762 1768 0
-97 -1757 0
-97 -1758 0
-97 -1759 0
-97 -1760 0
-97 -1761 0
-97 -1762 0
-97 -1763 0
-97 -1764 0
-97 -1765 0
-97 -1766 0
-97 -1767 0
-97 -1768 0
-671 97 1757 1758 1759 1760 1761 1762 1763 1764 1765 1766 1767 1768 0
-125 672 0
-1769 668 0
-1769 597 0
-668 -597 1769 0
-1770 669 0
-1770 596 0
-669 -596 1770 0
-1771 670 0
-1771 619 0
-670 -619 1771 0
-1772 671 0
-1772 632 0
-671 -632 1772 0
-1773 673 0
-1773 659 0
-673 -659 1773 0
-1774 674 0
-1774 685 0
-674 -685 1774 0
-1775 675 0
-1775 698 0
-675 -698 1775 0
-1776 676 0
-1776 711 0
-676 -711 1776 0
-1777 677 0
-1777 724 0
-677 -724 1777 0
-1778 678 0
-1778 737 0
-678 -737 1778 0
-1779 679 0
-1779 750 0
-679 -750 1779 0
-1780 680 0
-1780 763 0
-680 -763 1780 0
-125 -1769 0
-125 -1770 0
-125 -1771 0
-125 -1772 0
-125 -1773 0
-125 -1774 0
-125 -1775 0
-125 -1776 0
-125 -1777 0
-125 -1778 0
-125 -1779 0
-125 -1780 0
-672 125 1769 1770 1771 1772 1773 1774 1775 1776 1777 1778 1779 1780 0
-153 673 0
-1781 668 0
-1781 599 0
-668 -599 1781 0
-1782 669 0
-1782 598 0
-669 -598 1782 0
-1783 670 0
-1783 620 0
-670 -620 1783 0
-1784 671 0
-1784 633 0
-671 -633 1784 0
-1785 672 0
-1785 646 0
-672 -646 1785 0
-1786 674 0
-1786 686 0
-674 -686 1786 0
-1787 675 0
-1787 699 0
-675 -699 1787 0
-1788 676 0
-1788 712 0
-676 -712 1788 0
-1789 677 0
-1789 725 0
-677 -725 1789 0
-1790 678 0
-1790 738 0
-678 -738 1790 0
-1791 679 0
-1791 751 0
-679 -751 1791 0
-1792 680 0
-1792 764 0
-680 -764 1792 0
-153 -1781 0
-153 -1782 0
-153 -1783 0
-153 -1784 0
-153 -1785 0
-153 -1786 0
-153 -1787 0
-153 -1788 0
-153 -1789 0
-153 -1790 0
-153 -1791 0
-153 -1792 0
-673 153 1781 1782 1783 1784 1785 1786 1787 1788 1789 1790 1791 1792 0
-181 0
-209 674 0
-1793 668 0
-1793 603 0
-668 -603 1793 0
-1794 669 0
-1794 602 0
-669 -602 1794 0
-1795 670 0
-1795 622 0
-670 -622 1795 0
-1796 671 0
-1796 635 0
-671 -635 1796 0
-1797 672 0
-1797 648 0
-672 -648 1797 0
-1798 673 0
-1798 661 0
-673 -661 1798 0
-1799 675 0
-1799 701 0
-675 -701 1799 0
-1800 676 0
-1800 714 0
-676 -714 1800 0
-1801 677 0
-1801 727 0
-677 -727 1801 0
-1802 678 0
-1802 740 0
-678 -740 1802 0
-1803 679 0
-1803 753 0
-679 -753 1803 0
-1804 680 0
-1804 766 0
-680 -766 1804 0
-209 -1793 0
-209 -1794 0
-209 -1795 0
-209 -1796 0
-209 -1797 0
-209 -1798 0
-209 -1799 0
-209 -1800 0
-209 -1801 0
-209 -1802 0
-209 -1803 0
-209 -1804 0
-674 209 1793 1794 1795 1796 1797 1798 1799 1800 1801 1802 1803 1804 0
-237 675 0
-1805 668 0
-1805 605 0
-668 -605 1805 0
-1806 669 0
-1806 604 0
-669 -604 1806 0
-1807 670 0
-1807 623 0
-670 -623 1807 0
-1808 671 0
-1808 636 0
-671 -636 1808 0
-1809 672 0
-1809 649 0
-672 -649 1809 0
-1810 673 0
-1810 662 0
-673 -662 1810 0
-1811 674 0
-1811 688 0
-674 -688 1811 0
-1812 676 0
-1812 715 0
-676 -715 1812 0
-1813 677 0
-1813 728 0
-677 -728 1813 0
-1814 678 0
-1814 741 0
-678 -741 1814 0
-1815 679 0
-1815 754 0
-679 -754 1815 0
-1816 680 0
-1816 767 0
-680 -767 1816 0
-237 -1805 0
-237 -1806 0
-237 -1807 0
-237 -1808 0
-237 -1809 0
-237 -1810 0
-237 -1811 0
-237 -1812 0
-237 -1813 0
-237 -1814 0
-237 -1815 0
-237 -1816 0
-675 237 1805 1806 1807 1808 1809 1810 1811 1812 1813 1814 1815 1816 0
-265 676 0
-1817 668 0
-1817 607 0
-668 -607 1817 0
-1818 669 0
-1818 606 0
-669 -606 1818 0
-1819 670 0
-1819 624 0
-670 -624 1819 0
-1820 671 0
-1820 637 0
-671 -637 1820 0
-1821 672 0
-1821 650 0
-672 -650 1821 0
-1822 673 0
-1822 663 0
-673 -663 1822 0
-1823 674 0
-1823 689 0
-674 -689 1823 0
-1824 675 0
-1824 702 0
-675 -702 1824 0
-1825 677 0
-1825 729 0
-677 -729 1825 0
-1826 678 0
-1826 742 0
-678 -742 1826 0
-1827 679 0
-1827 755 0
-679 -755 1827 0
-1828 680 0
-1828 768 0
-680 -768 1828 0
-265 -1817 0
-265 -1818 0
-265 -1819 0
-265 -1820 0
-265 -1821 0
-265 -1822 0
-265 -1823 0
-265 -1824 0
-265 -1825 0
-265 -1826 0
-265 -1827 0
-265 -1828 0
-676 265 1817 1818 1819 1820 1821 1822 1823 1824 1825 1826 1827 1828 0
-293 677 0
-1829 668 0
-1829 609 0
-668 -609 1829 0
-1830 669 0
-1830 608 0
-669 -608 1830 0
-1831 670 0
-1831 625 0
-670 -625 1831 0
-1832 671 0
-1832 638 0
-671 -638 1832 0
-1833 672 0
-1833 651 0
-672 -651 1833 0
-1834 673 0
-1834 664 0
-673 -664 1834 0
-1835 674 0
-1835 690 0
-674 -690 1835 0
-1836 675 0
-1836 703 0
-675 -703 1836 0
-1837 676 0
-1837 716 0
-676 -716 1837 0
-1838 678 0
-1838 743 0
-678 -743 1838 0
-1839 679 0
-1839 756 0
-679 -756 1839 0
-1840 680 0
-1840 769 0
-680 -769 1840 0
-293 -1829 0
-293 -1830 0
-293 -1831 0
-293 -1832 0
-293 -1833 0
-293 -1834 0
-293 -1835 0
-293 -1836 0
-293 -1837 0
-293 -1838 0
-293 -1839 0
-293 -1840 0
-677 293 1829 1830 1831 1832 1833 1834 1835 1836 1837 1838 1839 1840 0
-321 678 0
-1841 668 0
-1841 611 0
-668 -611 1841 0
-1842 669 0
-1842 610 0
-669 -610 1842 0
-1843 670 0
-1843 626 0
-670 -626 1843 0
-1844 671 0
-1844 639 0
-671 -639 1844 0
-1845 672 0
-1845 652 0
-672 -652 1845 0
-1846 673 0
-1846 665 0
-673 -665 1846 0
-1847 674 0
-1847 691 0
-674 -691 1847 0
-1848 675 0
-1848 704 0
-675 -704 1848 0
-1849 676 0
-1849 717 0
-676 -717 1849 0
-1850 677 0
-1850 730 0
-677 -730 1850 0
-1851 679 0
-1851 757 0
-679 -757 1851 0
-1852 680 0
-1852 770 0
-680 -770 1852 0
-321 -1841 0
-321 -1842 0
-321 -1843 0
-321 -1844 0
-321 -1845 0
-321 -1846 0
-321 -1847 0
-321 -1848 0
-321 -1849 0
-321 -1850 0
-321 -1851 0
-321 -1852 0
-678 321 1841 1842 1843 1844 1845 1846 1847 1848 1849 1850 1851 1852 0
-349 679 0
-1853 668 0
-1853 613 0
-668 -613 1853 0
-1854 669 0
-1854 612 0
-669 -612 1854 0
-1855 670 0
-1855 627 0
-670 -627 1855 0
-1856 671 0
-1856 640 0
-671 -640 1856 0
-1857 672 0
-1857 653 0
-672 -653 1857 0
-1858 673 0
-1858 666 0
-673 -666 1858 0
-1859 674 0
-1859 692 0
-674 -692 1859 0
-1860 675 0
-1860 705 0
-675 -705 1860 0
-1861 676 0
-1861 718 0
-676 -718 1861 0
-1862 677 0
-1862 731 0
-677 -731 1862 0
-1863 678 0
-1863 744 0
-678 -744 1863 0
-1864 680 0
-1864 771 0
-680 -771 1864 0
-349 -1853 0
-349 -1854 0
-349 -1855 0
-349 -1856 0
-349 -1857 0
-349 -1858 0
-349 -1859 0
-349 -1860 0
-349 -1861 0
-349 -1862 0
-349 -1863 0
-349 -1864 0
-679 349 1853 1854 1855 1856 1857 1858 1859 1860 1861 1862 1863 1864 0
-377 680 0
-1865 668 0
-1865 615 0
-668 -615 1865 0
-1866 669 0
-1866 614 0
-669 -614 1866 0
-1867 670 0
-1867 628 0
-670 -628 1867 0
-1868 671 0
-1868 641 0
-671 -641 1868 0
-1869 672 0
-1869 654 0
-672 -654 1869 0
-1870 673 0
-1870 667 0
-673 -667 1870 0
-1871 674 0
-1871 693 0
-674 -693 1871 0
-1872 675 0
-1872 706 0
-675 -706 1872 0
-1873 676 0
-1873 719 0
-676 -719 1873 0
-1874 677 0
-1874 732 0
-677 -732 1874 0
-1875 678 0
-1875 745 0
-678 -745 1875 0
-1876 679 0
-1876 758 0
-679 -758 1876 0
-377 -1865 0
-377 -1866 0
-377 -1867 0
-377 -1868 0
-377 -1869 0
-377 -1870 0
-377 -1871 0
-377 -1872 0
-377 -1873 0
-377 -1874 0
-377 -1875 0
-377 -1876 0
-680 377 1865 1866 1867 1868 1869 1870 1871 1872 1873 1874 1875 1876 0
-15 681 0
-1877 682 0
-1877 591 0
-682 -591 1877 0
-1878 683 0
-1878 616 0
-683 -616 1878 0
-1879 684 0
-1879 629 0
-684 -629 1879 0
-1880 685 0
-1880 642 0
-685 -642 1880 0
-1881 686 0
-1881 655 0
-686 -655 1881 0
-1882 687 0
-1882 668 0
-687 -668 1882 0
-1883 688 0
-1883 694 0
-688 -694 1883 0
-1884 689 0
-1884 707 0
-689 -707 1884 0
-1885 690 0
-1885 720 0
-690 -720 1885 0
-1886 691 0
-1886 733 0
-691 -733 1886 0
-1887 692 0
-1887 746 0
-692 -746 1887 0
-1888 693 0
-1888 759 0
-693 -759 1888 0
-15 -1877 0
-15 -1878 0
-15 -1879 0
-15 -1880 0
-15 -1881 0
-15 -1882 0
-15 -1883 0
-15 -1884 0
-15 -1885 0
-15 -1886 0
-15 -1887 0
-15 -1888 0
-681 15 1877 1878 1879 1880 1881 1882 1883 1884 1885 1886 1887 1888 0
-43 682 0
-1889 681 0
-1889 590 0
-681 -590 1889 0
-1890 683 0
-1890 617 0
-683 -617 1890 0
-1891 684 0
-1891 630 0
-684 -630 1891 0
-1892 685 0
-1892 643 0
-685 -643 1892 0
-1893 686 0
-1893 656 0
-686 -656 1893 0
-1894 687 0
-1894 669 0
-687 -669 1894 0
-1895 688 0
-1895 695 0
-688 -695 1895 0
-1896 689 0
-1896 708 0
-689 -708 1896 0
-1897 690 0
-1897 721 0
-690 -721 1897 0
-1898 691 0
-1898 734 0
-691 -734 1898 0
-1899 692 0
-1899 747 0
-692 -747 1899 0
-1900 693 0
-1900 760 0
-693 -760 1900 0
-43 -1889 0
-43 -1890 0
-43 -1891 0
-43 -1892 0
-43 -1893 0
-43 -1894 0
-43 -1895 0
-43 -1896 0
-43 -1897 0
-43 -1898 0
-43 -1899 0
-43 -1900 0
-682 43 1889 1890 1891 1892 1893 1894 1895 1896 1897 1898 1899 1900 0
-71 683 0
-1901 681 0
-1901 593 0
-681 -593 1901 0
-1902 682 0
-1902 592 0
-682 -592 1902 0
-1903 684 0
-1903 631 0
-684 -631 1903 0
-1904 685 0
-1904 644 0
-685 -644 1904 0
-1905 686 0
-1905 657 0
-686 -657 1905 0
-1906 687 0
-1906 670 0
-687 -670 1906 0
-1907 688 0
-1907 696 0
-688 -696 1907 0
-1908 689 0
-1908 709 0
-689 -709 1908 0
-1909 690 0
-1909 722 0
-690 -722 1909 0
-1910 691 0
-1910 735 0
-691 -735 1910 0
-1911 692 0
-1911 748 0
-692 -748 1911 0
-1912 693 0
-1912 761 0
-693 -761 1912 0
-71 -1901 0
-71 -1902 0
-71 -1903 0
-71 -1904 0
-71 -1905 0
-71 -1906 0
-71 -1907 0
-71 -1908 0
-71 -1909 0
-71 -1910 0
-71 -1911 0
-71 -1912 0
-683 71 1901 1902 1903 1904 1905 1906 1907 1908 1909 1910 1911 1912 0
-99 684 0
-1913 681 0
-1913 595 0
-681 -595 1913 0
-1914 682 0
-1914 594 0
-682 -594 1914 0
-1915 683 0
-1915 618 0
-683 -618 1915 0
-1916 685 0
-1916 645 0
-685 -645 1916 0
-1917 686 0
-1917 658 0
-686 -658 1917 0
-1918 687 0
-1918 671 0
-687 -671 1918 0
-1919 688 0
-1919 697 0
-688 -697 1919 0
-1920 689 0
-1920 710 0
-689 -710 1920 0
-1921 690 0
-1921 723 0
-690 -723 1921 0
-1922 691 0
-1922 736 0
-691 -736 1922 0
-1923 692 0
-1923 749 0
-692 -749 1923 0
-1924 693 0
-1924 762 0
-693 -762 1924 0
-99 -1913 0
-99 -1914 0
-99 -1915 0
-99 -1916 0
-99 -1917 0
-99 -1918 0
-99 -1919 0
-99 -1920 0
-99 -1921 0
-99 -1922 0
-99 -1923 0
-99 -1924 0
-684 99 1913 1914 1915 1916 1917 1918 1919 1920 1921 1922 1923 1924 0
-127 685 0
-1925 681 0
-1925 597 0
-681 -597 1925 0
-1926 682 0
-1926 596 0
-682 -596 1926 0
-1927 683 0
-1927 619 0
-683 -619 1927 0
-1928 684 0
-1928 632 0
-684 -632 1928 0
-1929 686 0
-1929 659 0
-686 -659 1929 0
-1930 687 0
-1930 672 0
-687 -672 1930 0
-1931 688 0
-1931 698 0
-688 -698 1931 0
-1932 689 0
-1932 711 0
-689 -711 1932 0
-1933 690 0
-1933 724 0
-690 -724 1933 0
-1934 691 0
-1934 737 0
-691 -737 1934 0
-1935 692 0
-1935 750 0
-692 -750 1935 0
-1936 693 0
-1936 763 0
-693 -763 1936 0
-127 -1925 0
-127 -1926 0
-127 -1927 0
-127 -1928 0
-127 -1929 0
-127 -1930 0
-127 -1931 0
-127 -1932 0
-127 -1933 0
-127 -1934 0
-127 -1935 0
-127 -1936 0
-685 127 1925 1926 1927 1928 1929 1930 1931 1932 1933 1934 1935 1936 0
-155 686 0
-1937 681 0
-1937 599 0
-681 -599 1937 0
-1938 682 0
-1938 598 0
-682 -598 1938 0
-1939 683 0
-1939 620 0
-683 -620 1939 0
-1940 684 0
-1940 633 0
-684 -633 1940 0
-1941 685 0
-1941 646 0
-685 -646 1941 0
-1942 687 0
-1942 673 0
-687 -673 1942 0
-1943 688 0
-1943 699 0
-688 -699 1943 0
-1944 689 0
-1944 712 0
-689 -712 1944 0
-1945 690 0
-1945 725 0
-690 -725 1945 0
-1946 691 0
-1946 738 0
-691 -738 1946 0
-1947 692 0
-1947 751 0
-692 -751 1947 0
-1948 693 0
-1948 764 0
-693 -764 1948 0
-155 -1937 0
-155 -1938 0
-155 -1939 0
-155 -1940 0
-155 -1941 0
-155 -1942 0
-155 -1943 0
-155 -1944 0
-155 -1945 0
-155 -1946 0
-155 -1947 0
-155 -1948 0
-686 155 1937 1938 1939 1940 1941 1942 1943 1944 1945 1946 1947 1948 0
-183 687 0
-1949 681 0
-1949 601 0
-681 -601 1949 0
-1950 682 0
-1950 600 0
-682 -600 1950 0
-1951 683 0
-1951 621 0
-683 -621 1951 0
-1952 684 0
-1952 634 0
-684 -634 1952 0
-1953 685 0
-1953 647 0
-685 -647 1953 0
-1954 686 0
-1954 660 0
-686 -660 1954 0
-1955 688 0
-1955 700 0
-688 -700 1955 0
-1956 689 0
-1956 713 0
-689 -713 1956 0
-1957 690 0
-1957 726 0
-690 -726 1957 0
-1958 691 0
-1958 739 0
-691 -739 1958 0
-1959 692 0
-1959 752 0
-692 -752 1959 0
-1960 693 0
-1960 765 0
-693 -765 1960 0
-183 -1949 0
-183 -1950 0
-183 -1951 0
-183 -1952 0
-183 -1953 0
-183 -1954 0
-183 -1955 0
-183 -1956 0
-183 -1957 0
-183 -1958 0
-183 -1959 0
-183 -1960 0
-687 183 1949 1950 1951 1952 1953 1954 1955 1956 1957 1958 1959 1960 0
-211 0
-239 688 0
-1961 681 0
-1961 605 0
-681 -605 1961 0
-1962 682 0
-1962 604 0
-682 -604 1962 0
-1963 683 0
-1963 623 0
-683 -623 1963 0
-1964 684 0
-1964 636 0
-684 -636 1964 0
-1965 685 0
-1965 649 0
-685 -649 1965 0
-1966 686 0
-1966 662 0
-686 -662 1966 0
-1967 687 0
-1967 675 0
-687 -675 1967 0
-1968 689 0
-1968 715 0
-689 -715 1968 0
-1969 690 0
-1969 728 0
-690 -728 1969 0
-1970 691 0
-1970 741 0
-691 -741 1970 0
-1971 692 0
-1971 754 0
-692 -754 1971 0
-1972 693 0
-1972 767 0
-693 -767 1972 0
-239 -1961 0
-239 -1962 0
-239 -1963 0
-239 -1964 0
-239 -1965 0
-239 -1966 0
-239 -1967 0
-239 -1968 0
-239 -1969 0
-239 -1970 0
-239 -1971 0
-239 -1972 0
-688 239 1961 1962 1963 1964 1965 1966 1967 1968 1969 1970 1971 1972 0
-267 689 0
-1973 681 0
-1973 607 0
-681 -607 1973 0
-1974 682 0
-1974 606 0
-682 -606 1974 0
-1975 683 0
-1975 624 0
-683 -624 1975 0
-1976 684 0
-1976 637 0
-684 -637 1976 0
-1977 685 0
-1977 650 0
-685 -650 1977 0
-1978 686 0
-1978 663 0
-686 -663 1978 0
-1979 687 0
-1979 676 0
-687 -676 1979 0
-1980 688 0
-1980 702 0
-688 -702 1980 0
-1981 690 0
-1981 729 0
-690 -729 1981 0
-1982 691 0
-1982 742 0
-691 -742 1982 0
-1983 692 0
-1983 755 0
-692 -755 1983 0
-1984 693 0
-1984 768 0
-693 -768 1984 0
-267 -1973 0
-267 -1974 0
-267 -1975 0
-267 -1976 0
-267 -1977 0
-267 -1978 0
-267 -1979 0
-267 -1980 0
-267 -1981 0
-267 -1982 0
-267 -1983 0
-267 -1984 0
-689 267 1973 1974 1975 1976 1977 1978 1979 1980 1981 1982 1983 1984 0
-295 690 0
-1985 681 0
-1985 609 0
-681 -609 1985 0
-1986 682 0
-1986 608 0
-682 -608 1986 0
-1987 683 0
-1987 625 0
-683 -625 1987 0
-1988 684 0
-1988 638 0
-684 -638 1988 0
-1989 685 0
-1989 651 0
-685 -651 1989 0
-1990 686 0
-1990 664 0
-686 -664 1990 0
-1991 687 0
-1991 677 0
-687 -677 1991 0
-1992 688 0
-1992 703 0
-688 -703 1992 0
-1993 689 0
-1993 716 0
-689 -716 1993 0
-1994 691 0
-1994 743 0
-691 -743 1994 0
-1995 692 0
-1995 756 0
-692 -756 1995 0
-1996 693 0
-1996 769 0
-693 -769 1996 0
-295 -1985 0
-295 -1986 0
-295 -1987 0
-295 -1988 0
-295 -1989 0
-295 -1990 0
-295 -1991 0
-295 -1992 0
-295 -1993 0
-295 -1994 0
-295 -1995 0
-295 -1996 0
-690 295 1985 1986 1987 1988 1989 1990 1991 1992 1993 1994 1995 1996 0
-323 691 0
-1997 681 0
-1997 611 0
-681 -611 1997 0
-1998 682 0
-1998 610 0
-682 -610 1998 0
-1999 683 0
-1999 626 0
-683 -626 1999 0
-2000 684 0
-2000 639 0
-684 -639 2000 0
-2001 685 0
-2001 652 0
-685 -652 2001 0
-2002 686 0
-2002 665 0
-686 -665 2002 0
-2003 687 0
-2003 678 0
-687 -678 2003 0
-2004 688 0
-2004 704 0
-688 -704 2004 0
-2005 689 0
-2005 717 0
-689 -717 2005 0
-2006 690 0
-2006 730 0
-690 -730 2006 0
-2007 692 0
-2007 757 0
-692 -757 2007 0
-2008 693 0
-2008 770 0
-693 -770 2008 0
-323 -1997 0
-323 -1998 0
-323 -1999 0
-323 -2000 0
-323 -2001 0
-323 -2002 0
-323 -2003 0
-323 -2004 0
-323 -2005 0
-323 -2006 0
-323 -2007 0
-323 -2008 0
-691 323 1997 1998 1999 2000 2001 2002 2003 2004 2005 2006 2007 2008 0
-351 692 0
-2009 681 0
-2009 613 0
-681 -613 2009 0
-2010 682 0
-2010 612 0
-682 -612 2010 0
-2011 683 0
-2011 627 0
-683 -627 2011 0
-2012 684 0
-2012 640 0
-684 -640 2012 0
-2013 685 0
-2013 653 0
-685 -653 2013 0
-2014 686 0
-2014 666 0
-686 -666 2014 0
-2015 687 0
-2015 679 0
-687 -679 2015 0
-2016 688 0
-2016 705 0
-688 -705 2016 0
-2017 689 0
-2017 718 0
-689 -718 2017 0
-2018 690 0
-2018 731 0
-690 -731 2018 0
-2019 691 0
-2019 744 0
-691 -744 2019 0
-2020 693 0
-2020 771 0
-693 -771 2020 0
-351 -2009 0
-351 -2010 0
-351 -2011 0
-351 -2012 0
-351 -2013 0
-351 -2014 0
-351 -2015 0
-351 -2016 0
-351 -2017 0
-351 -2018 0
-351 -2019 0
-351 -2020 0
-692 351 2009 2010 2011 2012 2013 2014 2015 2016 2017 2018 2019 2020 0
-379 693 0
-2021 681 0
-2021 615 0
-681 -615 2021 0
-2022 682 0
-2022 614 0
-682 -614 2022 0
-2023 683 0
-2023 628 0
-683 -628 2023 0
-2024 684 0
-2024 641 0
-684 -641 2024 0
-2025 685 0
-2025 654 0
-685 -654 2025 0
-2026 686 0
-2026 667 0
-686 -667 2026 0
-2027 687 0
-2027 680 0
-687 -680 2027 0
-2028 688 0
-2028 706 0
-688 -706 2028 0
-2029 689 0
-2029 719 0
-689 -719 2029 0
-2030 690 0
-2030 732 0
-690 -732 2030 0
-2031 691 0
-2031 745 0
-691 -745 2031 0
-2032 692 0
-2032 758 0
-692 -758 2032 0
-379 -2021 0
-379 -2022 0
-379 -2023 0
-379 -2024 0
-379 -2025 0
-379 -2026 0
-379 -2027 0
-379 -2028 0
-379 -2029 0
-379 -2030 0
-379 -2031 0
-379 -2032 0
-693 379 2021 2022 2023 2024 2025 2026 2027 2028 2029 2030 2031 2032 0
-17 694 0
-2033 695 0
-2033 591 0
-695 -591 2033 0
-2034 696 0
-2034 616 0
-696 -616 2034 0
-2035 697 0
-2035 629 0
-697 -629 2035 0
-2036 698 0
-2036 642 0
-698 -642 2036 0
-2037 699 0
-2037 655 0
-699 -655 2037 0
-2038 700 0
-2038 668 0
-700 -668 2038 0
-2039 701 0
-2039 681 0
-701 -681 2039 0
-2040 702 0
-2040 707 0
-702 -707 2040 0
-2041 703 0
-2041 720 0
-703 -720 2041 0
-2042 704 0
-2042 733 0
-704 -733 2042 0
-2043 705 0
-2043 746 0
-705 -746 2043 0
-2044 706 0
-2044 759 0
-706 -759 2044 0
-17 -2033 0
-17 -2034 0
-17 -2035 0
-17 -2036 0
-17 -2037 0
-17 -2038 0
-17 -2039 0
-17 -2040 0
-17 -2041 0
-17 -2042 0
-17 -2043 0
-17 -2044 0
-694 17 2033 2034 2035 2036 2037 2038 2039 2040 2041 2042 2043 2044 0
-45 695 0
-2045 694 0
-2045 590 0
-694 -590 2045 0
-2046 696 0
-2046 617 0
-696 -617 2046 0
-2047 697 0
-2047 630 0
-697 -630 2047 0
-2048 698 0
-2048 643 0
-698 -643 2048 0
-2049 699 0
-2049 656 0
-699 -656 2049 0
-2050 700 0
-2050 669 0
-700 -669 2050 0
-2051 701 0
-2051 682 0
-701 -682 2051 0
-2052 702 0
-2052 708 0
-702 -708 2052 0
-2053 703 0
-2053 721 0
-703 -721 2053 0
-2054 704 0
-2054 734 0
-704 -734 2054 0
-2055 705 0
-2055 747 0
-705 -747 2055 0
-2056 706 0
-2056 760 0
-706 -760 2056 0
-45 -2045 0
-45 -2046 0
-45 -2047 0
-45 -2048 0
-45 -2049 0
-45 -2050 0
-45 -2051 0
-45 -2052 0
-45 -2053 0
-45 -2054 0
-45 -2055 0
-45 -2056 0
-695 45 2045 2046 2047 2048 2049 2050 2051 2052 2053 2054 2055 2056 0
-73 696 0
-2057 694 0
-2057 593 0
-694 -593 2057 0
-2058 695 0
-2058 592 0
-695 -592 2058 0
-2059 697 0
-2059 631 0
-697 -631 2059 0
-2060 698 0
-2060 644 0
-698 -644 2060 0
-2061 699 0
-2061 657 0
-699 -657 2061 0
-2062 700 0
-2062 670 0
-700 -670 2062 0
-2063 701 0
-2063 683 0
-701 -683 2063 0
-2064 702 0
-2064 709 0
-702 -709 2064 0
-2065 703 0
-2065 722 0
-703 -722 2065 0
-2066 704 0
-2066 735 0
-704 -735 2066 0
-2067 705 0
-2067 748 0
-705 -748 2067 0
-2068 706 0
-2068 761 0
-706 -761 2068 0
-73 -2057 0
-73 -2058 0
-73 -2059 0
-73 -2060 0
-73 -2061 0
-73 -2062 0
-73 -2063 0
-73 -2064 0
-73 -2065 0
-73 -2066 0
-73 -2067 0
-73 -2068 0
-696 73 2057 2058 2059 2060 2061 2062 2063 2064 2065 2066 2067 2068 0
-101 697 0
-2069 694 0
-2069 595 0
-694 -595 2069 0
-2070 695 0
-2070 594 0
-695 -594 2070 0
-2071 696 0
-2071 618 0
-696 -618 2071 0
-2072 698 0
-2072 645 0
-698 -645 2072 0
-2073 699 0
-2073 658 0
-699 -658 2073 0
-2074 700 0
-2074 671 0
-700 -671 2074 0
-2075 701 0
-2075 684 0
-701 -684 2075 0
-2076 702 0
-2076 710 0
-702 -710 2076 0
-2077 703 0
-2077 723 0
-703 -723 2077 0
-2078 704 0
-2078 736 0
-704 -736 2078 0
-2079 705 0
-2079 749 0
-705 -749 2079 0
-2080 706 0
-2080 762 0
-706 -762 2080 0
-101 -2069 0
-101 -2070 0
-101 -2071 0
-101 -2072 0
-101 -2073 0
-101 -2074 0
-101 -2075 0
-101 -2076 0
-101 -2077 0
-101 -2078 0
-101 -2079 0
-101 -2080 0
-697 101 2069 2070 2071 2072 2073 2074 2075 2076 2077 2078 2079 2080 0
-129 698 0
-2081 694 0
-2081 597 0
-694 -597 2081 0
-2082 695 0
-2082 596 0
-695 -596 2082 0
-2083 696 0
-2083 619 0
-696 -619 2083 0
-2084 697 0
-2084 632 0
-697 -632 2084 0
-2085 699 0
-2085 659 0
-699 -659 2085 0
-2086 700 0
-2086 672 0
-700 -672 2086 0
-2087 701 0
-2087 685 0
-701 -685 2087 0
-2088 702 0
-2088 711 0
-702 -711 2088 0
-2089 703 0
-2089 724 0
-703 -724 2089 0
-2090 704 0
-2090 737 0
-704 -737 2090 0
-2091 705 0
-2091 750 0
-705 -750 2091 0
-2092 706 0
-2092 763 0
-706 -763 2092 0
-129 -2081 0
-129 -2082 0
-129 -2083 0
-129 -2084 0
-129 -2085 0
-129 -2086 0
-129 -2087 0
-129 -2088 0
-129 -2089 0
-129 -2090 0
-129 -2091 0
-129 -2092 0
-698 129 2081 2082 2083 2084 2085 2086 2087 2088 2089 2090 2091 2092 0
-157 699 0
-2093 694 0
-2093 599 0
-694 -599 2093 0
-2094 695 0
-2094 598 0
-695 -598 2094 0
-2095 696 0
-2095 620 0
-696 -620 2095 0
-2096 697 0
-2096 633 0
-697 -633 2096 0
-2097 698 0
-2097 646 0
-698 -646 2097 0
-2098 700 0
-2098 673 0
-700 -673 2098 0
-2099 701 0
-2099 686 0
-701 -686 2099 0
-2100 702 0
-2100 712 0
-702 -712 2100 0
-2101 703 0
-2101 725 0
-703 -725 2101 0
-2102 704 0
-2102 738 0
-704 -738 2102 0
-2103 705 0
-2103 751 0
-705 -751 2103 0
-2104 706 0
-2104 764 0
-706 -764 2104 0
-157 -2093 0
-157 -2094 0
-157 -2095 0
-157 -2096 0
-157 -2097 0
-157 -2098 0
-157 -2099 0
-157 -2100 0
-157 -2101 0
-157 -2102 0
-157 -2103 0
-157 -2104 0
-699 157 2093 2094 2095 2096 2097 2098 2099 2100 2101 2102 2103 2104 0
-185 700 0
-2105 694 0
-2105 601 0
-694 -601 2105 0
-2106 695 0
-2106 600 0
-695 -600 2106 0
-2107 696 0
-2107 621 0
-696 -621 2107 0
-2108 697 0
-2108 634 0
-697 -634 2108 0
-2109 698 0
-2109 647 0
-698 -647 2109 0
-2110 699 0
-2110 660 0
-699 -660 2110 0
-2111 701 0
-2111 687 0
-701 -687 2111 0
-2112 702 0
-2112 713 0
-702 -713 2112 0
-2113 703 0
-2113 726 0
-703 -726 2113 0
-2114 704 0
-2114 739 0
-704 -739 2114 0
-2115 705 0
-2115 752 0
-705 -752 2115 0
-2116 706 0
-2116 765 0
-706 -765 2116 0
-185 -2105 0
-185 -2106 0
-185 -2107 0
-185 -2108 0
-185 -2109 0
-185 -2110 0
-185 -2111 0
-185 -2112 0
-185 -2113 0
-185 -2114 0
-185 -2115 0
-185 -2116 0
-700 185 2105 2106 2107 2108 2109 2110 2111 2112 2113 2114 2115 2116 0
-213 701 0
-2117 694 0
-2117 603 0
-694 -603 2117 0
-2118 695 0
-2118 602 0
-695 -602 2118 0
-2119 696 0
-2119 622 0
-696 -622 2119 0
-2120 697 0
-2120 635 0
-697 -635 2120 0
-2121 698 0
-2121 648 0
-698 -648 2121 0
-2122 699 0
-2122 661 0
-699 -661 2122 0
-2123 700 0
-2123 674 0
-700 -674 2123 0
-2124 702 0
-2124 714 0
-702 -714 2124 0
-2125 703 0
-2125 727 0
-703 -727 2125 0
-2126 704 0
-2126 740 0
-704 -740 2126 0
-2127 705 0
-2127 753 0
-705 -753 2127 0
-2128 706 0
-2128 766 0
-706 -766 2128 0
-213 -2117 0
-213 -2118 0
-213 -2119 0
-213 -2120 0
-213 -2121 0
-213 -2122 0
-213 -2123 0
-213 -2124 0
-213 -2125 0
-213 -2126 0
-213 -2127 0
-213 -2128 0
-701 213 2117 2118 2119 2120 2121 2122 2123 2124 2125 2126 2127 2128 0
-241 0
-269 702 0
-2129 694 0
-2129 607 0
-694 -607 2129 0
-2130 695 0
-2130 606 0
-695 -606 2130 0
-2131 696 0
-2131 624 0
-696 -624 2131 0
-2132 697 0
-2132 637 0
-697 -637 2132 0
-2133 698 0
-2133 650 0
-698 -650 2133 0
-2134 699 0
-2134 663 0
-699 -663 2134 0
-2135 700 0
-2135 676 0
-700 -676 2135 0
-2136 701 0
-2136 689 0
-701 -689 2136 0
-2137 703 0
-2137 729 0
-703 -729 2137 0
-2138 704 0
-2138 742 0
-704 -742 2138 0
-2139 705 0
-2139 755 0
-705 -755 2139 0
-2140 706 0
-2140 768 0
-706 -768 2140 0
-269 -2129 0
-269 -2130 0
-269 -2131 0
-269 -2132 0
-269 -2133 0
-269 -2134 0
-269 -2135 0
-269 -2136 0
-269 -2137 0
-269 -2138 0
-269 -2139 0
-269 -2140 0
-702 269 2129 2130 2131 2132 2133 2134 2135 2136 2137 2138 2139 2140 0
-297 703 0
-2141 694 0
-2141 609 0
-694 -609 2141 0
-2142 695 0
-2142 608 0
-695 -608 2142 0
-2143 696 0
-2143 625 0
-696 -625 2143 0
-2144 697 0
-2144 638 0
-697 -638 2144 0
-2145 698 0
-2145 651 0
-698 -651 2145 0
-2146 699 0
-2146 664 0
-699 -664 2146 0
-2147 700 0
-2147 677 0
-700 -677 2147 0
-2148 701 0
-2148 690 0
-701 -690 2148 0
-2149 702 0
-2149 716 0
-702 -716 2149 0
-2150 704 0
-2150 743 0
-704 -743 2150 0
-2151 705 0
-2151 756 0
-705 -756 2151 0
-2152 706 0
-2152 769 0
-706 -769 2152 0
-297 -2141 0
-297 -2142 0
-297 -2143 0
-297 -2144 0
-297 -2145 0
-297 -2146 0
-297 -2147 0
-297 -2148 0
-297 -2149 0
-297 -2150 0
-297 -2151 0
-297 -2152 0
-703 297 2141 2142 2143 2144 2145 2146 2147 2148 2149 2150 2151 2152 0
-325 704 0
-2153 694 0
-2153 611 0
-694 -611 2153 0
-2154 695 0
-2154 610 0
-695 -610 2154 0
-2155 696 0
-2155 626 0
-696 -626 2155 0
-2156 697 0
-2156 639 0
-697 -639 2156 0
-2157 698 0
-2157 652 0
-698 -652 2157 0
-2158 699 0
-2158 665 0
-699 -665 2158 0
-2159 700 0
-2159 678 0
-700 -678 2159 0
-2160 701 0
-2160 691 0
-701 -691 2160 0
-2161 702 0
-2161 717 0
-702 -717 2161 0
-2162 703 0
-2162 730 0
-703 -730 2162 0
-2163 705 0
-2163 757 0
-705 -757 2163 0
-2164 706 0
-2164 770 0
-706 -770 2164 0
-325 -2153 0
-325 -2154 0
-325 -2155 0
-325 -2156 0
-325 -2157 0
-325 -2158 0
-325 -2159 0
-325 -2160 0
-325 -2161 0
-325 -2162 0
-325 -2163 0
-325 -2164 0
-704 325 2153 2154 2155 2156 2157 2158 2159 2160 2161 2162 2163 2164 0
-353 705 0
-2165 694 0
-2165 613 0
-694 -613 2165 0
-2166 695 0
-2166 612 0
-695 -612 2166 0
-2167 696 0
-2167 627 0
-696 -627 2167 0
-2168 697 0
-2168 640 0
-697 -640 2168 0
-2169 698 0
-2169 653 0
-698 -653 2169 0
-2170 699 0
-2170 666 0
-699 -666 2170 0
-2171 700 0
-2171 679 0
-700 -679 2171 0
-2172 701 0
-2172 692 0
-701 -692 2172 0
-2173 702 0
-2173 718 0
-702 -718 2173 0
-2174 703 0
-2174 731 0
-703 -731 2174 0
-2175 704 0
-2175 744 0
-704 -744 2175 0
-2176 706 0
-2176 771 0
-706 -771 2176 0
-353 -2165 0
-353 -2166 0
-353 -2167 0
-353 -2168 0
-353 -2169 0
-353 -2170 0
-353 -2171 0
-353 -2172 0
-353 -2173 0
-353 -2174 0
-353 -2175 0
-353 -2176 0
-705 353 2165 2166 2167 2168 2169 2170 2171 2172 2173 2174 2175 2176 0
-381 706 0
-2177 694 0
-2177 615 0
-694 -615 2177 0
-2178 695 0
-2178 614 0
-695 -614 2178 0
-2179 696 0
-2179 628 0
-696 -628 2179 0
-2180 697 0
-2180 641 0
-697 -641 2180 0
-2181 698 0
-2181 654 0
-698 -654 2181 0
-2182 699 0
-2182 667 0
-699 -667 2182 0
-2183 700 0
-2183 680 0
-700 -680 2183 0
-2184 701 0
-2184 693 0
-701 -693 2184 0
-2185 702 0
-2185 719 0
-702 -719 2185 0
-2186 703 0
-2186 732 0
-703 -732 2186 0
-2187 704 0
-2187 745 0
-704 -745 2187 0
-2188 705 0
-2188 758 0
-705 -758 2188 0
-381 -2177 0
-381 -2178 0
-381 -2179 0
-381 -2180 0
-381 -2181 0
-381 -2182 0
-381 -2183 0
-381 -2184 0
-381 -2185 0
-381 -2186 0
-381 -2187 0
-381 -2188 0
-706 381 2177 2178 2179 2180 2181 2182 2183 2184 2185 2186 2187 2188 0
-19 707 0
-2189 708 0
-2189 591 0
-708 -591 2189 0
-2190 709 0
-2190 616 0
-709 -616 2190 0
-2191 710 0
-2191 629 0
-710 -629 2191 0
-2192 711 0
-2192 642 0
-711 -642 2192 0
-2193 712 0
-2193 655 0
-712 -655 2193 0
-2194 713 0
-2194 668 0
-713 -668 2194 0
-2195 714 0
-2195 681 0
-714 -681 2195 0
-2196 715 0
-2196 694 0
-715 -694 2196 0
-2197 716 0
-2197 720 0
-716 -720 2197 0
-2198 717 0
-2198 733 0
-717 -733 2198 0
-2199 718 0
-2199 746 0
-718 -746 2199 0
-2200 719 0
-2200 759 0
-719 -759 2200 0
-19 -2189 0
-19 -2190 0
-19 -2191 0
-19 -2192 0
-19 -2193 0
-19 -2194 0
-19 -2195 0
-19 -2196 0
-19 -2197 0
-19 -2198 0
-19 -2199 0
-19 -2200 0
-707 19 2189 2190 2191 2192 2193 2194 2195 2196 2197 2198 2199 2200 0
-47 708 0
-2201 707 0
-2201 590 0
-707 -590 2201 0
-2202 709 0
-2202 617 0
-709 -617 2202 0
-2203 710 0
-2203 630 0
-710 -630 2203 0
-2204 711 0
-2204 643 0
-711 -643 2204 0
-2205 712 0
-2205 656 0
-712 -656 2205 0
-2206 713 0
-2206 669 0
-713 -669 2206 0
-2207 714 0
-2207 682 0
-714 -682 2207 0
-2208 715 0
-2208 695 0
-715 -695 2208 0
-2209 716 0
-2209 721 0
-716 -721 2209 0
-2210 717 0
-2210 734 0
-717 -734 2210 0
-2211 718 0
-2211 747 0
-718 -747 2211 0
-2212 719 0
-2212 760 0
-719 -760 2212 0
-47 -2201 0
-47 -2202 0
-47 -2203 0
-47 -2204 0
-47 -2205 0
-47 -2206 0
-47 -2207 0
-47 -2208 0
-47 -2209 0
-47 -2210 0
-47 -2211 0
-47 -2212 0
-708 47 2201 2202 2203 2204 2205 2206 2207 2208 2209 2210 2211 2212 0
-75 709 0
-2213 707 0
-2213 593 0
-707 -593 2213 0
-2214 708 0
-2214 592 0
-708 -592 2214 0
-2215 710 0
-2215 631 0
-710 -631 2215 0
-2216 711 0
-2216 644 0
-711 -644 2216 0
-2217 712 0
-2217 657 0
-712 -657 2217 0
-2218 713 0
-2218 670 0
-713 -670 2218 0
-2219 714 0
-2219 683 0
-714 -683 2219 0
-2220 715 0
-2220 696 0
-715 -696 2220 0
-2221 716 0
-2221 722 0
-716 -722 2221 0
-2222 717 0
-2222 735 0
-717 -735 2222 0
-2223 718 0
-2223 748 0
-718 -748 2223 0
-2224 719 0
-2224 761 0
-719 -761 2224 0
-75 -2213 0
-75 -2214 0
-75 -2215 0
-75 -2216 0
-75 -2217 0
-75 -2218 0
-75 -2219 0
-75 -2220 0
-75 -2221 0
-75 -2222 0
-75 -2223 0
-75 -2224 0
-709 75 2213 2214 2215 2216 2217 2218 2219 2220 2221 2222 2223 2224 0
-103 710 0
-2225 707 0
-2225 595 0
-707 -595 2225 0
-2226 708 0
-2226 594 0
-708 -594 2226 0
-2227 709 0
-2227 618 0
-709 -618 2227 0
-2228 711 0
-2228 645 0
-711 -645 2228 0
-2229 712 0
-2229 658 0
-712 -658 2229 0
-2230 713 0
-2230 671 0
-713 -671 2230 0
-2231 714 0
-2231 684 0
-714 -684 2231 0
-2232 715 0
-2232 697 0
-715 -697 2232 0
-2233 716 0
-2233 723 0
-716 -723 2233 0
-2234 717 0
-2234 736 0
-717 -736 2234 0
-2235 718 0
-2235 749 0
-718 -749 2235 0
-2236 719 0
-2236 762 0
-719 -762 2236 0
-103 -2225 0
-103 -2226 0
-103 -2227 0
-103 -2228 0
-103 -2229 0
-103 -2230 0
-103 -2231 0
-103 -2232 0
-103 -2233 0
-103 -2234 0
-103 -2235 0
-103 -2236 0
-710 103 2225 2226 2227 2228 2229 2230 2231 2232 2233 2234 2235 2236 0
-131 711 0
-2237 707 0
-2237 597 0
-707 -597 2237 0
-2238 708 0
-2238 596 0
-708 -596 2238 0
-2239 709 0
-2239 619 0
-709 -619 2239 0
-2240 710 0
-2240 632 0
-710 -632 2240 0
-2241 712 0
-2241 659 0
-712 -659 2241 0
-2242 713 0
-2242 672 0
-713 -672 2242 0
-2243 714 0
-2243 685 0
-714 -685 2243 0
-2244 715 0
-2244 698 0
-715 -698 2244 0
-2245 716 0
-2245 724 0
-716 -724 2245 0
-2246 717 0
-2246 737 0
-717 -737 2246 0
-2247 718 0
-2247 750 0
-718 -750 2247 0
-2248 719 0
-2248 763 0
-719 -763 2248 0
-131 -2237 0
-131 -2238 0
-131 -2239 0
-131 -2240 0
-131 -2241 0
-131 -2242 0
-131 -2243 0
-131 -2244 0
-131 -2245 0
-131 -2246 0
-131 -2247 0
-131 -2248 0
-711 131 2237 2238 2239 2240 2241 2242 2243 2244 2245 2246 2247 2248 0
-159 712 0
-2249 707 0
-2249 599 0
-707 -599 2249 0
-2250 708 0
-2250 598 0
-708 -598 2250 0
-2251 709 0
-2251 620 0
-709 -620 2251 0
-2252 710 0
-2252 633 0
-710 -633 2252 0
-2253 711 0
-2253 646 0
-711 -646 2253 0
-2254 713 0
-2254 673 0
-713 -673 2254 0
-2255 714 0
-2255 686 0
-714 -686 2255 0
-2256 715 0
-2256 699 0
-715 -699 2256 0
-2257 716 0
-2257 725 0
-716 -725 2257 0
-2258 717 0
-2258 738 0
-717 -738 2258 0
-2259 718 0
-2259 751 0
-718 -751 2259 0
-2260 719 0
-2260 764 0
-719 -764 2260 0
-159 -2249 0
-159 -2250 0
-159 -2251 0
-159 -2252 0
-159 -2253 0
-159 -2254 0
-159 -2255 0
-159 -2256 0
-159 -2257 0
-159 -2258 0
-159 -2259 0
-159 -2260 0
-712 159 2249 2250 2251 2252 2253 2254 2255 2256 2257 2258 2259 2260 0
-187 713 0
-2261 707 0
-2261 601 0
-707 -601 2261 0
-2262 708 0
-2262 600 0
-708 -600 2262 0
-2263 709 0
-2263 621 0
-709 -621 2263 0
-2264 710 0
-2264 634 0
-710 -634 2264 0
-2265 711 0
-2265 647 0
-711 -647 2265 0
-2266 712 0
-2266 660 0
-712 -660 2266 0
-2267 714 0
-2267 687 0
-714 -687 2267 0
-2268 715 0
-2268 700 0
-715 -700 2268 0
-2269 716 0
-2269 726 0
-716 -726 2269 0
-2270 717 0
-2270 739 0
-717 -739 2270 0
-2271 718 0
-2271 752 0
-718 -752 2271 0
-2272 719 0
-2272 765 0
-719 -765 2272 0
-187 -2261 0
-187 -2262 0
-187 -2263 0
-187 -2264 0
-187 -2265 0
-187 -2266 0
-187 -2267 0
-187 -2268 0
-187 -2269 0
-187 -2270 0
-187 -2271 0
-187 -2272 0
-713 187 2261 2262 2263 2264 2265 2266 2267 2268 2269 2270 2271 2272 0
-215 714 0
-2273 707 0
-2273 603 0
-707 -603 2273 0
-2274 708 0
-2274 602 0
-708 -602 2274 0
-2275 709 0
-2275 622 0
-709 -622 2275 0
-2276 710 0
-2276 635 0
-710 -635 2276 0
-2277 711 0
-2277 648 0
-711 -648 2277 0
-2278 712 0
-2278 661 0
-712 -661 2278 0
-2279 713 0
-2279 674 0
-713 -674 2279 0
-2280 715 0
-2280 701 0
-715 -701 2280 0
-2281 716 0
-2281 727 0
-716 -727 2281 0
-2282 717 0
-2282 740 0
-717 -740 2282 0
-2283 718 0
-2283 753 0
-718 -753 2283 0
-2284 719 0
-2284 766 0
-719 -766 2284 0
-215 -2273 0
-215 -2274 0
-215 -2275 0
-215 -2276 0
-215 -2277 0
-215 -2278 0
-215 -2279 0
-215 -2280 0
-215 -2281 0
-215 -2282 0
-215 -2283 0
-215 -2284 0
-714 215 2273 2274 2275 2276 2277 2278 2279 2280 2281 2282 2283 2284 0
-243 715 0
-2285 707 0
-2285 605 0
-707 -605 2285 0
-2286 708 0
-2286 604 0
-708 -604 2286 0
-2287 709 0
-2287 623 0
-709 -623 2287 0
-2288 710 0
-2288 636 0
-710 -636 2288 0
-2289 711 0
-2289 649 0
-711 -649 2289 0
-2290 712 0
-2290 662 0
-712 -662 2290 0
-2291 713 0
-2291 675 0
-713 -675 2291 0
-2292 714 0
-2292 688 0
-714 -688 2292 0
-2293 716 0
-2293 728 0
-716 -728 2293 0
-2294 717 0
-2294 741 0
-717 -741 2294 0
-2295 718 0
-2295 754 0
-718 -754 2295 0
-2296 719 0
-2296 767 0
-719 -767 2296 0
-243 -2285 0
-243 -2286 0
-243 -2287 0
-243 -2288 0
-243 -2289 0
-243 -2290 0
-243 -2291 0
-243 -2292 0
-243 -2293 0
-243 -2294 0
-243 -2295 0
-243 -2296 0
-715 243 2285 2286 2287 2288 2289 2290 2291 2292 2293 2294 2295 2296 0
-271 0
-299 716 0
-2297 707 0
-2297 609 0
-707 -609 2297 0
-2298 708 0
-2298 608 0
-708 -608 2298 0
-2299 709 0
-2299 625 0
-709 -625 2299 0
-2300 710 0
-2300 638 0
-710 -638 2300 0
-2301 711 0
-2301 651 0
-711 -651 2301 0
-2302 712 0
-2302 664 0
-712 -664 2302 0
-2303 713 0
-2303 677 0
-713 -677 2303 0
-2304 714 0
-2304 690 0
-714 -690 2304 0
-2305 715 0
-2305 703 0
-715 -703 2305 0
-2306 717 0
-2306 743 0
-717 -743 2306 0
-2307 718 0
-2307 756 0
-718 -756 2307 0
-2308 719 0
-2308 769 0
-719 -769 2308 0
-299 -2297 0
-299 -2298 0
-299 -2299 0
-299 -2300 0
-299 -2301 0
-299 -2302 0
-299 -2303 0
-299 -2304 0
-299 -2305 0
-299 -2306 0
-299 -2307 0
-299 -2308 0
-716 299 2297 2298 2299 2300 2301 2302 2303 2304 2305 2306 2307 2308 0
-327 717 0
-2309 707 0
-2309 611 0
-707 -611 2309 0
-2310 708 0
-2310 610 0
-708 -610 2310 0
-2311 709 0
-2311 626 0
-709 -626 2311 0
-2312 710 0
-2312 639 0
-710 -639 2312 0
-2313 711 0
-2313 652 0
-711 -652 2313 0
-2314 712 0
-2314 665 0
-712 -665 2314 0
-2315 713 0
-2315 678 0
-713 -678 2315 0
-2316 714 0
-2316 691 0
-714 -691 2316 0
-2317 715 0
-2317 704 0
-715 -704 2317 0
-2318 716 0
-2318 730 0
-716 -730 2318 0
-2319 718 0
-2319 757 0
-718 -757 2319 0
-2320 719 0
-2320 770 0
-719 -770 2320 0
-327 -2309 0
-327 -2310 0
-327 -2311 0
-327 -2312 0
-327 -2313 0
-327 -2314 0
-327 -2315 0
-327 -2316 0
-327 -2317 0
-327 -2318 0
-327 -2319 0
-327 -2320 0
-717 327 2309 2310 2311 2312 2313 2314 2315 2316 2317 2318 2319 2320 0
-355 718 0
-2321 707 0
-2321 613 0
-707 -613 2321 0
-2322 708 0
-2322 612 0
-708 -612 2322 0
-2323 709 0
-2323 627 0
-709 -627 2323 0
-2324 710 0
-2324 640 0
-710 -640 2324 0
-2325 711 0
-2325 653 0
-711 -653 2325 0
-2326 712 0
-2326 666 0
-712 -666 2326 0
-2327 713 0
-2327 679 0
-713 -679 2327 0
-2328 714 0
-2328 692 0
-714 -692 2328 0
-2329 715 0
-2329 705 0
-715 -705 2329 0
-2330 716 0
-2330 731 0
-716 -731 2330 0
-2331 717 0
-2331 744 0
-717 -744 2331 0
-2332 719 0
-2332 771 0
-719 -771 2332 0
-355 -2321 0
-355 -2322 0
-355 -2323 0
-355 -2324 0
-355 -2325 0
-355 -2326 0
-355 -2327 0
-355 -2328 0
-355 -2329 0
-355 -2330 0
-355 -2331 0
-355 -2332 0
-718 355 2321 2322 2323 2324 2325 2326 2327 2328 2329 2330 2331 2332 0
-383 719 0
-2333 707 0
-2333 615 0
-707 -615 2333 0
-2334 708 0
-2334 614 0
-708 -614 2334 0
-2335 709 0
-2335 628 0
-709 -628 2335 0
-2336 710 0
-2336 641 0
-710 -641 2336 0
-2337 711 0
-2337 654 0
-711 -654 2337 0
-2338 712 0
-2338 667 0
-712 -667 2338 0
-2339 713 0
-2339 680 0
-713 -680 2339 0
-2340 714 0
-2340 693 0
-714 -693 2340 0
-2341 715 0
-2341 706 0
-715 -706 2341 0
-2342 716 0
-2342 732 0
-716 -732 2342 0
-2343 717 0
-2343 745 0
-717 -745 2343 0
-2344 718 0
-2344 758 0
-718 -758 2344 0
-383 -2333 0
-383 -2334 0
-383 -2335 0
-383 -2336 0
-383 -2337 0
-383 -2338 0
-383 -2339 0
-383 -2340 0
-383 -2341 0
-383 -2342 0
-383 -2343 0
-383 -2344 0
-719 383 2333 2334 2335 2336 2337 2338 2339 2340 2341 2342 2343 2344 0
-21 720 0
-2345 721 0
-2345 591 0
-721 -591 2345 0
-2346 722 0
-2346 616 0
-722 -616 2346 0
-2347 723 0
-2347 629 0
-723 -629 2347 0
-2348 724 0
-2348 642 0
-724 -642 2348 0
-2349 725 0
-2349 655 0
-725 -655 2349 0
-2350 726 0
-2350 668 0
-726 -668 2350 0
-2351 727 0
-2351 681 0
-727 -681 2351 0
-2352 728 0
-2352 694 0
-728 -694 2352 0
-2353 729 0
-2353 707 0
-729 -707 2353 0
-2354 730 0
-2354 733 0
-730 -733 2354 0
-2355 731 0
-2355 746 0
-731 -746 2355 0
-2356 732 0
-2356 759 0
-732 -759 2356 0
-21 -2345 0
-21 -2346 0
-21 -2347 0
-21 -2348 0
-21 -2349 0
-21 -2350 0
-21 -2351 0
-21 -2352 0
-21 -2353 0
-21 -2354 0
-21 -2355 0
-21 -2356 0
-720 21 2345 2346 2347 2348 2349 2350 2351 2352 2353 2354 2355 2356 0
-49 721 0
-2357 720 0
-2357 590 0
-720 -590 2357 0
-2358 722 0
-2358 617 0
-722 -617 2358 0
-2359 723 0
-2359 630 0
-723 -630 2359 0
-2360 724 0
-2360 643 0
-724 -643 2360 0
-2361 725 0
-2361 656 0
-725 -656 2361 0
-2362 726 0
-2362 669 0
-726 -669 2362 0
-2363 727 0
-2363 682 0
-727 -682 2363 0
-2364 728 0
-2364 695 0
-728 -695 2364 0
-2365 729 0
-2365 708 0
-729 -708 2365 0
-2366 730 0
-2366 734 0
-730 -734 2366 0
-2367 731 0
-2367 747 0
-731 -747 2367 0
-2368 732 0
-2368 760 0
-732 -760 2368 0
-49 -2357 0
-49 -2358 0
-49 -2359 0
-49 -2360 0
-49 -2361 0
-49 -2362 0
-49 -2363 0
-49 -2364 0
-49 -2365 0
-49 -2366 0
-49 -2367 0
-49 -2368 0
-721 49 2357 2358 2359 2360 2361 2362 2363 2364 2365 2366 2367 2368 0
-77 722 0
-2369 720 0
-2369 593 0
-720 -593 2369 0
-2370 721 0
-2370 592 0
-721 -592 2370 0
-2371 723 0
-2371 631 0
-723 -631 2371 0
-2372 724 0
-2372 644 0
-724 -644 2372 0
-2373 725 0
-2373 657 0
-725 -657 2373 0
-2374 726 0
-2374 670 0
-726 -670 2374 0
-2375 727 0
-2375 683 0
-727 -683 2375 0
-2376 728 0
-2376 696 0
-728 -696 2376 0
-2377 729 0
-2377 709 0
-729 -709 2377 0
-2378 730 0
-2378 735 0
-730 -735 2378 0
-2379 731 0
-2379 748 0
-731 -748 2379 0
-2380 732 0
-2380 761 0
-732 -761 2380 0
-77 -2369 0
-77 -2370 0
-77 -2371 0
-77 -2372 0
-77 -2373 0
-77 -2374 0
-77 -2375 0
-77 -2376 0
-77 -2377 0
-77 -2378 0
-77 -2379 0
-77 -2380 0
-722 77 2369 2370 2371 2372 2373 2374 2375 2376 2377 2378 2379 2380 0
-105 723 0
-2381 720 0
-2381 595 0
-720 -595 2381 0
-2382 721 0
-2382 594 0
-721 -594 2382 0
-2383 722 0
-2383 618 0
-722 -618 2383 0
-2384 724 0
-2384 645 0
-724 -645 2384 0
-2385 725 0
-2385 658 0
-725 -658 2385 0
-2386 726 0
-2386 671 0
-726 -671 2386 0
-2387 727 0
-2387 684 0
-727 -684 2387 0
-2388 728 0
-2388 697 0
-728 -697 2388 0
-2389 729 0
-2389 710 0
-729 -710 2389 0
-2390 730 0
-2390 736 0
-730 -736 2390 0
-2391 731 0
-2391 749 0
-731 -749 2391 0
-2392 732 0
-2392 762 0
-732 -762 2392 0
-105 -2381 0
-105 -2382 0
-105 -2383 0
-105 -2384 0
-105 -2385 0
-105 -2386 0
-105 -2387 0
-105 -2388 0
-105 -2389 0
-105 -2390 0
-105 -2391 0
-105 -2392 0
-723 105 2381 2382 2383 2384 2385 2386 2387 2388 2389 2390 2391 2392 0
-133 724 0
-2393 720 0
-2393 597 0
-720 -597 2393 0
-2394 721 0
-2394 596 0
-721 -596 2394 0
-2395 722 0
-2395 619 0
-722 -619 2395 0
-2396 723 0
-2396 632 0
-723 -632 2396 0
-2397 725 0
-2397 659 0
-725 -659 2397 0
-2398 726 0
-2398 672 0
-726 -672 2398 0
-2399 727 0
-2399 685 0
-727 -685 2399 0
-2400 728 0
-2400 698 0
-728 -698 2400 0
-2401 729 0
-2401 711 0
-729 -711 2401 0
-2402 730 0
-2402 737 0
-730 -737 2402 0
-2403 731 0
-2403 750 0
-731 -750 2403 0
-2404 732 0
-2404 763 0
-732 -763 2404 0
-133 -2393 0
-133 -2394 0
-133 -2395 0
-133 -2396 0
-133 -2397 0
-133 -2398 0
-133 -2399 0
-133 -2400 0
-133 -2401 0
-133 -2402 0
-133 -2403 0
-133 -2404 0
-724 133 2393 2394 2395 2396 2397 2398 2399 2400 2401 2402 2403 2404 0
-161 725 0
-2405 720 0
-2405 599 0
-720 -599 2405 0
-2406 721 0
-2406 598 0
-721 -598 2406 0
-2407 722 0
-2407 620 0
-722 -620 2407 0
-2408 723 0
-2408 633 0
-723 -633 2408 0
-2409 724 0
-2409 646 0
-724 -646 2409 0
-2410 726 0
-2410 673 0
-726 -673 2410 0
-2411 727 0
-2411 686 0
-727 -686 2411 0
-2412 728 0
-2412 699 0
-728 -699 2412 0
-2413 729 0
-2413 712 0
-729 -712 2413 0
-2414 730 0
-2414 738 0
-730 -738 2414 0
-2415 731 0
-2415 751 0
-731 -751 2415 0
-2416 732 0
-2416 764 0
-732 -764 2416 0
-161 -2405 0
-161 -2406 0
-161 -2407 0
-161 -2408 0
-161 -2409 0
-161 -2410 0
-161 -2411 0
-161 -2412 0
-161 -2413 0
-161 -2414 0
-161 -2415 0
-161 -2416 0
-725 161 2405 2406 2407 2408 2409 2410 2411 2412 2413 2414 2415 2416 0
-189 726 0
-2417 720 0
-2417 601 0
-720 -601 2417 0
-2418 721 0
-2418 600 0
-721 -600 2418 0
-2419 722 0
-2419 621 0
-722 -621 2419 0
-2420 723 0
-2420 634 0
-723 -634 2420 0
-2421 724 0
-2421 647 0
-724 -647 2421 0
-2422 725 0
-2422 660 0
-725 -660 2422 0
-2423 727 0
-2423 687 0
-727 -687 2423 0
-2424 728 0
-2424 700 0
-728 -700 2424 0
-2425 729 0
-2425 713 0
-729 -713 2425 0
-2426 730 0
-2426 739 0
-730 -739 2426 0
-2427 731 0
-2427 752 0
-731 -752 2427 0
-2428 732 0
-2428 765 0
-732 -765 2428 0
-189 -2417 0
-189 -2418 0
-189 -2419 0
-189 -2420 0
-189 -2421 0
-189 -2422 0
-189 -2423 0
-189 -2424 0
-189 -2425 0
-189 -2426 0
-189 -2427 0
-189 -2428 0
-726 189 2417 2418 2419 2420 2421 2422 2423 2424 2425 2426 2427 2428 0
-217 727 0
-2429 720 0
-2429 603 0
-720 -603 2429 0
-2430 721 0
-2430 602 0
-721 -602 2430 0
-2431 722 0
-2431 622 0
-722 -622 2431 0
-2432 723 0
-2432 635 0
-723 -635 2432 0
-2433 724 0
-2433 648 0
-724 -648 2433 0
-2434 725 0
-2434 661 0
-725 -661 2434 0
-2435 726 0
-2435 674 0
-726 -674 2435 0
-2436 728 0
-2436 701 0
-728 -701 2436 0
-2437 729 0
-2437 714 0
-729 -714 2437 0
-2438 730 0
-2438 740 0
-730 -740 2438 0
-2439 731 0
-2439 753 0
-731 -753 2439 0
-2440 732 0
-2440 766 0
-732 -766 2440 0
-217 -2429 0
-217 -2430 0
-217 -2431 0
-217 -2432 0
-217 -2433 0
-217 -2434 0
-217 -2435 0
-217 -2436 0
-217 -2437 0
-217 -2438 0
-217 -2439 0
-217 -2440 0
-727 217 2429 2430 2431 2432 2433 2434 2435 2436 2437 2438 2439 2440 0
-245 728 0
-2441 720 0
-2441 605 0
-720 -605 2441 0
-2442 721 0
-2442 604 0
-721 -604 2442 0
-2443 722 0
-2443 623 0
-722 -623 2443 0
-2444 723 0
-2444 636 0
-723 -636 2444 0
-2445 724 0
-2445 649 0
-724 -649 2445 0
-2446 725 0
-2446 662 0
-725 -662 2446 0
-2447 726 0
-2447 675 0
-726 -675 2447 0
-2448 727 0
-2448 688 0
-727 -688 2448 0
-2449 729 0
-2449 715 0
-729 -715 2449 0
-2450 730 0
-2450 741 0
-730 -741 2450 0
-2451 731 0
-2451 754 0
-731 -754 2451 0
-2452 732 0
-2452 767 0
-732 -767 2452 0
-245 -2441 0
-245 -2442 0
-245 -2443 0
-245 -2444 0
-245 -2445 0
-245 -2446 0
-245 -2447 0
-245 -2448 0
-245 -2449 0
-245 -2450 0
-245 -2451 0
-245 -2452 0
-728 245 2441 2442 2443 2444 2445 2446 2447 2448 2449 2450 2451 2452 0
-273 729 0
-2453 720 0
-2453 607 0
-720 -607 2453 0
-2454 721 0
-2454 606 0
-721 -606 2454 0
-2455 722 0
-2455 624 0
-722 -624 2455 0
-2456 723 0
-2456 637 0
-723 -637 2456 0
-2457 724 0
-2457 650 0
-724 -650 2457 0
-2458 725 0
-2458 663 0
-725 -663 2458 0
-2459 726 0
-2459 676 0
-726 -676 2459 0
-2460 727 0
-2460 689 0
-727 -689 2460 0
-2461 728 0
-2461 702 0
-728 -702 2461 0
-2462 730 0
-2462 742 0
-730 -742 2462 0
-2463 731 0
-2463 755 0
-731 -755 2463 0
-2464 732 0
-2464 768 0
-732 -768 2464 0
-273 -2453 0
-273 -2454 0
-273 -2455 0
-273 -2456 0
-273 -2457 0
-273 -2458 0
-273 -2459 0
-273 -2460 0
-273 -2461 0
-273 -2462 0
-273 -2463 0
-273 -2464 0
-729 273 2453 2454 2455 2456 2457 2458 2459 2460 2461 2462 2463 2464 0
-301 0
-329 730 0
-2465 720 0
-2465 611 0
-720 -611 2465 0
-2466 721 0
-2466 610 0
-721 -610 2466 0
-2467 722 0
-2467 626 0
-722 -626 2467 0
-2468 723 0
-2468 639 0
-723 -639 2468 0
-2469 724 0
-2469 652 0
-724 -652 2469 0
-2470 725 0
-2470 665 0
-725 -665 2470 0
-2471 726 0
-2471 678 0
-726 -678 2471 0
-2472 727 0
-2472 691 0
-727 -691 2472 0
-2473 728 0
-2473 704 0
-728 -704 2473 0
-2474 729 0
-2474 717 0
-729 -717 2474 0
-2475 731 0
-2475 757 0
-731 -757 2475 0
-2476 732 0
-2476 770 0
-732 -770 2476 0
-329 -2465 0
-329 -2466 0
-329 -2467 0
-329 -2468 0
-329 -2469 0
-329 -2470 0
-329 -2471 0
-329 -2472 0
-329 -2473 0
-329 -2474 0
-329 -2475 0
-329 -2476 0
-730 329 2465 2466 2467 2468 2469 2470 2471 2472 2473 2474 2475 2476 0
-357 731 0
-2477 720 0
-2477 613 0
-720 -613 2477 0
-2478 721 0
-2478 612 0
-721 -612 2478 0
-2479 722 0
-2479 627 0
-722 -627 2479 0
-2480 723 0
-2480 640 0
-723 -640 2480 0
-2481 724 0
-2481 653 0
-724 -653 2481 0
-2482 725 0
-2482 666 0
-725 -666 2482 0
-2483 726 0
-2483 679 0
-726 -679 2483 0
-2484 727 0
-2484 692 0
-727 -692 2484 0
-2485 728 0
-2485 705 0
-728 -705 2485 0
-2486 729 0
-2486 718 0
-729 -718 2486 0
-2487 730 0
-2487 744 0
-730 -744 2487 0
-2488 732 0
-2488 771 0
-732 -771 2488 0
-357 -2477 0
-357 -2478 0
-357 -2479 0
-357 -2480 0
-357 -2481 0
-357 -2482 0
-357 -2483 0
-357 -2484 0
-357 -2485 0
-357 -2486 0
-357 -2487 0
-357 -2488 0
-731 357 2477 2478 2479 2480 2481 2482 2483 2484 2485 2486 2487 2488 0
-385 732 0
-2489 720 0
-2489 615 0
-720 -615 2489 0
-2490 721 0
-2490 614 0
-721 -614 2490 0
-2491 722 0
-2491 628 0
-722 -628 2491 0
-2492 723 0
-2492 641 0
-723 -641 2492 0
-2493 724 0
-2493 654 0
-724 -654 2493 0
-2494 725 0
-2494 667 0
-725 -667 2494 0
-2495 726 0
-2495 680 0
-726 -680 2495 0
-2496 727 0
-2496 693 0
-727 -693 2496 0
-2497 728 0
-2497 706 0
-728 -706 2497 0
-2498 729 0
-2498 719 0
-729 -719 2498 0
-2499 730 0
-2499 745 0
-730 -745 2499 0
-2500 731 0
-2500 758 0
-731 -758 2500 0
-385 -2489 0
-385 -2490 0
-385 -2491 0
-385 -2492 0
-385 -2493 0
-385 -2494 0
-385 -2495 0
-385 -2496 0
-385 -2497 0
-385 -2498 0
-385 -2499 0
-385 -2500 0
-732 385 2489 2490 2491 2492 2493 2494 2495 2496 2497 2498 2499 2500 0
-23 733 0
-2501 734 0
-2501 591 0
-734 -591 2501 0
-2502 735 0
-2502 616 0
-735 -616 2502 0
-2503 736 0
-2503 629 0
-736 -629 2503 0
-2504 737 0
-2504 642 0
-737 -642 2504 0
-2505 738 0
-2505 655 0
-738 -655 2505 0
-2506 739 0
-2506 668 0
-739 -668 2506 0
-2507 740 0
-2507 681 0
-740 -681 2507 0
-2508 741 0
-2508 694 0
-741 -694 2508 0
-2509 742 0
-2509 707 0
-742 -707 2509 0
-2510 743 0
-2510 720 0
-743 -720 2510 0
-2511 744 0
-2511 746 0
-744 -746 2511 0
-2512 745 0
-2512 759 0
-745 -759 2512 0
-23 -2501 0
-23 -2502 0
-23 -2503 0
-23 -2504 0
-23 -2505 0
-23 -2506 0
-23 -2507 0
-23 -2508 0
-23 -2509 0
-23 -2510 0
-23 -2511 0
-23 -2512 0
-733 23 2501 2502 2503 2504 2505 2506 2507 2508 2509 2510 2511 2512 0
-51 734 0
-2513 733 0
-2513 590 0
-733 -590 2513 0
-2514 735 0
-2514 617 0
-735 -617 2514 0
-2515 736 0
-2515 630 0
-736 -630 2515 0
-2516 737 0
-2516 643 0
-737 -643 2516 0
-2517 738 0
-2517 656 0
-738 -656 2517 0
-2518 739 0
-2518 669 0
-739 -669 2518 0
-2519 740 0
-2519 682 0
-740 -682 2519 0
-2520 741 0
-2520 695 0
-741 -695 2520 0
-2521 742 0
-2521 708 0
-742 -708 2521 0
-2522 743 0
-2522 721 0
-743 -721 2522 0
-2523 744 0
-2523 747 0
-744 -747 2523 0
-2524 745 0
-2524 760 0
-745 -760 2524 0
-51 -2513 0
-51 -2514 0
-51 -2515 0
-51 -2516 0
-51 -2517 0
-51 -2518 0
-51 -2519 0
-51 -2520 0
-51 -2521 0
-51 -2522 0
-51 -2523 0
-51 -2524 0
-734 51 2513 2514 2515 2516 2517 2518 2519 2520 2521 2522 2523 2524 0
-79 735 0
-2525 733 0
-2525 593 0
-733 -593 2525 0
-2526 734 0
-2526 592 0
-734 -592 2526 0
-2527 736 0
-2527 631 0
-736 -631 2527 0
-2528 737 0
-2528 644 0
-737 -644 2528 0
-2529 738 0
-2529 657 0
-738 -657 2529 0
-2530 739 0
-2530 670 0
-739 -670 2530 0
-2531 740 0
-2531 683 0
-740 -683 2531 0
-2532 741 0
-2532 696 0
-741 -696 2532 0
-2533 742 0
-2533 709 0
-742 -709 2533 0
-2534 743 0
-2534 722 0
-743 -722 2534 0
-2535 744 0
-2535 748 0
-744 -748 2535 0
-2536 745 0
-2536 761 0
-745 -761 2536 0
-79 -2525 0
-79 -2526 0
-79 -2527 0
-79 -2528 0
-79 -2529 0
-79 -2530 0
-79 -2531 0
-79 -2532 0
-79 -2533 0
-79 -2534 0
-79 -2535 0
-79 -2536 0
-735 79 2525 2526 2527 2528 2529 2530 2531 2532 2533 2534 2535 2536 0
-107 736 0
-2537 733 0
-2537 595 0
-733 -595 2537 0
-2538 734 0
-2538 594 0
-734 -594 2538 0
-2539 735 0
-2539 618 0
-735 -618 2539 0
-2540 737 0
-2540 645 0
-737 -645 2540 0
-2541 738 0
-2541 658 0
-738 -658 2541 0
-2542 739 0
-2542 671 0
-739 -671 2542 0
-2543 740 0
-2543 684 0
-740 -684 2543 0
-2544 741 0
-2544 697 0
-741 -697 2544 0
-2545 742 0
-2545 710 0
-742 -710 2545 0
-2546 743 0
-2546 723 0
-743 -723 2546 0
-2547 744 0
-2547 749 0
-744 -749 2547 0
-2548 745 0
-2548 762 0
-745 -762 2548 0
-107 -2537 0
-107 -2538 0
-107 -2539 0
-107 -2540 0
-107 -2541 0
-107 -2542 0
-107 -2543 0
-107 -2544 0
-107 -2545 0
-107 -2546 0
-107 -2547 0
-107 -2548 0
-736 107 2537 2538 2539 2540 2541 2542 2543 2544 2545 2546 2547 2548 0
-135 737 0
-2549 733 0
-2549 597 0
-733 -597 2549 0
-2550 734 0
-2550 596 0
-734 -596 2550 0
-2551 735 0
-2551 619 0
-735 -619 2551 0
-2552 736 0
-2552 632 0
-736 -632 2552 0
-2553 738 0
-2553 659 0
-738 -659 2553 0
-2554 739 0
-2554 672 0
-739 -672 2554 0
-2555 740 0
-2555 685 0
-740 -685 2555 0
-2556 741 0
-2556 698 0
-741 -698 2556 0
-2557 742 0
-2557 711 0
-742 -711 2557 0
-2558 743 0
-2558 724 0
-743 -724 2558 0
-2559 744 0
-2559 750 0
-744 -750 2559 0
-2560 745 0
-2560 763 0
-745 -763 2560 0
-135 -2549 0
-135 -2550 0
-135 -2551 0
-135 -2552 0
-135 -2553 0
-135 -2554 0
-135 -2555 0
-135 -2556 0
-135 -2557 0
-135 -2558 0
-135 -2559 0
-135 -2560 0
-737 135 2549 2550 2551 2552 2553 2554 2555 2556 2557 2558 2559 2560 0
-163 738 0
-2561 733 0
-2561 599 0
-733 -599 2561 0
-2562 734 0
-2562 598 0
-734 -598 2562 0
-2563 735 0
-2563 620 0
-735 -620 2563 0
-2564 736 0
-2564 633 0
-736 -633 2564 0
-2565 737 0
-2565 646 0
-737 -646 2565 0
-2566 739 0
-2566 673 0
-739 -673 2566 0
-2567 740 0
-2567 686 0
-740 -686 2567 0
-2568 741 0
-2568 699 0
-741 -699 2568 0
-2569 742 0
-2569 712 0
-742 -712 2569 0
-2570 743 0
-2570 725 0
-743 -725 2570 0
-2571 744 0
-2571 751 0
-744 -751 2571 0
-2572 745 0
-2572 764 0
-745 -764 2572 0
-163 -2561 0
-163 -2562 0
-163 -2563 0
-163 -2564 0
-163 -2565 0
-163 -2566 0
-163 -2567 0
-163 -2568 0
-163 -2569 0
-163 -2570 0
-163 -2571 0
-163 -2572 0
-738 163 2561 2562 2563 2564 2565 2566 2567 2568 2569 2570 2571 2572 0
-191 739 0
-2573 733 0
-2573 601 0
-733 -601 2573 0
-2574 734 0
-2574 600 0
-734 -600 2574 0
-2575 735 0
-2575 621 0
-735 -621 2575 0
-2576 736 0
-2576 634 0
-736 -634 2576 0
-2577 737 0
-2577 647 0
-737 -647 2577 0
-2578 738 0
-2578 660 0
-738 -660 2578 0
-2579 740 0
-2579 687 0
-740 -687 2579 0
-2580 741 0
-2580 700 0
-741 -700 2580 0
-2581 742 0
-2581 713 0
-742 -713 2581 0
-2582 743 0
-2582 726 0
-743 -726 2582 0
-2583 744 0
-2583 752 0
-744 -752 2583 0
-2584 745 0
-2584 765 0
-745 -765 2584 0
-191 -2573 0
-191 -2574 0
-191 -2575 0
-191 -2576 0
-191 -2577 0
-191 -2578 0
-191 -2579 0
-191 -2580 0
-191 -2581 0
-191 -2582 0
-191 -2583 0
-191 -2584 0
-739 191 2573 2574 2575 2576 2577 2578 2579 2580 2581 2582 2583 2584 0
-219 740 0
-2585 733 0
-2585 603 0
-733 -603 2585 0
-2586 734 0
-2586 602 0
-734 -602 2586 0
-2587 735 0
-2587 622 0
-735 -622 2587 0
-2588 736 0
-2588 635 0
-736 -635 2588 0
-2589 737 0
-2589 648 0
-737 -648 2589 0
-2590 738 0
-2590 661 0
-738 -661 2590 0
-2591 739 0
-2591 674 0
-739 -674 2591 0
-2592 741 0
-2592 701 0
-741 -701 2592 0
-2593 742 0
-2593 714 0
-742 -714 2593 0
-2594 743 0
-2594 727 0
-743 -727 2594 0
-2595 744 0
-2595 753 0
-744 -753 2595 0
-2596 745 0
-2596 766 0
-745 -766 2596 0
-219 -2585 0
-219 -2586 0
-219 -2587 0
-219 -2588 0
-219 -2589 0
-219 -2590 0
-219 -2591 0
-219 -2592 0
-219 -2593 0
-219 -2594 0
-219 -2595 0
-219 -2596 0
-740 219 2585 2586 2587 2588 2589 2590 2591 2592 2593 2594 2595 2596 0
-247 741 0
-2597 733 0
-2597 605 0
-733 -605 2597 0
-2598 734 0
-2598 604 0
-734 -604 2598 0
-2599 735 0
-2599 623 0
-735 -623 2599 0
-2600 736 0
-2600 636 0
-736 -636 2600 0
-2601 737 0
-2601 649 0
-737 -649 2601 0
-2602 738 0
-2602 662 0
-738 -662 2602 0
-2603 739 0
-2603 675 0
-739 -675 2603 0
-2604 740 0
-2604 688 0
-740 -688 2604 0
-2605 742 0
-2605 715 0
-742 -715 2605 0
-2606 743 0
-2606 728 0
-743 -728 2606 0
-2607 744 0
-2607 754 0
-744 -754 2607 0
-2608 745 0
-2608 767 0
-745 -767 2608 0
-247 -2597 0
-247 -2598 0
-247 -2599 0
-247 -2600 0
-247 -2601 0
-247 -2602 0
-247 -2603 0
-247 -2604 0
-247 -2605 0
-247 -2606 0
-247 -2607 0
-247 -2608 0
-741 247 2597 2598 2599 2600 2601 2602 2603 2604 2605 2606 2607 2608 0
-275 742 0
-2609 733 0
-2609 607 0
-733 -607 2609 0
-2610 734 0
-2610 606 0
-734 -606 2610 0
-2611 735 0
-2611 624 0
-735 -624 2611 0
-2612 736 0
-2612 637 0
-736 -637 2612 0
-2613 737 0
-2613 650 0
-737 -650 2613 0
-2614 738 0
-2614 663 0
-738 -663 2614 0
-2615 739 0
-2615 676 0
-739 -676 2615 0
-2616 740 0
-2616 689 0
-740 -689 2616 0
-2617 741 0
-2617 702 0
-741 -702 2617 0
-2618 743 0
-2618 729 0
-743 -729 2618 0
-2619 744 0
-2619 755 0
-744 -755 2619 0
-2620 745 0
-2620 768 0
-745 -768 2620 0
-275 -2609 0
-275 -2610 0
-275 -2611 0
-275 -2612 0
-275 -2613 0
-275 -2614 0
-275 -2615 0
-275 -2616 0
-275 -2617 0
-275 -2618 0
-275 -2619 0
-275 -2620 0
-742 275 2609 2610 2611 2612 2613 2614 2615 2616 2617 2618 2619 2620 0
-303 743 0
-2621 733 0
-2621 609 0
-733 -609 2621 0
-2622 734 0
-2622 608 0
-734 -608 2622 0
-2623 735 0
-2623 625 0
-735 -625 2623 0
-2624 736 0
-2624 638 0
-736 -638 2624 0
-2625 737 0
-2625 651 0
-737 -651 2625 0
-2626 738 0
-2626 664 0
-738 -664 2626 0
-2627 739 0
-2627 677 0
-739 -677 2627 0
-2628 740 0
-2628 690 0
-740 -690 2628 0
-2629 741 0
-2629 703 0
-741 -703 2629 0
-2630 742 0
-2630 716 0
-742 -716 2630 0
-2631 744 0
-2631 756 0
-744 -756 2631 0
-2632 745 0
-2632 769 0
-745 -769 2632 0
-303 -2621 0
-303 -2622 0
-303 -2623 0
-303 -2624 0
-303 -2625 0
-303 -2626 0
-303 -2627 0
-303 -2628 0
-303 -2629 0
-303 -2630 0
-303 -2631 0
-303 -2632 0
-743 303 2621 2622 2623 2624 2625 2626 2627 2628 2629 2630 2631 2632 0
-331 0
-359 744 0
-2633 733 0
-2633 613 0
-733 -613 2633 0
-2634 734 0
-2634 612 0
-734 -612 2634 0
-2635 735 0
-2635 627 0
-735 -627 2635 0
-2636 736 0
-2636 640 0
-736 -640 2636 0
-2637 737 0
-2637 653 0
-737 -653 2637 0
-2638 738 0
-2638 666 0
-738 -666 2638 0
-2639 739 0
-2639 679 0
-739 -679 2639 0
-2640 740 0
-2640 692 0
-740 -692 2640 0
-2641 741 0
-2641 705 0
-741 -705 2641 0
-2642 742 0
-2642 718 0
-742 -718 2642 0
-2643 743 0
-2643 731 0
-743 -731 2643 0
-2644 745 0
-2644 771 0
-745 -771 2644 0
-359 -2633 0
-359 -2634 0
-359 -2635 0
-359 -2636 0
-359 -2637 0
-359 -2638 0
-359 -2639 0
-359 -2640 0
-359 -2641 0
-359 -2642 0
-359 -2643 0
-359 -2644 0
-744 359 2633 2634 2635 2636 2637 2638 2639 2640 2641 2642 2643 2644 0
-387 745 0
-2645 733 0
-2645 615 0
-733 -615 2645 0
-2646 734 0
-2646 614 0
-734 -614 2646 0
-2647 735 0
-2647 628 0
-735 -628 2647 0
-2648 736 0
-2648 641 0
-736 -641 2648 0
-2649 737 0
-2649 654 0
-737 -654 2649 0
-2650 738 0
-2650 667 0
-738 -667 2650 0
-2651 739 0
-2651 680 0
-739 -680 2651 0
-2652 740 0
-2652 693 0
-740 -693 2652 0
-2653 741 0
-2653 706 0
-741 -706 2653 0
-2654 742 0
-2654 719 0
-742 -719 2654 0
-2655 743 0
-2655 732 0
-743 -732 2655 0
-2656 744 0
-2656 758 0
-744 -758 2656 0
-387 -2645 0
-387 -2646 0
-387 -2647 0
-387 -2648 0
-387 -2649 0
-387 -2650 0
-387 -2651 0
-387 -2652 0
-387 -2653 0
-387 -2654 0
-387 -2655 0
-387 -2656 0
-745 387 2645 2646 2647 2648 2649 2650 2651 2652 2653 2654 2655 2656 0
-25 746 0
-2657 747 0
-2657 591 0
-747 -591 2657 0
-2658 748 0
-2658 616 0
-748 -616 2658 0
-2659 749 0
-2659 629 0
-749 -629 2659 0
-2660 750 0
-2660 642 0
-750 -642 2660 0
-2661 751 0
-2661 655 0
-751 -655 2661 0
-2662 752 0
-2662 668 0
-752 -668 2662 0
-2663 753 0
-2663 681 0
-753 -681 2663 0
-2664 754 0
-2664 694 0
-754 -694 2664 0
-2665 755 0
-2665 707 0
-755 -707 2665 0
-2666 756 0
-2666 720 0
-756 -720 2666 0
-2667 757 0
-2667 733 0
-757 -733 2667 0
-2668 758 0
-2668 759 0
-758 -759 2668 0
-25 -2657 0
-25 -2658 0
-25 -2659 0
-25 -2660 0
-25 -2661 0
-25 -2662 0
-25 -2663 0
-25 -2664 0
-25 -2665 0
-25 -2666 0
-25 -2667 0
-25 -2668 0
-746 25 2657 2658 2659 2660 2661 2662 2663 2664 2665 2666 2667 2668 0
-53 747 0
-2669 746 0
-2669 590 0
-746 -590 2669 0
-2670 748 0
-2670 617 0
-748 -617 2670 0
-2671 749 0
-2671 630 0
-749 -630 2671 0
-2672 750 0
-2672 643 0
-750 -643 2672 0
-2673 751 0
-2673 656 0
-751 -656 2673 0
-2674 752 0
-2674 669 0
-752 -669 2674 0
-2675 753 0
-2675 682 0
-753 -682 2675 0
-2676 754 0
-2676 695 0
-754 -695 2676 0
-2677 755 0
-2677 708 0
-755 -708 2677 0
-2678 756 0
-2678 721 0
-756 -721 2678 0
-2679 757 0
-2679 734 0
-757 -734 2679 0
-2680 758 0
-2680 760 0
-758 -760 2680 0
-53 -2669 0
-53 -2670 0
-53 -2671 0
-53 -2672 0
-53 -2673 0
-53 -2674 0
-53 -2675 0
-53 -2676 0
-53 -2677 0
-53 -2678 0
-53 -2679 0
-53 -2680 0
-747 53 2669 2670 2671 2672 2673 2674 2675 2676 2677 2678 2679 2680 0
-81 748 0
-2681 746 0
-2681 593 0
-746 -593 2681 0
-2682 747 0
-2682 592 0
-747 -592 2682 0
-2683 749 0
-2683 631 0
-749 -631 2683 0
-2684 750 0
-2684 644 0
-750 -644 2684 0
-2685 751 0
-2685 657 0
-751 -657 2685 0
-2686 752 0
-2686 670 0
-752 -670 2686 0
-2687 753 0
-2687 683 0
-753 -683 2687 0
-2688 754 0
-2688 696 0
-754 -696 2688 0
-2689 755 0
-2689 709 0
-755 -709 2689 0
-2690 756 0
-2690 722 0
-756 -722 2690 0
-2691 757 0
-2691 735 0
-757 -735 2691 0
-2692 758 0
-2692 761 0
-758 -761 2692 0
-81 -2681 0
-81 -2682 0
-81 -2683 0
-81 -2684 0
-81 -2685 0
-81 -2686 0
-81 -2687 0
-81 -2688 0
-81 -2689 0
-81 -2690 0
-81 -2691 0
-81 -2692 0
-748 81 2681 2682 2683 2684 2685 2686 2687 2688 2689 2690 2691 2692 0
-109 749 0
-2693 746 0
-2693 595 0
-746 -595 2693 0
-2694 747 0
-2694 594 0
-747 -594 2694 0
-2695 748 0
-2695 618 0
-748 -618 2695 0
-2696 750 0
-2696 645 0
-750 -645 2696 0
-2697 751 0
-2697 658 0
-751 -658 2697 0
-2698 752 0
-2698 671 0
-752 -671 2698 0
-2699 753 0
-2699 684 0
-753 -684 2699 0
-2700 754 0
-2700 697 0
-754 -697 2700 0
-2701 755 0
-2701 710 0
-755 -710 2701 0
-2702 756 0
-2702 723 0
-756 -723 2702 0
-2703 757 0
-2703 736 0
-757 -736 2703 0
-2704 758 0
-2704 762 0
-758 -762 2704 0
-109 -2693 0
-109 -2694 0
-109 -2695 0
-109 -2696 0
-109 -2697 0
-109 -2698 0
-109 -2699 0
-109 -2700 0
-109 -2701 0
-109 -2702 0
-109 -2703 0
-109 -2704 0
-749 109 2693 2694 2695 2696 2697 2698 2699 2700 2701 2702 2703 2704 0
-137 750 0
-2705 746 0
-2705 597 0
-746 -597 2705 0
-2706 747 0
-2706 596 0
-747 -596 2706 0
-2707 748 0
-2707 619 0
-748 -619 2707 0
-2708 749 0
-2708 632 0
-749 -632 2708 0
-2709 751 0
-2709 659 0
-751 -659 2709 0
-2710 752 0
-2710 672 0
-752 -672 2710 0
-2711 753 0
-2711 685 0
-753 -685 2711 0
-2712 754 0
-2712 698 0
-754 -698 2712 0
-2713 755 0
-2713 711 0
-755 -711 2713 0
-2714 756 0
-2714 724 0
-756 -724 2714 0
-2715 757 0
-2715 737 0
-757 -737 2715 0
-2716 758 0
-2716 763 0
-758 -763 2716 0
-137 -2705 0
-137 -2706 0
-137 -2707 0
-137 -2708 0
-137 -2709 0
-137 -2710 0
-137 -2711 0
-137 -2712 0
-137 -2713 0
-137 -2714 0
-137 -2715 0
-137 -2716 0
-750 137 2705 2706 2707 2708 2709 2710 2711 2712 2713 2714 2715 2716 0
-165 751 0
-2717 746 0
-2717 599 0
-746 -599 2717 0
-2718 747 0
-2718 598 0
-747 -598 2718 0
-2719 748 0
-2719 620 0
-748 -620 2719 0
-2720 749 0
-2720 633 0
-749 -633 2720 0
-2721 750 0
-2721 646 0
-750 -646 2721 0
-2722 752 0
-2722 673 0
-752 -673 2722 0
-2723 753 0
-2723 686 0
-753 -686 2723 0
-2724 754 0
-2724 699 0
-754 -699 2724 0
-2725 755 0
-2725 712 0
-755 -712 2725 0
-2726 756 0
-2726 725 0
-756 -725 2726 0
-2727 757 0
-2727 738 0
-757 -738 2727 0
-2728 758 0
-2728 764 0
-758 -764 2728 0
-165 -2717 0
-165 -2718 0
-165 -2719 0
-165 -2720 0
-165 -2721 0
-165 -2722 0
-165 -2723 0
-165 -2724 0
-165 -2725 0
-165 -2726 0
-165 -2727 0
-165 -2728 0
-751 165 2717 2718 2719 2720 2721 2722 2723 2724 2725 2726 2727 2728 0
-193 752 0
-2729 746 0
-2729 601 0
-746 -601 2729 0
-2730 747 0
-2730 600 0
-747 -600 2730 0
-2731 748 0
-2731 621 0
-748 -621 2731 0
-2732 749 0
-2732 634 0
-749 -634 2732 0
-2733 750 0
-2733 647 0
-750 -647 2733 0
-2734 751 0
-2734 660 0
-751 -660 2734 0
-2735 753 0
-2735 687 0
-753 -687 2735 0
-2736 754 0
-2736 700 0
-754 -700 2736 0
-2737 755 0
-2737 713 0
-755 -713 2737 0
-2738 756 0
-2738 726 0
-756 -726 2738 0
-2739 757 0
-2739 739 0
-757 -739 2739 0
-2740 758 0
-2740 765 0
-758 -765 2740 0
-193 -2729 0
-193 -2730 0
-193 -2731 0
-193 -2732 0
-193 -2733 0
-193 -2734 0
-193 -2735 0
-193 -2736 0
-193 -2737 0
-193 -2738 0
-193 -2739 0
-193 -2740 0
-752 193 2729 2730 2731 2732 2733 2734 2735 2736 2737 2738 2739 2740 0
-221 753 0
-2741 746 0
-2741 603 0
-746 -603 2741 0
-2742 747 0
-2742 602 0
-747 -602 2742 0
-2743 748 0
-2743 622 0
-748 -622 2743 0
-2744 749 0
-2744 635 0
-749 -635 2744 0
-2745 750 0
-2745 648 0
-750 -648 2745 0
-2746 751 0
-2746 661 0
-751 -661 2746 0
-2747 752 0
-2747 674 0
-752 -674 2747 0
-2748 754 0
-2748 701 0
-754 -701 2748 0
-2749 755 0
-2749 714 0
-755 -714 2749 0
-2750 756 0
-2750 727 0
-756 -727 2750 0
-2751 757 0
-2751 740 0
-757 -740 2751 0
-2752 758 0
-2752 766 0
-758 -766 2752 0
-221 -2741 0
-221 -2742 0
-221 -2743 0
-221 -2744 0
-221 -2745 0
-221 -2746 0
-221 -2747 0
-221 -2748 0
-221 -2749 0
-221 -2750 0
-221 -2751 0
-221 -2752 0
-753 221 2741 2742 2743 2744 2745 2746 2747 2748 2749 2750 2751 2752 0
-249 754 0
-2753 746 0
-2753 605 0
-746 -605 2753 0
-2754 747 0
-2754 604 0
-747 -604 2754 0
-2755 748 0
-2755 623 0
-748 -623 2755 0
-2756 749 0
-2756 636 0
-749 -636 2756 0
-2757 750 0
-2757 649 0
-750 -649 2757 0
-2758 751 0
-2758 662 0
-751 -662 2758 0
-2759 752 0
-2759 675 0
-752 -675 2759 0
-2760 753 0
-2760 688 0
-753 -688 2760 0
-2761 755 0
-2761 715 0
-755 -715 2761 0
-2762 756 0
-2762 728 0
-756 -728 2762 0
-2763 757 0
-2763 741 0
-757 -741 2763 0
-2764 758 0
-2764 767 0
-758 -767 2764 0
-249 -2753 0
-249 -2754 0
-249 -2755 0
-249 -2756 0
-249 -2757 0
-249 -2758 0
-249 -2759 0
-249 -2760 0
-249 -2761 0
-249 -2762 0
-249 -2763 0
-249 -2764 0
-754 249 2753 2754 2755 2756 2757 2758 2759 2760 2761 2762 2763 2764 0
-277 755 0
-2765 746 0
-2765 607 0
-746 -607 2765 0
-2766 747 0
-2766 606 0
-747 -606 2766 0
-2767 748 0
-2767 624 0
-748 -624 2767 0
-2768 749 0
-2768 637 0
-749 -637 2768 0
-2769 750 0
-2769 650 0
-750 -650 2769 0
-2770 751 0
-2770 663 0
-751 -663 2770 0
-2771 752 0
-2771 676 0
-752 -676 2771 0
-2772 753 0
-2772 689 0
-753 -689 2772 0
-2773 754 0
-2773 702 0
-754 -702 2773 0
-2774 756 0
-2774 729 0
-756 -729 2774 0
-2775 757 0
-2775 742 0
-757 -742 2775 0
-2776 758 0
-2776 768 0
-758 -768 2776 0
-277 -2765 0
-277 -2766 0
-277 -2767 0
-277 -2768 0
-277 -2769 0
-277 -2770 0
-277 -2771 0
-277 -2772 0
-277 -2773 0
-277 -2774 0
-277 -2775 0
-277 -2776 0
-755 277 2765 2766 2767 2768 2769 2770 2771 2772 2773 2774 2775 2776 0
-305 756 0
-2777 746 0
-2777 609 0
-746 -609 2777 0
-2778 747 0
-2778 608 0
-747 -608 2778 0
-2779 748 0
-2779 625 0
-748 -625 2779 0
-2780 749 0
-2780 638 0
-749 -638 2780 0
-2781 750 0
-2781 651 0
-750 -651 2781 0
-2782 751 0
-2782 664 0
-751 -664 2782 0
-2783 752 0
-2783 677 0
-752 -677 2783 0
-2784 753 0
-2784 690 0
-753 -690 2784 0
-2785 754 0
-2785 703 0
-754 -703 2785 0
-2786 755 0
-2786 716 0
-755 -716 2786 0
-2787 757 0
-2787 743 0
-757 -743 2787 0
-2788 758 0
-2788 769 0
-758 -769 2788 0
-305 -2777 0
-305 -2778 0
-305 -2779 0
-305 -2780 0
-305 -2781 0
-305 -2782 0
-305 -2783 0
-305 -2784 0
-305 -2785 0
-305 -2786 0
-305 -2787 0
-305 -2788 0
-756 305 2777 2778 2779 2780 2781 2782 2783 2784 2785 2786 2787 2788 0
-333 757 0
-2789 746 0
-2789 611 0
-746 -611 2789 0
-2790 747 0
-2790 610 0
-747 -610 2790 0
-2791 748 0
-2791 626 0
-748 -626 2791 0
-2792 749 0
-2792 639 0
-749 -639 2792 0
-2793 750 0
-2793 652 0
-750 -652 2793 0
-2794 751 0
-2794 665 0
-751 -665 2794 0
-2795 752 0
-2795 678 0
-752 -678 2795 0
-2796 753 0
-2796 691 0
-753 -691 2796 0
-2797 754 0
-2797 704 0
-754 -704 2797 0
-2798 755 0
-2798 717 0
-755 -717 2798 0
-2799 756 0
-2799 730 0
-756 -730 2799 0
-2800 758 0
-2800 770 0
-758 -770 2800 0
-333 -2789 0
-333 -2790 0
-333 -2791 0
-333 -2792 0
-333 -2793 0
-333 -2794 0
-333 -2795 0
-333 -2796 0
-333 -2797 0
-333 -2798 0
-333 -2799 0
-333 -2800 0
-757 333 2789 2790 2791 2792 2793 2794 2795 2796 2797 2798 2799 2800 0
-361 0
-389 758 0
-2801 746 0
-2801 615 0
-746 -615 2801 0
-2802 747 0
-2802 614 0
-747 -614 2802 0
-2803 748 0
-2803 628 0
-748 -628 2803 0
-2804 749 0
-2804 641 0
-749 -641 2804 0
-2805 750 0
-2805 654 0
-750 -654 2805 0
-2806 751 0
-2806 667 0
-751 -667 2806 0
-2807 752 0
-2807 680 0
-752 -680 2807 0
-2808 753 0
-2808 693 0
-753 -693 2808 0
-2809 754 0
-2809 706 0
-754 -706 2809 0
-2810 755 0
-2810 719 0
-755 -719 2810 0
-2811 756 0
-2811 732 0
-756 -732 2811 0
-2812 757 0
-2812 745 0
-757 -745 2812 0
-389 -2801 0
-389 -2802 0
-389 -2803 0
-389 -2804 0
-389 -2805 0
-389 -2806 0
-389 -2807 0
-389 -2808 0
-389 -2809 0
-389 -2810 0
-389 -2811 0
-389 -2812 0
-758 389 2801 2802 2803 2804 2805 2806 2807 2808 2809 2810 2811 2812 0
-27 759 0
-2813 760 0
-2813 591 0
-760 -591 2813 0
-2814 761 0
-2814 616 0
-761 -616 2814 0
-2815 762 0
-2815 629 0
-762 -629 2815 0
-2816 763 0
-2816 642 0
-763 -642 2816 0
-2817 764 0
-2817 655 0
-764 -655 2817 0
-2818 765 0
-2818 668 0
-765 -668 2818 0
-2819 766 0
-2819 681 0
-766 -681 2819 0
-2820 767 0
-2820 694 0
-767 -694 2820 0
-2821 768 0
-2821 707 0
-768 -707 2821 0
-2822 769 0
-2822 720 0
-769 -720 2822 0
-2823 770 0
-2823 733 0
-770 -733 2823 0
-2824 771 0
-2824 746 0
-771 -746 2824 0
-27 -2813 0
-27 -2814 0
-27 -2815 0
-27 -2816 0
-27 -2817 0
-27 -2818 0
-27 -2819 0
-27 -2820 0
-27 -2821 0
-27 -2822 0
-27 -2823 0
-27 -2824 0
-759 27 2813 2814 2815 2816 2817 2818 2819 2820 2821 2822 2823 2824 0
-55 760 0
-2825 759 0
-2825 590 0
-759 -590 2825 0
-2826 761 0
-2826 617 0
-761 -617 2826 0
-2827 762 0
-2827 630 0
-762 -630 2827 0
-2828 763 0
-2828 643 0
-763 -643 2828 0
-2829 764 0
-2829 656 0
-764 -656 2829 0
-2830 765 0
-2830 669 0
-765 -669 2830 0
-2831 766 0
-2831 682 0
-766 -682 2831 0
-2832 767 0
-2832 695 0
-767 -695 2832 0
-2833 768 0
-2833 708 0
-768 -708 2833 0
-2834 769 0
-2834 721 0
-769 -721 2834 0
-2835 770 0
-2835 734 0
-770 -734 2835 0
-2836 771 0
-2836 747 0
-771 -747 2836 0
-55 -2825 0
-55 -2826 0
-55 -2827 0
-55 -2828 0
-55 -2829 0
-55 -2830 0
-55 -2831 0
-55 -2832 0
-55 -2833 0
-55 -2834 0
-55 -2835 0
-55 -2836 0
-760 55 2825 2826 2827 2828 2829 2830 2831 2832 2833 2834 2835 2836 0
-83 761 0
-2837 759 0
-2837 593 0
-759 -593 2837 0
-2838 760 0
-2838 592 0
-760 -592 2838 0
-2839 762 0
-2839 631 0
-762 -631 2839 0
-2840 763 0
-2840 644 0
-763 -644 2840 0
-2841 764 0
-2841 657 0
-764 -657 2841 0
-2842 765 0
-2842 670 0
-765 -670 2842 0
-2843 766 0
-2843 683 0
-766 -683 2843 0
-2844 767 0
-2844 696 0
-767 -696 2844 0
-2845 768 0
-2845 709 0
-768 -709 2845 0
-2846 769 0
-2846 722 0
-769 -722 2846 0
-2847 770 0
-2847 735 0
-770 -735 2847 0
-2848 771 0
-2848 748 0
-771 -748 2848 0
-83 -2837 0
-83 -2838 0
-83 -2839 0
-83 -2840 0
-83 -2841 0
-83 -2842 0
-83 -2843 0
-83 -2844 0
-83 -2845 0
-83 -2846 0
-83 -2847 0
-83 -2848 0
-761 83 2837 2838 2839 2840 2841 2842 2843 2844 2845 2846 2847 2848 0
-111 762 0
-2849 759 0
-2849 595 0
-759 -595 2849 0
-2850 760 0
-2850 594 0
-760 -594 2850 0
-2851 761 0
-2851 618 0
-761 -618 2851 0
-2852 763 0
-2852 645 0
-763 -645 2852 0
-2853 764 0
-2853 658 0
-764 -658 2853 0
-2854 765 0
-2854 671 0
-765 -671 2854 0
-2855 766 0
-2855 684 0
-766 -684 2855 0
-2856 767 0
-2856 697 0
-767 -697 2856 0
-2857 768 0
-2857 710 0
-768 -710 2857 0
-2858 769 0
-2858 723 0
-769 -723 2858 0
-2859 770 0
-2859 736 0
-770 -736 2859 0
-2860 771 0
-2860 749 0
-771 -749 2860 0
-111 -2849 0
-111 -2850 0
-111 -2851 0
-111 -2852 0
-111 -2853 0
-111 -2854 0
-111 -2855 0
-111 -2856 0
-111 -2857 0
-111 -2858 0
-111 -2859 0
-111 -2860 0
-762 111 2849 2850 2851 2852 2853 2854 2855 2856 2857 2858 2859 2860 0
-139 763 0
-2861 759 0
-2861 597 0
-759 -597 2861 0
-2862 760 0
-2862 596 0
-760 -596 2862 0
-2863 761 0
-2863 619 0
-761 -619 2863 0
-2864 762 0
-2864 632 0
-762 -632 2864 0
-2865 764 0
-2865 659 0
-764 -659 2865 0
-2866 765 0
-2866 672 0
-765 -672 2866 0
-2867 766 0
-2867 685 0
-766 -685 2867 0
-2868 767 0
-2868 698 0
-767 -698 2868 0
-2869 768 0
-2869 711 0
-768 -711 2869 0
-2870 769 0
-2870 724 0
-769 -724 2870 0
-2871 770 0
-2871 737 0
-770 -737 2871 0
-2872 771 0
-2872 750 0
-771 -750 2872 0
-139 -2861 0
-139 -2862 0
-139 -2863 0
-139 -2864 0
-139 -2865 0
-139 -2866 0
-139 -2867 0
-139 -2868 0
-139 -2869 0
-139 -2870 0
-139 -2871 0
-139 -2872 0
-763 139 2861 2862 2863 2864 2865 2866 2867 2868 2869 2870 2871 2872 0
-167 764 0
-2873 759 0
-2873 599 0
-759 -599 2873 0
-2874 760 0
-2874 598 0
-760 -598 2874 0
-2875 761 0
-2875 620 0
-761 -620 2875 0
-2876 762 0
-2876 633 0
-762 -633 2876 0
-2877 763 0
-2877 646 0
-763 -646 2877 0
-2878 765 0
-2878 673 0
-765 -673 2878 0
-2879 766 0
-2879 686 0
-766 -686 2879 0
-2880 767 0
-2880 699 0
-767 -699 2880 0
-2881 768 0
-2881 712 0
-768 -712 2881 0
-2882 769 0
-2882 725 0
-769 -725 2882 0
-2883 770 0
-2883 738 0
-770 -738 2883 0
-2884 771 0
-2884 751 0
-771 -751 2884 0
-167 -2873 0
-167 -2874 0
-167 -2875 0
-167 -2876 0
-167 -2877 0
-167 -2878 0
-167 -2879 0
-167 -2880 0
-167 -2881 0
-167 -2882 0
-167 -2883 0
-167 -2884 0
-764 167 2873 2874 2875 2876 2877 2878 2879 2880 2881 2882 2883 2884 0
-195 765 0
-2885 759 0
-2885 601 0
-759 -601 2885 0
-2886 760 0
-2886 600 0
-760 -600 2886 0
-2887 761 0
-2887 621 0
-761 -621 2887 0
-2888 762 0
-2888 634 0
-762 -634 2888 0
-2889 763 0
-2889 647 0
-763 -647 2889 0
-2890 764 0
-2890 660 0
-764 -660 2890 0
-2891 766 0
-2891 687 0
-766 -687 2891 0
-2892 767 0
-2892 700 0
-767 -700 2892 0
-2893 768 0
-2893 713 0
-768 -713 2893 0
-2894 769 0
-2894 726 0
-769 -726 2894 0
-2895 770 0
-2895 739 0
-770 -739 2895 0
-2896 771 0
-2896 752 0
-771 -752 2896 0
-195 -2885 0
-195 -2886 0
-195 -2887 0
-195 -2888 0
-195 -2889 0
-195 -2890 0
-195 -2891 0
-195 -2892 0
-195 -2893 0
-195 -2894 0
-195 -2895 0
-195 -2896 0
-765 195 2885 2886 2887 2888 2889 2890 2891 2892 2893 2894 2895 2896 0
-223 766 0
-2897 759 0
-2897 603 0
-759 -603 2897 0
-2898 760 0
-2898 602 0
-760 -602 2898 0
-2899 761 0
-2899 622 0
-761 -622 2899 0
-2900 762 0
-2900 635 0
-762 -635 2900 0
-2901 763 0
-2901 648 0
-763 -648 2901 0
-2902 764 0
-2902 661 0
-764 -661 2902 0
-2903 765 0
-2903 674 0
-765 -674 2903 0
-2904 767 0
-2904 701 0
-767 -701 2904 0
-2905 768 0
-2905 714 0
-768 -714 2905 0
-2906 769 0
-2906 727 0
-769 -727 2906 0
-2907 770 0
-2907 740 0
-770 -740 2907 0
-2908 771 0
-2908 753 0
-771 -753 2908 0
-223 -2897 0
-223 -2898 0
-223 -2899 0
-223 -2900 0
-223 -2901 0
-223 -2902 0
-223 -2903 0
-223 -2904 0
-223 -2905 0
-223 -2906 0
-223 -2907 0
-223 -2908 0
-766 223 2897 2898 2899 2900 2901 2902 2903 2904 2905 2906 2907 2908 0
-251 767 0
-2909 759 0
-2909 605 0
-759 -605 2909 0
-2910 760 0
-2910 604 0
-760 -604 2910 0
-2911 761 0
-2911 623 0
-761 -623 2911 0
-2912 762 0
-2912 636 0
-762 -636 2912 0
-2913 763 0
-2913 649 0
-763 -649 2913 0
-2914 764 0
-2914 662 0
-764 -662 2914 0
-2915 765 0
-2915 675 0
-765 -675 2915 0
-2916 766 0
-2916 688 0
-766 -688 2916 0
-2917 768 0
-2917 715 0
-768 -715 2917 0
-2918 769 0
-2918 728 0
-769 -728 2918 0
-2919 770 0
-2919 741 0
-770 -741 2919 0
-2920 771 0
-2920 754 0
-771 -754 2920 0
-251 -2909 0
-251 -2910 0
-251 -2911 0
-251 -2912 0
-251 -2913 0
-251 -2914 0
-251 -2915 0
-251 -2916 0
-251 -2917 0
-251 -2918 0
-251 -2919 0
-251 -2920 0
-767 251 2909 2910 2911 2912 2913 2914 2915 2916 2917 2918 2919 2920 0
-279 768 0
-2921 759 0
-2921 607 0
-759 -607 2921 0
-2922 760 0
-2922 606 0
-760 -606 2922 0
-2923 761 0
-2923 624 0
-761 -624 2923 0
-2924 762 0
-2924 637 0
-762 -637 2924 0
-2925 763 0
-2925 650 0
-763 -650 2925 0
-2926 764 0
-2926 663 0
-764 -663 2926 0
-2927 765 0
-2927 676 0
-765 -676 2927 0
-2928 766 0
-2928 689 0
-766 -689 2928 0
-2929 767 0
-2929 702 0
-767 -702 2929 0
-2930 769 0
-2930 729 0
-769 -729 2930 0
-2931 770 0
-2931 742 0
-770 -742 2931 0
-2932 771 0
-2932 755 0
-771 -755 2932 0
-279 -2921 0
-279 -2922 0
-279 -2923 0
-279 -2924 0
-279 -2925 0
-279 -2926 0
-279 -2927 0
-279 -2928 0
-279 -2929 0
-279 -2930 0
-279 -2931 0
-279 -2932 0
-768 279 2921 2922 2923 2924 2925 2926 2927 2928 2929 2930 2931 2932 0
-307 769 0
-2933 759 0
-2933 609 0
-759 -609 2933 0
-2934 760 0
-2934 608 0
-760 -608 2934 0
-2935 761 0
-2935 625 0
-761 -625 2935 0
-2936 762 0
-2936 638 0
-762 -638 2936 0
-2937 763 0
-2937 651 0
-763 -651 2937 0
-2938 764 0
-2938 664 0
-764 -664 2938 0
-2939 765 0
-2939 677 0
-765 -677 2939 0
-2940 766 0
-2940 690 0
-766 -690 2940 0
-2941 767 0
-2941 703 0
-767 -703 2941 0
-2942 768 0
-2942 716 0
-768 -716 2942 0
-2943 770 0
-2943 743 0
-770 -743 2943 0
-2944 771 0
-2944 756 0
-771 -756 2944 0
-307 -2933 0
-307 -2934 0
-307 -2935 0
-307 -2936 0
-307 -2937 0
-307 -2938 0
-307 -2939 0
-307 -2940 0
-307 -2941 0
-307 -2942 0
-307 -2943 0
-307 -2944 0
-769 307 2933 2934 2935 2936 2937 2938 2939 2940 2941 2942 2943 2944 0
-335 770 0
-2945 759 0
-2945 611 0
-759 -611 2945 0
-2946 760 0
-2946 610 0
-760 -610 2946 0
-2947 761 0
-2947 626 0
-761 -626 2947 0
-2948 762 0
-2948 639 0
-762 -639 2948 0
-2949 763 0
-2949 652 0
-763 -652 2949 0
-2950 764 0
-2950 665 0
-764 -665 2950 0
-2951 765 0
-2951 678 0
-765 -678 2951 0
-2952 766 0
-2952 691 0
-766 -691 2952 0
-2953 767 0
-2953 704 0
-767 -704 2953 0
-2954 768 0
-2954 717 0
-768 -717 2954 0
-2955 769 0
-2955 730 0
-769 -730 2955 0
-2956 771 0
-2956 757 0
-771 -757 2956 0
-335 -2945 0
-335 -2946 0
-335 -2947 0
-335 -2948 0
-335 -2949 0
-335 -2950 0
-335 -2951 0
-335 -2952 0
-335 -2953 0
-335 -2954 0
-335 -2955 0
-335 -2956 0
-770 335 2945 2946 2947 2948 2949 2950 2951 2952 2953 2954 2955 2956 0
-363 771 0
-2957 759 0
-2957 613 0
-759 -613 2957 0
-2958 760 0
-2958 612 0
-760 -612 2958 0
-2959 761 0
-2959 627 0
-761 -627 2959 0
-2960 762 0
-2960 640 0
-762 -640 2960 0
-2961 763 0
-2961 653 0
-763 -653 2961 0
-2962 764 0
-2962 666 0
-764 -666 2962 0
-2963 765 0
-2963 679 0
-765 -679 2963 0
-2964 766 0
-2964 692 0
-766 -692 2964 0
-2965 767 0
-2965 705 0
-767 -705 2965 0
-2966 768 0
-2966 718 0
-768 -718 2966 0
-2967 769 0
-2967 731 0
-769 -731 2967 0
-2968 770 0
-2968 744 0
-770 -744 2968 0
-363 -2957 0
-363 -2958 0
-363 -2959 0
-363 -2960 0
-363 -2961 0
-363 -2962 0
-363 -2963 0
-363 -2964 0
-363 -2965 0
-363 -2966 0
-363 -2967 0
-363 -2968 0
-771 363 2957 2958 2959 2960 2961 2962 2963 2964 2965 2966 2967 2968 0
-391 0
