p cnf 42 99
1 -2 0
3 -4 0
5 -6 0
7 -8 0
9 -10 0
11 -12 0
13 -14 0
15 -16 0
17 -18 0
2 -19 -1 0
4 -20 -3 0
6 -21 -5 0
8 -22 -7 0
10 -23 -9 0
12 -24 -11 0
14 -25 -13 0
16 -26 -15 0
18 -27 -17 0
19 0
22 20 0
-22 -20 0
-22 -26 25 0
25 21 0
-25 -21 0
-25 -24 22 0
23 0
20 22 0
-20 -22 0
-20 -25 26 0
26 24 0
-26 -24 0
-26 -21 20 0
27 0
21 25 0
-21 -25 0
-21 -22 24 0
24 26 0
-24 -26 0
-24 -20 21 0
28 0
29 30 0
-29 -30 0
-29 -31 32 0
32 33 0
-32 -33 0
-32 -34 29 0
35 0
30 29 0
-30 -29 0
-30 -32 31 0
31 34 0
-31 -34 0
-31 -33 30 0
36 0
33 32 0
-33 -32 0
-33 -29 34 0
34 31 0
-34 -31 0
-34 -30 33 0
-1 0
-7 29 0
-37 32 0
-37 34 0
-32 -34 37 0
-7 -37 0
-29 7 37 0
-13 32 0
-38 29 0
-38 31 0
-29 -31 38 0
-13 -38 0
-32 13 38 0
-3 30 0
-39 31 0
-39 33 0
-31 -33 39 0
-3 -39 0
-30 3 39 0
-9 0
-15 31 0
-40 30 0
-40 32 0
-30 -32 40 0
-15 -40 0
-31 15 40 0
-5 33 0
-41 34 0
-41 30 0
-34 -30 41 0
-5 -41 0
-33 5 41 0
-11 34 0
-42 33 0
-42 29 0
-33 -29 42 0
-11 -42 0
-34 11 42 0
-17 0
