p cnf 88 260
1 -2 0
3 -4 0
5 -6 0
7 -8 0
9 -10 0
11 -12 0
13 -14 0
15 -16 0
17 -18 0
19 -20 0
21 -22 0
23 -24 0
25 -26 0
27 -28 0
29 -30 0
31 -32 0
2 -33 -1 0
4 -34 -3 0
6 -35 -5 0
8 -36 -7 0
10 -37 -9 0
12 -38 -11 0
14 -39 -13 0
16 -40 -15 0
18 -41 -17 0
20 -42 -19 0
22 -43 -21 0
24 -44 -23 0
26 -45 -25 0
28 -46 -27 0
30 -47 -29 0
32 -48 -31 0
33 0
37 34 0
-37 -34 0
-37 -42 41 0
-37 -46 45 0
41 35 0
-41 -35 0
-41 -39 37 0
-41 -47 45 0
45 36 0
-45 -36 0
-45 -40 37 0
-45 -44 41 0
38 0
34 37 0
-34 -37 0
-34 -41 42 0
-34 -45 46 0
42 39 0
-42 -39 0
-42 -35 34 0
-42 -47 46 0
46 40 0
-46 -40 0
-46 -36 34 0
-46 -44 42 0
43 0
35 41 0
-35 -41 0
-35 -37 39 0
-35 -45 47 0
39 42 0
-39 -42 0
-39 -34 35 0
-39 -46 47 0
47 44 0
-47 -44 0
-47 -36 35 0
-47 -40 39 0
48 0
36 45 0
-36 -45 0
-36 -37 40 0
-36 -41 44 0
40 46 0
-40 -46 0
-40 -34 36 0
-40 -42 44 0
44 47 0
-44 -47 0
-44 -35 36 0
-44 -39 40 0
49 0
50 51 0
-50 -51 0
-50 -52 53 0
-50 -54 55 0
53 56 0
-53 -56 0
-53 -57 50 0
-53 -58 55 0
55 59 0
-55 -59 0
-55 -60 50 0
-55 -61 53 0
62 0
51 50 0
-51 -50 0
-51 -53 52 0
-51 -55 54 0
52 57 0
-52 -57 0
-52 -56 51 0
-52 -58 54 0
54 60 0
-54 -60 0
-54 -59 51 0
-54 -61 52 0
63 0
56 53 0
-56 -53 0
-56 -50 57 0
-56 -55 58 0
57 52 0
-57 -52 0
-57 -51 56 0
-57 -54 58 0
58 61 0
-58 -61 0
-58 -59 56 0
-58 -60 57 0
64 0
59 55 0
-59 -55 0
-59 -50 60 0
-59 -53 61 0
60 54 0
-60 -54 0
-60 -51 59 0
-60 -52 61 0
61 58 0
-61 -58 0
-61 -56 59 0
-61 -57 60 0
-1 0
-9 50 0
-65 53 0
-65 57 0
-53 -57 65 0
-66 55 0
-66 60 0
-55 -60 66 0
-9 -65 0
-9 -66 0
-50 9 65 66 0
-17 53 0
-67 50 0
-67 52 0
-50 -52 67 0
-68 55 0
-68 61 0
-55 -61 68 0
-17 -67 0
-17 -68 0
-53 17 67 68 0
-25 55 0
-69 50 0
-69 54 0
-50 -54 69 0
-70 53 0
-70 58 0
-53 -58 70 0
-25 -69 0
-25 -70 0
-55 25 69 70 0
-3 51 0
-71 52 0
-71 56 0
-52 -56 71 0
-72 54 0
-72 59 0
-54 -59 72 0
-3 -71 0
-3 -72 0
-51 3 71 72 0
-11 0
-19 52 0
-73 51 0
-73 53 0
-51 -53 73 0
-74 54 0
-74 61 0
-54 -61 74 0
-19 -73 0
-19 -74 0
-52 19 73 74 0
-27 54 0
-75 51 0
-75 55 0
-51 -55 75 0
-76 52 0
-76 58 0
-52 -58 76 0
-27 -75 0
-27 -76 0
-54 27 75 76 0
-5 56 0
-77 57 0
-77 51 0
-57 -51 77 0
-78 58 0
-78 59 0
-58 -59 78 0
-5 -77 0
-5 -78 0
-56 5 77 78 0
-13 57 0
-79 56 0
-79 50 0
-56 -50 79 0
-80 58 0
-80 60 0
-58 -60 80 0
-13 -79 0
-13 -80 0
-57 13 79 80 0
-21 0
-29 58 0
-81 56 0
-81 55 0
-56 -55 81 0
-82 57 0
-82 54 0
-57 -54 82 0
-29 -81 0
-29 -82 0
-58 29 81 82 0
-7 59 0
-83 60 0
-83 51 0
-60 -51 83 0
-84 61 0
-84 56 0
-61 -56 84 0
-7 -83 0
-7 -84 0
-59 7 83 84 0
-15 60 0
-85 59 0
-85 50 0
-59 -50 85 0
-86 61 0
-86 57 0
-61 -57 86 0
-15 -85 0
-15 -86 0
-60 15 85 86 0
-23 61 0
-87 59 0
-87 53 0
-59 -53 87 0
-88 60 0
-88 52 0
-60 -52 88 0
-23 -87 0
-23 -88 0
-61 23 87 88 0
-31 0
