p cnf 160 545
1 -2 0
3 -4 0
5 -6 0
7 -8 0
9 -10 0
11 -12 0
13 -14 0
15 -16 0
17 -18 0
19 -20 0
21 -22 0
23 -24 0
25 -26 0
27 -28 0
29 -30 0
31 -32 0
33 -34 0
35 -36 0
37 -38 0
39 -40 0
41 -42 0
43 -44 0
45 -46 0
47 -48 0
49 -50 0
2 -51 -1 0
4 -52 -3 0
6 -53 -5 0
8 -54 -7 0
10 -55 -9 0
12 -56 -11 0
14 -57 -13 0
16 -58 -15 0
18 -59 -17 0
20 -60 -19 0
22 -61 -21 0
24 -62 -23 0
26 -63 -25 0
28 -64 -27 0
30 -65 -29 0
32 -66 -31 0
34 -67 -33 0
36 -68 -35 0
38 -69 -37 0
40 -70 -39 0
42 -71 -41 0
44 -72 -43 0
46 -73 -45 0
48 -74 -47 0
50 -75 -49 0
51 0
56 52 0
-56 -52 0
-56 -62 61 0
-56 -67 66 0
-56 -72 71 0
61 53 0
-61 -53 0
-61 -58 56 0
-61 -68 66 0
-61 -73 71 0
66 54 0
-66 -54 0
-66 -59 56 0
-66 -64 61 0
-66 -74 71 0
71 55 0
-71 -55 0
-71 -60 56 0
-71 -65 61 0
-71 -70 66 0
57 0
52 56 0
-52 -56 0
-52 -61 62 0
-52 -66 67 0
-52 -71 72 0
62 58 0
-62 -58 0
-62 -53 52 0
-62 -68 67 0
-62 -73 72 0
67 59 0
-67 -59 0
-67 -54 52 0
-67 -64 62 0
-67 -74 72 0
72 60 0
-72 -60 0
-72 -55 52 0
-72 -65 62 0
-72 -70 67 0
63 0
53 61 0
-53 -61 0
-53 -56 58 0
-53 -66 68 0
-53 -71 73 0
58 62 0
-58 -62 0
-58 -52 53 0
-58 -67 68 0
-58 -72 73 0
68 64 0
-68 -64 0
-68 -54 53 0
-68 -59 58 0
-68 -74 73 0
73 65 0
-73 -65 0
-73 -55 53 0
-73 -60 58 0
-73 -70 68 0
69 0
54 66 0
-54 -66 0
-54 -56 59 0
-54 -61 64 0
-54 -71 74 0
59 67 0
-59 -67 0
-59 -52 54 0
-59 -62 64 0
-59 -72 74 0
64 68 0
-64 -68 0
-64 -53 54 0
-64 -58 59 0
-64 -73 74 0
74 70 0
-74 -70 0
-74 -55 54 0
-74 -60 59 0
-74 -65 64 0
75 0
55 71 0
-55 -71 0
-55 -56 60 0
-55 -61 65 0
-55 -66 70 0
60 72 0
-60 -72 0
-60 -52 55 0
-60 -62 65 0
-60 -67 70 0
65 73 0
-65 -73 0
-65 -53 55 0
-65 -58 60 0
-65 -68 70 0
70 74 0
-70 -74 0
-70 -54 55 0
-70 -59 60 0
-70 -64 65 0
76 0
77 78 0
-77 -78 0
-77 -79 80 0
-77 -81 82 0
-77 -83 84 0
80 85 0
-80 -85 0
-80 -86 77 0
-80 -87 82 0
-80 -88 84 0
82 89 0
-82 -89 0
-82 -90 77 0
-82 -91 80 0
-82 -92 84 0
84 93 0
-84 -93 0
-84 -94 77 0
-84 -95 80 0
-84 -96 82 0
97 0
78 77 0
-78 -77 0
-78 -80 79 0
-78 -82 81 0
-78 -84 83 0
79 86 0
-79 -86 0
-79 -85 78 0
-79 -87 81 0
-79 -88 83 0
81 90 0
-81 -90 0
-81 -89 78 0
-81 -91 79 0
-81 -92 83 0
83 94 0
-83 -94 0
-83 -93 78 0
-83 -95 79 0
-83 -96 81 0
98 0
85 80 0
-85 -80 0
-85 -77 86 0
-85 -82 87 0
-85 -84 88 0
86 79 0
-86 -79 0
-86 -78 85 0
-86 -81 87 0
-86 -83 88 0
87 91 0
-87 -91 0
-87 -89 85 0
-87 -90 86 0
-87 -92 88 0
88 95 0
-88 -95 0
-88 -93 85 0
-88 -94 86 0
-88 -96 87 0
99 0
89 82 0
-89 -82 0
-89 -77 90 0
-89 -80 91 0
-89 -84 92 0
90 81 0
-90 -81 0
-90 -78 89 0
-90 -79 91 0
-90 -83 92 0
91 87 0
-91 -87 0
-91 -85 89 0
-91 -86 90 0
-91 -88 92 0
92 96 0
-92 -96 0
-92 -93 89 0
-92 -94 90 0
-92 -95 91 0
100 0
93 84 0
-93 -84 0
-93 -77 94 0
-93 -80 95 0
-93 -82 96 0
94 83 0
-94 -83 0
-94 -78 93 0
-94 -79 95 0
-94 -81 96 0
95 88 0
-95 -88 0
-95 -85 93 0
-95 -86 94 0
-95 -87 96 0
96 92 0
-96 -92 0
-96 -89 93 0
-96 -90 94 0
-96 -91 95 0
-1 0
-11 77 0
-101 80 0
-101 86 0
-80 -86 101 0
-102 82 0
-102 90 0
-82 -90 102 0
-103 84 0
-103 94 0
-84 -94 103 0
-11 -101 0
-11 -102 0
-11 -103 0
-77 11 101 102 103 0
-21 80 0
-104 77 0
-104 79 0
-77 -79 104 0
-105 82 0
-105 91 0
-82 -91 105 0
-106 84 0
-106 95 0
-84 -95 106 0
-21 -104 0
-21 -105 0
-21 -106 0
-80 21 104 105 106 0
-31 82 0
-107 77 0
-107 81 0
-77 -81 107 0
-108 80 0
-108 87 0
-80 -87 108 0
-109 84 0
-109 96 0
-84 -96 109 0
-31 -107 0
-31 -108 0
-31 -109 0
-82 31 107 108 109 0
-41 84 0
-110 77 0
-110 83 0
-77 -83 110 0
-111 80 0
-111 88 0
-80 -88 111 0
-112 82 0
-112 92 0
-82 -92 112 0
-41 -110 0
-41 -111 0
-41 -112 0
-84 41 110 111 112 0
-3 78 0
-113 79 0
-113 85 0
-79 -85 113 0
-114 81 0
-114 89 0
-81 -89 114 0
-115 83 0
-115 93 0
-83 -93 115 0
-3 -113 0
-3 -114 0
-3 -115 0
-78 3 113 114 115 0
-13 0
-23 79 0
-116 78 0
-116 80 0
-78 -80 116 0
-117 81 0
-117 91 0
-81 -91 117 0
-118 83 0
-118 95 0
-83 -95 118 0
-23 -116 0
-23 -117 0
-23 -118 0
-79 23 116 117 118 0
-33 81 0
-119 78 0
-119 82 0
-78 -82 119 0
-120 79 0
-120 87 0
-79 -87 120 0
-121 83 0
-121 96 0
-83 -96 121 0
-33 -119 0
-33 -120 0
-33 -121 0
-81 33 119 120 121 0
-43 83 0
-122 78 0
-122 84 0
-78 -84 122 0
-123 79 0
-123 88 0
-79 -88 123 0
-124 81 0
-124 92 0
-81 -92 124 0
-43 -122 0
-43 -123 0
-43 -124 0
-83 43 122 123 124 0
-5 85 0
-125 86 0
-125 78 0
-86 -78 125 0
-126 87 0
-126 89 0
-87 -89 126 0
-127 88 0
-127 93 0
-88 -93 127 0
-5 -125 0
-5 -126 0
-5 -127 0
-85 5 125 126 127 0
-15 86 0
-128 85 0
-128 77 0
-85 -77 128 0
-129 87 0
-129 90 0
-87 -90 129 0
-130 88 0
-130 94 0
-88 -94 130 0
-15 -128 0
-15 -129 0
-15 -130 0
-86 15 128 129 130 0
-25 0
-35 87 0
-131 85 0
-131 82 0
-85 -82 131 0
-132 86 0
-132 81 0
-86 -81 132 0
-133 88 0
-133 96 0
-88 -96 133 0
-35 -131 0
-35 -132 0
-35 -133 0
-87 35 131 132 133 0
-45 88 0
-134 85 0
-134 84 0
-85 -84 134 0
-135 86 0
-135 83 0
-86 -83 135 0
-136 87 0
-136 92 0
-87 -92 136 0
-45 -134 0
-45 -135 0
-45 -136 0
-88 45 134 135 136 0
-7 89 0
-137 90 0
-137 78 0
-90 -78 137 0
-138 91 0
-138 85 0
-91 -85 138 0
-139 92 0
-139 93 0
-92 -93 139 0
-7 -137 0
-7 -138 0
-7 -139 0
-89 7 137 138 139 0
-17 90 0
-140 89 0
-140 77 0
-89 -77 140 0
-141 91 0
-141 86 0
-91 -86 141 0
-142 92 0
-142 94 0
-92 -94 142 0
-17 -140 0
-17 -141 0
-17 -142 0
-90 17 140 141 142 0
-27 91 0
-143 89 0
-143 80 0
-89 -80 143 0
-144 90 0
-144 79 0
-90 -79 144 0
-145 92 0
-145 95 0
-92 -95 145 0
-27 -143 0
-27 -144 0
-27 -145 0
-91 27 143 144 145 0
-37 0
-47 92 0
-146 89 0
-146 84 0
-89 -84 146 0
-147 90 0
-147 83 0
-90 -83 147 0
-148 91 0
-148 88 0
-91 -88 148 0
-47 -146 0
-47 -147 0
-47 -148 0
-92 47 146 147 148 0
-9 93 0
-149 94 0
-149 78 0
-94 -78 149 0
-150 95 0
-150 85 0
-95 -85 150 0
-151 96 0
-151 89 0
-96 -89 151 0
-9 -149 0
-9 -150 0
-9 -151 0
-93 9 149 150 151 0
-19 94 0
-152 93 0
-152 77 0
-93 -77 152 0
-153 95 0
-153 86 0
-95 -86 153 0
-154 96 0
-154 90 0
-96 -90 154 0
-19 -152 0
-19 -153 0
-19 -154 0
-94 19 152 153 154 0
-29 95 0
-155 93 0
-155 80 0
-93 -80 155 0
-156 94 0
-156 79 0
-94 -79 156 0
-157 96 0
-157 91 0
-96 -91 157 0
-29 -155 0
-29 -156 0
-29 -157 0
-95 29 155 156 157 0
-39 96 0
-158 93 0
-158 82 0
-93 -82 158 0
-159 94 0
-159 81 0
-94 -81 159 0
-160 95 0
-160 87 0
-95 -87 160 0
-39 -158 0
-39 -159 0
-39 -160 0
-96 39 158 159 160 0
-49 0
