p cnf 264 990
1 -2 0
3 -4 0
5 -6 0
7 -8 0
9 -10 0
11 -12 0
13 -14 0
15 -16 0
17 -18 0
19 -20 0
21 -22 0
23 -24 0
25 -26 0
27 -28 0
29 -30 0
31 -32 0
33 -34 0
35 -36 0
37 -38 0
39 -40 0
41 -42 0
43 -44 0
45 -46 0
47 -48 0
49 -50 0
51 -52 0
53 -54 0
55 -56 0
57 -58 0
59 -60 0
61 -62 0
63 -64 0
65 -66 0
67 -68 0
69 -70 0
71 -72 0
2 -73 -1 0
4 -74 -3 0
6 -75 -5 0
8 -76 -7 0
10 -77 -9 0
12 -78 -11 0
14 -79 -13 0
16 -80 -15 0
18 -81 -17 0
20 -82 -19 0
22 -83 -21 0
24 -84 -23 0
26 -85 -25 0
28 -86 -27 0
30 -87 -29 0
32 -88 -31 0
34 -89 -33 0
36 -90 -35 0
38 -91 -37 0
40 -92 -39 0
42 -93 -41 0
44 -94 -43 0
46 -95 -45 0
48 -96 -47 0
50 -97 -49 0
52 -98 -51 0
54 -99 -53 0
56 -100 -55 0
58 -101 -57 0
60 -102 -59 0
62 -103 -61 0
64 -104 -63 0
66 -105 -65 0
68 -106 -67 0
70 -107 -69 0
72 -108 -71 0
73 0
79 74 0
-79 -74 0
-79 -86 85 0
-79 -92 91 0
-79 -98 97 0
-79 -104 103 0
85 75 0
-85 -75 0
-85 -81 79 0
-85 -93 91 0
-85 -99 97 0
-85 -105 103 0
91 76 0
-91 -76 0
-91 -82 79 0
-91 -88 85 0
-91 -100 97 0
-91 -106 103 0
97 77 0
-97 -77 0
-97 -83 79 0
-97 -89 85 0
-97 -95 91 0
-97 -107 103 0
103 78 0
-103 -78 0
-103 -84 79 0
-103 -90 85 0
-103 -96 91 0
-103 -102 97 0
80 0
74 79 0
-74 -79 0
-74 -85 86 0
-74 -91 92 0
-74 -97 98 0
-74 -103 104 0
86 81 0
-86 -81 0
-86 -75 74 0
-86 -93 92 0
-86 -99 98 0
-86 -105 104 0
92 82 0
-92 -82 0
-92 -76 74 0
-92 -88 86 0
-92 -100 98 0
-92 -106 104 0
98 83 0
-98 -83 0
-98 -77 74 0
-98 -89 86 0
-98 -95 92 0
-98 -107 104 0
104 84 0
-104 -84 0
-104 -78 74 0
-104 -90 86 0
-104 -96 92 0
-104 -102 98 0
87 0
75 85 0
-75 -85 0
-75 -79 81 0
-75 -91 93 0
-75 -97 99 0
-75 -103 105 0
81 86 0
-81 -86 0
-81 -74 75 0
-81 -92 93 0
-81 -98 99 0
-81 -104 105 0
93 88 0
-93 -88 0
-93 -76 75 0
-93 -82 81 0
-93 -100 99 0
-93 -106 105 0
99 89 0
-99 -89 0
-99 -77 75 0
-99 -83 81 0
-99 -95 93 0
-99 -107 105 0
105 90 0
-105 -90 0
-105 -78 75 0
-105 -84 81 0
-105 -96 93 0
-105 -102 99 0
94 0
76 91 0
-76 -91 0
-76 -79 82 0
-76 -85 88 0
-76 -97 100 0
-76 -103 106 0
82 92 0
-82 -92 0
-82 -74 76 0
-82 -86 88 0
-82 -98 100 0
-82 -104 106 0
88 93 0
-88 -93 0
-88 -75 76 0
-88 -81 82 0
-88 -99 100 0
-88 -105 106 0
100 95 0
-100 -95 0
-100 -77 76 0
-100 -83 82 0
-100 -89 88 0
-100 -107 106 0
106 96 0
-106 -96 0
-106 -78 76 0
-106 -84 82 0
-106 -90 88 0
-106 -102 100 0
101 0
77 97 0
-77 -97 0
-77 -79 83 0
-77 -85 89 0
-77 -91 95 0
-77 -103 107 0
83 98 0
-83 -98 0
-83 -74 77 0
-83 -86 89 0
-83 -92 95 0
-83 -104 107 0
89 99 0
-89 -99 0
-89 -75 77 0
-89 -81 83 0
-89 -93 95 0
-89 -105 107 0
95 100 0
-95 -100 0
-95 -76 77 0
-95 -82 83 0
-95 -88 89 0
-95 -106 107 0
107 102 0
-107 -102 0
-107 -78 77 0
-107 -84 83 0
-107 -90 89 0
-107 -96 95 0
108 0
78 103 0
-78 -103 0
-78 -79 84 0
-78 -85 90 0
-78 -91 96 0
-78 -97 102 0
84 104 0
-84 -104 0
-84 -74 78 0
-84 -86 90 0
-84 -92 96 0
-84 -98 102 0
90 105 0
-90 -105 0
-90 -75 78 0
-90 -81 84 0
-90 -93 96 0
-90 -99 102 0
96 106 0
-96 -106 0
-96 -76 78 0
-96 -82 84 0
-96 -88 90 0
-96 -100 102 0
102 107 0
-102 -107 0
-102 -77 78 0
-102 -83 84 0
-102 -89 90 0
-102 -95 96 0
109 0
110 111 0
-110 -111 0
-110 -112 113 0
-110 -114 115 0
-110 -116 117 0
-110 -118 119 0
113 120 0
-113 -120 0
-113 -121 110 0
-113 -122 115 0
-113 -123 117 0
-113 -124 119 0
115 125 0
-115 -125 0
-115 -126 110 0
-115 -127 113 0
-115 -128 117 0
-115 -129 119 0
117 130 0
-117 -130 0
-117 -131 110 0
-117 -132 113 0
-117 -133 115 0
-117 -134 119 0
119 135 0
-119 -135 0
-119 -136 110 0
-119 -137 113 0
-119 -138 115 0
-119 -139 117 0
140 0
111 110 0
-111 -110 0
-111 -113 112 0
-111 -115 114 0
-111 -117 116 0
-111 -119 118 0
112 121 0
-112 -121 0
-112 -120 111 0
-112 -122 114 0
-112 -123 116 0
-112 -124 118 0
114 126 0
-114 -126 0
-114 -125 111 0
-114 -127 112 0
-114 -128 116 0
-114 -129 118 0
116 131 0
-116 -131 0
-116 -130 111 0
-116 -132 112 0
-116 -133 114 0
-116 -134 118 0
118 136 0
-118 -136 0
-118 -135 111 0
-118 -137 112 0
-118 -138 114 0
-118 -139 116 0
141 0
120 113 0
-120 -113 0
-120 -110 121 0
-120 -115 122 0
-120 -117 123 0
-120 -119 124 0
121 112 0
-121 -112 0
-121 -111 120 0
-121 -114 122 0
-121 -116 123 0
-121 -118 124 0
122 127 0
-122 -127 0
-122 -125 120 0
-122 -126 121 0
-122 -128 123 0
-122 -129 124 0
123 132 0
-123 -132 0
-123 -130 120 0
-123 -131 121 0
-123 -133 122 0
-123 -134 124 0
124 137 0
-124 -137 0
-124 -135 120 0
-124 -136 121 0
-124 -138 122 0
-124 -139 123 0
142 0
125 115 0
-125 -115 0
-125 -110 126 0
-125 -113 127 0
-125 -117 128 0
-125 -119 129 0
126 114 0
-126 -114 0
-126 -111 125 0
-126 -112 127 0
-126 -116 128 0
-126 -118 129 0
127 122 0
-127 -122 0
-127 -120 125 0
-127 -121 126 0
-127 -123 128 0
-127 -124 129 0
128 133 0
-128 -133 0
-128 -130 125 0
-128 -131 126 0
-128 -132 127 0
-128 -134 129 0
129 138 0
-129 -138 0
-129 -135 125 0
-129 -136 126 0
-129 -137 127 0
-129 -139 128 0
143 0
130 117 0
-130 -117 0
-130 -110 131 0
-130 -113 132 0
-130 -115 133 0
-130 -119 134 0
131 116 0
-131 -116 0
-131 -111 130 0
-131 -112 132 0
-131 -114 133 0
-131 -118 134 0
132 123 0
-132 -123 0
-132 -120 130 0
-132 -121 131 0
-132 -122 133 0
-132 -124 134 0
133 128 0
-133 -128 0
-133 -125 130 0
-133 -126 131 0
-133 -127 132 0
-133 -129 134 0
134 139 0
-134 -139 0
-134 -135 130 0
-134 -136 131 0
-134 -137 132 0
-134 -138 133 0
144 0
135 119 0
-135 -119 0
-135 -110 136 0
-135 -113 137 0
-135 -115 138 0
-135 -117 139 0
136 118 0
-136 -118 0
-136 -111 135 0
-136 -112 137 0
-136 -114 138 0
-136 -116 139 0
137 124 0
-137 -124 0
-137 -120 135 0
-137 -121 136 0
-137 -122 138 0
-137 -123 139 0
138 129 0
-138 -129 0
-138 -125 135 0
-138 -126 136 0
-138 -127 137 0
-138 -128 139 0
139 134 0
-139 -134 0
-139 -130 135 0
-139 -131 136 0
-139 -132 137 0
-139 -133 138 0
-1 0
-13 110 0
-145 113 0
-145 121 0
-113 -121 145 0
-146 115 0
-146 126 0
-115 -126 146 0
-147 117 0
-147 131 0
-117 -131 147 0
-148 119 0
-148 136 0
-119 -136 148 0
-13 -145 0
-13 -146 0
-13 -147 0
-13 -148 0
-110 13 145 146 147 148 0
-25 113 0
-149 110 0
-149 112 0
-110 -112 149 0
-150 115 0
-150 127 0
-115 -127 150 0
-151 117 0
-151 132 0
-117 -132 151 0
-152 119 0
-152 137 0
-119 -137 152 0
-25 -149 0
-25 -150 0
-25 -151 0
-25 -152 0
-113 25 149 150 151 152 0
-37 115 0
-153 110 0
-153 114 0
-110 -114 153 0
-154 113 0
-154 122 0
-113 -122 154 0
-155 117 0
-155 133 0
-117 -133 155 0
-156 119 0
-156 138 0
-119 -138 156 0
-37 -153 0
-37 -154 0
-37 -155 0
-37 -156 0
-115 37 153 154 155 156 0
-49 117 0
-157 110 0
-157 116 0
-110 -116 157 0
-158 113 0
-158 123 0
-113 -123 158 0
-159 115 0
-159 128 0
-115 -128 159 0
-160 119 0
-160 139 0
-119 -139 160 0
-49 -157 0
-49 -158 0
-49 -159 0
-49 -160 0
-117 49 157 158 159 160 0
-61 119 0
-161 110 0
-161 118 0
-110 -118 161 0
-162 113 0
-162 124 0
-113 -124 162 0
-163 115 0
-163 129 0
-115 -129 163 0
-164 117 0
-164 134 0
-117 -134 164 0
-61 -161 0
-61 -162 0
-61 -163 0
-61 -164 0
-119 61 161 162 163 164 0
-3 111 0
-165 112 0
-165 120 0
-112 -120 165 0
-166 114 0
-166 125 0
-114 -125 166 0
-167 116 0
-167 130 0
-116 -130 167 0
-168 118 0
-168 135 0
-118 -135 168 0
-3 -165 0
-3 -166 0
-3 -167 0
-3 -168 0
-111 3 165 166 167 168 0
-15 0
-27 112 0
-169 111 0
-169 113 0
-111 -113 169 0
-170 114 0
-170 127 0
-114 -127 170 0
-171 116 0
-171 132 0
-116 -132 171 0
-172 118 0
-172 137 0
-118 -137 172 0
-27 -169 0
-27 -170 0
-27 -171 0
-27 -172 0
-112 27 169 170 171 172 0
-39 114 0
-173 111 0
-173 115 0
-111 -115 173 0
-174 112 0
-174 122 0
-112 -122 174 0
-175 116 0
-175 133 0
-116 -133 175 0
-176 118 0
-176 138 0
-118 -138 176 0
-39 -173 0
-39 -174 0
-39 -175 0
-39 -176 0
-114 39 173 174 175 176 0
-51 116 0
-177 111 0
-177 117 0
-111 -117 177 0
-178 112 0
-178 123 0
-112 -123 178 0
-179 114 0
-179 128 0
-114 -128 179 0
-180 118 0
-180 139 0
-118 -139 180 0
-51 -177 0
-51 -178 0
-51 -179 0
-51 -180 0
-116 51 177 178 179 180 0
-63 118 0
-181 111 0
-181 119 0
-111 -119 181 0
-182 112 0
-182 124 0
-112 -124 182 0
-183 114 0
-183 129 0
-114 -129 183 0
-184 116 0
-184 134 0
-116 -134 184 0
-63 -181 0
-63 -182 0
-63 -183 0
-63 -184 0
-118 63 181 182 183 184 0
-5 120 0
-185 121 0
-185 111 0
-121 -111 185 0
-186 122 0
-186 125 0
-122 -125 186 0
-187 123 0
-187 130 0
-123 -130 187 0
-188 124 0
-188 135 0
-124 -135 188 0
-5 -185 0
-5 -186 0
-5 -187 0
-5 -188 0
-120 5 185 186 187 188 0
-17 121 0
-189 120 0
-189 110 0
-120 -110 189 0
-190 122 0
-190 126 0
-122 -126 190 0
-191 123 0
-191 131 0
-123 -131 191 0
-192 124 0
-192 136 0
-124 -136 192 0
-17 -189 0
-17 -190 0
-17 -191 0
-17 -192 0
-121 17 189 190 191 192 0
-29 0
-41 122 0
-193 120 0
-193 115 0
-120 -115 193 0
-194 121 0
-194 114 0
-121 -114 194 0
-195 123 0
-195 133 0
-123 -133 195 0
-196 124 0
-196 138 0
-124 -138 196 0
-41 -193 0
-41 -194 0
-41 -195 0
-41 -196 0
-122 41 193 194 195 196 0
-53 123 0
-197 120 0
-197 117 0
-120 -117 197 0
-198 121 0
-198 116 0
-121 -116 198 0
-199 122 0
-199 128 0
-122 -128 199 0
-200 124 0
-200 139 0
-124 -139 200 0
-53 -197 0
-53 -198 0
-53 -199 0
-53 -200 0
-123 53 197 198 199 200 0
-65 124 0
-201 120 0
-201 119 0
-120 -119 201 0
-202 121 0
-202 118 0
-121 -118 202 0
-203 122 0
-203 129 0
-122 -129 203 0
-204 123 0
-204 134 0
-123 -134 204 0
-65 -201 0
-65 -202 0
-65 -203 0
-65 -204 0
-124 65 201 202 203 204 0
-7 125 0
-205 126 0
-205 111 0
-126 -111 205 0
-206 127 0
-206 120 0
-127 -120 206 0
-207 128 0
-207 130 0
-128 -130 207 0
-208 129 0
-208 135 0
-129 -135 208 0
-7 -205 0
-7 -206 0
-7 -207 0
-7 -208 0
-125 7 205 206 207 208 0
-19 126 0
-209 125 0
-209 110 0
-125 -110 209 0
-210 127 0
-210 121 0
-127 -121 210 0
-211 128 0
-211 131 0
-128 -131 211 0
-212 129 0
-212 136 0
-129 -136 212 0
-19 -209 0
-19 -210 0
-19 -211 0
-19 -212 0
-126 19 209 210 211 212 0
-31 127 0
-213 125 0
-213 113 0
-125 -113 213 0
-214 126 0
-214 112 0
-126 -112 214 0
-215 128 0
-215 132 0
-128 -132 215 0
-216 129 0
-216 137 0
-129 -137 216 0
-31 -213 0
-31 -214 0
-31 -215 0
-31 -216 0
-127 31 213 214 215 216 0
-43 0
-55 128 0
-217 125 0
-217 117 0
-125 -117 217 0
-218 126 0
-218 116 0
-126 -116 218 0
-219 127 0
-219 123 0
-127 -123 219 0
-220 129 0
-220 139 0
-129 -139 220 0
-55 -217 0
-55 -218 0
-55 -219 0
-55 -220 0
-128 55 217 218 219 220 0
-67 129 0
-221 125 0
-221 119 0
-125 -119 221 0
-222 126 0
-222 118 0
-126 -118 222 0
-223 127 0
-223 124 0
-127 -124 223 0
-224 128 0
-224 134 0
-128 -134 224 0
-67 -221 0
-67 -222 0
-67 -223 0
-67 -224 0
-129 67 221 222 223 224 0
-9 130 0
-225 131 0
-225 111 0
-131 -111 225 0
-226 132 0
-226 120 0
-132 -120 226 0
-227 133 0
-227 125 0
-133 -125 227 0
-228 134 0
-228 135 0
-134 -135 228 0
-9 -225 0
-9 -226 0
-9 -227 0
-9 -228 0
-130 9 225 226 227 228 0
-21 131 0
-229 130 0
-229 110 0
-130 -110 229 0
-230 132 0
-230 121 0
-132 -121 230 0
-231 133 0
-231 126 0
-133 -126 231 0
-232 134 0
-232 136 0
-134 -136 232 0
-21 -229 0
-21 -230 0
-21 -231 0
-21 -232 0
-131 21 229 230 231 232 0
-33 132 0
-233 130 0
-233 113 0
-130 -113 233 0
-234 131 0
-234 112 0
-131 -112 234 0
-235 133 0
-235 127 0
-133 -127 235 0
-236 134 0
-236 137 0
-134 -137 236 0
-33 -233 0
-33 -234 0
-33 -235 0
-33 -236 0
-132 33 233 234 235 236 0
-45 133 0
-237 130 0
-237 115 0
-130 -115 237 0
-238 131 0
-238 114 0
-131 -114 238 0
-239 132 0
-239 122 0
-132 -122 239 0
-240 134 0
-240 138 0
-134 -138 240 0
-45 -237 0
-45 -238 0
-45 -239 0
-45 -240 0
-133 45 237 238 239 240 0
-57 0
-69 134 0
-241 130 0
-241 119 0
-130 -119 241 0
-242 131 0
-242 118 0
-131 -118 242 0
-243 132 0
-243 124 0
-132 -124 243 0
-244 133 0
-244 129 0
-133 -129 244 0
-69 -241 0
-69 -242 0
-69 -243 0
-69 -244 0
-134 69 241 242 243 244 0
-11 135 0
-245 136 0
-245 111 0
-136 -111 245 0
-246 137 0
-246 120 0
-137 -120 246 0
-247 138 0
-247 125 0
-138 -125 247 0
-248 139 0
-248 130 0
-139 -130 248 0
-11 -245 0
-11 -246 0
-11 -247 0
-11 -248 0
-135 11 245 246 247 248 0
-23 136 0
-249 135 0
-249 110 0
-135 -110 249 0
-250 137 0
-250 121 0
-137 -121 250 0
-251 138 0
-251 126 0
-138 -126 251 0
-252 139 0
-252 131 0
-139 -131 252 0
-23 -249 0
-23 -250 0
-23 -251 0
-23 -252 0
-136 23 249 250 251 252 0
-35 137 0
-253 135 0
-253 113 0
-135 -113 253 0
-254 136 0
-254 112 0
-136 -112 254 0
-255 138 0
-255 127 0
-138 -127 255 0
-256 139 0
-256 132 0
-139 -132 256 0
-35 -253 0
-35 -254 0
-35 -255 0
-35 -256 0
-137 35 253 254 255 256 0
-47 138 0
-257 135 0
-257 115 0
-135 -115 257 0
-258 136 0
-258 114 0
-136 -114 258 0
-259 137 0
-259 122 0
-137 -122 259 0
-260 139 0
-260 133 0
-139 -133 260 0
-47 -257 0
-47 -258 0
-47 -259 0
-47 -260 0
-138 47 257 258 259 260 0
-59 139 0
-261 135 0
-261 117 0
-135 -117 261 0
-262 136 0
-262 116 0
-136 -116 262 0
-263 137 0
-263 123 0
-137 -123 263 0
-264 138 0
-264 128 0
-138 -128 264 0
-59 -261 0
-59 -262 0
-59 -263 0
-59 -264 0
-139 59 261 262 263 264 0
-71 0
