p cnf 406 1631
1 -2 0
3 -4 0
5 -6 0
7 -8 0
9 -10 0
11 -12 0
13 -14 0
15 -16 0
17 -18 0
19 -20 0
21 -22 0
23 -24 0
25 -26 0
27 -28 0
29 -30 0
31 -32 0
33 -34 0
35 -36 0
37 -38 0
39 -40 0
41 -42 0
43 -44 0
45 -46 0
47 -48 0
49 -50 0
51 -52 0
53 -54 0
55 -56 0
57 -58 0
59 -60 0
61 -62 0
63 -64 0
65 -66 0
67 -68 0
69 -70 0
71 -72 0
73 -74 0
75 -76 0
77 -78 0
79 -80 0
81 -82 0
83 -84 0
85 -86 0
87 -88 0
89 -90 0
91 -92 0
93 -94 0
95 -96 0
97 -98 0
2 -99 -1 0
4 -100 -3 0
6 -101 -5 0
8 -102 -7 0
10 -103 -9 0
12 -104 -11 0
14 -105 -13 0
16 -106 -15 0
18 -107 -17 0
20 -108 -19 0
22 -109 -21 0
24 -110 -23 0
26 -111 -25 0
28 -112 -27 0
30 -113 -29 0
32 -114 -31 0
34 -115 -33 0
36 -116 -35 0
38 -117 -37 0
40 -118 -39 0
42 -119 -41 0
44 -120 -43 0
46 -121 -45 0
48 -122 -47 0
50 -123 -49 0
52 -124 -51 0
54 -125 -53 0
56 -126 -55 0
58 -127 -57 0
60 -128 -59 0
62 -129 -61 0
64 -130 -63 0
66 -131 -65 0
68 -132 -67 0
70 -133 -69 0
72 -134 -71 0
74 -135 -73 0
76 -136 -75 0
78 -137 -77 0
80 -138 -79 0
82 -139 -81 0
84 -140 -83 0
86 -141 -85 0
88 -142 -87 0
90 -143 -89 0
92 -144 -91 0
94 -145 -93 0
96 -146 -95 0
98 -147 -97 0
99 0
106 100 0
-106 -100 0
-106 -114 113 0
-106 -121 120 0
-106 -128 127 0
-106 -135 134 0
-106 -142 141 0
113 101 0
-113 -101 0
-113 -108 106 0
-113 -122 120 0
-113 -129 127 0
-113 -136 134 0
-113 -143 141 0
120 102 0
-120 -102 0
-120 -109 106 0
-120 -116 113 0
-120 -130 127 0
-120 -137 134 0
-120 -144 141 0
127 103 0
-127 -103 0
-127 -110 106 0
-127 -117 113 0
-127 -124 120 0
-127 -138 134 0
-127 -145 141 0
134 104 0
-134 -104 0
-134 -111 106 0
-134 -118 113 0
-134 -125 120 0
-134 -132 127 0
-134 -146 141 0
141 105 0
-141 -105 0
-141 -112 106 0
-141 -119 113 0
-141 -126 120 0
-141 -133 127 0
-141 -140 134 0
107 0
100 106 0
-100 -106 0
-100 -113 114 0
-100 -120 121 0
-100 -127 128 0
-100 -134 135 0
-100 -141 142 0
114 108 0
-114 -108 0
-114 -101 100 0
-114 -122 121 0
-114 -129 128 0
-114 -136 135 0
-114 -143 142 0
121 109 0
-121 -109 0
-121 -102 100 0
-121 -116 114 0
-121 -130 128 0
-121 -137 135 0
-121 -144 142 0
128 110 0
-128 -110 0
-128 -103 100 0
-128 -117 114 0
-128 -124 121 0
-128 -138 135 0
-128 -145 142 0
135 111 0
-135 -111 0
-135 -104 100 0
-135 -118 114 0
-135 -125 121 0
-135 -132 128 0
-135 -146 142 0
142 112 0
-142 -112 0
-142 -105 100 0
-142 -119 114 0
-142 -126 121 0
-142 -133 128 0
-142 -140 135 0
115 0
101 113 0
-101 -113 0
-101 -106 108 0
-101 -120 122 0
-101 -127 129 0
-101 -134 136 0
-101 -141 143 0
108 114 0
-108 -114 0
-108 -100 101 0
-108 -121 122 0
-108 -128 129 0
-108 -135 136 0
-108 -142 143 0
122 116 0
-122 -116 0
-122 -102 101 0
-122 -109 108 0
-122 -130 129 0
-122 -137 136 0
-122 -144 143 0
129 117 0
-129 -117 0
-129 -103 101 0
-129 -110 108 0
-129 -124 122 0
-129 -138 136 0
-129 -145 143 0
136 118 0
-136 -118 0
-136 -104 101 0
-136 -111 108 0
-136 -125 122 0
-136 -132 129 0
-136 -146 143 0
143 119 0
-143 -119 0
-143 -105 101 0
-143 -112 108 0
-143 -126 122 0
-143 -133 129 0
-143 -140 136 0
123 0
102 120 0
-102 -120 0
-102 -106 109 0
-102 -113 116 0
-102 -127 130 0
-102 -134 137 0
-102 -141 144 0
109 121 0
-109 -121 0
-109 -100 102 0
-109 -114 116 0
-109 -128 130 0
-109 -135 137 0
-109 -142 144 0
116 122 0
-116 -122 0
-116 -101 102 0
-116 -108 109 0
-116 -129 130 0
-116 -136 137 0
-116 -143 144 0
130 124 0
-130 -124 0
-130 -103 102 0
-130 -110 109 0
-130 -117 116 0
-130 -138 137 0
-130 -145 144 0
137 125 0
-137 -125 0
-137 -104 102 0
-137 -111 109 0
-137 -118 116 0
-137 -132 130 0
-137 -146 144 0
144 126 0
-144 -126 0
-144 -105 102 0
-144 -112 109 0
-144 -119 116 0
-144 -133 130 0
-144 -140 137 0
131 0
103 127 0
-103 -127 0
-103 -106 110 0
-103 -113 117 0
-103 -120 124 0
-103 -134 138 0
-103 -141 145 0
110 128 0
-110 -128 0
-110 -100 103 0
-110 -114 117 0
-110 -121 124 0
-110 -135 138 0
-110 -142 145 0
117 129 0
-117 -129 0
-117 -101 103 0
-117 -108 110 0
-117 -122 124 0
-117 -136 138 0
-117 -143 145 0
124 130 0
-124 -130 0
-124 -102 103 0
-124 -109 110 0
-124 -116 117 0
-124 -137 138 0
-124 -144 145 0
138 132 0
-138 -132 0
-138 -104 103 0
-138 -111 110 0
-138 -118 117 0
-138 -125 124 0
-138 -146 145 0
145 133 0
-145 -133 0
-145 -105 103 0
-145 -112 110 0
-145 -119 117 0
-145 -126 124 0
-145 -140 138 0
139 0
104 134 0
-104 -134 0
-104 -106 111 0
-104 -113 118 0
-104 -120 125 0
-104 -127 132 0
-104 -141 146 0
111 135 0
-111 -135 0
-111 -100 104 0
-111 -114 118 0
-111 -121 125 0
-111 -128 132 0
-111 -142 146 0
118 136 0
-118 -136 0
-118 -101 104 0
-118 -108 111 0
-118 -122 125 0
-118 -129 132 0
-118 -143 146 0
125 137 0
-125 -137 0
-125 -102 104 0
-125 -109 111 0
-125 -116 118 0
-125 -130 132 0
-125 -144 146 0
132 138 0
-132 -138 0
-132 -103 104 0
-132 -110 111 0
-132 -117 118 0
-132 -124 125 0
-132 -145 146 0
146 140 0
-146 -140 0
-146 -105 104 0
-146 -112 111 0
-146 -119 118 0
-146 -126 125 0
-146 -133 132 0
147 0
105 141 0
-105 -141 0
-105 -106 112 0
-105 -113 119 0
-105 -120 126 0
-105 -127 133 0
-105 -134 140 0
112 142 0
-112 -142 0
-112 -100 105 0
-112 -114 119 0
-112 -121 126 0
-112 -128 133 0
-112 -135 140 0
119 143 0
-119 -143 0
-119 -101 105 0
-119 -108 112 0
-119 -122 126 0
-119 -129 133 0
-119 -136 140 0
126 144 0
-126 -144 0
-126 -102 105 0
-126 -109 112 0
-126 -116 119 0
-126 -130 133 0
-126 -137 140 0
133 145 0
-133 -145 0
-133 -103 105 0
-133 -110 112 0
-133 -117 119 0
-133 -124 126 0
-133 -138 140 0
140 146 0
-140 -146 0
-140 -104 105 0
-140 -111 112 0
-140 -118 119 0
-140 -125 126 0
-140 -132 133 0
148 0
149 150 0
-149 -150 0
-149 -151 152 0
-149 -153 154 0
-149 -155 156 0
-149 -157 158 0
-149 -159 160 0
152 161 0
-152 -161 0
-152 -162 149 0
-152 -163 154 0
-152 -164 156 0
-152 -165 158 0
-152 -166 160 0
154 167 0
-154 -167 0
-154 -168 149 0
-154 -169 152 0
-154 -170 156 0
-154 -171 158 0
-154 -172 160 0
156 173 0
-156 -173 0
-156 -174 149 0
-156 -175 152 0
-156 -176 154 0
-156 -177 158 0
-156 -178 160 0
158 179 0
-158 -179 0
-158 -180 149 0
-158 -181 152 0
-158 -182 154 0
-158 -183 156 0
-158 -184 160 0
160 185 0
-160 -185 0
-160 -186 149 0
-160 -187 152 0
-160 -188 154 0
-160 -189 156 0
-160 -190 158 0
191 0
150 149 0
-150 -149 0
-150 -152 151 0
-150 -154 153 0
-150 -156 155 0
-150 -158 157 0
-150 -160 159 0
151 162 0
-151 -162 0
-151 -161 150 0
-151 -163 153 0
-151 -164 155 0
-151 -165 157 0
-151 -166 159 0
153 168 0
-153 -168 0
-153 -167 150 0
-153 -169 151 0
-153 -170 155 0
-153 -171 157 0
-153 -172 159 0
155 174 0
-155 -174 0
-155 -173 150 0
-155 -175 151 0
-155 -176 153 0
-155 -177 157 0
-155 -178 159 0
157 180 0
-157 -180 0
-157 -179 150 0
-157 -181 151 0
-157 -182 153 0
-157 -183 155 0
-157 -184 159 0
159 186 0
-159 -186 0
-159 -185 150 0
-159 -187 151 0
-159 -188 153 0
-159 -189 155 0
-159 -190 157 0
192 0
161 152 0
-161 -152 0
-161 -149 162 0
-161 -154 163 0
-161 -156 164 0
-161 -158 165 0
-161 -160 166 0
162 151 0
-162 -151 0
-162 -150 161 0
-162 -153 163 0
-162 -155 164 0
-162 -157 165 0
-162 -159 166 0
163 169 0
-163 -169 0
-163 -167 161 0
-163 -168 162 0
-163 -170 164 0
-163 -171 165 0
-163 -172 166 0
164 175 0
-164 -175 0
-164 -173 161 0
-164 -174 162 0
-164 -176 163 0
-164 -177 165 0
-164 -178 166 0
165 181 0
-165 -181 0
-165 -179 161 0
-165 -180 162 0
-165 -182 163 0
-165 -183 164 0
-165 -184 166 0
166 187 0
-166 -187 0
-166 -185 161 0
-166 -186 162 0
-166 -188 163 0
-166 -189 164 0
-166 -190 165 0
193 0
167 154 0
-167 -154 0
-167 -149 168 0
-167 -152 169 0
-167 -156 170 0
-167 -158 171 0
-167 -160 172 0
168 153 0
-168 -153 0
-168 -150 167 0
-168 -151 169 0
-168 -155 170 0
-168 -157 171 0
-168 -159 172 0
169 163 0
-169 -163 0
-169 -161 167 0
-169 -162 168 0
-169 -164 170 0
-169 -165 171 0
-169 -166 172 0
170 176 0
-170 -176 0
-170 -173 167 0
-170 -174 168 0
-170 -175 169 0
-170 -177 171 0
-170 -178 172 0
171 182 0
-171 -182 0
-171 -179 167 0
-171 -180 168 0
-171 -181 169 0
-171 -183 170 0
-171 -184 172 0
172 188 0
-172 -188 0
-172 -185 167 0
-172 -186 168 0
-172 -187 169 0
-172 -189 170 0
-172 -190 171 0
194 0
173 156 0
-173 -156 0
-173 -149 174 0
-173 -152 175 0
-173 -154 176 0
-173 -158 177 0
-173 -160 178 0
174 155 0
-174 -155 0
-174 -150 173 0
-174 -151 175 0
-174 -153 176 0
-174 -157 177 0
-174 -159 178 0
175 164 0
-175 -164 0
-175 -161 173 0
-175 -162 174 0
-175 -163 176 0
-175 -165 177 0
-175 -166 178 0
176 170 0
-176 -170 0
-176 -167 173 0
-176 -168 174 0
-176 -169 175 0
-176 -171 177 0
-176 -172 178 0
177 183 0
-177 -183 0
-177 -179 173 0
-177 -180 174 0
-177 -181 175 0
-177 -182 176 0
-177 -184 178 0
178 189 0
-178 -189 0
-178 -185 173 0
-178 -186 174 0
-178 -187 175 0
-178 -188 176 0
-178 -190 177 0
195 0
179 158 0
-179 -158 0
-179 -149 180 0
-179 -152 181 0
-179 -154 182 0
-179 -156 183 0
-179 -160 184 0
180 157 0
-180 -157 0
-180 -150 179 0
-180 -151 181 0
-180 -153 182 0
-180 -155 183 0
-180 -159 184 0
181 165 0
-181 -165 0
-181 -161 179 0
-181 -162 180 0
-181 -163 182 0
-181 -164 183 0
-181 -166 184 0
182 171 0
-182 -171 0
-182 -167 179 0
-182 -168 180 0
-182 -169 181 0
-182 -170 183 0
-182 -172 184 0
183 177 0
-183 -177 0
-183 -173 179 0
-183 -174 180 0
-183 -175 181 0
-183 -176 182 0
-183 -178 184 0
184 190 0
-184 -190 0
-184 -185 179 0
-184 -186 180 0
-184 -187 181 0
-184 -188 182 0
-184 -189 183 0
196 0
185 160 0
-185 -160 0
-185 -149 186 0
-185 -152 187 0
-185 -154 188 0
-185 -156 189 0
-185 -158 190 0
186 159 0
-186 -159 0
-186 -150 185 0
-186 -151 187 0
-186 -153 188 0
-186 -155 189 0
-186 -157 190 0
187 166 0
-187 -166 0
-187 -161 185 0
-187 -162 186 0
-187 -163 188 0
-187 -164 189 0
-187 -165 190 0
188 172 0
-188 -172 0
-188 -167 185 0
-188 -168 186 0
-188 -169 187 0
-188 -170 189 0
-188 -171 190 0
189 178 0
-189 -178 0
-189 -173 185 0
-189 -174 186 0
-189 -175 187 0
-189 -176 188 0
-189 -177 190 0
190 184 0
-190 -184 0
-190 -179 185 0
-190 -180 186 0
-190 -181 187 0
-190 -182 188 0
-190 -183 189 0
-1 0
-15 149 0
-197 152 0
-197 162 0
-152 -162 197 0
-198 154 0
-198 168 0
-154 -168 198 0
-199 156 0
-199 174 0
-156 -174 199 0
-200 158 0
-200 180 0
-158 -180 200 0
-201 160 0
-201 186 0
-160 -186 201 0
-15 -197 0
-15 -198 0
-15 -199 0
-15 -200 0
-15 -201 0
-149 15 197 198 199 200 201 0
-29 152 0
-202 149 0
-202 151 0
-149 -151 202 0
-203 154 0
-203 169 0
-154 -169 203 0
-204 156 0
-204 175 0
-156 -175 204 0
-205 158 0
-205 181 0
-158 -181 205 0
-206 160 0
-206 187 0
-160 -187 206 0
-29 -202 0
-29 -203 0
-29 -204 0
-29 -205 0
-29 -206 0
-152 29 202 203 204 205 206 0
-43 154 0
-207 149 0
-207 153 0
-149 -153 207 0
-208 152 0
-208 163 0
-152 -163 208 0
-209 156 0
-209 176 0
-156 -176 209 0
-210 158 0
-210 182 0
-158 -182 210 0
-211 160 0
-211 188 0
-160 -188 211 0
-43 -207 0
-43 -208 0
-43 -209 0
-43 -210 0
-43 -211 0
-154 43 207 208 209 210 211 0
-57 156 0
-212 149 0
-212 155 0
-149 -155 212 0
-213 152 0
-213 164 0
-152 -164 213 0
-214 154 0
-214 170 0
-154 -170 214 0
-215 158 0
-215 183 0
-158 -183 215 0
-216 160 0
-216 189 0
-160 -189 216 0
-57 -212 0
-57 -213 0
-57 -214 0
-57 -215 0
-57 -216 0
-156 57 212 213 214 215 216 0
-71 158 0
-217 149 0
-217 157 0
-149 -157 217 0
-218 152 0
-218 165 0
-152 -165 218 0
-219 154 0
-219 171 0
-154 -171 219 0
-220 156 0
-220 177 0
-156 -177 220 0
-221 160 0
-221 190 0
-160 -190 221 0
-71 -217 0
-71 -218 0
-71 -219 0
-71 -220 0
-71 -221 0
-158 71 217 218 219 220 221 0
-85 160 0
-222 149 0
-222 159 0
-149 -159 222 0
-223 152 0
-223 166 0
-152 -166 223 0
-224 154 0
-224 172 0
-154 -172 224 0
-225 156 0
-225 178 0
-156 -178 225 0
-226 158 0
-226 184 0
-158 -184 226 0
-85 -222 0
-85 -223 0
-85 -224 0
-85 -225 0
-85 -226 0
-160 85 222 223 224 225 226 0
-3 150 0
-227 151 0
-227 161 0
-151 -161 227 0
-228 153 0
-228 167 0
-153 -167 228 0
-229 155 0
-229 173 0
-155 -173 229 0
-230 157 0
-230 179 0
-157 -179 230 0
-231 159 0
-231 185 0
-159 -185 231 0
-3 -227 0
-3 -228 0
-3 -229 0
-3 -230 0
-3 -231 0
-150 3 227 228 229 230 231 0
-17 0
-31 151 0
-232 150 0
-232 152 0
-150 -152 232 0
-233 153 0
-233 169 0
-153 -169 233 0
-234 155 0
-234 175 0
-155 -175 234 0
-235 157 0
-235 181 0
-157 -181 235 0
-236 159 0
-236 187 0
-159 -187 236 0
-31 -232 0
-31 -233 0
-31 -234 0
-31 -235 0
-31 -236 0
-151 31 232 233 234 235 236 0
-45 153 0
-237 150 0
-237 154 0
-150 -154 237 0
-238 151 0
-238 163 0
-151 -163 238 0
-239 155 0
-239 176 0
-155 -176 239 0
-240 157 0
-240 182 0
-157 -182 240 0
-241 159 0
-241 188 0
-159 -188 241 0
-45 -237 0
-45 -238 0
-45 -239 0
-45 -240 0
-45 -241 0
-153 45 237 238 239 240 241 0
-59 155 0
-242 150 0
-242 156 0
-150 -156 242 0
-243 151 0
-243 164 0
-151 -164 243 0
-244 153 0
-244 170 0
-153 -170 244 0
-245 157 0
-245 183 0
-157 -183 245 0
-246 159 0
-246 189 0
-159 -189 246 0
-59 -242 0
-59 -243 0
-59 -244 0
-59 -245 0
-59 -246 0
-155 59 242 243 244 245 246 0
-73 157 0
-247 150 0
-247 158 0
-150 -158 247 0
-248 151 0
-248 165 0
-151 -165 248 0
-249 153 0
-249 171 0
-153 -171 249 0
-250 155 0
-250 177 0
-155 -177 250 0
-251 159 0
-251 190 0
-159 -190 251 0
-73 -247 0
-73 -248 0
-73 -249 0
-73 -250 0
-73 -251 0
-157 73 247 248 249 250 251 0
-87 159 0
-252 150 0
-252 160 0
-150 -160 252 0
-253 151 0
-253 166 0
-151 -166 253 0
-254 153 0
-254 172 0
-153 -172 254 0
-255 155 0
-255 178 0
-155 -178 255 0
-256 157 0
-256 184 0
-157 -184 256 0
-87 -252 0
-87 -253 0
-87 -254 0
-87 -255 0
-87 -256 0
-159 87 252 253 254 255 256 0
-5 161 0
-257 162 0
-257 150 0
-162 -150 257 0
-258 163 0
-258 167 0
-163 -167 258 0
-259 164 0
-259 173 0
-164 -173 259 0
-260 165 0
-260 179 0
-165 -179 260 0
-261 166 0
-261 185 0
-166 -185 261 0
-5 -257 0
-5 -258 0
-5 -259 0
-5 -260 0
-5 -261 0
-161 5 257 258 259 260 261 0
-19 162 0
-262 161 0
-262 149 0
-161 -149 262 0
-263 163 0
-263 168 0
-163 -168 263 0
-264 164 0
-264 174 0
-164 -174 264 0
-265 165 0
-265 180 0
-165 -180 265 0
-266 166 0
-266 186 0
-166 -186 266 0
-19 -262 0
-19 -263 0
-19 -264 0
-19 -265 0
-19 -266 0
-162 19 262 263 264 265 266 0
-33 0
-47 163 0
-267 161 0
-267 154 0
-161 -154 267 0
-268 162 0
-268 153 0
-162 -153 268 0
-269 164 0
-269 176 0
-164 -176 269 0
-270 165 0
-270 182 0
-165 -182 270 0
-271 166 0
-271 188 0
-166 -188 271 0
-47 -267 0
-47 -268 0
-47 -269 0
-47 -270 0
-47 -271 0
-163 47 267 268 269 270 271 0
-61 164 0
-272 161 0
-272 156 0
-161 -156 272 0
-273 162 0
-273 155 0
-162 -155 273 0
-274 163 0
-274 170 0
-163 -170 274 0
-275 165 0
-275 183 0
-165 -183 275 0
-276 166 0
-276 189 0
-166 -189 276 0
-61 -272 0
-61 -273 0
-61 -274 0
-61 -275 0
-61 -276 0
-164 61 272 273 274 275 276 0
-75 165 0
-277 161 0
-277 158 0
-161 -158 277 0
-278 162 0
-278 157 0
-162 -157 278 0
-279 163 0
-279 171 0
-163 -171 279 0
-280 164 0
-280 177 0
-164 -177 280 0
-281 166 0
-281 190 0
-166 -190 281 0
-75 -277 0
-75 -278 0
-75 -279 0
-75 -280 0
-75 -281 0
-165 75 277 278 279 280 281 0
-89 166 0
-282 161 0
-282 160 0
-161 -160 282 0
-283 162 0
-283 159 0
-162 -159 283 0
-284 163 0
-284 172 0
-163 -172 284 0
-285 164 0
-285 178 0
-164 -178 285 0
-286 165 0
-286 184 0
-165 -184 286 0
-89 -282 0
-89 -283 0
-89 -284 0
-89 -285 0
-89 -286 0
-166 89 282 283 284 285 286 0
-7 167 0
-287 168 0
-287 150 0
-168 -150 287 0
-288 169 0
-288 161 0
-169 -161 288 0
-289 170 0
-289 173 0
-170 -173 289 0
-290 171 0
-290 179 0
-171 -179 290 0
-291 172 0
-291 185 0
-172 -185 291 0
-7 -287 0
-7 -288 0
-7 -289 0
-7 -290 0
-7 -291 0
-167 7 287 288 289 290 291 0
-21 168 0
-292 167 0
-292 149 0
-167 -149 292 0
-293 169 0
-293 162 0
-169 -162 293 0
-294 170 0
-294 174 0
-170 -174 294 0
-295 171 0
-295 180 0
-171 -180 295 0
-296 172 0
-296 186 0
-172 -186 296 0
-21 -292 0
-21 -293 0
-21 -294 0
-21 -295 0
-21 -296 0
-168 21 292 293 294 295 296 0
-35 169 0
-297 167 0
-297 152 0
-167 -152 297 0
-298 168 0
-298 151 0
-168 -151 298 0
-299 170 0
-299 175 0
-170 -175 299 0
-300 171 0
-300 181 0
-171 -181 300 0
-301 172 0
-301 187 0
-172 -187 301 0
-35 -297 0
-35 -298 0
-35 -299 0
-35 -300 0
-35 -301 0
-169 35 297 298 299 300 301 0
-49 0
-63 170 0
-302 167 0
-302 156 0
-167 -156 302 0
-303 168 0
-303 155 0
-168 -155 303 0
-304 169 0
-304 164 0
-169 -164 304 0
-305 171 0
-305 183 0
-171 -183 305 0
-306 172 0
-306 189 0
-172 -189 306 0
-63 -302 0
-63 -303 0
-63 -304 0
-63 -305 0
-63 -306 0
-170 63 302 303 304 305 306 0
-77 171 0
-307 167 0
-307 158 0
-167 -158 307 0
-308 168 0
-308 157 0
-168 -157 308 0
-309 169 0
-309 165 0
-169 -165 309 0
-310 170 0
-310 177 0
-170 -177 310 0
-311 172 0
-311 190 0
-172 -190 311 0
-77 -307 0
-77 -308 0
-77 -309 0
-77 -310 0
-77 -311 0
-171 77 307 308 309 310 311 0
-91 172 0
-312 167 0
-312 160 0
-167 -160 312 0
-313 168 0
-313 159 0
-168 -159 313 0
-314 169 0
-314 166 0
-169 -166 314 0
-315 170 0
-315 178 0
-170 -178 315 0
-316 171 0
-316 184 0
-171 -184 316 0
-91 -312 0
-91 -313 0
-91 -314 0
-91 -315 0
-91 -316 0
-172 91 312 313 314 315 316 0
-9 173 0
-317 174 0
-317 150 0
-174 -150 317 0
-318 175 0
-318 161 0
-175 -161 318 0
-319 176 0
-319 167 0
-176 -167 319 0
-320 177 0
-320 179 0
-177 -179 320 0
-321 178 0
-321 185 0
-178 -185 321 0
-9 -317 0
-9 -318 0
-9 -319 0
-9 -320 0
-9 -321 0
-173 9 317 318 319 320 321 0
-23 174 0
-322 173 0
-322 149 0
-173 -149 322 0
-323 175 0
-323 162 0
-175 -162 323 0
-324 176 0
-324 168 0
-176 -168 324 0
-325 177 0
-325 180 0
-177 -180 325 0
-326 178 0
-326 186 0
-178 -186 326 0
-23 -322 0
-23 -323 0
-23 -324 0
-23 -325 0
-23 -326 0
-174 23 322 323 324 325 326 0
-37 175 0
-327 173 0
-327 152 0
-173 -152 327 0
-328 174 0
-328 151 0
-174 -151 328 0
-329 176 0
-329 169 0
-176 -169 329 0
-330 177 0
-330 181 0
-177 -181 330 0
-331 178 0
-331 187 0
-178 -187 331 0
-37 -327 0
-37 -328 0
-37 -329 0
-37 -330 0
-37 -331 0
-175 37 327 328 329 330 331 0
-51 176 0
-332 173 0
-332 154 0
-173 -154 332 0
-333 174 0
-333 153 0
-174 -153 333 0
-334 175 0
-334 163 0
-175 -163 334 0
-335 177 0
-335 182 0
-177 -182 335 0
-336 178 0
-336 188 0
-178 -188 336 0
-51 -332 0
-51 -333 0
-51 -334 0
-51 -335 0
-51 -336 0
-176 51 332 333 334 335 336 0
-65 0
-79 177 0
-337 173 0
-337 158 0
-173 -158 337 0
-338 174 0
-338 157 0
-174 -157 338 0
-339 175 0
-339 165 0
-175 -165 339 0
-340 176 0
-340 171 0
-176 -171 340 0
-341 178 0
-341 190 0
-178 -190 341 0
-79 -337 0
-79 -338 0
-79 -339 0
-79 -340 0
-79 -341 0
-177 79 337 338 339 340 341 0
-93 178 0
-342 173 0
-342 160 0
-173 -160 342 0
-343 174 0
-343 159 0
-174 -159 343 0
-344 175 0
-344 166 0
-175 -166 344 0
-345 176 0
-345 172 0
-176 -172 345 0
-346 177 0
-346 184 0
-177 -184 346 0
-93 -342 0
-93 -343 0
-93 -344 0
-93 -345 0
-93 -346 0
-178 93 342 343 344 345 346 0
-11 179 0
-347 180 0
-347 150 0
-180 -150 347 0
-348 181 0
-348 161 0
-181 -161 348 0
-349 182 0
-349 167 0
-182 -167 349 0
-350 183 0
-350 173 0
-183 -173 350 0
-351 184 0
-351 185 0
-184 -185 351 0
-11 -347 0
-11 -348 0
-11 -349 0
-11 -350 0
-11 -351 0
-179 11 347 348 349 350 351 0
-25 180 0
-352 179 0
-352 149 0
-179 -149 352 0
-353 181 0
-353 162 0
-181 -162 353 0
-354 182 0
-354 168 0
-182 -168 354 0
-355 183 0
-355 174 0
-183 -174 355 0
-356 184 0
-356 186 0
-184 -186 356 0
-25 -352 0
-25 -353 0
-25 -354 0
-25 -355 0
-25 -356 0
-180 25 352 353 354 355 356 0
-39 181 0
-357 179 0
-357 152 0
-179 -152 357 0
-358 180 0
-358 151 0
-180 -151 358 0
-359 182 0
-359 169 0
-182 -169 359 0
-360 183 0
-360 175 0
-183 -175 360 0
-361 184 0
-361 187 0
-184 -187 361 0
-39 -357 0
-39 -358 0
-39 -359 0
-39 -360 0
-39 -361 0
-181 39 357 358 359 360 361 0
-53 182 0
-362 179 0
-362 154 0
-179 -154 362 0
-363 180 0
-363 153 0
-180 -153 363 0
-364 181 0
-364 163 0
-181 -163 364 0
-365 183 0
-365 176 0
-183 -176 365 0
-366 184 0
-366 188 0
-184 -188 366 0
-53 -362 0
-53 -363 0
-53 -364 0
-53 -365 0
-53 -366 0
-182 53 362 363 364 365 366 0
-67 183 0
-367 179 0
-367 156 0
-179 -156 367 0
-368 180 0
-368 155 0
-180 -155 368 0
-369 181 0
-369 164 0
-181 -164 369 0
-370 182 0
-370 170 0
-182 -170 370 0
-371 184 0
-371 189 0
-184 -189 371 0
-67 -367 0
-67 -368 0
-67 -369 0
-67 -370 0
-67 -371 0
-183 67 367 368 369 370 371 0
-81 0
-95 184 0
-372 179 0
-372 160 0
-179 -160 372 0
-373 180 0
-373 159 0
-180 -159 373 0
-374 181 0
-374 166 0
-181 -166 374 0
-375 182 0
-375 172 0
-182 -172 375 0
-376 183 0
-376 178 0
-183 -178 376 0
-95 -372 0
-95 -373 0
-95 -374 0
-95 -375 0
-95 -376 0
-184 95 372 373 374 375 376 0
-13 185 0
-377 186 0
-377 150 0
-186 -150 377 0
-378 187 0
-378 161 0
-187 -161 378 0
-379 188 0
-379 167 0
-188 -167 379 0
-380 189 0
-380 173 0
-189 -173 380 0
-381 190 0
-381 179 0
-190 -179 381 0
-13 -377 0
-13 -378 0
-13 -379 0
-13 -380 0
-13 -381 0
-185 13 377 378 379 380 381 0
-27 186 0
-382 185 0
-382 149 0
-185 -149 382 0
-383 187 0
-383 162 0
-187 -162 383 0
-384 188 0
-384 168 0
-188 -168 384 0
-385 189 0
-385 174 0
-189 -174 385 0
-386 190 0
-386 180 0
-190 -180 386 0
-27 -382 0
-27 -383 0
-27 -384 0
-27 -385 0
-27 -386 0
-186 27 382 383 384 385 386 0
-41 187 0
-387 185 0
-387 152 0
-185 -152 387 0
-388 186 0
-388 151 0
-186 -151 388 0
-389 188 0
-389 169 0
-188 -169 389 0
-390 189 0
-390 175 0
-189 -175 390 0
-391 190 0
-391 181 0
-190 -181 391 0
-41 -387 0
-41 -388 0
-41 -389 0
-41 -390 0
-41 -391 0
-187 41 387 388 389 390 391 0
-55 188 0
-392 185 0
-392 154 0
-185 -154 392 0
-393 186 0
-393 153 0
-186 -153 393 0
-394 187 0
-394 163 0
-187 -163 394 0
-395 189 0
-395 176 0
-189 -176 395 0
-396 190 0
-396 182 0
-190 -182 396 0
-55 -392 0
-55 -393 0
-55 -394 0
-55 -395 0
-55 -396 0
-188 55 392 393 394 395 396 0
-69 189 0
-397 185 0
-397 156 0
-185 -156 397 0
-398 186 0
-398 155 0
-186 -155 398 0
-399 187 0
-399 164 0
-187 -164 399 0
-400 188 0
-400 170 0
-188 -170 400 0
-401 190 0
-401 183 0
-190 -183 401 0
-69 -397 0
-69 -398 0
-69 -399 0
-69 -400 0
-69 -401 0
-189 69 397 398 399 400 401 0
-83 190 0
-402 185 0
-402 158 0
-185 -158 402 0
-403 186 0
-403 157 0
-186 -157 403 0
-404 187 0
-404 165 0
-187 -165 404 0
-405 188 0
-405 171 0
-188 -171 405 0
-406 189 0
-406 177 0
-189 -177 406 0
-83 -402 0
-83 -403 0
-83 -404 0
-83 -405 0
-83 -406 0
-190 83 402 403 404 405 406 0
-97 0
