p cnf 828 3645
1 -2 0
3 -4 0
5 -6 0
7 -8 0
9 -10 0
11 -12 0
13 -14 0
15 -16 0
17 -18 0
19 -20 0
21 -22 0
23 -24 0
25 -26 0
27 -28 0
29 -30 0
31 -32 0
33 -34 0
35 -36 0
37 -38 0
39 -40 0
41 -42 0
43 -44 0
45 -46 0
47 -48 0
49 -50 0
51 -52 0
53 -54 0
55 -56 0
57 -58 0
59 -60 0
61 -62 0
63 -64 0
65 -66 0
67 -68 0
69 -70 0
71 -72 0
73 -74 0
75 -76 0
77 -78 0
79 -80 0
81 -82 0
83 -84 0
85 -86 0
87 -88 0
89 -90 0
91 -92 0
93 -94 0
95 -96 0
97 -98 0
99 -100 0
101 -102 0
103 -104 0
105 -106 0
107 -108 0
109 -110 0
111 -112 0
113 -114 0
115 -116 0
117 -118 0
119 -120 0
121 -122 0
123 -124 0
125 -126 0
127 -128 0
129 -130 0
131 -132 0
133 -134 0
135 -136 0
137 -138 0
139 -140 0
141 -142 0
143 -144 0
145 -146 0
147 -148 0
149 -150 0
151 -152 0
153 -154 0
155 -156 0
157 -158 0
159 -160 0
161 -162 0
2 -163 -1 0
4 -164 -3 0
6 -165 -5 0
8 -166 -7 0
10 -167 -9 0
12 -168 -11 0
14 -169 -13 0
16 -170 -15 0
18 -171 -17 0
20 -172 -19 0
22 -173 -21 0
24 -174 -23 0
26 -175 -25 0
28 -176 -27 0
30 -177 -29 0
32 -178 -31 0
34 -179 -33 0
36 -180 -35 0
38 -181 -37 0
40 -182 -39 0
42 -183 -41 0
44 -184 -43 0
46 -185 -45 0
48 -186 -47 0
50 -187 -49 0
52 -188 -51 0
54 -189 -53 0
56 -190 -55 0
58 -191 -57 0
60 -192 -59 0
62 -193 -61 0
64 -194 -63 0
66 -195 -65 0
68 -196 -67 0
70 -197 -69 0
72 -198 -71 0
74 -199 -73 0
76 -200 -75 0
78 -201 -77 0
80 -202 -79 0
82 -203 -81 0
84 -204 -83 0
86 -205 -85 0
88 -206 -87 0
90 -207 -89 0
92 -208 -91 0
94 -209 -93 0
96 -210 -95 0
98 -211 -97 0
100 -212 -99 0
102 -213 -101 0
104 -214 -103 0
106 -215 -105 0
108 -216 -107 0
110 -217 -109 0
112 -218 -111 0
114 -219 -113 0
116 -220 -115 0
118 -221 -117 0
120 -222 -119 0
122 -223 -121 0
124 -224 -123 0
126 -225 -125 0
128 -226 -127 0
130 -227 -129 0
132 -228 -131 0
134 -229 -133 0
136 -230 -135 0
138 -231 -137 0
140 -232 -139 0
142 -233 -141 0
144 -234 -143 0
146 -235 -145 0
148 -236 -147 0
150 -237 -149 0
152 -238 -151 0
154 -239 -153 0
156 -240 -155 0
158 -241 -157 0
160 -242 -159 0
162 -243 -161 0
163 0
172 164 0
-172 -164 0
-172 -182 181 0
-172 -191 190 0
-172 -200 199 0
-172 -209 208 0
-172 -218 217 0
-172 -227 226 0
-172 -236 235 0
181 165 0
-181 -165 0
-181 -174 172 0
-181 -192 190 0
-181 -201 199 0
-181 -210 208 0
-181 -219 217 0
-181 -228 226 0
-181 -237 235 0
190 166 0
-190 -166 0
-190 -175 172 0
-190 -184 181 0
-190 -202 199 0
-190 -211 208 0
-190 -220 217 0
-190 -229 226 0
-190 -238 235 0
199 167 0
-199 -167 0
-199 -176 172 0
-199 -185 181 0
-199 -194 190 0
-199 -212 208 0
-199 -221 217 0
-199 -230 226 0
-199 -239 235 0
208 168 0
-208 -168 0
-208 -177 172 0
-208 -186 181 0
-208 -195 190 0
-208 -204 199 0
-208 -222 217 0
-208 -231 226 0
-208 -240 235 0
217 169 0
-217 -169 0
-217 -178 172 0
-217 -187 181 0
-217 -196 190 0
-217 -205 199 0
-217 -214 208 0
-217 -232 226 0
-217 -241 235 0
226 170 0
-226 -170 0
-226 -179 172 0
-226 -188 181 0
-226 -197 190 0
-226 -206 199 0
-226 -215 208 0
-226 -224 217 0
-226 -242 235 0
235 171 0
-235 -171 0
-235 -180 172 0
-235 -189 181 0
-235 -198 190 0
-235 -207 199 0
-235 -216 208 0
-235 -225 217 0
-235 -234 226 0
173 0
164 172 0
-164 -172 0
-164 -181 182 0
-164 -190 191 0
-164 -199 200 0
-164 -208 209 0
-164 -217 218 0
-164 -226 227 0
-164 -235 236 0
182 174 0
-182 -174 0
-182 -165 164 0
-182 -192 191 0
-182 -201 200 0
-182 -210 209 0
-182 -219 218 0
-182 -228 227 0
-182 -237 236 0
191 175 0
-191 -175 0
-191 -166 164 0
-191 -184 182 0
-191 -202 200 0
-191 -211 209 0
-191 -220 218 0
-191 -229 227 0
-191 -238 236 0
200 176 0
-200 -176 0
-200 -167 164 0
-200 -185 182 0
-200 -194 191 0
-200 -212 209 0
-200 -221 218 0
-200 -230 227 0
-200 -239 236 0
209 177 0
-209 -177 0
-209 -168 164 0
-209 -186 182 0
-209 -195 191 0
-209 -204 200 0
-209 -222 218 0
-209 -231 227 0
-209 -240 236 0
218 178 0
-218 -178 0
-218 -169 164 0
-218 -187 182 0
-218 -196 191 0
-218 -205 200 0
-218 -214 209 0
-218 -232 227 0
-218 -241 236 0
227 179 0
-227 -179 0
-227 -170 164 0
-227 -188 182 0
-227 -197 191 0
-227 -206 200 0
-227 -215 209 0
-227 -224 218 0
-227 -242 236 0
236 180 0
-236 -180 0
-236 -171 164 0
-236 -189 182 0
-236 -198 191 0
-236 -207 200 0
-236 -216 209 0
-236 -225 218 0
-236 -234 227 0
183 0
165 181 0
-165 -181 0
-165 -172 174 0
-165 -190 192 0
-165 -199 201 0
-165 -208 210 0
-165 -217 219 0
-165 -226 228 0
-165 -235 237 0
174 182 0
-174 -182 0
-174 -164 165 0
-174 -191 192 0
-174 -200 201 0
-174 -209 210 0
-174 -218 219 0
-174 -227 228 0
-174 -236 237 0
192 184 0
-192 -184 0
-192 -166 165 0
-192 -175 174 0
-192 -202 201 0
-192 -211 210 0
-192 -220 219 0
-192 -229 228 0
-192 -238 237 0
201 185 0
-201 -185 0
-201 -167 165 0
-201 -176 174 0
-201 -194 192 0
-201 -212 210 0
-201 -221 219 0
-201 -230 228 0
-201 -239 237 0
210 186 0
-210 -186 0
-210 -168 165 0
-210 -177 174 0
-210 -195 192 0
-210 -204 201 0
-210 -222 219 0
-210 -231 228 0
-210 -240 237 0
219 187 0
-219 -187 0
-219 -169 165 0
-219 -178 174 0
-219 -196 192 0
-219 -205 201 0
-219 -214 210 0
-219 -232 228 0
-219 -241 237 0
228 188 0
-228 -188 0
-228 -170 165 0
-228 -179 174 0
-228 -197 192 0
-228 -206 201 0
-228 -215 210 0
-228 -224 219 0
-228 -242 237 0
237 189 0
-237 -189 0
-237 -171 165 0
-237 -180 174 0
-237 -198 192 0
-237 -207 201 0
-237 -216 210 0
-237 -225 219 0
-237 -234 228 0
193 0
166 190 0
-166 -190 0
-166 -172 175 0
-166 -181 184 0
-166 -199 202 0
-166 -208 211 0
-166 -217 220 0
-166 -226 229 0
-166 -235 238 0
175 191 0
-175 -191 0
-175 -164 166 0
-175 -182 184 0
-175 -200 202 0
-175 -209 211 0
-175 -218 220 0
-175 -227 229 0
-175 -236 238 0
184 192 0
-184 -192 0
-184 -165 166 0
-184 -174 175 0
-184 -201 202 0
-184 -210 211 0
-184 -219 220 0
-184 -228 229 0
-184 -237 238 0
202 194 0
-202 -194 0
-202 -167 166 0
-202 -176 175 0
-202 -185 184 0
-202 -212 211 0
-202 -221 220 0
-202 -230 229 0
-202 -239 238 0
211 195 0
-211 -195 0
-211 -168 166 0
-211 -177 175 0
-211 -186 184 0
-211 -204 202 0
-211 -222 220 0
-211 -231 229 0
-211 -240 238 0
220 196 0
-220 -196 0
-220 -169 166 0
-220 -178 175 0
-220 -187 184 0
-220 -205 202 0
-220 -214 211 0
-220 -232 229 0
-220 -241 238 0
229 197 0
-229 -197 0
-229 -170 166 0
-229 -179 175 0
-229 -188 184 0
-229 -206 202 0
-229 -215 211 0
-229 -224 220 0
-229 -242 238 0
238 198 0
-238 -198 0
-238 -171 166 0
-238 -180 175 0
-238 -189 184 0
-238 -207 202 0
-238 -216 211 0
-238 -225 220 0
-238 -234 229 0
203 0
167 199 0
-167 -199 0
-167 -172 176 0
-167 -181 185 0
-167 -190 194 0
-167 -208 212 0
-167 -217 221 0
-167 -226 230 0
-167 -235 239 0
176 200 0
-176 -200 0
-176 -164 167 0
-176 -182 185 0
-176 -191 194 0
-176 -209 212 0
-176 -218 221 0
-176 -227 230 0
-176 -236 239 0
185 201 0
-185 -201 0
-185 -165 167 0
-185 -174 176 0
-185 -192 194 0
-185 -210 212 0
-185 -219 221 0
-185 -228 230 0
-185 -237 239 0
194 202 0
-194 -202 0
-194 -166 167 0
-194 -175 176 0
-194 -184 185 0
-194 -211 212 0
-194 -220 221 0
-194 -229 230 0
-194 -238 239 0
212 204 0
-212 -204 0
-212 -168 167 0
-212 -177 176 0
-212 -186 185 0
-212 -195 194 0
-212 -222 221 0
-212 -231 230 0
-212 -240 239 0
221 205 0
-221 -205 0
-221 -169 167 0
-221 -178 176 0
-221 -187 185 0
-221 -196 194 0
-221 -214 212 0
-221 -232 230 0
-221 -241 239 0
230 206 0
-230 -206 0
-230 -170 167 0
-230 -179 176 0
-230 -188 185 0
-230 -197 194 0
-230 -215 212 0
-230 -224 221 0
-230 -242 239 0
239 207 0
-239 -207 0
-239 -171 167 0
-239 -180 176 0
-239 -189 185 0
-239 -198 194 0
-239 -216 212 0
-239 -225 221 0
-239 -234 230 0
213 0
168 208 0
-168 -208 0
-168 -172 177 0
-168 -181 186 0
-168 -190 195 0
-168 -199 204 0
-168 -217 222 0
-168 -226 231 0
-168 -235 240 0
177 209 0
-177 -209 0
-177 -164 168 0
-177 -182 186 0
-177 -191 195 0
-177 -200 204 0
-177 -218 222 0
-177 -227 231 0
-177 -236 240 0
186 210 0
-186 -210 0
-186 -165 168 0
-186 -174 177 0
-186 -192 195 0
-186 -201 204 0
-186 -219 222 0
-186 -228 231 0
-186 -237 240 0
195 211 0
-195 -211 0
-195 -166 168 0
-195 -175 177 0
-195 -184 186 0
-195 -202 204 0
-195 -220 222 0
-195 -229 231 0
-195 -238 240 0
204 212 0
-204 -212 0
-204 -167 168 0
-204 -176 177 0
-204 -185 186 0
-204 -194 195 0
-204 -221 222 0
-204 -230 231 0
-204 -239 240 0
222 214 0
-222 -214 0
-222 -169 168 0
-222 -178 177 0
-222 -187 186 0
-222 -196 195 0
-222 -205 204 0
-222 -232 231 0
-222 -241 240 0
231 215 0
-231 -215 0
-231 -170 168 0
-231 -179 177 0
-231 -188 186 0
-231 -197 195 0
-231 -206 204 0
-231 -224 222 0
-231 -242 240 0
240 216 0
-240 -216 0
-240 -171 168 0
-240 -180 177 0
-240 -189 186 0
-240 -198 195 0
-240 -207 204 0
-240 -225 222 0
-240 -234 231 0
223 0
169 217 0
-169 -217 0
-169 -172 178 0
-169 -181 187 0
-169 -190 196 0
-169 -199 205 0
-169 -208 214 0
-169 -226 232 0
-169 -235 241 0
178 218 0
-178 -218 0
-178 -164 169 0
-178 -182 187 0
-178 -191 196 0
-178 -200 205 0
-178 -209 214 0
-178 -227 232 0
-178 -236 241 0
187 219 0
-187 -219 0
-187 -165 169 0
-187 -174 178 0
-187 -192 196 0
-187 -201 205 0
-187 -210 214 0
-187 -228 232 0
-187 -237 241 0
196 220 0
-196 -220 0
-196 -166 169 0
-196 -175 178 0
-196 -184 187 0
-196 -202 205 0
-196 -211 214 0
-196 -229 232 0
-196 -238 241 0
205 221 0
-205 -221 0
-205 -167 169 0
-205 -176 178 0
-205 -185 187 0
-205 -194 196 0
-205 -212 214 0
-205 -230 232 0
-205 -239 241 0
214 222 0
-214 -222 0
-214 -168 169 0
-214 -177 178 0
-214 -186 187 0
-214 -195 196 0
-214 -204 205 0
-214 -231 232 0
-214 -240 241 0
232 224 0
-232 -224 0
-232 -170 169 0
-232 -179 178 0
-232 -188 187 0
-232 -197 196 0
-232 -206 205 0
-232 -215 214 0
-232 -242 241 0
241 225 0
-241 -225 0
-241 -171 169 0
-241 -180 178 0
-241 -189 187 0
-241 -198 196 0
-241 -207 205 0
-241 -216 214 0
-241 -234 232 0
233 0
170 226 0
-170 -226 0
-170 -172 179 0
-170 -181 188 0
-170 -190 197 0
-170 -199 206 0
-170 -208 215 0
-170 -217 224 0
-170 -235 242 0
179 227 0
-179 -227 0
-179 -164 170 0
-179 -182 188 0
-179 -191 197 0
-179 -200 206 0
-179 -209 215 0
-179 -218 224 0
-179 -236 242 0
188 228 0
-188 -228 0
-188 -165 170 0
-188 -174 179 0
-188 -192 197 0
-188 -201 206 0
-188 -210 215 0
-188 -219 224 0
-188 -237 242 0
197 229 0
-197 -229 0
-197 -166 170 0
-197 -175 179 0
-197 -184 188 0
-197 -202 206 0
-197 -211 215 0
-197 -220 224 0
-197 -238 242 0
206 230 0
-206 -230 0
-206 -167 170 0
-206 -176 179 0
-206 -185 188 0
-206 -194 197 0
-206 -212 215 0
-206 -221 224 0
-206 -239 242 0
215 231 0
-215 -231 0
-215 -168 170 0
-215 -177 179 0
-215 -186 188 0
-215 -195 197 0
-215 -204 206 0
-215 -222 224 0
-215 -240 242 0
224 232 0
-224 -232 0
-224 -169 170 0
-224 -178 179 0
-224 -187 188 0
-224 -196 197 0
-224 -205 206 0
-224 -214 215 0
-224 -241 242 0
242 234 0
-242 -234 0
-242 -171 170 0
-242 -180 179 0
-242 -189 188 0
-242 -198 197 0
-242 -207 206 0
-242 -216 215 0
-242 -225 224 0
243 0
171 235 0
-171 -235 0
-171 -172 180 0
-171 -181 189 0
-171 -190 198 0
-171 -199 207 0
-171 -208 216 0
-171 -217 225 0
-171 -226 234 0
180 236 0
-180 -236 0
-180 -164 171 0
-180 -182 189 0
-180 -191 198 0
-180 -200 207 0
-180 -209 216 0
-180 -218 225 0
-180 -227 234 0
189 237 0
-189 -237 0
-189 -165 171 0
-189 -174 180 0
-189 -192 198 0
-189 -201 207 0
-189 -210 216 0
-189 -219 225 0
-189 -228 234 0
198 238 0
-198 -238 0
-198 -166 171 0
-198 -175 180 0
-198 -184 189 0
-198 -202 207 0
-198 -211 216 0
-198 -220 225 0
-198 -229 234 0
207 239 0
-207 -239 0
-207 -167 171 0
-207 -176 180 0
-207 -185 189 0
-207 -194 198 0
-207 -212 216 0
-207 -221 225 0
-207 -230 234 0
216 240 0
-216 -240 0
-216 -168 171 0
-216 -177 180 0
-216 -186 189 0
-216 -195 198 0
-216 -204 207 0
-216 -222 225 0
-216 -231 234 0
225 241 0
-225 -241 0
-225 -169 171 0
-225 -178 180 0
-225 -187 189 0
-225 -196 198 0
-225 -205 207 0
-225 -214 216 0
-225 -232 234 0
234 242 0
-234 -242 0
-234 -170 171 0
-234 -179 180 0
-234 -188 189 0
-234 -197 198 0
-234 -206 207 0
-234 -215 216 0
-234 -224 225 0
244 0
245 246 0
-245 -246 0
-245 -247 248 0
-245 -249 250 0
-245 -251 252 0
-245 -253 254 0
-245 -255 256 0
-245 -257 258 0
-245 -259 260 0
248 261 0
-248 -261 0
-248 -262 245 0
-248 -263 250 0
-248 -264 252 0
-248 -265 254 0
-248 -266 256 0
-248 -267 258 0
-248 -268 260 0
250 269 0
-250 -269 0
-250 -270 245 0
-250 -271 248 0
-250 -272 252 0
-250 -273 254 0
-250 -274 256 0
-250 -275 258 0
-250 -276 260 0
252 277 0
-252 -277 0
-252 -278 245 0
-252 -279 248 0
-252 -280 250 0
-252 -281 254 0
-252 -282 256 0
-252 -283 258 0
-252 -284 260 0
254 285 0
-254 -285 0
-254 -286 245 0
-254 -287 248 0
-254 -288 250 0
-254 -289 252 0
-254 -290 256 0
-254 -291 258 0
-254 -292 260 0
256 293 0
-256 -293 0
-256 -294 245 0
-256 -295 248 0
-256 -296 250 0
-256 -297 252 0
-256 -298 254 0
-256 -299 258 0
-256 -300 260 0
258 301 0
-258 -301 0
-258 -302 245 0
-258 -303 248 0
-258 -304 250 0
-258 -305 252 0
-258 -306 254 0
-258 -307 256 0
-258 -308 260 0
260 309 0
-260 -309 0
-260 -310 245 0
-260 -311 248 0
-260 -312 250 0
-260 -313 252 0
-260 -314 254 0
-260 -315 256 0
-260 -316 258 0
317 0
246 245 0
-246 -245 0
-246 -248 247 0
-246 -250 249 0
-246 -252 251 0
-246 -254 253 0
-246 -256 255 0
-246 -258 257 0
-246 -260 259 0
247 262 0
-247 -262 0
-247 -261 246 0
-247 -263 249 0
-247 -264 251 0
-247 -265 253 0
-247 -266 255 0
-247 -267 257 0
-247 -268 259 0
249 270 0
-249 -270 0
-249 -269 246 0
-249 -271 247 0
-249 -272 251 0
-249 -273 253 0
-249 -274 255 0
-249 -275 257 0
-249 -276 259 0
251 278 0
-251 -278 0
-251 -277 246 0
-251 -279 247 0
-251 -280 249 0
-251 -281 253 0
-251 -282 255 0
-251 -283 257 0
-251 -284 259 0
253 286 0
-253 -286 0
-253 -285 246 0
-253 -287 247 0
-253 -288 249 0
-253 -289 251 0
-253 -290 255 0
-253 -291 257 0
-253 -292 259 0
255 294 0
-255 -294 0
-255 -293 246 0
-255 -295 247 0
-255 -296 249 0
-255 -297 251 0
-255 -298 253 0
-255 -299 257 0
-255 -300 259 0
257 302 0
-257 -302 0
-257 -301 246 0
-257 -303 247 0
-257 -304 249 0
-257 -305 251 0
-257 -306 253 0
-257 -307 255 0
-257 -308 259 0
259 310 0
-259 -310 0
-259 -309 246 0
-259 -311 247 0
-259 -312 249 0
-259 -313 251 0
-259 -314 253 0
-259 -315 255 0
-259 -316 257 0
318 0
261 248 0
-261 -248 0
-261 -245 262 0
-261 -250 263 0
-261 -252 264 0
-261 -254 265 0
-261 -256 266 0
-261 -258 267 0
-261 -260 268 0
262 247 0
-262 -247 0
-262 -246 261 0
-262 -249 263 0
-262 -251 264 0
-262 -253 265 0
-262 -255 266 0
-262 -257 267 0
-262 -259 268 0
263 271 0
-263 -271 0
-263 -269 261 0
-263 -270 262 0
-263 -272 264 0
-263 -273 265 0
-263 -274 266 0
-263 -275 267 0
-263 -276 268 0
264 279 0
-264 -279 0
-264 -277 261 0
-264 -278 262 0
-264 -280 263 0
-264 -281 265 0
-264 -282 266 0
-264 -283 267 0
-264 -284 268 0
265 287 0
-265 -287 0
-265 -285 261 0
-265 -286 262 0
-265 -288 263 0
-265 -289 264 0
-265 -290 266 0
-265 -291 267 0
-265 -292 268 0
266 295 0
-266 -295 0
-266 -293 261 0
-266 -294 262 0
-266 -296 263 0
-266 -297 264 0
-266 -298 265 0
-266 -299 267 0
-266 -300 268 0
267 303 0
-267 -303 0
-267 -301 261 0
-267 -302 262 0
-267 -304 263 0
-267 -305 264 0
-267 -306 265 0
-267 -307 266 0
-267 -308 268 0
268 311 0
-268 -311 0
-268 -309 261 0
-268 -310 262 0
-268 -312 263 0
-268 -313 264 0
-268 -314 265 0
-268 -315 266 0
-268 -316 267 0
319 0
269 250 0
-269 -250 0
-269 -245 270 0
-269 -248 271 0
-269 -252 272 0
-269 -254 273 0
-269 -256 274 0
-269 -258 275 0
-269 -260 276 0
270 249 0
-270 -249 0
-270 -246 269 0
-270 -247 271 0
-270 -251 272 0
-270 -253 273 0
-270 -255 274 0
-270 -257 275 0
-270 -259 276 0
271 263 0
-271 -263 0
-271 -261 269 0
-271 -262 270 0
-271 -264 272 0
-271 -265 273 0
-271 -266 274 0
-271 -267 275 0
-271 -268 276 0
272 280 0
-272 -280 0
-272 -277 269 0
-272 -278 270 0
-272 -279 271 0
-272 -281 273 0
-272 -282 274 0
-272 -283 275 0
-272 -284 276 0
273 288 0
-273 -288 0
-273 -285 269 0
-273 -286 270 0
-273 -287 271 0
-273 -289 272 0
-273 -290 274 0
-273 -291 275 0
-273 -292 276 0
274 296 0
-274 -296 0
-274 -293 269 0
-274 -294 270 0
-274 -295 271 0
-274 -297 272 0
-274 -298 273 0
-274 -299 275 0
-274 -300 276 0
275 304 0
-275 -304 0
-275 -301 269 0
-275 -302 270 0
-275 -303 271 0
-275 -305 272 0
-275 -306 273 0
-275 -307 274 0
-275 -308 276 0
276 312 0
-276 -312 0
-276 -309 269 0
-276 -310 270 0
-276 -311 271 0
-276 -313 272 0
-276 -314 273 0
-276 -315 274 0
-276 -316 275 0
320 0
277 252 0
-277 -252 0
-277 -245 278 0
-277 -248 279 0
-277 -250 280 0
-277 -254 281 0
-277 -256 282 0
-277 -258 283 0
-277 -260 284 0
278 251 0
-278 -251 0
-278 -246 277 0
-278 -247 279 0
-278 -249 280 0
-278 -253 281 0
-278 -255 282 0
-278 -257 283 0
-278 -259 284 0
279 264 0
-279 -264 0
-279 -261 277 0
-279 -262 278 0
-279 -263 280 0
-279 -265 281 0
-279 -266 282 0
-279 -267 283 0
-279 -268 284 0
280 272 0
-280 -272 0
-280 -269 277 0
-280 -270 278 0
-280 -271 279 0
-280 -273 281 0
-280 -274 282 0
-280 -275 283 0
-280 -276 284 0
281 289 0
-281 -289 0
-281 -285 277 0
-281 -286 278 0
-281 -287 279 0
-281 -288 280 0
-281 -290 282 0
-281 -291 283 0
-281 -292 284 0
282 297 0
-282 -297 0
-282 -293 277 0
-282 -294 278 0
-282 -295 279 0
-282 -296 280 0
-282 -298 281 0
-282 -299 283 0
-282 -300 284 0
283 305 0
-283 -305 0
-283 -301 277 0
-283 -302 278 0
-283 -303 279 0
-283 -304 280 0
-283 -306 281 0
-283 -307 282 0
-283 -308 284 0
284 313 0
-284 -313 0
-284 -309 277 0
-284 -310 278 0
-284 -311 279 0
-284 -312 280 0
-284 -314 281 0
-284 -315 282 0
-284 -316 283 0
321 0
285 254 0
-285 -254 0
-285 -245 286 0
-285 -248 287 0
-285 -250 288 0
-285 -252 289 0
-285 -256 290 0
-285 -258 291 0
-285 -260 292 0
286 253 0
-286 -253 0
-286 -246 285 0
-286 -247 287 0
-286 -249 288 0
-286 -251 289 0
-286 -255 290 0
-286 -257 291 0
-286 -259 292 0
287 265 0
-287 -265 0
-287 -261 285 0
-287 -262 286 0
-287 -263 288 0
-287 -264 289 0
-287 -266 290 0
-287 -267 291 0
-287 -268 292 0
288 273 0
-288 -273 0
-288 -269 285 0
-288 -270 286 0
-288 -271 287 0
-288 -272 289 0
-288 -274 290 0
-288 -275 291 0
-288 -276 292 0
289 281 0
-289 -281 0
-289 -277 285 0
-289 -278 286 0
-289 -279 287 0
-289 -280 288 0
-289 -282 290 0
-289 -283 291 0
-289 -284 292 0
290 298 0
-290 -298 0
-290 -293 285 0
-290 -294 286 0
-290 -295 287 0
-290 -296 288 0
-290 -297 289 0
-290 -299 291 0
-290 -300 292 0
291 306 0
-291 -306 0
-291 -301 285 0
-291 -302 286 0
-291 -303 287 0
-291 -304 288 0
-291 -305 289 0
-291 -307 290 0
-291 -308 292 0
292 314 0
-292 -314 0
-292 -309 285 0
-292 -310 286 0
-292 -311 287 0
-292 -312 288 0
-292 -313 289 0
-292 -315 290 0
-292 -316 291 0
322 0
293 256 0
-293 -256 0
-293 -245 294 0
-293 -248 295 0
-293 -250 296 0
-293 -252 297 0
-293 -254 298 0
-293 -258 299 0
-293 -260 300 0
294 255 0
-294 -255 0
-294 -246 293 0
-294 -247 295 0
-294 -249 296 0
-294 -251 297 0
-294 -253 298 0
-294 -257 299 0
-294 -259 300 0
295 266 0
-295 -266 0
-295 -261 293 0
-295 -262 294 0
-295 -263 296 0
-295 -264 297 0
-295 -265 298 0
-295 -267 299 0
-295 -268 300 0
296 274 0
-296 -274 0
-296 -269 293 0
-296 -270 294 0
-296 -271 295 0
-296 -272 297 0
-296 -273 298 0
-296 -275 299 0
-296 -276 300 0
297 282 0
-297 -282 0
-297 -277 293 0
-297 -278 294 0
-297 -279 295 0
-297 -280 296 0
-297 -281 298 0
-297 -283 299 0
-297 -284 300 0
298 290 0
-298 -290 0
-298 -285 293 0
-298 -286 294 0
-298 -287 295 0
-298 -288 296 0
-298 -289 297 0
-298 -291 299 0
-298 -292 300 0
299 307 0
-299 -307 0
-299 -301 293 0
-299 -302 294 0
-299 -303 295 0
-299 -304 296 0
-299 -305 297 0
-299 -306 298 0
-299 -308 300 0
300 315 0
-300 -315 0
-300 -309 293 0
-300 -310 294 0
-300 -311 295 0
-300 -312 296 0
-300 -313 297 0
-300 -314 298 0
-300 -316 299 0
323 0
301 258 0
-301 -258 0
-301 -245 302 0
-301 -248 303 0
-301 -250 304 0
-301 -252 305 0
-301 -254 306 0
-301 -256 307 0
-301 -260 308 0
302 257 0
-302 -257 0
-302 -246 301 0
-302 -247 303 0
-302 -249 304 0
-302 -251 305 0
-302 -253 306 0
-302 -255 307 0
-302 -259 308 0
303 267 0
-303 -267 0
-303 -261 301 0
-303 -262 302 0
-303 -263 304 0
-303 -264 305 0
-303 -265 306 0
-303 -266 307 0
-303 -268 308 0
304 275 0
-304 -275 0
-304 -269 301 0
-304 -270 302 0
-304 -271 303 0
-304 -272 305 0
-304 -273 306 0
-304 -274 307 0
-304 -276 308 0
305 283 0
-305 -283 0
-305 -277 301 0
-305 -278 302 0
-305 -279 303 0
-305 -280 304 0
-305 -281 306 0
-305 -282 307 0
-305 -284 308 0
306 291 0
-306 -291 0
-306 -285 301 0
-306 -286 302 0
-306 -287 303 0
-306 -288 304 0
-306 -289 305 0
-306 -290 307 0
-306 -292 308 0
307 299 0
-307 -299 0
-307 -293 301 0
-307 -294 302 0
-307 -295 303 0
-307 -296 304 0
-307 -297 305 0
-307 -298 306 0
-307 -300 308 0
308 316 0
-308 -316 0
-308 -309 301 0
-308 -310 302 0
-308 -311 303 0
-308 -312 304 0
-308 -313 305 0
-308 -314 306 0
-308 -315 307 0
324 0
309 260 0
-309 -260 0
-309 -245 310 0
-309 -248 311 0
-309 -250 312 0
-309 -252 313 0
-309 -254 314 0
-309 -256 315 0
-309 -258 316 0
310 259 0
-310 -259 0
-310 -246 309 0
-310 -247 311 0
-310 -249 312 0
-310 -251 313 0
-310 -253 314 0
-310 -255 315 0
-310 -257 316 0
311 268 0
-311 -268 0
-311 -261 309 0
-311 -262 310 0
-311 -263 312 0
-311 -264 313 0
-311 -265 314 0
-311 -266 315 0
-311 -267 316 0
312 276 0
-312 -276 0
-312 -269 309 0
-312 -270 310 0
-312 -271 311 0
-312 -272 313 0
-312 -273 314 0
-312 -274 315 0
-312 -275 316 0
313 284 0
-313 -284 0
-313 -277 309 0
-313 -278 310 0
-313 -279 311 0
-313 -280 312 0
-313 -281 314 0
-313 -282 315 0
-313 -283 316 0
314 292 0
-314 -292 0
-314 -285 309 0
-314 -286 310 0
-314 -287 311 0
-314 -288 312 0
-314 -289 313 0
-314 -290 315 0
-314 -291 316 0
315 300 0
-315 -300 0
-315 -293 309 0
-315 -294 310 0
-315 -295 311 0
-315 -296 312 0
-315 -297 313 0
-315 -298 314 0
-315 -299 316 0
316 308 0
-316 -308 0
-316 -301 309 0
-316 -302 310 0
-316 -303 311 0
-316 -304 312 0
-316 -305 313 0
-316 -306 314 0
-316 -307 315 0
-1 0
-19 245 0
-325 248 0
-325 262 0
-248 -262 325 0
-326 250 0
-326 270 0
-250 -270 326 0
-327 252 0
-327 278 0
-252 -278 327 0
-328 254 0
-328 286 0
-254 -286 328 0
-329 256 0
-329 294 0
-256 -294 329 0
-330 258 0
-330 302 0
-258 -302 330 0
-331 260 0
-331 310 0
-260 -310 331 0
-19 -325 0
-19 -326 0
-19 -327 0
-19 -328 0
-19 -329 0
-19 -330 0
-19 -331 0
-245 19 325 326 327 328 329 330 331 0
-37 248 0
-332 245 0
-332 247 0
-245 -247 332 0
-333 250 0
-333 271 0
-250 -271 333 0
-334 252 0
-334 279 0
-252 -279 334 0
-335 254 0
-335 287 0
-254 -287 335 0
-336 256 0
-336 295 0
-256 -295 336 0
-337 258 0
-337 303 0
-258 -303 337 0
-338 260 0
-338 311 0
-260 -311 338 0
-37 -332 0
-37 -333 0
-37 -334 0
-37 -335 0
-37 -336 0
-37 -337 0
-37 -338 0
-248 37 332 333 334 335 336 337 338 0
-55 250 0
-339 245 0
-339 249 0
-245 -249 339 0
-340 248 0
-340 263 0
-248 -263 340 0
-341 252 0
-341 280 0
-252 -280 341 0
-342 254 0
-342 288 0
-254 -288 342 0
-343 256 0
-343 296 0
-256 -296 343 0
-344 258 0
-344 304 0
-258 -304 344 0
-345 260 0
-345 312 0
-260 -312 345 0
-55 -339 0
-55 -340 0
-55 -341 0
-55 -342 0
-55 -343 0
-55 -344 0
-55 -345 0
-250 55 339 340 341 342 343 344 345 0
-73 252 0
-346 245 0
-346 251 0
-245 -251 346 0
-347 248 0
-347 264 0
-248 -264 347 0
-348 250 0
-348 272 0
-250 -272 348 0
-349 254 0
-349 289 0
-254 -289 349 0
-350 256 0
-350 297 0
-256 -297 350 0
-351 258 0
-351 305 0
-258 -305 351 0
-352 260 0
-352 313 0
-260 -313 352 0
-73 -346 0
-73 -347 0
-73 -348 0
-73 -349 0
-73 -350 0
-73 -351 0
-73 -352 0
-252 73 346 347 348 349 350 351 352 0
-91 254 0
-353 245 0
-353 253 0
-245 -253 353 0
-354 248 0
-354 265 0
-248 -265 354 0
-355 250 0
-355 273 0
-250 -273 355 0
-356 252 0
-356 281 0
-252 -281 356 0
-357 256 0
-357 298 0
-256 -298 357 0
-358 258 0
-358 306 0
-258 -306 358 0
-359 260 0
-359 314 0
-260 -314 359 0
-91 -353 0
-91 -354 0
-91 -355 0
-91 -356 0
-91 -357 0
-91 -358 0
-91 -359 0
-254 91 353 354 355 356 357 358 359 0
-109 256 0
-360 245 0
-360 255 0
-245 -255 360 0
-361 248 0
-361 266 0
-248 -266 361 0
-362 250 0
-362 274 0
-250 -274 362 0
-363 252 0
-363 282 0
-252 -282 363 0
-364 254 0
-364 290 0
-254 -290 364 0
-365 258 0
-365 307 0
-258 -307 365 0
-366 260 0
-366 315 0
-260 -315 366 0
-109 -360 0
-109 -361 0
-109 -362 0
-109 -363 0
-109 -364 0
-109 -365 0
-109 -366 0
-256 109 360 361 362 363 364 365 366 0
-127 258 0
-367 245 0
-367 257 0
-245 -257 367 0
-368 248 0
-368 267 0
-248 -267 368 0
-369 250 0
-369 275 0
-250 -275 369 0
-370 252 0
-370 283 0
-252 -283 370 0
-371 254 0
-371 291 0
-254 -291 371 0
-372 256 0
-372 299 0
-256 -299 372 0
-373 260 0
-373 316 0
-260 -316 373 0
-127 -367 0
-127 -368 0
-127 -369 0
-127 -370 0
-127 -371 0
-127 -372 0
-127 -373 0
-258 127 367 368 369 370 371 372 373 0
-145 260 0
-374 245 0
-374 259 0
-245 -259 374 0
-375 248 0
-375 268 0
-248 -268 375 0
-376 250 0
-376 276 0
-250 -276 376 0
-377 252 0
-377 284 0
-252 -284 377 0
-378 254 0
-378 292 0
-254 -292 378 0
-379 256 0
-379 300 0
-256 -300 379 0
-380 258 0
-380 308 0
-258 -308 380 0
-145 -374 0
-145 -375 0
-145 -376 0
-145 -377 0
-145 -378 0
-145 -379 0
-145 -380 0
-260 145 374 375 376 377 378 379 380 0
-3 246 0
-381 247 0
-381 261 0
-247 -261 381 0
-382 249 0
-382 269 0
-249 -269 382 0
-383 251 0
-383 277 0
-251 -277 383 0
-384 253 0
-384 285 0
-253 -285 384 0
-385 255 0
-385 293 0
-255 -293 385 0
-386 257 0
-386 301 0
-257 -301 386 0
-387 259 0
-387 309 0
-259 -309 387 0
-3 -381 0
-3 -382 0
-3 -383 0
-3 -384 0
-3 -385 0
-3 -386 0
-3 -387 0
-246 3 381 382 383 384 385 386 387 0
-21 0
-39 247 0
-388 246 0
-388 248 0
-246 -248 388 0
-389 249 0
-389 271 0
-249 -271 389 0
-390 251 0
-390 279 0
-251 -279 390 0
-391 253 0
-391 287 0
-253 -287 391 0
-392 255 0
-392 295 0
-255 -295 392 0
-393 257 0
-393 303 0
-257 -303 393 0
-394 259 0
-394 311 0
-259 -311 394 0
-39 -388 0
-39 -389 0
-39 -390 0
-39 -391 0
-39 -392 0
-39 -393 0
-39 -394 0
-247 39 388 389 390 391 392 393 394 0
-57 249 0
-395 246 0
-395 250 0
-246 -250 395 0
-396 247 0
-396 263 0
-247 -263 396 0
-397 251 0
-397 280 0
-251 -280 397 0
-398 253 0
-398 288 0
-253 -288 398 0
-399 255 0
-399 296 0
-255 -296 399 0
-400 257 0
-400 304 0
-257 -304 400 0
-401 259 0
-401 312 0
-259 -312 401 0
-57 -395 0
-57 -396 0
-57 -397 0
-57 -398 0
-57 -399 0
-57 -400 0
-57 -401 0
-249 57 395 396 397 398 399 400 401 0
-75 251 0
-402 246 0
-402 252 0
-246 -252 402 0
-403 247 0
-403 264 0
-247 -264 403 0
-404 249 0
-404 272 0
-249 -272 404 0
-405 253 0
-405 289 0
-253 -289 405 0
-406 255 0
-406 297 0
-255 -297 406 0
-407 257 0
-407 305 0
-257 -305 407 0
-408 259 0
-408 313 0
-259 -313 408 0
-75 -402 0
-75 -403 0
-75 -404 0
-75 -405 0
-75 -406 0
-75 -407 0
-75 -408 0
-251 75 402 403 404 405 406 407 408 0
-93 253 0
-409 246 0
-409 254 0
-246 -254 409 0
-410 247 0
-410 265 0
-247 -265 410 0
-411 249 0
-411 273 0
-249 -273 411 0
-412 251 0
-412 281 0
-251 -281 412 0
-413 255 0
-413 298 0
-255 -298 413 0
-414 257 0
-414 306 0
-257 -306 414 0
-415 259 0
-415 314 0
-259 -314 415 0
-93 -409 0
-93 -410 0
-93 -411 0
-93 -412 0
-93 -413 0
-93 -414 0
-93 -415 0
-253 93 409 410 411 412 413 414 415 0
-111 255 0
-416 246 0
-416 256 0
-246 -256 416 0
-417 247 0
-417 266 0
-247 -266 417 0
-418 249 0
-418 274 0
-249 -274 418 0
-419 251 0
-419 282 0
-251 -282 419 0
-420 253 0
-420 290 0
-253 -290 420 0
-421 257 0
-421 307 0
-257 -307 421 0
-422 259 0
-422 315 0
-259 -315 422 0
-111 -416 0
-111 -417 0
-111 -418 0
-111 -419 0
-111 -420 0
-111 -421 0
-111 -422 0
-255 111 416 417 418 419 420 421 422 0
-129 257 0
-423 246 0
-423 258 0
-246 -258 423 0
-424 247 0
-424 267 0
-247 -267 424 0
-425 249 0
-425 275 0
-249 -275 425 0
-426 251 0
-426 283 0
-251 -283 426 0
-427 253 0
-427 291 0
-253 -291 427 0
-428 255 0
-428 299 0
-255 -299 428 0
-429 259 0
-429 316 0
-259 -316 429 0
-129 -423 0
-129 -424 0
-129 -425 0
-129 -426 0
-129 -427 0
-129 -428 0
-129 -429 0
-257 129 423 424 425 426 427 428 429 0
-147 259 0
-430 246 0
-430 260 0
-246 -260 430 0
-431 247 0
-431 268 0
-247 -268 431 0
-432 249 0
-432 276 0
-249 -276 432 0
-433 251 0
-433 284 0
-251 -284 433 0
-434 253 0
-434 292 0
-253 -292 434 0
-435 255 0
-435 300 0
-255 -300 435 0
-436 257 0
-436 308 0
-257 -308 436 0
-147 -430 0
-147 -431 0
-147 -432 0
-147 -433 0
-147 -434 0
-147 -435 0
-147 -436 0
-259 147 430 431 432 433 434 435 436 0
-5 261 0
-437 262 0
-437 246 0
-262 -246 437 0
-438 263 0
-438 269 0
-263 -269 438 0
-439 264 0
-439 277 0
-264 -277 439 0
-440 265 0
-440 285 0
-265 -285 440 0
-441 266 0
-441 293 0
-266 -293 441 0
-442 267 0
-442 301 0
-267 -301 442 0
-443 268 0
-443 309 0
-268 -309 443 0
-5 -437 0
-5 -438 0
-5 -439 0
-5 -440 0
-5 -441 0
-5 -442 0
-5 -443 0
-261 5 437 438 439 440 441 442 443 0
-23 262 0
-444 261 0
-444 245 0
-261 -245 444 0
-445 263 0
-445 270 0
-263 -270 445 0
-446 264 0
-446 278 0
-264 -278 446 0
-447 265 0
-447 286 0
-265 -286 447 0
-448 266 0
-448 294 0
-266 -294 448 0
-449 267 0
-449 302 0
-267 -302 449 0
-450 268 0
-450 310 0
-268 -310 450 0
-23 -444 0
-23 -445 0
-23 -446 0
-23 -447 0
-23 -448 0
-23 -449 0
-23 -450 0
-262 23 444 445 446 447 448 449 450 0
-41 0
-59 263 0
-451 261 0
-451 250 0
-261 -250 451 0
-452 262 0
-452 249 0
-262 -249 452 0
-453 264 0
-453 280 0
-264 -280 453 0
-454 265 0
-454 288 0
-265 -288 454 0
-455 266 0
-455 296 0
-266 -296 455 0
-456 267 0
-456 304 0
-267 -304 456 0
-457 268 0
-457 312 0
-268 -312 457 0
-59 -451 0
-59 -452 0
-59 -453 0
-59 -454 0
-59 -455 0
-59 -456 0
-59 -457 0
-263 59 451 452 453 454 455 456 457 0
-77 264 0
-458 261 0
-458 252 0
-261 -252 458 0
-459 262 0
-459 251 0
-262 -251 459 0
-460 263 0
-460 272 0
-263 -272 460 0
-461 265 0
-461 289 0
-265 -289 461 0
-462 266 0
-462 297 0
-266 -297 462 0
-463 267 0
-463 305 0
-267 -305 463 0
-464 268 0
-464 313 0
-268 -313 464 0
-77 -458 0
-77 -459 0
-77 -460 0
-77 -461 0
-77 -462 0
-77 -463 0
-77 -464 0
-264 77 458 459 460 461 462 463 464 0
-95 265 0
-465 261 0
-465 254 0
-261 -254 465 0
-466 262 0
-466 253 0
-262 -253 466 0
-467 263 0
-467 273 0
-263 -273 467 0
-468 264 0
-468 281 0
-264 -281 468 0
-469 266 0
-469 298 0
-266 -298 469 0
-470 267 0
-470 306 0
-267 -306 470 0
-471 268 0
-471 314 0
-268 -314 471 0
-95 -465 0
-95 -466 0
-95 -467 0
-95 -468 0
-95 -469 0
-95 -470 0
-95 -471 0
-265 95 465 466 467 468 469 470 471 0
-113 266 0
-472 261 0
-472 256 0
-261 -256 472 0
-473 262 0
-473 255 0
-262 -255 473 0
-474 263 0
-474 274 0
-263 -274 474 0
-475 264 0
-475 282 0
-264 -282 475 0
-476 265 0
-476 290 0
-265 -290 476 0
-477 267 0
-477 307 0
-267 -307 477 0
-478 268 0
-478 315 0
-268 -315 478 0
-113 -472 0
-113 -473 0
-113 -474 0
-113 -475 0
-113 -476 0
-113 -477 0
-113 -478 0
-266 113 472 473 474 475 476 477 478 0
-131 267 0
-479 261 0
-479 258 0
-261 -258 479 0
-480 262 0
-480 257 0
-262 -257 480 0
-481 263 0
-481 275 0
-263 -275 481 0
-482 264 0
-482 283 0
-264 -283 482 0
-483 265 0
-483 291 0
-265 -291 483 0
-484 266 0
-484 299 0
-266 -299 484 0
-485 268 0
-485 316 0
-268 -316 485 0
-131 -479 0
-131 -480 0
-131 -481 0
-131 -482 0
-131 -483 0
-131 -484 0
-131 -485 0
-267 131 479 480 481 482 483 484 485 0
-149 268 0
-486 261 0
-486 260 0
-261 -260 486 0
-487 262 0
-487 259 0
-262 -259 487 0
-488 263 0
-488 276 0
-263 -276 488 0
-489 264 0
-489 284 0
-264 -284 489 0
-490 265 0
-490 292 0
-265 -292 490 0
-491 266 0
-491 300 0
-266 -300 491 0
-492 267 0
-492 308 0
-267 -308 492 0
-149 -486 0
-149 -487 0
-149 -488 0
-149 -489 0
-149 -490 0
-149 -491 0
-149 -492 0
-268 149 486 487 488 489 490 491 492 0
-7 269 0
-493 270 0
-493 246 0
-270 -246 493 0
-494 271 0
-494 261 0
-271 -261 494 0
-495 272 0
-495 277 0
-272 -277 495 0
-496 273 0
-496 285 0
-273 -285 496 0
-497 274 0
-497 293 0
-274 -293 497 0
-498 275 0
-498 301 0
-275 -301 498 0
-499 276 0
-499 309 0
-276 -309 499 0
-7 -493 0
-7 -494 0
-7 -495 0
-7 -496 0
-7 -497 0
-7 -498 0
-7 -499 0
-269 7 493 494 495 496 497 498 499 0
-25 270 0
-500 269 0
-500 245 0
-269 -245 500 0
-501 271 0
-501 262 0
-271 -262 501 0
-502 272 0
-502 278 0
-272 -278 502 0
-503 273 0
-503 286 0
-273 -286 503 0
-504 274 0
-504 294 0
-274 -294 504 0
-505 275 0
-505 302 0
-275 -302 505 0
-506 276 0
-506 310 0
-276 -310 506 0
-25 -500 0
-25 -501 0
-25 -502 0
-25 -503 0
-25 -504 0
-25 -505 0
-25 -506 0
-270 25 500 501 502 503 504 505 506 0
-43 271 0
-507 269 0
-507 248 0
-269 -248 507 0
-508 270 0
-508 247 0
-270 -247 508 0
-509 272 0
-509 279 0
-272 -279 509 0
-510 273 0
-510 287 0
-273 -287 510 0
-511 274 0
-511 295 0
-274 -295 511 0
-512 275 0
-512 303 0
-275 -303 512 0
-513 276 0
-513 311 0
-276 -311 513 0
-43 -507 0
-43 -508 0
-43 -509 0
-43 -510 0
-43 -511 0
-43 -512 0
-43 -513 0
-271 43 507 508 509 510 511 512 513 0
-61 0
-79 272 0
-514 269 0
-514 252 0
-269 -252 514 0
-515 270 0
-515 251 0
-270 -251 515 0
-516 271 0
-516 264 0
-271 -264 516 0
-517 273 0
-517 289 0
-273 -289 517 0
-518 274 0
-518 297 0
-274 -297 518 0
-519 275 0
-519 305 0
-275 -305 519 0
-520 276 0
-520 313 0
-276 -313 520 0
-79 -514 0
-79 -515 0
-79 -516 0
-79 -517 0
-79 -518 0
-79 -519 0
-79 -520 0
-272 79 514 515 516 517 518 519 520 0
-97 273 0
-521 269 0
-521 254 0
-269 -254 521 0
-522 270 0
-522 253 0
-270 -253 522 0
-523 271 0
-523 265 0
-271 -265 523 0
-524 272 0
-524 281 0
-272 -281 524 0
-525 274 0
-525 298 0
-274 -298 525 0
-526 275 0
-526 306 0
-275 -306 526 0
-527 276 0
-527 314 0
-276 -314 527 0
-97 -521 0
-97 -522 0
-97 -523 0
-97 -524 0
-97 -525 0
-97 -526 0
-97 -527 0
-273 97 521 522 523 524 525 526 527 0
-115 274 0
-528 269 0
-528 256 0
-269 -256 528 0
-529 270 0
-529 255 0
-270 -255 529 0
-530 271 0
-530 266 0
-271 -266 530 0
-531 272 0
-531 282 0
-272 -282 531 0
-532 273 0
-532 290 0
-273 -290 532 0
-533 275 0
-533 307 0
-275 -307 533 0
-534 276 0
-534 315 0
-276 -315 534 0
-115 -528 0
-115 -529 0
-115 -530 0
-115 -531 0
-115 -532 0
-115 -533 0
-115 -534 0
-274 115 528 529 530 531 532 533 534 0
-133 275 0
-535 269 0
-535 258 0
-269 -258 535 0
-536 270 0
-536 257 0
-270 -257 536 0
-537 271 0
-537 267 0
-271 -267 537 0
-538 272 0
-538 283 0
-272 -283 538 0
-539 273 0
-539 291 0
-273 -291 539 0
-540 274 0
-540 299 0
-274 -299 540 0
-541 276 0
-541 316 0
-276 -316 541 0
-133 -535 0
-133 -536 0
-133 -537 0
-133 -538 0
-133 -539 0
-133 -540 0
-133 -541 0
-275 133 535 536 537 538 539 540 541 0
-151 276 0
-542 269 0
-542 260 0
-269 -260 542 0
-543 270 0
-543 259 0
-270 -259 543 0
-544 271 0
-544 268 0
-271 -268 544 0
-545 272 0
-545 284 0
-272 -284 545 0
-546 273 0
-546 292 0
-273 -292 546 0
-547 274 0
-547 300 0
-274 -300 547 0
-548 275 0
-548 308 0
-275 -308 548 0
-151 -542 0
-151 -543 0
-151 -544 0
-151 -545 0
-151 -546 0
-151 -547 0
-151 -548 0
-276 151 542 543 544 545 546 547 548 0
-9 277 0
-549 278 0
-549 246 0
-278 -246 549 0
-550 279 0
-550 261 0
-279 -261 550 0
-551 280 0
-551 269 0
-280 -269 551 0
-552 281 0
-552 285 0
-281 -285 552 0
-553 282 0
-553 293 0
-282 -293 553 0
-554 283 0
-554 301 0
-283 -301 554 0
-555 284 0
-555 309 0
-284 -309 555 0
-9 -549 0
-9 -550 0
-9 -551 0
-9 -552 0
-9 -553 0
-9 -554 0
-9 -555 0
-277 9 549 550 551 552 553 554 555 0
-27 278 0
-556 277 0
-556 245 0
-277 -245 556 0
-557 279 0
-557 262 0
-279 -262 557 0
-558 280 0
-558 270 0
-280 -270 558 0
-559 281 0
-559 286 0
-281 -286 559 0
-560 282 0
-560 294 0
-282 -294 560 0
-561 283 0
-561 302 0
-283 -302 561 0
-562 284 0
-562 310 0
-284 -310 562 0
-27 -556 0
-27 -557 0
-27 -558 0
-27 -559 0
-27 -560 0
-27 -561 0
-27 -562 0
-278 27 556 557 558 559 560 561 562 0
-45 279 0
-563 277 0
-563 248 0
-277 -248 563 0
-564 278 0
-564 247 0
-278 -247 564 0
-565 280 0
-565 271 0
-280 -271 565 0
-566 281 0
-566 287 0
-281 -287 566 0
-567 282 0
-567 295 0
-282 -295 567 0
-568 283 0
-568 303 0
-283 -303 568 0
-569 284 0
-569 311 0
-284 -311 569 0
-45 -563 0
-45 -564 0
-45 -565 0
-45 -566 0
-45 -567 0
-45 -568 0
-45 -569 0
-279 45 563 564 565 566 567 568 569 0
-63 280 0
-570 277 0
-570 250 0
-277 -250 570 0
-571 278 0
-571 249 0
-278 -249 571 0
-572 279 0
-572 263 0
-279 -263 572 0
-573 281 0
-573 288 0
-281 -288 573 0
-574 282 0
-574 296 0
-282 -296 574 0
-575 283 0
-575 304 0
-283 -304 575 0
-576 284 0
-576 312 0
-284 -312 576 0
-63 -570 0
-63 -571 0
-63 -572 0
-63 -573 0
-63 -574 0
-63 -575 0
-63 -576 0
-280 63 570 571 572 573 574 575 576 0
-81 0
-99 281 0
-577 277 0
-577 254 0
-277 -254 577 0
-578 278 0
-578 253 0
-278 -253 578 0
-579 279 0
-579 265 0
-279 -265 579 0
-580 280 0
-580 273 0
-280 -273 580 0
-581 282 0
-581 298 0
-282 -298 581 0
-582 283 0
-582 306 0
-283 -306 582 0
-583 284 0
-583 314 0
-284 -314 583 0
-99 -577 0
-99 -578 0
-99 -579 0
-99 -580 0
-99 -581 0
-99 -582 0
-99 -583 0
-281 99 577 578 579 580 581 582 583 0
-117 282 0
-584 277 0
-584 256 0
-277 -256 584 0
-585 278 0
-585 255 0
-278 -255 585 0
-586 279 0
-586 266 0
-279 -266 586 0
-587 280 0
-587 274 0
-280 -274 587 0
-588 281 0
-588 290 0
-281 -290 588 0
-589 283 0
-589 307 0
-283 -307 589 0
-590 284 0
-590 315 0
-284 -315 590 0
-117 -584 0
-117 -585 0
-117 -586 0
-117 -587 0
-117 -588 0
-117 -589 0
-117 -590 0
-282 117 584 585 586 587 588 589 590 0
-135 283 0
-591 277 0
-591 258 0
-277 -258 591 0
-592 278 0
-592 257 0
-278 -257 592 0
-593 279 0
-593 267 0
-279 -267 593 0
-594 280 0
-594 275 0
-280 -275 594 0
-595 281 0
-595 291 0
-281 -291 595 0
-596 282 0
-596 299 0
-282 -299 596 0
-597 284 0
-597 316 0
-284 -316 597 0
-135 -591 0
-135 -592 0
-135 -593 0
-135 -594 0
-135 -595 0
-135 -596 0
-135 -597 0
-283 135 591 592 593 594 595 596 597 0
-153 284 0
-598 277 0
-598 260 0
-277 -260 598 0
-599 278 0
-599 259 0
-278 -259 599 0
-600 279 0
-600 268 0
-279 -268 600 0
-601 280 0
-601 276 0
-280 -276 601 0
-602 281 0
-602 292 0
-281 -292 602 0
-603 282 0
-603 300 0
-282 -300 603 0
-604 283 0
-604 308 0
-283 -308 604 0
-153 -598 0
-153 -599 0
-153 -600 0
-153 -601 0
-153 -602 0
-153 -603 0
-153 -604 0
-284 153 598 599 600 601 602 603 604 0
-11 285 0
-605 286 0
-605 246 0
-286 -246 605 0
-606 287 0
-606 261 0
-287 -261 606 0
-607 288 0
-607 269 0
-288 -269 607 0
-608 289 0
-608 277 0
-289 -277 608 0
-609 290 0
-609 293 0
-290 -293 609 0
-610 291 0
-610 301 0
-291 -301 610 0
-611 292 0
-611 309 0
-292 -309 611 0
-11 -605 0
-11 -606 0
-11 -607 0
-11 -608 0
-11 -609 0
-11 -610 0
-11 -611 0
-285 11 605 606 607 608 609 610 611 0
-29 286 0
-612 285 0
-612 245 0
-285 -245 612 0
-613 287 0
-613 262 0
-287 -262 613 0
-614 288 0
-614 270 0
-288 -270 614 0
-615 289 0
-615 278 0
-289 -278 615 0
-616 290 0
-616 294 0
-290 -294 616 0
-617 291 0
-617 302 0
-291 -302 617 0
-618 292 0
-618 310 0
-292 -310 618 0
-29 -612 0
-29 -613 0
-29 -614 0
-29 -615 0
-29 -616 0
-29 -617 0
-29 -618 0
-286 29 612 613 614 615 616 617 618 0
-47 287 0
-619 285 0
-619 248 0
-285 -248 619 0
-620 286 0
-620 247 0
-286 -247 620 0
-621 288 0
-621 271 0
-288 -271 621 0
-622 289 0
-622 279 0
-289 -279 622 0
-623 290 0
-623 295 0
-290 -295 623 0
-624 291 0
-624 303 0
-291 -303 624 0
-625 292 0
-625 311 0
-292 -311 625 0
-47 -619 0
-47 -620 0
-47 -621 0
-47 -622 0
-47 -623 0
-47 -624 0
-47 -625 0
-287 47 619 620 621 622 623 624 625 0
-65 288 0
-626 285 0
-626 250 0
-285 -250 626 0
-627 286 0
-627 249 0
-286 -249 627 0
-628 287 0
-628 263 0
-287 -263 628 0
-629 289 0
-629 280 0
-289 -280 629 0
-630 290 0
-630 296 0
-290 -296 630 0
-631 291 0
-631 304 0
-291 -304 631 0
-632 292 0
-632 312 0
-292 -312 632 0
-65 -626 0
-65 -627 0
-65 -628 0
-65 -629 0
-65 -630 0
-65 -631 0
-65 -632 0
-288 65 626 627 628 629 630 631 632 0
-83 289 0
-633 285 0
-633 252 0
-285 -252 633 0
-634 286 0
-634 251 0
-286 -251 634 0
-635 287 0
-635 264 0
-287 -264 635 0
-636 288 0
-636 272 0
-288 -272 636 0
-637 290 0
-637 297 0
-290 -297 637 0
-638 291 0
-638 305 0
-291 -305 638 0
-639 292 0
-639 313 0
-292 -313 639 0
-83 -633 0
-83 -634 0
-83 -635 0
-83 -636 0
-83 -637 0
-83 -638 0
-83 -639 0
-289 83 633 634 635 636 637 638 639 0
-101 0
-119 290 0
-640 285 0
-640 256 0
-285 -256 640 0
-641 286 0
-641 255 0
-286 -255 641 0
-642 287 0
-642 266 0
-287 -266 642 0
-643 288 0
-643 274 0
-288 -274 643 0
-644 289 0
-644 282 0
-289 -282 644 0
-645 291 0
-645 307 0
-291 -307 645 0
-646 292 0
-646 315 0
-292 -315 646 0
-119 -640 0
-119 -641 0
-119 -642 0
-119 -643 0
-119 -644 0
-119 -645 0
-119 -646 0
-290 119 640 641 642 643 644 645 646 0
-137 291 0
-647 285 0
-647 258 0
-285 -258 647 0
-648 286 0
-648 257 0
-286 -257 648 0
-649 287 0
-649 267 0
-287 -267 649 0
-650 288 0
-650 275 0
-288 -275 650 0
-651 289 0
-651 283 0
-289 -283 651 0
-652 290 0
-652 299 0
-290 -299 652 0
-653 292 0
-653 316 0
-292 -316 653 0
-137 -647 0
-137 -648 0
-137 -649 0
-137 -650 0
-137 -651 0
-137 -652 0
-137 -653 0
-291 137 647 648 649 650 651 652 653 0
-155 292 0
-654 285 0
-654 260 0
-285 -260 654 0
-655 286 0
-655 259 0
-286 -259 655 0
-656 287 0
-656 268 0
-287 -268 656 0
-657 288 0
-657 276 0
-288 -276 657 0
-658 289 0
-658 284 0
-289 -284 658 0
-659 290 0
-659 300 0
-290 -300 659 0
-660 291 0
-660 308 0
-291 -308 660 0
-155 -654 0
-155 -655 0
-155 -656 0
-155 -657 0
-155 -658 0
-155 -659 0
-155 -660 0
-292 155 654 655 656 657 658 659 660 0
-13 293 0
-661 294 0
-661 246 0
-294 -246 661 0
-662 295 0
-662 261 0
-295 -261 662 0
-663 296 0
-663 269 0
-296 -269 663 0
-664 297 0
-664 277 0
-297 -277 664 0
-665 298 0
-665 285 0
-298 -285 665 0
-666 299 0
-666 301 0
-299 -301 666 0
-667 300 0
-667 309 0
-300 -309 667 0
-13 -661 0
-13 -662 0
-13 -663 0
-13 -664 0
-13 -665 0
-13 -666 0
-13 -667 0
-293 13 661 662 663 664 665 666 667 0
-31 294 0
-668 293 0
-668 245 0
-293 -245 668 0
-669 295 0
-669 262 0
-295 -262 669 0
-670 296 0
-670 270 0
-296 -270 670 0
-671 297 0
-671 278 0
-297 -278 671 0
-672 298 0
-672 286 0
-298 -286 672 0
-673 299 0
-673 302 0
-299 -302 673 0
-674 300 0
-674 310 0
-300 -310 674 0
-31 -668 0
-31 -669 0
-31 -670 0
-31 -671 0
-31 -672 0
-31 -673 0
-31 -674 0
-294 31 668 669 670 671 672 673 674 0
-49 295 0
-675 293 0
-675 248 0
-293 -248 675 0
-676 294 0
-676 247 0
-294 -247 676 0
-677 296 0
-677 271 0
-296 -271 677 0
-678 297 0
-678 279 0
-297 -279 678 0
-679 298 0
-679 287 0
-298 -287 679 0
-680 299 0
-680 303 0
-299 -303 680 0
-681 300 0
-681 311 0
-300 -311 681 0
-49 -675 0
-49 -676 0
-49 -677 0
-49 -678 0
-49 -679 0
-49 -680 0
-49 -681 0
-295 49 675 676 677 678 679 680 681 0
-67 296 0
-682 293 0
-682 250 0
-293 -250 682 0
-683 294 0
-683 249 0
-294 -249 683 0
-684 295 0
-684 263 0
-295 -263 684 0
-685 297 0
-685 280 0
-297 -280 685 0
-686 298 0
-686 288 0
-298 -288 686 0
-687 299 0
-687 304 0
-299 -304 687 0
-688 300 0
-688 312 0
-300 -312 688 0
-67 -682 0
-67 -683 0
-67 -684 0
-67 -685 0
-67 -686 0
-67 -687 0
-67 -688 0
-296 67 682 683 684 685 686 687 688 0
-85 297 0
-689 293 0
-689 252 0
-293 -252 689 0
-690 294 0
-690 251 0
-294 -251 690 0
-691 295 0
-691 264 0
-295 -264 691 0
-692 296 0
-692 272 0
-296 -272 692 0
-693 298 0
-693 289 0
-298 -289 693 0
-694 299 0
-694 305 0
-299 -305 694 0
-695 300 0
-695 313 0
-300 -313 695 0
-85 -689 0
-85 -690 0
-85 -691 0
-85 -692 0
-85 -693 0
-85 -694 0
-85 -695 0
-297 85 689 690 691 692 693 694 695 0
-103 298 0
-696 293 0
-696 254 0
-293 -254 696 0
-697 294 0
-697 253 0
-294 -253 697 0
-698 295 0
-698 265 0
-295 -265 698 0
-699 296 0
-699 273 0
-296 -273 699 0
-700 297 0
-700 281 0
-297 -281 700 0
-701 299 0
-701 306 0
-299 -306 701 0
-702 300 0
-702 314 0
-300 -314 702 0
-103 -696 0
-103 -697 0
-103 -698 0
-103 -699 0
-103 -700 0
-103 -701 0
-103 -702 0
-298 103 696 697 698 699 700 701 702 0
-121 0
-139 299 0
-703 293 0
-703 258 0
-293 -258 703 0
-704 294 0
-704 257 0
-294 -257 704 0
-705 295 0
-705 267 0
-295 -267 705 0
-706 296 0
-706 275 0
-296 -275 706 0
-707 297 0
-707 283 0
-297 -283 707 0
-708 298 0
-708 291 0
-298 -291 708 0
-709 300 0
-709 316 0
-300 -316 709 0
-139 -703 0
-139 -704 0
-139 -705 0
-139 -706 0
-139 -707 0
-139 -708 0
-139 -709 0
-299 139 703 704 705 706 707 708 709 0
-157 300 0
-710 293 0
-710 260 0
-293 -260 710 0
-711 294 0
-711 259 0
-294 -259 711 0
-712 295 0
-712 268 0
-295 -268 712 0
-713 296 0
-713 276 0
-296 -276 713 0
-714 297 0
-714 284 0
-297 -284 714 0
-715 298 0
-715 292 0
-298 -292 715 0
-716 299 0
-716 308 0
-299 -308 716 0
-157 -710 0
-157 -711 0
-157 -712 0
-157 -713 0
-157 -714 0
-157 -715 0
-157 -716 0
-300 157 710 711 712 713 714 715 716 0
-15 301 0
-717 302 0
-717 246 0
-302 -246 717 0
-718 303 0
-718 261 0
-303 -261 718 0
-719 304 0
-719 269 0
-304 -269 719 0
-720 305 0
-720 277 0
-305 -277 720 0
-721 306 0
-721 285 0
-306 -285 721 0
-722 307 0
-722 293 0
-307 -293 722 0
-723 308 0
-723 309 0
-308 -309 723 0
-15 -717 0
-15 -718 0
-15 -719 0
-15 -720 0
-15 -721 0
-15 -722 0
-15 -723 0
-301 15 717 718 719 720 721 722 723 0
-33 302 0
-724 301 0
-724 245 0
-301 -245 724 0
-725 303 0
-725 262 0
-303 -262 725 0
-726 304 0
-726 270 0
-304 -270 726 0
-727 305 0
-727 278 0
-305 -278 727 0
-728 306 0
-728 286 0
-306 -286 728 0
-729 307 0
-729 294 0
-307 -294 729 0
-730 308 0
-730 310 0
-308 -310 730 0
-33 -724 0
-33 -725 0
-33 -726 0
-33 -727 0
-33 -728 0
-33 -729 0
-33 -730 0
-302 33 724 725 726 727 728 729 730 0
-51 303 0
-731 301 0
-731 248 0
-301 -248 731 0
-732 302 0
-732 247 0
-302 -247 732 0
-733 304 0
-733 271 0
-304 -271 733 0
-734 305 0
-734 279 0
-305 -279 734 0
-735 306 0
-735 287 0
-306 -287 735 0
-736 307 0
-736 295 0
-307 -295 736 0
-737 308 0
-737 311 0
-308 -311 737 0
-51 -731 0
-51 -732 0
-51 -733 0
-51 -734 0
-51 -735 0
-51 -736 0
-51 -737 0
-303 51 731 732 733 734 735 736 737 0
-69 304 0
-738 301 0
-738 250 0
-301 -250 738 0
-739 302 0
-739 249 0
-302 -249 739 0
-740 303 0
-740 263 0
-303 -263 740 0
-741 305 0
-741 280 0
-305 -280 741 0
-742 306 0
-742 288 0
-306 -288 742 0
-743 307 0
-743 296 0
-307 -296 743 0
-744 308 0
-744 312 0
-308 -312 744 0
-69 -738 0
-69 -739 0
-69 -740 0
-69 -741 0
-69 -742 0
-69 -743 0
-69 -744 0
-304 69 738 739 740 741 742 743 744 0
-87 305 0
-745 301 0
-745 252 0
-301 -252 745 0
-746 302 0
-746 251 0
-302 -251 746 0
-747 303 0
-747 264 0
-303 -264 747 0
-748 304 0
-748 272 0
-304 -272 748 0
-749 306 0
-749 289 0
-306 -289 749 0
-750 307 0
-750 297 0
-307 -297 750 0
-751 308 0
-751 313 0
-308 -313 751 0
-87 -745 0
-87 -746 0
-87 -747 0
-87 -748 0
-87 -749 0
-87 -750 0
-87 -751 0
-305 87 745 746 747 748 749 750 751 0
-105 306 0
-752 301 0
-752 254 0
-301 -254 752 0
-753 302 0
-753 253 0
-302 -253 753 0
-754 303 0
-754 265 0
-303 -265 754 0
-755 304 0
-755 273 0
-304 -273 755 0
-756 305 0
-756 281 0
-305 -281 756 0
-757 307 0
-757 298 0
-307 -298 757 0
-758 308 0
-758 314 0
-308 -314 758 0
-105 -752 0
-105 -753 0
-105 -754 0
-105 -755 0
-105 -756 0
-105 -757 0
-105 -758 0
-306 105 752 753 754 755 756 757 758 0
-123 307 0
-759 301 0
-759 256 0
-301 -256 759 0
-760 302 0
-760 255 0
-302 -255 760 0
-761 303 0
-761 266 0
-303 -266 761 0
-762 304 0
-762 274 0
-304 -274 762 0
-763 305 0
-763 282 0
-305 -282 763 0
-764 306 0
-764 290 0
-306 -290 764 0
-765 308 0
-765 315 0
-308 -315 765 0
-123 -759 0
-123 -760 0
-123 -761 0
-123 -762 0
-123 -763 0
-123 -764 0
-123 -765 0
-307 123 759 760 761 762 763 764 765 0
-141 0
-159 308 0
-766 301 0
-766 260 0
-301 -260 766 0
-767 302 0
-767 259 0
-302 -259 767 0
-768 303 0
-768 268 0
-303 -268 768 0
-769 304 0
-769 276 0
-304 -276 769 0
-770 305 0
-770 284 0
-305 -284 770 0
-771 306 0
-771 292 0
-306 -292 771 0
-772 307 0
-772 300 0
-307 -300 772 0
-159 -766 0
-159 -767 0
-159 -768 0
-159 -769 0
-159 -770 0
-159 -771 0
-159 -772 0
-308 159 766 767 768 769 770 771 772 0
-17 309 0
-773 310 0
-773 246 0
-310 -246 773 0
-774 311 0
-774 261 0
-311 -261 774 0
-775 312 0
-775 269 0
-312 -269 775 0
-776 313 0
-776 277 0
-313 -277 776 0
-777 314 0
-777 285 0
-314 -285 777 0
-778 315 0
-778 293 0
-315 -293 778 0
-779 316 0
-779 301 0
-316 -301 779 0
-17 -773 0
-17 -774 0
-17 -775 0
-17 -776 0
-17 -777 0
-17 -778 0
-17 -779 0
-309 17 773 774 775 776 777 778 779 0
-35 310 0
-780 309 0
-780 245 0
-309 -245 780 0
-781 311 0
-781 262 0
-311 -262 781 0
-782 312 0
-782 270 0
-312 -270 782 0
-783 313 0
-783 278 0
-313 -278 783 0
-784 314 0
-784 286 0
-314 -286 784 0
-785 315 0
-785 294 0
-315 -294 785 0
-786 316 0
-786 302 0
-316 -302 786 0
-35 -780 0
-35 -781 0
-35 -782 0
-35 -783 0
-35 -784 0
-35 -785 0
-35 -786 0
-310 35 780 781 782 783 784 785 786 0
-53 311 0
-787 309 0
-787 248 0
-309 -248 787 0
-788 310 0
-788 247 0
-310 -247 788 0
-789 312 0
-789 271 0
-312 -271 789 0
-790 313 0
-790 279 0
-313 -279 790 0
-791 314 0
-791 287 0
-314 -287 791 0
-792 315 0
-792 295 0
-315 -295 792 0
-793 316 0
-793 303 0
-316 -303 793 0
-53 -787 0
-53 -788 0
-53 -789 0
-53 -790 0
-53 -791 0
-53 -792 0
-53 -793 0
-311 53 787 788 789 790 791 792 793 0
-71 312 0
-794 309 0
-794 250 0
-309 -250 794 0
-795 310 0
-795 249 0
-310 -249 795 0
-796 311 0
-796 263 0
-311 -263 796 0
-797 313 0
-797 280 0
-313 -280 797 0
-798 314 0
-798 288 0
-314 -288 798 0
-799 315 0
-799 296 0
-315 -296 799 0
-800 316 0
-800 304 0
-316 -304 800 0
-71 -794 0
-71 -795 0
-71 -796 0
-71 -797 0
-71 -798 0
-71 -799 0
-71 -800 0
-312 71 794 795 796 797 798 799 800 0
-89 313 0
-801 309 0
-801 252 0
-309 -252 801 0
-802 310 0
-802 251 0
-310 -251 802 0
-803 311 0
-803 264 0
-311 -264 803 0
-804 312 0
-804 272 0
-312 -272 804 0
-805 314 0
-805 289 0
-314 -289 805 0
-806 315 0
-806 297 0
-315 -297 806 0
-807 316 0
-807 305 0
-316 -305 807 0
-89 -801 0
-89 -802 0
-89 -803 0
-89 -804 0
-89 -805 0
-89 -806 0
-89 -807 0
-313 89 801 802 803 804 805 806 807 0
-107 314 0
-808 309 0
-808 254 0
-309 -254 808 0
-809 310 0
-809 253 0
-310 -253 809 0
-810 311 0
-810 265 0
-311 -265 810 0
-811 312 0
-811 273 0
-312 -273 811 0
-812 313 0
-812 281 0
-313 -281 812 0
-813 315 0
-813 298 0
-315 -298 813 0
-814 316 0
-814 306 0
-316 -306 814 0
-107 -808 0
-107 -809 0
-107 -810 0
-107 -811 0
-107 -812 0
-107 -813 0
-107 -814 0
-314 107 808 809 810 811 812 813 814 0
-125 315 0
-815 309 0
-815 256 0
-309 -256 815 0
-816 310 0
-816 255 0
-310 -255 816 0
-817 311 0
-817 266 0
-311 -266 817 0
-818 312 0
-818 274 0
-312 -274 818 0
-819 313 0
-819 282 0
-313 -282 819 0
-820 314 0
-820 290 0
-314 -290 820 0
-821 316 0
-821 307 0
-316 -307 821 0
-125 -815 0
-125 -816 0
-125 -817 0
-125 -818 0
-125 -819 0
-125 -820 0
-125 -821 0
-315 125 815 816 817 818 819 820 821 0
-143 316 0
-822 309 0
-822 258 0
-309 -258 822 0
-823 310 0
-823 257 0
-310 -257 823 0
-824 311 0
-824 267 0
-311 -267 824 0
-825 312 0
-825 275 0
-312 -275 825 0
-826 313 0
-826 283 0
-313 -283 826 0
-827 314 0
-827 291 0
-314 -291 827 0
-828 315 0
-828 299 0
-315 -299 828 0
-143 -822 0
-143 -823 0
-143 -824 0
-143 -825 0
-143 -826 0
-143 -827 0
-143 -828 0
-316 143 822 823 824 825 826 827 828 0
-161 0
