c p_line_PRED(c_student3,c_student3) p_line_NEXT_TO(c_student3,c_student3) p_entity_student0(c_student3) LEQ(c_student3,c_student3) p_entity_student1(c_student3) p_set_students(c_student3) PRED1(c_student3,c_student3) PRED1(c_student0,c_student3) LEQ(c_student0,c_student3) LEQ(c_student3,c_student0) p_line_NEXT_TO(c_student0,c_student3) p_set_students(c_student0) PRED1(c_student3,c_student0) p_entity_student1(c_student0) p_line_PRED(c_student0,c_student3) p_line_PRED(c_student3,c_student0) p_line_NEXT_TO(c_student3,c_student0) p_entity_student0(c_student0) PRED1(c_student1,c_student3) p_entity_student1(c_student1) p_set_students(c_student1) p_entity_student0(c_student1) p_line_NEXT_TO(c_student3,c_student1) p_line_NEXT_TO(c_student1,c_student3) LEQ(c_student3,c_student1) p_line_PRED(c_student3,c_student1) LEQ(c_student1,c_student3) p_line_PRED(c_student1,c_student3) PRED1(c_student3,c_student1) p_line_PRED(c_student3,c_student2) p_line_NEXT_TO(c_student2,c_student3) p_entity_student1(c_student2) PRED1(c_student3,c_student2) p_set_students(c_student2) LEQ(c_student3,c_student2) LEQ(c_student2,c_student3) p_line_PRED(c_student2,c_student3) p_line_NEXT_TO(c_student3,c_student2) PRED1(c_student2,c_student3) p_entity_student0(c_student2) p_line_PRED(c_student0,c_student0) LEQ(c_student0,c_student0) p_line_NEXT_TO(c_student0,c_student0) PRED1(c_student0,c_student0) p_line_PRED(c_student0,c_student1) p_line_NEXT_TO(c_student0,c_student1) PRED1(c_student1,c_student0) p_line_PRED(c_student1,c_student0) LEQ(c_student1,c_student0) LEQ(c_student0,c_student1) PRED1(c_student0,c_student1) p_line_NEXT_TO(c_student1,c_student0) PRED1(c_student0,c_student2) p_line_NEXT_TO(c_student0,c_student2) p_line_NEXT_TO(c_student2,c_student0) LEQ(c_student2,c_student0) p_line_PRED(c_student2,c_student0) PRED1(c_student2,c_student0) LEQ(c_student0,c_student2) p_line_PRED(c_student0,c_student2) PRED1(c_student1,c_student1) LEQ(c_student1,c_student1) p_line_PRED(c_student1,c_student1) p_line_NEXT_TO(c_student1,c_student1) p_line_NEXT_TO(c_student1,c_student2) PRED1(c_student2,c_student1) p_line_NEXT_TO(c_student2,c_student1) p_line_PRED(c_student2,c_student1) LEQ(c_student2,c_student1) p_line_PRED(c_student1,c_student2) LEQ(c_student1,c_student2) PRED1(c_student1,c_student2) p_line_NEXT_TO(c_student2,c_student2) PRED1(c_student2,c_student2) LEQ(c_student2,c_student2) p_line_PRED(c_student2,c_student2)
c 1 2 3 4 5 6 7 8 9 10 11 12 13 14 15 16 17 18 19 20 21 22 23 24 25 26 27 28 29 30 31 32 33 34 35 36 37 38 39 40 41 42 43 44 45 46 47 48 49 50 51 52 53 54 55 56 57 58 59 60 61 62 63 64 65 66 67 68 69 70 71 72 73 74 75 76
p cnf 76 280
44 -41 0
51 -45 0
53 -60 0
8 -15 0
47 -48 0
61 -63 0
72 -70 0
19 -28 0
58 -57 0
66 -68 0
74 -76 0
39 -37 0
13 -16 0
29 -26 0
33 -30 0
7 -1 0
43 -41 0
46 -45 0
46 -48 0
54 -60 0
54 -57 0
11 -15 0
11 -16 0
52 -45 0
52 -48 0
64 -63 0
65 -70 0
65 -68 0
24 -28 0
24 -26 0
55 -60 0
55 -57 0
67 -70 0
67 -68 0
73 -76 0
31 -37 0
31 -30 0
17 -15 0
17 -16 0
23 -28 0
23 -26 0
38 -37 0
38 -30 0
2 -1 0
41 -43 0
63 -64 0
76 -73 0
1 -2 0
12 -41 0
12 -45 0
12 -60 0
12 -15 0
12 -48 0
12 -57 0
12 -16 0
21 -45 0
21 -48 0
21 -63 0
21 -70 0
21 -28 0
21 -68 0
21 -26 0
34 -60 0
34 -70 0
34 -57 0
34 -68 0
34 -76 0
34 -37 0
34 -30 0
6 -15 0
6 -28 0
6 -37 0
6 -16 0
6 -26 0
6 -30 0
6 -1 0
42 12 -12 0
50 21 -12 0
59 34 -12 0
9 6 -12 0
49 12 -21 0
62 21 -21 0
71 34 -21 0
27 6 -21 0
56 12 -34 0
69 21 -34 0
75 34 -34 0
36 6 -34 0
10 12 -6 0
25 21 -6 0
35 34 -6 0
4 6 -6 0
45 48 -46 0
45 48 -52 0
60 57 -54 0
60 57 -55 0
15 16 -11 0
15 16 -17 0
70 68 -65 0
70 68 -67 0
28 26 -24 0
28 26 -23 0
37 30 -31 0
37 30 -38 0
41 -44 -12 0
63 -61 -21 0
76 -74 -34 0
1 -7 -6 0
-18 -14 -43 0
-18 -20 -46 0
-18 -32 -54 0
-18 -5 -11 0
-22 -14 -52 0
-22 -20 -64 0
-22 -32 -65 0
-22 -5 -24 0
-40 -14 -55 0
-40 -20 -67 0
-40 -32 -73 0
-40 -5 -31 0
-3 -14 -17 0
-3 -20 -23 0
-3 -32 -38 0
-3 -5 -2 0
45 -51 -12 -21 0
60 -53 -12 -34 0
15 -8 -12 -6 0
48 -47 -12 -21 0
70 -72 -21 -34 0
28 -19 -21 -6 0
57 -58 -12 -34 0
68 -66 -21 -34 0
37 -39 -34 -6 0
16 -13 -12 -6 0
26 -29 -21 -6 0
30 -33 -34 -6 0
-40 0
20 0
21 0
-14 0
34 0
6 0
-22 0
12 0
-32 0
-5 0
-3 0
18 0
42 0
50 49 0
-50 -49 0
-50 -71 59 0
-50 -27 9 0
59 56 0
-59 -56 0
-59 -69 50 0
-59 -36 9 0
9 10 0
-9 -10 0
-9 -25 50 0
-9 -35 59 0
62 0
-49 -59 71 0
-49 -9 27 0
71 69 0
-71 -69 0
-71 -56 49 0
-71 -36 27 0
27 25 0
-27 -25 0
-27 -10 49 0
-27 -35 71 0
75 0
-56 -50 69 0
-56 -9 36 0
-69 -49 56 0
-69 -27 36 0
36 35 0
-36 -35 0
-36 -10 56 0
-36 -25 69 0
4 0
-10 -50 25 0
-10 -59 35 0
-25 -49 10 0
-25 -71 35 0
-35 -56 10 0
-35 -69 25 0
-44 0
-44 42 0
-51 50 0
-53 59 0
-8 9 0
44 47 58 13 -49 0
44 47 58 13 -56 0
44 47 58 13 -10 0
44 51 53 8 -50 0
44 51 53 8 -59 0
44 51 53 8 -9 0
-51 59 -71 0
-51 -59 71 0
-51 9 -27 0
-51 -9 27 0
-53 50 -69 0
-53 -50 69 0
-53 9 -36 0
-53 -9 36 0
-8 50 -25 0
-8 -50 25 0
-8 59 -35 0
-8 -59 35 0
-61 0
-47 49 0
-61 62 0
-72 71 0
-19 27 0
51 61 66 29 -50 0
51 61 66 29 -69 0
51 61 66 29 -25 0
47 61 72 19 -49 0
47 61 72 19 -71 0
47 61 72 19 -27 0
-47 71 -59 0
-47 -71 59 0
-47 27 -9 0
-47 -27 9 0
-72 49 -56 0
-72 -49 56 0
-72 27 -36 0
-72 -27 36 0
-19 49 -10 0
-19 -49 10 0
-19 71 -35 0
-19 -71 35 0
-74 0
-58 56 0
-66 69 0
-74 75 0
-39 36 0
53 72 74 33 -59 0
53 72 74 33 -71 0
53 72 74 33 -35 0
58 66 74 39 -56 0
58 66 74 39 -69 0
58 66 74 39 -36 0
-58 69 -50 0
-58 -69 50 0
-58 36 -9 0
-58 -36 9 0
-66 56 -49 0
-66 -56 49 0
-66 36 -27 0
-66 -36 27 0
-39 56 -10 0
-39 -56 10 0
-39 69 -25 0
-39 -69 25 0
-7 0
-13 10 0
-29 25 0
-33 35 0
-7 4 0
8 19 39 7 -9 0
8 19 39 7 -27 0
8 19 39 7 -36 0
13 29 33 7 -10 0
13 29 33 7 -25 0
13 29 33 7 -35 0
-13 25 -50 0
-13 -25 50 0
-13 35 -59 0
-13 -35 59 0
-29 10 -49 0
-29 -10 49 0
-29 35 -71 0
-29 -35 71 0
-33 10 -56 0
-33 -10 56 0
-33 25 -69 0
-33 -25 69 0
